ODB Name,Step,Frame,Part Instance Name,    êﬂì_ÉâÉxÉã,X,Y,Z,Section Name,Material Name,Section Point,   U-Magnitude,          U-U1,          U-U2,       S-Mises
C:/temp/dataset/7/29_4.odb,Step-1,Increment      1: Step Time =    1.000,"PART-1-1",             1,          -15.,           20.,            0.,NA,NA,"",       3.34884,       2.97156,       1.54421,   191.318E-12
C:/temp/dataset/7/29_4.odb,Step-1,Increment      1: Step Time =    1.000,"PART-1-1",             2,          -15.,           25.,            0.,NA,NA,"",       3.63619,       3.29696,       1.53361,   185.524E-12
C:/temp/dataset/7/29_4.odb,Step-1,Increment      1: Step Time =    1.000,"PART-1-1",             3,      -11.6500,           20.,            0.,NA,NA,"",       3.24758,       2.96445,       1.32619,   224.080E-12
C:/temp/dataset/7/29_4.odb,Step-1,Increment      1: Step Time =    1.000,"PART-1-1",             4,      -8.30000,           20.,            0.,NA,NA,"",       3.15816,       2.95735,       1.10816,   243.320E-12
C:/temp/dataset/7/29_4.odb,Step-1,Increment      1: Step Time =    1.000,"PART-1-1",             5,           -5.,           20.,            0.,NA,NA,"",       3.08265,       2.95036,   893.397E-03,   264.570E-12
C:/temp/dataset/7/29_4.odb,Step-1,Increment      1: Step Time =    1.000,"PART-1-1",             6,      -1.65000,           20.,            0.,NA,NA,"",       3.01975,       2.94325,   675.376E-03,   443.053E-12
C:/temp/dataset/7/29_4.odb,Step-1,Increment      1: Step Time =    1.000,"PART-1-1",             7,       1.70000,           20.,            0.,NA,NA,"",       2.97156,       2.93615,   457.355E-03,   2.68882E-09
C:/temp/dataset/7/29_4.odb,Step-1,Increment      1: Step Time =    1.000,"PART-1-1",             8,            5.,           20.,            0.,NA,NA,"",       2.93918,       2.92916,   242.588E-03,   18.5819E-09
C:/temp/dataset/7/29_4.odb,Step-1,Increment      1: Step Time =    1.000,"PART-1-1",             9,            5.,         13.75,            0.,NA,NA,"",       2.53534,       2.52240,   255.839E-03,   645.376E-09
C:/temp/dataset/7/29_4.odb,Step-1,Increment      1: Step Time =    1.000,"PART-1-1",            10,            5.,           7.5,            0.,NA,NA,"",       2.13267,       2.11563,   269.096E-03,   1.39517E-06
C:/temp/dataset/7/29_4.odb,Step-1,Increment      1: Step Time =    1.000,"PART-1-1",            11,            5.,          1.25,            0.,NA,NA,"",       1.73190,       1.70877,   282.131E-03,   146.067E-06
C:/temp/dataset/7/29_4.odb,Step-1,Increment      1: Step Time =    1.000,"PART-1-1",            12,            5.,           -5.,            0.,NA,NA,"",       1.34065,       1.30856,   291.612E-03,   2.13483E-03
C:/temp/dataset/7/29_4.odb,Step-1,Increment      1: Step Time =    1.000,"PART-1-1",            13,            5.,        -11.25,            0.,NA,NA,"",   935.678E-03,   887.192E-03,   297.295E-03,   5.67111E-03
C:/temp/dataset/7/29_4.odb,Step-1,Increment      1: Step Time =    1.000,"PART-1-1",            14,            5.,         -17.5,            0.,NA,NA,"",   539.116E-03,   475.234E-03,   254.556E-03,   14.2604E-03
C:/temp/dataset/7/29_4.odb,Step-1,Increment      1: Step Time =    1.000,"PART-1-1",            15,            5.,        -23.75,            0.,NA,NA,"",   229.302E-03,   167.800E-03,   156.277E-03,   23.4797E-03
C:/temp/dataset/7/29_4.odb,Step-1,Increment      1: Step Time =    1.000,"PART-1-1",            16,            5.,          -30.,            0.,NA,NA,"",            0.,   10.6004E-39,   19.9495E-39,   38.8878E-03
C:/temp/dataset/7/29_4.odb,Step-1,Increment      1: Step Time =    1.000,"PART-1-1",            17,           15.,          -30.,            0.,NA,NA,"",            0.,   10.9156E-39,  -19.6414E-39,   37.6966E-03
C:/temp/dataset/7/29_4.odb,Step-1,Increment      1: Step Time =    1.000,"PART-1-1",            18,           15.,         -22.5,            0.,NA,NA,"",   280.608E-03,   210.566E-03,  -185.480E-03,   21.4449E-03
C:/temp/dataset/7/29_4.odb,Step-1,Increment      1: Step Time =    1.000,"PART-1-1",            19,           15.,          -15.,            0.,NA,NA,"",   683.098E-03,   612.312E-03,  -302.816E-03,   9.97740E-03
C:/temp/dataset/7/29_4.odb,Step-1,Increment      1: Step Time =    1.000,"PART-1-1",            20,           15.,          -7.5,            0.,NA,NA,"",       1.16539,       1.11124,  -351.091E-03,   692.263E-06
C:/temp/dataset/7/29_4.odb,Step-1,Increment      1: Step Time =    1.000,"PART-1-1",            21,           15.,            0.,            0.,NA,NA,"",       1.64756,       1.60635,  -366.197E-03,   194.301E-06
C:/temp/dataset/7/29_4.odb,Step-1,Increment      1: Step Time =    1.000,"PART-1-1",            22,           15.,           7.5,            0.,NA,NA,"",       2.12896,       2.09446,  -381.716E-03,   1.16847E-06
C:/temp/dataset/7/29_4.odb,Step-1,Increment      1: Step Time =    1.000,"PART-1-1",            23,           15.,           15.,            0.,NA,NA,"",       2.61298,       2.58255,  -397.620E-03,   403.817E-09
C:/temp/dataset/7/29_4.odb,Step-1,Increment      1: Step Time =    1.000,"PART-1-1",            24,           15.,          22.5,            0.,NA,NA,"",       3.09838,       3.07066,  -413.521E-03,   3.70565E-09
C:/temp/dataset/7/29_4.odb,Step-1,Increment      1: Step Time =    1.000,"PART-1-1",            25,           15.,           30.,            0.,NA,NA,"",       3.58458,       3.55877,  -429.421E-03,   108.639E-12
C:/temp/dataset/7/29_4.odb,Step-1,Increment      1: Step Time =    1.000,"PART-1-1",            26,         11.25,           30.,            0.,NA,NA,"",       3.57153,       3.56672,  -185.368E-03,   2.32431E-09
C:/temp/dataset/7/29_4.odb,Step-1,Increment      1: Step Time =    1.000,"PART-1-1",            27,           7.5,           30.,            0.,NA,NA,"",       3.57515,       3.57467,   58.6858E-03,   3.46007E-09
C:/temp/dataset/7/29_4.odb,Step-1,Increment      1: Step Time =    1.000,"PART-1-1",            28,          3.75,           30.,            0.,NA,NA,"",       3.59538,       3.58262,   302.739E-03,   1.84537E-09
C:/temp/dataset/7/29_4.odb,Step-1,Increment      1: Step Time =    1.000,"PART-1-1",            29,            0.,           30.,            0.,NA,NA,"",       3.63196,       3.59057,   546.793E-03,   352.137E-12
C:/temp/dataset/7/29_4.odb,Step-1,Increment      1: Step Time =    1.000,"PART-1-1",            30,         -3.75,           30.,            0.,NA,NA,"",       3.68439,       3.59852,   790.846E-03,   173.137E-12
C:/temp/dataset/7/29_4.odb,Step-1,Increment      1: Step Time =    1.000,"PART-1-1",            31,          -7.5,           30.,            0.,NA,NA,"",       3.75201,       3.60647,       1.03490,   166.852E-12
C:/temp/dataset/7/29_4.odb,Step-1,Increment      1: Step Time =    1.000,"PART-1-1",            32,        -11.25,           30.,            0.,NA,NA,"",       3.83402,       3.61442,       1.27895,   165.232E-12
C:/temp/dataset/7/29_4.odb,Step-1,Increment      1: Step Time =    1.000,"PART-1-1",            33,          -15.,           30.,            0.,NA,NA,"",       3.92951,       3.62237,       1.52301,   198.008E-12
C:/temp/dataset/7/29_4.odb,Step-1,Increment      1: Step Time =    1.000,"PART-1-1",            34,          -15.,          22.5,            0.,NA,NA,"",       3.49168,       3.13426,       1.53891,   172.383E-12
C:/temp/dataset/7/29_4.odb,Step-1,Increment      1: Step Time =    1.000,"PART-1-1",            35,            5.,       15.8333,            0.,NA,NA,"",       2.66985,       2.65799,   251.422E-03,   272.632E-09
C:/temp/dataset/7/29_4.odb,Step-1,Increment      1: Step Time =    1.000,"PART-1-1",            36,            5.,       17.9167,            0.,NA,NA,"",       2.80447,       2.79357,   247.005E-03,   97.2822E-09
C:/temp/dataset/7/29_4.odb,Step-1,Increment      1: Step Time =    1.000,"PART-1-1",            37,            5.,       9.58333,            0.,NA,NA,"",       2.26673,       2.25122,   264.678E-03,   1.33383E-06
C:/temp/dataset/7/29_4.odb,Step-1,Increment      1: Step Time =    1.000,"PART-1-1",            38,            5.,       11.6667,            0.,NA,NA,"",       2.40096,       2.38681,   260.258E-03,   1.18745E-06
C:/temp/dataset/7/29_4.odb,Step-1,Increment      1: Step Time =    1.000,"PART-1-1",            39,            5.,       3.33333,            0.,NA,NA,"",       1.86520,       1.84438,   277.872E-03,   49.4065E-06
C:/temp/dataset/7/29_4.odb,Step-1,Increment      1: Step Time =    1.000,"PART-1-1",            40,            5.,       5.41667,            0.,NA,NA,"",       1.99881,       1.98001,   273.505E-03,   13.2475E-06
C:/temp/dataset/7/29_4.odb,Step-1,Increment      1: Step Time =    1.000,"PART-1-1",            41,            5.,      -2.91667,            0.,NA,NA,"",       1.46758,       1.43873,   289.534E-03,   964.418E-06
C:/temp/dataset/7/29_4.odb,Step-1,Increment      1: Step Time =    1.000,"PART-1-1",            42,            5.,  -833.333E-03,            0.,NA,NA,"",       1.59913,       1.57334,   286.084E-03,   334.394E-06
C:/temp/dataset/7/29_4.odb,Step-1,Increment      1: Step Time =    1.000,"PART-1-1",            43,            5.,      -9.16667,            0.,NA,NA,"",       1.07762,       1.03566,   297.786E-03,   4.43954E-03
C:/temp/dataset/7/29_4.odb,Step-1,Increment      1: Step Time =    1.000,"PART-1-1",            44,            5.,      -7.08333,            0.,NA,NA,"",       1.21315,       1.17651,   295.865E-03,   3.85596E-03
C:/temp/dataset/7/29_4.odb,Step-1,Increment      1: Step Time =    1.000,"PART-1-1",            45,            5.,      -15.4167,            0.,NA,NA,"",   662.600E-03,   602.999E-03,   274.647E-03,   11.2883E-03
C:/temp/dataset/7/29_4.odb,Step-1,Increment      1: Step Time =    1.000,"PART-1-1",            46,            5.,      -13.3333,            0.,NA,NA,"",   794.243E-03,   739.917E-03,   288.695E-03,   8.43078E-03
C:/temp/dataset/7/29_4.odb,Step-1,Increment      1: Step Time =    1.000,"PART-1-1",            47,            5.,      -21.6667,            0.,NA,NA,"",   321.478E-03,   255.138E-03,   195.583E-03,   20.4369E-03
C:/temp/dataset/7/29_4.odb,Step-1,Increment      1: Step Time =    1.000,"PART-1-1",            48,            5.,      -19.5833,            0.,NA,NA,"",   425.001E-03,   358.542E-03,   228.196E-03,   17.4399E-03
C:/temp/dataset/7/29_4.odb,Step-1,Increment      1: Step Time =    1.000,"PART-1-1",            49,            5.,      -27.9167,            0.,NA,NA,"",   77.1048E-03,   47.7553E-03,   60.5358E-03,   30.7686E-03
C:/temp/dataset/7/29_4.odb,Step-1,Increment      1: Step Time =    1.000,"PART-1-1",            50,            5.,      -25.8333,            0.,NA,NA,"",   148.222E-03,   98.2261E-03,   111.002E-03,   25.8931E-03
C:/temp/dataset/7/29_4.odb,Step-1,Increment      1: Step Time =    1.000,"PART-1-1",            51,          12.5,          -30.,            0.,NA,NA,"",            0.,   12.2283E-39,  -26.3419E-39,   10.3737E-03
C:/temp/dataset/7/29_4.odb,Step-1,Increment      1: Step Time =    1.000,"PART-1-1",            52,           10.,          -30.,            0.,NA,NA,"",            0.,  -1.31443E-39,   1.45526E-39,   701.492E-06
C:/temp/dataset/7/29_4.odb,Step-1,Increment      1: Step Time =    1.000,"PART-1-1",            53,           7.5,          -30.,            0.,NA,NA,"",            0.,   5.02158E-39,   25.3767E-39,   10.4576E-03
C:/temp/dataset/7/29_4.odb,Step-1,Increment      1: Step Time =    1.000,"PART-1-1",            54,           15.,          -25.,            0.,NA,NA,"",   177.185E-03,   118.695E-03,  -131.552E-03,   24.7613E-03
C:/temp/dataset/7/29_4.odb,Step-1,Increment      1: Step Time =    1.000,"PART-1-1",            55,           15.,         -27.5,            0.,NA,NA,"",   89.2070E-03,   53.7308E-03,  -71.2103E-03,   30.1767E-03
C:/temp/dataset/7/29_4.odb,Step-1,Increment      1: Step Time =    1.000,"PART-1-1",            56,           15.,         -17.5,            0.,NA,NA,"",   535.137E-03,   461.213E-03,  -271.393E-03,   13.8793E-03
C:/temp/dataset/7/29_4.odb,Step-1,Increment      1: Step Time =    1.000,"PART-1-1",            57,           15.,          -20.,            0.,NA,NA,"",   400.130E-03,   325.868E-03,  -232.194E-03,   17.6713E-03
C:/temp/dataset/7/29_4.odb,Step-1,Increment      1: Step Time =    1.000,"PART-1-1",            58,           15.,          -10.,            0.,NA,NA,"",       1.00239,   942.325E-03,  -341.759E-03,   2.86670E-03
C:/temp/dataset/7/29_4.odb,Step-1,Increment      1: Step Time =    1.000,"PART-1-1",            59,           15.,         -12.5,            0.,NA,NA,"",   840.302E-03,   774.412E-03,  -326.180E-03,   6.15081E-03
C:/temp/dataset/7/29_4.odb,Step-1,Increment      1: Step Time =    1.000,"PART-1-1",            60,           15.,          -2.5,            0.,NA,NA,"",       1.48763,       1.44304,  -361.485E-03,   360.380E-06
C:/temp/dataset/7/29_4.odb,Step-1,Increment      1: Step Time =    1.000,"PART-1-1",            61,           15.,           -5.,            0.,NA,NA,"",       1.32717,       1.27829,  -356.862E-03,   258.291E-06
C:/temp/dataset/7/29_4.odb,Step-1,Increment      1: Step Time =    1.000,"PART-1-1",            62,           15.,            5.,            0.,NA,NA,"",       1.96813,       1.93179,  -376.433E-03,   15.7144E-06
C:/temp/dataset/7/29_4.odb,Step-1,Increment      1: Step Time =    1.000,"PART-1-1",            63,           15.,           2.5,            0.,NA,NA,"",       1.80766,       1.76913,  -371.221E-03,   69.0971E-06
C:/temp/dataset/7/29_4.odb,Step-1,Increment      1: Step Time =    1.000,"PART-1-1",            64,           15.,          12.5,            0.,NA,NA,"",       2.45145,       2.41985,  -392.319E-03,   979.912E-09
C:/temp/dataset/7/29_4.odb,Step-1,Increment      1: Step Time =    1.000,"PART-1-1",            65,           15.,           10.,            0.,NA,NA,"",       2.29009,       2.25715,  -387.016E-03,   1.51553E-06
C:/temp/dataset/7/29_4.odb,Step-1,Increment      1: Step Time =    1.000,"PART-1-1",            66,           15.,           20.,            0.,NA,NA,"",       2.93647,       2.90796,  -408.221E-03,   15.2689E-09
C:/temp/dataset/7/29_4.odb,Step-1,Increment      1: Step Time =    1.000,"PART-1-1",            67,           15.,          17.5,            0.,NA,NA,"",       2.77466,       2.74525,  -402.921E-03,   120.617E-09
C:/temp/dataset/7/29_4.odb,Step-1,Increment      1: Step Time =    1.000,"PART-1-1",            68,           15.,          27.5,            0.,NA,NA,"",       3.42244,       3.39606,  -424.121E-03,   1.31801E-09
C:/temp/dataset/7/29_4.odb,Step-1,Increment      1: Step Time =    1.000,"PART-1-1",            69,           15.,           25.,            0.,NA,NA,"",       3.26037,       3.23336,  -418.821E-03,   4.43606E-09
C:/temp/dataset/7/29_4.odb,Step-1,Increment      1: Step Time =    1.000,"PART-1-1",            70,        13.125,           30.,            0.,NA,NA,"",       3.57598,       3.56274,  -307.394E-03,   863.314E-12
C:/temp/dataset/7/29_4.odb,Step-1,Increment      1: Step Time =    1.000,"PART-1-1",            71,         9.375,           30.,            0.,NA,NA,"",       3.57125,       3.57069,  -63.3409E-03,   3.34669E-09
C:/temp/dataset/7/29_4.odb,Step-1,Increment      1: Step Time =    1.000,"PART-1-1",            72,         5.625,           30.,            0.,NA,NA,"",       3.58320,       3.57864,   180.713E-03,   2.78305E-09
C:/temp/dataset/7/29_4.odb,Step-1,Increment      1: Step Time =    1.000,"PART-1-1",            73,         1.875,           30.,            0.,NA,NA,"",       3.61166,       3.58659,   424.766E-03,   893.522E-12
C:/temp/dataset/7/29_4.odb,Step-1,Increment      1: Step Time =    1.000,"PART-1-1",            74,        -1.875,           30.,            0.,NA,NA,"",       3.65623,       3.59454,   668.819E-03,   153.802E-12
C:/temp/dataset/7/29_4.odb,Step-1,Increment      1: Step Time =    1.000,"PART-1-1",            75,        -5.625,           30.,            0.,NA,NA,"",       3.71635,       3.60249,   912.873E-03,   172.929E-12
C:/temp/dataset/7/29_4.odb,Step-1,Increment      1: Step Time =    1.000,"PART-1-1",            76,        -9.375,           30.,            0.,NA,NA,"",       3.79127,       3.61044,       1.15693,   162.373E-12
C:/temp/dataset/7/29_4.odb,Step-1,Increment      1: Step Time =    1.000,"PART-1-1",            77,       -13.125,           30.,            0.,NA,NA,"",       3.88014,       3.61839,       1.40098,   170.444E-12
C:/temp/dataset/7/29_4.odb,Step-1,Increment      1: Step Time =    1.000,"PART-1-1",            78,          -15.,          27.5,            0.,NA,NA,"",       3.78219,       3.45966,       1.52831,   209.490E-12
C:/temp/dataset/7/29_4.odb,Step-1,Increment      1: Step Time =    1.000,"PART-1-1",            79,      -7.07467,       28.0475,            0.,NA,NA,"",       3.62254,       3.47850,       1.01136,   163.136E-12
C:/temp/dataset/7/29_4.odb,Step-1,Increment      1: Step Time =    1.000,"PART-1-1",            80,      -10.7971,       27.6072,            0.,NA,NA,"",       3.67829,       3.45773,       1.25455,   173.593E-12
C:/temp/dataset/7/29_4.odb,Step-1,Increment      1: Step Time =    1.000,"PART-1-1",            81,      -3.50976,       28.2242,            0.,NA,NA,"",       3.56849,       3.48243,   778.976E-03,   194.127E-12
C:/temp/dataset/7/29_4.odb,Step-1,Increment      1: Step Time =    1.000,"PART-1-1",            82,       11.3028,       27.6605,            0.,NA,NA,"",       3.41929,       3.41435,  -183.847E-03,   1.79675E-09
C:/temp/dataset/7/29_4.odb,Step-1,Increment      1: Step Time =    1.000,"PART-1-1",            83,       7.46624,       27.7175,            0.,NA,NA,"",       3.42682,       3.42619,   65.7218E-03,   788.482E-12
C:/temp/dataset/7/29_4.odb,Step-1,Increment      1: Step Time =    1.000,"PART-1-1",            84,   523.838E-03,       28.1559,            0.,NA,NA,"",       3.50769,       3.46944,   516.610E-03,   738.660E-12
C:/temp/dataset/7/29_4.odb,Step-1,Increment      1: Step Time =    1.000,"PART-1-1",            85,       13.1724,       27.5829,            0.,NA,NA,"",       3.41899,       3.40533,  -305.356E-03,   2.13589E-09
C:/temp/dataset/7/29_4.odb,Step-1,Increment      1: Step Time =    1.000,"PART-1-1",            86,       9.41586,       27.7284,            0.,NA,NA,"",       3.42332,       3.42277,  -61.1846E-03,   999.146E-12
C:/temp/dataset/7/29_4.odb,Step-1,Increment      1: Step Time =    1.000,"PART-1-1",            87,       5.17501,       27.3177,            0.,NA,NA,"",       3.41185,       3.40503,   215.685E-03,   1.28108E-09
C:/temp/dataset/7/29_4.odb,Step-1,Increment      1: Step Time =    1.000,"PART-1-1",            88,       1.85763,       28.7412,            0.,NA,NA,"",       3.53081,       3.50471,   428.565E-03,   926.551E-12
C:/temp/dataset/7/29_4.odb,Step-1,Increment      1: Step Time =    1.000,"PART-1-1",            89,      -1.45910,       27.7280,            0.,NA,NA,"",       3.50593,       3.44580,   646.569E-03,   399.182E-12
C:/temp/dataset/7/29_4.odb,Step-1,Increment      1: Step Time =    1.000,"PART-1-1",            90,      -5.31380,       28.2250,            0.,NA,NA,"",       3.59971,       3.48631,   896.382E-03,   166.472E-12
C:/temp/dataset/7/29_4.odb,Step-1,Increment      1: Step Time =    1.000,"PART-1-1",            91,      -8.92632,       27.8484,            0.,NA,NA,"",       3.64956,       3.46946,       1.13229,   166.793E-12
C:/temp/dataset/7/29_4.odb,Step-1,Increment      1: Step Time =    1.000,"PART-1-1",            92,       7.03655,   996.185E-03,            0.,NA,NA,"",       1.69458,       1.68789,   150.358E-03,   133.959E-06
C:/temp/dataset/7/29_4.odb,Step-1,Increment      1: Step Time =    1.000,"PART-1-1",            93,       6.93081,       13.7923,            0.,NA,NA,"",       2.52441,       2.52106,   130.090E-03,   415.094E-09
C:/temp/dataset/7/29_4.odb,Step-1,Increment      1: Step Time =    1.000,"PART-1-1",            94,       7.08682,       7.47611,            0.,NA,NA,"",       2.11386,       2.10965,   133.328E-03,   7.76021E-06
C:/temp/dataset/7/29_4.odb,Step-1,Increment      1: Step Time =    1.000,"PART-1-1",            95,       6.96700,      -1.15199,            0.,NA,NA,"",       1.55657,       1.54838,   159.416E-03,   170.737E-06
C:/temp/dataset/7/29_4.odb,Step-1,Increment      1: Step Time =    1.000,"PART-1-1",            96,       6.47578,      -21.8661,            0.,NA,NA,"",   266.979E-03,   233.123E-03,   130.122E-03,   15.0090E-03
C:/temp/dataset/7/29_4.odb,Step-1,Increment      1: Step Time =    1.000,"PART-1-1",            97,       7.14087,      -13.1040,            0.,NA,NA,"",   760.286E-03,   744.874E-03,   152.309E-03,   6.27521E-03
C:/temp/dataset/7/29_4.odb,Step-1,Increment      1: Step Time =    1.000,"PART-1-1",            98,       6.53104,      -7.08024,            0.,NA,NA,"",       1.18486,       1.16854,   195.936E-03,   4.35222E-03
C:/temp/dataset/7/29_4.odb,Step-1,Increment      1: Step Time =    1.000,"PART-1-1",            99,       6.85322,      -3.24169,            0.,NA,NA,"",       1.42393,       1.41359,   171.262E-03,   474.971E-06
C:/temp/dataset/7/29_4.odb,Step-1,Increment      1: Step Time =    1.000,"PART-1-1",           100,       6.74184,      -8.96518,            0.,NA,NA,"",       1.05489,       1.03910,   181.822E-03,   5.44008E-03
C:/temp/dataset/7/29_4.odb,Step-1,Increment      1: Step Time =    1.000,"PART-1-1",           101,       6.94703,      -23.6171,            0.,NA,NA,"",   180.392E-03,   155.312E-03,   91.7567E-03,   14.9145E-03
C:/temp/dataset/7/29_4.odb,Step-1,Increment      1: Step Time =    1.000,"PART-1-1",           102,       7.44695,      -27.8442,            0.,NA,NA,"",   37.8069E-03,   27.2163E-03,   26.2419E-03,   16.5949E-03
C:/temp/dataset/7/29_4.odb,Step-1,Increment      1: Step Time =    1.000,"PART-1-1",           103,       7.35225,      -17.6578,            0.,NA,NA,"",   467.949E-03,   450.871E-03,   125.264E-03,   8.98358E-03
C:/temp/dataset/7/29_4.odb,Step-1,Increment      1: Step Time =    1.000,"PART-1-1",           104,       7.23832,      -15.2967,            0.,NA,NA,"",   614.534E-03,   598.047E-03,   141.392E-03,   7.45011E-03
C:/temp/dataset/7/29_4.odb,Step-1,Increment      1: Step Time =    1.000,"PART-1-1",           105,       7.10099,       17.6583,            0.,NA,NA,"",       2.77451,       2.77230,   110.818E-03,   147.269E-09
C:/temp/dataset/7/29_4.odb,Step-1,Increment      1: Step Time =    1.000,"PART-1-1",           106,       6.86948,       15.7920,            0.,NA,NA,"",       2.65451,       2.65133,   129.842E-03,   267.161E-09
C:/temp/dataset/7/29_4.odb,Step-1,Increment      1: Step Time =    1.000,"PART-1-1",           107,       7.06799,       9.62990,            0.,NA,NA,"",       2.25362,       2.24987,   129.987E-03,   1.47982E-06
C:/temp/dataset/7/29_4.odb,Step-1,Increment      1: Step Time =    1.000,"PART-1-1",           108,       7.09093,       5.31052,            0.,NA,NA,"",       1.97347,       1.96867,   137.655E-03,   25.6865E-06
C:/temp/dataset/7/29_4.odb,Step-1,Increment      1: Step Time =    1.000,"PART-1-1",           109,       6.65187,      -5.22056,            0.,NA,NA,"",       1.30209,       1.28854,   187.382E-03,   2.71003E-03
C:/temp/dataset/7/29_4.odb,Step-1,Increment      1: Step Time =    1.000,"PART-1-1",           110,       7.26954,      -25.7037,            0.,NA,NA,"",   98.4849E-03,   80.7858E-03,   56.3287E-03,   15.9540E-03
C:/temp/dataset/7/29_4.odb,Step-1,Increment      1: Step Time =    1.000,"PART-1-1",           111,       7.53271,      -20.3934,            0.,NA,NA,"",   314.590E-03,   298.239E-03,   100.103E-03,   10.5248E-03
C:/temp/dataset/7/29_4.odb,Step-1,Increment      1: Step Time =    1.000,"PART-1-1",           112,       7.01178,       11.7341,            0.,NA,NA,"",       2.39043,       2.38694,   129.184E-03,   323.832E-09
C:/temp/dataset/7/29_4.odb,Step-1,Increment      1: Step Time =    1.000,"PART-1-1",           113,       7.07643,       3.14767,            0.,NA,NA,"",       1.83348,       1.82788,   143.187E-03,   65.2111E-06
C:/temp/dataset/7/29_4.odb,Step-1,Increment      1: Step Time =    1.000,"PART-1-1",           114,       6.98190,      -10.9751,            0.,NA,NA,"",   910.719E-03,   895.705E-03,   164.685E-03,   6.90932E-03
C:/temp/dataset/7/29_4.odb,Step-1,Increment      1: Step Time =    1.000,"PART-1-1",           115,       13.1254,       22.8014,            0.,NA,NA,"",       3.10801,       3.09425,  -292.157E-03,   7.69142E-09
C:/temp/dataset/7/29_4.odb,Step-1,Increment      1: Step Time =    1.000,"PART-1-1",           116,       12.8923,      -4.74502,            0.,NA,NA,"",       1.31819,       1.29995,  -218.559E-03,   522.526E-06
C:/temp/dataset/7/29_4.odb,Step-1,Increment      1: Step Time =    1.000,"PART-1-1",           117,       13.0513,      -12.4505,            0.,NA,NA,"",   803.028E-03,   777.342E-03,  -201.476E-03,   5.64875E-03
C:/temp/dataset/7/29_4.odb,Step-1,Increment      1: Step Time =    1.000,"PART-1-1",           118,       12.2427,       17.8341,            0.,NA,NA,"",       2.78189,       2.77284,  -224.184E-03,   149.328E-09
C:/temp/dataset/7/29_4.odb,Step-1,Increment      1: Step Time =    1.000,"PART-1-1",           119,       13.0441,       9.90429,            0.,NA,NA,"",       2.26995,       2.25507,  -259.524E-03,   960.078E-09
C:/temp/dataset/7/29_4.odb,Step-1,Increment      1: Step Time =    1.000,"PART-1-1",           120,       13.0522,       2.62582,            0.,NA,NA,"",       1.79820,       1.78148,  -244.643E-03,   71.9515E-06
C:/temp/dataset/7/29_4.odb,Step-1,Increment      1: Step Time =    1.000,"PART-1-1",           121,       13.2006,      -19.7745,            0.,NA,NA,"",   359.318E-03,   327.916E-03,  -146.903E-03,   11.8022E-03
C:/temp/dataset/7/29_4.odb,Step-1,Increment      1: Step Time =    1.000,"PART-1-1",           122,       9.90112,      -27.6522,            0.,NA,NA,"",   22.1906E-03,   22.1538E-03,   1.27603E-03,   6.78948E-03
C:/temp/dataset/7/29_4.odb,Step-1,Increment      1: Step Time =    1.000,"PART-1-1",           123,       13.0591,      -22.1191,            0.,NA,NA,"",   241.439E-03,   213.363E-03,  -112.999E-03,   13.4642E-03
C:/temp/dataset/7/29_4.odb,Step-1,Increment      1: Step Time =    1.000,"PART-1-1",           124,       13.1139,      -14.9356,            0.,NA,NA,"",   641.307E-03,   612.993E-03,  -188.455E-03,   7.59039E-03
C:/temp/dataset/7/29_4.odb,Step-1,Increment      1: Step Time =    1.000,"PART-1-1",           125,       13.1678,      -17.3995,            0.,NA,NA,"",   491.007E-03,   460.583E-03,  -170.152E-03,   9.66073E-03
C:/temp/dataset/7/29_4.odb,Step-1,Increment      1: Step Time =    1.000,"PART-1-1",           126,       12.7891,      -7.32383,            0.,NA,NA,"",       1.14608,       1.12749,  -205.560E-03,   1.94688E-03
C:/temp/dataset/7/29_4.odb,Step-1,Increment      1: Step Time =    1.000,"PART-1-1",           127,       12.9162,      -9.94117,            0.,NA,NA,"",   970.646E-03,   948.711E-03,  -205.184E-03,   3.78935E-03
C:/temp/dataset/7/29_4.odb,Step-1,Increment      1: Step Time =    1.000,"PART-1-1",           128,       13.0283,   193.158E-03,            0.,NA,NA,"",       1.64057,       1.62322,  -237.955E-03,   129.225E-06
C:/temp/dataset/7/29_4.odb,Step-1,Increment      1: Step Time =    1.000,"PART-1-1",           129,       12.9794,      -2.25409,            0.,NA,NA,"",       1.48156,       1.46366,  -229.610E-03,   83.9138E-06
C:/temp/dataset/7/29_4.odb,Step-1,Increment      1: Step Time =    1.000,"PART-1-1",           130,       13.0689,       7.48049,            0.,NA,NA,"",       2.11285,       2.09729,  -256.000E-03,   7.18811E-06
C:/temp/dataset/7/29_4.odb,Step-1,Increment      1: Step Time =    1.000,"PART-1-1",           131,       13.0764,       5.05734,            0.,NA,NA,"",       1.95583,       1.93961,  -251.361E-03,   26.9469E-06
C:/temp/dataset/7/29_4.odb,Step-1,Increment      1: Step Time =    1.000,"PART-1-1",           132,       12.6962,       14.9270,            0.,NA,NA,"",       2.59452,       2.58268,  -247.530E-03,   358.457E-09
C:/temp/dataset/7/29_4.odb,Step-1,Increment      1: Step Time =    1.000,"PART-1-1",           133,       12.9459,       12.3607,            0.,NA,NA,"",       2.42891,       2.41514,  -258.344E-03,   420.387E-09
C:/temp/dataset/7/29_4.odb,Step-1,Increment      1: Step Time =    1.000,"PART-1-1",           134,       12.9476,       20.4489,            0.,NA,NA,"",       2.95441,       2.94152,  -275.601E-03,   37.9562E-09
C:/temp/dataset/7/29_4.odb,Step-1,Increment      1: Step Time =    1.000,"PART-1-1",           135,       13.1802,       25.1793,            0.,NA,NA,"",       3.26278,       3.24889,  -300.765E-03,   1.17631E-09
C:/temp/dataset/7/29_4.odb,Step-1,Increment      1: Step Time =    1.000,"PART-1-1",           136,      -12.4062,       24.9250,            0.,NA,NA,"",       3.55876,       3.28658,       1.36496,   193.596E-12
C:/temp/dataset/7/29_4.odb,Step-1,Increment      1: Step Time =    1.000,"PART-1-1",           137,       11.3078,       25.3904,            0.,NA,NA,"",       3.27152,       3.26660,  -179.355E-03,   1.77301E-09
C:/temp/dataset/7/29_4.odb,Step-1,Increment      1: Step Time =    1.000,"PART-1-1",           138,      -10.1009,       25.2443,            0.,NA,NA,"",       3.51863,       3.30248,       1.21425,   191.676E-12
C:/temp/dataset/7/29_4.odb,Step-1,Increment      1: Step Time =    1.000,"PART-1-1",           139,      -4.83291,       26.5053,            0.,NA,NA,"",       3.48344,       3.37337,   868.731E-03,   202.328E-12
C:/temp/dataset/7/29_4.odb,Step-1,Increment      1: Step Time =    1.000,"PART-1-1",           140,       1.72347,       26.1851,            0.,NA,NA,"",       3.36786,       3.33864,   442.715E-03,   1.25882E-09
C:/temp/dataset/7/29_4.odb,Step-1,Increment      1: Step Time =    1.000,"PART-1-1",           141,       6.12189,       25.7754,            0.,NA,NA,"",       3.30639,       3.30265,   157.330E-03,   1.31936E-09
C:/temp/dataset/7/29_4.odb,Step-1,Increment      1: Step Time =    1.000,"PART-1-1",           142,       7.62725,       25.7499,            0.,NA,NA,"",       3.29833,       3.29779,   59.4146E-03,   1.55896E-09
C:/temp/dataset/7/29_4.odb,Step-1,Increment      1: Step Time =    1.000,"PART-1-1",           143,       3.76931,       25.0880,            0.,NA,NA,"",       3.27777,       3.26290,   311.896E-03,   2.13771E-09
C:/temp/dataset/7/29_4.odb,Step-1,Increment      1: Step Time =    1.000,"PART-1-1",           144,  -231.428E-03,       26.1188,            0.,NA,NA,"",       3.38679,       3.33847,   570.082E-03,   706.324E-12
C:/temp/dataset/7/29_4.odb,Step-1,Increment      1: Step Time =    1.000,"PART-1-1",           145,      -2.48530,       25.9891,            0.,NA,NA,"",       3.41102,       3.33480,   717.041E-03,   353.543E-12
C:/temp/dataset/7/29_4.odb,Step-1,Increment      1: Step Time =    1.000,"PART-1-1",           146,      -3.63425,       26.9302,            0.,NA,NA,"",       3.48906,       3.39848,   789.821E-03,   229.268E-12
C:/temp/dataset/7/29_4.odb,Step-1,Increment      1: Step Time =    1.000,"PART-1-1",           147,      -8.31738,       25.8431,            0.,NA,NA,"",       3.51329,       3.33766,       1.09691,   185.798E-12
C:/temp/dataset/7/29_4.odb,Step-1,Increment      1: Step Time =    1.000,"PART-1-1",           148,       9.04714,   705.037E-03,            0.,NA,NA,"",       1.66494,       1.66481,   20.3901E-03,   142.078E-06
C:/temp/dataset/7/29_4.odb,Step-1,Increment      1: Step Time =    1.000,"PART-1-1",           149,       7.85197,      -7.06885,            0.,NA,NA,"",       1.16733,       1.16207,   110.710E-03,   3.82253E-03
C:/temp/dataset/7/29_4.odb,Step-1,Increment      1: Step Time =    1.000,"PART-1-1",           150,       8.74205,      -22.9842,            0.,NA,NA,"",   176.146E-03,   171.696E-03,   39.3431E-03,   8.63291E-03
C:/temp/dataset/7/29_4.odb,Step-1,Increment      1: Step Time =    1.000,"PART-1-1",           151,       9.28078,      -15.1075,            0.,NA,NA,"",   604.340E-03,   603.735E-03,   27.0406E-03,   6.69657E-03
C:/temp/dataset/7/29_4.odb,Step-1,Increment      1: Step Time =    1.000,"PART-1-1",           152,       8.97855,      -1.55139,            0.,NA,NA,"",       1.51855,       1.51826,   29.8842E-03,   190.108E-06
C:/temp/dataset/7/29_4.odb,Step-1,Increment      1: Step Time =    1.000,"PART-1-1",           153,       9.09422,       9.69450,            0.,NA,NA,"",       2.24978,       2.24978,  -2.02000E-03,   2.33841E-06
C:/temp/dataset/7/29_4.odb,Step-1,Increment      1: Step Time =    1.000,"PART-1-1",           154,       8.44946,       15.5970,            0.,NA,NA,"",       2.63544,       2.63530,   27.4281E-03,   295.787E-09
C:/temp/dataset/7/29_4.odb,Step-1,Increment      1: Step Time =    1.000,"PART-1-1",           155,       9.11701,       7.46178,            0.,NA,NA,"",       2.10442,       2.10442,   1.23740E-03,   10.2218E-06
C:/temp/dataset/7/29_4.odb,Step-1,Increment      1: Step Time =    1.000,"PART-1-1",           156,       8.83101,       13.9442,            0.,NA,NA,"",       2.52692,       2.52692,   6.09997E-03,   411.586E-09
C:/temp/dataset/7/29_4.odb,Step-1,Increment      1: Step Time =    1.000,"PART-1-1",           157,       9.61385,      -19.9311,            0.,NA,NA,"",   315.671E-03,   315.420E-03,   12.5846E-03,   6.75554E-03
C:/temp/dataset/7/29_4.odb,Step-1,Increment      1: Step Time =    1.000,"PART-1-1",           158,       9.10031,       2.95854,            0.,NA,NA,"",       1.81139,       1.81135,   11.9812E-03,   78.3560E-06
C:/temp/dataset/7/29_4.odb,Step-1,Increment      1: Step Time =    1.000,"PART-1-1",           159,       9.17986,      -12.8049,            0.,NA,NA,"",   759.300E-03,   758.688E-03,   30.4642E-03,   6.75808E-03
C:/temp/dataset/7/29_4.odb,Step-1,Increment      1: Step Time =    1.000,"PART-1-1",           160,       8.54844,      -8.43147,            0.,NA,NA,"",       1.06808,       1.06601,   66.4888E-03,   4.82228E-03
C:/temp/dataset/7/29_4.odb,Step-1,Increment      1: Step Time =    1.000,"PART-1-1",           161,       8.46228,      -5.79934,            0.,NA,NA,"",       1.24550,       1.24348,   70.7714E-03,   2.40977E-03
C:/temp/dataset/7/29_4.odb,Step-1,Increment      1: Step Time =    1.000,"PART-1-1",           162,       8.97830,      -10.5487,            0.,NA,NA,"",   917.566E-03,   916.672E-03,   40.4968E-03,   6.23351E-03
C:/temp/dataset/7/29_4.odb,Step-1,Increment      1: Step Time =    1.000,"PART-1-1",           163,       8.84007,      -3.76868,            0.,NA,NA,"",       1.37533,       1.37464,   43.4331E-03,   740.653E-06
C:/temp/dataset/7/29_4.odb,Step-1,Increment      1: Step Time =    1.000,"PART-1-1",           164,       9.12644,       5.21383,            0.,NA,NA,"",       1.95810,       1.95809,   5.41880E-03,   31.7238E-06
C:/temp/dataset/7/29_4.odb,Step-1,Increment      1: Step Time =    1.000,"PART-1-1",           165,       9.36869,      -17.5094,            0.,NA,NA,"",   453.557E-03,   452.937E-03,   23.6962E-03,   6.75947E-03
C:/temp/dataset/7/29_4.odb,Step-1,Increment      1: Step Time =    1.000,"PART-1-1",           166,       9.01212,       11.8707,            0.,NA,NA,"",       2.39159,       2.39159,  -1.29186E-03,   478.904E-09
C:/temp/dataset/7/29_4.odb,Step-1,Increment      1: Step Time =    1.000,"PART-1-1",           167,       9.60003,       16.9835,            0.,NA,NA,"",       2.72355,       2.72309,  -50.3913E-03,   212.914E-09
C:/temp/dataset/7/29_4.odb,Step-1,Increment      1: Step Time =    1.000,"PART-1-1",           168,       7.13047,       19.6676,            0.,NA,NA,"",       2.90489,       2.90301,   104.640E-03,   59.4677E-09
C:/temp/dataset/7/29_4.odb,Step-1,Increment      1: Step Time =    1.000,"PART-1-1",           169,       9.55406,      -25.2995,            0.,NA,NA,"",   84.0595E-03,   83.4778E-03,   9.87239E-03,   7.20682E-03
C:/temp/dataset/7/29_4.odb,Step-1,Increment      1: Step Time =    1.000,"PART-1-1",           170,       12.3800,      -27.4389,            0.,NA,NA,"",   43.7231E-03,   32.9688E-03,  -28.7189E-03,   15.3382E-03
C:/temp/dataset/7/29_4.odb,Step-1,Increment      1: Step Time =    1.000,"PART-1-1",           171,      -11.9351,       22.4166,            0.,NA,NA,"",       3.39758,       3.12233,       1.33962,   200.141E-12
C:/temp/dataset/7/29_4.odb,Step-1,Increment      1: Step Time =    1.000,"PART-1-1",           172,       10.9842,      -1.93535,            0.,NA,NA,"",       1.49223,       1.48888,  -99.9098E-03,   144.139E-06
C:/temp/dataset/7/29_4.odb,Step-1,Increment      1: Step Time =    1.000,"PART-1-1",           173,       11.2234,      -14.9909,            0.,NA,NA,"",   614.072E-03,   608.765E-03,  -80.5621E-03,   6.86520E-03
C:/temp/dataset/7/29_4.odb,Step-1,Increment      1: Step Time =    1.000,"PART-1-1",           174,       11.0574,       21.1283,            0.,NA,NA,"",       2.99371,       2.98974,  -154.023E-03,   35.9509E-09
C:/temp/dataset/7/29_4.odb,Step-1,Increment      1: Step Time =    1.000,"PART-1-1",           175,       10.7466,       19.4847,            0.,NA,NA,"",       2.88638,       2.88343,  -130.314E-03,   82.2724E-09
C:/temp/dataset/7/29_4.odb,Step-1,Increment      1: Step Time =    1.000,"PART-1-1",           176,       11.0568,   433.028E-03,            0.,NA,NA,"",       1.64665,       1.64298,  -109.850E-03,   140.989E-06
C:/temp/dataset/7/29_4.odb,Step-1,Increment      1: Step Time =    1.000,"PART-1-1",           177,       10.9662,       12.1205,            0.,NA,NA,"",       2.40716,       2.40370,  -128.997E-03,   454.371E-09
C:/temp/dataset/7/29_4.odb,Step-1,Increment      1: Step Time =    1.000,"PART-1-1",           178,       11.6216,      -21.4567,            0.,NA,NA,"",   247.393E-03,   238.987E-03,  -63.9414E-03,   8.76454E-03
C:/temp/dataset/7/29_4.odb,Step-1,Increment      1: Step Time =    1.000,"PART-1-1",           179,       11.2975,      -17.3958,            0.,NA,NA,"",   463.932E-03,   458.130E-03,  -73.1420E-03,   7.29133E-03
C:/temp/dataset/7/29_4.odb,Step-1,Increment      1: Step Time =    1.000,"PART-1-1",           180,       10.6273,       14.4803,            0.,NA,NA,"",       2.56044,       2.55800,  -111.943E-03,   401.220E-09
C:/temp/dataset/7/29_4.odb,Step-1,Increment      1: Step Time =    1.000,"PART-1-1",           181,       11.1012,       2.78293,            0.,NA,NA,"",       1.79965,       1.79579,  -117.879E-03,   78.4757E-06
C:/temp/dataset/7/29_4.odb,Step-1,Increment      1: Step Time =    1.000,"PART-1-1",           182,       11.1153,       7.46695,            0.,NA,NA,"",       2.10449,       2.10054,  -128.827E-03,   9.86108E-06
C:/temp/dataset/7/29_4.odb,Step-1,Increment      1: Step Time =    1.000,"PART-1-1",           183,       11.1247,      -12.5851,            0.,NA,NA,"",   774.354E-03,   769.728E-03,  -84.5072E-03,   6.27964E-03
C:/temp/dataset/7/29_4.odb,Step-1,Increment      1: Step Time =    1.000,"PART-1-1",           184,       10.4094,      -7.19663,            0.,NA,NA,"",       1.14384,       1.14262,  -52.8251E-03,   2.88952E-03
C:/temp/dataset/7/29_4.odb,Step-1,Increment      1: Step Time =    1.000,"PART-1-1",           185,       10.4303,      -22.2648,            0.,NA,NA,"",   200.930E-03,   200.263E-03,  -16.3657E-03,   6.88032E-03
C:/temp/dataset/7/29_4.odb,Step-1,Increment      1: Step Time =    1.000,"PART-1-1",           186,       10.9130,      -10.1038,            0.,NA,NA,"",   944.723E-03,   941.408E-03,  -79.0803E-03,   5.04688E-03
C:/temp/dataset/7/29_4.odb,Step-1,Increment      1: Step Time =    1.000,"PART-1-1",           187,       10.8491,      -4.38491,            0.,NA,NA,"",       1.33156,       1.32878,  -86.0167E-03,   736.181E-06
C:/temp/dataset/7/29_4.odb,Step-1,Increment      1: Step Time =    1.000,"PART-1-1",           188,       11.1275,       5.13070,            0.,NA,NA,"",       1.95247,       1.94849,  -124.644E-03,   32.2253E-06
C:/temp/dataset/7/29_4.odb,Step-1,Increment      1: Step Time =    1.000,"PART-1-1",           189,       11.0819,       9.79848,            0.,NA,NA,"",       2.25618,       2.25234,  -131.604E-03,   2.09563E-06
C:/temp/dataset/7/29_4.odb,Step-1,Increment      1: Step Time =    1.000,"PART-1-1",           190,       12.1026,      -24.5603,            0.,NA,NA,"",   124.021E-03,   111.732E-03,  -53.8235E-03,   11.9962E-03
C:/temp/dataset/7/29_4.odb,Step-1,Increment      1: Step Time =    1.000,"PART-1-1",           191,      -7.61069,       24.2264,            0.,NA,NA,"",       3.39863,       3.23095,       1.05434,   206.751E-12
C:/temp/dataset/7/29_4.odb,Step-1,Increment      1: Step Time =    1.000,"PART-1-1",           192,      -5.77678,       24.2650,            0.,NA,NA,"",       3.36217,       3.22958,   934.909E-03,   216.698E-12
C:/temp/dataset/7/29_4.odb,Step-1,Increment      1: Step Time =    1.000,"PART-1-1",           193,       1.00958,       23.8763,            0.,NA,NA,"",       3.22793,       3.18989,   494.070E-03,   1.41691E-09
C:/temp/dataset/7/29_4.odb,Step-1,Increment      1: Step Time =    1.000,"PART-1-1",           194,      -3.86757,       24.8145,            0.,NA,NA,"",       3.36025,       3.26128,   809.491E-03,   257.176E-12
C:/temp/dataset/7/29_4.odb,Step-1,Increment      1: Step Time =    1.000,"PART-1-1",           195,  -996.969E-03,       24.6602,            0.,NA,NA,"",       3.30442,       3.24516,   622.997E-03,   568.453E-12
C:/temp/dataset/7/29_4.odb,Step-1,Increment      1: Step Time =    1.000,"PART-1-1",           196,       7.19995,       21.7613,            0.,NA,NA,"",       3.04062,       3.03912,   95.6797E-03,   15.2180E-09
C:/temp/dataset/7/29_4.odb,Step-1,Increment      1: Step Time =    1.000,"PART-1-1",           197,       2.92747,       22.7842,            0.,NA,NA,"",       3.13683,       3.11475,   371.568E-03,   2.82464E-09
C:/temp/dataset/7/29_4.odb,Step-1,Increment      1: Step Time =    1.000,"PART-1-1",           198,       5.53232,       24.2100,            0.,NA,NA,"",       3.20820,       3.20202,   199.019E-03,   2.11068E-09
C:/temp/dataset/7/29_4.odb,Step-1,Increment      1: Step Time =    1.000,"PART-1-1",           199,       9.18626,       19.3402,            0.,NA,NA,"",       2.87748,       2.87734,  -28.4589E-03,   75.5491E-09
C:/temp/dataset/7/29_4.odb,Step-1,Increment      1: Step Time =    1.000,"PART-1-1",           200,       11.2321,       23.1770,            0.,NA,NA,"",       3.12731,       3.12270,  -169.736E-03,   9.52154E-09
C:/temp/dataset/7/29_4.odb,Step-1,Increment      1: Step Time =    1.000,"PART-1-1",           201,       5.11021,       22.1378,            0.,NA,NA,"",       3.07673,       3.06805,   230.883E-03,   4.49208E-09
C:/temp/dataset/7/29_4.odb,Step-1,Increment      1: Step Time =    1.000,"PART-1-1",           202,   167.280E-03,       22.2372,            0.,NA,NA,"",       3.13406,       3.08500,   552.363E-03,   1.39355E-09
C:/temp/dataset/7/29_4.odb,Step-1,Increment      1: Step Time =    1.000,"PART-1-1",           203,      -2.32264,       22.6339,            0.,NA,NA,"",       3.19676,       3.11610,   713.569E-03,   405.649E-12
C:/temp/dataset/7/29_4.odb,Step-1,Increment      1: Step Time =    1.000,"PART-1-1",           204,       9.17324,       21.4477,            0.,NA,NA,"",       3.01470,       3.01453,  -32.0791E-03,   28.3612E-09
C:/temp/dataset/7/29_4.odb,Step-1,Increment      1: Step Time =    1.000,"PART-1-1",           205,       9.43619,       25.5889,            0.,NA,NA,"",       3.28400,       3.28348,  -57.9714E-03,   2.11876E-09
C:/temp/dataset/7/29_4.odb,Step-1,Increment      1: Step Time =    1.000,"PART-1-1",           206,      -5.39738,       22.2321,            0.,NA,NA,"",       3.22869,       3.09646,   914.527E-03,   250.233E-12
C:/temp/dataset/7/29_4.odb,Step-1,Increment      1: Step Time =    1.000,"PART-1-1",           207,      -8.66915,       22.6604,            0.,NA,NA,"",       3.32776,       3.13127,       1.12655,   215.751E-12
C:/temp/dataset/7/29_4.odb,Step-1,Increment      1: Step Time =    1.000,"PART-1-1",           208,      -12.8188,       27.4435,            0.,NA,NA,"",       3.71943,       3.45136,       1.38647,   185.124E-12
C:/temp/dataset/7/29_4.odb,Step-1,Increment      1: Step Time =    1.000,"PART-1-1",           209,       7.43992,       23.7550,            0.,NA,NA,"",       3.16927,       3.16836,   75.8353E-03,   5.04212E-09
C:/temp/dataset/7/29_4.odb,Step-1,Increment      1: Step Time =    1.000,"PART-1-1",           210,      -6.48406,       26.1481,            0.,NA,NA,"",       3.49303,       3.35363,   976.947E-03,   187.881E-12
C:/temp/dataset/7/29_4.odb,Step-1,Increment      1: Step Time =    1.000,"PART-1-1",           211,       3.18484,       28.0088,            0.,NA,NA,"",       3.47129,       3.45423,   343.741E-03,   1.39552E-09
C:/temp/dataset/7/29_4.odb,Step-1,Increment      1: Step Time =    1.000,"PART-1-1",           212,       11.4304,      -19.6429,            0.,NA,NA,"",   337.231E-03,   330.446E-03,  -67.3061E-03,   7.88509E-03
C:/temp/dataset/7/29_4.odb,Step-1,Increment      1: Step Time =    1.000,"PART-1-1",           213,       9.33060,       23.4727,            0.,NA,NA,"",       3.14633,       3.14598,  -46.6132E-03,   8.84699E-09
C:/temp/dataset/7/29_4.odb,Step-1,Increment      1: Step Time =    1.000,"PART-1-1",           214,      -12.1707,       23.6708,            0.,NA,NA,"",       3.47811,       3.20446,       1.35229,   196.021E-12
C:/temp/dataset/7/29_4.odb,Step-1,Increment      1: Step Time =    1.000,"PART-1-1",           215,      -13.7031,       24.9625,            0.,NA,NA,"",       3.59669,       3.29177,       1.44928,   189.463E-12
C:/temp/dataset/7/29_4.odb,Step-1,Increment      1: Step Time =    1.000,"PART-1-1",           216,          -15.,         23.75,            0.,NA,NA,"",       3.56374,       3.21561,       1.53626,   179.440E-12
C:/temp/dataset/7/29_4.odb,Step-1,Increment      1: Step Time =    1.000,"PART-1-1",           217,      -13.4675,       22.4583,            0.,NA,NA,"",       3.44350,       3.12830,       1.43926,   185.776E-12
C:/temp/dataset/7/29_4.odb,Step-1,Increment      1: Step Time =    1.000,"PART-1-1",           218,      -9.86170,       27.7278,            0.,NA,NA,"",       3.66343,       3.46360,       1.19342,   169.765E-12
C:/temp/dataset/7/29_4.odb,Step-1,Increment      1: Step Time =    1.000,"PART-1-1",           219,      -10.4490,       26.4258,            0.,NA,NA,"",       3.59845,       3.38010,       1.23440,   181.557E-12
C:/temp/dataset/7/29_4.odb,Step-1,Increment      1: Step Time =    1.000,"PART-1-1",           220,      -9.20914,       25.5437,            0.,NA,NA,"",       3.51543,       3.32007,       1.15558,   188.905E-12
C:/temp/dataset/7/29_4.odb,Step-1,Increment      1: Step Time =    1.000,"PART-1-1",           221,      -8.62185,       26.8458,            0.,NA,NA,"",       3.58142,       3.40356,       1.11460,   175.594E-12
C:/temp/dataset/7/29_4.odb,Step-1,Increment      1: Step Time =    1.000,"PART-1-1",           222,      -9.15066,       28.9242,            0.,NA,NA,"",       3.72040,       3.53995,       1.14461,   161.026E-12
C:/temp/dataset/7/29_4.odb,Step-1,Increment      1: Step Time =    1.000,"PART-1-1",           223,      -10.3125,           30.,            0.,NA,NA,"",       3.81222,       3.61243,       1.21794,   163.084E-12
C:/temp/dataset/7/29_4.odb,Step-1,Increment      1: Step Time =    1.000,"PART-1-1",           224,      -11.0235,       28.8036,            0.,NA,NA,"",       3.75612,       3.53607,       1.26675,   166.262E-12
C:/temp/dataset/7/29_4.odb,Step-1,Increment      1: Step Time =    1.000,"PART-1-1",           225,      -11.2536,       25.0847,            0.,NA,NA,"",       3.53794,       3.29453,       1.28961,   192.288E-12
C:/temp/dataset/7/29_4.odb,Step-1,Increment      1: Step Time =    1.000,"PART-1-1",           226,      -10.3021,       22.5385,            0.,NA,NA,"",       3.36116,       3.12680,       1.23308,   207.691E-12
C:/temp/dataset/7/29_4.odb,Step-1,Increment      1: Step Time =    1.000,"PART-1-1",           227,      -9.38503,       23.9523,            0.,NA,NA,"",       3.42317,       3.21688,       1.17040,   202.134E-12
C:/temp/dataset/7/29_4.odb,Step-1,Increment      1: Step Time =    1.000,"PART-1-1",           228,      -12.9719,       28.7217,            0.,NA,NA,"",       3.79971,       3.53487,       1.39372,   173.681E-12
C:/temp/dataset/7/29_4.odb,Step-1,Increment      1: Step Time =    1.000,"PART-1-1",           229,      -14.0625,           30.,            0.,NA,NA,"",       3.90443,       3.62038,       1.46199,   180.497E-12
C:/temp/dataset/7/29_4.odb,Step-1,Increment      1: Step Time =    1.000,"PART-1-1",           230,          -15.,         28.75,            0.,NA,NA,"",       3.85570,       3.54101,       1.52566,   206.577E-12
C:/temp/dataset/7/29_4.odb,Step-1,Increment      1: Step Time =    1.000,"PART-1-1",           231,      -13.9094,       27.4717,            0.,NA,NA,"",       3.75027,       3.45551,       1.45739,   197.203E-12
C:/temp/dataset/7/29_4.odb,Step-1,Increment      1: Step Time =    1.000,"PART-1-1",           232,      -7.40072,       25.9956,            0.,NA,NA,"",       3.50265,       3.34565,       1.03693,   186.291E-12
C:/temp/dataset/7/29_4.odb,Step-1,Increment      1: Step Time =    1.000,"PART-1-1",           233,      -7.96404,       25.0347,            0.,NA,NA,"",       3.45596,       3.28431,       1.07563,   196.050E-12
C:/temp/dataset/7/29_4.odb,Step-1,Increment      1: Step Time =    1.000,"PART-1-1",           234,      -6.69374,       24.2457,            0.,NA,NA,"",       3.37992,       3.23026,   994.626E-03,   210.425E-12
C:/temp/dataset/7/29_4.odb,Step-1,Increment      1: Step Time =    1.000,"PART-1-1",           235,      -6.13042,       25.2066,            0.,NA,NA,"",       3.42760,       3.29160,   955.928E-03,   199.132E-12
C:/temp/dataset/7/29_4.odb,Step-1,Increment      1: Step Time =    1.000,"PART-1-1",           236,      -5.46940,       29.1125,            0.,NA,NA,"",       3.65802,       3.54440,   904.628E-03,   166.322E-12
C:/temp/dataset/7/29_4.odb,Step-1,Increment      1: Step Time =    1.000,"PART-1-1",           237,      -4.41178,       28.2246,            0.,NA,NA,"",       3.58365,       3.48437,   837.679E-03,   177.132E-12
C:/temp/dataset/7/29_4.odb,Step-1,Increment      1: Step Time =    1.000,"PART-1-1",           238,      -3.62988,       29.1121,            0.,NA,NA,"",       3.62644,       3.54047,   784.911E-03,   172.767E-12
C:/temp/dataset/7/29_4.odb,Step-1,Increment      1: Step Time =    1.000,"PART-1-1",           239,       -4.6875,           30.,            0.,NA,NA,"",       3.69990,       3.60050,   851.859E-03,   175.158E-12
C:/temp/dataset/7/29_4.odb,Step-1,Increment      1: Step Time =    1.000,"PART-1-1",           240,  -467.629E-03,       27.9420,            0.,NA,NA,"",       3.50619,       3.45762,   581.589E-03,   543.577E-12
C:/temp/dataset/7/29_4.odb,Step-1,Increment      1: Step Time =    1.000,"PART-1-1",           241,  -845.263E-03,       26.9234,            0.,NA,NA,"",       3.44625,       3.39213,   608.325E-03,   540.148E-12
C:/temp/dataset/7/29_4.odb,Step-1,Increment      1: Step Time =    1.000,"PART-1-1",           242,   746.021E-03,       26.1520,            0.,NA,NA,"",       3.37674,       3.33855,   506.399E-03,   994.494E-12
C:/temp/dataset/7/29_4.odb,Step-1,Increment      1: Step Time =    1.000,"PART-1-1",           243,       1.12365,       27.1705,            0.,NA,NA,"",       3.43767,       3.40404,   479.663E-03,   936.877E-12
C:/temp/dataset/7/29_4.odb,Step-1,Increment      1: Step Time =    1.000,"PART-1-1",           244,       14.0901,       25.0896,            0.,NA,NA,"",       3.26103,       3.24112,  -359.793E-03,   2.45383E-09
C:/temp/dataset/7/29_4.odb,Step-1,Increment      1: Step Time =    1.000,"PART-1-1",           245,       13.1528,       23.9903,            0.,NA,NA,"",       3.18539,       3.17157,  -296.461E-03,   3.50088E-09
C:/temp/dataset/7/29_4.odb,Step-1,Increment      1: Step Time =    1.000,"PART-1-1",           246,       14.0627,       22.6507,            0.,NA,NA,"",       3.10258,       3.08245,  -352.839E-03,   3.12916E-09
C:/temp/dataset/7/29_4.odb,Step-1,Increment      1: Step Time =    1.000,"PART-1-1",           247,           15.,         23.75,            0.,NA,NA,"",       3.17937,       3.15201,  -416.171E-03,   3.06677E-09
C:/temp/dataset/7/29_4.odb,Step-1,Increment      1: Step Time =    1.000,"PART-1-1",           248,       11.2764,       28.8302,            0.,NA,NA,"",       3.49541,       3.49053,  -184.607E-03,   1.70034E-09
C:/temp/dataset/7/29_4.odb,Step-1,Increment      1: Step Time =    1.000,"PART-1-1",           249,       10.3125,           30.,            0.,NA,NA,"",       3.57087,       3.56870,  -124.354E-03,   2.85771E-09
C:/temp/dataset/7/29_4.odb,Step-1,Increment      1: Step Time =    1.000,"PART-1-1",           250,       9.39543,       28.8642,            0.,NA,NA,"",       3.49728,       3.49673,  -62.2627E-03,   1.97526E-09
C:/temp/dataset/7/29_4.odb,Step-1,Increment      1: Step Time =    1.000,"PART-1-1",           251,       10.3594,       27.6945,            0.,NA,NA,"",       3.42075,       3.41856,  -122.516E-03,   1.35615E-09
C:/temp/dataset/7/29_4.odb,Step-1,Increment      1: Step Time =    1.000,"PART-1-1",           252,        8.4375,           30.,            0.,NA,NA,"",       3.57268,       3.57268,  -2.32754E-03,   3.40505E-09
C:/temp/dataset/7/29_4.odb,Step-1,Increment      1: Step Time =    1.000,"PART-1-1",           253,       7.48312,       28.8587,            0.,NA,NA,"",       3.50098,       3.50043,   62.2038E-03,   2.03399E-09
C:/temp/dataset/7/29_4.odb,Step-1,Increment      1: Step Time =    1.000,"PART-1-1",           254,       8.44105,       27.7230,            0.,NA,NA,"",       3.42448,       3.42448,   2.26854E-03,   724.806E-12
C:/temp/dataset/7/29_4.odb,Step-1,Increment      1: Step Time =    1.000,"PART-1-1",           255,       13.0365,       21.6252,            0.,NA,NA,"",       3.03121,       3.01789,  -283.879E-03,   21.9252E-09
C:/temp/dataset/7/29_4.odb,Step-1,Increment      1: Step Time =    1.000,"PART-1-1",           256,       13.9738,       20.2245,            0.,NA,NA,"",       2.94466,       2.92474,  -341.911E-03,   23.1412E-09
C:/temp/dataset/7/29_4.odb,Step-1,Increment      1: Step Time =    1.000,"PART-1-1",           257,           15.,         21.25,            0.,NA,NA,"",       3.01741,       2.98931,  -410.871E-03,   6.86297E-09
C:/temp/dataset/7/29_4.odb,Step-1,Increment      1: Step Time =    1.000,"PART-1-1",           258,       6.90015,       14.7921,            0.,NA,NA,"",       2.58946,       2.58619,   129.966E-03,   327.651E-09
C:/temp/dataset/7/29_4.odb,Step-1,Increment      1: Step Time =    1.000,"PART-1-1",           259,       5.93474,       15.8126,            0.,NA,NA,"",       2.66149,       2.65466,   190.632E-03,   217.520E-09
C:/temp/dataset/7/29_4.odb,Step-1,Increment      1: Step Time =    1.000,"PART-1-1",           260,            5.,       14.7917,            0.,NA,NA,"",       2.60258,       2.59019,   253.631E-03,   450.815E-09
C:/temp/dataset/7/29_4.odb,Step-1,Increment      1: Step Time =    1.000,"PART-1-1",           261,       5.96541,       13.7711,            0.,NA,NA,"",       2.52910,       2.52173,   192.965E-03,   424.216E-09
C:/temp/dataset/7/29_4.odb,Step-1,Increment      1: Step Time =    1.000,"PART-1-1",           262,       7.07741,       8.55300,            0.,NA,NA,"",       2.18373,       2.17976,   131.657E-03,   4.66183E-06
C:/temp/dataset/7/29_4.odb,Step-1,Increment      1: Step Time =    1.000,"PART-1-1",           263,       6.03400,       9.60662,            0.,NA,NA,"",       2.25918,       2.25055,   197.331E-03,   784.061E-09
C:/temp/dataset/7/29_4.odb,Step-1,Increment      1: Step Time =    1.000,"PART-1-1",           264,            5.,       8.54167,            0.,NA,NA,"",       2.19968,       2.18343,   266.888E-03,   325.459E-09
C:/temp/dataset/7/29_4.odb,Step-1,Increment      1: Step Time =    1.000,"PART-1-1",           265,       6.04341,       7.48805,            0.,NA,NA,"",       2.12220,       2.11264,   201.210E-03,   3.99671E-06
C:/temp/dataset/7/29_4.odb,Step-1,Increment      1: Step Time =    1.000,"PART-1-1",           266,            5.,         4.375,            0.,NA,NA,"",       1.93197,       1.91220,   275.698E-03,   32.0151E-06
C:/temp/dataset/7/29_4.odb,Step-1,Increment      1: Step Time =    1.000,"PART-1-1",           267,       6.03822,       3.24050,            0.,NA,NA,"",       1.84815,       1.83612,   210.511E-03,   44.9808E-06
C:/temp/dataset/7/29_4.odb,Step-1,Increment      1: Step Time =    1.000,"PART-1-1",           268,       7.08368,       4.22909,            0.,NA,NA,"",       1.90346,       1.89828,   140.421E-03,   44.7663E-06
C:/temp/dataset/7/29_4.odb,Step-1,Increment      1: Step Time =    1.000,"PART-1-1",           269,       6.04546,       5.36359,            0.,NA,NA,"",       1.98501,       1.97434,   205.571E-03,   15.6655E-06
C:/temp/dataset/7/29_4.odb,Step-1,Increment      1: Step Time =    1.000,"PART-1-1",           270,            5.,       2.29167,            0.,NA,NA,"",       1.79850,       1.77657,   280.026E-03,   97.4006E-06
C:/temp/dataset/7/29_4.odb,Step-1,Increment      1: Step Time =    1.000,"PART-1-1",           271,       6.01828,       1.12309,            0.,NA,NA,"",       1.71201,       1.69830,   216.194E-03,   107.167E-06
C:/temp/dataset/7/29_4.odb,Step-1,Increment      1: Step Time =    1.000,"PART-1-1",           272,       7.05649,       2.07193,            0.,NA,NA,"",       1.76400,       1.75788,   146.771E-03,   98.1288E-06
C:/temp/dataset/7/29_4.odb,Step-1,Increment      1: Step Time =    1.000,"PART-1-1",           273,       7.00178,  -77.9012E-03,            0.,NA,NA,"",       1.62549,       1.61809,   154.888E-03,   146.003E-06
C:/temp/dataset/7/29_4.odb,Step-1,Increment      1: Step Time =    1.000,"PART-1-1",           274,            5.,   208.333E-03,            0.,NA,NA,"",       1.66542,       1.64100,   284.155E-03,   240.102E-06
C:/temp/dataset/7/29_4.odb,Step-1,Increment      1: Step Time =    1.000,"PART-1-1",           275,       5.98350,  -992.661E-03,            0.,NA,NA,"",       1.57663,       1.56082,   222.715E-03,   204.412E-06
C:/temp/dataset/7/29_4.odb,Step-1,Increment      1: Step Time =    1.000,"PART-1-1",           276,       6.59145,      -6.15040,            0.,NA,NA,"",       1.24399,       1.22911,   191.854E-03,   3.53493E-03
C:/temp/dataset/7/29_4.odb,Step-1,Increment      1: Step Time =    1.000,"PART-1-1",           277,       5.82593,      -5.11028,            0.,NA,NA,"",       1.32092,       1.29883,   240.571E-03,   2.48012E-03
C:/temp/dataset/7/29_4.odb,Step-1,Increment      1: Step Time =    1.000,"PART-1-1",           278,            5.,      -6.04167,            0.,NA,NA,"",       1.27882,       1.24465,   293.638E-03,   3.32221E-03
C:/temp/dataset/7/29_4.odb,Step-1,Increment      1: Step Time =    1.000,"PART-1-1",           279,       5.76552,      -7.08179,            0.,NA,NA,"",       1.19803,       1.17260,   245.498E-03,   3.97470E-03
C:/temp/dataset/7/29_4.odb,Step-1,Increment      1: Step Time =    1.000,"PART-1-1",           280,       8.25955,      -15.2021,            0.,NA,NA,"",   606.137E-03,   600.321E-03,   83.7607E-03,   6.62434E-03
C:/temp/dataset/7/29_4.odb,Step-1,Increment      1: Step Time =    1.000,"PART-1-1",           281,       9.23032,      -13.9562,            0.,NA,NA,"",   680.762E-03,   680.154E-03,   28.7791E-03,   6.70461E-03
C:/temp/dataset/7/29_4.odb,Step-1,Increment      1: Step Time =    1.000,"PART-1-1",           282,       8.16037,      -12.9544,            0.,NA,NA,"",   756.962E-03,   751.489E-03,   90.8595E-03,   6.42718E-03
C:/temp/dataset/7/29_4.odb,Step-1,Increment      1: Step Time =    1.000,"PART-1-1",           283,       7.18960,      -14.2003,            0.,NA,NA,"",   686.344E-03,   670.349E-03,   147.309E-03,   6.79201E-03
C:/temp/dataset/7/29_4.odb,Step-1,Increment      1: Step Time =    1.000,"PART-1-1",           284,            5.,      -22.7083,            0.,NA,NA,"",   273.943E-03,   209.343E-03,   176.692E-03,   21.9521E-03
C:/temp/dataset/7/29_4.odb,Step-1,Increment      1: Step Time =    1.000,"PART-1-1",           285,       5.97351,      -23.6835,            0.,NA,NA,"",   202.256E-03,   160.506E-03,   123.066E-03,   19.0827E-03
C:/temp/dataset/7/29_4.odb,Step-1,Increment      1: Step Time =    1.000,"PART-1-1",           286,       6.71140,      -22.7416,            0.,NA,NA,"",   222.142E-03,   192.711E-03,   110.497E-03,   14.9501E-03
C:/temp/dataset/7/29_4.odb,Step-1,Increment      1: Step Time =    1.000,"PART-1-1",           287,       5.73789,      -21.7664,            0.,NA,NA,"",   292.531E-03,   243.677E-03,   161.851E-03,   17.5907E-03
C:/temp/dataset/7/29_4.odb,Step-1,Increment      1: Step Time =    1.000,"PART-1-1",           288,       9.95056,      -28.8261,            0.,NA,NA,"",   5.09147E-03,   5.08350E-03,   284.732E-06,   3.03687E-03
C:/temp/dataset/7/29_4.odb,Step-1,Increment      1: Step Time =    1.000,"PART-1-1",           289,       8.67404,      -27.7482,            0.,NA,NA,"",   26.4810E-03,   22.9215E-03,   13.2607E-03,   10.0754E-03
C:/temp/dataset/7/29_4.odb,Step-1,Increment      1: Step Time =    1.000,"PART-1-1",           290,       7.47347,      -28.9221,            0.,NA,NA,"",   13.8780E-03,   7.68227E-03,   11.5577E-03,   13.5478E-03
C:/temp/dataset/7/29_4.odb,Step-1,Increment      1: Step Time =    1.000,"PART-1-1",           291,          8.75,          -30.,            0.,NA,NA,"",            0.,  -454.256E-42,   11.5660E-39,   5.70679E-03
C:/temp/dataset/7/29_4.odb,Step-1,Increment      1: Step Time =    1.000,"PART-1-1",           292,       9.14805,      -24.1419,            0.,NA,NA,"",   126.651E-03,   124.596E-03,   22.7224E-03,   7.80877E-03
C:/temp/dataset/7/29_4.odb,Step-1,Increment      1: Step Time =    1.000,"PART-1-1",           293,       7.84454,      -23.3007,            0.,NA,NA,"",   175.439E-03,   162.473E-03,   66.1924E-03,   11.3696E-03
C:/temp/dataset/7/29_4.odb,Step-1,Increment      1: Step Time =    1.000,"PART-1-1",           294,       7.10828,      -24.6604,            0.,NA,NA,"",   137.243E-03,   115.635E-03,   73.9206E-03,   15.3545E-03
C:/temp/dataset/7/29_4.odb,Step-1,Increment      1: Step Time =    1.000,"PART-1-1",           295,       8.41180,      -25.5016,            0.,NA,NA,"",   87.2661E-03,   80.5250E-03,   33.6316E-03,   10.6433E-03
C:/temp/dataset/7/29_4.odb,Step-1,Increment      1: Step Time =    1.000,"PART-1-1",           296,       7.00425,      -21.1298,            0.,NA,NA,"",   288.990E-03,   264.436E-03,   116.571E-03,   12.6496E-03
C:/temp/dataset/7/29_4.odb,Step-1,Increment      1: Step Time =    1.000,"PART-1-1",           297,       6.26636,      -19.9884,            0.,NA,NA,"",   364.389E-03,   326.992E-03,   160.796E-03,   13.5983E-03
C:/temp/dataset/7/29_4.odb,Step-1,Increment      1: Step Time =    1.000,"PART-1-1",           298,            5.,       -20.625,            0.,NA,NA,"",   371.953E-03,   305.087E-03,   212.770E-03,   18.9249E-03
C:/temp/dataset/7/29_4.odb,Step-1,Increment      1: Step Time =    1.000,"PART-1-1",           299,       12.8526,      -8.63250,            0.,NA,NA,"",       1.05857,       1.03837,  -205.795E-03,   2.84711E-03
C:/temp/dataset/7/29_4.odb,Step-1,Increment      1: Step Time =    1.000,"PART-1-1",           300,       13.9581,      -9.97058,            0.,NA,NA,"",   983.862E-03,   945.402E-03,  -272.396E-03,   2.93449E-03
C:/temp/dataset/7/29_4.odb,Step-1,Increment      1: Step Time =    1.000,"PART-1-1",           301,           15.,         -8.75,            0.,NA,NA,"",       1.08396,       1.02690,  -347.038E-03,   1.76746E-03
C:/temp/dataset/7/29_4.odb,Step-1,Increment      1: Step Time =    1.000,"PART-1-1",           302,       13.8945,      -7.41192,            0.,NA,NA,"",       1.15324,       1.11931,  -277.686E-03,   1.15757E-03
C:/temp/dataset/7/29_4.odb,Step-1,Increment      1: Step Time =    1.000,"PART-1-1",           303,            5.,        10.625,            0.,NA,NA,"",       2.33383,       2.31902,   262.468E-03,   1.17481E-06
C:/temp/dataset/7/29_4.odb,Step-1,Increment      1: Step Time =    1.000,"PART-1-1",           304,       7.03988,       10.6820,            0.,NA,NA,"",       2.32202,       2.31840,   129.585E-03,   705.390E-09
C:/temp/dataset/7/29_4.odb,Step-1,Increment      1: Step Time =    1.000,"PART-1-1",           305,       6.00589,       11.7004,            0.,NA,NA,"",       2.39480,       2.38687,   194.721E-03,   605.237E-09
C:/temp/dataset/7/29_4.odb,Step-1,Increment      1: Step Time =    1.000,"PART-1-1",           306,       2.74639,       25.6366,            0.,NA,NA,"",       3.32226,       3.30077,   377.306E-03,   1.60709E-09
C:/temp/dataset/7/29_4.odb,Step-1,Increment      1: Step Time =    1.000,"PART-1-1",           307,       1.36653,       25.0307,            0.,NA,NA,"",       3.29770,       3.26426,   468.393E-03,   1.28633E-09
C:/temp/dataset/7/29_4.odb,Step-1,Increment      1: Step Time =    1.000,"PART-1-1",           308,       1.96853,       23.3303,            0.,NA,NA,"",       3.18189,       3.15232,   432.819E-03,   2.20004E-09
C:/temp/dataset/7/29_4.odb,Step-1,Increment      1: Step Time =    1.000,"PART-1-1",           309,       3.34839,       23.9361,            0.,NA,NA,"",       3.20708,       3.18882,   341.732E-03,   1.59316E-09
C:/temp/dataset/7/29_4.odb,Step-1,Increment      1: Step Time =    1.000,"PART-1-1",           310,       4.47216,       26.2029,            0.,NA,NA,"",       3.34438,       3.33397,   263.790E-03,   1.50265E-09
C:/temp/dataset/7/29_4.odb,Step-1,Increment      1: Step Time =    1.000,"PART-1-1",           311,       4.17993,       27.6633,            0.,NA,NA,"",       3.44102,       3.42963,   279.713E-03,   1.36597E-09
C:/temp/dataset/7/29_4.odb,Step-1,Increment      1: Step Time =    1.000,"PART-1-1",           312,       2.45416,       27.0970,            0.,NA,NA,"",       3.41912,       3.39643,   393.228E-03,   1.16379E-09
C:/temp/dataset/7/29_4.odb,Step-1,Increment      1: Step Time =    1.000,"PART-1-1",           313,      -1.66705,       28.8640,            0.,NA,NA,"",       3.58108,       3.52017,   657.694E-03,   257.036E-12
C:/temp/dataset/7/29_4.odb,Step-1,Increment      1: Step Time =    1.000,"PART-1-1",           314,   261.919E-03,       29.0779,            0.,NA,NA,"",       3.56982,       3.53000,   531.702E-03,   467.575E-12
C:/temp/dataset/7/29_4.odb,Step-1,Increment      1: Step Time =    1.000,"PART-1-1",           315,    -937.5E-03,           30.,            0.,NA,NA,"",       3.64361,       3.59255,   607.806E-03,   232.107E-12
C:/temp/dataset/7/29_4.odb,Step-1,Increment      1: Step Time =    1.000,"PART-1-1",           316,          -15.,         21.25,            0.,NA,NA,"",       3.42004,       3.05291,       1.54156,   178.490E-12
C:/temp/dataset/7/29_4.odb,Step-1,Increment      1: Step Time =    1.000,"PART-1-1",           317,      -13.3250,           20.,            0.,NA,NA,"",       3.29679,       2.96801,       1.43520,   210.567E-12
C:/temp/dataset/7/29_4.odb,Step-1,Increment      1: Step Time =    1.000,"PART-1-1",           318,      -11.7925,       21.2083,            0.,NA,NA,"",       3.32248,       3.04339,       1.33290,   210.219E-12
C:/temp/dataset/7/29_4.odb,Step-1,Increment      1: Step Time =    1.000,"PART-1-1",           319,       10.1137,       15.7319,            0.,NA,NA,"",       2.64179,       2.64054,  -81.1671E-03,   286.776E-09
C:/temp/dataset/7/29_4.odb,Step-1,Increment      1: Step Time =    1.000,"PART-1-1",           320,       9.02474,       16.2903,            0.,NA,NA,"",       2.67922,       2.67919,  -11.4816E-03,   248.745E-09
C:/temp/dataset/7/29_4.odb,Step-1,Increment      1: Step Time =    1.000,"PART-1-1",           321,       8.64023,       14.7706,            0.,NA,NA,"",       2.58116,       2.58111,   16.7641E-03,   331.300E-09
C:/temp/dataset/7/29_4.odb,Step-1,Increment      1: Step Time =    1.000,"PART-1-1",           322,       9.72917,       14.2122,            0.,NA,NA,"",       2.54301,       2.54246,  -52.9215E-03,   373.391E-09
C:/temp/dataset/7/29_4.odb,Step-1,Increment      1: Step Time =    1.000,"PART-1-1",           323,       12.8210,       13.6438,            0.,NA,NA,"",       2.51168,       2.49891,  -252.937E-03,   349.023E-09
C:/temp/dataset/7/29_4.odb,Step-1,Increment      1: Step Time =    1.000,"PART-1-1",           324,       13.9730,       12.4303,            0.,NA,NA,"",       2.43929,       2.41749,  -325.331E-03,   554.531E-09
C:/temp/dataset/7/29_4.odb,Step-1,Increment      1: Step Time =    1.000,"PART-1-1",           325,           15.,         13.75,            0.,NA,NA,"",       2.53219,       2.50120,  -394.970E-03,   660.779E-09
C:/temp/dataset/7/29_4.odb,Step-1,Increment      1: Step Time =    1.000,"PART-1-1",           326,       13.8481,       14.9635,            0.,NA,NA,"",       2.60268,       2.58262,  -322.575E-03,   278.816E-09
C:/temp/dataset/7/29_4.odb,Step-1,Increment      1: Step Time =    1.000,"PART-1-1",           327,       10.1008,       2.87074,            0.,NA,NA,"",       1.80435,       1.80357,  -52.9319E-03,   71.5418E-06
C:/temp/dataset/7/29_4.odb,Step-1,Increment      1: Step Time =    1.000,"PART-1-1",           328,       9.07373,       1.83179,            0.,NA,NA,"",       1.73815,       1.73807,   16.1723E-03,   104.612E-06
C:/temp/dataset/7/29_4.odb,Step-1,Increment      1: Step Time =    1.000,"PART-1-1",           329,       10.0520,   569.032E-03,            0.,NA,NA,"",       1.65451,       1.65391,  -44.6854E-03,   126.450E-06
C:/temp/dataset/7/29_4.odb,Step-1,Increment      1: Step Time =    1.000,"PART-1-1",           330,       11.0790,       1.60798,            0.,NA,NA,"",       1.72316,       1.71939,  -113.877E-03,   103.217E-06
C:/temp/dataset/7/29_4.odb,Step-1,Increment      1: Step Time =    1.000,"PART-1-1",           331,       9.98138,      -1.74337,            0.,NA,NA,"",       1.50401,       1.50360,  -34.9482E-03,   154.963E-06
C:/temp/dataset/7/29_4.odb,Step-1,Increment      1: Step Time =    1.000,"PART-1-1",           332,       8.90931,      -2.66004,            0.,NA,NA,"",       1.44688,       1.44641,   36.7903E-03,   359.954E-06
C:/temp/dataset/7/29_4.odb,Step-1,Increment      1: Step Time =    1.000,"PART-1-1",           333,       9.84458,      -4.07679,            0.,NA,NA,"",       1.35193,       1.35176,  -21.2471E-03,   689.849E-06
C:/temp/dataset/7/29_4.odb,Step-1,Increment      1: Step Time =    1.000,"PART-1-1",           334,       10.9167,      -3.16013,            0.,NA,NA,"",       1.41209,       1.40903,  -92.8854E-03,   370.151E-06
C:/temp/dataset/7/29_4.odb,Step-1,Increment      1: Step Time =    1.000,"PART-1-1",           335,            5.,      -3.95833,            0.,NA,NA,"",       1.40251,       1.37206,   290.694E-03,   636.482E-06
C:/temp/dataset/7/29_4.odb,Step-1,Increment      1: Step Time =    1.000,"PART-1-1",           336,       6.75254,      -4.23112,            0.,NA,NA,"",       1.36284,       1.35095,   179.619E-03,   1.34212E-03
C:/temp/dataset/7/29_4.odb,Step-1,Increment      1: Step Time =    1.000,"PART-1-1",           337,       5.92661,      -3.07918,            0.,NA,NA,"",       1.44457,       1.42609,   230.310E-03,   389.465E-06
C:/temp/dataset/7/29_4.odb,Step-1,Increment      1: Step Time =    1.000,"PART-1-1",           338,       7.06139,      -12.0396,            0.,NA,NA,"",   834.887E-03,   819.693E-03,   158.553E-03,   6.50329E-03
C:/temp/dataset/7/29_4.odb,Step-1,Increment      1: Step Time =    1.000,"PART-1-1",           339,       5.99095,      -11.1126,            0.,NA,NA,"",   920.112E-03,   891.285E-03,   228.511E-03,   6.09453E-03
C:/temp/dataset/7/29_4.odb,Step-1,Increment      1: Step Time =    1.000,"PART-1-1",           340,            5.,      -12.2917,            0.,NA,NA,"",   862.974E-03,   811.399E-03,   293.862E-03,   6.82182E-03
C:/temp/dataset/7/29_4.odb,Step-1,Increment      1: Step Time =    1.000,"PART-1-1",           341,       6.07044,      -13.2187,            0.,NA,NA,"",   773.530E-03,   741.805E-03,   219.256E-03,   6.55967E-03
C:/temp/dataset/7/29_4.odb,Step-1,Increment      1: Step Time =    1.000,"PART-1-1",           342,       6.63644,      -8.02271,            0.,NA,NA,"",       1.12045,       1.10439,   189.052E-03,   4.65571E-03
C:/temp/dataset/7/29_4.odb,Step-1,Increment      1: Step Time =    1.000,"PART-1-1",           343,            5.,        -8.125,            0.,NA,NA,"",       1.14608,       1.10688,   297.180E-03,   3.79934E-03
C:/temp/dataset/7/29_4.odb,Step-1,Increment      1: Step Time =    1.000,"PART-1-1",           344,       5.87092,      -9.06592,            0.,NA,NA,"",       1.06458,       1.03736,   239.199E-03,   4.74107E-03
C:/temp/dataset/7/29_4.odb,Step-1,Increment      1: Step Time =    1.000,"PART-1-1",           345,       13.0826,      -13.6930,            0.,NA,NA,"",   721.192E-03,   694.166E-03,  -195.579E-03,   6.59330E-03
C:/temp/dataset/7/29_4.odb,Step-1,Increment      1: Step Time =    1.000,"PART-1-1",           346,       14.0569,      -14.9678,            0.,NA,NA,"",   659.290E-03,   612.315E-03,  -244.405E-03,   8.41927E-03
C:/temp/dataset/7/29_4.odb,Step-1,Increment      1: Step Time =    1.000,"PART-1-1",           347,           15.,        -13.75,            0.,NA,NA,"",   760.803E-03,   692.304E-03,  -315.493E-03,   8.07131E-03
C:/temp/dataset/7/29_4.odb,Step-1,Increment      1: Step Time =    1.000,"PART-1-1",           348,       14.0257,      -12.4752,            0.,NA,NA,"",   818.928E-03,   775.683E-03,  -262.600E-03,   5.46721E-03
C:/temp/dataset/7/29_4.odb,Step-1,Increment      1: Step Time =    1.000,"PART-1-1",           349,       8.13738,      -21.6888,            0.,NA,NA,"",   241.288E-03,   231.713E-03,   67.2964E-03,   9.49882E-03
C:/temp/dataset/7/29_4.odb,Step-1,Increment      1: Step Time =    1.000,"PART-1-1",           350,            5.,      -28.9583,            0.,NA,NA,"",   40.9722E-03,   27.5076E-03,   30.3653E-03,   32.3077E-03
C:/temp/dataset/7/29_4.odb,Step-1,Increment      1: Step Time =    1.000,"PART-1-1",           351,          6.25,          -30.,            0.,NA,NA,"",            0.,   63.1159E-42,   35.7402E-39,   23.5021E-03
C:/temp/dataset/7/29_4.odb,Step-1,Increment      1: Step Time =    1.000,"PART-1-1",           352,       6.22347,      -27.8804,            0.,NA,NA,"",   52.5008E-03,   34.1386E-03,   39.8860E-03,   22.9840E-03
C:/temp/dataset/7/29_4.odb,Step-1,Increment      1: Step Time =    1.000,"PART-1-1",           353,           15.,        -28.75,            0.,NA,NA,"",   47.0624E-03,   30.5695E-03,  -35.7824E-03,   31.3354E-03
C:/temp/dataset/7/29_4.odb,Step-1,Increment      1: Step Time =    1.000,"PART-1-1",           354,       13.6900,      -27.4695,            0.,NA,NA,"",   60.8732E-03,   39.6338E-03,  -46.2029E-03,   21.8151E-03
C:/temp/dataset/7/29_4.odb,Step-1,Increment      1: Step Time =    1.000,"PART-1-1",           355,       12.4400,      -28.7195,            0.,NA,NA,"",   15.8305E-03,   8.91839E-03,  -13.0793E-03,   12.9161E-03
C:/temp/dataset/7/29_4.odb,Step-1,Increment      1: Step Time =    1.000,"PART-1-1",           356,         13.75,          -30.,            0.,NA,NA,"",            0.,  -1.51422E-39,  -35.3308E-39,   22.9623E-03
C:/temp/dataset/7/29_4.odb,Step-1,Increment      1: Step Time =    1.000,"PART-1-1",           357,       9.58617,      -22.6245,            0.,NA,NA,"",   185.475E-03,   185.047E-03,   12.5836E-03,   6.81314E-03
C:/temp/dataset/7/29_4.odb,Step-1,Increment      1: Step Time =    1.000,"PART-1-1",           358,       10.0221,      -21.0980,            0.,NA,NA,"",   255.367E-03,   255.345E-03,  -3.38184E-03,   6.69874E-03
C:/temp/dataset/7/29_4.odb,Step-1,Increment      1: Step Time =    1.000,"PART-1-1",           359,       8.57328,      -20.1623,            0.,NA,NA,"",   311.041E-03,   305.833E-03,   56.6801E-03,   7.92719E-03
C:/temp/dataset/7/29_4.odb,Step-1,Increment      1: Step Time =    1.000,"PART-1-1",           360,       11.1406,      -27.5456,            0.,NA,NA,"",   28.0541E-03,   25.4226E-03,  -11.8627E-03,   8.95920E-03
C:/temp/dataset/7/29_4.odb,Step-1,Increment      1: Step Time =    1.000,"PART-1-1",           361,         11.25,          -30.,            0.,NA,NA,"",            0.,  -786.138E-42,  -11.7580E-39,   5.57884E-03
C:/temp/dataset/7/29_4.odb,Step-1,Increment      1: Step Time =    1.000,"PART-1-1",           362,       11.2605,      -16.1933,            0.,NA,NA,"",   537.453E-03,   531.896E-03,  -77.0893E-03,   7.05636E-03
C:/temp/dataset/7/29_4.odb,Step-1,Increment      1: Step Time =    1.000,"PART-1-1",           363,       10.2521,      -15.0492,            0.,NA,NA,"",   606.412E-03,   605.829E-03,  -26.5968E-03,   6.48801E-03
C:/temp/dataset/7/29_4.odb,Step-1,Increment      1: Step Time =    1.000,"PART-1-1",           364,       9.32474,      -16.3084,            0.,NA,NA,"",   527.340E-03,   526.723E-03,   25.5004E-03,   6.72459E-03
C:/temp/dataset/7/29_4.odb,Step-1,Increment      1: Step Time =    1.000,"PART-1-1",           365,       10.3331,      -17.4526,            0.,NA,NA,"",   455.615E-03,   454.957E-03,  -24.4832E-03,   6.48850E-03
C:/temp/dataset/7/29_4.odb,Step-1,Increment      1: Step Time =    1.000,"PART-1-1",           366,       7.44248,      -19.0256,            0.,NA,NA,"",   388.687E-03,   371.854E-03,   113.145E-03,   9.75613E-03
C:/temp/dataset/7/29_4.odb,Step-1,Increment      1: Step Time =    1.000,"PART-1-1",           367,       6.17612,      -17.5789,            0.,NA,NA,"",   498.935E-03,   462.136E-03,   188.059E-03,   11.2522E-03
C:/temp/dataset/7/29_4.odb,Step-1,Increment      1: Step Time =    1.000,"PART-1-1",           368,            5.,      -18.5417,            0.,NA,NA,"",   480.860E-03,   415.392E-03,   242.232E-03,   15.8458E-03
C:/temp/dataset/7/29_4.odb,Step-1,Increment      1: Step Time =    1.000,"PART-1-1",           369,       12.8407,      -6.03443,            0.,NA,NA,"",       1.23258,       1.21417,  -212.243E-03,   1.20644E-03
C:/temp/dataset/7/29_4.odb,Step-1,Increment      1: Step Time =    1.000,"PART-1-1",           370,           15.,         -6.25,            0.,NA,NA,"",       1.24649,       1.19509,  -354.273E-03,   212.295E-06
C:/temp/dataset/7/29_4.odb,Step-1,Increment      1: Step Time =    1.000,"PART-1-1",           371,       13.9462,      -4.87251,            0.,NA,NA,"",       1.32081,       1.28913,  -287.511E-03,   271.200E-06
C:/temp/dataset/7/29_4.odb,Step-1,Increment      1: Step Time =    1.000,"PART-1-1",           372,       7.64514,      -8.69832,            0.,NA,NA,"",       1.05958,       1.05232,   123.845E-03,   5.11893E-03
C:/temp/dataset/7/29_4.odb,Step-1,Increment      1: Step Time =    1.000,"PART-1-1",           373,       8.20020,      -7.75016,            0.,NA,NA,"",       1.11786,       1.11436,   88.4782E-03,   4.21974E-03
C:/temp/dataset/7/29_4.odb,Step-1,Increment      1: Step Time =    1.000,"PART-1-1",           374,       7.19150,      -7.07454,            0.,NA,NA,"",       1.17522,       1.16519,   153.266E-03,   4.00469E-03
C:/temp/dataset/7/29_4.odb,Step-1,Increment      1: Step Time =    1.000,"PART-1-1",           375,       7.97278,      -1.35169,            0.,NA,NA,"",       1.53624,       1.53331,   94.7251E-03,   139.353E-06
C:/temp/dataset/7/29_4.odb,Step-1,Increment      1: Step Time =    1.000,"PART-1-1",           376,       9.01285,  -423.179E-03,            0.,NA,NA,"",       1.59169,       1.59150,   25.1362E-03,   143.229E-06
C:/temp/dataset/7/29_4.odb,Step-1,Increment      1: Step Time =    1.000,"PART-1-1",           377,       8.04185,   850.611E-03,            0.,NA,NA,"",       1.67851,       1.67634,   85.3923E-03,   117.202E-06
C:/temp/dataset/7/29_4.odb,Step-1,Increment      1: Step Time =    1.000,"PART-1-1",           378,       8.08837,       3.05311,            0.,NA,NA,"",       1.82126,       1.81961,   77.5914E-03,   63.7747E-06
C:/temp/dataset/7/29_4.odb,Step-1,Increment      1: Step Time =    1.000,"PART-1-1",           379,       9.11337,       4.08618,            0.,NA,NA,"",       1.88474,       1.88472,   8.68993E-03,   53.6246E-06
C:/temp/dataset/7/29_4.odb,Step-1,Increment      1: Step Time =    1.000,"PART-1-1",           380,       8.10868,       5.26217,            0.,NA,NA,"",       1.96468,       1.96337,   71.5378E-03,   25.8296E-06
C:/temp/dataset/7/29_4.odb,Step-1,Increment      1: Step Time =    1.000,"PART-1-1",           381,       7.08888,       6.39331,            0.,NA,NA,"",       2.04366,       2.03916,   135.491E-03,   16.7608E-06
C:/temp/dataset/7/29_4.odb,Step-1,Increment      1: Step Time =    1.000,"PART-1-1",           382,            5.,       6.45833,            0.,NA,NA,"",       2.06572,       2.04782,   271.304E-03,   7.53548E-06
C:/temp/dataset/7/29_4.odb,Step-1,Increment      1: Step Time =    1.000,"PART-1-1",           383,           15.,         16.25,            0.,NA,NA,"",       2.69381,       2.66390,  -400.271E-03,   255.179E-09
C:/temp/dataset/7/29_4.odb,Step-1,Increment      1: Step Time =    1.000,"PART-1-1",           384,       13.6214,       17.6671,            0.,NA,NA,"",       2.77681,       2.75905,  -313.552E-03,   97.3125E-09
C:/temp/dataset/7/29_4.odb,Step-1,Increment      1: Step Time =    1.000,"PART-1-1",           385,       12.4694,       16.3805,            0.,NA,NA,"",       2.68813,       2.67776,  -235.857E-03,   241.712E-09
C:/temp/dataset/7/29_4.odb,Step-1,Increment      1: Step Time =    1.000,"PART-1-1",           386,       10.0881,       9.74649,            0.,NA,NA,"",       2.25205,       2.25106,  -66.8121E-03,   2.07556E-06
C:/temp/dataset/7/29_4.odb,Step-1,Increment      1: Step Time =    1.000,"PART-1-1",           387,       9.10561,       8.57814,            0.,NA,NA,"",       2.17710,       2.17710,  -392.898E-06,   6.26496E-06
C:/temp/dataset/7/29_4.odb,Step-1,Increment      1: Step Time =    1.000,"PART-1-1",           388,       10.1162,       7.46436,            0.,NA,NA,"",       2.10345,       2.10248,  -63.7937E-03,   9.27233E-06
C:/temp/dataset/7/29_4.odb,Step-1,Increment      1: Step Time =    1.000,"PART-1-1",           389,       11.0986,       8.63272,            0.,NA,NA,"",       2.18033,       2.17644,  -130.217E-03,   5.96560E-06
C:/temp/dataset/7/29_4.odb,Step-1,Increment      1: Step Time =    1.000,"PART-1-1",           390,       9.96644,       19.4124,            0.,NA,NA,"",       2.88148,       2.88039,  -79.3865E-03,   74.1946E-09
C:/temp/dataset/7/29_4.odb,Step-1,Increment      1: Step Time =    1.000,"PART-1-1",           391,       10.9020,       20.3065,            0.,NA,NA,"",       2.94003,       2.93659,  -142.169E-03,   57.5860E-09
C:/temp/dataset/7/29_4.odb,Step-1,Increment      1: Step Time =    1.000,"PART-1-1",           392,       10.1153,       21.2880,            0.,NA,NA,"",       3.00358,       3.00214,  -93.0511E-03,   28.9487E-09
C:/temp/dataset/7/29_4.odb,Step-1,Increment      1: Step Time =    1.000,"PART-1-1",           393,       9.17975,       20.3940,            0.,NA,NA,"",       2.94609,       2.94594,  -30.2690E-03,   50.1621E-09
C:/temp/dataset/7/29_4.odb,Step-1,Increment      1: Step Time =    1.000,"PART-1-1",           394,           15.,         28.75,            0.,NA,NA,"",       3.50350,       3.47741,  -426.771E-03,   513.014E-12
C:/temp/dataset/7/29_4.odb,Step-1,Increment      1: Step Time =    1.000,"PART-1-1",           395,       14.0625,           30.,            0.,NA,NA,"",       3.57976,       3.56075,  -368.408E-03,   391.869E-12
C:/temp/dataset/7/29_4.odb,Step-1,Increment      1: Step Time =    1.000,"PART-1-1",           396,       13.1487,       28.7914,            0.,NA,NA,"",       3.49748,       3.48404,  -306.375E-03,   1.24712E-09
C:/temp/dataset/7/29_4.odb,Step-1,Increment      1: Step Time =    1.000,"PART-1-1",           397,       14.0862,       27.5414,            0.,NA,NA,"",       3.42020,       3.40070,  -364.739E-03,   1.48657E-09
C:/temp/dataset/7/29_4.odb,Step-1,Increment      1: Step Time =    1.000,"PART-1-1",           398,       12.2440,       25.2848,            0.,NA,NA,"",       3.26657,       3.25774,  -240.060E-03,   1.20804E-09
C:/temp/dataset/7/29_4.odb,Step-1,Increment      1: Step Time =    1.000,"PART-1-1",           399,       13.1763,       26.3811,            0.,NA,NA,"",       3.34088,       3.32711,  -303.061E-03,   1.43014E-09
C:/temp/dataset/7/29_4.odb,Step-1,Increment      1: Step Time =    1.000,"PART-1-1",           400,       12.2376,       27.6217,            0.,NA,NA,"",       3.41860,       3.40984,  -244.601E-03,   1.90424E-09
C:/temp/dataset/7/29_4.odb,Step-1,Increment      1: Step Time =    1.000,"PART-1-1",           401,       11.3053,       26.5254,            0.,NA,NA,"",       3.34540,       3.34047,  -181.601E-03,   1.18150E-09
C:/temp/dataset/7/29_4.odb,Step-1,Increment      1: Step Time =    1.000,"PART-1-1",           402,       12.1875,           30.,            0.,NA,NA,"",       3.57323,       3.56473,  -246.381E-03,   1.62106E-09
C:/temp/dataset/7/29_4.odb,Step-1,Increment      1: Step Time =    1.000,"PART-1-1",           403,        6.5625,           30.,            0.,NA,NA,"",       3.57866,       3.57665,   119.699E-03,   3.13630E-09
C:/temp/dataset/7/29_4.odb,Step-1,Increment      1: Step Time =    1.000,"PART-1-1",           404,       5.40000,       28.6589,            0.,NA,NA,"",       3.49746,       3.49184,   198.199E-03,   1.65856E-09
C:/temp/dataset/7/29_4.odb,Step-1,Increment      1: Step Time =    1.000,"PART-1-1",           405,       6.32063,       27.5176,            0.,NA,NA,"",       3.41851,       3.41561,   140.703E-03,   927.504E-12
C:/temp/dataset/7/29_4.odb,Step-1,Increment      1: Step Time =    1.000,"PART-1-1",           406,        2.8125,           30.,            0.,NA,NA,"",       3.60301,       3.58460,   363.753E-03,   1.35621E-09
C:/temp/dataset/7/29_4.odb,Step-1,Increment      1: Step Time =    1.000,"PART-1-1",           407,       1.86631,       29.3706,            0.,NA,NA,"",       3.57123,       3.54565,   426.666E-03,   826.109E-12
C:/temp/dataset/7/29_4.odb,Step-1,Increment      1: Step Time =    1.000,"PART-1-1",           408,       2.52123,       28.3750,            0.,NA,NA,"",       3.50083,       3.47947,   386.153E-03,   1.12476E-09
C:/temp/dataset/7/29_4.odb,Step-1,Increment      1: Step Time =    1.000,"PART-1-1",           409,       3.46742,       29.0044,            0.,NA,NA,"",       3.53324,       3.51842,   323.240E-03,   1.34418E-09
C:/temp/dataset/7/29_4.odb,Step-1,Increment      1: Step Time =    1.000,"PART-1-1",           410,       1.19073,       28.4486,            0.,NA,NA,"",       3.51895,       3.48707,   472.588E-03,   816.978E-12
C:/temp/dataset/7/29_4.odb,Step-1,Increment      1: Step Time =    1.000,"PART-1-1",           411,      -2.48443,       27.9761,            0.,NA,NA,"",       3.53668,       3.46411,   712.772E-03,   282.072E-12
C:/temp/dataset/7/29_4.odb,Step-1,Increment      1: Step Time =    1.000,"PART-1-1",           412,       -2.8125,           30.,            0.,NA,NA,"",       3.66983,       3.59653,   729.833E-03,   146.350E-12
C:/temp/dataset/7/29_4.odb,Step-1,Increment      1: Step Time =    1.000,"PART-1-1",           413,      -7.28733,       29.0238,            0.,NA,NA,"",       3.68727,       3.54248,       1.02313,   160.749E-12
C:/temp/dataset/7/29_4.odb,Step-1,Increment      1: Step Time =    1.000,"PART-1-1",           414,      -6.19423,       28.1363,            0.,NA,NA,"",       3.61068,       3.48240,   953.870E-03,   164.231E-12
C:/temp/dataset/7/29_4.odb,Step-1,Increment      1: Step Time =    1.000,"PART-1-1",           415,       -6.5625,           30.,            0.,NA,NA,"",       3.73373,       3.60448,   973.886E-03,   168.651E-12
C:/temp/dataset/7/29_4.odb,Step-1,Increment      1: Step Time =    1.000,"PART-1-1",           416,      -11.8079,       27.5253,            0.,NA,NA,"",       3.69833,       3.45454,       1.32051,   178.423E-12
C:/temp/dataset/7/29_4.odb,Step-1,Increment      1: Step Time =    1.000,"PART-1-1",           417,      -12.6125,       26.1842,            0.,NA,NA,"",       3.63903,       3.36897,       1.37571,   189.582E-12
C:/temp/dataset/7/29_4.odb,Step-1,Increment      1: Step Time =    1.000,"PART-1-1",           418,      -8.13992,       23.4434,            0.,NA,NA,"",       3.36282,       3.18111,       1.09045,   209.586E-12
C:/temp/dataset/7/29_4.odb,Step-1,Increment      1: Step Time =    1.000,"PART-1-1",           419,       -8.4375,           30.,            0.,NA,NA,"",       3.77120,       3.60845,       1.09591,   163.590E-12
C:/temp/dataset/7/29_4.odb,Step-1,Increment      1: Step Time =    1.000,"PART-1-1",           420,      -8.00049,       27.9480,            0.,NA,NA,"",       3.63557,       3.47398,       1.07182,   164.700E-12
C:/temp/dataset/7/29_4.odb,Step-1,Increment      1: Step Time =    1.000,"PART-1-1",           421,      -12.1875,           30.,            0.,NA,NA,"",       3.85667,       3.61640,       1.33997,   169.385E-12
C:/temp/dataset/7/29_4.odb,Step-1,Increment      1: Step Time =    1.000,"PART-1-1",           422,          -15.,         26.25,            0.,NA,NA,"",       3.70902,       3.37831,       1.53096,   194.373E-12
C:/temp/dataset/7/29_4.odb,Step-1,Increment      1: Step Time =    1.000,"PART-1-1",           423,  -614.199E-03,       25.3895,            0.,NA,NA,"",       3.34543,       3.29181,   596.539E-03,   596.800E-12
C:/temp/dataset/7/29_4.odb,Step-1,Increment      1: Step Time =    1.000,"PART-1-1",           424,      -1.97220,       26.8586,            0.,NA,NA,"",       3.45818,       3.39030,   681.805E-03,   363.032E-12
C:/temp/dataset/7/29_4.odb,Step-1,Increment      1: Step Time =    1.000,"PART-1-1",           425,      -1.74113,       25.3247,            0.,NA,NA,"",       3.35752,       3.28998,   670.019E-03,   455.976E-12
C:/temp/dataset/7/29_4.odb,Step-1,Increment      1: Step Time =    1.000,"PART-1-1",           426,       8.18659,       21.6045,            0.,NA,NA,"",       3.02699,       3.02682,   31.8003E-03,   20.3929E-09
C:/temp/dataset/7/29_4.odb,Step-1,Increment      1: Step Time =    1.000,"PART-1-1",           427,       9.25192,       22.4602,            0.,NA,NA,"",       3.08051,       3.08026,  -39.3462E-03,   18.2946E-09
C:/temp/dataset/7/29_4.odb,Step-1,Increment      1: Step Time =    1.000,"PART-1-1",           428,       8.38526,       23.6138,            0.,NA,NA,"",       3.15721,       3.15717,   14.6110E-03,   6.67934E-09
C:/temp/dataset/7/29_4.odb,Step-1,Increment      1: Step Time =    1.000,"PART-1-1",           429,       7.31993,       22.7581,            0.,NA,NA,"",       3.10492,       3.10374,   85.7575E-03,   10.2422E-09
C:/temp/dataset/7/29_4.odb,Step-1,Increment      1: Step Time =    1.000,"PART-1-1",           430,           15.,         26.25,            0.,NA,NA,"",       3.34140,       3.31471,  -421.471E-03,   2.72107E-09
C:/temp/dataset/7/29_4.odb,Step-1,Increment      1: Step Time =    1.000,"PART-1-1",           431,        4.6875,           30.,            0.,NA,NA,"",       3.58878,       3.58063,   241.726E-03,   2.30399E-09
C:/temp/dataset/7/29_4.odb,Step-1,Increment      1: Step Time =    1.000,"PART-1-1",           432,       9.38339,       24.5308,            0.,NA,NA,"",       3.21516,       3.21473,  -52.2923E-03,   5.41551E-09
C:/temp/dataset/7/29_4.odb,Step-1,Increment      1: Step Time =    1.000,"PART-1-1",           433,       8.53172,       25.6694,            0.,NA,NA,"",       3.29064,       3.29064,   721.561E-06,   1.80229E-09
C:/temp/dataset/7/29_4.odb,Step-1,Increment      1: Step Time =    1.000,"PART-1-1",           434,       7.53359,       24.7524,            0.,NA,NA,"",       3.23378,       3.23308,   67.6249E-03,   3.38983E-09
C:/temp/dataset/7/29_4.odb,Step-1,Increment      1: Step Time =    1.000,"PART-1-1",           435,     937.5E-03,           30.,            0.,NA,NA,"",       3.62131,       3.58858,   485.779E-03,   625.334E-12
C:/temp/dataset/7/29_4.odb,Step-1,Increment      1: Step Time =    1.000,"PART-1-1",           436,       5.64845,       26.5466,            0.,NA,NA,"",       3.35902,       3.35384,   186.508E-03,   1.03984E-09
C:/temp/dataset/7/29_4.odb,Step-1,Increment      1: Step Time =    1.000,"PART-1-1",           437,       4.65082,       24.6490,            0.,NA,NA,"",       3.24254,       3.23246,   255.457E-03,   1.62414E-09
C:/temp/dataset/7/29_4.odb,Step-1,Increment      1: Step Time =    1.000,"PART-1-1",           438,       5.82711,       24.9927,            0.,NA,NA,"",       3.25721,       3.25233,   178.175E-03,   1.44512E-09
C:/temp/dataset/7/29_4.odb,Step-1,Increment      1: Step Time =    1.000,"PART-1-1",           439,      -3.57200,       27.5772,            0.,NA,NA,"",       3.52874,       3.44046,   784.398E-03,   217.009E-12
C:/temp/dataset/7/29_4.odb,Step-1,Increment      1: Step Time =    1.000,"PART-1-1",           440,      -3.05977,       26.4597,            0.,NA,NA,"",       3.44992,       3.36664,   753.431E-03,   284.979E-12
C:/temp/dataset/7/29_4.odb,Step-1,Increment      1: Step Time =    1.000,"PART-1-1",           441,      -4.23358,       26.7178,            0.,NA,NA,"",       3.48600,       3.38593,   829.276E-03,   213.739E-12
C:/temp/dataset/7/29_4.odb,Step-1,Increment      1: Step Time =    1.000,"PART-1-1",           442,      -5.07335,       27.3652,            0.,NA,NA,"",       3.54157,       3.42984,   882.557E-03,   180.980E-12
C:/temp/dataset/7/29_4.odb,Step-1,Increment      1: Step Time =    1.000,"PART-1-1",           443,      -5.65848,       26.3267,            0.,NA,NA,"",       3.48780,       3.36350,   922.839E-03,   189.044E-12
C:/temp/dataset/7/29_4.odb,Step-1,Increment      1: Step Time =    1.000,"PART-1-1",           444,      -6.77936,       27.0978,            0.,NA,NA,"",       3.55778,       3.41606,   994.152E-03,   173.738E-12
C:/temp/dataset/7/29_4.odb,Step-1,Increment      1: Step Time =    1.000,"PART-1-1",           445,       13.0726,       6.26892,            0.,NA,NA,"",       2.03432,       2.01844,  -253.680E-03,   16.8293E-06
C:/temp/dataset/7/29_4.odb,Step-1,Increment      1: Step Time =    1.000,"PART-1-1",           446,       14.0382,       5.02867,            0.,NA,NA,"",       1.96099,       1.93570,  -313.905E-03,   17.4058E-06
C:/temp/dataset/7/29_4.odb,Step-1,Increment      1: Step Time =    1.000,"PART-1-1",           447,           15.,          6.25,            0.,NA,NA,"",       2.04850,       2.01313,  -379.069E-03,   8.61242E-06
C:/temp/dataset/7/29_4.odb,Step-1,Increment      1: Step Time =    1.000,"PART-1-1",           448,       14.0344,       7.49025,            0.,NA,NA,"",       2.11999,       2.09588,  -318.860E-03,   3.61828E-06
C:/temp/dataset/7/29_4.odb,Step-1,Increment      1: Step Time =    1.000,"PART-1-1",           449,            5.,       12.7083,            0.,NA,NA,"",       2.46813,       2.45461,   258.049E-03,   884.135E-09
C:/temp/dataset/7/29_4.odb,Step-1,Increment      1: Step Time =    1.000,"PART-1-1",           450,       6.97129,       12.7632,            0.,NA,NA,"",       2.45742,       2.45400,   129.637E-03,   318.211E-09
C:/temp/dataset/7/29_4.odb,Step-1,Increment      1: Step Time =    1.000,"PART-1-1",           451,       8.08110,       9.66220,            0.,NA,NA,"",       2.25074,       2.24983,   63.9830E-03,   1.83650E-06
C:/temp/dataset/7/29_4.odb,Step-1,Increment      1: Step Time =    1.000,"PART-1-1",           452,       8.10192,       7.46894,            0.,NA,NA,"",       2.10811,       2.10703,   67.2825E-03,   8.31398E-06
C:/temp/dataset/7/29_4.odb,Step-1,Increment      1: Step Time =    1.000,"PART-1-1",           453,            5.,        -1.875,            0.,NA,NA,"",       1.53310,       1.50583,   287.913E-03,   503.502E-06
C:/temp/dataset/7/29_4.odb,Step-1,Increment      1: Step Time =    1.000,"PART-1-1",           454,       6.91011,      -2.19684,            0.,NA,NA,"",       1.49001,       1.48081,   165.328E-03,   145.122E-06
C:/temp/dataset/7/29_4.odb,Step-1,Increment      1: Step Time =    1.000,"PART-1-1",           455,       11.0205,  -751.161E-03,            0.,NA,NA,"",       1.56949,       1.56598,  -104.867E-03,   114.380E-06
C:/temp/dataset/7/29_4.odb,Step-1,Increment      1: Step Time =    1.000,"PART-1-1",           456,       13.1408,      -16.1676,            0.,NA,NA,"",   564.605E-03,   535.174E-03,  -179.910E-03,   8.60485E-03
C:/temp/dataset/7/29_4.odb,Step-1,Increment      1: Step Time =    1.000,"PART-1-1",           457,       14.0839,      -17.4497,            0.,NA,NA,"",   510.110E-03,   460.401E-03,  -219.645E-03,   11.4944E-03
C:/temp/dataset/7/29_4.odb,Step-1,Increment      1: Step Time =    1.000,"PART-1-1",           458,           15.,        -16.25,            0.,NA,NA,"",   607.702E-03,   535.073E-03,  -288.094E-03,   11.9341E-03
C:/temp/dataset/7/29_4.odb,Step-1,Increment      1: Step Time =    1.000,"PART-1-1",           459,            5.,       -14.375,            0.,NA,NA,"",   727.417E-03,   670.357E-03,   282.414E-03,   9.86184E-03
C:/temp/dataset/7/29_4.odb,Step-1,Increment      1: Step Time =    1.000,"PART-1-1",           460,       6.11916,      -15.3567,            0.,NA,NA,"",   634.340E-03,   599.746E-03,   206.619E-03,   8.92143E-03
C:/temp/dataset/7/29_4.odb,Step-1,Increment      1: Step Time =    1.000,"PART-1-1",           461,       13.0403,       1.40949,            0.,NA,NA,"",       1.71939,       1.70237,  -241.298E-03,   96.9567E-06
C:/temp/dataset/7/29_4.odb,Step-1,Increment      1: Step Time =    1.000,"PART-1-1",           462,       14.0142,   96.5788E-03,            0.,NA,NA,"",       1.64282,       1.61481,  -302.106E-03,   130.988E-06
C:/temp/dataset/7/29_4.odb,Step-1,Increment      1: Step Time =    1.000,"PART-1-1",           463,           15.,          1.25,            0.,NA,NA,"",       1.72757,       1.68777,  -368.678E-03,   128.088E-06
C:/temp/dataset/7/29_4.odb,Step-1,Increment      1: Step Time =    1.000,"PART-1-1",           464,       14.0261,       2.56291,            0.,NA,NA,"",       1.80182,       1.77531,  -307.952E-03,   56.3900E-06
C:/temp/dataset/7/29_4.odb,Step-1,Increment      1: Step Time =    1.000,"PART-1-1",           465,            5.,      -10.2083,            0.,NA,NA,"",       1.00839,   963.304E-03,   298.141E-03,   4.89015E-03
C:/temp/dataset/7/29_4.odb,Step-1,Increment      1: Step Time =    1.000,"PART-1-1",           466,       6.86187,      -9.97015,            0.,NA,NA,"",   983.166E-03,   967.773E-03,   173.290E-03,   6.26104E-03
C:/temp/dataset/7/29_4.odb,Step-1,Increment      1: Step Time =    1.000,"PART-1-1",           467,            5.,      -24.7917,            0.,NA,NA,"",   187.394E-03,   130.726E-03,   134.265E-03,   24.7045E-03
C:/temp/dataset/7/29_4.odb,Step-1,Increment      1: Step Time =    1.000,"PART-1-1",           468,       6.13477,      -25.7685,            0.,NA,NA,"",   121.023E-03,   88.4471E-03,   82.6056E-03,   20.7116E-03
C:/temp/dataset/7/29_4.odb,Step-1,Increment      1: Step Time =    1.000,"PART-1-1",           469,       13.1299,      -20.9468,            0.,NA,NA,"",   298.282E-03,   268.404E-03,  -130.121E-03,   12.5985E-03
C:/temp/dataset/7/29_4.odb,Step-1,Increment      1: Step Time =    1.000,"PART-1-1",           470,       14.0295,      -22.3095,            0.,NA,NA,"",   257.945E-03,   210.873E-03,  -148.553E-03,   17.2750E-03
C:/temp/dataset/7/29_4.odb,Step-1,Increment      1: Step Time =    1.000,"PART-1-1",           471,           15.,        -21.25,            0.,NA,NA,"",   338.266E-03,   265.371E-03,  -209.767E-03,   19.5725E-03
C:/temp/dataset/7/29_4.odb,Step-1,Increment      1: Step Time =    1.000,"PART-1-1",           472,       14.1003,      -19.8873,            0.,NA,NA,"",   376.842E-03,   326.201E-03,  -188.686E-03,   14.5165E-03
C:/temp/dataset/7/29_4.odb,Step-1,Increment      1: Step Time =    1.000,"PART-1-1",           473,            5.,       -26.875,            0.,NA,NA,"",   112.471E-03,   71.5013E-03,   86.8181E-03,   27.9887E-03
C:/temp/dataset/7/29_4.odb,Step-1,Increment      1: Step Time =    1.000,"PART-1-1",           474,       7.35824,      -26.7740,            0.,NA,NA,"",   65.1564E-03,   50.7149E-03,   40.9066E-03,   15.7402E-03
C:/temp/dataset/7/29_4.odb,Step-1,Increment      1: Step Time =    1.000,"PART-1-1",           475,       11.2665,      -23.4125,            0.,NA,NA,"",   157.315E-03,   152.418E-03,  -38.9480E-03,   8.57425E-03
C:/temp/dataset/7/29_4.odb,Step-1,Increment      1: Step Time =    1.000,"PART-1-1",           476,       10.8283,      -24.9299,            0.,NA,NA,"",   97.6275E-03,   95.6668E-03,  -19.4676E-03,   7.52747E-03
C:/temp/dataset/7/29_4.odb,Step-1,Increment      1: Step Time =    1.000,"PART-1-1",           477,            5.,      -16.4583,            0.,NA,NA,"",   599.768E-03,   537.861E-03,   265.382E-03,   12.7756E-03
C:/temp/dataset/7/29_4.odb,Step-1,Increment      1: Step Time =    1.000,"PART-1-1",           478,       7.29529,      -16.4772,            0.,NA,NA,"",   539.734E-03,   522.885E-03,   133.806E-03,   8.20458E-03
C:/temp/dataset/7/29_4.odb,Step-1,Increment      1: Step Time =    1.000,"PART-1-1",           479,            5.,       18.9583,            0.,NA,NA,"",       2.87182,       2.86136,   244.797E-03,   59.0574E-09
C:/temp/dataset/7/29_4.odb,Step-1,Increment      1: Step Time =    1.000,"PART-1-1",           480,       6.05050,       17.7875,            0.,NA,NA,"",       2.78868,       2.78294,   178.912E-03,   92.6256E-09
C:/temp/dataset/7/29_4.odb,Step-1,Increment      1: Step Time =    1.000,"PART-1-1",           481,       7.11573,       18.6629,            0.,NA,NA,"",       2.83970,       2.83765,   107.729E-03,   102.559E-09
C:/temp/dataset/7/29_4.odb,Step-1,Increment      1: Step Time =    1.000,"PART-1-1",           482,       6.06524,       19.8338,            0.,NA,NA,"",       2.92125,       2.91608,   173.614E-03,   32.4911E-09
C:/temp/dataset/7/29_4.odb,Step-1,Increment      1: Step Time =    1.000,"PART-1-1",           483,       6.98524,       16.7251,            0.,NA,NA,"",       2.71448,       2.71181,   120.330E-03,   202.686E-09
C:/temp/dataset/7/29_4.odb,Step-1,Increment      1: Step Time =    1.000,"PART-1-1",           484,            5.,        16.875,            0.,NA,NA,"",       2.73715,       2.72578,   249.213E-03,   185.165E-09
C:/temp/dataset/7/29_4.odb,Step-1,Increment      1: Step Time =    1.000,"PART-1-1",           485,       7.88091,       13.8682,            0.,NA,NA,"",       2.52491,       2.52399,   68.0947E-03,   346.147E-09
C:/temp/dataset/7/29_4.odb,Step-1,Increment      1: Step Time =    1.000,"PART-1-1",           486,       7.65947,       15.6945,            0.,NA,NA,"",       2.64448,       2.64331,   78.6350E-03,   251.365E-09
C:/temp/dataset/7/29_4.odb,Step-1,Increment      1: Step Time =    1.000,"PART-1-1",           487,       8.92157,       12.9075,            0.,NA,NA,"",       2.45926,       2.45925,   2.40399E-03,   353.812E-09
C:/temp/dataset/7/29_4.odb,Step-1,Increment      1: Step Time =    1.000,"PART-1-1",           488,       9.98918,       11.9956,            0.,NA,NA,"",       2.39853,       2.39765,  -65.1447E-03,   441.295E-09
C:/temp/dataset/7/29_4.odb,Step-1,Increment      1: Step Time =    1.000,"PART-1-1",           489,       10.7968,       13.3004,            0.,NA,NA,"",       2.48377,       2.48085,  -120.470E-03,   357.880E-09
C:/temp/dataset/7/29_4.odb,Step-1,Increment      1: Step Time =    1.000,"PART-1-1",           490,       13.0565,       8.69239,            0.,NA,NA,"",       2.19139,       2.17618,  -257.762E-03,   4.09385E-06
C:/temp/dataset/7/29_4.odb,Step-1,Increment      1: Step Time =    1.000,"PART-1-1",           491,           15.,          8.75,            0.,NA,NA,"",       2.20950,       2.17581,  -384.365E-03,   231.379E-09
C:/temp/dataset/7/29_4.odb,Step-1,Increment      1: Step Time =    1.000,"PART-1-1",           492,       14.0220,       9.95215,            0.,NA,NA,"",       2.27915,       2.25611,  -323.270E-03,   708.767E-09
C:/temp/dataset/7/29_4.odb,Step-1,Increment      1: Step Time =    1.000,"PART-1-1",           493,       8.15713,      -6.43409,            0.,NA,NA,"",       1.20630,       1.20287,   90.8737E-03,   3.15266E-03
C:/temp/dataset/7/29_4.odb,Step-1,Increment      1: Step Time =    1.000,"PART-1-1",           494,       7.55707,      -5.50995,            0.,NA,NA,"",       1.27272,       1.26615,   129.084E-03,   2.32682E-03
C:/temp/dataset/7/29_4.odb,Step-1,Increment      1: Step Time =    1.000,"PART-1-1",           495,       13.0039,      -1.03047,            0.,NA,NA,"",       1.56115,       1.54354,  -233.791E-03,   96.4668E-06
C:/temp/dataset/7/29_4.odb,Step-1,Increment      1: Step Time =    1.000,"PART-1-1",           496,       13.9897,      -2.37705,            0.,NA,NA,"",       1.48313,       1.45338,  -295.539E-03,   194.558E-06
C:/temp/dataset/7/29_4.odb,Step-1,Increment      1: Step Time =    1.000,"PART-1-1",           497,           15.,         -1.25,            0.,NA,NA,"",       1.56761,       1.52481,  -363.810E-03,   268.914E-06
C:/temp/dataset/7/29_4.odb,Step-1,Increment      1: Step Time =    1.000,"PART-1-1",           498,       11.0188,      -11.3444,            0.,NA,NA,"",   859.194E-03,   855.251E-03,  -82.2106E-03,   5.63130E-03
C:/temp/dataset/7/29_4.odb,Step-1,Increment      1: Step Time =    1.000,"PART-1-1",           499,       9.94563,      -10.3262,            0.,NA,NA,"",   928.966E-03,   928.770E-03,  -19.0780E-03,   5.54359E-03
C:/temp/dataset/7/29_4.odb,Step-1,Increment      1: Step Time =    1.000,"PART-1-1",           500,       9.07908,      -11.6768,            0.,NA,NA,"",   838.047E-03,   837.304E-03,   35.2845E-03,   6.47010E-03
C:/temp/dataset/7/29_4.odb,Step-1,Increment      1: Step Time =    1.000,"PART-1-1",           501,       10.1523,      -12.6950,            0.,NA,NA,"",   764.380E-03,   763.908E-03,  -26.8551E-03,   6.35856E-03
C:/temp/dataset/7/29_4.odb,Step-1,Increment      1: Step Time =    1.000,"PART-1-1",           502,       11.2699,       24.2837,            0.,NA,NA,"",       3.19942,       3.19465,  -174.545E-03,   5.41318E-09
C:/temp/dataset/7/29_4.odb,Step-1,Increment      1: Step Time =    1.000,"PART-1-1",           503,       12.1787,       22.9892,            0.,NA,NA,"",       3.11704,       3.10848,  -230.946E-03,   8.24625E-09
C:/temp/dataset/7/29_4.odb,Step-1,Increment      1: Step Time =    1.000,"PART-1-1",           504,           15.,         -3.75,            0.,NA,NA,"",       1.40753,       1.36092,  -359.234E-03,   306.972E-06
C:/temp/dataset/7/29_4.odb,Step-1,Increment      1: Step Time =    1.000,"PART-1-1",           505,       12.9359,      -3.49956,            0.,NA,NA,"",       1.40013,       1.38207,  -224.128E-03,   233.865E-06
C:/temp/dataset/7/29_4.odb,Step-1,Increment      1: Step Time =    1.000,"PART-1-1",           506,           15.,        -11.25,            0.,NA,NA,"",   921.005E-03,   857.977E-03,  -334.852E-03,   4.50513E-03
C:/temp/dataset/7/29_4.odb,Step-1,Increment      1: Step Time =    1.000,"PART-1-1",           507,       12.9838,      -11.1958,            0.,NA,NA,"",   886.470E-03,   862.698E-03,  -203.915E-03,   4.69447E-03
C:/temp/dataset/7/29_4.odb,Step-1,Increment      1: Step Time =    1.000,"PART-1-1",           508,           15.,         11.25,            0.,NA,NA,"",       2.37074,       2.33850,  -389.668E-03,   1.13361E-06
C:/temp/dataset/7/29_4.odb,Step-1,Increment      1: Step Time =    1.000,"PART-1-1",           509,       12.9950,       11.1325,            0.,NA,NA,"",       2.34941,       2.33510,  -258.934E-03,   381.790E-09
C:/temp/dataset/7/29_4.odb,Step-1,Increment      1: Step Time =    1.000,"PART-1-1",           510,           15.,          3.75,            0.,NA,NA,"",       1.88784,       1.85046,  -373.812E-03,   41.9908E-06
C:/temp/dataset/7/29_4.odb,Step-1,Increment      1: Step Time =    1.000,"PART-1-1",           511,       13.0643,       3.84158,            0.,NA,NA,"",       1.87700,       1.86054,  -248.001E-03,   48.1565E-06
C:/temp/dataset/7/29_4.odb,Step-1,Increment      1: Step Time =    1.000,"PART-1-1",           512,           15.,        -18.75,            0.,NA,NA,"",   465.812E-03,   391.289E-03,  -252.733E-03,   15.7779E-03
C:/temp/dataset/7/29_4.odb,Step-1,Increment      1: Step Time =    1.000,"PART-1-1",           513,       13.1842,      -18.5870,            0.,NA,NA,"",   423.288E-03,   392.260E-03,  -159.074E-03,   10.7282E-03
C:/temp/dataset/7/29_4.odb,Step-1,Increment      1: Step Time =    1.000,"PART-1-1",           514,       13.5513,      -24.7801,            0.,NA,NA,"",   145.459E-03,   113.005E-03,  -91.5865E-03,   17.9055E-03
C:/temp/dataset/7/29_4.odb,Step-1,Increment      1: Step Time =    1.000,"PART-1-1",           515,       12.2413,      -25.9996,            0.,NA,NA,"",   79.2323E-03,   66.9602E-03,  -42.3567E-03,   13.0978E-03
C:/temp/dataset/7/29_4.odb,Step-1,Increment      1: Step Time =    1.000,"PART-1-1",           516,           15.,        -26.25,            0.,NA,NA,"",   132.425E-03,   83.7382E-03,  -102.588E-03,   27.0624E-03
C:/temp/dataset/7/29_4.odb,Step-1,Increment      1: Step Time =    1.000,"PART-1-1",           517,           15.,        -23.75,            0.,NA,NA,"",   226.896E-03,   161.526E-03,  -159.346E-03,   23.0863E-03
C:/temp/dataset/7/29_4.odb,Step-1,Increment      1: Step Time =    1.000,"PART-1-1",           518,       12.5809,      -23.3397,            0.,NA,NA,"",   179.268E-03,   159.815E-03,  -81.2168E-03,   12.6699E-03
C:/temp/dataset/7/29_4.odb,Step-1,Increment      1: Step Time =    1.000,"PART-1-1",           519,       9.49127,      -18.7202,            0.,NA,NA,"",   382.508E-03,   382.087E-03,   17.9447E-03,   6.76677E-03
C:/temp/dataset/7/29_4.odb,Step-1,Increment      1: Step Time =    1.000,"PART-1-1",           520,       8.36047,      -17.5836,            0.,NA,NA,"",   457.260E-03,   451.213E-03,   74.1172E-03,   7.31231E-03
C:/temp/dataset/7/29_4.odb,Step-1,Increment      1: Step Time =    1.000,"PART-1-1",           521,       11.5260,      -20.5498,            0.,NA,NA,"",   290.844E-03,   283.262E-03,  -65.9752E-03,   8.25607E-03
C:/temp/dataset/7/29_4.odb,Step-1,Increment      1: Step Time =    1.000,"PART-1-1",           522,       10.5221,      -19.7870,            0.,NA,NA,"",   323.386E-03,   322.275E-03,  -26.7793E-03,   6.63287E-03
C:/temp/dataset/7/29_4.odb,Step-1,Increment      1: Step Time =    1.000,"PART-1-1",           523,       11.0260,      -21.8608,            0.,NA,NA,"",   222.603E-03,   219.164E-03,  -38.9772E-03,   7.45436E-03
C:/temp/dataset/7/29_4.odb,Step-1,Increment      1: Step Time =    1.000,"PART-1-1",           524,       7.98010,      -10.7619,            0.,NA,NA,"",   911.669E-03,   905.933E-03,   102.106E-03,   6.32341E-03
C:/temp/dataset/7/29_4.odb,Step-1,Increment      1: Step Time =    1.000,"PART-1-1",           525,       8.65118,      -4.78401,            0.,NA,NA,"",       1.31049,       1.30923,   57.3898E-03,   1.49439E-03
C:/temp/dataset/7/29_4.odb,Step-1,Increment      1: Step Time =    1.000,"PART-1-1",           526,       7.84665,      -3.50518,            0.,NA,NA,"",       1.39847,       1.39434,   107.497E-03,   525.174E-06
C:/temp/dataset/7/29_4.odb,Step-1,Increment      1: Step Time =    1.000,"PART-1-1",           527,       9.43586,      -6.49799,            0.,NA,NA,"",       1.19324,       1.19321,   8.66138E-03,   2.46870E-03
C:/temp/dataset/7/29_4.odb,Step-1,Increment      1: Step Time =    1.000,"PART-1-1",           528,       10.6293,      -5.79077,            0.,NA,NA,"",       1.23825,       1.23632,  -69.1936E-03,   1.75931E-03
C:/temp/dataset/7/29_4.odb,Step-1,Increment      1: Step Time =    1.000,"PART-1-1",           529,       11.1144,       3.95682,            0.,NA,NA,"",       1.87606,       1.87214,  -121.271E-03,   53.7878E-06
C:/temp/dataset/7/29_4.odb,Step-1,Increment      1: Step Time =    1.000,"PART-1-1",           530,       10.1270,       5.17226,            0.,NA,NA,"",       1.95420,       1.95329,  -59.6074E-03,   29.1838E-06
C:/temp/dataset/7/29_4.odb,Step-1,Increment      1: Step Time =    1.000,"PART-1-1",           531,       9.05317,       10.7826,            0.,NA,NA,"",       2.32069,       2.32069,  -1.65634E-03,   1.28751E-06
C:/temp/dataset/7/29_4.odb,Step-1,Increment      1: Step Time =    1.000,"PART-1-1",           532,       8.01195,       11.8024,            0.,NA,NA,"",       2.39012,       2.38926,   63.9459E-03,   311.538E-09
C:/temp/dataset/7/29_4.odb,Step-1,Increment      1: Step Time =    1.000,"PART-1-1",           533,       11.0241,       10.9595,            0.,NA,NA,"",       2.33166,       2.32802,  -130.301E-03,   1.11284E-06
C:/temp/dataset/7/29_4.odb,Step-1,Increment      1: Step Time =    1.000,"PART-1-1",           534,       8.35051,       17.3209,            0.,NA,NA,"",       2.74786,       2.74769,   30.2134E-03,   154.035E-09
C:/temp/dataset/7/29_4.odb,Step-1,Increment      1: Step Time =    1.000,"PART-1-1",           535,       12.5952,       19.1415,            0.,NA,NA,"",       2.86809,       2.85718,  -249.892E-03,   87.2650E-09
C:/temp/dataset/7/29_4.odb,Step-1,Increment      1: Step Time =    1.000,"PART-1-1",           536,           15.,         18.75,            0.,NA,NA,"",       2.85555,       2.82660,  -405.571E-03,   68.0508E-09
C:/temp/dataset/7/29_4.odb,Step-1,Increment      1: Step Time =    1.000,"PART-1-1",           537,      -7.03326,       22.4462,            0.,NA,NA,"",       3.27684,       3.11387,       1.02054,   228.558E-12
C:/temp/dataset/7/29_4.odb,Step-1,Increment      1: Step Time =    1.000,"PART-1-1",           538,      -8.48458,       21.3302,            0.,NA,NA,"",       3.24289,       3.04431,       1.11736,   227.556E-12
C:/temp/dataset/7/29_4.odb,Step-1,Increment      1: Step Time =    1.000,"PART-1-1",           539,      -6.65000,           20.,            0.,NA,NA,"",       3.11878,       2.95385,       1.00078,   263.907E-12
C:/temp/dataset/7/29_4.odb,Step-1,Increment      1: Step Time =    1.000,"PART-1-1",           540,      -5.19869,       21.1160,            0.,NA,NA,"",       3.15565,       3.02341,   903.962E-03,   259.421E-12
C:/temp/dataset/7/29_4.odb,Step-1,Increment      1: Step Time =    1.000,"PART-1-1",           541,       9.42603,       26.6587,            0.,NA,NA,"",       3.35366,       3.35313,  -59.5781E-03,   1.01079E-09
C:/temp/dataset/7/29_4.odb,Step-1,Increment      1: Step Time =    1.000,"PART-1-1",           542,       10.3720,       25.4897,            0.,NA,NA,"",       3.27719,       3.27504,  -118.663E-03,   1.94165E-09
C:/temp/dataset/7/29_4.odb,Step-1,Increment      1: Step Time =    1.000,"PART-1-1",           543,       6.87457,       25.7626,            0.,NA,NA,"",       3.30200,       3.30022,   108.373E-03,   1.36180E-09
C:/temp/dataset/7/29_4.odb,Step-1,Increment      1: Step Time =    1.000,"PART-1-1",           544,       7.54675,       26.7337,            0.,NA,NA,"",       3.36257,       3.36199,   62.5682E-03,   562.569E-12
C:/temp/dataset/7/29_4.odb,Step-1,Increment      1: Step Time =    1.000,"PART-1-1",           545,      -3.17643,       25.4018,            0.,NA,NA,"",       3.38521,       3.29804,   763.266E-03,   289.423E-12
C:/temp/dataset/7/29_4.odb,Step-1,Increment      1: Step Time =    1.000,"PART-1-1",           546,      -4.35024,       25.6599,            0.,NA,NA,"",       3.42181,       3.31733,   839.111E-03,   224.218E-12
C:/temp/dataset/7/29_4.odb,Step-1,Increment      1: Step Time =    1.000,"PART-1-1",           547,       4.01884,       22.4610,            0.,NA,NA,"",       3.10604,       3.09140,   301.226E-03,   2.89905E-09
C:/temp/dataset/7/29_4.odb,Step-1,Increment      1: Step Time =    1.000,"PART-1-1",           548,       5.32127,       23.1739,            0.,NA,NA,"",       3.14240,       3.13504,   214.951E-03,   2.62945E-09
C:/temp/dataset/7/29_4.odb,Step-1,Increment      1: Step Time =    1.000,"PART-1-1",           549,       11.1447,       22.1526,            0.,NA,NA,"",       3.06051,       3.05622,  -161.879E-03,   22.3790E-09
C:/temp/dataset/7/29_4.odb,Step-1,Increment      1: Step Time =    1.000,"PART-1-1",           550,       10.2813,       23.3249,            0.,NA,NA,"",       3.13621,       3.13434,  -108.174E-03,   8.88431E-09
C:/temp/dataset/7/29_4.odb,Step-1,Increment      1: Step Time =    1.000,"PART-1-1",           551,       6.15508,       21.9496,            0.,NA,NA,"",       3.05795,       3.05359,   163.282E-03,   8.58938E-09
C:/temp/dataset/7/29_4.odb,Step-1,Increment      1: Step Time =    1.000,"PART-1-1",           552,       6.48612,       23.9825,            0.,NA,NA,"",       3.18815,       3.18519,   137.427E-03,   3.67039E-09
C:/temp/dataset/7/29_4.odb,Step-1,Increment      1: Step Time =    1.000,"PART-1-1",           553,   6.30745E-03,       24.2683,            0.,NA,NA,"",       3.26564,       3.21753,   558.533E-03,   912.178E-12
C:/temp/dataset/7/29_4.odb,Step-1,Increment      1: Step Time =    1.000,"PART-1-1",           554,      -1.65981,       23.6471,            0.,NA,NA,"",       3.25008,       3.18063,   668.283E-03,   426.332E-12
C:/temp/dataset/7/29_4.odb,Step-1,Increment      1: Step Time =    1.000,"PART-1-1",           555,      -1.07768,       22.4355,            0.,NA,NA,"",       3.16450,       3.10055,   632.966E-03,   823.772E-12
C:/temp/dataset/7/29_4.odb,Step-1,Increment      1: Step Time =    1.000,"PART-1-1",           556,   588.432E-03,       23.0567,            0.,NA,NA,"",       3.18077,       3.13744,   523.217E-03,   1.20364E-09
C:/temp/dataset/7/29_4.odb,Step-1,Increment      1: Step Time =    1.000,"PART-1-1",           557,      -4.82218,       24.5397,            0.,NA,NA,"",       3.36059,       3.24543,   872.200E-03,   227.361E-12
C:/temp/dataset/7/29_4.odb,Step-1,Increment      1: Step Time =    1.000,"PART-1-1",           558,      -3.09511,       23.7242,            0.,NA,NA,"",       3.27837,       3.18869,   761.530E-03,   311.168E-12
C:/temp/dataset/7/29_4.odb,Step-1,Increment      1: Step Time =    1.000,"PART-1-1",           559,      -5.58708,       23.2486,            0.,NA,NA,"",       3.29542,       3.16302,   924.718E-03,   230.301E-12
C:/temp/dataset/7/29_4.odb,Step-1,Increment      1: Step Time =    1.000,"PART-1-1",           560,       8.76337,      -9.49006,            0.,NA,NA,"",   993.092E-03,   991.663E-03,   53.2554E-03,   5.44374E-03
C:/temp/dataset/7/29_4.odb,Step-1,Increment      1: Step Time =    1.000,"PART-1-1",           561,       9.72759,      -26.4759,            0.,NA,NA,"",   49.5179E-03,   49.2895E-03,   4.75045E-03,   6.97824E-03
C:/temp/dataset/7/29_4.odb,Step-1,Increment      1: Step Time =    1.000,"PART-1-1",           562,       9.12173,       6.33780,            0.,NA,NA,"",       2.03126,       2.03126,   3.32350E-03,   20.7619E-06
C:/temp/dataset/7/29_4.odb,Step-1,Increment      1: Step Time =    1.000,"PART-1-1",           563,       11.1214,       6.29882,            0.,NA,NA,"",       2.02848,       2.02451,  -126.740E-03,   20.7847E-06
C:/temp/dataset/7/29_4.odb,Step-1,Increment      1: Step Time =    1.000,"PART-1-1",           564,       11.1740,      -13.7880,            0.,NA,NA,"",   693.230E-03,   688.264E-03,  -82.8306E-03,   6.55162E-03
C:/temp/dataset/7/29_4.odb,Step-1,Increment      1: Step Time =    1.000,"PART-1-1",           565,       10.6612,      -8.65022,            0.,NA,NA,"",       1.04467,       1.04255,  -66.4121E-03,   3.91749E-03
C:/temp/dataset/7/29_4.odb,Step-1,Increment      1: Step Time =    1.000,"PART-1-1",           566,       9.47894,      -7.81405,            0.,NA,NA,"",       1.10418,       1.10416,   7.16687E-03,   3.81939E-03
C:/temp/dataset/7/29_4.odb,Step-1,Increment      1: Step Time =    1.000,"PART-1-1",           567,       11.3640,      -18.5194,            0.,NA,NA,"",   398.787E-03,   392.500E-03,  -70.5354E-03,   7.54675E-03
C:/temp/dataset/7/29_4.odb,Step-1,Increment      1: Step Time =    1.000,"PART-1-1",           568,       12.0025,       20.7886,            0.,NA,NA,"",       2.97340,       2.96563,  -214.812E-03,   33.6659E-09
C:/temp/dataset/7/29_4.odb,Step-1,Increment      1: Step Time =    1.000,"PART-1-1",           569,       11.4947,       18.6594,            0.,NA,NA,"",       2.83369,       2.82814,  -177.249E-03,   104.800E-09
C:/temp/dataset/7/29_4.odb,Step-1,Increment      1: Step Time =    1.000,"PART-1-1",           570,       9.39315,       18.1618,            0.,NA,NA,"",       2.80049,       2.80021,  -39.4251E-03,   141.198E-09
C:/temp/dataset/7/29_4.odb,Step-1,Increment      1: Step Time =    1.000,"PART-1-1",           571,       10.9214,       17.4088,            0.,NA,NA,"",       2.75139,       2.74797,  -137.288E-03,   158.242E-09
C:/temp/dataset/7/29_4.odb,Step-1,Increment      1: Step Time =    1.000,"PART-1-1",           572,      -9.97500,           20.,            0.,NA,NA,"",       3.20132,       2.96090,       1.21717,   230.471E-12
C:/temp/dataset/7/29_4.odb,Step-1,Increment      1: Step Time =    1.000,"PART-1-1",           573,       11.9818,      -2.09472,            0.,NA,NA,"",       1.48544,       1.47628,  -164.706E-03,   95.9385E-06
C:/temp/dataset/7/29_4.odb,Step-1,Increment      1: Step Time =    1.000,"PART-1-1",           574,       12.0426,   313.093E-03,            0.,NA,NA,"",       1.64235,       1.63312,  -173.879E-03,   114.415E-06
C:/temp/dataset/7/29_4.odb,Step-1,Increment      1: Step Time =    1.000,"PART-1-1",           575,       12.1686,      -14.9632,            0.,NA,NA,"",   625.010E-03,   610.520E-03,  -133.804E-03,   6.91279E-03
C:/temp/dataset/7/29_4.odb,Step-1,Increment      1: Step Time =    1.000,"PART-1-1",           576,       12.0880,      -12.5178,            0.,NA,NA,"",   786.262E-03,   773.276E-03,  -142.310E-03,   5.73321E-03
C:/temp/dataset/7/29_4.odb,Step-1,Increment      1: Step Time =    1.000,"PART-1-1",           577,       12.0767,       2.70437,            0.,NA,NA,"",       1.79780,       1.78864,  -181.255E-03,   66.8333E-06
C:/temp/dataset/7/29_4.odb,Step-1,Increment      1: Step Time =    1.000,"PART-1-1",           578,       11.6617,       14.7036,            0.,NA,NA,"",       2.57662,       2.57034,  -179.736E-03,   328.895E-09
C:/temp/dataset/7/29_4.odb,Step-1,Increment      1: Step Time =    1.000,"PART-1-1",           579,       11.9561,       12.2406,            0.,NA,NA,"",       2.41719,       2.40942,  -193.671E-03,   336.553E-09
C:/temp/dataset/7/29_4.odb,Step-1,Increment      1: Step Time =    1.000,"PART-1-1",           580,       12.3155,      -19.7087,            0.,NA,NA,"",   345.423E-03,   328.543E-03,  -106.661E-03,   9.48330E-03
C:/temp/dataset/7/29_4.odb,Step-1,Increment      1: Step Time =    1.000,"PART-1-1",           581,       12.3404,      -21.7879,            0.,NA,NA,"",   242.366E-03,   225.503E-03,  -88.8236E-03,   10.8268E-03
C:/temp/dataset/7/29_4.odb,Step-1,Increment      1: Step Time =    1.000,"PART-1-1",           582,       12.2327,      -17.3977,            0.,NA,NA,"",   474.527E-03,   458.854E-03,  -120.950E-03,   8.09143E-03
C:/temp/dataset/7/29_4.odb,Step-1,Increment      1: Step Time =    1.000,"PART-1-1",           583,       12.1020,       5.09402,            0.,NA,NA,"",       1.95312,       1.94405,  -188.002E-03,   26.8156E-06
C:/temp/dataset/7/29_4.odb,Step-1,Increment      1: Step Time =    1.000,"PART-1-1",           584,       12.0630,       9.85139,            0.,NA,NA,"",       2.26217,       2.25371,  -195.564E-03,   1.47165E-06
C:/temp/dataset/7/29_4.odb,Step-1,Increment      1: Step Time =    1.000,"PART-1-1",           585,       12.0921,       7.47372,            0.,NA,NA,"",       2.10772,       2.09892,  -192.414E-03,   7.92496E-06
C:/temp/dataset/7/29_4.odb,Step-1,Increment      1: Step Time =    1.000,"PART-1-1",           586,       11.9146,      -10.0225,            0.,NA,NA,"",   955.325E-03,   944.775E-03,  -141.582E-03,   4.25922E-03
C:/temp/dataset/7/29_4.odb,Step-1,Increment      1: Step Time =    1.000,"PART-1-1",           587,       11.5993,      -7.26023,            0.,NA,NA,"",       1.14198,       1.13468,  -128.911E-03,   2.29939E-03
C:/temp/dataset/7/29_4.odb,Step-1,Increment      1: Step Time =    1.000,"PART-1-1",           588,       11.8707,      -4.56496,            0.,NA,NA,"",       1.32309,       1.31430,  -152.203E-03,   606.946E-06
C:/temp/dataset/7/29_4.odb,Step-1,Increment      1: Step Time =    1.000,"PART-1-1",           589,      -3.86001,       22.4330,            0.,NA,NA,"",       3.21118,       3.10628,   814.048E-03,   309.482E-12
C:/temp/dataset/7/29_4.odb,Step-1,Increment      1: Step Time =    1.000,"PART-1-1",           590,       3.35000,           20.,            0.,NA,NA,"",       2.95346,       2.93265,   349.972E-03,   7.49568E-09
C:/temp/dataset/7/29_4.odb,Step-1,Increment      1: Step Time =    1.000,"PART-1-1",           591,       5.05511,       21.0689,            0.,NA,NA,"",       3.00794,       2.99861,   236.736E-03,   8.84188E-09
C:/temp/dataset/7/29_4.odb,Step-1,Increment      1: Step Time =    1.000,"PART-1-1",           592,       2.31373,       21.3921,            0.,NA,NA,"",       3.05371,       3.02545,   414.462E-03,   2.15371E-09
C:/temp/dataset/7/29_4.odb,Step-1,Increment      1: Step Time =    1.000,"PART-1-1",           593,      -1.98632,       21.3170,            0.,NA,NA,"",       3.10825,       3.02968,   694.472E-03,   382.783E-12
C:/temp/dataset/7/29_4.odb,Step-1,Increment      1: Step Time =    1.000,"PART-1-1",           594,   25.0000E-03,           20.,            0.,NA,NA,"",       2.99376,       2.93970,   566.366E-03,   796.880E-12
C:/temp/dataset/7/29_4.odb,Step-1,Increment      1: Step Time =    1.000,"PART-1-1",           595,   933.640E-03,       21.1186,            0.,NA,NA,"",       3.05261,       3.01058,   504.859E-03,   1.32229E-09
C:/temp/dataset/7/29_4.odb,Step-1,Increment      1: Step Time =    1.000,"PART-1-1",           596,       7.16521,       20.7144,            0.,NA,NA,"",       2.97275,       2.97106,   100.160E-03,   36.6507E-09
C:/temp/dataset/7/29_4.odb,Step-1,Increment      1: Step Time =    1.000,"PART-1-1",           597,       8.15837,       19.5039,            0.,NA,NA,"",       2.89043,       2.89017,   38.0905E-03,   62.2278E-09
C:/temp/dataset/7/29_4.odb,Step-1,Increment      1: Step Time =    1.000,"PART-1-1",           598,      -3.32500,           20.,            0.,NA,NA,"",       3.04941,       2.94681,   784.387E-03,   350.951E-12
