ODB Name,Step,Frame,Part Instance Name,    êﬂì_ÉâÉxÉã,X,Y,Z,Section Name,Material Name,Section Point,   U-Magnitude,          U-U1,          U-U2,       S-Mises
C:/temp/dataset/7/32_1.odb,Step-1,Increment      1: Step Time =    1.000,"PART-1-1",             1,          -15.,           20.,            0.,NA,NA,"",   41.5768E-03,   37.5822E-03,   17.7822E-03,   324.843E-15
C:/temp/dataset/7/32_1.odb,Step-1,Increment      1: Step Time =    1.000,"PART-1-1",             2,          -15.,           25.,            0.,NA,NA,"",   44.6212E-03,   40.9254E-03,   17.7811E-03,   494.170E-15
C:/temp/dataset/7/32_1.odb,Step-1,Increment      1: Step Time =    1.000,"PART-1-1",             3,      -11.6500,           20.,            0.,NA,NA,"",   40.6686E-03,   37.5815E-03,   15.5423E-03,   1.03065E-12
C:/temp/dataset/7/32_1.odb,Step-1,Increment      1: Step Time =    1.000,"PART-1-1",             4,      -8.30000,           20.,            0.,NA,NA,"",   39.8656E-03,   37.5807E-03,   13.3025E-03,   1.70107E-12
C:/temp/dataset/7/32_1.odb,Step-1,Increment      1: Step Time =    1.000,"PART-1-1",             5,           -5.,           20.,            0.,NA,NA,"",   39.1839E-03,   37.5800E-03,   11.0960E-03,   2.53101E-12
C:/temp/dataset/7/32_1.odb,Step-1,Increment      1: Step Time =    1.000,"PART-1-1",             6,      -1.65000,           20.,            0.,NA,NA,"",   38.6087E-03,   37.5793E-03,   8.85609E-03,   3.27766E-12
C:/temp/dataset/7/32_1.odb,Step-1,Increment      1: Step Time =    1.000,"PART-1-1",             7,       1.70000,           20.,            0.,NA,NA,"",   38.1565E-03,   37.5785E-03,   6.61620E-03,   4.61829E-12
C:/temp/dataset/7/32_1.odb,Step-1,Increment      1: Step Time =    1.000,"PART-1-1",             8,            5.,           20.,            0.,NA,NA,"",   37.8356E-03,   37.5778E-03,   4.40973E-03,   8.78433E-12
C:/temp/dataset/7/32_1.odb,Step-1,Increment      1: Step Time =    1.000,"PART-1-1",             9,            5.,         13.75,            0.,NA,NA,"",   33.6889E-03,   33.3989E-03,   4.41113E-03,   51.7265E-12
C:/temp/dataset/7/32_1.odb,Step-1,Increment      1: Step Time =    1.000,"PART-1-1",            10,            5.,           7.5,            0.,NA,NA,"",   29.5512E-03,   29.2199E-03,   4.41253E-03,   663.497E-12
C:/temp/dataset/7/32_1.odb,Step-1,Increment      1: Step Time =    1.000,"PART-1-1",            11,            5.,          1.25,            0.,NA,NA,"",   25.4271E-03,   25.0411E-03,   4.41393E-03,   5.89673E-09
C:/temp/dataset/7/32_1.odb,Step-1,Increment      1: Step Time =    1.000,"PART-1-1",            12,            5.,           -5.,            0.,NA,NA,"",   21.3243E-03,   20.8621E-03,   4.41562E-03,   155.310E-09
C:/temp/dataset/7/32_1.odb,Step-1,Increment      1: Step Time =    1.000,"PART-1-1",            13,            5.,        -11.25,            0.,NA,NA,"",   17.2539E-03,   16.6786E-03,   4.41813E-03,   350.093E-09
C:/temp/dataset/7/32_1.odb,Step-1,Increment      1: Step Time =    1.000,"PART-1-1",            14,            5.,         -17.5,            0.,NA,NA,"",   13.2215E-03,   12.4795E-03,   4.36711E-03,   34.0364E-06
C:/temp/dataset/7/32_1.odb,Step-1,Increment      1: Step Time =    1.000,"PART-1-1",            15,            5.,        -23.75,            0.,NA,NA,"",   10.6029E-03,   9.98006E-03,   3.58056E-03,   555.197E-06
C:/temp/dataset/7/32_1.odb,Step-1,Increment      1: Step Time =    1.000,"PART-1-1",            16,            5.,          -30.,            0.,NA,NA,"",            0.,   983.222E-42,   1.45172E-39,   3.29945E-03
C:/temp/dataset/7/32_1.odb,Step-1,Increment      1: Step Time =    1.000,"PART-1-1",            17,           15.,          -30.,            0.,NA,NA,"",            0.,   520.285E-42,  -843.111E-42,   1.61614E-03
C:/temp/dataset/7/32_1.odb,Step-1,Increment      1: Step Time =    1.000,"PART-1-1",            18,           15.,         -22.5,            0.,NA,NA,"",   9.20779E-03,   8.83574E-03,  -2.59094E-03,   84.7864E-06
C:/temp/dataset/7/32_1.odb,Step-1,Increment      1: Step Time =    1.000,"PART-1-1",            19,           15.,          -15.,            0.,NA,NA,"",   14.3727E-03,   14.1910E-03,  -2.27839E-03,   8.71157E-06
C:/temp/dataset/7/32_1.odb,Step-1,Increment      1: Step Time =    1.000,"PART-1-1",            20,           15.,          -7.5,            0.,NA,NA,"",   19.3226E-03,   19.1888E-03,  -2.26958E-03,   292.248E-09
C:/temp/dataset/7/32_1.odb,Step-1,Increment      1: Step Time =    1.000,"PART-1-1",            21,           15.,            0.,            0.,NA,NA,"",   24.3094E-03,   24.2030E-03,  -2.27204E-03,   12.6824E-09
C:/temp/dataset/7/32_1.odb,Step-1,Increment      1: Step Time =    1.000,"PART-1-1",            22,           15.,           7.5,            0.,NA,NA,"",   29.3061E-03,   29.2177E-03,  -2.27373E-03,   656.630E-12
C:/temp/dataset/7/32_1.odb,Step-1,Increment      1: Step Time =    1.000,"PART-1-1",            23,           15.,           15.,            0.,NA,NA,"",   34.3079E-03,   34.2324E-03,  -2.27540E-03,   10.1298E-12
C:/temp/dataset/7/32_1.odb,Step-1,Increment      1: Step Time =    1.000,"PART-1-1",            24,           15.,          22.5,            0.,NA,NA,"",   39.3131E-03,   39.2471E-03,  -2.27708E-03,   6.49877E-12
C:/temp/dataset/7/32_1.odb,Step-1,Increment      1: Step Time =    1.000,"PART-1-1",            25,           15.,           30.,            0.,NA,NA,"",   44.3204E-03,   44.2618E-03,  -2.27876E-03,   288.151E-15
C:/temp/dataset/7/32_1.odb,Step-1,Increment      1: Step Time =    1.000,"PART-1-1",            26,         11.25,           30.,            0.,NA,NA,"",   44.2632E-03,   44.2626E-03,   228.589E-06,   933.497E-15
C:/temp/dataset/7/32_1.odb,Step-1,Increment      1: Step Time =    1.000,"PART-1-1",            27,           7.5,           30.,            0.,NA,NA,"",   44.3479E-03,   44.2635E-03,   2.73593E-03,   3.66024E-12
C:/temp/dataset/7/32_1.odb,Step-1,Increment      1: Step Time =    1.000,"PART-1-1",            28,          3.75,           30.,            0.,NA,NA,"",   44.5738E-03,   44.2643E-03,   5.24328E-03,   4.78888E-12
C:/temp/dataset/7/32_1.odb,Step-1,Increment      1: Step Time =    1.000,"PART-1-1",            29,            0.,           30.,            0.,NA,NA,"",   44.9386E-03,   44.2651E-03,   7.75063E-03,   4.11279E-12
C:/temp/dataset/7/32_1.odb,Step-1,Increment      1: Step Time =    1.000,"PART-1-1",            30,         -3.75,           30.,            0.,NA,NA,"",   45.4390E-03,   44.2660E-03,   10.2580E-03,   3.01409E-12
C:/temp/dataset/7/32_1.odb,Step-1,Increment      1: Step Time =    1.000,"PART-1-1",            31,          -7.5,           30.,            0.,NA,NA,"",   46.0706E-03,   44.2668E-03,   12.7653E-03,   2.01871E-12
C:/temp/dataset/7/32_1.odb,Step-1,Increment      1: Step Time =    1.000,"PART-1-1",            32,        -11.25,           30.,            0.,NA,NA,"",   46.8282E-03,   44.2677E-03,   15.2727E-03,   1.12410E-12
C:/temp/dataset/7/32_1.odb,Step-1,Increment      1: Step Time =    1.000,"PART-1-1",            33,          -15.,           30.,            0.,NA,NA,"",   47.7056E-03,   44.2685E-03,   17.7800E-03,   334.993E-15
C:/temp/dataset/7/32_1.odb,Step-1,Increment      1: Step Time =    1.000,"PART-1-1",            34,          -15.,          22.5,            0.,NA,NA,"",   43.0935E-03,   39.2538E-03,   17.7817E-03,   726.531E-15
C:/temp/dataset/7/32_1.odb,Step-1,Increment      1: Step Time =    1.000,"PART-1-1",            35,            5.,       15.8333,            0.,NA,NA,"",   35.0703E-03,   34.7918E-03,   4.41067E-03,   16.3901E-12
C:/temp/dataset/7/32_1.odb,Step-1,Increment      1: Step Time =    1.000,"PART-1-1",            36,            5.,       17.9167,            0.,NA,NA,"",   36.4526E-03,   36.1848E-03,   4.41020E-03,   7.98381E-12
C:/temp/dataset/7/32_1.odb,Step-1,Increment      1: Step Time =    1.000,"PART-1-1",            37,            5.,       9.58333,            0.,NA,NA,"",   30.9292E-03,   30.6129E-03,   4.41206E-03,   345.088E-12
C:/temp/dataset/7/32_1.odb,Step-1,Increment      1: Step Time =    1.000,"PART-1-1",            38,            5.,       11.6667,            0.,NA,NA,"",   32.3085E-03,   32.0059E-03,   4.41160E-03,   145.504E-12
C:/temp/dataset/7/32_1.odb,Step-1,Increment      1: Step Time =    1.000,"PART-1-1",            39,            5.,       3.33333,            0.,NA,NA,"",   26.7999E-03,   26.4340E-03,   4.41346E-03,   398.260E-12
C:/temp/dataset/7/32_1.odb,Step-1,Increment      1: Step Time =    1.000,"PART-1-1",            40,            5.,       5.41667,            0.,NA,NA,"",   28.1747E-03,   27.8270E-03,   4.41299E-03,   843.254E-12
C:/temp/dataset/7/32_1.odb,Step-1,Increment      1: Step Time =    1.000,"PART-1-1",            41,            5.,      -2.91667,            0.,NA,NA,"",   22.6889E-03,   22.2552E-03,   4.41496E-03,   68.3327E-09
C:/temp/dataset/7/32_1.odb,Step-1,Increment      1: Step Time =    1.000,"PART-1-1",            42,            5.,  -833.333E-03,            0.,NA,NA,"",   24.0566E-03,   23.6481E-03,   4.41441E-03,   23.4129E-09
C:/temp/dataset/7/32_1.odb,Step-1,Increment      1: Step Time =    1.000,"PART-1-1",            43,            5.,      -9.16667,            0.,NA,NA,"",   18.6067E-03,   18.0747E-03,   4.41752E-03,   315.226E-09
C:/temp/dataset/7/32_1.odb,Step-1,Increment      1: Step Time =    1.000,"PART-1-1",            44,            5.,      -7.08333,            0.,NA,NA,"",   19.9635E-03,   19.4688E-03,   4.41648E-03,   281.115E-09
C:/temp/dataset/7/32_1.odb,Step-1,Increment      1: Step Time =    1.000,"PART-1-1",            45,            5.,      -15.4167,            0.,NA,NA,"",   14.5590E-03,   13.8771E-03,   4.40339E-03,   11.9665E-06
C:/temp/dataset/7/32_1.odb,Step-1,Increment      1: Step Time =    1.000,"PART-1-1",            46,            5.,      -13.3333,            0.,NA,NA,"",   15.9047E-03,   15.2793E-03,   4.41608E-03,   3.15924E-06
C:/temp/dataset/7/32_1.odb,Step-1,Increment      1: Step Time =    1.000,"PART-1-1",            47,            5.,      -21.6667,            0.,NA,NA,"",   10.7892E-03,   9.99225E-03,   4.06966E-03,   246.108E-06
C:/temp/dataset/7/32_1.odb,Step-1,Increment      1: Step Time =    1.000,"PART-1-1",            48,            5.,      -19.5833,            0.,NA,NA,"",   11.9197E-03,   11.1368E-03,   4.24857E-03,   85.0064E-06
C:/temp/dataset/7/32_1.odb,Step-1,Increment      1: Step Time =    1.000,"PART-1-1",            49,            5.,      -27.9167,            0.,NA,NA,"",   6.92552E-03,   6.18443E-03,   3.11701E-03,   1.53667E-03
C:/temp/dataset/7/32_1.odb,Step-1,Increment      1: Step Time =    1.000,"PART-1-1",            50,            5.,      -25.8333,            0.,NA,NA,"",   10.0120E-03,   9.31709E-03,   3.66486E-03,   941.329E-06
C:/temp/dataset/7/32_1.odb,Step-1,Increment      1: Step Time =    1.000,"PART-1-1",            51,          12.5,          -30.,            0.,NA,NA,"",            0.,   655.541E-42,  -448.169E-42,   650.895E-06
C:/temp/dataset/7/32_1.odb,Step-1,Increment      1: Step Time =    1.000,"PART-1-1",            52,           10.,          -30.,            0.,NA,NA,"",            0.,   571.095E-42,   156.567E-42,   909.197E-06
C:/temp/dataset/7/32_1.odb,Step-1,Increment      1: Step Time =    1.000,"PART-1-1",            53,           7.5,          -30.,            0.,NA,NA,"",            0.,   1.44145E-39,  -200.674E-42,   1.11513E-03
C:/temp/dataset/7/32_1.odb,Step-1,Increment      1: Step Time =    1.000,"PART-1-1",            54,           15.,          -25.,            0.,NA,NA,"",   6.93665E-03,   6.40529E-03,  -2.66260E-03,   62.0999E-06
C:/temp/dataset/7/32_1.odb,Step-1,Increment      1: Step Time =    1.000,"PART-1-1",            55,           15.,         -27.5,            0.,NA,NA,"",   4.11247E-03,   3.44221E-03,  -2.25024E-03,   567.450E-06
C:/temp/dataset/7/32_1.odb,Step-1,Increment      1: Step Time =    1.000,"PART-1-1",            56,           15.,         -17.5,            0.,NA,NA,"",   12.7344E-03,   12.5217E-03,  -2.31741E-03,   29.3791E-06
C:/temp/dataset/7/32_1.odb,Step-1,Increment      1: Step Time =    1.000,"PART-1-1",            57,           15.,          -20.,            0.,NA,NA,"",   11.0556E-03,   10.7874E-03,  -2.42042E-03,   64.7270E-06
C:/temp/dataset/7/32_1.odb,Step-1,Increment      1: Step Time =    1.000,"PART-1-1",            58,           15.,          -10.,            0.,NA,NA,"",   17.6655E-03,   17.5192E-03,  -2.26838E-03,   199.502E-09
C:/temp/dataset/7/32_1.odb,Step-1,Increment      1: Step Time =    1.000,"PART-1-1",            59,           15.,         -12.5,            0.,NA,NA,"",   16.0145E-03,   15.8530E-03,  -2.26886E-03,   1.52260E-06
C:/temp/dataset/7/32_1.odb,Step-1,Increment      1: Step Time =    1.000,"PART-1-1",            60,           15.,          -2.5,            0.,NA,NA,"",   22.6456E-03,   22.5314E-03,  -2.27142E-03,   52.1779E-09
C:/temp/dataset/7/32_1.odb,Step-1,Increment      1: Step Time =    1.000,"PART-1-1",            61,           15.,           -5.,            0.,NA,NA,"",   20.9831E-03,   20.8599E-03,  -2.27064E-03,   151.996E-09
C:/temp/dataset/7/32_1.odb,Step-1,Increment      1: Step Time =    1.000,"PART-1-1",            62,           15.,            5.,            0.,NA,NA,"",   27.6398E-03,   27.5461E-03,  -2.27317E-03,   913.478E-12
C:/temp/dataset/7/32_1.odb,Step-1,Increment      1: Step Time =    1.000,"PART-1-1",            63,           15.,           2.5,            0.,NA,NA,"",   25.9742E-03,   25.8746E-03,  -2.27261E-03,   1.22653E-09
C:/temp/dataset/7/32_1.odb,Step-1,Increment      1: Step Time =    1.000,"PART-1-1",            64,           15.,          12.5,            0.,NA,NA,"",   32.6402E-03,   32.5608E-03,  -2.27484E-03,   78.8659E-12
C:/temp/dataset/7/32_1.odb,Step-1,Increment      1: Step Time =    1.000,"PART-1-1",            65,           15.,           10.,            0.,NA,NA,"",   30.9729E-03,   30.8893E-03,  -2.27429E-03,   276.025E-12
C:/temp/dataset/7/32_1.odb,Step-1,Increment      1: Step Time =    1.000,"PART-1-1",            66,           15.,           20.,            0.,NA,NA,"",   37.6444E-03,   37.5755E-03,  -2.27652E-03,   9.82651E-12
C:/temp/dataset/7/32_1.odb,Step-1,Increment      1: Step Time =    1.000,"PART-1-1",            67,           15.,          17.5,            0.,NA,NA,"",   35.9760E-03,   35.9040E-03,  -2.27596E-03,   8.59380E-12
C:/temp/dataset/7/32_1.odb,Step-1,Increment      1: Step Time =    1.000,"PART-1-1",            68,           15.,          27.5,            0.,NA,NA,"",   42.6511E-03,   42.5902E-03,  -2.27820E-03,   1.25282E-12
C:/temp/dataset/7/32_1.odb,Step-1,Increment      1: Step Time =    1.000,"PART-1-1",            69,           15.,           25.,            0.,NA,NA,"",   40.9820E-03,   40.9187E-03,  -2.27764E-03,   3.41942E-12
C:/temp/dataset/7/32_1.odb,Step-1,Increment      1: Step Time =    1.000,"PART-1-1",            70,        13.125,           30.,            0.,NA,NA,"",   44.2741E-03,   44.2622E-03,  -1.02508E-03,   588.429E-15
C:/temp/dataset/7/32_1.odb,Step-1,Increment      1: Step Time =    1.000,"PART-1-1",            71,         9.375,           30.,            0.,NA,NA,"",   44.2879E-03,   44.2630E-03,   1.48226E-03,   2.35154E-12
C:/temp/dataset/7/32_1.odb,Step-1,Increment      1: Step Time =    1.000,"PART-1-1",            72,         5.625,           30.,            0.,NA,NA,"",   44.4433E-03,   44.2639E-03,   3.98961E-03,   4.46201E-12
C:/temp/dataset/7/32_1.odb,Step-1,Increment      1: Step Time =    1.000,"PART-1-1",            73,         1.875,           30.,            0.,NA,NA,"",   44.7390E-03,   44.2647E-03,   6.49695E-03,   4.60069E-12
C:/temp/dataset/7/32_1.odb,Step-1,Increment      1: Step Time =    1.000,"PART-1-1",            74,        -1.875,           30.,            0.,NA,NA,"",   45.1721E-03,   44.2656E-03,   9.00430E-03,   3.56589E-12
C:/temp/dataset/7/32_1.odb,Step-1,Increment      1: Step Time =    1.000,"PART-1-1",            75,        -5.625,           30.,            0.,NA,NA,"",   45.7387E-03,   44.2664E-03,   11.5116E-03,   2.50902E-12
C:/temp/dataset/7/32_1.odb,Step-1,Increment      1: Step Time =    1.000,"PART-1-1",            76,        -9.375,           30.,            0.,NA,NA,"",   46.4340E-03,   44.2672E-03,   14.0190E-03,   1.54708E-12
C:/temp/dataset/7/32_1.odb,Step-1,Increment      1: Step Time =    1.000,"PART-1-1",            77,       -13.125,           30.,            0.,NA,NA,"",   47.2523E-03,   44.2681E-03,   16.5263E-03,   857.027E-15
C:/temp/dataset/7/32_1.odb,Step-1,Increment      1: Step Time =    1.000,"PART-1-1",            78,          -15.,          27.5,            0.,NA,NA,"",   46.1589E-03,   42.5969E-03,   17.7806E-03,   717.435E-15
C:/temp/dataset/7/32_1.odb,Step-1,Increment      1: Step Time =    1.000,"PART-1-1",            79,      -7.07467,       28.0475,            0.,NA,NA,"",   44.7376E-03,   42.9613E-03,   12.4814E-03,   1.33988E-12
C:/temp/dataset/7/32_1.odb,Step-1,Increment      1: Step Time =    1.000,"PART-1-1",            80,      -10.7971,       27.6072,            0.,NA,NA,"",   45.2177E-03,   42.6677E-03,   14.9704E-03,   732.162E-15
C:/temp/dataset/7/32_1.odb,Step-1,Increment      1: Step Time =    1.000,"PART-1-1",            81,      -3.50976,       28.2242,            0.,NA,NA,"",   44.2462E-03,   43.0786E-03,   10.0977E-03,   2.00568E-12
C:/temp/dataset/7/32_1.odb,Step-1,Increment      1: Step Time =    1.000,"PART-1-1",            82,       11.3028,       27.6605,            0.,NA,NA,"",   42.6988E-03,   42.6984E-03,   193.783E-06,   2.72704E-12
C:/temp/dataset/7/32_1.odb,Step-1,Increment      1: Step Time =    1.000,"PART-1-1",            83,       7.46624,       27.7175,            0.,NA,NA,"",   42.8263E-03,   42.7373E-03,   2.75902E-03,   3.05661E-12
C:/temp/dataset/7/32_1.odb,Step-1,Increment      1: Step Time =    1.000,"PART-1-1",            84,   523.838E-03,       28.1559,            0.,NA,NA,"",   43.6638E-03,   43.0320E-03,   7.40079E-03,   2.58250E-12
C:/temp/dataset/7/32_1.odb,Step-1,Increment      1: Step Time =    1.000,"PART-1-1",            85,       13.1724,       27.5829,            0.,NA,NA,"",   42.6591E-03,   42.6460E-03,  -1.05625E-03,   1.61421E-12
C:/temp/dataset/7/32_1.odb,Step-1,Increment      1: Step Time =    1.000,"PART-1-1",            86,       9.41586,       27.7284,            0.,NA,NA,"",   42.7690E-03,   42.7442E-03,   1.45545E-03,   3.10232E-12
C:/temp/dataset/7/32_1.odb,Step-1,Increment      1: Step Time =    1.000,"PART-1-1",            87,       5.17501,       27.3177,            0.,NA,NA,"",   42.6868E-03,   42.4706E-03,   4.29108E-03,   2.57777E-12
C:/temp/dataset/7/32_1.odb,Step-1,Increment      1: Step Time =    1.000,"PART-1-1",            88,       1.85763,       28.7412,            0.,NA,NA,"",   43.9082E-03,   43.4231E-03,   6.50885E-03,   3.28440E-12
C:/temp/dataset/7/32_1.odb,Step-1,Increment      1: Step Time =    1.000,"PART-1-1",            89,      -1.45910,       27.7280,            0.,NA,NA,"",   43.6281E-03,   42.7464E-03,   8.72672E-03,   2.00084E-12
C:/temp/dataset/7/32_1.odb,Step-1,Increment      1: Step Time =    1.000,"PART-1-1",            90,      -5.31380,       28.2250,            0.,NA,NA,"",   44.5379E-03,   43.0795E-03,   11.3040E-03,   1.69192E-12
C:/temp/dataset/7/32_1.odb,Step-1,Increment      1: Step Time =    1.000,"PART-1-1",            91,      -8.92632,       27.8484,            0.,NA,NA,"",   44.9723E-03,   42.8286E-03,   13.7195E-03,   1.01690E-12
C:/temp/dataset/7/32_1.odb,Step-1,Increment      1: Step Time =    1.000,"PART-1-1",            92,       7.03655,   996.185E-03,            0.,NA,NA,"",   25.0575E-03,   24.8709E-03,   3.05229E-03,   13.3750E-09
C:/temp/dataset/7/32_1.odb,Step-1,Increment      1: Step Time =    1.000,"PART-1-1",            93,       6.93081,       13.7923,            0.,NA,NA,"",   33.5720E-03,   33.4267E-03,   3.12013E-03,   63.2381E-12
C:/temp/dataset/7/32_1.odb,Step-1,Increment      1: Step Time =    1.000,"PART-1-1",            94,       7.08682,       7.47611,            0.,NA,NA,"",   29.3590E-03,   29.2035E-03,   3.01723E-03,   219.328E-12
C:/temp/dataset/7/32_1.odb,Step-1,Increment      1: Step Time =    1.000,"PART-1-1",            95,       6.96700,      -1.15199,            0.,NA,NA,"",   23.6387E-03,   23.4346E-03,   3.09928E-03,   33.9634E-09
C:/temp/dataset/7/32_1.odb,Step-1,Increment      1: Step Time =    1.000,"PART-1-1",            96,       6.47578,      -21.8661,            0.,NA,NA,"",   10.3890E-03,   9.82408E-03,   3.37908E-03,   129.970E-06
C:/temp/dataset/7/32_1.odb,Step-1,Increment      1: Step Time =    1.000,"PART-1-1",            97,       7.14087,      -13.1040,            0.,NA,NA,"",   15.7186E-03,   15.4324E-03,   2.98605E-03,   5.32695E-06
C:/temp/dataset/7/32_1.odb,Step-1,Increment      1: Step Time =    1.000,"PART-1-1",            98,       6.53104,      -7.08024,            0.,NA,NA,"",   19.7639E-03,   19.4706E-03,   3.39226E-03,   76.9894E-09
C:/temp/dataset/7/32_1.odb,Step-1,Increment      1: Step Time =    1.000,"PART-1-1",            99,       6.85322,      -3.24169,            0.,NA,NA,"",   22.2651E-03,   22.0375E-03,   3.17584E-03,   67.6173E-09
C:/temp/dataset/7/32_1.odb,Step-1,Increment      1: Step Time =    1.000,"PART-1-1",           100,       6.74184,      -8.96518,            0.,NA,NA,"",   18.4973E-03,   18.2093E-03,   3.25169E-03,   270.384E-09
C:/temp/dataset/7/32_1.odb,Step-1,Increment      1: Step Time =    1.000,"PART-1-1",           101,       6.94703,      -23.6171,            0.,NA,NA,"",   9.69943E-03,   9.22332E-03,   3.00153E-03,   550.036E-06
C:/temp/dataset/7/32_1.odb,Step-1,Increment      1: Step Time =    1.000,"PART-1-1",           102,       7.44695,      -27.8442,            0.,NA,NA,"",   4.46144E-03,   4.37465E-03,   875.720E-06,   1.42526E-03
C:/temp/dataset/7/32_1.odb,Step-1,Increment      1: Step Time =    1.000,"PART-1-1",           103,       7.35225,      -17.6578,            0.,NA,NA,"",   12.6916E-03,   12.3652E-03,   2.85978E-03,   31.3964E-06
C:/temp/dataset/7/32_1.odb,Step-1,Increment      1: Step Time =    1.000,"PART-1-1",           104,       7.23832,      -15.2967,            0.,NA,NA,"",   14.2569E-03,   13.9541E-03,   2.92310E-03,   14.4735E-06
C:/temp/dataset/7/32_1.odb,Step-1,Increment      1: Step Time =    1.000,"PART-1-1",           105,       7.10099,       17.6583,            0.,NA,NA,"",   36.1368E-03,   36.0116E-03,   3.00548E-03,   9.46385E-12
C:/temp/dataset/7/32_1.odb,Step-1,Increment      1: Step Time =    1.000,"PART-1-1",           106,       6.86948,       15.7920,            0.,NA,NA,"",   34.9071E-03,   34.7637E-03,   3.16069E-03,   24.5894E-12
C:/temp/dataset/7/32_1.odb,Step-1,Increment      1: Step Time =    1.000,"PART-1-1",           107,       7.06799,       9.62990,            0.,NA,NA,"",   30.7930E-03,   30.6436E-03,   3.02934E-03,   240.917E-12
C:/temp/dataset/7/32_1.odb,Step-1,Increment      1: Step Time =    1.000,"PART-1-1",           108,       7.09093,       5.31052,            0.,NA,NA,"",   27.9188E-03,   27.7555E-03,   3.01497E-03,   682.427E-12
C:/temp/dataset/7/32_1.odb,Step-1,Increment      1: Step Time =    1.000,"PART-1-1",           109,       6.65187,      -5.22056,            0.,NA,NA,"",   20.9773E-03,   20.7143E-03,   3.31097E-03,   92.2426E-09
C:/temp/dataset/7/32_1.odb,Step-1,Increment      1: Step Time =    1.000,"PART-1-1",           110,       7.26954,      -25.7037,            0.,NA,NA,"",   7.90209E-03,   7.65738E-03,   1.95131E-03,   1.09904E-03
C:/temp/dataset/7/32_1.odb,Step-1,Increment      1: Step Time =    1.000,"PART-1-1",           111,       7.53271,      -20.3934,            0.,NA,NA,"",   10.9603E-03,   10.6015E-03,   2.78152E-03,   40.6371E-06
C:/temp/dataset/7/32_1.odb,Step-1,Increment      1: Step Time =    1.000,"PART-1-1",           112,       7.01178,       11.7341,            0.,NA,NA,"",   32.1969E-03,   32.0505E-03,   3.06646E-03,   140.301E-12
C:/temp/dataset/7/32_1.odb,Step-1,Increment      1: Step Time =    1.000,"PART-1-1",           113,       7.07643,       3.14767,            0.,NA,NA,"",   26.4828E-03,   26.3094E-03,   3.02515E-03,   3.97952E-09
C:/temp/dataset/7/32_1.odb,Step-1,Increment      1: Step Time =    1.000,"PART-1-1",           114,       6.98190,      -10.9751,            0.,NA,NA,"",   17.1435E-03,   16.8625E-03,   3.09148E-03,   1.56596E-06
C:/temp/dataset/7/32_1.odb,Step-1,Increment      1: Step Time =    1.000,"PART-1-1",           115,       13.1254,       22.8014,            0.,NA,NA,"",   39.4623E-03,   39.4490E-03,  -1.02372E-03,   4.30439E-12
C:/temp/dataset/7/32_1.odb,Step-1,Increment      1: Step Time =    1.000,"PART-1-1",           116,       12.8923,      -4.74502,            0.,NA,NA,"",   21.0484E-03,   21.0308E-03,  -861.767E-06,   98.6237E-09
C:/temp/dataset/7/32_1.odb,Step-1,Increment      1: Step Time =    1.000,"PART-1-1",           117,       13.0513,      -12.4505,            0.,NA,NA,"",   15.9163E-03,   15.8870E-03,  -966.517E-06,   3.55611E-06
C:/temp/dataset/7/32_1.odb,Step-1,Increment      1: Step Time =    1.000,"PART-1-1",           118,       12.2427,       17.8341,            0.,NA,NA,"",   36.1306E-03,   36.1280E-03,  -432.460E-06,   9.10363E-12
C:/temp/dataset/7/32_1.odb,Step-1,Increment      1: Step Time =    1.000,"PART-1-1",           119,       13.0441,       9.90429,            0.,NA,NA,"",   30.8409E-03,   30.8257E-03,  -966.477E-06,   230.722E-12
C:/temp/dataset/7/32_1.odb,Step-1,Increment      1: Step Time =    1.000,"PART-1-1",           120,       13.0522,       2.62582,            0.,NA,NA,"",   25.9773E-03,   25.9591E-03,  -970.310E-06,   5.21828E-09
C:/temp/dataset/7/32_1.odb,Step-1,Increment      1: Step Time =    1.000,"PART-1-1",           121,       13.2006,      -19.7745,            0.,NA,NA,"",   11.0351E-03,   10.9810E-03,  -1.09197E-03,   26.2903E-06
C:/temp/dataset/7/32_1.odb,Step-1,Increment      1: Step Time =    1.000,"PART-1-1",           122,       9.90112,      -27.6522,            0.,NA,NA,"",   3.43866E-03,   3.43145E-03,   222.619E-06,   995.003E-06
C:/temp/dataset/7/32_1.odb,Step-1,Increment      1: Step Time =    1.000,"PART-1-1",           123,       13.0591,      -22.1191,            0.,NA,NA,"",   9.26023E-03,   9.20531E-03,  -1.00706E-03,   33.6829E-06
C:/temp/dataset/7/32_1.odb,Step-1,Increment      1: Step Time =    1.000,"PART-1-1",           124,       13.1139,      -14.9356,            0.,NA,NA,"",   14.2737E-03,   14.2379E-03,  -1.00943E-03,   10.9627E-06
C:/temp/dataset/7/32_1.odb,Step-1,Increment      1: Step Time =    1.000,"PART-1-1",           125,       13.1678,      -17.3995,            0.,NA,NA,"",   12.6467E-03,   12.6029E-03,  -1.05198E-03,   23.4678E-06
C:/temp/dataset/7/32_1.odb,Step-1,Increment      1: Step Time =    1.000,"PART-1-1",           126,       12.7891,      -7.32383,            0.,NA,NA,"",   19.3232E-03,   19.3069E-03,  -792.165E-06,   78.7874E-09
C:/temp/dataset/7/32_1.odb,Step-1,Increment      1: Step Time =    1.000,"PART-1-1",           127,       12.9162,      -9.94117,            0.,NA,NA,"",   17.5807E-03,   17.5588E-03,  -876.562E-06,   757.365E-09
C:/temp/dataset/7/32_1.odb,Step-1,Increment      1: Step Time =    1.000,"PART-1-1",           128,       13.0283,   193.158E-03,            0.,NA,NA,"",   24.3513E-03,   24.3326E-03,  -953.767E-06,   19.2690E-09
C:/temp/dataset/7/32_1.odb,Step-1,Increment      1: Step Time =    1.000,"PART-1-1",           129,       12.9794,      -2.25409,            0.,NA,NA,"",   22.7149E-03,   22.6963E-03,  -920.517E-06,   52.7484E-09
C:/temp/dataset/7/32_1.odb,Step-1,Increment      1: Step Time =    1.000,"PART-1-1",           130,       13.0689,       7.48049,            0.,NA,NA,"",   29.2216E-03,   29.2051E-03,  -982.513E-06,   247.513E-12
C:/temp/dataset/7/32_1.odb,Step-1,Increment      1: Step Time =    1.000,"PART-1-1",           131,       13.0764,       5.05734,            0.,NA,NA,"",   27.6026E-03,   27.5849E-03,  -987.033E-06,   758.276E-12
C:/temp/dataset/7/32_1.odb,Step-1,Increment      1: Step Time =    1.000,"PART-1-1",           132,       12.6962,       14.9270,            0.,NA,NA,"",   34.1920E-03,   34.1841E-03,  -734.978E-06,   39.3699E-12
C:/temp/dataset/7/32_1.odb,Step-1,Increment      1: Step Time =    1.000,"PART-1-1",           133,       12.9459,       12.3607,            0.,NA,NA,"",   32.4806E-03,   32.4681E-03,  -901.403E-06,   112.578E-12
C:/temp/dataset/7/32_1.odb,Step-1,Increment      1: Step Time =    1.000,"PART-1-1",           134,       12.9476,       20.4489,            0.,NA,NA,"",   37.8870E-03,   37.8762E-03,  -904.334E-06,   4.19973E-12
C:/temp/dataset/7/32_1.odb,Step-1,Increment      1: Step Time =    1.000,"PART-1-1",           135,       13.1802,       25.1793,            0.,NA,NA,"",   41.0526E-03,   41.0389E-03,  -1.06090E-03,   3.13000E-12
C:/temp/dataset/7/32_1.odb,Step-1,Increment      1: Step Time =    1.000,"PART-1-1",           136,      -12.4062,       24.9250,            0.,NA,NA,"",   43.9117E-03,   40.8747E-03,   16.0469E-03,   912.315E-15
C:/temp/dataset/7/32_1.odb,Step-1,Increment      1: Step Time =    1.000,"PART-1-1",           137,       11.3078,       25.3904,            0.,NA,NA,"",   41.1810E-03,   41.1805E-03,   190.997E-06,   3.53269E-12
C:/temp/dataset/7/32_1.odb,Step-1,Increment      1: Step Time =    1.000,"PART-1-1",           138,      -10.1009,       25.2443,            0.,NA,NA,"",   43.5729E-03,   41.0876E-03,   14.5054E-03,   840.399E-15
C:/temp/dataset/7/32_1.odb,Step-1,Increment      1: Step Time =    1.000,"PART-1-1",           139,      -4.83291,       26.5053,            0.,NA,NA,"",   43.3441E-03,   41.9296E-03,   10.9828E-03,   1.05979E-12
C:/temp/dataset/7/32_1.odb,Step-1,Increment      1: Step Time =    1.000,"PART-1-1",           140,       1.72347,       26.1851,            0.,NA,NA,"",   42.2328E-03,   41.7140E-03,   6.59912E-03,   1.25272E-12
C:/temp/dataset/7/32_1.odb,Step-1,Increment      1: Step Time =    1.000,"PART-1-1",           141,       6.12189,       25.7754,            0.,NA,NA,"",   41.6003E-03,   41.4391E-03,   3.65832E-03,   2.48639E-12
C:/temp/dataset/7/32_1.odb,Step-1,Increment      1: Step Time =    1.000,"PART-1-1",           142,       7.62725,       25.7499,            0.,NA,NA,"",   41.5065E-03,   41.4217E-03,   2.65180E-03,   3.07643E-12
C:/temp/dataset/7/32_1.odb,Step-1,Increment      1: Step Time =    1.000,"PART-1-1",           143,       3.76931,       25.0880,            0.,NA,NA,"",   41.3126E-03,   40.9800E-03,   5.23147E-03,   1.41870E-12
C:/temp/dataset/7/32_1.odb,Step-1,Increment      1: Step Time =    1.000,"PART-1-1",           144,  -231.428E-03,       26.1188,            0.,NA,NA,"",   42.4135E-03,   41.6701E-03,   7.90623E-03,   1.13907E-12
C:/temp/dataset/7/32_1.odb,Step-1,Increment      1: Step Time =    1.000,"PART-1-1",           145,      -2.48530,       25.9891,            0.,NA,NA,"",   42.6360E-03,   41.5839E-03,   9.41326E-03,   970.156E-15
C:/temp/dataset/7/32_1.odb,Step-1,Increment      1: Step Time =    1.000,"PART-1-1",           146,      -3.63425,       26.9302,            0.,NA,NA,"",   43.4238E-03,   42.2134E-03,   10.1813E-03,   1.31007E-12
C:/temp/dataset/7/32_1.odb,Step-1,Increment      1: Step Time =    1.000,"PART-1-1",           147,      -8.31738,       25.8431,            0.,NA,NA,"",   43.5712E-03,   41.4876E-03,   13.3128E-03,   813.460E-15
C:/temp/dataset/7/32_1.odb,Step-1,Increment      1: Step Time =    1.000,"PART-1-1",           148,       9.04714,   705.037E-03,            0.,NA,NA,"",   24.7348E-03,   24.6758E-03,   1.70801E-03,   18.1231E-09
C:/temp/dataset/7/32_1.odb,Step-1,Increment      1: Step Time =    1.000,"PART-1-1",           149,       7.85197,      -7.06885,            0.,NA,NA,"",   19.6389E-03,   19.4780E-03,   2.50871E-03,   88.3573E-09
C:/temp/dataset/7/32_1.odb,Step-1,Increment      1: Step Time =    1.000,"PART-1-1",           150,       8.74205,      -22.9842,            0.,NA,NA,"",   9.21529E-03,   9.00441E-03,   1.96015E-03,   248.505E-06
C:/temp/dataset/7/32_1.odb,Step-1,Increment      1: Step Time =    1.000,"PART-1-1",           151,       9.28078,      -15.1075,            0.,NA,NA,"",   14.1840E-03,   14.0962E-03,   1.57594E-03,   14.1826E-06
C:/temp/dataset/7/32_1.odb,Step-1,Increment      1: Step Time =    1.000,"PART-1-1",           152,       8.97855,      -1.55139,            0.,NA,NA,"",   23.2334E-03,   23.1671E-03,   1.75433E-03,   45.7432E-09
C:/temp/dataset/7/32_1.odb,Step-1,Increment      1: Step Time =    1.000,"PART-1-1",           153,       9.09422,       9.69450,            0.,NA,NA,"",   30.7320E-03,   30.6863E-03,   1.67454E-03,   247.059E-12
C:/temp/dataset/7/32_1.odb,Step-1,Increment      1: Step Time =    1.000,"PART-1-1",           154,       8.44946,       15.5970,            0.,NA,NA,"",   34.6969E-03,   34.6331E-03,   2.10432E-03,   30.3020E-12
C:/temp/dataset/7/32_1.odb,Step-1,Increment      1: Step Time =    1.000,"PART-1-1",           155,       9.11701,       7.46178,            0.,NA,NA,"",   29.2406E-03,   29.1935E-03,   1.65980E-03,   280.824E-12
C:/temp/dataset/7/32_1.odb,Step-1,Increment      1: Step Time =    1.000,"PART-1-1",           156,       8.83101,       13.9442,            0.,NA,NA,"",   33.5788E-03,   33.5278E-03,   1.84958E-03,   67.7897E-12
C:/temp/dataset/7/32_1.odb,Step-1,Increment      1: Step Time =    1.000,"PART-1-1",           157,       9.61385,      -19.9311,            0.,NA,NA,"",   10.9881E-03,   10.8916E-03,   1.45326E-03,   34.5876E-06
C:/temp/dataset/7/32_1.odb,Step-1,Increment      1: Step Time =    1.000,"PART-1-1",           158,       9.10031,       2.95854,            0.,NA,NA,"",   26.2358E-03,   26.1825E-03,   1.67197E-03,   5.88782E-09
C:/temp/dataset/7/32_1.odb,Step-1,Increment      1: Step Time =    1.000,"PART-1-1",           159,       9.17986,      -12.8049,            0.,NA,NA,"",   15.7236E-03,   15.6391E-03,   1.62794E-03,   5.56399E-06
C:/temp/dataset/7/32_1.odb,Step-1,Increment      1: Step Time =    1.000,"PART-1-1",           160,       8.54844,      -8.43147,            0.,NA,NA,"",   18.6785E-03,   18.5665E-03,   2.04329E-03,   352.831E-09
C:/temp/dataset/7/32_1.odb,Step-1,Increment      1: Step Time =    1.000,"PART-1-1",           161,       8.46228,      -5.79934,            0.,NA,NA,"",   20.4351E-03,   20.3269E-03,   2.10029E-03,   81.8042E-09
C:/temp/dataset/7/32_1.odb,Step-1,Increment      1: Step Time =    1.000,"PART-1-1",           162,       8.97830,      -10.5487,            0.,NA,NA,"",   17.2396E-03,   17.1498E-03,   1.75729E-03,   1.59854E-06
C:/temp/dataset/7/32_1.odb,Step-1,Increment      1: Step Time =    1.000,"PART-1-1",           163,       8.84007,      -3.76868,            0.,NA,NA,"",   21.7632E-03,   21.6846E-03,   1.84733E-03,   80.3054E-09
C:/temp/dataset/7/32_1.odb,Step-1,Increment      1: Step Time =    1.000,"PART-1-1",           164,       9.12644,       5.21383,            0.,NA,NA,"",   27.7398E-03,   27.6904E-03,   1.65400E-03,   1.28399E-09
C:/temp/dataset/7/32_1.odb,Step-1,Increment      1: Step Time =    1.000,"PART-1-1",           165,       9.36869,      -17.5094,            0.,NA,NA,"",   12.5871E-03,   12.4905E-03,   1.55673E-03,   31.3318E-06
C:/temp/dataset/7/32_1.odb,Step-1,Increment      1: Step Time =    1.000,"PART-1-1",           166,       9.01212,       11.8707,            0.,NA,NA,"",   32.1879E-03,   32.1414E-03,   1.72894E-03,   146.849E-12
C:/temp/dataset/7/32_1.odb,Step-1,Increment      1: Step Time =    1.000,"PART-1-1",           167,       9.60003,       16.9835,            0.,NA,NA,"",   35.5849E-03,   35.5598E-03,   1.33471E-03,   16.3004E-12
C:/temp/dataset/7/32_1.odb,Step-1,Increment      1: Step Time =    1.000,"PART-1-1",           168,       7.13047,       19.6676,            0.,NA,NA,"",   37.4742E-03,   37.3551E-03,   2.98532E-03,   3.71030E-12
C:/temp/dataset/7/32_1.odb,Step-1,Increment      1: Step Time =    1.000,"PART-1-1",           169,       9.55406,      -25.2995,            0.,NA,NA,"",   6.79370E-03,   6.72652E-03,   953.031E-06,   609.189E-06
C:/temp/dataset/7/32_1.odb,Step-1,Increment      1: Step Time =    1.000,"PART-1-1",           170,       12.3800,      -27.4389,            0.,NA,NA,"",   3.36929E-03,   3.34137E-03,  -432.813E-06,   806.151E-06
C:/temp/dataset/7/32_1.odb,Step-1,Increment      1: Step Time =    1.000,"PART-1-1",           171,      -11.9351,       22.4166,            0.,NA,NA,"",   42.2367E-03,   39.1974E-03,   15.7324E-03,   541.395E-15
C:/temp/dataset/7/32_1.odb,Step-1,Increment      1: Step Time =    1.000,"PART-1-1",           172,       10.9842,      -1.93535,            0.,NA,NA,"",   22.9136E-03,   22.9099E-03,   413.362E-06,   50.1337E-09
C:/temp/dataset/7/32_1.odb,Step-1,Increment      1: Step Time =    1.000,"PART-1-1",           173,       11.2234,      -14.9909,            0.,NA,NA,"",   14.1952E-03,   14.1926E-03,   272.599E-06,   13.4619E-06
C:/temp/dataset/7/32_1.odb,Step-1,Increment      1: Step Time =    1.000,"PART-1-1",           174,       11.0574,       21.1283,            0.,NA,NA,"",   38.3325E-03,   38.3308E-03,   359.368E-06,   3.17826E-12
C:/temp/dataset/7/32_1.odb,Step-1,Increment      1: Step Time =    1.000,"PART-1-1",           175,       10.7466,       19.4847,            0.,NA,NA,"",   37.2362E-03,   37.2319E-03,   567.519E-06,   5.26856E-12
C:/temp/dataset/7/32_1.odb,Step-1,Increment      1: Step Time =    1.000,"PART-1-1",           176,       11.0568,   433.028E-03,            0.,NA,NA,"",   24.4961E-03,   24.4934E-03,   364.346E-06,   20.8138E-09
C:/temp/dataset/7/32_1.odb,Step-1,Increment      1: Step Time =    1.000,"PART-1-1",           177,       10.9662,       12.1205,            0.,NA,NA,"",   32.3107E-03,   32.3080E-03,   422.313E-06,   137.875E-12
C:/temp/dataset/7/32_1.odb,Step-1,Increment      1: Step Time =    1.000,"PART-1-1",           178,       11.6216,      -21.4567,            0.,NA,NA,"",   9.77233E-03,   9.77218E-03,   54.3126E-06,   51.8775E-06
C:/temp/dataset/7/32_1.odb,Step-1,Increment      1: Step Time =    1.000,"PART-1-1",           179,       11.2975,      -17.3958,            0.,NA,NA,"",   12.5969E-03,   12.5944E-03,   249.376E-06,   25.9294E-06
C:/temp/dataset/7/32_1.odb,Step-1,Increment      1: Step Time =    1.000,"PART-1-1",           180,       10.6273,       14.4803,            0.,NA,NA,"",   33.8921E-03,   33.8859E-03,   648.388E-06,   56.2057E-12
C:/temp/dataset/7/32_1.odb,Step-1,Increment      1: Step Time =    1.000,"PART-1-1",           181,       11.1012,       2.78293,            0.,NA,NA,"",   26.0668E-03,   26.0646E-03,   334.142E-06,   6.25386E-09
C:/temp/dataset/7/32_1.odb,Step-1,Increment      1: Step Time =    1.000,"PART-1-1",           182,       11.1153,       7.46695,            0.,NA,NA,"",   29.1983E-03,   29.1965E-03,   323.680E-06,   280.567E-12
C:/temp/dataset/7/32_1.odb,Step-1,Increment      1: Step Time =    1.000,"PART-1-1",           183,       11.1247,      -12.5851,            0.,NA,NA,"",   15.7970E-03,   15.7936E-03,   326.124E-06,   4.71719E-06
C:/temp/dataset/7/32_1.odb,Step-1,Increment      1: Step Time =    1.000,"PART-1-1",           184,       10.4094,      -7.19663,            0.,NA,NA,"",   19.4087E-03,   19.3923E-03,   798.558E-06,   139.969E-09
C:/temp/dataset/7/32_1.odb,Step-1,Increment      1: Step Time =    1.000,"PART-1-1",           185,       10.4303,      -22.2648,            0.,NA,NA,"",   9.28977E-03,   9.24711E-03,   889.324E-06,   128.902E-06
C:/temp/dataset/7/32_1.odb,Step-1,Increment      1: Step Time =    1.000,"PART-1-1",           186,       10.9130,      -10.1038,            0.,NA,NA,"",   17.4555E-03,   17.4493E-03,   463.300E-06,   1.19222E-06
C:/temp/dataset/7/32_1.odb,Step-1,Increment      1: Step Time =    1.000,"PART-1-1",           187,       10.8491,      -4.38491,            0.,NA,NA,"",   21.2780E-03,   21.2720E-03,   504.137E-06,   97.6430E-09
C:/temp/dataset/7/32_1.odb,Step-1,Increment      1: Step Time =    1.000,"PART-1-1",           188,       11.1275,       5.13070,            0.,NA,NA,"",   27.6362E-03,   27.6344E-03,   316.024E-06,   1.33715E-09
C:/temp/dataset/7/32_1.odb,Step-1,Increment      1: Step Time =    1.000,"PART-1-1",           189,       11.0819,       9.79848,            0.,NA,NA,"",   30.7574E-03,   30.7554E-03,   345.472E-06,   245.291E-12
C:/temp/dataset/7/32_1.odb,Step-1,Increment      1: Step Time =    1.000,"PART-1-1",           190,       12.1026,      -24.5603,            0.,NA,NA,"",   6.95127E-03,   6.94418E-03,  -313.804E-06,   316.167E-06
C:/temp/dataset/7/32_1.odb,Step-1,Increment      1: Step Time =    1.000,"PART-1-1",           191,      -7.61069,       24.2264,            0.,NA,NA,"",   42.3977E-03,   40.4064E-03,   12.8406E-03,   798.068E-15
C:/temp/dataset/7/32_1.odb,Step-1,Increment      1: Step Time =    1.000,"PART-1-1",           192,      -5.77678,       24.2650,            0.,NA,NA,"",   42.0670E-03,   40.4319E-03,   11.6144E-03,   819.792E-15
C:/temp/dataset/7/32_1.odb,Step-1,Increment      1: Step Time =    1.000,"PART-1-1",           193,       1.00958,       23.8763,            0.,NA,NA,"",   40.7891E-03,   40.1705E-03,   7.07696E-03,   1.08374E-12
C:/temp/dataset/7/32_1.odb,Step-1,Increment      1: Step Time =    1.000,"PART-1-1",           194,      -3.86757,       24.8145,            0.,NA,NA,"",   42.0882E-03,   40.7988E-03,   10.3377E-03,   797.768E-15
C:/temp/dataset/7/32_1.odb,Step-1,Increment      1: Step Time =    1.000,"PART-1-1",           195,  -996.969E-03,       24.6602,            0.,NA,NA,"",   41.5567E-03,   40.6951E-03,   8.41842E-03,   855.404E-15
C:/temp/dataset/7/32_1.odb,Step-1,Increment      1: Step Time =    1.000,"PART-1-1",           196,       7.19995,       21.7613,            0.,NA,NA,"",   38.8661E-03,   38.7549E-03,   2.93840E-03,   3.08140E-12
C:/temp/dataset/7/32_1.odb,Step-1,Increment      1: Step Time =    1.000,"PART-1-1",           197,       2.92747,       22.7842,            0.,NA,NA,"",   39.8633E-03,   39.4398E-03,   5.79486E-03,   2.51960E-12
C:/temp/dataset/7/32_1.odb,Step-1,Increment      1: Step Time =    1.000,"PART-1-1",           198,       5.53232,       24.2100,            0.,NA,NA,"",   40.5954E-03,   40.3926E-03,   4.05287E-03,   1.90718E-12
C:/temp/dataset/7/32_1.odb,Step-1,Increment      1: Step Time =    1.000,"PART-1-1",           199,       9.18626,       19.3402,            0.,NA,NA,"",   37.1706E-03,   37.1357E-03,   1.61084E-03,   4.43448E-12
C:/temp/dataset/7/32_1.odb,Step-1,Increment      1: Step Time =    1.000,"PART-1-1",           200,       11.2321,       23.1770,            0.,NA,NA,"",   39.7013E-03,   39.7006E-03,   242.105E-06,   3.68088E-12
C:/temp/dataset/7/32_1.odb,Step-1,Increment      1: Step Time =    1.000,"PART-1-1",           201,       5.11021,       22.1378,            0.,NA,NA,"",   39.2474E-03,   39.0072E-03,   4.33557E-03,   2.58485E-12
C:/temp/dataset/7/32_1.odb,Step-1,Increment      1: Step Time =    1.000,"PART-1-1",           202,   167.280E-03,       22.2372,            0.,NA,NA,"",   39.8147E-03,   39.0747E-03,   7.64051E-03,   2.39686E-12
C:/temp/dataset/7/32_1.odb,Step-1,Increment      1: Step Time =    1.000,"PART-1-1",           203,      -2.32264,       22.6339,            0.,NA,NA,"",   40.4260E-03,   39.3405E-03,   9.30525E-03,   1.62238E-12
C:/temp/dataset/7/32_1.odb,Step-1,Increment      1: Step Time =    1.000,"PART-1-1",           204,       9.17324,       21.4477,            0.,NA,NA,"",   38.5788E-03,   38.5448E-03,   1.61908E-03,   3.20413E-12
C:/temp/dataset/7/32_1.odb,Step-1,Increment      1: Step Time =    1.000,"PART-1-1",           205,       9.43619,       25.5889,            0.,NA,NA,"",   41.3388E-03,   41.3137E-03,   1.44234E-03,   3.59449E-12
C:/temp/dataset/7/32_1.odb,Step-1,Increment      1: Step Time =    1.000,"PART-1-1",           206,      -5.39738,       22.2321,            0.,NA,NA,"",   40.6908E-03,   39.0725E-03,   11.3612E-03,   1.38779E-12
C:/temp/dataset/7/32_1.odb,Step-1,Increment      1: Step Time =    1.000,"PART-1-1",           207,      -8.66915,       22.6604,            0.,NA,NA,"",   41.6263E-03,   39.3596E-03,   13.5487E-03,   901.885E-15
C:/temp/dataset/7/32_1.odb,Step-1,Increment      1: Step Time =    1.000,"PART-1-1",           208,      -12.8188,       27.4435,            0.,NA,NA,"",   45.5812E-03,   42.5586E-03,   16.3221E-03,   590.683E-15
C:/temp/dataset/7/32_1.odb,Step-1,Increment      1: Step Time =    1.000,"PART-1-1",           209,       7.43992,       23.7550,            0.,NA,NA,"",   40.1840E-03,   40.0879E-03,   2.77750E-03,   3.06883E-12
C:/temp/dataset/7/32_1.odb,Step-1,Increment      1: Step Time =    1.000,"PART-1-1",           210,      -6.48406,       26.1481,            0.,NA,NA,"",   43.4079E-03,   41.6911E-03,   12.0869E-03,   903.840E-15
C:/temp/dataset/7/32_1.odb,Step-1,Increment      1: Step Time =    1.000,"PART-1-1",           211,       3.18484,       28.0088,            0.,NA,NA,"",   43.2996E-03,   42.9331E-03,   5.62160E-03,   2.75919E-12
C:/temp/dataset/7/32_1.odb,Step-1,Increment      1: Step Time =    1.000,"PART-1-1",           212,       11.4304,      -19.6429,            0.,NA,NA,"",   11.0806E-03,   11.0790E-03,   191.427E-06,   27.9853E-06
C:/temp/dataset/7/32_1.odb,Step-1,Increment      1: Step Time =    1.000,"PART-1-1",           213,       9.33060,       23.4727,            0.,NA,NA,"",   39.9275E-03,   39.8988E-03,   1.51341E-03,   3.58071E-12
C:/temp/dataset/7/32_1.odb,Step-1,Increment      1: Step Time =    1.000,"PART-1-1",           214,      -12.1707,       23.6708,            0.,NA,NA,"",   43.0739E-03,   40.0360E-03,   15.8897E-03,   737.342E-15
C:/temp/dataset/7/32_1.odb,Step-1,Increment      1: Step Time =    1.000,"PART-1-1",           215,      -13.7031,       24.9625,            0.,NA,NA,"",   44.2594E-03,   40.9000E-03,   16.9140E-03,   719.548E-15
C:/temp/dataset/7/32_1.odb,Step-1,Increment      1: Step Time =    1.000,"PART-1-1",           216,          -15.,         23.75,            0.,NA,NA,"",   43.8561E-03,   40.0896E-03,   17.7814E-03,   534.765E-15
C:/temp/dataset/7/32_1.odb,Step-1,Increment      1: Step Time =    1.000,"PART-1-1",           217,      -13.4675,       22.4583,            0.,NA,NA,"",   42.6550E-03,   39.2256E-03,   16.7571E-03,   595.920E-15
C:/temp/dataset/7/32_1.odb,Step-1,Increment      1: Step Time =    1.000,"PART-1-1",           218,      -9.86170,       27.7278,            0.,NA,NA,"",   45.0908E-03,   42.7481E-03,   14.3449E-03,   869.223E-15
C:/temp/dataset/7/32_1.odb,Step-1,Increment      1: Step Time =    1.000,"PART-1-1",           219,      -10.4490,       26.4258,            0.,NA,NA,"",   44.3953E-03,   41.8777E-03,   14.7379E-03,   735.167E-15
C:/temp/dataset/7/32_1.odb,Step-1,Increment      1: Step Time =    1.000,"PART-1-1",           220,      -9.20914,       25.5437,            0.,NA,NA,"",   43.5675E-03,   41.2876E-03,   13.9091E-03,   822.588E-15
C:/temp/dataset/7/32_1.odb,Step-1,Increment      1: Step Time =    1.000,"PART-1-1",           221,      -8.62185,       26.8458,            0.,NA,NA,"",   44.2718E-03,   42.1581E-03,   13.5161E-03,   852.420E-15
C:/temp/dataset/7/32_1.odb,Step-1,Increment      1: Step Time =    1.000,"PART-1-1",           222,      -9.15066,       28.9242,            0.,NA,NA,"",   45.7031E-03,   43.5479E-03,   13.8692E-03,   1.21846E-12
C:/temp/dataset/7/32_1.odb,Step-1,Increment      1: Step Time =    1.000,"PART-1-1",           223,      -10.3125,           30.,            0.,NA,NA,"",   46.6273E-03,   44.2674E-03,   14.6458E-03,   1.33191E-12
C:/temp/dataset/7/32_1.odb,Step-1,Increment      1: Step Time =    1.000,"PART-1-1",           224,      -11.0235,       28.8036,            0.,NA,NA,"",   46.0228E-03,   43.4677E-03,   15.1215E-03,   813.716E-15
C:/temp/dataset/7/32_1.odb,Step-1,Increment      1: Step Time =    1.000,"PART-1-1",           225,      -11.2536,       25.0847,            0.,NA,NA,"",   43.7357E-03,   40.9811E-03,   15.2761E-03,   854.811E-15
C:/temp/dataset/7/32_1.odb,Step-1,Increment      1: Step Time =    1.000,"PART-1-1",           226,      -10.3021,       22.5385,            0.,NA,NA,"",   41.9183E-03,   39.2785E-03,   14.6406E-03,   701.725E-15
C:/temp/dataset/7/32_1.odb,Step-1,Increment      1: Step Time =    1.000,"PART-1-1",           227,      -9.38503,       23.9523,            0.,NA,NA,"",   42.5993E-03,   40.2236E-03,   14.0270E-03,   744.194E-15
C:/temp/dataset/7/32_1.odb,Step-1,Increment      1: Step Time =    1.000,"PART-1-1",           228,      -12.9719,       28.7217,            0.,NA,NA,"",   46.4163E-03,   43.4134E-03,   16.4242E-03,   423.025E-15
C:/temp/dataset/7/32_1.odb,Step-1,Increment      1: Step Time =    1.000,"PART-1-1",           229,      -14.0625,           30.,            0.,NA,NA,"",   47.4754E-03,   44.2683E-03,   17.1532E-03,   569.648E-15
C:/temp/dataset/7/32_1.odb,Step-1,Increment      1: Step Time =    1.000,"PART-1-1",           230,          -15.,         28.75,            0.,NA,NA,"",   46.9312E-03,   43.4327E-03,   17.7803E-03,   538.318E-15
C:/temp/dataset/7/32_1.odb,Step-1,Increment      1: Step Time =    1.000,"PART-1-1",           231,      -13.9094,       27.4717,            0.,NA,NA,"",   45.8652E-03,   42.5778E-03,   17.0514E-03,   602.975E-15
C:/temp/dataset/7/32_1.odb,Step-1,Increment      1: Step Time =    1.000,"PART-1-1",           232,      -7.40072,       25.9956,            0.,NA,NA,"",   43.4852E-03,   41.5894E-03,   12.6998E-03,   851.102E-15
C:/temp/dataset/7/32_1.odb,Step-1,Increment      1: Step Time =    1.000,"PART-1-1",           233,      -7.96404,       25.0347,            0.,NA,NA,"",   42.9844E-03,   40.9470E-03,   13.0767E-03,   754.805E-15
C:/temp/dataset/7/32_1.odb,Step-1,Increment      1: Step Time =    1.000,"PART-1-1",           234,      -6.69374,       24.2457,            0.,NA,NA,"",   42.2282E-03,   40.4192E-03,   12.2275E-03,   798.170E-15
C:/temp/dataset/7/32_1.odb,Step-1,Increment      1: Step Time =    1.000,"PART-1-1",           235,      -6.13042,       25.2066,            0.,NA,NA,"",   42.7374E-03,   41.0615E-03,   11.8507E-03,   738.903E-15
C:/temp/dataset/7/32_1.odb,Step-1,Increment      1: Step Time =    1.000,"PART-1-1",           236,      -5.46940,       29.1125,            0.,NA,NA,"",   45.1383E-03,   43.6730E-03,   11.4078E-03,   2.06983E-12
C:/temp/dataset/7/32_1.odb,Step-1,Increment      1: Step Time =    1.000,"PART-1-1",           237,      -4.41178,       28.2246,            0.,NA,NA,"",   44.3882E-03,   43.0790E-03,   10.7009E-03,   1.84437E-12
C:/temp/dataset/7/32_1.odb,Step-1,Increment      1: Step Time =    1.000,"PART-1-1",           238,      -3.62988,       29.1121,            0.,NA,NA,"",   44.8426E-03,   43.6723E-03,   10.1779E-03,   2.49134E-12
C:/temp/dataset/7/32_1.odb,Step-1,Increment      1: Step Time =    1.000,"PART-1-1",           239,       -4.6875,           30.,            0.,NA,NA,"",   45.5848E-03,   44.2662E-03,   10.8848E-03,   2.76402E-12
C:/temp/dataset/7/32_1.odb,Step-1,Increment      1: Step Time =    1.000,"PART-1-1",           240,  -467.629E-03,       27.9420,            0.,NA,NA,"",   43.6406E-03,   42.8892E-03,   8.06376E-03,   2.29154E-12
C:/temp/dataset/7/32_1.odb,Step-1,Increment      1: Step Time =    1.000,"PART-1-1",           241,  -845.263E-03,       26.9234,            0.,NA,NA,"",   43.0198E-03,   42.2082E-03,   8.31648E-03,   1.53390E-12
C:/temp/dataset/7/32_1.odb,Step-1,Increment      1: Step Time =    1.000,"PART-1-1",           242,   746.021E-03,       26.1520,            0.,NA,NA,"",   42.3182E-03,   41.6921E-03,   7.25268E-03,   1.19046E-12
C:/temp/dataset/7/32_1.odb,Step-1,Increment      1: Step Time =    1.000,"PART-1-1",           243,       1.12365,       27.1705,            0.,NA,NA,"",   42.9473E-03,   42.3730E-03,   6.99996E-03,   1.91307E-12
C:/temp/dataset/7/32_1.odb,Step-1,Increment      1: Step Time =    1.000,"PART-1-1",           244,       14.0901,       25.0896,            0.,NA,NA,"",   41.0128E-03,   40.9788E-03,  -1.66927E-03,   2.93498E-12
C:/temp/dataset/7/32_1.odb,Step-1,Increment      1: Step Time =    1.000,"PART-1-1",           245,       13.1528,       23.9903,            0.,NA,NA,"",   40.2575E-03,   40.2440E-03,  -1.04231E-03,   3.68450E-12
C:/temp/dataset/7/32_1.odb,Step-1,Increment      1: Step Time =    1.000,"PART-1-1",           246,       14.0627,       22.6507,            0.,NA,NA,"",   39.3827E-03,   39.3481E-03,  -1.65040E-03,   5.08829E-12
C:/temp/dataset/7/32_1.odb,Step-1,Increment      1: Step Time =    1.000,"PART-1-1",           247,           15.,         23.75,            0.,NA,NA,"",   40.1475E-03,   40.0829E-03,  -2.27736E-03,   4.93952E-12
C:/temp/dataset/7/32_1.odb,Step-1,Increment      1: Step Time =    1.000,"PART-1-1",           248,       11.2764,       28.8302,            0.,NA,NA,"",   43.4810E-03,   43.4805E-03,   211.186E-06,   1.79701E-12
C:/temp/dataset/7/32_1.odb,Step-1,Increment      1: Step Time =    1.000,"PART-1-1",           249,       10.3125,           30.,            0.,NA,NA,"",   44.2711E-03,   44.2628E-03,   855.426E-06,   1.62077E-12
C:/temp/dataset/7/32_1.odb,Step-1,Increment      1: Step Time =    1.000,"PART-1-1",           250,       9.39543,       28.8642,            0.,NA,NA,"",   43.5284E-03,   43.5036E-03,   1.46885E-03,   2.51322E-12
C:/temp/dataset/7/32_1.odb,Step-1,Increment      1: Step Time =    1.000,"PART-1-1",           251,       10.3594,       27.6945,            0.,NA,NA,"",   42.7292E-03,   42.7213E-03,   824.615E-06,   2.89611E-12
C:/temp/dataset/7/32_1.odb,Step-1,Increment      1: Step Time =    1.000,"PART-1-1",           252,        8.4375,           30.,            0.,NA,NA,"",   44.3135E-03,   44.2633E-03,   2.10910E-03,   3.00367E-12
C:/temp/dataset/7/32_1.odb,Step-1,Increment      1: Step Time =    1.000,"PART-1-1",           253,       7.48312,       28.8587,            0.,NA,NA,"",   43.5871E-03,   43.5004E-03,   2.74748E-03,   3.17744E-12
C:/temp/dataset/7/32_1.odb,Step-1,Increment      1: Step Time =    1.000,"PART-1-1",           254,       8.44105,       27.7230,            0.,NA,NA,"",   42.7927E-03,   42.7408E-03,   2.10723E-03,   3.03968E-12
C:/temp/dataset/7/32_1.odb,Step-1,Increment      1: Step Time =    1.000,"PART-1-1",           255,       13.0365,       21.6252,            0.,NA,NA,"",   38.6746E-03,   38.6626E-03,  -964.024E-06,   4.22781E-12
C:/temp/dataset/7/32_1.odb,Step-1,Increment      1: Step Time =    1.000,"PART-1-1",           256,       13.9738,       20.2245,            0.,NA,NA,"",   37.7594E-03,   37.7259E-03,  -1.59043E-03,   6.72658E-12
C:/temp/dataset/7/32_1.odb,Step-1,Increment      1: Step Time =    1.000,"PART-1-1",           257,           15.,         21.25,            0.,NA,NA,"",   38.4787E-03,   38.4113E-03,  -2.27680E-03,   8.02487E-12
C:/temp/dataset/7/32_1.odb,Step-1,Increment      1: Step Time =    1.000,"PART-1-1",           258,       6.90015,       14.7921,            0.,NA,NA,"",   34.2395E-03,   34.0952E-03,   3.14041E-03,   43.3715E-12
C:/temp/dataset/7/32_1.odb,Step-1,Increment      1: Step Time =    1.000,"PART-1-1",           259,       5.93474,       15.8126,            0.,NA,NA,"",   34.9832E-03,   34.7778E-03,   3.78568E-03,   17.8119E-12
C:/temp/dataset/7/32_1.odb,Step-1,Increment      1: Step Time =    1.000,"PART-1-1",           260,            5.,       14.7917,            0.,NA,NA,"",   34.3795E-03,   34.0953E-03,   4.41090E-03,   34.5592E-12
C:/temp/dataset/7/32_1.odb,Step-1,Increment      1: Step Time =    1.000,"PART-1-1",           261,       5.96541,       13.7711,            0.,NA,NA,"",   33.6243E-03,   33.4128E-03,   3.76563E-03,   47.3883E-12
C:/temp/dataset/7/32_1.odb,Step-1,Increment      1: Step Time =    1.000,"PART-1-1",           262,       7.07741,       8.55300,            0.,NA,NA,"",   30.0759E-03,   29.9236E-03,   3.02328E-03,   208.251E-12
C:/temp/dataset/7/32_1.odb,Step-1,Increment      1: Step Time =    1.000,"PART-1-1",           263,       6.03400,       9.60662,            0.,NA,NA,"",   30.8534E-03,   30.6283E-03,   3.72070E-03,   229.811E-12
C:/temp/dataset/7/32_1.odb,Step-1,Increment      1: Step Time =    1.000,"PART-1-1",           264,            5.,       8.54167,            0.,NA,NA,"",   30.2401E-03,   29.9164E-03,   4.41229E-03,   489.333E-12
C:/temp/dataset/7/32_1.odb,Step-1,Increment      1: Step Time =    1.000,"PART-1-1",           265,       6.04341,       7.48805,            0.,NA,NA,"",   29.4470E-03,   29.2117E-03,   3.71488E-03,   352.201E-12
C:/temp/dataset/7/32_1.odb,Step-1,Increment      1: Step Time =    1.000,"PART-1-1",           266,            5.,         4.375,            0.,NA,NA,"",   27.4871E-03,   27.1305E-03,   4.41322E-03,   273.962E-12
C:/temp/dataset/7/32_1.odb,Step-1,Increment      1: Step Time =    1.000,"PART-1-1",           267,       6.03822,       3.24050,            0.,NA,NA,"",   26.6327E-03,   26.3717E-03,   3.71930E-03,   1.92337E-09
C:/temp/dataset/7/32_1.odb,Step-1,Increment      1: Step Time =    1.000,"PART-1-1",           268,       7.08368,       4.22909,            0.,NA,NA,"",   27.2007E-03,   27.0325E-03,   3.02006E-03,   2.33928E-09
C:/temp/dataset/7/32_1.odb,Step-1,Increment      1: Step Time =    1.000,"PART-1-1",           269,       6.04546,       5.36359,            0.,NA,NA,"",   28.0383E-03,   27.7913E-03,   3.71398E-03,   421.804E-12
C:/temp/dataset/7/32_1.odb,Step-1,Increment      1: Step Time =    1.000,"PART-1-1",           270,            5.,       2.29167,            0.,NA,NA,"",   26.1132E-03,   25.7375E-03,   4.41369E-03,   3.14346E-09
C:/temp/dataset/7/32_1.odb,Step-1,Increment      1: Step Time =    1.000,"PART-1-1",           271,       6.01828,       1.12309,            0.,NA,NA,"",   25.2337E-03,   24.9560E-03,   3.73311E-03,   7.67626E-09
C:/temp/dataset/7/32_1.odb,Step-1,Increment      1: Step Time =    1.000,"PART-1-1",           272,       7.05649,       2.07193,            0.,NA,NA,"",   25.7699E-03,   25.5902E-03,   3.03872E-03,   8.64918E-09
C:/temp/dataset/7/32_1.odb,Step-1,Increment      1: Step Time =    1.000,"PART-1-1",           273,       7.00178,  -77.9012E-03,            0.,NA,NA,"",   24.3478E-03,   24.1528E-03,   3.07578E-03,   23.3470E-09
C:/temp/dataset/7/32_1.odb,Step-1,Increment      1: Step Time =    1.000,"PART-1-1",           274,            5.,   208.333E-03,            0.,NA,NA,"",   24.7415E-03,   24.3446E-03,   4.41416E-03,   14.8037E-09
C:/temp/dataset/7/32_1.odb,Step-1,Increment      1: Step Time =    1.000,"PART-1-1",           275,       5.98350,  -992.661E-03,            0.,NA,NA,"",   23.8393E-03,   23.5414E-03,   3.75686E-03,   22.8785E-09
C:/temp/dataset/7/32_1.odb,Step-1,Increment      1: Step Time =    1.000,"PART-1-1",           276,       6.59145,      -6.15040,            0.,NA,NA,"",   20.3702E-03,   20.0925E-03,   3.35161E-03,   73.0550E-09
C:/temp/dataset/7/32_1.odb,Step-1,Increment      1: Step Time =    1.000,"PART-1-1",           277,       5.82593,      -5.11028,            0.,NA,NA,"",   21.1442E-03,   20.7883E-03,   3.86332E-03,   105.627E-09
C:/temp/dataset/7/32_1.odb,Step-1,Increment      1: Step Time =    1.000,"PART-1-1",           278,            5.,      -6.04167,            0.,NA,NA,"",   20.6434E-03,   20.1655E-03,   4.41602E-03,   210.833E-09
C:/temp/dataset/7/32_1.odb,Step-1,Increment      1: Step Time =    1.000,"PART-1-1",           279,       5.76552,      -7.08179,            0.,NA,NA,"",   19.8574E-03,   19.4697E-03,   3.90438E-03,   162.034E-09
C:/temp/dataset/7/32_1.odb,Step-1,Increment      1: Step Time =    1.000,"PART-1-1",           280,       8.25955,      -15.2021,            0.,NA,NA,"",   14.2035E-03,   14.0238E-03,   2.25197E-03,   12.9281E-06
C:/temp/dataset/7/32_1.odb,Step-1,Increment      1: Step Time =    1.000,"PART-1-1",           281,       9.23032,      -13.9562,            0.,NA,NA,"",   14.9535E-03,   14.8676E-03,   1.59986E-03,   9.63533E-06
C:/temp/dataset/7/32_1.odb,Step-1,Increment      1: Step Time =    1.000,"PART-1-1",           282,       8.16037,      -12.9544,            0.,NA,NA,"",   15.7055E-03,   15.5351E-03,   2.30734E-03,   4.88326E-06
C:/temp/dataset/7/32_1.odb,Step-1,Increment      1: Step Time =    1.000,"PART-1-1",           283,       7.18960,      -14.2003,            0.,NA,NA,"",   14.9879E-03,   14.6939E-03,   2.95414E-03,   9.48034E-06
C:/temp/dataset/7/32_1.odb,Step-1,Increment      1: Step Time =    1.000,"PART-1-1",           284,            5.,      -22.7083,            0.,NA,NA,"",   10.3314E-03,   9.60462E-03,   3.80634E-03,   183.379E-06
C:/temp/dataset/7/32_1.odb,Step-1,Increment      1: Step Time =    1.000,"PART-1-1",           285,       5.97351,      -23.6835,            0.,NA,NA,"",   10.2294E-03,   9.57674E-03,   3.59545E-03,   555.633E-06
C:/temp/dataset/7/32_1.odb,Step-1,Increment      1: Step Time =    1.000,"PART-1-1",           286,       6.71140,      -22.7416,            0.,NA,NA,"",   10.0822E-03,   9.53871E-03,   3.26560E-03,   234.257E-06
C:/temp/dataset/7/32_1.odb,Step-1,Increment      1: Step Time =    1.000,"PART-1-1",           287,       5.73789,      -21.7664,            0.,NA,NA,"",   10.5591E-03,   9.89586E-03,   3.68336E-03,   110.274E-06
C:/temp/dataset/7/32_1.odb,Step-1,Increment      1: Step Time =    1.000,"PART-1-1",           288,       9.95056,      -28.8261,            0.,NA,NA,"",   1.68838E-03,   1.68781E-03,   44.0208E-06,   915.251E-06
C:/temp/dataset/7/32_1.odb,Step-1,Increment      1: Step Time =    1.000,"PART-1-1",           289,       8.67404,      -27.7482,            0.,NA,NA,"",   3.83761E-03,   3.81278E-03,   435.877E-06,   1.12669E-03
C:/temp/dataset/7/32_1.odb,Step-1,Increment      1: Step Time =    1.000,"PART-1-1",           290,       7.47347,      -28.9221,            0.,NA,NA,"",   2.05539E-03,   2.04067E-03,   245.507E-06,   1.27579E-03
C:/temp/dataset/7/32_1.odb,Step-1,Increment      1: Step Time =    1.000,"PART-1-1",           291,          8.75,          -30.,            0.,NA,NA,"",            0.,   991.133E-42,   128.662E-42,   1.02596E-03
C:/temp/dataset/7/32_1.odb,Step-1,Increment      1: Step Time =    1.000,"PART-1-1",           292,       9.14805,      -24.1419,            0.,NA,NA,"",   8.16211E-03,   8.02735E-03,   1.47700E-03,   417.296E-06
C:/temp/dataset/7/32_1.odb,Step-1,Increment      1: Step Time =    1.000,"PART-1-1",           293,       7.84454,      -23.3007,            0.,NA,NA,"",   9.38486E-03,   9.04862E-03,   2.48957E-03,   370.237E-06
C:/temp/dataset/7/32_1.odb,Step-1,Increment      1: Step Time =    1.000,"PART-1-1",           294,       7.10828,      -24.6604,            0.,NA,NA,"",   9.01260E-03,   8.63666E-03,   2.57587E-03,   782.795E-06
C:/temp/dataset/7/32_1.odb,Step-1,Increment      1: Step Time =    1.000,"PART-1-1",           295,       8.41180,      -25.5016,            0.,NA,NA,"",   7.23797E-03,   7.08595E-03,   1.47561E-03,   797.841E-06
C:/temp/dataset/7/32_1.odb,Step-1,Increment      1: Step Time =    1.000,"PART-1-1",           296,       7.00425,      -21.1298,            0.,NA,NA,"",   10.6425E-03,   10.1807E-03,   3.10123E-03,   64.2417E-06
C:/temp/dataset/7/32_1.odb,Step-1,Increment      1: Step Time =    1.000,"PART-1-1",           297,       6.26636,      -19.9884,            0.,NA,NA,"",   11.4086E-03,   10.8552E-03,   3.51011E-03,   37.8823E-06
C:/temp/dataset/7/32_1.odb,Step-1,Increment      1: Step Time =    1.000,"PART-1-1",           298,            5.,       -20.625,            0.,NA,NA,"",   11.3224E-03,   10.5240E-03,   4.17643E-03,   122.381E-06
C:/temp/dataset/7/32_1.odb,Step-1,Increment      1: Step Time =    1.000,"PART-1-1",           299,       12.8526,      -8.63250,            0.,NA,NA,"",   18.4514E-03,   18.4325E-03,  -834.340E-06,   389.120E-09
C:/temp/dataset/7/32_1.odb,Step-1,Increment      1: Step Time =    1.000,"PART-1-1",           300,       13.9581,      -9.97058,            0.,NA,NA,"",   17.6094E-03,   17.5391E-03,  -1.57275E-03,   357.862E-09
C:/temp/dataset/7/32_1.odb,Step-1,Increment      1: Step Time =    1.000,"PART-1-1",           301,           15.,         -8.75,            0.,NA,NA,"",   18.4935E-03,   18.3538E-03,  -2.26892E-03,   206.316E-09
C:/temp/dataset/7/32_1.odb,Step-1,Increment      1: Step Time =    1.000,"PART-1-1",           302,       13.8945,      -7.41192,            0.,NA,NA,"",   19.3086E-03,   19.2478E-03,  -1.53090E-03,   138.475E-09
C:/temp/dataset/7/32_1.odb,Step-1,Increment      1: Step Time =    1.000,"PART-1-1",           303,            5.,        10.625,            0.,NA,NA,"",   31.6187E-03,   31.3094E-03,   4.41183E-03,   241.456E-12
C:/temp/dataset/7/32_1.odb,Step-1,Increment      1: Step Time =    1.000,"PART-1-1",           304,       7.03988,       10.6820,            0.,NA,NA,"",   31.4949E-03,   31.3470E-03,   3.04790E-03,   183.523E-12
C:/temp/dataset/7/32_1.odb,Step-1,Increment      1: Step Time =    1.000,"PART-1-1",           305,       6.00589,       11.7004,            0.,NA,NA,"",   32.2457E-03,   32.0282E-03,   3.73903E-03,   114.169E-12
C:/temp/dataset/7/32_1.odb,Step-1,Increment      1: Step Time =    1.000,"PART-1-1",           306,       2.74639,       25.6366,            0.,NA,NA,"",   41.7680E-03,   41.3470E-03,   5.91530E-03,   1.24330E-12
C:/temp/dataset/7/32_1.odb,Step-1,Increment      1: Step Time =    1.000,"PART-1-1",           307,       1.36653,       25.0307,            0.,NA,NA,"",   41.5094E-03,   40.9423E-03,   6.83804E-03,   721.414E-15
C:/temp/dataset/7/32_1.odb,Step-1,Increment      1: Step Time =    1.000,"PART-1-1",           308,       1.96853,       23.3303,            0.,NA,NA,"",   40.3221E-03,   39.8051E-03,   6.43591E-03,   1.50052E-12
C:/temp/dataset/7/32_1.odb,Step-1,Increment      1: Step Time =    1.000,"PART-1-1",           309,       3.34839,       23.9361,            0.,NA,NA,"",   40.5861E-03,   40.2099E-03,   5.51316E-03,   1.23109E-12
C:/temp/dataset/7/32_1.odb,Step-1,Increment      1: Step Time =    1.000,"PART-1-1",           310,       4.47216,       26.2029,            0.,NA,NA,"",   41.9961E-03,   41.7253E-03,   4.76127E-03,   1.86384E-12
C:/temp/dataset/7/32_1.odb,Step-1,Increment      1: Step Time =    1.000,"PART-1-1",           311,       4.17993,       27.6633,            0.,NA,NA,"",   42.9885E-03,   42.7018E-03,   4.95634E-03,   2.61451E-12
C:/temp/dataset/7/32_1.odb,Step-1,Increment      1: Step Time =    1.000,"PART-1-1",           312,       2.45416,       27.0970,            0.,NA,NA,"",   42.7624E-03,   42.3236E-03,   6.11036E-03,   1.98782E-12
C:/temp/dataset/7/32_1.odb,Step-1,Increment      1: Step Time =    1.000,"PART-1-1",           313,      -1.66705,       28.8640,            0.,NA,NA,"",   44.4001E-03,   43.5060E-03,   8.86551E-03,   2.74560E-12
C:/temp/dataset/7/32_1.odb,Step-1,Increment      1: Step Time =    1.000,"PART-1-1",           314,   261.919E-03,       29.0779,            0.,NA,NA,"",   44.3011E-03,   43.6486E-03,   7.57571E-03,   3.33395E-12
C:/temp/dataset/7/32_1.odb,Step-1,Increment      1: Step Time =    1.000,"PART-1-1",           315,    -937.5E-03,           30.,            0.,NA,NA,"",   45.0511E-03,   44.2654E-03,   8.37746E-03,   3.83460E-12
C:/temp/dataset/7/32_1.odb,Step-1,Increment      1: Step Time =    1.000,"PART-1-1",           316,          -15.,         21.25,            0.,NA,NA,"",   42.3337E-03,   38.4180E-03,   17.7820E-03,   487.237E-15
C:/temp/dataset/7/32_1.odb,Step-1,Increment      1: Step Time =    1.000,"PART-1-1",           317,      -13.3250,           20.,            0.,NA,NA,"",   41.1100E-03,   37.5819E-03,   16.6623E-03,   651.900E-15
C:/temp/dataset/7/32_1.odb,Step-1,Increment      1: Step Time =    1.000,"PART-1-1",           318,      -11.7925,       21.2083,            0.,NA,NA,"",   41.4521E-03,   38.3894E-03,   15.6374E-03,   572.959E-15
C:/temp/dataset/7/32_1.odb,Step-1,Increment      1: Step Time =    1.000,"PART-1-1",           319,       10.1137,       15.7319,            0.,NA,NA,"",   34.7370E-03,   34.7228E-03,   991.549E-06,   34.5647E-12
C:/temp/dataset/7/32_1.odb,Step-1,Increment      1: Step Time =    1.000,"PART-1-1",           320,       9.02474,       16.2903,            0.,NA,NA,"",   35.1385E-03,   35.0964E-03,   1.71952E-03,   22.8609E-12
C:/temp/dataset/7/32_1.odb,Step-1,Increment      1: Step Time =    1.000,"PART-1-1",           321,       8.64023,       14.7706,            0.,NA,NA,"",   34.1377E-03,   34.0805E-03,   1.97695E-03,   48.2007E-12
C:/temp/dataset/7/32_1.odb,Step-1,Increment      1: Step Time =    1.000,"PART-1-1",           322,       9.72917,       14.2122,            0.,NA,NA,"",   33.7300E-03,   33.7069E-03,   1.24898E-03,   57.4517E-12
C:/temp/dataset/7/32_1.odb,Step-1,Increment      1: Step Time =    1.000,"PART-1-1",           323,       12.8210,       13.6438,            0.,NA,NA,"",   33.3362E-03,   33.3261E-03,  -818.190E-06,   73.6075E-12
C:/temp/dataset/7/32_1.odb,Step-1,Increment      1: Step Time =    1.000,"PART-1-1",           324,       13.9730,       12.4303,            0.,NA,NA,"",   32.5533E-03,   32.5145E-03,  -1.58812E-03,   73.7885E-12
C:/temp/dataset/7/32_1.odb,Step-1,Increment      1: Step Time =    1.000,"PART-1-1",           325,           15.,         13.75,            0.,NA,NA,"",   33.4740E-03,   33.3966E-03,  -2.27512E-03,   44.3707E-12
C:/temp/dataset/7/32_1.odb,Step-1,Increment      1: Step Time =    1.000,"PART-1-1",           326,       13.8481,       14.9635,            0.,NA,NA,"",   34.2413E-03,   34.2082E-03,  -1.50519E-03,   20.7579E-12
C:/temp/dataset/7/32_1.odb,Step-1,Increment      1: Step Time =    1.000,"PART-1-1",           327,       10.1008,       2.87074,            0.,NA,NA,"",   26.1428E-03,   26.1236E-03,   1.00305E-03,   5.60244E-09
C:/temp/dataset/7/32_1.odb,Step-1,Increment      1: Step Time =    1.000,"PART-1-1",           328,       9.07373,       1.83179,            0.,NA,NA,"",   25.4852E-03,   25.4291E-03,   1.68999E-03,   11.9320E-09
C:/temp/dataset/7/32_1.odb,Step-1,Increment      1: Step Time =    1.000,"PART-1-1",           329,       10.0520,   569.032E-03,            0.,NA,NA,"",   24.6064E-03,   24.5846E-03,   1.03617E-03,   17.7618E-09
C:/temp/dataset/7/32_1.odb,Step-1,Increment      1: Step Time =    1.000,"PART-1-1",           330,       11.0790,       1.60798,            0.,NA,NA,"",   25.2814E-03,   25.2790E-03,   349.247E-06,   13.3928E-09
C:/temp/dataset/7/32_1.odb,Step-1,Increment      1: Step Time =    1.000,"PART-1-1",           331,       9.98138,      -1.74337,            0.,NA,NA,"",   23.0640E-03,   23.0385E-03,   1.08383E-03,   43.6289E-09
C:/temp/dataset/7/32_1.odb,Step-1,Increment      1: Step Time =    1.000,"PART-1-1",           332,       8.90931,      -2.66004,            0.,NA,NA,"",   22.4980E-03,   22.4259E-03,   1.80083E-03,   60.2045E-09
C:/temp/dataset/7/32_1.odb,Step-1,Increment      1: Step Time =    1.000,"PART-1-1",           333,       9.84458,      -4.07679,            0.,NA,NA,"",   21.5105E-03,   21.4783E-03,   1.17571E-03,   81.3164E-09
C:/temp/dataset/7/32_1.odb,Step-1,Increment      1: Step Time =    1.000,"PART-1-1",           334,       10.9167,      -3.16013,            0.,NA,NA,"",   22.0957E-03,   22.0910E-03,   458.760E-06,   68.9851E-09
C:/temp/dataset/7/32_1.odb,Step-1,Increment      1: Step Time =    1.000,"PART-1-1",           335,            5.,      -3.95833,            0.,NA,NA,"",   22.0062E-03,   21.5587E-03,   4.41527E-03,   109.510E-09
C:/temp/dataset/7/32_1.odb,Step-1,Increment      1: Step Time =    1.000,"PART-1-1",           336,       6.75254,      -4.23112,            0.,NA,NA,"",   21.6206E-03,   21.3759E-03,   3.24340E-03,   79.0950E-09
C:/temp/dataset/7/32_1.odb,Step-1,Increment      1: Step Time =    1.000,"PART-1-1",           337,       5.92661,      -3.07918,            0.,NA,NA,"",   22.4692E-03,   22.1463E-03,   3.79542E-03,   53.8049E-09
C:/temp/dataset/7/32_1.odb,Step-1,Increment      1: Step Time =    1.000,"PART-1-1",           338,       7.06139,      -12.0396,            0.,NA,NA,"",   16.4315E-03,   16.1481E-03,   3.03867E-03,   3.43374E-06
C:/temp/dataset/7/32_1.odb,Step-1,Increment      1: Step Time =    1.000,"PART-1-1",           339,       5.99095,      -11.1126,            0.,NA,NA,"",   17.1856E-03,   16.7705E-03,   3.75433E-03,   840.950E-09
C:/temp/dataset/7/32_1.odb,Step-1,Increment      1: Step Time =    1.000,"PART-1-1",           340,            5.,      -12.2917,            0.,NA,NA,"",   16.5790E-03,   15.9795E-03,   4.41789E-03,   1.79772E-06
C:/temp/dataset/7/32_1.odb,Step-1,Increment      1: Step Time =    1.000,"PART-1-1",           341,       6.07044,      -13.2187,            0.,NA,NA,"",   15.7945E-03,   15.3552E-03,   3.69922E-03,   3.48473E-06
C:/temp/dataset/7/32_1.odb,Step-1,Increment      1: Step Time =    1.000,"PART-1-1",           342,       6.63644,      -8.02271,            0.,NA,NA,"",   19.1307E-03,   18.8401E-03,   3.32199E-03,   119.051E-09
C:/temp/dataset/7/32_1.odb,Step-1,Increment      1: Step Time =    1.000,"PART-1-1",           343,            5.,        -8.125,            0.,NA,NA,"",   19.2845E-03,   18.7719E-03,   4.41701E-03,   276.193E-09
C:/temp/dataset/7/32_1.odb,Step-1,Increment      1: Step Time =    1.000,"PART-1-1",           344,       5.87092,      -9.06592,            0.,NA,NA,"",   18.5428E-03,   18.1420E-03,   3.83450E-03,   157.557E-09
C:/temp/dataset/7/32_1.odb,Step-1,Increment      1: Step Time =    1.000,"PART-1-1",           345,       13.0826,      -13.6930,            0.,NA,NA,"",   15.0939E-03,   15.0615E-03,  -987.558E-06,   7.11752E-06
C:/temp/dataset/7/32_1.odb,Step-1,Increment      1: Step Time =    1.000,"PART-1-1",           346,       14.0569,      -14.9678,            0.,NA,NA,"",   14.3106E-03,   14.2156E-03,  -1.64690E-03,   7.98412E-06
C:/temp/dataset/7/32_1.odb,Step-1,Increment      1: Step Time =    1.000,"PART-1-1",           347,           15.,        -13.75,            0.,NA,NA,"",   15.1924E-03,   15.0216E-03,  -2.27147E-03,   5.14892E-06
C:/temp/dataset/7/32_1.odb,Step-1,Increment      1: Step Time =    1.000,"PART-1-1",           348,       14.0257,      -12.4752,            0.,NA,NA,"",   15.9526E-03,   15.8703E-03,  -1.61875E-03,   2.09305E-06
C:/temp/dataset/7/32_1.odb,Step-1,Increment      1: Step Time =    1.000,"PART-1-1",           349,       8.13738,      -21.6888,            0.,NA,NA,"",   10.1387E-03,   9.84356E-03,   2.42860E-03,   102.066E-06
C:/temp/dataset/7/32_1.odb,Step-1,Increment      1: Step Time =    1.000,"PART-1-1",           350,            5.,      -28.9583,            0.,NA,NA,"",   4.15947E-03,   3.76278E-03,   1.77276E-03,   1.80704E-03
C:/temp/dataset/7/32_1.odb,Step-1,Increment      1: Step Time =    1.000,"PART-1-1",           351,          6.25,          -30.,            0.,NA,NA,"",            0.,   733.171E-42,   821.675E-42,   1.99543E-03
C:/temp/dataset/7/32_1.odb,Step-1,Increment      1: Step Time =    1.000,"PART-1-1",           352,       6.22347,      -27.8804,            0.,NA,NA,"",   5.19530E-03,   5.03235E-03,   1.29098E-03,   1.25554E-03
C:/temp/dataset/7/32_1.odb,Step-1,Increment      1: Step Time =    1.000,"PART-1-1",           353,           15.,        -28.75,            0.,NA,NA,"",   2.22607E-03,   1.80277E-03,  -1.30590E-03,   993.550E-06
C:/temp/dataset/7/32_1.odb,Step-1,Increment      1: Step Time =    1.000,"PART-1-1",           354,       13.6900,      -27.4695,            0.,NA,NA,"",   3.36564E-03,   3.23207E-03,  -938.744E-06,   526.832E-06
C:/temp/dataset/7/32_1.odb,Step-1,Increment      1: Step Time =    1.000,"PART-1-1",           355,       12.4400,      -28.7195,            0.,NA,NA,"",   1.51073E-03,   1.49455E-03,  -220.489E-06,   754.933E-06
C:/temp/dataset/7/32_1.odb,Step-1,Increment      1: Step Time =    1.000,"PART-1-1",           356,         13.75,          -30.,            0.,NA,NA,"",            0.,   248.625E-42,  -1.02886E-39,   1.02612E-03
C:/temp/dataset/7/32_1.odb,Step-1,Increment      1: Step Time =    1.000,"PART-1-1",           357,       9.58617,      -22.6245,            0.,NA,NA,"",   9.20056E-03,   9.08870E-03,   1.43033E-03,   184.673E-06
C:/temp/dataset/7/32_1.odb,Step-1,Increment      1: Step Time =    1.000,"PART-1-1",           358,       10.0221,      -21.0980,            0.,NA,NA,"",   10.1718E-03,   10.1025E-03,   1.18519E-03,   58.7668E-06
C:/temp/dataset/7/32_1.odb,Step-1,Increment      1: Step Time =    1.000,"PART-1-1",           359,       8.57328,      -20.1623,            0.,NA,NA,"",   10.9589E-03,   10.7479E-03,   2.14004E-03,   37.4750E-06
C:/temp/dataset/7/32_1.odb,Step-1,Increment      1: Step Time =    1.000,"PART-1-1",           360,       11.1406,      -27.5456,            0.,NA,NA,"",   3.30437E-03,   3.30433E-03,  -15.7952E-06,   824.580E-06
C:/temp/dataset/7/32_1.odb,Step-1,Increment      1: Step Time =    1.000,"PART-1-1",           361,         11.25,          -30.,            0.,NA,NA,"",            0.,   735.565E-42,  -306.318E-42,   788.086E-06
C:/temp/dataset/7/32_1.odb,Step-1,Increment      1: Step Time =    1.000,"PART-1-1",           362,       11.2605,      -16.1933,            0.,NA,NA,"",   13.3965E-03,   13.3940E-03,   259.041E-06,   18.8948E-06
C:/temp/dataset/7/32_1.odb,Step-1,Increment      1: Step Time =    1.000,"PART-1-1",           363,       10.2521,      -15.0492,            0.,NA,NA,"",   14.1752E-03,   14.1448E-03,   926.887E-06,   12.6846E-06
C:/temp/dataset/7/32_1.odb,Step-1,Increment      1: Step Time =    1.000,"PART-1-1",           364,       9.32474,      -16.3084,            0.,NA,NA,"",   13.3837E-03,   13.2923E-03,   1.56232E-03,   21.4793E-06
C:/temp/dataset/7/32_1.odb,Step-1,Increment      1: Step Time =    1.000,"PART-1-1",           365,       10.3331,      -17.4526,            0.,NA,NA,"",   12.5771E-03,   12.5441E-03,   910.005E-06,   25.7387E-06
C:/temp/dataset/7/32_1.odb,Step-1,Increment      1: Step Time =    1.000,"PART-1-1",           366,       7.44248,      -19.0256,            0.,NA,NA,"",   11.8035E-03,   11.4631E-03,   2.81405E-03,   30.9307E-06
C:/temp/dataset/7/32_1.odb,Step-1,Increment      1: Step Time =    1.000,"PART-1-1",           367,       6.17612,      -17.5789,            0.,NA,NA,"",   12.9270E-03,   12.4156E-03,   3.59986E-03,   24.4016E-06
C:/temp/dataset/7/32_1.odb,Step-1,Increment      1: Step Time =    1.000,"PART-1-1",           368,            5.,      -18.5417,            0.,NA,NA,"",   12.5577E-03,   11.7916E-03,   4.31916E-03,   59.1189E-06
C:/temp/dataset/7/32_1.odb,Step-1,Increment      1: Step Time =    1.000,"PART-1-1",           369,       12.8407,      -6.03443,            0.,NA,NA,"",   20.1857E-03,   20.1687E-03,  -826.959E-06,   59.6766E-09
C:/temp/dataset/7/32_1.odb,Step-1,Increment      1: Step Time =    1.000,"PART-1-1",           370,           15.,         -6.25,            0.,NA,NA,"",   20.1525E-03,   20.0243E-03,  -2.27014E-03,   209.136E-09
C:/temp/dataset/7/32_1.odb,Step-1,Increment      1: Step Time =    1.000,"PART-1-1",           371,       13.9462,      -4.87251,            0.,NA,NA,"",   21.0038E-03,   20.9453E-03,  -1.56619E-03,   95.2760E-09
C:/temp/dataset/7/32_1.odb,Step-1,Increment      1: Step Time =    1.000,"PART-1-1",           372,       7.64514,      -8.69832,            0.,NA,NA,"",   18.5775E-03,   18.3879E-03,   2.64741E-03,   304.660E-09
C:/temp/dataset/7/32_1.odb,Step-1,Increment      1: Step Time =    1.000,"PART-1-1",           373,       8.20020,      -7.75016,            0.,NA,NA,"",   19.1579E-03,   19.0222E-03,   2.27596E-03,   217.506E-09
C:/temp/dataset/7/32_1.odb,Step-1,Increment      1: Step Time =    1.000,"PART-1-1",           374,       7.19150,      -7.07454,            0.,NA,NA,"",   19.6966E-03,   19.4743E-03,   2.95046E-03,   45.2636E-09
C:/temp/dataset/7/32_1.odb,Step-1,Increment      1: Step Time =    1.000,"PART-1-1",           375,       7.97278,      -1.35169,            0.,NA,NA,"",   23.4269E-03,   23.3009E-03,   2.42680E-03,   35.0864E-09
C:/temp/dataset/7/32_1.odb,Step-1,Increment      1: Step Time =    1.000,"PART-1-1",           376,       9.01285,  -423.179E-03,            0.,NA,NA,"",   23.9840E-03,   23.9214E-03,   1.73117E-03,   31.5892E-09
C:/temp/dataset/7/32_1.odb,Step-1,Increment      1: Step Time =    1.000,"PART-1-1",           377,       8.04185,   850.611E-03,            0.,NA,NA,"",   24.8874E-03,   24.7733E-03,   2.38015E-03,   14.2904E-09
C:/temp/dataset/7/32_1.odb,Step-1,Increment      1: Step Time =    1.000,"PART-1-1",           378,       8.08837,       3.05311,            0.,NA,NA,"",   26.3508E-03,   26.2460E-03,   2.34856E-03,   4.55507E-09
C:/temp/dataset/7/32_1.odb,Step-1,Increment      1: Step Time =    1.000,"PART-1-1",           379,       9.11337,       4.08618,            0.,NA,NA,"",   26.9878E-03,   26.9365E-03,   1.66298E-03,   3.59145E-09
C:/temp/dataset/7/32_1.odb,Step-1,Increment      1: Step Time =    1.000,"PART-1-1",           380,       8.10868,       5.26217,            0.,NA,NA,"",   27.8211E-03,   27.7230E-03,   2.33448E-03,   959.125E-12
C:/temp/dataset/7/32_1.odb,Step-1,Increment      1: Step Time =    1.000,"PART-1-1",           381,       7.08888,       6.39331,            0.,NA,NA,"",   28.6388E-03,   28.4795E-03,   3.01610E-03,   299.155E-12
C:/temp/dataset/7/32_1.odb,Step-1,Increment      1: Step Time =    1.000,"PART-1-1",           382,            5.,       6.45833,            0.,NA,NA,"",   28.8628E-03,   28.5235E-03,   4.41276E-03,   712.722E-12
C:/temp/dataset/7/32_1.odb,Step-1,Increment      1: Step Time =    1.000,"PART-1-1",           383,           15.,         16.25,            0.,NA,NA,"",   35.1419E-03,   35.0682E-03,  -2.27568E-03,   3.37425E-12
C:/temp/dataset/7/32_1.odb,Step-1,Increment      1: Step Time =    1.000,"PART-1-1",           384,       13.6214,       17.6671,            0.,NA,NA,"",   36.0414E-03,   36.0160E-03,  -1.35421E-03,   7.47284E-12
C:/temp/dataset/7/32_1.odb,Step-1,Increment      1: Step Time =    1.000,"PART-1-1",           385,       12.4694,       16.3805,            0.,NA,NA,"",   35.1609E-03,   35.1560E-03,  -583.719E-06,   23.2721E-12
C:/temp/dataset/7/32_1.odb,Step-1,Increment      1: Step Time =    1.000,"PART-1-1",           386,       10.0881,       9.74649,            0.,NA,NA,"",   30.7375E-03,   30.7209E-03,   1.01001E-03,   223.259E-12
C:/temp/dataset/7/32_1.odb,Step-1,Increment      1: Step Time =    1.000,"PART-1-1",           387,       9.10561,       8.57814,            0.,NA,NA,"",   29.9863E-03,   29.9399E-03,   1.66717E-03,   218.357E-12
C:/temp/dataset/7/32_1.odb,Step-1,Increment      1: Step Time =    1.000,"PART-1-1",           388,       10.1162,       7.46436,            0.,NA,NA,"",   29.2118E-03,   29.1950E-03,   991.739E-06,   265.007E-12
C:/temp/dataset/7/32_1.odb,Step-1,Increment      1: Step Time =    1.000,"PART-1-1",           389,       11.0986,       8.63272,            0.,NA,NA,"",   29.9778E-03,   29.9760E-03,   334.575E-06,   216.024E-12
C:/temp/dataset/7/32_1.odb,Step-1,Increment      1: Step Time =    1.000,"PART-1-1",           390,       9.96644,       19.4124,            0.,NA,NA,"",   37.1997E-03,   37.1838E-03,   1.08918E-03,   4.62672E-12
C:/temp/dataset/7/32_1.odb,Step-1,Increment      1: Step Time =    1.000,"PART-1-1",           391,       10.9020,       20.3065,            0.,NA,NA,"",   37.7842E-03,   37.7814E-03,   463.444E-06,   3.95654E-12
C:/temp/dataset/7/32_1.odb,Step-1,Increment      1: Step Time =    1.000,"PART-1-1",           392,       10.1153,       21.2880,            0.,NA,NA,"",   38.4505E-03,   38.4378E-03,   989.223E-06,   3.02193E-12
C:/temp/dataset/7/32_1.odb,Step-1,Increment      1: Step Time =    1.000,"PART-1-1",           393,       9.17975,       20.3940,            0.,NA,NA,"",   37.8747E-03,   37.8403E-03,   1.61496E-03,   3.52315E-12
C:/temp/dataset/7/32_1.odb,Step-1,Increment      1: Step Time =    1.000,"PART-1-1",           394,           15.,         28.75,            0.,NA,NA,"",   43.4857E-03,   43.4260E-03,  -2.27848E-03,   769.489E-15
C:/temp/dataset/7/32_1.odb,Step-1,Increment      1: Step Time =    1.000,"PART-1-1",           395,       14.0625,           30.,            0.,NA,NA,"",   44.2928E-03,   44.2620E-03,  -1.65192E-03,   363.962E-15
C:/temp/dataset/7/32_1.odb,Step-1,Increment      1: Step Time =    1.000,"PART-1-1",           396,       13.1487,       28.7914,            0.,NA,NA,"",   43.4666E-03,   43.4541E-03,  -1.04067E-03,   1.02781E-12
C:/temp/dataset/7/32_1.odb,Step-1,Increment      1: Step Time =    1.000,"PART-1-1",           397,       14.0862,       27.5414,            0.,NA,NA,"",   42.6507E-03,   42.6181E-03,  -1.66722E-03,   1.03601E-12
C:/temp/dataset/7/32_1.odb,Step-1,Increment      1: Step Time =    1.000,"PART-1-1",           398,       12.2440,       25.2848,            0.,NA,NA,"",   41.1120E-03,   41.1097E-03,  -434.950E-06,   3.17363E-12
C:/temp/dataset/7/32_1.odb,Step-1,Increment      1: Step Time =    1.000,"PART-1-1",           399,       13.1763,       26.3811,            0.,NA,NA,"",   41.8559E-03,   41.8425E-03,  -1.05857E-03,   2.33716E-12
C:/temp/dataset/7/32_1.odb,Step-1,Increment      1: Step Time =    1.000,"PART-1-1",           400,       12.2376,       27.6217,            0.,NA,NA,"",   42.6744E-03,   42.6722E-03,  -431.234E-06,   2.15447E-12
C:/temp/dataset/7/32_1.odb,Step-1,Increment      1: Step Time =    1.000,"PART-1-1",           401,       11.3053,       26.5254,            0.,NA,NA,"",   41.9399E-03,   41.9394E-03,   192.390E-06,   3.06816E-12
C:/temp/dataset/7/32_1.odb,Step-1,Increment      1: Step Time =    1.000,"PART-1-1",           402,       12.1875,           30.,            0.,NA,NA,"",   44.2642E-03,   44.2624E-03,  -398.247E-06,   538.387E-15
C:/temp/dataset/7/32_1.odb,Step-1,Increment      1: Step Time =    1.000,"PART-1-1",           403,        6.5625,           30.,            0.,NA,NA,"",   44.3912E-03,   44.2637E-03,   3.36277E-03,   4.07606E-12
C:/temp/dataset/7/32_1.odb,Step-1,Increment      1: Step Time =    1.000,"PART-1-1",           404,       5.40000,       28.6589,            0.,NA,NA,"",   43.5644E-03,   43.3672E-03,   4.14035E-03,   3.44639E-12
C:/temp/dataset/7/32_1.odb,Step-1,Increment      1: Step Time =    1.000,"PART-1-1",           405,       6.32063,       27.5176,            0.,NA,NA,"",   42.7495E-03,   42.6039E-03,   3.52505E-03,   2.77637E-12
C:/temp/dataset/7/32_1.odb,Step-1,Increment      1: Step Time =    1.000,"PART-1-1",           406,        2.8125,           30.,            0.,NA,NA,"",   44.6520E-03,   44.2645E-03,   5.87012E-03,   4.69309E-12
C:/temp/dataset/7/32_1.odb,Step-1,Increment      1: Step Time =    1.000,"PART-1-1",           407,       1.86631,       29.3706,            0.,NA,NA,"",   44.3235E-03,   43.8439E-03,   6.50290E-03,   3.92180E-12
C:/temp/dataset/7/32_1.odb,Step-1,Increment      1: Step Time =    1.000,"PART-1-1",           408,       2.52123,       28.3750,            0.,NA,NA,"",   43.6020E-03,   43.1781E-03,   6.06523E-03,   3.01981E-12
C:/temp/dataset/7/32_1.odb,Step-1,Increment      1: Step Time =    1.000,"PART-1-1",           409,       3.46742,       29.0044,            0.,NA,NA,"",   43.9358E-03,   43.5987E-03,   5.43244E-03,   3.75627E-12
C:/temp/dataset/7/32_1.odb,Step-1,Increment      1: Step Time =    1.000,"PART-1-1",           410,       1.19073,       28.4486,            0.,NA,NA,"",   43.7835E-03,   43.2275E-03,   6.95482E-03,   2.93700E-12
C:/temp/dataset/7/32_1.odb,Step-1,Increment      1: Step Time =    1.000,"PART-1-1",           411,      -2.48443,       27.9761,            0.,NA,NA,"",   43.9325E-03,   42.9125E-03,   9.41223E-03,   2.00873E-12
C:/temp/dataset/7/32_1.odb,Step-1,Increment      1: Step Time =    1.000,"PART-1-1",           412,       -2.8125,           30.,            0.,NA,NA,"",   45.3014E-03,   44.2658E-03,   9.63114E-03,   3.28801E-12
C:/temp/dataset/7/32_1.odb,Step-1,Increment      1: Step Time =    1.000,"PART-1-1",           413,      -7.28733,       29.0238,            0.,NA,NA,"",   45.4041E-03,   43.6140E-03,   12.6233E-03,   1.63759E-12
C:/temp/dataset/7/32_1.odb,Step-1,Increment      1: Step Time =    1.000,"PART-1-1",           414,      -6.19423,       28.1363,            0.,NA,NA,"",   44.6339E-03,   43.0204E-03,   11.8927E-03,   1.51436E-12
C:/temp/dataset/7/32_1.odb,Step-1,Increment      1: Step Time =    1.000,"PART-1-1",           415,       -6.5625,           30.,            0.,NA,NA,"",   45.9007E-03,   44.2666E-03,   12.1385E-03,   2.26453E-12
C:/temp/dataset/7/32_1.odb,Step-1,Increment      1: Step Time =    1.000,"PART-1-1",           416,      -11.8079,       27.5253,            0.,NA,NA,"",   45.3948E-03,   42.6132E-03,   15.6463E-03,   620.816E-15
C:/temp/dataset/7/32_1.odb,Step-1,Increment      1: Step Time =    1.000,"PART-1-1",           417,      -12.6125,       26.1842,            0.,NA,NA,"",   44.7461E-03,   41.7167E-03,   16.1845E-03,   763.956E-15
C:/temp/dataset/7/32_1.odb,Step-1,Increment      1: Step Time =    1.000,"PART-1-1",           418,      -8.13992,       23.4434,            0.,NA,NA,"",   42.0090E-03,   39.8830E-03,   13.1947E-03,   805.091E-15
C:/temp/dataset/7/32_1.odb,Step-1,Increment      1: Step Time =    1.000,"PART-1-1",           419,       -8.4375,           30.,            0.,NA,NA,"",   46.2485E-03,   44.2670E-03,   13.3922E-03,   1.78257E-12
C:/temp/dataset/7/32_1.odb,Step-1,Increment      1: Step Time =    1.000,"PART-1-1",           420,      -8.00049,       27.9480,            0.,NA,NA,"",   44.8508E-03,   42.8949E-03,   13.1004E-03,   1.17435E-12
C:/temp/dataset/7/32_1.odb,Step-1,Increment      1: Step Time =    1.000,"PART-1-1",           421,      -12.1875,           30.,            0.,NA,NA,"",   47.0366E-03,   44.2679E-03,   15.8995E-03,   941.901E-15
C:/temp/dataset/7/32_1.odb,Step-1,Increment      1: Step Time =    1.000,"PART-1-1",           422,          -15.,         26.25,            0.,NA,NA,"",   45.3889E-03,   41.7611E-03,   17.7808E-03,   484.031E-15
C:/temp/dataset/7/32_1.odb,Step-1,Increment      1: Step Time =    1.000,"PART-1-1",           423,  -614.199E-03,       25.3895,            0.,NA,NA,"",   41.9837E-03,   41.1826E-03,   8.16233E-03,   810.467E-15
C:/temp/dataset/7/32_1.odb,Step-1,Increment      1: Step Time =    1.000,"PART-1-1",           424,      -1.97220,       26.8586,            0.,NA,NA,"",   43.1296E-03,   42.1651E-03,   9.06999E-03,   1.42549E-12
C:/temp/dataset/7/32_1.odb,Step-1,Increment      1: Step Time =    1.000,"PART-1-1",           425,      -1.74113,       25.3247,            0.,NA,NA,"",   42.0945E-03,   41.1395E-03,   8.91584E-03,   810.199E-15
C:/temp/dataset/7/32_1.odb,Step-1,Increment      1: Step Time =    1.000,"PART-1-1",           426,       8.18659,       21.6045,            0.,NA,NA,"",   38.7170E-03,   38.6499E-03,   2.27874E-03,   3.04113E-12
C:/temp/dataset/7/32_1.odb,Step-1,Increment      1: Step Time =    1.000,"PART-1-1",           427,       9.25192,       22.4602,            0.,NA,NA,"",   39.2531E-03,   39.2218E-03,   1.56624E-03,   3.32487E-12
C:/temp/dataset/7/32_1.odb,Step-1,Increment      1: Step Time =    1.000,"PART-1-1",           428,       8.38526,       23.6138,            0.,NA,NA,"",   40.0508E-03,   39.9933E-03,   2.14546E-03,   3.25354E-12
C:/temp/dataset/7/32_1.odb,Step-1,Increment      1: Step Time =    1.000,"PART-1-1",           429,       7.31993,       22.7581,            0.,NA,NA,"",   39.5249E-03,   39.4214E-03,   2.85795E-03,   3.00831E-12
C:/temp/dataset/7/32_1.odb,Step-1,Increment      1: Step Time =    1.000,"PART-1-1",           430,           15.,         26.25,            0.,NA,NA,"",   41.8165E-03,   41.7544E-03,  -2.27792E-03,   2.27611E-12
C:/temp/dataset/7/32_1.odb,Step-1,Increment      1: Step Time =    1.000,"PART-1-1",           431,        4.6875,           30.,            0.,NA,NA,"",   44.5042E-03,   44.2641E-03,   4.61644E-03,   4.63335E-12
C:/temp/dataset/7/32_1.odb,Step-1,Increment      1: Step Time =    1.000,"PART-1-1",           432,       9.38339,       24.5308,            0.,NA,NA,"",   40.6331E-03,   40.6062E-03,   1.47787E-03,   3.56271E-12
C:/temp/dataset/7/32_1.odb,Step-1,Increment      1: Step Time =    1.000,"PART-1-1",           433,       8.53172,       25.6694,            0.,NA,NA,"",   41.4183E-03,   41.3677E-03,   2.04707E-03,   3.31430E-12
C:/temp/dataset/7/32_1.odb,Step-1,Increment      1: Step Time =    1.000,"PART-1-1",           434,       7.53359,       24.7524,            0.,NA,NA,"",   40.8451E-03,   40.7548E-03,   2.71465E-03,   3.02763E-12
C:/temp/dataset/7/32_1.odb,Step-1,Increment      1: Step Time =    1.000,"PART-1-1",           435,     937.5E-03,           30.,            0.,NA,NA,"",   44.8345E-03,   44.2649E-03,   7.12379E-03,   4.35087E-12
C:/temp/dataset/7/32_1.odb,Step-1,Increment      1: Step Time =    1.000,"PART-1-1",           436,       5.64845,       26.5466,            0.,NA,NA,"",   42.1427E-03,   41.9548E-03,   3.97470E-03,   2.47908E-12
C:/temp/dataset/7/32_1.odb,Step-1,Increment      1: Step Time =    1.000,"PART-1-1",           437,       4.65082,       24.6490,            0.,NA,NA,"",   40.9503E-03,   40.6863E-03,   4.64217E-03,   1.57401E-12
C:/temp/dataset/7/32_1.odb,Step-1,Increment      1: Step Time =    1.000,"PART-1-1",           438,       5.82711,       24.9927,            0.,NA,NA,"",   41.0971E-03,   40.9158E-03,   3.85559E-03,   2.11388E-12
C:/temp/dataset/7/32_1.odb,Step-1,Increment      1: Step Time =    1.000,"PART-1-1",           439,      -3.57200,       27.5772,            0.,NA,NA,"",   43.8348E-03,   42.6460E-03,   10.1395E-03,   1.62136E-12
C:/temp/dataset/7/32_1.odb,Step-1,Increment      1: Step Time =    1.000,"PART-1-1",           440,      -3.05977,       26.4597,            0.,NA,NA,"",   43.0289E-03,   41.8987E-03,   9.79726E-03,   1.11544E-12
C:/temp/dataset/7/32_1.odb,Step-1,Increment      1: Step Time =    1.000,"PART-1-1",           441,      -4.23358,       26.7178,            0.,NA,NA,"",   43.3819E-03,   42.0715E-03,   10.5820E-03,   1.17919E-12
C:/temp/dataset/7/32_1.odb,Step-1,Increment      1: Step Time =    1.000,"PART-1-1",           442,      -5.07335,       27.3652,            0.,NA,NA,"",   43.9410E-03,   42.5046E-03,   11.1434E-03,   1.33349E-12
C:/temp/dataset/7/32_1.odb,Step-1,Increment      1: Step Time =    1.000,"PART-1-1",           443,      -5.65848,       26.3267,            0.,NA,NA,"",   43.3723E-03,   41.8104E-03,   11.5349E-03,   976.474E-15
C:/temp/dataset/7/32_1.odb,Step-1,Increment      1: Step Time =    1.000,"PART-1-1",           444,      -6.77936,       27.0978,            0.,NA,NA,"",   44.0727E-03,   42.3262E-03,   12.2841E-03,   1.06199E-12
C:/temp/dataset/7/32_1.odb,Step-1,Increment      1: Step Time =    1.000,"PART-1-1",           445,       13.0726,       6.26892,            0.,NA,NA,"",   28.4121E-03,   28.3950E-03,  -984.773E-06,   315.663E-12
C:/temp/dataset/7/32_1.odb,Step-1,Increment      1: Step Time =    1.000,"PART-1-1",           446,       14.0382,       5.02867,            0.,NA,NA,"",   27.6137E-03,   27.5655E-03,  -1.63010E-03,   446.463E-12
C:/temp/dataset/7/32_1.odb,Step-1,Increment      1: Step Time =    1.000,"PART-1-1",           447,           15.,          6.25,            0.,NA,NA,"",   28.4728E-03,   28.3819E-03,  -2.27345E-03,   702.160E-12
C:/temp/dataset/7/32_1.odb,Step-1,Increment      1: Step Time =    1.000,"PART-1-1",           448,       14.0344,       7.49025,            0.,NA,NA,"",   29.2567E-03,   29.2114E-03,  -1.62812E-03,   366.921E-12
C:/temp/dataset/7/32_1.odb,Step-1,Increment      1: Step Time =    1.000,"PART-1-1",           449,            5.,       12.7083,            0.,NA,NA,"",   32.9986E-03,   32.7024E-03,   4.41136E-03,   98.2578E-12
C:/temp/dataset/7/32_1.odb,Step-1,Increment      1: Step Time =    1.000,"PART-1-1",           450,       6.97129,       12.7632,            0.,NA,NA,"",   32.8844E-03,   32.7386E-03,   3.09329E-03,   99.6132E-12
C:/temp/dataset/7/32_1.odb,Step-1,Increment      1: Step Time =    1.000,"PART-1-1",           451,       8.08110,       9.66220,            0.,NA,NA,"",   30.7550E-03,   30.6650E-03,   2.35194E-03,   204.835E-12
C:/temp/dataset/7/32_1.odb,Step-1,Increment      1: Step Time =    1.000,"PART-1-1",           452,       8.10192,       7.46894,            0.,NA,NA,"",   29.2920E-03,   29.1985E-03,   2.33851E-03,   193.420E-12
C:/temp/dataset/7/32_1.odb,Step-1,Increment      1: Step Time =    1.000,"PART-1-1",           453,            5.,        -1.875,            0.,NA,NA,"",   23.3724E-03,   22.9516E-03,   4.41467E-03,   45.3311E-09
C:/temp/dataset/7/32_1.odb,Step-1,Increment      1: Step Time =    1.000,"PART-1-1",           454,       6.91011,      -2.19684,            0.,NA,NA,"",   22.9515E-03,   22.7361E-03,   3.13756E-03,   50.2168E-09
C:/temp/dataset/7/32_1.odb,Step-1,Increment      1: Step Time =    1.000,"PART-1-1",           455,       11.0205,  -751.161E-03,            0.,NA,NA,"",   23.7048E-03,   23.7016E-03,   388.860E-06,   34.3782E-09
C:/temp/dataset/7/32_1.odb,Step-1,Increment      1: Step Time =    1.000,"PART-1-1",           456,       13.1408,      -16.1676,            0.,NA,NA,"",   13.4614E-03,   13.4220E-03,  -1.02975E-03,   16.8951E-06
C:/temp/dataset/7/32_1.odb,Step-1,Increment      1: Step Time =    1.000,"PART-1-1",           457,       14.0839,      -17.4497,            0.,NA,NA,"",   12.6786E-03,   12.5654E-03,  -1.69038E-03,   21.5769E-06
C:/temp/dataset/7/32_1.odb,Step-1,Increment      1: Step Time =    1.000,"PART-1-1",           458,           15.,        -16.25,            0.,NA,NA,"",   13.5544E-03,   13.3592E-03,  -2.29218E-03,   18.6164E-06
C:/temp/dataset/7/32_1.odb,Step-1,Increment      1: Step Time =    1.000,"PART-1-1",           459,            5.,       -14.375,            0.,NA,NA,"",   15.2313E-03,   14.5783E-03,   4.41195E-03,   7.67837E-06
C:/temp/dataset/7/32_1.odb,Step-1,Increment      1: Step Time =    1.000,"PART-1-1",           460,       6.11916,      -15.3567,            0.,NA,NA,"",   14.3867E-03,   13.9134E-03,   3.65971E-03,   10.0247E-06
C:/temp/dataset/7/32_1.odb,Step-1,Increment      1: Step Time =    1.000,"PART-1-1",           461,       13.0403,       1.40949,            0.,NA,NA,"",   25.1643E-03,   25.1459E-03,  -962.038E-06,   11.8825E-09
C:/temp/dataset/7/32_1.odb,Step-1,Increment      1: Step Time =    1.000,"PART-1-1",           462,       14.0142,   96.5788E-03,            0.,NA,NA,"",   24.3213E-03,   24.2678E-03,  -1.61290E-03,   12.8557E-09
C:/temp/dataset/7/32_1.odb,Step-1,Increment      1: Step Time =    1.000,"PART-1-1",           463,           15.,          1.25,            0.,NA,NA,"",   25.1417E-03,   25.0388E-03,  -2.27233E-03,   7.14616E-09
C:/temp/dataset/7/32_1.odb,Step-1,Increment      1: Step Time =    1.000,"PART-1-1",           464,       14.0261,       2.56291,            0.,NA,NA,"",   25.9675E-03,   25.9169E-03,  -1.62146E-03,   2.75971E-09
C:/temp/dataset/7/32_1.odb,Step-1,Increment      1: Step Time =    1.000,"PART-1-1",           465,            5.,      -10.2083,            0.,NA,NA,"",   17.9298E-03,   17.3769E-03,   4.41802E-03,   86.2642E-09
C:/temp/dataset/7/32_1.odb,Step-1,Increment      1: Step Time =    1.000,"PART-1-1",           466,       6.86187,      -9.97015,            0.,NA,NA,"",   17.8207E-03,   17.5362E-03,   3.17159E-03,   921.059E-09
C:/temp/dataset/7/32_1.odb,Step-1,Increment      1: Step Time =    1.000,"PART-1-1",           467,            5.,      -24.7917,            0.,NA,NA,"",   10.8333E-03,   10.1999E-03,   3.65020E-03,   790.217E-06
C:/temp/dataset/7/32_1.odb,Step-1,Increment      1: Step Time =    1.000,"PART-1-1",           468,       6.13477,      -25.7685,            0.,NA,NA,"",   8.97120E-03,   8.55459E-03,   2.70213E-03,   1.00778E-03
C:/temp/dataset/7/32_1.odb,Step-1,Increment      1: Step Time =    1.000,"PART-1-1",           469,       13.1299,      -20.9468,            0.,NA,NA,"",   10.1809E-03,   10.1263E-03,  -1.05308E-03,   10.8051E-06
C:/temp/dataset/7/32_1.odb,Step-1,Increment      1: Step Time =    1.000,"PART-1-1",           470,       14.0295,      -22.3095,            0.,NA,NA,"",   9.20118E-03,   9.02712E-03,  -1.78123E-03,   39.1986E-06
C:/temp/dataset/7/32_1.odb,Step-1,Increment      1: Step Time =    1.000,"PART-1-1",           471,           15.,        -21.25,            0.,NA,NA,"",   10.1684E-03,   9.85531E-03,  -2.50379E-03,   70.9748E-06
C:/temp/dataset/7/32_1.odb,Step-1,Increment      1: Step Time =    1.000,"PART-1-1",           472,       14.1003,      -19.8873,            0.,NA,NA,"",   11.0306E-03,   10.8894E-03,  -1.75928E-03,   40.5878E-06
C:/temp/dataset/7/32_1.odb,Step-1,Increment      1: Step Time =    1.000,"PART-1-1",           473,            5.,       -26.875,            0.,NA,NA,"",   8.86757E-03,   8.11714E-03,   3.57015E-03,   1.12847E-03
C:/temp/dataset/7/32_1.odb,Step-1,Increment      1: Step Time =    1.000,"PART-1-1",           474,       7.35824,      -26.7740,            0.,NA,NA,"",   6.31485E-03,   6.16393E-03,   1.37233E-03,   1.13624E-03
C:/temp/dataset/7/32_1.odb,Step-1,Increment      1: Step Time =    1.000,"PART-1-1",           475,       11.2665,      -23.4125,            0.,NA,NA,"",   8.17668E-03,   8.17262E-03,   257.553E-06,   207.597E-06
C:/temp/dataset/7/32_1.odb,Step-1,Increment      1: Step Time =    1.000,"PART-1-1",           476,       10.8283,      -24.9299,            0.,NA,NA,"",   6.75165E-03,   6.74099E-03,   379.285E-06,   458.498E-06
C:/temp/dataset/7/32_1.odb,Step-1,Increment      1: Step Time =    1.000,"PART-1-1",           477,            5.,      -16.4583,            0.,NA,NA,"",   13.8901E-03,   13.1779E-03,   4.39068E-03,   22.6002E-06
C:/temp/dataset/7/32_1.odb,Step-1,Increment      1: Step Time =    1.000,"PART-1-1",           478,       7.29529,      -16.4772,            0.,NA,NA,"",   13.4705E-03,   13.1569E-03,   2.88945E-03,   22.0030E-06
C:/temp/dataset/7/32_1.odb,Step-1,Increment      1: Step Time =    1.000,"PART-1-1",           479,            5.,       18.9583,            0.,NA,NA,"",   37.1440E-03,   36.8813E-03,   4.40997E-03,   8.60642E-12
C:/temp/dataset/7/32_1.odb,Step-1,Increment      1: Step Time =    1.000,"PART-1-1",           480,       6.05050,       17.7875,            0.,NA,NA,"",   36.2881E-03,   36.0982E-03,   3.70784E-03,   7.58514E-12
C:/temp/dataset/7/32_1.odb,Step-1,Increment      1: Step Time =    1.000,"PART-1-1",           481,       7.11573,       18.6629,            0.,NA,NA,"",   36.8054E-03,   36.6833E-03,   2.99540E-03,   6.20602E-12
C:/temp/dataset/7/32_1.odb,Step-1,Increment      1: Step Time =    1.000,"PART-1-1",           482,       6.06524,       19.8338,            0.,NA,NA,"",   37.6484E-03,   37.4664E-03,   3.69753E-03,   5.36987E-12
C:/temp/dataset/7/32_1.odb,Step-1,Increment      1: Step Time =    1.000,"PART-1-1",           483,       6.98524,       16.7251,            0.,NA,NA,"",   35.5217E-03,   35.3877E-03,   3.08309E-03,   16.9904E-12
C:/temp/dataset/7/32_1.odb,Step-1,Increment      1: Step Time =    1.000,"PART-1-1",           484,            5.,        16.875,            0.,NA,NA,"",   35.7613E-03,   35.4883E-03,   4.41043E-03,   12.6321E-12
C:/temp/dataset/7/32_1.odb,Step-1,Increment      1: Step Time =    1.000,"PART-1-1",           485,       7.88091,       13.8682,            0.,NA,NA,"",   33.5694E-03,   33.4773E-03,   2.48485E-03,   58.7946E-12
C:/temp/dataset/7/32_1.odb,Step-1,Increment      1: Step Time =    1.000,"PART-1-1",           486,       7.65947,       15.6945,            0.,NA,NA,"",   34.7981E-03,   34.6984E-03,   2.63251E-03,   25.0292E-12
C:/temp/dataset/7/32_1.odb,Step-1,Increment      1: Step Time =    1.000,"PART-1-1",           487,       8.92157,       12.9075,            0.,NA,NA,"",   32.8834E-03,   32.8346E-03,   1.78926E-03,   104.625E-12
C:/temp/dataset/7/32_1.odb,Step-1,Increment      1: Step Time =    1.000,"PART-1-1",           488,       9.98918,       11.9956,            0.,NA,NA,"",   32.2427E-03,   32.2247E-03,   1.07563E-03,   129.935E-12
C:/temp/dataset/7/32_1.odb,Step-1,Increment      1: Step Time =    1.000,"PART-1-1",           489,       10.7968,       13.3004,            0.,NA,NA,"",   33.1013E-03,   33.0969E-03,   535.351E-06,   94.6449E-12
C:/temp/dataset/7/32_1.odb,Step-1,Increment      1: Step Time =    1.000,"PART-1-1",           490,       13.0565,       8.69239,            0.,NA,NA,"",   30.0312E-03,   30.0154E-03,  -974.495E-06,   210.309E-12
C:/temp/dataset/7/32_1.odb,Step-1,Increment      1: Step Time =    1.000,"PART-1-1",           491,           15.,          8.75,            0.,NA,NA,"",   30.1394E-03,   30.0535E-03,  -2.27401E-03,   442.591E-12
C:/temp/dataset/7/32_1.odb,Step-1,Increment      1: Step Time =    1.000,"PART-1-1",           492,       14.0220,       9.95215,            0.,NA,NA,"",   30.9000E-03,   30.8575E-03,  -1.62038E-03,   198.219E-12
C:/temp/dataset/7/32_1.odb,Step-1,Increment      1: Step Time =    1.000,"PART-1-1",           493,       8.15713,      -6.43409,            0.,NA,NA,"",   20.0355E-03,   19.9025E-03,   2.30449E-03,   73.4811E-09
C:/temp/dataset/7/32_1.odb,Step-1,Increment      1: Step Time =    1.000,"PART-1-1",           494,       7.55707,      -5.50995,            0.,NA,NA,"",   20.6982E-03,   20.5206E-03,   2.70563E-03,   66.4868E-09
C:/temp/dataset/7/32_1.odb,Step-1,Increment      1: Step Time =    1.000,"PART-1-1",           495,       13.0039,      -1.03047,            0.,NA,NA,"",   23.5331E-03,   23.5144E-03,  -937.142E-06,   33.8118E-09
C:/temp/dataset/7/32_1.odb,Step-1,Increment      1: Step Time =    1.000,"PART-1-1",           496,       13.9897,      -2.37705,            0.,NA,NA,"",   22.6701E-03,   22.6138E-03,  -1.59595E-03,   40.8753E-09
C:/temp/dataset/7/32_1.odb,Step-1,Increment      1: Step Time =    1.000,"PART-1-1",           497,           15.,         -1.25,            0.,NA,NA,"",   23.4774E-03,   23.3672E-03,  -2.27174E-03,   31.9523E-09
C:/temp/dataset/7/32_1.odb,Step-1,Increment      1: Step Time =    1.000,"PART-1-1",           498,       11.0188,      -11.3444,            0.,NA,NA,"",   16.6257E-03,   16.6210E-03,   394.056E-06,   2.93693E-06
C:/temp/dataset/7/32_1.odb,Step-1,Increment      1: Step Time =    1.000,"PART-1-1",           499,       9.94563,      -10.3262,            0.,NA,NA,"",   17.3353E-03,   17.2997E-03,   1.11039E-03,   1.29131E-06
C:/temp/dataset/7/32_1.odb,Step-1,Increment      1: Step Time =    1.000,"PART-1-1",           500,       9.07908,      -11.6768,            0.,NA,NA,"",   16.4816E-03,   16.3945E-03,   1.69172E-03,   3.55927E-06
C:/temp/dataset/7/32_1.odb,Step-1,Increment      1: Step Time =    1.000,"PART-1-1",           501,       10.1523,      -12.6950,            0.,NA,NA,"",   15.7470E-03,   15.7167E-03,   977.681E-06,   4.68221E-06
C:/temp/dataset/7/32_1.odb,Step-1,Increment      1: Step Time =    1.000,"PART-1-1",           502,       11.2699,       24.2837,            0.,NA,NA,"",   40.4411E-03,   40.4406E-03,   216.552E-06,   3.60533E-12
C:/temp/dataset/7/32_1.odb,Step-1,Increment      1: Step Time =    1.000,"PART-1-1",           503,       12.1787,       22.9892,            0.,NA,NA,"",   39.5767E-03,   39.5748E-03,  -390.805E-06,   3.80746E-12
C:/temp/dataset/7/32_1.odb,Step-1,Increment      1: Step Time =    1.000,"PART-1-1",           504,           15.,         -3.75,            0.,NA,NA,"",   21.8142E-03,   21.6956E-03,  -2.27105E-03,   98.0412E-09
C:/temp/dataset/7/32_1.odb,Step-1,Increment      1: Step Time =    1.000,"PART-1-1",           505,       12.9359,      -3.49956,            0.,NA,NA,"",   21.8816E-03,   21.8635E-03,  -891.139E-06,   68.3295E-09
C:/temp/dataset/7/32_1.odb,Step-1,Increment      1: Step Time =    1.000,"PART-1-1",           506,           15.,        -11.25,            0.,NA,NA,"",   16.8390E-03,   16.6856E-03,  -2.26806E-03,   737.345E-09
C:/temp/dataset/7/32_1.odb,Step-1,Increment      1: Step Time =    1.000,"PART-1-1",           507,       12.9838,      -11.1958,            0.,NA,NA,"",   16.7475E-03,   16.7221E-03,  -921.415E-06,   2.14770E-06
C:/temp/dataset/7/32_1.odb,Step-1,Increment      1: Step Time =    1.000,"PART-1-1",           508,           15.,         11.25,            0.,NA,NA,"",   31.8065E-03,   31.7251E-03,  -2.27457E-03,   172.891E-12
C:/temp/dataset/7/32_1.odb,Step-1,Increment      1: Step Time =    1.000,"PART-1-1",           509,       12.9950,       11.1325,            0.,NA,NA,"",   31.6607E-03,   31.6469E-03,  -933.940E-06,   162.879E-12
C:/temp/dataset/7/32_1.odb,Step-1,Increment      1: Step Time =    1.000,"PART-1-1",           510,           15.,          3.75,            0.,NA,NA,"",   26.8069E-03,   26.7104E-03,  -2.27289E-03,   318.442E-12
C:/temp/dataset/7/32_1.odb,Step-1,Increment      1: Step Time =    1.000,"PART-1-1",           511,       13.0643,       3.84158,            0.,NA,NA,"",   26.7899E-03,   26.7720E-03,  -978.672E-06,   2.97101E-09
C:/temp/dataset/7/32_1.odb,Step-1,Increment      1: Step Time =    1.000,"PART-1-1",           512,           15.,        -18.75,            0.,NA,NA,"",   11.9063E-03,   11.6701E-03,  -2.35995E-03,   45.8419E-06
C:/temp/dataset/7/32_1.odb,Step-1,Increment      1: Step Time =    1.000,"PART-1-1",           513,       13.1842,      -18.5870,            0.,NA,NA,"",   11.8518E-03,   11.8033E-03,  -1.07038E-03,   24.5016E-06
C:/temp/dataset/7/32_1.odb,Step-1,Increment      1: Step Time =    1.000,"PART-1-1",           514,       13.5513,      -24.7801,            0.,NA,NA,"",   6.79285E-03,   6.65502E-03,  -1.36146E-03,   173.549E-06
C:/temp/dataset/7/32_1.odb,Step-1,Increment      1: Step Time =    1.000,"PART-1-1",           515,       12.2413,      -25.9996,            0.,NA,NA,"",   5.24246E-03,   5.22611E-03,  -413.797E-06,   542.349E-06
C:/temp/dataset/7/32_1.odb,Step-1,Increment      1: Step Time =    1.000,"PART-1-1",           516,           15.,        -26.25,            0.,NA,NA,"",   5.66501E-03,   5.03803E-03,  -2.59048E-03,   283.468E-06
C:/temp/dataset/7/32_1.odb,Step-1,Increment      1: Step Time =    1.000,"PART-1-1",           517,           15.,        -23.75,            0.,NA,NA,"",   8.15582E-03,   7.70469E-03,  -2.67492E-03,   28.0544E-06
C:/temp/dataset/7/32_1.odb,Step-1,Increment      1: Step Time =    1.000,"PART-1-1",           518,       12.5809,      -23.3397,            0.,NA,NA,"",   8.16428E-03,   8.13854E-03,  -647.811E-06,   161.948E-06
C:/temp/dataset/7/32_1.odb,Step-1,Increment      1: Step Time =    1.000,"PART-1-1",           519,       9.49127,      -18.7202,            0.,NA,NA,"",   11.7856E-03,   11.6890E-03,   1.50626E-03,   30.0474E-06
C:/temp/dataset/7/32_1.odb,Step-1,Increment      1: Step Time =    1.000,"PART-1-1",           520,       8.36047,      -17.5836,            0.,NA,NA,"",   12.6204E-03,   12.4246E-03,   2.21473E-03,   26.5546E-06
C:/temp/dataset/7/32_1.odb,Step-1,Increment      1: Step Time =    1.000,"PART-1-1",           521,       11.5260,      -20.5498,            0.,NA,NA,"",   10.4464E-03,   10.4456E-03,   129.127E-06,   27.0141E-06
C:/temp/dataset/7/32_1.odb,Step-1,Increment      1: Step Time =    1.000,"PART-1-1",           522,       10.5221,      -19.7870,            0.,NA,NA,"",   11.0160E-03,   10.9847E-03,   830.427E-06,   27.9146E-06
C:/temp/dataset/7/32_1.odb,Step-1,Increment      1: Step Time =    1.000,"PART-1-1",           523,       11.0260,      -21.8608,            0.,NA,NA,"",   9.50569E-03,   9.49340E-03,   483.082E-06,   82.3392E-06
C:/temp/dataset/7/32_1.odb,Step-1,Increment      1: Step Time =    1.000,"PART-1-1",           524,       7.98010,      -10.7619,            0.,NA,NA,"",   17.1780E-03,   17.0060E-03,   2.42441E-03,   1.48634E-06
C:/temp/dataset/7/32_1.odb,Step-1,Increment      1: Step Time =    1.000,"PART-1-1",           525,       8.65118,      -4.78401,            0.,NA,NA,"",   21.0983E-03,   21.0058E-03,   1.97381E-03,   80.9202E-09
C:/temp/dataset/7/32_1.odb,Step-1,Increment      1: Step Time =    1.000,"PART-1-1",           526,       7.84665,      -3.50518,            0.,NA,NA,"",   22.0049E-03,   21.8611E-03,   2.51158E-03,   64.6781E-09
C:/temp/dataset/7/32_1.odb,Step-1,Increment      1: Step Time =    1.000,"PART-1-1",           527,       9.43586,      -6.49799,            0.,NA,NA,"",   19.9123E-03,   19.8595E-03,   1.44938E-03,   95.4557E-09
C:/temp/dataset/7/32_1.odb,Step-1,Increment      1: Step Time =    1.000,"PART-1-1",           528,       10.6293,      -5.79077,            0.,NA,NA,"",   20.3426E-03,   20.3321E-03,   651.325E-06,   81.4224E-09
C:/temp/dataset/7/32_1.odb,Step-1,Increment      1: Step Time =    1.000,"PART-1-1",           529,       11.1144,       3.95682,            0.,NA,NA,"",   26.8515E-03,   26.8495E-03,   325.084E-06,   3.80033E-09
C:/temp/dataset/7/32_1.odb,Step-1,Increment      1: Step Time =    1.000,"PART-1-1",           530,       10.1270,       5.17226,            0.,NA,NA,"",   27.6800E-03,   27.6624E-03,   985.011E-06,   1.22603E-09
C:/temp/dataset/7/32_1.odb,Step-1,Increment      1: Step Time =    1.000,"PART-1-1",           531,       9.05317,       10.7826,            0.,NA,NA,"",   31.4599E-03,   31.4139E-03,   1.70174E-03,   187.712E-12
C:/temp/dataset/7/32_1.odb,Step-1,Increment      1: Step Time =    1.000,"PART-1-1",           532,       8.01195,       11.8024,            0.,NA,NA,"",   32.1854E-03,   32.0960E-03,   2.39770E-03,   125.349E-12
C:/temp/dataset/7/32_1.odb,Step-1,Increment      1: Step Time =    1.000,"PART-1-1",           533,       11.0241,       10.9595,            0.,NA,NA,"",   31.5340E-03,   31.5317E-03,   383.892E-06,   182.483E-12
C:/temp/dataset/7/32_1.odb,Step-1,Increment      1: Step Time =    1.000,"PART-1-1",           534,       8.35051,       17.3209,            0.,NA,NA,"",   35.8514E-03,   35.7857E-03,   2.17009E-03,   10.6560E-12
C:/temp/dataset/7/32_1.odb,Step-1,Increment      1: Step Time =    1.000,"PART-1-1",           535,       12.5952,       19.1415,            0.,NA,NA,"",   37.0081E-03,   37.0021E-03,  -668.397E-06,   5.04022E-12
C:/temp/dataset/7/32_1.odb,Step-1,Increment      1: Step Time =    1.000,"PART-1-1",           536,           15.,         18.75,            0.,NA,NA,"",   36.8102E-03,   36.7398E-03,  -2.27624E-03,   8.80480E-12
C:/temp/dataset/7/32_1.odb,Step-1,Increment      1: Step Time =    1.000,"PART-1-1",           537,      -7.03326,       22.4462,            0.,NA,NA,"",   41.1464E-03,   39.2161E-03,   12.4549E-03,   1.12737E-12
C:/temp/dataset/7/32_1.odb,Step-1,Increment      1: Step Time =    1.000,"PART-1-1",           538,      -8.48458,       21.3302,            0.,NA,NA,"",   40.7456E-03,   38.4702E-03,   13.4256E-03,   1.20566E-12
C:/temp/dataset/7/32_1.odb,Step-1,Increment      1: Step Time =    1.000,"PART-1-1",           539,      -6.65000,           20.,            0.,NA,NA,"",   39.5108E-03,   37.5804E-03,   12.1992E-03,   2.11971E-12
C:/temp/dataset/7/32_1.odb,Step-1,Increment      1: Step Time =    1.000,"PART-1-1",           540,      -5.19869,       21.1160,            0.,NA,NA,"",   39.9372E-03,   38.3263E-03,   11.2286E-03,   1.91335E-12
C:/temp/dataset/7/32_1.odb,Step-1,Increment      1: Step Time =    1.000,"PART-1-1",           541,       9.42603,       26.6587,            0.,NA,NA,"",   42.0539E-03,   42.0289E-03,   1.44889E-03,   3.29910E-12
C:/temp/dataset/7/32_1.odb,Step-1,Increment      1: Step Time =    1.000,"PART-1-1",           542,       10.3720,       25.4897,            0.,NA,NA,"",   41.2552E-03,   41.2471E-03,   816.667E-06,   3.51096E-12
C:/temp/dataset/7/32_1.odb,Step-1,Increment      1: Step Time =    1.000,"PART-1-1",           543,       6.87457,       25.7626,            0.,NA,NA,"",   41.5504E-03,   41.4304E-03,   3.15506E-03,   2.74457E-12
C:/temp/dataset/7/32_1.odb,Step-1,Increment      1: Step Time =    1.000,"PART-1-1",           544,       7.54675,       26.7337,            0.,NA,NA,"",   42.1664E-03,   42.0795E-03,   2.70541E-03,   3.02664E-12
C:/temp/dataset/7/32_1.odb,Step-1,Increment      1: Step Time =    1.000,"PART-1-1",           545,      -3.17643,       25.4018,            0.,NA,NA,"",   42.3586E-03,   41.1914E-03,   9.87550E-03,   814.485E-15
C:/temp/dataset/7/32_1.odb,Step-1,Increment      1: Step Time =    1.000,"PART-1-1",           546,      -4.35024,       25.6599,            0.,NA,NA,"",   42.7158E-03,   41.3642E-03,   10.6603E-03,   821.520E-15
C:/temp/dataset/7/32_1.odb,Step-1,Increment      1: Step Time =    1.000,"PART-1-1",           547,       4.01884,       22.4610,            0.,NA,NA,"",   39.5492E-03,   39.2235E-03,   5.06521E-03,   2.05811E-12
C:/temp/dataset/7/32_1.odb,Step-1,Increment      1: Step Time =    1.000,"PART-1-1",           548,       5.32127,       23.1739,            0.,NA,NA,"",   39.9208E-03,   39.6999E-03,   4.19422E-03,   1.98802E-12
C:/temp/dataset/7/32_1.odb,Step-1,Increment      1: Step Time =    1.000,"PART-1-1",           549,       11.1447,       22.1526,            0.,NA,NA,"",   39.0168E-03,   39.0157E-03,   300.737E-06,   3.40726E-12
C:/temp/dataset/7/32_1.odb,Step-1,Increment      1: Step Time =    1.000,"PART-1-1",           550,       10.2813,       23.3249,            0.,NA,NA,"",   39.8093E-03,   39.7997E-03,   877.758E-06,   3.54484E-12
C:/temp/dataset/7/32_1.odb,Step-1,Increment      1: Step Time =    1.000,"PART-1-1",           551,       6.15508,       21.9496,            0.,NA,NA,"",   39.0508E-03,   38.8810E-03,   3.63698E-03,   2.86071E-12
C:/temp/dataset/7/32_1.odb,Step-1,Increment      1: Step Time =    1.000,"PART-1-1",           552,       6.48612,       23.9825,            0.,NA,NA,"",   40.3849E-03,   40.2402E-03,   3.41518E-03,   2.43326E-12
C:/temp/dataset/7/32_1.odb,Step-1,Increment      1: Step Time =    1.000,"PART-1-1",           553,   6.30745E-03,       24.2683,            0.,NA,NA,"",   41.1684E-03,   40.4328E-03,   7.74769E-03,   936.139E-15
C:/temp/dataset/7/32_1.odb,Step-1,Increment      1: Step Time =    1.000,"PART-1-1",           554,      -1.65981,       23.6471,            0.,NA,NA,"",   40.9873E-03,   40.0178E-03,   8.86184E-03,   1.10890E-12
C:/temp/dataset/7/32_1.odb,Step-1,Increment      1: Step Time =    1.000,"PART-1-1",           555,      -1.07768,       22.4355,            0.,NA,NA,"",   40.1127E-03,   39.2076E-03,   8.47288E-03,   1.99688E-12
C:/temp/dataset/7/32_1.odb,Step-1,Increment      1: Step Time =    1.000,"PART-1-1",           556,   588.432E-03,       23.0567,            0.,NA,NA,"",   40.3001E-03,   39.6226E-03,   7.35874E-03,   1.72462E-12
C:/temp/dataset/7/32_1.odb,Step-1,Increment      1: Step Time =    1.000,"PART-1-1",           557,      -4.82218,       24.5397,            0.,NA,NA,"",   42.0723E-03,   40.6154E-03,   10.9761E-03,   800.266E-15
C:/temp/dataset/7/32_1.odb,Step-1,Increment      1: Step Time =    1.000,"PART-1-1",           558,      -3.09511,       23.7242,            0.,NA,NA,"",   41.2558E-03,   40.0697E-03,   9.82150E-03,   1.05692E-12
C:/temp/dataset/7/32_1.odb,Step-1,Increment      1: Step Time =    1.000,"PART-1-1",           559,      -5.58708,       23.2486,            0.,NA,NA,"",   41.3788E-03,   39.7522E-03,   11.4878E-03,   1.02605E-12
C:/temp/dataset/7/32_1.odb,Step-1,Increment      1: Step Time =    1.000,"PART-1-1",           560,       8.76337,      -9.49006,            0.,NA,NA,"",   17.9590E-03,   17.8582E-03,   1.90002E-03,   960.384E-09
C:/temp/dataset/7/32_1.odb,Step-1,Increment      1: Step Time =    1.000,"PART-1-1",           561,       9.72759,      -26.4759,            0.,NA,NA,"",   5.26040E-03,   5.22983E-03,   566.281E-06,   792.604E-06
C:/temp/dataset/7/32_1.odb,Step-1,Increment      1: Step Time =    1.000,"PART-1-1",           562,       9.12173,       6.33780,            0.,NA,NA,"",   28.4902E-03,   28.4420E-03,   1.65690E-03,   695.715E-12
C:/temp/dataset/7/32_1.odb,Step-1,Increment      1: Step Time =    1.000,"PART-1-1",           563,       11.1214,       6.29882,            0.,NA,NA,"",   28.4172E-03,   28.4154E-03,   319.852E-06,   708.684E-12
C:/temp/dataset/7/32_1.odb,Step-1,Increment      1: Step Time =    1.000,"PART-1-1",           564,       11.1740,      -13.7880,            0.,NA,NA,"",   14.9954E-03,   14.9925E-03,   297.771E-06,   8.86009E-06
C:/temp/dataset/7/32_1.odb,Step-1,Increment      1: Step Time =    1.000,"PART-1-1",           565,       10.6612,      -8.65022,            0.,NA,NA,"",   18.4313E-03,   18.4205E-03,   630.677E-06,   620.320E-09
C:/temp/dataset/7/32_1.odb,Step-1,Increment      1: Step Time =    1.000,"PART-1-1",           566,       9.47894,      -7.81405,            0.,NA,NA,"",   19.0326E-03,   18.9795E-03,   1.42087E-03,   217.485E-09
C:/temp/dataset/7/32_1.odb,Step-1,Increment      1: Step Time =    1.000,"PART-1-1",           567,       11.3640,      -18.5194,            0.,NA,NA,"",   11.8462E-03,   11.8442E-03,   221.307E-06,   24.8559E-06
C:/temp/dataset/7/32_1.odb,Step-1,Increment      1: Step Time =    1.000,"PART-1-1",           568,       12.0025,       20.7886,            0.,NA,NA,"",   38.1045E-03,   38.1035E-03,  -272.483E-06,   3.53805E-12
C:/temp/dataset/7/32_1.odb,Step-1,Increment      1: Step Time =    1.000,"PART-1-1",           569,       11.4947,       18.6594,            0.,NA,NA,"",   36.6800E-03,   36.6800E-03,   67.5297E-06,   6.62242E-12
C:/temp/dataset/7/32_1.odb,Step-1,Increment      1: Step Time =    1.000,"PART-1-1",           570,       9.39315,       18.1618,            0.,NA,NA,"",   36.3776E-03,   36.3478E-03,   1.47278E-03,   10.2473E-12
C:/temp/dataset/7/32_1.odb,Step-1,Increment      1: Step Time =    1.000,"PART-1-1",           571,       10.9214,       17.4088,            0.,NA,NA,"",   35.8467E-03,   35.8439E-03,   451.126E-06,   12.0882E-12
C:/temp/dataset/7/32_1.odb,Step-1,Increment      1: Step Time =    1.000,"PART-1-1",           572,      -9.97500,           20.,            0.,NA,NA,"",   40.2535E-03,   37.5811E-03,   14.4224E-03,   1.33505E-12
C:/temp/dataset/7/32_1.odb,Step-1,Increment      1: Step Time =    1.000,"PART-1-1",           573,       11.9818,      -2.09472,            0.,NA,NA,"",   22.8045E-03,   22.8031E-03,  -253.586E-06,   45.5246E-09
C:/temp/dataset/7/32_1.odb,Step-1,Increment      1: Step Time =    1.000,"PART-1-1",           574,       12.0426,   313.093E-03,            0.,NA,NA,"",   24.4148E-03,   24.4130E-03,  -294.711E-06,   18.0785E-09
C:/temp/dataset/7/32_1.odb,Step-1,Increment      1: Step Time =    1.000,"PART-1-1",           575,       12.1686,      -14.9632,            0.,NA,NA,"",   14.2217E-03,   14.2170E-03,  -368.186E-06,   10.9264E-06
C:/temp/dataset/7/32_1.odb,Step-1,Increment      1: Step Time =    1.000,"PART-1-1",           576,       12.0880,      -12.5178,            0.,NA,NA,"",   15.8442E-03,   15.8410E-03,  -320.293E-06,   3.78040E-06
C:/temp/dataset/7/32_1.odb,Step-1,Increment      1: Step Time =    1.000,"PART-1-1",           577,       12.0767,       2.70437,            0.,NA,NA,"",   26.0138E-03,   26.0119E-03,  -318.084E-06,   5.34232E-09
C:/temp/dataset/7/32_1.odb,Step-1,Increment      1: Step Time =    1.000,"PART-1-1",           578,       11.6617,       14.7036,            0.,NA,NA,"",   34.0350E-03,   34.0350E-03,  -43.2948E-06,   43.8063E-12
C:/temp/dataset/7/32_1.odb,Step-1,Increment      1: Step Time =    1.000,"PART-1-1",           579,       11.9561,       12.2406,            0.,NA,NA,"",   32.3889E-03,   32.3881E-03,  -239.545E-06,   112.495E-12
C:/temp/dataset/7/32_1.odb,Step-1,Increment      1: Step Time =    1.000,"PART-1-1",           580,       12.3155,      -19.7087,            0.,NA,NA,"",   11.0418E-03,   11.0328E-03,  -445.527E-06,   22.3518E-06
C:/temp/dataset/7/32_1.odb,Step-1,Increment      1: Step Time =    1.000,"PART-1-1",           581,       12.3404,      -21.7879,            0.,NA,NA,"",   9.49648E-03,   9.48534E-03,  -459.778E-06,   44.3695E-06
C:/temp/dataset/7/32_1.odb,Step-1,Increment      1: Step Time =    1.000,"PART-1-1",           582,       12.2327,      -17.3977,            0.,NA,NA,"",   12.6078E-03,   12.6014E-03,  -399.202E-06,   21.5353E-06
C:/temp/dataset/7/32_1.odb,Step-1,Increment      1: Step Time =    1.000,"PART-1-1",           583,       12.1020,       5.09402,            0.,NA,NA,"",   27.6117E-03,   27.6097E-03,  -335.505E-06,   1.00466E-09
C:/temp/dataset/7/32_1.odb,Step-1,Increment      1: Step Time =    1.000,"PART-1-1",           584,       12.0630,       9.85139,            0.,NA,NA,"",   30.7921E-03,   30.7906E-03,  -310.503E-06,   205.407E-12
C:/temp/dataset/7/32_1.odb,Step-1,Increment      1: Step Time =    1.000,"PART-1-1",           585,       12.0921,       7.47372,            0.,NA,NA,"",   29.2027E-03,   29.2008E-03,  -329.417E-06,   198.185E-12
C:/temp/dataset/7/32_1.odb,Step-1,Increment      1: Step Time =    1.000,"PART-1-1",           586,       11.9146,      -10.0225,            0.,NA,NA,"",   17.5055E-03,   17.5043E-03,  -206.719E-06,   905.770E-09
C:/temp/dataset/7/32_1.odb,Step-1,Increment      1: Step Time =    1.000,"PART-1-1",           587,       11.5993,      -7.26023,            0.,NA,NA,"",   19.3496E-03,   19.3496E-03,   3.12666E-06,   105.131E-09
C:/temp/dataset/7/32_1.odb,Step-1,Increment      1: Step Time =    1.000,"PART-1-1",           588,       11.8707,      -4.56496,            0.,NA,NA,"",   21.1522E-03,   21.1514E-03,  -178.840E-06,   81.5271E-09
C:/temp/dataset/7/32_1.odb,Step-1,Increment      1: Step Time =    1.000,"PART-1-1",           589,      -3.86001,       22.4330,            0.,NA,NA,"",   40.5454E-03,   39.2065E-03,   10.3332E-03,   1.49645E-12
C:/temp/dataset/7/32_1.odb,Step-1,Increment      1: Step Time =    1.000,"PART-1-1",           590,       3.35000,           20.,            0.,NA,NA,"",   37.9804E-03,   37.5781E-03,   5.51297E-03,   5.76562E-12
C:/temp/dataset/7/32_1.odb,Step-1,Increment      1: Step Time =    1.000,"PART-1-1",           591,       5.05511,       21.0689,            0.,NA,NA,"",   38.5413E-03,   38.2925E-03,   4.37265E-03,   4.50388E-12
C:/temp/dataset/7/32_1.odb,Step-1,Increment      1: Step Time =    1.000,"PART-1-1",           592,       2.31373,       21.3921,            0.,NA,NA,"",   39.0060E-03,   38.5092E-03,   6.20553E-03,   3.12489E-12
C:/temp/dataset/7/32_1.odb,Step-1,Increment      1: Step Time =    1.000,"PART-1-1",           593,      -1.98632,       21.3170,            0.,NA,NA,"",   39.5174E-03,   38.4599E-03,   9.08067E-03,   2.41077E-12
C:/temp/dataset/7/32_1.odb,Step-1,Increment      1: Step Time =    1.000,"PART-1-1",           594,   25.0000E-03,           20.,            0.,NA,NA,"",   38.3669E-03,   37.5789E-03,   7.73615E-03,   3.49121E-12
C:/temp/dataset/7/32_1.odb,Step-1,Increment      1: Step Time =    1.000,"PART-1-1",           595,   933.640E-03,       21.1186,            0.,NA,NA,"",   38.9839E-03,   38.3266E-03,   7.12836E-03,   3.24443E-12
C:/temp/dataset/7/32_1.odb,Step-1,Increment      1: Step Time =    1.000,"PART-1-1",           596,       7.16521,       20.7144,            0.,NA,NA,"",   38.1701E-03,   38.0550E-03,   2.96186E-03,   3.46901E-12
C:/temp/dataset/7/32_1.odb,Step-1,Increment      1: Step Time =    1.000,"PART-1-1",           597,       8.15837,       19.5039,            0.,NA,NA,"",   37.3162E-03,   37.2454E-03,   2.29808E-03,   3.84739E-12
C:/temp/dataset/7/32_1.odb,Step-1,Increment      1: Step Time =    1.000,"PART-1-1",           598,      -3.32500,           20.,            0.,NA,NA,"",   38.8812E-03,   37.5796E-03,   9.97604E-03,   2.90609E-12
