ODB Name,Step,Frame,Part Instance Name,    êﬂì_ÉâÉxÉã,X,Y,Z,Section Name,Material Name,Section Point,   U-Magnitude,          U-U1,          U-U2,       S-Mises
C:/temp/dataset/7/3_10.odb,Step-1,Increment      1: Step Time =    1.000,"PART-1-1",             1,          -15.,           20.,            0.,NA,NA,"",       29.2961,      -18.3017,      -22.8760,   13.5206E-09
C:/temp/dataset/7/3_10.odb,Step-1,Increment      1: Step Time =    1.000,"PART-1-1",             2,          -15.,           25.,            0.,NA,NA,"",       32.1908,      -21.4567,      -23.9970,   21.8551E-09
C:/temp/dataset/7/3_10.odb,Step-1,Increment      1: Step Time =    1.000,"PART-1-1",             3,      -11.6500,           20.,            0.,NA,NA,"",       28.1794,      -19.0528,      -20.7622,   40.6669E-09
C:/temp/dataset/7/3_10.odb,Step-1,Increment      1: Step Time =    1.000,"PART-1-1",             4,      -8.30000,           20.,            0.,NA,NA,"",       27.2021,      -19.8039,      -18.6484,   91.5951E-09
C:/temp/dataset/7/3_10.odb,Step-1,Increment      1: Step Time =    1.000,"PART-1-1",             5,           -5.,           20.,            0.,NA,NA,"",       26.3910,      -20.5438,      -16.5661,   931.809E-09
C:/temp/dataset/7/3_10.odb,Step-1,Increment      1: Step Time =    1.000,"PART-1-1",             6,      -1.65000,           20.,            0.,NA,NA,"",       25.7360,      -21.2949,      -14.4523,   3.64175E-06
C:/temp/dataset/7/3_10.odb,Step-1,Increment      1: Step Time =    1.000,"PART-1-1",             7,       1.70000,           20.,            0.,NA,NA,"",       25.2639,      -22.0460,      -12.3385,   46.9354E-06
C:/temp/dataset/7/3_10.odb,Step-1,Increment      1: Step Time =    1.000,"PART-1-1",             8,            5.,           20.,            0.,NA,NA,"",       24.9877,      -22.7857,      -10.2566,   376.829E-06
C:/temp/dataset/7/3_10.odb,Step-1,Increment      1: Step Time =    1.000,"PART-1-1",             9,            5.,         13.75,            0.,NA,NA,"",       20.8073,      -18.8305,      -8.85193,   124.104E-06
C:/temp/dataset/7/3_10.odb,Step-1,Increment      1: Step Time =    1.000,"PART-1-1",            10,            5.,           7.5,            0.,NA,NA,"",       16.6137,      -14.8757,      -7.39794,   15.8938E-03
C:/temp/dataset/7/3_10.odb,Step-1,Increment      1: Step Time =    1.000,"PART-1-1",            11,            5.,          1.25,            0.,NA,NA,"",       12.5377,      -11.0674,      -5.89115,   44.3082E-03
C:/temp/dataset/7/3_10.odb,Step-1,Increment      1: Step Time =    1.000,"PART-1-1",            12,            5.,           -5.,            0.,NA,NA,"",       8.78912,      -7.58888,      -4.43367,   72.4873E-03
C:/temp/dataset/7/3_10.odb,Step-1,Increment      1: Step Time =    1.000,"PART-1-1",            13,            5.,        -11.25,            0.,NA,NA,"",       5.54830,      -4.59448,      -3.11038,   99.7393E-03
C:/temp/dataset/7/3_10.odb,Step-1,Increment      1: Step Time =    1.000,"PART-1-1",            14,            5.,         -17.5,            0.,NA,NA,"",       2.97520,      -2.24193,      -1.95590,   126.702E-03
C:/temp/dataset/7/3_10.odb,Step-1,Increment      1: Step Time =    1.000,"PART-1-1",            15,            5.,        -23.75,            0.,NA,NA,"",       1.17381,  -695.770E-03,  -945.373E-03,   153.207E-03
C:/temp/dataset/7/3_10.odb,Step-1,Increment      1: Step Time =    1.000,"PART-1-1",            16,            5.,          -30.,            0.,NA,NA,"",            0.,  -44.0665E-39,  -84.5691E-39,   190.302E-03
C:/temp/dataset/7/3_10.odb,Step-1,Increment      1: Step Time =    1.000,"PART-1-1",            17,           15.,          -30.,            0.,NA,NA,"",            0.,  -62.9137E-39,   109.802E-39,   207.506E-03
C:/temp/dataset/7/3_10.odb,Step-1,Increment      1: Step Time =    1.000,"PART-1-1",            18,           15.,         -22.5,            0.,NA,NA,"",       1.59546,      -1.22443,       1.02287,   153.650E-03
C:/temp/dataset/7/3_10.odb,Step-1,Increment      1: Step Time =    1.000,"PART-1-1",            19,           15.,          -15.,            0.,NA,NA,"",       4.19209,      -3.91804,       1.49081,   120.737E-03
C:/temp/dataset/7/3_10.odb,Step-1,Increment      1: Step Time =    1.000,"PART-1-1",            20,           15.,          -7.5,            0.,NA,NA,"",       7.84614,      -7.74942,       1.22816,   86.0105E-03
C:/temp/dataset/7/3_10.odb,Step-1,Increment      1: Step Time =    1.000,"PART-1-1",            21,           15.,            0.,            0.,NA,NA,"",       12.2615,      -12.2581,   288.370E-03,   51.5336E-03
C:/temp/dataset/7/3_10.odb,Step-1,Increment      1: Step Time =    1.000,"PART-1-1",            22,           15.,           7.5,            0.,NA,NA,"",       17.1260,      -17.0864,      -1.16409,   19.3131E-03
C:/temp/dataset/7/3_10.odb,Step-1,Increment      1: Step Time =    1.000,"PART-1-1",            23,           15.,           15.,            0.,NA,NA,"",       22.0641,      -21.8803,      -2.84276,   5.40599E-03
C:/temp/dataset/7/3_10.odb,Step-1,Increment      1: Step Time =    1.000,"PART-1-1",            24,           15.,          22.5,            0.,NA,NA,"",       26.9841,      -26.6051,      -4.50664,   191.553E-06
C:/temp/dataset/7/3_10.odb,Step-1,Increment      1: Step Time =    1.000,"PART-1-1",            25,           15.,           30.,            0.,NA,NA,"",       31.9431,      -31.3379,      -6.18817,   2.33692E-06
C:/temp/dataset/7/3_10.odb,Step-1,Increment      1: Step Time =    1.000,"PART-1-1",            26,         11.25,           30.,            0.,NA,NA,"",       31.6742,      -30.4971,      -8.55442,   13.8514E-06
C:/temp/dataset/7/3_10.odb,Step-1,Increment      1: Step Time =    1.000,"PART-1-1",            27,           7.5,           30.,            0.,NA,NA,"",       31.6032,      -29.6564,      -10.9207,   17.4577E-06
C:/temp/dataset/7/3_10.odb,Step-1,Increment      1: Step Time =    1.000,"PART-1-1",            28,          3.75,           30.,            0.,NA,NA,"",       31.7314,      -28.8155,      -13.2870,   3.93101E-06
C:/temp/dataset/7/3_10.odb,Step-1,Increment      1: Step Time =    1.000,"PART-1-1",            29,            0.,           30.,            0.,NA,NA,"",       32.0564,      -27.9747,      -15.6532,   5.40050E-06
C:/temp/dataset/7/3_10.odb,Step-1,Increment      1: Step Time =    1.000,"PART-1-1",            30,         -3.75,           30.,            0.,NA,NA,"",       32.5722,      -27.1339,      -18.0194,   1.34931E-06
C:/temp/dataset/7/3_10.odb,Step-1,Increment      1: Step Time =    1.000,"PART-1-1",            31,          -7.5,           30.,            0.,NA,NA,"",       33.2702,      -26.2932,      -20.3857,   137.540E-09
C:/temp/dataset/7/3_10.odb,Step-1,Increment      1: Step Time =    1.000,"PART-1-1",            32,        -11.25,           30.,            0.,NA,NA,"",       34.1390,      -25.4524,      -22.7519,   18.5023E-09
C:/temp/dataset/7/3_10.odb,Step-1,Increment      1: Step Time =    1.000,"PART-1-1",            33,          -15.,           30.,            0.,NA,NA,"",       35.1660,      -24.6116,      -25.1181,   1.43363E-09
C:/temp/dataset/7/3_10.odb,Step-1,Increment      1: Step Time =    1.000,"PART-1-1",            34,          -15.,          22.5,            0.,NA,NA,"",       30.7319,      -19.8792,      -23.4365,   16.0056E-09
C:/temp/dataset/7/3_10.odb,Step-1,Increment      1: Step Time =    1.000,"PART-1-1",            35,            5.,       15.8333,            0.,NA,NA,"",       22.2032,      -20.1513,      -9.32242,   983.018E-06
C:/temp/dataset/7/3_10.odb,Step-1,Increment      1: Step Time =    1.000,"PART-1-1",            36,            5.,       17.9167,            0.,NA,NA,"",       23.5962,      -21.4694,      -9.79004,   903.883E-06
C:/temp/dataset/7/3_10.odb,Step-1,Increment      1: Step Time =    1.000,"PART-1-1",            37,            5.,       9.58333,            0.,NA,NA,"",       18.0087,      -16.1877,      -7.89133,   8.26951E-03
C:/temp/dataset/7/3_10.odb,Step-1,Increment      1: Step Time =    1.000,"PART-1-1",            38,            5.,       11.6667,            0.,NA,NA,"",       19.4084,      -17.5081,      -8.37575,   2.89143E-03
C:/temp/dataset/7/3_10.odb,Step-1,Increment      1: Step Time =    1.000,"PART-1-1",            39,            5.,       3.33333,            0.,NA,NA,"",       13.8698,      -12.3082,      -6.39356,   34.6315E-03
C:/temp/dataset/7/3_10.odb,Step-1,Increment      1: Step Time =    1.000,"PART-1-1",            40,            5.,       5.41667,            0.,NA,NA,"",       15.2312,      -13.5799,      -6.89738,   24.9736E-03
C:/temp/dataset/7/3_10.odb,Step-1,Increment      1: Step Time =    1.000,"PART-1-1",            41,            5.,      -2.91667,            0.,NA,NA,"",       9.99067,      -8.70216,      -4.90775,   63.2034E-03
C:/temp/dataset/7/3_10.odb,Step-1,Increment      1: Step Time =    1.000,"PART-1-1",            42,            5.,  -833.333E-03,            0.,NA,NA,"",       11.2424,      -9.86351,      -5.39461,   53.8497E-03
C:/temp/dataset/7/3_10.odb,Step-1,Increment      1: Step Time =    1.000,"PART-1-1",            43,            5.,      -9.16667,            0.,NA,NA,"",       6.56173,      -5.52916,      -3.53337,   90.7280E-03
C:/temp/dataset/7/3_10.odb,Step-1,Increment      1: Step Time =    1.000,"PART-1-1",            44,            5.,      -7.08333,            0.,NA,NA,"",       7.64409,      -6.52932,      -3.97494,   81.5491E-03
C:/temp/dataset/7/3_10.odb,Step-1,Increment      1: Step Time =    1.000,"PART-1-1",            45,            5.,      -15.4167,            0.,NA,NA,"",       3.75032,      -2.94498,      -2.32206,   117.840E-03
C:/temp/dataset/7/3_10.odb,Step-1,Increment      1: Step Time =    1.000,"PART-1-1",            46,            5.,      -13.3333,            0.,NA,NA,"",       4.60941,      -3.73102,      -2.70668,   108.799E-03
C:/temp/dataset/7/3_10.odb,Step-1,Increment      1: Step Time =    1.000,"PART-1-1",            47,            5.,      -21.6667,            0.,NA,NA,"",       1.68761,      -1.11050,      -1.27076,   145.046E-03
C:/temp/dataset/7/3_10.odb,Step-1,Increment      1: Step Time =    1.000,"PART-1-1",            48,            5.,      -19.5833,            0.,NA,NA,"",       2.28732,      -1.62917,      -1.60550,   136.126E-03
C:/temp/dataset/7/3_10.odb,Step-1,Increment      1: Step Time =    1.000,"PART-1-1",            49,            5.,      -27.9167,            0.,NA,NA,"",   366.905E-03,  -185.258E-03,  -316.700E-03,   174.549E-03
C:/temp/dataset/7/3_10.odb,Step-1,Increment      1: Step Time =    1.000,"PART-1-1",            50,            5.,      -25.8333,            0.,NA,NA,"",   737.479E-03,  -385.359E-03,  -628.787E-03,   158.209E-03
C:/temp/dataset/7/3_10.odb,Step-1,Increment      1: Step Time =    1.000,"PART-1-1",            51,          12.5,          -30.,            0.,NA,NA,"",            0.,  -145.866E-39,   319.401E-39,   66.1376E-03
C:/temp/dataset/7/3_10.odb,Step-1,Increment      1: Step Time =    1.000,"PART-1-1",            52,           10.,          -30.,            0.,NA,NA,"",            0.,   53.6471E-39,   26.6160E-39,   20.8846E-03
C:/temp/dataset/7/3_10.odb,Step-1,Increment      1: Step Time =    1.000,"PART-1-1",            53,           7.5,          -30.,            0.,NA,NA,"",            0.,   12.8584E-39,  -344.140E-39,   61.8282E-03
C:/temp/dataset/7/3_10.odb,Step-1,Increment      1: Step Time =    1.000,"PART-1-1",            54,           15.,          -25.,            0.,NA,NA,"",   984.263E-03,  -664.168E-03,   726.399E-03,   161.195E-03
C:/temp/dataset/7/3_10.odb,Step-1,Increment      1: Step Time =    1.000,"PART-1-1",            55,           15.,         -27.5,            0.,NA,NA,"",   485.282E-03,  -292.435E-03,   387.273E-03,   173.232E-03
C:/temp/dataset/7/3_10.odb,Step-1,Increment      1: Step Time =    1.000,"PART-1-1",            56,           15.,         -17.5,            0.,NA,NA,"",       3.19815,      -2.86880,       1.41356,   132.105E-03
C:/temp/dataset/7/3_10.odb,Step-1,Increment      1: Step Time =    1.000,"PART-1-1",            57,           15.,          -20.,            0.,NA,NA,"",       2.33157,      -1.96454,       1.25571,   143.004E-03
C:/temp/dataset/7/3_10.odb,Step-1,Increment      1: Step Time =    1.000,"PART-1-1",            58,           15.,          -10.,            0.,NA,NA,"",       6.52725,      -6.37604,       1.39683,   97.6660E-03
C:/temp/dataset/7/3_10.odb,Step-1,Increment      1: Step Time =    1.000,"PART-1-1",            59,           15.,         -12.5,            0.,NA,NA,"",       5.30529,      -5.09317,       1.48517,   109.241E-03
C:/temp/dataset/7/3_10.odb,Step-1,Increment      1: Step Time =    1.000,"PART-1-1",            60,           15.,          -2.5,            0.,NA,NA,"",       10.7256,      -10.7048,   667.913E-03,   62.8836E-03
C:/temp/dataset/7/3_10.odb,Step-1,Increment      1: Step Time =    1.000,"PART-1-1",            61,           15.,           -5.,            0.,NA,NA,"",       9.24975,      -9.19732,   983.405E-03,   74.4254E-03
C:/temp/dataset/7/3_10.odb,Step-1,Increment      1: Step Time =    1.000,"PART-1-1",            62,           15.,            5.,            0.,NA,NA,"",       15.4677,      -15.4547,  -632.945E-03,   30.1529E-03
C:/temp/dataset/7/3_10.odb,Step-1,Increment      1: Step Time =    1.000,"PART-1-1",            63,           15.,           2.5,            0.,NA,NA,"",       13.8457,      -13.8449,  -147.659E-03,   40.4522E-03
C:/temp/dataset/7/3_10.odb,Step-1,Increment      1: Step Time =    1.000,"PART-1-1",            64,           15.,          12.5,            0.,NA,NA,"",       20.4366,      -20.3081,      -2.28806,   10.0476E-03
C:/temp/dataset/7/3_10.odb,Step-1,Increment      1: Step Time =    1.000,"PART-1-1",            65,           15.,           10.,            0.,NA,NA,"",       18.7884,      -18.7089,      -1.72651,   12.9100E-03
C:/temp/dataset/7/3_10.odb,Step-1,Increment      1: Step Time =    1.000,"PART-1-1",            66,           15.,           20.,            0.,NA,NA,"",       25.3365,      -25.0272,      -3.94695,   646.445E-06
C:/temp/dataset/7/3_10.odb,Step-1,Increment      1: Step Time =    1.000,"PART-1-1",            67,           15.,          17.5,            0.,NA,NA,"",       23.6938,      -23.4501,      -3.38933,   2.00622E-03
C:/temp/dataset/7/3_10.odb,Step-1,Increment      1: Step Time =    1.000,"PART-1-1",            68,           15.,          27.5,            0.,NA,NA,"",       30.2878,      -29.7604,      -5.62761,   3.96583E-06
C:/temp/dataset/7/3_10.odb,Step-1,Increment      1: Step Time =    1.000,"PART-1-1",            69,           15.,           25.,            0.,NA,NA,"",       28.6347,      -28.1828,      -5.06706,   52.1974E-06
C:/temp/dataset/7/3_10.odb,Step-1,Increment      1: Step Time =    1.000,"PART-1-1",            70,        13.125,           30.,            0.,NA,NA,"",       31.7841,      -30.9175,      -7.37130,   3.33336E-06
C:/temp/dataset/7/3_10.odb,Step-1,Increment      1: Step Time =    1.000,"PART-1-1",            71,         9.375,           30.,            0.,NA,NA,"",       31.6138,      -30.0768,      -9.73757,   22.0426E-06
C:/temp/dataset/7/3_10.odb,Step-1,Increment      1: Step Time =    1.000,"PART-1-1",            72,         5.625,           30.,            0.,NA,NA,"",       31.6425,      -29.2360,      -12.1039,   6.99566E-06
C:/temp/dataset/7/3_10.odb,Step-1,Increment      1: Step Time =    1.000,"PART-1-1",            73,         1.875,           30.,            0.,NA,NA,"",       31.8696,      -28.3951,      -14.4701,   6.97081E-06
C:/temp/dataset/7/3_10.odb,Step-1,Increment      1: Step Time =    1.000,"PART-1-1",            74,        -1.875,           30.,            0.,NA,NA,"",       32.2909,      -27.5543,      -16.8363,   3.12018E-06
C:/temp/dataset/7/3_10.odb,Step-1,Increment      1: Step Time =    1.000,"PART-1-1",            75,        -5.625,           30.,            0.,NA,NA,"",       32.8991,      -26.7136,      -19.2025,   517.460E-09
C:/temp/dataset/7/3_10.odb,Step-1,Increment      1: Step Time =    1.000,"PART-1-1",            76,        -9.375,           30.,            0.,NA,NA,"",       33.6840,      -25.8728,      -21.5688,   15.2332E-09
C:/temp/dataset/7/3_10.odb,Step-1,Increment      1: Step Time =    1.000,"PART-1-1",            77,       -13.125,           30.,            0.,NA,NA,"",       34.6336,      -25.0320,      -23.9350,   8.88549E-09
C:/temp/dataset/7/3_10.odb,Step-1,Increment      1: Step Time =    1.000,"PART-1-1",            78,          -15.,          27.5,            0.,NA,NA,"",       33.6696,      -23.0341,      -24.5575,   12.6956E-09
C:/temp/dataset/7/3_10.odb,Step-1,Increment      1: Step Time =    1.000,"PART-1-1",            79,      -7.07467,       28.0475,            0.,NA,NA,"",       31.9395,      -25.1565,      -19.6795,   382.343E-09
C:/temp/dataset/7/3_10.odb,Step-1,Increment      1: Step Time =    1.000,"PART-1-1",            80,      -10.7971,       27.6072,            0.,NA,NA,"",       32.5427,      -24.0441,      -21.9296,   37.5588E-09
C:/temp/dataset/7/3_10.odb,Step-1,Increment      1: Step Time =    1.000,"PART-1-1",            81,      -3.50976,       28.2242,            0.,NA,NA,"",       31.3798,      -26.0673,      -17.4697,   1.47984E-06
C:/temp/dataset/7/3_10.odb,Step-1,Increment      1: Step Time =    1.000,"PART-1-1",            82,       11.3028,       27.6605,            0.,NA,NA,"",       30.1139,      -29.0327,      -7.99649,   31.5972E-06
C:/temp/dataset/7/3_10.odb,Step-1,Increment      1: Step Time =    1.000,"PART-1-1",            83,       7.46624,       27.7175,            0.,NA,NA,"",       30.0751,      -28.2085,      -10.4302,   27.6919E-06
C:/temp/dataset/7/3_10.odb,Step-1,Increment      1: Step Time =    1.000,"PART-1-1",            84,   523.838E-03,       28.1559,            0.,NA,NA,"",       30.7804,      -26.9286,      -14.9092,   1.96052E-06
C:/temp/dataset/7/3_10.odb,Step-1,Increment      1: Step Time =    1.000,"PART-1-1",            85,       13.1724,       27.5829,            0.,NA,NA,"",       30.1789,      -29.4029,      -6.79939,   23.4652E-06
C:/temp/dataset/7/3_10.odb,Step-1,Increment      1: Step Time =    1.000,"PART-1-1",            86,       9.41586,       27.7284,            0.,NA,NA,"",       30.0941,      -28.6526,      -9.20243,   28.2895E-06
C:/temp/dataset/7/3_10.odb,Step-1,Increment      1: Step Time =    1.000,"PART-1-1",            87,       5.17501,       27.3177,            0.,NA,NA,"",       29.8666,      -27.4426,      -11.7864,   23.3629E-06
C:/temp/dataset/7/3_10.odb,Step-1,Increment      1: Step Time =    1.000,"PART-1-1",            88,       1.85763,       28.7412,            0.,NA,NA,"",       31.0355,      -27.5970,      -14.1989,   2.63084E-06
C:/temp/dataset/7/3_10.odb,Step-1,Increment      1: Step Time =    1.000,"PART-1-1",            89,      -1.45910,       27.7280,            0.,NA,NA,"",       30.7448,      -26.2140,      -16.0645,   2.39940E-06
C:/temp/dataset/7/3_10.odb,Step-1,Increment      1: Step Time =    1.000,"PART-1-1",            90,      -5.31380,       28.2250,            0.,NA,NA,"",       31.6997,      -25.6633,      -18.6082,   797.857E-09
C:/temp/dataset/7/3_10.odb,Step-1,Increment      1: Step Time =    1.000,"PART-1-1",            91,      -8.92632,       27.8484,            0.,NA,NA,"",       32.2290,      -24.6158,      -20.8032,   139.765E-09
C:/temp/dataset/7/3_10.odb,Step-1,Increment      1: Step Time =    1.000,"PART-1-1",            92,       7.03655,   996.185E-03,            0.,NA,NA,"",       12.1968,      -11.3028,      -4.58361,   30.1121E-03
C:/temp/dataset/7/3_10.odb,Step-1,Increment      1: Step Time =    1.000,"PART-1-1",            93,       6.93081,       13.7923,            0.,NA,NA,"",       20.7508,      -19.2935,      -7.63910,   2.69806E-03
C:/temp/dataset/7/3_10.odb,Step-1,Increment      1: Step Time =    1.000,"PART-1-1",            94,       7.08682,       7.47611,            0.,NA,NA,"",       16.4757,      -15.3160,      -6.07184,   15.6786E-03
C:/temp/dataset/7/3_10.odb,Step-1,Increment      1: Step Time =    1.000,"PART-1-1",            95,       6.96700,      -1.15199,            0.,NA,NA,"",       10.8473,      -10.0254,      -4.14181,   35.6233E-03
C:/temp/dataset/7/3_10.odb,Step-1,Increment      1: Step Time =    1.000,"PART-1-1",            96,       6.47578,      -21.8661,            0.,NA,NA,"",       1.33896,      -1.02982,  -855.738E-03,   98.4271E-03
C:/temp/dataset/7/3_10.odb,Step-1,Increment      1: Step Time =    1.000,"PART-1-1",            97,       7.14087,      -13.1040,            0.,NA,NA,"",       4.34475,      -3.96106,      -1.78518,   60.5365E-03
C:/temp/dataset/7/3_10.odb,Step-1,Increment      1: Step Time =    1.000,"PART-1-1",            98,       6.53104,      -7.08024,            0.,NA,NA,"",       7.41838,      -6.71995,      -3.14240,   56.5960E-03
C:/temp/dataset/7/3_10.odb,Step-1,Increment      1: Step Time =    1.000,"PART-1-1",            99,       6.85322,      -3.24169,            0.,NA,NA,"",       9.58350,      -8.81787,      -3.75349,   41.9350E-03
C:/temp/dataset/7/3_10.odb,Step-1,Increment      1: Step Time =    1.000,"PART-1-1",           100,       6.74184,      -8.96518,            0.,NA,NA,"",       6.39237,      -5.80705,      -2.67218,   58.2083E-03
C:/temp/dataset/7/3_10.odb,Step-1,Increment      1: Step Time =    1.000,"PART-1-1",           101,       6.94703,      -23.6171,            0.,NA,NA,"",   859.831E-03,  -650.770E-03,  -561.968E-03,   87.8944E-03
C:/temp/dataset/7/3_10.odb,Step-1,Increment      1: Step Time =    1.000,"PART-1-1",           102,       7.44695,      -27.8442,            0.,NA,NA,"",   157.476E-03,  -71.6519E-03,  -140.231E-03,   81.9232E-03
C:/temp/dataset/7/3_10.odb,Step-1,Increment      1: Step Time =    1.000,"PART-1-1",           103,       7.35225,      -17.6578,            0.,NA,NA,"",       2.48901,      -2.23919,      -1.08683,   65.0249E-03
C:/temp/dataset/7/3_10.odb,Step-1,Increment      1: Step Time =    1.000,"PART-1-1",           104,       7.23832,      -15.2967,            0.,NA,NA,"",       3.39869,      -3.08375,      -1.42883,   63.0210E-03
C:/temp/dataset/7/3_10.odb,Step-1,Increment      1: Step Time =    1.000,"PART-1-1",           105,       7.10099,       17.6583,            0.,NA,NA,"",       23.3445,      -21.7789,      -8.40497,   134.957E-06
C:/temp/dataset/7/3_10.odb,Step-1,Increment      1: Step Time =    1.000,"PART-1-1",           106,       6.86948,       15.7920,            0.,NA,NA,"",       22.0972,      -20.5468,      -8.13109,   659.960E-06
C:/temp/dataset/7/3_10.odb,Step-1,Increment      1: Step Time =    1.000,"PART-1-1",           107,       7.06799,       9.62990,            0.,NA,NA,"",       17.9332,      -16.6781,      -6.59110,   10.7708E-03
C:/temp/dataset/7/3_10.odb,Step-1,Increment      1: Step Time =    1.000,"PART-1-1",           108,       7.09093,       5.31052,            0.,NA,NA,"",       15.0209,      -13.9553,      -5.55652,   20.4776E-03
C:/temp/dataset/7/3_10.odb,Step-1,Increment      1: Step Time =    1.000,"PART-1-1",           109,       6.65187,      -5.22056,            0.,NA,NA,"",       8.44467,      -7.70688,      -3.45203,   49.5558E-03
C:/temp/dataset/7/3_10.odb,Step-1,Increment      1: Step Time =    1.000,"PART-1-1",           110,       7.26954,      -25.7037,            0.,NA,NA,"",   437.892E-03,  -300.070E-03,  -318.916E-03,   84.4103E-03
C:/temp/dataset/7/3_10.odb,Step-1,Increment      1: Step Time =    1.000,"PART-1-1",           111,       7.53271,      -20.3934,            0.,NA,NA,"",       1.58606,      -1.40509,  -735.745E-03,   65.1399E-03
C:/temp/dataset/7/3_10.odb,Step-1,Increment      1: Step Time =    1.000,"PART-1-1",           112,       7.01178,       11.7341,            0.,NA,NA,"",       19.3593,      -18.0040,      -7.11604,   6.19814E-03
C:/temp/dataset/7/3_10.odb,Step-1,Increment      1: Step Time =    1.000,"PART-1-1",           113,       7.07643,       3.14767,            0.,NA,NA,"",       13.5893,      -12.6135,      -5.05664,   25.1692E-03
C:/temp/dataset/7/3_10.odb,Step-1,Increment      1: Step Time =    1.000,"PART-1-1",           114,       6.98190,      -10.9751,            0.,NA,NA,"",       5.35656,      -4.88429,      -2.19917,   58.8981E-03
C:/temp/dataset/7/3_10.odb,Step-1,Increment      1: Step Time =    1.000,"PART-1-1",           115,       13.1254,       22.8014,            0.,NA,NA,"",       26.9960,      -26.3750,      -5.75688,   187.295E-06
C:/temp/dataset/7/3_10.odb,Step-1,Increment      1: Step Time =    1.000,"PART-1-1",           116,       12.8923,      -4.74502,            0.,NA,NA,"",       8.95697,      -8.95524,  -176.118E-03,   45.2867E-03
C:/temp/dataset/7/3_10.odb,Step-1,Increment      1: Step Time =    1.000,"PART-1-1",           117,       13.0513,      -12.4505,            0.,NA,NA,"",       4.89277,      -4.84875,   654.850E-03,   69.5778E-03
C:/temp/dataset/7/3_10.odb,Step-1,Increment      1: Step Time =    1.000,"PART-1-1",           118,       12.2427,       17.8341,            0.,NA,NA,"",       23.6235,      -23.0441,      -5.19976,   856.135E-06
C:/temp/dataset/7/3_10.odb,Step-1,Increment      1: Step Time =    1.000,"PART-1-1",           119,       13.0441,       9.90429,            0.,NA,NA,"",       18.4229,      -18.1881,      -2.93199,   16.1031E-03
C:/temp/dataset/7/3_10.odb,Step-1,Increment      1: Step Time =    1.000,"PART-1-1",           120,       13.0522,       2.62582,            0.,NA,NA,"",       13.5632,      -13.4963,      -1.34560,   27.1207E-03
C:/temp/dataset/7/3_10.odb,Step-1,Increment      1: Step Time =    1.000,"PART-1-1",           121,       13.2006,      -19.7745,            0.,NA,NA,"",       2.02744,      -1.87367,   774.517E-03,   94.7742E-03
C:/temp/dataset/7/3_10.odb,Step-1,Increment      1: Step Time =    1.000,"PART-1-1",           122,       9.90112,      -27.6522,            0.,NA,NA,"",   65.1064E-03,  -64.8754E-03,   5.47973E-03,   21.2658E-03
C:/temp/dataset/7/3_10.odb,Step-1,Increment      1: Step Time =    1.000,"PART-1-1",           123,       13.0591,      -22.1191,            0.,NA,NA,"",       1.33157,      -1.17010,   635.557E-03,   97.8126E-03
C:/temp/dataset/7/3_10.odb,Step-1,Increment      1: Step Time =    1.000,"PART-1-1",           124,       13.1139,      -14.9356,            0.,NA,NA,"",       3.79753,      -3.71762,   774.937E-03,   78.2422E-03
C:/temp/dataset/7/3_10.odb,Step-1,Increment      1: Step Time =    1.000,"PART-1-1",           125,       13.1678,      -17.3995,            0.,NA,NA,"",       2.83367,      -2.71430,   813.783E-03,   86.8196E-03
C:/temp/dataset/7/3_10.odb,Step-1,Increment      1: Step Time =    1.000,"PART-1-1",           126,       12.7891,      -7.32383,            0.,NA,NA,"",       7.47233,      -7.47168,   98.8129E-03,   50.8288E-03
C:/temp/dataset/7/3_10.odb,Step-1,Increment      1: Step Time =    1.000,"PART-1-1",           127,       12.9162,      -9.94117,            0.,NA,NA,"",       6.10049,      -6.08591,   421.590E-03,   59.9430E-03
C:/temp/dataset/7/3_10.odb,Step-1,Increment      1: Step Time =    1.000,"PART-1-1",           128,       13.0283,   193.158E-03,            0.,NA,NA,"",       11.9965,      -11.9629,  -896.812E-03,   33.3624E-03
C:/temp/dataset/7/3_10.odb,Step-1,Increment      1: Step Time =    1.000,"PART-1-1",           129,       12.9794,      -2.25409,            0.,NA,NA,"",       10.4635,      -10.4513,  -504.271E-03,   39.5541E-03
C:/temp/dataset/7/3_10.odb,Step-1,Increment      1: Step Time =    1.000,"PART-1-1",           130,       13.0689,       7.48049,            0.,NA,NA,"",       16.7890,      -16.6208,      -2.37090,   20.6279E-03
C:/temp/dataset/7/3_10.odb,Step-1,Increment      1: Step Time =    1.000,"PART-1-1",           131,       13.0764,       5.05734,            0.,NA,NA,"",       15.1656,      -15.0545,      -1.83272,   20.8154E-03
C:/temp/dataset/7/3_10.odb,Step-1,Increment      1: Step Time =    1.000,"PART-1-1",           132,       12.6962,       14.9270,            0.,NA,NA,"",       21.7381,      -21.3150,      -4.26803,   5.42964E-03
C:/temp/dataset/7/3_10.odb,Step-1,Increment      1: Step Time =    1.000,"PART-1-1",           133,       12.9459,       12.3607,            0.,NA,NA,"",       20.0595,      -19.7440,      -3.54366,   11.7716E-03
C:/temp/dataset/7/3_10.odb,Step-1,Increment      1: Step Time =    1.000,"PART-1-1",           134,       12.9476,       20.4489,            0.,NA,NA,"",       25.4183,      -24.8508,      -5.34153,   396.721E-06
C:/temp/dataset/7/3_10.odb,Step-1,Increment      1: Step Time =    1.000,"PART-1-1",           135,       13.1802,       25.1793,            0.,NA,NA,"",       28.5809,      -27.8879,      -6.25553,   71.6253E-06
C:/temp/dataset/7/3_10.odb,Step-1,Increment      1: Step Time =    1.000,"PART-1-1",           136,      -12.4062,       24.9250,            0.,NA,NA,"",       31.3502,      -21.9909,      -22.3436,   17.5144E-09
C:/temp/dataset/7/3_10.odb,Step-1,Increment      1: Step Time =    1.000,"PART-1-1",           137,       11.3078,       25.3904,            0.,NA,NA,"",       28.5981,      -27.6014,      -7.48432,   76.3293E-06
C:/temp/dataset/7/3_10.odb,Step-1,Increment      1: Step Time =    1.000,"PART-1-1",           138,      -10.1009,       25.2443,            0.,NA,NA,"",       30.9039,      -22.7092,      -20.9605,   105.045E-09
C:/temp/dataset/7/3_10.odb,Step-1,Increment      1: Step Time =    1.000,"PART-1-1",           139,      -4.83291,       26.5053,            0.,NA,NA,"",       30.5041,      -24.6860,      -17.9192,   1.15150E-06
C:/temp/dataset/7/3_10.odb,Step-1,Increment      1: Step Time =    1.000,"PART-1-1",           140,       1.72347,       26.1851,            0.,NA,NA,"",       29.3528,      -25.9540,      -13.7104,   3.64644E-06
C:/temp/dataset/7/3_10.odb,Step-1,Increment      1: Step Time =    1.000,"PART-1-1",           141,       6.12189,       25.7754,            0.,NA,NA,"",       28.8008,      -26.6817,      -10.8431,   47.2173E-06
C:/temp/dataset/7/3_10.odb,Step-1,Increment      1: Step Time =    1.000,"PART-1-1",           142,       7.62725,       25.7499,            0.,NA,NA,"",       28.7564,      -27.0031,      -9.88745,   56.6694E-06
C:/temp/dataset/7/3_10.odb,Step-1,Increment      1: Step Time =    1.000,"PART-1-1",           143,       3.76931,       25.0880,            0.,NA,NA,"",       28.4559,      -25.7205,      -12.1735,   30.3118E-06
C:/temp/dataset/7/3_10.odb,Step-1,Increment      1: Step Time =    1.000,"PART-1-1",           144,  -231.428E-03,       26.1188,            0.,NA,NA,"",       29.5262,      -25.4738,      -14.9291,   2.33095E-06
C:/temp/dataset/7/3_10.odb,Step-1,Increment      1: Step Time =    1.000,"PART-1-1",           145,      -2.48530,       25.9891,            0.,NA,NA,"",       29.7617,      -24.8867,      -16.3222,   2.18749E-06
C:/temp/dataset/7/3_10.odb,Step-1,Increment      1: Step Time =    1.000,"PART-1-1",           146,      -3.63425,       26.9302,            0.,NA,NA,"",       30.5620,      -25.2229,      -17.2581,   1.63916E-06
C:/temp/dataset/7/3_10.odb,Step-1,Increment      1: Step Time =    1.000,"PART-1-1",           147,      -8.31738,       25.8431,            0.,NA,NA,"",       30.8288,      -23.4869,      -19.9694,   268.640E-09
C:/temp/dataset/7/3_10.odb,Step-1,Increment      1: Step Time =    1.000,"PART-1-1",           148,       9.04714,   705.037E-03,            0.,NA,NA,"",       11.9736,      -11.5037,      -3.32163,   21.4618E-03
C:/temp/dataset/7/3_10.odb,Step-1,Increment      1: Step Time =    1.000,"PART-1-1",           149,       7.85197,      -7.06885,            0.,NA,NA,"",       7.31674,      -6.89541,      -2.44704,   37.1307E-03
C:/temp/dataset/7/3_10.odb,Step-1,Increment      1: Step Time =    1.000,"PART-1-1",           150,       8.74205,      -22.9842,            0.,NA,NA,"",   817.571E-03,  -776.732E-03,  -255.165E-03,   35.8067E-03
C:/temp/dataset/7/3_10.odb,Step-1,Increment      1: Step Time =    1.000,"PART-1-1",           151,       9.28078,      -15.1075,            0.,NA,NA,"",       3.35404,      -3.28846,  -660.011E-03,   23.2589E-03
C:/temp/dataset/7/3_10.odb,Step-1,Increment      1: Step Time =    1.000,"PART-1-1",           152,       8.97855,      -1.55139,            0.,NA,NA,"",       10.5458,      -10.1421,      -2.88989,   22.3596E-03
C:/temp/dataset/7/3_10.odb,Step-1,Increment      1: Step Time =    1.000,"PART-1-1",           153,       9.09422,       9.69450,            0.,NA,NA,"",       17.9760,      -17.1651,      -5.33815,   13.7191E-03
C:/temp/dataset/7/3_10.odb,Step-1,Increment      1: Step Time =    1.000,"PART-1-1",           154,       8.44946,       15.5970,            0.,NA,NA,"",       21.9554,      -20.7792,      -7.08965,   1.59590E-03
C:/temp/dataset/7/3_10.odb,Step-1,Increment      1: Step Time =    1.000,"PART-1-1",           155,       9.11701,       7.46178,            0.,NA,NA,"",       16.4595,      -15.7423,      -4.80570,   17.8173E-03
C:/temp/dataset/7/3_10.odb,Step-1,Increment      1: Step Time =    1.000,"PART-1-1",           156,       8.83101,       13.9442,            0.,NA,NA,"",       20.8486,      -19.8174,      -6.47583,   4.15868E-03
C:/temp/dataset/7/3_10.odb,Step-1,Increment      1: Step Time =    1.000,"PART-1-1",           157,       9.61385,      -19.9311,            0.,NA,NA,"",       1.60989,      -1.59753,  -199.091E-03,   20.4673E-03
C:/temp/dataset/7/3_10.odb,Step-1,Increment      1: Step Time =    1.000,"PART-1-1",           158,       9.10031,       2.95854,            0.,NA,NA,"",       13.4413,      -12.8977,      -3.78373,   20.8445E-03
C:/temp/dataset/7/3_10.odb,Step-1,Increment      1: Step Time =    1.000,"PART-1-1",           159,       9.17986,      -12.8049,            0.,NA,NA,"",       4.36298,      -4.25879,  -947.812E-03,   23.9686E-03
C:/temp/dataset/7/3_10.odb,Step-1,Increment      1: Step Time =    1.000,"PART-1-1",           160,       8.54844,      -8.43147,            0.,NA,NA,"",       6.55098,      -6.28231,      -1.85687,   29.5031E-03
C:/temp/dataset/7/3_10.odb,Step-1,Increment      1: Step Time =    1.000,"PART-1-1",           161,       8.46228,      -5.79934,            0.,NA,NA,"",       8.00822,      -7.65389,      -2.35575,   28.6225E-03
C:/temp/dataset/7/3_10.odb,Step-1,Increment      1: Step Time =    1.000,"PART-1-1",           162,       8.97830,      -10.5487,            0.,NA,NA,"",       5.44900,      -5.28452,      -1.32868,   25.6359E-03
C:/temp/dataset/7/3_10.odb,Step-1,Increment      1: Step Time =    1.000,"PART-1-1",           163,       8.84007,      -3.76868,            0.,NA,NA,"",       9.19241,      -8.83737,      -2.53009,   24.0066E-03
C:/temp/dataset/7/3_10.odb,Step-1,Increment      1: Step Time =    1.000,"PART-1-1",           164,       9.12644,       5.21383,            0.,NA,NA,"",       14.9422,      -14.3162,      -4.27959,   20.0466E-03
C:/temp/dataset/7/3_10.odb,Step-1,Increment      1: Step Time =    1.000,"PART-1-1",           165,       9.36869,      -17.5094,            0.,NA,NA,"",       2.41901,      -2.38166,  -423.452E-03,   22.5263E-03
C:/temp/dataset/7/3_10.odb,Step-1,Increment      1: Step Time =    1.000,"PART-1-1",           166,       9.01212,       11.8707,            0.,NA,NA,"",       19.4514,      -18.5381,      -5.89031,   8.56849E-03
C:/temp/dataset/7/3_10.odb,Step-1,Increment      1: Step Time =    1.000,"PART-1-1",           167,       9.60003,       16.9835,            0.,NA,NA,"",       22.9088,      -21.9146,      -6.67576,   742.644E-06
C:/temp/dataset/7/3_10.odb,Step-1,Increment      1: Step Time =    1.000,"PART-1-1",           168,       7.13047,       19.6676,            0.,NA,NA,"",       24.6899,      -23.0541,      -8.83736,   381.215E-06
C:/temp/dataset/7/3_10.odb,Step-1,Increment      1: Step Time =    1.000,"PART-1-1",           169,       9.55406,      -25.2995,            0.,NA,NA,"",   350.394E-03,  -347.709E-03,  -43.2929E-03,   21.3517E-03
C:/temp/dataset/7/3_10.odb,Step-1,Increment      1: Step Time =    1.000,"PART-1-1",           170,       12.3800,      -27.4389,            0.,NA,NA,"",   236.336E-03,  -155.441E-03,   178.025E-03,   95.5854E-03
C:/temp/dataset/7/3_10.odb,Step-1,Increment      1: Step Time =    1.000,"PART-1-1",           171,      -11.9351,       22.4166,            0.,NA,NA,"",       29.7047,      -20.5137,      -21.4839,   33.7522E-09
C:/temp/dataset/7/3_10.odb,Step-1,Increment      1: Step Time =    1.000,"PART-1-1",           172,       10.9842,      -1.93535,            0.,NA,NA,"",       10.4072,      -10.2710,      -1.67836,   23.0706E-03
C:/temp/dataset/7/3_10.odb,Step-1,Increment      1: Step Time =    1.000,"PART-1-1",           173,       11.2234,      -14.9909,            0.,NA,NA,"",       3.50011,      -3.49949,   65.7892E-03,   38.6709E-03
C:/temp/dataset/7/3_10.odb,Step-1,Increment      1: Step Time =    1.000,"PART-1-1",           174,       11.0574,       21.1283,            0.,NA,NA,"",       25.7397,      -24.8561,      -6.68624,   342.171E-06
C:/temp/dataset/7/3_10.odb,Step-1,Increment      1: Step Time =    1.000,"PART-1-1",           175,       10.7466,       19.4847,            0.,NA,NA,"",       24.6268,      -23.7499,      -6.51351,   369.838E-06
C:/temp/dataset/7/3_10.odb,Step-1,Increment      1: Step Time =    1.000,"PART-1-1",           176,       11.0568,   433.028E-03,            0.,NA,NA,"",       11.9047,      -11.7200,      -2.08914,   21.8962E-03
C:/temp/dataset/7/3_10.odb,Step-1,Increment      1: Step Time =    1.000,"PART-1-1",           177,       10.9662,       12.1205,            0.,NA,NA,"",       19.7124,      -19.1376,      -4.72547,   10.2411E-03
C:/temp/dataset/7/3_10.odb,Step-1,Increment      1: Step Time =    1.000,"PART-1-1",           178,       11.6216,      -21.4567,            0.,NA,NA,"",       1.30202,      -1.25813,   335.202E-03,   57.5086E-03
C:/temp/dataset/7/3_10.odb,Step-1,Increment      1: Step Time =    1.000,"PART-1-1",           179,       11.2975,      -17.3958,            0.,NA,NA,"",       2.56068,      -2.55259,   203.306E-03,   43.4346E-03
C:/temp/dataset/7/3_10.odb,Step-1,Increment      1: Step Time =    1.000,"PART-1-1",           180,       10.6273,       14.4803,            0.,NA,NA,"",       21.2776,      -20.5631,      -5.46757,   4.39740E-03
C:/temp/dataset/7/3_10.odb,Step-1,Increment      1: Step Time =    1.000,"PART-1-1",           181,       11.1012,       2.78293,            0.,NA,NA,"",       13.4328,      -13.1894,      -2.54546,   20.7250E-03
C:/temp/dataset/7/3_10.odb,Step-1,Increment      1: Step Time =    1.000,"PART-1-1",           182,       11.1153,       7.46695,            0.,NA,NA,"",       16.5678,      -16.1776,      -3.57432,   19.6631E-03
C:/temp/dataset/7/3_10.odb,Step-1,Increment      1: Step Time =    1.000,"PART-1-1",           183,       11.1247,      -12.5851,            0.,NA,NA,"",       4.55761,      -4.55521,  -148.094E-03,   34.0663E-03
C:/temp/dataset/7/3_10.odb,Step-1,Increment      1: Step Time =    1.000,"PART-1-1",           184,       10.4094,      -7.19663,            0.,NA,NA,"",       7.26457,      -7.17859,      -1.11432,   22.2023E-03
C:/temp/dataset/7/3_10.odb,Step-1,Increment      1: Step Time =    1.000,"PART-1-1",           185,       10.4303,      -22.2648,            0.,NA,NA,"",   991.052E-03,  -988.586E-03,   69.8701E-03,   29.7482E-03
C:/temp/dataset/7/3_10.odb,Step-1,Increment      1: Step Time =    1.000,"PART-1-1",           186,       10.9130,      -10.1038,            0.,NA,NA,"",       5.75190,      -5.73105,  -489.375E-03,   28.4539E-03
C:/temp/dataset/7/3_10.odb,Step-1,Increment      1: Step Time =    1.000,"PART-1-1",           187,       10.8491,      -4.38491,            0.,NA,NA,"",       8.91180,      -8.81273,      -1.32509,   23.8379E-03
C:/temp/dataset/7/3_10.odb,Step-1,Increment      1: Step Time =    1.000,"PART-1-1",           188,       11.1275,       5.13070,            0.,NA,NA,"",       14.9929,      -14.6816,      -3.03963,   20.3455E-03
C:/temp/dataset/7/3_10.odb,Step-1,Increment      1: Step Time =    1.000,"PART-1-1",           189,       11.0819,       9.79848,            0.,NA,NA,"",       18.1487,      -17.6732,      -4.12693,   15.9218E-03
C:/temp/dataset/7/3_10.odb,Step-1,Increment      1: Step Time =    1.000,"PART-1-1",           190,       12.1026,      -24.5603,            0.,NA,NA,"",   648.369E-03,  -560.118E-03,   326.572E-03,   78.4374E-03
C:/temp/dataset/7/3_10.odb,Step-1,Increment      1: Step Time =    1.000,"PART-1-1",           191,      -7.61069,       24.2264,            0.,NA,NA,"",       29.6487,      -22.6253,      -19.1610,   377.666E-09
C:/temp/dataset/7/3_10.odb,Step-1,Increment      1: Step Time =    1.000,"PART-1-1",           192,      -5.77678,       24.2650,            0.,NA,NA,"",       29.2618,      -23.0608,      -18.0125,   872.646E-09
C:/temp/dataset/7/3_10.odb,Step-1,Increment      1: Step Time =    1.000,"PART-1-1",           193,       1.00958,       23.8763,            0.,NA,NA,"",       27.9004,      -24.3371,      -13.6432,   7.02309E-06
C:/temp/dataset/7/3_10.odb,Step-1,Increment      1: Step Time =    1.000,"PART-1-1",           194,      -3.86757,       24.8145,            0.,NA,NA,"",       29.2368,      -23.8356,      -16.9310,   1.73068E-06
C:/temp/dataset/7/3_10.odb,Step-1,Increment      1: Step Time =    1.000,"PART-1-1",           195,  -996.969E-03,       24.6602,            0.,NA,NA,"",       28.6712,      -24.3819,      -15.0851,   3.87258E-06
C:/temp/dataset/7/3_10.odb,Step-1,Increment      1: Step Time =    1.000,"PART-1-1",           196,       7.19995,       21.7613,            0.,NA,NA,"",       26.0904,      -24.3907,      -9.26291,   248.404E-06
C:/temp/dataset/7/3_10.odb,Step-1,Increment      1: Step Time =    1.000,"PART-1-1",           197,       2.92747,       22.7842,            0.,NA,NA,"",       26.9871,      -24.0780,      -12.1882,   40.0698E-06
C:/temp/dataset/7/3_10.odb,Step-1,Increment      1: Step Time =    1.000,"PART-1-1",           198,       5.53232,       24.2100,            0.,NA,NA,"",       27.7747,      -25.5618,      -10.8642,   65.3828E-06
C:/temp/dataset/7/3_10.odb,Step-1,Increment      1: Step Time =    1.000,"PART-1-1",           199,       9.18626,       19.3402,            0.,NA,NA,"",       24.4755,      -23.3090,      -7.46587,   436.413E-06
C:/temp/dataset/7/3_10.odb,Step-1,Increment      1: Step Time =    1.000,"PART-1-1",           200,       11.2321,       23.1770,            0.,NA,NA,"",       27.1165,      -26.1878,      -7.03563,   179.044E-06
C:/temp/dataset/7/3_10.odb,Step-1,Increment      1: Step Time =    1.000,"PART-1-1",           201,       5.11021,       22.1378,            0.,NA,NA,"",       26.4093,      -24.1595,      -10.6661,   139.045E-06
C:/temp/dataset/7/3_10.odb,Step-1,Increment      1: Step Time =    1.000,"PART-1-1",           202,   167.280E-03,       22.2372,            0.,NA,NA,"",       26.9239,      -23.1140,      -13.8072,   7.18001E-06
C:/temp/dataset/7/3_10.odb,Step-1,Increment      1: Step Time =    1.000,"PART-1-1",           203,      -2.32264,       22.6339,            0.,NA,NA,"",       27.5564,      -22.8061,      -15.4673,   3.64636E-06
C:/temp/dataset/7/3_10.odb,Step-1,Increment      1: Step Time =    1.000,"PART-1-1",           204,       9.17324,       21.4477,            0.,NA,NA,"",       25.8856,      -24.6355,      -7.94700,   276.507E-06
C:/temp/dataset/7/3_10.odb,Step-1,Increment      1: Step Time =    1.000,"PART-1-1",           205,       9.43619,       25.5889,            0.,NA,NA,"",       28.6625,      -27.3071,      -8.70984,   66.6679E-06
C:/temp/dataset/7/3_10.odb,Step-1,Increment      1: Step Time =    1.000,"PART-1-1",           206,      -5.39738,       22.2321,            0.,NA,NA,"",       27.8906,      -21.8631,      -17.3173,   822.678E-09
C:/temp/dataset/7/3_10.odb,Step-1,Increment      1: Step Time =    1.000,"PART-1-1",           207,      -8.66915,       22.6604,            0.,NA,NA,"",       28.9368,      -21.3998,      -19.4778,   206.577E-09
C:/temp/dataset/7/3_10.odb,Step-1,Increment      1: Step Time =    1.000,"PART-1-1",           208,      -12.8188,       27.4435,            0.,NA,NA,"",       32.9916,      -23.4875,      -23.1685,   11.0764E-09
C:/temp/dataset/7/3_10.odb,Step-1,Increment      1: Step Time =    1.000,"PART-1-1",           209,       7.43992,       23.7550,            0.,NA,NA,"",       27.4222,      -25.7024,      -9.55839,   112.185E-06
C:/temp/dataset/7/3_10.odb,Step-1,Increment      1: Step Time =    1.000,"PART-1-1",           210,      -6.48406,       26.1481,            0.,NA,NA,"",       30.6079,      -24.0905,      -18.8810,   622.247E-09
C:/temp/dataset/7/3_10.odb,Step-1,Increment      1: Step Time =    1.000,"PART-1-1",           211,       3.18484,       28.0088,            0.,NA,NA,"",       30.4418,      -27.4324,      -13.1972,   7.25610E-06
C:/temp/dataset/7/3_10.odb,Step-1,Increment      1: Step Time =    1.000,"PART-1-1",           212,       11.4304,      -19.6429,            0.,NA,NA,"",       1.80875,      -1.78529,   290.398E-03,   49.7905E-03
C:/temp/dataset/7/3_10.odb,Step-1,Increment      1: Step Time =    1.000,"PART-1-1",           213,       9.33060,       23.4727,            0.,NA,NA,"",       27.2440,      -25.9483,      -8.30188,   153.135E-06
C:/temp/dataset/7/3_10.odb,Step-1,Increment      1: Step Time =    1.000,"PART-1-1",           214,      -12.1707,       23.6708,            0.,NA,NA,"",       30.5266,      -21.2523,      -21.9137,   10.8468E-09
C:/temp/dataset/7/3_10.odb,Step-1,Increment      1: Step Time =    1.000,"PART-1-1",           215,      -13.7031,       24.9625,            0.,NA,NA,"",       31.7614,      -21.7238,      -23.1703,   2.73115E-09
C:/temp/dataset/7/3_10.odb,Step-1,Increment      1: Step Time =    1.000,"PART-1-1",           216,          -15.,         23.75,            0.,NA,NA,"",       31.4587,      -20.6679,      -23.7168,   19.1284E-09
C:/temp/dataset/7/3_10.odb,Step-1,Increment      1: Step Time =    1.000,"PART-1-1",           217,      -13.4675,       22.4583,            0.,NA,NA,"",       30.2053,      -20.1965,      -22.4602,   12.2245E-09
C:/temp/dataset/7/3_10.odb,Step-1,Increment      1: Step Time =    1.000,"PART-1-1",           218,      -9.86170,       27.7278,            0.,NA,NA,"",       32.3801,      -24.3299,      -21.3664,   88.8432E-09
C:/temp/dataset/7/3_10.odb,Step-1,Increment      1: Step Time =    1.000,"PART-1-1",           219,      -10.4490,       26.4258,            0.,NA,NA,"",       31.7232,      -23.3767,      -21.4451,   63.9923E-09
C:/temp/dataset/7/3_10.odb,Step-1,Increment      1: Step Time =    1.000,"PART-1-1",           220,      -9.20914,       25.5437,            0.,NA,NA,"",       30.8600,      -23.0981,      -20.4650,   185.134E-09
C:/temp/dataset/7/3_10.odb,Step-1,Increment      1: Step Time =    1.000,"PART-1-1",           221,      -8.62185,       26.8458,            0.,NA,NA,"",       31.5289,      -24.0514,      -20.3863,   186.338E-09
C:/temp/dataset/7/3_10.odb,Step-1,Increment      1: Step Time =    1.000,"PART-1-1",           222,      -9.15066,       28.9242,            0.,NA,NA,"",       32.9563,      -25.2443,      -21.1860,   64.6199E-09
C:/temp/dataset/7/3_10.odb,Step-1,Increment      1: Step Time =    1.000,"PART-1-1",           223,      -10.3125,           30.,            0.,NA,NA,"",       33.9064,      -25.6626,      -22.1603,   6.83897E-09
C:/temp/dataset/7/3_10.odb,Step-1,Increment      1: Step Time =    1.000,"PART-1-1",           224,      -11.0235,       28.8036,            0.,NA,NA,"",       33.3404,      -24.7482,      -22.3407,   13.2227E-09
C:/temp/dataset/7/3_10.odb,Step-1,Increment      1: Step Time =    1.000,"PART-1-1",           225,      -11.2536,       25.0847,            0.,NA,NA,"",       31.1181,      -22.3501,      -21.6521,   52.2278E-09
C:/temp/dataset/7/3_10.odb,Step-1,Increment      1: Step Time =    1.000,"PART-1-1",           226,      -10.3021,       22.5385,            0.,NA,NA,"",       29.3027,      -20.9568,      -20.4808,   100.553E-09
C:/temp/dataset/7/3_10.odb,Step-1,Increment      1: Step Time =    1.000,"PART-1-1",           227,      -9.38503,       23.9523,            0.,NA,NA,"",       29.9202,      -22.0545,      -20.2192,   131.195E-09
C:/temp/dataset/7/3_10.odb,Step-1,Increment      1: Step Time =    1.000,"PART-1-1",           228,      -12.9719,       28.7217,            0.,NA,NA,"",       33.8115,      -24.2598,      -23.5517,   8.68924E-09
C:/temp/dataset/7/3_10.odb,Step-1,Increment      1: Step Time =    1.000,"PART-1-1",           229,      -14.0625,           30.,            0.,NA,NA,"",       34.8951,      -24.8218,      -24.5265,   3.61175E-09
C:/temp/dataset/7/3_10.odb,Step-1,Increment      1: Step Time =    1.000,"PART-1-1",           230,          -15.,         28.75,            0.,NA,NA,"",       34.4158,      -23.8229,      -24.8378,   4.82303E-09
C:/temp/dataset/7/3_10.odb,Step-1,Increment      1: Step Time =    1.000,"PART-1-1",           231,      -13.9094,       27.4717,            0.,NA,NA,"",       33.3243,      -23.2608,      -23.8630,   7.68543E-09
C:/temp/dataset/7/3_10.odb,Step-1,Increment      1: Step Time =    1.000,"PART-1-1",           232,      -7.40072,       25.9956,            0.,NA,NA,"",       30.7122,      -23.7887,      -19.4252,   438.333E-09
C:/temp/dataset/7/3_10.odb,Step-1,Increment      1: Step Time =    1.000,"PART-1-1",           233,      -7.96404,       25.0347,            0.,NA,NA,"",       30.2387,      -23.0561,      -19.5652,   307.166E-09
C:/temp/dataset/7/3_10.odb,Step-1,Increment      1: Step Time =    1.000,"PART-1-1",           234,      -6.69374,       24.2457,            0.,NA,NA,"",       29.4495,      -22.8430,      -18.5868,   618.157E-09
C:/temp/dataset/7/3_10.odb,Step-1,Increment      1: Step Time =    1.000,"PART-1-1",           235,      -6.13042,       25.2066,            0.,NA,NA,"",       29.9348,      -23.5756,      -18.4467,   678.691E-09
C:/temp/dataset/7/3_10.odb,Step-1,Increment      1: Step Time =    1.000,"PART-1-1",           236,      -5.46940,       29.1125,            0.,NA,NA,"",       32.2994,      -26.1884,      -18.9054,   536.135E-09
C:/temp/dataset/7/3_10.odb,Step-1,Increment      1: Step Time =    1.000,"PART-1-1",           237,      -4.41178,       28.2246,            0.,NA,NA,"",       31.5344,      -25.8653,      -18.0390,   1.12322E-06
C:/temp/dataset/7/3_10.odb,Step-1,Increment      1: Step Time =    1.000,"PART-1-1",           238,      -3.62988,       29.1121,            0.,NA,NA,"",       31.9760,      -26.6006,      -17.7446,   1.21083E-06
C:/temp/dataset/7/3_10.odb,Step-1,Increment      1: Step Time =    1.000,"PART-1-1",           239,       -4.6875,           30.,            0.,NA,NA,"",       32.7301,      -26.9237,      -18.6110,   941.403E-09
C:/temp/dataset/7/3_10.odb,Step-1,Increment      1: Step Time =    1.000,"PART-1-1",           240,  -467.629E-03,       27.9420,            0.,NA,NA,"",       30.7551,      -26.5713,      -15.4869,   2.06252E-06
C:/temp/dataset/7/3_10.odb,Step-1,Increment      1: Step Time =    1.000,"PART-1-1",           241,  -845.263E-03,       26.9234,            0.,NA,NA,"",       30.1340,      -25.8439,      -15.4968,   1.89182E-06
C:/temp/dataset/7/3_10.odb,Step-1,Increment      1: Step Time =    1.000,"PART-1-1",           242,   746.021E-03,       26.1520,            0.,NA,NA,"",       29.4323,      -25.7139,      -14.3198,   1.75446E-06
C:/temp/dataset/7/3_10.odb,Step-1,Increment      1: Step Time =    1.000,"PART-1-1",           243,       1.12365,       27.1705,            0.,NA,NA,"",       30.0651,      -26.4413,      -14.3098,   2.66383E-06
C:/temp/dataset/7/3_10.odb,Step-1,Increment      1: Step Time =    1.000,"PART-1-1",           244,       14.0901,       25.0896,            0.,NA,NA,"",       28.6012,      -28.0353,      -5.66130,   51.2639E-06
C:/temp/dataset/7/3_10.odb,Step-1,Increment      1: Step Time =    1.000,"PART-1-1",           245,       13.1528,       23.9903,            0.,NA,NA,"",       27.7883,      -27.1315,      -6.00620,   128.446E-06
C:/temp/dataset/7/3_10.odb,Step-1,Increment      1: Step Time =    1.000,"PART-1-1",           246,       14.0627,       22.6507,            0.,NA,NA,"",       26.9825,      -26.4900,      -5.13179,   159.900E-06
C:/temp/dataset/7/3_10.odb,Step-1,Increment      1: Step Time =    1.000,"PART-1-1",           247,           15.,         23.75,            0.,NA,NA,"",       27.8091,      -27.3940,      -4.78682,   120.859E-06
C:/temp/dataset/7/3_10.odb,Step-1,Increment      1: Step Time =    1.000,"PART-1-1",           248,       11.2764,       28.8302,            0.,NA,NA,"",       30.8939,      -29.7649,      -8.27547,   21.8243E-06
C:/temp/dataset/7/3_10.odb,Step-1,Increment      1: Step Time =    1.000,"PART-1-1",           249,       10.3125,           30.,            0.,NA,NA,"",       31.6378,      -30.2869,      -9.14599,   18.3339E-06
C:/temp/dataset/7/3_10.odb,Step-1,Increment      1: Step Time =    1.000,"PART-1-1",           250,       9.39543,       28.8642,            0.,NA,NA,"",       30.8539,      -29.3647,      -9.47000,   24.6818E-06
C:/temp/dataset/7/3_10.odb,Step-1,Increment      1: Step Time =    1.000,"PART-1-1",           251,       10.3594,       27.6945,            0.,NA,NA,"",       30.0973,      -28.8427,      -8.59946,   28.0665E-06
C:/temp/dataset/7/3_10.odb,Step-1,Increment      1: Step Time =    1.000,"PART-1-1",           252,        8.4375,           30.,            0.,NA,NA,"",       31.6023,      -29.8666,      -10.3291,   20.2274E-06
C:/temp/dataset/7/3_10.odb,Step-1,Increment      1: Step Time =    1.000,"PART-1-1",           253,       7.48312,       28.8587,            0.,NA,NA,"",       30.8391,      -28.9325,      -10.6755,   21.1204E-06
C:/temp/dataset/7/3_10.odb,Step-1,Increment      1: Step Time =    1.000,"PART-1-1",           254,       8.44105,       27.7230,            0.,NA,NA,"",       30.0775,      -28.4306,      -9.81633,   25.6447E-06
C:/temp/dataset/7/3_10.odb,Step-1,Increment      1: Step Time =    1.000,"PART-1-1",           255,       13.0365,       21.6252,            0.,NA,NA,"",       26.2071,      -25.6129,      -5.54920,   284.693E-06
C:/temp/dataset/7/3_10.odb,Step-1,Increment      1: Step Time =    1.000,"PART-1-1",           256,       13.9738,       20.2245,            0.,NA,NA,"",       25.3676,      -24.9389,      -4.64419,   395.072E-06
C:/temp/dataset/7/3_10.odb,Step-1,Increment      1: Step Time =    1.000,"PART-1-1",           257,           15.,         21.25,            0.,NA,NA,"",       26.1598,      -25.8161,      -4.22663,   395.917E-06
C:/temp/dataset/7/3_10.odb,Step-1,Increment      1: Step Time =    1.000,"PART-1-1",           258,       6.90015,       14.7921,            0.,NA,NA,"",       21.4246,      -19.9206,      -7.88563,   1.65326E-03
C:/temp/dataset/7/3_10.odb,Step-1,Increment      1: Step Time =    1.000,"PART-1-1",           259,       5.93474,       15.8126,            0.,NA,NA,"",       22.1415,      -20.3492,      -8.72664,   541.240E-06
C:/temp/dataset/7/3_10.odb,Step-1,Increment      1: Step Time =    1.000,"PART-1-1",           260,            5.,       14.7917,            0.,NA,NA,"",       21.5057,      -19.4912,      -9.08774,   515.743E-06
C:/temp/dataset/7/3_10.odb,Step-1,Increment      1: Step Time =    1.000,"PART-1-1",           261,       5.96541,       13.7711,            0.,NA,NA,"",       20.7691,      -19.0625,      -8.24489,   1.34690E-03
C:/temp/dataset/7/3_10.odb,Step-1,Increment      1: Step Time =    1.000,"PART-1-1",           262,       7.07741,       8.55300,            0.,NA,NA,"",       17.2038,      -15.9961,      -6.33207,   13.2005E-03
C:/temp/dataset/7/3_10.odb,Step-1,Increment      1: Step Time =    1.000,"PART-1-1",           263,       6.03400,       9.60662,            0.,NA,NA,"",       17.9579,      -16.4344,      -7.23864,   8.44542E-03
C:/temp/dataset/7/3_10.odb,Step-1,Increment      1: Step Time =    1.000,"PART-1-1",           264,            5.,       8.54167,            0.,NA,NA,"",       17.3102,      -15.5302,      -7.64569,   12.0708E-03
C:/temp/dataset/7/3_10.odb,Step-1,Increment      1: Step Time =    1.000,"PART-1-1",           265,       6.04341,       7.48805,            0.,NA,NA,"",       16.5303,      -15.0977,      -6.73132,   14.4173E-03
C:/temp/dataset/7/3_10.odb,Step-1,Increment      1: Step Time =    1.000,"PART-1-1",           266,            5.,         4.375,            0.,NA,NA,"",       14.5473,      -12.9406,      -6.64558,   29.8114E-03
C:/temp/dataset/7/3_10.odb,Step-1,Increment      1: Step Time =    1.000,"PART-1-1",           267,       6.03822,       3.24050,            0.,NA,NA,"",       13.7127,      -12.4628,      -5.72000,   28.6782E-03
C:/temp/dataset/7/3_10.odb,Step-1,Increment      1: Step Time =    1.000,"PART-1-1",           268,       7.08368,       4.22909,            0.,NA,NA,"",       14.3019,      -13.2813,      -5.30581,   22.7888E-03
C:/temp/dataset/7/3_10.odb,Step-1,Increment      1: Step Time =    1.000,"PART-1-1",           269,       6.04546,       5.36359,            0.,NA,NA,"",       15.1104,      -13.7697,      -6.22256,   21.3407E-03
C:/temp/dataset/7/3_10.odb,Step-1,Increment      1: Step Time =    1.000,"PART-1-1",           270,            5.,       2.29167,            0.,NA,NA,"",       13.1996,      -11.6836,      -6.14189,   39.4753E-03
C:/temp/dataset/7/3_10.odb,Step-1,Increment      1: Step Time =    1.000,"PART-1-1",           271,       6.01828,       1.12309,            0.,NA,NA,"",       12.3497,      -11.1868,      -5.23168,   36.1947E-03
C:/temp/dataset/7/3_10.odb,Step-1,Increment      1: Step Time =    1.000,"PART-1-1",           272,       7.05649,       2.07193,            0.,NA,NA,"",       12.8887,      -11.9540,      -4.81877,   27.6121E-03
C:/temp/dataset/7/3_10.odb,Step-1,Increment      1: Step Time =    1.000,"PART-1-1",           273,       7.00178,  -77.9012E-03,            0.,NA,NA,"",       11.5166,      -10.6590,      -4.36095,   32.8531E-03
C:/temp/dataset/7/3_10.odb,Step-1,Increment      1: Step Time =    1.000,"PART-1-1",           274,            5.,   208.333E-03,            0.,NA,NA,"",       11.8850,      -10.4605,      -5.64190,   49.0747E-03
C:/temp/dataset/7/3_10.odb,Step-1,Increment      1: Step Time =    1.000,"PART-1-1",           275,       5.98350,  -992.661E-03,            0.,NA,NA,"",       11.0271,      -9.94582,      -4.76202,   43.9047E-03
C:/temp/dataset/7/3_10.odb,Step-1,Increment      1: Step Time =    1.000,"PART-1-1",           276,       6.59145,      -6.15040,            0.,NA,NA,"",       7.92522,      -7.20746,      -3.29570,   53.0588E-03
C:/temp/dataset/7/3_10.odb,Step-1,Increment      1: Step Time =    1.000,"PART-1-1",           277,       5.82593,      -5.11028,            0.,NA,NA,"",       8.60226,      -7.64809,      -3.93771,   60.4881E-03
C:/temp/dataset/7/3_10.odb,Step-1,Increment      1: Step Time =    1.000,"PART-1-1",           278,            5.,      -6.04167,            0.,NA,NA,"",       8.20913,      -7.05204,      -4.20221,   77.0110E-03
C:/temp/dataset/7/3_10.odb,Step-1,Increment      1: Step Time =    1.000,"PART-1-1",           279,       5.76552,      -7.08179,            0.,NA,NA,"",       7.51754,      -6.62391,      -3.55488,   68.7917E-03
C:/temp/dataset/7/3_10.odb,Step-1,Increment      1: Step Time =    1.000,"PART-1-1",           280,       8.25955,      -15.2021,            0.,NA,NA,"",       3.34664,      -3.18027,      -1.04206,   40.4140E-03
C:/temp/dataset/7/3_10.odb,Step-1,Increment      1: Step Time =    1.000,"PART-1-1",           281,       9.23032,      -13.9562,            0.,NA,NA,"",       3.84540,      -3.76186,  -797.181E-03,   23.5105E-03
C:/temp/dataset/7/3_10.odb,Step-1,Increment      1: Step Time =    1.000,"PART-1-1",           282,       8.16037,      -12.9544,            0.,NA,NA,"",       4.32518,      -4.10423,      -1.36475,   39.9387E-03
C:/temp/dataset/7/3_10.odb,Step-1,Increment      1: Step Time =    1.000,"PART-1-1",           283,       7.18960,      -14.2003,            0.,NA,NA,"",       3.85997,      -3.51182,      -1.60205,   61.7298E-03
C:/temp/dataset/7/3_10.odb,Step-1,Increment      1: Step Time =    1.000,"PART-1-1",           284,            5.,      -22.7083,            0.,NA,NA,"",       1.42017,  -890.121E-03,      -1.10660,   148.879E-03
C:/temp/dataset/7/3_10.odb,Step-1,Increment      1: Step Time =    1.000,"PART-1-1",           285,       5.97351,      -23.6835,            0.,NA,NA,"",       1.00124,  -663.979E-03,  -749.408E-03,   120.463E-03
C:/temp/dataset/7/3_10.odb,Step-1,Increment      1: Step Time =    1.000,"PART-1-1",           286,       6.71140,      -22.7416,            0.,NA,NA,"",       1.08801,  -831.667E-03,  -701.490E-03,   93.0206E-03
C:/temp/dataset/7/3_10.odb,Step-1,Increment      1: Step Time =    1.000,"PART-1-1",           287,       5.73789,      -21.7664,            0.,NA,NA,"",       1.50174,      -1.06646,      -1.05730,   121.126E-03
C:/temp/dataset/7/3_10.odb,Step-1,Increment      1: Step Time =    1.000,"PART-1-1",           288,       9.95056,      -28.8261,            0.,NA,NA,"",   3.73852E-03,   1.88846E-03,   3.22649E-03,   5.99799E-03
C:/temp/dataset/7/3_10.odb,Step-1,Increment      1: Step Time =    1.000,"PART-1-1",           289,       8.67404,      -27.7482,            0.,NA,NA,"",   86.7598E-03,  -56.2338E-03,  -66.0682E-03,   40.1518E-03
C:/temp/dataset/7/3_10.odb,Step-1,Increment      1: Step Time =    1.000,"PART-1-1",           290,       7.47347,      -28.9221,            0.,NA,NA,"",   61.4910E-03,  -1.04362E-03,  -61.4822E-03,   70.3571E-03
C:/temp/dataset/7/3_10.odb,Step-1,Increment      1: Step Time =    1.000,"PART-1-1",           291,          8.75,          -30.,            0.,NA,NA,"",            0.,   21.4189E-39,  -66.1385E-39,   36.7845E-03
C:/temp/dataset/7/3_10.odb,Step-1,Increment      1: Step Time =    1.000,"PART-1-1",           292,       9.14805,      -24.1419,            0.,NA,NA,"",   560.685E-03,  -544.949E-03,  -131.903E-03,   25.8517E-03
C:/temp/dataset/7/3_10.odb,Step-1,Increment      1: Step Time =    1.000,"PART-1-1",           293,       7.84454,      -23.3007,            0.,NA,NA,"",   817.120E-03,  -704.813E-03,  -413.429E-03,   60.4942E-03
C:/temp/dataset/7/3_10.odb,Step-1,Increment      1: Step Time =    1.000,"PART-1-1",           294,       7.10828,      -24.6604,            0.,NA,NA,"",   633.481E-03,  -461.174E-03,  -434.300E-03,   85.8141E-03
C:/temp/dataset/7/3_10.odb,Step-1,Increment      1: Step Time =    1.000,"PART-1-1",           295,       8.41180,      -25.5016,            0.,NA,NA,"",   362.518E-03,  -311.885E-03,  -184.788E-03,   47.3475E-03
C:/temp/dataset/7/3_10.odb,Step-1,Increment      1: Step Time =    1.000,"PART-1-1",           296,       7.00425,      -21.1298,            0.,NA,NA,"",       1.44959,      -1.20627,  -803.886E-03,   81.8836E-03
C:/temp/dataset/7/3_10.odb,Step-1,Increment      1: Step Time =    1.000,"PART-1-1",           297,       6.26636,      -19.9884,            0.,NA,NA,"",       1.89573,      -1.50873,      -1.14783,   99.5553E-03
C:/temp/dataset/7/3_10.odb,Step-1,Increment      1: Step Time =    1.000,"PART-1-1",           298,            5.,       -20.625,            0.,NA,NA,"",       1.97739,      -1.35788,      -1.43744,   140.330E-03
C:/temp/dataset/7/3_10.odb,Step-1,Increment      1: Step Time =    1.000,"PART-1-1",           299,       12.8526,      -8.63250,            0.,NA,NA,"",       6.77329,      -6.76788,   270.712E-03,   55.2417E-03
C:/temp/dataset/7/3_10.odb,Step-1,Increment      1: Step Time =    1.000,"PART-1-1",           300,       13.9581,      -9.97058,            0.,NA,NA,"",       6.29194,      -6.22607,   908.074E-03,   78.3609E-03
C:/temp/dataset/7/3_10.odb,Step-1,Increment      1: Step Time =    1.000,"PART-1-1",           301,           15.,         -8.75,            0.,NA,NA,"",       7.17534,      -7.05245,       1.32233,   91.7946E-03
C:/temp/dataset/7/3_10.odb,Step-1,Increment      1: Step Time =    1.000,"PART-1-1",           302,       13.8945,      -7.41192,            0.,NA,NA,"",       7.63451,      -7.60566,   663.116E-03,   67.8736E-03
C:/temp/dataset/7/3_10.odb,Step-1,Increment      1: Step Time =    1.000,"PART-1-1",           303,            5.,        10.625,            0.,NA,NA,"",       18.7084,      -16.8473,      -8.13469,   5.55909E-03
C:/temp/dataset/7/3_10.odb,Step-1,Increment      1: Step Time =    1.000,"PART-1-1",           304,       7.03988,       10.6820,            0.,NA,NA,"",       18.6465,      -17.3410,      -6.85445,   8.46157E-03
C:/temp/dataset/7/3_10.odb,Step-1,Increment      1: Step Time =    1.000,"PART-1-1",           305,       6.00589,       11.7004,            0.,NA,NA,"",       19.3723,      -17.7570,      -7.74438,   3.99890E-03
C:/temp/dataset/7/3_10.odb,Step-1,Increment      1: Step Time =    1.000,"PART-1-1",           306,       2.74639,       25.6366,            0.,NA,NA,"",       28.8974,      -25.8372,      -12.9420,   15.0331E-06
C:/temp/dataset/7/3_10.odb,Step-1,Increment      1: Step Time =    1.000,"PART-1-1",           307,       1.36653,       25.0307,            0.,NA,NA,"",       28.6244,      -25.1455,      -13.6768,   5.03611E-06
C:/temp/dataset/7/3_10.odb,Step-1,Increment      1: Step Time =    1.000,"PART-1-1",           308,       1.96853,       23.3303,            0.,NA,NA,"",       27.4376,      -24.2075,      -12.9157,   8.76001E-06
C:/temp/dataset/7/3_10.odb,Step-1,Increment      1: Step Time =    1.000,"PART-1-1",           309,       3.34839,       23.9361,            0.,NA,NA,"",       27.7190,      -24.8992,      -12.1809,   24.0732E-06
C:/temp/dataset/7/3_10.odb,Step-1,Increment      1: Step Time =    1.000,"PART-1-1",           310,       4.47216,       26.2029,            0.,NA,NA,"",       29.1564,      -26.5815,      -11.9800,   22.6985E-06
C:/temp/dataset/7/3_10.odb,Step-1,Increment      1: Step Time =    1.000,"PART-1-1",           311,       4.17993,       27.6633,            0.,NA,NA,"",       30.1473,      -27.4375,      -12.4918,   14.5972E-06
C:/temp/dataset/7/3_10.odb,Step-1,Increment      1: Step Time =    1.000,"PART-1-1",           312,       2.45416,       27.0970,            0.,NA,NA,"",       29.8920,      -26.6932,      -13.4538,   5.41007E-06
C:/temp/dataset/7/3_10.odb,Step-1,Increment      1: Step Time =    1.000,"PART-1-1",           313,      -1.66705,       28.8640,            0.,NA,NA,"",       31.5178,      -26.8842,      -16.4504,   2.14649E-06
C:/temp/dataset/7/3_10.odb,Step-1,Increment      1: Step Time =    1.000,"PART-1-1",           314,   261.919E-03,       29.0779,            0.,NA,NA,"",       31.4183,      -27.4516,      -15.2812,   3.34486E-06
C:/temp/dataset/7/3_10.odb,Step-1,Increment      1: Step Time =    1.000,"PART-1-1",           315,    -937.5E-03,           30.,            0.,NA,NA,"",       32.1677,      -27.7645,      -16.2448,   4.16972E-06
C:/temp/dataset/7/3_10.odb,Step-1,Increment      1: Step Time =    1.000,"PART-1-1",           316,          -15.,         21.25,            0.,NA,NA,"",       30.0110,      -19.0905,      -23.1562,   4.93698E-09
C:/temp/dataset/7/3_10.odb,Step-1,Increment      1: Step Time =    1.000,"PART-1-1",           317,      -13.3250,           20.,            0.,NA,NA,"",       28.7213,      -18.6773,      -21.8191,   8.63390E-09
C:/temp/dataset/7/3_10.odb,Step-1,Increment      1: Step Time =    1.000,"PART-1-1",           318,      -11.7925,       21.2083,            0.,NA,NA,"",       28.9406,      -19.7833,      -21.1230,   19.8589E-09
C:/temp/dataset/7/3_10.odb,Step-1,Increment      1: Step Time =    1.000,"PART-1-1",           319,       10.1137,       15.7319,            0.,NA,NA,"",       22.0902,      -21.2395,      -6.07122,   2.33172E-03
C:/temp/dataset/7/3_10.odb,Step-1,Increment      1: Step Time =    1.000,"PART-1-1",           320,       9.02474,       16.2903,            0.,NA,NA,"",       22.4295,      -21.3473,      -6.88293,   1.08166E-03
C:/temp/dataset/7/3_10.odb,Step-1,Increment      1: Step Time =    1.000,"PART-1-1",           321,       8.64023,       14.7706,            0.,NA,NA,"",       21.4020,      -20.2987,      -6.78292,   2.79616E-03
C:/temp/dataset/7/3_10.odb,Step-1,Increment      1: Step Time =    1.000,"PART-1-1",           322,       9.72917,       14.2122,            0.,NA,NA,"",       21.0547,      -20.1900,      -5.97171,   4.09552E-03
C:/temp/dataset/7/3_10.odb,Step-1,Increment      1: Step Time =    1.000,"PART-1-1",           323,       12.8210,       13.6438,            0.,NA,NA,"",       20.9002,      -20.5319,      -3.90626,   8.63008E-03
C:/temp/dataset/7/3_10.odb,Step-1,Increment      1: Step Time =    1.000,"PART-1-1",           324,       13.9730,       12.4303,            0.,NA,NA,"",       20.2365,      -20.0251,      -2.91742,   10.5867E-03
C:/temp/dataset/7/3_10.odb,Step-1,Increment      1: Step Time =    1.000,"PART-1-1",           325,           15.,         13.75,            0.,NA,NA,"",       21.2553,      -21.0994,      -2.56926,   8.58257E-03
C:/temp/dataset/7/3_10.odb,Step-1,Increment      1: Step Time =    1.000,"PART-1-1",           326,       13.8481,       14.9635,            0.,NA,NA,"",       21.8902,      -21.5999,      -3.55288,   5.57130E-03
C:/temp/dataset/7/3_10.odb,Step-1,Increment      1: Step Time =    1.000,"PART-1-1",           327,       10.1008,       2.87074,            0.,NA,NA,"",       13.4206,      -13.0425,      -3.16323,   19.3792E-03
C:/temp/dataset/7/3_10.odb,Step-1,Increment      1: Step Time =    1.000,"PART-1-1",           328,       9.07373,       1.83179,            0.,NA,NA,"",       12.7028,      -12.1966,      -3.55024,   21.1297E-03
C:/temp/dataset/7/3_10.odb,Step-1,Increment      1: Step Time =    1.000,"PART-1-1",           329,       10.0520,   569.032E-03,            0.,NA,NA,"",       11.9211,      -11.6106,      -2.70314,   19.3615E-03
C:/temp/dataset/7/3_10.odb,Step-1,Increment      1: Step Time =    1.000,"PART-1-1",           330,       11.0790,       1.60798,            0.,NA,NA,"",       12.6638,      -12.4507,      -2.31349,   21.2712E-03
C:/temp/dataset/7/3_10.odb,Step-1,Increment      1: Step Time =    1.000,"PART-1-1",           331,       9.98138,      -1.74337,            0.,NA,NA,"",       10.4571,      -10.2054,      -2.28076,   19.3708E-03
C:/temp/dataset/7/3_10.odb,Step-1,Increment      1: Step Time =    1.000,"PART-1-1",           332,       8.90931,      -2.66004,            0.,NA,NA,"",       9.86224,      -9.48345,      -2.70703,   23.1545E-03
C:/temp/dataset/7/3_10.odb,Step-1,Increment      1: Step Time =    1.000,"PART-1-1",           333,       9.84458,      -4.07679,            0.,NA,NA,"",       9.03113,      -8.82420,      -1.92218,   19.3919E-03
C:/temp/dataset/7/3_10.odb,Step-1,Increment      1: Step Time =    1.000,"PART-1-1",           334,       10.9167,      -3.16013,            0.,NA,NA,"",       9.65134,      -9.53455,      -1.49687,   23.4106E-03
C:/temp/dataset/7/3_10.odb,Step-1,Increment      1: Step Time =    1.000,"PART-1-1",           335,            5.,      -3.95833,            0.,NA,NA,"",       9.38323,      -8.13917,      -4.66894,   67.8237E-03
C:/temp/dataset/7/3_10.odb,Step-1,Increment      1: Step Time =    1.000,"PART-1-1",           336,       6.75254,      -4.23112,            0.,NA,NA,"",       9.00730,      -8.25602,      -3.60132,   45.7306E-03
C:/temp/dataset/7/3_10.odb,Step-1,Increment      1: Step Time =    1.000,"PART-1-1",           337,       5.92661,      -3.07918,            0.,NA,NA,"",       9.77009,      -8.76094,      -4.32442,   51.9033E-03
C:/temp/dataset/7/3_10.odb,Step-1,Increment      1: Step Time =    1.000,"PART-1-1",           338,       7.06139,      -12.0396,            0.,NA,NA,"",       4.84059,      -4.41395,      -1.98704,   59.6936E-03
C:/temp/dataset/7/3_10.odb,Step-1,Increment      1: Step Time =    1.000,"PART-1-1",           339,       5.99095,      -11.1126,            0.,NA,NA,"",       5.42631,      -4.73506,      -2.65029,   78.8523E-03
C:/temp/dataset/7/3_10.odb,Step-1,Increment      1: Step Time =    1.000,"PART-1-1",           340,            5.,      -12.2917,            0.,NA,NA,"",       5.06924,      -4.15350,      -2.90613,   104.205E-03
C:/temp/dataset/7/3_10.odb,Step-1,Increment      1: Step Time =    1.000,"PART-1-1",           341,       6.07044,      -13.2187,            0.,NA,NA,"",       4.44606,      -3.84040,      -2.24027,   84.1095E-03
C:/temp/dataset/7/3_10.odb,Step-1,Increment      1: Step Time =    1.000,"PART-1-1",           342,       6.63644,      -8.02271,            0.,NA,NA,"",       6.89903,      -6.25837,      -2.90335,   57.3897E-03
C:/temp/dataset/7/3_10.odb,Step-1,Increment      1: Step Time =    1.000,"PART-1-1",           343,            5.,        -8.125,            0.,NA,NA,"",       7.09469,      -6.02147,      -3.75188,   86.1162E-03
C:/temp/dataset/7/3_10.odb,Step-1,Increment      1: Step Time =    1.000,"PART-1-1",           344,       5.87092,      -9.06592,            0.,NA,NA,"",       6.45778,      -5.66567,      -3.09888,   74.0656E-03
C:/temp/dataset/7/3_10.odb,Step-1,Increment      1: Step Time =    1.000,"PART-1-1",           345,       13.0826,      -13.6930,            0.,NA,NA,"",       4.33025,      -4.26918,   724.704E-03,   73.7999E-03
C:/temp/dataset/7/3_10.odb,Step-1,Increment      1: Step Time =    1.000,"PART-1-1",           346,       14.0569,      -14.9678,            0.,NA,NA,"",       3.97809,      -3.81363,       1.13199,   99.2246E-03
C:/temp/dataset/7/3_10.odb,Step-1,Increment      1: Step Time =    1.000,"PART-1-1",           347,           15.,        -13.75,            0.,NA,NA,"",       4.73440,      -4.49103,       1.49840,   114.871E-03
C:/temp/dataset/7/3_10.odb,Step-1,Increment      1: Step Time =    1.000,"PART-1-1",           348,       14.0257,      -12.4752,            0.,NA,NA,"",       5.08025,      -4.96652,       1.06894,   89.0904E-03
C:/temp/dataset/7/3_10.odb,Step-1,Increment      1: Step Time =    1.000,"PART-1-1",           349,       8.13738,      -21.6888,            0.,NA,NA,"",       1.17070,      -1.07253,  -469.268E-03,   49.4852E-03
C:/temp/dataset/7/3_10.odb,Step-1,Increment      1: Step Time =    1.000,"PART-1-1",           350,            5.,      -28.9583,            0.,NA,NA,"",   190.861E-03,  -113.906E-03,  -153.145E-03,   167.326E-03
C:/temp/dataset/7/3_10.odb,Step-1,Increment      1: Step Time =    1.000,"PART-1-1",           351,          6.25,          -30.,            0.,NA,NA,"",            0.,   9.17410E-39,  -187.245E-39,   115.707E-03
C:/temp/dataset/7/3_10.odb,Step-1,Increment      1: Step Time =    1.000,"PART-1-1",           352,       6.22347,      -27.8804,            0.,NA,NA,"",   239.574E-03,  -105.605E-03,  -215.042E-03,   125.366E-03
C:/temp/dataset/7/3_10.odb,Step-1,Increment      1: Step Time =    1.000,"PART-1-1",           353,           15.,        -28.75,            0.,NA,NA,"",   256.445E-03,  -167.389E-03,   194.281E-03,   179.084E-03
C:/temp/dataset/7/3_10.odb,Step-1,Increment      1: Step Time =    1.000,"PART-1-1",           354,       13.6900,      -27.4695,            0.,NA,NA,"",   343.300E-03,  -209.428E-03,   272.019E-03,   132.652E-03
C:/temp/dataset/7/3_10.odb,Step-1,Increment      1: Step Time =    1.000,"PART-1-1",           355,       12.4400,      -28.7195,            0.,NA,NA,"",   90.8550E-03,  -39.9665E-03,   81.5923E-03,   80.4267E-03
C:/temp/dataset/7/3_10.odb,Step-1,Increment      1: Step Time =    1.000,"PART-1-1",           356,         13.75,          -30.,            0.,NA,NA,"",            0.,   8.87203E-39,   197.623E-39,   130.375E-03
C:/temp/dataset/7/3_10.odb,Step-1,Increment      1: Step Time =    1.000,"PART-1-1",           357,       9.58617,      -22.6245,            0.,NA,NA,"",   880.202E-03,  -874.633E-03,  -98.8487E-03,   20.9479E-03
C:/temp/dataset/7/3_10.odb,Step-1,Increment      1: Step Time =    1.000,"PART-1-1",           358,       10.0221,      -21.0980,            0.,NA,NA,"",       1.27895,      -1.27807,  -47.5136E-03,   22.1782E-03
C:/temp/dataset/7/3_10.odb,Step-1,Increment      1: Step Time =    1.000,"PART-1-1",           359,       8.57328,      -20.1623,            0.,NA,NA,"",       1.56436,      -1.49218,  -469.716E-03,   38.0238E-03
C:/temp/dataset/7/3_10.odb,Step-1,Increment      1: Step Time =    1.000,"PART-1-1",           360,       11.1406,      -27.5456,            0.,NA,NA,"",   128.615E-03,  -97.9496E-03,   83.3528E-03,   53.6338E-03
C:/temp/dataset/7/3_10.odb,Step-1,Increment      1: Step Time =    1.000,"PART-1-1",           361,         11.25,          -30.,            0.,NA,NA,"",            0.,   17.5069E-39,   66.1258E-39,   36.8163E-03
C:/temp/dataset/7/3_10.odb,Step-1,Increment      1: Step Time =    1.000,"PART-1-1",           362,       11.2605,      -16.1933,            0.,NA,NA,"",       3.01464,      -3.01126,   142.780E-03,   40.8891E-03
C:/temp/dataset/7/3_10.odb,Step-1,Increment      1: Step Time =    1.000,"PART-1-1",           363,       10.2521,      -15.0492,            0.,NA,NA,"",       3.40197,      -3.38903,  -296.448E-03,   22.3855E-03
C:/temp/dataset/7/3_10.odb,Step-1,Increment      1: Step Time =    1.000,"PART-1-1",           364,       9.32474,      -16.3084,            0.,NA,NA,"",       2.87078,      -2.82058,  -534.495E-03,   22.7667E-03
C:/temp/dataset/7/3_10.odb,Step-1,Increment      1: Step Time =    1.000,"PART-1-1",           365,       10.3331,      -17.4526,            0.,NA,NA,"",       2.46428,      -2.46184,  -109.590E-03,   24.3348E-03
C:/temp/dataset/7/3_10.odb,Step-1,Increment      1: Step Time =    1.000,"PART-1-1",           366,       7.44248,      -19.0256,            0.,NA,NA,"",       2.01584,      -1.80235,  -902.841E-03,   64.9600E-03
C:/temp/dataset/7/3_10.odb,Step-1,Increment      1: Step Time =    1.000,"PART-1-1",           367,       6.17612,      -17.5789,            0.,NA,NA,"",       2.69625,      -2.23380,      -1.50993,   95.2123E-03
C:/temp/dataset/7/3_10.odb,Step-1,Increment      1: Step Time =    1.000,"PART-1-1",           368,            5.,      -18.5417,            0.,NA,NA,"",       2.62050,      -1.92405,      -1.77907,   131.346E-03
C:/temp/dataset/7/3_10.odb,Step-1,Increment      1: Step Time =    1.000,"PART-1-1",           369,       12.8407,      -6.03443,            0.,NA,NA,"",       8.20398,      -8.20392,  -30.9820E-03,   48.0079E-03
C:/temp/dataset/7/3_10.odb,Step-1,Increment      1: Step Time =    1.000,"PART-1-1",           370,           15.,         -6.25,            0.,NA,NA,"",       8.53813,      -8.46502,       1.11500,   80.1738E-03
C:/temp/dataset/7/3_10.odb,Step-1,Increment      1: Step Time =    1.000,"PART-1-1",           371,       13.9462,      -4.87251,            0.,NA,NA,"",       9.08115,      -9.07218,   403.568E-03,   59.2829E-03
C:/temp/dataset/7/3_10.odb,Step-1,Increment      1: Step Time =    1.000,"PART-1-1",           372,       7.64514,      -8.69832,            0.,NA,NA,"",       6.45044,      -6.04014,      -2.26381,   42.8416E-03
C:/temp/dataset/7/3_10.odb,Step-1,Increment      1: Step Time =    1.000,"PART-1-1",           373,       8.20020,      -7.75016,            0.,NA,NA,"",       6.92855,      -6.58763,      -2.14658,   33.1247E-03
C:/temp/dataset/7/3_10.odb,Step-1,Increment      1: Step Time =    1.000,"PART-1-1",           374,       7.19150,      -7.07454,            0.,NA,NA,"",       7.35748,      -6.80688,      -2.79265,   46.2262E-03
C:/temp/dataset/7/3_10.odb,Step-1,Increment      1: Step Time =    1.000,"PART-1-1",           375,       7.97278,      -1.35169,            0.,NA,NA,"",       10.6776,      -10.0840,      -3.51081,   27.3625E-03
C:/temp/dataset/7/3_10.odb,Step-1,Increment      1: Step Time =    1.000,"PART-1-1",           376,       9.01285,  -423.179E-03,            0.,NA,NA,"",       11.2539,      -10.8177,      -3.10279,   21.8911E-03
C:/temp/dataset/7/3_10.odb,Step-1,Increment      1: Step Time =    1.000,"PART-1-1",           377,       8.04185,   850.611E-03,            0.,NA,NA,"",       12.0677,      -11.4034,      -3.94869,   24.2919E-03
C:/temp/dataset/7/3_10.odb,Step-1,Increment      1: Step Time =    1.000,"PART-1-1",           378,       8.08837,       3.05311,            0.,NA,NA,"",       13.4990,      -12.7559,      -4.41712,   21.7448E-03
C:/temp/dataset/7/3_10.odb,Step-1,Increment      1: Step Time =    1.000,"PART-1-1",           379,       9.11337,       4.08618,            0.,NA,NA,"",       14.1883,      -13.6039,      -4.02992,   20.4308E-03
C:/temp/dataset/7/3_10.odb,Step-1,Increment      1: Step Time =    1.000,"PART-1-1",           380,       8.10868,       5.26217,            0.,NA,NA,"",       14.9664,      -14.1361,      -4.91561,   19.2669E-03
C:/temp/dataset/7/3_10.odb,Step-1,Increment      1: Step Time =    1.000,"PART-1-1",           381,       7.08888,       6.39331,            0.,NA,NA,"",       15.7463,      -14.6336,      -5.81414,   18.0445E-03
C:/temp/dataset/7/3_10.odb,Step-1,Increment      1: Step Time =    1.000,"PART-1-1",           382,            5.,       6.45833,            0.,NA,NA,"",       15.9204,      -14.2253,      -7.14833,   20.4349E-03
C:/temp/dataset/7/3_10.odb,Step-1,Increment      1: Step Time =    1.000,"PART-1-1",           383,           15.,         16.25,            0.,NA,NA,"",       22.8742,      -22.6614,      -3.11294,   1.56575E-03
C:/temp/dataset/7/3_10.odb,Step-1,Increment      1: Step Time =    1.000,"PART-1-1",           384,       13.6214,       17.6671,            0.,NA,NA,"",       23.6403,      -23.2469,      -4.29446,   956.292E-06
C:/temp/dataset/7/3_10.odb,Step-1,Increment      1: Step Time =    1.000,"PART-1-1",           385,       12.4694,       16.3805,            0.,NA,NA,"",       22.6791,      -22.1797,      -4.73281,   2.13960E-03
C:/temp/dataset/7/3_10.odb,Step-1,Increment      1: Step Time =    1.000,"PART-1-1",           386,       10.0881,       9.74649,            0.,NA,NA,"",       18.0494,      -17.4181,      -4.73202,   14.4525E-03
C:/temp/dataset/7/3_10.odb,Step-1,Increment      1: Step Time =    1.000,"PART-1-1",           387,       9.10561,       8.57814,            0.,NA,NA,"",       17.2173,      -16.4532,      -5.07217,   15.7536E-03
C:/temp/dataset/7/3_10.odb,Step-1,Increment      1: Step Time =    1.000,"PART-1-1",           388,       10.1162,       7.46436,            0.,NA,NA,"",       16.4997,      -15.9590,      -4.18941,   18.2753E-03
C:/temp/dataset/7/3_10.odb,Step-1,Increment      1: Step Time =    1.000,"PART-1-1",           389,       11.0986,       8.63272,            0.,NA,NA,"",       17.3579,      -16.9254,      -3.85065,   17.7894E-03
C:/temp/dataset/7/3_10.odb,Step-1,Increment      1: Step Time =    1.000,"PART-1-1",           390,       9.96644,       19.4124,            0.,NA,NA,"",       24.5457,      -23.5295,      -6.98960,   385.620E-06
C:/temp/dataset/7/3_10.odb,Step-1,Increment      1: Step Time =    1.000,"PART-1-1",           391,       10.9020,       20.3065,            0.,NA,NA,"",       25.1832,      -24.3030,      -6.59987,   339.437E-06
C:/temp/dataset/7/3_10.odb,Step-1,Increment      1: Step Time =    1.000,"PART-1-1",           392,       10.1153,       21.2880,            0.,NA,NA,"",       25.8049,      -24.7459,      -7.31656,   285.560E-06
C:/temp/dataset/7/3_10.odb,Step-1,Increment      1: Step Time =    1.000,"PART-1-1",           393,       9.17975,       20.3940,            0.,NA,NA,"",       25.1805,      -23.9723,      -7.70647,   352.333E-06
C:/temp/dataset/7/3_10.odb,Step-1,Increment      1: Step Time =    1.000,"PART-1-1",           394,           15.,         28.75,            0.,NA,NA,"",       31.1152,      -30.5492,      -5.90789,   1.84824E-06
C:/temp/dataset/7/3_10.odb,Step-1,Increment      1: Step Time =    1.000,"PART-1-1",           395,       14.0625,           30.,            0.,NA,NA,"",       31.8575,      -31.1277,      -6.77973,   2.06465E-06
C:/temp/dataset/7/3_10.odb,Step-1,Increment      1: Step Time =    1.000,"PART-1-1",           396,       13.1487,       28.7914,            0.,NA,NA,"",       30.9813,      -30.1602,      -7.08535,   12.0724E-06
C:/temp/dataset/7/3_10.odb,Step-1,Increment      1: Step Time =    1.000,"PART-1-1",           397,       14.0862,       27.5414,            0.,NA,NA,"",       30.2272,      -29.5817,      -6.21350,   12.3770E-06
C:/temp/dataset/7/3_10.odb,Step-1,Increment      1: Step Time =    1.000,"PART-1-1",           398,       12.2440,       25.2848,            0.,NA,NA,"",       28.5826,      -27.7447,      -6.86992,   68.3986E-06
C:/temp/dataset/7/3_10.odb,Step-1,Increment      1: Step Time =    1.000,"PART-1-1",           399,       13.1763,       26.3811,            0.,NA,NA,"",       29.3797,      -28.6454,      -6.52746,   47.3993E-06
C:/temp/dataset/7/3_10.odb,Step-1,Increment      1: Step Time =    1.000,"PART-1-1",           400,       12.2376,       27.6217,            0.,NA,NA,"",       30.1399,      -29.2178,      -7.39794,   26.5603E-06
C:/temp/dataset/7/3_10.odb,Step-1,Increment      1: Step Time =    1.000,"PART-1-1",           401,       11.3053,       26.5254,            0.,NA,NA,"",       29.3559,      -28.3171,      -7.74042,   53.3099E-06
C:/temp/dataset/7/3_10.odb,Step-1,Increment      1: Step Time =    1.000,"PART-1-1",           402,       12.1875,           30.,            0.,NA,NA,"",       31.7230,      -30.7073,      -7.96286,   7.86503E-06
C:/temp/dataset/7/3_10.odb,Step-1,Increment      1: Step Time =    1.000,"PART-1-1",           403,        6.5625,           30.,            0.,NA,NA,"",       31.6166,      -29.4462,      -11.5123,   12.1035E-06
C:/temp/dataset/7/3_10.odb,Step-1,Increment      1: Step Time =    1.000,"PART-1-1",           404,       5.40000,       28.6589,            0.,NA,NA,"",       30.7539,      -28.3393,      -11.9451,   13.5532E-06
C:/temp/dataset/7/3_10.odb,Step-1,Increment      1: Step Time =    1.000,"PART-1-1",           405,       6.32063,       27.5176,            0.,NA,NA,"",       29.9609,      -27.8256,      -11.1083,   24.3555E-06
C:/temp/dataset/7/3_10.odb,Step-1,Increment      1: Step Time =    1.000,"PART-1-1",           406,        2.8125,           30.,            0.,NA,NA,"",       31.7943,      -28.6053,      -13.8786,   5.38554E-06
C:/temp/dataset/7/3_10.odb,Step-1,Increment      1: Step Time =    1.000,"PART-1-1",           407,       1.86631,       29.3706,            0.,NA,NA,"",       31.4525,      -27.9961,      -14.3345,   4.55481E-06
C:/temp/dataset/7/3_10.odb,Step-1,Increment      1: Step Time =    1.000,"PART-1-1",           408,       2.52123,       28.3750,            0.,NA,NA,"",       30.7359,      -27.5147,      -13.6980,   4.37941E-06
C:/temp/dataset/7/3_10.odb,Step-1,Increment      1: Step Time =    1.000,"PART-1-1",           409,       3.46742,       29.0044,            0.,NA,NA,"",       31.0855,      -28.1240,      -13.2421,   4.09433E-06
C:/temp/dataset/7/3_10.odb,Step-1,Increment      1: Step Time =    1.000,"PART-1-1",           410,       1.19073,       28.4486,            0.,NA,NA,"",       30.9044,      -27.2628,      -14.5541,   1.91497E-06
C:/temp/dataset/7/3_10.odb,Step-1,Increment      1: Step Time =    1.000,"PART-1-1",           411,      -2.48443,       27.9761,            0.,NA,NA,"",       31.0559,      -26.1406,      -16.7671,   1.92434E-06
C:/temp/dataset/7/3_10.odb,Step-1,Increment      1: Step Time =    1.000,"PART-1-1",           412,       -2.8125,           30.,            0.,NA,NA,"",       32.4258,      -27.3441,      -17.4279,   2.19150E-06
C:/temp/dataset/7/3_10.odb,Step-1,Increment      1: Step Time =    1.000,"PART-1-1",           413,      -7.28733,       29.0238,            0.,NA,NA,"",       32.6048,      -25.7249,      -20.0326,   211.195E-09
C:/temp/dataset/7/3_10.odb,Step-1,Increment      1: Step Time =    1.000,"PART-1-1",           414,      -6.19423,       28.1363,            0.,NA,NA,"",       31.8143,      -25.4099,      -19.1439,   588.900E-09
C:/temp/dataset/7/3_10.odb,Step-1,Increment      1: Step Time =    1.000,"PART-1-1",           415,       -6.5625,           30.,            0.,NA,NA,"",       33.0792,      -26.5034,      -19.7941,   329.421E-09
C:/temp/dataset/7/3_10.odb,Step-1,Increment      1: Step Time =    1.000,"PART-1-1",           416,      -11.8079,       27.5253,            0.,NA,NA,"",       32.7609,      -23.7658,      -22.5491,   16.7013E-09
C:/temp/dataset/7/3_10.odb,Step-1,Increment      1: Step Time =    1.000,"PART-1-1",           417,      -12.6125,       26.1842,            0.,NA,NA,"",       32.1700,      -22.7392,      -22.7560,   10.0012E-09
C:/temp/dataset/7/3_10.odb,Step-1,Increment      1: Step Time =    1.000,"PART-1-1",           418,      -8.13992,       23.4434,            0.,NA,NA,"",       29.2881,      -22.0125,      -19.3194,   253.989E-09
C:/temp/dataset/7/3_10.odb,Step-1,Increment      1: Step Time =    1.000,"PART-1-1",           419,       -8.4375,           30.,            0.,NA,NA,"",       33.4718,      -26.0830,      -20.9772,   76.5240E-09
C:/temp/dataset/7/3_10.odb,Step-1,Increment      1: Step Time =    1.000,"PART-1-1",           420,      -8.00049,       27.9480,            0.,NA,NA,"",       32.0786,      -24.8862,      -20.2414,   259.554E-09
C:/temp/dataset/7/3_10.odb,Step-1,Increment      1: Step Time =    1.000,"PART-1-1",           421,      -12.1875,           30.,            0.,NA,NA,"",       34.3814,      -25.2422,      -23.3434,   12.8521E-09
C:/temp/dataset/7/3_10.odb,Step-1,Increment      1: Step Time =    1.000,"PART-1-1",           422,          -15.,         26.25,            0.,NA,NA,"",       32.9279,      -22.2454,      -24.2773,   17.0800E-09
C:/temp/dataset/7/3_10.odb,Step-1,Increment      1: Step Time =    1.000,"PART-1-1",           423,  -614.199E-03,       25.3895,            0.,NA,NA,"",       29.0966,      -24.9278,      -15.0071,   2.45289E-06
C:/temp/dataset/7/3_10.odb,Step-1,Increment      1: Step Time =    1.000,"PART-1-1",           424,      -1.97220,       26.8586,            0.,NA,NA,"",       30.2497,      -25.5503,      -16.1933,   2.07093E-06
C:/temp/dataset/7/3_10.odb,Step-1,Increment      1: Step Time =    1.000,"PART-1-1",           425,      -1.74113,       25.3247,            0.,NA,NA,"",       29.2139,      -24.6343,      -15.7036,   2.71598E-06
C:/temp/dataset/7/3_10.odb,Step-1,Increment      1: Step Time =    1.000,"PART-1-1",           426,       8.18659,       21.6045,            0.,NA,NA,"",       25.9796,      -24.5132,      -8.60495,   240.499E-06
C:/temp/dataset/7/3_10.odb,Step-1,Increment      1: Step Time =    1.000,"PART-1-1",           427,       9.25192,       22.4602,            0.,NA,NA,"",       26.5648,      -25.2919,      -8.12445,   216.073E-06
C:/temp/dataset/7/3_10.odb,Step-1,Increment      1: Step Time =    1.000,"PART-1-1",           428,       8.38526,       23.6138,            0.,NA,NA,"",       27.3258,      -25.8254,      -8.93014,   122.984E-06
C:/temp/dataset/7/3_10.odb,Step-1,Increment      1: Step Time =    1.000,"PART-1-1",           429,       7.31993,       22.7581,            0.,NA,NA,"",       26.7562,      -25.0466,      -9.41063,   167.271E-06
C:/temp/dataset/7/3_10.odb,Step-1,Increment      1: Step Time =    1.000,"PART-1-1",           430,           15.,         26.25,            0.,NA,NA,"",       29.4610,      -28.9716,      -5.34732,   29.4295E-06
C:/temp/dataset/7/3_10.odb,Step-1,Increment      1: Step Time =    1.000,"PART-1-1",           431,        4.6875,           30.,            0.,NA,NA,"",       31.6807,      -29.0258,      -12.6955,   1.80022E-06
C:/temp/dataset/7/3_10.odb,Step-1,Increment      1: Step Time =    1.000,"PART-1-1",           432,       9.38339,       24.5308,            0.,NA,NA,"",       27.9533,      -26.6277,      -8.50587,   109.136E-06
C:/temp/dataset/7/3_10.odb,Step-1,Increment      1: Step Time =    1.000,"PART-1-1",           433,       8.53172,       25.6694,            0.,NA,NA,"",       28.7031,      -27.1552,      -9.29865,   57.3202E-06
C:/temp/dataset/7/3_10.odb,Step-1,Increment      1: Step Time =    1.000,"PART-1-1",           434,       7.53359,       24.7524,            0.,NA,NA,"",       28.0892,      -26.3528,      -9.72291,   82.2339E-06
C:/temp/dataset/7/3_10.odb,Step-1,Increment      1: Step Time =    1.000,"PART-1-1",           435,     937.5E-03,           30.,            0.,NA,NA,"",       31.9569,      -28.1849,      -15.0617,   6.14543E-06
C:/temp/dataset/7/3_10.odb,Step-1,Increment      1: Step Time =    1.000,"PART-1-1",           436,       5.64845,       26.5466,            0.,NA,NA,"",       29.3323,      -27.0621,      -11.3148,   34.5171E-06
C:/temp/dataset/7/3_10.odb,Step-1,Increment      1: Step Time =    1.000,"PART-1-1",           437,       4.65082,       24.6490,            0.,NA,NA,"",       28.1096,      -25.6411,      -11.5189,   44.9998E-06
C:/temp/dataset/7/3_10.odb,Step-1,Increment      1: Step Time =    1.000,"PART-1-1",           438,       5.82711,       24.9927,            0.,NA,NA,"",       28.2869,      -26.1217,      -10.8537,   52.2475E-06
C:/temp/dataset/7/3_10.odb,Step-1,Increment      1: Step Time =    1.000,"PART-1-1",           439,      -3.57200,       27.5772,            0.,NA,NA,"",       30.9706,      -25.6451,      -17.3639,   1.46084E-06
C:/temp/dataset/7/3_10.odb,Step-1,Increment      1: Step Time =    1.000,"PART-1-1",           440,      -3.05977,       26.4597,            0.,NA,NA,"",       30.1604,      -25.0548,      -16.7902,   1.85157E-06
C:/temp/dataset/7/3_10.odb,Step-1,Increment      1: Step Time =    1.000,"PART-1-1",           441,      -4.23358,       26.7178,            0.,NA,NA,"",       30.5301,      -24.9545,      -17.5887,   1.37330E-06
C:/temp/dataset/7/3_10.odb,Step-1,Increment      1: Step Time =    1.000,"PART-1-1",           442,      -5.07335,       27.3652,            0.,NA,NA,"",       31.1019,      -25.1747,      -18.2637,   886.199E-09
C:/temp/dataset/7/3_10.odb,Step-1,Increment      1: Step Time =    1.000,"PART-1-1",           443,      -5.65848,       26.3267,            0.,NA,NA,"",       30.5508,      -24.3882,      -18.4001,   876.104E-09
C:/temp/dataset/7/3_10.odb,Step-1,Increment      1: Step Time =    1.000,"PART-1-1",           444,      -6.77936,       27.0978,            0.,NA,NA,"",       31.2737,      -24.6235,      -19.2802,   457.118E-09
C:/temp/dataset/7/3_10.odb,Step-1,Increment      1: Step Time =    1.000,"PART-1-1",           445,       13.0726,       6.26892,            0.,NA,NA,"",       15.9741,      -15.8356,      -2.09873,   20.0656E-03
C:/temp/dataset/7/3_10.odb,Step-1,Increment      1: Step Time =    1.000,"PART-1-1",           446,       14.0382,       5.02867,            0.,NA,NA,"",       15.3015,      -15.2516,      -1.23449,   24.1003E-03
C:/temp/dataset/7/3_10.odb,Step-1,Increment      1: Step Time =    1.000,"PART-1-1",           447,           15.,          6.25,            0.,NA,NA,"",       16.2907,      -16.2663,  -890.894E-03,   24.4574E-03
C:/temp/dataset/7/3_10.odb,Step-1,Increment      1: Step Time =    1.000,"PART-1-1",           448,       14.0344,       7.49025,            0.,NA,NA,"",       16.9418,      -16.8489,      -1.77216,   19.0630E-03
C:/temp/dataset/7/3_10.odb,Step-1,Increment      1: Step Time =    1.000,"PART-1-1",           449,            5.,       12.7083,            0.,NA,NA,"",       20.1082,      -18.1693,      -8.61478,   1.41862E-03
C:/temp/dataset/7/3_10.odb,Step-1,Increment      1: Step Time =    1.000,"PART-1-1",           450,       6.97129,       12.7632,            0.,NA,NA,"",       20.0557,      -18.6491,      -7.37838,   4.42652E-03
C:/temp/dataset/7/3_10.odb,Step-1,Increment      1: Step Time =    1.000,"PART-1-1",           451,       8.08110,       9.66220,            0.,NA,NA,"",       17.9415,      -16.9216,      -5.96303,   11.7494E-03
C:/temp/dataset/7/3_10.odb,Step-1,Increment      1: Step Time =    1.000,"PART-1-1",           452,       8.10192,       7.46894,            0.,NA,NA,"",       16.4536,      -15.5294,      -5.43674,   16.0362E-03
C:/temp/dataset/7/3_10.odb,Step-1,Increment      1: Step Time =    1.000,"PART-1-1",           453,            5.,        -1.875,            0.,NA,NA,"",       10.6107,      -9.27718,      -5.14975,   58.5150E-03
C:/temp/dataset/7/3_10.odb,Step-1,Increment      1: Step Time =    1.000,"PART-1-1",           454,       6.91011,      -2.19684,            0.,NA,NA,"",       10.2092,      -9.41584,      -3.94583,   38.7753E-03
C:/temp/dataset/7/3_10.odb,Step-1,Increment      1: Step Time =    1.000,"PART-1-1",           455,       11.0205,  -751.161E-03,            0.,NA,NA,"",       11.1497,      -10.9901,      -1.87938,   22.4613E-03
C:/temp/dataset/7/3_10.odb,Step-1,Increment      1: Step Time =    1.000,"PART-1-1",           456,       13.1408,      -16.1676,            0.,NA,NA,"",       3.29954,      -3.20011,   803.889E-03,   82.3960E-03
C:/temp/dataset/7/3_10.odb,Step-1,Increment      1: Step Time =    1.000,"PART-1-1",           457,       14.0839,      -17.4497,            0.,NA,NA,"",       3.00165,      -2.78761,       1.11315,   109.236E-03
C:/temp/dataset/7/3_10.odb,Step-1,Increment      1: Step Time =    1.000,"PART-1-1",           458,           15.,        -16.25,            0.,NA,NA,"",       3.67962,      -3.37650,       1.46249,   126.263E-03
C:/temp/dataset/7/3_10.odb,Step-1,Increment      1: Step Time =    1.000,"PART-1-1",           459,            5.,       -14.375,            0.,NA,NA,"",       4.16960,      -3.32795,      -2.51202,   113.231E-03
C:/temp/dataset/7/3_10.odb,Step-1,Increment      1: Step Time =    1.000,"PART-1-1",           460,       6.11916,      -15.3567,            0.,NA,NA,"",       3.54076,      -3.00774,      -1.86828,   89.8297E-03
C:/temp/dataset/7/3_10.odb,Step-1,Increment      1: Step Time =    1.000,"PART-1-1",           461,       13.0403,       1.40949,            0.,NA,NA,"",       12.7747,      -12.7258,      -1.11604,   30.1799E-03
C:/temp/dataset/7/3_10.odb,Step-1,Increment      1: Step Time =    1.000,"PART-1-1",           462,       14.0142,   96.5788E-03,            0.,NA,NA,"",       12.1109,      -12.1071,  -305.156E-03,   41.7709E-03
C:/temp/dataset/7/3_10.odb,Step-1,Increment      1: Step Time =    1.000,"PART-1-1",           463,           15.,          1.25,            0.,NA,NA,"",       13.0482,      -13.0480,   76.9625E-03,   45.9988E-03
C:/temp/dataset/7/3_10.odb,Step-1,Increment      1: Step Time =    1.000,"PART-1-1",           464,       14.0261,       2.56291,            0.,NA,NA,"",       13.6877,      -13.6672,  -748.142E-03,   32.9839E-03
C:/temp/dataset/7/3_10.odb,Step-1,Increment      1: Step Time =    1.000,"PART-1-1",           465,            5.,      -10.2083,            0.,NA,NA,"",       6.04609,      -5.05334,      -3.31948,   95.1624E-03
C:/temp/dataset/7/3_10.odb,Step-1,Increment      1: Step Time =    1.000,"PART-1-1",           466,       6.86187,      -9.97015,            0.,NA,NA,"",       5.86632,      -5.33906,      -2.43068,   58.4809E-03
C:/temp/dataset/7/3_10.odb,Step-1,Increment      1: Step Time =    1.000,"PART-1-1",           467,            5.,      -24.7917,            0.,NA,NA,"",   946.489E-03,  -527.652E-03,  -785.764E-03,   155.409E-03
C:/temp/dataset/7/3_10.odb,Step-1,Increment      1: Step Time =    1.000,"PART-1-1",           468,       6.13477,      -25.7685,            0.,NA,NA,"",   574.997E-03,  -332.052E-03,  -469.428E-03,   120.794E-03
C:/temp/dataset/7/3_10.odb,Step-1,Increment      1: Step Time =    1.000,"PART-1-1",           469,       13.1299,      -20.9468,            0.,NA,NA,"",       1.66306,      -1.50394,   709.865E-03,   96.0053E-03
C:/temp/dataset/7/3_10.odb,Step-1,Increment      1: Step Time =    1.000,"PART-1-1",           470,       14.0295,      -22.3095,            0.,NA,NA,"",       1.45435,      -1.19281,   832.071E-03,   125.587E-03
C:/temp/dataset/7/3_10.odb,Step-1,Increment      1: Step Time =    1.000,"PART-1-1",           471,           15.,        -21.25,            0.,NA,NA,"",       1.94699,      -1.57221,       1.14845,   148.152E-03
C:/temp/dataset/7/3_10.odb,Step-1,Increment      1: Step Time =    1.000,"PART-1-1",           472,       14.1003,      -19.8873,            0.,NA,NA,"",       2.16829,      -1.91551,       1.01604,   118.636E-03
C:/temp/dataset/7/3_10.odb,Step-1,Increment      1: Step Time =    1.000,"PART-1-1",           473,            5.,       -26.875,            0.,NA,NA,"",   548.741E-03,  -275.877E-03,  -474.351E-03,   164.078E-03
C:/temp/dataset/7/3_10.odb,Step-1,Increment      1: Step Time =    1.000,"PART-1-1",           474,       7.35824,      -26.7740,            0.,NA,NA,"",   278.949E-03,  -166.669E-03,  -223.682E-03,   80.6866E-03
C:/temp/dataset/7/3_10.odb,Step-1,Increment      1: Step Time =    1.000,"PART-1-1",           475,       11.2665,      -23.4125,            0.,NA,NA,"",   790.293E-03,  -756.447E-03,   228.803E-03,   51.4348E-03
C:/temp/dataset/7/3_10.odb,Step-1,Increment      1: Step Time =    1.000,"PART-1-1",           476,       10.8283,      -24.9299,            0.,NA,NA,"",   459.112E-03,  -440.463E-03,   129.521E-03,   41.7299E-03
C:/temp/dataset/7/3_10.odb,Step-1,Increment      1: Step Time =    1.000,"PART-1-1",           477,            5.,      -16.4583,            0.,NA,NA,"",       3.35214,      -2.58278,      -2.13683,   122.141E-03
C:/temp/dataset/7/3_10.odb,Step-1,Increment      1: Step Time =    1.000,"PART-1-1",           478,       7.29529,      -16.4772,            0.,NA,NA,"",       2.92905,      -2.64799,      -1.25200,   63.9836E-03
C:/temp/dataset/7/3_10.odb,Step-1,Increment      1: Step Time =    1.000,"PART-1-1",           479,            5.,       18.9583,            0.,NA,NA,"",       24.2921,      -22.1277,      -10.0234,   727.898E-06
C:/temp/dataset/7/3_10.odb,Step-1,Increment      1: Step Time =    1.000,"PART-1-1",           480,       6.05050,       17.7875,            0.,NA,NA,"",       23.4600,      -21.6242,      -9.09761,   458.741E-06
C:/temp/dataset/7/3_10.odb,Step-1,Increment      1: Step Time =    1.000,"PART-1-1",           481,       7.11573,       18.6629,            0.,NA,NA,"",       24.0174,      -22.4167,      -8.62131,   252.133E-06
C:/temp/dataset/7/3_10.odb,Step-1,Increment      1: Step Time =    1.000,"PART-1-1",           482,       6.06524,       19.8338,            0.,NA,NA,"",       24.8287,      -22.9198,      -9.54720,   307.441E-06
C:/temp/dataset/7/3_10.odb,Step-1,Increment      1: Step Time =    1.000,"PART-1-1",           483,       6.98524,       16.7251,            0.,NA,NA,"",       22.7210,      -21.1631,      -8.26824,   298.687E-06
C:/temp/dataset/7/3_10.odb,Step-1,Increment      1: Step Time =    1.000,"PART-1-1",           484,            5.,        16.875,            0.,NA,NA,"",       22.9000,      -20.8107,      -9.55645,   914.607E-06
C:/temp/dataset/7/3_10.odb,Step-1,Increment      1: Step Time =    1.000,"PART-1-1",           485,       7.88091,       13.8682,            0.,NA,NA,"",       20.7897,      -19.5554,      -7.05690,   3.32049E-03
C:/temp/dataset/7/3_10.odb,Step-1,Increment      1: Step Time =    1.000,"PART-1-1",           486,       7.65947,       15.6945,            0.,NA,NA,"",       22.0199,      -20.6630,      -7.61014,   1.14911E-03
C:/temp/dataset/7/3_10.odb,Step-1,Increment      1: Step Time =    1.000,"PART-1-1",           487,       8.92157,       12.9075,            0.,NA,NA,"",       20.1508,      -19.1786,      -6.18360,   6.31571E-03
C:/temp/dataset/7/3_10.odb,Step-1,Increment      1: Step Time =    1.000,"PART-1-1",           488,       9.98918,       11.9956,            0.,NA,NA,"",       19.5705,      -18.8371,      -5.30745,   9.14592E-03
C:/temp/dataset/7/3_10.odb,Step-1,Increment      1: Step Time =    1.000,"PART-1-1",           489,       10.7968,       13.3004,            0.,NA,NA,"",       20.4958,      -19.8519,      -5.09681,   7.28750E-03
C:/temp/dataset/7/3_10.odb,Step-1,Increment      1: Step Time =    1.000,"PART-1-1",           490,       13.0565,       8.69239,            0.,NA,NA,"",       17.6062,      -17.4055,      -2.65126,   18.7715E-03
C:/temp/dataset/7/3_10.odb,Step-1,Increment      1: Step Time =    1.000,"PART-1-1",           491,           15.,          8.75,            0.,NA,NA,"",       17.9614,      -17.9031,      -1.44634,   15.7911E-03
C:/temp/dataset/7/3_10.odb,Step-1,Increment      1: Step Time =    1.000,"PART-1-1",           492,       14.0220,       9.95215,            0.,NA,NA,"",       18.5938,      -18.4471,      -2.33100,   13.8417E-03
C:/temp/dataset/7/3_10.odb,Step-1,Increment      1: Step Time =    1.000,"PART-1-1",           493,       8.15713,      -6.43409,            0.,NA,NA,"",       7.65707,      -7.27051,      -2.40216,   32.6720E-03
C:/temp/dataset/7/3_10.odb,Step-1,Increment      1: Step Time =    1.000,"PART-1-1",           494,       7.55707,      -5.50995,            0.,NA,NA,"",       8.20886,      -7.68058,      -2.89725,   38.0834E-03
C:/temp/dataset/7/3_10.odb,Step-1,Increment      1: Step Time =    1.000,"PART-1-1",           495,       13.0039,      -1.03047,            0.,NA,NA,"",       11.2234,      -11.2018,  -694.636E-03,   36.4122E-03
C:/temp/dataset/7/3_10.odb,Step-1,Increment      1: Step Time =    1.000,"PART-1-1",           496,       13.9897,      -2.37705,            0.,NA,NA,"",       10.5747,      -10.5744,   81.3808E-03,   50.6191E-03
C:/temp/dataset/7/3_10.odb,Step-1,Increment      1: Step Time =    1.000,"PART-1-1",           497,           15.,         -1.25,            0.,NA,NA,"",       11.4868,      -11.4765,   485.672E-03,   57.1927E-03
C:/temp/dataset/7/3_10.odb,Step-1,Increment      1: Step Time =    1.000,"PART-1-1",           498,       11.0188,      -11.3444,            0.,NA,NA,"",       5.14101,      -5.13172,  -308.947E-03,   31.0103E-03
C:/temp/dataset/7/3_10.odb,Step-1,Increment      1: Step Time =    1.000,"PART-1-1",           499,       9.94563,      -10.3262,            0.,NA,NA,"",       5.57705,      -5.50225,  -910.348E-03,   19.7491E-03
C:/temp/dataset/7/3_10.odb,Step-1,Increment      1: Step Time =    1.000,"PART-1-1",           500,       9.07908,      -11.6768,            0.,NA,NA,"",       4.89456,      -4.76208,      -1.13108,   24.6889E-03
C:/temp/dataset/7/3_10.odb,Step-1,Increment      1: Step Time =    1.000,"PART-1-1",           501,       10.1523,      -12.6950,            0.,NA,NA,"",       4.43598,      -4.40202,  -547.848E-03,   20.8785E-03
C:/temp/dataset/7/3_10.odb,Step-1,Increment      1: Step Time =    1.000,"PART-1-1",           502,       11.2699,       24.2837,            0.,NA,NA,"",       27.8573,      -26.8946,      -7.25999,   125.757E-06
C:/temp/dataset/7/3_10.odb,Step-1,Increment      1: Step Time =    1.000,"PART-1-1",           503,       12.1787,       22.9892,            0.,NA,NA,"",       27.0486,      -26.2814,      -6.39622,   161.921E-06
C:/temp/dataset/7/3_10.odb,Step-1,Increment      1: Step Time =    1.000,"PART-1-1",           504,           15.,         -3.75,            0.,NA,NA,"",       9.97944,      -9.94453,   834.095E-03,   68.6238E-03
C:/temp/dataset/7/3_10.odb,Step-1,Increment      1: Step Time =    1.000,"PART-1-1",           505,       12.9359,      -3.49956,            0.,NA,NA,"",       9.70184,      -9.69611,  -333.563E-03,   42.3922E-03
C:/temp/dataset/7/3_10.odb,Step-1,Increment      1: Step Time =    1.000,"PART-1-1",           506,           15.,        -11.25,            0.,NA,NA,"",       5.90341,      -5.72225,       1.45123,   103.371E-03
C:/temp/dataset/7/3_10.odb,Step-1,Increment      1: Step Time =    1.000,"PART-1-1",           507,       12.9838,      -11.1958,            0.,NA,NA,"",       5.48289,      -5.45537,   548.660E-03,   64.6336E-03
C:/temp/dataset/7/3_10.odb,Step-1,Increment      1: Step Time =    1.000,"PART-1-1",           508,           15.,         11.25,            0.,NA,NA,"",       19.6142,      -19.5112,      -2.00750,   10.4393E-03
C:/temp/dataset/7/3_10.odb,Step-1,Increment      1: Step Time =    1.000,"PART-1-1",           509,       12.9950,       11.1325,            0.,NA,NA,"",       19.2424,      -18.9680,      -3.23816,   13.3948E-03
C:/temp/dataset/7/3_10.odb,Step-1,Increment      1: Step Time =    1.000,"PART-1-1",           510,           15.,          3.75,            0.,NA,NA,"",       14.6523,      -14.6473,  -384.537E-03,   35.2016E-03
C:/temp/dataset/7/3_10.odb,Step-1,Increment      1: Step Time =    1.000,"PART-1-1",           511,       13.0643,       3.84158,            0.,NA,NA,"",       14.3605,      -14.2728,      -1.58469,   23.9731E-03
C:/temp/dataset/7/3_10.odb,Step-1,Increment      1: Step Time =    1.000,"PART-1-1",           512,           15.,        -18.75,            0.,NA,NA,"",       2.74851,      -2.39724,       1.34445,   137.379E-03
C:/temp/dataset/7/3_10.odb,Step-1,Increment      1: Step Time =    1.000,"PART-1-1",           513,       13.1842,      -18.5870,            0.,NA,NA,"",       2.41458,      -2.27733,   802.480E-03,   90.6949E-03
C:/temp/dataset/7/3_10.odb,Step-1,Increment      1: Step Time =    1.000,"PART-1-1",           514,       13.5513,      -24.7801,            0.,NA,NA,"",   804.603E-03,  -603.655E-03,   531.964E-03,   119.207E-03
C:/temp/dataset/7/3_10.odb,Step-1,Increment      1: Step Time =    1.000,"PART-1-1",           515,       12.2413,      -25.9996,            0.,NA,NA,"",   418.532E-03,  -325.473E-03,   263.129E-03,   83.9901E-03
C:/temp/dataset/7/3_10.odb,Step-1,Increment      1: Step Time =    1.000,"PART-1-1",           516,           15.,        -26.25,            0.,NA,NA,"",   726.128E-03,  -459.971E-03,   561.861E-03,   165.839E-03
C:/temp/dataset/7/3_10.odb,Step-1,Increment      1: Step Time =    1.000,"PART-1-1",           517,           15.,        -23.75,            0.,NA,NA,"",       1.27482,  -920.885E-03,   881.555E-03,   157.142E-03
C:/temp/dataset/7/3_10.odb,Step-1,Increment      1: Step Time =    1.000,"PART-1-1",           518,       12.5809,      -23.3397,            0.,NA,NA,"",   965.073E-03,  -841.856E-03,   471.853E-03,   88.0466E-03
C:/temp/dataset/7/3_10.odb,Step-1,Increment      1: Step Time =    1.000,"PART-1-1",           519,       9.49127,      -18.7202,            0.,NA,NA,"",       1.99676,      -1.97382,  -301.815E-03,   21.1368E-03
C:/temp/dataset/7/3_10.odb,Step-1,Increment      1: Step Time =    1.000,"PART-1-1",           520,       8.36047,      -17.5836,            0.,NA,NA,"",       2.42404,      -2.30422,  -752.665E-03,   40.5343E-03
C:/temp/dataset/7/3_10.odb,Step-1,Increment      1: Step Time =    1.000,"PART-1-1",           521,       11.5260,      -20.5498,            0.,NA,NA,"",       1.54450,      -1.51126,   318.689E-03,   53.3975E-03
C:/temp/dataset/7/3_10.odb,Step-1,Increment      1: Step Time =    1.000,"PART-1-1",           522,       10.5221,      -19.7870,            0.,NA,NA,"",       1.68615,      -1.68558,   43.5269E-03,   28.9904E-03
C:/temp/dataset/7/3_10.odb,Step-1,Increment      1: Step Time =    1.000,"PART-1-1",           523,       11.0260,      -21.8608,            0.,NA,NA,"",       1.13567,      -1.11859,   196.230E-03,   42.7012E-03
C:/temp/dataset/7/3_10.odb,Step-1,Increment      1: Step Time =    1.000,"PART-1-1",           524,       7.98010,      -10.7619,            0.,NA,NA,"",       5.37610,      -5.07883,      -1.76291,   40.4513E-03
C:/temp/dataset/7/3_10.odb,Step-1,Increment      1: Step Time =    1.000,"PART-1-1",           525,       8.65118,      -4.78401,            0.,NA,NA,"",       8.59280,      -8.23860,      -2.44166,   26.2123E-03
C:/temp/dataset/7/3_10.odb,Step-1,Increment      1: Step Time =    1.000,"PART-1-1",           526,       7.84665,      -3.50518,            0.,NA,NA,"",       9.36808,      -8.82782,      -3.13536,   31.3663E-03
C:/temp/dataset/7/3_10.odb,Step-1,Increment      1: Step Time =    1.000,"PART-1-1",           527,       9.43586,      -6.49799,            0.,NA,NA,"",       7.61331,      -7.41590,      -1.72247,   20.0758E-03
C:/temp/dataset/7/3_10.odb,Step-1,Increment      1: Step Time =    1.000,"PART-1-1",           528,       10.6293,      -5.79077,            0.,NA,NA,"",       8.07437,      -7.98240,      -1.21520,   22.9868E-03
C:/temp/dataset/7/3_10.odb,Step-1,Increment      1: Step Time =    1.000,"PART-1-1",           529,       11.1144,       3.95682,            0.,NA,NA,"",       14.2090,      -13.9325,      -2.78948,   20.4265E-03
C:/temp/dataset/7/3_10.odb,Step-1,Increment      1: Step Time =    1.000,"PART-1-1",           530,       10.1270,       5.17226,            0.,NA,NA,"",       14.9525,      -14.4979,      -3.65894,   19.4420E-03
C:/temp/dataset/7/3_10.odb,Step-1,Increment      1: Step Time =    1.000,"PART-1-1",           531,       9.05317,       10.7826,            0.,NA,NA,"",       18.7143,      -17.8522,      -5.61490,   11.1084E-03
C:/temp/dataset/7/3_10.odb,Step-1,Increment      1: Step Time =    1.000,"PART-1-1",           532,       8.01195,       11.8024,            0.,NA,NA,"",       19.3934,      -18.2710,      -6.50207,   7.12050E-03
C:/temp/dataset/7/3_10.odb,Step-1,Increment      1: Step Time =    1.000,"PART-1-1",           533,       11.0241,       10.9595,            0.,NA,NA,"",       18.9316,      -18.4068,      -4.42683,   12.9362E-03
C:/temp/dataset/7/3_10.odb,Step-1,Increment      1: Step Time =    1.000,"PART-1-1",           534,       8.35051,       17.3209,            0.,NA,NA,"",       23.1113,      -21.8468,      -7.54006,   363.179E-06
C:/temp/dataset/7/3_10.odb,Step-1,Increment      1: Step Time =    1.000,"PART-1-1",           535,       12.5952,       19.1415,            0.,NA,NA,"",       24.5204,      -23.9472,      -5.27063,   429.086E-06
C:/temp/dataset/7/3_10.odb,Step-1,Increment      1: Step Time =    1.000,"PART-1-1",           536,           15.,         18.75,            0.,NA,NA,"",       24.5142,      -24.2383,      -3.66768,   888.802E-06
C:/temp/dataset/7/3_10.odb,Step-1,Increment      1: Step Time =    1.000,"PART-1-1",           537,      -7.03326,       22.4462,            0.,NA,NA,"",       28.3970,      -21.6315,      -18.3975,   481.489E-09
C:/temp/dataset/7/3_10.odb,Step-1,Increment      1: Step Time =    1.000,"PART-1-1",           538,      -8.48458,       21.3302,            0.,NA,NA,"",       28.0684,      -20.6019,      -19.0631,   115.966E-09
C:/temp/dataset/7/3_10.odb,Step-1,Increment      1: Step Time =    1.000,"PART-1-1",           539,      -6.65000,           20.,            0.,NA,NA,"",       26.7768,      -20.1739,      -17.6072,   479.601E-09
C:/temp/dataset/7/3_10.odb,Step-1,Increment      1: Step Time =    1.000,"PART-1-1",           540,      -5.19869,       21.1160,            0.,NA,NA,"",       27.1405,      -21.2035,      -16.9417,   615.674E-09
C:/temp/dataset/7/3_10.odb,Step-1,Increment      1: Step Time =    1.000,"PART-1-1",           541,       9.42603,       26.6587,            0.,NA,NA,"",       29.3783,      -27.9799,      -8.95614,   47.2139E-06
C:/temp/dataset/7/3_10.odb,Step-1,Increment      1: Step Time =    1.000,"PART-1-1",           542,       10.3720,       25.4897,            0.,NA,NA,"",       28.6234,      -27.4543,      -8.09707,   66.1385E-06
C:/temp/dataset/7/3_10.odb,Step-1,Increment      1: Step Time =    1.000,"PART-1-1",           543,       6.87457,       25.7626,            0.,NA,NA,"",       28.7742,      -26.8424,      -10.3653,   49.0410E-06
C:/temp/dataset/7/3_10.odb,Step-1,Increment      1: Step Time =    1.000,"PART-1-1",           544,       7.54675,       26.7337,            0.,NA,NA,"",       29.4157,      -27.6058,      -10.1588,   41.8616E-06
C:/temp/dataset/7/3_10.odb,Step-1,Increment      1: Step Time =    1.000,"PART-1-1",           545,      -3.17643,       25.4018,            0.,NA,NA,"",       29.4942,      -24.3611,      -16.6266,   1.92958E-06
C:/temp/dataset/7/3_10.odb,Step-1,Increment      1: Step Time =    1.000,"PART-1-1",           546,      -4.35024,       25.6599,            0.,NA,NA,"",       29.8701,      -24.2608,      -17.4251,   1.31817E-06
C:/temp/dataset/7/3_10.odb,Step-1,Increment      1: Step Time =    1.000,"PART-1-1",           547,       4.01884,       22.4610,            0.,NA,NA,"",       26.6888,      -24.1187,      -11.4272,   55.6230E-06
C:/temp/dataset/7/3_10.odb,Step-1,Increment      1: Step Time =    1.000,"PART-1-1",           548,       5.32127,       23.1739,            0.,NA,NA,"",       27.0914,      -24.8607,      -10.7651,   92.8923E-06
C:/temp/dataset/7/3_10.odb,Step-1,Increment      1: Step Time =    1.000,"PART-1-1",           549,       11.1447,       22.1526,            0.,NA,NA,"",       26.4281,      -25.5220,      -6.86095,   245.003E-06
C:/temp/dataset/7/3_10.odb,Step-1,Increment      1: Step Time =    1.000,"PART-1-1",           550,       10.2813,       23.3249,            0.,NA,NA,"",       27.1727,      -26.0681,      -7.66874,   149.241E-06
C:/temp/dataset/7/3_10.odb,Step-1,Increment      1: Step Time =    1.000,"PART-1-1",           551,       6.15508,       21.9496,            0.,NA,NA,"",       26.2407,      -24.2751,      -9.96455,   165.981E-06
C:/temp/dataset/7/3_10.odb,Step-1,Increment      1: Step Time =    1.000,"PART-1-1",           552,       6.48612,       23.9825,            0.,NA,NA,"",       27.5912,      -25.6321,      -10.2113,   85.2617E-06
C:/temp/dataset/7/3_10.odb,Step-1,Increment      1: Step Time =    1.000,"PART-1-1",           553,   6.30745E-03,       24.2683,            0.,NA,NA,"",       28.2792,      -24.3595,      -14.3642,   3.78334E-06
C:/temp/dataset/7/3_10.odb,Step-1,Increment      1: Step Time =    1.000,"PART-1-1",           554,      -1.65981,       23.6471,            0.,NA,NA,"",       28.1076,      -23.5940,      -15.2762,   2.39930E-06
C:/temp/dataset/7/3_10.odb,Step-1,Increment      1: Step Time =    1.000,"PART-1-1",           555,      -1.07768,       22.4355,            0.,NA,NA,"",       27.2289,      -22.9600,      -14.6372,   4.78923E-06
C:/temp/dataset/7/3_10.odb,Step-1,Increment      1: Step Time =    1.000,"PART-1-1",           556,   588.432E-03,       23.0567,            0.,NA,NA,"",       27.4095,      -23.7255,      -13.7252,   4.28909E-06
C:/temp/dataset/7/3_10.odb,Step-1,Increment      1: Step Time =    1.000,"PART-1-1",           557,      -4.82218,       24.5397,            0.,NA,NA,"",       29.2417,      -23.4482,      -17.4717,   1.29158E-06
C:/temp/dataset/7/3_10.odb,Step-1,Increment      1: Step Time =    1.000,"PART-1-1",           558,      -3.09511,       23.7242,            0.,NA,NA,"",       28.3949,      -23.3208,      -16.1991,   2.14155E-06
C:/temp/dataset/7/3_10.odb,Step-1,Increment      1: Step Time =    1.000,"PART-1-1",           559,      -5.58708,       23.2486,            0.,NA,NA,"",       28.5760,      -22.4620,      -17.6649,   842.919E-09
C:/temp/dataset/7/3_10.odb,Step-1,Increment      1: Step Time =    1.000,"PART-1-1",           560,       8.76337,      -9.49006,            0.,NA,NA,"",       5.99049,      -5.77699,      -1.58504,   27.3606E-03
C:/temp/dataset/7/3_10.odb,Step-1,Increment      1: Step Time =    1.000,"PART-1-1",           561,       9.72759,      -26.4759,            0.,NA,NA,"",   186.002E-03,  -185.674E-03,  -11.0416E-03,   20.1988E-03
C:/temp/dataset/7/3_10.odb,Step-1,Increment      1: Step Time =    1.000,"PART-1-1",           562,       9.12173,       6.33780,            0.,NA,NA,"",       15.6989,      -15.0275,      -4.54191,   18.9342E-03
C:/temp/dataset/7/3_10.odb,Step-1,Increment      1: Step Time =    1.000,"PART-1-1",           563,       11.1214,       6.29882,            0.,NA,NA,"",       15.7779,      -15.4278,      -3.30539,   19.9922E-03
C:/temp/dataset/7/3_10.odb,Step-1,Increment      1: Step Time =    1.000,"PART-1-1",           564,       11.1740,      -13.7880,            0.,NA,NA,"",       4.01458,      -4.01445,  -32.6939E-03,   36.2109E-03
C:/temp/dataset/7/3_10.odb,Step-1,Increment      1: Step Time =    1.000,"PART-1-1",           565,       10.6612,      -8.65022,            0.,NA,NA,"",       6.49077,      -6.44288,  -787.039E-03,   24.6573E-03
C:/temp/dataset/7/3_10.odb,Step-1,Increment      1: Step Time =    1.000,"PART-1-1",           566,       9.47894,      -7.81405,            0.,NA,NA,"",       6.88426,      -6.72116,      -1.48966,   20.7558E-03
C:/temp/dataset/7/3_10.odb,Step-1,Increment      1: Step Time =    1.000,"PART-1-1",           567,       11.3640,      -18.5194,            0.,NA,NA,"",       2.16962,      -2.15462,   254.689E-03,   46.3581E-03
C:/temp/dataset/7/3_10.odb,Step-1,Increment      1: Step Time =    1.000,"PART-1-1",           568,       12.0025,       20.7886,            0.,NA,NA,"",       25.5707,      -24.8535,      -6.01377,   309.262E-06
C:/temp/dataset/7/3_10.odb,Step-1,Increment      1: Step Time =    1.000,"PART-1-1",           569,       11.4947,       18.6594,            0.,NA,NA,"",       24.1188,      -23.3969,      -5.85649,   405.027E-06
C:/temp/dataset/7/3_10.odb,Step-1,Increment      1: Step Time =    1.000,"PART-1-1",           570,       9.39315,       18.1618,            0.,NA,NA,"",       23.6917,      -22.6119,      -7.07080,   425.245E-06
C:/temp/dataset/7/3_10.odb,Step-1,Increment      1: Step Time =    1.000,"PART-1-1",           571,       10.9214,       17.4088,            0.,NA,NA,"",       23.2509,      -22.4799,      -5.93772,   539.108E-06
C:/temp/dataset/7/3_10.odb,Step-1,Increment      1: Step Time =    1.000,"PART-1-1",           572,      -9.97500,           20.,            0.,NA,NA,"",       27.6724,      -19.4284,      -19.7053,   35.4124E-09
C:/temp/dataset/7/3_10.odb,Step-1,Increment      1: Step Time =    1.000,"PART-1-1",           573,       11.9818,      -2.09472,            0.,NA,NA,"",       10.4159,      -10.3587,      -1.08981,   29.7759E-03
C:/temp/dataset/7/3_10.odb,Step-1,Increment      1: Step Time =    1.000,"PART-1-1",           574,       12.0426,   313.093E-03,            0.,NA,NA,"",       11.9328,      -11.8391,      -1.49235,   26.1752E-03
C:/temp/dataset/7/3_10.odb,Step-1,Increment      1: Step Time =    1.000,"PART-1-1",           575,       12.1686,      -14.9632,            0.,NA,NA,"",       3.62842,      -3.60404,   419.865E-03,   57.6971E-03
C:/temp/dataset/7/3_10.odb,Step-1,Increment      1: Step Time =    1.000,"PART-1-1",           576,       12.0880,      -12.5178,            0.,NA,NA,"",       4.70404,      -4.69727,   252.403E-03,   50.9003E-03
C:/temp/dataset/7/3_10.odb,Step-1,Increment      1: Step Time =    1.000,"PART-1-1",           577,       12.0767,       2.70437,            0.,NA,NA,"",       13.4817,      -13.3406,      -1.94565,   22.5219E-03
C:/temp/dataset/7/3_10.odb,Step-1,Increment      1: Step Time =    1.000,"PART-1-1",           578,       11.6617,       14.7036,            0.,NA,NA,"",       21.4975,      -20.9391,      -4.86788,   4.41947E-03
C:/temp/dataset/7/3_10.odb,Step-1,Increment      1: Step Time =    1.000,"PART-1-1",           579,       11.9561,       12.2406,            0.,NA,NA,"",       19.8747,      -19.4399,      -4.13466,   10.6226E-03
C:/temp/dataset/7/3_10.odb,Step-1,Increment      1: Step Time =    1.000,"PART-1-1",           580,       12.3155,      -19.7087,            0.,NA,NA,"",       1.90202,      -1.82562,   533.663E-03,   71.8627E-03
C:/temp/dataset/7/3_10.odb,Step-1,Increment      1: Step Time =    1.000,"PART-1-1",           581,       12.3404,      -21.7879,            0.,NA,NA,"",       1.30754,      -1.21181,   491.088E-03,   76.9825E-03
C:/temp/dataset/7/3_10.odb,Step-1,Increment      1: Step Time =    1.000,"PART-1-1",           582,       12.2327,      -17.3977,            0.,NA,NA,"",       2.67773,      -2.62902,   508.409E-03,   64.4385E-03
C:/temp/dataset/7/3_10.odb,Step-1,Increment      1: Step Time =    1.000,"PART-1-1",           583,       12.1020,       5.09402,            0.,NA,NA,"",       15.0644,      -14.8659,      -2.43722,   19.8397E-03
C:/temp/dataset/7/3_10.odb,Step-1,Increment      1: Step Time =    1.000,"PART-1-1",           584,       12.0630,       9.85139,            0.,NA,NA,"",       18.2731,      -17.9289,      -3.53014,   15.7598E-03
C:/temp/dataset/7/3_10.odb,Step-1,Increment      1: Step Time =    1.000,"PART-1-1",           585,       12.0921,       7.47372,            0.,NA,NA,"",       16.6646,      -16.3971,      -2.97369,   19.4196E-03
C:/temp/dataset/7/3_10.odb,Step-1,Increment      1: Step Time =    1.000,"PART-1-1",           586,       11.9146,      -10.0225,            0.,NA,NA,"",       5.90371,      -5.90361,  -34.8205E-03,   42.9269E-03
C:/temp/dataset/7/3_10.odb,Step-1,Increment      1: Step Time =    1.000,"PART-1-1",           587,       11.5993,      -7.26023,            0.,NA,NA,"",       7.33791,      -7.32045,  -505.937E-03,   33.7527E-03
C:/temp/dataset/7/3_10.odb,Step-1,Increment      1: Step Time =    1.000,"PART-1-1",           588,       11.8707,      -4.56496,            0.,NA,NA,"",       8.91288,      -8.88142,  -748.220E-03,   32.8989E-03
C:/temp/dataset/7/3_10.odb,Step-1,Increment      1: Step Time =    1.000,"PART-1-1",           589,      -3.86001,       22.4330,            0.,NA,NA,"",       27.7045,      -22.3346,      -16.3923,   2.08539E-06
C:/temp/dataset/7/3_10.odb,Step-1,Increment      1: Step Time =    1.000,"PART-1-1",           590,       3.35000,           20.,            0.,NA,NA,"",       25.1019,      -22.4159,      -11.2974,   70.6932E-06
C:/temp/dataset/7/3_10.odb,Step-1,Increment      1: Step Time =    1.000,"PART-1-1",           591,       5.05511,       21.0689,            0.,NA,NA,"",       25.6983,      -23.4726,      -10.4613,   199.914E-06
C:/temp/dataset/7/3_10.odb,Step-1,Increment      1: Step Time =    1.000,"PART-1-1",           592,       2.31373,       21.3921,            0.,NA,NA,"",       26.1198,      -23.0620,      -12.2634,   26.8965E-06
C:/temp/dataset/7/3_10.odb,Step-1,Increment      1: Step Time =    1.000,"PART-1-1",           593,      -1.98632,       21.3170,            0.,NA,NA,"",       26.6462,      -22.0505,      -14.9598,   2.68445E-06
C:/temp/dataset/7/3_10.odb,Step-1,Increment      1: Step Time =    1.000,"PART-1-1",           594,   25.0000E-03,           20.,            0.,NA,NA,"",       25.4764,      -21.6705,      -13.3954,   10.6748E-06
C:/temp/dataset/7/3_10.odb,Step-1,Increment      1: Step Time =    1.000,"PART-1-1",           595,   933.640E-03,       21.1186,            0.,NA,NA,"",       26.0913,      -22.5800,      -13.0729,   4.92655E-06
C:/temp/dataset/7/3_10.odb,Step-1,Increment      1: Step Time =    1.000,"PART-1-1",           596,       7.16521,       20.7144,            0.,NA,NA,"",       25.3902,      -23.7225,      -9.05016,   306.602E-06
C:/temp/dataset/7/3_10.odb,Step-1,Increment      1: Step Time =    1.000,"PART-1-1",           597,       8.15837,       19.5039,            0.,NA,NA,"",       24.5731,      -23.1816,      -8.15163,   332.572E-06
C:/temp/dataset/7/3_10.odb,Step-1,Increment      1: Step Time =    1.000,"PART-1-1",           598,      -3.32500,           20.,            0.,NA,NA,"",       26.0414,      -20.9194,      -15.5092,   1.82462E-06
