ODB Name,Step,Frame,Part Instance Name,    êﬂì_ÉâÉxÉã,X,Y,Z,Section Name,Material Name,Section Point,   U-Magnitude,          U-U1,          U-U2,       S-Mises
C:/temp/dataset/7/5_4.odb,Step-1,Increment      1: Step Time =    1.000,"PART-1-1",             1,          -15.,           20.,            0.,NA,NA,"",       5.56385,      -4.65910,      -3.04126,   188.316E-09
C:/temp/dataset/7/5_4.odb,Step-1,Increment      1: Step Time =    1.000,"PART-1-1",             2,          -15.,           25.,            0.,NA,NA,"",       6.05659,      -5.21925,      -3.07273,   182.057E-09
C:/temp/dataset/7/5_4.odb,Step-1,Increment      1: Step Time =    1.000,"PART-1-1",             3,      -11.6500,           20.,            0.,NA,NA,"",       5.38623,      -4.68019,      -2.66596,   171.831E-09
C:/temp/dataset/7/5_4.odb,Step-1,Increment      1: Step Time =    1.000,"PART-1-1",             4,      -8.30000,           20.,            0.,NA,NA,"",       5.22964,      -4.70128,      -2.29066,   164.003E-09
C:/temp/dataset/7/5_4.odb,Step-1,Increment      1: Step Time =    1.000,"PART-1-1",             5,           -5.,           20.,            0.,NA,NA,"",       5.09783,      -4.72205,      -1.92096,   155.985E-09
C:/temp/dataset/7/5_4.odb,Step-1,Increment      1: Step Time =    1.000,"PART-1-1",             6,      -1.65000,           20.,            0.,NA,NA,"",       4.98863,      -4.74314,      -1.54565,   151.521E-09
C:/temp/dataset/7/5_4.odb,Step-1,Increment      1: Step Time =    1.000,"PART-1-1",             7,       1.70000,           20.,            0.,NA,NA,"",       4.90588,      -4.76423,      -1.17035,   200.039E-09
C:/temp/dataset/7/5_4.odb,Step-1,Increment      1: Step Time =    1.000,"PART-1-1",             8,            5.,           20.,            0.,NA,NA,"",       4.85153,      -4.78501,  -800.652E-03,   415.664E-09
C:/temp/dataset/7/5_4.odb,Step-1,Increment      1: Step Time =    1.000,"PART-1-1",             9,            5.,         13.75,            0.,NA,NA,"",       4.15517,      -4.08483,  -761.301E-03,   1.25959E-06
C:/temp/dataset/7/5_4.odb,Step-1,Increment      1: Step Time =    1.000,"PART-1-1",            10,            5.,           7.5,            0.,NA,NA,"",       3.46089,      -3.38472,  -722.065E-03,   72.1799E-06
C:/temp/dataset/7/5_4.odb,Step-1,Increment      1: Step Time =    1.000,"PART-1-1",            11,            5.,          1.25,            0.,NA,NA,"",       2.76884,      -2.68304,  -683.952E-03,   390.118E-06
C:/temp/dataset/7/5_4.odb,Step-1,Increment      1: Step Time =    1.000,"PART-1-1",            12,            5.,           -5.,            0.,NA,NA,"",       2.07184,      -1.97045,  -640.191E-03,   2.80260E-03
C:/temp/dataset/7/5_4.odb,Step-1,Increment      1: Step Time =    1.000,"PART-1-1",            13,            5.,        -11.25,            0.,NA,NA,"",       1.38568,      -1.26850,  -557.680E-03,   13.0957E-03
C:/temp/dataset/7/5_4.odb,Step-1,Increment      1: Step Time =    1.000,"PART-1-1",            14,            5.,         -17.5,            0.,NA,NA,"",   781.877E-03,  -658.863E-03,  -420.989E-03,   24.6291E-03
C:/temp/dataset/7/5_4.odb,Step-1,Increment      1: Step Time =    1.000,"PART-1-1",            15,            5.,        -23.75,            0.,NA,NA,"",   324.429E-03,  -223.286E-03,  -235.367E-03,   35.8427E-03
C:/temp/dataset/7/5_4.odb,Step-1,Increment      1: Step Time =    1.000,"PART-1-1",            16,            5.,          -30.,            0.,NA,NA,"",            0.,  -14.2326E-39,  -27.2868E-39,   54.0806E-03
C:/temp/dataset/7/5_4.odb,Step-1,Increment      1: Step Time =    1.000,"PART-1-1",            17,           15.,          -30.,            0.,NA,NA,"",            0.,  -16.1830E-39,   28.9473E-39,   54.5543E-03
C:/temp/dataset/7/5_4.odb,Step-1,Increment      1: Step Time =    1.000,"PART-1-1",            18,           15.,         -22.5,            0.,NA,NA,"",   409.165E-03,  -310.378E-03,   266.611E-03,   33.9151E-03
C:/temp/dataset/7/5_4.odb,Step-1,Increment      1: Step Time =    1.000,"PART-1-1",            19,           15.,          -15.,            0.,NA,NA,"",       1.02041,  -927.920E-03,   424.506E-03,   20.4435E-03
C:/temp/dataset/7/5_4.odb,Step-1,Increment      1: Step Time =    1.000,"PART-1-1",            20,           15.,          -7.5,            0.,NA,NA,"",       1.81620,      -1.75315,   474.402E-03,   7.71813E-03
C:/temp/dataset/7/5_4.odb,Step-1,Increment      1: Step Time =    1.000,"PART-1-1",            21,           15.,            0.,            0.,NA,NA,"",       2.65057,      -2.61360,   441.179E-03,   2.04637E-03
C:/temp/dataset/7/5_4.odb,Step-1,Increment      1: Step Time =    1.000,"PART-1-1",            22,           15.,           7.5,            0.,NA,NA,"",       3.47039,      -3.44747,   398.255E-03,   75.1250E-06
C:/temp/dataset/7/5_4.odb,Step-1,Increment      1: Step Time =    1.000,"PART-1-1",            23,           15.,           15.,            0.,NA,NA,"",       4.30216,      -4.28780,   351.128E-03,   1.33954E-06
C:/temp/dataset/7/5_4.odb,Step-1,Increment      1: Step Time =    1.000,"PART-1-1",            24,           15.,          22.5,            0.,NA,NA,"",       5.13703,      -5.12803,   303.910E-03,   154.092E-09
C:/temp/dataset/7/5_4.odb,Step-1,Increment      1: Step Time =    1.000,"PART-1-1",            25,           15.,           30.,            0.,NA,NA,"",       5.97378,      -5.96826,   256.697E-03,   153.301E-09
C:/temp/dataset/7/5_4.odb,Step-1,Increment      1: Step Time =    1.000,"PART-1-1",            26,         11.25,           30.,            0.,NA,NA,"",       5.94690,      -5.94465,  -163.416E-03,   150.150E-09
C:/temp/dataset/7/5_4.odb,Step-1,Increment      1: Step Time =    1.000,"PART-1-1",            27,           7.5,           30.,            0.,NA,NA,"",       5.94973,      -5.92104,  -583.528E-03,   198.137E-09
C:/temp/dataset/7/5_4.odb,Step-1,Increment      1: Step Time =    1.000,"PART-1-1",            28,          3.75,           30.,            0.,NA,NA,"",       5.98223,      -5.89744,      -1.00364,   242.468E-09
C:/temp/dataset/7/5_4.odb,Step-1,Increment      1: Step Time =    1.000,"PART-1-1",            29,            0.,           30.,            0.,NA,NA,"",       6.04392,      -5.87383,      -1.42375,   239.429E-09
C:/temp/dataset/7/5_4.odb,Step-1,Increment      1: Step Time =    1.000,"PART-1-1",            30,         -3.75,           30.,            0.,NA,NA,"",       6.13392,      -5.85023,      -1.84387,   223.244E-09
C:/temp/dataset/7/5_4.odb,Step-1,Increment      1: Step Time =    1.000,"PART-1-1",            31,          -7.5,           30.,            0.,NA,NA,"",       6.25101,      -5.82662,      -2.26398,   209.792E-09
C:/temp/dataset/7/5_4.odb,Step-1,Increment      1: Step Time =    1.000,"PART-1-1",            32,        -11.25,           30.,            0.,NA,NA,"",       6.39369,      -5.80301,      -2.68410,   197.986E-09
C:/temp/dataset/7/5_4.odb,Step-1,Increment      1: Step Time =    1.000,"PART-1-1",            33,          -15.,           30.,            0.,NA,NA,"",       6.56031,      -5.77941,      -3.10421,   186.959E-09
C:/temp/dataset/7/5_4.odb,Step-1,Increment      1: Step Time =    1.000,"PART-1-1",            34,          -15.,          22.5,            0.,NA,NA,"",       5.80867,      -4.93918,      -3.05700,   190.997E-09
C:/temp/dataset/7/5_4.odb,Step-1,Increment      1: Step Time =    1.000,"PART-1-1",            35,            5.,       15.8333,            0.,NA,NA,"",       4.38711,      -4.31822,  -774.418E-03,   1.59117E-06
C:/temp/dataset/7/5_4.odb,Step-1,Increment      1: Step Time =    1.000,"PART-1-1",            36,            5.,       17.9167,            0.,NA,NA,"",       4.61924,      -4.55161,  -787.535E-03,   1.06137E-06
C:/temp/dataset/7/5_4.odb,Step-1,Increment      1: Step Time =    1.000,"PART-1-1",            37,            5.,       9.58333,            0.,NA,NA,"",       3.69201,      -3.61809,  -735.098E-03,   22.0764E-06
C:/temp/dataset/7/5_4.odb,Step-1,Increment      1: Step Time =    1.000,"PART-1-1",            38,            5.,       11.6667,            0.,NA,NA,"",       3.92345,      -3.85145,  -748.189E-03,   3.64111E-06
C:/temp/dataset/7/5_4.odb,Step-1,Increment      1: Step Time =    1.000,"PART-1-1",            39,            5.,       3.33333,            0.,NA,NA,"",       2.99952,      -2.91754,  -696.470E-03,   318.599E-06
C:/temp/dataset/7/5_4.odb,Step-1,Increment      1: Step Time =    1.000,"PART-1-1",            40,            5.,       5.41667,            0.,NA,NA,"",       3.23009,      -3.15128,  -709.163E-03,   174.428E-06
C:/temp/dataset/7/5_4.odb,Step-1,Increment      1: Step Time =    1.000,"PART-1-1",            41,            5.,      -2.91667,            0.,NA,NA,"",       2.30510,      -2.20944,  -657.138E-03,   868.965E-06
C:/temp/dataset/7/5_4.odb,Step-1,Increment      1: Step Time =    1.000,"PART-1-1",            42,            5.,  -833.333E-03,            0.,NA,NA,"",       2.53751,      -2.44714,  -671.189E-03,   121.720E-06
C:/temp/dataset/7/5_4.odb,Step-1,Increment      1: Step Time =    1.000,"PART-1-1",            43,            5.,      -9.16667,            0.,NA,NA,"",       1.60929,      -1.49672,  -591.309E-03,   9.26428E-03
C:/temp/dataset/7/5_4.odb,Step-1,Increment      1: Step Time =    1.000,"PART-1-1",            44,            5.,      -7.08333,            0.,NA,NA,"",       1.83908,      -1.73190,  -618.658E-03,   5.68927E-03
C:/temp/dataset/7/5_4.odb,Step-1,Increment      1: Step Time =    1.000,"PART-1-1",            45,            5.,      -15.4167,            0.,NA,NA,"",   969.308E-03,  -846.509E-03,  -472.207E-03,   20.8355E-03
C:/temp/dataset/7/5_4.odb,Step-1,Increment      1: Step Time =    1.000,"PART-1-1",            46,            5.,      -13.3333,            0.,NA,NA,"",       1.17138,      -1.05069,  -517.878E-03,   16.9805E-03
C:/temp/dataset/7/5_4.odb,Step-1,Increment      1: Step Time =    1.000,"PART-1-1",            47,            5.,      -21.6667,            0.,NA,NA,"",   458.477E-03,  -344.384E-03,  -302.657E-03,   32.1948E-03
C:/temp/dataset/7/5_4.odb,Step-1,Increment      1: Step Time =    1.000,"PART-1-1",            48,            5.,      -19.5833,            0.,NA,NA,"",   611.121E-03,  -490.662E-03,  -364.307E-03,   28.5728E-03
C:/temp/dataset/7/5_4.odb,Step-1,Increment      1: Step Time =    1.000,"PART-1-1",            49,            5.,      -27.9167,            0.,NA,NA,"",   106.833E-03,  -62.3277E-03,  -86.7671E-03,   44.9895E-03
C:/temp/dataset/7/5_4.odb,Step-1,Increment      1: Step Time =    1.000,"PART-1-1",            50,            5.,      -25.8333,            0.,NA,NA,"",   207.953E-03,  -128.745E-03,  -163.307E-03,   38.6126E-03
C:/temp/dataset/7/5_4.odb,Step-1,Increment      1: Step Time =    1.000,"PART-1-1",            51,          12.5,          -30.,            0.,NA,NA,"",            0.,  -17.1276E-39,   39.0010E-39,   15.8703E-03
C:/temp/dataset/7/5_4.odb,Step-1,Increment      1: Step Time =    1.000,"PART-1-1",            52,           10.,          -30.,            0.,NA,NA,"",            0.,   3.46050E-39,  -343.689E-42,   2.31515E-03
C:/temp/dataset/7/5_4.odb,Step-1,Increment      1: Step Time =    1.000,"PART-1-1",            53,           7.5,          -30.,            0.,NA,NA,"",            0.,  -4.98528E-39,  -37.8432E-39,   15.0764E-03
C:/temp/dataset/7/5_4.odb,Step-1,Increment      1: Step Time =    1.000,"PART-1-1",            54,           15.,          -25.,            0.,NA,NA,"",   256.783E-03,  -173.413E-03,   189.381E-03,   37.7847E-03
C:/temp/dataset/7/5_4.odb,Step-1,Increment      1: Step Time =    1.000,"PART-1-1",            55,           15.,         -27.5,            0.,NA,NA,"",   128.754E-03,  -78.1610E-03,   102.316E-03,   44.0086E-03
C:/temp/dataset/7/5_4.odb,Step-1,Increment      1: Step Time =    1.000,"PART-1-1",            56,           15.,         -17.5,            0.,NA,NA,"",   792.182E-03,  -692.639E-03,   384.451E-03,   24.9194E-03
C:/temp/dataset/7/5_4.odb,Step-1,Increment      1: Step Time =    1.000,"PART-1-1",            57,           15.,          -20.,            0.,NA,NA,"",   587.641E-03,  -484.974E-03,   331.847E-03,   29.3901E-03
C:/temp/dataset/7/5_4.odb,Step-1,Increment      1: Step Time =    1.000,"PART-1-1",            58,           15.,          -10.,            0.,NA,NA,"",       1.53432,      -1.46097,   468.731E-03,   11.9408E-03
C:/temp/dataset/7/5_4.odb,Step-1,Increment      1: Step Time =    1.000,"PART-1-1",            59,           15.,         -12.5,            0.,NA,NA,"",       1.26897,      -1.18557,   452.443E-03,   16.0621E-03
C:/temp/dataset/7/5_4.odb,Step-1,Increment      1: Step Time =    1.000,"PART-1-1",            60,           15.,          -2.5,            0.,NA,NA,"",       2.38064,      -2.33654,   456.069E-03,   4.01624E-03
C:/temp/dataset/7/5_4.odb,Step-1,Increment      1: Step Time =    1.000,"PART-1-1",            61,           15.,           -5.,            0.,NA,NA,"",       2.10161,      -2.04893,   467.597E-03,   5.14554E-03
C:/temp/dataset/7/5_4.odb,Step-1,Increment      1: Step Time =    1.000,"PART-1-1",            62,           15.,            5.,            0.,NA,NA,"",       3.19432,      -3.16743,   413.612E-03,   261.242E-06
C:/temp/dataset/7/5_4.odb,Step-1,Increment      1: Step Time =    1.000,"PART-1-1",            63,           15.,           2.5,            0.,NA,NA,"",       2.91969,      -2.88808,   428.467E-03,   908.283E-06
C:/temp/dataset/7/5_4.odb,Step-1,Increment      1: Step Time =    1.000,"PART-1-1",            64,           15.,          12.5,            0.,NA,NA,"",       4.02447,      -4.00771,   366.869E-03,   1.13142E-06
C:/temp/dataset/7/5_4.odb,Step-1,Increment      1: Step Time =    1.000,"PART-1-1",            65,           15.,           10.,            0.,NA,NA,"",       3.74719,      -3.72760,   382.593E-03,   16.0409E-06
C:/temp/dataset/7/5_4.odb,Step-1,Increment      1: Step Time =    1.000,"PART-1-1",            66,           15.,           20.,            0.,NA,NA,"",       4.85848,      -4.84796,   319.648E-03,   206.527E-09
C:/temp/dataset/7/5_4.odb,Step-1,Increment      1: Step Time =    1.000,"PART-1-1",            67,           15.,          17.5,            0.,NA,NA,"",       4.58018,      -4.56788,   335.387E-03,   731.849E-09
C:/temp/dataset/7/5_4.odb,Step-1,Increment      1: Step Time =    1.000,"PART-1-1",            68,           15.,          27.5,            0.,NA,NA,"",       5.69470,      -5.68818,   272.435E-03,   164.947E-09
C:/temp/dataset/7/5_4.odb,Step-1,Increment      1: Step Time =    1.000,"PART-1-1",            69,           15.,           25.,            0.,NA,NA,"",       5.41578,      -5.40811,   288.173E-03,   176.344E-09
C:/temp/dataset/7/5_4.odb,Step-1,Increment      1: Step Time =    1.000,"PART-1-1",            70,        13.125,           30.,            0.,NA,NA,"",       5.95664,      -5.95645,   46.6407E-03,   143.713E-09
C:/temp/dataset/7/5_4.odb,Step-1,Increment      1: Step Time =    1.000,"PART-1-1",            71,         9.375,           30.,            0.,NA,NA,"",       5.94459,      -5.93285,  -373.472E-03,   168.945E-09
C:/temp/dataset/7/5_4.odb,Step-1,Increment      1: Step Time =    1.000,"PART-1-1",            72,         5.625,           30.,            0.,NA,NA,"",       5.96229,      -5.90924,  -793.585E-03,   225.068E-09
C:/temp/dataset/7/5_4.odb,Step-1,Increment      1: Step Time =    1.000,"PART-1-1",            73,         1.875,           30.,            0.,NA,NA,"",       6.00947,      -5.88563,      -1.21370,   246.147E-09
C:/temp/dataset/7/5_4.odb,Step-1,Increment      1: Step Time =    1.000,"PART-1-1",            74,        -1.875,           30.,            0.,NA,NA,"",       6.08545,      -5.86203,      -1.63381,   231.492E-09
C:/temp/dataset/7/5_4.odb,Step-1,Increment      1: Step Time =    1.000,"PART-1-1",            75,        -5.625,           30.,            0.,NA,NA,"",       6.18917,      -5.83842,      -2.05393,   216.316E-09
C:/temp/dataset/7/5_4.odb,Step-1,Increment      1: Step Time =    1.000,"PART-1-1",            76,        -9.375,           30.,            0.,NA,NA,"",       6.31925,      -5.81482,      -2.47404,   203.500E-09
C:/temp/dataset/7/5_4.odb,Step-1,Increment      1: Step Time =    1.000,"PART-1-1",            77,       -13.125,           30.,            0.,NA,NA,"",       6.47412,      -5.79121,      -2.89415,   194.783E-09
C:/temp/dataset/7/5_4.odb,Step-1,Increment      1: Step Time =    1.000,"PART-1-1",            78,          -15.,          27.5,            0.,NA,NA,"",       6.30724,      -5.49933,      -3.08847,   175.205E-09
C:/temp/dataset/7/5_4.odb,Step-1,Increment      1: Step Time =    1.000,"PART-1-1",            79,      -7.07467,       28.0475,            0.,NA,NA,"",       6.02795,      -5.61056,      -2.20404,   197.122E-09
C:/temp/dataset/7/5_4.odb,Step-1,Increment      1: Step Time =    1.000,"PART-1-1",            80,      -10.7971,       27.6072,            0.,NA,NA,"",       6.12557,      -5.53780,      -2.61829,   189.751E-09
C:/temp/dataset/7/5_4.odb,Step-1,Increment      1: Step Time =    1.000,"PART-1-1",            81,      -3.50976,       28.2242,            0.,NA,NA,"",       5.93421,      -5.65279,      -1.80578,   203.794E-09
C:/temp/dataset/7/5_4.odb,Step-1,Increment      1: Step Time =    1.000,"PART-1-1",            82,       11.3028,       27.6605,            0.,NA,NA,"",       5.68468,      -5.68289,  -142.769E-03,   161.199E-09
C:/temp/dataset/7/5_4.odb,Step-1,Increment      1: Step Time =    1.000,"PART-1-1",            83,       7.46624,       27.7175,            0.,NA,NA,"",       5.69402,      -5.66512,  -572.941E-03,   182.749E-09
C:/temp/dataset/7/5_4.odb,Step-1,Increment      1: Step Time =    1.000,"PART-1-1",            84,   523.838E-03,       28.1559,            0.,NA,NA,"",       5.82982,      -5.67053,      -1.35346,   205.551E-09
C:/temp/dataset/7/5_4.odb,Step-1,Increment      1: Step Time =    1.000,"PART-1-1",            85,       13.1724,       27.5829,            0.,NA,NA,"",       5.68636,      -5.68596,   67.1695E-03,   158.460E-09
C:/temp/dataset/7/5_4.odb,Step-1,Increment      1: Step Time =    1.000,"PART-1-1",            86,       9.41586,       27.7284,            0.,NA,NA,"",       5.68968,      -5.67862,  -354.594E-03,   171.562E-09
C:/temp/dataset/7/5_4.odb,Step-1,Increment      1: Step Time =    1.000,"PART-1-1",            87,       5.17501,       27.3177,            0.,NA,NA,"",       5.66660,      -5.60591,  -827.112E-03,   184.141E-09
C:/temp/dataset/7/5_4.odb,Step-1,Increment      1: Step Time =    1.000,"PART-1-1",            88,       1.85763,       28.7412,            0.,NA,NA,"",       5.87009,      -5.74451,      -1.20772,   215.820E-09
C:/temp/dataset/7/5_4.odb,Step-1,Increment      1: Step Time =    1.000,"PART-1-1",            89,      -1.45910,       27.7280,            0.,NA,NA,"",       5.82644,      -5.61011,      -1.57292,   199.254E-09
C:/temp/dataset/7/5_4.odb,Step-1,Increment      1: Step Time =    1.000,"PART-1-1",            90,      -5.31380,       28.2250,            0.,NA,NA,"",       5.98819,      -5.64153,      -2.00789,   200.989E-09
C:/temp/dataset/7/5_4.odb,Step-1,Increment      1: Step Time =    1.000,"PART-1-1",            91,      -8.92632,       27.8484,            0.,NA,NA,"",       6.07517,      -5.57660,      -2.41023,   193.424E-09
C:/temp/dataset/7/5_4.odb,Step-1,Increment      1: Step Time =    1.000,"PART-1-1",            92,       7.03655,   996.185E-03,            0.,NA,NA,"",       2.70575,      -2.66758,  -452.863E-03,   249.267E-06
C:/temp/dataset/7/5_4.odb,Step-1,Increment      1: Step Time =    1.000,"PART-1-1",            93,       6.93081,       13.7923,            0.,NA,NA,"",       4.13780,      -4.10172,  -545.265E-03,   2.85545E-06
C:/temp/dataset/7/5_4.odb,Step-1,Increment      1: Step Time =    1.000,"PART-1-1",            94,       7.08682,       7.47611,            0.,NA,NA,"",       3.43012,      -3.39522,  -488.041E-03,   79.2853E-06
C:/temp/dataset/7/5_4.odb,Step-1,Increment      1: Step Time =    1.000,"PART-1-1",            95,       6.96700,      -1.15199,            0.,NA,NA,"",       2.46432,      -2.42350,  -446.693E-03,   1.05987E-03
C:/temp/dataset/7/5_4.odb,Step-1,Increment      1: Step Time =    1.000,"PART-1-1",            96,       6.47578,      -21.8661,            0.,NA,NA,"",   375.709E-03,  -316.099E-03,  -203.073E-03,   23.0718E-03
C:/temp/dataset/7/5_4.odb,Step-1,Increment      1: Step Time =    1.000,"PART-1-1",            97,       7.14087,      -13.1040,            0.,NA,NA,"",       1.11539,      -1.07221,  -307.326E-03,   11.0748E-03
C:/temp/dataset/7/5_4.odb,Step-1,Increment      1: Step Time =    1.000,"PART-1-1",            98,       6.53104,      -7.08024,            0.,NA,NA,"",       1.79496,      -1.73851,  -446.613E-03,   5.59974E-03
C:/temp/dataset/7/5_4.odb,Step-1,Increment      1: Step Time =    1.000,"PART-1-1",            99,       6.85322,      -3.24169,            0.,NA,NA,"",       2.22818,      -2.18336,  -444.692E-03,   2.36330E-03
C:/temp/dataset/7/5_4.odb,Step-1,Increment      1: Step Time =    1.000,"PART-1-1",           100,       6.74184,      -8.96518,            0.,NA,NA,"",       1.57618,      -1.52391,  -402.559E-03,   7.57598E-03
C:/temp/dataset/7/5_4.odb,Step-1,Increment      1: Step Time =    1.000,"PART-1-1",           101,       6.94703,      -23.6171,            0.,NA,NA,"",   249.999E-03,  -207.540E-03,  -139.379E-03,   22.0641E-03
C:/temp/dataset/7/5_4.odb,Step-1,Increment      1: Step Time =    1.000,"PART-1-1",           102,       7.44695,      -27.8442,            0.,NA,NA,"",   49.9426E-03,  -32.7620E-03,  -37.6950E-03,   23.0887E-03
C:/temp/dataset/7/5_4.odb,Step-1,Increment      1: Step Time =    1.000,"PART-1-1",           103,       7.35225,      -17.6578,            0.,NA,NA,"",   670.687E-03,  -633.371E-03,  -220.594E-03,   14.3925E-03
C:/temp/dataset/7/5_4.odb,Step-1,Increment      1: Step Time =    1.000,"PART-1-1",           104,       7.23832,      -15.2967,            0.,NA,NA,"",   892.055E-03,  -851.358E-03,  -266.368E-03,   12.7336E-03
C:/temp/dataset/7/5_4.odb,Step-1,Increment      1: Step Time =    1.000,"PART-1-1",           105,       7.10099,       17.6583,            0.,NA,NA,"",       4.56918,      -4.53589,  -550.536E-03,   376.199E-09
C:/temp/dataset/7/5_4.odb,Step-1,Increment      1: Step Time =    1.000,"PART-1-1",           106,       6.86948,       15.7920,            0.,NA,NA,"",       4.36206,      -4.32535,  -564.723E-03,   371.461E-09
C:/temp/dataset/7/5_4.odb,Step-1,Increment      1: Step Time =    1.000,"PART-1-1",           107,       7.06799,       9.62990,            0.,NA,NA,"",       3.67105,      -3.63633,  -503.701E-03,   34.4041E-06
C:/temp/dataset/7/5_4.odb,Step-1,Increment      1: Step Time =    1.000,"PART-1-1",           108,       7.09093,       5.31052,            0.,NA,NA,"",       3.18809,      -3.15266,  -473.962E-03,   131.056E-06
C:/temp/dataset/7/5_4.odb,Step-1,Increment      1: Step Time =    1.000,"PART-1-1",           109,       6.65187,      -5.22056,            0.,NA,NA,"",       2.00516,      -1.95376,  -451.108E-03,   3.86606E-03
C:/temp/dataset/7/5_4.odb,Step-1,Increment      1: Step Time =    1.000,"PART-1-1",           110,       7.26954,      -25.7037,            0.,NA,NA,"",   133.587E-03,  -104.744E-03,  -82.9100E-03,   22.7945E-03
C:/temp/dataset/7/5_4.odb,Step-1,Increment      1: Step Time =    1.000,"PART-1-1",           111,       7.53271,      -20.3934,            0.,NA,NA,"",   443.396E-03,  -411.808E-03,  -164.360E-03,   15.8625E-03
C:/temp/dataset/7/5_4.odb,Step-1,Increment      1: Step Time =    1.000,"PART-1-1",           112,       7.01178,       11.7341,            0.,NA,NA,"",       3.90686,      -3.87167,  -523.240E-03,   11.7906E-06
C:/temp/dataset/7/5_4.odb,Step-1,Increment      1: Step Time =    1.000,"PART-1-1",           113,       7.07643,       3.14767,            0.,NA,NA,"",       2.94645,      -2.91001,  -461.987E-03,   109.047E-06
C:/temp/dataset/7/5_4.odb,Step-1,Increment      1: Step Time =    1.000,"PART-1-1",           114,       6.98190,      -10.9751,            0.,NA,NA,"",       1.34697,      -1.30012,  -352.165E-03,   9.39464E-03
C:/temp/dataset/7/5_4.odb,Step-1,Increment      1: Step Time =    1.000,"PART-1-1",           115,       13.1254,       22.8014,            0.,NA,NA,"",       5.15082,      -5.14999,   91.9970E-03,   177.056E-09
C:/temp/dataset/7/5_4.odb,Step-1,Increment      1: Step Time =    1.000,"PART-1-1",           116,       12.8923,      -4.74502,            0.,NA,NA,"",       2.06911,      -2.05643,   228.710E-03,   6.14153E-03
C:/temp/dataset/7/5_4.odb,Step-1,Increment      1: Step Time =    1.000,"PART-1-1",           117,       13.0513,      -12.4505,            0.,NA,NA,"",       1.19695,      -1.16952,   254.784E-03,   10.8189E-03
C:/temp/dataset/7/5_4.odb,Step-1,Increment      1: Step Time =    1.000,"PART-1-1",           118,       12.2427,       17.8341,            0.,NA,NA,"",       4.58802,      -4.58796,   24.3851E-03,   568.776E-09
C:/temp/dataset/7/5_4.odb,Step-1,Increment      1: Step Time =    1.000,"PART-1-1",           119,       13.0441,       9.90429,            0.,NA,NA,"",       3.70819,      -3.70456,   164.081E-03,   29.0344E-06
C:/temp/dataset/7/5_4.odb,Step-1,Increment      1: Step Time =    1.000,"PART-1-1",           120,       13.0522,       2.62582,            0.,NA,NA,"",       2.89721,      -2.88953,   210.839E-03,   396.743E-06
C:/temp/dataset/7/5_4.odb,Step-1,Increment      1: Step Time =    1.000,"PART-1-1",           121,       13.2006,      -19.7745,            0.,NA,NA,"",   521.429E-03,  -478.488E-03,   207.213E-03,   19.3078E-03
C:/temp/dataset/7/5_4.odb,Step-1,Increment      1: Step Time =    1.000,"PART-1-1",           122,       9.90112,      -27.6522,            0.,NA,NA,"",   27.3587E-03,  -27.3478E-03,  -773.288E-06,   8.22419E-03
C:/temp/dataset/7/5_4.odb,Step-1,Increment      1: Step Time =    1.000,"PART-1-1",           123,       13.0591,      -22.1191,            0.,NA,NA,"",   348.101E-03,  -307.607E-03,   162.949E-03,   21.2202E-03
C:/temp/dataset/7/5_4.odb,Step-1,Increment      1: Step Time =    1.000,"PART-1-1",           124,       13.1139,      -14.9356,            0.,NA,NA,"",   945.471E-03,  -912.072E-03,   249.078E-03,   13.5642E-03
C:/temp/dataset/7/5_4.odb,Step-1,Increment      1: Step Time =    1.000,"PART-1-1",           125,       13.1678,      -17.3995,            0.,NA,NA,"",   717.545E-03,  -678.576E-03,   233.251E-03,   16.4600E-03
C:/temp/dataset/7/5_4.odb,Step-1,Increment      1: Step Time =    1.000,"PART-1-1",           126,       12.7891,      -7.32383,            0.,NA,NA,"",       1.76538,      -1.75096,   225.147E-03,   8.30906E-03
C:/temp/dataset/7/5_4.odb,Step-1,Increment      1: Step Time =    1.000,"PART-1-1",           127,       12.9162,      -9.94117,            0.,NA,NA,"",       1.46693,      -1.44654,   243.717E-03,   8.20290E-03
C:/temp/dataset/7/5_4.odb,Step-1,Increment      1: Step Time =    1.000,"PART-1-1",           128,       13.0283,   193.158E-03,            0.,NA,NA,"",       2.62902,      -2.61957,   222.677E-03,   2.00609E-03
C:/temp/dataset/7/5_4.odb,Step-1,Increment      1: Step Time =    1.000,"PART-1-1",           129,       12.9794,      -2.25409,            0.,NA,NA,"",       2.35618,      -2.34506,   228.706E-03,   4.50266E-03
C:/temp/dataset/7/5_4.odb,Step-1,Increment      1: Step Time =    1.000,"PART-1-1",           130,       13.0689,       7.48049,            0.,NA,NA,"",       3.43793,      -3.43310,   182.124E-03,   86.6358E-06
C:/temp/dataset/7/5_4.odb,Step-1,Increment      1: Step Time =    1.000,"PART-1-1",           131,       13.0764,       5.05734,            0.,NA,NA,"",       3.16786,      -3.16166,   198.206E-03,   149.907E-06
C:/temp/dataset/7/5_4.odb,Step-1,Increment      1: Step Time =    1.000,"PART-1-1",           132,       12.6962,       14.9270,            0.,NA,NA,"",       4.26614,      -4.26512,   93.4830E-03,   1.14358E-06
C:/temp/dataset/7/5_4.odb,Step-1,Increment      1: Step Time =    1.000,"PART-1-1",           133,       12.9459,       12.3607,            0.,NA,NA,"",       3.98155,      -3.97917,   137.621E-03,   8.04989E-06
C:/temp/dataset/7/5_4.odb,Step-1,Increment      1: Step Time =    1.000,"PART-1-1",           134,       12.9476,       20.4489,            0.,NA,NA,"",       4.88611,      -4.88533,   86.8910E-03,   331.013E-09
C:/temp/dataset/7/5_4.odb,Step-1,Increment      1: Step Time =    1.000,"PART-1-1",           135,       13.1802,       25.1793,            0.,NA,NA,"",       5.41737,      -5.41674,   83.1688E-03,   161.379E-09
C:/temp/dataset/7/5_4.odb,Step-1,Increment      1: Step Time =    1.000,"PART-1-1",           136,      -12.4062,       24.9250,            0.,NA,NA,"",       5.92125,      -5.22718,      -2.78168,   183.670E-09
C:/temp/dataset/7/5_4.odb,Step-1,Increment      1: Step Time =    1.000,"PART-1-1",           137,       11.3078,       25.3904,            0.,NA,NA,"",       5.43011,      -5.42860,  -127.927E-03,   165.389E-09
C:/temp/dataset/7/5_4.odb,Step-1,Increment      1: Step Time =    1.000,"PART-1-1",           138,      -10.1009,       25.2443,            0.,NA,NA,"",       5.85059,      -5.27747,      -2.52542,   183.240E-09
C:/temp/dataset/7/5_4.odb,Step-1,Increment      1: Step Time =    1.000,"PART-1-1",           139,      -4.83291,       26.5053,            0.,NA,NA,"",       5.78785,      -5.45190,      -1.94319,   187.435E-09
C:/temp/dataset/7/5_4.odb,Step-1,Increment      1: Step Time =    1.000,"PART-1-1",           140,       1.72347,       26.1851,            0.,NA,NA,"",       5.58911,      -5.45730,      -1.20666,   173.440E-09
C:/temp/dataset/7/5_4.odb,Step-1,Increment      1: Step Time =    1.000,"PART-1-1",           141,       6.12189,       25.7754,            0.,NA,NA,"",       5.48540,      -5.43909,  -711.324E-03,   173.648E-09
C:/temp/dataset/7/5_4.odb,Step-1,Increment      1: Step Time =    1.000,"PART-1-1",           142,       7.62725,       25.7499,            0.,NA,NA,"",       5.47266,      -5.44570,  -542.517E-03,   177.879E-09
C:/temp/dataset/7/5_4.odb,Step-1,Increment      1: Step Time =    1.000,"PART-1-1",           143,       3.76931,       25.0880,            0.,NA,NA,"",       5.43464,      -5.34727,  -970.556E-03,   155.117E-09
C:/temp/dataset/7/5_4.odb,Step-1,Increment      1: Step Time =    1.000,"PART-1-1",           144,  -231.428E-03,       26.1188,            0.,NA,NA,"",       5.62125,      -5.43756,      -1.42525,   177.572E-09
C:/temp/dataset/7/5_4.odb,Step-1,Increment      1: Step Time =    1.000,"PART-1-1",           145,      -2.48530,       25.9891,            0.,NA,NA,"",       5.66284,      -5.40885,      -1.67693,   180.688E-09
C:/temp/dataset/7/5_4.odb,Step-1,Increment      1: Step Time =    1.000,"PART-1-1",           146,      -3.63425,       26.9302,            0.,NA,NA,"",       5.79735,      -5.50704,      -1.81158,   190.630E-09
C:/temp/dataset/7/5_4.odb,Step-1,Increment      1: Step Time =    1.000,"PART-1-1",           147,      -8.31738,       25.8431,            0.,NA,NA,"",       5.84041,      -5.35577,      -2.32939,   184.533E-09
C:/temp/dataset/7/5_4.odb,Step-1,Increment      1: Step Time =    1.000,"PART-1-1",           148,       9.04714,   705.037E-03,            0.,NA,NA,"",       2.65754,      -2.64797,  -225.289E-03,   675.786E-06
C:/temp/dataset/7/5_4.odb,Step-1,Increment      1: Step Time =    1.000,"PART-1-1",           149,       7.85197,      -7.06885,            0.,NA,NA,"",       1.77197,      -1.74589,  -302.885E-03,   6.15833E-03
C:/temp/dataset/7/5_4.odb,Step-1,Increment      1: Step Time =    1.000,"PART-1-1",           150,       8.74205,      -22.9842,            0.,NA,NA,"",   242.148E-03,  -234.052E-03,  -62.0890E-03,   11.4165E-03
C:/temp/dataset/7/5_4.odb,Step-1,Increment      1: Step Time =    1.000,"PART-1-1",           151,       9.28078,      -15.1075,            0.,NA,NA,"",   875.873E-03,  -871.399E-03,  -88.4153E-03,   8.41269E-03
C:/temp/dataset/7/5_4.odb,Step-1,Increment      1: Step Time =    1.000,"PART-1-1",           152,       8.97855,      -1.55139,            0.,NA,NA,"",       2.40148,      -2.39147,  -219.105E-03,   2.04845E-03
C:/temp/dataset/7/5_4.odb,Step-1,Increment      1: Step Time =    1.000,"PART-1-1",           153,       9.09422,       9.69450,            0.,NA,NA,"",       3.66677,      -3.65629,  -277.060E-03,   40.1190E-06
C:/temp/dataset/7/5_4.odb,Step-1,Increment      1: Step Time =    1.000,"PART-1-1",           154,       8.44946,       15.5970,            0.,NA,NA,"",       4.33074,      -4.31346,  -386.493E-03,   1.05701E-06
C:/temp/dataset/7/5_4.odb,Step-1,Increment      1: Step Time =    1.000,"PART-1-1",           155,       9.11701,       7.46178,            0.,NA,NA,"",       3.41628,      -3.40634,  -260.364E-03,   92.1332E-06
C:/temp/dataset/7/5_4.odb,Step-1,Increment      1: Step Time =    1.000,"PART-1-1",           156,       8.83101,       13.9442,            0.,NA,NA,"",       4.14412,      -4.13070,  -333.342E-03,   4.00096E-06
C:/temp/dataset/7/5_4.odb,Step-1,Increment      1: Step Time =    1.000,"PART-1-1",           157,       9.61385,      -19.9311,            0.,NA,NA,"",   445.221E-03,  -444.005E-03,  -32.8932E-03,   8.19076E-03
C:/temp/dataset/7/5_4.odb,Step-1,Increment      1: Step Time =    1.000,"PART-1-1",           158,       9.10031,       2.95854,            0.,NA,NA,"",       2.91106,      -2.90168,  -233.508E-03,   151.377E-06
C:/temp/dataset/7/5_4.odb,Step-1,Increment      1: Step Time =    1.000,"PART-1-1",           159,       9.17986,      -12.8049,            0.,NA,NA,"",       1.11352,      -1.10751,  -115.538E-03,   8.33987E-03
C:/temp/dataset/7/5_4.odb,Step-1,Increment      1: Step Time =    1.000,"PART-1-1",           160,       8.54844,      -8.43147,            0.,NA,NA,"",       1.60659,      -1.59191,  -216.719E-03,   7.33712E-03
C:/temp/dataset/7/5_4.odb,Step-1,Increment      1: Step Time =    1.000,"PART-1-1",           161,       8.46228,      -5.79934,            0.,NA,NA,"",       1.91286,      -1.89678,  -247.461E-03,   5.49932E-03
C:/temp/dataset/7/5_4.odb,Step-1,Increment      1: Step Time =    1.000,"PART-1-1",           162,       8.97830,      -10.5487,            0.,NA,NA,"",       1.36198,      -1.35323,  -154.094E-03,   8.16356E-03
C:/temp/dataset/7/5_4.odb,Step-1,Increment      1: Step Time =    1.000,"PART-1-1",           163,       8.84007,      -3.76868,            0.,NA,NA,"",       2.14668,      -2.13533,  -220.467E-03,   3.95621E-03
C:/temp/dataset/7/5_4.odb,Step-1,Increment      1: Step Time =    1.000,"PART-1-1",           164,       9.12644,       5.21383,            0.,NA,NA,"",       3.16411,      -3.15461,  -244.981E-03,   146.619E-06
C:/temp/dataset/7/5_4.odb,Step-1,Increment      1: Step Time =    1.000,"PART-1-1",           165,       9.36869,      -17.5094,            0.,NA,NA,"",   648.850E-03,  -645.658E-03,  -64.2841E-03,   8.44667E-03
C:/temp/dataset/7/5_4.odb,Step-1,Increment      1: Step Time =    1.000,"PART-1-1",           166,       9.01212,       11.8707,            0.,NA,NA,"",       3.91108,      -3.89956,  -299.990E-03,   14.1356E-06
C:/temp/dataset/7/5_4.odb,Step-1,Increment      1: Step Time =    1.000,"PART-1-1",           167,       9.60003,       16.9835,            0.,NA,NA,"",       4.48394,      -4.47602,  -266.323E-03,   639.936E-09
C:/temp/dataset/7/5_4.odb,Step-1,Increment      1: Step Time =    1.000,"PART-1-1",           168,       7.13047,       19.6676,            0.,NA,NA,"",       4.79399,      -4.76118,  -559.883E-03,   421.868E-09
C:/temp/dataset/7/5_4.odb,Step-1,Increment      1: Step Time =    1.000,"PART-1-1",           169,       9.55406,      -25.2995,            0.,NA,NA,"",   112.205E-03,  -111.337E-03,  -13.9247E-03,   8.67019E-03
C:/temp/dataset/7/5_4.odb,Step-1,Increment      1: Step Time =    1.000,"PART-1-1",           170,       12.3800,      -27.4389,            0.,NA,NA,"",   63.0712E-03,  -45.9002E-03,   43.2567E-03,   23.0502E-03
C:/temp/dataset/7/5_4.odb,Step-1,Increment      1: Step Time =    1.000,"PART-1-1",           171,      -11.9351,       22.4166,            0.,NA,NA,"",       5.64401,      -4.94913,      -2.71311,   178.107E-09
C:/temp/dataset/7/5_4.odb,Step-1,Increment      1: Step Time =    1.000,"PART-1-1",           172,       10.9842,      -1.93535,            0.,NA,NA,"",       2.36317,      -2.36317,   5.75378E-03,   3.18787E-03
C:/temp/dataset/7/5_4.odb,Step-1,Increment      1: Step Time =    1.000,"PART-1-1",           173,       11.2234,      -14.9909,            0.,NA,NA,"",   895.069E-03,  -891.439E-03,   80.5254E-03,   8.99865E-03
C:/temp/dataset/7/5_4.odb,Step-1,Increment      1: Step Time =    1.000,"PART-1-1",           174,       11.0574,       21.1283,            0.,NA,NA,"",       4.95122,      -4.94954,  -129.148E-03,   351.672E-09
C:/temp/dataset/7/5_4.odb,Step-1,Increment      1: Step Time =    1.000,"PART-1-1",           175,       10.7466,       19.4847,            0.,NA,NA,"",       4.76592,      -4.76345,  -153.616E-03,   480.727E-09
C:/temp/dataset/7/5_4.odb,Step-1,Increment      1: Step Time =    1.000,"PART-1-1",           176,       11.0568,   433.028E-03,            0.,NA,NA,"",       2.63150,      -2.63150,   1.20231E-03,   1.14417E-03
C:/temp/dataset/7/5_4.odb,Step-1,Increment      1: Step Time =    1.000,"PART-1-1",           177,       10.9662,       12.1205,            0.,NA,NA,"",       3.94068,      -3.93981,  -82.6425E-03,   12.2075E-06
C:/temp/dataset/7/5_4.odb,Step-1,Increment      1: Step Time =    1.000,"PART-1-1",           178,       11.6216,      -21.4567,            0.,NA,NA,"",   351.370E-03,  -339.939E-03,   88.8972E-03,   12.8709E-03
C:/temp/dataset/7/5_4.odb,Step-1,Increment      1: Step Time =    1.000,"PART-1-1",           179,       11.2975,      -17.3958,            0.,NA,NA,"",   668.881E-03,  -663.467E-03,   84.9340E-03,   9.92545E-03
C:/temp/dataset/7/5_4.odb,Step-1,Increment      1: Step Time =    1.000,"PART-1-1",           180,       10.6273,       14.4803,            0.,NA,NA,"",       4.20424,      -4.20205,  -135.475E-03,   2.71030E-06
C:/temp/dataset/7/5_4.odb,Step-1,Increment      1: Step Time =    1.000,"PART-1-1",           181,       11.1012,       2.78293,            0.,NA,NA,"",       2.89481,      -2.89480,  -8.16505E-03,   229.254E-06
C:/temp/dataset/7/5_4.odb,Step-1,Increment      1: Step Time =    1.000,"PART-1-1",           182,       11.1153,       7.46695,            0.,NA,NA,"",       3.41958,      -3.41938,  -36.5149E-03,   93.5019E-06
C:/temp/dataset/7/5_4.odb,Step-1,Increment      1: Step Time =    1.000,"PART-1-1",           183,       11.1247,      -12.5851,            0.,NA,NA,"",       1.14222,      -1.14021,   67.8175E-03,   8.31509E-03
C:/temp/dataset/7/5_4.odb,Step-1,Increment      1: Step Time =    1.000,"PART-1-1",           184,       10.4094,      -7.19663,            0.,NA,NA,"",       1.74657,      -1.74632,  -29.6855E-03,   7.56698E-03
C:/temp/dataset/7/5_4.odb,Step-1,Increment      1: Step Time =    1.000,"PART-1-1",           185,       10.4303,      -22.2648,            0.,NA,NA,"",   280.271E-03,  -279.560E-03,   19.9521E-03,   8.68346E-03
C:/temp/dataset/7/5_4.odb,Step-1,Increment      1: Step Time =    1.000,"PART-1-1",           186,       10.9130,      -10.1038,            0.,NA,NA,"",       1.41381,      -1.41330,   37.9461E-03,   8.12991E-03
C:/temp/dataset/7/5_4.odb,Step-1,Increment      1: Step Time =    1.000,"PART-1-1",           187,       10.8491,      -4.38491,            0.,NA,NA,"",       2.07923,      -2.07923,   2.97783E-03,   5.56743E-03
C:/temp/dataset/7/5_4.odb,Step-1,Increment      1: Step Time =    1.000,"PART-1-1",           188,       11.1275,       5.13070,            0.,NA,NA,"",       3.15783,      -3.15777,  -20.2252E-03,   170.942E-06
C:/temp/dataset/7/5_4.odb,Step-1,Increment      1: Step Time =    1.000,"PART-1-1",           189,       11.0819,       9.79848,            0.,NA,NA,"",       3.68080,      -3.68039,  -55.0281E-03,   38.4312E-06
C:/temp/dataset/7/5_4.odb,Step-1,Increment      1: Step Time =    1.000,"PART-1-1",           190,       12.1026,      -24.5603,            0.,NA,NA,"",   176.064E-03,  -156.959E-03,   79.7659E-03,   18.0727E-03
C:/temp/dataset/7/5_4.odb,Step-1,Increment      1: Step Time =    1.000,"PART-1-1",           191,      -7.61069,       24.2264,            0.,NA,NA,"",       5.64277,      -5.17910,      -2.24004,   176.477E-09
C:/temp/dataset/7/5_4.odb,Step-1,Increment      1: Step Time =    1.000,"PART-1-1",           192,      -5.77678,       24.2650,            0.,NA,NA,"",       5.57928,      -5.19498,      -2.03483,   173.989E-09
C:/temp/dataset/7/5_4.odb,Step-1,Increment      1: Step Time =    1.000,"PART-1-1",           193,       1.00958,       23.8763,            0.,NA,NA,"",       5.34766,      -5.19415,      -1.27210,   150.890E-09
C:/temp/dataset/7/5_4.odb,Step-1,Increment      1: Step Time =    1.000,"PART-1-1",           194,      -3.86757,       24.8145,            0.,NA,NA,"",       5.57548,      -5.26855,      -1.82440,   174.126E-09
C:/temp/dataset/7/5_4.odb,Step-1,Increment      1: Step Time =    1.000,"PART-1-1",           195,  -996.969E-03,       24.6602,            0.,NA,NA,"",       5.47918,      -5.26934,      -1.50183,   165.802E-09
C:/temp/dataset/7/5_4.odb,Step-1,Increment      1: Step Time =    1.000,"PART-1-1",           196,       7.19995,       21.7613,            0.,NA,NA,"",       5.02805,      -4.99617,  -565.279E-03,   283.041E-09
C:/temp/dataset/7/5_4.odb,Step-1,Increment      1: Step Time =    1.000,"PART-1-1",           197,       2.92747,       22.7842,            0.,NA,NA,"",       5.19125,      -5.08387,      -1.05037,   132.230E-09
C:/temp/dataset/7/5_4.odb,Step-1,Increment      1: Step Time =    1.000,"PART-1-1",           198,       5.53232,       24.2100,            0.,NA,NA,"",       5.31571,      -5.26000,  -767.519E-03,   152.411E-09
C:/temp/dataset/7/5_4.odb,Step-1,Increment      1: Step Time =    1.000,"PART-1-1",           199,       9.18626,       19.3402,            0.,NA,NA,"",       4.74875,      -4.73744,  -327.513E-03,   485.213E-09
C:/temp/dataset/7/5_4.odb,Step-1,Increment      1: Step Time =    1.000,"PART-1-1",           200,       11.2321,       23.1770,            0.,NA,NA,"",       5.18160,      -5.18015,  -122.473E-03,   207.544E-09
C:/temp/dataset/7/5_4.odb,Step-1,Increment      1: Step Time =    1.000,"PART-1-1",           201,       5.11021,       22.1378,            0.,NA,NA,"",       5.08876,      -5.02520,  -801.763E-03,   173.648E-09
C:/temp/dataset/7/5_4.odb,Step-1,Increment      1: Step Time =    1.000,"PART-1-1",           202,   167.280E-03,       22.2372,            0.,NA,NA,"",       5.18568,      -5.00521,      -1.35615,   146.942E-09
C:/temp/dataset/7/5_4.odb,Step-1,Increment      1: Step Time =    1.000,"PART-1-1",           203,      -2.32264,       22.6339,            0.,NA,NA,"",       5.29365,      -5.03399,      -1.63759,   158.288E-09
C:/temp/dataset/7/5_4.odb,Step-1,Increment      1: Step Time =    1.000,"PART-1-1",           204,       9.17324,       21.4477,            0.,NA,NA,"",       4.98523,      -4.97347,  -342.238E-03,   326.866E-09
C:/temp/dataset/7/5_4.odb,Step-1,Increment      1: Step Time =    1.000,"PART-1-1",           205,       9.43619,       25.5889,            0.,NA,NA,"",       5.44960,      -5.43906,  -338.849E-03,   176.537E-09
C:/temp/dataset/7/5_4.odb,Step-1,Increment      1: Step Time =    1.000,"PART-1-1",           206,      -5.39738,       22.2321,            0.,NA,NA,"",       5.34935,      -4.96961,      -1.97952,   163.470E-09
C:/temp/dataset/7/5_4.odb,Step-1,Increment      1: Step Time =    1.000,"PART-1-1",           207,      -8.66915,       22.6604,            0.,NA,NA,"",       5.52147,      -4.99700,      -2.34876,   172.299E-09
C:/temp/dataset/7/5_4.odb,Step-1,Increment      1: Step Time =    1.000,"PART-1-1",           208,      -12.8188,       27.4435,            0.,NA,NA,"",       6.19766,      -5.50673,      -2.84375,   185.575E-09
C:/temp/dataset/7/5_4.odb,Step-1,Increment      1: Step Time =    1.000,"PART-1-1",           209,       7.43992,       23.7550,            0.,NA,NA,"",       5.25002,      -5.22103,  -550.945E-03,   196.401E-09
C:/temp/dataset/7/5_4.odb,Step-1,Increment      1: Step Time =    1.000,"PART-1-1",           210,      -6.48406,       26.1481,            0.,NA,NA,"",       5.80479,      -5.40149,      -2.12592,   185.564E-09
C:/temp/dataset/7/5_4.odb,Step-1,Increment      1: Step Time =    1.000,"PART-1-1",           211,       3.18484,       28.0088,            0.,NA,NA,"",       5.76800,      -5.67081,      -1.05442,   198.680E-09
C:/temp/dataset/7/5_4.odb,Step-1,Increment      1: Step Time =    1.000,"PART-1-1",           212,       11.4304,      -19.6429,            0.,NA,NA,"",   481.734E-03,  -473.731E-03,   87.4437E-03,   11.2102E-03
C:/temp/dataset/7/5_4.odb,Step-1,Increment      1: Step Time =    1.000,"PART-1-1",           213,       9.33060,       23.4727,            0.,NA,NA,"",       5.21225,      -5.20132,  -337.357E-03,   215.341E-09
C:/temp/dataset/7/5_4.odb,Step-1,Increment      1: Step Time =    1.000,"PART-1-1",           214,      -12.1707,       23.6708,            0.,NA,NA,"",       5.78252,      -5.08815,      -2.74739,   181.080E-09
C:/temp/dataset/7/5_4.odb,Step-1,Increment      1: Step Time =    1.000,"PART-1-1",           215,      -13.7031,       24.9625,            0.,NA,NA,"",       5.98753,      -5.22322,      -2.92721,   182.835E-09
C:/temp/dataset/7/5_4.odb,Step-1,Increment      1: Step Time =    1.000,"PART-1-1",           216,          -15.,         23.75,            0.,NA,NA,"",       5.93227,      -5.07922,      -3.06487,   185.935E-09
C:/temp/dataset/7/5_4.odb,Step-1,Increment      1: Step Time =    1.000,"PART-1-1",           217,      -13.4675,       22.4583,            0.,NA,NA,"",       5.72435,      -4.94415,      -2.88505,   184.797E-09
C:/temp/dataset/7/5_4.odb,Step-1,Increment      1: Step Time =    1.000,"PART-1-1",           218,      -9.86170,       27.7278,            0.,NA,NA,"",       6.09951,      -5.55720,      -2.51426,   191.575E-09
C:/temp/dataset/7/5_4.odb,Step-1,Increment      1: Step Time =    1.000,"PART-1-1",           219,      -10.4490,       26.4258,            0.,NA,NA,"",       5.98807,      -5.40763,      -2.57186,   186.467E-09
C:/temp/dataset/7/5_4.odb,Step-1,Increment      1: Step Time =    1.000,"PART-1-1",           220,      -9.20914,       25.5437,            0.,NA,NA,"",       5.84455,      -5.31662,      -2.42741,   183.784E-09
C:/temp/dataset/7/5_4.odb,Step-1,Increment      1: Step Time =    1.000,"PART-1-1",           221,      -8.62185,       26.8458,            0.,NA,NA,"",       5.95778,      -5.46619,      -2.36981,   188.775E-09
C:/temp/dataset/7/5_4.odb,Step-1,Increment      1: Step Time =    1.000,"PART-1-1",           222,      -9.15066,       28.9242,            0.,NA,NA,"",       6.19719,      -5.69571,      -2.44213,   198.134E-09
C:/temp/dataset/7/5_4.odb,Step-1,Increment      1: Step Time =    1.000,"PART-1-1",           223,      -10.3125,           30.,            0.,NA,NA,"",       6.35571,      -5.80891,      -2.57907,   200.630E-09
C:/temp/dataset/7/5_4.odb,Step-1,Increment      1: Step Time =    1.000,"PART-1-1",           224,      -11.0235,       28.8036,            0.,NA,NA,"",       6.25958,      -5.67040,      -2.65119,   193.452E-09
C:/temp/dataset/7/5_4.odb,Step-1,Increment      1: Step Time =    1.000,"PART-1-1",           225,      -11.2536,       25.0847,            0.,NA,NA,"",       5.88458,      -5.25232,      -2.65355,   183.369E-09
C:/temp/dataset/7/5_4.odb,Step-1,Increment      1: Step Time =    1.000,"PART-1-1",           226,      -10.3021,       22.5385,            0.,NA,NA,"",       5.58005,      -4.97306,      -2.53093,   174.911E-09
C:/temp/dataset/7/5_4.odb,Step-1,Increment      1: Step Time =    1.000,"PART-1-1",           227,      -9.38503,       23.9523,            0.,NA,NA,"",       5.68600,      -5.13723,      -2.43709,   177.515E-09
C:/temp/dataset/7/5_4.odb,Step-1,Increment      1: Step Time =    1.000,"PART-1-1",           228,      -12.9719,       28.7217,            0.,NA,NA,"",       6.33575,      -5.64897,      -2.86895,   189.652E-09
C:/temp/dataset/7/5_4.odb,Step-1,Increment      1: Step Time =    1.000,"PART-1-1",           229,      -14.0625,           30.,            0.,NA,NA,"",       6.51651,      -5.78531,      -2.99918,   191.693E-09
C:/temp/dataset/7/5_4.odb,Step-1,Increment      1: Step Time =    1.000,"PART-1-1",           230,          -15.,         28.75,            0.,NA,NA,"",       6.43349,      -5.63937,      -3.09634,   179.644E-09
C:/temp/dataset/7/5_4.odb,Step-1,Increment      1: Step Time =    1.000,"PART-1-1",           231,      -13.9094,       27.4717,            0.,NA,NA,"",       6.25149,      -5.50303,      -2.96611,   180.317E-09
C:/temp/dataset/7/5_4.odb,Step-1,Increment      1: Step Time =    1.000,"PART-1-1",           232,      -7.40072,       25.9956,            0.,NA,NA,"",       5.82169,      -5.37863,      -2.22765,   185.050E-09
C:/temp/dataset/7/5_4.odb,Step-1,Increment      1: Step Time =    1.000,"PART-1-1",           233,      -7.96404,       25.0347,            0.,NA,NA,"",       5.74158,      -5.26744,      -2.28471,   180.454E-09
C:/temp/dataset/7/5_4.odb,Step-1,Increment      1: Step Time =    1.000,"PART-1-1",           234,      -6.69374,       24.2457,            0.,NA,NA,"",       5.61017,      -5.18704,      -2.13743,   175.223E-09
C:/temp/dataset/7/5_4.odb,Step-1,Increment      1: Step Time =    1.000,"PART-1-1",           235,      -6.13042,       25.2066,            0.,NA,NA,"",       5.69203,      -5.29823,      -2.08037,   179.545E-09
C:/temp/dataset/7/5_4.odb,Step-1,Increment      1: Step Time =    1.000,"PART-1-1",           236,      -5.46940,       29.1125,            0.,NA,NA,"",       6.08867,      -5.73998,      -2.03091,   208.344E-09
C:/temp/dataset/7/5_4.odb,Step-1,Increment      1: Step Time =    1.000,"PART-1-1",           237,      -4.41178,       28.2246,            0.,NA,NA,"",       5.96040,      -5.64716,      -1.90683,   202.314E-09
C:/temp/dataset/7/5_4.odb,Step-1,Increment      1: Step Time =    1.000,"PART-1-1",           238,      -3.62988,       29.1121,            0.,NA,NA,"",       6.03405,      -5.75151,      -1.82482,   213.227E-09
C:/temp/dataset/7/5_4.odb,Step-1,Increment      1: Step Time =    1.000,"PART-1-1",           239,       -4.6875,           30.,            0.,NA,NA,"",       6.16071,      -5.84432,      -1.94890,   219.841E-09
C:/temp/dataset/7/5_4.odb,Step-1,Increment      1: Step Time =    1.000,"PART-1-1",           240,  -467.629E-03,       27.9420,            0.,NA,NA,"",       5.82702,      -5.64032,      -1.46319,   202.424E-09
C:/temp/dataset/7/5_4.odb,Step-1,Increment      1: Step Time =    1.000,"PART-1-1",           241,  -845.263E-03,       26.9234,            0.,NA,NA,"",       5.72364,      -5.52384,      -1.49908,   188.408E-09
C:/temp/dataset/7/5_4.odb,Step-1,Increment      1: Step Time =    1.000,"PART-1-1",           242,   746.021E-03,       26.1520,            0.,NA,NA,"",       5.60413,      -5.44743,      -1.31595,   176.223E-09
C:/temp/dataset/7/5_4.odb,Step-1,Increment      1: Step Time =    1.000,"PART-1-1",           243,       1.12365,       27.1705,            0.,NA,NA,"",       5.70927,      -5.56392,      -1.28006,   188.669E-09
C:/temp/dataset/7/5_4.odb,Step-1,Increment      1: Step Time =    1.000,"PART-1-1",           244,       14.0901,       25.0896,            0.,NA,NA,"",       5.41561,      -5.41242,   185.671E-03,   168.174E-09
C:/temp/dataset/7/5_4.odb,Step-1,Increment      1: Step Time =    1.000,"PART-1-1",           245,       13.1528,       23.9903,            0.,NA,NA,"",       5.28409,      -5.28336,   87.5829E-03,   164.989E-09
C:/temp/dataset/7/5_4.odb,Step-1,Increment      1: Step Time =    1.000,"PART-1-1",           246,       14.0627,       22.6507,            0.,NA,NA,"",       5.14282,      -5.13901,   197.954E-03,   158.495E-09
C:/temp/dataset/7/5_4.odb,Step-1,Increment      1: Step Time =    1.000,"PART-1-1",           247,           15.,         23.75,            0.,NA,NA,"",       5.27638,      -5.26807,   296.041E-03,   161.277E-09
C:/temp/dataset/7/5_4.odb,Step-1,Increment      1: Step Time =    1.000,"PART-1-1",           248,       11.2764,       28.8302,            0.,NA,NA,"",       5.81578,      -5.81377,  -153.092E-03,   155.171E-09
C:/temp/dataset/7/5_4.odb,Step-1,Increment      1: Step Time =    1.000,"PART-1-1",           249,       10.3125,           30.,            0.,NA,NA,"",       5.94481,      -5.93875,  -268.444E-03,   159.201E-09
C:/temp/dataset/7/5_4.odb,Step-1,Increment      1: Step Time =    1.000,"PART-1-1",           250,       9.39543,       28.8642,            0.,NA,NA,"",       5.81714,      -5.80574,  -364.033E-03,   168.103E-09
C:/temp/dataset/7/5_4.odb,Step-1,Increment      1: Step Time =    1.000,"PART-1-1",           251,       10.3594,       27.6945,            0.,NA,NA,"",       5.68620,      -5.68075,  -248.681E-03,   166.066E-09
C:/temp/dataset/7/5_4.odb,Step-1,Increment      1: Step Time =    1.000,"PART-1-1",           252,        8.4375,           30.,            0.,NA,NA,"",       5.94623,      -5.92695,  -478.500E-03,   182.918E-09
C:/temp/dataset/7/5_4.odb,Step-1,Increment      1: Step Time =    1.000,"PART-1-1",           253,       7.48312,       28.8587,            0.,NA,NA,"",       5.82187,      -5.79308,  -578.235E-03,   187.471E-09
C:/temp/dataset/7/5_4.odb,Step-1,Increment      1: Step Time =    1.000,"PART-1-1",           254,       8.44105,       27.7230,            0.,NA,NA,"",       5.69080,      -5.67187,  -463.768E-03,   176.763E-09
C:/temp/dataset/7/5_4.odb,Step-1,Increment      1: Step Time =    1.000,"PART-1-1",           255,       13.0365,       21.6252,            0.,NA,NA,"",       5.01846,      -5.01766,   89.4440E-03,   239.604E-09
C:/temp/dataset/7/5_4.odb,Step-1,Increment      1: Step Time =    1.000,"PART-1-1",           256,       13.9738,       20.2245,            0.,NA,NA,"",       4.87089,      -4.86664,   203.270E-03,   203.155E-09
C:/temp/dataset/7/5_4.odb,Step-1,Increment      1: Step Time =    1.000,"PART-1-1",           257,           15.,         21.25,            0.,NA,NA,"",       4.99773,      -4.98799,   311.779E-03,   140.583E-09
C:/temp/dataset/7/5_4.odb,Step-1,Increment      1: Step Time =    1.000,"PART-1-1",           258,       6.90015,       14.7921,            0.,NA,NA,"",       4.24993,      -4.21353,  -554.994E-03,   1.55226E-06
C:/temp/dataset/7/5_4.odb,Step-1,Increment      1: Step Time =    1.000,"PART-1-1",           259,       5.93474,       15.8126,            0.,NA,NA,"",       4.37334,      -4.32178,  -669.571E-03,   810.446E-09
C:/temp/dataset/7/5_4.odb,Step-1,Increment      1: Step Time =    1.000,"PART-1-1",           260,            5.,       14.7917,            0.,NA,NA,"",       4.27111,      -4.20152,  -767.859E-03,   1.29841E-06
C:/temp/dataset/7/5_4.odb,Step-1,Increment      1: Step Time =    1.000,"PART-1-1",           261,       5.96541,       13.7711,            0.,NA,NA,"",       4.14508,      -4.09327,  -653.284E-03,   1.34034E-06
C:/temp/dataset/7/5_4.odb,Step-1,Increment      1: Step Time =    1.000,"PART-1-1",           262,       7.07741,       8.55300,            0.,NA,NA,"",       3.55057,      -3.51578,  -495.870E-03,   55.8619E-06
C:/temp/dataset/7/5_4.odb,Step-1,Increment      1: Step Time =    1.000,"PART-1-1",           263,       6.03400,       9.60662,            0.,NA,NA,"",       3.67972,      -3.62721,  -619.410E-03,   22.6375E-06
C:/temp/dataset/7/5_4.odb,Step-1,Increment      1: Step Time =    1.000,"PART-1-1",           264,            5.,       8.54167,            0.,NA,NA,"",       3.57641,      -3.50141,  -728.569E-03,   46.8496E-06
C:/temp/dataset/7/5_4.odb,Step-1,Increment      1: Step Time =    1.000,"PART-1-1",           265,       6.04341,       7.48805,            0.,NA,NA,"",       3.44356,      -3.38998,  -605.078E-03,   59.2755E-06
C:/temp/dataset/7/5_4.odb,Step-1,Increment      1: Step Time =    1.000,"PART-1-1",           266,            5.,         4.375,            0.,NA,NA,"",       3.11479,      -3.03447,  -702.792E-03,   242.991E-06
C:/temp/dataset/7/5_4.odb,Step-1,Increment      1: Step Time =    1.000,"PART-1-1",           267,       6.03822,       3.24050,            0.,NA,NA,"",       2.97082,      -2.91380,  -579.267E-03,   184.923E-06
C:/temp/dataset/7/5_4.odb,Step-1,Increment      1: Step Time =    1.000,"PART-1-1",           268,       7.08368,       4.22909,            0.,NA,NA,"",       3.06731,      -3.03140,  -467.980E-03,   115.295E-06
C:/temp/dataset/7/5_4.odb,Step-1,Increment      1: Step Time =    1.000,"PART-1-1",           269,       6.04546,       5.36359,            0.,NA,NA,"",       3.20703,      -3.15199,  -591.605E-03,   121.405E-06
C:/temp/dataset/7/5_4.odb,Step-1,Increment      1: Step Time =    1.000,"PART-1-1",           270,            5.,       2.29167,            0.,NA,NA,"",       2.88423,      -2.80042,  -690.214E-03,   351.893E-06
C:/temp/dataset/7/5_4.odb,Step-1,Increment      1: Step Time =    1.000,"PART-1-1",           271,       6.01828,       1.12309,            0.,NA,NA,"",       2.73504,      -2.67534,  -568.361E-03,   208.765E-06
C:/temp/dataset/7/5_4.odb,Step-1,Increment      1: Step Time =    1.000,"PART-1-1",           272,       7.05649,       2.07193,            0.,NA,NA,"",       2.82623,      -2.78897,  -457.455E-03,   90.6172E-06
C:/temp/dataset/7/5_4.odb,Step-1,Increment      1: Step Time =    1.000,"PART-1-1",           273,       7.00178,  -77.9012E-03,            0.,NA,NA,"",       2.58527,      -2.54583,  -449.880E-03,   641.169E-06
C:/temp/dataset/7/5_4.odb,Step-1,Increment      1: Step Time =    1.000,"PART-1-1",           274,            5.,   208.333E-03,            0.,NA,NA,"",       2.65330,      -2.56530,  -677.664E-03,   255.165E-06
C:/temp/dataset/7/5_4.odb,Step-1,Increment      1: Step Time =    1.000,"PART-1-1",           275,       5.98350,  -992.661E-03,            0.,NA,NA,"",       2.49862,      -2.43536,  -558.672E-03,   499.022E-06
C:/temp/dataset/7/5_4.odb,Step-1,Increment      1: Step Time =    1.000,"PART-1-1",           276,       6.59145,      -6.15040,            0.,NA,NA,"",       1.89986,      -1.84598,  -449.247E-03,   4.70430E-03
C:/temp/dataset/7/5_4.odb,Step-1,Increment      1: Step Time =    1.000,"PART-1-1",           277,       5.82593,      -5.11028,            0.,NA,NA,"",       2.03638,      -1.96214,  -544.844E-03,   3.03842E-03
C:/temp/dataset/7/5_4.odb,Step-1,Increment      1: Step Time =    1.000,"PART-1-1",           278,            5.,      -6.04167,            0.,NA,NA,"",       1.95525,      -1.85095,  -630.069E-03,   4.24946E-03
C:/temp/dataset/7/5_4.odb,Step-1,Increment      1: Step Time =    1.000,"PART-1-1",           279,       5.76552,      -7.08179,            0.,NA,NA,"",       1.81481,      -1.73517,  -531.737E-03,   5.33715E-03
C:/temp/dataset/7/5_4.odb,Step-1,Increment      1: Step Time =    1.000,"PART-1-1",           280,       8.25955,      -15.2021,            0.,NA,NA,"",   878.404E-03,  -860.401E-03,  -176.925E-03,   9.85584E-03
C:/temp/dataset/7/5_4.odb,Step-1,Increment      1: Step Time =    1.000,"PART-1-1",           281,       9.23032,      -13.9562,            0.,NA,NA,"",   992.518E-03,  -987.293E-03,  -101.706E-03,   8.36922E-03
C:/temp/dataset/7/5_4.odb,Step-1,Increment      1: Step Time =    1.000,"PART-1-1",           282,       8.16037,      -12.9544,            0.,NA,NA,"",       1.10931,      -1.08905,  -211.049E-03,   9.11380E-03
C:/temp/dataset/7/5_4.odb,Step-1,Increment      1: Step Time =    1.000,"PART-1-1",           283,       7.18960,      -14.2003,            0.,NA,NA,"",       1.00178,  -959.790E-03,  -287.005E-03,   11.8993E-03
C:/temp/dataset/7/5_4.odb,Step-1,Increment      1: Step Time =    1.000,"PART-1-1",           284,            5.,      -22.7083,            0.,NA,NA,"",   389.121E-03,  -280.583E-03,  -269.608E-03,   34.0063E-03
C:/temp/dataset/7/5_4.odb,Step-1,Increment      1: Step Time =    1.000,"PART-1-1",           285,       5.97351,      -23.6835,            0.,NA,NA,"",   283.363E-03,  -213.698E-03,  -186.084E-03,   28.8493E-03
C:/temp/dataset/7/5_4.odb,Step-1,Increment      1: Step Time =    1.000,"PART-1-1",           286,       6.71140,      -22.7416,            0.,NA,NA,"",   310.385E-03,  -259.589E-03,  -170.155E-03,   22.5450E-03
C:/temp/dataset/7/5_4.odb,Step-1,Increment      1: Step Time =    1.000,"PART-1-1",           287,       5.73789,      -21.7664,            0.,NA,NA,"",   414.496E-03,  -329.554E-03,  -251.399E-03,   27.4629E-03
C:/temp/dataset/7/5_4.odb,Step-1,Increment      1: Step Time =    1.000,"PART-1-1",           288,       9.95056,      -28.8261,            0.,NA,NA,"",   4.91531E-03,  -4.91517E-03,   37.3968E-06,   2.93252E-03
C:/temp/dataset/7/5_4.odb,Step-1,Increment      1: Step Time =    1.000,"PART-1-1",           289,       8.67404,      -27.7482,            0.,NA,NA,"",   33.0457E-03,  -27.3090E-03,  -18.6074E-03,   13.1179E-03
C:/temp/dataset/7/5_4.odb,Step-1,Increment      1: Step Time =    1.000,"PART-1-1",           290,       7.47347,      -28.9221,            0.,NA,NA,"",   18.1546E-03,  -7.55547E-03,  -16.5077E-03,   18.9476E-03
C:/temp/dataset/7/5_4.odb,Step-1,Increment      1: Step Time =    1.000,"PART-1-1",           291,          8.75,          -30.,            0.,NA,NA,"",            0.,   2.27105E-39,  -17.0085E-39,   8.27733E-03
C:/temp/dataset/7/5_4.odb,Step-1,Increment      1: Step Time =    1.000,"PART-1-1",           292,       9.14805,      -24.1419,            0.,NA,NA,"",   171.806E-03,  -168.283E-03,  -34.6138E-03,   9.73107E-03
C:/temp/dataset/7/5_4.odb,Step-1,Increment      1: Step Time =    1.000,"PART-1-1",           293,       7.84454,      -23.3007,            0.,NA,NA,"",   241.567E-03,  -219.080E-03,  -101.776E-03,   16.2404E-03
C:/temp/dataset/7/5_4.odb,Step-1,Increment      1: Step Time =    1.000,"PART-1-1",           294,       7.10828,      -24.6604,            0.,NA,NA,"",   188.360E-03,  -152.569E-03,  -110.463E-03,   22.3209E-03
C:/temp/dataset/7/5_4.odb,Step-1,Increment      1: Step Time =    1.000,"PART-1-1",           295,       8.41180,      -25.5016,            0.,NA,NA,"",   116.388E-03,  -105.454E-03,  -49.2507E-03,   14.3589E-03
C:/temp/dataset/7/5_4.odb,Step-1,Increment      1: Step Time =    1.000,"PART-1-1",           296,       7.00425,      -21.1298,            0.,NA,NA,"",   406.759E-03,  -361.826E-03,  -185.835E-03,   19.3816E-03
C:/temp/dataset/7/5_4.odb,Step-1,Increment      1: Step Time =    1.000,"PART-1-1",           297,       6.26636,      -19.9884,            0.,NA,NA,"",   518.678E-03,  -449.271E-03,  -259.195E-03,   21.7794E-03
C:/temp/dataset/7/5_4.odb,Step-1,Increment      1: Step Time =    1.000,"PART-1-1",           298,            5.,       -20.625,            0.,NA,NA,"",   532.645E-03,  -414.694E-03,  -334.275E-03,   30.3598E-03
C:/temp/dataset/7/5_4.odb,Step-1,Increment      1: Step Time =    1.000,"PART-1-1",           299,       12.8526,      -8.63250,            0.,NA,NA,"",       1.61460,      -1.59739,   235.087E-03,   8.05867E-03
C:/temp/dataset/7/5_4.odb,Step-1,Increment      1: Step Time =    1.000,"PART-1-1",           300,       13.9581,      -9.97058,            0.,NA,NA,"",       1.49565,      -1.45295,   354.806E-03,   9.38497E-03
C:/temp/dataset/7/5_4.odb,Step-1,Increment      1: Step Time =    1.000,"PART-1-1",           301,           15.,         -8.75,            0.,NA,NA,"",       1.67235,      -1.60400,   473.216E-03,   9.67043E-03
C:/temp/dataset/7/5_4.odb,Step-1,Increment      1: Step Time =    1.000,"PART-1-1",           302,       13.8945,      -7.41192,            0.,NA,NA,"",       1.78544,      -1.75144,   346.765E-03,   7.57959E-03
C:/temp/dataset/7/5_4.odb,Step-1,Increment      1: Step Time =    1.000,"PART-1-1",           303,            5.,        10.625,            0.,NA,NA,"",       3.80769,      -3.73477,  -741.638E-03,   13.0869E-06
C:/temp/dataset/7/5_4.odb,Step-1,Increment      1: Step Time =    1.000,"PART-1-1",           304,       7.03988,       10.6820,            0.,NA,NA,"",       3.78895,      -3.75400,  -513.470E-03,   22.9647E-06
C:/temp/dataset/7/5_4.odb,Step-1,Increment      1: Step Time =    1.000,"PART-1-1",           305,       6.00589,       11.7004,            0.,NA,NA,"",       3.91354,      -3.86156,  -635.718E-03,   6.60609E-06
C:/temp/dataset/7/5_4.odb,Step-1,Increment      1: Step Time =    1.000,"PART-1-1",           306,       2.74639,       25.6366,            0.,NA,NA,"",       5.51088,      -5.40229,      -1.08861,   159.685E-09
C:/temp/dataset/7/5_4.odb,Step-1,Increment      1: Step Time =    1.000,"PART-1-1",           307,       1.36653,       25.0307,            0.,NA,NA,"",       5.46804,      -5.32573,      -1.23938,   158.992E-09
C:/temp/dataset/7/5_4.odb,Step-1,Increment      1: Step Time =    1.000,"PART-1-1",           308,       1.96853,       23.3303,            0.,NA,NA,"",       5.26858,      -5.13901,      -1.16123,   137.236E-09
C:/temp/dataset/7/5_4.odb,Step-1,Increment      1: Step Time =    1.000,"PART-1-1",           309,       3.34839,       23.9361,            0.,NA,NA,"",       5.31255,      -5.21557,      -1.01046,   134.134E-09
C:/temp/dataset/7/5_4.odb,Step-1,Increment      1: Step Time =    1.000,"PART-1-1",           310,       4.47216,       26.2029,            0.,NA,NA,"",       5.54986,      -5.47659,  -898.834E-03,   168.988E-09
C:/temp/dataset/7/5_4.odb,Step-1,Increment      1: Step Time =    1.000,"PART-1-1",           311,       4.17993,       27.6633,            0.,NA,NA,"",       5.71631,      -5.63836,  -940.767E-03,   190.661E-09
C:/temp/dataset/7/5_4.odb,Step-1,Increment      1: Step Time =    1.000,"PART-1-1",           312,       2.45416,       27.0970,            0.,NA,NA,"",       5.67775,      -5.56406,      -1.13054,   185.473E-09
C:/temp/dataset/7/5_4.odb,Step-1,Increment      1: Step Time =    1.000,"PART-1-1",           313,      -1.66705,       28.8640,            0.,NA,NA,"",       5.95595,      -5.73607,      -1.60336,   214.515E-09
C:/temp/dataset/7/5_4.odb,Step-1,Increment      1: Step Time =    1.000,"PART-1-1",           314,   261.919E-03,       29.0779,            0.,NA,NA,"",       5.93686,      -5.77218,      -1.38861,   221.888E-09
C:/temp/dataset/7/5_4.odb,Step-1,Increment      1: Step Time =    1.000,"PART-1-1",           315,    -937.5E-03,           30.,            0.,NA,NA,"",       6.06381,      -5.86793,      -1.52878,   235.261E-09
C:/temp/dataset/7/5_4.odb,Step-1,Increment      1: Step Time =    1.000,"PART-1-1",           316,          -15.,         21.25,            0.,NA,NA,"",       5.68585,      -4.79914,      -3.04913,   190.431E-09
C:/temp/dataset/7/5_4.odb,Step-1,Increment      1: Step Time =    1.000,"PART-1-1",           317,      -13.3250,           20.,            0.,NA,NA,"",       5.47254,      -4.66965,      -2.85361,   178.347E-09
C:/temp/dataset/7/5_4.odb,Step-1,Increment      1: Step Time =    1.000,"PART-1-1",           318,      -11.7925,       21.2083,            0.,NA,NA,"",       5.51494,      -4.81466,      -2.68953,   174.253E-09
C:/temp/dataset/7/5_4.odb,Step-1,Increment      1: Step Time =    1.000,"PART-1-1",           319,       10.1137,       15.7319,            0.,NA,NA,"",       4.34369,      -4.33904,  -200.900E-03,   1.43746E-06
C:/temp/dataset/7/5_4.odb,Step-1,Increment      1: Step Time =    1.000,"PART-1-1",           320,       9.02474,       16.2903,            0.,NA,NA,"",       4.40685,      -4.39474,  -326.408E-03,   725.518E-09
C:/temp/dataset/7/5_4.odb,Step-1,Increment      1: Step Time =    1.000,"PART-1-1",           321,       8.64023,       14.7706,            0.,NA,NA,"",       4.23739,      -4.22208,  -359.918E-03,   2.51511E-06
C:/temp/dataset/7/5_4.odb,Step-1,Increment      1: Step Time =    1.000,"PART-1-1",           322,       9.72917,       14.2122,            0.,NA,NA,"",       4.17296,      -4.16637,  -234.409E-03,   3.18238E-06
C:/temp/dataset/7/5_4.odb,Step-1,Increment      1: Step Time =    1.000,"PART-1-1",           323,       12.8210,       13.6438,            0.,NA,NA,"",       4.12377,      -4.12215,   115.552E-03,   4.73819E-06
C:/temp/dataset/7/5_4.odb,Step-1,Increment      1: Step Time =    1.000,"PART-1-1",           324,       13.9730,       12.4303,            0.,NA,NA,"",       4.00140,      -3.99344,   252.242E-03,   4.14551E-06
C:/temp/dataset/7/5_4.odb,Step-1,Increment      1: Step Time =    1.000,"PART-1-1",           325,           15.,         13.75,            0.,NA,NA,"",       4.16327,      -4.14776,   358.999E-03,   382.190E-09
C:/temp/dataset/7/5_4.odb,Step-1,Increment      1: Step Time =    1.000,"PART-1-1",           326,       13.8481,       14.9635,            0.,NA,NA,"",       4.28223,      -4.27646,   222.305E-03,   579.365E-09
C:/temp/dataset/7/5_4.odb,Step-1,Increment      1: Step Time =    1.000,"PART-1-1",           327,       10.1008,       2.87074,            0.,NA,NA,"",       2.90076,      -2.89825,  -120.761E-03,   180.839E-06
C:/temp/dataset/7/5_4.odb,Step-1,Increment      1: Step Time =    1.000,"PART-1-1",           328,       9.07373,       1.83179,            0.,NA,NA,"",       2.78448,      -2.77502,  -229.361E-03,   348.135E-06
C:/temp/dataset/7/5_4.odb,Step-1,Increment      1: Step Time =    1.000,"PART-1-1",           329,       10.0520,   569.032E-03,            0.,NA,NA,"",       2.64196,      -2.63959,  -111.976E-03,   872.983E-06
C:/temp/dataset/7/5_4.odb,Step-1,Increment      1: Step Time =    1.000,"PART-1-1",           330,       11.0790,       1.60798,            0.,NA,NA,"",       2.76328,      -2.76328,  -3.30044E-03,   557.505E-06
C:/temp/dataset/7/5_4.odb,Step-1,Increment      1: Step Time =    1.000,"PART-1-1",           331,       9.98138,      -1.74337,            0.,NA,NA,"",       2.37936,      -2.37698,  -106.499E-03,   2.55003E-03
C:/temp/dataset/7/5_4.odb,Step-1,Increment      1: Step Time =    1.000,"PART-1-1",           332,       8.90931,      -2.66004,            0.,NA,NA,"",       2.27449,      -2.26384,  -219.930E-03,   2.97752E-03
C:/temp/dataset/7/5_4.odb,Step-1,Increment      1: Step Time =    1.000,"PART-1-1",           333,       9.84458,      -4.07679,            0.,NA,NA,"",       2.10973,      -2.10694,  -108.456E-03,   4.66359E-03
C:/temp/dataset/7/5_4.odb,Step-1,Increment      1: Step Time =    1.000,"PART-1-1",           334,       10.9167,      -3.16013,            0.,NA,NA,"",       2.22196,      -2.22195,   4.37107E-03,   4.28978E-03
C:/temp/dataset/7/5_4.odb,Step-1,Increment      1: Step Time =    1.000,"PART-1-1",           335,            5.,      -3.95833,            0.,NA,NA,"",       2.18852,      -2.09003,  -649.121E-03,   1.83020E-03
C:/temp/dataset/7/5_4.odb,Step-1,Increment      1: Step Time =    1.000,"PART-1-1",           336,       6.75254,      -4.23112,            0.,NA,NA,"",       2.11667,      -2.06866,  -448.236E-03,   3.10181E-03
C:/temp/dataset/7/5_4.odb,Step-1,Increment      1: Step Time =    1.000,"PART-1-1",           337,       5.92661,      -3.07918,            0.,NA,NA,"",       2.26435,      -2.19646,  -550.327E-03,   1.43399E-03
C:/temp/dataset/7/5_4.odb,Step-1,Increment      1: Step Time =    1.000,"PART-1-1",           338,       7.06139,      -12.0396,            0.,NA,NA,"",       1.22981,      -1.18474,  -329.900E-03,   10.2333E-03
C:/temp/dataset/7/5_4.odb,Step-1,Increment      1: Step Time =    1.000,"PART-1-1",           339,       5.99095,      -11.1126,            0.,NA,NA,"",       1.36154,      -1.28379,  -453.530E-03,   10.7909E-03
C:/temp/dataset/7/5_4.odb,Step-1,Increment      1: Step Time =    1.000,"PART-1-1",           340,            5.,      -12.2917,            0.,NA,NA,"",       1.27718,      -1.15809,  -538.531E-03,   15.0397E-03
C:/temp/dataset/7/5_4.odb,Step-1,Increment      1: Step Time =    1.000,"PART-1-1",           341,       6.07044,      -13.2187,            0.,NA,NA,"",       1.13748,      -1.06063,  -410.995E-03,   13.5771E-03
C:/temp/dataset/7/5_4.odb,Step-1,Increment      1: Step Time =    1.000,"PART-1-1",           342,       6.63644,      -8.02271,            0.,NA,NA,"",       1.68525,      -1.63083,  -424.819E-03,   6.59390E-03
C:/temp/dataset/7/5_4.odb,Step-1,Increment      1: Step Time =    1.000,"PART-1-1",           343,            5.,        -8.125,            0.,NA,NA,"",       1.72362,      -1.61368,  -605.746E-03,   7.47629E-03
C:/temp/dataset/7/5_4.odb,Step-1,Increment      1: Step Time =    1.000,"PART-1-1",           344,       5.87092,      -9.06592,            0.,NA,NA,"",       1.58939,      -1.51008,  -495.781E-03,   8.02130E-03
C:/temp/dataset/7/5_4.odb,Step-1,Increment      1: Step Time =    1.000,"PART-1-1",           345,       13.0826,      -13.6930,            0.,NA,NA,"",       1.06874,      -1.03834,   253.095E-03,   12.1738E-03
C:/temp/dataset/7/5_4.odb,Step-1,Increment      1: Step Time =    1.000,"PART-1-1",           346,       14.0569,      -14.9678,            0.,NA,NA,"",   978.423E-03,  -919.070E-03,   335.593E-03,   16.7468E-03
C:/temp/dataset/7/5_4.odb,Step-1,Increment      1: Step Time =    1.000,"PART-1-1",           347,           15.,        -13.75,            0.,NA,NA,"",       1.14237,      -1.05424,   439.963E-03,   18.2571E-03
C:/temp/dataset/7/5_4.odb,Step-1,Increment      1: Step Time =    1.000,"PART-1-1",           348,       14.0257,      -12.4752,            0.,NA,NA,"",       1.22830,      -1.17671,   352.252E-03,   13.0997E-03
C:/temp/dataset/7/5_4.odb,Step-1,Increment      1: Step Time =    1.000,"PART-1-1",           349,       8.13738,      -21.6888,            0.,NA,NA,"",   336.093E-03,  -318.063E-03,  -108.601E-03,   13.4616E-03
C:/temp/dataset/7/5_4.odb,Step-1,Increment      1: Step Time =    1.000,"PART-1-1",           350,            5.,      -28.9583,            0.,NA,NA,"",   56.3399E-03,  -36.4613E-03,  -42.9507E-03,   45.7163E-03
C:/temp/dataset/7/5_4.odb,Step-1,Increment      1: Step Time =    1.000,"PART-1-1",           351,          6.25,          -30.,            0.,NA,NA,"",            0.,   1.12455E-39,  -51.2725E-39,   32.5727E-03
C:/temp/dataset/7/5_4.odb,Step-1,Increment      1: Step Time =    1.000,"PART-1-1",           352,       6.22347,      -27.8804,            0.,NA,NA,"",   71.3463E-03,  -42.3477E-03,  -57.4192E-03,   33.0738E-03
C:/temp/dataset/7/5_4.odb,Step-1,Increment      1: Step Time =    1.000,"PART-1-1",           353,           15.,        -28.75,            0.,NA,NA,"",   68.1412E-03,  -44.6220E-03,   51.4985E-03,   45.8466E-03
C:/temp/dataset/7/5_4.odb,Step-1,Increment      1: Step Time =    1.000,"PART-1-1",           354,       13.6900,      -27.4695,            0.,NA,NA,"",   89.1529E-03,  -57.2220E-03,   68.3657E-03,   32.5760E-03
C:/temp/dataset/7/5_4.odb,Step-1,Increment      1: Step Time =    1.000,"PART-1-1",           355,       12.4400,      -28.7195,            0.,NA,NA,"",   23.3863E-03,  -12.4607E-03,   19.7901E-03,   19.5142E-03
C:/temp/dataset/7/5_4.odb,Step-1,Increment      1: Step Time =    1.000,"PART-1-1",           356,         13.75,          -30.,            0.,NA,NA,"",            0.,   2.06021E-39,   51.1664E-39,   33.6806E-03
C:/temp/dataset/7/5_4.odb,Step-1,Increment      1: Step Time =    1.000,"PART-1-1",           357,       9.58617,      -22.6245,            0.,NA,NA,"",   256.231E-03,  -255.226E-03,  -22.6741E-03,   8.27264E-03
C:/temp/dataset/7/5_4.odb,Step-1,Increment      1: Step Time =    1.000,"PART-1-1",           358,       10.0221,      -21.0980,            0.,NA,NA,"",   357.996E-03,  -357.979E-03,  -3.52866E-03,   8.07028E-03
C:/temp/dataset/7/5_4.odb,Step-1,Increment      1: Step Time =    1.000,"PART-1-1",           359,       8.57328,      -20.1623,            0.,NA,NA,"",   437.607E-03,  -426.216E-03,  -99.1949E-03,   10.9362E-03
C:/temp/dataset/7/5_4.odb,Step-1,Increment      1: Step Time =    1.000,"PART-1-1",           360,       11.1406,      -27.5456,            0.,NA,NA,"",   38.3412E-03,  -33.4548E-03,   18.7303E-03,   13.1260E-03
C:/temp/dataset/7/5_4.odb,Step-1,Increment      1: Step Time =    1.000,"PART-1-1",           361,         11.25,          -30.,            0.,NA,NA,"",            0.,   2.13969E-39,   17.0305E-39,   8.54046E-03
C:/temp/dataset/7/5_4.odb,Step-1,Increment      1: Step Time =    1.000,"PART-1-1",           362,       11.2605,      -16.1933,            0.,NA,NA,"",   779.052E-03,  -774.563E-03,   83.5104E-03,   9.43444E-03
C:/temp/dataset/7/5_4.odb,Step-1,Increment      1: Step Time =    1.000,"PART-1-1",           363,       10.2521,      -15.0492,            0.,NA,NA,"",   880.542E-03,  -880.532E-03,  -4.18547E-03,   7.76278E-03
C:/temp/dataset/7/5_4.odb,Step-1,Increment      1: Step Time =    1.000,"PART-1-1",           364,       9.32474,      -16.3084,            0.,NA,NA,"",   759.426E-03,  -755.615E-03,  -75.9770E-03,   8.42720E-03
C:/temp/dataset/7/5_4.odb,Step-1,Increment      1: Step Time =    1.000,"PART-1-1",           365,       10.3331,      -17.4526,            0.,NA,NA,"",   653.583E-03,  -653.505E-03,   10.0611E-03,   7.87790E-03
C:/temp/dataset/7/5_4.odb,Step-1,Increment      1: Step Time =    1.000,"PART-1-1",           366,       7.44248,      -19.0256,            0.,NA,NA,"",   552.628E-03,  -518.106E-03,  -192.260E-03,   15.1311E-03
C:/temp/dataset/7/5_4.odb,Step-1,Increment      1: Step Time =    1.000,"PART-1-1",           367,       6.17612,      -17.5789,            0.,NA,NA,"",   719.005E-03,  -644.814E-03,  -318.093E-03,   19.1422E-03
C:/temp/dataset/7/5_4.odb,Step-1,Increment      1: Step Time =    1.000,"PART-1-1",           368,            5.,      -18.5417,            0.,NA,NA,"",   694.387E-03,  -572.196E-03,  -393.402E-03,   26.5999E-03
C:/temp/dataset/7/5_4.odb,Step-1,Increment      1: Step Time =    1.000,"PART-1-1",           369,       12.8407,      -6.03443,            0.,NA,NA,"",       1.91759,      -1.90409,   227.160E-03,   7.32870E-03
C:/temp/dataset/7/5_4.odb,Step-1,Increment      1: Step Time =    1.000,"PART-1-1",           370,           15.,         -6.25,            0.,NA,NA,"",       1.96076,      -1.90313,   471.900E-03,   6.26691E-03
C:/temp/dataset/7/5_4.odb,Step-1,Increment      1: Step Time =    1.000,"PART-1-1",           371,       13.9462,      -4.87251,            0.,NA,NA,"",       2.08163,      -2.05248,   347.142E-03,   5.38533E-03
C:/temp/dataset/7/5_4.odb,Step-1,Increment      1: Step Time =    1.000,"PART-1-1",           372,       7.64514,      -8.69832,            0.,NA,NA,"",       1.58785,      -1.55744,  -309.267E-03,   7.12424E-03
C:/temp/dataset/7/5_4.odb,Step-1,Increment      1: Step Time =    1.000,"PART-1-1",           373,       8.20020,      -7.75016,            0.,NA,NA,"",       1.68887,      -1.66882,  -259.463E-03,   6.72398E-03
C:/temp/dataset/7/5_4.odb,Step-1,Increment      1: Step Time =    1.000,"PART-1-1",           374,       7.19150,      -7.07454,            0.,NA,NA,"",       1.78186,      -1.74210,  -374.311E-03,   5.70879E-03
C:/temp/dataset/7/5_4.odb,Step-1,Increment      1: Step Time =    1.000,"PART-1-1",           375,       7.97278,      -1.35169,            0.,NA,NA,"",       2.43018,      -2.40731,  -332.599E-03,   1.51536E-03
C:/temp/dataset/7/5_4.odb,Step-1,Increment      1: Step Time =    1.000,"PART-1-1",           376,       9.01285,  -423.179E-03,            0.,NA,NA,"",       2.52989,      -2.52012,  -222.197E-03,   1.33356E-03
C:/temp/dataset/7/5_4.odb,Step-1,Increment      1: Step Time =    1.000,"PART-1-1",           377,       8.04185,   850.611E-03,            0.,NA,NA,"",       2.67922,      -2.65770,  -338.965E-03,   454.251E-06
C:/temp/dataset/7/5_4.odb,Step-1,Increment      1: Step Time =    1.000,"PART-1-1",           378,       8.08837,       3.05311,            0.,NA,NA,"",       2.92657,      -2.90585,  -347.703E-03,   101.882E-06
C:/temp/dataset/7/5_4.odb,Step-1,Increment      1: Step Time =    1.000,"PART-1-1",           379,       9.11337,       4.08618,            0.,NA,NA,"",       3.03763,      -3.02819,  -239.236E-03,   127.998E-06
C:/temp/dataset/7/5_4.odb,Step-1,Increment      1: Step Time =    1.000,"PART-1-1",           380,       8.10868,       5.26217,            0.,NA,NA,"",       3.17407,      -3.15365,  -359.453E-03,   119.360E-06
C:/temp/dataset/7/5_4.odb,Step-1,Increment      1: Step Time =    1.000,"PART-1-1",           381,       7.08888,       6.39331,            0.,NA,NA,"",       3.30910,      -3.27396,  -481.001E-03,   102.594E-06
C:/temp/dataset/7/5_4.odb,Step-1,Increment      1: Step Time =    1.000,"PART-1-1",           382,            5.,       6.45833,            0.,NA,NA,"",       3.34545,      -3.26802,  -715.593E-03,   121.558E-06
C:/temp/dataset/7/5_4.odb,Step-1,Increment      1: Step Time =    1.000,"PART-1-1",           383,           15.,         16.25,            0.,NA,NA,"",       4.44113,      -4.42784,   343.257E-03,   888.938E-09
C:/temp/dataset/7/5_4.odb,Step-1,Increment      1: Step Time =    1.000,"PART-1-1",           384,       13.6214,       17.6671,            0.,NA,NA,"",       4.58145,      -4.57792,   179.886E-03,   385.058E-09
C:/temp/dataset/7/5_4.odb,Step-1,Increment      1: Step Time =    1.000,"PART-1-1",           385,       12.4694,       16.3805,            0.,NA,NA,"",       4.42693,      -4.42654,   58.9340E-03,   640.383E-09
C:/temp/dataset/7/5_4.odb,Step-1,Increment      1: Step Time =    1.000,"PART-1-1",           386,       10.0881,       9.74649,            0.,NA,NA,"",       3.67210,      -3.66834,  -166.038E-03,   36.0336E-06
C:/temp/dataset/7/5_4.odb,Step-1,Increment      1: Step Time =    1.000,"PART-1-1",           387,       9.10561,       8.57814,            0.,NA,NA,"",       3.54152,      -3.53131,  -268.722E-03,   63.7098E-06
C:/temp/dataset/7/5_4.odb,Step-1,Increment      1: Step Time =    1.000,"PART-1-1",           388,       10.1162,       7.46436,            0.,NA,NA,"",       3.41609,      -3.41286,  -148.417E-03,   83.6913E-06
C:/temp/dataset/7/5_4.odb,Step-1,Increment      1: Step Time =    1.000,"PART-1-1",           389,       11.0986,       8.63272,            0.,NA,NA,"",       3.55018,      -3.54988,  -45.7832E-03,   63.8812E-06
C:/temp/dataset/7/5_4.odb,Step-1,Increment      1: Step Time =    1.000,"PART-1-1",           390,       9.96644,       19.4124,            0.,NA,NA,"",       4.75653,      -4.75044,  -240.564E-03,   467.776E-09
C:/temp/dataset/7/5_4.odb,Step-1,Increment      1: Step Time =    1.000,"PART-1-1",           391,       10.9020,       20.3065,            0.,NA,NA,"",       4.85855,      -4.85649,  -141.382E-03,   415.022E-09
C:/temp/dataset/7/5_4.odb,Step-1,Increment      1: Step Time =    1.000,"PART-1-1",           392,       10.1153,       21.2880,            0.,NA,NA,"",       4.96710,      -4.96150,  -235.693E-03,   317.384E-09
C:/temp/dataset/7/5_4.odb,Step-1,Increment      1: Step Time =    1.000,"PART-1-1",           393,       9.17975,       20.3940,            0.,NA,NA,"",       4.86699,      -4.85545,  -334.875E-03,   405.107E-09
C:/temp/dataset/7/5_4.odb,Step-1,Increment      1: Step Time =    1.000,"PART-1-1",           394,           15.,         28.75,            0.,NA,NA,"",       5.83422,      -5.82822,   264.566E-03,   159.284E-09
C:/temp/dataset/7/5_4.odb,Step-1,Increment      1: Step Time =    1.000,"PART-1-1",           395,       14.0625,           30.,            0.,NA,NA,"",       5.96428,      -5.96236,   151.669E-03,   147.662E-09
C:/temp/dataset/7/5_4.odb,Step-1,Increment      1: Step Time =    1.000,"PART-1-1",           396,       13.1487,       28.7914,            0.,NA,NA,"",       5.82149,      -5.82121,   56.9051E-03,   150.934E-09
C:/temp/dataset/7/5_4.odb,Step-1,Increment      1: Step Time =    1.000,"PART-1-1",           397,       14.0862,       27.5414,            0.,NA,NA,"",       5.68961,      -5.68707,   169.802E-03,   160.978E-09
C:/temp/dataset/7/5_4.odb,Step-1,Increment      1: Step Time =    1.000,"PART-1-1",           398,       12.2440,       25.2848,            0.,NA,NA,"",       5.42271,      -5.42267,  -22.3789E-03,   162.791E-09
C:/temp/dataset/7/5_4.odb,Step-1,Increment      1: Step Time =    1.000,"PART-1-1",           399,       13.1763,       26.3811,            0.,NA,NA,"",       5.55186,      -5.55135,   75.1691E-03,   159.376E-09
C:/temp/dataset/7/5_4.odb,Step-1,Increment      1: Step Time =    1.000,"PART-1-1",           400,       12.2376,       27.6217,            0.,NA,NA,"",       5.68455,      -5.68442,  -37.7995E-03,   159.191E-09
C:/temp/dataset/7/5_4.odb,Step-1,Increment      1: Step Time =    1.000,"PART-1-1",           401,       11.3053,       26.5254,            0.,NA,NA,"",       5.55739,      -5.55574,  -135.348E-03,   161.889E-09
C:/temp/dataset/7/5_4.odb,Step-1,Increment      1: Step Time =    1.000,"PART-1-1",           402,       12.1875,           30.,            0.,NA,NA,"",       5.95084,      -5.95055,  -58.3875E-03,   147.149E-09
C:/temp/dataset/7/5_4.odb,Step-1,Increment      1: Step Time =    1.000,"PART-1-1",           403,        6.5625,           30.,            0.,NA,NA,"",       5.95508,      -5.91514,  -688.557E-03,   211.754E-09
C:/temp/dataset/7/5_4.odb,Step-1,Increment      1: Step Time =    1.000,"PART-1-1",           404,       5.40000,       28.6589,            0.,NA,NA,"",       5.81432,      -5.75758,  -810.348E-03,   203.565E-09
C:/temp/dataset/7/5_4.odb,Step-1,Increment      1: Step Time =    1.000,"PART-1-1",           405,       6.32063,       27.5176,            0.,NA,NA,"",       5.67883,      -5.63552,  -700.027E-03,   182.930E-09
C:/temp/dataset/7/5_4.odb,Step-1,Increment      1: Step Time =    1.000,"PART-1-1",           406,        2.8125,           30.,            0.,NA,NA,"",       5.99494,      -5.89154,      -1.10867,   243.957E-09
C:/temp/dataset/7/5_4.odb,Step-1,Increment      1: Step Time =    1.000,"PART-1-1",           407,       1.86631,       29.3706,            0.,NA,NA,"",       5.93977,      -5.81507,      -1.21071,   230.238E-09
C:/temp/dataset/7/5_4.odb,Step-1,Increment      1: Step Time =    1.000,"PART-1-1",           408,       2.52123,       28.3750,            0.,NA,NA,"",       5.81865,      -5.70766,      -1.13107,   207.388E-09
C:/temp/dataset/7/5_4.odb,Step-1,Increment      1: Step Time =    1.000,"PART-1-1",           409,       3.46742,       29.0044,            0.,NA,NA,"",       5.87495,      -5.78412,      -1.02903,   219.972E-09
C:/temp/dataset/7/5_4.odb,Step-1,Increment      1: Step Time =    1.000,"PART-1-1",           410,       1.19073,       28.4486,            0.,NA,NA,"",       5.84942,      -5.70752,      -1.28059,   210.659E-09
C:/temp/dataset/7/5_4.odb,Step-1,Increment      1: Step Time =    1.000,"PART-1-1",           411,      -2.48443,       27.9761,            0.,NA,NA,"",       5.87938,      -5.63145,      -1.68935,   201.666E-09
C:/temp/dataset/7/5_4.odb,Step-1,Increment      1: Step Time =    1.000,"PART-1-1",           412,       -2.8125,           30.,            0.,NA,NA,"",       6.10883,      -5.85613,      -1.73884,   227.215E-09
C:/temp/dataset/7/5_4.odb,Step-1,Increment      1: Step Time =    1.000,"PART-1-1",           413,      -7.28733,       29.0238,            0.,NA,NA,"",       6.13947,      -5.71859,      -2.23401,   203.113E-09
C:/temp/dataset/7/5_4.odb,Step-1,Increment      1: Step Time =    1.000,"PART-1-1",           414,      -6.19423,       28.1363,            0.,NA,NA,"",       6.00728,      -5.62604,      -2.10596,   199.034E-09
C:/temp/dataset/7/5_4.odb,Step-1,Increment      1: Step Time =    1.000,"PART-1-1",           415,       -6.5625,           30.,            0.,NA,NA,"",       6.21927,      -5.83252,      -2.15895,   212.988E-09
C:/temp/dataset/7/5_4.odb,Step-1,Increment      1: Step Time =    1.000,"PART-1-1",           416,      -11.8079,       27.5253,            0.,NA,NA,"",       6.16067,      -5.52226,      -2.73102,   187.604E-09
C:/temp/dataset/7/5_4.odb,Step-1,Increment      1: Step Time =    1.000,"PART-1-1",           417,      -12.6125,       26.1842,            0.,NA,NA,"",       6.05934,      -5.36695,      -2.81272,   184.442E-09
C:/temp/dataset/7/5_4.odb,Step-1,Increment      1: Step Time =    1.000,"PART-1-1",           418,      -8.13992,       23.4434,            0.,NA,NA,"",       5.58144,      -5.08805,      -2.29440,   174.275E-09
C:/temp/dataset/7/5_4.odb,Step-1,Increment      1: Step Time =    1.000,"PART-1-1",           419,       -8.4375,           30.,            0.,NA,NA,"",       6.28434,      -5.82072,      -2.36901,   206.595E-09
C:/temp/dataset/7/5_4.odb,Step-1,Increment      1: Step Time =    1.000,"PART-1-1",           420,      -8.00049,       27.9480,            0.,NA,NA,"",       6.05070,      -5.59358,      -2.30713,   195.188E-09
C:/temp/dataset/7/5_4.odb,Step-1,Increment      1: Step Time =    1.000,"PART-1-1",           421,      -12.1875,           30.,            0.,NA,NA,"",       6.43317,      -5.79711,      -2.78912,   195.388E-09
C:/temp/dataset/7/5_4.odb,Step-1,Increment      1: Step Time =    1.000,"PART-1-1",           422,          -15.,         26.25,            0.,NA,NA,"",       6.18160,      -5.35929,      -3.08060,   179.348E-09
C:/temp/dataset/7/5_4.odb,Step-1,Increment      1: Step Time =    1.000,"PART-1-1",           423,  -614.199E-03,       25.3895,            0.,NA,NA,"",       5.54990,      -5.35345,      -1.46354,   171.331E-09
C:/temp/dataset/7/5_4.odb,Step-1,Increment      1: Step Time =    1.000,"PART-1-1",           424,      -1.97220,       26.8586,            0.,NA,NA,"",       5.74411,      -5.50948,      -1.62492,   189.491E-09
C:/temp/dataset/7/5_4.odb,Step-1,Increment      1: Step Time =    1.000,"PART-1-1",           425,      -1.74113,       25.3247,            0.,NA,NA,"",       5.57064,      -5.33909,      -1.58938,   173.347E-09
C:/temp/dataset/7/5_4.odb,Step-1,Increment      1: Step Time =    1.000,"PART-1-1",           426,       8.18659,       21.6045,            0.,NA,NA,"",       5.00543,      -4.98482,  -453.759E-03,   286.984E-09
C:/temp/dataset/7/5_4.odb,Step-1,Increment      1: Step Time =    1.000,"PART-1-1",           427,       9.25192,       22.4602,            0.,NA,NA,"",       5.09873,      -5.08739,  -339.797E-03,   271.938E-09
C:/temp/dataset/7/5_4.odb,Step-1,Increment      1: Step Time =    1.000,"PART-1-1",           428,       8.38526,       23.6138,            0.,NA,NA,"",       5.23007,      -5.21117,  -444.151E-03,   200.984E-09
C:/temp/dataset/7/5_4.odb,Step-1,Increment      1: Step Time =    1.000,"PART-1-1",           429,       7.31993,       22.7581,            0.,NA,NA,"",       5.13900,      -5.10860,  -558.112E-03,   222.999E-09
C:/temp/dataset/7/5_4.odb,Step-1,Increment      1: Step Time =    1.000,"PART-1-1",           430,           15.,         26.25,            0.,NA,NA,"",       5.55522,      -5.54814,   280.304E-03,   168.354E-09
C:/temp/dataset/7/5_4.odb,Step-1,Increment      1: Step Time =    1.000,"PART-1-1",           431,        4.6875,           30.,            0.,NA,NA,"",       5.97134,      -5.90334,  -898.613E-03,   234.437E-09
C:/temp/dataset/7/5_4.odb,Step-1,Increment      1: Step Time =    1.000,"PART-1-1",           432,       9.38339,       24.5308,            0.,NA,NA,"",       5.33092,      -5.32019,  -338.103E-03,   192.893E-09
C:/temp/dataset/7/5_4.odb,Step-1,Increment      1: Step Time =    1.000,"PART-1-1",           433,       8.53172,       25.6694,            0.,NA,NA,"",       5.46019,      -5.44238,  -440.683E-03,   176.700E-09
C:/temp/dataset/7/5_4.odb,Step-1,Increment      1: Step Time =    1.000,"PART-1-1",           434,       7.53359,       24.7524,            0.,NA,NA,"",       5.36132,      -5.33337,  -546.731E-03,   184.795E-09
C:/temp/dataset/7/5_4.odb,Step-1,Increment      1: Step Time =    1.000,"PART-1-1",           435,     937.5E-03,           30.,            0.,NA,NA,"",       6.02580,      -5.87973,      -1.31873,   242.684E-09
C:/temp/dataset/7/5_4.odb,Step-1,Increment      1: Step Time =    1.000,"PART-1-1",           436,       5.64845,       26.5466,            0.,NA,NA,"",       5.57582,      -5.52250,  -769.218E-03,   176.660E-09
C:/temp/dataset/7/5_4.odb,Step-1,Increment      1: Step Time =    1.000,"PART-1-1",           437,       4.65082,       24.6490,            0.,NA,NA,"",       5.37437,      -5.30364,  -869.038E-03,   152.275E-09
C:/temp/dataset/7/5_4.odb,Step-1,Increment      1: Step Time =    1.000,"PART-1-1",           438,       5.82711,       24.9927,            0.,NA,NA,"",       5.40041,      -5.34955,  -739.421E-03,   159.822E-09
C:/temp/dataset/7/5_4.odb,Step-1,Increment      1: Step Time =    1.000,"PART-1-1",           439,      -3.57200,       27.5772,            0.,NA,NA,"",       5.86573,      -5.57992,      -1.80868,   196.717E-09
C:/temp/dataset/7/5_4.odb,Step-1,Increment      1: Step Time =    1.000,"PART-1-1",           440,      -3.05977,       26.4597,            0.,NA,NA,"",       5.72989,      -5.45794,      -1.74426,   185.586E-09
C:/temp/dataset/7/5_4.odb,Step-1,Increment      1: Step Time =    1.000,"PART-1-1",           441,      -4.23358,       26.7178,            0.,NA,NA,"",       5.79216,      -5.47947,      -1.87738,   188.967E-09
C:/temp/dataset/7/5_4.odb,Step-1,Increment      1: Step Time =    1.000,"PART-1-1",           442,      -5.07335,       27.3652,            0.,NA,NA,"",       5.88802,      -5.54671,      -1.97554,   193.961E-09
C:/temp/dataset/7/5_4.odb,Step-1,Increment      1: Step Time =    1.000,"PART-1-1",           443,      -5.65848,       26.3267,            0.,NA,NA,"",       5.79555,      -5.42669,      -2.03455,   186.543E-09
C:/temp/dataset/7/5_4.odb,Step-1,Increment      1: Step Time =    1.000,"PART-1-1",           444,      -6.77936,       27.0978,            0.,NA,NA,"",       5.91637,      -5.50602,      -2.16498,   191.136E-09
C:/temp/dataset/7/5_4.odb,Step-1,Increment      1: Step Time =    1.000,"PART-1-1",           445,       13.0726,       6.26892,            0.,NA,NA,"",       3.30285,      -3.29737,   190.167E-03,   117.882E-06
C:/temp/dataset/7/5_4.odb,Step-1,Increment      1: Step Time =    1.000,"PART-1-1",           446,       14.0382,       5.02867,            0.,NA,NA,"",       3.17926,      -3.16451,   305.907E-03,   170.729E-06
C:/temp/dataset/7/5_4.odb,Step-1,Increment      1: Step Time =    1.000,"PART-1-1",           447,           15.,          6.25,            0.,NA,NA,"",       3.33222,      -3.30740,   405.989E-03,   162.032E-06
C:/temp/dataset/7/5_4.odb,Step-1,Increment      1: Step Time =    1.000,"PART-1-1",           448,       14.0344,       7.49025,            0.,NA,NA,"",       3.45248,      -3.44027,   290.157E-03,   64.2134E-06
C:/temp/dataset/7/5_4.odb,Step-1,Increment      1: Step Time =    1.000,"PART-1-1",           449,            5.,       12.7083,            0.,NA,NA,"",       4.03928,      -3.96814,  -754.743E-03,   1.40226E-06
C:/temp/dataset/7/5_4.odb,Step-1,Increment      1: Step Time =    1.000,"PART-1-1",           450,       6.97129,       12.7632,            0.,NA,NA,"",       4.02233,      -3.98669,  -534.252E-03,   7.34757E-06
C:/temp/dataset/7/5_4.odb,Step-1,Increment      1: Step Time =    1.000,"PART-1-1",           451,       8.08110,       9.66220,            0.,NA,NA,"",       3.66715,      -3.64632,  -390.379E-03,   33.5860E-06
C:/temp/dataset/7/5_4.odb,Step-1,Increment      1: Step Time =    1.000,"PART-1-1",           452,       8.10192,       7.46894,            0.,NA,NA,"",       3.42132,      -3.40079,  -374.195E-03,   75.4052E-06
C:/temp/dataset/7/5_4.odb,Step-1,Increment      1: Step Time =    1.000,"PART-1-1",           453,            5.,        -1.875,            0.,NA,NA,"",       2.42145,      -2.32851,  -664.420E-03,   372.969E-06
C:/temp/dataset/7/5_4.odb,Step-1,Increment      1: Step Time =    1.000,"PART-1-1",           454,       6.91011,      -2.19684,            0.,NA,NA,"",       2.34648,      -2.30372,  -445.912E-03,   1.69880E-03
C:/temp/dataset/7/5_4.odb,Step-1,Increment      1: Step Time =    1.000,"PART-1-1",           455,       11.0205,  -751.161E-03,            0.,NA,NA,"",       2.49791,      -2.49791,   3.69595E-03,   2.11938E-03
C:/temp/dataset/7/5_4.odb,Step-1,Increment      1: Step Time =    1.000,"PART-1-1",           456,       13.1408,      -16.1676,            0.,NA,NA,"",   828.551E-03,  -792.309E-03,   242.371E-03,   15.0002E-03
C:/temp/dataset/7/5_4.odb,Step-1,Increment      1: Step Time =    1.000,"PART-1-1",           457,       14.0839,      -17.4497,            0.,NA,NA,"",   750.603E-03,  -684.597E-03,   307.786E-03,   20.4879E-03
C:/temp/dataset/7/5_4.odb,Step-1,Increment      1: Step Time =    1.000,"PART-1-1",           458,           15.,        -16.25,            0.,NA,NA,"",   903.531E-03,  -807.161E-03,   406.028E-03,   22.6800E-03
C:/temp/dataset/7/5_4.odb,Step-1,Increment      1: Step Time =    1.000,"PART-1-1",           459,            5.,       -14.375,            0.,NA,NA,"",       1.06866,  -946.704E-03,  -495.762E-03,   18.9095E-03
C:/temp/dataset/7/5_4.odb,Step-1,Increment      1: Step Time =    1.000,"PART-1-1",           460,       6.11916,      -15.3567,            0.,NA,NA,"",   924.025E-03,  -847.839E-03,  -367.412E-03,   16.3724E-03
C:/temp/dataset/7/5_4.odb,Step-1,Increment      1: Step Time =    1.000,"PART-1-1",           461,       13.0403,       1.40949,            0.,NA,NA,"",       2.76292,      -2.75439,   217.041E-03,   749.963E-06
C:/temp/dataset/7/5_4.odb,Step-1,Increment      1: Step Time =    1.000,"PART-1-1",           462,       14.0142,   96.5788E-03,            0.,NA,NA,"",       2.63771,      -2.61659,   333.104E-03,   2.08283E-03
C:/temp/dataset/7/5_4.odb,Step-1,Increment      1: Step Time =    1.000,"PART-1-1",           463,           15.,          1.25,            0.,NA,NA,"",       2.78314,      -2.74894,   435.008E-03,   706.843E-06
C:/temp/dataset/7/5_4.odb,Step-1,Increment      1: Step Time =    1.000,"PART-1-1",           464,       14.0261,       2.56291,            0.,NA,NA,"",       2.90636,      -2.88874,   319.526E-03,   463.550E-06
C:/temp/dataset/7/5_4.odb,Step-1,Increment      1: Step Time =    1.000,"PART-1-1",           465,            5.,      -10.2083,            0.,NA,NA,"",       1.49652,      -1.38153,  -575.272E-03,   11.1788E-03
C:/temp/dataset/7/5_4.odb,Step-1,Increment      1: Step Time =    1.000,"PART-1-1",           466,       6.86187,      -9.97015,            0.,NA,NA,"",       1.46080,      -1.41117,  -377.516E-03,   8.48399E-03
C:/temp/dataset/7/5_4.odb,Step-1,Increment      1: Step Time =    1.000,"PART-1-1",           467,            5.,      -24.7917,            0.,NA,NA,"",   264.069E-03,  -172.667E-03,  -199.797E-03,   37.2288E-03
C:/temp/dataset/7/5_4.odb,Step-1,Increment      1: Step Time =    1.000,"PART-1-1",           468,       6.13477,      -25.7685,            0.,NA,NA,"",   167.338E-03,  -114.913E-03,  -121.642E-03,   30.4601E-03
C:/temp/dataset/7/5_4.odb,Step-1,Increment      1: Step Time =    1.000,"PART-1-1",           469,       13.1299,      -20.9468,            0.,NA,NA,"",   431.342E-03,  -389.370E-03,   185.599E-03,   20.2184E-03
C:/temp/dataset/7/5_4.odb,Step-1,Increment      1: Step Time =    1.000,"PART-1-1",           470,       14.0295,      -22.3095,            0.,NA,NA,"",   374.846E-03,  -307.427E-03,   214.471E-03,   27.4311E-03
C:/temp/dataset/7/5_4.odb,Step-1,Increment      1: Step Time =    1.000,"PART-1-1",           471,           15.,        -21.25,            0.,NA,NA,"",   494.967E-03,  -393.059E-03,   300.827E-03,   31.6736E-03
C:/temp/dataset/7/5_4.odb,Step-1,Increment      1: Step Time =    1.000,"PART-1-1",           472,       14.1003,      -19.8873,            0.,NA,NA,"",   550.697E-03,  -480.604E-03,   268.861E-03,   24.1708E-03
C:/temp/dataset/7/5_4.odb,Step-1,Increment      1: Step Time =    1.000,"PART-1-1",           473,            5.,       -26.875,            0.,NA,NA,"",   156.960E-03,  -93.3090E-03,  -126.214E-03,   41.2549E-03
C:/temp/dataset/7/5_4.odb,Step-1,Increment      1: Step Time =    1.000,"PART-1-1",           474,       7.35824,      -26.7740,            0.,NA,NA,"",   87.2058E-03,  -63.9073E-03,  -59.3356E-03,   22.1880E-03
C:/temp/dataset/7/5_4.odb,Step-1,Increment      1: Step Time =    1.000,"PART-1-1",           475,       11.2665,      -23.4125,            0.,NA,NA,"",   220.475E-03,  -213.159E-03,   56.3223E-03,   12.2256E-03
C:/temp/dataset/7/5_4.odb,Step-1,Increment      1: Step Time =    1.000,"PART-1-1",           476,       10.8283,      -24.9299,            0.,NA,NA,"",   134.355E-03,  -131.087E-03,   29.4512E-03,   10.4175E-03
C:/temp/dataset/7/5_4.odb,Step-1,Increment      1: Step Time =    1.000,"PART-1-1",           477,            5.,      -16.4583,            0.,NA,NA,"",   873.628E-03,  -750.436E-03,  -447.293E-03,   22.7314E-03
C:/temp/dataset/7/5_4.odb,Step-1,Increment      1: Step Time =    1.000,"PART-1-1",           478,       7.29529,      -16.4772,            0.,NA,NA,"",   778.630E-03,  -739.559E-03,  -243.551E-03,   13.5611E-03
C:/temp/dataset/7/5_4.odb,Step-1,Increment      1: Step Time =    1.000,"PART-1-1",           479,            5.,       18.9583,            0.,NA,NA,"",       4.73536,      -4.66831,  -794.093E-03,   834.607E-09
C:/temp/dataset/7/5_4.odb,Step-1,Increment      1: Step Time =    1.000,"PART-1-1",           480,       6.05050,       17.7875,            0.,NA,NA,"",       4.59274,      -4.54375,  -669.035E-03,   592.492E-09
C:/temp/dataset/7/5_4.odb,Step-1,Increment      1: Step Time =    1.000,"PART-1-1",           481,       7.11573,       18.6629,            0.,NA,NA,"",       4.68157,      -4.64853,  -555.209E-03,   393.404E-09
C:/temp/dataset/7/5_4.odb,Step-1,Increment      1: Step Time =    1.000,"PART-1-1",           482,       6.06524,       19.8338,            0.,NA,NA,"",       4.82132,      -4.77309,  -680.267E-03,   270.234E-09
C:/temp/dataset/7/5_4.odb,Step-1,Increment      1: Step Time =    1.000,"PART-1-1",           483,       6.98524,       16.7251,            0.,NA,NA,"",       4.46557,      -4.43062,  -557.630E-03,   277.284E-09
C:/temp/dataset/7/5_4.odb,Step-1,Increment      1: Step Time =    1.000,"PART-1-1",           484,            5.,        16.875,            0.,NA,NA,"",       4.50315,      -4.43491,  -780.977E-03,   1.26490E-06
C:/temp/dataset/7/5_4.odb,Step-1,Increment      1: Step Time =    1.000,"PART-1-1",           485,       7.88091,       13.8682,            0.,NA,NA,"",       4.13958,      -4.11621,  -439.304E-03,   3.33769E-06
C:/temp/dataset/7/5_4.odb,Step-1,Increment      1: Step Time =    1.000,"PART-1-1",           486,       7.65947,       15.6945,            0.,NA,NA,"",       4.34551,      -4.31940,  -475.609E-03,   701.237E-09
C:/temp/dataset/7/5_4.odb,Step-1,Increment      1: Step Time =    1.000,"PART-1-1",           487,       8.92157,       12.9075,            0.,NA,NA,"",       4.02759,      -4.01512,  -316.668E-03,   9.01308E-06
C:/temp/dataset/7/5_4.odb,Step-1,Increment      1: Step Time =    1.000,"PART-1-1",           488,       9.98918,       11.9956,            0.,NA,NA,"",       3.92435,      -3.91968,  -191.315E-03,   12.1161E-06
C:/temp/dataset/7/5_4.odb,Step-1,Increment      1: Step Time =    1.000,"PART-1-1",           489,       10.7968,       13.3004,            0.,NA,NA,"",       4.07239,      -4.07093,  -109.061E-03,   7.40012E-06
C:/temp/dataset/7/5_4.odb,Step-1,Increment      1: Step Time =    1.000,"PART-1-1",           490,       13.0565,       8.69239,            0.,NA,NA,"",       3.57303,      -3.56884,   173.102E-03,   58.7578E-06
C:/temp/dataset/7/5_4.odb,Step-1,Increment      1: Step Time =    1.000,"PART-1-1",           491,           15.,          8.75,            0.,NA,NA,"",       3.60872,      -3.58754,   390.443E-03,   45.4863E-06
C:/temp/dataset/7/5_4.odb,Step-1,Increment      1: Step Time =    1.000,"PART-1-1",           492,       14.0220,       9.95215,            0.,NA,NA,"",       3.72612,      -3.71608,   273.331E-03,   18.5606E-06
C:/temp/dataset/7/5_4.odb,Step-1,Increment      1: Step Time =    1.000,"PART-1-1",           493,       8.15713,      -6.43409,            0.,NA,NA,"",       1.84190,      -1.82119,  -275.427E-03,   5.79492E-03
C:/temp/dataset/7/5_4.odb,Step-1,Increment      1: Step Time =    1.000,"PART-1-1",           494,       7.55707,      -5.50995,            0.,NA,NA,"",       1.95644,      -1.92516,  -348.484E-03,   4.52838E-03
C:/temp/dataset/7/5_4.odb,Step-1,Increment      1: Step Time =    1.000,"PART-1-1",           495,       13.0039,      -1.03047,            0.,NA,NA,"",       2.49350,      -2.48323,   226.070E-03,   3.18662E-03
C:/temp/dataset/7/5_4.odb,Step-1,Increment      1: Step Time =    1.000,"PART-1-1",           496,       13.9897,      -2.37705,            0.,NA,NA,"",       2.36563,      -2.34082,   341.649E-03,   4.17900E-03
C:/temp/dataset/7/5_4.odb,Step-1,Increment      1: Step Time =    1.000,"PART-1-1",           497,           15.,         -1.25,            0.,NA,NA,"",       2.51795,      -2.47767,   448.548E-03,   3.43883E-03
C:/temp/dataset/7/5_4.odb,Step-1,Increment      1: Step Time =    1.000,"PART-1-1",           498,       11.0188,      -11.3444,            0.,NA,NA,"",       1.27600,      -1.27487,   53.6429E-03,   8.14025E-03
C:/temp/dataset/7/5_4.odb,Step-1,Increment      1: Step Time =    1.000,"PART-1-1",           499,       9.94563,      -10.3262,            0.,NA,NA,"",       1.38388,      -1.38264,  -58.5484E-03,   7.82043E-03
C:/temp/dataset/7/5_4.odb,Step-1,Increment      1: Step Time =    1.000,"PART-1-1",           500,       9.07908,      -11.6768,            0.,NA,NA,"",       1.23616,      -1.22882,  -134.547E-03,   8.25065E-03
C:/temp/dataset/7/5_4.odb,Step-1,Increment      1: Step Time =    1.000,"PART-1-1",           501,       10.1523,      -12.6950,            0.,NA,NA,"",       1.12339,      -1.12313,  -24.2032E-03,   7.73128E-03
C:/temp/dataset/7/5_4.odb,Step-1,Increment      1: Step Time =    1.000,"PART-1-1",           502,       11.2699,       24.2837,            0.,NA,NA,"",       5.30586,      -5.30438,  -125.200E-03,   180.969E-09
C:/temp/dataset/7/5_4.odb,Step-1,Increment      1: Step Time =    1.000,"PART-1-1",           503,       12.1787,       22.9892,            0.,NA,NA,"",       5.16510,      -5.16507,  -15.2382E-03,   187.049E-09
C:/temp/dataset/7/5_4.odb,Step-1,Increment      1: Step Time =    1.000,"PART-1-1",           504,           15.,         -3.75,            0.,NA,NA,"",       2.24190,      -2.19369,   462.418E-03,   4.15511E-03
C:/temp/dataset/7/5_4.odb,Step-1,Increment      1: Step Time =    1.000,"PART-1-1",           505,       12.9359,      -3.49956,            0.,NA,NA,"",       2.21346,      -2.20159,   228.922E-03,   5.10976E-03
C:/temp/dataset/7/5_4.odb,Step-1,Increment      1: Step Time =    1.000,"PART-1-1",           506,           15.,        -11.25,            0.,NA,NA,"",       1.39967,      -1.32123,   461.979E-03,   13.9823E-03
C:/temp/dataset/7/5_4.odb,Step-1,Increment      1: Step Time =    1.000,"PART-1-1",           507,       12.9838,      -11.1958,            0.,NA,NA,"",       1.32988,      -1.30608,   250.472E-03,   9.47111E-03
C:/temp/dataset/7/5_4.odb,Step-1,Increment      1: Step Time =    1.000,"PART-1-1",           508,           15.,         11.25,            0.,NA,NA,"",       3.88577,      -3.86766,   374.736E-03,   9.29146E-06
C:/temp/dataset/7/5_4.odb,Step-1,Increment      1: Step Time =    1.000,"PART-1-1",           509,       12.9950,       11.1325,            0.,NA,NA,"",       3.84483,      -3.84187,   150.852E-03,   18.5246E-06
C:/temp/dataset/7/5_4.odb,Step-1,Increment      1: Step Time =    1.000,"PART-1-1",           510,           15.,          3.75,            0.,NA,NA,"",       3.05669,      -3.02754,   421.157E-03,   396.471E-06
C:/temp/dataset/7/5_4.odb,Step-1,Increment      1: Step Time =    1.000,"PART-1-1",           511,       13.0643,       3.84158,            0.,NA,NA,"",       3.03241,      -3.02551,   204.520E-03,   204.531E-06
C:/temp/dataset/7/5_4.odb,Step-1,Increment      1: Step Time =    1.000,"PART-1-1",           512,           15.,        -18.75,            0.,NA,NA,"",   686.744E-03,  -584.997E-03,   359.717E-03,   27.1571E-03
C:/temp/dataset/7/5_4.odb,Step-1,Increment      1: Step Time =    1.000,"PART-1-1",           513,       13.1842,      -18.5870,            0.,NA,NA,"",   616.293E-03,  -575.168E-03,   221.359E-03,   17.8849E-03
C:/temp/dataset/7/5_4.odb,Step-1,Increment      1: Step Time =    1.000,"PART-1-1",           514,       13.5513,      -24.7801,            0.,NA,NA,"",   210.494E-03,  -162.181E-03,   134.182E-03,   27.5152E-03
C:/temp/dataset/7/5_4.odb,Step-1,Increment      1: Step Time =    1.000,"PART-1-1",           515,       12.2413,      -25.9996,            0.,NA,NA,"",   113.082E-03,  -93.4821E-03,   63.6284E-03,   19.7550E-03
C:/temp/dataset/7/5_4.odb,Step-1,Increment      1: Step Time =    1.000,"PART-1-1",           516,           15.,        -26.25,            0.,NA,NA,"",   191.310E-03,  -121.899E-03,   147.446E-03,   40.4124E-03
C:/temp/dataset/7/5_4.odb,Step-1,Increment      1: Step Time =    1.000,"PART-1-1",           517,           15.,        -23.75,            0.,NA,NA,"",   329.759E-03,  -236.916E-03,   229.373E-03,   35.8330E-03
C:/temp/dataset/7/5_4.odb,Step-1,Increment      1: Step Time =    1.000,"PART-1-1",           518,       12.5809,      -23.3397,            0.,NA,NA,"",   256.632E-03,  -227.673E-03,   118.427E-03,   19.6089E-03
C:/temp/dataset/7/5_4.odb,Step-1,Increment      1: Step Time =    1.000,"PART-1-1",           519,       9.49127,      -18.7202,            0.,NA,NA,"",   543.442E-03,  -541.350E-03,  -47.6344E-03,   8.31466E-03
C:/temp/dataset/7/5_4.odb,Step-1,Increment      1: Step Time =    1.000,"PART-1-1",           520,       8.36047,      -17.5836,            0.,NA,NA,"",   653.963E-03,  -638.369E-03,  -141.961E-03,   10.5707E-03
C:/temp/dataset/7/5_4.odb,Step-1,Increment      1: Step Time =    1.000,"PART-1-1",           521,       11.5260,      -20.5498,            0.,NA,NA,"",   414.185E-03,  -404.509E-03,   89.0047E-03,   11.9561E-03
C:/temp/dataset/7/5_4.odb,Step-1,Increment      1: Step Time =    1.000,"PART-1-1",           522,       10.5221,      -19.7870,            0.,NA,NA,"",   458.475E-03,  -457.708E-03,   26.5013E-03,   8.33141E-03
C:/temp/dataset/7/5_4.odb,Step-1,Increment      1: Step Time =    1.000,"PART-1-1",           523,       11.0260,      -21.8608,            0.,NA,NA,"",   313.362E-03,  -308.895E-03,   52.7203E-03,   10.2786E-03
C:/temp/dataset/7/5_4.odb,Step-1,Increment      1: Step Time =    1.000,"PART-1-1",           524,       7.98010,      -10.7619,            0.,NA,NA,"",       1.34990,      -1.32602,  -252.771E-03,   8.29893E-03
C:/temp/dataset/7/5_4.odb,Step-1,Increment      1: Step Time =    1.000,"PART-1-1",           525,       8.65118,      -4.78401,            0.,NA,NA,"",       2.02973,      -2.01616,  -234.313E-03,   4.70200E-03
C:/temp/dataset/7/5_4.odb,Step-1,Increment      1: Step Time =    1.000,"PART-1-1",           526,       7.84665,      -3.50518,            0.,NA,NA,"",       2.18454,      -2.15917,  -332.009E-03,   3.04539E-03
C:/temp/dataset/7/5_4.odb,Step-1,Increment      1: Step Time =    1.000,"PART-1-1",           527,       9.43586,      -6.49799,            0.,NA,NA,"",       1.82663,      -1.82144,  -137.583E-03,   6.41411E-03
C:/temp/dataset/7/5_4.odb,Step-1,Increment      1: Step Time =    1.000,"PART-1-1",           528,       10.6293,      -5.79077,            0.,NA,NA,"",       1.91291,      -1.91286,  -13.8260E-03,   6.52151E-03
C:/temp/dataset/7/5_4.odb,Step-1,Increment      1: Step Time =    1.000,"PART-1-1",           529,       11.1144,       3.95682,            0.,NA,NA,"",       3.02627,      -3.02624,  -14.1770E-03,   148.814E-06
C:/temp/dataset/7/5_4.odb,Step-1,Increment      1: Step Time =    1.000,"PART-1-1",           530,       10.1270,       5.17226,            0.,NA,NA,"",       3.15898,      -3.15620,  -132.559E-03,   142.063E-06
C:/temp/dataset/7/5_4.odb,Step-1,Increment      1: Step Time =    1.000,"PART-1-1",           531,       9.05317,       10.7826,            0.,NA,NA,"",       3.78892,      -3.77792,  -288.531E-03,   26.7048E-06
C:/temp/dataset/7/5_4.odb,Step-1,Increment      1: Step Time =    1.000,"PART-1-1",           532,       8.01195,       11.8024,            0.,NA,NA,"",       3.90735,      -3.88561,  -411.616E-03,   11.9879E-06
C:/temp/dataset/7/5_4.odb,Step-1,Increment      1: Step Time =    1.000,"PART-1-1",           533,       11.0241,       10.9595,            0.,NA,NA,"",       3.81073,      -3.81010,  -68.8408E-03,   24.9215E-06
C:/temp/dataset/7/5_4.odb,Step-1,Increment      1: Step Time =    1.000,"PART-1-1",           534,       8.35051,       17.3209,            0.,NA,NA,"",       4.52443,      -4.50595,  -408.430E-03,   398.659E-09
C:/temp/dataset/7/5_4.odb,Step-1,Increment      1: Step Time =    1.000,"PART-1-1",           535,       12.5952,       19.1415,            0.,NA,NA,"",       4.73697,      -4.73665,   55.6381E-03,   413.911E-09
C:/temp/dataset/7/5_4.odb,Step-1,Increment      1: Step Time =    1.000,"PART-1-1",           536,           15.,         18.75,            0.,NA,NA,"",       4.71930,      -4.70792,   327.518E-03,   440.103E-09
C:/temp/dataset/7/5_4.odb,Step-1,Increment      1: Step Time =    1.000,"PART-1-1",           537,      -7.03326,       22.4462,            0.,NA,NA,"",       5.43294,      -4.98330,      -2.16414,   167.902E-09
C:/temp/dataset/7/5_4.odb,Step-1,Increment      1: Step Time =    1.000,"PART-1-1",           538,      -8.48458,       21.3302,            0.,NA,NA,"",       5.37542,      -4.84914,      -2.31971,   167.387E-09
C:/temp/dataset/7/5_4.odb,Step-1,Increment      1: Step Time =    1.000,"PART-1-1",           539,      -6.65000,           20.,            0.,NA,NA,"",       5.16083,      -4.71167,      -2.10581,   159.695E-09
C:/temp/dataset/7/5_4.odb,Step-1,Increment      1: Step Time =    1.000,"PART-1-1",           540,      -5.19869,       21.1160,            0.,NA,NA,"",       5.22356,      -4.84583,      -1.95024,   158.898E-09
C:/temp/dataset/7/5_4.odb,Step-1,Increment      1: Step Time =    1.000,"PART-1-1",           541,       9.42603,       26.6587,            0.,NA,NA,"",       5.56964,      -5.55884,  -346.722E-03,   172.307E-09
C:/temp/dataset/7/5_4.odb,Step-1,Increment      1: Step Time =    1.000,"PART-1-1",           542,       10.3720,       25.4897,            0.,NA,NA,"",       5.43884,      -5.43383,  -233.388E-03,   169.494E-09
C:/temp/dataset/7/5_4.odb,Step-1,Increment      1: Step Time =    1.000,"PART-1-1",           543,       6.87457,       25.7626,            0.,NA,NA,"",       5.47838,      -5.44240,  -626.920E-03,   173.706E-09
C:/temp/dataset/7/5_4.odb,Step-1,Increment      1: Step Time =    1.000,"PART-1-1",           544,       7.54675,       26.7337,            0.,NA,NA,"",       5.58334,      -5.55541,  -557.729E-03,   179.022E-09
C:/temp/dataset/7/5_4.odb,Step-1,Increment      1: Step Time =    1.000,"PART-1-1",           545,      -3.17643,       25.4018,            0.,NA,NA,"",       5.61841,      -5.33870,      -1.75067,   177.228E-09
C:/temp/dataset/7/5_4.odb,Step-1,Increment      1: Step Time =    1.000,"PART-1-1",           546,      -4.35024,       25.6599,            0.,NA,NA,"",       5.68161,      -5.36022,      -1.88379,   180.564E-09
C:/temp/dataset/7/5_4.odb,Step-1,Increment      1: Step Time =    1.000,"PART-1-1",           547,       4.01884,       22.4610,            0.,NA,NA,"",       5.13867,      -5.05454,  -926.064E-03,   114.019E-09
C:/temp/dataset/7/5_4.odb,Step-1,Increment      1: Step Time =    1.000,"PART-1-1",           548,       5.32127,       23.1739,            0.,NA,NA,"",       5.20212,      -5.14260,  -784.641E-03,   151.084E-09
C:/temp/dataset/7/5_4.odb,Step-1,Increment      1: Step Time =    1.000,"PART-1-1",           549,       11.1447,       22.1526,            0.,NA,NA,"",       5.06641,      -5.06485,  -125.810E-03,   266.471E-09
C:/temp/dataset/7/5_4.odb,Step-1,Increment      1: Step Time =    1.000,"PART-1-1",           550,       10.2813,       23.3249,            0.,NA,NA,"",       5.19583,      -5.19074,  -229.915E-03,   205.703E-09
C:/temp/dataset/7/5_4.odb,Step-1,Increment      1: Step Time =    1.000,"PART-1-1",           551,       6.15508,       21.9496,            0.,NA,NA,"",       5.05709,      -5.01069,  -683.521E-03,   191.365E-09
C:/temp/dataset/7/5_4.odb,Step-1,Increment      1: Step Time =    1.000,"PART-1-1",           552,       6.48612,       23.9825,            0.,NA,NA,"",       5.28182,      -5.24052,  -659.232E-03,   171.612E-09
C:/temp/dataset/7/5_4.odb,Step-1,Increment      1: Step Time =    1.000,"PART-1-1",           553,   6.30745E-03,       24.2683,            0.,NA,NA,"",       5.41247,      -5.23174,      -1.38697,   157.366E-09
C:/temp/dataset/7/5_4.odb,Step-1,Increment      1: Step Time =    1.000,"PART-1-1",           554,      -1.65981,       23.6471,            0.,NA,NA,"",       5.38550,      -5.15166,      -1.56971,   161.150E-09
C:/temp/dataset/7/5_4.odb,Step-1,Increment      1: Step Time =    1.000,"PART-1-1",           555,      -1.07768,       22.4355,            0.,NA,NA,"",       5.23803,      -5.01960,      -1.49687,   152.971E-09
C:/temp/dataset/7/5_4.odb,Step-1,Increment      1: Step Time =    1.000,"PART-1-1",           556,   588.432E-03,       23.0567,            0.,NA,NA,"",       5.26628,      -5.09968,      -1.31412,   149.124E-09
C:/temp/dataset/7/5_4.odb,Step-1,Increment      1: Step Time =    1.000,"PART-1-1",           557,      -4.82218,       24.5397,            0.,NA,NA,"",       5.57626,      -5.23176,      -1.92961,   173.973E-09
C:/temp/dataset/7/5_4.odb,Step-1,Increment      1: Step Time =    1.000,"PART-1-1",           558,      -3.09511,       23.7242,            0.,NA,NA,"",       5.43432,      -5.15127,      -1.73099,   165.095E-09
C:/temp/dataset/7/5_4.odb,Step-1,Increment      1: Step Time =    1.000,"PART-1-1",           559,      -5.58708,       23.2486,            0.,NA,NA,"",       5.46429,      -5.08229,      -2.00718,   168.239E-09
C:/temp/dataset/7/5_4.odb,Step-1,Increment      1: Step Time =    1.000,"PART-1-1",           560,       8.76337,      -9.49006,            0.,NA,NA,"",       1.48336,      -1.47176,  -185.116E-03,   7.75996E-03
C:/temp/dataset/7/5_4.odb,Step-1,Increment      1: Step Time =    1.000,"PART-1-1",           561,       9.72759,      -26.4759,            0.,NA,NA,"",   64.4265E-03,  -64.1651E-03,  -5.79739E-03,   8.34783E-03
C:/temp/dataset/7/5_4.odb,Step-1,Increment      1: Step Time =    1.000,"PART-1-1",           562,       9.12173,       6.33780,            0.,NA,NA,"",       3.29020,      -3.28048,  -252.682E-03,   114.358E-06
C:/temp/dataset/7/5_4.odb,Step-1,Increment      1: Step Time =    1.000,"PART-1-1",           563,       11.1214,       6.29882,            0.,NA,NA,"",       3.28868,      -3.28855,  -28.3885E-03,   126.814E-06
C:/temp/dataset/7/5_4.odb,Step-1,Increment      1: Step Time =    1.000,"PART-1-1",           564,       11.1740,      -13.7880,            0.,NA,NA,"",       1.01626,      -1.01349,   74.9177E-03,   8.62516E-03
C:/temp/dataset/7/5_4.odb,Step-1,Increment      1: Step Time =    1.000,"PART-1-1",           565,       10.6612,      -8.65022,            0.,NA,NA,"",       1.57860,      -1.57859,   4.78427E-03,   7.88011E-03
C:/temp/dataset/7/5_4.odb,Step-1,Increment      1: Step Time =    1.000,"PART-1-1",           566,       9.47894,      -7.81405,            0.,NA,NA,"",       1.67286,      -1.66827,  -123.885E-03,   7.18529E-03
C:/temp/dataset/7/5_4.odb,Step-1,Increment      1: Step Time =    1.000,"PART-1-1",           567,       11.3640,      -18.5194,            0.,NA,NA,"",   572.252E-03,  -565.585E-03,   87.0985E-03,   10.5080E-03
C:/temp/dataset/7/5_4.odb,Step-1,Increment      1: Step Time =    1.000,"PART-1-1",           568,       12.0025,       20.7886,            0.,NA,NA,"",       4.91748,      -4.91743,  -21.1284E-03,   301.085E-09
C:/temp/dataset/7/5_4.odb,Step-1,Increment      1: Step Time =    1.000,"PART-1-1",           569,       11.4947,       18.6594,            0.,NA,NA,"",       4.67615,      -4.67570,  -64.6157E-03,   482.702E-09
C:/temp/dataset/7/5_4.odb,Step-1,Increment      1: Step Time =    1.000,"PART-1-1",           570,       9.39315,       18.1618,            0.,NA,NA,"",       4.61629,      -4.60673,  -296.918E-03,   492.702E-09
C:/temp/dataset/7/5_4.odb,Step-1,Increment      1: Step Time =    1.000,"PART-1-1",           571,       10.9214,       17.4088,            0.,NA,NA,"",       4.53360,      -4.53199,  -120.969E-03,   561.326E-09
C:/temp/dataset/7/5_4.odb,Step-1,Increment      1: Step Time =    1.000,"PART-1-1",           572,      -9.97500,           20.,            0.,NA,NA,"",       5.30519,      -4.69073,      -2.47831,   169.129E-09
C:/temp/dataset/7/5_4.odb,Step-1,Increment      1: Step Time =    1.000,"PART-1-1",           573,       11.9818,      -2.09472,            0.,NA,NA,"",       2.35667,      -2.35376,   117.189E-03,   3.72185E-03
C:/temp/dataset/7/5_4.odb,Step-1,Increment      1: Step Time =    1.000,"PART-1-1",           574,       12.0426,   313.093E-03,            0.,NA,NA,"",       2.62779,      -2.62540,   112.035E-03,   1.42139E-03
C:/temp/dataset/7/5_4.odb,Step-1,Increment      1: Step Time =    1.000,"PART-1-1",           575,       12.1686,      -14.9632,            0.,NA,NA,"",   915.691E-03,  -900.883E-03,   164.008E-03,   10.7844E-03
C:/temp/dataset/7/5_4.odb,Step-1,Increment      1: Step Time =    1.000,"PART-1-1",           576,       12.0880,      -12.5178,            0.,NA,NA,"",       1.16519,      -1.15410,   160.368E-03,   9.04035E-03
C:/temp/dataset/7/5_4.odb,Step-1,Increment      1: Step Time =    1.000,"PART-1-1",           577,       12.0767,       2.70437,            0.,NA,NA,"",       2.89400,      -2.89222,   101.450E-03,   191.849E-06
C:/temp/dataset/7/5_4.odb,Step-1,Increment      1: Step Time =    1.000,"PART-1-1",           578,       11.6617,       14.7036,            0.,NA,NA,"",       4.23364,      -4.23358,  -20.9964E-03,   1.79977E-06
C:/temp/dataset/7/5_4.odb,Step-1,Increment      1: Step Time =    1.000,"PART-1-1",           579,       11.9561,       12.2406,            0.,NA,NA,"",       3.95959,      -3.95949,   27.4888E-03,   9.11282E-06
C:/temp/dataset/7/5_4.odb,Step-1,Increment      1: Step Time =    1.000,"PART-1-1",           580,       12.3155,      -19.7087,            0.,NA,NA,"",   497.290E-03,  -475.057E-03,   147.033E-03,   14.8897E-03
C:/temp/dataset/7/5_4.odb,Step-1,Increment      1: Step Time =    1.000,"PART-1-1",           581,       12.3404,      -21.7879,            0.,NA,NA,"",   346.859E-03,  -322.853E-03,   126.796E-03,   16.7325E-03
C:/temp/dataset/7/5_4.odb,Step-1,Increment      1: Step Time =    1.000,"PART-1-1",           582,       12.2327,      -17.3977,            0.,NA,NA,"",   688.489E-03,  -670.021E-03,   158.394E-03,   12.7165E-03
C:/temp/dataset/7/5_4.odb,Step-1,Increment      1: Step Time =    1.000,"PART-1-1",           583,       12.1020,       5.09402,            0.,NA,NA,"",       3.16094,      -3.15969,   89.0323E-03,   145.738E-06
C:/temp/dataset/7/5_4.odb,Step-1,Increment      1: Step Time =    1.000,"PART-1-1",           584,       12.0630,       9.85139,            0.,NA,NA,"",       3.69287,      -3.69247,   54.5278E-03,   31.1280E-06
C:/temp/dataset/7/5_4.odb,Step-1,Increment      1: Step Time =    1.000,"PART-1-1",           585,       12.0921,       7.47372,            0.,NA,NA,"",       3.42701,      -3.42623,   72.8114E-03,   76.8525E-06
C:/temp/dataset/7/5_4.odb,Step-1,Increment      1: Step Time =    1.000,"PART-1-1",           586,       11.9146,      -10.0225,            0.,NA,NA,"",       1.43619,      -1.42937,   139.835E-03,   7.88693E-03
C:/temp/dataset/7/5_4.odb,Step-1,Increment      1: Step Time =    1.000,"PART-1-1",           587,       11.5993,      -7.26023,            0.,NA,NA,"",       1.75066,      -1.74797,   96.9859E-03,   7.60337E-03
C:/temp/dataset/7/5_4.odb,Step-1,Increment      1: Step Time =    1.000,"PART-1-1",           588,       11.8707,      -4.56496,            0.,NA,NA,"",       2.07065,      -2.06742,   115.485E-03,   5.80484E-03
C:/temp/dataset/7/5_4.odb,Step-1,Increment      1: Step Time =    1.000,"PART-1-1",           589,      -3.86001,       22.4330,            0.,NA,NA,"",       5.31873,      -5.00180,      -1.80856,   160.281E-09
C:/temp/dataset/7/5_4.odb,Step-1,Increment      1: Step Time =    1.000,"PART-1-1",           590,       3.35000,           20.,            0.,NA,NA,"",       4.87526,      -4.77462,  -985.502E-03,   109.826E-09
C:/temp/dataset/7/5_4.odb,Step-1,Increment      1: Step Time =    1.000,"PART-1-1",           591,       5.05511,       21.0689,            0.,NA,NA,"",       4.97011,      -4.90510,  -801.207E-03,   187.176E-09
C:/temp/dataset/7/5_4.odb,Step-1,Increment      1: Step Time =    1.000,"PART-1-1",           592,       2.31373,       21.3921,            0.,NA,NA,"",       5.04769,      -4.92405,      -1.11036,   156.702E-09
C:/temp/dataset/7/5_4.odb,Step-1,Increment      1: Step Time =    1.000,"PART-1-1",           593,      -1.98632,       21.3170,            0.,NA,NA,"",       5.14114,      -4.88856,      -1.59162,   152.954E-09
C:/temp/dataset/7/5_4.odb,Step-1,Increment      1: Step Time =    1.000,"PART-1-1",           594,   25.0000E-03,           20.,            0.,NA,NA,"",       4.94386,      -4.75369,      -1.35800,   147.832E-09
C:/temp/dataset/7/5_4.odb,Step-1,Increment      1: Step Time =    1.000,"PART-1-1",           595,   933.640E-03,       21.1186,            0.,NA,NA,"",       5.04542,      -4.88472,      -1.26325,   148.967E-09
C:/temp/dataset/7/5_4.odb,Step-1,Increment      1: Step Time =    1.000,"PART-1-1",           596,       7.16521,       20.7144,            0.,NA,NA,"",       4.91100,      -4.87867,  -562.581E-03,   333.269E-09
C:/temp/dataset/7/5_4.odb,Step-1,Increment      1: Step Time =    1.000,"PART-1-1",           597,       8.15837,       19.5039,            0.,NA,NA,"",       4.76999,      -4.74931,  -443.698E-03,   386.969E-09
C:/temp/dataset/7/5_4.odb,Step-1,Increment      1: Step Time =    1.000,"PART-1-1",           598,      -3.32500,           20.,            0.,NA,NA,"",       5.04002,      -4.73260,      -1.73330,   153.223E-09
