ODB Name,Step,Frame,Part Instance Name,    êﬂì_ÉâÉxÉã,X,Y,Z,Section Name,Material Name,Section Point,   U-Magnitude,          U-U1,          U-U2,       S-Mises
C:/temp/dataset/7/6_10.odb,Step-1,Increment      1: Step Time =    1.000,"PART-1-1",             1,          -15.,           20.,            0.,NA,NA,"",       7.60228,      -6.42663,      -4.06117,   33.3846E-09
C:/temp/dataset/7/6_10.odb,Step-1,Increment      1: Step Time =    1.000,"PART-1-1",             2,          -15.,           25.,            0.,NA,NA,"",       8.24954,      -7.15060,      -4.11386,   32.2567E-09
C:/temp/dataset/7/6_10.odb,Step-1,Increment      1: Step Time =    1.000,"PART-1-1",             3,      -11.6500,           20.,            0.,NA,NA,"",       7.38547,      -6.46194,      -3.57611,   29.3521E-09
C:/temp/dataset/7/6_10.odb,Step-1,Increment      1: Step Time =    1.000,"PART-1-1",             4,      -8.30000,           20.,            0.,NA,NA,"",       7.19505,      -6.49724,      -3.09105,   27.9334E-09
C:/temp/dataset/7/6_10.odb,Step-1,Increment      1: Step Time =    1.000,"PART-1-1",             5,           -5.,           20.,            0.,NA,NA,"",       7.03535,      -6.53201,      -2.61323,   27.3839E-09
C:/temp/dataset/7/6_10.odb,Step-1,Increment      1: Step Time =    1.000,"PART-1-1",             6,      -1.65000,           20.,            0.,NA,NA,"",       6.90353,      -6.56732,      -2.12817,   27.9137E-09
C:/temp/dataset/7/6_10.odb,Step-1,Increment      1: Step Time =    1.000,"PART-1-1",             7,       1.70000,           20.,            0.,NA,NA,"",       6.80400,      -6.60262,      -1.64311,   35.1783E-09
C:/temp/dataset/7/6_10.odb,Step-1,Increment      1: Step Time =    1.000,"PART-1-1",             8,            5.,           20.,            0.,NA,NA,"",       6.73891,      -6.63740,      -1.16529,   42.2544E-09
C:/temp/dataset/7/6_10.odb,Step-1,Increment      1: Step Time =    1.000,"PART-1-1",             9,            5.,         13.75,            0.,NA,NA,"",       5.83691,      -5.73243,      -1.09942,   609.325E-09
C:/temp/dataset/7/6_10.odb,Step-1,Increment      1: Step Time =    1.000,"PART-1-1",            10,            5.,           7.5,            0.,NA,NA,"",       4.93689,      -4.82749,      -1.03355,   3.77741E-06
C:/temp/dataset/7/6_10.odb,Step-1,Increment      1: Step Time =    1.000,"PART-1-1",            11,            5.,          1.25,            0.,NA,NA,"",       4.04032,      -3.92269,  -967.809E-03,   95.3448E-06
C:/temp/dataset/7/6_10.odb,Step-1,Increment      1: Step Time =    1.000,"PART-1-1",            12,            5.,           -5.,            0.,NA,NA,"",       3.14856,      -3.01593,  -904.206E-03,   949.200E-06
C:/temp/dataset/7/6_10.odb,Step-1,Increment      1: Step Time =    1.000,"PART-1-1",            13,            5.,        -11.25,            0.,NA,NA,"",       2.24736,      -2.08675,  -834.333E-03,   3.70951E-03
C:/temp/dataset/7/6_10.odb,Step-1,Increment      1: Step Time =    1.000,"PART-1-1",            14,            5.,         -17.5,            0.,NA,NA,"",       1.34782,      -1.16000,  -686.308E-03,   26.8731E-03
C:/temp/dataset/7/6_10.odb,Step-1,Increment      1: Step Time =    1.000,"PART-1-1",            15,            5.,        -23.75,            0.,NA,NA,"",   583.690E-03,  -417.277E-03,  -408.135E-03,   55.7242E-03
C:/temp/dataset/7/6_10.odb,Step-1,Increment      1: Step Time =    1.000,"PART-1-1",            16,            5.,          -30.,            0.,NA,NA,"",            0.,  -25.9220E-39,  -49.0367E-39,   98.8095E-03
C:/temp/dataset/7/6_10.odb,Step-1,Increment      1: Step Time =    1.000,"PART-1-1",            17,           15.,          -30.,            0.,NA,NA,"",            0.,  -30.4465E-39,   53.6686E-39,   101.152E-03
C:/temp/dataset/7/6_10.odb,Step-1,Increment      1: Step Time =    1.000,"PART-1-1",            18,           15.,         -22.5,            0.,NA,NA,"",   734.114E-03,  -587.949E-03,   439.590E-03,   51.3089E-03
C:/temp/dataset/7/6_10.odb,Step-1,Increment      1: Step Time =    1.000,"PART-1-1",            19,           15.,          -15.,            0.,NA,NA,"",       1.74714,      -1.63865,   606.091E-03,   19.3415E-03
C:/temp/dataset/7/6_10.odb,Step-1,Increment      1: Step Time =    1.000,"PART-1-1",            20,           15.,          -7.5,            0.,NA,NA,"",       2.83221,      -2.77607,   561.133E-03,   5.22629E-03
C:/temp/dataset/7/6_10.odb,Step-1,Increment      1: Step Time =    1.000,"PART-1-1",            21,           15.,            0.,            0.,NA,NA,"",       3.87809,      -3.84660,   493.235E-03,   183.993E-06
C:/temp/dataset/7/6_10.odb,Step-1,Increment      1: Step Time =    1.000,"PART-1-1",            22,           15.,           7.5,            0.,NA,NA,"",       4.95022,      -4.93284,   414.396E-03,   4.19825E-06
C:/temp/dataset/7/6_10.odb,Step-1,Increment      1: Step Time =    1.000,"PART-1-1",            23,           15.,           15.,            0.,NA,NA,"",       6.02814,      -6.01881,   335.346E-03,   233.888E-09
C:/temp/dataset/7/6_10.odb,Step-1,Increment      1: Step Time =    1.000,"PART-1-1",            24,           15.,          22.5,            0.,NA,NA,"",       7.10939,      -7.10476,   256.310E-03,   60.8185E-09
C:/temp/dataset/7/6_10.odb,Step-1,Increment      1: Step Time =    1.000,"PART-1-1",            25,           15.,           30.,            0.,NA,NA,"",       8.19264,      -8.19072,   177.274E-03,   26.3246E-09
C:/temp/dataset/7/6_10.odb,Step-1,Increment      1: Step Time =    1.000,"PART-1-1",            26,         11.25,           30.,            0.,NA,NA,"",       8.15940,      -8.15120,  -365.704E-03,   29.6040E-09
C:/temp/dataset/7/6_10.odb,Step-1,Increment      1: Step Time =    1.000,"PART-1-1",            27,           7.5,           30.,            0.,NA,NA,"",       8.16242,      -8.11168,  -908.682E-03,   45.7468E-09
C:/temp/dataset/7/6_10.odb,Step-1,Increment      1: Step Time =    1.000,"PART-1-1",            28,          3.75,           30.,            0.,NA,NA,"",       8.20166,      -8.07217,      -1.45166,   53.5167E-09
C:/temp/dataset/7/6_10.odb,Step-1,Increment      1: Step Time =    1.000,"PART-1-1",            29,            0.,           30.,            0.,NA,NA,"",       8.27659,      -8.03265,      -1.99464,   50.7815E-09
C:/temp/dataset/7/6_10.odb,Step-1,Increment      1: Step Time =    1.000,"PART-1-1",            30,         -3.75,           30.,            0.,NA,NA,"",       8.38627,      -7.99313,      -2.53762,   45.6017E-09
C:/temp/dataset/7/6_10.odb,Step-1,Increment      1: Step Time =    1.000,"PART-1-1",            31,          -7.5,           30.,            0.,NA,NA,"",       8.52936,      -7.95361,      -3.08059,   40.9432E-09
C:/temp/dataset/7/6_10.odb,Step-1,Increment      1: Step Time =    1.000,"PART-1-1",            32,        -11.25,           30.,            0.,NA,NA,"",       8.70420,      -7.91409,      -3.62357,   36.8563E-09
C:/temp/dataset/7/6_10.odb,Step-1,Increment      1: Step Time =    1.000,"PART-1-1",            33,          -15.,           30.,            0.,NA,NA,"",       8.90893,      -7.87457,      -4.16655,   32.8985E-09
C:/temp/dataset/7/6_10.odb,Step-1,Increment      1: Step Time =    1.000,"PART-1-1",            34,          -15.,          22.5,            0.,NA,NA,"",       7.92421,      -6.78862,      -4.08751,   34.7688E-09
C:/temp/dataset/7/6_10.odb,Step-1,Increment      1: Step Time =    1.000,"PART-1-1",            35,            5.,       15.8333,            0.,NA,NA,"",       6.13740,      -6.03409,      -1.12138,   214.195E-09
C:/temp/dataset/7/6_10.odb,Step-1,Increment      1: Step Time =    1.000,"PART-1-1",            36,            5.,       17.9167,            0.,NA,NA,"",       6.43808,      -6.33574,      -1.14333,   86.5903E-09
C:/temp/dataset/7/6_10.odb,Step-1,Increment      1: Step Time =    1.000,"PART-1-1",            37,            5.,       9.58333,            0.,NA,NA,"",       5.23661,      -5.12913,      -1.05551,   2.83951E-06
C:/temp/dataset/7/6_10.odb,Step-1,Increment      1: Step Time =    1.000,"PART-1-1",            38,            5.,       11.6667,            0.,NA,NA,"",       5.53663,      -5.43078,      -1.07746,   1.45682E-06
C:/temp/dataset/7/6_10.odb,Step-1,Increment      1: Step Time =    1.000,"PART-1-1",            39,            5.,       3.33333,            0.,NA,NA,"",       4.33864,      -4.22426,  -989.659E-03,   23.0893E-06
C:/temp/dataset/7/6_10.odb,Step-1,Increment      1: Step Time =    1.000,"PART-1-1",            40,            5.,       5.41667,            0.,NA,NA,"",       4.63753,      -4.52586,      -1.01159,   1.54953E-06
C:/temp/dataset/7/6_10.odb,Step-1,Increment      1: Step Time =    1.000,"PART-1-1",            41,            5.,      -2.91667,            0.,NA,NA,"",       3.44554,      -3.31908,  -924.923E-03,   581.462E-06
C:/temp/dataset/7/6_10.odb,Step-1,Increment      1: Step Time =    1.000,"PART-1-1",            42,            5.,  -833.333E-03,            0.,NA,NA,"",       3.74264,      -3.62107,  -946.166E-03,   268.180E-06
C:/temp/dataset/7/6_10.odb,Step-1,Increment      1: Step Time =    1.000,"PART-1-1",            43,            5.,      -9.16667,            0.,NA,NA,"",       2.55047,      -2.40062,  -861.360E-03,   316.454E-06
C:/temp/dataset/7/6_10.odb,Step-1,Increment      1: Step Time =    1.000,"PART-1-1",            44,            5.,      -7.08333,            0.,NA,NA,"",       2.85067,      -2.71028,  -883.569E-03,   963.561E-06
C:/temp/dataset/7/6_10.odb,Step-1,Increment      1: Step Time =    1.000,"PART-1-1",            45,            5.,      -15.4167,            0.,NA,NA,"",       1.64091,      -1.45962,  -749.729E-03,   17.6185E-03
C:/temp/dataset/7/6_10.odb,Step-1,Increment      1: Step Time =    1.000,"PART-1-1",            46,            5.,      -13.3333,            0.,NA,NA,"",       1.94280,      -1.77117,  -798.375E-03,   9.59214E-03
C:/temp/dataset/7/6_10.odb,Step-1,Increment      1: Step Time =    1.000,"PART-1-1",            47,            5.,      -21.6667,            0.,NA,NA,"",   814.543E-03,  -630.875E-03,  -515.245E-03,   46.3419E-03
C:/temp/dataset/7/6_10.odb,Step-1,Increment      1: Step Time =    1.000,"PART-1-1",            48,            5.,      -19.5833,            0.,NA,NA,"",       1.07043,  -881.218E-03,  -607.684E-03,   37.0334E-03
C:/temp/dataset/7/6_10.odb,Step-1,Increment      1: Step Time =    1.000,"PART-1-1",            49,            5.,      -27.9167,            0.,NA,NA,"",   196.788E-03,  -118.727E-03,  -156.937E-03,   78.8615E-03
C:/temp/dataset/7/6_10.odb,Step-1,Increment      1: Step Time =    1.000,"PART-1-1",            50,            5.,      -25.8333,            0.,NA,NA,"",   378.615E-03,  -244.839E-03,  -288.796E-03,   63.5545E-03
C:/temp/dataset/7/6_10.odb,Step-1,Increment      1: Step Time =    1.000,"PART-1-1",            51,          12.5,          -30.,            0.,NA,NA,"",            0.,  -43.1165E-39,   84.3880E-39,   27.7406E-03
C:/temp/dataset/7/6_10.odb,Step-1,Increment      1: Step Time =    1.000,"PART-1-1",            52,           10.,          -30.,            0.,NA,NA,"",            0.,   572.709E-42,  -4.53083E-39,   1.50087E-03
C:/temp/dataset/7/6_10.odb,Step-1,Increment      1: Step Time =    1.000,"PART-1-1",            53,           7.5,          -30.,            0.,NA,NA,"",            0.,  -17.4472E-39,  -73.2371E-39,   24.7882E-03
C:/temp/dataset/7/6_10.odb,Step-1,Increment      1: Step Time =    1.000,"PART-1-1",            54,           15.,          -25.,            0.,NA,NA,"",   468.258E-03,  -337.897E-03,   324.178E-03,   61.2996E-03
C:/temp/dataset/7/6_10.odb,Step-1,Increment      1: Step Time =    1.000,"PART-1-1",            55,           15.,         -27.5,            0.,NA,NA,"",   239.196E-03,  -154.973E-03,   182.203E-03,   75.8156E-03
C:/temp/dataset/7/6_10.odb,Step-1,Increment      1: Step Time =    1.000,"PART-1-1",            56,           15.,         -17.5,            0.,NA,NA,"",       1.37345,      -1.24520,   579.524E-03,   30.2007E-03
C:/temp/dataset/7/6_10.odb,Step-1,Increment      1: Step Time =    1.000,"PART-1-1",            57,           15.,          -20.,            0.,NA,NA,"",       1.03660,  -893.996E-03,   524.696E-03,   40.3216E-03
C:/temp/dataset/7/6_10.odb,Step-1,Increment      1: Step Time =    1.000,"PART-1-1",            58,           15.,          -10.,            0.,NA,NA,"",       2.49114,      -2.42147,   585.016E-03,   10.1056E-03
C:/temp/dataset/7/6_10.odb,Step-1,Increment      1: Step Time =    1.000,"PART-1-1",            59,           15.,         -12.5,            0.,NA,NA,"",       2.12711,      -2.04037,   601.233E-03,   12.8936E-03
C:/temp/dataset/7/6_10.odb,Step-1,Increment      1: Step Time =    1.000,"PART-1-1",            60,           15.,          -2.5,            0.,NA,NA,"",       3.52306,      -3.48467,   518.630E-03,   649.512E-06
C:/temp/dataset/7/6_10.odb,Step-1,Increment      1: Step Time =    1.000,"PART-1-1",            61,           15.,           -5.,            0.,NA,NA,"",       3.17121,      -3.12442,   542.758E-03,   2.21526E-03
C:/temp/dataset/7/6_10.odb,Step-1,Increment      1: Step Time =    1.000,"PART-1-1",            62,           15.,            5.,            0.,NA,NA,"",       4.59203,      -4.57082,   440.753E-03,   2.58391E-06
C:/temp/dataset/7/6_10.odb,Step-1,Increment      1: Step Time =    1.000,"PART-1-1",            63,           15.,           2.5,            0.,NA,NA,"",       4.23459,      -4.20875,   467.069E-03,   38.8022E-06
C:/temp/dataset/7/6_10.odb,Step-1,Increment      1: Step Time =    1.000,"PART-1-1",            64,           15.,          12.5,            0.,NA,NA,"",       5.66838,      -5.65682,   361.693E-03,   956.852E-09
C:/temp/dataset/7/6_10.odb,Step-1,Increment      1: Step Time =    1.000,"PART-1-1",            65,           15.,           10.,            0.,NA,NA,"",       5.30904,      -5.29484,   388.042E-03,   2.46981E-06
C:/temp/dataset/7/6_10.odb,Step-1,Increment      1: Step Time =    1.000,"PART-1-1",            66,           15.,           20.,            0.,NA,NA,"",       6.74870,      -6.74278,   282.655E-03,   72.4422E-09
C:/temp/dataset/7/6_10.odb,Step-1,Increment      1: Step Time =    1.000,"PART-1-1",            67,           15.,          17.5,            0.,NA,NA,"",       6.38827,      -6.38079,   309.001E-03,   40.5236E-09
C:/temp/dataset/7/6_10.odb,Step-1,Increment      1: Step Time =    1.000,"PART-1-1",            68,           15.,          27.5,            0.,NA,NA,"",       7.83138,      -7.82873,   203.619E-03,   31.0978E-09
C:/temp/dataset/7/6_10.odb,Step-1,Increment      1: Step Time =    1.000,"PART-1-1",            69,           15.,           25.,            0.,NA,NA,"",       7.47029,      -7.46675,   229.965E-03,   43.3808E-09
C:/temp/dataset/7/6_10.odb,Step-1,Increment      1: Step Time =    1.000,"PART-1-1",            70,        13.125,           30.,            0.,NA,NA,"",       8.17150,      -8.17096,  -94.2151E-03,   25.1165E-09
C:/temp/dataset/7/6_10.odb,Step-1,Increment      1: Step Time =    1.000,"PART-1-1",            71,         9.375,           30.,            0.,NA,NA,"",       8.15637,      -8.13144,  -637.193E-03,   37.6140E-09
C:/temp/dataset/7/6_10.odb,Step-1,Increment      1: Step Time =    1.000,"PART-1-1",            72,         5.625,           30.,            0.,NA,NA,"",       8.17753,      -8.09192,      -1.18017,   51.0777E-09
C:/temp/dataset/7/6_10.odb,Step-1,Increment      1: Step Time =    1.000,"PART-1-1",            73,         1.875,           30.,            0.,NA,NA,"",       8.23471,      -8.05241,      -1.72315,   53.1128E-09
C:/temp/dataset/7/6_10.odb,Step-1,Increment      1: Step Time =    1.000,"PART-1-1",            74,        -1.875,           30.,            0.,NA,NA,"",       8.32717,      -8.01289,      -2.26613,   48.2451E-09
C:/temp/dataset/7/6_10.odb,Step-1,Increment      1: Step Time =    1.000,"PART-1-1",            75,        -5.625,           30.,            0.,NA,NA,"",       8.45374,      -7.97337,      -2.80911,   43.2282E-09
C:/temp/dataset/7/6_10.odb,Step-1,Increment      1: Step Time =    1.000,"PART-1-1",            76,        -9.375,           30.,            0.,NA,NA,"",       8.61292,      -7.93385,      -3.35208,   38.7508E-09
C:/temp/dataset/7/6_10.odb,Step-1,Increment      1: Step Time =    1.000,"PART-1-1",            77,       -13.125,           30.,            0.,NA,NA,"",       8.80295,      -7.89433,      -3.89506,   35.7576E-09
C:/temp/dataset/7/6_10.odb,Step-1,Increment      1: Step Time =    1.000,"PART-1-1",            78,          -15.,          27.5,            0.,NA,NA,"",       8.57790,      -7.51259,      -4.14020,   30.2359E-09
C:/temp/dataset/7/6_10.odb,Step-1,Increment      1: Step Time =    1.000,"PART-1-1",            79,      -7.07467,       28.0475,            0.,NA,NA,"",       8.24028,      -7.67539,      -2.99843,   37.0882E-09
C:/temp/dataset/7/6_10.odb,Step-1,Increment      1: Step Time =    1.000,"PART-1-1",            80,      -10.7971,       27.6072,            0.,NA,NA,"",       8.35594,      -7.57240,      -3.53278,   34.4761E-09
C:/temp/dataset/7/6_10.odb,Step-1,Increment      1: Step Time =    1.000,"PART-1-1",            81,      -3.50976,       28.2242,            0.,NA,NA,"",       8.12746,      -7.73853,      -2.48412,   39.6918E-09
C:/temp/dataset/7/6_10.odb,Step-1,Increment      1: Step Time =    1.000,"PART-1-1",            82,       11.3028,       27.6605,            0.,NA,NA,"",       7.82012,      -7.81301,  -333.399E-03,   35.0085E-09
C:/temp/dataset/7/6_10.odb,Step-1,Increment      1: Step Time =    1.000,"PART-1-1",            83,       7.46624,       27.7175,            0.,NA,NA,"",       7.83151,      -7.78083,  -889.516E-03,   38.0725E-09
C:/temp/dataset/7/6_10.odb,Step-1,Increment      1: Step Time =    1.000,"PART-1-1",            84,   523.838E-03,       28.1559,            0.,NA,NA,"",       7.99990,      -7.77115,      -1.89936,   41.3153E-09
C:/temp/dataset/7/6_10.odb,Step-1,Increment      1: Step Time =    1.000,"PART-1-1",            85,       13.1724,       27.5829,            0.,NA,NA,"",       7.82172,      -7.82147,  -61.8765E-03,   32.0157E-09
C:/temp/dataset/7/6_10.odb,Step-1,Increment      1: Step Time =    1.000,"PART-1-1",            86,       9.41586,       27.7284,            0.,NA,NA,"",       7.82657,      -7.80297,  -607.338E-03,   37.0126E-09
C:/temp/dataset/7/6_10.odb,Step-1,Increment      1: Step Time =    1.000,"PART-1-1",            87,       5.17501,       27.3177,            0.,NA,NA,"",       7.79441,      -7.69881,      -1.21706,   36.9049E-09
C:/temp/dataset/7/6_10.odb,Step-1,Increment      1: Step Time =    1.000,"PART-1-1",            88,       1.85763,       28.7412,            0.,NA,NA,"",       8.05411,      -7.86996,      -1.71240,   44.8249E-09
C:/temp/dataset/7/6_10.odb,Step-1,Increment      1: Step Time =    1.000,"PART-1-1",            89,      -1.45910,       27.7280,            0.,NA,NA,"",       7.99193,      -7.68830,      -2.18196,   38.8235E-09
C:/temp/dataset/7/6_10.odb,Step-1,Increment      1: Step Time =    1.000,"PART-1-1",            90,      -5.31380,       28.2250,            0.,NA,NA,"",       8.19328,      -7.71964,      -2.74534,   38.5296E-09
C:/temp/dataset/7/6_10.odb,Step-1,Increment      1: Step Time =    1.000,"PART-1-1",            91,      -8.92632,       27.8484,            0.,NA,NA,"",       8.29629,      -7.62705,      -3.26444,   35.7453E-09
C:/temp/dataset/7/6_10.odb,Step-1,Increment      1: Step Time =    1.000,"PART-1-1",            92,       7.03655,   996.185E-03,            0.,NA,NA,"",       3.96452,      -3.90747,  -670.180E-03,   137.213E-06
C:/temp/dataset/7/6_10.odb,Step-1,Increment      1: Step Time =    1.000,"PART-1-1",            93,       6.93081,       13.7923,            0.,NA,NA,"",       5.81703,      -5.75890,  -820.296E-03,   590.925E-09
C:/temp/dataset/7/6_10.odb,Step-1,Increment      1: Step Time =    1.000,"PART-1-1",            94,       7.08682,       7.47611,            0.,NA,NA,"",       4.90086,      -4.84601,  -731.148E-03,   2.39550E-06
C:/temp/dataset/7/6_10.odb,Step-1,Increment      1: Step Time =    1.000,"PART-1-1",            95,       6.96700,      -1.15199,            0.,NA,NA,"",       3.65548,      -3.59583,  -657.685E-03,   269.846E-06
C:/temp/dataset/7/6_10.odb,Step-1,Increment      1: Step Time =    1.000,"PART-1-1",            96,       6.47578,      -21.8661,            0.,NA,NA,"",   682.926E-03,  -590.519E-03,  -343.039E-03,   34.6197E-03
C:/temp/dataset/7/6_10.odb,Step-1,Increment      1: Step Time =    1.000,"PART-1-1",            97,       7.14087,      -13.1040,            0.,NA,NA,"",       1.88671,      -1.82207,  -489.640E-03,   11.4429E-03
C:/temp/dataset/7/6_10.odb,Step-1,Increment      1: Step Time =    1.000,"PART-1-1",            98,       6.53104,      -7.08024,            0.,NA,NA,"",       2.80611,      -2.72771,  -658.637E-03,   718.006E-06
C:/temp/dataset/7/6_10.odb,Step-1,Increment      1: Step Time =    1.000,"PART-1-1",            99,       6.85322,      -3.24169,            0.,NA,NA,"",       3.35587,      -3.29187,  -652.284E-03,   331.545E-06
C:/temp/dataset/7/6_10.odb,Step-1,Increment      1: Step Time =    1.000,"PART-1-1",           100,       6.74184,      -8.96518,            0.,NA,NA,"",       2.52351,      -2.44960,  -606.244E-03,   2.81458E-03
C:/temp/dataset/7/6_10.odb,Step-1,Increment      1: Step Time =    1.000,"PART-1-1",           101,       6.94703,      -23.6171,            0.,NA,NA,"",   463.533E-03,  -398.524E-03,  -236.731E-03,   35.6240E-03
C:/temp/dataset/7/6_10.odb,Step-1,Increment      1: Step Time =    1.000,"PART-1-1",           102,       7.44695,      -27.8442,            0.,NA,NA,"",   94.8613E-03,  -69.9207E-03,  -64.1074E-03,   40.6949E-03
C:/temp/dataset/7/6_10.odb,Step-1,Increment      1: Step Time =    1.000,"PART-1-1",           103,       7.35225,      -17.6578,            0.,NA,NA,"",       1.19413,      -1.13619,  -367.456E-03,   21.2719E-03
C:/temp/dataset/7/6_10.odb,Step-1,Increment      1: Step Time =    1.000,"PART-1-1",           104,       7.23832,      -15.2967,            0.,NA,NA,"",       1.54867,      -1.48633,  -434.987E-03,   16.4278E-03
C:/temp/dataset/7/6_10.odb,Step-1,Increment      1: Step Time =    1.000,"PART-1-1",           105,       7.10099,       17.6583,            0.,NA,NA,"",       6.37557,      -6.32047,  -836.396E-03,   111.921E-09
C:/temp/dataset/7/6_10.odb,Step-1,Increment      1: Step Time =    1.000,"PART-1-1",           106,       6.86948,       15.7920,            0.,NA,NA,"",       6.10727,      -6.04780,  -850.250E-03,   270.115E-09
C:/temp/dataset/7/6_10.odb,Step-1,Increment      1: Step Time =    1.000,"PART-1-1",           107,       7.06799,       9.62990,            0.,NA,NA,"",       5.21286,      -5.15766,  -756.570E-03,   1.05049E-06
C:/temp/dataset/7/6_10.odb,Step-1,Increment      1: Step Time =    1.000,"PART-1-1",           108,       7.09093,       5.31052,            0.,NA,NA,"",       4.58745,      -4.53252,  -707.736E-03,   15.3865E-06
C:/temp/dataset/7/6_10.odb,Step-1,Increment      1: Step Time =    1.000,"PART-1-1",           109,       6.65187,      -5.22056,            0.,NA,NA,"",       3.07377,      -3.00188,  -660.873E-03,   215.123E-06
C:/temp/dataset/7/6_10.odb,Step-1,Increment      1: Step Time =    1.000,"PART-1-1",           110,       7.26954,      -25.7037,            0.,NA,NA,"",   252.195E-03,  -209.330E-03,  -140.653E-03,   39.0375E-03
C:/temp/dataset/7/6_10.odb,Step-1,Increment      1: Step Time =    1.000,"PART-1-1",           111,       7.53271,      -20.3934,            0.,NA,NA,"",   811.671E-03,  -762.687E-03,  -277.703E-03,   25.7153E-03
C:/temp/dataset/7/6_10.odb,Step-1,Increment      1: Step Time =    1.000,"PART-1-1",           112,       7.01178,       11.7341,            0.,NA,NA,"",       5.51813,      -5.46174,  -786.884E-03,   1.03396E-06
C:/temp/dataset/7/6_10.odb,Step-1,Increment      1: Step Time =    1.000,"PART-1-1",           113,       7.07643,       3.14767,            0.,NA,NA,"",       4.27485,      -4.21927,  -687.053E-03,   52.9400E-06
C:/temp/dataset/7/6_10.odb,Step-1,Increment      1: Step Time =    1.000,"PART-1-1",           114,       6.98190,      -10.9751,            0.,NA,NA,"",       2.21590,      -2.14777,  -545.255E-03,   6.58249E-03
C:/temp/dataset/7/6_10.odb,Step-1,Increment      1: Step Time =    1.000,"PART-1-1",           115,       13.1254,       22.8014,            0.,NA,NA,"",       7.12867,      -7.12865,  -18.3027E-03,   42.0487E-09
C:/temp/dataset/7/6_10.odb,Step-1,Increment      1: Step Time =    1.000,"PART-1-1",           116,       12.8923,      -4.74502,            0.,NA,NA,"",       3.14720,      -3.13815,   238.505E-03,   1.02089E-03
C:/temp/dataset/7/6_10.odb,Step-1,Increment      1: Step Time =    1.000,"PART-1-1",           117,       13.0513,      -12.4505,            0.,NA,NA,"",       2.03094,      -2.00643,   314.572E-03,   15.6972E-03
C:/temp/dataset/7/6_10.odb,Step-1,Increment      1: Step Time =    1.000,"PART-1-1",           118,       12.2427,       17.8341,            0.,NA,NA,"",       6.40080,      -6.40012,  -93.7559E-03,   123.032E-09
C:/temp/dataset/7/6_10.odb,Step-1,Increment      1: Step Time =    1.000,"PART-1-1",           119,       13.0441,       9.90429,            0.,NA,NA,"",       5.26143,      -5.26037,   105.838E-03,   1.19914E-06
C:/temp/dataset/7/6_10.odb,Step-1,Increment      1: Step Time =    1.000,"PART-1-1",           120,       13.0522,       2.62582,            0.,NA,NA,"",       4.21044,      -4.20643,   183.736E-03,   64.7071E-06
C:/temp/dataset/7/6_10.odb,Step-1,Increment      1: Step Time =    1.000,"PART-1-1",           121,       13.2006,      -19.7745,            0.,NA,NA,"",   939.051E-03,  -884.738E-03,   314.730E-03,   27.5826E-03
C:/temp/dataset/7/6_10.odb,Step-1,Increment      1: Step Time =    1.000,"PART-1-1",           122,       9.90112,      -27.6522,            0.,NA,NA,"",   64.6308E-03,  -64.6275E-03,  -655.840E-06,   19.8296E-03
C:/temp/dataset/7/6_10.odb,Step-1,Increment      1: Step Time =    1.000,"PART-1-1",           123,       13.0591,      -22.1191,            0.,NA,NA,"",   640.839E-03,  -585.996E-03,   259.391E-03,   33.1364E-03
C:/temp/dataset/7/6_10.odb,Step-1,Increment      1: Step Time =    1.000,"PART-1-1",           124,       13.1139,      -14.9356,            0.,NA,NA,"",       1.64192,      -1.60869,   328.655E-03,   20.5781E-03
C:/temp/dataset/7/6_10.odb,Step-1,Increment      1: Step Time =    1.000,"PART-1-1",           125,       13.1678,      -17.3995,            0.,NA,NA,"",       1.26742,      -1.22296,   332.725E-03,   20.7958E-03
C:/temp/dataset/7/6_10.odb,Step-1,Increment      1: Step Time =    1.000,"PART-1-1",           126,       12.7891,      -7.32383,            0.,NA,NA,"",       2.78080,      -2.76968,   248.513E-03,   4.87068E-03
C:/temp/dataset/7/6_10.odb,Step-1,Increment      1: Step Time =    1.000,"PART-1-1",           127,       12.9162,      -9.94117,            0.,NA,NA,"",       2.40768,      -2.39090,   283.767E-03,   11.5033E-03
C:/temp/dataset/7/6_10.odb,Step-1,Increment      1: Step Time =    1.000,"PART-1-1",           128,       13.0283,   193.158E-03,            0.,NA,NA,"",       3.85926,      -3.85376,   205.940E-03,   206.236E-06
C:/temp/dataset/7/6_10.odb,Step-1,Increment      1: Step Time =    1.000,"PART-1-1",           129,       12.9794,      -2.25409,            0.,NA,NA,"",       3.50601,      -3.49881,   224.653E-03,   368.476E-06
C:/temp/dataset/7/6_10.odb,Step-1,Increment      1: Step Time =    1.000,"PART-1-1",           130,       13.0689,       7.48049,            0.,NA,NA,"",       4.91152,      -4.90967,   134.972E-03,   1.93554E-06
C:/temp/dataset/7/6_10.odb,Step-1,Increment      1: Step Time =    1.000,"PART-1-1",           131,       13.0764,       5.05734,            0.,NA,NA,"",       4.56172,      -4.55885,   161.609E-03,   17.0327E-06
C:/temp/dataset/7/6_10.odb,Step-1,Increment      1: Step Time =    1.000,"PART-1-1",           132,       12.6962,       14.9270,            0.,NA,NA,"",       5.98395,      -5.98395,   2.53276E-03,   413.751E-09
C:/temp/dataset/7/6_10.odb,Step-1,Increment      1: Step Time =    1.000,"PART-1-1",           133,       12.9459,       12.3607,            0.,NA,NA,"",       5.61539,      -5.61500,   65.7409E-03,   927.236E-09
C:/temp/dataset/7/6_10.odb,Step-1,Increment      1: Step Time =    1.000,"PART-1-1",           134,       12.9476,       20.4489,            0.,NA,NA,"",       6.78618,      -6.78616,  -19.2512E-03,   36.5399E-09
C:/temp/dataset/7/6_10.odb,Step-1,Increment      1: Step Time =    1.000,"PART-1-1",           135,       13.1802,       25.1793,            0.,NA,NA,"",       7.47361,      -7.47353,  -35.4246E-03,   38.5365E-09
C:/temp/dataset/7/6_10.odb,Step-1,Increment      1: Step Time =    1.000,"PART-1-1",           136,      -12.4062,       24.9250,            0.,NA,NA,"",       8.08307,      -7.16708,      -3.73750,   32.8588E-09
C:/temp/dataset/7/6_10.odb,Step-1,Increment      1: Step Time =    1.000,"PART-1-1",           137,       11.3078,       25.3904,            0.,NA,NA,"",       7.49074,      -7.48437,  -308.764E-03,   37.1998E-09
C:/temp/dataset/7/6_10.odb,Step-1,Increment      1: Step Time =    1.000,"PART-1-1",           138,      -10.1009,       25.2443,            0.,NA,NA,"",       7.99945,      -7.23761,      -3.40707,   32.7870E-09
C:/temp/dataset/7/6_10.odb,Step-1,Increment      1: Step Time =    1.000,"PART-1-1",           139,      -4.83291,       26.5053,            0.,NA,NA,"",       7.93404,      -7.47571,      -2.65759,   34.5464E-09
C:/temp/dataset/7/6_10.odb,Step-1,Increment      1: Step Time =    1.000,"PART-1-1",           140,       1.72347,       26.1851,            0.,NA,NA,"",       7.68981,      -7.49844,      -1.70489,   32.4494E-09
C:/temp/dataset/7/6_10.odb,Step-1,Increment      1: Step Time =    1.000,"PART-1-1",           141,       6.12189,       25.7754,            0.,NA,NA,"",       7.56067,      -7.48547,      -1.06370,   31.5655E-09
C:/temp/dataset/7/6_10.odb,Step-1,Increment      1: Step Time =    1.000,"PART-1-1",           142,       7.62725,       25.7499,            0.,NA,NA,"",       7.54515,      -7.49763,  -845.468E-03,   33.4745E-09
C:/temp/dataset/7/6_10.odb,Step-1,Increment      1: Step Time =    1.000,"PART-1-1",           143,       3.76931,       25.0880,            0.,NA,NA,"",       7.49256,      -7.36115,      -1.39710,   27.4077E-09
C:/temp/dataset/7/6_10.odb,Step-1,Increment      1: Step Time =    1.000,"PART-1-1",           144,  -231.428E-03,       26.1188,            0.,NA,NA,"",       7.72811,      -7.46824,      -1.98725,   32.9397E-09
C:/temp/dataset/7/6_10.odb,Step-1,Increment      1: Step Time =    1.000,"PART-1-1",           145,      -2.48530,       25.9891,            0.,NA,NA,"",       7.77737,      -7.42571,      -2.31223,   33.0690E-09
C:/temp/dataset/7/6_10.odb,Step-1,Increment      1: Step Time =    1.000,"PART-1-1",           146,      -3.63425,       26.9302,            0.,NA,NA,"",       7.94940,      -7.54986,      -2.48851,   35.7187E-09
C:/temp/dataset/7/6_10.odb,Step-1,Increment      1: Step Time =    1.000,"PART-1-1",           147,      -8.31738,       25.8431,            0.,NA,NA,"",       7.99225,      -7.34310,      -3.15514,   33.2539E-09
C:/temp/dataset/7/6_10.odb,Step-1,Increment      1: Step Time =    1.000,"PART-1-1",           148,       9.04714,   705.037E-03,            0.,NA,NA,"",       3.90453,      -3.88641,  -375.730E-03,   180.718E-06
C:/temp/dataset/7/6_10.odb,Step-1,Increment      1: Step Time =    1.000,"PART-1-1",           149,       7.85197,      -7.06885,            0.,NA,NA,"",       2.78333,      -2.74403,  -466.069E-03,   1.38082E-03
C:/temp/dataset/7/6_10.odb,Step-1,Increment      1: Step Time =    1.000,"PART-1-1",           150,       8.74205,      -22.9842,            0.,NA,NA,"",   464.714E-03,  -452.211E-03,  -107.071E-03,   23.2147E-03
C:/temp/dataset/7/6_10.odb,Step-1,Increment      1: Step Time =    1.000,"PART-1-1",           151,       9.28078,      -15.1075,            0.,NA,NA,"",       1.53878,      -1.52930,  -170.630E-03,   18.1131E-03
C:/temp/dataset/7/6_10.odb,Step-1,Increment      1: Step Time =    1.000,"PART-1-1",           152,       8.97855,      -1.55139,            0.,NA,NA,"",       3.57744,      -3.55912,  -361.554E-03,   313.902E-06
C:/temp/dataset/7/6_10.odb,Step-1,Increment      1: Step Time =    1.000,"PART-1-1",           153,       9.09422,       9.69450,            0.,NA,NA,"",       5.20906,      -5.18837,  -463.870E-03,   1.21420E-06
C:/temp/dataset/7/6_10.odb,Step-1,Increment      1: Step Time =    1.000,"PART-1-1",           154,       8.44946,       15.5970,            0.,NA,NA,"",       6.06792,      -6.03623,  -619.425E-03,   323.009E-09
C:/temp/dataset/7/6_10.odb,Step-1,Increment      1: Step Time =    1.000,"PART-1-1",           155,       9.11701,       7.46178,            0.,NA,NA,"",       4.88492,      -4.86533,  -437.040E-03,   4.53065E-06
C:/temp/dataset/7/6_10.odb,Step-1,Increment      1: Step Time =    1.000,"PART-1-1",           156,       8.83101,       13.9442,            0.,NA,NA,"",       5.82663,      -5.80092,  -546.761E-03,   614.458E-09
C:/temp/dataset/7/6_10.odb,Step-1,Increment      1: Step Time =    1.000,"PART-1-1",           157,       9.61385,      -19.9311,            0.,NA,NA,"",   827.277E-03,  -824.442E-03,  -68.4250E-03,   20.3489E-03
C:/temp/dataset/7/6_10.odb,Step-1,Increment      1: Step Time =    1.000,"PART-1-1",           158,       9.10031,       2.95854,            0.,NA,NA,"",       4.23136,      -4.21317,  -391.935E-03,   70.9164E-06
C:/temp/dataset/7/6_10.odb,Step-1,Increment      1: Step Time =    1.000,"PART-1-1",           159,       9.17986,      -12.8049,            0.,NA,NA,"",       1.90012,      -1.88813,  -213.115E-03,   13.8593E-03
C:/temp/dataset/7/6_10.odb,Step-1,Increment      1: Step Time =    1.000,"PART-1-1",           160,       8.54844,      -8.43147,            0.,NA,NA,"",       2.57399,      -2.55001,  -350.565E-03,   3.77291E-03
C:/temp/dataset/7/6_10.odb,Step-1,Increment      1: Step Time =    1.000,"PART-1-1",           161,       8.46228,      -5.79934,            0.,NA,NA,"",       2.96309,      -2.93718,  -390.981E-03,   680.248E-06
C:/temp/dataset/7/6_10.odb,Step-1,Increment      1: Step Time =    1.000,"PART-1-1",           162,       8.97830,      -10.5487,            0.,NA,NA,"",       2.25108,      -2.23524,  -266.521E-03,   8.35507E-03
C:/temp/dataset/7/6_10.odb,Step-1,Increment      1: Step Time =    1.000,"PART-1-1",           163,       8.84007,      -3.76868,            0.,NA,NA,"",       3.25630,      -3.23658,  -357.755E-03,   352.537E-06
C:/temp/dataset/7/6_10.odb,Step-1,Increment      1: Step Time =    1.000,"PART-1-1",           164,       9.12644,       5.21383,            0.,NA,NA,"",       4.55861,      -4.53995,  -411.974E-03,   21.8761E-06
C:/temp/dataset/7/6_10.odb,Step-1,Increment      1: Step Time =    1.000,"PART-1-1",           165,       9.36869,      -17.5094,            0.,NA,NA,"",       1.17173,      -1.16486,  -126.737E-03,   20.1619E-03
C:/temp/dataset/7/6_10.odb,Step-1,Increment      1: Step Time =    1.000,"PART-1-1",           166,       9.01212,       11.8707,            0.,NA,NA,"",       5.52516,      -5.50261,  -498.688E-03,   1.05084E-06
C:/temp/dataset/7/6_10.odb,Step-1,Increment      1: Step Time =    1.000,"PART-1-1",           167,       9.60003,       16.9835,            0.,NA,NA,"",       6.26656,      -6.24910,  -467.440E-03,   195.477E-09
C:/temp/dataset/7/6_10.odb,Step-1,Increment      1: Step Time =    1.000,"PART-1-1",           168,       7.13047,       19.6676,            0.,NA,NA,"",       6.66656,      -6.61172,  -853.303E-03,   33.5167E-09
C:/temp/dataset/7/6_10.odb,Step-1,Increment      1: Step Time =    1.000,"PART-1-1",           169,       9.55406,      -25.2995,            0.,NA,NA,"",   228.508E-03,  -227.263E-03,  -23.8230E-03,   20.7759E-03
C:/temp/dataset/7/6_10.odb,Step-1,Increment      1: Step Time =    1.000,"PART-1-1",           170,       12.3800,      -27.4389,            0.,NA,NA,"",   124.243E-03,  -99.6546E-03,   74.1975E-03,   41.6559E-03
C:/temp/dataset/7/6_10.odb,Step-1,Increment      1: Step Time =    1.000,"PART-1-1",           171,      -11.9351,       22.4166,            0.,NA,NA,"",       7.72209,      -6.80884,      -3.64285,   30.9968E-09
C:/temp/dataset/7/6_10.odb,Step-1,Increment      1: Step Time =    1.000,"PART-1-1",           172,       10.9842,      -1.93535,            0.,NA,NA,"",       3.52497,      -3.52433,  -66.8524E-03,   407.430E-06
C:/temp/dataset/7/6_10.odb,Step-1,Increment      1: Step Time =    1.000,"PART-1-1",           173,       11.2234,      -14.9909,            0.,NA,NA,"",       1.57126,      -1.56933,   77.7868E-03,   19.6784E-03
C:/temp/dataset/7/6_10.odb,Step-1,Increment      1: Step Time =    1.000,"PART-1-1",           174,       11.0574,       21.1283,            0.,NA,NA,"",       6.87115,      -6.86460,  -300.103E-03,   33.5342E-09
C:/temp/dataset/7/6_10.odb,Step-1,Increment      1: Step Time =    1.000,"PART-1-1",           175,       10.7466,       19.4847,            0.,NA,NA,"",       6.63144,      -6.62334,  -327.779E-03,   68.2510E-09
C:/temp/dataset/7/6_10.odb,Step-1,Increment      1: Step Time =    1.000,"PART-1-1",           176,       11.0568,   433.028E-03,            0.,NA,NA,"",       3.86882,      -3.86795,  -81.8006E-03,   196.573E-06
C:/temp/dataset/7/6_10.odb,Step-1,Increment      1: Step Time =    1.000,"PART-1-1",           177,       10.9662,       12.1205,            0.,NA,NA,"",       5.56365,      -5.55936,  -218.375E-03,   1.02623E-06
C:/temp/dataset/7/6_10.odb,Step-1,Increment      1: Step Time =    1.000,"PART-1-1",           178,       11.6216,      -21.4567,            0.,NA,NA,"",   657.947E-03,  -644.246E-03,   133.575E-03,   23.3970E-03
C:/temp/dataset/7/6_10.odb,Step-1,Increment      1: Step Time =    1.000,"PART-1-1",           179,       11.2975,      -17.3958,            0.,NA,NA,"",       1.20233,      -1.19808,   101.083E-03,   20.3625E-03
C:/temp/dataset/7/6_10.odb,Step-1,Increment      1: Step Time =    1.000,"PART-1-1",           180,       10.6273,       14.4803,            0.,NA,NA,"",       5.90471,      -5.89747,  -292.314E-03,   540.523E-09
C:/temp/dataset/7/6_10.odb,Step-1,Increment      1: Step Time =    1.000,"PART-1-1",           181,       11.1012,       2.78293,            0.,NA,NA,"",       4.20991,      -4.20871,  -100.342E-03,   77.0743E-06
C:/temp/dataset/7/6_10.odb,Step-1,Increment      1: Step Time =    1.000,"PART-1-1",           182,       11.1153,       7.46695,            0.,NA,NA,"",       4.88936,      -4.88713,  -147.751E-03,   4.35894E-06
C:/temp/dataset/7/6_10.odb,Step-1,Increment      1: Step Time =    1.000,"PART-1-1",           183,       11.1247,      -12.5851,            0.,NA,NA,"",       1.95009,      -1.94948,   48.4615E-03,   15.7183E-03
C:/temp/dataset/7/6_10.odb,Step-1,Increment      1: Step Time =    1.000,"PART-1-1",           184,       10.4094,      -7.19663,            0.,NA,NA,"",       2.75757,      -2.75594,  -94.8093E-03,   2.74450E-03
C:/temp/dataset/7/6_10.odb,Step-1,Increment      1: Step Time =    1.000,"PART-1-1",           185,       10.4303,      -22.2648,            0.,NA,NA,"",   537.189E-03,  -536.606E-03,   25.0170E-03,   20.6444E-03
C:/temp/dataset/7/6_10.odb,Step-1,Increment      1: Step Time =    1.000,"PART-1-1",           186,       10.9130,      -10.1038,            0.,NA,NA,"",       2.33079,      -2.33079,   1.35049E-03,   9.46181E-03
C:/temp/dataset/7/6_10.odb,Step-1,Increment      1: Step Time =    1.000,"PART-1-1",           187,       10.8491,      -4.38491,            0.,NA,NA,"",       3.16920,      -3.16863,  -59.9363E-03,   550.639E-06
C:/temp/dataset/7/6_10.odb,Step-1,Increment      1: Step Time =    1.000,"PART-1-1",           188,       11.1275,       5.13070,            0.,NA,NA,"",       4.55058,      -4.54896,  -121.343E-03,   22.3521E-06
C:/temp/dataset/7/6_10.odb,Step-1,Increment      1: Step Time =    1.000,"PART-1-1",           189,       11.0819,       9.79848,            0.,NA,NA,"",       5.22737,      -5.22437,  -177.154E-03,   1.23243E-06
C:/temp/dataset/7/6_10.odb,Step-1,Increment      1: Step Time =    1.000,"PART-1-1",           190,       12.1026,      -24.5603,            0.,NA,NA,"",   339.230E-03,  -312.969E-03,   130.873E-03,   32.0015E-03
C:/temp/dataset/7/6_10.odb,Step-1,Increment      1: Step Time =    1.000,"PART-1-1",           191,      -7.61069,       24.2264,            0.,NA,NA,"",       7.73692,      -7.11646,      -3.03578,   31.0202E-09
C:/temp/dataset/7/6_10.odb,Step-1,Increment      1: Step Time =    1.000,"PART-1-1",           192,      -5.77678,       24.2650,            0.,NA,NA,"",       7.66001,      -7.14138,      -2.77065,   30.5301E-09
C:/temp/dataset/7/6_10.odb,Step-1,Increment      1: Step Time =    1.000,"PART-1-1",           193,       1.00958,       23.8763,            0.,NA,NA,"",       7.37560,      -7.15661,      -1.78392,   25.9478E-09
C:/temp/dataset/7/6_10.odb,Step-1,Increment      1: Step Time =    1.000,"PART-1-1",           194,      -3.86757,       24.8145,            0.,NA,NA,"",       7.66047,      -7.24105,      -2.49999,   30.8747E-09
C:/temp/dataset/7/6_10.odb,Step-1,Increment      1: Step Time =    1.000,"PART-1-1",           195,  -996.969E-03,       24.6602,            0.,NA,NA,"",       7.54224,      -7.24897,      -2.08272,   29.2446E-09
C:/temp/dataset/7/6_10.odb,Step-1,Increment      1: Step Time =    1.000,"PART-1-1",           196,       7.19995,       21.7613,            0.,NA,NA,"",       6.96953,      -6.91560,  -865.307E-03,   22.0842E-09
C:/temp/dataset/7/6_10.odb,Step-1,Increment      1: Step Time =    1.000,"PART-1-1",           197,       2.92747,       22.7842,            0.,NA,NA,"",       7.17609,      -7.01869,      -1.49472,   22.2124E-09
C:/temp/dataset/7/6_10.odb,Step-1,Increment      1: Step Time =    1.000,"PART-1-1",           198,       5.53232,       24.2100,            0.,NA,NA,"",       7.34049,      -7.25259,      -1.13257,   23.5515E-09
C:/temp/dataset/7/6_10.odb,Step-1,Increment      1: Step Time =    1.000,"PART-1-1",           199,       9.18626,       19.3402,            0.,NA,NA,"",       6.60909,      -6.58598,  -552.186E-03,   54.9183E-09
C:/temp/dataset/7/6_10.odb,Step-1,Increment      1: Step Time =    1.000,"PART-1-1",           200,       11.2321,       23.1770,            0.,NA,NA,"",       7.16921,      -7.16308,  -296.398E-03,   34.5308E-09
C:/temp/dataset/7/6_10.odb,Step-1,Increment      1: Step Time =    1.000,"PART-1-1",           201,       5.11021,       22.1378,            0.,NA,NA,"",       7.04623,      -6.94810,      -1.17186,   15.7670E-09
C:/temp/dataset/7/6_10.odb,Step-1,Increment      1: Step Time =    1.000,"PART-1-1",           202,   167.280E-03,       22.2372,            0.,NA,NA,"",       7.16383,      -6.91040,      -1.88861,   25.8421E-09
C:/temp/dataset/7/6_10.odb,Step-1,Increment      1: Step Time =    1.000,"PART-1-1",           203,      -2.32264,       22.6339,            0.,NA,NA,"",       7.29817,      -6.94161,      -2.25332,   27.0421E-09
C:/temp/dataset/7/6_10.odb,Step-1,Increment      1: Step Time =    1.000,"PART-1-1",           204,       9.17324,       21.4477,            0.,NA,NA,"",       6.91505,      -6.89100,  -576.282E-03,   29.7786E-09
C:/temp/dataset/7/6_10.odb,Step-1,Increment      1: Step Time =    1.000,"PART-1-1",           205,       9.43619,       25.5889,            0.,NA,NA,"",       7.51595,      -7.49339,  -581.849E-03,   35.9818E-09
C:/temp/dataset/7/6_10.odb,Step-1,Increment      1: Step Time =    1.000,"PART-1-1",           206,      -5.39738,       22.2321,            0.,NA,NA,"",       7.36177,      -6.85102,      -2.69429,   27.8455E-09
C:/temp/dataset/7/6_10.odb,Step-1,Increment      1: Step Time =    1.000,"PART-1-1",           207,      -8.66915,       22.6604,            0.,NA,NA,"",       7.57492,      -6.87855,      -3.17253,   29.7314E-09
C:/temp/dataset/7/6_10.odb,Step-1,Increment      1: Step Time =    1.000,"PART-1-1",           208,      -12.8188,       27.4435,            0.,NA,NA,"",       8.44292,      -7.52739,      -3.82378,   33.1510E-09
C:/temp/dataset/7/6_10.odb,Step-1,Increment      1: Step Time =    1.000,"PART-1-1",           209,       7.43992,       23.7550,            0.,NA,NA,"",       7.25694,      -7.20680,  -851.569E-03,   27.8419E-09
C:/temp/dataset/7/6_10.odb,Step-1,Increment      1: Step Time =    1.000,"PART-1-1",           210,      -6.48406,       26.1481,            0.,NA,NA,"",       7.95150,      -7.40659,      -2.89290,   33.7587E-09
C:/temp/dataset/7/6_10.odb,Step-1,Increment      1: Step Time =    1.000,"PART-1-1",           211,       3.18484,       28.0088,            0.,NA,NA,"",       7.92360,      -7.77790,      -1.51251,   40.6302E-09
C:/temp/dataset/7/6_10.odb,Step-1,Increment      1: Step Time =    1.000,"PART-1-1",           212,       11.4304,      -19.6429,            0.,NA,NA,"",   885.604E-03,  -877.355E-03,   120.592E-03,   21.1774E-03
C:/temp/dataset/7/6_10.odb,Step-1,Increment      1: Step Time =    1.000,"PART-1-1",           213,       9.33060,       23.4727,            0.,NA,NA,"",       7.20882,      -7.18587,  -574.837E-03,   32.1037E-09
C:/temp/dataset/7/6_10.odb,Step-1,Increment      1: Step Time =    1.000,"PART-1-1",           214,      -12.1707,       23.6708,            0.,NA,NA,"",       7.90247,      -6.98796,      -3.69018,   31.9944E-09
C:/temp/dataset/7/6_10.odb,Step-1,Increment      1: Step Time =    1.000,"PART-1-1",           215,      -13.7031,       24.9625,            0.,NA,NA,"",       8.16456,      -7.15884,      -3.92568,   32.5414E-09
C:/temp/dataset/7/6_10.odb,Step-1,Increment      1: Step Time =    1.000,"PART-1-1",           216,          -15.,         23.75,            0.,NA,NA,"",       8.08648,      -6.96961,      -4.10069,   33.3074E-09
C:/temp/dataset/7/6_10.odb,Step-1,Increment      1: Step Time =    1.000,"PART-1-1",           217,      -13.4675,       22.4583,            0.,NA,NA,"",       7.82064,      -6.79873,      -3.86518,   32.9481E-09
C:/temp/dataset/7/6_10.odb,Step-1,Increment      1: Step Time =    1.000,"PART-1-1",           218,      -9.86170,       27.7278,            0.,NA,NA,"",       8.32505,      -7.59973,      -3.39861,   35.1016E-09
C:/temp/dataset/7/6_10.odb,Step-1,Increment      1: Step Time =    1.000,"PART-1-1",           219,      -10.4490,       26.4258,            0.,NA,NA,"",       8.17768,      -7.40501,      -3.46993,   33.6028E-09
C:/temp/dataset/7/6_10.odb,Step-1,Increment      1: Step Time =    1.000,"PART-1-1",           220,      -9.20914,       25.5437,            0.,NA,NA,"",       7.99468,      -7.29036,      -3.28111,   32.9914E-09
C:/temp/dataset/7/6_10.odb,Step-1,Increment      1: Step Time =    1.000,"PART-1-1",           221,      -8.62185,       26.8458,            0.,NA,NA,"",       8.14427,      -7.48508,      -3.20979,   34.4156E-09
C:/temp/dataset/7/6_10.odb,Step-1,Increment      1: Step Time =    1.000,"PART-1-1",           222,      -9.15066,       28.9242,            0.,NA,NA,"",       8.45459,      -7.78045,      -3.30826,   37.1079E-09
C:/temp/dataset/7/6_10.odb,Step-1,Increment      1: Step Time =    1.000,"PART-1-1",           223,      -10.3125,           30.,            0.,NA,NA,"",       8.65761,      -7.92397,      -3.48783,   37.7638E-09
C:/temp/dataset/7/6_10.odb,Step-1,Increment      1: Step Time =    1.000,"PART-1-1",           224,      -11.0235,       28.8036,            0.,NA,NA,"",       8.53002,      -7.74325,      -3.57817,   35.4868E-09
C:/temp/dataset/7/6_10.odb,Step-1,Increment      1: Step Time =    1.000,"PART-1-1",           225,      -11.2536,       25.0847,            0.,NA,NA,"",       8.03959,      -7.20234,      -3.57229,   32.7852E-09
C:/temp/dataset/7/6_10.odb,Step-1,Increment      1: Step Time =    1.000,"PART-1-1",           226,      -10.3021,       22.5385,            0.,NA,NA,"",       7.64517,      -6.84370,      -3.40769,   30.2630E-09
C:/temp/dataset/7/6_10.odb,Step-1,Increment      1: Step Time =    1.000,"PART-1-1",           227,      -9.38503,       23.9523,            0.,NA,NA,"",       7.78713,      -7.05808,      -3.28980,   31.1257E-09
C:/temp/dataset/7/6_10.odb,Step-1,Increment      1: Step Time =    1.000,"PART-1-1",           228,      -12.9719,       28.7217,            0.,NA,NA,"",       8.62279,      -7.71086,      -3.85942,   34.1853E-09
C:/temp/dataset/7/6_10.odb,Step-1,Increment      1: Step Time =    1.000,"PART-1-1",           229,      -14.0625,           30.,            0.,NA,NA,"",       8.85506,      -7.88445,      -4.03081,   34.5672E-09
C:/temp/dataset/7/6_10.odb,Step-1,Increment      1: Step Time =    1.000,"PART-1-1",           230,          -15.,         28.75,            0.,NA,NA,"",       8.74310,      -7.69358,      -4.15338,   31.1453E-09
C:/temp/dataset/7/6_10.odb,Step-1,Increment      1: Step Time =    1.000,"PART-1-1",           231,      -13.9094,       27.4717,            0.,NA,NA,"",       8.50920,      -7.51999,      -3.98199,   31.6483E-09
C:/temp/dataset/7/6_10.odb,Step-1,Increment      1: Step Time =    1.000,"PART-1-1",           232,      -7.40072,       25.9956,            0.,NA,NA,"",       7.97076,      -7.37485,      -3.02402,   33.5021E-09
C:/temp/dataset/7/6_10.odb,Step-1,Increment      1: Step Time =    1.000,"PART-1-1",           233,      -7.96404,       25.0347,            0.,NA,NA,"",       7.86458,      -7.22978,      -3.09546,   32.1070E-09
C:/temp/dataset/7/6_10.odb,Step-1,Increment      1: Step Time =    1.000,"PART-1-1",           234,      -6.69374,       24.2457,            0.,NA,NA,"",       7.69741,      -7.12892,      -2.90321,   30.7666E-09
C:/temp/dataset/7/6_10.odb,Step-1,Increment      1: Step Time =    1.000,"PART-1-1",           235,      -6.13042,       25.2066,            0.,NA,NA,"",       7.80575,      -7.27399,      -2.83177,   32.0300E-09
C:/temp/dataset/7/6_10.odb,Step-1,Increment      1: Step Time =    1.000,"PART-1-1",           236,      -5.46940,       29.1125,            0.,NA,NA,"",       8.32350,      -7.84651,      -2.77722,   40.7612E-09
C:/temp/dataset/7/6_10.odb,Step-1,Increment      1: Step Time =    1.000,"PART-1-1",           237,      -4.41178,       28.2246,            0.,NA,NA,"",       8.15939,      -7.72909,      -2.61473,   39.0869E-09
C:/temp/dataset/7/6_10.odb,Step-1,Increment      1: Step Time =    1.000,"PART-1-1",           238,      -3.62988,       29.1121,            0.,NA,NA,"",       8.25686,      -7.86583,      -2.51087,   42.5424E-09
C:/temp/dataset/7/6_10.odb,Step-1,Increment      1: Step Time =    1.000,"PART-1-1",           239,       -4.6875,           30.,            0.,NA,NA,"",       8.41897,      -7.98325,      -2.67336,   44.4307E-09
C:/temp/dataset/7/6_10.odb,Step-1,Increment      1: Step Time =    1.000,"PART-1-1",           240,  -467.629E-03,       27.9420,            0.,NA,NA,"",       7.99456,      -7.72973,      -2.04066,   40.0605E-09
C:/temp/dataset/7/6_10.odb,Step-1,Increment      1: Step Time =    1.000,"PART-1-1",           241,  -845.263E-03,       26.9234,            0.,NA,NA,"",       7.85975,      -7.57827,      -2.08461,   35.8144E-09
C:/temp/dataset/7/6_10.odb,Step-1,Increment      1: Step Time =    1.000,"PART-1-1",           242,   746.021E-03,       26.1520,            0.,NA,NA,"",       7.70768,      -7.48334,      -1.84607,   32.7991E-09
C:/temp/dataset/7/6_10.odb,Step-1,Increment      1: Step Time =    1.000,"PART-1-1",           243,       1.12365,       27.1705,            0.,NA,NA,"",       7.84460,      -7.63480,      -1.80212,   36.7336E-09
C:/temp/dataset/7/6_10.odb,Step-1,Increment      1: Step Time =    1.000,"PART-1-1",           244,       14.0901,       25.0896,            0.,NA,NA,"",       7.47077,      -7.47014,   97.2700E-03,   39.7444E-09
C:/temp/dataset/7/6_10.odb,Step-1,Increment      1: Step Time =    1.000,"PART-1-1",           245,       13.1528,       23.9903,            0.,NA,NA,"",       7.30114,      -7.30109,  -26.8636E-03,   40.0376E-09
C:/temp/dataset/7/6_10.odb,Step-1,Increment      1: Step Time =    1.000,"PART-1-1",           246,       14.0627,       22.6507,            0.,NA,NA,"",       7.11770,      -7.11670,   119.004E-03,   50.2965E-09
C:/temp/dataset/7/6_10.odb,Step-1,Increment      1: Step Time =    1.000,"PART-1-1",           247,           15.,         23.75,            0.,NA,NA,"",       7.28981,      -7.28576,   243.137E-03,   51.5006E-09
C:/temp/dataset/7/6_10.odb,Step-1,Increment      1: Step Time =    1.000,"PART-1-1",           248,       11.2764,       28.8302,            0.,NA,NA,"",       7.98976,      -7.98211,  -349.552E-03,   31.6782E-09
C:/temp/dataset/7/6_10.odb,Step-1,Increment      1: Step Time =    1.000,"PART-1-1",           249,       10.3125,           30.,            0.,NA,NA,"",       8.15675,      -8.14132,  -501.449E-03,   33.5001E-09
C:/temp/dataset/7/6_10.odb,Step-1,Increment      1: Step Time =    1.000,"PART-1-1",           250,       9.39543,       28.8642,            0.,NA,NA,"",       7.99147,      -7.96720,  -622.266E-03,   36.4346E-09
C:/temp/dataset/7/6_10.odb,Step-1,Increment      1: Step Time =    1.000,"PART-1-1",           251,       10.3594,       27.6945,            0.,NA,NA,"",       7.82214,      -7.80799,  -470.369E-03,   35.9108E-09
C:/temp/dataset/7/6_10.odb,Step-1,Increment      1: Step Time =    1.000,"PART-1-1",           252,        8.4375,           30.,            0.,NA,NA,"",       8.15826,      -8.12156,  -772.937E-03,   41.6387E-09
C:/temp/dataset/7/6_10.odb,Step-1,Increment      1: Step Time =    1.000,"PART-1-1",           253,       7.48312,       28.8587,            0.,NA,NA,"",       7.99696,      -7.94626,  -899.099E-03,   41.2485E-09
C:/temp/dataset/7/6_10.odb,Step-1,Increment      1: Step Time =    1.000,"PART-1-1",           254,       8.44105,       27.7230,            0.,NA,NA,"",       7.82776,      -7.79190,  -748.427E-03,   37.3917E-09
C:/temp/dataset/7/6_10.odb,Step-1,Increment      1: Step Time =    1.000,"PART-1-1",           255,       13.0365,       21.6252,            0.,NA,NA,"",       6.95743,      -6.95740,  -18.7770E-03,   39.3260E-09
C:/temp/dataset/7/6_10.odb,Step-1,Increment      1: Step Time =    1.000,"PART-1-1",           256,       13.9738,       20.2245,            0.,NA,NA,"",       6.76575,      -6.76447,   131.702E-03,   53.0180E-09
C:/temp/dataset/7/6_10.odb,Step-1,Increment      1: Step Time =    1.000,"PART-1-1",           257,           15.,         21.25,            0.,NA,NA,"",       6.92901,      -6.92377,   269.483E-03,   64.7456E-09
C:/temp/dataset/7/6_10.odb,Step-1,Increment      1: Step Time =    1.000,"PART-1-1",           258,       6.90015,       14.7921,            0.,NA,NA,"",       5.96215,      -5.90335,  -835.273E-03,   422.075E-09
C:/temp/dataset/7/6_10.odb,Step-1,Increment      1: Step Time =    1.000,"PART-1-1",           259,       5.93474,       15.8126,            0.,NA,NA,"",       6.12085,      -6.04094,  -985.813E-03,   201.855E-09
C:/temp/dataset/7/6_10.odb,Step-1,Increment      1: Step Time =    1.000,"PART-1-1",           260,            5.,       14.7917,            0.,NA,NA,"",       5.98713,      -5.88326,      -1.11040,   411.139E-09
C:/temp/dataset/7/6_10.odb,Step-1,Increment      1: Step Time =    1.000,"PART-1-1",           261,       5.96541,       13.7711,            0.,NA,NA,"",       5.82529,      -5.74567,  -959.858E-03,   485.208E-09
C:/temp/dataset/7/6_10.odb,Step-1,Increment      1: Step Time =    1.000,"PART-1-1",           262,       7.07741,       8.55300,            0.,NA,NA,"",       5.05685,      -5.00184,  -743.859E-03,   997.255E-09
C:/temp/dataset/7/6_10.odb,Step-1,Increment      1: Step Time =    1.000,"PART-1-1",           263,       6.03400,       9.60662,            0.,NA,NA,"",       5.22259,      -5.14340,  -906.038E-03,   1.54666E-06
C:/temp/dataset/7/6_10.odb,Step-1,Increment      1: Step Time =    1.000,"PART-1-1",           264,            5.,       8.54167,            0.,NA,NA,"",       5.08671,      -4.97831,      -1.04453,   3.12378E-06
C:/temp/dataset/7/6_10.odb,Step-1,Increment      1: Step Time =    1.000,"PART-1-1",           265,       6.04341,       7.48805,            0.,NA,NA,"",       4.91657,      -4.83675,  -882.348E-03,   1.76363E-06
C:/temp/dataset/7/6_10.odb,Step-1,Increment      1: Step Time =    1.000,"PART-1-1",           266,            5.,         4.375,            0.,NA,NA,"",       4.48802,      -4.37506,      -1.00062,   12.2288E-06
C:/temp/dataset/7/6_10.odb,Step-1,Increment      1: Step Time =    1.000,"PART-1-1",           267,       6.03822,       3.24050,            0.,NA,NA,"",       4.30421,      -4.22177,  -838.373E-03,   30.6825E-06
C:/temp/dataset/7/6_10.odb,Step-1,Increment      1: Step Time =    1.000,"PART-1-1",           268,       7.08368,       4.22909,            0.,NA,NA,"",       4.43112,      -4.37589,  -697.393E-03,   34.1160E-06
C:/temp/dataset/7/6_10.odb,Step-1,Increment      1: Step Time =    1.000,"PART-1-1",           269,       6.04546,       5.36359,            0.,NA,NA,"",       4.61005,      -4.52919,  -859.668E-03,   7.46459E-06
C:/temp/dataset/7/6_10.odb,Step-1,Increment      1: Step Time =    1.000,"PART-1-1",           270,            5.,       2.29167,            0.,NA,NA,"",       4.18940,      -4.07348,  -978.716E-03,   59.2567E-06
C:/temp/dataset/7/6_10.odb,Step-1,Increment      1: Step Time =    1.000,"PART-1-1",           271,       6.01828,       1.12309,            0.,NA,NA,"",       3.99984,      -3.91509,  -819.040E-03,   91.8257E-06
C:/temp/dataset/7/6_10.odb,Step-1,Increment      1: Step Time =    1.000,"PART-1-1",           272,       7.05649,       2.07193,            0.,NA,NA,"",       4.11964,      -4.06336,  -678.613E-03,   93.5633E-06
C:/temp/dataset/7/6_10.odb,Step-1,Increment      1: Step Time =    1.000,"PART-1-1",           273,       7.00178,  -77.9012E-03,            0.,NA,NA,"",       3.80995,      -3.75166,  -663.926E-03,   198.724E-06
C:/temp/dataset/7/6_10.odb,Step-1,Increment      1: Step Time =    1.000,"PART-1-1",           274,            5.,   208.333E-03,            0.,NA,NA,"",       3.89139,      -3.77190,  -956.950E-03,   178.683E-06
C:/temp/dataset/7/6_10.odb,Step-1,Increment      1: Step Time =    1.000,"PART-1-1",           275,       5.98350,  -992.661E-03,            0.,NA,NA,"",       3.69652,      -3.60847,  -802.013E-03,   213.263E-06
C:/temp/dataset/7/6_10.odb,Step-1,Increment      1: Step Time =    1.000,"PART-1-1",           276,       6.59145,      -6.15040,            0.,NA,NA,"",       2.94017,      -2.86517,  -659.846E-03,   347.762E-06
C:/temp/dataset/7/6_10.odb,Step-1,Increment      1: Step Time =    1.000,"PART-1-1",           277,       5.82593,      -5.11028,            0.,NA,NA,"",       3.10906,      -3.00896,  -782.594E-03,   567.057E-06
C:/temp/dataset/7/6_10.odb,Step-1,Increment      1: Step Time =    1.000,"PART-1-1",           278,            5.,      -6.04167,            0.,NA,NA,"",       2.99982,      -2.86352,  -893.963E-03,   944.284E-06
C:/temp/dataset/7/6_10.odb,Step-1,Increment      1: Step Time =    1.000,"PART-1-1",           279,       5.76552,      -7.08179,            0.,NA,NA,"",       2.82626,      -2.71907,  -770.943E-03,   553.086E-06
C:/temp/dataset/7/6_10.odb,Step-1,Increment      1: Step Time =    1.000,"PART-1-1",           280,       8.25955,      -15.2021,            0.,NA,NA,"",       1.53658,      -1.50673,  -301.412E-03,   16.5100E-03
C:/temp/dataset/7/6_10.odb,Step-1,Increment      1: Step Time =    1.000,"PART-1-1",           281,       9.23032,      -13.9562,            0.,NA,NA,"",       1.71920,      -1.70843,  -192.189E-03,   15.9706E-03
C:/temp/dataset/7/6_10.odb,Step-1,Increment      1: Step Time =    1.000,"PART-1-1",           282,       8.16037,      -12.9544,            0.,NA,NA,"",       1.88690,      -1.85410,  -350.303E-03,   12.1133E-03
C:/temp/dataset/7/6_10.odb,Step-1,Increment      1: Step Time =    1.000,"PART-1-1",           283,       7.18960,      -14.2003,            0.,NA,NA,"",       1.71726,      -1.65361,  -463.199E-03,   13.9252E-03
C:/temp/dataset/7/6_10.odb,Step-1,Increment      1: Step Time =    1.000,"PART-1-1",           284,            5.,      -22.7083,            0.,NA,NA,"",   695.754E-03,  -519.111E-03,  -463.246E-03,   51.0441E-03
C:/temp/dataset/7/6_10.odb,Step-1,Increment      1: Step Time =    1.000,"PART-1-1",           285,       5.97351,      -23.6835,            0.,NA,NA,"",   515.566E-03,  -405.330E-03,  -318.615E-03,   45.0488E-03
C:/temp/dataset/7/6_10.odb,Step-1,Increment      1: Step Time =    1.000,"PART-1-1",           286,       6.71140,      -22.7416,            0.,NA,NA,"",   569.743E-03,  -491.355E-03,  -288.404E-03,   35.0165E-03
C:/temp/dataset/7/6_10.odb,Step-1,Increment      1: Step Time =    1.000,"PART-1-1",           287,       5.73789,      -21.7664,            0.,NA,NA,"",   743.857E-03,  -609.951E-03,  -425.773E-03,   39.9003E-03
C:/temp/dataset/7/6_10.odb,Step-1,Increment      1: Step Time =    1.000,"PART-1-1",           288,       9.95056,      -28.8261,            0.,NA,NA,"",   17.1923E-03,  -17.1879E-03,   389.420E-06,   10.1800E-03
C:/temp/dataset/7/6_10.odb,Step-1,Increment      1: Step Time =    1.000,"PART-1-1",           289,       8.67404,      -27.7482,            0.,NA,NA,"",   69.8760E-03,  -62.7537E-03,  -30.7347E-03,   25.0461E-03
C:/temp/dataset/7/6_10.odb,Step-1,Increment      1: Step Time =    1.000,"PART-1-1",           290,       7.47347,      -28.9221,            0.,NA,NA,"",   33.7292E-03,  -18.8021E-03,  -28.0025E-03,   32.7458E-03
C:/temp/dataset/7/6_10.odb,Step-1,Increment      1: Step Time =    1.000,"PART-1-1",           291,          8.75,          -30.,            0.,NA,NA,"",            0.,  -178.811E-42,  -29.6827E-39,   13.7648E-03
C:/temp/dataset/7/6_10.odb,Step-1,Increment      1: Step Time =    1.000,"PART-1-1",           292,       9.14805,      -24.1419,            0.,NA,NA,"",   338.194E-03,  -332.886E-03,  -59.6825E-03,   21.5790E-03
C:/temp/dataset/7/6_10.odb,Step-1,Increment      1: Step Time =    1.000,"PART-1-1",           293,       7.84454,      -23.3007,            0.,NA,NA,"",   456.591E-03,  -422.685E-03,  -172.662E-03,   28.1000E-03
C:/temp/dataset/7/6_10.odb,Step-1,Increment      1: Step Time =    1.000,"PART-1-1",           294,       7.10828,      -24.6604,            0.,NA,NA,"",   352.457E-03,  -298.303E-03,  -187.727E-03,   37.0704E-03
C:/temp/dataset/7/6_10.odb,Step-1,Increment      1: Step Time =    1.000,"PART-1-1",           295,       8.41180,      -25.5016,            0.,NA,NA,"",   229.489E-03,  -213.996E-03,  -82.8909E-03,   26.9097E-03
C:/temp/dataset/7/6_10.odb,Step-1,Increment      1: Step Time =    1.000,"PART-1-1",           296,       7.00425,      -21.1298,            0.,NA,NA,"",   742.525E-03,  -673.332E-03,  -312.997E-03,   29.7174E-03
C:/temp/dataset/7/6_10.odb,Step-1,Increment      1: Step Time =    1.000,"PART-1-1",           297,       6.26636,      -19.9884,            0.,NA,NA,"",   927.625E-03,  -820.419E-03,  -432.897E-03,   29.6618E-03
C:/temp/dataset/7/6_10.odb,Step-1,Increment      1: Step Time =    1.000,"PART-1-1",           298,            5.,       -20.625,            0.,NA,NA,"",   939.695E-03,  -752.091E-03,  -563.371E-03,   41.6191E-03
C:/temp/dataset/7/6_10.odb,Step-1,Increment      1: Step Time =    1.000,"PART-1-1",           299,       12.8526,      -8.63250,            0.,NA,NA,"",       2.59646,      -2.58268,   267.175E-03,   8.07285E-03
C:/temp/dataset/7/6_10.odb,Step-1,Increment      1: Step Time =    1.000,"PART-1-1",           300,       13.9581,      -9.97058,            0.,NA,NA,"",       2.44470,      -2.40614,   432.491E-03,   10.5401E-03
C:/temp/dataset/7/6_10.odb,Step-1,Increment      1: Step Time =    1.000,"PART-1-1",           301,           15.,         -8.75,            0.,NA,NA,"",       2.66751,      -2.60534,   572.573E-03,   8.60478E-03
C:/temp/dataset/7/6_10.odb,Step-1,Increment      1: Step Time =    1.000,"PART-1-1",           302,       13.8945,      -7.41192,            0.,NA,NA,"",       2.80289,      -2.77304,   408.005E-03,   5.20255E-03
C:/temp/dataset/7/6_10.odb,Step-1,Increment      1: Step Time =    1.000,"PART-1-1",           303,            5.,        10.625,            0.,NA,NA,"",       5.38659,      -5.27995,      -1.06649,   2.08576E-06
C:/temp/dataset/7/6_10.odb,Step-1,Increment      1: Step Time =    1.000,"PART-1-1",           304,       7.03988,       10.6820,            0.,NA,NA,"",       5.36549,      -5.30970,  -771.727E-03,   951.003E-09
C:/temp/dataset/7/6_10.odb,Step-1,Increment      1: Step Time =    1.000,"PART-1-1",           305,       6.00589,       11.7004,            0.,NA,NA,"",       5.52546,      -5.44626,  -932.174E-03,   988.138E-09
C:/temp/dataset/7/6_10.odb,Step-1,Increment      1: Step Time =    1.000,"PART-1-1",           306,       2.74639,       25.6366,            0.,NA,NA,"",       7.58995,      -7.42979,      -1.55099,   29.4517E-09
C:/temp/dataset/7/6_10.odb,Step-1,Increment      1: Step Time =    1.000,"PART-1-1",           307,       1.36653,       25.0307,            0.,NA,NA,"",       7.53230,      -7.32753,      -1.74441,   28.5180E-09
C:/temp/dataset/7/6_10.odb,Step-1,Increment      1: Step Time =    1.000,"PART-1-1",           308,       1.96853,       23.3303,            0.,NA,NA,"",       7.27476,      -7.08765,      -1.63932,   23.5907E-09
C:/temp/dataset/7/6_10.odb,Step-1,Increment      1: Step Time =    1.000,"PART-1-1",           309,       3.34839,       23.9361,            0.,NA,NA,"",       7.33387,      -7.18992,      -1.44591,   22.5986E-09
C:/temp/dataset/7/6_10.odb,Step-1,Increment      1: Step Time =    1.000,"PART-1-1",           310,       4.47216,       26.2029,            0.,NA,NA,"",       7.64258,      -7.52998,      -1.30708,   31.9316E-09
C:/temp/dataset/7/6_10.odb,Step-1,Increment      1: Step Time =    1.000,"PART-1-1",           311,       4.17993,       27.6633,            0.,NA,NA,"",       7.85778,      -7.73835,      -1.36478,   38.6187E-09
C:/temp/dataset/7/6_10.odb,Step-1,Increment      1: Step Time =    1.000,"PART-1-1",           312,       2.45416,       27.0970,            0.,NA,NA,"",       7.80574,      -7.63817,      -1.60870,   36.3188E-09
C:/temp/dataset/7/6_10.odb,Step-1,Increment      1: Step Time =    1.000,"PART-1-1",           313,      -1.66705,       28.8640,            0.,NA,NA,"",       8.15955,      -7.85059,      -2.22405,   43.2810E-09
C:/temp/dataset/7/6_10.odb,Step-1,Increment      1: Step Time =    1.000,"PART-1-1",           314,   261.919E-03,       29.0779,            0.,NA,NA,"",       8.13823,      -7.90190,      -1.94700,   45.8985E-09
C:/temp/dataset/7/6_10.odb,Step-1,Increment      1: Step Time =    1.000,"PART-1-1",           315,    -937.5E-03,           30.,            0.,NA,NA,"",       8.30080,      -8.02277,      -2.13038,   49.4790E-09
C:/temp/dataset/7/6_10.odb,Step-1,Increment      1: Step Time =    1.000,"PART-1-1",           316,          -15.,         21.25,            0.,NA,NA,"",       7.76279,      -6.60763,      -4.07434,   34.2874E-09
C:/temp/dataset/7/6_10.odb,Step-1,Increment      1: Step Time =    1.000,"PART-1-1",           317,      -13.3250,           20.,            0.,NA,NA,"",       7.49071,      -6.44428,      -3.81864,   30.8285E-09
C:/temp/dataset/7/6_10.odb,Step-1,Increment      1: Step Time =    1.000,"PART-1-1",           318,      -11.7925,       21.2083,            0.,NA,NA,"",       7.55359,      -6.63539,      -3.60948,   29.8287E-09
C:/temp/dataset/7/6_10.odb,Step-1,Increment      1: Step Time =    1.000,"PART-1-1",           319,       10.1137,       15.7319,            0.,NA,NA,"",       6.08516,      -6.07329,  -379.876E-03,   350.122E-09
C:/temp/dataset/7/6_10.odb,Step-1,Increment      1: Step Time =    1.000,"PART-1-1",           320,       9.02474,       16.2903,            0.,NA,NA,"",       6.16665,      -6.14266,  -543.432E-03,   253.944E-09
C:/temp/dataset/7/6_10.odb,Step-1,Increment      1: Step Time =    1.000,"PART-1-1",           321,       8.64023,       14.7706,            0.,NA,NA,"",       5.94723,      -5.91858,  -583.093E-03,   455.676E-09
C:/temp/dataset/7/6_10.odb,Step-1,Increment      1: Step Time =    1.000,"PART-1-1",           322,       9.72917,       14.2122,            0.,NA,NA,"",       5.86423,      -5.84920,  -419.537E-03,   533.807E-09
C:/temp/dataset/7/6_10.odb,Step-1,Increment      1: Step Time =    1.000,"PART-1-1",           323,       12.8210,       13.6438,            0.,NA,NA,"",       5.79958,      -5.79948,   34.1368E-03,   639.841E-09
C:/temp/dataset/7/6_10.odb,Step-1,Increment      1: Step Time =    1.000,"PART-1-1",           324,       13.9730,       12.4303,            0.,NA,NA,"",       5.63997,      -5.63591,   213.717E-03,   713.032E-09
C:/temp/dataset/7/6_10.odb,Step-1,Increment      1: Step Time =    1.000,"PART-1-1",           325,           15.,         13.75,            0.,NA,NA,"",       5.84821,      -5.83782,   348.519E-03,   579.568E-09
C:/temp/dataset/7/6_10.odb,Step-1,Increment      1: Step Time =    1.000,"PART-1-1",           326,       13.8481,       14.9635,            0.,NA,NA,"",       6.00376,      -6.00138,   168.940E-03,   241.297E-09
C:/temp/dataset/7/6_10.odb,Step-1,Increment      1: Step Time =    1.000,"PART-1-1",           327,       10.1008,       2.87074,            0.,NA,NA,"",       4.21813,      -4.21094,  -246.128E-03,   67.8597E-06
C:/temp/dataset/7/6_10.odb,Step-1,Increment      1: Step Time =    1.000,"PART-1-1",           328,       9.07373,       1.83179,            0.,NA,NA,"",       4.06793,      -4.04978,  -383.852E-03,   121.889E-06
C:/temp/dataset/7/6_10.odb,Step-1,Increment      1: Step Time =    1.000,"PART-1-1",           329,       10.0520,   569.032E-03,            0.,NA,NA,"",       3.88393,      -3.87719,  -228.725E-03,   170.855E-06
C:/temp/dataset/7/6_10.odb,Step-1,Increment      1: Step Time =    1.000,"PART-1-1",           330,       11.0790,       1.60798,            0.,NA,NA,"",       4.03936,      -4.03833,  -91.0988E-03,   133.622E-06
C:/temp/dataset/7/6_10.odb,Step-1,Increment      1: Step Time =    1.000,"PART-1-1",           331,       9.98138,      -1.74337,            0.,NA,NA,"",       3.54823,      -3.54176,  -214.116E-03,   321.563E-06
C:/temp/dataset/7/6_10.odb,Step-1,Increment      1: Step Time =    1.000,"PART-1-1",           332,       8.90931,      -2.66004,            0.,NA,NA,"",       3.41690,      -3.39792,  -359.667E-03,   327.490E-06
C:/temp/dataset/7/6_10.odb,Step-1,Increment      1: Step Time =    1.000,"PART-1-1",           333,       9.84458,      -4.07679,            0.,NA,NA,"",       3.20936,      -3.20257,  -208.712E-03,   426.013E-06
C:/temp/dataset/7/6_10.odb,Step-1,Increment      1: Step Time =    1.000,"PART-1-1",           334,       10.9167,      -3.16013,            0.,NA,NA,"",       3.34704,      -3.34644,  -63.3719E-03,   364.008E-06
C:/temp/dataset/7/6_10.odb,Step-1,Increment      1: Step Time =    1.000,"PART-1-1",           335,            5.,      -3.95833,            0.,NA,NA,"",       3.29709,      -3.16772,  -914.518E-03,   755.088E-06
C:/temp/dataset/7/6_10.odb,Step-1,Increment      1: Step Time =    1.000,"PART-1-1",           336,       6.75254,      -4.23112,            0.,NA,NA,"",       3.21486,      -3.14710,  -656.579E-03,   249.200E-06
C:/temp/dataset/7/6_10.odb,Step-1,Increment      1: Step Time =    1.000,"PART-1-1",           337,       5.92661,      -3.07918,            0.,NA,NA,"",       3.39830,      -3.30550,  -788.732E-03,   393.723E-06
C:/temp/dataset/7/6_10.odb,Step-1,Increment      1: Step Time =    1.000,"PART-1-1",           338,       7.06139,      -12.0396,            0.,NA,NA,"",       2.05182,      -1.98532,  -518.169E-03,   8.99449E-03
C:/temp/dataset/7/6_10.odb,Step-1,Increment      1: Step Time =    1.000,"PART-1-1",           339,       5.99095,      -11.1126,            0.,NA,NA,"",       2.22620,      -2.11724,  -687.946E-03,   4.51440E-03
C:/temp/dataset/7/6_10.odb,Step-1,Increment      1: Step Time =    1.000,"PART-1-1",           340,            5.,      -12.2917,            0.,NA,NA,"",       2.09509,      -1.92891,  -817.756E-03,   6.63055E-03
C:/temp/dataset/7/6_10.odb,Step-1,Increment      1: Step Time =    1.000,"PART-1-1",           341,       6.07044,      -13.2187,            0.,NA,NA,"",       1.90727,      -1.79640,  -640.811E-03,   9.31238E-03
C:/temp/dataset/7/6_10.odb,Step-1,Increment      1: Step Time =    1.000,"PART-1-1",           342,       6.63644,      -8.02271,            0.,NA,NA,"",       2.66543,      -2.58925,  -632.713E-03,   1.73939E-03
C:/temp/dataset/7/6_10.odb,Step-1,Increment      1: Step Time =    1.000,"PART-1-1",           343,            5.,        -8.125,            0.,NA,NA,"",       2.70094,      -2.55600,  -872.880E-03,   339.160E-06
C:/temp/dataset/7/6_10.odb,Step-1,Increment      1: Step Time =    1.000,"PART-1-1",           344,       5.87092,      -9.06592,            0.,NA,NA,"",       2.53357,      -2.42520,  -733.037E-03,   1.48979E-03
C:/temp/dataset/7/6_10.odb,Step-1,Increment      1: Step Time =    1.000,"PART-1-1",           345,       13.0826,      -13.6930,            0.,NA,NA,"",       1.83712,      -1.80860,   322.429E-03,   18.4974E-03
C:/temp/dataset/7/6_10.odb,Step-1,Increment      1: Step Time =    1.000,"PART-1-1",           346,       14.0569,      -14.9678,            0.,NA,NA,"",       1.68648,      -1.62217,   461.285E-03,   19.0598E-03
C:/temp/dataset/7/6_10.odb,Step-1,Increment      1: Step Time =    1.000,"PART-1-1",           347,           15.,        -13.75,            0.,NA,NA,"",       1.94161,      -1.84475,   605.594E-03,   15.7673E-03
C:/temp/dataset/7/6_10.odb,Step-1,Increment      1: Step Time =    1.000,"PART-1-1",           348,       14.0257,      -12.4752,            0.,NA,NA,"",       2.07368,      -2.02299,   455.684E-03,   13.6635E-03
C:/temp/dataset/7/6_10.odb,Step-1,Increment      1: Step Time =    1.000,"PART-1-1",           349,       8.13738,      -21.6888,            0.,NA,NA,"",   628.819E-03,  -600.837E-03,  -185.497E-03,   24.1365E-03
C:/temp/dataset/7/6_10.odb,Step-1,Increment      1: Step Time =    1.000,"PART-1-1",           350,            5.,      -28.9583,            0.,NA,NA,"",   103.599E-03,  -67.9975E-03,  -78.1601E-03,   81.5800E-03
C:/temp/dataset/7/6_10.odb,Step-1,Increment      1: Step Time =    1.000,"PART-1-1",           351,          6.25,          -30.,            0.,NA,NA,"",            0.,   943.447E-42,  -91.3450E-39,   58.5523E-03
C:/temp/dataset/7/6_10.odb,Step-1,Increment      1: Step Time =    1.000,"PART-1-1",           352,       6.22347,      -27.8804,            0.,NA,NA,"",   130.359E-03,  -84.5103E-03,  -99.2541E-03,   57.0008E-03
C:/temp/dataset/7/6_10.odb,Step-1,Increment      1: Step Time =    1.000,"PART-1-1",           353,           15.,        -28.75,            0.,NA,NA,"",   127.548E-03,  -86.9380E-03,   93.3292E-03,   82.3658E-03
C:/temp/dataset/7/6_10.odb,Step-1,Increment      1: Step Time =    1.000,"PART-1-1",           354,       13.6900,      -27.4695,            0.,NA,NA,"",   167.826E-03,  -118.794E-03,   118.547E-03,   56.3825E-03
C:/temp/dataset/7/6_10.odb,Step-1,Increment      1: Step Time =    1.000,"PART-1-1",           355,       12.4400,      -28.7195,            0.,NA,NA,"",   46.4480E-03,  -31.3913E-03,   34.2345E-03,   35.1194E-03
C:/temp/dataset/7/6_10.odb,Step-1,Increment      1: Step Time =    1.000,"PART-1-1",           356,         13.75,          -30.,            0.,NA,NA,"",            0.,   1.13655E-39,   90.0828E-39,   62.2053E-03
C:/temp/dataset/7/6_10.odb,Step-1,Increment      1: Step Time =    1.000,"PART-1-1",           357,       9.58617,      -22.6245,            0.,NA,NA,"",   493.881E-03,  -491.987E-03,  -43.2098E-03,   20.1291E-03
C:/temp/dataset/7/6_10.odb,Step-1,Increment      1: Step Time =    1.000,"PART-1-1",           358,       10.0221,      -21.0980,            0.,NA,NA,"",   675.460E-03,  -675.241E-03,  -17.1795E-03,   20.1519E-03
C:/temp/dataset/7/6_10.odb,Step-1,Increment      1: Step Time =    1.000,"PART-1-1",           359,       8.57328,      -20.1623,            0.,NA,NA,"",   809.997E-03,  -791.298E-03,  -173.038E-03,   21.5128E-03
C:/temp/dataset/7/6_10.odb,Step-1,Increment      1: Step Time =    1.000,"PART-1-1",           360,       11.1406,      -27.5456,            0.,NA,NA,"",   83.2783E-03,  -76.8582E-03,   32.0640E-03,   26.3241E-03
C:/temp/dataset/7/6_10.odb,Step-1,Increment      1: Step Time =    1.000,"PART-1-1",           361,         11.25,          -30.,            0.,NA,NA,"",            0.,  -1.09243E-39,   29.0662E-39,   15.2614E-03
C:/temp/dataset/7/6_10.odb,Step-1,Increment      1: Step Time =    1.000,"PART-1-1",           362,       11.2605,      -16.1933,            0.,NA,NA,"",       1.38419,      -1.38125,   90.1318E-03,   19.9993E-03
C:/temp/dataset/7/6_10.odb,Step-1,Increment      1: Step Time =    1.000,"PART-1-1",           363,       10.2521,      -15.0492,            0.,NA,NA,"",       1.54884,      -1.54813,  -46.7185E-03,   18.4469E-03
C:/temp/dataset/7/6_10.odb,Step-1,Increment      1: Step Time =    1.000,"PART-1-1",           364,       9.32474,      -16.3084,            0.,NA,NA,"",       1.35298,      -1.34478,  -148.680E-03,   19.1618E-03
C:/temp/dataset/7/6_10.odb,Step-1,Increment      1: Step Time =    1.000,"PART-1-1",           365,       10.3331,      -17.4526,            0.,NA,NA,"",       1.18029,      -1.18021,  -13.3814E-03,   19.5056E-03
C:/temp/dataset/7/6_10.odb,Step-1,Increment      1: Step Time =    1.000,"PART-1-1",           366,       7.44248,      -19.0256,            0.,NA,NA,"",   997.786E-03,  -944.077E-03,  -322.948E-03,   23.4897E-03
C:/temp/dataset/7/6_10.odb,Step-1,Increment      1: Step Time =    1.000,"PART-1-1",           367,       6.17612,      -17.5789,            0.,NA,NA,"",       1.26013,      -1.14741,  -520.938E-03,   22.4760E-03
C:/temp/dataset/7/6_10.odb,Step-1,Increment      1: Step Time =    1.000,"PART-1-1",           368,            5.,      -18.5417,            0.,NA,NA,"",       1.20692,      -1.01755,  -649.042E-03,   31.9729E-03
C:/temp/dataset/7/6_10.odb,Step-1,Increment      1: Step Time =    1.000,"PART-1-1",           369,       12.8407,      -6.03443,            0.,NA,NA,"",       2.96382,      -2.95373,   244.349E-03,   1.79529E-03
C:/temp/dataset/7/6_10.odb,Step-1,Increment      1: Step Time =    1.000,"PART-1-1",           370,           15.,         -6.25,            0.,NA,NA,"",       2.99688,      -2.94551,   552.501E-03,   1.72718E-03
C:/temp/dataset/7/6_10.odb,Step-1,Increment      1: Step Time =    1.000,"PART-1-1",           371,       13.9462,      -4.87251,            0.,NA,NA,"",       3.15535,      -3.13111,   390.374E-03,   1.11960E-03
C:/temp/dataset/7/6_10.odb,Step-1,Increment      1: Step Time =    1.000,"PART-1-1",           372,       7.64514,      -8.69832,            0.,NA,NA,"",       2.54489,      -2.49959,  -478.019E-03,   3.19642E-03
C:/temp/dataset/7/6_10.odb,Step-1,Increment      1: Step Time =    1.000,"PART-1-1",           373,       8.20020,      -7.75016,            0.,NA,NA,"",       2.67859,      -2.64732,  -408.126E-03,   2.55926E-03
C:/temp/dataset/7/6_10.odb,Step-1,Increment      1: Step Time =    1.000,"PART-1-1",           374,       7.19150,      -7.07454,            0.,NA,NA,"",       2.79300,      -2.73583,  -562.197E-03,   1.07103E-03
C:/temp/dataset/7/6_10.odb,Step-1,Increment      1: Step Time =    1.000,"PART-1-1",           375,       7.97278,      -1.35169,            0.,NA,NA,"",       3.61363,      -3.57752,  -509.606E-03,   255.886E-06
C:/temp/dataset/7/6_10.odb,Step-1,Increment      1: Step Time =    1.000,"PART-1-1",           376,       9.01285,  -423.179E-03,            0.,NA,NA,"",       3.74098,      -3.72277,  -368.665E-03,   242.202E-06
C:/temp/dataset/7/6_10.odb,Step-1,Increment      1: Step Time =    1.000,"PART-1-1",           377,       8.04185,   850.611E-03,            0.,NA,NA,"",       3.93190,      -3.89696,  -522.956E-03,   140.842E-06
C:/temp/dataset/7/6_10.odb,Step-1,Increment      1: Step Time =    1.000,"PART-1-1",           378,       8.08837,       3.05311,            0.,NA,NA,"",       4.25061,      -4.21623,  -539.496E-03,   56.2439E-06
C:/temp/dataset/7/6_10.odb,Step-1,Increment      1: Step Time =    1.000,"PART-1-1",           379,       9.11337,       4.08618,            0.,NA,NA,"",       4.39498,      -4.37655,  -401.963E-03,   45.7679E-06
C:/temp/dataset/7/6_10.odb,Step-1,Increment      1: Step Time =    1.000,"PART-1-1",           380,       8.10868,       5.26217,            0.,NA,NA,"",       4.57066,      -4.53624,  -559.856E-03,   17.2656E-06
C:/temp/dataset/7/6_10.odb,Step-1,Increment      1: Step Time =    1.000,"PART-1-1",           381,       7.08888,       6.39331,            0.,NA,NA,"",       4.74413,      -4.68926,  -719.441E-03,   8.94361E-06
C:/temp/dataset/7/6_10.odb,Step-1,Increment      1: Step Time =    1.000,"PART-1-1",           382,            5.,       6.45833,            0.,NA,NA,"",       4.78716,      -4.67667,      -1.02257,   1.51850E-06
C:/temp/dataset/7/6_10.odb,Step-1,Increment      1: Step Time =    1.000,"PART-1-1",           383,           15.,         16.25,            0.,NA,NA,"",       6.20817,      -6.19980,   322.173E-03,   118.176E-09
C:/temp/dataset/7/6_10.odb,Step-1,Increment      1: Step Time =    1.000,"PART-1-1",           384,       13.6214,       17.6671,            0.,NA,NA,"",       6.39136,      -6.39046,   107.623E-03,   71.2417E-09
C:/temp/dataset/7/6_10.odb,Step-1,Increment      1: Step Time =    1.000,"PART-1-1",           385,       12.4694,       16.3805,            0.,NA,NA,"",       6.19220,      -6.19204,  -45.6115E-03,   256.996E-09
C:/temp/dataset/7/6_10.odb,Step-1,Increment      1: Step Time =    1.000,"PART-1-1",           386,       10.0881,       9.74649,            0.,NA,NA,"",       5.21623,      -5.20637,  -320.512E-03,   1.14227E-06
C:/temp/dataset/7/6_10.odb,Step-1,Increment      1: Step Time =    1.000,"PART-1-1",           387,       9.10561,       8.57814,            0.,NA,NA,"",       5.04699,      -5.02685,  -450.455E-03,   2.40042E-06
C:/temp/dataset/7/6_10.odb,Step-1,Increment      1: Step Time =    1.000,"PART-1-1",           388,       10.1162,       7.46436,            0.,NA,NA,"",       4.88498,      -4.87623,  -292.396E-03,   4.22140E-06
C:/temp/dataset/7/6_10.odb,Step-1,Increment      1: Step Time =    1.000,"PART-1-1",           389,       11.0986,       8.63272,            0.,NA,NA,"",       5.05836,      -5.05575,  -162.453E-03,   2.24068E-06
C:/temp/dataset/7/6_10.odb,Step-1,Increment      1: Step Time =    1.000,"PART-1-1",           390,       9.96644,       19.4124,            0.,NA,NA,"",       6.61930,      -6.60466,  -439.983E-03,   58.1122E-09
C:/temp/dataset/7/6_10.odb,Step-1,Increment      1: Step Time =    1.000,"PART-1-1",           391,       10.9020,       20.3065,            0.,NA,NA,"",       6.75127,      -6.74397,  -313.942E-03,   48.1164E-09
C:/temp/dataset/7/6_10.odb,Step-1,Increment      1: Step Time =    1.000,"PART-1-1",           392,       10.1153,       21.2880,            0.,NA,NA,"",       6.89174,      -6.87780,  -438.192E-03,   30.3322E-09
C:/temp/dataset/7/6_10.odb,Step-1,Increment      1: Step Time =    1.000,"PART-1-1",           393,       9.17975,       20.3940,            0.,NA,NA,"",       6.76207,      -6.73849,  -564.234E-03,   40.6403E-09
C:/temp/dataset/7/6_10.odb,Step-1,Increment      1: Step Time =    1.000,"PART-1-1",           394,           15.,         28.75,            0.,NA,NA,"",       8.01199,      -8.00973,   190.447E-03,   28.9153E-09
C:/temp/dataset/7/6_10.odb,Step-1,Increment      1: Step Time =    1.000,"PART-1-1",           395,       14.0625,           30.,            0.,NA,NA,"",       8.18095,      -8.18084,   41.5293E-03,   25.5348E-09
C:/temp/dataset/7/6_10.odb,Step-1,Increment      1: Step Time =    1.000,"PART-1-1",           396,       13.1487,       28.7914,            0.,NA,NA,"",       7.99660,      -7.99622,  -78.0458E-03,   28.3662E-09
C:/temp/dataset/7/6_10.odb,Step-1,Increment      1: Step Time =    1.000,"PART-1-1",           397,       14.0862,       27.5414,            0.,NA,NA,"",       7.82543,      -7.82510,   70.8714E-03,   30.8506E-09
C:/temp/dataset/7/6_10.odb,Step-1,Increment      1: Step Time =    1.000,"PART-1-1",           398,       12.2440,       25.2848,            0.,NA,NA,"",       7.48093,      -7.47895,  -172.094E-03,   37.2545E-09
C:/temp/dataset/7/6_10.odb,Step-1,Increment      1: Step Time =    1.000,"PART-1-1",           399,       13.1763,       26.3811,            0.,NA,NA,"",       7.64766,      -7.64750,  -48.6506E-03,   34.9540E-09
C:/temp/dataset/7/6_10.odb,Step-1,Increment      1: Step Time =    1.000,"PART-1-1",           400,       12.2376,       27.6217,            0.,NA,NA,"",       7.81974,      -7.81724,  -197.638E-03,   33.2834E-09
C:/temp/dataset/7/6_10.odb,Step-1,Increment      1: Step Time =    1.000,"PART-1-1",           401,       11.3053,       26.5254,            0.,NA,NA,"",       7.65543,      -7.64869,  -321.081E-03,   35.7492E-09
C:/temp/dataset/7/6_10.odb,Step-1,Increment      1: Step Time =    1.000,"PART-1-1",           402,       12.1875,           30.,            0.,NA,NA,"",       8.16432,      -8.16108,  -229.960E-03,   27.1536E-09
C:/temp/dataset/7/6_10.odb,Step-1,Increment      1: Step Time =    1.000,"PART-1-1",           403,        6.5625,           30.,            0.,NA,NA,"",       8.16885,      -8.10180,      -1.04443,   48.4664E-09
C:/temp/dataset/7/6_10.odb,Step-1,Increment      1: Step Time =    1.000,"PART-1-1",           404,       5.40000,       28.6589,            0.,NA,NA,"",       7.98583,      -7.89537,      -1.19862,   43.7354E-09
C:/temp/dataset/7/6_10.odb,Step-1,Increment      1: Step Time =    1.000,"PART-1-1",           405,       6.32063,       27.5176,            0.,NA,NA,"",       7.81116,      -7.73982,      -1.05329,   37.3314E-09
C:/temp/dataset/7/6_10.odb,Step-1,Increment      1: Step Time =    1.000,"PART-1-1",           406,        2.8125,           30.,            0.,NA,NA,"",       8.21707,      -8.06229,      -1.58740,   53.2381E-09
C:/temp/dataset/7/6_10.odb,Step-1,Increment      1: Step Time =    1.000,"PART-1-1",           407,       1.86631,       29.3706,            0.,NA,NA,"",       8.14440,      -7.96118,      -1.71777,   48.7904E-09
C:/temp/dataset/7/6_10.odb,Step-1,Increment      1: Step Time =    1.000,"PART-1-1",           408,       2.52123,       28.3750,            0.,NA,NA,"",       7.98836,      -7.82393,      -1.61245,   42.7653E-09
C:/temp/dataset/7/6_10.odb,Step-1,Increment      1: Step Time =    1.000,"PART-1-1",           409,       3.46742,       29.0044,            0.,NA,NA,"",       8.06243,      -7.92503,      -1.48208,   46.9043E-09
C:/temp/dataset/7/6_10.odb,Step-1,Increment      1: Step Time =    1.000,"PART-1-1",           410,       1.19073,       28.4486,            0.,NA,NA,"",       8.02635,      -7.82056,      -1.80588,   43.0568E-09
C:/temp/dataset/7/6_10.odb,Step-1,Increment      1: Step Time =    1.000,"PART-1-1",           411,      -2.48443,       27.9761,            0.,NA,NA,"",       8.05853,      -7.71341,      -2.33304,   39.2869E-09
C:/temp/dataset/7/6_10.odb,Step-1,Increment      1: Step Time =    1.000,"PART-1-1",           412,       -2.8125,           30.,            0.,NA,NA,"",       8.35567,      -8.00301,      -2.40187,   46.8907E-09
C:/temp/dataset/7/6_10.odb,Step-1,Increment      1: Step Time =    1.000,"PART-1-1",           413,      -7.28733,       29.0238,            0.,NA,NA,"",       8.38481,      -7.81450,      -3.03951,   38.8802E-09
C:/temp/dataset/7/6_10.odb,Step-1,Increment      1: Step Time =    1.000,"PART-1-1",           414,      -6.19423,       28.1363,            0.,NA,NA,"",       8.21581,      -7.69751,      -2.87189,   37.7993E-09
C:/temp/dataset/7/6_10.odb,Step-1,Increment      1: Step Time =    1.000,"PART-1-1",           415,       -6.5625,           30.,            0.,NA,NA,"",       8.49054,      -7.96349,      -2.94485,   42.0669E-09
C:/temp/dataset/7/6_10.odb,Step-1,Increment      1: Step Time =    1.000,"PART-1-1",           416,      -11.8079,       27.5253,            0.,NA,NA,"",       8.39825,      -7.54990,      -3.67828,   33.7872E-09
C:/temp/dataset/7/6_10.odb,Step-1,Increment      1: Step Time =    1.000,"PART-1-1",           417,      -12.6125,       26.1842,            0.,NA,NA,"",       8.26288,      -7.34724,      -3.78064,   32.9594E-09
C:/temp/dataset/7/6_10.odb,Step-1,Increment      1: Step Time =    1.000,"PART-1-1",           418,      -8.13992,       23.4434,            0.,NA,NA,"",       7.65512,      -6.99751,      -3.10416,   30.3163E-09
C:/temp/dataset/7/6_10.odb,Step-1,Increment      1: Step Time =    1.000,"PART-1-1",           419,       -8.4375,           30.,            0.,NA,NA,"",       8.57016,      -7.94373,      -3.21634,   39.8285E-09
C:/temp/dataset/7/6_10.odb,Step-1,Increment      1: Step Time =    1.000,"PART-1-1",           420,      -8.00049,       27.9480,            0.,NA,NA,"",       8.26723,      -7.65122,      -3.13144,   36.3881E-09
C:/temp/dataset/7/6_10.odb,Step-1,Increment      1: Step Time =    1.000,"PART-1-1",           421,      -12.1875,           30.,            0.,NA,NA,"",       8.75266,      -7.90421,      -3.75932,   35.9830E-09
C:/temp/dataset/7/6_10.odb,Step-1,Increment      1: Step Time =    1.000,"PART-1-1",           422,          -15.,         26.25,            0.,NA,NA,"",       8.41336,      -7.33160,      -4.12703,   31.4014E-09
C:/temp/dataset/7/6_10.odb,Step-1,Increment      1: Step Time =    1.000,"PART-1-1",           423,  -614.199E-03,       25.3895,            0.,NA,NA,"",       7.63480,      -7.35860,      -2.03498,   30.8759E-09
C:/temp/dataset/7/6_10.odb,Step-1,Increment      1: Step Time =    1.000,"PART-1-1",           424,      -1.97220,       26.8586,            0.,NA,NA,"",       7.88402,      -7.55700,      -2.24710,   35.7814E-09
C:/temp/dataset/7/6_10.odb,Step-1,Increment      1: Step Time =    1.000,"PART-1-1",           425,      -1.74113,       25.3247,            0.,NA,NA,"",       7.65934,      -7.33734,      -2.19747,   31.1201E-09
C:/temp/dataset/7/6_10.odb,Step-1,Increment      1: Step Time =    1.000,"PART-1-1",           426,       8.18659,       21.6045,            0.,NA,NA,"",       6.94083,      -6.90330,  -720.794E-03,   25.6840E-09
C:/temp/dataset/7/6_10.odb,Step-1,Increment      1: Step Time =    1.000,"PART-1-1",           427,       9.25192,       22.4602,            0.,NA,NA,"",       7.06193,      -7.03843,  -575.559E-03,   29.7023E-09
C:/temp/dataset/7/6_10.odb,Step-1,Increment      1: Step Time =    1.000,"PART-1-1",           428,       8.38526,       23.6138,            0.,NA,NA,"",       7.23159,      -7.19633,  -713.203E-03,   29.5062E-09
C:/temp/dataset/7/6_10.odb,Step-1,Increment      1: Step Time =    1.000,"PART-1-1",           429,       7.31993,       22.7581,            0.,NA,NA,"",       7.11319,      -7.06120,  -858.438E-03,   24.1065E-09
C:/temp/dataset/7/6_10.odb,Step-1,Increment      1: Step Time =    1.000,"PART-1-1",           430,           15.,         26.25,            0.,NA,NA,"",       7.65081,      -7.64774,   216.792E-03,   36.3814E-09
C:/temp/dataset/7/6_10.odb,Step-1,Increment      1: Step Time =    1.000,"PART-1-1",           431,        4.6875,           30.,            0.,NA,NA,"",       8.18847,      -8.08205,      -1.31592,   52.4011E-09
C:/temp/dataset/7/6_10.odb,Step-1,Increment      1: Step Time =    1.000,"PART-1-1",           432,       9.38339,       24.5308,            0.,NA,NA,"",       7.36238,      -7.33963,  -578.343E-03,   33.7706E-09
C:/temp/dataset/7/6_10.odb,Step-1,Increment      1: Step Time =    1.000,"PART-1-1",           433,       8.53172,       25.6694,            0.,NA,NA,"",       7.52941,      -7.49551,  -713.659E-03,   34.6694E-09
C:/temp/dataset/7/6_10.odb,Step-1,Increment      1: Step Time =    1.000,"PART-1-1",           434,       7.53359,       24.7524,            0.,NA,NA,"",       7.40102,      -7.35222,  -848.519E-03,   30.6000E-09
C:/temp/dataset/7/6_10.odb,Step-1,Increment      1: Step Time =    1.000,"PART-1-1",           435,     937.5E-03,           30.,            0.,NA,NA,"",       8.25456,      -8.04253,      -1.85889,   51.9171E-09
C:/temp/dataset/7/6_10.odb,Step-1,Increment      1: Step Time =    1.000,"PART-1-1",           436,       5.64845,       26.5466,            0.,NA,NA,"",       7.67731,      -7.59214,      -1.14038,   34.0243E-09
C:/temp/dataset/7/6_10.odb,Step-1,Increment      1: Step Time =    1.000,"PART-1-1",           437,       4.65082,       24.6490,            0.,NA,NA,"",       7.41553,      -7.30687,      -1.26484,   25.3785E-09
C:/temp/dataset/7/6_10.odb,Step-1,Increment      1: Step Time =    1.000,"PART-1-1",           438,       5.82711,       24.9927,            0.,NA,NA,"",       7.45040,      -7.36903,      -1.09814,   27.4086E-09
C:/temp/dataset/7/6_10.odb,Step-1,Increment      1: Step Time =    1.000,"PART-1-1",           439,      -3.57200,       27.5772,            0.,NA,NA,"",       8.03837,      -7.64419,      -2.48631,   37.5469E-09
C:/temp/dataset/7/6_10.odb,Step-1,Increment      1: Step Time =    1.000,"PART-1-1",           440,      -3.05977,       26.4597,            0.,NA,NA,"",       7.86312,      -7.48778,      -2.40037,   34.3660E-09
C:/temp/dataset/7/6_10.odb,Step-1,Increment      1: Step Time =    1.000,"PART-1-1",           441,      -4.23358,       26.7178,            0.,NA,NA,"",       7.94119,      -7.51278,      -2.57305,   35.1156E-09
C:/temp/dataset/7/6_10.odb,Step-1,Increment      1: Step Time =    1.000,"PART-1-1",           442,      -5.07335,       27.3652,            0.,NA,NA,"",       8.06366,      -7.59767,      -2.70146,   36.4395E-09
C:/temp/dataset/7/6_10.odb,Step-1,Increment      1: Step Time =    1.000,"PART-1-1",           443,      -5.65848,       26.3267,            0.,NA,NA,"",       7.94183,      -7.44115,      -2.77524,   34.1609E-09
C:/temp/dataset/7/6_10.odb,Step-1,Increment      1: Step Time =    1.000,"PART-1-1",           444,      -6.77936,       27.0978,            0.,NA,NA,"",       8.09589,      -7.54099,      -2.94567,   35.3334E-09
C:/temp/dataset/7/6_10.odb,Step-1,Increment      1: Step Time =    1.000,"PART-1-1",           445,       13.0726,       6.26892,            0.,NA,NA,"",       4.73659,      -4.73427,   148.290E-03,   9.75317E-06
C:/temp/dataset/7/6_10.odb,Step-1,Increment      1: Step Time =    1.000,"PART-1-1",           446,       14.0382,       5.02867,            0.,NA,NA,"",       4.57476,      -4.56484,   301.175E-03,   8.66456E-06
C:/temp/dataset/7/6_10.odb,Step-1,Increment      1: Step Time =    1.000,"PART-1-1",           447,           15.,          6.25,            0.,NA,NA,"",       4.77104,      -4.75184,   427.576E-03,   1.27091E-06
C:/temp/dataset/7/6_10.odb,Step-1,Increment      1: Step Time =    1.000,"PART-1-1",           448,       14.0344,       7.49025,            0.,NA,NA,"",       4.92892,      -4.92126,   274.684E-03,   1.75853E-06
C:/temp/dataset/7/6_10.odb,Step-1,Increment      1: Step Time =    1.000,"PART-1-1",           449,            5.,       12.7083,            0.,NA,NA,"",       5.68674,      -5.58161,      -1.08844,   1.01693E-06
C:/temp/dataset/7/6_10.odb,Step-1,Increment      1: Step Time =    1.000,"PART-1-1",           450,       6.97129,       12.7632,            0.,NA,NA,"",       5.66758,      -5.61032,  -803.590E-03,   784.135E-09
C:/temp/dataset/7/6_10.odb,Step-1,Increment      1: Step Time =    1.000,"PART-1-1",           451,       8.08110,       9.66220,            0.,NA,NA,"",       5.20888,      -5.17301,  -610.220E-03,   872.643E-09
C:/temp/dataset/7/6_10.odb,Step-1,Increment      1: Step Time =    1.000,"PART-1-1",           452,       8.10192,       7.46894,            0.,NA,NA,"",       4.89068,      -4.85567,  -584.095E-03,   3.39746E-06
C:/temp/dataset/7/6_10.odb,Step-1,Increment      1: Step Time =    1.000,"PART-1-1",           453,            5.,        -1.875,            0.,NA,NA,"",       3.59403,      -3.47015,  -935.486E-03,   420.570E-06
C:/temp/dataset/7/6_10.odb,Step-1,Increment      1: Step Time =    1.000,"PART-1-1",           454,       6.91011,      -2.19684,            0.,NA,NA,"",       3.50567,      -3.44394,  -654.976E-03,   300.140E-06
C:/temp/dataset/7/6_10.odb,Step-1,Increment      1: Step Time =    1.000,"PART-1-1",           455,       11.0205,  -751.161E-03,            0.,NA,NA,"",       3.69686,      -3.69611,  -74.3778E-03,   292.768E-06
C:/temp/dataset/7/6_10.odb,Step-1,Increment      1: Step Time =    1.000,"PART-1-1",           456,       13.1408,      -16.1676,            0.,NA,NA,"",       1.45102,      -1.41242,   332.463E-03,   20.0107E-03
C:/temp/dataset/7/6_10.odb,Step-1,Increment      1: Step Time =    1.000,"PART-1-1",           457,       14.0839,      -17.4497,            0.,NA,NA,"",       1.31329,      -1.23247,   453.601E-03,   24.2242E-03
C:/temp/dataset/7/6_10.odb,Step-1,Increment      1: Step Time =    1.000,"PART-1-1",           458,           15.,        -16.25,            0.,NA,NA,"",       1.55372,      -1.43435,   597.237E-03,   24.4430E-03
C:/temp/dataset/7/6_10.odb,Step-1,Increment      1: Step Time =    1.000,"PART-1-1",           459,            5.,       -14.375,            0.,NA,NA,"",       1.79117,      -1.61445,  -775.805E-03,   13.5944E-03
C:/temp/dataset/7/6_10.odb,Step-1,Increment      1: Step Time =    1.000,"PART-1-1",           460,       6.11916,      -15.3567,            0.,NA,NA,"",       1.58550,      -1.47247,  -587.931E-03,   15.4652E-03
C:/temp/dataset/7/6_10.odb,Step-1,Increment      1: Step Time =    1.000,"PART-1-1",           461,       13.0403,       1.40949,            0.,NA,NA,"",       4.03481,      -4.03011,   194.834E-03,   135.067E-06
C:/temp/dataset/7/6_10.odb,Step-1,Increment      1: Step Time =    1.000,"PART-1-1",           462,       14.0142,   96.5788E-03,            0.,NA,NA,"",       3.86597,      -3.85014,   349.515E-03,   154.058E-06
C:/temp/dataset/7/6_10.odb,Step-1,Increment      1: Step Time =    1.000,"PART-1-1",           463,           15.,          1.25,            0.,NA,NA,"",       4.05621,      -4.02768,   480.195E-03,   108.944E-06
C:/temp/dataset/7/6_10.odb,Step-1,Increment      1: Step Time =    1.000,"PART-1-1",           464,       14.0261,       2.56291,            0.,NA,NA,"",       4.22015,      -4.20758,   325.390E-03,   42.7975E-06
C:/temp/dataset/7/6_10.odb,Step-1,Increment      1: Step Time =    1.000,"PART-1-1",           465,            5.,      -10.2083,            0.,NA,NA,"",       2.39928,      -2.24414,  -848.756E-03,   1.98778E-03
C:/temp/dataset/7/6_10.odb,Step-1,Increment      1: Step Time =    1.000,"PART-1-1",           466,       6.86187,      -9.97015,            0.,NA,NA,"",       2.37052,      -2.29942,  -576.212E-03,   4.66617E-03
C:/temp/dataset/7/6_10.odb,Step-1,Increment      1: Step Time =    1.000,"PART-1-1",           467,            5.,      -24.7917,            0.,NA,NA,"",   478.039E-03,  -325.834E-03,  -349.790E-03,   59.6080E-03
C:/temp/dataset/7/6_10.odb,Step-1,Increment      1: Step Time =    1.000,"PART-1-1",           468,       6.13477,      -25.7685,            0.,NA,NA,"",   307.278E-03,  -224.200E-03,  -210.129E-03,   50.2777E-03
C:/temp/dataset/7/6_10.odb,Step-1,Increment      1: Step Time =    1.000,"PART-1-1",           469,       13.1299,      -20.9468,            0.,NA,NA,"",   785.326E-03,  -730.285E-03,   288.827E-03,   30.2489E-03
C:/temp/dataset/7/6_10.odb,Step-1,Increment      1: Step Time =    1.000,"PART-1-1",           470,       14.0295,      -22.3095,            0.,NA,NA,"",   680.053E-03,  -584.387E-03,   347.798E-03,   41.6320E-03
C:/temp/dataset/7/6_10.odb,Step-1,Increment      1: Step Time =    1.000,"PART-1-1",           471,           15.,        -21.25,            0.,NA,NA,"",   880.590E-03,  -734.307E-03,   486.037E-03,   45.8736E-03
C:/temp/dataset/7/6_10.odb,Step-1,Increment      1: Step Time =    1.000,"PART-1-1",           472,       14.1003,      -19.8873,            0.,NA,NA,"",   980.836E-03,  -887.545E-03,   417.496E-03,   33.2589E-03
C:/temp/dataset/7/6_10.odb,Step-1,Increment      1: Step Time =    1.000,"PART-1-1",           473,            5.,       -26.875,            0.,NA,NA,"",   287.632E-03,  -178.271E-03,  -225.725E-03,   70.1255E-03
C:/temp/dataset/7/6_10.odb,Step-1,Increment      1: Step Time =    1.000,"PART-1-1",           474,       7.35824,      -26.7740,            0.,NA,NA,"",   165.300E-03,  -131.237E-03,  -100.503E-03,   38.4053E-03
C:/temp/dataset/7/6_10.odb,Step-1,Increment      1: Step Time =    1.000,"PART-1-1",           475,       11.2665,      -23.4125,            0.,NA,NA,"",   426.105E-03,  -416.834E-03,   88.3995E-03,   23.9513E-03
C:/temp/dataset/7/6_10.odb,Step-1,Increment      1: Step Time =    1.000,"PART-1-1",           476,       10.8283,      -24.9299,            0.,NA,NA,"",   269.479E-03,  -265.227E-03,   47.6808E-03,   22.3733E-03
C:/temp/dataset/7/6_10.odb,Step-1,Increment      1: Step Time =    1.000,"PART-1-1",           477,            5.,      -16.4583,            0.,NA,NA,"",       1.49282,      -1.30776,  -719.911E-03,   22.2460E-03
C:/temp/dataset/7/6_10.odb,Step-1,Increment      1: Step Time =    1.000,"PART-1-1",           478,       7.29529,      -16.4772,            0.,NA,NA,"",       1.36938,      -1.30902,  -402.080E-03,   18.8146E-03
C:/temp/dataset/7/6_10.odb,Step-1,Increment      1: Step Time =    1.000,"PART-1-1",           479,            5.,       18.9583,            0.,NA,NA,"",       6.58848,      -6.48657,      -1.15431,   67.6801E-09
C:/temp/dataset/7/6_10.odb,Step-1,Increment      1: Step Time =    1.000,"PART-1-1",           480,       6.05050,       17.7875,            0.,NA,NA,"",       6.40506,      -6.32811,  -989.863E-03,   77.8424E-09
C:/temp/dataset/7/6_10.odb,Step-1,Increment      1: Step Time =    1.000,"PART-1-1",           481,       7.11573,       18.6629,            0.,NA,NA,"",       6.52105,      -6.46609,  -844.850E-03,   71.6979E-09
C:/temp/dataset/7/6_10.odb,Step-1,Increment      1: Step Time =    1.000,"PART-1-1",           482,       6.06524,       19.8338,            0.,NA,NA,"",       6.70100,      -6.62456,      -1.00929,   19.0324E-09
C:/temp/dataset/7/6_10.odb,Step-1,Increment      1: Step Time =    1.000,"PART-1-1",           483,       6.98524,       16.7251,            0.,NA,NA,"",       6.24137,      -6.18413,  -843.323E-03,   190.316E-09
C:/temp/dataset/7/6_10.odb,Step-1,Increment      1: Step Time =    1.000,"PART-1-1",           484,            5.,        16.875,            0.,NA,NA,"",       6.28772,      -6.18492,      -1.13235,   152.380E-09
C:/temp/dataset/7/6_10.odb,Step-1,Increment      1: Step Time =    1.000,"PART-1-1",           485,       7.88091,       13.8682,            0.,NA,NA,"",       5.82019,      -5.77991,  -683.529E-03,   531.086E-09
C:/temp/dataset/7/6_10.odb,Step-1,Increment      1: Step Time =    1.000,"PART-1-1",           486,       7.65947,       15.6945,            0.,NA,NA,"",       6.08653,      -6.04201,  -734.838E-03,   268.275E-09
C:/temp/dataset/7/6_10.odb,Step-1,Increment      1: Step Time =    1.000,"PART-1-1",           487,       8.92157,       12.9075,            0.,NA,NA,"",       5.67589,      -5.65177,  -522.724E-03,   797.731E-09
C:/temp/dataset/7/6_10.odb,Step-1,Increment      1: Step Time =    1.000,"PART-1-1",           488,       9.98918,       11.9956,            0.,NA,NA,"",       5.54259,      -5.53099,  -358.532E-03,   942.947E-09
C:/temp/dataset/7/6_10.odb,Step-1,Increment      1: Step Time =    1.000,"PART-1-1",           489,       10.7968,       13.3004,            0.,NA,NA,"",       5.73411,      -5.72842,  -255.344E-03,   752.678E-09
C:/temp/dataset/7/6_10.odb,Step-1,Increment      1: Step Time =    1.000,"PART-1-1",           490,       13.0565,       8.69239,            0.,NA,NA,"",       5.08645,      -5.08502,   120.405E-03,   726.070E-09
C:/temp/dataset/7/6_10.odb,Step-1,Increment      1: Step Time =    1.000,"PART-1-1",           491,           15.,          8.75,            0.,NA,NA,"",       5.12956,      -5.11384,   401.219E-03,   2.99320E-06
C:/temp/dataset/7/6_10.odb,Step-1,Increment      1: Step Time =    1.000,"PART-1-1",           492,       14.0220,       9.95215,            0.,NA,NA,"",       5.28338,      -5.27760,   246.940E-03,   1.46672E-06
C:/temp/dataset/7/6_10.odb,Step-1,Increment      1: Step Time =    1.000,"PART-1-1",           493,       8.15713,      -6.43409,            0.,NA,NA,"",       2.87298,      -2.84084,  -428.517E-03,   1.03359E-03
C:/temp/dataset/7/6_10.odb,Step-1,Increment      1: Step Time =    1.000,"PART-1-1",           494,       7.55707,      -5.50995,            0.,NA,NA,"",       3.01568,      -2.96949,  -525.783E-03,   371.328E-06
C:/temp/dataset/7/6_10.odb,Step-1,Increment      1: Step Time =    1.000,"PART-1-1",           495,       13.0039,      -1.03047,            0.,NA,NA,"",       3.68255,      -3.67625,   215.294E-03,   281.639E-06
C:/temp/dataset/7/6_10.odb,Step-1,Increment      1: Step Time =    1.000,"PART-1-1",           496,       13.9897,      -2.37705,            0.,NA,NA,"",       3.51137,      -3.49165,   371.662E-03,   410.464E-06
C:/temp/dataset/7/6_10.odb,Step-1,Increment      1: Step Time =    1.000,"PART-1-1",           497,           15.,         -1.25,            0.,NA,NA,"",       3.70029,      -3.66552,   506.070E-03,   398.846E-06
C:/temp/dataset/7/6_10.odb,Step-1,Increment      1: Step Time =    1.000,"PART-1-1",           498,       11.0188,      -11.3444,            0.,NA,NA,"",       2.14204,      -2.14189,   25.2381E-03,   12.4693E-03
C:/temp/dataset/7/6_10.odb,Step-1,Increment      1: Step Time =    1.000,"PART-1-1",           499,       9.94563,      -10.3262,            0.,NA,NA,"",       2.28611,      -2.28225,  -132.766E-03,   8.64773E-03
C:/temp/dataset/7/6_10.odb,Step-1,Increment      1: Step Time =    1.000,"PART-1-1",           500,       9.07908,      -11.6768,            0.,NA,NA,"",       2.07653,      -2.06261,  -240.003E-03,   11.0819E-03
C:/temp/dataset/7/6_10.odb,Step-1,Increment      1: Step Time =    1.000,"PART-1-1",           501,       10.1523,      -12.6950,            0.,NA,NA,"",       1.91938,      -1.91760,  -82.6070E-03,   14.4117E-03
C:/temp/dataset/7/6_10.odb,Step-1,Increment      1: Step Time =    1.000,"PART-1-1",           502,       11.2699,       24.2837,            0.,NA,NA,"",       7.32997,      -7.32372,  -302.581E-03,   35.8588E-09
C:/temp/dataset/7/6_10.odb,Step-1,Increment      1: Step Time =    1.000,"PART-1-1",           503,       12.1787,       22.9892,            0.,NA,NA,"",       7.14759,      -7.14586,  -157.351E-03,   38.2001E-09
C:/temp/dataset/7/6_10.odb,Step-1,Increment      1: Step Time =    1.000,"PART-1-1",           504,           15.,         -3.75,            0.,NA,NA,"",       3.34642,      -3.30403,   530.975E-03,   952.860E-06
C:/temp/dataset/7/6_10.odb,Step-1,Increment      1: Step Time =    1.000,"PART-1-1",           505,       12.9359,      -3.49956,            0.,NA,NA,"",       3.32634,      -3.31827,   231.577E-03,   502.487E-06
C:/temp/dataset/7/6_10.odb,Step-1,Increment      1: Step Time =    1.000,"PART-1-1",           506,           15.,        -11.25,            0.,NA,NA,"",       2.31112,      -2.23339,   594.358E-03,   10.4071E-03
C:/temp/dataset/7/6_10.odb,Step-1,Increment      1: Step Time =    1.000,"PART-1-1",           507,       12.9838,      -11.1958,            0.,NA,NA,"",       2.22097,      -2.20064,   299.807E-03,   13.0997E-03
C:/temp/dataset/7/6_10.odb,Step-1,Increment      1: Step Time =    1.000,"PART-1-1",           508,           15.,         11.25,            0.,NA,NA,"",       5.48865,      -5.47583,   374.867E-03,   1.63711E-06
C:/temp/dataset/7/6_10.odb,Step-1,Increment      1: Step Time =    1.000,"PART-1-1",           509,       12.9950,       11.1325,            0.,NA,NA,"",       5.43836,      -5.43769,   85.7896E-03,   942.977E-09
C:/temp/dataset/7/6_10.odb,Step-1,Increment      1: Step Time =    1.000,"PART-1-1",           510,           15.,          3.75,            0.,NA,NA,"",       4.41320,      -4.38979,   453.922E-03,   21.7469E-06
C:/temp/dataset/7/6_10.odb,Step-1,Increment      1: Step Time =    1.000,"PART-1-1",           511,       13.0643,       3.84158,            0.,NA,NA,"",       4.38605,      -4.38265,   172.672E-03,   40.6287E-06
C:/temp/dataset/7/6_10.odb,Step-1,Increment      1: Step Time =    1.000,"PART-1-1",           512,           15.,        -18.75,            0.,NA,NA,"",       1.20072,      -1.06439,   555.707E-03,   35.1743E-03
C:/temp/dataset/7/6_10.odb,Step-1,Increment      1: Step Time =    1.000,"PART-1-1",           513,       13.1842,      -18.5870,            0.,NA,NA,"",       1.09918,      -1.04959,   326.414E-03,   24.2234E-03
C:/temp/dataset/7/6_10.odb,Step-1,Increment      1: Step Time =    1.000,"PART-1-1",           514,       13.5513,      -24.7801,            0.,NA,NA,"",   391.584E-03,  -320.565E-03,   224.892E-03,   45.2121E-03
C:/temp/dataset/7/6_10.odb,Step-1,Increment      1: Step Time =    1.000,"PART-1-1",           515,       12.2413,      -25.9996,            0.,NA,NA,"",   220.718E-03,  -193.027E-03,   107.039E-03,   35.2320E-03
C:/temp/dataset/7/6_10.odb,Step-1,Increment      1: Step Time =    1.000,"PART-1-1",           516,           15.,        -26.25,            0.,NA,NA,"",   352.022E-03,  -240.273E-03,   257.271E-03,   67.7569E-03
C:/temp/dataset/7/6_10.odb,Step-1,Increment      1: Step Time =    1.000,"PART-1-1",           517,           15.,        -23.75,            0.,NA,NA,"",   596.476E-03,  -455.149E-03,   385.516E-03,   56.3042E-03
C:/temp/dataset/7/6_10.odb,Step-1,Increment      1: Step Time =    1.000,"PART-1-1",           518,       12.5809,      -23.3397,            0.,NA,NA,"",   482.123E-03,  -442.526E-03,   191.346E-03,   32.4338E-03
C:/temp/dataset/7/6_10.odb,Step-1,Increment      1: Step Time =    1.000,"PART-1-1",           519,       9.49127,      -18.7202,            0.,NA,NA,"",   995.220E-03,  -990.546E-03,  -96.3315E-03,   20.2397E-03
C:/temp/dataset/7/6_10.odb,Step-1,Increment      1: Step Time =    1.000,"PART-1-1",           520,       8.36047,      -17.5836,            0.,NA,NA,"",       1.17525,      -1.14929,  -245.655E-03,   19.6458E-03
C:/temp/dataset/7/6_10.odb,Step-1,Increment      1: Step Time =    1.000,"PART-1-1",           521,       11.5260,      -20.5498,            0.,NA,NA,"",   768.379E-03,  -757.521E-03,   128.715E-03,   22.0345E-03
C:/temp/dataset/7/6_10.odb,Step-1,Increment      1: Step Time =    1.000,"PART-1-1",           522,       10.5221,      -19.7870,            0.,NA,NA,"",   849.645E-03,  -849.281E-03,   24.8608E-03,   19.6216E-03
C:/temp/dataset/7/6_10.odb,Step-1,Increment      1: Step Time =    1.000,"PART-1-1",           523,       11.0260,      -21.8608,            0.,NA,NA,"",   594.119E-03,  -589.154E-03,   76.6529E-03,   21.2843E-03
C:/temp/dataset/7/6_10.odb,Step-1,Increment      1: Step Time =    1.000,"PART-1-1",           524,       7.98010,      -10.7619,            0.,NA,NA,"",       2.22799,      -2.19084,  -405.200E-03,   7.16595E-03
C:/temp/dataset/7/6_10.odb,Step-1,Increment      1: Step Time =    1.000,"PART-1-1",           525,       8.65118,      -4.78401,            0.,NA,NA,"",       3.10980,      -3.08718,  -374.384E-03,   352.509E-06
C:/temp/dataset/7/6_10.odb,Step-1,Increment      1: Step Time =    1.000,"PART-1-1",           526,       7.84665,      -3.50518,            0.,NA,NA,"",       3.30307,      -3.26424,  -505.007E-03,   288.546E-06
C:/temp/dataset/7/6_10.odb,Step-1,Increment      1: Step Time =    1.000,"PART-1-1",           527,       9.43586,      -6.49799,            0.,NA,NA,"",       2.85646,      -2.84615,  -242.400E-03,   1.57655E-03
C:/temp/dataset/7/6_10.odb,Step-1,Increment      1: Step Time =    1.000,"PART-1-1",           528,       10.6293,      -5.79077,            0.,NA,NA,"",       2.96406,      -2.96306,  -76.9664E-03,   1.19963E-03
C:/temp/dataset/7/6_10.odb,Step-1,Increment      1: Step Time =    1.000,"PART-1-1",           529,       11.1144,       3.95682,            0.,NA,NA,"",       4.38024,      -4.37884,  -110.855E-03,   49.2640E-06
C:/temp/dataset/7/6_10.odb,Step-1,Increment      1: Step Time =    1.000,"PART-1-1",           530,       10.1270,       5.17226,            0.,NA,NA,"",       4.55228,      -4.54446,  -266.656E-03,   20.3353E-06
C:/temp/dataset/7/6_10.odb,Step-1,Increment      1: Step Time =    1.000,"PART-1-1",           531,       9.05317,       10.7826,            0.,NA,NA,"",       5.36711,      -5.34549,  -481.279E-03,   981.622E-09
C:/temp/dataset/7/6_10.odb,Step-1,Increment      1: Step Time =    1.000,"PART-1-1",           532,       8.01195,       11.8024,            0.,NA,NA,"",       5.51973,      -5.48217,  -642.786E-03,   877.442E-09
C:/temp/dataset/7/6_10.odb,Step-1,Increment      1: Step Time =    1.000,"PART-1-1",           533,       11.0241,       10.9595,            0.,NA,NA,"",       5.39549,      -5.39187,  -197.765E-03,   987.907E-09
C:/temp/dataset/7/6_10.odb,Step-1,Increment      1: Step Time =    1.000,"PART-1-1",           534,       8.35051,       17.3209,            0.,NA,NA,"",       6.31850,      -6.28478,  -651.918E-03,   129.711E-09
C:/temp/dataset/7/6_10.odb,Step-1,Increment      1: Step Time =    1.000,"PART-1-1",           535,       12.5952,       19.1415,            0.,NA,NA,"",       6.59338,      -6.59314,  -56.5035E-03,   66.5953E-09
C:/temp/dataset/7/6_10.odb,Step-1,Increment      1: Step Time =    1.000,"PART-1-1",           536,           15.,         18.75,            0.,NA,NA,"",       6.56845,      -6.56179,   295.828E-03,   48.4338E-09
C:/temp/dataset/7/6_10.odb,Step-1,Increment      1: Step Time =    1.000,"PART-1-1",           537,      -7.03326,       22.4462,            0.,NA,NA,"",       7.46527,      -6.86479,      -2.93341,   28.7645E-09
C:/temp/dataset/7/6_10.odb,Step-1,Increment      1: Step Time =    1.000,"PART-1-1",           538,      -8.48458,       21.3302,            0.,NA,NA,"",       7.38485,      -6.68790,      -3.13179,   28.4602E-09
C:/temp/dataset/7/6_10.odb,Step-1,Increment      1: Step Time =    1.000,"PART-1-1",           539,      -6.65000,           20.,            0.,NA,NA,"",       7.11161,      -6.51463,      -2.85214,   27.4657E-09
C:/temp/dataset/7/6_10.odb,Step-1,Increment      1: Step Time =    1.000,"PART-1-1",           540,      -5.19869,       21.1160,            0.,NA,NA,"",       7.19853,      -6.69152,      -2.65376,   27.1401E-09
C:/temp/dataset/7/6_10.odb,Step-1,Increment      1: Step Time =    1.000,"PART-1-1",           541,       9.42603,       26.6587,            0.,NA,NA,"",       7.67126,      -7.64818,  -594.593E-03,   36.2229E-09
C:/temp/dataset/7/6_10.odb,Step-1,Increment      1: Step Time =    1.000,"PART-1-1",           542,       10.3720,       25.4897,            0.,NA,NA,"",       7.50211,      -7.48888,  -445.306E-03,   36.4085E-09
C:/temp/dataset/7/6_10.odb,Step-1,Increment      1: Step Time =    1.000,"PART-1-1",           543,       6.87457,       25.7626,            0.,NA,NA,"",       7.55212,      -7.49155,  -954.586E-03,   32.2514E-09
C:/temp/dataset/7/6_10.odb,Step-1,Increment      1: Step Time =    1.000,"PART-1-1",           544,       7.54675,       26.7337,            0.,NA,NA,"",       7.68833,      -7.63923,  -867.492E-03,   35.6575E-09
C:/temp/dataset/7/6_10.odb,Step-1,Increment      1: Step Time =    1.000,"PART-1-1",           545,      -3.17643,       25.4018,            0.,NA,NA,"",       7.71802,      -7.33338,      -2.40611,   31.8773E-09
C:/temp/dataset/7/6_10.odb,Step-1,Increment      1: Step Time =    1.000,"PART-1-1",           546,      -4.35024,       25.6599,            0.,NA,NA,"",       7.79717,      -7.35838,      -2.57879,   32.6034E-09
C:/temp/dataset/7/6_10.odb,Step-1,Increment      1: Step Time =    1.000,"PART-1-1",           547,       4.01884,       22.4610,            0.,NA,NA,"",       7.10954,      -6.98340,      -1.33329,   16.9962E-09
C:/temp/dataset/7/6_10.odb,Step-1,Increment      1: Step Time =    1.000,"PART-1-1",           548,       5.32127,       23.1739,            0.,NA,NA,"",       7.19323,      -7.10035,      -1.15222,   19.1843E-09
C:/temp/dataset/7/6_10.odb,Step-1,Increment      1: Step Time =    1.000,"PART-1-1",           549,       11.1447,       22.1526,            0.,NA,NA,"",       7.02018,      -7.01384,  -298.251E-03,   32.5144E-09
C:/temp/dataset/7/6_10.odb,Step-1,Increment      1: Step Time =    1.000,"PART-1-1",           550,       10.2813,       23.3249,            0.,NA,NA,"",       7.18769,      -7.17447,  -435.618E-03,   32.7855E-09
C:/temp/dataset/7/6_10.odb,Step-1,Increment      1: Step Time =    1.000,"PART-1-1",           551,       6.15508,       21.9496,            0.,NA,NA,"",       7.00629,      -6.93185,      -1.01858,   14.8152E-09
C:/temp/dataset/7/6_10.odb,Step-1,Increment      1: Step Time =    1.000,"PART-1-1",           552,       6.48612,       23.9825,            0.,NA,NA,"",       7.29745,      -7.22970,  -992.072E-03,   25.3813E-09
C:/temp/dataset/7/6_10.odb,Step-1,Increment      1: Step Time =    1.000,"PART-1-1",           553,   6.30745E-03,       24.2683,            0.,NA,NA,"",       7.45775,      -7.20279,      -1.93332,   27.4220E-09
C:/temp/dataset/7/6_10.odb,Step-1,Increment      1: Step Time =    1.000,"PART-1-1",           554,      -1.65981,       23.6471,            0.,NA,NA,"",       7.41913,      -7.09529,      -2.16802,   27.7662E-09
C:/temp/dataset/7/6_10.odb,Step-1,Increment      1: Step Time =    1.000,"PART-1-1",           555,      -1.07768,       22.4355,            0.,NA,NA,"",       7.22900,      -6.92600,      -2.07096,   26.3670E-09
C:/temp/dataset/7/6_10.odb,Step-1,Increment      1: Step Time =    1.000,"PART-1-1",           556,   588.432E-03,       23.0567,            0.,NA,NA,"",       7.26926,      -7.03350,      -1.83627,   25.5583E-09
C:/temp/dataset/7/6_10.odb,Step-1,Increment      1: Step Time =    1.000,"PART-1-1",           557,      -4.82218,       24.5397,            0.,NA,NA,"",       7.65889,      -7.19122,      -2.63532,   30.6641E-09
C:/temp/dataset/7/6_10.odb,Step-1,Increment      1: Step Time =    1.000,"PART-1-1",           558,      -3.09511,       23.7242,            0.,NA,NA,"",       7.47900,      -7.09133,      -2.37666,   28.4800E-09
C:/temp/dataset/7/6_10.odb,Step-1,Increment      1: Step Time =    1.000,"PART-1-1",           559,      -5.58708,       23.2486,            0.,NA,NA,"",       7.51087,      -6.99620,      -2.73247,   28.9832E-09
C:/temp/dataset/7/6_10.odb,Step-1,Increment      1: Step Time =    1.000,"PART-1-1",           560,       8.76337,      -9.49006,            0.,NA,NA,"",       2.41338,      -2.39359,  -308.451E-03,   5.99059E-03
C:/temp/dataset/7/6_10.odb,Step-1,Increment      1: Step Time =    1.000,"PART-1-1",           561,       9.72759,      -26.4759,            0.,NA,NA,"",   137.570E-03,  -137.246E-03,  -9.43333E-03,   20.1987E-03
C:/temp/dataset/7/6_10.odb,Step-1,Increment      1: Step Time =    1.000,"PART-1-1",           562,       9.12173,       6.33780,            0.,NA,NA,"",       4.72176,      -4.70264,  -424.510E-03,   13.1344E-06
C:/temp/dataset/7/6_10.odb,Step-1,Increment      1: Step Time =    1.000,"PART-1-1",           563,       11.1214,       6.29882,            0.,NA,NA,"",       4.71996,      -4.71805,  -134.551E-03,   13.3238E-06
C:/temp/dataset/7/6_10.odb,Step-1,Increment      1: Step Time =    1.000,"PART-1-1",           564,       11.1740,      -13.7880,            0.,NA,NA,"",       1.76069,      -1.75955,   63.2295E-03,   17.7063E-03
C:/temp/dataset/7/6_10.odb,Step-1,Increment      1: Step Time =    1.000,"PART-1-1",           565,       10.6612,      -8.65022,            0.,NA,NA,"",       2.54566,      -2.54525,  -45.7707E-03,   6.01485E-03
C:/temp/dataset/7/6_10.odb,Step-1,Increment      1: Step Time =    1.000,"PART-1-1",           566,       9.47894,      -7.81405,            0.,NA,NA,"",       2.66264,      -2.65329,  -222.927E-03,   3.11290E-03
C:/temp/dataset/7/6_10.odb,Step-1,Increment      1: Step Time =    1.000,"PART-1-1",           567,       11.3640,      -18.5194,            0.,NA,NA,"",       1.04001,      -1.03390,   112.507E-03,   20.5354E-03
C:/temp/dataset/7/6_10.odb,Step-1,Increment      1: Step Time =    1.000,"PART-1-1",           568,       12.0025,       20.7886,            0.,NA,NA,"",       6.82724,      -6.82538,  -159.677E-03,   34.9901E-09
C:/temp/dataset/7/6_10.odb,Step-1,Increment      1: Step Time =    1.000,"PART-1-1",           569,       11.4947,       18.6594,            0.,NA,NA,"",       6.51514,      -6.51173,  -210.768E-03,   88.5206E-09
C:/temp/dataset/7/6_10.odb,Step-1,Increment      1: Step Time =    1.000,"PART-1-1",           570,       9.39315,       18.1618,            0.,NA,NA,"",       6.43776,      -6.41754,  -509.813E-03,   124.565E-09
C:/temp/dataset/7/6_10.odb,Step-1,Increment      1: Step Time =    1.000,"PART-1-1",           571,       10.9214,       17.4088,            0.,NA,NA,"",       6.33083,      -6.32461,  -280.598E-03,   145.854E-09
C:/temp/dataset/7/6_10.odb,Step-1,Increment      1: Step Time =    1.000,"PART-1-1",           572,      -9.97500,           20.,            0.,NA,NA,"",       7.28682,      -6.47959,      -3.33358,   28.9240E-09
C:/temp/dataset/7/6_10.odb,Step-1,Increment      1: Step Time =    1.000,"PART-1-1",           573,       11.9818,      -2.09472,            0.,NA,NA,"",       3.51241,      -3.51152,   79.0180E-03,   353.647E-06
C:/temp/dataset/7/6_10.odb,Step-1,Increment      1: Step Time =    1.000,"PART-1-1",           574,       12.0426,   313.093E-03,            0.,NA,NA,"",       3.86134,      -3.86084,   62.0927E-03,   172.890E-06
C:/temp/dataset/7/6_10.odb,Step-1,Increment      1: Step Time =    1.000,"PART-1-1",           575,       12.1686,      -14.9632,            0.,NA,NA,"",       1.60047,      -1.58777,   201.220E-03,   19.4497E-03
C:/temp/dataset/7/6_10.odb,Step-1,Increment      1: Step Time =    1.000,"PART-1-1",           576,       12.0880,      -12.5178,            0.,NA,NA,"",       1.98503,      -1.97685,   180.058E-03,   15.4684E-03
C:/temp/dataset/7/6_10.odb,Step-1,Increment      1: Step Time =    1.000,"PART-1-1",           577,       12.0767,       2.70437,            0.,NA,NA,"",       4.20777,      -4.20756,   41.7020E-03,   65.8919E-06
C:/temp/dataset/7/6_10.odb,Step-1,Increment      1: Step Time =    1.000,"PART-1-1",           578,       11.6617,       14.7036,            0.,NA,NA,"",       5.94248,      -5.94071,  -144.890E-03,   430.176E-09
C:/temp/dataset/7/6_10.odb,Step-1,Increment      1: Step Time =    1.000,"PART-1-1",           579,       11.9561,       12.2406,            0.,NA,NA,"",       5.58770,      -5.58718,  -76.3171E-03,   851.747E-09
C:/temp/dataset/7/6_10.odb,Step-1,Increment      1: Step Time =    1.000,"PART-1-1",           580,       12.3155,      -19.7087,            0.,NA,NA,"",   905.660E-03,  -879.408E-03,   216.475E-03,   23.2458E-03
C:/temp/dataset/7/6_10.odb,Step-1,Increment      1: Step Time =    1.000,"PART-1-1",           581,       12.3404,      -21.7879,            0.,NA,NA,"",   644.609E-03,  -613.671E-03,   197.304E-03,   27.4410E-03
C:/temp/dataset/7/6_10.odb,Step-1,Increment      1: Step Time =    1.000,"PART-1-1",           582,       12.2327,      -17.3977,            0.,NA,NA,"",       1.22827,      -1.20935,   214.788E-03,   19.8713E-03
C:/temp/dataset/7/6_10.odb,Step-1,Increment      1: Step Time =    1.000,"PART-1-1",           583,       12.1020,       5.09402,            0.,NA,NA,"",       4.55395,      -4.55391,   20.1318E-03,   17.9192E-06
C:/temp/dataset/7/6_10.odb,Step-1,Increment      1: Step Time =    1.000,"PART-1-1",           584,       12.0630,       9.85139,            0.,NA,NA,"",       5.24249,      -5.24237,  -35.6583E-03,   969.369E-09
C:/temp/dataset/7/6_10.odb,Step-1,Increment      1: Step Time =    1.000,"PART-1-1",           585,       12.0921,       7.47372,            0.,NA,NA,"",       4.89840,      -4.89840,  -6.38997E-03,   3.02862E-06
C:/temp/dataset/7/6_10.odb,Step-1,Increment      1: Step Time =    1.000,"PART-1-1",           586,       11.9146,      -10.0225,            0.,NA,NA,"",       2.36434,      -2.36006,   142.132E-03,   10.1047E-03
C:/temp/dataset/7/6_10.odb,Step-1,Increment      1: Step Time =    1.000,"PART-1-1",           587,       11.5993,      -7.26023,            0.,NA,NA,"",       2.76346,      -2.76239,   77.1215E-03,   3.38254E-03
C:/temp/dataset/7/6_10.odb,Step-1,Increment      1: Step Time =    1.000,"PART-1-1",           588,       11.8707,      -4.56496,            0.,NA,NA,"",       3.15477,      -3.15350,   89.5709E-03,   516.363E-06
C:/temp/dataset/7/6_10.odb,Step-1,Increment      1: Step Time =    1.000,"PART-1-1",           589,      -3.86001,       22.4330,            0.,NA,NA,"",       7.32658,      -6.89631,      -2.47380,   27.3348E-09
C:/temp/dataset/7/6_10.odb,Step-1,Increment      1: Step Time =    1.000,"PART-1-1",           590,       3.35000,           20.,            0.,NA,NA,"",       6.76730,      -6.62001,      -1.40420,   28.1585E-09
C:/temp/dataset/7/6_10.odb,Step-1,Increment      1: Step Time =    1.000,"PART-1-1",           591,       5.05511,       21.0689,            0.,NA,NA,"",       6.89253,      -6.79275,      -1.16857,   14.7567E-09
C:/temp/dataset/7/6_10.odb,Step-1,Increment      1: Step Time =    1.000,"PART-1-1",           592,       2.31373,       21.3921,            0.,NA,NA,"",       6.98903,      -6.81066,      -1.56891,   26.9895E-09
C:/temp/dataset/7/6_10.odb,Step-1,Increment      1: Step Time =    1.000,"PART-1-1",           593,      -1.98632,       21.3170,            0.,NA,NA,"",       7.10085,      -6.75446,      -2.19074,   26.6041E-09
C:/temp/dataset/7/6_10.odb,Step-1,Increment      1: Step Time =    1.000,"PART-1-1",           594,   25.0000E-03,           20.,            0.,NA,NA,"",       6.84963,      -6.58497,      -1.88564,   27.9105E-09
C:/temp/dataset/7/6_10.odb,Step-1,Increment      1: Step Time =    1.000,"PART-1-1",           595,   933.640E-03,       21.1186,            0.,NA,NA,"",       6.98346,      -6.75651,      -1.76586,   27.1514E-09
C:/temp/dataset/7/6_10.odb,Step-1,Increment      1: Step Time =    1.000,"PART-1-1",           596,       7.16521,       20.7144,            0.,NA,NA,"",       6.81803,      -6.76366,  -859.305E-03,   25.7739E-09
C:/temp/dataset/7/6_10.odb,Step-1,Increment      1: Step Time =    1.000,"PART-1-1",           597,       8.15837,       19.5039,            0.,NA,NA,"",       6.63616,      -6.59885,  -702.745E-03,   41.2111E-09
C:/temp/dataset/7/6_10.odb,Step-1,Increment      1: Step Time =    1.000,"PART-1-1",           598,      -3.32500,           20.,            0.,NA,NA,"",       6.96551,      -6.54967,      -2.37070,   27.5006E-09
