ODB Name,Step,Frame,Part Instance Name,    êﬂì_ÉâÉxÉã,X,Y,Z,Section Name,Material Name,Section Point,   U-Magnitude,          U-U1,          U-U2,       S-Mises
C:/temp/dataset/7/7_8.odb,Step-1,Increment      1: Step Time =    1.000,"PART-1-1",             1,          -15.,           20.,            0.,NA,NA,"",       2.46549,      -2.18776,      -1.13681,   222.189E-09
C:/temp/dataset/7/7_8.odb,Step-1,Increment      1: Step Time =    1.000,"PART-1-1",             2,          -15.,           25.,            0.,NA,NA,"",       2.66527,      -2.40836,      -1.14168,   215.903E-09
C:/temp/dataset/7/7_8.odb,Step-1,Increment      1: Step Time =    1.000,"PART-1-1",             3,      -11.6500,           20.,            0.,NA,NA,"",       2.40389,      -2.19102,  -989.004E-03,   212.778E-09
C:/temp/dataset/7/7_8.odb,Step-1,Increment      1: Step Time =    1.000,"PART-1-1",             4,      -8.30000,           20.,            0.,NA,NA,"",       2.35000,      -2.19428,  -841.196E-03,   207.616E-09
C:/temp/dataset/7/7_8.odb,Step-1,Increment      1: Step Time =    1.000,"PART-1-1",             5,           -5.,           20.,            0.,NA,NA,"",       2.30496,      -2.19749,  -695.595E-03,   200.653E-09
C:/temp/dataset/7/7_8.odb,Step-1,Increment      1: Step Time =    1.000,"PART-1-1",             6,      -1.65000,           20.,            0.,NA,NA,"",       2.26791,      -2.20076,  -547.788E-03,   192.866E-09
C:/temp/dataset/7/7_8.odb,Step-1,Increment      1: Step Time =    1.000,"PART-1-1",             7,       1.70000,           20.,            0.,NA,NA,"",       2.24002,      -2.20402,  -399.981E-03,   193.821E-09
C:/temp/dataset/7/7_8.odb,Step-1,Increment      1: Step Time =    1.000,"PART-1-1",             8,            5.,           20.,            0.,NA,NA,"",       2.22184,      -2.20723,  -254.380E-03,   140.048E-09
C:/temp/dataset/7/7_8.odb,Step-1,Increment      1: Step Time =    1.000,"PART-1-1",             9,            5.,         13.75,            0.,NA,NA,"",       1.94737,      -1.93147,  -248.294E-03,   124.939E-09
C:/temp/dataset/7/7_8.odb,Step-1,Increment      1: Step Time =    1.000,"PART-1-1",            10,            5.,           7.5,            0.,NA,NA,"",       1.67334,      -1.65572,  -242.207E-03,   298.491E-09
C:/temp/dataset/7/7_8.odb,Step-1,Increment      1: Step Time =    1.000,"PART-1-1",            11,            5.,          1.25,            0.,NA,NA,"",       1.40002,      -1.37996,  -236.114E-03,   2.75045E-06
C:/temp/dataset/7/7_8.odb,Step-1,Increment      1: Step Time =    1.000,"PART-1-1",            12,            5.,           -5.,            0.,NA,NA,"",       1.12802,      -1.10431,  -230.053E-03,   32.5602E-06
C:/temp/dataset/7/7_8.odb,Step-1,Increment      1: Step Time =    1.000,"PART-1-1",            13,            5.,        -11.25,            0.,NA,NA,"",   858.244E-03,  -828.161E-03,  -225.237E-03,   575.047E-06
C:/temp/dataset/7/7_8.odb,Step-1,Increment      1: Step Time =    1.000,"PART-1-1",            14,            5.,         -17.5,            0.,NA,NA,"",   582.090E-03,  -538.513E-03,  -220.980E-03,   1.31113E-03
C:/temp/dataset/7/7_8.odb,Step-1,Increment      1: Step Time =    1.000,"PART-1-1",            15,            5.,        -23.75,            0.,NA,NA,"",   287.819E-03,  -232.063E-03,  -170.254E-03,   16.9893E-03
C:/temp/dataset/7/7_8.odb,Step-1,Increment      1: Step Time =    1.000,"PART-1-1",            16,            5.,          -30.,            0.,NA,NA,"",            0.,  -14.0183E-39,  -25.6001E-39,   51.0035E-03
C:/temp/dataset/7/7_8.odb,Step-1,Increment      1: Step Time =    1.000,"PART-1-1",            17,           15.,          -30.,            0.,NA,NA,"",            0.,  -15.5388E-39,   27.2099E-39,   51.2852E-03
C:/temp/dataset/7/7_8.odb,Step-1,Increment      1: Step Time =    1.000,"PART-1-1",            18,           15.,         -22.5,            0.,NA,NA,"",   369.041E-03,  -316.599E-03,   189.621E-03,   15.2188E-03
C:/temp/dataset/7/7_8.odb,Step-1,Increment      1: Step Time =    1.000,"PART-1-1",            19,           15.,          -15.,            0.,NA,NA,"",   718.059E-03,  -685.702E-03,   213.123E-03,   4.13470E-03
C:/temp/dataset/7/7_8.odb,Step-1,Increment      1: Step Time =    1.000,"PART-1-1",            20,           15.,          -7.5,            0.,NA,NA,"",       1.02586,      -1.00341,   213.434E-03,   152.969E-06
C:/temp/dataset/7/7_8.odb,Step-1,Increment      1: Step Time =    1.000,"PART-1-1",            21,           15.,            0.,            0.,NA,NA,"",       1.35039,      -1.33454,   206.317E-03,   3.34104E-06
C:/temp/dataset/7/7_8.odb,Step-1,Increment      1: Step Time =    1.000,"PART-1-1",            22,           15.,           7.5,            0.,NA,NA,"",       1.67730,      -1.66545,   199.004E-03,   130.896E-09
C:/temp/dataset/7/7_8.odb,Step-1,Increment      1: Step Time =    1.000,"PART-1-1",            23,           15.,           15.,            0.,NA,NA,"",       2.00555,      -1.99636,   191.702E-03,   210.224E-09
C:/temp/dataset/7/7_8.odb,Step-1,Increment      1: Step Time =    1.000,"PART-1-1",            24,           15.,          22.5,            0.,NA,NA,"",       2.33457,      -2.32727,   184.399E-03,   207.220E-09
C:/temp/dataset/7/7_8.odb,Step-1,Increment      1: Step Time =    1.000,"PART-1-1",            25,           15.,           30.,            0.,NA,NA,"",       2.66408,      -2.65818,   177.096E-03,   186.498E-09
C:/temp/dataset/7/7_8.odb,Step-1,Increment      1: Step Time =    1.000,"PART-1-1",            26,         11.25,           30.,            0.,NA,NA,"",       2.65456,      -2.65453,   11.6408E-03,   180.750E-09
C:/temp/dataset/7/7_8.odb,Step-1,Increment      1: Step Time =    1.000,"PART-1-1",            27,           7.5,           30.,            0.,NA,NA,"",       2.65534,      -2.65088,  -153.814E-03,   198.736E-09
C:/temp/dataset/7/7_8.odb,Step-1,Increment      1: Step Time =    1.000,"PART-1-1",            28,          3.75,           30.,            0.,NA,NA,"",       2.66641,      -2.64723,  -319.270E-03,   217.505E-09
C:/temp/dataset/7/7_8.odb,Step-1,Increment      1: Step Time =    1.000,"PART-1-1",            29,            0.,           30.,            0.,NA,NA,"",       2.68765,      -2.64358,  -484.725E-03,   224.827E-09
C:/temp/dataset/7/7_8.odb,Step-1,Increment      1: Step Time =    1.000,"PART-1-1",            30,         -3.75,           30.,            0.,NA,NA,"",       2.71881,      -2.63993,  -650.181E-03,   225.851E-09
C:/temp/dataset/7/7_8.odb,Step-1,Increment      1: Step Time =    1.000,"PART-1-1",            31,          -7.5,           30.,            0.,NA,NA,"",       2.75957,      -2.63627,  -815.637E-03,   225.015E-09
C:/temp/dataset/7/7_8.odb,Step-1,Increment      1: Step Time =    1.000,"PART-1-1",            32,        -11.25,           30.,            0.,NA,NA,"",       2.80949,      -2.63262,  -981.092E-03,   222.971E-09
C:/temp/dataset/7/7_8.odb,Step-1,Increment      1: Step Time =    1.000,"PART-1-1",            33,          -15.,           30.,            0.,NA,NA,"",       2.86811,      -2.62897,      -1.14655,   222.236E-09
C:/temp/dataset/7/7_8.odb,Step-1,Increment      1: Step Time =    1.000,"PART-1-1",            34,          -15.,          22.5,            0.,NA,NA,"",       2.56495,      -2.29806,      -1.13925,   220.126E-09
C:/temp/dataset/7/7_8.odb,Step-1,Increment      1: Step Time =    1.000,"PART-1-1",            35,            5.,       15.8333,            0.,NA,NA,"",       2.03882,      -2.02339,  -250.323E-03,   129.666E-09
C:/temp/dataset/7/7_8.odb,Step-1,Increment      1: Step Time =    1.000,"PART-1-1",            36,            5.,       17.9167,            0.,NA,NA,"",       2.13031,      -2.11531,  -252.352E-03,   145.440E-09
C:/temp/dataset/7/7_8.odb,Step-1,Increment      1: Step Time =    1.000,"PART-1-1",            37,            5.,       9.58333,            0.,NA,NA,"",       1.76462,      -1.74763,  -244.236E-03,   144.284E-09
C:/temp/dataset/7/7_8.odb,Step-1,Increment      1: Step Time =    1.000,"PART-1-1",            38,            5.,       11.6667,            0.,NA,NA,"",       1.85597,      -1.83955,  -246.265E-03,   120.231E-09
C:/temp/dataset/7/7_8.odb,Step-1,Increment      1: Step Time =    1.000,"PART-1-1",            39,            5.,       3.33333,            0.,NA,NA,"",       1.49102,      -1.47188,  -238.147E-03,   1.59679E-06
C:/temp/dataset/7/7_8.odb,Step-1,Increment      1: Step Time =    1.000,"PART-1-1",            40,            5.,       5.41667,            0.,NA,NA,"",       1.58213,      -1.56380,  -240.178E-03,   736.602E-09
C:/temp/dataset/7/7_8.odb,Step-1,Increment      1: Step Time =    1.000,"PART-1-1",            41,            5.,      -2.91667,            0.,NA,NA,"",       1.21847,      -1.19617,  -232.052E-03,   4.60116E-06
C:/temp/dataset/7/7_8.odb,Step-1,Increment      1: Step Time =    1.000,"PART-1-1",            42,            5.,  -833.333E-03,            0.,NA,NA,"",       1.30915,      -1.28806,  -234.080E-03,   2.49453E-06
C:/temp/dataset/7/7_8.odb,Step-1,Increment      1: Step Time =    1.000,"PART-1-1",            43,            5.,      -9.16667,            0.,NA,NA,"",   947.988E-03,  -920.537E-03,  -226.481E-03,   291.208E-06
C:/temp/dataset/7/7_8.odb,Step-1,Increment      1: Step Time =    1.000,"PART-1-1",            44,            5.,      -7.08333,            0.,NA,NA,"",       1.03785,      -1.01246,  -228.151E-03,   110.580E-06
C:/temp/dataset/7/7_8.odb,Step-1,Increment      1: Step Time =    1.000,"PART-1-1",            45,            5.,      -15.4167,            0.,NA,NA,"",   676.376E-03,  -638.324E-03,  -223.668E-03,   423.574E-06
C:/temp/dataset/7/7_8.odb,Step-1,Increment      1: Step Time =    1.000,"PART-1-1",            46,            5.,      -13.3333,            0.,NA,NA,"",   768.051E-03,  -734.514E-03,  -224.482E-03,   786.008E-06
C:/temp/dataset/7/7_8.odb,Step-1,Increment      1: Step Time =    1.000,"PART-1-1",            47,            5.,      -21.6667,            0.,NA,NA,"",   385.925E-03,  -331.344E-03,  -197.862E-03,   9.95948E-03
C:/temp/dataset/7/7_8.odb,Step-1,Increment      1: Step Time =    1.000,"PART-1-1",            48,            5.,      -19.5833,            0.,NA,NA,"",   484.892E-03,  -435.277E-03,  -213.667E-03,   5.04952E-03
C:/temp/dataset/7/7_8.odb,Step-1,Increment      1: Step Time =    1.000,"PART-1-1",            49,            5.,      -27.9167,            0.,NA,NA,"",   104.038E-03,  -70.4157E-03,  -76.5868E-03,   35.1806E-03
C:/temp/dataset/7/7_8.odb,Step-1,Increment      1: Step Time =    1.000,"PART-1-1",            50,            5.,      -25.8333,            0.,NA,NA,"",   193.376E-03,  -143.097E-03,  -130.067E-03,   23.8149E-03
C:/temp/dataset/7/7_8.odb,Step-1,Increment      1: Step Time =    1.000,"PART-1-1",            51,          12.5,          -30.,            0.,NA,NA,"",            0.,  -16.4108E-39,   25.8718E-39,   12.6911E-03
C:/temp/dataset/7/7_8.odb,Step-1,Increment      1: Step Time =    1.000,"PART-1-1",            52,           10.,          -30.,            0.,NA,NA,"",            0.,  -4.92678E-39,  -4.26679E-39,   6.06421E-03
C:/temp/dataset/7/7_8.odb,Step-1,Increment      1: Step Time =    1.000,"PART-1-1",            53,           7.5,          -30.,            0.,NA,NA,"",            0.,  -12.1581E-39,  -19.1128E-39,   11.6192E-03
C:/temp/dataset/7/7_8.odb,Step-1,Increment      1: Step Time =    1.000,"PART-1-1",            54,           15.,          -25.,            0.,NA,NA,"",   236.344E-03,  -184.581E-03,   147.609E-03,   22.9027E-03
C:/temp/dataset/7/7_8.odb,Step-1,Increment      1: Step Time =    1.000,"PART-1-1",            55,           15.,         -27.5,            0.,NA,NA,"",   123.501E-03,  -86.1381E-03,   88.5021E-03,   34.0621E-03
C:/temp/dataset/7/7_8.odb,Step-1,Increment      1: Step Time =    1.000,"PART-1-1",            56,           15.,         -17.5,            0.,NA,NA,"",   619.710E-03,  -581.515E-03,   214.198E-03,   7.92129E-03
C:/temp/dataset/7/7_8.odb,Step-1,Increment      1: Step Time =    1.000,"PART-1-1",            57,           15.,          -20.,            0.,NA,NA,"",   501.629E-03,  -456.942E-03,   206.967E-03,   10.1965E-03
C:/temp/dataset/7/7_8.odb,Step-1,Increment      1: Step Time =    1.000,"PART-1-1",            58,           15.,          -10.,            0.,NA,NA,"",   918.775E-03,  -893.235E-03,   215.122E-03,   508.093E-06
C:/temp/dataset/7/7_8.odb,Step-1,Increment      1: Step Time =    1.000,"PART-1-1",            59,           15.,         -12.5,            0.,NA,NA,"",   813.680E-03,  -784.527E-03,   215.855E-03,   1.85192E-03
C:/temp/dataset/7/7_8.odb,Step-1,Increment      1: Step Time =    1.000,"PART-1-1",            60,           15.,          -2.5,            0.,NA,NA,"",       1.24188,      -1.22421,   208.757E-03,   2.74398E-06
C:/temp/dataset/7/7_8.odb,Step-1,Increment      1: Step Time =    1.000,"PART-1-1",            61,           15.,           -5.,            0.,NA,NA,"",       1.13367,      -1.11383,   211.162E-03,   29.6530E-06
C:/temp/dataset/7/7_8.odb,Step-1,Increment      1: Step Time =    1.000,"PART-1-1",            62,           15.,            5.,            0.,NA,NA,"",       1.56814,      -1.55515,   201.440E-03,   661.190E-09
C:/temp/dataset/7/7_8.odb,Step-1,Increment      1: Step Time =    1.000,"PART-1-1",            63,           15.,           2.5,            0.,NA,NA,"",       1.45916,      -1.44485,   203.877E-03,   1.83467E-06
C:/temp/dataset/7/7_8.odb,Step-1,Increment      1: Step Time =    1.000,"PART-1-1",            64,           15.,          12.5,            0.,NA,NA,"",       1.89602,      -1.88606,   194.136E-03,   202.822E-09
C:/temp/dataset/7/7_8.odb,Step-1,Increment      1: Step Time =    1.000,"PART-1-1",            65,           15.,           10.,            0.,NA,NA,"",       1.78660,      -1.77576,   196.570E-03,   166.142E-09
C:/temp/dataset/7/7_8.odb,Step-1,Increment      1: Step Time =    1.000,"PART-1-1",            66,           15.,           20.,            0.,NA,NA,"",       2.22483,      -2.21697,   186.833E-03,   212.430E-09
C:/temp/dataset/7/7_8.odb,Step-1,Increment      1: Step Time =    1.000,"PART-1-1",            67,           15.,          17.5,            0.,NA,NA,"",       2.11515,      -2.10667,   189.267E-03,   212.006E-09
C:/temp/dataset/7/7_8.odb,Step-1,Increment      1: Step Time =    1.000,"PART-1-1",            68,           15.,          27.5,            0.,NA,NA,"",       2.55420,      -2.54788,   179.530E-03,   189.096E-09
C:/temp/dataset/7/7_8.odb,Step-1,Increment      1: Step Time =    1.000,"PART-1-1",            69,           15.,           25.,            0.,NA,NA,"",       2.44436,      -2.43758,   181.965E-03,   198.202E-09
C:/temp/dataset/7/7_8.odb,Step-1,Increment      1: Step Time =    1.000,"PART-1-1",            70,        13.125,           30.,            0.,NA,NA,"",       2.65803,      -2.65636,   94.3684E-03,   178.993E-09
C:/temp/dataset/7/7_8.odb,Step-1,Increment      1: Step Time =    1.000,"PART-1-1",            71,         9.375,           30.,            0.,NA,NA,"",       2.65366,      -2.65271,  -71.0868E-03,   188.082E-09
C:/temp/dataset/7/7_8.odb,Step-1,Increment      1: Step Time =    1.000,"PART-1-1",            72,         5.625,           30.,            0.,NA,NA,"",       2.65959,      -2.64905,  -236.542E-03,   209.399E-09
C:/temp/dataset/7/7_8.odb,Step-1,Increment      1: Step Time =    1.000,"PART-1-1",            73,         1.875,           30.,            0.,NA,NA,"",       2.67577,      -2.64540,  -401.998E-03,   222.882E-09
C:/temp/dataset/7/7_8.odb,Step-1,Increment      1: Step Time =    1.000,"PART-1-1",            74,        -1.875,           30.,            0.,NA,NA,"",       2.70201,      -2.64175,  -567.453E-03,   225.782E-09
C:/temp/dataset/7/7_8.odb,Step-1,Increment      1: Step Time =    1.000,"PART-1-1",            75,        -5.625,           30.,            0.,NA,NA,"",       2.73802,      -2.63810,  -732.909E-03,   225.620E-09
C:/temp/dataset/7/7_8.odb,Step-1,Increment      1: Step Time =    1.000,"PART-1-1",            76,        -9.375,           30.,            0.,NA,NA,"",       2.78341,      -2.63445,  -898.364E-03,   224.045E-09
C:/temp/dataset/7/7_8.odb,Step-1,Increment      1: Step Time =    1.000,"PART-1-1",            77,       -13.125,           30.,            0.,NA,NA,"",       2.83775,      -2.63080,      -1.06382,   222.422E-09
C:/temp/dataset/7/7_8.odb,Step-1,Increment      1: Step Time =    1.000,"PART-1-1",            78,          -15.,          27.5,            0.,NA,NA,"",       2.76635,      -2.51867,      -1.14411,   213.809E-09
C:/temp/dataset/7/7_8.odb,Step-1,Increment      1: Step Time =    1.000,"PART-1-1",            79,      -7.07467,       28.0475,            0.,NA,NA,"",       2.67156,      -2.55054,  -794.969E-03,   219.712E-09
C:/temp/dataset/7/7_8.odb,Step-1,Increment      1: Step Time =    1.000,"PART-1-1",            80,      -10.7971,       27.6072,            0.,NA,NA,"",       2.70323,      -2.52749,  -958.779E-03,   219.062E-09
C:/temp/dataset/7/7_8.odb,Step-1,Increment      1: Step Time =    1.000,"PART-1-1",            81,      -3.50976,       28.2242,            0.,NA,NA,"",       2.64002,      -2.56181,  -637.852E-03,   218.658E-09
C:/temp/dataset/7/7_8.odb,Step-1,Increment      1: Step Time =    1.000,"PART-1-1",            82,       11.3028,       27.6605,            0.,NA,NA,"",       2.55141,      -2.55136,   16.2502E-03,   186.835E-09
C:/temp/dataset/7/7_8.odb,Step-1,Increment      1: Step Time =    1.000,"PART-1-1",            83,       7.46624,       27.7175,            0.,NA,NA,"",       2.55473,      -2.55014,  -153.081E-03,   193.215E-09
C:/temp/dataset/7/7_8.odb,Step-1,Increment      1: Step Time =    1.000,"PART-1-1",            84,   523.838E-03,       28.1559,            0.,NA,NA,"",       2.60365,      -2.56272,  -459.817E-03,   213.421E-09
C:/temp/dataset/7/7_8.odb,Step-1,Increment      1: Step Time =    1.000,"PART-1-1",            85,       13.1724,       27.5829,            0.,NA,NA,"",       2.55167,      -2.54976,   98.8144E-03,   187.396E-09
C:/temp/dataset/7/7_8.odb,Step-1,Increment      1: Step Time =    1.000,"PART-1-1",            86,       9.41586,       27.7284,            0.,NA,NA,"",       2.55340,      -2.55252,  -67.0719E-03,   188.980E-09
C:/temp/dataset/7/7_8.odb,Step-1,Increment      1: Step Time =    1.000,"PART-1-1",            87,       5.17501,       27.3177,            0.,NA,NA,"",       2.54297,      -2.53027,  -253.784E-03,   197.402E-09
C:/temp/dataset/7/7_8.odb,Step-1,Increment      1: Step Time =    1.000,"PART-1-1",            88,       1.85763,       28.7412,            0.,NA,NA,"",       2.62079,      -2.58985,  -401.538E-03,   214.077E-09
C:/temp/dataset/7/7_8.odb,Step-1,Increment      1: Step Time =    1.000,"PART-1-1",            89,      -1.45910,       27.7280,            0.,NA,NA,"",       2.60008,      -2.54191,  -546.890E-03,   214.442E-09
C:/temp/dataset/7/7_8.odb,Step-1,Increment      1: Step Time =    1.000,"PART-1-1",            90,      -5.31380,       28.2250,            0.,NA,NA,"",       2.65872,      -2.56009,  -717.450E-03,   219.608E-09
C:/temp/dataset/7/7_8.odb,Step-1,Increment      1: Step Time =    1.000,"PART-1-1",            91,      -8.92632,       27.8484,            0.,NA,NA,"",       2.68693,      -2.53996,  -876.473E-03,   219.562E-09
C:/temp/dataset/7/7_8.odb,Step-1,Increment      1: Step Time =    1.000,"PART-1-1",            92,       7.03655,   996.185E-03,            0.,NA,NA,"",       1.37850,      -1.37075,  -146.019E-03,   590.444E-09
C:/temp/dataset/7/7_8.odb,Step-1,Increment      1: Step Time =    1.000,"PART-1-1",            93,       6.93081,       13.7923,            0.,NA,NA,"",       1.94208,      -1.93522,  -163.145E-03,   121.179E-09
C:/temp/dataset/7/7_8.odb,Step-1,Increment      1: Step Time =    1.000,"PART-1-1",            94,       7.08682,       7.47611,            0.,NA,NA,"",       1.66348,      -1.65669,  -150.111E-03,   312.398E-09
C:/temp/dataset/7/7_8.odb,Step-1,Increment      1: Step Time =    1.000,"PART-1-1",            95,       6.96700,      -1.15199,            0.,NA,NA,"",       1.28435,      -1.27591,  -146.996E-03,   5.50835E-06
C:/temp/dataset/7/7_8.odb,Step-1,Increment      1: Step Time =    1.000,"PART-1-1",            96,       6.47578,      -21.8661,            0.,NA,NA,"",   342.088E-03,  -316.839E-03,  -128.986E-03,   10.8079E-03
C:/temp/dataset/7/7_8.odb,Step-1,Increment      1: Step Time =    1.000,"PART-1-1",            97,       7.14087,      -13.1040,            0.,NA,NA,"",   758.390E-03,  -747.550E-03,  -127.767E-03,   195.875E-06
C:/temp/dataset/7/7_8.odb,Step-1,Increment      1: Step Time =    1.000,"PART-1-1",            98,       6.53104,      -7.08024,            0.,NA,NA,"",       1.02677,      -1.01415,  -160.533E-03,   122.663E-06
C:/temp/dataset/7/7_8.odb,Step-1,Increment      1: Step Time =    1.000,"PART-1-1",            99,       6.85322,      -3.24169,            0.,NA,NA,"",       1.19311,      -1.18364,  -149.985E-03,   23.0232E-06
C:/temp/dataset/7/7_8.odb,Step-1,Increment      1: Step Time =    1.000,"PART-1-1",           100,       6.74184,      -8.96518,            0.,NA,NA,"",   943.186E-03,  -931.271E-03,  -149.446E-03,   226.837E-06
C:/temp/dataset/7/7_8.odb,Step-1,Increment      1: Step Time =    1.000,"PART-1-1",           101,       6.94703,      -23.6171,            0.,NA,NA,"",   246.581E-03,  -227.857E-03,  -94.2539E-03,   14.4405E-03
C:/temp/dataset/7/7_8.odb,Step-1,Increment      1: Step Time =    1.000,"PART-1-1",           102,       7.44695,      -27.8442,            0.,NA,NA,"",   57.6679E-03,  -50.2552E-03,  -28.2843E-03,   21.3406E-03
C:/temp/dataset/7/7_8.odb,Step-1,Increment      1: Step Time =    1.000,"PART-1-1",           103,       7.35225,      -17.6578,            0.,NA,NA,"",   543.961E-03,  -532.265E-03,  -112.192E-03,   4.40184E-03
C:/temp/dataset/7/7_8.odb,Step-1,Increment      1: Step Time =    1.000,"PART-1-1",           104,       7.23832,      -15.2967,            0.,NA,NA,"",   657.877E-03,  -646.642E-03,  -121.064E-03,   1.48614E-03
C:/temp/dataset/7/7_8.odb,Step-1,Increment      1: Step Time =    1.000,"PART-1-1",           105,       7.10099,       17.6583,            0.,NA,NA,"",       2.11198,      -2.10596,  -159.401E-03,   134.442E-09
C:/temp/dataset/7/7_8.odb,Step-1,Increment      1: Step Time =    1.000,"PART-1-1",           106,       6.86948,       15.7920,            0.,NA,NA,"",       2.03033,      -2.02339,  -167.799E-03,   131.564E-09
C:/temp/dataset/7/7_8.odb,Step-1,Increment      1: Step Time =    1.000,"PART-1-1",           107,       7.06799,       9.62990,            0.,NA,NA,"",       1.75838,      -1.75170,  -153.039E-03,   142.357E-09
C:/temp/dataset/7/7_8.odb,Step-1,Increment      1: Step Time =    1.000,"PART-1-1",           108,       7.09093,       5.31052,            0.,NA,NA,"",       1.56813,      -1.56115,  -147.821E-03,   642.343E-09
C:/temp/dataset/7/7_8.odb,Step-1,Increment      1: Step Time =    1.000,"PART-1-1",           109,       6.65187,      -5.22056,            0.,NA,NA,"",       1.10739,      -1.09621,  -156.960E-03,   58.8415E-06
C:/temp/dataset/7/7_8.odb,Step-1,Increment      1: Step Time =    1.000,"PART-1-1",           110,       7.26954,      -25.7037,            0.,NA,NA,"",   143.399E-03,  -130.642E-03,  -59.1266E-03,   18.7181E-03
C:/temp/dataset/7/7_8.odb,Step-1,Increment      1: Step Time =    1.000,"PART-1-1",           111,       7.53271,      -20.3934,            0.,NA,NA,"",   403.382E-03,  -391.824E-03,  -95.8695E-03,   9.34266E-03
C:/temp/dataset/7/7_8.odb,Step-1,Increment      1: Step Time =    1.000,"PART-1-1",           112,       7.01178,       11.7341,            0.,NA,NA,"",       1.85120,      -1.84449,  -157.569E-03,   111.730E-09
C:/temp/dataset/7/7_8.odb,Step-1,Increment      1: Step Time =    1.000,"PART-1-1",           113,       7.07643,       3.14767,            0.,NA,NA,"",       1.47300,      -1.46571,  -146.355E-03,   919.232E-09
C:/temp/dataset/7/7_8.odb,Step-1,Increment      1: Step Time =    1.000,"PART-1-1",           114,       6.98190,      -10.9751,            0.,NA,NA,"",   853.680E-03,  -842.632E-03,  -136.901E-03,   278.275E-06
C:/temp/dataset/7/7_8.odb,Step-1,Increment      1: Step Time =    1.000,"PART-1-1",           115,       13.1254,       22.8014,            0.,NA,NA,"",       2.34094,      -2.33874,   101.394E-03,   193.681E-09
C:/temp/dataset/7/7_8.odb,Step-1,Increment      1: Step Time =    1.000,"PART-1-1",           116,       12.8923,      -4.74502,            0.,NA,NA,"",       1.12920,      -1.12303,   117.941E-03,   50.7066E-06
C:/temp/dataset/7/7_8.odb,Step-1,Increment      1: Step Time =    1.000,"PART-1-1",           117,       13.0513,      -12.4505,            0.,NA,NA,"",   795.044E-03,  -783.915E-03,   132.556E-03,   795.565E-06
C:/temp/dataset/7/7_8.odb,Step-1,Increment      1: Step Time =    1.000,"PART-1-1",           118,       12.2427,       17.8341,            0.,NA,NA,"",       2.11979,      -2.11872,   67.2879E-03,   177.618E-09
C:/temp/dataset/7/7_8.odb,Step-1,Increment      1: Step Time =    1.000,"PART-1-1",           119,       13.0441,       9.90429,            0.,NA,NA,"",       1.77307,      -1.76963,   110.365E-03,   167.796E-09
C:/temp/dataset/7/7_8.odb,Step-1,Increment      1: Step Time =    1.000,"PART-1-1",           120,       13.0522,       2.62582,            0.,NA,NA,"",       1.45329,      -1.44850,   117.813E-03,   1.01282E-06
C:/temp/dataset/7/7_8.odb,Step-1,Increment      1: Step Time =    1.000,"PART-1-1",           121,       13.2006,      -19.7745,            0.,NA,NA,"",   468.469E-03,  -451.877E-03,   123.573E-03,   11.9647E-03
C:/temp/dataset/7/7_8.odb,Step-1,Increment      1: Step Time =    1.000,"PART-1-1",           122,       9.90112,      -27.6522,            0.,NA,NA,"",   48.9090E-03,  -48.8918E-03,  -1.29640E-03,   15.3687E-03
C:/temp/dataset/7/7_8.odb,Step-1,Increment      1: Step Time =    1.000,"PART-1-1",           123,       13.0591,      -22.1191,            0.,NA,NA,"",   335.636E-03,  -319.817E-03,   101.827E-03,   16.3746E-03
C:/temp/dataset/7/7_8.odb,Step-1,Increment      1: Step Time =    1.000,"PART-1-1",           124,       13.1139,      -14.9356,            0.,NA,NA,"",   693.902E-03,  -680.397E-03,   136.232E-03,   4.37113E-03
C:/temp/dataset/7/7_8.odb,Step-1,Increment      1: Step Time =    1.000,"PART-1-1",           125,       13.1678,      -17.3995,            0.,NA,NA,"",   587.497E-03,  -572.334E-03,   132.613E-03,   9.19975E-03
C:/temp/dataset/7/7_8.odb,Step-1,Increment      1: Step Time =    1.000,"PART-1-1",           126,       12.7891,      -7.32383,            0.,NA,NA,"",       1.01564,      -1.00900,   115.939E-03,   170.275E-06
C:/temp/dataset/7/7_8.odb,Step-1,Increment      1: Step Time =    1.000,"PART-1-1",           127,       12.9162,      -9.94117,            0.,NA,NA,"",   902.151E-03,  -893.577E-03,   124.086E-03,   304.180E-06
C:/temp/dataset/7/7_8.odb,Step-1,Increment      1: Step Time =    1.000,"PART-1-1",           128,       13.0283,   193.158E-03,            0.,NA,NA,"",       1.34642,      -1.34114,   119.126E-03,   1.32870E-06
C:/temp/dataset/7/7_8.odb,Step-1,Increment      1: Step Time =    1.000,"PART-1-1",           129,       12.9794,      -2.25409,            0.,NA,NA,"",       1.23885,      -1.23309,   119.353E-03,   12.1055E-06
C:/temp/dataset/7/7_8.odb,Step-1,Increment      1: Step Time =    1.000,"PART-1-1",           130,       13.0689,       7.48049,            0.,NA,NA,"",       1.66660,      -1.66271,   113.819E-03,   312.769E-09
C:/temp/dataset/7/7_8.odb,Step-1,Increment      1: Step Time =    1.000,"PART-1-1",           131,       13.0764,       5.05734,            0.,NA,NA,"",       1.56016,      -1.55581,   116.513E-03,   695.190E-09
C:/temp/dataset/7/7_8.odb,Step-1,Increment      1: Step Time =    1.000,"PART-1-1",           132,       12.6962,       14.9270,            0.,NA,NA,"",       1.99294,      -1.99090,   90.1242E-03,   171.928E-09
C:/temp/dataset/7/7_8.odb,Step-1,Increment      1: Step Time =    1.000,"PART-1-1",           133,       12.9459,       12.3607,            0.,NA,NA,"",       1.88077,      -1.87791,   103.643E-03,   162.623E-09
C:/temp/dataset/7/7_8.odb,Step-1,Increment      1: Step Time =    1.000,"PART-1-1",           134,       12.9476,       20.4489,            0.,NA,NA,"",       2.23683,      -2.23478,   95.8413E-03,   191.171E-09
C:/temp/dataset/7/7_8.odb,Step-1,Increment      1: Step Time =    1.000,"PART-1-1",           135,       13.1802,       25.1793,            0.,NA,NA,"",       2.44582,      -2.44371,   101.497E-03,   191.544E-09
C:/temp/dataset/7/7_8.odb,Step-1,Increment      1: Step Time =    1.000,"PART-1-1",           136,      -12.4062,       24.9250,            0.,NA,NA,"",       2.61754,      -2.40758,      -1.02716,   216.566E-09
C:/temp/dataset/7/7_8.odb,Step-1,Increment      1: Step Time =    1.000,"PART-1-1",           137,       11.3078,       25.3904,            0.,NA,NA,"",       2.45128,      -2.45121,   18.6780E-03,   187.928E-09
C:/temp/dataset/7/7_8.odb,Step-1,Increment      1: Step Time =    1.000,"PART-1-1",           138,      -10.1009,       25.2443,            0.,NA,NA,"",       2.59469,      -2.42391,  -925.762E-03,   215.795E-09
C:/temp/dataset/7/7_8.odb,Step-1,Increment      1: Step Time =    1.000,"PART-1-1",           139,      -4.83291,       26.5053,            0.,NA,NA,"",       2.57993,      -2.48468,  -694.557E-03,   214.047E-09
C:/temp/dataset/7/7_8.odb,Step-1,Increment      1: Step Time =    1.000,"PART-1-1",           140,       1.72347,       26.1851,            0.,NA,NA,"",       2.50983,      -2.47694,  -404.969E-03,   201.148E-09
C:/temp/dataset/7/7_8.odb,Step-1,Increment      1: Step Time =    1.000,"PART-1-1",           141,       6.12189,       25.7754,            0.,NA,NA,"",       2.47212,      -2.46314,  -210.505E-03,   188.912E-09
C:/temp/dataset/7/7_8.odb,Step-1,Increment      1: Step Time =    1.000,"PART-1-1",           142,       7.62725,       25.7499,            0.,NA,NA,"",       2.46769,      -2.46348,  -144.061E-03,   187.050E-09
C:/temp/dataset/7/7_8.odb,Step-1,Increment      1: Step Time =    1.000,"PART-1-1",           143,       3.76931,       25.0880,            0.,NA,NA,"",       2.45068,      -2.43053,  -313.635E-03,   190.366E-09
C:/temp/dataset/7/7_8.odb,Step-1,Increment      1: Step Time =    1.000,"PART-1-1",           144,  -231.428E-03,       26.1188,            0.,NA,NA,"",       2.52043,      -2.47211,  -491.157E-03,   205.347E-09
C:/temp/dataset/7/7_8.odb,Step-1,Increment      1: Step Time =    1.000,"PART-1-1",           145,      -2.48530,       25.9891,            0.,NA,NA,"",       2.53395,      -2.46419,  -590.475E-03,   209.183E-09
C:/temp/dataset/7/7_8.odb,Step-1,Increment      1: Step Time =    1.000,"PART-1-1",           146,      -3.63425,       26.9302,            0.,NA,NA,"",       2.58559,      -2.50459,  -642.085E-03,   214.052E-09
C:/temp/dataset/7/7_8.odb,Step-1,Increment      1: Step Time =    1.000,"PART-1-1",           147,      -8.31738,       25.8431,            0.,NA,NA,"",       2.59445,      -2.45207,  -847.653E-03,   215.505E-09
C:/temp/dataset/7/7_8.odb,Step-1,Increment      1: Step Time =    1.000,"PART-1-1",           148,       9.04714,   705.037E-03,            0.,NA,NA,"",       1.36105,      -1.35986,  -57.0293E-03,   1.99941E-06
C:/temp/dataset/7/7_8.odb,Step-1,Increment      1: Step Time =    1.000,"PART-1-1",           149,       7.85197,      -7.06885,            0.,NA,NA,"",       1.02102,      -1.01591,  -102.101E-03,   136.579E-06
C:/temp/dataset/7/7_8.odb,Step-1,Increment      1: Step Time =    1.000,"PART-1-1",           150,       8.74205,      -22.9842,            0.,NA,NA,"",   258.970E-03,  -255.672E-03,  -41.2028E-03,   14.5346E-03
C:/temp/dataset/7/7_8.odb,Step-1,Increment      1: Step Time =    1.000,"PART-1-1",           151,       9.28078,      -15.1075,            0.,NA,NA,"",   660.036E-03,  -659.316E-03,  -30.8266E-03,   2.29035E-03
C:/temp/dataset/7/7_8.odb,Step-1,Increment      1: Step Time =    1.000,"PART-1-1",           152,       8.97855,      -1.55139,            0.,NA,NA,"",       1.26157,      -1.26024,  -57.8527E-03,   11.0612E-06
C:/temp/dataset/7/7_8.odb,Step-1,Increment      1: Step Time =    1.000,"PART-1-1",           153,       9.09422,       9.69450,            0.,NA,NA,"",       1.75768,      -1.75653,  -63.7030E-03,   157.956E-09
C:/temp/dataset/7/7_8.odb,Step-1,Increment      1: Step Time =    1.000,"PART-1-1",           154,       8.44946,       15.5970,            0.,NA,NA,"",       2.01870,      -2.01633,  -97.8981E-03,   134.527E-09
C:/temp/dataset/7/7_8.odb,Step-1,Increment      1: Step Time =    1.000,"PART-1-1",           155,       9.11701,       7.46178,            0.,NA,NA,"",       1.65914,      -1.65804,  -60.5234E-03,   358.037E-09
C:/temp/dataset/7/7_8.odb,Step-1,Increment      1: Step Time =    1.000,"PART-1-1",           156,       8.83101,       13.9442,            0.,NA,NA,"",       1.94540,      -1.94377,  -79.4540E-03,   126.365E-09
C:/temp/dataset/7/7_8.odb,Step-1,Increment      1: Step Time =    1.000,"PART-1-1",           157,       9.61385,      -19.9311,            0.,NA,NA,"",   419.931E-03,  -419.575E-03,  -17.2947E-03,   10.8567E-03
C:/temp/dataset/7/7_8.odb,Step-1,Increment      1: Step Time =    1.000,"PART-1-1",           158,       9.10031,       2.95854,            0.,NA,NA,"",       1.46044,      -1.45933,  -56.8771E-03,   978.282E-09
C:/temp/dataset/7/7_8.odb,Step-1,Increment      1: Step Time =    1.000,"PART-1-1",           159,       9.17986,      -12.8049,            0.,NA,NA,"",   764.484E-03,  -763.592E-03,  -36.9230E-03,   461.286E-06
C:/temp/dataset/7/7_8.odb,Step-1,Increment      1: Step Time =    1.000,"PART-1-1",           160,       8.54844,      -8.43147,            0.,NA,NA,"",   959.028E-03,  -956.482E-03,  -69.8288E-03,   224.038E-06
C:/temp/dataset/7/7_8.odb,Step-1,Increment      1: Step Time =    1.000,"PART-1-1",           161,       8.46228,      -5.79934,            0.,NA,NA,"",       1.07514,      -1.07242,  -76.4139E-03,   96.6821E-06
C:/temp/dataset/7/7_8.odb,Step-1,Increment      1: Step Time =    1.000,"PART-1-1",           162,       8.97830,      -10.5487,            0.,NA,NA,"",   864.811E-03,  -863.457E-03,  -48.3709E-03,   308.290E-06
C:/temp/dataset/7/7_8.odb,Step-1,Increment      1: Step Time =    1.000,"PART-1-1",           163,       8.84007,      -3.76868,            0.,NA,NA,"",       1.16395,      -1.16231,  -61.7777E-03,   39.6534E-06
C:/temp/dataset/7/7_8.odb,Step-1,Increment      1: Step Time =    1.000,"PART-1-1",           164,       9.12644,       5.21383,            0.,NA,NA,"",       1.55994,      -1.55886,  -57.9193E-03,   718.073E-09
C:/temp/dataset/7/7_8.odb,Step-1,Increment      1: Step Time =    1.000,"PART-1-1",           165,       9.36869,      -17.5094,            0.,NA,NA,"",   544.800E-03,  -544.137E-03,  -26.8707E-03,   6.04431E-03
C:/temp/dataset/7/7_8.odb,Step-1,Increment      1: Step Time =    1.000,"PART-1-1",           166,       9.01212,       11.8707,            0.,NA,NA,"",       1.85377,      -1.85247,  -69.4440E-03,   116.002E-09
C:/temp/dataset/7/7_8.odb,Step-1,Increment      1: Step Time =    1.000,"PART-1-1",           167,       9.60003,       16.9835,            0.,NA,NA,"",       2.07918,      -2.07862,  -48.4834E-03,   149.121E-09
C:/temp/dataset/7/7_8.odb,Step-1,Increment      1: Step Time =    1.000,"PART-1-1",           168,       7.13047,       19.6676,            0.,NA,NA,"",       2.20047,      -2.19464,  -160.057E-03,   142.795E-09
C:/temp/dataset/7/7_8.odb,Step-1,Increment      1: Step Time =    1.000,"PART-1-1",           169,       9.55406,      -25.2995,            0.,NA,NA,"",   142.037E-03,  -141.580E-03,  -11.3824E-03,   16.1516E-03
C:/temp/dataset/7/7_8.odb,Step-1,Increment      1: Step Time =    1.000,"PART-1-1",           170,       12.3800,      -27.4389,            0.,NA,NA,"",   71.0150E-03,  -63.8831E-03,   31.0174E-03,   20.3881E-03
C:/temp/dataset/7/7_8.odb,Step-1,Increment      1: Step Time =    1.000,"PART-1-1",           171,      -11.9351,       22.4166,            0.,NA,NA,"",       2.50714,      -2.29736,      -1.00394,   215.098E-09
C:/temp/dataset/7/7_8.odb,Step-1,Increment      1: Step Time =    1.000,"PART-1-1",           172,       10.9842,      -1.93535,            0.,NA,NA,"",       1.24562,      -1.24523,   31.0174E-03,   13.8952E-06
C:/temp/dataset/7/7_8.odb,Step-1,Increment      1: Step Time =    1.000,"PART-1-1",           173,       11.2234,      -14.9909,            0.,NA,NA,"",   672.723E-03,  -670.554E-03,   53.9803E-03,   3.01448E-03
C:/temp/dataset/7/7_8.odb,Step-1,Increment      1: Step Time =    1.000,"PART-1-1",           174,       11.0574,       21.1283,            0.,NA,NA,"",       2.26294,      -2.26291,   11.7805E-03,   178.789E-09
C:/temp/dataset/7/7_8.odb,Step-1,Increment      1: Step Time =    1.000,"PART-1-1",           175,       10.7466,       19.4847,            0.,NA,NA,"",       2.19009,      -2.19009,  -330.292E-06,   170.174E-09
C:/temp/dataset/7/7_8.odb,Step-1,Increment      1: Step Time =    1.000,"PART-1-1",           176,       11.0568,   433.028E-03,            0.,NA,NA,"",       1.35019,      -1.34981,   31.9048E-03,   2.46498E-06
C:/temp/dataset/7/7_8.odb,Step-1,Increment      1: Step Time =    1.000,"PART-1-1",           177,       10.9662,       12.1205,            0.,NA,NA,"",       1.86546,      -1.86539,   16.5310E-03,   138.524E-09
C:/temp/dataset/7/7_8.odb,Step-1,Increment      1: Step Time =    1.000,"PART-1-1",           178,       11.6216,      -21.4567,            0.,NA,NA,"",   350.439E-03,  -346.506E-03,   52.3494E-03,   14.7795E-03
C:/temp/dataset/7/7_8.odb,Step-1,Increment      1: Step Time =    1.000,"PART-1-1",           179,       11.2975,      -17.3958,            0.,NA,NA,"",   561.433E-03,  -558.894E-03,   53.3321E-03,   7.54634E-03
C:/temp/dataset/7/7_8.odb,Step-1,Increment      1: Step Time =    1.000,"PART-1-1",           180,       10.6273,       14.4803,            0.,NA,NA,"",       1.96917,      -1.96917,  -719.930E-06,   144.809E-09
C:/temp/dataset/7/7_8.odb,Step-1,Increment      1: Step Time =    1.000,"PART-1-1",           181,       11.1012,       2.78293,            0.,NA,NA,"",       1.45388,      -1.45353,   31.5765E-03,   1.04512E-06
C:/temp/dataset/7/7_8.odb,Step-1,Increment      1: Step Time =    1.000,"PART-1-1",           182,       11.1153,       7.46695,            0.,NA,NA,"",       1.66044,      -1.66021,   27.6391E-03,   382.829E-09
C:/temp/dataset/7/7_8.odb,Step-1,Increment      1: Step Time =    1.000,"PART-1-1",           183,       11.1247,      -12.5851,            0.,NA,NA,"",   777.502E-03,  -775.969E-03,   48.7914E-03,   568.216E-06
C:/temp/dataset/7/7_8.odb,Step-1,Increment      1: Step Time =    1.000,"PART-1-1",           184,       10.4094,      -7.19663,            0.,NA,NA,"",       1.01259,      -1.01253,   11.0449E-03,   170.954E-06
C:/temp/dataset/7/7_8.odb,Step-1,Increment      1: Step Time =    1.000,"PART-1-1",           185,       10.4303,      -22.2648,            0.,NA,NA,"",   296.380E-03,  -296.215E-03,   9.88403E-03,   15.2352E-03
C:/temp/dataset/7/7_8.odb,Step-1,Increment      1: Step Time =    1.000,"PART-1-1",           186,       10.9130,      -10.1038,            0.,NA,NA,"",   885.523E-03,  -884.765E-03,   36.6166E-03,   358.878E-06
C:/temp/dataset/7/7_8.odb,Step-1,Increment      1: Step Time =    1.000,"PART-1-1",           187,       10.8491,      -4.38491,            0.,NA,NA,"",       1.13734,      -1.13701,   27.4891E-03,   52.2815E-06
C:/temp/dataset/7/7_8.odb,Step-1,Increment      1: Step Time =    1.000,"PART-1-1",           188,       11.1275,       5.13070,            0.,NA,NA,"",       1.55744,      -1.55715,   30.4529E-03,   760.448E-09
C:/temp/dataset/7/7_8.odb,Step-1,Increment      1: Step Time =    1.000,"PART-1-1",           189,       11.0819,       9.79848,            0.,NA,NA,"",       1.76321,      -1.76305,   23.8967E-03,   180.606E-09
C:/temp/dataset/7/7_8.odb,Step-1,Increment      1: Step Time =    1.000,"PART-1-1",           190,       12.1026,      -24.5603,            0.,NA,NA,"",   189.338E-03,  -182.379E-03,   50.8630E-03,   16.7016E-03
C:/temp/dataset/7/7_8.odb,Step-1,Increment      1: Step Time =    1.000,"PART-1-1",           191,      -7.61069,       24.2264,            0.,NA,NA,"",       2.51699,      -2.38143,  -814.898E-03,   211.920E-09
C:/temp/dataset/7/7_8.odb,Step-1,Increment      1: Step Time =    1.000,"PART-1-1",           192,      -5.77678,       24.2650,            0.,NA,NA,"",       2.49532,      -2.38492,  -734.021E-03,   209.606E-09
C:/temp/dataset/7/7_8.odb,Step-1,Increment      1: Step Time =    1.000,"PART-1-1",           193,       1.00958,       23.8763,            0.,NA,NA,"",       2.41375,      -2.37437,  -434.218E-03,   194.236E-09
C:/temp/dataset/7/7_8.odb,Step-1,Increment      1: Step Time =    1.000,"PART-1-1",           194,      -3.86757,       24.8145,            0.,NA,NA,"",       2.49718,      -2.41102,  -650.319E-03,   208.046E-09
C:/temp/dataset/7/7_8.odb,Step-1,Increment      1: Step Time =    1.000,"PART-1-1",           195,  -996.969E-03,       24.6602,            0.,NA,NA,"",       2.46328,      -2.40701,  -523.513E-03,   201.922E-09
C:/temp/dataset/7/7_8.odb,Step-1,Increment      1: Step Time =    1.000,"PART-1-1",           196,       7.19995,       21.7613,            0.,NA,NA,"",       2.29261,      -2.28708,  -159.031E-03,   163.035E-09
C:/temp/dataset/7/7_8.odb,Step-1,Increment      1: Step Time =    1.000,"PART-1-1",           197,       2.92747,       22.7842,            0.,NA,NA,"",       2.35400,      -2.32806,  -348.535E-03,   181.425E-09
C:/temp/dataset/7/7_8.odb,Step-1,Increment      1: Step Time =    1.000,"PART-1-1",           198,       5.53232,       24.2100,            0.,NA,NA,"",       2.40501,      -2.39350,  -234.993E-03,   180.469E-09
C:/temp/dataset/7/7_8.odb,Step-1,Increment      1: Step Time =    1.000,"PART-1-1",           199,       9.18626,       19.3402,            0.,NA,NA,"",       2.18329,      -2.18220,  -69.0343E-03,   156.318E-09
C:/temp/dataset/7/7_8.odb,Step-1,Increment      1: Step Time =    1.000,"PART-1-1",           200,       11.2321,       23.1770,            0.,NA,NA,"",       2.35354,      -2.35347,   17.4934E-03,   185.310E-09
C:/temp/dataset/7/7_8.odb,Step-1,Increment      1: Step Time =    1.000,"PART-1-1",           201,       5.11021,       22.1378,            0.,NA,NA,"",       2.31537,      -2.30166,  -251.599E-03,   167.997E-09
C:/temp/dataset/7/7_8.odb,Step-1,Increment      1: Step Time =    1.000,"PART-1-1",           202,   167.280E-03,       22.2372,            0.,NA,NA,"",       2.34870,      -2.30123,  -469.786E-03,   191.450E-09
C:/temp/dataset/7/7_8.odb,Step-1,Increment      1: Step Time =    1.000,"PART-1-1",           203,      -2.32264,       22.6339,            0.,NA,NA,"",       2.38783,      -2.31631,  -580.031E-03,   199.738E-09
C:/temp/dataset/7/7_8.odb,Step-1,Increment      1: Step Time =    1.000,"PART-1-1",           204,       9.17324,       21.4477,            0.,NA,NA,"",       2.27630,      -2.27517,  -71.6612E-03,   169.129E-09
C:/temp/dataset/7/7_8.odb,Step-1,Increment      1: Step Time =    1.000,"PART-1-1",           205,       9.43619,       25.5889,            0.,NA,NA,"",       2.45898,      -2.45814,  -64.0920E-03,   186.582E-09
C:/temp/dataset/7/7_8.odb,Step-1,Increment      1: Step Time =    1.000,"PART-1-1",           206,      -5.39738,       22.2321,            0.,NA,NA,"",       2.40445,      -2.29559,  -715.302E-03,   205.052E-09
C:/temp/dataset/7/7_8.odb,Step-1,Increment      1: Step Time =    1.000,"PART-1-1",           207,      -8.66915,       22.6604,            0.,NA,NA,"",       2.46614,      -2.31130,  -860.074E-03,   211.075E-09
C:/temp/dataset/7/7_8.odb,Step-1,Increment      1: Step Time =    1.000,"PART-1-1",           208,      -12.8188,       27.4435,            0.,NA,NA,"",       2.72759,      -2.51830,      -1.04782,   218.099E-09
C:/temp/dataset/7/7_8.odb,Step-1,Increment      1: Step Time =    1.000,"PART-1-1",           209,       7.43992,       23.7550,            0.,NA,NA,"",       2.38004,      -2.37528,  -150.384E-03,   178.566E-09
C:/temp/dataset/7/7_8.odb,Step-1,Increment      1: Step Time =    1.000,"PART-1-1",           210,      -6.48406,       26.1481,            0.,NA,NA,"",       2.58380,      -2.46731,  -767.061E-03,   214.679E-09
C:/temp/dataset/7/7_8.odb,Step-1,Increment      1: Step Time =    1.000,"PART-1-1",           211,       3.18484,       28.0088,            0.,NA,NA,"",       2.58161,      -2.55883,  -342.266E-03,   206.428E-09
C:/temp/dataset/7/7_8.odb,Step-1,Increment      1: Step Time =    1.000,"PART-1-1",           212,       11.4304,      -19.6429,            0.,NA,NA,"",   447.379E-03,  -444.333E-03,   52.1170E-03,   11.9288E-03
C:/temp/dataset/7/7_8.odb,Step-1,Increment      1: Step Time =    1.000,"PART-1-1",           213,       9.33060,       23.4727,            0.,NA,NA,"",       2.36561,      -2.36467,  -66.6901E-03,   180.272E-09
C:/temp/dataset/7/7_8.odb,Step-1,Increment      1: Step Time =    1.000,"PART-1-1",           214,      -12.1707,       23.6708,            0.,NA,NA,"",       2.56232,      -2.35247,      -1.01555,   215.860E-09
C:/temp/dataset/7/7_8.odb,Step-1,Increment      1: Step Time =    1.000,"PART-1-1",           215,      -13.7031,       24.9625,            0.,NA,NA,"",       2.64089,      -2.40797,      -1.08442,   216.242E-09
C:/temp/dataset/7/7_8.odb,Step-1,Increment      1: Step Time =    1.000,"PART-1-1",           216,          -15.,         23.75,            0.,NA,NA,"",       2.61501,      -2.35321,      -1.14046,   217.869E-09
C:/temp/dataset/7/7_8.odb,Step-1,Increment      1: Step Time =    1.000,"PART-1-1",           217,      -13.4675,       22.4583,            0.,NA,NA,"",       2.53531,      -2.29771,      -1.07159,   217.752E-09
C:/temp/dataset/7/7_8.odb,Step-1,Increment      1: Step Time =    1.000,"PART-1-1",           218,      -9.86170,       27.7278,            0.,NA,NA,"",       2.69477,      -2.53372,  -917.626E-03,   219.316E-09
C:/temp/dataset/7/7_8.odb,Step-1,Increment      1: Step Time =    1.000,"PART-1-1",           219,      -10.4490,       26.4258,            0.,NA,NA,"",       2.64896,      -2.47570,  -942.270E-03,   217.442E-09
C:/temp/dataset/7/7_8.odb,Step-1,Increment      1: Step Time =    1.000,"PART-1-1",           220,      -9.20914,       25.5437,            0.,NA,NA,"",       2.59424,      -2.43799,  -886.707E-03,   215.595E-09
C:/temp/dataset/7/7_8.odb,Step-1,Increment      1: Step Time =    1.000,"PART-1-1",           221,      -8.62185,       26.8458,            0.,NA,NA,"",       2.64069,      -2.49601,  -862.063E-03,   217.491E-09
C:/temp/dataset/7/7_8.odb,Step-1,Increment      1: Step Time =    1.000,"PART-1-1",           222,      -9.15066,       28.9242,            0.,NA,NA,"",       2.73517,      -2.58720,  -887.419E-03,   221.753E-09
C:/temp/dataset/7/7_8.odb,Step-1,Increment      1: Step Time =    1.000,"PART-1-1",           223,      -10.3125,           30.,            0.,NA,NA,"",       2.79618,      -2.63354,  -939.728E-03,   223.483E-09
C:/temp/dataset/7/7_8.odb,Step-1,Increment      1: Step Time =    1.000,"PART-1-1",           224,      -11.0235,       28.8036,            0.,NA,NA,"",       2.75635,      -2.58006,  -969.936E-03,   220.947E-09
C:/temp/dataset/7/7_8.odb,Step-1,Increment      1: Step Time =    1.000,"PART-1-1",           225,      -11.2536,       25.0847,            0.,NA,NA,"",       2.60563,      -2.41575,  -976.463E-03,   216.167E-09
C:/temp/dataset/7/7_8.odb,Step-1,Increment      1: Step Time =    1.000,"PART-1-1",           226,      -10.3021,       22.5385,            0.,NA,NA,"",       2.48568,      -2.30433,  -932.005E-03,   212.968E-09
C:/temp/dataset/7/7_8.odb,Step-1,Increment      1: Step Time =    1.000,"PART-1-1",           227,      -9.38503,       23.9523,            0.,NA,NA,"",       2.53039,      -2.36761,  -892.918E-03,   213.423E-09
C:/temp/dataset/7/7_8.odb,Step-1,Increment      1: Step Time =    1.000,"PART-1-1",           228,      -12.9719,       28.7217,            0.,NA,NA,"",       2.78263,      -2.57455,      -1.05582,   220.269E-09
C:/temp/dataset/7/7_8.odb,Step-1,Increment      1: Step Time =    1.000,"PART-1-1",           229,      -14.0625,           30.,            0.,NA,NA,"",       2.85267,      -2.62988,      -1.10518,   222.586E-09
C:/temp/dataset/7/7_8.odb,Step-1,Increment      1: Step Time =    1.000,"PART-1-1",           230,          -15.,         28.75,            0.,NA,NA,"",       2.81715,      -2.57382,      -1.14533,   217.409E-09
C:/temp/dataset/7/7_8.odb,Step-1,Increment      1: Step Time =    1.000,"PART-1-1",           231,      -13.9094,       27.4717,            0.,NA,NA,"",       2.74662,      -2.51848,      -1.09597,   215.984E-09
C:/temp/dataset/7/7_8.odb,Step-1,Increment      1: Step Time =    1.000,"PART-1-1",           232,      -7.40072,       25.9956,            0.,NA,NA,"",       2.58880,      -2.45969,  -807.357E-03,   215.101E-09
C:/temp/dataset/7/7_8.odb,Step-1,Increment      1: Step Time =    1.000,"PART-1-1",           233,      -7.96404,       25.0347,            0.,NA,NA,"",       2.55572,      -2.41675,  -831.276E-03,   213.704E-09
C:/temp/dataset/7/7_8.odb,Step-1,Increment      1: Step Time =    1.000,"PART-1-1",           234,      -6.69374,       24.2457,            0.,NA,NA,"",       2.50585,      -2.38317,  -774.460E-03,   210.777E-09
C:/temp/dataset/7/7_8.odb,Step-1,Increment      1: Step Time =    1.000,"PART-1-1",           235,      -6.13042,       25.2066,            0.,NA,NA,"",       2.53956,      -2.42612,  -750.541E-03,   212.133E-09
C:/temp/dataset/7/7_8.odb,Step-1,Increment      1: Step Time =    1.000,"PART-1-1",           236,      -5.46940,       29.1125,            0.,NA,NA,"",       2.69837,      -2.59909,  -725.179E-03,   222.574E-09
C:/temp/dataset/7/7_8.odb,Step-1,Increment      1: Step Time =    1.000,"PART-1-1",           237,      -4.41178,       28.2246,            0.,NA,NA,"",       2.64909,      -2.56095,  -677.651E-03,   219.130E-09
C:/temp/dataset/7/7_8.odb,Step-1,Increment      1: Step Time =    1.000,"PART-1-1",           238,      -3.62988,       29.1121,            0.,NA,NA,"",       2.67942,      -2.60087,  -644.016E-03,   222.213E-09
C:/temp/dataset/7/7_8.odb,Step-1,Increment      1: Step Time =    1.000,"PART-1-1",           239,       -4.6875,           30.,            0.,NA,NA,"",       2.72812,      -2.63901,  -691.545E-03,   225.752E-09
C:/temp/dataset/7/7_8.odb,Step-1,Increment      1: Step Time =    1.000,"PART-1-1",           240,  -467.629E-03,       27.9420,            0.,NA,NA,"",       2.60148,      -2.55232,  -503.354E-03,   213.946E-09
C:/temp/dataset/7/7_8.odb,Step-1,Increment      1: Step Time =    1.000,"PART-1-1",           241,  -845.263E-03,       26.9234,            0.,NA,NA,"",       2.56017,      -2.50701,  -519.024E-03,   209.940E-09
C:/temp/dataset/7/7_8.odb,Step-1,Increment      1: Step Time =    1.000,"PART-1-1",           242,   746.021E-03,       26.1520,            0.,NA,NA,"",       2.51476,      -2.47452,  -448.063E-03,   203.518E-09
C:/temp/dataset/7/7_8.odb,Step-1,Increment      1: Step Time =    1.000,"PART-1-1",           243,       1.12365,       27.1705,            0.,NA,NA,"",       2.55666,      -2.51983,  -432.393E-03,   207.188E-09
C:/temp/dataset/7/7_8.odb,Step-1,Increment      1: Step Time =    1.000,"PART-1-1",           244,       14.0901,       25.0896,            0.,NA,NA,"",       2.44476,      -2.44065,   141.731E-03,   194.527E-09
C:/temp/dataset/7/7_8.odb,Step-1,Increment      1: Step Time =    1.000,"PART-1-1",           245,       13.1528,       23.9903,            0.,NA,NA,"",       2.39338,      -2.39123,   101.445E-03,   192.520E-09
C:/temp/dataset/7/7_8.odb,Step-1,Increment      1: Step Time =    1.000,"PART-1-1",           246,       14.0627,       22.6507,            0.,NA,NA,"",       2.33738,      -2.33301,   142.896E-03,   200.050E-09
C:/temp/dataset/7/7_8.odb,Step-1,Increment      1: Step Time =    1.000,"PART-1-1",           247,           15.,         23.75,            0.,NA,NA,"",       2.38946,      -2.38242,   183.182E-03,   202.660E-09
C:/temp/dataset/7/7_8.odb,Step-1,Increment      1: Step Time =    1.000,"PART-1-1",           248,       11.2764,       28.8302,            0.,NA,NA,"",       2.60298,      -2.60295,   13.9455E-03,   183.673E-09
C:/temp/dataset/7/7_8.odb,Step-1,Increment      1: Step Time =    1.000,"PART-1-1",           249,       10.3125,           30.,            0.,NA,NA,"",       2.65379,      -2.65362,  -29.7230E-03,   184.401E-09
C:/temp/dataset/7/7_8.odb,Step-1,Increment      1: Step Time =    1.000,"PART-1-1",           250,       9.39543,       28.8642,            0.,NA,NA,"",       2.60353,      -2.60261,  -69.0794E-03,   188.290E-09
C:/temp/dataset/7/7_8.odb,Step-1,Increment      1: Step Time =    1.000,"PART-1-1",           251,       10.3594,       27.6945,            0.,NA,NA,"",       2.55207,      -2.55194,  -25.4109E-03,   187.831E-09
C:/temp/dataset/7/7_8.odb,Step-1,Increment      1: Step Time =    1.000,"PART-1-1",           252,        8.4375,           30.,            0.,NA,NA,"",       2.65418,      -2.65179,  -112.451E-03,   193.345E-09
C:/temp/dataset/7/7_8.odb,Step-1,Increment      1: Step Time =    1.000,"PART-1-1",           253,       7.48312,       28.8587,            0.,NA,NA,"",       2.60503,      -2.60051,  -153.448E-03,   195.681E-09
C:/temp/dataset/7/7_8.odb,Step-1,Increment      1: Step Time =    1.000,"PART-1-1",           254,       8.44105,       27.7230,            0.,NA,NA,"",       2.55370,      -2.55133,  -110.077E-03,   191.047E-09
C:/temp/dataset/7/7_8.odb,Step-1,Increment      1: Step Time =    1.000,"PART-1-1",           255,       13.0365,       21.6252,            0.,NA,NA,"",       2.28889,      -2.28676,   98.6176E-03,   192.364E-09
C:/temp/dataset/7/7_8.odb,Step-1,Increment      1: Step Time =    1.000,"PART-1-1",           256,       13.9738,       20.2245,            0.,NA,NA,"",       2.23036,      -2.22587,   141.337E-03,   201.181E-09
C:/temp/dataset/7/7_8.odb,Step-1,Increment      1: Step Time =    1.000,"PART-1-1",           257,           15.,         21.25,            0.,NA,NA,"",       2.27969,      -2.27212,   185.616E-03,   209.731E-09
C:/temp/dataset/7/7_8.odb,Step-1,Increment      1: Step Time =    1.000,"PART-1-1",           258,       6.90015,       14.7921,            0.,NA,NA,"",       1.98621,      -1.97930,  -165.472E-03,   126.371E-09
C:/temp/dataset/7/7_8.odb,Step-1,Increment      1: Step Time =    1.000,"PART-1-1",           259,       5.93474,       15.8126,            0.,NA,NA,"",       2.03416,      -2.02339,  -209.061E-03,   130.919E-09
C:/temp/dataset/7/7_8.odb,Step-1,Increment      1: Step Time =    1.000,"PART-1-1",           260,            5.,       14.7917,            0.,NA,NA,"",       1.99309,      -1.97743,  -249.308E-03,   126.214E-09
C:/temp/dataset/7/7_8.odb,Step-1,Increment      1: Step Time =    1.000,"PART-1-1",           261,       5.96541,       13.7711,            0.,NA,NA,"",       1.94426,      -1.93335,  -205.720E-03,   122.246E-09
C:/temp/dataset/7/7_8.odb,Step-1,Increment      1: Step Time =    1.000,"PART-1-1",           262,       7.07741,       8.55300,            0.,NA,NA,"",       1.71093,      -1.70420,  -151.575E-03,   219.395E-09
C:/temp/dataset/7/7_8.odb,Step-1,Increment      1: Step Time =    1.000,"PART-1-1",           263,       6.03400,       9.60662,            0.,NA,NA,"",       1.76091,      -1.74967,  -198.638E-03,   126.724E-09
C:/temp/dataset/7/7_8.odb,Step-1,Increment      1: Step Time =    1.000,"PART-1-1",           264,            5.,       8.54167,            0.,NA,NA,"",       1.71897,      -1.70168,  -243.222E-03,   215.270E-09
C:/temp/dataset/7/7_8.odb,Step-1,Increment      1: Step Time =    1.000,"PART-1-1",           265,       6.04341,       7.48805,            0.,NA,NA,"",       1.66778,      -1.65620,  -196.159E-03,   243.309E-09
C:/temp/dataset/7/7_8.odb,Step-1,Increment      1: Step Time =    1.000,"PART-1-1",           266,            5.,         4.375,            0.,NA,NA,"",       1.53656,      -1.51784,  -239.162E-03,   1.14333E-06
C:/temp/dataset/7/7_8.odb,Step-1,Increment      1: Step Time =    1.000,"PART-1-1",           267,       6.03822,       3.24050,            0.,NA,NA,"",       1.48132,      -1.46879,  -192.250E-03,   997.174E-09
C:/temp/dataset/7/7_8.odb,Step-1,Increment      1: Step Time =    1.000,"PART-1-1",           268,       7.08368,       4.22909,            0.,NA,NA,"",       1.52056,      -1.51343,  -147.088E-03,   745.624E-09
C:/temp/dataset/7/7_8.odb,Step-1,Increment      1: Step Time =    1.000,"PART-1-1",           269,       6.04546,       5.36359,            0.,NA,NA,"",       1.57447,      -1.56247,  -193.999E-03,   538.799E-09
C:/temp/dataset/7/7_8.odb,Step-1,Increment      1: Step Time =    1.000,"PART-1-1",           270,            5.,       2.29167,            0.,NA,NA,"",       1.44550,      -1.42592,  -237.131E-03,   2.09612E-06
C:/temp/dataset/7/7_8.odb,Step-1,Increment      1: Step Time =    1.000,"PART-1-1",           271,       6.01828,       1.12309,            0.,NA,NA,"",       1.38856,      -1.37535,  -191.066E-03,   1.35106E-06
C:/temp/dataset/7/7_8.odb,Step-1,Increment      1: Step Time =    1.000,"PART-1-1",           272,       7.05649,       2.07193,            0.,NA,NA,"",       1.42574,      -1.41823,  -146.187E-03,   527.710E-09
C:/temp/dataset/7/7_8.odb,Step-1,Increment      1: Step Time =    1.000,"PART-1-1",           273,       7.00178,  -77.9012E-03,            0.,NA,NA,"",       1.33141,      -1.32333,  -146.507E-03,   2.93677E-06
C:/temp/dataset/7/7_8.odb,Step-1,Increment      1: Step Time =    1.000,"PART-1-1",           274,            5.,   208.333E-03,            0.,NA,NA,"",       1.35457,      -1.33401,  -235.097E-03,   2.45550E-06
C:/temp/dataset/7/7_8.odb,Step-1,Increment      1: Step Time =    1.000,"PART-1-1",           275,       5.98350,  -992.661E-03,            0.,NA,NA,"",       1.29607,      -1.28199,  -190.540E-03,   2.42110E-06
C:/temp/dataset/7/7_8.odb,Step-1,Increment      1: Step Time =    1.000,"PART-1-1",           276,       6.59145,      -6.15040,            0.,NA,NA,"",       1.06705,      -1.05517,  -158.739E-03,   89.9451E-06
C:/temp/dataset/7/7_8.odb,Step-1,Increment      1: Step Time =    1.000,"PART-1-1",           277,       5.82593,      -5.11028,            0.,NA,NA,"",       1.11715,      -1.10026,  -193.521E-03,   37.7032E-06
C:/temp/dataset/7/7_8.odb,Step-1,Increment      1: Step Time =    1.000,"PART-1-1",           278,            5.,      -6.04167,            0.,NA,NA,"",       1.08290,      -1.05839,  -229.083E-03,   72.1917E-06
C:/temp/dataset/7/7_8.odb,Step-1,Increment      1: Step Time =    1.000,"PART-1-1",           279,       5.76552,      -7.08179,            0.,NA,NA,"",       1.03178,      -1.01331,  -194.370E-03,   100.502E-06
C:/temp/dataset/7/7_8.odb,Step-1,Increment      1: Step Time =    1.000,"PART-1-1",           280,       8.25955,      -15.2021,            0.,NA,NA,"",   657.092E-03,  -652.717E-03,  -75.7053E-03,   1.81325E-03
C:/temp/dataset/7/7_8.odb,Step-1,Increment      1: Step Time =    1.000,"PART-1-1",           281,       9.23032,      -13.9562,            0.,NA,NA,"",   712.759E-03,  -711.962E-03,  -33.6997E-03,   1.27600E-03
C:/temp/dataset/7/7_8.odb,Step-1,Increment      1: Step Time =    1.000,"PART-1-1",           282,       8.16037,      -12.9544,            0.,NA,NA,"",   760.027E-03,  -755.568E-03,  -82.2014E-03,   324.037E-06
C:/temp/dataset/7/7_8.odb,Step-1,Increment      1: Step Time =    1.000,"PART-1-1",           283,       7.18960,      -14.2003,            0.,NA,NA,"",   708.643E-03,  -697.620E-03,  -124.505E-03,   795.808E-06
C:/temp/dataset/7/7_8.odb,Step-1,Increment      1: Step Time =    1.000,"PART-1-1",           284,            5.,      -22.7083,            0.,NA,NA,"",   336.549E-03,  -280.730E-03,  -185.623E-03,   13.5118E-03
C:/temp/dataset/7/7_8.odb,Step-1,Increment      1: Step Time =    1.000,"PART-1-1",           285,       5.97351,      -23.6835,            0.,NA,NA,"",   263.220E-03,  -229.220E-03,  -129.394E-03,   14.7789E-03
C:/temp/dataset/7/7_8.odb,Step-1,Increment      1: Step Time =    1.000,"PART-1-1",           286,       6.71140,      -22.7416,            0.,NA,NA,"",   293.928E-03,  -271.886E-03,  -111.675E-03,   12.5311E-03
C:/temp/dataset/7/7_8.odb,Step-1,Increment      1: Step Time =    1.000,"PART-1-1",           287,       5.73789,      -21.7664,            0.,NA,NA,"",   362.162E-03,  -324.085E-03,  -161.648E-03,   9.79425E-03
C:/temp/dataset/7/7_8.odb,Step-1,Increment      1: Step Time =    1.000,"PART-1-1",           288,       9.95056,      -28.8261,            0.,NA,NA,"",   17.7959E-03,  -17.7942E-03,  -246.919E-06,   10.4905E-03
C:/temp/dataset/7/7_8.odb,Step-1,Increment      1: Step Time =    1.000,"PART-1-1",           289,       8.67404,      -27.7482,            0.,NA,NA,"",   49.8304E-03,  -47.9460E-03,  -13.5738E-03,   16.1148E-03
C:/temp/dataset/7/7_8.odb,Step-1,Increment      1: Step Time =    1.000,"PART-1-1",           290,       7.47347,      -28.9221,            0.,NA,NA,"",   21.4851E-03,  -17.5445E-03,  -12.4017E-03,   16.9372E-03
C:/temp/dataset/7/7_8.odb,Step-1,Increment      1: Step Time =    1.000,"PART-1-1",           291,          8.75,          -30.,            0.,NA,NA,"",            0.,  -5.52155E-39,  -13.3820E-39,   8.56633E-03
C:/temp/dataset/7/7_8.odb,Step-1,Increment      1: Step Time =    1.000,"PART-1-1",           292,       9.14805,      -24.1419,            0.,NA,NA,"",   198.328E-03,  -196.789E-03,  -24.6562E-03,   15.4731E-03
C:/temp/dataset/7/7_8.odb,Step-1,Increment      1: Step Time =    1.000,"PART-1-1",           293,       7.84454,      -23.3007,            0.,NA,NA,"",   249.946E-03,  -240.702E-03,  -67.3471E-03,   13.8931E-03
C:/temp/dataset/7/7_8.odb,Step-1,Increment      1: Step Time =    1.000,"PART-1-1",           294,       7.10828,      -24.6604,            0.,NA,NA,"",   193.626E-03,  -177.644E-03,  -77.0297E-03,   16.3988E-03
C:/temp/dataset/7/7_8.odb,Step-1,Increment      1: Step Time =    1.000,"PART-1-1",           295,       8.41180,      -25.5016,            0.,NA,NA,"",   138.944E-03,  -134.490E-03,  -34.8976E-03,   16.3407E-03
C:/temp/dataset/7/7_8.odb,Step-1,Increment      1: Step Time =    1.000,"PART-1-1",           296,       7.00425,      -21.1298,            0.,NA,NA,"",   371.334E-03,  -353.703E-03,  -113.062E-03,   9.79620E-03
C:/temp/dataset/7/7_8.odb,Step-1,Increment      1: Step Time =    1.000,"PART-1-1",           297,       6.26636,      -19.9884,            0.,NA,NA,"",   440.321E-03,  -413.510E-03,  -151.301E-03,   6.19804E-03
C:/temp/dataset/7/7_8.odb,Step-1,Increment      1: Step Time =    1.000,"PART-1-1",           298,            5.,       -20.625,            0.,NA,NA,"",   435.452E-03,  -383.162E-03,  -206.895E-03,   7.47694E-03
C:/temp/dataset/7/7_8.odb,Step-1,Increment      1: Step Time =    1.000,"PART-1-1",           299,       12.8526,      -8.63250,            0.,NA,NA,"",   958.802E-03,  -951.261E-03,   120.020E-03,   234.813E-06
C:/temp/dataset/7/7_8.odb,Step-1,Increment      1: Step Time =    1.000,"PART-1-1",           300,       13.9581,      -9.97058,            0.,NA,NA,"",   909.295E-03,  -893.339E-03,   169.597E-03,   330.634E-06
C:/temp/dataset/7/7_8.odb,Step-1,Increment      1: Step Time =    1.000,"PART-1-1",           301,           15.,         -8.75,            0.,NA,NA,"",   972.154E-03,  -948.223E-03,   214.378E-03,   320.174E-06
C:/temp/dataset/7/7_8.odb,Step-1,Increment      1: Step Time =    1.000,"PART-1-1",           302,       13.8945,      -7.41192,            0.,NA,NA,"",       1.01955,      -1.00617,   164.622E-03,   122.016E-06
C:/temp/dataset/7/7_8.odb,Step-1,Increment      1: Step Time =    1.000,"PART-1-1",           303,            5.,        10.625,            0.,NA,NA,"",       1.81028,      -1.79359,  -245.251E-03,   128.841E-09
C:/temp/dataset/7/7_8.odb,Step-1,Increment      1: Step Time =    1.000,"PART-1-1",           304,       7.03988,       10.6820,            0.,NA,NA,"",       1.80479,      -1.79809,  -155.304E-03,   120.530E-09
C:/temp/dataset/7/7_8.odb,Step-1,Increment      1: Step Time =    1.000,"PART-1-1",           305,       6.00589,       11.7004,            0.,NA,NA,"",       1.85305,      -1.84202,  -201.917E-03,   113.785E-09
C:/temp/dataset/7/7_8.odb,Step-1,Increment      1: Step Time =    1.000,"PART-1-1",           306,       2.74639,       25.6366,            0.,NA,NA,"",       2.47990,      -2.45373,  -359.302E-03,   195.082E-09
C:/temp/dataset/7/7_8.odb,Step-1,Increment      1: Step Time =    1.000,"PART-1-1",           307,       1.36653,       25.0307,            0.,NA,NA,"",       2.46168,      -2.42566,  -419.593E-03,   197.356E-09
C:/temp/dataset/7/7_8.odb,Step-1,Increment      1: Step Time =    1.000,"PART-1-1",           308,       1.96853,       23.3303,            0.,NA,NA,"",       2.38357,      -2.35122,  -391.376E-03,   188.170E-09
C:/temp/dataset/7/7_8.odb,Step-1,Increment      1: Step Time =    1.000,"PART-1-1",           309,       3.34839,       23.9361,            0.,NA,NA,"",       2.40222,      -2.37929,  -331.085E-03,   185.098E-09
C:/temp/dataset/7/7_8.odb,Step-1,Increment      1: Step Time =    1.000,"PART-1-1",           310,       4.47216,       26.2029,            0.,NA,NA,"",       2.49657,      -2.48040,  -283.710E-03,   194.044E-09
C:/temp/dataset/7/7_8.odb,Step-1,Increment      1: Step Time =    1.000,"PART-1-1",           311,       4.17993,       27.6633,            0.,NA,NA,"",       2.56194,      -2.54455,  -298.025E-03,   201.937E-09
C:/temp/dataset/7/7_8.odb,Step-1,Increment      1: Step Time =    1.000,"PART-1-1",           312,       2.45416,       27.0970,            0.,NA,NA,"",       2.54545,      -2.51788,  -373.617E-03,   203.572E-09
C:/temp/dataset/7/7_8.odb,Step-1,Increment      1: Step Time =    1.000,"PART-1-1",           313,      -1.66705,       28.8640,            0.,NA,NA,"",       2.65104,      -2.59183,  -557.172E-03,   219.954E-09
C:/temp/dataset/7/7_8.odb,Step-1,Increment      1: Step Time =    1.000,"PART-1-1",           314,   261.919E-03,       29.0779,            0.,NA,NA,"",       2.64564,      -2.60315,  -472.271E-03,   219.012E-09
C:/temp/dataset/7/7_8.odb,Step-1,Increment      1: Step Time =    1.000,"PART-1-1",           315,    -937.5E-03,           30.,            0.,NA,NA,"",       2.69452,      -2.64266,  -526.089E-03,   225.270E-09
C:/temp/dataset/7/7_8.odb,Step-1,Increment      1: Step Time =    1.000,"PART-1-1",           316,          -15.,         21.25,            0.,NA,NA,"",       2.51510,      -2.24291,      -1.13803,   221.457E-09
C:/temp/dataset/7/7_8.odb,Step-1,Increment      1: Step Time =    1.000,"PART-1-1",           317,      -13.3250,           20.,            0.,NA,NA,"",       2.43376,      -2.18939,      -1.06291,   216.774E-09
C:/temp/dataset/7/7_8.odb,Step-1,Increment      1: Step Time =    1.000,"PART-1-1",           318,      -11.7925,       21.2083,            0.,NA,NA,"",       2.45547,      -2.24419,  -996.470E-03,   213.864E-09
C:/temp/dataset/7/7_8.odb,Step-1,Increment      1: Step Time =    1.000,"PART-1-1",           319,       10.1137,       15.7319,            0.,NA,NA,"",       2.02405,      -2.02390,  -24.6017E-03,   146.516E-09
C:/temp/dataset/7/7_8.odb,Step-1,Increment      1: Step Time =    1.000,"PART-1-1",           320,       9.02474,       16.2903,            0.,NA,NA,"",       2.04878,      -2.04747,  -73.1908E-03,   141.120E-09
C:/temp/dataset/7/7_8.odb,Step-1,Increment      1: Step Time =    1.000,"PART-1-1",           321,       8.64023,       14.7706,            0.,NA,NA,"",       1.98203,      -1.98005,  -88.6761E-03,   130.529E-09
C:/temp/dataset/7/7_8.odb,Step-1,Increment      1: Step Time =    1.000,"PART-1-1",           322,       9.72917,       14.2122,            0.,NA,NA,"",       1.95688,      -1.95647,  -40.0870E-03,   135.144E-09
C:/temp/dataset/7/7_8.odb,Step-1,Increment      1: Step Time =    1.000,"PART-1-1",           323,       12.8210,       13.6438,            0.,NA,NA,"",       1.93683,      -1.93440,   96.8835E-03,   166.725E-09
C:/temp/dataset/7/7_8.odb,Step-1,Increment      1: Step Time =    1.000,"PART-1-1",           324,       13.9730,       12.4303,            0.,NA,NA,"",       1.88787,      -1.88199,   148.889E-03,   181.487E-09
C:/temp/dataset/7/7_8.odb,Step-1,Increment      1: Step Time =    1.000,"PART-1-1",           325,           15.,         13.75,            0.,NA,NA,"",       1.95077,      -1.94121,   192.919E-03,   205.293E-09
C:/temp/dataset/7/7_8.odb,Step-1,Increment      1: Step Time =    1.000,"PART-1-1",           326,       13.8481,       14.9635,            0.,NA,NA,"",       1.99860,      -1.99363,   140.913E-03,   190.201E-09
C:/temp/dataset/7/7_8.odb,Step-1,Increment      1: Step Time =    1.000,"PART-1-1",           327,       10.1008,       2.87074,            0.,NA,NA,"",       1.45649,      -1.45643,  -12.6507E-03,   939.640E-09
C:/temp/dataset/7/7_8.odb,Step-1,Increment      1: Step Time =    1.000,"PART-1-1",           328,       9.07373,       1.83179,            0.,NA,NA,"",       1.41075,      -1.40960,  -56.9535E-03,   1.12038E-06
C:/temp/dataset/7/7_8.odb,Step-1,Increment      1: Step Time =    1.000,"PART-1-1",           329,       10.0520,   569.032E-03,            0.,NA,NA,"",       1.35489,      -1.35483,  -12.5626E-03,   2.14039E-06
C:/temp/dataset/7/7_8.odb,Step-1,Increment      1: Step Time =    1.000,"PART-1-1",           330,       11.0790,       1.60798,            0.,NA,NA,"",       1.40203,      -1.40167,   31.7402E-03,   1.27824E-06
C:/temp/dataset/7/7_8.odb,Step-1,Increment      1: Step Time =    1.000,"PART-1-1",           331,       9.98138,      -1.74337,            0.,NA,NA,"",       1.25281,      -1.25274,  -13.4171E-03,   11.5936E-06
C:/temp/dataset/7/7_8.odb,Step-1,Increment      1: Step Time =    1.000,"PART-1-1",           332,       8.90931,      -2.66004,            0.,NA,NA,"",       1.21275,      -1.21127,  -59.8192E-03,   24.9359E-06
C:/temp/dataset/7/7_8.odb,Step-1,Increment      1: Step Time =    1.000,"PART-1-1",           333,       9.84458,      -4.07679,            0.,NA,NA,"",       1.14979,      -1.14966,  -17.1374E-03,   41.0123E-06
C:/temp/dataset/7/7_8.odb,Step-1,Increment      1: Step Time =    1.000,"PART-1-1",           334,       10.9167,      -3.16013,            0.,NA,NA,"",       1.19148,      -1.19112,   29.2435E-03,   32.8747E-06
C:/temp/dataset/7/7_8.odb,Step-1,Increment      1: Step Time =    1.000,"PART-1-1",           335,            5.,      -3.95833,            0.,NA,NA,"",       1.17321,      -1.15023,  -231.045E-03,   18.9523E-06
C:/temp/dataset/7/7_8.odb,Step-1,Increment      1: Step Time =    1.000,"PART-1-1",           336,       6.75254,      -4.23112,            0.,NA,NA,"",       1.15020,      -1.13992,  -153.469E-03,   40.7519E-06
C:/temp/dataset/7/7_8.odb,Step-1,Increment      1: Step Time =    1.000,"PART-1-1",           337,       5.92661,      -3.07918,            0.,NA,NA,"",       1.20514,      -1.18991,  -191.024E-03,   11.4996E-06
C:/temp/dataset/7/7_8.odb,Step-1,Increment      1: Step Time =    1.000,"PART-1-1",           338,       7.06139,      -12.0396,            0.,NA,NA,"",   806.267E-03,  -795.328E-03,  -132.363E-03,   139.684E-06
C:/temp/dataset/7/7_8.odb,Step-1,Increment      1: Step Time =    1.000,"PART-1-1",           339,       5.99095,      -11.1126,            0.,NA,NA,"",   854.860E-03,  -835.455E-03,  -181.110E-03,   353.868E-06
C:/temp/dataset/7/7_8.odb,Step-1,Increment      1: Step Time =    1.000,"PART-1-1",           340,            5.,      -12.2917,            0.,NA,NA,"",   813.264E-03,  -781.567E-03,  -224.835E-03,   670.411E-06
C:/temp/dataset/7/7_8.odb,Step-1,Increment      1: Step Time =    1.000,"PART-1-1",           341,       6.07044,      -13.2187,            0.,NA,NA,"",   761.720E-03,  -741.102E-03,  -176.026E-03,   395.387E-06
C:/temp/dataset/7/7_8.odb,Step-1,Increment      1: Step Time =    1.000,"PART-1-1",           342,       6.63644,      -8.02271,            0.,NA,NA,"",   984.989E-03,  -972.718E-03,  -154.994E-03,   171.417E-06
C:/temp/dataset/7/7_8.odb,Step-1,Increment      1: Step Time =    1.000,"PART-1-1",           343,            5.,        -8.125,            0.,NA,NA,"",   992.886E-03,  -966.524E-03,  -227.275E-03,   198.306E-06
C:/temp/dataset/7/7_8.odb,Step-1,Increment      1: Step Time =    1.000,"PART-1-1",           344,       5.87092,      -9.06592,            0.,NA,NA,"",   944.823E-03,  -925.928E-03,  -188.013E-03,   217.002E-06
C:/temp/dataset/7/7_8.odb,Step-1,Increment      1: Step Time =    1.000,"PART-1-1",           345,       13.0826,      -13.6930,            0.,NA,NA,"",   744.045E-03,  -731.694E-03,   135.007E-03,   1.66354E-03
C:/temp/dataset/7/7_8.odb,Step-1,Increment      1: Step Time =    1.000,"PART-1-1",           346,       14.0569,      -14.9678,            0.,NA,NA,"",   705.636E-03,  -683.104E-03,   176.894E-03,   4.36485E-03
C:/temp/dataset/7/7_8.odb,Step-1,Increment      1: Step Time =    1.000,"PART-1-1",           347,           15.,        -13.75,            0.,NA,NA,"",   762.126E-03,  -731.284E-03,   214.614E-03,   1.36946E-03
C:/temp/dataset/7/7_8.odb,Step-1,Increment      1: Step Time =    1.000,"PART-1-1",           348,       14.0257,      -12.4752,            0.,NA,NA,"",   803.147E-03,  -784.084E-03,   173.943E-03,   927.311E-06
C:/temp/dataset/7/7_8.odb,Step-1,Increment      1: Step Time =    1.000,"PART-1-1",           349,       8.13738,      -21.6888,            0.,NA,NA,"",   330.387E-03,  -323.493E-03,  -67.1415E-03,   11.8741E-03
C:/temp/dataset/7/7_8.odb,Step-1,Increment      1: Step Time =    1.000,"PART-1-1",           350,            5.,      -28.9583,            0.,NA,NA,"",   55.1599E-03,  -38.7347E-03,  -39.2714E-03,   39.5741E-03
C:/temp/dataset/7/7_8.odb,Step-1,Increment      1: Step Time =    1.000,"PART-1-1",           351,          6.25,          -30.,            0.,NA,NA,"",            0.,  -2.07738E-39,  -43.2590E-39,   30.0099E-03
C:/temp/dataset/7/7_8.odb,Step-1,Increment      1: Step Time =    1.000,"PART-1-1",           352,       6.22347,      -27.8804,            0.,NA,NA,"",   71.4224E-03,  -55.7216E-03,  -44.6795E-03,   25.7939E-03
C:/temp/dataset/7/7_8.odb,Step-1,Increment      1: Step Time =    1.000,"PART-1-1",           353,           15.,        -28.75,            0.,NA,NA,"",   66.0093E-03,  -46.9467E-03,   46.4030E-03,   39.4197E-03
C:/temp/dataset/7/7_8.odb,Step-1,Increment      1: Step Time =    1.000,"PART-1-1",           354,       13.6900,      -27.4695,            0.,NA,NA,"",   87.8109E-03,  -70.2990E-03,   52.6194E-03,   24.7736E-03
C:/temp/dataset/7/7_8.odb,Step-1,Increment      1: Step Time =    1.000,"PART-1-1",           355,       12.4400,      -28.7195,            0.,NA,NA,"",   26.9351E-03,  -22.7274E-03,   14.4557E-03,   17.0442E-03
C:/temp/dataset/7/7_8.odb,Step-1,Increment      1: Step Time =    1.000,"PART-1-1",           356,         13.75,          -30.,            0.,NA,NA,"",            0.,  -989.011E-42,   42.3954E-39,   30.9722E-03
C:/temp/dataset/7/7_8.odb,Step-1,Increment      1: Step Time =    1.000,"PART-1-1",           357,       9.58617,      -22.6245,            0.,NA,NA,"",   275.363E-03,  -274.883E-03,  -16.2514E-03,   14.5180E-03
C:/temp/dataset/7/7_8.odb,Step-1,Increment      1: Step Time =    1.000,"PART-1-1",           358,       10.0221,      -21.0980,            0.,NA,NA,"",   358.241E-03,  -358.230E-03,  -2.81099E-03,   13.0651E-03
C:/temp/dataset/7/7_8.odb,Step-1,Increment      1: Step Time =    1.000,"PART-1-1",           359,       8.57328,      -20.1623,            0.,NA,NA,"",   408.627E-03,  -404.739E-03,  -56.2289E-03,   9.74404E-03
C:/temp/dataset/7/7_8.odb,Step-1,Increment      1: Step Time =    1.000,"PART-1-1",           360,       11.1406,      -27.5456,            0.,NA,NA,"",   55.5719E-03,  -54.2487E-03,   12.0545E-03,   15.7756E-03
C:/temp/dataset/7/7_8.odb,Step-1,Increment      1: Step Time =    1.000,"PART-1-1",           361,         11.25,          -30.,            0.,NA,NA,"",            0.,  -5.45970E-39,   12.5888E-39,   8.82529E-03
C:/temp/dataset/7/7_8.odb,Step-1,Increment      1: Step Time =    1.000,"PART-1-1",           362,       11.2605,      -16.1933,            0.,NA,NA,"",   618.393E-03,  -616.007E-03,   54.2682E-03,   5.21558E-03
C:/temp/dataset/7/7_8.odb,Step-1,Increment      1: Step Time =    1.000,"PART-1-1",           363,       10.2521,      -15.0492,            0.,NA,NA,"",   664.791E-03,  -664.689E-03,   11.5905E-03,   2.53183E-03
C:/temp/dataset/7/7_8.odb,Step-1,Increment      1: Step Time =    1.000,"PART-1-1",           364,       9.32474,      -16.3084,            0.,NA,NA,"",   603.445E-03,  -602.763E-03,  -28.6946E-03,   4.11134E-03
C:/temp/dataset/7/7_8.odb,Step-1,Increment      1: Step Time =    1.000,"PART-1-1",           365,       10.3331,      -17.4526,            0.,NA,NA,"",   551.046E-03,  -550.888E-03,   13.2056E-03,   6.61534E-03
C:/temp/dataset/7/7_8.odb,Step-1,Increment      1: Step Time =    1.000,"PART-1-1",           366,       7.44248,      -19.0256,            0.,NA,NA,"",   474.567E-03,  -462.865E-03,  -104.741E-03,   6.83088E-03
C:/temp/dataset/7/7_8.odb,Step-1,Increment      1: Step Time =    1.000,"PART-1-1",           367,       6.17612,      -17.5789,            0.,NA,NA,"",   560.172E-03,  -535.269E-03,  -165.165E-03,   2.53138E-03
C:/temp/dataset/7/7_8.odb,Step-1,Increment      1: Step Time =    1.000,"PART-1-1",           368,            5.,      -18.5417,            0.,NA,NA,"",   533.889E-03,  -487.238E-03,  -218.258E-03,   3.12282E-03
C:/temp/dataset/7/7_8.odb,Step-1,Increment      1: Step Time =    1.000,"PART-1-1",           369,       12.8407,      -6.03443,            0.,NA,NA,"",       1.07242,      -1.06602,   116.929E-03,   110.752E-06
C:/temp/dataset/7/7_8.odb,Step-1,Increment      1: Step Time =    1.000,"PART-1-1",           370,           15.,         -6.25,            0.,NA,NA,"",       1.07971,      -1.05863,   212.337E-03,   89.7415E-06
C:/temp/dataset/7/7_8.odb,Step-1,Increment      1: Step Time =    1.000,"PART-1-1",           371,       13.9462,      -4.87251,            0.,NA,NA,"",       1.13046,      -1.11842,   164.540E-03,   33.5497E-06
C:/temp/dataset/7/7_8.odb,Step-1,Increment      1: Step Time =    1.000,"PART-1-1",           372,       7.64514,      -8.69832,            0.,NA,NA,"",   950.247E-03,  -943.905E-03,  -109.608E-03,   198.628E-06
C:/temp/dataset/7/7_8.odb,Step-1,Increment      1: Step Time =    1.000,"PART-1-1",           373,       8.20020,      -7.75016,            0.,NA,NA,"",   989.943E-03,  -986.202E-03,  -85.9891E-03,   170.984E-06
C:/temp/dataset/7/7_8.odb,Step-1,Increment      1: Step Time =    1.000,"PART-1-1",           374,       7.19150,      -7.07454,            0.,NA,NA,"",       1.02350,      -1.01504,  -131.322E-03,   120.379E-06
C:/temp/dataset/7/7_8.odb,Step-1,Increment      1: Step Time =    1.000,"PART-1-1",           375,       7.97278,      -1.35169,            0.,NA,NA,"",       1.27221,      -1.26808,  -102.426E-03,   7.82762E-06
C:/temp/dataset/7/7_8.odb,Step-1,Increment      1: Step Time =    1.000,"PART-1-1",           376,       9.01285,  -423.179E-03,            0.,NA,NA,"",       1.31131,      -1.31005,  -57.4425E-03,   6.29245E-06
C:/temp/dataset/7/7_8.odb,Step-1,Increment      1: Step Time =    1.000,"PART-1-1",           377,       8.04185,   850.611E-03,            0.,NA,NA,"",       1.36907,      -1.36530,  -101.525E-03,   1.24967E-06
C:/temp/dataset/7/7_8.odb,Step-1,Increment      1: Step Time =    1.000,"PART-1-1",           378,       8.08837,       3.05311,            0.,NA,NA,"",       1.46605,      -1.46252,  -101.616E-03,   770.841E-09
C:/temp/dataset/7/7_8.odb,Step-1,Increment      1: Step Time =    1.000,"PART-1-1",           379,       9.11337,       4.08618,            0.,NA,NA,"",       1.51019,      -1.50910,  -57.3982E-03,   797.177E-09
C:/temp/dataset/7/7_8.odb,Step-1,Increment      1: Step Time =    1.000,"PART-1-1",           380,       8.10868,       5.26217,            0.,NA,NA,"",       1.56339,      -1.56001,  -102.870E-03,   579.923E-09
C:/temp/dataset/7/7_8.odb,Step-1,Increment      1: Step Time =    1.000,"PART-1-1",           381,       7.08888,       6.39331,            0.,NA,NA,"",       1.61580,      -1.60892,  -148.966E-03,   464.613E-09
C:/temp/dataset/7/7_8.odb,Step-1,Increment      1: Step Time =    1.000,"PART-1-1",           382,            5.,       6.45833,            0.,NA,NA,"",       1.62772,      -1.60976,  -241.193E-03,   510.379E-09
C:/temp/dataset/7/7_8.odb,Step-1,Increment      1: Step Time =    1.000,"PART-1-1",           383,           15.,         16.25,            0.,NA,NA,"",       2.06034,      -2.05151,   190.485E-03,   210.948E-09
C:/temp/dataset/7/7_8.odb,Step-1,Increment      1: Step Time =    1.000,"PART-1-1",           384,       13.6214,       17.6671,            0.,NA,NA,"",       2.11659,      -2.11269,   128.278E-03,   194.042E-09
C:/temp/dataset/7/7_8.odb,Step-1,Increment      1: Step Time =    1.000,"PART-1-1",           385,       12.4694,       16.3805,            0.,NA,NA,"",       2.05632,      -2.05481,   78.7061E-03,   174.463E-09
C:/temp/dataset/7/7_8.odb,Step-1,Increment      1: Step Time =    1.000,"PART-1-1",           386,       10.0881,       9.74649,            0.,NA,NA,"",       1.75990,      -1.75979,  -19.9031E-03,   160.338E-09
C:/temp/dataset/7/7_8.odb,Step-1,Increment      1: Step Time =    1.000,"PART-1-1",           387,       9.10561,       8.57814,            0.,NA,NA,"",       1.70841,      -1.70728,  -62.1131E-03,   251.661E-09
C:/temp/dataset/7/7_8.odb,Step-1,Increment      1: Step Time =    1.000,"PART-1-1",           388,       10.1162,       7.46436,            0.,NA,NA,"",       1.65921,      -1.65913,  -16.4422E-03,   340.414E-09
C:/temp/dataset/7/7_8.odb,Step-1,Increment      1: Step Time =    1.000,"PART-1-1",           389,       11.0986,       8.63272,            0.,NA,NA,"",       1.71183,      -1.71163,   25.7680E-03,   274.289E-09
C:/temp/dataset/7/7_8.odb,Step-1,Increment      1: Step Time =    1.000,"PART-1-1",           390,       9.96644,       19.4124,            0.,NA,NA,"",       2.18642,      -2.18614,  -34.6823E-03,   163.109E-09
C:/temp/dataset/7/7_8.odb,Step-1,Increment      1: Step Time =    1.000,"PART-1-1",           391,       10.9020,       20.3065,            0.,NA,NA,"",       2.22651,      -2.22650,   5.72509E-03,   174.350E-09
C:/temp/dataset/7/7_8.odb,Step-1,Increment      1: Step Time =    1.000,"PART-1-1",           392,       10.1153,       21.2880,            0.,NA,NA,"",       2.26924,      -2.26904,  -29.9403E-03,   173.956E-09
C:/temp/dataset/7/7_8.odb,Step-1,Increment      1: Step Time =    1.000,"PART-1-1",           393,       9.17975,       20.3940,            0.,NA,NA,"",       2.22979,      -2.22868,  -70.3477E-03,   163.011E-09
C:/temp/dataset/7/7_8.odb,Step-1,Increment      1: Step Time =    1.000,"PART-1-1",           394,           15.,         28.75,            0.,NA,NA,"",       2.60913,      -2.60303,   178.313E-03,   188.104E-09
C:/temp/dataset/7/7_8.odb,Step-1,Increment      1: Step Time =    1.000,"PART-1-1",           395,       14.0625,           30.,            0.,NA,NA,"",       2.66073,      -2.65727,   135.732E-03,   182.486E-09
C:/temp/dataset/7/7_8.odb,Step-1,Increment      1: Step Time =    1.000,"PART-1-1",           396,       13.1487,       28.7914,            0.,NA,NA,"",       2.60485,      -2.60306,   96.5914E-03,   183.190E-09
C:/temp/dataset/7/7_8.odb,Step-1,Increment      1: Step Time =    1.000,"PART-1-1",           397,       14.0862,       27.5414,            0.,NA,NA,"",       2.55262,      -2.54882,   139.172E-03,   188.205E-09
C:/temp/dataset/7/7_8.odb,Step-1,Increment      1: Step Time =    1.000,"PART-1-1",           398,       12.2440,       25.2848,            0.,NA,NA,"",       2.44820,      -2.44746,   60.0874E-03,   189.602E-09
C:/temp/dataset/7/7_8.odb,Step-1,Increment      1: Step Time =    1.000,"PART-1-1",           399,       13.1763,       26.3811,            0.,NA,NA,"",       2.49874,      -2.49674,   100.156E-03,   189.319E-09
C:/temp/dataset/7/7_8.odb,Step-1,Increment      1: Step Time =    1.000,"PART-1-1",           400,       12.2376,       27.6217,            0.,NA,NA,"",       2.55121,      -2.55056,   57.5323E-03,   186.911E-09
C:/temp/dataset/7/7_8.odb,Step-1,Increment      1: Step Time =    1.000,"PART-1-1",           401,       11.3053,       26.5254,            0.,NA,NA,"",       2.50134,      -2.50128,   17.4641E-03,   187.208E-09
C:/temp/dataset/7/7_8.odb,Step-1,Increment      1: Step Time =    1.000,"PART-1-1",           402,       12.1875,           30.,            0.,NA,NA,"",       2.65597,      -2.65544,   53.0046E-03,   179.917E-09
C:/temp/dataset/7/7_8.odb,Step-1,Increment      1: Step Time =    1.000,"PART-1-1",           403,        6.5625,           30.,            0.,NA,NA,"",       2.65715,      -2.64997,  -195.178E-03,   204.098E-09
C:/temp/dataset/7/7_8.odb,Step-1,Increment      1: Step Time =    1.000,"PART-1-1",           404,       5.40000,       28.6589,            0.,NA,NA,"",       2.60124,      -2.58966,  -245.163E-03,   203.339E-09
C:/temp/dataset/7/7_8.odb,Step-1,Increment      1: Step Time =    1.000,"PART-1-1",           405,       6.32063,       27.5176,            0.,NA,NA,"",       2.54834,      -2.54021,  -203.433E-03,   195.314E-09
C:/temp/dataset/7/7_8.odb,Step-1,Increment      1: Step Time =    1.000,"PART-1-1",           406,        2.8125,           30.,            0.,NA,NA,"",       2.67078,      -2.64632,  -360.634E-03,   220.033E-09
C:/temp/dataset/7/7_8.odb,Step-1,Increment      1: Step Time =    1.000,"PART-1-1",           407,       1.86631,       29.3706,            0.,NA,NA,"",       2.64828,      -2.61763,  -401.768E-03,   218.284E-09
C:/temp/dataset/7/7_8.odb,Step-1,Increment      1: Step Time =    1.000,"PART-1-1",           408,       2.52123,       28.3750,            0.,NA,NA,"",       2.60106,      -2.57434,  -371.902E-03,   210.290E-09
C:/temp/dataset/7/7_8.odb,Step-1,Increment      1: Step Time =    1.000,"PART-1-1",           409,       3.46742,       29.0044,            0.,NA,NA,"",       2.62396,      -2.60303,  -330.768E-03,   211.886E-09
C:/temp/dataset/7/7_8.odb,Step-1,Increment      1: Step Time =    1.000,"PART-1-1",           410,       1.19073,       28.4486,            0.,NA,NA,"",       2.61204,      -2.57629,  -430.678E-03,   213.754E-09
C:/temp/dataset/7/7_8.odb,Step-1,Increment      1: Step Time =    1.000,"PART-1-1",           411,      -2.48443,       27.9761,            0.,NA,NA,"",       2.61971,      -2.55186,  -592.371E-03,   216.562E-09
C:/temp/dataset/7/7_8.odb,Step-1,Increment      1: Step Time =    1.000,"PART-1-1",           412,       -2.8125,           30.,            0.,NA,NA,"",       2.71011,      -2.64084,  -608.817E-03,   225.800E-09
C:/temp/dataset/7/7_8.odb,Step-1,Increment      1: Step Time =    1.000,"PART-1-1",           413,      -7.28733,       29.0238,            0.,NA,NA,"",       2.71556,      -2.59341,  -805.303E-03,   222.307E-09
C:/temp/dataset/7/7_8.odb,Step-1,Increment      1: Step Time =    1.000,"PART-1-1",           414,      -6.19423,       28.1363,            0.,NA,NA,"",       2.66486,      -2.55532,  -756.209E-03,   219.662E-09
C:/temp/dataset/7/7_8.odb,Step-1,Increment      1: Step Time =    1.000,"PART-1-1",           415,       -6.5625,           30.,            0.,NA,NA,"",       2.74850,      -2.63719,  -774.273E-03,   225.299E-09
C:/temp/dataset/7/7_8.odb,Step-1,Increment      1: Step Time =    1.000,"PART-1-1",           416,      -11.8079,       27.5253,            0.,NA,NA,"",       2.71507,      -2.52289,      -1.00330,   218.542E-09
C:/temp/dataset/7/7_8.odb,Step-1,Increment      1: Step Time =    1.000,"PART-1-1",           417,      -12.6125,       26.1842,            0.,NA,NA,"",       2.67254,      -2.46294,      -1.03749,   217.213E-09
C:/temp/dataset/7/7_8.odb,Step-1,Increment      1: Step Time =    1.000,"PART-1-1",           418,      -8.13992,       23.4434,            0.,NA,NA,"",       2.49135,      -2.34636,  -837.486E-03,   211.491E-09
C:/temp/dataset/7/7_8.odb,Step-1,Increment      1: Step Time =    1.000,"PART-1-1",           419,       -8.4375,           30.,            0.,NA,NA,"",       2.77121,      -2.63536,  -857.001E-03,   224.522E-09
C:/temp/dataset/7/7_8.odb,Step-1,Increment      1: Step Time =    1.000,"PART-1-1",           420,      -8.00049,       27.9480,            0.,NA,NA,"",       2.67894,      -2.54525,  -835.721E-03,   219.614E-09
C:/temp/dataset/7/7_8.odb,Step-1,Increment      1: Step Time =    1.000,"PART-1-1",           421,      -12.1875,           30.,            0.,NA,NA,"",       2.82335,      -2.63171,      -1.02246,   222.420E-09
C:/temp/dataset/7/7_8.odb,Step-1,Increment      1: Step Time =    1.000,"PART-1-1",           422,          -15.,         26.25,            0.,NA,NA,"",       2.71572,      -2.46352,      -1.14290,   215.247E-09
C:/temp/dataset/7/7_8.odb,Step-1,Increment      1: Step Time =    1.000,"PART-1-1",           423,  -614.199E-03,       25.3895,            0.,NA,NA,"",       2.49175,      -2.43956,  -507.335E-03,   203.563E-09
C:/temp/dataset/7/7_8.odb,Step-1,Increment      1: Step Time =    1.000,"PART-1-1",           424,      -1.97220,       26.8586,            0.,NA,NA,"",       2.56684,      -2.50305,  -568.683E-03,   211.777E-09
C:/temp/dataset/7/7_8.odb,Step-1,Increment      1: Step Time =    1.000,"PART-1-1",           425,      -1.74113,       25.3247,            0.,NA,NA,"",       2.49848,      -2.43560,  -556.994E-03,   205.641E-09
C:/temp/dataset/7/7_8.odb,Step-1,Increment      1: Step Time =    1.000,"PART-1-1",           426,       8.18659,       21.6045,            0.,NA,NA,"",       2.28404,      -2.28113,  -115.346E-03,   165.716E-09
C:/temp/dataset/7/7_8.odb,Step-1,Increment      1: Step Time =    1.000,"PART-1-1",           427,       9.25192,       22.4602,            0.,NA,NA,"",       2.32095,      -2.31992,  -69.1756E-03,   174.859E-09
C:/temp/dataset/7/7_8.odb,Step-1,Increment      1: Step Time =    1.000,"PART-1-1",           428,       8.38526,       23.6138,            0.,NA,NA,"",       2.37246,      -2.36998,  -108.537E-03,   178.930E-09
C:/temp/dataset/7/7_8.odb,Step-1,Increment      1: Step Time =    1.000,"PART-1-1",           429,       7.31993,       22.7581,            0.,NA,NA,"",       2.33631,      -2.33118,  -154.707E-03,   169.640E-09
C:/temp/dataset/7/7_8.odb,Step-1,Increment      1: Step Time =    1.000,"PART-1-1",           430,           15.,         26.25,            0.,NA,NA,"",       2.49927,      -2.49273,   180.748E-03,   193.011E-09
C:/temp/dataset/7/7_8.odb,Step-1,Increment      1: Step Time =    1.000,"PART-1-1",           431,        4.6875,           30.,            0.,NA,NA,"",       2.66268,      -2.64814,  -277.906E-03,   213.622E-09
C:/temp/dataset/7/7_8.odb,Step-1,Increment      1: Step Time =    1.000,"PART-1-1",           432,       9.38339,       24.5308,            0.,NA,NA,"",       2.41229,      -2.41141,  -65.3911E-03,   183.462E-09
C:/temp/dataset/7/7_8.odb,Step-1,Increment      1: Step Time =    1.000,"PART-1-1",           433,       8.53172,       25.6694,            0.,NA,NA,"",       2.46301,      -2.46081,  -104.077E-03,   186.870E-09
C:/temp/dataset/7/7_8.odb,Step-1,Increment      1: Step Time =    1.000,"PART-1-1",           434,       7.53359,       24.7524,            0.,NA,NA,"",       2.42386,      -2.41938,  -147.223E-03,   182.786E-09
C:/temp/dataset/7/7_8.odb,Step-1,Increment      1: Step Time =    1.000,"PART-1-1",           435,     937.5E-03,           30.,            0.,NA,NA,"",       2.68140,      -2.64449,  -443.361E-03,   223.887E-09
C:/temp/dataset/7/7_8.odb,Step-1,Increment      1: Step Time =    1.000,"PART-1-1",           436,       5.64845,       26.5466,            0.,NA,NA,"",       2.50748,      -2.49671,  -232.145E-03,   192.907E-09
C:/temp/dataset/7/7_8.odb,Step-1,Increment      1: Step Time =    1.000,"PART-1-1",           437,       4.65082,       24.6490,            0.,NA,NA,"",       2.42756,      -2.41201,  -274.314E-03,   185.456E-09
C:/temp/dataset/7/7_8.odb,Step-1,Increment      1: Step Time =    1.000,"PART-1-1",           438,       5.82711,       24.9927,            0.,NA,NA,"",       2.43852,      -2.42832,  -222.749E-03,   184.303E-09
C:/temp/dataset/7/7_8.odb,Step-1,Increment      1: Step Time =    1.000,"PART-1-1",           439,      -3.57200,       27.5772,            0.,NA,NA,"",       2.61279,      -2.53320,  -639.968E-03,   216.234E-09
C:/temp/dataset/7/7_8.odb,Step-1,Increment      1: Step Time =    1.000,"PART-1-1",           440,      -3.05977,       26.4597,            0.,NA,NA,"",       2.55969,      -2.48439,  -616.280E-03,   211.649E-09
C:/temp/dataset/7/7_8.odb,Step-1,Increment      1: Step Time =    1.000,"PART-1-1",           441,      -4.23358,       26.7178,            0.,NA,NA,"",       2.58261,      -2.49464,  -668.321E-03,   214.029E-09
C:/temp/dataset/7/7_8.odb,Step-1,Increment      1: Step Time =    1.000,"PART-1-1",           442,      -5.07335,       27.3652,            0.,NA,NA,"",       2.61933,      -2.52238,  -706.004E-03,   216.793E-09
C:/temp/dataset/7/7_8.odb,Step-1,Increment      1: Step Time =    1.000,"PART-1-1",           443,      -5.65848,       26.3267,            0.,NA,NA,"",       2.58160,      -2.47600,  -730.809E-03,   214.385E-09
C:/temp/dataset/7/7_8.odb,Step-1,Increment      1: Step Time =    1.000,"PART-1-1",           444,      -6.77936,       27.0978,            0.,NA,NA,"",       2.62768,      -2.50893,  -781.015E-03,   217.180E-09
C:/temp/dataset/7/7_8.odb,Step-1,Increment      1: Step Time =    1.000,"PART-1-1",           445,       13.0726,       6.26892,            0.,NA,NA,"",       1.61338,      -1.60926,   115.166E-03,   476.414E-09
C:/temp/dataset/7/7_8.odb,Step-1,Increment      1: Step Time =    1.000,"PART-1-1",           446,       14.0382,       5.02867,            0.,NA,NA,"",       1.56358,      -1.55548,   158.976E-03,   510.653E-09
C:/temp/dataset/7/7_8.odb,Step-1,Increment      1: Step Time =    1.000,"PART-1-1",           447,           15.,          6.25,            0.,NA,NA,"",       1.62270,      -1.61030,   200.222E-03,   367.384E-09
C:/temp/dataset/7/7_8.odb,Step-1,Increment      1: Step Time =    1.000,"PART-1-1",           448,       14.0344,       7.49025,            0.,NA,NA,"",       1.67142,      -1.66408,   156.412E-03,   183.088E-09
C:/temp/dataset/7/7_8.odb,Step-1,Increment      1: Step Time =    1.000,"PART-1-1",           449,            5.,       12.7083,            0.,NA,NA,"",       1.90166,      -1.88551,  -247.280E-03,   121.856E-09
C:/temp/dataset/7/7_8.odb,Step-1,Increment      1: Step Time =    1.000,"PART-1-1",           450,       6.97129,       12.7632,            0.,NA,NA,"",       1.89664,      -1.88985,  -160.357E-03,   115.423E-09
C:/temp/dataset/7/7_8.odb,Step-1,Increment      1: Step Time =    1.000,"PART-1-1",           451,       8.08110,       9.66220,            0.,NA,NA,"",       1.75746,      -1.75411,  -108.371E-03,   131.786E-09
C:/temp/dataset/7/7_8.odb,Step-1,Increment      1: Step Time =    1.000,"PART-1-1",           452,       8.10192,       7.46894,            0.,NA,NA,"",       1.66071,      -1.65737,  -105.317E-03,   288.284E-09
C:/temp/dataset/7/7_8.odb,Step-1,Increment      1: Step Time =    1.000,"PART-1-1",           453,            5.,        -1.875,            0.,NA,NA,"",       1.26379,      -1.24211,  -233.064E-03,   1.29810E-06
C:/temp/dataset/7/7_8.odb,Step-1,Increment      1: Step Time =    1.000,"PART-1-1",           454,       6.91011,      -2.19684,            0.,NA,NA,"",       1.23871,      -1.22977,  -148.489E-03,   14.0832E-06
C:/temp/dataset/7/7_8.odb,Step-1,Increment      1: Step Time =    1.000,"PART-1-1",           455,       11.0205,  -751.161E-03,            0.,NA,NA,"",       1.29790,      -1.29752,   31.4585E-03,   8.05610E-06
C:/temp/dataset/7/7_8.odb,Step-1,Increment      1: Step Time =    1.000,"PART-1-1",           456,       13.1408,      -16.1676,            0.,NA,NA,"",   642.669E-03,  -628.275E-03,   135.256E-03,   6.72855E-03
C:/temp/dataset/7/7_8.odb,Step-1,Increment      1: Step Time =    1.000,"PART-1-1",           457,       14.0839,      -17.4497,            0.,NA,NA,"",   602.188E-03,  -577.080E-03,   172.074E-03,   8.35148E-03
C:/temp/dataset/7/7_8.odb,Step-1,Increment      1: Step Time =    1.000,"PART-1-1",           458,           15.,        -16.25,            0.,NA,NA,"",   673.690E-03,  -638.872E-03,   213.779E-03,   6.85694E-03
C:/temp/dataset/7/7_8.odb,Step-1,Increment      1: Step Time =    1.000,"PART-1-1",           459,            5.,       -14.375,            0.,NA,NA,"",   722.493E-03,  -686.825E-03,  -224.204E-03,   598.003E-06
C:/temp/dataset/7/7_8.odb,Step-1,Increment      1: Step Time =    1.000,"PART-1-1",           460,       6.11916,      -15.3567,            0.,NA,NA,"",   665.051E-03,  -642.474E-03,  -171.816E-03,   731.519E-06
C:/temp/dataset/7/7_8.odb,Step-1,Increment      1: Step Time =    1.000,"PART-1-1",           461,       13.0403,       1.40949,            0.,NA,NA,"",       1.39984,      -1.39482,   118.469E-03,   561.880E-09
C:/temp/dataset/7/7_8.odb,Step-1,Increment      1: Step Time =    1.000,"PART-1-1",           462,       14.0142,   96.5788E-03,            0.,NA,NA,"",       1.34770,      -1.33784,   162.721E-03,   1.36169E-06
C:/temp/dataset/7/7_8.odb,Step-1,Increment      1: Step Time =    1.000,"PART-1-1",           463,           15.,          1.25,            0.,NA,NA,"",       1.40475,      -1.38969,   205.097E-03,   2.31661E-06
C:/temp/dataset/7/7_8.odb,Step-1,Increment      1: Step Time =    1.000,"PART-1-1",           464,       14.0261,       2.56291,            0.,NA,NA,"",       1.45559,      -1.44667,   160.845E-03,   1.08615E-06
C:/temp/dataset/7/7_8.odb,Step-1,Increment      1: Step Time =    1.000,"PART-1-1",           465,            5.,      -10.2083,            0.,NA,NA,"",   903.123E-03,  -874.439E-03,  -225.802E-03,   424.922E-06
C:/temp/dataset/7/7_8.odb,Step-1,Increment      1: Step Time =    1.000,"PART-1-1",           466,       6.86187,      -9.97015,            0.,NA,NA,"",   898.504E-03,  -887.021E-03,  -143.189E-03,   243.278E-06
C:/temp/dataset/7/7_8.odb,Step-1,Increment      1: Step Time =    1.000,"PART-1-1",           467,            5.,      -24.7917,            0.,NA,NA,"",   240.047E-03,  -186.048E-03,  -151.687E-03,   20.4026E-03
C:/temp/dataset/7/7_8.odb,Step-1,Increment      1: Step Time =    1.000,"PART-1-1",           468,       6.13477,      -25.7685,            0.,NA,NA,"",   163.651E-03,  -136.104E-03,  -90.8705E-03,   19.9969E-03
C:/temp/dataset/7/7_8.odb,Step-1,Increment      1: Step Time =    1.000,"PART-1-1",           469,       13.1299,      -20.9468,            0.,NA,NA,"",   403.022E-03,  -386.774E-03,   113.283E-03,   14.3808E-03
C:/temp/dataset/7/7_8.odb,Step-1,Increment      1: Step Time =    1.000,"PART-1-1",           470,       14.0295,      -22.3095,            0.,NA,NA,"",   347.559E-03,  -317.856E-03,   140.586E-03,   15.2526E-03
C:/temp/dataset/7/7_8.odb,Step-1,Increment      1: Step Time =    1.000,"PART-1-1",           471,           15.,        -21.25,            0.,NA,NA,"",   439.074E-03,  -390.696E-03,   200.356E-03,   12.3337E-03
C:/temp/dataset/7/7_8.odb,Step-1,Increment      1: Step Time =    1.000,"PART-1-1",           472,       14.1003,      -19.8873,            0.,NA,NA,"",   482.866E-03,  -454.215E-03,   163.854E-03,   10.6477E-03
C:/temp/dataset/7/7_8.odb,Step-1,Increment      1: Step Time =    1.000,"PART-1-1",           473,            5.,       -26.875,            0.,NA,NA,"",   149.534E-03,  -105.741E-03,  -105.732E-03,   28.9621E-03
C:/temp/dataset/7/7_8.odb,Step-1,Increment      1: Step Time =    1.000,"PART-1-1",           474,       7.35824,      -26.7740,            0.,NA,NA,"",   97.1396E-03,  -86.9840E-03,  -43.2423E-03,   19.2876E-03
C:/temp/dataset/7/7_8.odb,Step-1,Increment      1: Step Time =    1.000,"PART-1-1",           475,       11.2665,      -23.4125,            0.,NA,NA,"",   240.155E-03,  -237.886E-03,   32.9342E-03,   15.7424E-03
C:/temp/dataset/7/7_8.odb,Step-1,Increment      1: Step Time =    1.000,"PART-1-1",           476,       10.8283,      -24.9299,            0.,NA,NA,"",   161.091E-03,  -160.197E-03,   16.9470E-03,   15.7558E-03
C:/temp/dataset/7/7_8.odb,Step-1,Increment      1: Step Time =    1.000,"PART-1-1",           477,            5.,      -16.4583,            0.,NA,NA,"",   629.605E-03,  -588.874E-03,  -222.777E-03,   468.771E-06
C:/temp/dataset/7/7_8.odb,Step-1,Increment      1: Step Time =    1.000,"PART-1-1",           478,       7.29529,      -16.4772,            0.,NA,NA,"",   601.778E-03,  -590.311E-03,  -116.920E-03,   2.89464E-03
C:/temp/dataset/7/7_8.odb,Step-1,Increment      1: Step Time =    1.000,"PART-1-1",           479,            5.,       18.9583,            0.,NA,NA,"",       2.17607,      -2.16127,  -253.366E-03,   126.584E-09
C:/temp/dataset/7/7_8.odb,Step-1,Increment      1: Step Time =    1.000,"PART-1-1",           480,       6.05050,       17.7875,            0.,NA,NA,"",       2.12065,      -2.11063,  -205.876E-03,   137.333E-09
C:/temp/dataset/7/7_8.odb,Step-1,Increment      1: Step Time =    1.000,"PART-1-1",           481,       7.11573,       18.6629,            0.,NA,NA,"",       2.15622,      -2.15030,  -159.729E-03,   140.267E-09
C:/temp/dataset/7/7_8.odb,Step-1,Increment      1: Step Time =    1.000,"PART-1-1",           482,       6.06524,       19.8338,            0.,NA,NA,"",       2.21067,      -2.20094,  -207.219E-03,   128.384E-09
C:/temp/dataset/7/7_8.odb,Step-1,Increment      1: Step Time =    1.000,"PART-1-1",           483,       6.98524,       16.7251,            0.,NA,NA,"",       2.07114,      -2.06467,  -163.600E-03,   132.248E-09
C:/temp/dataset/7/7_8.odb,Step-1,Increment      1: Step Time =    1.000,"PART-1-1",           484,            5.,        16.875,            0.,NA,NA,"",       2.08456,      -2.06935,  -251.337E-03,   135.669E-09
C:/temp/dataset/7/7_8.odb,Step-1,Increment      1: Step Time =    1.000,"PART-1-1",           485,       7.88091,       13.8682,            0.,NA,NA,"",       1.94328,      -1.93950,  -121.300E-03,   122.763E-09
C:/temp/dataset/7/7_8.odb,Step-1,Increment      1: Step Time =    1.000,"PART-1-1",           486,       7.65947,       15.6945,            0.,NA,NA,"",       2.02422,      -2.01986,  -132.848E-03,   131.704E-09
C:/temp/dataset/7/7_8.odb,Step-1,Increment      1: Step Time =    1.000,"PART-1-1",           487,       8.92157,       12.9075,            0.,NA,NA,"",       1.89958,      -1.89812,  -74.4490E-03,   120.302E-09
C:/temp/dataset/7/7_8.odb,Step-1,Increment      1: Step Time =    1.000,"PART-1-1",           488,       9.98918,       11.9956,            0.,NA,NA,"",       1.85911,      -1.85893,  -26.4566E-03,   126.055E-09
C:/temp/dataset/7/7_8.odb,Step-1,Increment      1: Step Time =    1.000,"PART-1-1",           489,       10.7968,       13.3004,            0.,NA,NA,"",       1.91730,      -1.91728,   7.90553E-03,   141.020E-09
C:/temp/dataset/7/7_8.odb,Step-1,Increment      1: Step Time =    1.000,"PART-1-1",           490,       13.0565,       8.69239,            0.,NA,NA,"",       1.71983,      -1.71617,   112.092E-03,   224.427E-09
C:/temp/dataset/7/7_8.odb,Step-1,Increment      1: Step Time =    1.000,"PART-1-1",           491,           15.,          8.75,            0.,NA,NA,"",       1.73194,      -1.72061,   197.787E-03,   114.205E-09
C:/temp/dataset/7/7_8.odb,Step-1,Increment      1: Step Time =    1.000,"PART-1-1",           492,       14.0220,       9.95215,            0.,NA,NA,"",       1.77932,      -1.77269,   153.468E-03,   158.669E-09
C:/temp/dataset/7/7_8.odb,Step-1,Increment      1: Step Time =    1.000,"PART-1-1",           493,       8.15713,      -6.43409,            0.,NA,NA,"",       1.04797,      -1.04416,  -89.2544E-03,   116.025E-06
C:/temp/dataset/7/7_8.odb,Step-1,Increment      1: Step Time =    1.000,"PART-1-1",           494,       7.55707,      -5.50995,            0.,NA,NA,"",       1.09059,      -1.08433,  -116.697E-03,   69.4017E-06
C:/temp/dataset/7/7_8.odb,Step-1,Increment      1: Step Time =    1.000,"PART-1-1",           495,       13.0039,      -1.03047,            0.,NA,NA,"",       1.29263,      -1.28712,   119.239E-03,   6.97560E-06
C:/temp/dataset/7/7_8.odb,Step-1,Increment      1: Step Time =    1.000,"PART-1-1",           496,       13.9897,      -2.37705,            0.,NA,NA,"",       1.23955,      -1.22865,   164.050E-03,   6.37864E-06
C:/temp/dataset/7/7_8.odb,Step-1,Increment      1: Step Time =    1.000,"PART-1-1",           497,           15.,         -1.25,            0.,NA,NA,"",       1.29610,      -1.27937,   207.539E-03,   839.501E-09
C:/temp/dataset/7/7_8.odb,Step-1,Increment      1: Step Time =    1.000,"PART-1-1",           498,       11.0188,      -11.3444,            0.,NA,NA,"",   831.349E-03,  -830.248E-03,   42.7706E-03,   313.006E-06
C:/temp/dataset/7/7_8.odb,Step-1,Increment      1: Step Time =    1.000,"PART-1-1",           499,       9.94563,      -10.3262,            0.,NA,NA,"",   874.154E-03,  -874.135E-03,  -5.77946E-03,   298.771E-06
C:/temp/dataset/7/7_8.odb,Step-1,Increment      1: Step Time =    1.000,"PART-1-1",           500,       9.07908,      -11.6768,            0.,NA,NA,"",   814.770E-03,  -813.656E-03,  -42.5904E-03,   271.696E-06
C:/temp/dataset/7/7_8.odb,Step-1,Increment      1: Step Time =    1.000,"PART-1-1",           501,       10.1523,      -12.6950,            0.,NA,NA,"",   769.873E-03,  -769.849E-03,   6.08419E-03,   478.129E-06
C:/temp/dataset/7/7_8.odb,Step-1,Increment      1: Step Time =    1.000,"PART-1-1",           502,       11.2699,       24.2837,            0.,NA,NA,"",       2.40241,      -2.40234,   18.0856E-03,   186.560E-09
C:/temp/dataset/7/7_8.odb,Step-1,Increment      1: Step Time =    1.000,"PART-1-1",           503,       12.1787,       22.9892,            0.,NA,NA,"",       2.34686,      -2.34611,   59.4436E-03,   189.265E-09
C:/temp/dataset/7/7_8.odb,Step-1,Increment      1: Step Time =    1.000,"PART-1-1",           504,           15.,         -3.75,            0.,NA,NA,"",       1.18773,      -1.16902,   209.969E-03,   17.3063E-06
C:/temp/dataset/7/7_8.odb,Step-1,Increment      1: Step Time =    1.000,"PART-1-1",           505,       12.9359,      -3.49956,            0.,NA,NA,"",       1.18403,      -1.17807,   118.646E-03,   30.7584E-06
C:/temp/dataset/7/7_8.odb,Step-1,Increment      1: Step Time =    1.000,"PART-1-1",           506,           15.,        -11.25,            0.,NA,NA,"",   865.722E-03,  -838.416E-03,   215.717E-03,   812.676E-06
C:/temp/dataset/7/7_8.odb,Step-1,Increment      1: Step Time =    1.000,"PART-1-1",           507,       12.9838,      -11.1958,            0.,NA,NA,"",   848.297E-03,  -838.536E-03,   128.317E-03,   403.282E-06
C:/temp/dataset/7/7_8.odb,Step-1,Increment      1: Step Time =    1.000,"PART-1-1",           508,           15.,         11.25,            0.,NA,NA,"",       1.84130,      -1.83091,   195.353E-03,   181.720E-09
C:/temp/dataset/7/7_8.odb,Step-1,Increment      1: Step Time =    1.000,"PART-1-1",           509,       12.9950,       11.1325,            0.,NA,NA,"",       1.82691,      -1.82377,   107.004E-03,   160.454E-09
C:/temp/dataset/7/7_8.odb,Step-1,Increment      1: Step Time =    1.000,"PART-1-1",           510,           15.,          3.75,            0.,NA,NA,"",       1.51363,      -1.50000,   202.658E-03,   1.18665E-06
C:/temp/dataset/7/7_8.odb,Step-1,Increment      1: Step Time =    1.000,"PART-1-1",           511,       13.0643,       3.84158,            0.,NA,NA,"",       1.50672,      -1.50216,   117.163E-03,   758.576E-09
C:/temp/dataset/7/7_8.odb,Step-1,Increment      1: Step Time =    1.000,"PART-1-1",           512,           15.,        -18.75,            0.,NA,NA,"",   562.451E-03,  -521.033E-03,   211.840E-03,   8.28897E-03
C:/temp/dataset/7/7_8.odb,Step-1,Increment      1: Step Time =    1.000,"PART-1-1",           513,       13.1842,      -18.5870,            0.,NA,NA,"",   529.359E-03,  -513.484E-03,   128.669E-03,   10.1781E-03
C:/temp/dataset/7/7_8.odb,Step-1,Increment      1: Step Time =    1.000,"PART-1-1",           514,       13.5513,      -24.7801,            0.,NA,NA,"",   204.811E-03,  -181.446E-03,   95.0000E-03,   17.2511E-03
C:/temp/dataset/7/7_8.odb,Step-1,Increment      1: Step Time =    1.000,"PART-1-1",           515,       12.2413,      -25.9996,            0.,NA,NA,"",   125.044E-03,  -117.406E-03,   43.0318E-03,   17.4285E-03
C:/temp/dataset/7/7_8.odb,Step-1,Increment      1: Step Time =    1.000,"PART-1-1",           516,           15.,        -26.25,            0.,NA,NA,"",   179.775E-03,  -132.878E-03,   121.088E-03,   28.0104E-03
C:/temp/dataset/7/7_8.odb,Step-1,Increment      1: Step Time =    1.000,"PART-1-1",           517,           15.,        -23.75,            0.,NA,NA,"",   298.435E-03,  -244.537E-03,   171.071E-03,   18.8054E-03
C:/temp/dataset/7/7_8.odb,Step-1,Increment      1: Step Time =    1.000,"PART-1-1",           518,       12.5809,      -23.3397,            0.,NA,NA,"",   259.854E-03,  -248.853E-03,   74.8073E-03,   16.1496E-03
C:/temp/dataset/7/7_8.odb,Step-1,Increment      1: Step Time =    1.000,"PART-1-1",           519,       9.49127,      -18.7202,            0.,NA,NA,"",   483.435E-03,  -482.936E-03,  -21.9670E-03,   8.43358E-03
C:/temp/dataset/7/7_8.odb,Step-1,Increment      1: Step Time =    1.000,"PART-1-1",           520,       8.36047,      -17.5836,            0.,NA,NA,"",   542.046E-03,  -537.632E-03,  -69.0299E-03,   5.07029E-03
C:/temp/dataset/7/7_8.odb,Step-1,Increment      1: Step Time =    1.000,"PART-1-1",           521,       11.5260,      -20.5498,            0.,NA,NA,"",   399.270E-03,  -395.818E-03,   52.3921E-03,   13.2289E-03
C:/temp/dataset/7/7_8.odb,Step-1,Increment      1: Step Time =    1.000,"PART-1-1",           522,       10.5221,      -19.7870,            0.,NA,NA,"",   431.506E-03,  -431.174E-03,   16.9379E-03,   11.1585E-03
C:/temp/dataset/7/7_8.odb,Step-1,Increment      1: Step Time =    1.000,"PART-1-1",           523,       11.0260,      -21.8608,            0.,NA,NA,"",   322.326E-03,  -320.919E-03,   30.0743E-03,   14.7679E-03
C:/temp/dataset/7/7_8.odb,Step-1,Increment      1: Step Time =    1.000,"PART-1-1",           524,       7.98010,      -10.7619,            0.,NA,NA,"",   858.099E-03,  -853.093E-03,  -92.5524E-03,   239.376E-06
C:/temp/dataset/7/7_8.odb,Step-1,Increment      1: Step Time =    1.000,"PART-1-1",           525,       8.65118,      -4.78401,            0.,NA,NA,"",       1.11949,      -1.11736,  -69.0980E-03,   66.6546E-06
C:/temp/dataset/7/7_8.odb,Step-1,Increment      1: Step Time =    1.000,"PART-1-1",           526,       7.84665,      -3.50518,            0.,NA,NA,"",       1.17775,      -1.17298,  -105.884E-03,   28.1337E-06
C:/temp/dataset/7/7_8.odb,Step-1,Increment      1: Step Time =    1.000,"PART-1-1",           527,       9.43586,      -6.49799,            0.,NA,NA,"",       1.04301,      -1.04250,  -32.6785E-03,   121.434E-06
C:/temp/dataset/7/7_8.odb,Step-1,Increment      1: Step Time =    1.000,"PART-1-1",           528,       10.6293,      -5.79077,            0.,NA,NA,"",       1.07493,      -1.07476,   19.2335E-03,   103.296E-06
C:/temp/dataset/7/7_8.odb,Step-1,Increment      1: Step Time =    1.000,"PART-1-1",           529,       11.1144,       3.95682,            0.,NA,NA,"",       1.50566,      -1.50534,   31.0147E-03,   820.718E-09
C:/temp/dataset/7/7_8.odb,Step-1,Increment      1: Step Time =    1.000,"PART-1-1",           530,       10.1270,       5.17226,            0.,NA,NA,"",       1.55807,      -1.55801,  -13.7334E-03,   672.317E-09
C:/temp/dataset/7/7_8.odb,Step-1,Increment      1: Step Time =    1.000,"PART-1-1",           531,       9.05317,       10.7826,            0.,NA,NA,"",       1.80572,      -1.80450,  -66.5735E-03,   130.299E-09
C:/temp/dataset/7/7_8.odb,Step-1,Increment      1: Step Time =    1.000,"PART-1-1",           532,       8.01195,       11.8024,            0.,NA,NA,"",       1.85196,      -1.84848,  -113.506E-03,   109.330E-09
C:/temp/dataset/7/7_8.odb,Step-1,Increment      1: Step Time =    1.000,"PART-1-1",           533,       11.0241,       10.9595,            0.,NA,NA,"",       1.81433,      -1.81422,   20.2139E-03,   154.371E-09
C:/temp/dataset/7/7_8.odb,Step-1,Increment      1: Step Time =    1.000,"PART-1-1",           534,       8.35051,       17.3209,            0.,NA,NA,"",       2.09487,      -2.09229,  -103.942E-03,   140.369E-09
C:/temp/dataset/7/7_8.odb,Step-1,Increment      1: Step Time =    1.000,"PART-1-1",           535,       12.5952,       19.1415,            0.,NA,NA,"",       2.17828,      -2.17675,   81.5646E-03,   184.547E-09
C:/temp/dataset/7/7_8.odb,Step-1,Increment      1: Step Time =    1.000,"PART-1-1",           536,           15.,         18.75,            0.,NA,NA,"",       2.16998,      -2.16182,   188.050E-03,   212.033E-09
C:/temp/dataset/7/7_8.odb,Step-1,Increment      1: Step Time =    1.000,"PART-1-1",           537,      -7.03326,       22.4462,            0.,NA,NA,"",       2.43440,      -2.30345,  -787.688E-03,   208.123E-09
C:/temp/dataset/7/7_8.odb,Step-1,Increment      1: Step Time =    1.000,"PART-1-1",           538,      -8.48458,       21.3302,            0.,NA,NA,"",       2.40804,      -2.25279,  -850.635E-03,   209.231E-09
C:/temp/dataset/7/7_8.odb,Step-1,Increment      1: Step Time =    1.000,"PART-1-1",           539,      -6.65000,           20.,            0.,NA,NA,"",       2.32645,      -2.19589,  -768.396E-03,   204.093E-09
C:/temp/dataset/7/7_8.odb,Step-1,Increment      1: Step Time =    1.000,"PART-1-1",           540,      -5.19869,       21.1160,            0.,NA,NA,"",       2.35470,      -2.24654,  -705.449E-03,   202.759E-09
C:/temp/dataset/7/7_8.odb,Step-1,Increment      1: Step Time =    1.000,"PART-1-1",           541,       9.42603,       26.6587,            0.,NA,NA,"",       2.50619,      -2.50533,  -65.5819E-03,   187.668E-09
C:/temp/dataset/7/7_8.odb,Step-1,Increment      1: Step Time =    1.000,"PART-1-1",           542,       10.3720,       25.4897,            0.,NA,NA,"",       2.45478,      -2.45467,  -22.7070E-03,   187.160E-09
C:/temp/dataset/7/7_8.odb,Step-1,Increment      1: Step Time =    1.000,"PART-1-1",           543,       6.87457,       25.7626,            0.,NA,NA,"",       2.46968,      -2.46331,  -177.283E-03,   187.699E-09
C:/temp/dataset/7/7_8.odb,Step-1,Increment      1: Step Time =    1.000,"PART-1-1",           544,       7.54675,       26.7337,            0.,NA,NA,"",       2.51121,      -2.50681,  -148.571E-03,   190.105E-09
C:/temp/dataset/7/7_8.odb,Step-1,Increment      1: Step Time =    1.000,"PART-1-1",           545,      -3.17643,       25.4018,            0.,NA,NA,"",       2.51532,      -2.43760,  -620.397E-03,   208.552E-09
C:/temp/dataset/7/7_8.odb,Step-1,Increment      1: Step Time =    1.000,"PART-1-1",           546,      -4.35024,       25.6599,            0.,NA,NA,"",       2.53853,      -2.44785,  -672.438E-03,   211.035E-09
C:/temp/dataset/7/7_8.odb,Step-1,Increment      1: Step Time =    1.000,"PART-1-1",           547,       4.01884,       22.4610,            0.,NA,NA,"",       2.33423,      -2.31486,  -300.067E-03,   175.979E-09
C:/temp/dataset/7/7_8.odb,Step-1,Increment      1: Step Time =    1.000,"PART-1-1",           548,       5.32127,       23.1739,            0.,NA,NA,"",       2.36016,      -2.34758,  -243.296E-03,   175.171E-09
C:/temp/dataset/7/7_8.odb,Step-1,Increment      1: Step Time =    1.000,"PART-1-1",           549,       11.1447,       22.1526,            0.,NA,NA,"",       2.30824,      -2.30819,   14.6369E-03,   182.127E-09
C:/temp/dataset/7/7_8.odb,Step-1,Increment      1: Step Time =    1.000,"PART-1-1",           550,       10.2813,       23.3249,            0.,NA,NA,"",       2.35920,      -2.35907,  -24.5984E-03,   182.747E-09
C:/temp/dataset/7/7_8.odb,Step-1,Increment      1: Step Time =    1.000,"PART-1-1",           551,       6.15508,       21.9496,            0.,NA,NA,"",       2.30354,      -2.29437,  -205.315E-03,   162.304E-09
C:/temp/dataset/7/7_8.odb,Step-1,Increment      1: Step Time =    1.000,"PART-1-1",           552,       6.48612,       23.9825,            0.,NA,NA,"",       2.39216,      -2.38439,  -192.689E-03,   179.942E-09
C:/temp/dataset/7/7_8.odb,Step-1,Increment      1: Step Time =    1.000,"PART-1-1",           553,   6.30745E-03,       24.2683,            0.,NA,NA,"",       2.43818,      -2.39069,  -478.866E-03,   197.875E-09
C:/temp/dataset/7/7_8.odb,Step-1,Increment      1: Step Time =    1.000,"PART-1-1",           554,      -1.65981,       23.6471,            0.,NA,NA,"",       2.42526,      -2.36166,  -551.772E-03,   200.717E-09
C:/temp/dataset/7/7_8.odb,Step-1,Increment      1: Step Time =    1.000,"PART-1-1",           555,      -1.07768,       22.4355,            0.,NA,NA,"",       2.36769,      -2.30877,  -524.908E-03,   195.739E-09
C:/temp/dataset/7/7_8.odb,Step-1,Increment      1: Step Time =    1.000,"PART-1-1",           556,   588.432E-03,       23.0567,            0.,NA,NA,"",       2.38110,      -2.33780,  -452.002E-03,   192.791E-09
C:/temp/dataset/7/7_8.odb,Step-1,Increment      1: Step Time =    1.000,"PART-1-1",           557,      -4.82218,       24.5397,            0.,NA,NA,"",       2.49587,      -2.39797,  -692.170E-03,   208.809E-09
C:/temp/dataset/7/7_8.odb,Step-1,Increment      1: Step Time =    1.000,"PART-1-1",           558,      -3.09511,       23.7242,            0.,NA,NA,"",       2.44241,      -2.36367,  -615.175E-03,   203.648E-09
C:/temp/dataset/7/7_8.odb,Step-1,Increment      1: Step Time =    1.000,"PART-1-1",           559,      -5.58708,       23.2486,            0.,NA,NA,"",       2.44988,      -2.34025,  -724.661E-03,   207.244E-09
C:/temp/dataset/7/7_8.odb,Step-1,Increment      1: Step Time =    1.000,"PART-1-1",           560,       8.76337,      -9.49006,            0.,NA,NA,"",   911.923E-03,  -910.005E-03,  -59.1249E-03,   248.911E-06
C:/temp/dataset/7/7_8.odb,Step-1,Increment      1: Step Time =    1.000,"PART-1-1",           561,       9.72759,      -26.4759,            0.,NA,NA,"",   91.9453E-03,  -91.7809E-03,  -5.49631E-03,   15.8331E-03
C:/temp/dataset/7/7_8.odb,Step-1,Increment      1: Step Time =    1.000,"PART-1-1",           562,       9.12173,       6.33780,            0.,NA,NA,"",       1.60954,      -1.60845,  -59.2212E-03,   523.796E-09
C:/temp/dataset/7/7_8.odb,Step-1,Increment      1: Step Time =    1.000,"PART-1-1",           563,       11.1214,       6.29882,            0.,NA,NA,"",       1.60894,      -1.60868,   29.0461E-03,   554.066E-09
C:/temp/dataset/7/7_8.odb,Step-1,Increment      1: Step Time =    1.000,"PART-1-1",           564,       11.1740,      -13.7880,            0.,NA,NA,"",   725.411E-03,  -723.553E-03,   51.8825E-03,   1.52339E-03
C:/temp/dataset/7/7_8.odb,Step-1,Increment      1: Step Time =    1.000,"PART-1-1",           565,       10.6612,      -8.65022,            0.,NA,NA,"",   948.910E-03,  -948.612E-03,   23.7863E-03,   252.137E-06
C:/temp/dataset/7/7_8.odb,Step-1,Increment      1: Step Time =    1.000,"PART-1-1",           566,       9.47894,      -7.81405,            0.,NA,NA,"",   984.941E-03,  -984.504E-03,  -29.3465E-03,   182.101E-06
C:/temp/dataset/7/7_8.odb,Step-1,Increment      1: Step Time =    1.000,"PART-1-1",           567,       11.3640,      -18.5194,            0.,NA,NA,"",   505.699E-03,  -502.906E-03,   53.0758E-03,   9.62034E-03
C:/temp/dataset/7/7_8.odb,Step-1,Increment      1: Step Time =    1.000,"PART-1-1",           568,       12.0025,       20.7886,            0.,NA,NA,"",       2.24949,      -2.24884,   53.8109E-03,   184.839E-09
C:/temp/dataset/7/7_8.odb,Step-1,Increment      1: Step Time =    1.000,"PART-1-1",           569,       11.4947,       18.6594,            0.,NA,NA,"",       2.15467,      -2.15441,   33.4788E-03,   173.361E-09
C:/temp/dataset/7/7_8.odb,Step-1,Increment      1: Step Time =    1.000,"PART-1-1",           570,       9.39315,       18.1618,            0.,NA,NA,"",       2.13122,      -2.13041,  -58.7589E-03,   152.831E-09
C:/temp/dataset/7/7_8.odb,Step-1,Increment      1: Step Time =    1.000,"PART-1-1",           571,       10.9214,       17.4088,            0.,NA,NA,"",       2.09869,      -2.09867,   9.40223E-03,   162.581E-09
C:/temp/dataset/7/7_8.odb,Step-1,Increment      1: Step Time =    1.000,"PART-1-1",           572,      -9.97500,           20.,            0.,NA,NA,"",       2.37595,      -2.19265,  -915.100E-03,   210.817E-09
C:/temp/dataset/7/7_8.odb,Step-1,Increment      1: Step Time =    1.000,"PART-1-1",           573,       11.9818,      -2.09472,            0.,NA,NA,"",       1.24144,      -1.23916,   75.1841E-03,   11.7489E-06
C:/temp/dataset/7/7_8.odb,Step-1,Increment      1: Step Time =    1.000,"PART-1-1",           574,       12.0426,   313.093E-03,            0.,NA,NA,"",       1.34759,      -1.34547,   75.5148E-03,   1.76747E-06
C:/temp/dataset/7/7_8.odb,Step-1,Increment      1: Step Time =    1.000,"PART-1-1",           575,       12.1686,      -14.9632,            0.,NA,NA,"",   682.059E-03,  -675.377E-03,   95.2358E-03,   3.36769E-03
C:/temp/dataset/7/7_8.odb,Step-1,Increment      1: Step Time =    1.000,"PART-1-1",           576,       12.0880,      -12.5178,            0.,NA,NA,"",   785.385E-03,  -780.105E-03,   90.9158E-03,   415.550E-06
C:/temp/dataset/7/7_8.odb,Step-1,Increment      1: Step Time =    1.000,"PART-1-1",           577,       12.0767,       2.70437,            0.,NA,NA,"",       1.45294,      -1.45102,   74.6942E-03,   840.821E-09
C:/temp/dataset/7/7_8.odb,Step-1,Increment      1: Step Time =    1.000,"PART-1-1",           578,       11.6617,       14.7036,            0.,NA,NA,"",       1.98054,      -1.98003,   44.7021E-03,   158.031E-09
C:/temp/dataset/7/7_8.odb,Step-1,Increment      1: Step Time =    1.000,"PART-1-1",           579,       11.9561,       12.2406,            0.,NA,NA,"",       1.87261,      -1.87165,   60.0869E-03,   150.960E-09
C:/temp/dataset/7/7_8.odb,Step-1,Increment      1: Step Time =    1.000,"PART-1-1",           580,       12.3155,      -19.7087,            0.,NA,NA,"",   455.868E-03,  -447.511E-03,   86.8859E-03,   11.8287E-03
C:/temp/dataset/7/7_8.odb,Step-1,Increment      1: Step Time =    1.000,"PART-1-1",           581,       12.3404,      -21.7879,            0.,NA,NA,"",   341.641E-03,  -332.968E-03,   76.4918E-03,   15.1385E-03
C:/temp/dataset/7/7_8.odb,Step-1,Increment      1: Step Time =    1.000,"PART-1-1",           582,       12.2327,      -17.3977,            0.,NA,NA,"",   572.649E-03,  -565.102E-03,   92.6614E-03,   8.13909E-03
C:/temp/dataset/7/7_8.odb,Step-1,Increment      1: Step Time =    1.000,"PART-1-1",           583,       12.1020,       5.09402,            0.,NA,NA,"",       1.55821,      -1.55648,   73.4826E-03,   645.924E-09
C:/temp/dataset/7/7_8.odb,Step-1,Increment      1: Step Time =    1.000,"PART-1-1",           584,       12.0630,       9.85139,            0.,NA,NA,"",       1.76761,      -1.76634,   67.1309E-03,   172.086E-09
C:/temp/dataset/7/7_8.odb,Step-1,Increment      1: Step Time =    1.000,"PART-1-1",           585,       12.0921,       7.47372,            0.,NA,NA,"",       1.66297,      -1.66146,   70.7291E-03,   325.009E-09
C:/temp/dataset/7/7_8.odb,Step-1,Increment      1: Step Time =    1.000,"PART-1-1",           586,       11.9146,      -10.0225,            0.,NA,NA,"",   892.749E-03,  -889.118E-03,   80.4378E-03,   302.006E-06
C:/temp/dataset/7/7_8.odb,Step-1,Increment      1: Step Time =    1.000,"PART-1-1",           587,       11.5993,      -7.26023,            0.,NA,NA,"",       1.01274,      -1.01075,   63.5262E-03,   140.548E-06
C:/temp/dataset/7/7_8.odb,Step-1,Increment      1: Step Time =    1.000,"PART-1-1",           588,       11.8707,      -4.56496,            0.,NA,NA,"",       1.13235,      -1.13001,   72.7196E-03,   48.3595E-06
C:/temp/dataset/7/7_8.odb,Step-1,Increment      1: Step Time =    1.000,"PART-1-1",           589,      -3.86001,       22.4330,            0.,NA,NA,"",       2.39518,      -2.30595,  -647.666E-03,   202.251E-09
C:/temp/dataset/7/7_8.odb,Step-1,Increment      1: Step Time =    1.000,"PART-1-1",           590,       3.35000,           20.,            0.,NA,NA,"",       2.22976,      -2.20563,  -327.181E-03,   168.390E-09
C:/temp/dataset/7/7_8.odb,Step-1,Increment      1: Step Time =    1.000,"PART-1-1",           591,       5.05511,       21.0689,            0.,NA,NA,"",       2.26860,      -2.25445,  -252.990E-03,   151.058E-09
C:/temp/dataset/7/7_8.odb,Step-1,Increment      1: Step Time =    1.000,"PART-1-1",           592,       2.31373,       21.3921,            0.,NA,NA,"",       2.29674,      -2.26604,  -374.258E-03,   187.132E-09
C:/temp/dataset/7/7_8.odb,Step-1,Increment      1: Step Time =    1.000,"PART-1-1",           593,      -1.98632,       21.3170,            0.,NA,NA,"",       2.32787,      -2.25853,  -563.910E-03,   196.026E-09
C:/temp/dataset/7/7_8.odb,Step-1,Increment      1: Step Time =    1.000,"PART-1-1",           594,   25.0000E-03,           20.,            0.,NA,NA,"",       2.25279,      -2.20239,  -473.885E-03,   190.194E-09
C:/temp/dataset/7/7_8.odb,Step-1,Increment      1: Step Time =    1.000,"PART-1-1",           595,   933.640E-03,       21.1186,            0.,NA,NA,"",       2.29422,      -2.25263,  -434.884E-03,   189.595E-09
C:/temp/dataset/7/7_8.odb,Step-1,Increment      1: Step Time =    1.000,"PART-1-1",           596,       7.16521,       20.7144,            0.,NA,NA,"",       2.24654,      -2.24086,  -159.544E-03,   149.404E-09
C:/temp/dataset/7/7_8.odb,Step-1,Increment      1: Step Time =    1.000,"PART-1-1",           597,       8.15837,       19.5039,            0.,NA,NA,"",       2.19141,      -2.18842,  -114.546E-03,   149.955E-09
C:/temp/dataset/7/7_8.odb,Step-1,Increment      1: Step Time =    1.000,"PART-1-1",           598,      -3.32500,           20.,            0.,NA,NA,"",       2.28531,      -2.19913,  -621.692E-03,   196.766E-09
