ODB Name,Step,Frame,Part Instance Name,    êﬂì_ÉâÉxÉã,X,Y,Z,Section Name,Material Name,Section Point,   U-Magnitude,          U-U1,          U-U2,       S-Mises
C:/temp/dataset/7/8_6.odb,Step-1,Increment      1: Step Time =    1.000,"PART-1-1",             1,          -15.,           20.,            0.,NA,NA,"",   373.608E-03,  -343.108E-03,  -147.852E-03,   2.78643E-12
C:/temp/dataset/7/8_6.odb,Step-1,Increment      1: Step Time =    1.000,"PART-1-1",             2,          -15.,           25.,            0.,NA,NA,"",   402.284E-03,  -374.091E-03,  -147.948E-03,   2.77416E-12
C:/temp/dataset/7/8_6.odb,Step-1,Increment      1: Step Time =    1.000,"PART-1-1",             3,      -11.6500,           20.,            0.,NA,NA,"",   365.950E-03,  -343.172E-03,  -127.093E-03,   2.78469E-12
C:/temp/dataset/7/8_6.odb,Step-1,Increment      1: Step Time =    1.000,"PART-1-1",             4,      -8.30000,           20.,            0.,NA,NA,"",   359.330E-03,  -343.236E-03,  -106.335E-03,   2.79418E-12
C:/temp/dataset/7/8_6.odb,Step-1,Increment      1: Step Time =    1.000,"PART-1-1",             5,           -5.,           20.,            0.,NA,NA,"",   353.880E-03,  -343.300E-03,  -85.8859E-03,   2.80489E-12
C:/temp/dataset/7/8_6.odb,Step-1,Increment      1: Step Time =    1.000,"PART-1-1",             6,      -1.65000,           20.,            0.,NA,NA,"",   349.486E-03,  -343.364E-03,  -65.1273E-03,   2.88017E-12
C:/temp/dataset/7/8_6.odb,Step-1,Increment      1: Step Time =    1.000,"PART-1-1",             7,       1.70000,           20.,            0.,NA,NA,"",   346.283E-03,  -343.428E-03,  -44.3686E-03,   3.72812E-12
C:/temp/dataset/7/8_6.odb,Step-1,Increment      1: Step Time =    1.000,"PART-1-1",             8,            5.,           20.,            0.,NA,NA,"",   344.324E-03,  -343.492E-03,  -23.9197E-03,   14.2985E-12
C:/temp/dataset/7/8_6.odb,Step-1,Increment      1: Step Time =    1.000,"PART-1-1",             9,            5.,         13.75,            0.,NA,NA,"",   305.691E-03,  -304.763E-03,  -23.7997E-03,   537.762E-12
C:/temp/dataset/7/8_6.odb,Step-1,Increment      1: Step Time =    1.000,"PART-1-1",            10,            5.,           7.5,            0.,NA,NA,"",   267.086E-03,  -266.034E-03,  -23.6798E-03,   5.40194E-09
C:/temp/dataset/7/8_6.odb,Step-1,Increment      1: Step Time =    1.000,"PART-1-1",            11,            5.,          1.25,            0.,NA,NA,"",   228.523E-03,  -227.305E-03,  -23.5597E-03,   86.3163E-09
C:/temp/dataset/7/8_6.odb,Step-1,Increment      1: Step Time =    1.000,"PART-1-1",            12,            5.,           -5.,            0.,NA,NA,"",   190.028E-03,  -188.577E-03,  -23.4366E-03,   1.46183E-06
C:/temp/dataset/7/8_6.odb,Step-1,Increment      1: Step Time =    1.000,"PART-1-1",            13,            5.,        -11.25,            0.,NA,NA,"",   151.698E-03,  -149.896E-03,  -23.3158E-03,   8.97335E-06
C:/temp/dataset/7/8_6.odb,Step-1,Increment      1: Step Time =    1.000,"PART-1-1",            14,            5.,         -17.5,            0.,NA,NA,"",   113.688E-03,  -111.179E-03,  -23.7533E-03,   295.078E-06
C:/temp/dataset/7/8_6.odb,Step-1,Increment      1: Step Time =    1.000,"PART-1-1",            15,            5.,        -23.75,            0.,NA,NA,"",   70.7738E-03,  -65.8478E-03,  -25.9423E-03,   196.438E-06
C:/temp/dataset/7/8_6.odb,Step-1,Increment      1: Step Time =    1.000,"PART-1-1",            16,            5.,          -30.,            0.,NA,NA,"",            0.,  -4.09330E-39,  -7.01892E-39,   14.0089E-03
C:/temp/dataset/7/8_6.odb,Step-1,Increment      1: Step Time =    1.000,"PART-1-1",            17,           15.,          -30.,            0.,NA,NA,"",            0.,  -7.36426E-39,   11.2186E-39,   23.3707E-03
C:/temp/dataset/7/8_6.odb,Step-1,Increment      1: Step Time =    1.000,"PART-1-1",            18,           15.,         -22.5,            0.,NA,NA,"",   96.3534E-03,  -90.3802E-03,   33.3974E-03,   3.13374E-03
C:/temp/dataset/7/8_6.odb,Step-1,Increment      1: Step Time =    1.000,"PART-1-1",            19,           15.,          -15.,            0.,NA,NA,"",   132.396E-03,  -126.648E-03,   38.5850E-03,   107.383E-06
C:/temp/dataset/7/8_6.odb,Step-1,Increment      1: Step Time =    1.000,"PART-1-1",            20,           15.,          -7.5,            0.,NA,NA,"",   177.513E-03,  -173.270E-03,   38.5815E-03,   2.21519E-06
C:/temp/dataset/7/8_6.odb,Step-1,Increment      1: Step Time =    1.000,"PART-1-1",            21,           15.,            0.,            0.,NA,NA,"",   223.087E-03,  -219.752E-03,   38.4306E-03,   165.248E-09
C:/temp/dataset/7/8_6.odb,Step-1,Increment      1: Step Time =    1.000,"PART-1-1",            22,           15.,           7.5,            0.,NA,NA,"",   268.965E-03,  -266.226E-03,   38.2864E-03,   5.63701E-09
C:/temp/dataset/7/8_6.odb,Step-1,Increment      1: Step Time =    1.000,"PART-1-1",            23,           15.,           15.,            0.,NA,NA,"",   315.018E-03,  -312.701E-03,   38.1424E-03,   266.192E-12
C:/temp/dataset/7/8_6.odb,Step-1,Increment      1: Step Time =    1.000,"PART-1-1",            24,           15.,          22.5,            0.,NA,NA,"",   361.180E-03,  -359.175E-03,   37.9984E-03,   12.0146E-12
C:/temp/dataset/7/8_6.odb,Step-1,Increment      1: Step Time =    1.000,"PART-1-1",            25,           15.,           30.,            0.,NA,NA,"",   407.412E-03,  -405.650E-03,   37.8545E-03,   2.98386E-12
C:/temp/dataset/7/8_6.odb,Step-1,Increment      1: Step Time =    1.000,"PART-1-1",            26,         11.25,           30.,            0.,NA,NA,"",   405.841E-03,  -405.578E-03,   14.6171E-03,   2.62251E-12
C:/temp/dataset/7/8_6.odb,Step-1,Increment      1: Step Time =    1.000,"PART-1-1",            27,           7.5,           30.,            0.,NA,NA,"",   405.597E-03,  -405.506E-03,  -8.62019E-03,   3.44089E-12
C:/temp/dataset/7/8_6.odb,Step-1,Increment      1: Step Time =    1.000,"PART-1-1",            28,          3.75,           30.,            0.,NA,NA,"",   406.684E-03,  -405.434E-03,  -31.8575E-03,   2.36576E-12
C:/temp/dataset/7/8_6.odb,Step-1,Increment      1: Step Time =    1.000,"PART-1-1",            29,            0.,           30.,            0.,NA,NA,"",   409.089E-03,  -405.362E-03,  -55.0948E-03,   2.70642E-12
C:/temp/dataset/7/8_6.odb,Step-1,Increment      1: Step Time =    1.000,"PART-1-1",            30,         -3.75,           30.,            0.,NA,NA,"",   412.790E-03,  -405.290E-03,  -78.3321E-03,   2.77614E-12
C:/temp/dataset/7/8_6.odb,Step-1,Increment      1: Step Time =    1.000,"PART-1-1",            31,          -7.5,           30.,            0.,NA,NA,"",   417.753E-03,  -405.218E-03,  -101.569E-03,   2.76757E-12
C:/temp/dataset/7/8_6.odb,Step-1,Increment      1: Step Time =    1.000,"PART-1-1",            32,        -11.25,           30.,            0.,NA,NA,"",   423.934E-03,  -405.146E-03,  -124.807E-03,   2.77098E-12
C:/temp/dataset/7/8_6.odb,Step-1,Increment      1: Step Time =    1.000,"PART-1-1",            33,          -15.,           30.,            0.,NA,NA,"",   431.279E-03,  -405.074E-03,  -148.044E-03,   2.78955E-12
C:/temp/dataset/7/8_6.odb,Step-1,Increment      1: Step Time =    1.000,"PART-1-1",            34,          -15.,          22.5,            0.,NA,NA,"",   387.902E-03,  -358.599E-03,  -147.900E-03,   2.77242E-12
C:/temp/dataset/7/8_6.odb,Step-1,Increment      1: Step Time =    1.000,"PART-1-1",            35,            5.,       15.8333,            0.,NA,NA,"",   318.566E-03,  -317.672E-03,  -23.8397E-03,   141.320E-12
C:/temp/dataset/7/8_6.odb,Step-1,Increment      1: Step Time =    1.000,"PART-1-1",            36,            5.,       17.9167,            0.,NA,NA,"",   331.443E-03,  -330.582E-03,  -23.8797E-03,   17.6275E-12
C:/temp/dataset/7/8_6.odb,Step-1,Increment      1: Step Time =    1.000,"PART-1-1",            37,            5.,       9.58333,            0.,NA,NA,"",   279.950E-03,  -278.944E-03,  -23.7198E-03,   3.26032E-09
C:/temp/dataset/7/8_6.odb,Step-1,Increment      1: Step Time =    1.000,"PART-1-1",            38,            5.,       11.6667,            0.,NA,NA,"",   292.819E-03,  -291.853E-03,  -23.7597E-03,   1.49063E-09
C:/temp/dataset/7/8_6.odb,Step-1,Increment      1: Step Time =    1.000,"PART-1-1",            39,            5.,       3.33333,            0.,NA,NA,"",   241.371E-03,  -240.215E-03,  -23.5998E-03,   14.2777E-09
C:/temp/dataset/7/8_6.odb,Step-1,Increment      1: Step Time =    1.000,"PART-1-1",            40,            5.,       5.41667,            0.,NA,NA,"",   254.226E-03,  -253.124E-03,  -23.6398E-03,   4.02268E-09
C:/temp/dataset/7/8_6.odb,Step-1,Increment      1: Step Time =    1.000,"PART-1-1",            41,            5.,      -2.91667,            0.,NA,NA,"",   202.849E-03,  -201.485E-03,  -23.4786E-03,   721.021E-09
C:/temp/dataset/7/8_6.odb,Step-1,Increment      1: Step Time =    1.000,"PART-1-1",            42,            5.,  -833.333E-03,            0.,NA,NA,"",   215.681E-03,  -214.395E-03,  -23.5194E-03,   278.239E-09
C:/temp/dataset/7/8_6.odb,Step-1,Increment      1: Step Time =    1.000,"PART-1-1",            43,            5.,      -9.16667,            0.,NA,NA,"",   164.442E-03,  -162.776E-03,  -23.3500E-03,   1.04714E-06
C:/temp/dataset/7/8_6.odb,Step-1,Increment      1: Step Time =    1.000,"PART-1-1",            44,            5.,      -7.08333,            0.,NA,NA,"",   177.223E-03,  -175.672E-03,  -23.3933E-03,   2.20169E-06
C:/temp/dataset/7/8_6.odb,Step-1,Increment      1: Step Time =    1.000,"PART-1-1",            45,            5.,      -15.4167,            0.,NA,NA,"",   126.365E-03,  -124.175E-03,  -23.4263E-03,   130.059E-06
C:/temp/dataset/7/8_6.odb,Step-1,Increment      1: Step Time =    1.000,"PART-1-1",            46,            5.,      -13.3333,            0.,NA,NA,"",   139.008E-03,  -137.038E-03,  -23.3175E-03,   42.4911E-06
C:/temp/dataset/7/8_6.odb,Step-1,Increment      1: Step Time =    1.000,"PART-1-1",            47,            5.,      -21.6667,            0.,NA,NA,"",   86.6831E-03,  -82.8667E-03,  -25.4377E-03,   590.908E-06
C:/temp/dataset/7/8_6.odb,Step-1,Increment      1: Step Time =    1.000,"PART-1-1",            48,            5.,      -19.5833,            0.,NA,NA,"",   100.665E-03,  -97.6417E-03,  -24.4838E-03,   455.220E-06
C:/temp/dataset/7/8_6.odb,Step-1,Increment      1: Step Time =    1.000,"PART-1-1",            49,            5.,      -27.9167,            0.,NA,NA,"",   30.1615E-03,  -24.1388E-03,  -18.0841E-03,   6.33577E-03
C:/temp/dataset/7/8_6.odb,Step-1,Increment      1: Step Time =    1.000,"PART-1-1",            50,            5.,      -25.8333,            0.,NA,NA,"",   51.9997E-03,  -45.9465E-03,  -24.3493E-03,   1.82102E-03
C:/temp/dataset/7/8_6.odb,Step-1,Increment      1: Step Time =    1.000,"PART-1-1",            51,          12.5,          -30.,            0.,NA,NA,"",            0.,  -10.3778E-39,   5.35926E-39,   7.76051E-03
C:/temp/dataset/7/8_6.odb,Step-1,Increment      1: Step Time =    1.000,"PART-1-1",            52,           10.,          -30.,            0.,NA,NA,"",            0.,  -5.92307E-39,  -4.51019E-39,   6.54574E-03
C:/temp/dataset/7/8_6.odb,Step-1,Increment      1: Step Time =    1.000,"PART-1-1",            53,           7.5,          -30.,            0.,NA,NA,"",            0.,  -6.76149E-39,  -1.56438E-39,   4.91029E-03
C:/temp/dataset/7/8_6.odb,Step-1,Increment      1: Step Time =    1.000,"PART-1-1",            54,           15.,          -25.,            0.,NA,NA,"",   85.3027E-03,  -78.6743E-03,   32.9681E-03,   5.83734E-03
C:/temp/dataset/7/8_6.odb,Step-1,Increment      1: Step Time =    1.000,"PART-1-1",            55,           15.,         -27.5,            0.,NA,NA,"",   56.9029E-03,  -50.0393E-03,   27.0925E-03,   10.4934E-03
C:/temp/dataset/7/8_6.odb,Step-1,Increment      1: Step Time =    1.000,"PART-1-1",            56,           15.,         -17.5,            0.,NA,NA,"",   117.625E-03,  -111.297E-03,   38.0606E-03,   401.515E-06
C:/temp/dataset/7/8_6.odb,Step-1,Increment      1: Step Time =    1.000,"PART-1-1",            57,           15.,          -20.,            0.,NA,NA,"",   103.812E-03,  -96.9777E-03,   37.0435E-03,   1.31572E-03
C:/temp/dataset/7/8_6.odb,Step-1,Increment      1: Step Time =    1.000,"PART-1-1",            58,           15.,          -10.,            0.,NA,NA,"",   162.418E-03,  -157.757E-03,   38.6333E-03,   1.45467E-06
C:/temp/dataset/7/8_6.odb,Step-1,Increment      1: Step Time =    1.000,"PART-1-1",            59,           15.,         -12.5,            0.,NA,NA,"",   147.376E-03,  -142.217E-03,   38.6534E-03,   25.0037E-06
C:/temp/dataset/7/8_6.odb,Step-1,Increment      1: Step Time =    1.000,"PART-1-1",            60,           15.,          -2.5,            0.,NA,NA,"",   207.853E-03,  -204.260E-03,   38.4794E-03,   576.676E-09
C:/temp/dataset/7/8_6.odb,Step-1,Increment      1: Step Time =    1.000,"PART-1-1",            61,           15.,           -5.,            0.,NA,NA,"",   192.659E-03,  -188.767E-03,   38.5296E-03,   1.45048E-06
C:/temp/dataset/7/8_6.odb,Step-1,Increment      1: Step Time =    1.000,"PART-1-1",            62,           15.,            5.,            0.,NA,NA,"",   253.648E-03,  -250.734E-03,   38.3344E-03,   4.34290E-09
C:/temp/dataset/7/8_6.odb,Step-1,Increment      1: Step Time =    1.000,"PART-1-1",            63,           15.,           2.5,            0.,NA,NA,"",   238.354E-03,  -235.243E-03,   38.3824E-03,   28.0541E-09
C:/temp/dataset/7/8_6.odb,Step-1,Increment      1: Step Time =    1.000,"PART-1-1",            64,           15.,          12.5,            0.,NA,NA,"",   299.653E-03,  -297.209E-03,   38.1904E-03,   1.02236E-09
C:/temp/dataset/7/8_6.odb,Step-1,Increment      1: Step Time =    1.000,"PART-1-1",            65,           15.,           10.,            0.,NA,NA,"",   284.301E-03,  -281.717E-03,   38.2384E-03,   2.89689E-09
C:/temp/dataset/7/8_6.odb,Step-1,Increment      1: Step Time =    1.000,"PART-1-1",            66,           15.,           20.,            0.,NA,NA,"",   345.783E-03,  -343.684E-03,   38.0464E-03,   20.7965E-12
C:/temp/dataset/7/8_6.odb,Step-1,Increment      1: Step Time =    1.000,"PART-1-1",            67,           15.,          17.5,            0.,NA,NA,"",   330.396E-03,  -328.192E-03,   38.0944E-03,   37.1377E-12
C:/temp/dataset/7/8_6.odb,Step-1,Increment      1: Step Time =    1.000,"PART-1-1",            68,           15.,          27.5,            0.,NA,NA,"",   391.995E-03,  -390.158E-03,   37.9025E-03,   2.34259E-12
C:/temp/dataset/7/8_6.odb,Step-1,Increment      1: Step Time =    1.000,"PART-1-1",            69,           15.,           25.,            0.,NA,NA,"",   376.584E-03,  -374.667E-03,   37.9505E-03,   5.86230E-12
C:/temp/dataset/7/8_6.odb,Step-1,Increment      1: Step Time =    1.000,"PART-1-1",            70,        13.125,           30.,            0.,NA,NA,"",   406.461E-03,  -405.614E-03,   26.2358E-03,   2.46078E-12
C:/temp/dataset/7/8_6.odb,Step-1,Increment      1: Step Time =    1.000,"PART-1-1",            71,         9.375,           30.,            0.,NA,NA,"",   405.553E-03,  -405.542E-03,   2.99847E-03,   3.50175E-12
C:/temp/dataset/7/8_6.odb,Step-1,Increment      1: Step Time =    1.000,"PART-1-1",            72,         5.625,           30.,            0.,NA,NA,"",   405.975E-03,  -405.470E-03,  -20.2388E-03,   2.78940E-12
C:/temp/dataset/7/8_6.odb,Step-1,Increment      1: Step Time =    1.000,"PART-1-1",            73,         1.875,           30.,            0.,NA,NA,"",   407.722E-03,  -405.398E-03,  -43.4762E-03,   2.53192E-12
C:/temp/dataset/7/8_6.odb,Step-1,Increment      1: Step Time =    1.000,"PART-1-1",            74,        -1.875,           30.,            0.,NA,NA,"",   410.779E-03,  -405.326E-03,  -66.7135E-03,   2.76351E-12
C:/temp/dataset/7/8_6.odb,Step-1,Increment      1: Step Time =    1.000,"PART-1-1",            75,        -5.625,           30.,            0.,NA,NA,"",   415.117E-03,  -405.254E-03,  -89.9508E-03,   2.77188E-12
C:/temp/dataset/7/8_6.odb,Step-1,Increment      1: Step Time =    1.000,"PART-1-1",            76,        -9.375,           30.,            0.,NA,NA,"",   420.695E-03,  -405.182E-03,  -113.188E-03,   2.76819E-12
C:/temp/dataset/7/8_6.odb,Step-1,Increment      1: Step Time =    1.000,"PART-1-1",            77,       -13.125,           30.,            0.,NA,NA,"",   427.465E-03,  -405.110E-03,  -136.425E-03,   2.77419E-12
C:/temp/dataset/7/8_6.odb,Step-1,Increment      1: Step Time =    1.000,"PART-1-1",            78,          -15.,          27.5,            0.,NA,NA,"",   416.746E-03,  -389.582E-03,  -147.996E-03,   2.78059E-12
C:/temp/dataset/7/8_6.odb,Step-1,Increment      1: Step Time =    1.000,"PART-1-1",            79,      -7.07467,       28.0475,            0.,NA,NA,"",   405.376E-03,  -393.127E-03,  -98.8964E-03,   2.76253E-12
C:/temp/dataset/7/8_6.odb,Step-1,Increment      1: Step Time =    1.000,"PART-1-1",            80,      -10.7971,       27.6072,            0.,NA,NA,"",   408.936E-03,  -390.327E-03,  -121.954E-03,   2.77157E-12
C:/temp/dataset/7/8_6.odb,Step-1,Increment      1: Step Time =    1.000,"PART-1-1",            81,      -3.50976,       28.2242,            0.,NA,NA,"",   401.702E-03,  -394.290E-03,  -76.8094E-03,   2.73832E-12
C:/temp/dataset/7/8_6.odb,Step-1,Increment      1: Step Time =    1.000,"PART-1-1",            82,       11.3028,       27.6605,            0.,NA,NA,"",   391.369E-03,  -391.082E-03,   14.9895E-03,   3.96003E-12
C:/temp/dataset/7/8_6.odb,Step-1,Increment      1: Step Time =    1.000,"PART-1-1",            83,       7.46624,       27.7175,            0.,NA,NA,"",   391.460E-03,  -391.361E-03,  -8.78555E-03,   3.14323E-12
C:/temp/dataset/7/8_6.odb,Step-1,Increment      1: Step Time =    1.000,"PART-1-1",            84,   523.838E-03,       28.1559,            0.,NA,NA,"",   397.337E-03,  -393.945E-03,  -51.8134E-03,   2.62240E-12
C:/temp/dataset/7/8_6.odb,Step-1,Increment      1: Step Time =    1.000,"PART-1-1",            85,       13.1724,       27.5829,            0.,NA,NA,"",   391.540E-03,  -390.637E-03,   26.5761E-03,   3.66452E-12
C:/temp/dataset/7/8_6.odb,Step-1,Increment      1: Step Time =    1.000,"PART-1-1",            86,       9.41586,       27.7284,            0.,NA,NA,"",   391.481E-03,  -391.467E-03,   3.29531E-03,   3.24169E-12
C:/temp/dataset/7/8_6.odb,Step-1,Increment      1: Step Time =    1.000,"PART-1-1",            87,       5.17501,       27.3177,            0.,NA,NA,"",   389.518E-03,  -388.840E-03,  -22.9758E-03,   3.35236E-12
C:/temp/dataset/7/8_6.odb,Step-1,Increment      1: Step Time =    1.000,"PART-1-1",            88,       1.85763,       28.7412,            0.,NA,NA,"",   399.977E-03,  -397.598E-03,  -43.5597E-03,   2.54565E-12
C:/temp/dataset/7/8_6.odb,Step-1,Increment      1: Step Time =    1.000,"PART-1-1",            89,      -1.45910,       27.7280,            0.,NA,NA,"",   396.470E-03,  -391.255E-03,  -64.0927E-03,   2.68957E-12
C:/temp/dataset/7/8_6.odb,Step-1,Increment      1: Step Time =    1.000,"PART-1-1",            90,      -5.31380,       28.2250,            0.,NA,NA,"",   403.960E-03,  -394.261E-03,  -87.9883E-03,   2.75562E-12
C:/temp/dataset/7/8_6.odb,Step-1,Increment      1: Step Time =    1.000,"PART-1-1",            91,      -8.92632,       27.8484,            0.,NA,NA,"",   407.104E-03,  -391.858E-03,  -110.366E-03,   2.76722E-12
C:/temp/dataset/7/8_6.odb,Step-1,Increment      1: Step Time =    1.000,"PART-1-1",            92,       7.03655,   996.185E-03,            0.,NA,NA,"",   226.036E-03,  -225.771E-03,  -10.9351E-03,   148.296E-09
C:/temp/dataset/7/8_6.odb,Step-1,Increment      1: Step Time =    1.000,"PART-1-1",            93,       6.93081,       13.7923,            0.,NA,NA,"",   305.291E-03,  -305.062E-03,  -11.8360E-03,   647.447E-12
C:/temp/dataset/7/8_6.odb,Step-1,Increment      1: Step Time =    1.000,"PART-1-1",            94,       7.08682,       7.47611,            0.,NA,NA,"",   266.143E-03,  -265.926E-03,  -10.7480E-03,   1.21747E-09
C:/temp/dataset/7/8_6.odb,Step-1,Increment      1: Step Time =    1.000,"PART-1-1",            95,       6.96700,      -1.15199,            0.,NA,NA,"",   212.760E-03,  -212.458E-03,  -11.3249E-03,   333.864E-09
C:/temp/dataset/7/8_6.odb,Step-1,Increment      1: Step Time =    1.000,"PART-1-1",            96,       6.47578,      -21.8661,            0.,NA,NA,"",   82.8526E-03,  -81.5552E-03,  -14.6048E-03,   392.671E-06
C:/temp/dataset/7/8_6.odb,Step-1,Increment      1: Step Time =    1.000,"PART-1-1",            97,       7.14087,      -13.1040,            0.,NA,NA,"",   138.868E-03,  -138.507E-03,  -10.0154E-03,   56.8685E-06
C:/temp/dataset/7/8_6.odb,Step-1,Increment      1: Step Time =    1.000,"PART-1-1",            98,       6.53104,      -7.08024,            0.,NA,NA,"",   176.270E-03,  -175.720E-03,  -13.9112E-03,   513.704E-09
C:/temp/dataset/7/8_6.odb,Step-1,Increment      1: Step Time =    1.000,"PART-1-1",            99,       6.85322,      -3.24169,            0.,NA,NA,"",   199.867E-03,  -199.507E-03,  -11.9896E-03,   570.114E-09
C:/temp/dataset/7/8_6.odb,Step-1,Increment      1: Step Time =    1.000,"PART-1-1",           100,       6.74184,      -8.96518,            0.,NA,NA,"",   164.536E-03,  -164.055E-03,  -12.5696E-03,   4.89161E-06
C:/temp/dataset/7/8_6.odb,Step-1,Increment      1: Step Time =    1.000,"PART-1-1",           101,       6.94703,      -23.6171,            0.,NA,NA,"",   67.8924E-03,  -66.9912E-03,  -11.0253E-03,   1.61018E-03
C:/temp/dataset/7/8_6.odb,Step-1,Increment      1: Step Time =    1.000,"PART-1-1",           102,       7.44695,      -27.8442,            0.,NA,NA,"",   22.6350E-03,  -22.1885E-03,  -4.47332E-03,   6.92238E-03
C:/temp/dataset/7/8_6.odb,Step-1,Increment      1: Step Time =    1.000,"PART-1-1",           103,       7.35225,      -17.6578,            0.,NA,NA,"",   110.687E-03,  -110.355E-03,  -8.56216E-03,   205.337E-06
C:/temp/dataset/7/8_6.odb,Step-1,Increment      1: Step Time =    1.000,"PART-1-1",           104,       7.23832,      -15.2967,            0.,NA,NA,"",   125.356E-03,  -125.007E-03,  -9.35735E-03,   130.236E-06
C:/temp/dataset/7/8_6.odb,Step-1,Increment      1: Step Time =    1.000,"PART-1-1",           105,       7.10099,       17.6583,            0.,NA,NA,"",   329.200E-03,  -329.021E-03,  -10.8557E-03,   112.165E-12
C:/temp/dataset/7/8_6.odb,Step-1,Increment      1: Step Time =    1.000,"PART-1-1",           106,       6.86948,       15.7920,            0.,NA,NA,"",   317.688E-03,  -317.452E-03,  -12.2545E-03,   269.300E-12
C:/temp/dataset/7/8_6.odb,Step-1,Increment      1: Step Time =    1.000,"PART-1-1",           107,       7.06799,       9.62990,            0.,NA,NA,"",   279.485E-03,  -279.272E-03,  -10.9061E-03,   1.76952E-09
C:/temp/dataset/7/8_6.odb,Step-1,Increment      1: Step Time =    1.000,"PART-1-1",           108,       7.09093,       5.31052,            0.,NA,NA,"",   252.732E-03,  -252.507E-03,  -10.6810E-03,   12.2762E-09
C:/temp/dataset/7/8_6.odb,Step-1,Increment      1: Step Time =    1.000,"PART-1-1",           109,       6.65187,      -5.22056,            0.,NA,NA,"",   187.706E-03,  -187.242E-03,  -13.1988E-03,   554.859E-09
C:/temp/dataset/7/8_6.odb,Step-1,Increment      1: Step Time =    1.000,"PART-1-1",           110,       7.26954,      -25.7037,            0.,NA,NA,"",   46.8395E-03,  -46.2338E-03,  -7.50799E-03,   4.08575E-03
C:/temp/dataset/7/8_6.odb,Step-1,Increment      1: Step Time =    1.000,"PART-1-1",           111,       7.53271,      -20.3934,            0.,NA,NA,"",   92.7871E-03,  -92.4982E-03,  -7.31693E-03,   152.607E-06
C:/temp/dataset/7/8_6.odb,Step-1,Increment      1: Step Time =    1.000,"PART-1-1",           112,       7.01178,       11.7341,            0.,NA,NA,"",   292.528E-03,  -292.309E-03,  -11.2948E-03,   1.28424E-09
C:/temp/dataset/7/8_6.odb,Step-1,Increment      1: Step Time =    1.000,"PART-1-1",           113,       7.07643,       3.14767,            0.,NA,NA,"",   239.345E-03,  -239.104E-03,  -10.7293E-03,   50.7996E-09
C:/temp/dataset/7/8_6.odb,Step-1,Increment      1: Step Time =    1.000,"PART-1-1",           114,       6.98190,      -10.9751,            0.,NA,NA,"",   152.036E-03,  -151.634E-03,  -11.0448E-03,   19.6641E-06
C:/temp/dataset/7/8_6.odb,Step-1,Increment      1: Step Time =    1.000,"PART-1-1",           115,       13.1254,       22.8014,            0.,NA,NA,"",   361.969E-03,  -361.007E-03,   26.3762E-03,   5.99380E-12
C:/temp/dataset/7/8_6.odb,Step-1,Increment      1: Step Time =    1.000,"PART-1-1",           116,       12.8923,      -4.74502,            0.,NA,NA,"",   192.003E-03,  -190.308E-03,   25.4612E-03,   699.406E-09
C:/temp/dataset/7/8_6.odb,Step-1,Increment      1: Step Time =    1.000,"PART-1-1",           117,       13.0513,      -12.4505,            0.,NA,NA,"",   144.936E-03,  -142.476E-03,   26.5905E-03,   39.1653E-06
C:/temp/dataset/7/8_6.odb,Step-1,Increment      1: Step Time =    1.000,"PART-1-1",           118,       12.2427,       17.8341,            0.,NA,NA,"",   330.877E-03,  -330.210E-03,   21.0023E-03,   109.921E-12
C:/temp/dataset/7/8_6.odb,Step-1,Increment      1: Step Time =    1.000,"PART-1-1",           119,       13.0441,       9.90429,            0.,NA,NA,"",   282.298E-03,  -281.087E-03,   26.1201E-03,   1.81852E-09
C:/temp/dataset/7/8_6.odb,Step-1,Increment      1: Step Time =    1.000,"PART-1-1",           120,       13.0522,       2.62582,            0.,NA,NA,"",   237.447E-03,  -235.985E-03,   26.3104E-03,   65.3479E-09
C:/temp/dataset/7/8_6.odb,Step-1,Increment      1: Step Time =    1.000,"PART-1-1",           121,       13.2006,      -19.7745,            0.,NA,NA,"",   101.379E-03,  -97.5515E-03,   27.5942E-03,   590.779E-06
C:/temp/dataset/7/8_6.odb,Step-1,Increment      1: Step Time =    1.000,"PART-1-1",           122,       9.90112,      -27.6522,            0.,NA,NA,"",   26.1877E-03,  -26.1737E-03,   856.015E-06,   7.58540E-03
C:/temp/dataset/7/8_6.odb,Step-1,Increment      1: Step Time =    1.000,"PART-1-1",           123,       13.0591,      -22.1191,            0.,NA,NA,"",   90.9057E-03,  -86.9866E-03,   26.4042E-03,   2.76124E-03
C:/temp/dataset/7/8_6.odb,Step-1,Increment      1: Step Time =    1.000,"PART-1-1",           124,       13.1139,      -14.9356,            0.,NA,NA,"",   129.808E-03,  -126.965E-03,   27.0189E-03,   123.689E-06
C:/temp/dataset/7/8_6.odb,Step-1,Increment      1: Step Time =    1.000,"PART-1-1",           125,       13.1678,      -17.3995,            0.,NA,NA,"",   114.971E-03,  -111.671E-03,   27.3462E-03,   203.936E-06
C:/temp/dataset/7/8_6.odb,Step-1,Increment      1: Step Time =    1.000,"PART-1-1",           126,       12.7891,      -7.32383,            0.,NA,NA,"",   176.086E-03,  -174.321E-03,   24.8703E-03,   1.25482E-06
C:/temp/dataset/7/8_6.odb,Step-1,Increment      1: Step Time =    1.000,"PART-1-1",           127,       12.9162,      -9.94117,            0.,NA,NA,"",   160.159E-03,  -158.082E-03,   25.7097E-03,   10.9417E-06
C:/temp/dataset/7/8_6.odb,Step-1,Increment      1: Step Time =    1.000,"PART-1-1",           128,       13.0283,   193.158E-03,            0.,NA,NA,"",   222.460E-03,  -220.911E-03,   26.2089E-03,   205.961E-09
C:/temp/dataset/7/8_6.odb,Step-1,Increment      1: Step Time =    1.000,"PART-1-1",           129,       12.9794,      -2.25409,            0.,NA,NA,"",   207.376E-03,  -205.745E-03,   25.9528E-03,   502.896E-09
C:/temp/dataset/7/8_6.odb,Step-1,Increment      1: Step Time =    1.000,"PART-1-1",           130,       13.0689,       7.48049,            0.,NA,NA,"",   267.367E-03,  -266.068E-03,   26.3203E-03,   1.23302E-09
C:/temp/dataset/7/8_6.odb,Step-1,Increment      1: Step Time =    1.000,"PART-1-1",           131,       13.0764,       5.05734,            0.,NA,NA,"",   252.439E-03,  -251.053E-03,   26.4137E-03,   13.4040E-09
C:/temp/dataset/7/8_6.odb,Step-1,Increment      1: Step Time =    1.000,"PART-1-1",           132,       12.6962,       14.9270,            0.,NA,NA,"",   313.115E-03,  -312.204E-03,   23.8678E-03,   432.788E-12
C:/temp/dataset/7/8_6.odb,Step-1,Increment      1: Step Time =    1.000,"PART-1-1",           133,       12.9459,       12.3607,            0.,NA,NA,"",   297.398E-03,  -296.306E-03,   25.4648E-03,   1.08925E-09
C:/temp/dataset/7/8_6.odb,Step-1,Increment      1: Step Time =    1.000,"PART-1-1",           134,       12.9476,       20.4489,            0.,NA,NA,"",   347.350E-03,  -346.426E-03,   25.3199E-03,   11.2968E-12
C:/temp/dataset/7/8_6.odb,Step-1,Increment      1: Step Time =    1.000,"PART-1-1",           135,       13.1802,       25.1793,            0.,NA,NA,"",   376.688E-03,  -375.743E-03,   26.6702E-03,   5.29359E-12
C:/temp/dataset/7/8_6.odb,Step-1,Increment      1: Step Time =    1.000,"PART-1-1",           136,      -12.4062,       24.9250,            0.,NA,NA,"",   396.263E-03,  -373.676E-03,  -131.874E-03,   2.77514E-12
C:/temp/dataset/7/8_6.odb,Step-1,Increment      1: Step Time =    1.000,"PART-1-1",           137,       11.3078,       25.3904,            0.,NA,NA,"",   377.316E-03,  -377.015E-03,   15.0636E-03,   5.29890E-12
C:/temp/dataset/7/8_6.odb,Step-1,Increment      1: Step Time =    1.000,"PART-1-1",           138,      -10.1009,       25.2443,            0.,NA,NA,"",   393.673E-03,  -375.699E-03,  -117.595E-03,   2.77130E-12
C:/temp/dataset/7/8_6.odb,Step-1,Increment      1: Step Time =    1.000,"PART-1-1",           139,      -4.83291,       26.5053,            0.,NA,NA,"",   392.913E-03,  -383.614E-03,  -84.9754E-03,   2.73854E-12
C:/temp/dataset/7/8_6.odb,Step-1,Increment      1: Step Time =    1.000,"PART-1-1",           140,       1.72347,       26.1851,            0.,NA,NA,"",   384.322E-03,  -381.756E-03,  -44.3419E-03,   2.78630E-12
C:/temp/dataset/7/8_6.odb,Step-1,Increment      1: Step Time =    1.000,"PART-1-1",           141,       6.12189,       25.7754,            0.,NA,NA,"",   379.686E-03,  -379.301E-03,  -17.0787E-03,   4.46318E-12
C:/temp/dataset/7/8_6.odb,Step-1,Increment      1: Step Time =    1.000,"PART-1-1",           142,       7.62725,       25.7499,            0.,NA,NA,"",   379.251E-03,  -379.172E-03,  -7.75007E-03,   4.45134E-12
C:/temp/dataset/7/8_6.odb,Step-1,Increment      1: Step Time =    1.000,"PART-1-1",           143,       3.76931,       25.0880,            0.,NA,NA,"",   376.329E-03,  -374.997E-03,  -31.6435E-03,   4.29485E-12
C:/temp/dataset/7/8_6.odb,Step-1,Increment      1: Step Time =    1.000,"PART-1-1",           144,  -231.428E-03,       26.1188,            0.,NA,NA,"",   385.464E-03,  -381.307E-03,  -56.4544E-03,   2.64608E-12
C:/temp/dataset/7/8_6.odb,Step-1,Increment      1: Step Time =    1.000,"PART-1-1",           145,      -2.48530,       25.9891,            0.,NA,NA,"",   386.922E-03,  -380.460E-03,  -70.4183E-03,   2.68951E-12
C:/temp/dataset/7/8_6.odb,Step-1,Increment      1: Step Time =    1.000,"PART-1-1",           146,      -3.63425,       26.9302,            0.,NA,NA,"",   393.979E-03,  -386.270E-03,  -77.5559E-03,   2.72775E-12
C:/temp/dataset/7/8_6.odb,Step-1,Increment      1: Step Time =    1.000,"PART-1-1",           147,      -8.31738,       25.8431,            0.,NA,NA,"",   394.121E-03,  -379.443E-03,  -106.555E-03,   2.76629E-12
C:/temp/dataset/7/8_6.odb,Step-1,Increment      1: Step Time =    1.000,"PART-1-1",           148,       9.04714,   705.037E-03,            0.,NA,NA,"",   224.011E-03,  -224.006E-03,   1.52906E-03,   190.840E-09
C:/temp/dataset/7/8_6.odb,Step-1,Increment      1: Step Time =    1.000,"PART-1-1",           149,       7.85197,      -7.06885,            0.,NA,NA,"",   175.908E-03,  -175.815E-03,  -5.72860E-03,   1.62795E-06
C:/temp/dataset/7/8_6.odb,Step-1,Increment      1: Step Time =    1.000,"PART-1-1",           150,       8.74205,      -22.9842,            0.,NA,NA,"",   73.4652E-03,  -73.4651E-03,   127.675E-06,   1.84924E-03
C:/temp/dataset/7/8_6.odb,Step-1,Increment      1: Step Time =    1.000,"PART-1-1",           151,       9.28078,      -15.1075,            0.,NA,NA,"",   126.149E-03,  -126.100E-03,   3.49478E-03,   134.234E-06
C:/temp/dataset/7/8_6.odb,Step-1,Increment      1: Step Time =    1.000,"PART-1-1",           152,       8.97855,      -1.55139,            0.,NA,NA,"",   210.025E-03,  -210.022E-03,   1.14691E-03,   426.148E-09
C:/temp/dataset/7/8_6.odb,Step-1,Increment      1: Step Time =    1.000,"PART-1-1",           153,       9.09422,       9.69450,            0.,NA,NA,"",   279.716E-03,  -279.711E-03,   1.64842E-03,   1.82324E-09
C:/temp/dataset/7/8_6.odb,Step-1,Increment      1: Step Time =    1.000,"PART-1-1",           154,       8.44946,       15.5970,            0.,NA,NA,"",   316.284E-03,  -316.274E-03,  -2.46022E-03,   344.641E-12
C:/temp/dataset/7/8_6.odb,Step-1,Increment      1: Step Time =    1.000,"PART-1-1",           155,       9.11701,       7.46178,            0.,NA,NA,"",   265.882E-03,  -265.876E-03,   1.83254E-03,   3.30789E-09
C:/temp/dataset/7/8_6.odb,Step-1,Increment      1: Step Time =    1.000,"PART-1-1",           156,       8.83101,       13.9442,            0.,NA,NA,"",   306.040E-03,  -306.040E-03,  -64.1589E-06,   699.998E-12
C:/temp/dataset/7/8_6.odb,Step-1,Increment      1: Step Time =    1.000,"PART-1-1",           157,       9.61385,      -19.9311,            0.,NA,NA,"",   96.3008E-03,  -96.0993E-03,   6.22578E-03,   308.806E-06
C:/temp/dataset/7/8_6.odb,Step-1,Increment      1: Step Time =    1.000,"PART-1-1",           158,       9.10031,       2.95854,            0.,NA,NA,"",   237.978E-03,  -237.971E-03,   1.81546E-03,   70.5302E-09
C:/temp/dataset/7/8_6.odb,Step-1,Increment      1: Step Time =    1.000,"PART-1-1",           159,       9.17986,      -12.8049,            0.,NA,NA,"",   140.357E-03,  -140.332E-03,   2.68144E-03,   59.3979E-06
C:/temp/dataset/7/8_6.odb,Step-1,Increment      1: Step Time =    1.000,"PART-1-1",           160,       8.54844,      -8.43147,            0.,NA,NA,"",   167.394E-03,  -167.388E-03,  -1.38543E-03,   5.31392E-06
C:/temp/dataset/7/8_6.odb,Step-1,Increment      1: Step Time =    1.000,"PART-1-1",           161,       8.46228,      -5.79934,            0.,NA,NA,"",   183.701E-03,  -183.690E-03,  -1.97186E-03,   665.197E-09
C:/temp/dataset/7/8_6.odb,Step-1,Increment      1: Step Time =    1.000,"PART-1-1",           162,       8.97830,      -10.5487,            0.,NA,NA,"",   154.293E-03,  -154.287E-03,   1.33296E-03,   19.8240E-06
C:/temp/dataset/7/8_6.odb,Step-1,Increment      1: Step Time =    1.000,"PART-1-1",           163,       8.84007,      -3.76868,            0.,NA,NA,"",   196.280E-03,  -196.280E-03,   330.673E-06,   612.762E-09
C:/temp/dataset/7/8_6.odb,Step-1,Increment      1: Step Time =    1.000,"PART-1-1",           164,       9.12644,       5.21383,            0.,NA,NA,"",   251.954E-03,  -251.947E-03,   1.93410E-03,   18.6517E-09
C:/temp/dataset/7/8_6.odb,Step-1,Increment      1: Step Time =    1.000,"PART-1-1",           165,       9.36869,      -17.5094,            0.,NA,NA,"",   111.339E-03,  -111.253E-03,   4.39342E-03,   225.760E-06
C:/temp/dataset/7/8_6.odb,Step-1,Increment      1: Step Time =    1.000,"PART-1-1",           166,       9.01212,       11.8707,            0.,NA,NA,"",   293.197E-03,  -293.195E-03,   1.09794E-03,   1.33258E-09
C:/temp/dataset/7/8_6.odb,Step-1,Increment      1: Step Time =    1.000,"PART-1-1",           167,       9.60003,       16.9835,            0.,NA,NA,"",   324.921E-03,  -324.888E-03,   4.64281E-03,   192.359E-12
C:/temp/dataset/7/8_6.odb,Step-1,Increment      1: Step Time =    1.000,"PART-1-1",           168,       7.13047,       19.6676,            0.,NA,NA,"",   341.641E-03,  -341.473E-03,  -10.7116E-03,   25.8753E-12
C:/temp/dataset/7/8_6.odb,Step-1,Increment      1: Step Time =    1.000,"PART-1-1",           169,       9.55406,      -25.2995,            0.,NA,NA,"",   52.8646E-03,  -52.8032E-03,   2.54642E-03,   4.93120E-03
C:/temp/dataset/7/8_6.odb,Step-1,Increment      1: Step Time =    1.000,"PART-1-1",           170,       12.3800,      -27.4389,            0.,NA,NA,"",   37.9823E-03,  -37.1650E-03,   7.83684E-03,   9.92276E-03
C:/temp/dataset/7/8_6.odb,Step-1,Increment      1: Step Time =    1.000,"PART-1-1",           171,      -11.9351,       22.4166,            0.,NA,NA,"",   380.634E-03,  -358.141E-03,  -128.906E-03,   2.78000E-12
C:/temp/dataset/7/8_6.odb,Step-1,Increment      1: Step Time =    1.000,"PART-1-1",           172,       10.9842,      -1.93535,            0.,NA,NA,"",   208.126E-03,  -207.682E-03,   13.5825E-03,   460.056E-09
C:/temp/dataset/7/8_6.odb,Step-1,Increment      1: Step Time =    1.000,"PART-1-1",           173,       11.2234,      -14.9909,            0.,NA,NA,"",   127.637E-03,  -126.692E-03,   15.5053E-03,   135.903E-06
C:/temp/dataset/7/8_6.odb,Step-1,Increment      1: Step Time =    1.000,"PART-1-1",           174,       11.0574,       21.1283,            0.,NA,NA,"",   350.863E-03,  -350.599E-03,   13.5938E-03,   15.9444E-12
C:/temp/dataset/7/8_6.odb,Step-1,Increment      1: Step Time =    1.000,"PART-1-1",           175,       10.7466,       19.4847,            0.,NA,NA,"",   340.610E-03,  -340.409E-03,   11.6997E-03,   52.2174E-12
C:/temp/dataset/7/8_6.odb,Step-1,Increment      1: Step Time =    1.000,"PART-1-1",           176,       11.0568,   433.028E-03,            0.,NA,NA,"",   222.799E-03,  -222.359E-03,   13.9874E-03,   217.659E-09
C:/temp/dataset/7/8_6.odb,Step-1,Increment      1: Step Time =    1.000,"PART-1-1",           177,       10.9662,       12.1205,            0.,NA,NA,"",   295.075E-03,  -294.780E-03,   13.2021E-03,   1.25712E-09
C:/temp/dataset/7/8_6.odb,Step-1,Increment      1: Step Time =    1.000,"PART-1-1",           178,       11.6216,      -21.4567,            0.,NA,NA,"",   89.9388E-03,  -88.0179E-03,   18.4889E-03,   1.31296E-03
C:/temp/dataset/7/8_6.odb,Step-1,Increment      1: Step Time =    1.000,"PART-1-1",           179,       11.2975,      -17.3958,            0.,NA,NA,"",   113.003E-03,  -111.819E-03,   16.3149E-03,   231.152E-06
C:/temp/dataset/7/8_6.odb,Step-1,Increment      1: Step Time =    1.000,"PART-1-1",           180,       10.6273,       14.4803,            0.,NA,NA,"",   309.594E-03,  -309.396E-03,   11.0567E-03,   582.210E-12
C:/temp/dataset/7/8_6.odb,Step-1,Increment      1: Step Time =    1.000,"PART-1-1",           181,       11.1012,       2.78293,            0.,NA,NA,"",   237.348E-03,  -236.921E-03,   14.2177E-03,   74.4814E-09
C:/temp/dataset/7/8_6.odb,Step-1,Increment      1: Step Time =    1.000,"PART-1-1",           182,       11.1153,       7.46695,            0.,NA,NA,"",   266.326E-03,  -265.947E-03,   14.2152E-03,   3.13178E-09
C:/temp/dataset/7/8_6.odb,Step-1,Increment      1: Step Time =    1.000,"PART-1-1",           183,       11.1247,      -12.5851,            0.,NA,NA,"",   142.411E-03,  -141.649E-03,   14.7154E-03,   52.2707E-06
C:/temp/dataset/7/8_6.odb,Step-1,Increment      1: Step Time =    1.000,"PART-1-1",           184,       10.4094,      -7.19663,            0.,NA,NA,"",   175.360E-03,  -175.067E-03,   10.1207E-03,   2.04934E-06
C:/temp/dataset/7/8_6.odb,Step-1,Increment      1: Step Time =    1.000,"PART-1-1",           185,       10.4303,      -22.2648,            0.,NA,NA,"",   82.0804E-03,  -81.3908E-03,   10.6173E-03,   1.65208E-03
C:/temp/dataset/7/8_6.odb,Step-1,Increment      1: Step Time =    1.000,"PART-1-1",           186,       10.9130,      -10.1038,            0.,NA,NA,"",   157.614E-03,  -157.051E-03,   13.3089E-03,   15.5323E-06
C:/temp/dataset/7/8_6.odb,Step-1,Increment      1: Step Time =    1.000,"PART-1-1",           187,       10.8491,      -4.38491,            0.,NA,NA,"",   192.925E-03,  -192.500E-03,   12.7912E-03,   744.483E-09
C:/temp/dataset/7/8_6.odb,Step-1,Increment      1: Step Time =    1.000,"PART-1-1",           188,       11.1275,       5.13070,            0.,NA,NA,"",   251.878E-03,  -251.470E-03,   14.3358E-03,   19.3745E-09
C:/temp/dataset/7/8_6.odb,Step-1,Increment      1: Step Time =    1.000,"PART-1-1",           189,       11.0819,       9.79848,            0.,NA,NA,"",   280.741E-03,  -280.394E-03,   13.9636E-03,   1.81162E-09
C:/temp/dataset/7/8_6.odb,Step-1,Increment      1: Step Time =    1.000,"PART-1-1",           190,       12.1026,      -24.5603,            0.,NA,NA,"",   70.3536E-03,  -68.6311E-03,   15.4729E-03,   6.20653E-03
C:/temp/dataset/7/8_6.odb,Step-1,Increment      1: Step Time =    1.000,"PART-1-1",           191,      -7.61069,       24.2264,            0.,NA,NA,"",   383.299E-03,  -369.439E-03,  -102.145E-03,   2.76720E-12
C:/temp/dataset/7/8_6.odb,Step-1,Increment      1: Step Time =    1.000,"PART-1-1",           192,      -5.77678,       24.2650,            0.,NA,NA,"",   380.696E-03,  -369.714E-03,  -90.7812E-03,   2.75411E-12
C:/temp/dataset/7/8_6.odb,Step-1,Increment      1: Step Time =    1.000,"PART-1-1",           193,       1.00958,       23.8763,            0.,NA,NA,"",   370.651E-03,  -367.435E-03,  -48.7212E-03,   2.88592E-12
C:/temp/dataset/7/8_6.odb,Step-1,Increment      1: Step Time =    1.000,"PART-1-1",           194,      -3.86757,       24.8145,            0.,NA,NA,"",   381.418E-03,  -373.155E-03,  -78.9611E-03,   2.72660E-12
C:/temp/dataset/7/8_6.odb,Step-1,Increment      1: Step Time =    1.000,"PART-1-1",           195,  -996.969E-03,       24.6602,            0.,NA,NA,"",   377.247E-03,  -372.254E-03,  -61.1701E-03,   2.65545E-12
C:/temp/dataset/7/8_6.odb,Step-1,Increment      1: Step Time =    1.000,"PART-1-1",           196,       7.19995,       21.7613,            0.,NA,NA,"",   354.598E-03,  -354.448E-03,  -10.3213E-03,   8.37223E-12
C:/temp/dataset/7/8_6.odb,Step-1,Increment      1: Step Time =    1.000,"PART-1-1",           197,       2.92747,       22.7842,            0.,NA,NA,"",   362.579E-03,  -360.705E-03,  -36.8159E-03,   4.05613E-12
C:/temp/dataset/7/8_6.odb,Step-1,Increment      1: Step Time =    1.000,"PART-1-1",           198,       5.53232,       24.2100,            0.,NA,NA,"",   370.169E-03,  -369.590E-03,  -20.7020E-03,   5.00257E-12
C:/temp/dataset/7/8_6.odb,Step-1,Increment      1: Step Time =    1.000,"PART-1-1",           199,       9.18626,       19.3402,            0.,NA,NA,"",   339.490E-03,  -339.484E-03,   2.03360E-03,   42.7216E-12
C:/temp/dataset/7/8_6.odb,Step-1,Increment      1: Step Time =    1.000,"PART-1-1",           200,       11.2321,       23.1770,            0.,NA,NA,"",   363.593E-03,  -363.298E-03,   14.6370E-03,   6.66538E-12
C:/temp/dataset/7/8_6.odb,Step-1,Increment      1: Step Time =    1.000,"PART-1-1",           201,       5.11021,       22.1378,            0.,NA,NA,"",   357.500E-03,  -356.741E-03,  -23.2778E-03,   8.38703E-12
C:/temp/dataset/7/8_6.odb,Step-1,Increment      1: Step Time =    1.000,"PART-1-1",           202,   167.280E-03,       22.2372,            0.,NA,NA,"",   361.306E-03,  -357.262E-03,  -53.9092E-03,   2.69844E-12
C:/temp/dataset/7/8_6.odb,Step-1,Increment      1: Step Time =    1.000,"PART-1-1",           203,      -2.32264,       22.6339,            0.,NA,NA,"",   366.297E-03,  -359.673E-03,  -69.3459E-03,   2.72677E-12
C:/temp/dataset/7/8_6.odb,Step-1,Increment      1: Step Time =    1.000,"PART-1-1",           204,       9.17324,       21.4477,            0.,NA,NA,"",   352.548E-03,  -352.543E-03,   1.91242E-03,   13.5343E-12
C:/temp/dataset/7/8_6.odb,Step-1,Increment      1: Step Time =    1.000,"PART-1-1",           205,       9.43619,       25.5889,            0.,NA,NA,"",   378.225E-03,  -378.209E-03,   3.46231E-03,   4.70182E-12
C:/temp/dataset/7/8_6.odb,Step-1,Increment      1: Step Time =    1.000,"PART-1-1",           206,      -5.39738,       22.2321,            0.,NA,NA,"",   367.900E-03,  -357.123E-03,  -88.3912E-03,   2.77726E-12
C:/temp/dataset/7/8_6.odb,Step-1,Increment      1: Step Time =    1.000,"PART-1-1",           207,      -8.66915,       22.6604,            0.,NA,NA,"",   375.772E-03,  -359.715E-03,  -108.673E-03,   2.77670E-12
C:/temp/dataset/7/8_6.odb,Step-1,Increment      1: Step Time =    1.000,"PART-1-1",           208,      -12.8188,       27.4435,            0.,NA,NA,"",   411.848E-03,  -389.274E-03,  -134.479E-03,   2.77576E-12
C:/temp/dataset/7/8_6.odb,Step-1,Increment      1: Step Time =    1.000,"PART-1-1",           209,       7.43992,       23.7550,            0.,NA,NA,"",   366.914E-03,  -366.807E-03,  -8.87256E-03,   6.47772E-12
C:/temp/dataset/7/8_6.odb,Step-1,Increment      1: Step Time =    1.000,"PART-1-1",           210,      -6.48406,       26.1481,            0.,NA,NA,"",   393.072E-03,  -381.369E-03,  -95.2001E-03,   2.75461E-12
C:/temp/dataset/7/8_6.odb,Step-1,Increment      1: Step Time =    1.000,"PART-1-1",           211,       3.18484,       28.0088,            0.,NA,NA,"",   394.668E-03,  -393.084E-03,  -35.3213E-03,   2.78573E-12
C:/temp/dataset/7/8_6.odb,Step-1,Increment      1: Step Time =    1.000,"PART-1-1",           212,       11.4304,      -19.6429,            0.,NA,NA,"",   99.7732E-03,  -98.2324E-03,   17.4667E-03,   332.442E-06
C:/temp/dataset/7/8_6.odb,Step-1,Increment      1: Step Time =    1.000,"PART-1-1",           213,       9.33060,       23.4727,            0.,NA,NA,"",   365.105E-03,  -365.094E-03,   2.84864E-03,   6.54410E-12
C:/temp/dataset/7/8_6.odb,Step-1,Increment      1: Step Time =    1.000,"PART-1-1",           214,      -12.1707,       23.6708,            0.,NA,NA,"",   388.447E-03,  -365.909E-03,  -130.390E-03,   2.77700E-12
C:/temp/dataset/7/8_6.odb,Step-1,Increment      1: Step Time =    1.000,"PART-1-1",           215,      -13.7031,       24.9625,            0.,NA,NA,"",   399.204E-03,  -373.883E-03,  -139.911E-03,   2.77452E-12
C:/temp/dataset/7/8_6.odb,Step-1,Increment      1: Step Time =    1.000,"PART-1-1",           216,          -15.,         23.75,            0.,NA,NA,"",   395.083E-03,  -366.345E-03,  -147.924E-03,   2.77380E-12
C:/temp/dataset/7/8_6.odb,Step-1,Increment      1: Step Time =    1.000,"PART-1-1",           217,      -13.4675,       22.4583,            0.,NA,NA,"",   384.168E-03,  -358.370E-03,  -138.403E-03,   2.77609E-12
C:/temp/dataset/7/8_6.odb,Step-1,Increment      1: Step Time =    1.000,"PART-1-1",           218,      -9.86170,       27.7278,            0.,NA,NA,"",   407.979E-03,  -391.093E-03,  -116.160E-03,   2.76936E-12
C:/temp/dataset/7/8_6.odb,Step-1,Increment      1: Step Time =    1.000,"PART-1-1",           219,      -10.4490,       26.4258,            0.,NA,NA,"",   401.304E-03,  -383.013E-03,  -119.775E-03,   2.77120E-12
C:/temp/dataset/7/8_6.odb,Step-1,Increment      1: Step Time =    1.000,"PART-1-1",           220,      -9.20914,       25.5437,            0.,NA,NA,"",   393.854E-03,  -377.571E-03,  -112.075E-03,   2.76886E-12
C:/temp/dataset/7/8_6.odb,Step-1,Increment      1: Step Time =    1.000,"PART-1-1",           221,      -8.62185,       26.8458,            0.,NA,NA,"",   400.612E-03,  -385.651E-03,  -108.461E-03,   2.76661E-12
C:/temp/dataset/7/8_6.odb,Step-1,Increment      1: Step Time =    1.000,"PART-1-1",           222,      -9.15066,       28.9242,            0.,NA,NA,"",   413.899E-03,  -398.520E-03,  -111.777E-03,   2.76788E-12
C:/temp/dataset/7/8_6.odb,Step-1,Increment      1: Step Time =    1.000,"PART-1-1",           223,      -10.3125,           30.,            0.,NA,NA,"",   422.277E-03,  -405.164E-03,  -118.997E-03,   2.76977E-12
C:/temp/dataset/7/8_6.odb,Step-1,Increment      1: Step Time =    1.000,"PART-1-1",           224,      -11.0235,       28.8036,            0.,NA,NA,"",   416.434E-03,  -397.737E-03,  -123.381E-03,   2.77139E-12
C:/temp/dataset/7/8_6.odb,Step-1,Increment      1: Step Time =    1.000,"PART-1-1",           225,      -11.2536,       25.0847,            0.,NA,NA,"",   394.904E-03,  -374.687E-03,  -124.734E-03,   2.77329E-12
C:/temp/dataset/7/8_6.odb,Step-1,Increment      1: Step Time =    1.000,"PART-1-1",           226,      -10.3021,       22.5385,            0.,NA,NA,"",   378.074E-03,  -358.928E-03,  -118.790E-03,   2.77805E-12
C:/temp/dataset/7/8_6.odb,Step-1,Increment      1: Step Time =    1.000,"PART-1-1",           227,      -9.38503,       23.9523,            0.,NA,NA,"",   384.718E-03,  -367.707E-03,  -113.134E-03,   2.77431E-12
C:/temp/dataset/7/8_6.odb,Step-1,Increment      1: Step Time =    1.000,"PART-1-1",           228,      -12.9719,       28.7217,            0.,NA,NA,"",   419.653E-03,  -397.192E-03,  -135.452E-03,   2.77521E-12
C:/temp/dataset/7/8_6.odb,Step-1,Increment      1: Step Time =    1.000,"PART-1-1",           229,      -14.0625,           30.,            0.,NA,NA,"",   429.337E-03,  -405.092E-03,  -142.235E-03,   2.78092E-12
C:/temp/dataset/7/8_6.odb,Step-1,Increment      1: Step Time =    1.000,"PART-1-1",           230,          -15.,         28.75,            0.,NA,NA,"",   424.004E-03,  -397.328E-03,  -148.020E-03,   2.78542E-12
C:/temp/dataset/7/8_6.odb,Step-1,Increment      1: Step Time =    1.000,"PART-1-1",           231,      -13.9094,       27.4717,            0.,NA,NA,"",   414.249E-03,  -389.428E-03,  -141.237E-03,   2.77851E-12
C:/temp/dataset/7/8_6.odb,Step-1,Increment      1: Step Time =    1.000,"PART-1-1",           232,      -7.40072,       25.9956,            0.,NA,NA,"",   393.554E-03,  -380.406E-03,  -100.877E-03,   2.76067E-12
C:/temp/dataset/7/8_6.odb,Step-1,Increment      1: Step Time =    1.000,"PART-1-1",           233,      -7.96404,       25.0347,            0.,NA,NA,"",   388.709E-03,  -374.441E-03,  -104.350E-03,   2.76608E-12
C:/temp/dataset/7/8_6.odb,Step-1,Increment      1: Step Time =    1.000,"PART-1-1",           234,      -6.69374,       24.2457,            0.,NA,NA,"",   381.958E-03,  -369.576E-03,  -96.4629E-03,   2.76041E-12
C:/temp/dataset/7/8_6.odb,Step-1,Increment      1: Step Time =    1.000,"PART-1-1",           235,      -6.13042,       25.2066,            0.,NA,NA,"",   386.883E-03,  -375.541E-03,  -92.9907E-03,   2.75593E-12
C:/temp/dataset/7/8_6.odb,Step-1,Increment      1: Step Time =    1.000,"PART-1-1",           236,      -5.46940,       29.1125,            0.,NA,NA,"",   409.538E-03,  -399.757E-03,  -88.9696E-03,   2.76279E-12
C:/temp/dataset/7/8_6.odb,Step-1,Increment      1: Step Time =    1.000,"PART-1-1",           237,      -4.41178,       28.2246,            0.,NA,NA,"",   402.794E-03,  -394.276E-03,  -82.3989E-03,   2.74653E-12
C:/temp/dataset/7/8_6.odb,Step-1,Increment      1: Step Time =    1.000,"PART-1-1",           238,      -3.62988,       29.1121,            0.,NA,NA,"",   407.246E-03,  -399.790E-03,  -77.5708E-03,   2.75802E-12
C:/temp/dataset/7/8_6.odb,Step-1,Increment      1: Step Time =    1.000,"PART-1-1",           239,       -4.6875,           30.,            0.,NA,NA,"",   413.914E-03,  -405.272E-03,  -84.1415E-03,   2.77117E-12
C:/temp/dataset/7/8_6.odb,Step-1,Increment      1: Step Time =    1.000,"PART-1-1",           240,  -467.629E-03,       27.9420,            0.,NA,NA,"",   396.854E-03,  -392.600E-03,  -57.9530E-03,   2.65286E-12
C:/temp/dataset/7/8_6.odb,Step-1,Increment      1: Step Time =    1.000,"PART-1-1",           241,  -845.263E-03,       26.9234,            0.,NA,NA,"",   390.955E-03,  -386.281E-03,  -60.2735E-03,   2.66358E-12
C:/temp/dataset/7/8_6.odb,Step-1,Increment      1: Step Time =    1.000,"PART-1-1",           242,   746.021E-03,       26.1520,            0.,NA,NA,"",   384.846E-03,  -381.531E-03,  -50.3981E-03,   2.73766E-12
C:/temp/dataset/7/8_6.odb,Step-1,Increment      1: Step Time =    1.000,"PART-1-1",           243,       1.12365,       27.1705,            0.,NA,NA,"",   390.819E-03,  -387.850E-03,  -48.0776E-03,   2.68236E-12
C:/temp/dataset/7/8_6.odb,Step-1,Increment      1: Step Time =    1.000,"PART-1-1",           244,       14.0901,       25.0896,            0.,NA,NA,"",   376.593E-03,  -375.205E-03,   32.3103E-03,   4.47030E-12
C:/temp/dataset/7/8_6.odb,Step-1,Increment      1: Step Time =    1.000,"PART-1-1",           245,       13.1528,       23.9903,            0.,NA,NA,"",   369.328E-03,  -368.375E-03,   26.5232E-03,   5.37342E-12
C:/temp/dataset/7/8_6.odb,Step-1,Increment      1: Step Time =    1.000,"PART-1-1",           246,       14.0627,       22.6507,            0.,NA,NA,"",   361.527E-03,  -360.091E-03,   32.1873E-03,   7.23607E-12
C:/temp/dataset/7/8_6.odb,Step-1,Increment      1: Step Time =    1.000,"PART-1-1",           247,           15.,         23.75,            0.,NA,NA,"",   368.881E-03,  -366.921E-03,   37.9745E-03,   8.42726E-12
C:/temp/dataset/7/8_6.odb,Step-1,Increment      1: Step Time =    1.000,"PART-1-1",           248,       11.2764,       28.8302,            0.,NA,NA,"",   398.605E-03,  -398.330E-03,   14.8033E-03,   3.07206E-12
C:/temp/dataset/7/8_6.odb,Step-1,Increment      1: Step Time =    1.000,"PART-1-1",           249,       10.3125,           30.,            0.,NA,NA,"",   405.656E-03,  -405.560E-03,   8.80781E-03,   3.02345E-12
C:/temp/dataset/7/8_6.odb,Step-1,Increment      1: Step Time =    1.000,"PART-1-1",           250,       9.39543,       28.8642,            0.,NA,NA,"",   398.517E-03,  -398.504E-03,   3.14689E-03,   3.14267E-12
C:/temp/dataset/7/8_6.odb,Step-1,Increment      1: Step Time =    1.000,"PART-1-1",           251,       10.3594,       27.6945,            0.,NA,NA,"",   391.381E-03,  -391.274E-03,   9.14239E-03,   3.48929E-12
C:/temp/dataset/7/8_6.odb,Step-1,Increment      1: Step Time =    1.000,"PART-1-1",           252,        8.4375,           30.,            0.,NA,NA,"",   405.534E-03,  -405.524E-03,  -2.81086E-03,   3.48532E-12
C:/temp/dataset/7/8_6.odb,Step-1,Increment      1: Step Time =    1.000,"PART-1-1",           253,       7.48312,       28.8587,            0.,NA,NA,"",   398.529E-03,  -398.434E-03,  -8.70287E-03,   3.00192E-12
C:/temp/dataset/7/8_6.odb,Step-1,Increment      1: Step Time =    1.000,"PART-1-1",           254,       8.44105,       27.7230,            0.,NA,NA,"",   391.424E-03,  -391.414E-03,  -2.74512E-03,   2.99993E-12
C:/temp/dataset/7/8_6.odb,Step-1,Increment      1: Step Time =    1.000,"PART-1-1",           255,       13.0365,       21.6252,            0.,NA,NA,"",   354.660E-03,  -353.716E-03,   25.8481E-03,   4.69390E-12
C:/temp/dataset/7/8_6.odb,Step-1,Increment      1: Step Time =    1.000,"PART-1-1",           256,       13.9738,       20.2245,            0.,NA,NA,"",   346.506E-03,  -345.055E-03,   31.6832E-03,   7.81896E-12
C:/temp/dataset/7/8_6.odb,Step-1,Increment      1: Step Time =    1.000,"PART-1-1",           257,           15.,         21.25,            0.,NA,NA,"",   353.480E-03,  -351.429E-03,   38.0224E-03,   14.7199E-12
C:/temp/dataset/7/8_6.odb,Step-1,Increment      1: Step Time =    1.000,"PART-1-1",           258,       6.90015,       14.7921,            0.,NA,NA,"",   311.490E-03,  -311.257E-03,  -12.0453E-03,   451.368E-12
C:/temp/dataset/7/8_6.odb,Step-1,Increment      1: Step Time =    1.000,"PART-1-1",           259,       5.93474,       15.8126,            0.,NA,NA,"",   318.075E-03,  -317.562E-03,  -18.0471E-03,   169.868E-12
C:/temp/dataset/7/8_6.odb,Step-1,Increment      1: Step Time =    1.000,"PART-1-1",           260,            5.,       14.7917,            0.,NA,NA,"",   312.128E-03,  -311.218E-03,  -23.8197E-03,   341.904E-12
C:/temp/dataset/7/8_6.odb,Step-1,Increment      1: Step Time =    1.000,"PART-1-1",           261,       5.96541,       13.7711,            0.,NA,NA,"",   305.433E-03,  -304.912E-03,  -17.8179E-03,   476.666E-12
C:/temp/dataset/7/8_6.odb,Step-1,Increment      1: Step Time =    1.000,"PART-1-1",           262,       7.07741,       8.55300,            0.,NA,NA,"",   272.814E-03,  -272.599E-03,  -10.8271E-03,   915.149E-12
C:/temp/dataset/7/8_6.odb,Step-1,Increment      1: Step Time =    1.000,"PART-1-1",           263,       6.03400,       9.60662,            0.,NA,NA,"",   279.644E-03,  -279.108E-03,  -17.3129E-03,   1.96431E-09
C:/temp/dataset/7/8_6.odb,Step-1,Increment      1: Step Time =    1.000,"PART-1-1",           264,            5.,       8.54167,            0.,NA,NA,"",   273.517E-03,  -272.489E-03,  -23.6998E-03,   4.15230E-09
C:/temp/dataset/7/8_6.odb,Step-1,Increment      1: Step Time =    1.000,"PART-1-1",           265,       6.04341,       7.48805,            0.,NA,NA,"",   266.536E-03,  -265.980E-03,  -17.2139E-03,   2.45625E-09
C:/temp/dataset/7/8_6.odb,Step-1,Increment      1: Step Time =    1.000,"PART-1-1",           266,            5.,         4.375,            0.,NA,NA,"",   247.798E-03,  -246.669E-03,  -23.6198E-03,   6.08286E-09
C:/temp/dataset/7/8_6.odb,Step-1,Increment      1: Step Time =    1.000,"PART-1-1",           267,       6.03822,       3.24050,            0.,NA,NA,"",   240.273E-03,  -239.659E-03,  -17.1645E-03,   27.2931E-09
C:/temp/dataset/7/8_6.odb,Step-1,Increment      1: Step Time =    1.000,"PART-1-1",           268,       7.08368,       4.22909,            0.,NA,NA,"",   246.038E-03,  -245.805E-03,  -10.7052E-03,   31.4727E-09
C:/temp/dataset/7/8_6.odb,Step-1,Increment      1: Step Time =    1.000,"PART-1-1",           269,       6.04546,       5.36359,            0.,NA,NA,"",   253.397E-03,  -252.815E-03,  -17.1604E-03,   5.51446E-09
C:/temp/dataset/7/8_6.odb,Step-1,Increment      1: Step Time =    1.000,"PART-1-1",           270,            5.,       2.29167,            0.,NA,NA,"",   234.946E-03,  -233.760E-03,  -23.5798E-03,   50.6662E-09
C:/temp/dataset/7/8_6.odb,Step-1,Increment      1: Step Time =    1.000,"PART-1-1",           271,       6.01828,       1.12309,            0.,NA,NA,"",   227.194E-03,  -226.538E-03,  -17.2474E-03,   91.7802E-09
C:/temp/dataset/7/8_6.odb,Step-1,Increment      1: Step Time =    1.000,"PART-1-1",           272,       7.05649,       2.07193,            0.,NA,NA,"",   232.690E-03,  -232.438E-03,  -10.8322E-03,   98.6193E-09
C:/temp/dataset/7/8_6.odb,Step-1,Increment      1: Step Time =    1.000,"PART-1-1",           273,       7.00178,  -77.9012E-03,            0.,NA,NA,"",   219.397E-03,  -219.115E-03,  -11.1300E-03,   236.419E-09
C:/temp/dataset/7/8_6.odb,Step-1,Increment      1: Step Time =    1.000,"PART-1-1",           274,            5.,   208.333E-03,            0.,NA,NA,"",   222.101E-03,  -220.850E-03,  -23.5396E-03,   182.780E-09
C:/temp/dataset/7/8_6.odb,Step-1,Increment      1: Step Time =    1.000,"PART-1-1",           275,       5.98350,  -992.661E-03,            0.,NA,NA,"",   214.136E-03,  -213.427E-03,  -17.4220E-03,   244.443E-09
C:/temp/dataset/7/8_6.odb,Step-1,Increment      1: Step Time =    1.000,"PART-1-1",           276,       6.59145,      -6.15040,            0.,NA,NA,"",   181.986E-03,  -181.480E-03,  -13.5550E-03,   258.530E-09
C:/temp/dataset/7/8_6.odb,Step-1,Increment      1: Step Time =    1.000,"PART-1-1",           277,       5.82593,      -5.11028,            0.,NA,NA,"",   188.800E-03,  -187.909E-03,  -18.3175E-03,   898.100E-09
C:/temp/dataset/7/8_6.odb,Step-1,Increment      1: Step Time =    1.000,"PART-1-1",           278,            5.,      -6.04167,            0.,NA,NA,"",   183.623E-03,  -182.124E-03,  -23.4150E-03,   1.73848E-06
C:/temp/dataset/7/8_6.odb,Step-1,Increment      1: Step Time =    1.000,"PART-1-1",           279,       5.76552,      -7.08179,            0.,NA,NA,"",   176.683E-03,  -175.696E-03,  -18.6523E-03,   1.08095E-06
C:/temp/dataset/7/8_6.odb,Step-1,Increment      1: Step Time =    1.000,"PART-1-1",           280,       8.25955,      -15.2021,            0.,NA,NA,"",   125.603E-03,  -125.569E-03,  -2.90760E-03,   116.761E-06
C:/temp/dataset/7/8_6.odb,Step-1,Increment      1: Step Time =    1.000,"PART-1-1",           281,       9.23032,      -13.9562,            0.,NA,NA,"",   133.251E-03,  -133.215E-03,   3.07185E-03,   92.8650E-06
C:/temp/dataset/7/8_6.odb,Step-1,Increment      1: Step Time =    1.000,"PART-1-1",           282,       8.16037,      -12.9544,            0.,NA,NA,"",   139.474E-03,  -139.426E-03,  -3.66165E-03,   51.9343E-06
C:/temp/dataset/7/8_6.odb,Step-1,Increment      1: Step Time =    1.000,"PART-1-1",           283,       7.18960,      -14.2003,            0.,NA,NA,"",   132.113E-03,  -131.757E-03,  -9.68914E-03,   89.3245E-06
C:/temp/dataset/7/8_6.odb,Step-1,Increment      1: Step Time =    1.000,"PART-1-1",           284,            5.,      -22.7083,            0.,NA,NA,"",   79.0365E-03,  -74.6787E-03,  -25.8817E-03,   228.021E-06
C:/temp/dataset/7/8_6.odb,Step-1,Increment      1: Step Time =    1.000,"PART-1-1",           285,       5.97351,      -23.6835,            0.,NA,NA,"",   68.7603E-03,  -66.3618E-03,  -18.0025E-03,   838.680E-06
C:/temp/dataset/7/8_6.odb,Step-1,Increment      1: Step Time =    1.000,"PART-1-1",           286,       6.71140,      -22.7416,            0.,NA,NA,"",   75.6732E-03,  -74.5676E-03,  -12.8882E-03,   964.784E-06
C:/temp/dataset/7/8_6.odb,Step-1,Increment      1: Step Time =    1.000,"PART-1-1",           287,       5.73789,      -21.7664,            0.,NA,NA,"",   84.6531E-03,  -82.2649E-03,  -19.9656E-03,   317.354E-06
C:/temp/dataset/7/8_6.odb,Step-1,Increment      1: Step Time =    1.000,"PART-1-1",           288,       9.95056,      -28.8261,            0.,NA,NA,"",   12.5140E-03,  -12.5130E-03,   164.458E-06,   6.90312E-03
C:/temp/dataset/7/8_6.odb,Step-1,Increment      1: Step Time =    1.000,"PART-1-1",           289,       8.67404,      -27.7482,            0.,NA,NA,"",   23.6390E-03,  -23.6039E-03,  -1.28620E-03,   6.60110E-03
C:/temp/dataset/7/8_6.odb,Step-1,Increment      1: Step Time =    1.000,"PART-1-1",           290,       7.47347,      -28.9221,            0.,NA,NA,"",   9.84428E-03,  -9.62733E-03,  -2.05532E-03,   6.12006E-03
C:/temp/dataset/7/8_6.odb,Step-1,Increment      1: Step Time =    1.000,"PART-1-1",           291,          8.75,          -30.,            0.,NA,NA,"",            0.,  -5.40377E-39,  -2.82876E-39,   5.81390E-03
C:/temp/dataset/7/8_6.odb,Step-1,Increment      1: Step Time =    1.000,"PART-1-1",           292,       9.14805,      -24.1419,            0.,NA,NA,"",   63.8401E-03,  -63.8150E-03,   1.78852E-03,   3.34773E-03
C:/temp/dataset/7/8_6.odb,Step-1,Increment      1: Step Time =    1.000,"PART-1-1",           293,       7.84454,      -23.3007,            0.,NA,NA,"",   70.3316E-03,  -70.1304E-03,  -5.31677E-03,   1.66578E-03
C:/temp/dataset/7/8_6.odb,Step-1,Increment      1: Step Time =    1.000,"PART-1-1",           294,       7.10828,      -24.6604,            0.,NA,NA,"",   57.8293E-03,  -57.0526E-03,  -9.44646E-03,   2.73907E-03
C:/temp/dataset/7/8_6.odb,Step-1,Increment      1: Step Time =    1.000,"PART-1-1",           295,       8.41180,      -25.5016,            0.,NA,NA,"",   48.9894E-03,  -48.9331E-03,  -2.34777E-03,   4.33391E-03
C:/temp/dataset/7/8_6.odb,Step-1,Increment      1: Step Time =    1.000,"PART-1-1",           296,       7.00425,      -21.1298,            0.,NA,NA,"",   87.8854E-03,  -87.2034E-03,  -10.9272E-03,   245.650E-06
C:/temp/dataset/7/8_6.odb,Step-1,Increment      1: Step Time =    1.000,"PART-1-1",           297,       6.26636,      -19.9884,            0.,NA,NA,"",   96.4393E-03,  -95.1141E-03,  -15.9325E-03,   223.544E-06
C:/temp/dataset/7/8_6.odb,Step-1,Increment      1: Step Time =    1.000,"PART-1-1",           298,            5.,       -20.625,            0.,NA,NA,"",   93.8201E-03,  -90.4484E-03,  -24.9257E-03,   519.651E-06
C:/temp/dataset/7/8_6.odb,Step-1,Increment      1: Step Time =    1.000,"PART-1-1",           299,       12.8526,      -8.63250,            0.,NA,NA,"",   168.118E-03,  -166.205E-03,   25.2903E-03,   6.25120E-06
C:/temp/dataset/7/8_6.odb,Step-1,Increment      1: Step Time =    1.000,"PART-1-1",           300,       13.9581,      -9.97058,            0.,NA,NA,"",   161.161E-03,  -157.918E-03,   32.1665E-03,   5.77657E-06
C:/temp/dataset/7/8_6.odb,Step-1,Increment      1: Step Time =    1.000,"PART-1-1",           301,           15.,         -8.75,            0.,NA,NA,"",   169.959E-03,  -165.516E-03,   38.6088E-03,   611.598E-09
C:/temp/dataset/7/8_6.odb,Step-1,Increment      1: Step Time =    1.000,"PART-1-1",           302,       13.8945,      -7.41192,            0.,NA,NA,"",   176.667E-03,  -173.795E-03,   31.7257E-03,   971.406E-09
C:/temp/dataset/7/8_6.odb,Step-1,Increment      1: Step Time =    1.000,"PART-1-1",           303,            5.,        10.625,            0.,NA,NA,"",   286.384E-03,  -285.398E-03,  -23.7398E-03,   2.32149E-09
C:/temp/dataset/7/8_6.odb,Step-1,Increment      1: Step Time =    1.000,"PART-1-1",           304,       7.03988,       10.6820,            0.,NA,NA,"",   286.006E-03,  -285.791E-03,  -11.1005E-03,   1.44647E-09
C:/temp/dataset/7/8_6.odb,Step-1,Increment      1: Step Time =    1.000,"PART-1-1",           305,       6.00589,       11.7004,            0.,NA,NA,"",   292.607E-03,  -292.081E-03,  -17.5273E-03,   1.09056E-09
C:/temp/dataset/7/8_6.odb,Step-1,Increment      1: Step Time =    1.000,"PART-1-1",           306,       2.74639,       25.6366,            0.,NA,NA,"",   380.279E-03,  -378.376E-03,  -37.9927E-03,   3.21902E-12
C:/temp/dataset/7/8_6.odb,Step-1,Increment      1: Step Time =    1.000,"PART-1-1",           307,       1.36653,       25.0307,            0.,NA,NA,"",   377.474E-03,  -374.595E-03,  -46.5316E-03,   2.81128E-12
C:/temp/dataset/7/8_6.odb,Step-1,Increment      1: Step Time =    1.000,"PART-1-1",           308,       1.96853,       23.3303,            0.,NA,NA,"",   366.573E-03,  -364.070E-03,  -42.7686E-03,   3.22591E-12
C:/temp/dataset/7/8_6.odb,Step-1,Increment      1: Step Time =    1.000,"PART-1-1",           309,       3.34839,       23.9361,            0.,NA,NA,"",   369.440E-03,  -367.851E-03,  -34.2297E-03,   3.24360E-12
C:/temp/dataset/7/8_6.odb,Step-1,Increment      1: Step Time =    1.000,"PART-1-1",           310,       4.47216,       26.2029,            0.,NA,NA,"",   382.894E-03,  -381.919E-03,  -27.3097E-03,   3.59573E-12
C:/temp/dataset/7/8_6.odb,Step-1,Increment      1: Step Time =    1.000,"PART-1-1",           311,       4.17993,       27.6633,            0.,NA,NA,"",   392.047E-03,  -390.962E-03,  -29.1486E-03,   3.08500E-12
C:/temp/dataset/7/8_6.odb,Step-1,Increment      1: Step Time =    1.000,"PART-1-1",           312,       2.45416,       27.0970,            0.,NA,NA,"",   389.462E-03,  -387.420E-03,  -39.8316E-03,   2.73014E-12
C:/temp/dataset/7/8_6.odb,Step-1,Increment      1: Step Time =    1.000,"PART-1-1",           313,      -1.66705,       28.8640,            0.,NA,NA,"",   403.625E-03,  -398.291E-03,  -65.4031E-03,   2.72523E-12
C:/temp/dataset/7/8_6.odb,Step-1,Increment      1: Step Time =    1.000,"PART-1-1",           314,   261.919E-03,       29.0779,            0.,NA,NA,"",   403.212E-03,  -399.653E-03,  -53.4541E-03,   2.64691E-12
C:/temp/dataset/7/8_6.odb,Step-1,Increment      1: Step Time =    1.000,"PART-1-1",           315,    -937.5E-03,           30.,            0.,NA,NA,"",   409.894E-03,  -405.344E-03,  -60.9042E-03,   2.73032E-12
C:/temp/dataset/7/8_6.odb,Step-1,Increment      1: Step Time =    1.000,"PART-1-1",           316,          -15.,         21.25,            0.,NA,NA,"",   380.743E-03,  -350.853E-03,  -147.876E-03,   2.77859E-12
C:/temp/dataset/7/8_6.odb,Step-1,Increment      1: Step Time =    1.000,"PART-1-1",           317,      -13.3250,           20.,            0.,NA,NA,"",   369.654E-03,  -343.140E-03,  -137.473E-03,   2.78644E-12
C:/temp/dataset/7/8_6.odb,Step-1,Increment      1: Step Time =    1.000,"PART-1-1",           318,      -11.7925,       21.2083,            0.,NA,NA,"",   373.288E-03,  -350.657E-03,  -128.000E-03,   2.78282E-12
C:/temp/dataset/7/8_6.odb,Step-1,Increment      1: Step Time =    1.000,"PART-1-1",           319,       10.1137,       15.7319,            0.,NA,NA,"",   317.239E-03,  -317.142E-03,   7.84975E-03,   369.507E-12
C:/temp/dataset/7/8_6.odb,Step-1,Increment      1: Step Time =    1.000,"PART-1-1",           320,       9.02474,       16.2903,            0.,NA,NA,"",   320.583E-03,  -320.581E-03,   1.09129E-03,   264.637E-12
C:/temp/dataset/7/8_6.odb,Step-1,Increment      1: Step Time =    1.000,"PART-1-1",           321,       8.64023,       14.7706,            0.,NA,NA,"",   311.160E-03,  -311.157E-03,  -1.26219E-03,   511.810E-12
C:/temp/dataset/7/8_6.odb,Step-1,Increment      1: Step Time =    1.000,"PART-1-1",           322,       9.72917,       14.2122,            0.,NA,NA,"",   307.767E-03,  -307.718E-03,   5.49626E-03,   593.391E-12
C:/temp/dataset/7/8_6.odb,Step-1,Increment      1: Step Time =    1.000,"PART-1-1",           323,       12.8210,       13.6438,            0.,NA,NA,"",   305.253E-03,  -304.255E-03,   24.6663E-03,   732.076E-12
C:/temp/dataset/7/8_6.odb,Step-1,Increment      1: Step Time =    1.000,"PART-1-1",           324,       13.9730,       12.4303,            0.,NA,NA,"",   298.460E-03,  -296.758E-03,   31.8276E-03,   817.698E-12
C:/temp/dataset/7/8_6.odb,Step-1,Increment      1: Step Time =    1.000,"PART-1-1",           325,           15.,         13.75,            0.,NA,NA,"",   307.334E-03,  -304.955E-03,   38.1664E-03,   638.122E-12
C:/temp/dataset/7/8_6.odb,Step-1,Increment      1: Step Time =    1.000,"PART-1-1",           326,       13.8481,       14.9635,            0.,NA,NA,"",   313.987E-03,  -312.452E-03,   31.0051E-03,   266.567E-12
C:/temp/dataset/7/8_6.odb,Step-1,Increment      1: Step Time =    1.000,"PART-1-1",           327,       10.1008,       2.87074,            0.,NA,NA,"",   237.581E-03,  -237.446E-03,   8.01659E-03,   66.5023E-09
C:/temp/dataset/7/8_6.odb,Step-1,Increment      1: Step Time =    1.000,"PART-1-1",           328,       9.07373,       1.83179,            0.,NA,NA,"",   230.994E-03,  -230.988E-03,   1.67228E-03,   129.307E-09
C:/temp/dataset/7/8_6.odb,Step-1,Increment      1: Step Time =    1.000,"PART-1-1",           329,       10.0520,   569.032E-03,            0.,NA,NA,"",   223.317E-03,  -223.182E-03,   7.75820E-03,   186.378E-09
C:/temp/dataset/7/8_6.odb,Step-1,Increment      1: Step Time =    1.000,"PART-1-1",           330,       11.0790,       1.60798,            0.,NA,NA,"",   230.073E-03,  -229.640E-03,   14.1026E-03,   143.410E-09
C:/temp/dataset/7/8_6.odb,Step-1,Increment      1: Step Time =    1.000,"PART-1-1",           331,       9.98138,      -1.74337,            0.,NA,NA,"",   208.982E-03,  -208.852E-03,   7.36461E-03,   400.762E-09
C:/temp/dataset/7/8_6.odb,Step-1,Increment      1: Step Time =    1.000,"PART-1-1",           332,       8.90931,      -2.66004,            0.,NA,NA,"",   203.152E-03,  -203.151E-03,   738.828E-06,   490.134E-09
C:/temp/dataset/7/8_6.odb,Step-1,Increment      1: Step Time =    1.000,"PART-1-1",           333,       9.84458,      -4.07679,            0.,NA,NA,"",   194.501E-03,  -194.390E-03,   6.56069E-03,   631.322E-09
C:/temp/dataset/7/8_6.odb,Step-1,Increment      1: Step Time =    1.000,"PART-1-1",           334,       10.9167,      -3.16013,            0.,NA,NA,"",   200.525E-03,  -200.091E-03,   13.1869E-03,   532.581E-09
C:/temp/dataset/7/8_6.odb,Step-1,Increment      1: Step Time =    1.000,"PART-1-1",           335,            5.,      -3.95833,            0.,NA,NA,"",   196.437E-03,  -195.031E-03,  -23.4577E-03,   1.06264E-06
C:/temp/dataset/7/8_6.odb,Step-1,Increment      1: Step Time =    1.000,"PART-1-1",           336,       6.75254,      -4.23112,            0.,NA,NA,"",   193.784E-03,  -193.374E-03,  -12.5943E-03,   551.412E-09
C:/temp/dataset/7/8_6.odb,Step-1,Increment      1: Step Time =    1.000,"PART-1-1",           337,       5.92661,      -3.07918,            0.,NA,NA,"",   201.279E-03,  -200.496E-03,  -17.7339E-03,   514.837E-09
C:/temp/dataset/7/8_6.odb,Step-1,Increment      1: Step Time =    1.000,"PART-1-1",           338,       7.06139,      -12.0396,            0.,NA,NA,"",   145.448E-03,  -145.066E-03,  -10.5312E-03,   37.6772E-06
C:/temp/dataset/7/8_6.odb,Step-1,Increment      1: Step Time =    1.000,"PART-1-1",           339,       5.99095,      -11.1126,            0.,NA,NA,"",   151.743E-03,  -150.767E-03,  -17.1860E-03,   12.0267E-06
C:/temp/dataset/7/8_6.odb,Step-1,Increment      1: Step Time =    1.000,"PART-1-1",           340,            5.,      -12.2917,            0.,NA,NA,"",   145.345E-03,  -143.464E-03,  -23.3079E-03,   25.9822E-06
C:/temp/dataset/7/8_6.odb,Step-1,Increment      1: Step Time =    1.000,"PART-1-1",           341,       6.07044,      -13.2187,            0.,NA,NA,"",   138.786E-03,  -137.780E-03,  -16.6841E-03,   39.6075E-06
C:/temp/dataset/7/8_6.odb,Step-1,Increment      1: Step Time =    1.000,"PART-1-1",           342,       6.63644,      -8.02271,            0.,NA,NA,"",   170.401E-03,  -169.886E-03,  -13.2403E-03,   2.69028E-06
C:/temp/dataset/7/8_6.odb,Step-1,Increment      1: Step Time =    1.000,"PART-1-1",           343,            5.,        -8.125,            0.,NA,NA,"",   170.829E-03,  -169.222E-03,  -23.3711E-03,   1.38148E-06
C:/temp/dataset/7/8_6.odb,Step-1,Increment      1: Step Time =    1.000,"PART-1-1",           344,       5.87092,      -9.06592,            0.,NA,NA,"",   164.400E-03,  -163.416E-03,  -17.9613E-03,   2.28373E-06
C:/temp/dataset/7/8_6.odb,Step-1,Increment      1: Step Time =    1.000,"PART-1-1",           345,       13.0826,      -13.6930,            0.,NA,NA,"",   137.369E-03,  -134.728E-03,   26.8068E-03,   83.1089E-06
C:/temp/dataset/7/8_6.odb,Step-1,Increment      1: Step Time =    1.000,"PART-1-1",           346,       14.0569,      -14.9678,            0.,NA,NA,"",   130.955E-03,  -126.793E-03,   32.7521E-03,   91.7005E-06
C:/temp/dataset/7/8_6.odb,Step-1,Increment      1: Step Time =    1.000,"PART-1-1",           347,           15.,        -13.75,            0.,NA,NA,"",   139.878E-03,  -134.434E-03,   38.6450E-03,   65.4281E-06
C:/temp/dataset/7/8_6.odb,Step-1,Increment      1: Step Time =    1.000,"PART-1-1",           348,       14.0257,      -12.4752,            0.,NA,NA,"",   146.031E-03,  -142.342E-03,   32.6149E-03,   26.3774E-06
C:/temp/dataset/7/8_6.odb,Step-1,Increment      1: Step Time =    1.000,"PART-1-1",           349,       8.13738,      -21.6888,            0.,NA,NA,"",   83.4618E-03,  -83.3944E-03,  -3.35337E-03,   963.207E-06
C:/temp/dataset/7/8_6.odb,Step-1,Increment      1: Step Time =    1.000,"PART-1-1",           350,            5.,      -28.9583,            0.,NA,NA,"",   16.1002E-03,  -12.6545E-03,  -9.95390E-03,   9.34857E-03
C:/temp/dataset/7/8_6.odb,Step-1,Increment      1: Step Time =    1.000,"PART-1-1",           351,          6.25,          -30.,            0.,NA,NA,"",            0.,  -2.26320E-39,  -9.47874E-39,   8.62063E-03
C:/temp/dataset/7/8_6.odb,Step-1,Increment      1: Step Time =    1.000,"PART-1-1",           352,       6.22347,      -27.8804,            0.,NA,NA,"",   23.3275E-03,  -21.8783E-03,  -8.09394E-03,   5.35233E-03
C:/temp/dataset/7/8_6.odb,Step-1,Increment      1: Step Time =    1.000,"PART-1-1",           353,           15.,        -28.75,            0.,NA,NA,"",   34.2183E-03,  -30.4035E-03,   15.7008E-03,   12.8621E-03
C:/temp/dataset/7/8_6.odb,Step-1,Increment      1: Step Time =    1.000,"PART-1-1",           354,       13.6900,      -27.4695,            0.,NA,NA,"",   43.6157E-03,  -41.7981E-03,   12.4600E-03,   8.48985E-03
C:/temp/dataset/7/8_6.odb,Step-1,Increment      1: Step Time =    1.000,"PART-1-1",           355,       12.4400,      -28.7195,            0.,NA,NA,"",   17.4170E-03,  -17.2262E-03,   2.57103E-03,   8.98429E-03
C:/temp/dataset/7/8_6.odb,Step-1,Increment      1: Step Time =    1.000,"PART-1-1",           356,         13.75,          -30.,            0.,NA,NA,"",            0.,  -3.95573E-39,   7.62637E-39,   14.2208E-03
C:/temp/dataset/7/8_6.odb,Step-1,Increment      1: Step Time =    1.000,"PART-1-1",           357,       9.58617,      -22.6245,            0.,NA,NA,"",   77.6537E-03,  -77.4697E-03,   5.34254E-03,   1.70008E-03
C:/temp/dataset/7/8_6.odb,Step-1,Increment      1: Step Time =    1.000,"PART-1-1",           358,       10.0221,      -21.0980,            0.,NA,NA,"",   89.1192E-03,  -88.6911E-03,   8.72507E-03,   890.603E-06
C:/temp/dataset/7/8_6.odb,Step-1,Increment      1: Step Time =    1.000,"PART-1-1",           359,       8.57328,      -20.1623,            0.,NA,NA,"",   94.3007E-03,  -94.2997E-03,  -431.976E-06,   211.975E-06
C:/temp/dataset/7/8_6.odb,Step-1,Increment      1: Step Time =    1.000,"PART-1-1",           360,       11.1406,      -27.5456,            0.,NA,NA,"",   30.8125E-03,  -30.6421E-03,   3.23629E-03,   8.20639E-03
C:/temp/dataset/7/8_6.odb,Step-1,Increment      1: Step Time =    1.000,"PART-1-1",           361,         11.25,          -30.,            0.,NA,NA,"",            0.,  -7.02321E-39,   1.43244E-39,   7.25762E-03
C:/temp/dataset/7/8_6.odb,Step-1,Increment      1: Step Time =    1.000,"PART-1-1",           362,       11.2605,      -16.1933,            0.,NA,NA,"",   120.278E-03,  -119.224E-03,   15.8831E-03,   177.426E-06
C:/temp/dataset/7/8_6.odb,Step-1,Increment      1: Step Time =    1.000,"PART-1-1",           363,       10.2521,      -15.0492,            0.,NA,NA,"",   126.757E-03,  -126.398E-03,   9.53308E-03,   122.296E-06
C:/temp/dataset/7/8_6.odb,Step-1,Increment      1: Step Time =    1.000,"PART-1-1",           364,       9.32474,      -16.3084,            0.,NA,NA,"",   118.748E-03,  -118.683E-03,   3.92820E-03,   168.096E-06
C:/temp/dataset/7/8_6.odb,Step-1,Increment      1: Step Time =    1.000,"PART-1-1",           365,       10.3331,      -17.4526,            0.,NA,NA,"",   112.017E-03,  -111.532E-03,   10.4105E-03,   205.153E-06
C:/temp/dataset/7/8_6.odb,Step-1,Increment      1: Step Time =    1.000,"PART-1-1",           366,       7.44248,      -19.0256,            0.,NA,NA,"",   101.970E-03,  -101.660E-03,  -7.94433E-03,   105.877E-06
C:/temp/dataset/7/8_6.odb,Step-1,Increment      1: Step Time =    1.000,"PART-1-1",           367,       6.17612,      -17.5789,            0.,NA,NA,"",   111.989E-03,  -110.807E-03,  -16.2304E-03,   189.739E-06
C:/temp/dataset/7/8_6.odb,Step-1,Increment      1: Step Time =    1.000,"PART-1-1",           368,            5.,      -18.5417,            0.,NA,NA,"",   107.255E-03,  -104.515E-03,  -24.0866E-03,   382.157E-06
C:/temp/dataset/7/8_6.odb,Step-1,Increment      1: Step Time =    1.000,"PART-1-1",           369,       12.8407,      -6.03443,            0.,NA,NA,"",   184.044E-03,  -182.315E-03,   25.1658E-03,   484.908E-09
C:/temp/dataset/7/8_6.odb,Step-1,Increment      1: Step Time =    1.000,"PART-1-1",           370,           15.,         -6.25,            0.,NA,NA,"",   185.080E-03,  -181.019E-03,   38.5555E-03,   1.64153E-06
C:/temp/dataset/7/8_6.odb,Step-1,Increment      1: Step Time =    1.000,"PART-1-1",           371,       13.9462,      -4.87251,            0.,NA,NA,"",   192.219E-03,  -189.538E-03,   31.9954E-03,   811.162E-09
C:/temp/dataset/7/8_6.odb,Step-1,Increment      1: Step Time =    1.000,"PART-1-1",           372,       7.64514,      -8.69832,            0.,NA,NA,"",   165.869E-03,  -165.722E-03,  -6.97811E-03,   4.92332E-06
C:/temp/dataset/7/8_6.odb,Step-1,Increment      1: Step Time =    1.000,"PART-1-1",           373,       8.20020,      -7.75016,            0.,NA,NA,"",   171.638E-03,  -171.602E-03,  -3.55767E-03,   3.56571E-06
C:/temp/dataset/7/8_6.odb,Step-1,Increment      1: Step Time =    1.000,"PART-1-1",           374,       7.19150,      -7.07454,            0.,NA,NA,"",   176.041E-03,  -175.767E-03,  -9.82019E-03,   1.07273E-06
C:/temp/dataset/7/8_6.odb,Step-1,Increment      1: Step Time =    1.000,"PART-1-1",           375,       7.97278,      -1.35169,            0.,NA,NA,"",   211.301E-03,  -211.240E-03,  -5.08898E-03,   330.880E-09
C:/temp/dataset/7/8_6.odb,Step-1,Increment      1: Step Time =    1.000,"PART-1-1",           376,       9.01285,  -423.179E-03,            0.,NA,NA,"",   217.018E-03,  -217.014E-03,   1.33803E-03,   305.338E-09
C:/temp/dataset/7/8_6.odb,Step-1,Increment      1: Step Time =    1.000,"PART-1-1",           377,       8.04185,   850.611E-03,            0.,NA,NA,"",   224.938E-03,  -224.888E-03,  -4.70304E-03,   152.484E-09
C:/temp/dataset/7/8_6.odb,Step-1,Increment      1: Step Time =    1.000,"PART-1-1",           378,       8.08837,       3.05311,            0.,NA,NA,"",   238.579E-03,  -238.537E-03,  -4.45694E-03,   55.3303E-09
C:/temp/dataset/7/8_6.odb,Step-1,Increment      1: Step Time =    1.000,"PART-1-1",           379,       9.11337,       4.08618,            0.,NA,NA,"",   244.966E-03,  -244.959E-03,   1.87479E-03,   44.5858E-09
C:/temp/dataset/7/8_6.odb,Step-1,Increment      1: Step Time =    1.000,"PART-1-1",           380,       8.10868,       5.26217,            0.,NA,NA,"",   252.265E-03,  -252.227E-03,  -4.37346E-03,   14.6205E-09
C:/temp/dataset/7/8_6.odb,Step-1,Increment      1: Step Time =    1.000,"PART-1-1",           381,       7.08888,       6.39331,            0.,NA,NA,"",   259.438E-03,  -259.216E-03,  -10.7145E-03,   6.58930E-09
C:/temp/dataset/7/8_6.odb,Step-1,Increment      1: Step Time =    1.000,"PART-1-1",           382,            5.,       6.45833,            0.,NA,NA,"",   260.655E-03,  -259.579E-03,  -23.6598E-03,   4.27032E-09
C:/temp/dataset/7/8_6.odb,Step-1,Increment      1: Step Time =    1.000,"PART-1-1",           383,           15.,         16.25,            0.,NA,NA,"",   322.706E-03,  -320.446E-03,   38.1184E-03,   153.026E-12
C:/temp/dataset/7/8_6.odb,Step-1,Increment      1: Step Time =    1.000,"PART-1-1",           384,       13.6214,       17.6671,            0.,NA,NA,"",   330.524E-03,  -329.201E-03,   29.5484E-03,   60.4941E-12
C:/temp/dataset/7/8_6.odb,Step-1,Increment      1: Step Time =    1.000,"PART-1-1",           385,       12.4694,       16.3805,            0.,NA,NA,"",   321.989E-03,  -321.207E-03,   22.4351E-03,   263.602E-12
C:/temp/dataset/7/8_6.odb,Step-1,Increment      1: Step Time =    1.000,"PART-1-1",           386,       10.0881,       9.74649,            0.,NA,NA,"",   280.161E-03,  -280.052E-03,   7.80602E-03,   1.65376E-09
C:/temp/dataset/7/8_6.odb,Step-1,Increment      1: Step Time =    1.000,"PART-1-1",           387,       9.10561,       8.57814,            0.,NA,NA,"",   272.799E-03,  -272.794E-03,   1.74048E-03,   1.82441E-09
C:/temp/dataset/7/8_6.odb,Step-1,Increment      1: Step Time =    1.000,"PART-1-1",           388,       10.1162,       7.46436,            0.,NA,NA,"",   266.032E-03,  -265.911E-03,   8.02386E-03,   3.06631E-09
C:/temp/dataset/7/8_6.odb,Step-1,Increment      1: Step Time =    1.000,"PART-1-1",           389,       11.0986,       8.63272,            0.,NA,NA,"",   273.533E-03,  -273.170E-03,   14.0894E-03,   1.68754E-09
C:/temp/dataset/7/8_6.odb,Step-1,Increment      1: Step Time =    1.000,"PART-1-1",           390,       9.96644,       19.4124,            0.,NA,NA,"",   340.015E-03,  -339.946E-03,   6.86665E-03,   45.6203E-12
C:/temp/dataset/7/8_6.odb,Step-1,Increment      1: Step Time =    1.000,"PART-1-1",           391,       10.9020,       20.3065,            0.,NA,NA,"",   345.735E-03,  -345.504E-03,   12.6468E-03,   31.4176E-12
C:/temp/dataset/7/8_6.odb,Step-1,Increment      1: Step Time =    1.000,"PART-1-1",           392,       10.1153,       21.2880,            0.,NA,NA,"",   351.657E-03,  -351.571E-03,   7.75313E-03,   13.5534E-12
C:/temp/dataset/7/8_6.odb,Step-1,Increment      1: Step Time =    1.000,"PART-1-1",           393,       9.17975,       20.3940,            0.,NA,NA,"",   346.019E-03,  -346.013E-03,   1.97301E-03,   24.5675E-12
C:/temp/dataset/7/8_6.odb,Step-1,Increment      1: Step Time =    1.000,"PART-1-1",           394,           15.,         28.75,            0.,NA,NA,"",   399.703E-03,  -397.904E-03,   37.8785E-03,   2.55573E-12
C:/temp/dataset/7/8_6.odb,Step-1,Increment      1: Step Time =    1.000,"PART-1-1",           395,       14.0625,           30.,            0.,NA,NA,"",   406.896E-03,  -405.632E-03,   32.0451E-03,   2.69299E-12
C:/temp/dataset/7/8_6.odb,Step-1,Increment      1: Step Time =    1.000,"PART-1-1",           396,       13.1487,       28.7914,            0.,NA,NA,"",   399.000E-03,  -398.125E-03,   26.4059E-03,   2.75662E-12
C:/temp/dataset/7/8_6.odb,Step-1,Increment      1: Step Time =    1.000,"PART-1-1",           397,       14.0862,       27.5414,            0.,NA,NA,"",   391.726E-03,  -390.398E-03,   32.2393E-03,   2.72116E-12
C:/temp/dataset/7/8_6.odb,Step-1,Increment      1: Step Time =    1.000,"PART-1-1",           398,       12.2440,       25.2848,            0.,NA,NA,"",   376.957E-03,  -376.379E-03,   20.8669E-03,   4.92621E-12
C:/temp/dataset/7/8_6.odb,Step-1,Increment      1: Step Time =    1.000,"PART-1-1",           399,       13.1763,       26.3811,            0.,NA,NA,"",   384.113E-03,  -383.190E-03,   26.6232E-03,   4.30624E-12
C:/temp/dataset/7/8_6.odb,Step-1,Increment      1: Step Time =    1.000,"PART-1-1",           400,       12.2376,       27.6217,            0.,NA,NA,"",   391.411E-03,  -390.859E-03,   20.7828E-03,   3.73572E-12
C:/temp/dataset/7/8_6.odb,Step-1,Increment      1: Step Time =    1.000,"PART-1-1",           401,       11.3053,       26.5254,            0.,NA,NA,"",   384.342E-03,  -384.048E-03,   15.0265E-03,   4.56218E-12
C:/temp/dataset/7/8_6.odb,Step-1,Increment      1: Step Time =    1.000,"PART-1-1",           402,       12.1875,           30.,            0.,NA,NA,"",   406.110E-03,  -405.596E-03,   20.4265E-03,   2.40359E-12
C:/temp/dataset/7/8_6.odb,Step-1,Increment      1: Step Time =    1.000,"PART-1-1",           403,        6.5625,           30.,            0.,NA,NA,"",   405.745E-03,  -405.488E-03,  -14.4295E-03,   3.09094E-12
C:/temp/dataset/7/8_6.odb,Step-1,Increment      1: Step Time =    1.000,"PART-1-1",           404,       5.40000,       28.6589,            0.,NA,NA,"",   397.742E-03,  -397.155E-03,  -21.6073E-03,   2.69259E-12
C:/temp/dataset/7/8_6.odb,Step-1,Increment      1: Step Time =    1.000,"PART-1-1",           405,       6.32063,       27.5176,            0.,NA,NA,"",   390.424E-03,  -390.101E-03,  -15.8807E-03,   3.15133E-12
C:/temp/dataset/7/8_6.odb,Step-1,Increment      1: Step Time =    1.000,"PART-1-1",           406,        2.8125,           30.,            0.,NA,NA,"",   407.162E-03,  -405.416E-03,  -37.6668E-03,   2.41734E-12
C:/temp/dataset/7/8_6.odb,Step-1,Increment      1: Step Time =    1.000,"PART-1-1",           407,       1.86631,       29.3706,            0.,NA,NA,"",   403.849E-03,  -401.498E-03,  -43.5179E-03,   2.51890E-12
C:/temp/dataset/7/8_6.odb,Step-1,Increment      1: Step Time =    1.000,"PART-1-1",           408,       2.52123,       28.3750,            0.,NA,NA,"",   397.303E-03,  -395.341E-03,  -39.4405E-03,   2.62686E-12
C:/temp/dataset/7/8_6.odb,Step-1,Increment      1: Step Time =    1.000,"PART-1-1",           409,       3.46742,       29.0044,            0.,NA,NA,"",   400.670E-03,  -399.259E-03,  -33.5894E-03,   2.46613E-12
C:/temp/dataset/7/8_6.odb,Step-1,Increment      1: Step Time =    1.000,"PART-1-1",           410,       1.19073,       28.4486,            0.,NA,NA,"",   398.634E-03,  -395.771E-03,  -47.6865E-03,   2.59689E-12
C:/temp/dataset/7/8_6.odb,Step-1,Increment      1: Step Time =    1.000,"PART-1-1",           411,      -2.48443,       27.9761,            0.,NA,NA,"",   399.041E-03,  -392.773E-03,  -70.4510E-03,   2.71274E-12
C:/temp/dataset/7/8_6.odb,Step-1,Increment      1: Step Time =    1.000,"PART-1-1",           412,       -2.8125,           30.,            0.,NA,NA,"",   411.745E-03,  -405.308E-03,  -72.5228E-03,   2.77200E-12
C:/temp/dataset/7/8_6.odb,Step-1,Increment      1: Step Time =    1.000,"PART-1-1",           413,      -7.28733,       29.0238,            0.,NA,NA,"",   411.565E-03,  -399.173E-03,  -100.233E-03,   2.76528E-12
C:/temp/dataset/7/8_6.odb,Step-1,Increment      1: Step Time =    1.000,"PART-1-1",           414,      -6.19423,       28.1363,            0.,NA,NA,"",   404.631E-03,  -393.694E-03,  -93.4423E-03,   2.75883E-12
C:/temp/dataset/7/8_6.odb,Step-1,Increment      1: Step Time =    1.000,"PART-1-1",           415,       -6.5625,           30.,            0.,NA,NA,"",   416.397E-03,  -405.236E-03,  -95.7601E-03,   2.76940E-12
C:/temp/dataset/7/8_6.odb,Step-1,Increment      1: Step Time =    1.000,"PART-1-1",           416,      -11.8079,       27.5253,            0.,NA,NA,"",   410.346E-03,  -389.801E-03,  -128.217E-03,   2.77340E-12
C:/temp/dataset/7/8_6.odb,Step-1,Increment      1: Step Time =    1.000,"PART-1-1",           417,      -12.6125,       26.1842,            0.,NA,NA,"",   404.053E-03,  -381.475E-03,  -133.176E-03,   2.77528E-12
C:/temp/dataset/7/8_6.odb,Step-1,Increment      1: Step Time =    1.000,"PART-1-1",           418,      -8.13992,       23.4434,            0.,NA,NA,"",   379.509E-03,  -364.577E-03,  -105.409E-03,   2.77270E-12
C:/temp/dataset/7/8_6.odb,Step-1,Increment      1: Step Time =    1.000,"PART-1-1",           419,       -8.4375,           30.,            0.,NA,NA,"",   419.186E-03,  -405.200E-03,  -107.379E-03,   2.76804E-12
C:/temp/dataset/7/8_6.odb,Step-1,Increment      1: Step Time =    1.000,"PART-1-1",           420,      -8.00049,       27.9480,            0.,NA,NA,"",   406.200E-03,  -392.493E-03,  -104.631E-03,   2.76443E-12
C:/temp/dataset/7/8_6.odb,Step-1,Increment      1: Step Time =    1.000,"PART-1-1",           421,      -12.1875,           30.,            0.,NA,NA,"",   425.663E-03,  -405.128E-03,  -130.616E-03,   2.77338E-12
C:/temp/dataset/7/8_6.odb,Step-1,Increment      1: Step Time =    1.000,"PART-1-1",           422,          -15.,         26.25,            0.,NA,NA,"",   409.506E-03,  -381.837E-03,  -147.972E-03,   2.77734E-12
C:/temp/dataset/7/8_6.odb,Step-1,Increment      1: Step Time =    1.000,"PART-1-1",           423,  -614.199E-03,       25.3895,            0.,NA,NA,"",   381.343E-03,  -376.781E-03,  -58.8123E-03,   2.65039E-12
C:/temp/dataset/7/8_6.odb,Step-1,Increment      1: Step Time =    1.000,"PART-1-1",           424,      -1.97220,       26.8586,            0.,NA,NA,"",   391.675E-03,  -385.858E-03,  -67.2555E-03,   2.69297E-12
C:/temp/dataset/7/8_6.odb,Step-1,Increment      1: Step Time =    1.000,"PART-1-1",           425,      -1.74113,       25.3247,            0.,NA,NA,"",   382.065E-03,  -376.357E-03,  -65.7942E-03,   2.68623E-12
C:/temp/dataset/7/8_6.odb,Step-1,Increment      1: Step Time =    1.000,"PART-1-1",           426,       8.18659,       21.6045,            0.,NA,NA,"",   353.520E-03,  -353.495E-03,  -4.20445E-03,   8.99345E-12
C:/temp/dataset/7/8_6.odb,Step-1,Increment      1: Step Time =    1.000,"PART-1-1",           427,       9.25192,       22.4602,            0.,NA,NA,"",   358.826E-03,  -358.818E-03,   2.38053E-03,   9.15993E-12
C:/temp/dataset/7/8_6.odb,Step-1,Increment      1: Step Time =    1.000,"PART-1-1",           428,       8.38526,       23.6138,            0.,NA,NA,"",   365.963E-03,  -365.950E-03,  -3.01196E-03,   6.29140E-12
C:/temp/dataset/7/8_6.odb,Step-1,Increment      1: Step Time =    1.000,"PART-1-1",           429,       7.31993,       22.7581,            0.,NA,NA,"",   360.755E-03,  -360.627E-03,  -9.59694E-03,   6.64989E-12
C:/temp/dataset/7/8_6.odb,Step-1,Increment      1: Step Time =    1.000,"PART-1-1",           430,           15.,         26.25,            0.,NA,NA,"",   384.289E-03,  -382.413E-03,   37.9265E-03,   3.56159E-12
C:/temp/dataset/7/8_6.odb,Step-1,Increment      1: Step Time =    1.000,"PART-1-1",           431,        4.6875,           30.,            0.,NA,NA,"",   406.288E-03,  -405.452E-03,  -26.0482E-03,   2.47986E-12
C:/temp/dataset/7/8_6.odb,Step-1,Increment      1: Step Time =    1.000,"PART-1-1",           432,       9.38339,       24.5308,            0.,NA,NA,"",   371.665E-03,  -371.652E-03,   3.15547E-03,   5.61677E-12
C:/temp/dataset/7/8_6.odb,Step-1,Increment      1: Step Time =    1.000,"PART-1-1",           433,       8.53172,       25.6694,            0.,NA,NA,"",   378.697E-03,  -378.691E-03,  -2.14388E-03,   4.37198E-12
C:/temp/dataset/7/8_6.odb,Step-1,Increment      1: Step Time =    1.000,"PART-1-1",           434,       7.53359,       24.7524,            0.,NA,NA,"",   373.082E-03,  -372.989E-03,  -8.31131E-03,   5.22918E-12
C:/temp/dataset/7/8_6.odb,Step-1,Increment      1: Step Time =    1.000,"PART-1-1",           435,     937.5E-03,           30.,            0.,NA,NA,"",   408.365E-03,  -405.380E-03,  -49.2855E-03,   2.60522E-12
C:/temp/dataset/7/8_6.odb,Step-1,Increment      1: Step Time =    1.000,"PART-1-1",           436,       5.64845,       26.5466,            0.,NA,NA,"",   384.593E-03,  -384.071E-03,  -20.0272E-03,   3.83296E-12
C:/temp/dataset/7/8_6.odb,Step-1,Increment      1: Step Time =    1.000,"PART-1-1",           437,       4.65082,       24.6490,            0.,NA,NA,"",   373.212E-03,  -372.293E-03,  -26.1728E-03,   4.63411E-12
C:/temp/dataset/7/8_6.odb,Step-1,Increment      1: Step Time =    1.000,"PART-1-1",           438,       5.82711,       24.9927,            0.,NA,NA,"",   374.922E-03,  -374.445E-03,  -18.8903E-03,   4.48233E-12
C:/temp/dataset/7/8_6.odb,Step-1,Increment      1: Step Time =    1.000,"PART-1-1",           439,      -3.57200,       27.5772,            0.,NA,NA,"",   397.839E-03,  -390.280E-03,  -77.1827E-03,   2.73218E-12
C:/temp/dataset/7/8_6.odb,Step-1,Increment      1: Step Time =    1.000,"PART-1-1",           440,      -3.05977,       26.4597,            0.,NA,NA,"",   390.439E-03,  -383.365E-03,  -73.9871E-03,   2.70430E-12
C:/temp/dataset/7/8_6.odb,Step-1,Increment      1: Step Time =    1.000,"PART-1-1",           441,      -4.23358,       26.7178,            0.,NA,NA,"",   393.426E-03,  -384.942E-03,  -81.2657E-03,   2.73185E-12
C:/temp/dataset/7/8_6.odb,Step-1,Increment      1: Step Time =    1.000,"PART-1-1",           442,      -5.07335,       27.3652,            0.,NA,NA,"",   398.436E-03,  -388.937E-03,  -86.4819E-03,   2.74800E-12
C:/temp/dataset/7/8_6.odb,Step-1,Increment      1: Step Time =    1.000,"PART-1-1",           443,      -5.65848,       26.3267,            0.,NA,NA,"",   392.957E-03,  -382.491E-03,  -90.0878E-03,   2.74894E-12
C:/temp/dataset/7/8_6.odb,Step-1,Increment      1: Step Time =    1.000,"PART-1-1",           444,      -6.77936,       27.0978,            0.,NA,NA,"",   399.224E-03,  -387.248E-03,  -97.0482E-03,   2.75834E-12
C:/temp/dataset/7/8_6.odb,Step-1,Increment      1: Step Time =    1.000,"PART-1-1",           445,       13.0726,       6.26892,            0.,NA,NA,"",   259.901E-03,  -258.560E-03,   26.3670E-03,   6.88783E-09
C:/temp/dataset/7/8_6.odb,Step-1,Increment      1: Step Time =    1.000,"PART-1-1",           446,       14.0382,       5.02867,            0.,NA,NA,"",   252.974E-03,  -250.894E-03,   32.3741E-03,   5.87848E-09
C:/temp/dataset/7/8_6.odb,Step-1,Increment      1: Step Time =    1.000,"PART-1-1",           447,           15.,          6.25,            0.,NA,NA,"",   261.304E-03,  -258.480E-03,   38.3104E-03,   4.05021E-09
C:/temp/dataset/7/8_6.odb,Step-1,Increment      1: Step Time =    1.000,"PART-1-1",           448,       14.0344,       7.49025,            0.,NA,NA,"",   268.100E-03,  -266.147E-03,   32.3033E-03,   2.75463E-09
C:/temp/dataset/7/8_6.odb,Step-1,Increment      1: Step Time =    1.000,"PART-1-1",           449,            5.,       12.7083,            0.,NA,NA,"",   299.254E-03,  -298.308E-03,  -23.7797E-03,   1.00332E-09
C:/temp/dataset/7/8_6.odb,Step-1,Increment      1: Step Time =    1.000,"PART-1-1",           450,       6.97129,       12.7632,            0.,NA,NA,"",   298.910E-03,  -298.686E-03,  -11.5654E-03,   939.630E-12
C:/temp/dataset/7/8_6.odb,Step-1,Increment      1: Step Time =    1.000,"PART-1-1",           451,       8.08110,       9.66220,            0.,NA,NA,"",   279.530E-03,  -279.491E-03,  -4.62884E-03,   1.45843E-09
C:/temp/dataset/7/8_6.odb,Step-1,Increment      1: Step Time =    1.000,"PART-1-1",           452,       8.10192,       7.46894,            0.,NA,NA,"",   265.938E-03,  -265.901E-03,  -4.45774E-03,   2.20482E-09
C:/temp/dataset/7/8_6.odb,Step-1,Increment      1: Step Time =    1.000,"PART-1-1",           453,            5.,        -1.875,            0.,NA,NA,"",   209.264E-03,  -207.940E-03,  -23.4991E-03,   491.955E-09
C:/temp/dataset/7/8_6.odb,Step-1,Increment      1: Step Time =    1.000,"PART-1-1",           454,       6.91011,      -2.19684,            0.,NA,NA,"",   206.312E-03,  -205.982E-03,  -11.6573E-03,   445.974E-09
C:/temp/dataset/7/8_6.odb,Step-1,Increment      1: Step Time =    1.000,"PART-1-1",           455,       11.0205,  -751.161E-03,            0.,NA,NA,"",   215.462E-03,  -215.020E-03,   13.7850E-03,   323.989E-09
C:/temp/dataset/7/8_6.odb,Step-1,Increment      1: Step Time =    1.000,"PART-1-1",           456,       13.1408,      -16.1676,            0.,NA,NA,"",   122.358E-03,  -119.300E-03,   27.1844E-03,   162.585E-06
C:/temp/dataset/7/8_6.odb,Step-1,Increment      1: Step Time =    1.000,"PART-1-1",           457,       14.0839,      -17.4497,            0.,NA,NA,"",   116.135E-03,  -111.432E-03,   32.7161E-03,   254.899E-06
C:/temp/dataset/7/8_6.odb,Step-1,Increment      1: Step Time =    1.000,"PART-1-1",           458,           15.,        -16.25,            0.,NA,NA,"",   124.928E-03,  -118.880E-03,   38.4012E-03,   242.782E-06
C:/temp/dataset/7/8_6.odb,Step-1,Increment      1: Step Time =    1.000,"PART-1-1",           459,            5.,       -14.375,            0.,NA,NA,"",   132.681E-03,  -130.610E-03,  -23.3512E-03,   84.9567E-06
C:/temp/dataset/7/8_6.odb,Step-1,Increment      1: Step Time =    1.000,"PART-1-1",           460,       6.11916,      -15.3567,            0.,NA,NA,"",   125.690E-03,  -124.612E-03,  -16.4264E-03,   98.4041E-06
C:/temp/dataset/7/8_6.odb,Step-1,Increment      1: Step Time =    1.000,"PART-1-1",           461,       13.0403,       1.40949,            0.,NA,NA,"",   229.952E-03,  -228.448E-03,   26.2597E-03,   129.799E-09
C:/temp/dataset/7/8_6.odb,Step-1,Increment      1: Step Time =    1.000,"PART-1-1",           462,       14.0142,   96.5788E-03,            0.,NA,NA,"",   222.689E-03,  -220.331E-03,   32.3198E-03,   147.340E-09
C:/temp/dataset/7/8_6.odb,Step-1,Increment      1: Step Time =    1.000,"PART-1-1",           463,           15.,          1.25,            0.,NA,NA,"",   230.716E-03,  -227.497E-03,   38.4065E-03,   98.0712E-09
C:/temp/dataset/7/8_6.odb,Step-1,Increment      1: Step Time =    1.000,"PART-1-1",           464,       14.0261,       2.56291,            0.,NA,NA,"",   237.824E-03,  -235.614E-03,   32.3465E-03,   38.5155E-09
C:/temp/dataset/7/8_6.odb,Step-1,Increment      1: Step Time =    1.000,"PART-1-1",           465,            5.,      -10.2083,            0.,NA,NA,"",   158.064E-03,  -156.333E-03,  -23.3301E-03,   4.32512E-06
C:/temp/dataset/7/8_6.odb,Step-1,Increment      1: Step Time =    1.000,"PART-1-1",           466,       6.86187,      -9.97015,            0.,NA,NA,"",   158.283E-03,  -157.842E-03,  -11.8074E-03,   12.2299E-06
C:/temp/dataset/7/8_6.odb,Step-1,Increment      1: Step Time =    1.000,"PART-1-1",           467,            5.,      -24.7917,            0.,NA,NA,"",   61.8268E-03,  -56.2981E-03,  -25.5553E-03,   984.868E-06
C:/temp/dataset/7/8_6.odb,Step-1,Increment      1: Step Time =    1.000,"PART-1-1",           468,       6.13477,      -25.7685,            0.,NA,NA,"",   48.3434E-03,  -46.0379E-03,  -14.7514E-03,   2.53594E-03
C:/temp/dataset/7/8_6.odb,Step-1,Increment      1: Step Time =    1.000,"PART-1-1",           469,       13.1299,      -20.9468,            0.,NA,NA,"",   95.9226E-03,  -91.9618E-03,   27.2794E-03,   1.06303E-03
C:/temp/dataset/7/8_6.odb,Step-1,Increment      1: Step Time =    1.000,"PART-1-1",           470,       14.0295,      -22.3095,            0.,NA,NA,"",   93.7707E-03,  -88.2277E-03,   31.7617E-03,   2.96349E-03
C:/temp/dataset/7/8_6.odb,Step-1,Increment      1: Step Time =    1.000,"PART-1-1",           471,           15.,        -21.25,            0.,NA,NA,"",   97.3849E-03,  -90.8143E-03,   35.1652E-03,   1.10275E-03
C:/temp/dataset/7/8_6.odb,Step-1,Increment      1: Step Time =    1.000,"PART-1-1",           472,       14.1003,      -19.8873,            0.,NA,NA,"",   102.401E-03,  -97.2406E-03,   32.0967E-03,   696.547E-06
C:/temp/dataset/7/8_6.odb,Step-1,Increment      1: Step Time =    1.000,"PART-1-1",           473,            5.,       -26.875,            0.,NA,NA,"",   41.9466E-03,  -35.5728E-03,  -22.2282E-03,   3.91472E-03
C:/temp/dataset/7/8_6.odb,Step-1,Increment      1: Step Time =    1.000,"PART-1-1",           474,       7.35824,      -26.7740,            0.,NA,NA,"",   34.6625E-03,  -34.1417E-03,  -5.98616E-03,   5.36412E-03
C:/temp/dataset/7/8_6.odb,Step-1,Increment      1: Step Time =    1.000,"PART-1-1",           475,       11.2665,      -23.4125,            0.,NA,NA,"",   75.9689E-03,  -74.6798E-03,   13.9357E-03,   3.63518E-03
C:/temp/dataset/7/8_6.odb,Step-1,Increment      1: Step Time =    1.000,"PART-1-1",           476,       10.8283,      -24.9299,            0.,NA,NA,"",   60.8756E-03,  -60.2560E-03,   8.66364E-03,   5.10196E-03
C:/temp/dataset/7/8_6.odb,Step-1,Increment      1: Step Time =    1.000,"PART-1-1",           477,            5.,      -16.4583,            0.,NA,NA,"",   120.036E-03,  -117.702E-03,  -23.5545E-03,   205.115E-06
C:/temp/dataset/7/8_6.odb,Step-1,Increment      1: Step Time =    1.000,"PART-1-1",           478,       7.29529,      -16.4772,            0.,NA,NA,"",   118.066E-03,  -117.725E-03,  -8.96429E-03,   154.698E-06
C:/temp/dataset/7/8_6.odb,Step-1,Increment      1: Step Time =    1.000,"PART-1-1",           479,            5.,       18.9583,            0.,NA,NA,"",   337.883E-03,  -337.037E-03,  -23.8997E-03,   7.61846E-12
C:/temp/dataset/7/8_6.odb,Step-1,Increment      1: Step Time =    1.000,"PART-1-1",           480,       6.05050,       17.7875,            0.,NA,NA,"",   330.259E-03,  -329.802E-03,  -17.3677E-03,   54.8770E-12
C:/temp/dataset/7/8_6.odb,Step-1,Increment      1: Step Time =    1.000,"PART-1-1",           481,       7.11573,       18.6629,            0.,NA,NA,"",   335.420E-03,  -335.247E-03,  -10.7837E-03,   67.9110E-12
C:/temp/dataset/7/8_6.odb,Step-1,Increment      1: Step Time =    1.000,"PART-1-1",           482,       6.06524,       19.8338,            0.,NA,NA,"",   342.920E-03,  -342.482E-03,  -17.3157E-03,   10.6111E-12
C:/temp/dataset/7/8_6.odb,Step-1,Increment      1: Step Time =    1.000,"PART-1-1",           483,       6.98524,       16.7251,            0.,NA,NA,"",   323.443E-03,  -323.237E-03,  -11.5551E-03,   189.968E-12
C:/temp/dataset/7/8_6.odb,Step-1,Increment      1: Step Time =    1.000,"PART-1-1",           484,            5.,        16.875,            0.,NA,NA,"",   325.004E-03,  -324.127E-03,  -23.8597E-03,   84.3440E-12
C:/temp/dataset/7/8_6.odb,Step-1,Increment      1: Step Time =    1.000,"PART-1-1",           485,       7.88091,       13.8682,            0.,NA,NA,"",   305.609E-03,  -305.551E-03,  -5.95010E-03,   606.886E-12
C:/temp/dataset/7/8_6.odb,Step-1,Increment      1: Step Time =    1.000,"PART-1-1",           486,       7.65947,       15.6945,            0.,NA,NA,"",   316.949E-03,  -316.863E-03,  -7.35736E-03,   287.589E-12
C:/temp/dataset/7/8_6.odb,Step-1,Increment      1: Step Time =    1.000,"PART-1-1",           487,       8.92157,       12.9075,            0.,NA,NA,"",   299.618E-03,  -299.617E-03,   516.894E-06,   982.764E-12
C:/temp/dataset/7/8_6.odb,Step-1,Increment      1: Step Time =    1.000,"PART-1-1",           488,       9.98918,       11.9956,            0.,NA,NA,"",   294.074E-03,  -293.987E-03,   7.15001E-03,   1.17924E-09
C:/temp/dataset/7/8_6.odb,Step-1,Increment      1: Step Time =    1.000,"PART-1-1",           489,       10.7968,       13.3004,            0.,NA,NA,"",   302.331E-03,  -302.088E-03,   12.1294E-03,   889.005E-12
C:/temp/dataset/7/8_6.odb,Step-1,Increment      1: Step Time =    1.000,"PART-1-1",           490,       13.0565,       8.69239,            0.,NA,NA,"",   274.831E-03,  -273.577E-03,   26.2202E-03,   936.661E-12
C:/temp/dataset/7/8_6.odb,Step-1,Increment      1: Step Time =    1.000,"PART-1-1",           491,           15.,          8.75,            0.,NA,NA,"",   276.631E-03,  -273.972E-03,   38.2624E-03,   3.99307E-09
C:/temp/dataset/7/8_6.odb,Step-1,Increment      1: Step Time =    1.000,"PART-1-1",           492,       14.0220,       9.95215,            0.,NA,NA,"",   283.236E-03,  -281.402E-03,   32.1793E-03,   1.87575E-09
C:/temp/dataset/7/8_6.odb,Step-1,Increment      1: Step Time =    1.000,"PART-1-1",           493,       8.15713,      -6.43409,            0.,NA,NA,"",   179.793E-03,  -179.752E-03,  -3.85031E-03,   1.03984E-06
C:/temp/dataset/7/8_6.odb,Step-1,Increment      1: Step Time =    1.000,"PART-1-1",           494,       7.55707,      -5.50995,            0.,NA,NA,"",   185.621E-03,  -185.466E-03,  -7.58546E-03,   332.438E-09
C:/temp/dataset/7/8_6.odb,Step-1,Increment      1: Step Time =    1.000,"PART-1-1",           495,       13.0039,      -1.03047,            0.,NA,NA,"",   214.916E-03,  -213.328E-03,   26.0809E-03,   326.140E-09
C:/temp/dataset/7/8_6.odb,Step-1,Increment      1: Step Time =    1.000,"PART-1-1",           496,       13.9897,      -2.37705,            0.,NA,NA,"",   207.519E-03,  -205.003E-03,   32.2162E-03,   415.390E-09
C:/temp/dataset/7/8_6.odb,Step-1,Increment      1: Step Time =    1.000,"PART-1-1",           497,           15.,         -1.25,            0.,NA,NA,"",   215.465E-03,  -212.006E-03,   38.4549E-03,   358.555E-09
C:/temp/dataset/7/8_6.odb,Step-1,Increment      1: Step Time =    1.000,"PART-1-1",           498,       11.0188,      -11.3444,            0.,NA,NA,"",   150.008E-03,  -149.353E-03,   14.0048E-03,   33.4222E-06
C:/temp/dataset/7/8_6.odb,Step-1,Increment      1: Step Time =    1.000,"PART-1-1",           499,       9.94563,      -10.3262,            0.,NA,NA,"",   155.840E-03,  -155.668E-03,   7.32285E-03,   16.0996E-06
C:/temp/dataset/7/8_6.odb,Step-1,Increment      1: Step Time =    1.000,"PART-1-1",           500,       9.07908,      -11.6768,            0.,NA,NA,"",   147.322E-03,  -147.308E-03,   1.99843E-03,   38.9492E-06
C:/temp/dataset/7/8_6.odb,Step-1,Increment      1: Step Time =    1.000,"PART-1-1",           501,       10.1523,      -12.6950,            0.,NA,NA,"",   141.256E-03,  -140.987E-03,   8.70654E-03,   51.2113E-06
C:/temp/dataset/7/8_6.odb,Step-1,Increment      1: Step Time =    1.000,"PART-1-1",           502,       11.2699,       24.2837,            0.,NA,NA,"",   370.454E-03,  -370.156E-03,   14.8503E-03,   5.58145E-12
C:/temp/dataset/7/8_6.odb,Step-1,Increment      1: Step Time =    1.000,"PART-1-1",           503,       12.1787,       22.9892,            0.,NA,NA,"",   362.732E-03,  -362.152E-03,   20.5066E-03,   4.98390E-12
C:/temp/dataset/7/8_6.odb,Step-1,Increment      1: Step Time =    1.000,"PART-1-1",           504,           15.,         -3.75,            0.,NA,NA,"",   200.251E-03,  -196.514E-03,   38.5043E-03,   963.497E-09
C:/temp/dataset/7/8_6.odb,Step-1,Increment      1: Step Time =    1.000,"PART-1-1",           505,       12.9359,      -3.49956,            0.,NA,NA,"",   199.688E-03,  -198.027E-03,   25.7070E-03,   507.870E-09
C:/temp/dataset/7/8_6.odb,Step-1,Increment      1: Step Time =    1.000,"PART-1-1",           506,           15.,        -11.25,            0.,NA,NA,"",   154.889E-03,  -149.989E-03,   38.6509E-03,   14.0841E-06
C:/temp/dataset/7/8_6.odb,Step-1,Increment      1: Step Time =    1.000,"PART-1-1",           507,       12.9838,      -11.1958,            0.,NA,NA,"",   152.545E-03,  -150.286E-03,   26.1514E-03,   25.1009E-06
C:/temp/dataset/7/8_6.odb,Step-1,Increment      1: Step Time =    1.000,"PART-1-1",           508,           15.,         11.25,            0.,NA,NA,"",   291.975E-03,  -289.463E-03,   38.2144E-03,   1.89113E-09
C:/temp/dataset/7/8_6.odb,Step-1,Increment      1: Step Time =    1.000,"PART-1-1",           509,       12.9950,       11.1325,            0.,NA,NA,"",   289.846E-03,  -288.697E-03,   25.7924E-03,   1.35898E-09
C:/temp/dataset/7/8_6.odb,Step-1,Increment      1: Step Time =    1.000,"PART-1-1",           510,           15.,          3.75,            0.,NA,NA,"",   245.998E-03,  -242.989E-03,   38.3584E-03,   13.3548E-09
C:/temp/dataset/7/8_6.odb,Step-1,Increment      1: Step Time =    1.000,"PART-1-1",           511,       13.0643,       3.84158,            0.,NA,NA,"",   244.942E-03,  -243.519E-03,   26.3621E-03,   38.7883E-09
C:/temp/dataset/7/8_6.odb,Step-1,Increment      1: Step Time =    1.000,"PART-1-1",           512,           15.,        -18.75,            0.,NA,NA,"",   110.448E-03,  -103.828E-03,   37.6609E-03,   554.462E-06
C:/temp/dataset/7/8_6.odb,Step-1,Increment      1: Step Time =    1.000,"PART-1-1",           513,       13.1842,      -18.5870,            0.,NA,NA,"",   108.045E-03,  -104.492E-03,   27.4774E-03,   313.126E-06
C:/temp/dataset/7/8_6.odb,Step-1,Increment      1: Step Time =    1.000,"PART-1-1",           514,       13.5513,      -24.7801,            0.,NA,NA,"",   77.4380E-03,  -73.9180E-03,   23.0816E-03,   6.17446E-03
C:/temp/dataset/7/8_6.odb,Step-1,Increment      1: Step Time =    1.000,"PART-1-1",           515,       12.2413,      -25.9996,            0.,NA,NA,"",   55.5914E-03,  -54.3317E-03,   11.7673E-03,   7.41489E-03
C:/temp/dataset/7/8_6.odb,Step-1,Increment      1: Step Time =    1.000,"PART-1-1",           516,           15.,        -26.25,            0.,NA,NA,"",   74.0021E-03,  -67.0197E-03,   31.3796E-03,   7.27195E-03
C:/temp/dataset/7/8_6.odb,Step-1,Increment      1: Step Time =    1.000,"PART-1-1",           517,           15.,        -23.75,            0.,NA,NA,"",   94.7501E-03,  -88.5375E-03,   33.7445E-03,   4.97150E-03
C:/temp/dataset/7/8_6.odb,Step-1,Increment      1: Step Time =    1.000,"PART-1-1",           518,       12.5809,      -23.3397,            0.,NA,NA,"",   82.3013E-03,  -79.4212E-03,   21.5816E-03,   4.25143E-03
C:/temp/dataset/7/8_6.odb,Step-1,Increment      1: Step Time =    1.000,"PART-1-1",           519,       9.49127,      -18.7202,            0.,NA,NA,"",   103.841E-03,  -103.703E-03,   5.36703E-03,   194.679E-06
C:/temp/dataset/7/8_6.odb,Step-1,Increment      1: Step Time =    1.000,"PART-1-1",           520,       8.36047,      -17.5836,            0.,NA,NA,"",   110.847E-03,  -110.829E-03,  -2.03837E-03,   183.073E-06
C:/temp/dataset/7/8_6.odb,Step-1,Increment      1: Step Time =    1.000,"PART-1-1",           521,       11.5260,      -20.5498,            0.,NA,NA,"",   94.8495E-03,  -93.1012E-03,   18.1271E-03,   667.986E-06
C:/temp/dataset/7/8_6.odb,Step-1,Increment      1: Step Time =    1.000,"PART-1-1",           522,       10.5221,      -19.7870,            0.,NA,NA,"",   97.9631E-03,  -97.2289E-03,   11.9711E-03,   287.633E-06
C:/temp/dataset/7/8_6.odb,Step-1,Increment      1: Step Time =    1.000,"PART-1-1",           523,       11.0260,      -21.8608,            0.,NA,NA,"",   86.0255E-03,  -84.8001E-03,   14.4681E-03,   1.45154E-03
C:/temp/dataset/7/8_6.odb,Step-1,Increment      1: Step Time =    1.000,"PART-1-1",           524,       7.98010,      -10.7619,            0.,NA,NA,"",   153.040E-03,  -152.963E-03,  -4.85481E-03,   18.2356E-06
C:/temp/dataset/7/8_6.odb,Step-1,Increment      1: Step Time =    1.000,"PART-1-1",           525,       8.65118,      -4.78401,            0.,NA,NA,"",   189.986E-03,  -189.985E-03,  -820.620E-06,   512.091E-09
C:/temp/dataset/7/8_6.odb,Step-1,Increment      1: Step Time =    1.000,"PART-1-1",           526,       7.84665,      -3.50518,            0.,NA,NA,"",   197.979E-03,  -197.893E-03,  -5.82955E-03,   505.974E-09
C:/temp/dataset/7/8_6.odb,Step-1,Increment      1: Step Time =    1.000,"PART-1-1",           527,       9.43586,      -6.49799,            0.,NA,NA,"",   179.426E-03,  -179.380E-03,   4.07399E-03,   1.35134E-06
C:/temp/dataset/7/8_6.odb,Step-1,Increment      1: Step Time =    1.000,"PART-1-1",           528,       10.6293,      -5.79077,            0.,NA,NA,"",   184.140E-03,  -183.784E-03,   11.4554E-03,   953.951E-09
C:/temp/dataset/7/8_6.odb,Step-1,Increment      1: Step Time =    1.000,"PART-1-1",           529,       11.1144,       3.95682,            0.,NA,NA,"",   244.613E-03,  -244.196E-03,   14.2768E-03,   46.8602E-09
C:/temp/dataset/7/8_6.odb,Step-1,Increment      1: Step Time =    1.000,"PART-1-1",           530,       10.1270,       5.17226,            0.,NA,NA,"",   251.840E-03,  -251.708E-03,   8.13495E-03,   17.6550E-09
C:/temp/dataset/7/8_6.odb,Step-1,Increment      1: Step Time =    1.000,"PART-1-1",           531,       9.05317,       10.7826,            0.,NA,NA,"",   286.456E-03,  -286.453E-03,   1.37318E-03,   1.46067E-09
C:/temp/dataset/7/8_6.odb,Step-1,Increment      1: Step Time =    1.000,"PART-1-1",           532,       8.01195,       11.8024,            0.,NA,NA,"",   292.797E-03,  -292.752E-03,  -5.09845E-03,   1.13390E-09
C:/temp/dataset/7/8_6.odb,Step-1,Increment      1: Step Time =    1.000,"PART-1-1",           533,       11.0241,       10.9595,            0.,NA,NA,"",   287.907E-03,  -287.587E-03,   13.5828E-03,   1.42068E-09
C:/temp/dataset/7/8_6.odb,Step-1,Increment      1: Step Time =    1.000,"PART-1-1",           534,       8.35051,       17.3209,            0.,NA,NA,"",   326.969E-03,  -326.954E-03,  -3.10645E-03,   136.933E-12
C:/temp/dataset/7/8_6.odb,Step-1,Increment      1: Step Time =    1.000,"PART-1-1",           535,       12.5952,       19.1415,            0.,NA,NA,"",   339.110E-03,  -338.318E-03,   23.1611E-03,   56.7642E-12
C:/temp/dataset/7/8_6.odb,Step-1,Increment      1: Step Time =    1.000,"PART-1-1",           536,           15.,         18.75,            0.,NA,NA,"",   338.088E-03,  -335.938E-03,   38.0704E-03,   12.0901E-12
C:/temp/dataset/7/8_6.odb,Step-1,Increment      1: Step Time =    1.000,"PART-1-1",           537,      -7.03326,       22.4462,            0.,NA,NA,"",   371.716E-03,  -358.419E-03,  -98.5322E-03,   2.77725E-12
C:/temp/dataset/7/8_6.odb,Step-1,Increment      1: Step Time =    1.000,"PART-1-1",           538,      -8.48458,       21.3302,            0.,NA,NA,"",   367.549E-03,  -351.475E-03,  -107.504E-03,   2.78474E-12
C:/temp/dataset/7/8_6.odb,Step-1,Increment      1: Step Time =    1.000,"PART-1-1",           539,      -6.65000,           20.,            0.,NA,NA,"",   356.469E-03,  -343.268E-03,  -96.1104E-03,   2.79748E-12
C:/temp/dataset/7/8_6.odb,Step-1,Increment      1: Step Time =    1.000,"PART-1-1",           540,      -5.19869,       21.1160,            0.,NA,NA,"",   360.890E-03,  -350.212E-03,  -87.1385E-03,   2.79280E-12
C:/temp/dataset/7/8_6.odb,Step-1,Increment      1: Step Time =    1.000,"PART-1-1",           541,       9.42603,       26.6587,            0.,NA,NA,"",   384.853E-03,  -384.838E-03,   3.37881E-03,   3.94529E-12
C:/temp/dataset/7/8_6.odb,Step-1,Increment      1: Step Time =    1.000,"PART-1-1",           542,       10.3720,       25.4897,            0.,NA,NA,"",   377.726E-03,  -377.612E-03,   9.26294E-03,   4.65683E-12
C:/temp/dataset/7/8_6.odb,Step-1,Increment      1: Step Time =    1.000,"PART-1-1",           543,       6.87457,       25.7626,            0.,NA,NA,"",   379.440E-03,  -379.237E-03,  -12.4144E-03,   4.30408E-12
C:/temp/dataset/7/8_6.odb,Step-1,Increment      1: Step Time =    1.000,"PART-1-1",           544,       7.54675,       26.7337,            0.,NA,NA,"",   385.355E-03,  -385.267E-03,  -8.26781E-03,   3.74580E-12
C:/temp/dataset/7/8_6.odb,Step-1,Increment      1: Step Time =    1.000,"PART-1-1",           545,      -3.17643,       25.4018,            0.,NA,NA,"",   384.139E-03,  -376.808E-03,  -74.6897E-03,   2.70907E-12
C:/temp/dataset/7/8_6.odb,Step-1,Increment      1: Step Time =    1.000,"PART-1-1",           546,      -4.35024,       25.6599,            0.,NA,NA,"",   387.161E-03,  -378.384E-03,  -81.9683E-03,   2.73491E-12
C:/temp/dataset/7/8_6.odb,Step-1,Increment      1: Step Time =    1.000,"PART-1-1",           547,       4.01884,       22.4610,            0.,NA,NA,"",   359.979E-03,  -358.723E-03,  -30.0469E-03,   5.50789E-12
C:/temp/dataset/7/8_6.odb,Step-1,Increment      1: Step Time =    1.000,"PART-1-1",           548,       5.32127,       23.1739,            0.,NA,NA,"",   363.831E-03,  -363.165E-03,  -21.9899E-03,   6.06567E-12
C:/temp/dataset/7/8_6.odb,Step-1,Increment      1: Step Time =    1.000,"PART-1-1",           549,       11.1447,       22.1526,            0.,NA,NA,"",   357.228E-03,  -356.949E-03,   14.1154E-03,   9.78321E-12
C:/temp/dataset/7/8_6.odb,Step-1,Increment      1: Step Time =    1.000,"PART-1-1",           550,       10.2813,       23.3249,            0.,NA,NA,"",   364.301E-03,  -364.196E-03,   8.74282E-03,   6.77437E-12
C:/temp/dataset/7/8_6.odb,Step-1,Increment      1: Step Time =    1.000,"PART-1-1",           551,       6.15508,       21.9496,            0.,NA,NA,"",   355.991E-03,  -355.595E-03,  -16.7996E-03,   7.41416E-12
C:/temp/dataset/7/8_6.odb,Step-1,Increment      1: Step Time =    1.000,"PART-1-1",           552,       6.48612,       23.9825,            0.,NA,NA,"",   368.495E-03,  -368.198E-03,  -14.7873E-03,   5.85190E-12
C:/temp/dataset/7/8_6.odb,Step-1,Increment      1: Step Time =    1.000,"PART-1-1",           553,   6.30745E-03,       24.2683,            0.,NA,NA,"",   373.904E-03,  -369.845E-03,  -54.9457E-03,   2.65110E-12
C:/temp/dataset/7/8_6.odb,Step-1,Increment      1: Step Time =    1.000,"PART-1-1",           554,      -1.65981,       23.6471,            0.,NA,NA,"",   371.736E-03,  -365.963E-03,  -65.2580E-03,   2.68732E-12
C:/temp/dataset/7/8_6.odb,Step-1,Increment      1: Step Time =    1.000,"PART-1-1",           555,      -1.07768,       22.4355,            0.,NA,NA,"",   363.726E-03,  -358.467E-03,  -61.6276E-03,   2.65827E-12
C:/temp/dataset/7/8_6.odb,Step-1,Increment      1: Step Time =    1.000,"PART-1-1",           556,   588.432E-03,       23.0567,            0.,NA,NA,"",   365.964E-03,  -362.348E-03,  -51.3152E-03,   2.70441E-12
C:/temp/dataset/7/8_6.odb,Step-1,Increment      1: Step Time =    1.000,"PART-1-1",           557,      -4.82218,       24.5397,            0.,NA,NA,"",   381.007E-03,  -371.434E-03,  -84.8712E-03,   2.73846E-12
C:/temp/dataset/7/8_6.odb,Step-1,Increment      1: Step Time =    1.000,"PART-1-1",           558,      -3.09511,       23.7242,            0.,NA,NA,"",   373.842E-03,  -366.414E-03,  -74.1535E-03,   2.71459E-12
C:/temp/dataset/7/8_6.odb,Step-1,Increment      1: Step Time =    1.000,"PART-1-1",           559,      -5.58708,       23.2486,            0.,NA,NA,"",   374.298E-03,  -363.419E-03,  -89.5862E-03,   2.76183E-12
C:/temp/dataset/7/8_6.odb,Step-1,Increment      1: Step Time =    1.000,"PART-1-1",           560,       8.76337,      -9.49006,            0.,NA,NA,"",   160.837E-03,  -160.837E-03,  -29.4536E-06,   12.3836E-06
C:/temp/dataset/7/8_6.odb,Step-1,Increment      1: Step Time =    1.000,"PART-1-1",           561,       9.72759,      -26.4759,            0.,NA,NA,"",   40.2078E-03,  -40.1698E-03,   1.74944E-03,   6.29874E-03
C:/temp/dataset/7/8_6.odb,Step-1,Increment      1: Step Time =    1.000,"PART-1-1",           562,       9.12173,       6.33780,            0.,NA,NA,"",   258.918E-03,  -258.911E-03,   1.88333E-03,   10.8347E-09
C:/temp/dataset/7/8_6.odb,Step-1,Increment      1: Step Time =    1.000,"PART-1-1",           563,       11.1214,       6.29882,            0.,NA,NA,"",   259.102E-03,  -258.708E-03,   14.2755E-03,   11.0757E-09
C:/temp/dataset/7/8_6.odb,Step-1,Increment      1: Step Time =    1.000,"PART-1-1",           564,       11.1740,      -13.7880,            0.,NA,NA,"",   135.015E-03,  -134.169E-03,   15.0930E-03,   90.7834E-06
C:/temp/dataset/7/8_6.odb,Step-1,Increment      1: Step Time =    1.000,"PART-1-1",           565,       10.6612,      -8.65022,            0.,NA,NA,"",   166.474E-03,  -166.062E-03,   11.7117E-03,   8.49154E-06
C:/temp/dataset/7/8_6.odb,Step-1,Increment      1: Step Time =    1.000,"PART-1-1",           566,       9.47894,      -7.81405,            0.,NA,NA,"",   171.282E-03,  -171.227E-03,   4.36736E-03,   3.43007E-06
C:/temp/dataset/7/8_6.odb,Step-1,Increment      1: Step Time =    1.000,"PART-1-1",           567,       11.3640,      -18.5194,            0.,NA,NA,"",   106.284E-03,  -104.933E-03,   16.8960E-03,   211.728E-06
C:/temp/dataset/7/8_6.odb,Step-1,Increment      1: Step Time =    1.000,"PART-1-1",           568,       12.0025,       20.7886,            0.,NA,NA,"",   349.055E-03,  -348.513E-03,   19.4569E-03,   13.6430E-12
C:/temp/dataset/7/8_6.odb,Step-1,Increment      1: Step Time =    1.000,"PART-1-1",           569,       11.4947,       18.6594,            0.,NA,NA,"",   335.708E-03,  -335.309E-03,   16.3510E-03,   76.4999E-12
C:/temp/dataset/7/8_6.odb,Step-1,Increment      1: Step Time =    1.000,"PART-1-1",           570,       9.39315,       18.1618,            0.,NA,NA,"",   332.202E-03,  -332.186E-03,   3.33821E-03,   117.813E-12
C:/temp/dataset/7/8_6.odb,Step-1,Increment      1: Step Time =    1.000,"PART-1-1",           571,       10.9214,       17.4088,            0.,NA,NA,"",   327.800E-03,  -327.549E-03,   12.8226E-03,   133.927E-12
C:/temp/dataset/7/8_6.odb,Step-1,Increment      1: Step Time =    1.000,"PART-1-1",           572,      -9.97500,           20.,            0.,NA,NA,"",   362.507E-03,  -343.204E-03,  -116.714E-03,   2.78830E-12
C:/temp/dataset/7/8_6.odb,Step-1,Increment      1: Step Time =    1.000,"PART-1-1",           573,       11.9818,      -2.09472,            0.,NA,NA,"",   207.657E-03,  -206.714E-03,   19.7676E-03,   414.452E-09
C:/temp/dataset/7/8_6.odb,Step-1,Increment      1: Step Time =    1.000,"PART-1-1",           574,       12.0426,   313.093E-03,            0.,NA,NA,"",   222.544E-03,  -221.635E-03,   20.0981E-03,   190.048E-09
C:/temp/dataset/7/8_6.odb,Step-1,Increment      1: Step Time =    1.000,"PART-1-1",           575,       12.1686,      -14.9632,            0.,NA,NA,"",   128.585E-03,  -126.814E-03,   21.2690E-03,   108.019E-06
C:/temp/dataset/7/8_6.odb,Step-1,Increment      1: Step Time =    1.000,"PART-1-1",           576,       12.0880,      -12.5178,            0.,NA,NA,"",   143.549E-03,  -142.055E-03,   20.6536E-03,   42.8170E-06
C:/temp/dataset/7/8_6.odb,Step-1,Increment      1: Step Time =    1.000,"PART-1-1",           577,       12.0767,       2.70437,            0.,NA,NA,"",   237.320E-03,  -236.453E-03,   20.2641E-03,   64.1399E-09
C:/temp/dataset/7/8_6.odb,Step-1,Increment      1: Step Time =    1.000,"PART-1-1",           578,       11.6617,       14.7036,            0.,NA,NA,"",   311.290E-03,  -310.800E-03,   17.4622E-03,   452.107E-12
C:/temp/dataset/7/8_6.odb,Step-1,Increment      1: Step Time =    1.000,"PART-1-1",           579,       11.9561,       12.2406,            0.,NA,NA,"",   296.175E-03,  -295.543E-03,   19.3334E-03,   1.03180E-09
C:/temp/dataset/7/8_6.odb,Step-1,Increment      1: Step Time =    1.000,"PART-1-1",           580,       12.3155,      -19.7087,            0.,NA,NA,"",   100.557E-03,  -97.9583E-03,   22.7132E-03,   221.687E-06
C:/temp/dataset/7/8_6.odb,Step-1,Increment      1: Step Time =    1.000,"PART-1-1",           581,       12.3404,      -21.7879,            0.,NA,NA,"",   90.0241E-03,  -87.1933E-03,   22.3978E-03,   1.78632E-03
C:/temp/dataset/7/8_6.odb,Step-1,Increment      1: Step Time =    1.000,"PART-1-1",           582,       12.2327,      -17.3977,            0.,NA,NA,"",   113.830E-03,  -111.709E-03,   21.8704E-03,   204.193E-06
C:/temp/dataset/7/8_6.odb,Step-1,Increment      1: Step Time =    1.000,"PART-1-1",           583,       12.1020,       5.09402,            0.,NA,NA,"",   252.086E-03,  -251.261E-03,   20.3748E-03,   15.4954E-09
C:/temp/dataset/7/8_6.odb,Step-1,Increment      1: Step Time =    1.000,"PART-1-1",           584,       12.0630,       9.85139,            0.,NA,NA,"",   281.455E-03,  -280.740E-03,   20.0419E-03,   1.49703E-09
C:/temp/dataset/7/8_6.odb,Step-1,Increment      1: Step Time =    1.000,"PART-1-1",           585,       12.0921,       7.47372,            0.,NA,NA,"",   266.778E-03,  -266.007E-03,   20.2677E-03,   1.93081E-09
C:/temp/dataset/7/8_6.odb,Step-1,Increment      1: Step Time =    1.000,"PART-1-1",           586,       11.9146,      -10.0225,            0.,NA,NA,"",   158.767E-03,  -157.564E-03,   19.5084E-03,   11.6851E-06
C:/temp/dataset/7/8_6.odb,Step-1,Increment      1: Step Time =    1.000,"PART-1-1",           587,       11.5993,      -7.26023,            0.,NA,NA,"",   175.568E-03,  -174.694E-03,   17.4951E-03,   1.58761E-06
C:/temp/dataset/7/8_6.odb,Step-1,Increment      1: Step Time =    1.000,"PART-1-1",           588,       11.8707,      -4.56496,            0.,NA,NA,"",   192.357E-03,  -191.404E-03,   19.1259E-03,   582.340E-09
C:/temp/dataset/7/8_6.odb,Step-1,Increment      1: Step Time =    1.000,"PART-1-1",           589,      -3.86001,       22.4330,            0.,NA,NA,"",   366.973E-03,  -358.398E-03,  -78.8686E-03,   2.74216E-12
C:/temp/dataset/7/8_6.odb,Step-1,Increment      1: Step Time =    1.000,"PART-1-1",           590,       3.35000,           20.,            0.,NA,NA,"",   345.153E-03,  -343.460E-03,  -34.1442E-03,   5.62001E-12
C:/temp/dataset/7/8_6.odb,Step-1,Increment      1: Step Time =    1.000,"PART-1-1",           591,       5.05511,       21.0689,            0.,NA,NA,"",   350.911E-03,  -350.116E-03,  -23.5988E-03,   5.99097E-12
C:/temp/dataset/7/8_6.odb,Step-1,Increment      1: Step Time =    1.000,"PART-1-1",           592,       2.31373,       21.3921,            0.,NA,NA,"",   354.399E-03,  -352.066E-03,  -40.5922E-03,   2.87138E-12
C:/temp/dataset/7/8_6.odb,Step-1,Increment      1: Step Time =    1.000,"PART-1-1",           593,      -1.98632,       21.3170,            0.,NA,NA,"",   357.891E-03,  -351.518E-03,  -67.2366E-03,   2.78494E-12
C:/temp/dataset/7/8_6.odb,Step-1,Increment      1: Step Time =    1.000,"PART-1-1",           594,   25.0000E-03,           20.,            0.,NA,NA,"",   347.733E-03,  -343.396E-03,  -54.7479E-03,   2.86528E-12
C:/temp/dataset/7/8_6.odb,Step-1,Increment      1: Step Time =    1.000,"PART-1-1",           595,   933.640E-03,       21.1186,            0.,NA,NA,"",   353.774E-03,  -350.345E-03,  -49.1389E-03,   2.56828E-12
C:/temp/dataset/7/8_6.odb,Step-1,Increment      1: Step Time =    1.000,"PART-1-1",           596,       7.16521,       20.7144,            0.,NA,NA,"",   348.119E-03,  -347.960E-03,  -10.5165E-03,   13.7617E-12
C:/temp/dataset/7/8_6.odb,Step-1,Increment      1: Step Time =    1.000,"PART-1-1",           597,       8.15837,       19.5039,            0.,NA,NA,"",   340.506E-03,  -340.478E-03,  -4.33902E-03,   34.2418E-12
C:/temp/dataset/7/8_6.odb,Step-1,Increment      1: Step Time =    1.000,"PART-1-1",           598,      -3.32500,           20.,            0.,NA,NA,"",   351.537E-03,  -343.332E-03,  -75.5066E-03,   2.82874E-12
