ODB Name,Step,Frame,Part Instance Name,    êﬂì_ÉâÉxÉã,X,Y,Z,Section Name,Material Name,Section Point,   U-Magnitude,          U-U1,          U-U2,       S-Mises
C:/temp/dataset/7/8_7.odb,Step-1,Increment      1: Step Time =    1.000,"PART-1-1",             1,          -15.,           20.,            0.,NA,NA,"",   435.928E-03,  -400.251E-03,  -172.720E-03,   7.36186E-12
C:/temp/dataset/7/8_7.odb,Step-1,Increment      1: Step Time =    1.000,"PART-1-1",             2,          -15.,           25.,            0.,NA,NA,"",   469.386E-03,  -436.401E-03,  -172.851E-03,   7.32418E-12
C:/temp/dataset/7/8_7.odb,Step-1,Increment      1: Step Time =    1.000,"PART-1-1",             3,      -11.6500,           20.,            0.,NA,NA,"",   426.993E-03,  -400.338E-03,  -148.499E-03,   7.35759E-12
C:/temp/dataset/7/8_7.odb,Step-1,Increment      1: Step Time =    1.000,"PART-1-1",             4,      -8.30000,           20.,            0.,NA,NA,"",   419.268E-03,  -400.426E-03,  -124.279E-03,   7.36980E-12
C:/temp/dataset/7/8_7.odb,Step-1,Increment      1: Step Time =    1.000,"PART-1-1",             5,           -5.,           20.,            0.,NA,NA,"",   412.909E-03,  -400.512E-03,  -100.419E-03,   7.37925E-12
C:/temp/dataset/7/8_7.odb,Step-1,Increment      1: Step Time =    1.000,"PART-1-1",             6,      -1.65000,           20.,            0.,NA,NA,"",   407.782E-03,  -400.599E-03,  -76.1982E-03,   7.45417E-12
C:/temp/dataset/7/8_7.odb,Step-1,Increment      1: Step Time =    1.000,"PART-1-1",             7,       1.70000,           20.,            0.,NA,NA,"",   404.044E-03,  -400.687E-03,  -51.9773E-03,   8.06362E-12
C:/temp/dataset/7/8_7.odb,Step-1,Increment      1: Step Time =    1.000,"PART-1-1",             8,            5.,           20.,            0.,NA,NA,"",   401.758E-03,  -400.773E-03,  -28.1178E-03,   14.7805E-12
C:/temp/dataset/7/8_7.odb,Step-1,Increment      1: Step Time =    1.000,"PART-1-1",             9,            5.,         13.75,            0.,NA,NA,"",   356.682E-03,  -355.585E-03,  -27.9545E-03,   629.096E-12
C:/temp/dataset/7/8_7.odb,Step-1,Increment      1: Step Time =    1.000,"PART-1-1",            10,            5.,           7.5,            0.,NA,NA,"",   311.638E-03,  -310.397E-03,  -27.7911E-03,   6.30587E-09
C:/temp/dataset/7/8_7.odb,Step-1,Increment      1: Step Time =    1.000,"PART-1-1",            11,            5.,          1.25,            0.,NA,NA,"",   266.643E-03,  -265.208E-03,  -27.6277E-03,   100.625E-09
C:/temp/dataset/7/8_7.odb,Step-1,Increment      1: Step Time =    1.000,"PART-1-1",            12,            5.,           -5.,            0.,NA,NA,"",   221.728E-03,  -220.021E-03,  -27.4607E-03,   1.70538E-06
C:/temp/dataset/7/8_7.odb,Step-1,Increment      1: Step Time =    1.000,"PART-1-1",            13,            5.,        -11.25,            0.,NA,NA,"",   177.006E-03,  -174.888E-03,  -27.2964E-03,   10.4553E-06
C:/temp/dataset/7/8_7.odb,Step-1,Increment      1: Step Time =    1.000,"PART-1-1",            14,            5.,         -17.5,            0.,NA,NA,"",   132.656E-03,  -129.714E-03,  -27.7833E-03,   344.205E-06
C:/temp/dataset/7/8_7.odb,Step-1,Increment      1: Step Time =    1.000,"PART-1-1",            15,            5.,        -23.75,            0.,NA,NA,"",   82.5849E-03,  -76.8225E-03,  -30.3079E-03,   227.909E-06
C:/temp/dataset/7/8_7.odb,Step-1,Increment      1: Step Time =    1.000,"PART-1-1",            16,            5.,          -30.,            0.,NA,NA,"",            0.,  -4.77685E-39,  -8.18389E-39,   16.3418E-03
C:/temp/dataset/7/8_7.odb,Step-1,Increment      1: Step Time =    1.000,"PART-1-1",            17,           15.,          -30.,            0.,NA,NA,"",            0.,  -8.58842E-39,   13.0671E-39,   27.2818E-03
C:/temp/dataset/7/8_7.odb,Step-1,Increment      1: Step Time =    1.000,"PART-1-1",            18,           15.,         -22.5,            0.,NA,NA,"",   112.419E-03,  -105.471E-03,   38.9104E-03,   3.65497E-03
C:/temp/dataset/7/8_7.odb,Step-1,Increment      1: Step Time =    1.000,"PART-1-1",            19,           15.,          -15.,            0.,NA,NA,"",   154.483E-03,  -147.801E-03,   44.9430E-03,   125.216E-06
C:/temp/dataset/7/8_7.odb,Step-1,Increment      1: Step Time =    1.000,"PART-1-1",            20,           15.,          -7.5,            0.,NA,NA,"",   207.125E-03,  -202.198E-03,   44.9105E-03,   2.58553E-06
C:/temp/dataset/7/8_7.odb,Step-1,Increment      1: Step Time =    1.000,"PART-1-1",            21,           15.,            0.,            0.,NA,NA,"",   260.300E-03,  -256.432E-03,   44.7064E-03,   192.673E-09
C:/temp/dataset/7/8_7.odb,Step-1,Increment      1: Step Time =    1.000,"PART-1-1",            22,           15.,           7.5,            0.,NA,NA,"",   313.831E-03,  -310.658E-03,   44.5102E-03,   6.57937E-09
C:/temp/dataset/7/8_7.odb,Step-1,Increment      1: Step Time =    1.000,"PART-1-1",            23,           15.,           15.,            0.,NA,NA,"",   367.565E-03,  -364.884E-03,   44.3141E-03,   311.692E-12
C:/temp/dataset/7/8_7.odb,Step-1,Increment      1: Step Time =    1.000,"PART-1-1",            24,           15.,          22.5,            0.,NA,NA,"",   421.426E-03,  -419.110E-03,   44.1181E-03,   12.9441E-12
C:/temp/dataset/7/8_7.odb,Step-1,Increment      1: Step Time =    1.000,"PART-1-1",            25,           15.,           30.,            0.,NA,NA,"",   475.369E-03,  -473.336E-03,   43.9221E-03,   7.45295E-12
C:/temp/dataset/7/8_7.odb,Step-1,Increment      1: Step Time =    1.000,"PART-1-1",            26,         11.25,           30.,            0.,NA,NA,"",   473.536E-03,  -473.238E-03,   16.8091E-03,   6.07262E-12
C:/temp/dataset/7/8_7.odb,Step-1,Increment      1: Step Time =    1.000,"PART-1-1",            27,           7.5,           30.,            0.,NA,NA,"",   473.252E-03,  -473.140E-03,  -10.3039E-03,   6.16710E-12
C:/temp/dataset/7/8_7.odb,Step-1,Increment      1: Step Time =    1.000,"PART-1-1",            28,          3.75,           30.,            0.,NA,NA,"",   474.519E-03,  -473.042E-03,  -37.4169E-03,   6.45730E-12
C:/temp/dataset/7/8_7.odb,Step-1,Increment      1: Step Time =    1.000,"PART-1-1",            29,            0.,           30.,            0.,NA,NA,"",   477.326E-03,  -472.944E-03,  -64.5299E-03,   7.13989E-12
C:/temp/dataset/7/8_7.odb,Step-1,Increment      1: Step Time =    1.000,"PART-1-1",            30,         -3.75,           30.,            0.,NA,NA,"",   481.645E-03,  -472.846E-03,  -91.6428E-03,   7.26526E-12
C:/temp/dataset/7/8_7.odb,Step-1,Increment      1: Step Time =    1.000,"PART-1-1",            31,          -7.5,           30.,            0.,NA,NA,"",   487.436E-03,  -472.748E-03,  -118.756E-03,   7.28699E-12
C:/temp/dataset/7/8_7.odb,Step-1,Increment      1: Step Time =    1.000,"PART-1-1",            32,        -11.25,           30.,            0.,NA,NA,"",   494.647E-03,  -472.650E-03,  -145.869E-03,   7.31478E-12
C:/temp/dataset/7/8_7.odb,Step-1,Increment      1: Step Time =    1.000,"PART-1-1",            33,          -15.,           30.,            0.,NA,NA,"",   503.218E-03,  -472.552E-03,  -172.982E-03,   7.37193E-12
C:/temp/dataset/7/8_7.odb,Step-1,Increment      1: Step Time =    1.000,"PART-1-1",            34,          -15.,          22.5,            0.,NA,NA,"",   452.605E-03,  -418.326E-03,  -172.786E-03,   7.31994E-12
C:/temp/dataset/7/8_7.odb,Step-1,Increment      1: Step Time =    1.000,"PART-1-1",            35,            5.,       15.8333,            0.,NA,NA,"",   371.705E-03,  -370.648E-03,  -28.0089E-03,   166.600E-12
C:/temp/dataset/7/8_7.odb,Step-1,Increment      1: Step Time =    1.000,"PART-1-1",            36,            5.,       17.9167,            0.,NA,NA,"",   386.730E-03,  -385.711E-03,  -28.0634E-03,   22.4174E-12
C:/temp/dataset/7/8_7.odb,Step-1,Increment      1: Step Time =    1.000,"PART-1-1",            37,            5.,       9.58333,            0.,NA,NA,"",   326.648E-03,  -325.459E-03,  -27.8456E-03,   3.80543E-09
C:/temp/dataset/7/8_7.odb,Step-1,Increment      1: Step Time =    1.000,"PART-1-1",            38,            5.,       11.6667,            0.,NA,NA,"",   341.663E-03,  -340.522E-03,  -27.9000E-03,   1.74058E-09
C:/temp/dataset/7/8_7.odb,Step-1,Increment      1: Step Time =    1.000,"PART-1-1",            39,            5.,       3.33333,            0.,NA,NA,"",   281.635E-03,  -280.271E-03,  -27.6822E-03,   16.6274E-09
C:/temp/dataset/7/8_7.odb,Step-1,Increment      1: Step Time =    1.000,"PART-1-1",            40,            5.,       5.41667,            0.,NA,NA,"",   296.633E-03,  -295.334E-03,  -27.7367E-03,   4.70415E-09
C:/temp/dataset/7/8_7.odb,Step-1,Increment      1: Step Time =    1.000,"PART-1-1",            41,            5.,      -2.91667,            0.,NA,NA,"",   236.687E-03,  -235.082E-03,  -27.5174E-03,   840.969E-09
C:/temp/dataset/7/8_7.odb,Step-1,Increment      1: Step Time =    1.000,"PART-1-1",            42,            5.,  -833.333E-03,            0.,NA,NA,"",   251.660E-03,  -250.145E-03,  -27.5729E-03,   324.462E-09
C:/temp/dataset/7/8_7.odb,Step-1,Increment      1: Step Time =    1.000,"PART-1-1",            43,            5.,      -9.16667,            0.,NA,NA,"",   191.875E-03,  -189.916E-03,  -27.3441E-03,   1.22551E-06
C:/temp/dataset/7/8_7.odb,Step-1,Increment      1: Step Time =    1.000,"PART-1-1",            44,            5.,      -7.08333,            0.,NA,NA,"",   206.787E-03,  -204.964E-03,  -27.4024E-03,   2.56948E-06
C:/temp/dataset/7/8_7.odb,Step-1,Increment      1: Step Time =    1.000,"PART-1-1",            45,            5.,      -15.4167,            0.,NA,NA,"",   147.447E-03,  -144.877E-03,  -27.4098E-03,   151.677E-06
C:/temp/dataset/7/8_7.odb,Step-1,Increment      1: Step Time =    1.000,"PART-1-1",            46,            5.,      -13.3333,            0.,NA,NA,"",   162.198E-03,  -159.886E-03,  -27.2907E-03,   49.5404E-06
C:/temp/dataset/7/8_7.odb,Step-1,Increment      1: Step Time =    1.000,"PART-1-1",            47,            5.,      -21.6667,            0.,NA,NA,"",   101.147E-03,  -96.6790E-03,  -29.7302E-03,   690.147E-06
C:/temp/dataset/7/8_7.odb,Step-1,Increment      1: Step Time =    1.000,"PART-1-1",            48,            5.,      -19.5833,            0.,NA,NA,"",   117.460E-03,  -113.918E-03,  -28.6269E-03,   531.265E-06
C:/temp/dataset/7/8_7.odb,Step-1,Increment      1: Step Time =    1.000,"PART-1-1",            49,            5.,      -27.9167,            0.,NA,NA,"",   35.1946E-03,  -28.1573E-03,  -21.1146E-03,   7.39297E-03
C:/temp/dataset/7/8_7.odb,Step-1,Increment      1: Step Time =    1.000,"PART-1-1",            50,            5.,      -25.8333,            0.,NA,NA,"",   60.6786E-03,  -53.6023E-03,  -28.4373E-03,   2.12057E-03
C:/temp/dataset/7/8_7.odb,Step-1,Increment      1: Step Time =    1.000,"PART-1-1",            51,          12.5,          -30.,            0.,NA,NA,"",            0.,  -12.1068E-39,   6.26144E-39,   9.05714E-03
C:/temp/dataset/7/8_7.odb,Step-1,Increment      1: Step Time =    1.000,"PART-1-1",            52,           10.,          -30.,            0.,NA,NA,"",            0.,  -6.91563E-39,  -5.26079E-39,   7.64003E-03
C:/temp/dataset/7/8_7.odb,Step-1,Increment      1: Step Time =    1.000,"PART-1-1",            53,           7.5,          -30.,            0.,NA,NA,"",            0.,  -7.89465E-39,  -1.82031E-39,   5.72925E-03
C:/temp/dataset/7/8_7.odb,Step-1,Increment      1: Step Time =    1.000,"PART-1-1",            54,           15.,          -25.,            0.,NA,NA,"",   99.5160E-03,  -91.8081E-03,   38.4018E-03,   6.80845E-03
C:/temp/dataset/7/8_7.odb,Step-1,Increment      1: Step Time =    1.000,"PART-1-1",            55,           15.,         -27.5,            0.,NA,NA,"",   66.3850E-03,  -58.4099E-03,   31.5476E-03,   12.2372E-03
C:/temp/dataset/7/8_7.odb,Step-1,Increment      1: Step Time =    1.000,"PART-1-1",            56,           15.,         -17.5,            0.,NA,NA,"",   137.248E-03,  -129.888E-03,   44.3406E-03,   468.279E-06
C:/temp/dataset/7/8_7.odb,Step-1,Increment      1: Step Time =    1.000,"PART-1-1",            57,           15.,          -20.,            0.,NA,NA,"",   121.129E-03,  -113.178E-03,   43.1618E-03,   1.53487E-03
C:/temp/dataset/7/8_7.odb,Step-1,Increment      1: Step Time =    1.000,"PART-1-1",            58,           15.,          -10.,            0.,NA,NA,"",   189.513E-03,  -184.098E-03,   44.9804E-03,   1.69343E-06
C:/temp/dataset/7/8_7.odb,Step-1,Increment      1: Step Time =    1.000,"PART-1-1",            59,           15.,         -12.5,            0.,NA,NA,"",   171.962E-03,  -165.966E-03,   45.0132E-03,   29.1473E-06
C:/temp/dataset/7/8_7.odb,Step-1,Increment      1: Step Time =    1.000,"PART-1-1",            60,           15.,          -2.5,            0.,NA,NA,"",   242.526E-03,  -238.357E-03,   44.7726E-03,   672.562E-09
C:/temp/dataset/7/8_7.odb,Step-1,Increment      1: Step Time =    1.000,"PART-1-1",            61,           15.,           -5.,            0.,NA,NA,"",   224.798E-03,  -220.281E-03,   44.8406E-03,   1.69210E-06
C:/temp/dataset/7/8_7.odb,Step-1,Increment      1: Step Time =    1.000,"PART-1-1",            62,           15.,            5.,            0.,NA,NA,"",   295.959E-03,  -292.583E-03,   44.5755E-03,   5.07761E-09
C:/temp/dataset/7/8_7.odb,Step-1,Increment      1: Step Time =    1.000,"PART-1-1",            63,           15.,           2.5,            0.,NA,NA,"",   278.114E-03,  -274.508E-03,   44.6409E-03,   32.6877E-09
C:/temp/dataset/7/8_7.odb,Step-1,Increment      1: Step Time =    1.000,"PART-1-1",            64,           15.,          12.5,            0.,NA,NA,"",   349.637E-03,  -346.809E-03,   44.3795E-03,   1.19381E-09
C:/temp/dataset/7/8_7.odb,Step-1,Increment      1: Step Time =    1.000,"PART-1-1",            65,           15.,           10.,            0.,NA,NA,"",   331.724E-03,  -328.733E-03,   44.4448E-03,   3.38066E-09
C:/temp/dataset/7/8_7.odb,Step-1,Increment      1: Step Time =    1.000,"PART-1-1",            66,           15.,           20.,            0.,NA,NA,"",   403.461E-03,  -401.035E-03,   44.1835E-03,   23.5442E-12
C:/temp/dataset/7/8_7.odb,Step-1,Increment      1: Step Time =    1.000,"PART-1-1",            67,           15.,          17.5,            0.,NA,NA,"",   385.507E-03,  -382.959E-03,   44.2488E-03,   44.5119E-12
C:/temp/dataset/7/8_7.odb,Step-1,Increment      1: Step Time =    1.000,"PART-1-1",            68,           15.,          27.5,            0.,NA,NA,"",   457.381E-03,  -455.261E-03,   43.9874E-03,   6.49039E-12
C:/temp/dataset/7/8_7.odb,Step-1,Increment      1: Step Time =    1.000,"PART-1-1",            69,           15.,           25.,            0.,NA,NA,"",   439.399E-03,  -437.185E-03,   44.0528E-03,   7.71567E-12
C:/temp/dataset/7/8_7.odb,Step-1,Increment      1: Step Time =    1.000,"PART-1-1",            70,        13.125,           30.,            0.,NA,NA,"",   474.260E-03,  -473.287E-03,   30.3656E-03,   6.76536E-12
C:/temp/dataset/7/8_7.odb,Step-1,Increment      1: Step Time =    1.000,"PART-1-1",            71,         9.375,           30.,            0.,NA,NA,"",   473.200E-03,  -473.189E-03,   3.25260E-03,   6.14251E-12
C:/temp/dataset/7/8_7.odb,Step-1,Increment      1: Step Time =    1.000,"PART-1-1",            72,         5.625,           30.,            0.,NA,NA,"",   473.692E-03,  -473.091E-03,  -23.8604E-03,   6.20451E-12
C:/temp/dataset/7/8_7.odb,Step-1,Increment      1: Step Time =    1.000,"PART-1-1",            73,         1.875,           30.,            0.,NA,NA,"",   475.732E-03,  -472.993E-03,  -50.9734E-03,   6.89323E-12
C:/temp/dataset/7/8_7.odb,Step-1,Increment      1: Step Time =    1.000,"PART-1-1",            74,        -1.875,           30.,            0.,NA,NA,"",   479.299E-03,  -472.895E-03,  -78.0864E-03,   7.22941E-12
C:/temp/dataset/7/8_7.odb,Step-1,Increment      1: Step Time =    1.000,"PART-1-1",            75,        -5.625,           30.,            0.,NA,NA,"",   484.359E-03,  -472.797E-03,  -105.199E-03,   7.27757E-12
C:/temp/dataset/7/8_7.odb,Step-1,Increment      1: Step Time =    1.000,"PART-1-1",            76,        -9.375,           30.,            0.,NA,NA,"",   490.867E-03,  -472.699E-03,  -132.312E-03,   7.30081E-12
C:/temp/dataset/7/8_7.odb,Step-1,Increment      1: Step Time =    1.000,"PART-1-1",            77,       -13.125,           30.,            0.,NA,NA,"",   498.766E-03,  -472.601E-03,  -159.425E-03,   7.32513E-12
C:/temp/dataset/7/8_7.odb,Step-1,Increment      1: Step Time =    1.000,"PART-1-1",            78,          -15.,          27.5,            0.,NA,NA,"",   486.260E-03,  -454.477E-03,  -172.916E-03,   7.34480E-12
C:/temp/dataset/7/8_7.odb,Step-1,Increment      1: Step Time =    1.000,"PART-1-1",            79,      -7.07467,       28.0475,            0.,NA,NA,"",   472.994E-03,  -458.642E-03,  -115.630E-03,   7.28387E-12
C:/temp/dataset/7/8_7.odb,Step-1,Increment      1: Step Time =    1.000,"PART-1-1",            80,      -10.7971,       27.6072,            0.,NA,NA,"",   477.147E-03,  -455.361E-03,  -142.532E-03,   7.31517E-12
C:/temp/dataset/7/8_7.odb,Step-1,Increment      1: Step Time =    1.000,"PART-1-1",            81,      -3.50976,       28.2242,            0.,NA,NA,"",   468.707E-03,  -460.013E-03,  -89.8595E-03,   7.22808E-12
C:/temp/dataset/7/8_7.odb,Step-1,Increment      1: Step Time =    1.000,"PART-1-1",            82,       11.3028,       27.6605,            0.,NA,NA,"",   456.650E-03,  -456.324E-03,   17.2523E-03,   7.58959E-12
C:/temp/dataset/7/8_7.odb,Step-1,Increment      1: Step Time =    1.000,"PART-1-1",            83,       7.46624,       27.7175,            0.,NA,NA,"",   456.757E-03,  -456.636E-03,  -10.4883E-03,   7.05006E-12
C:/temp/dataset/7/8_7.odb,Step-1,Increment      1: Step Time =    1.000,"PART-1-1",            84,   523.838E-03,       28.1559,            0.,NA,NA,"",   463.615E-03,  -459.624E-03,  -60.6942E-03,   7.02869E-12
C:/temp/dataset/7/8_7.odb,Step-1,Increment      1: Step Time =    1.000,"PART-1-1",            85,       13.1724,       27.5829,            0.,NA,NA,"",   456.850E-03,  -455.812E-03,   30.7716E-03,   7.27134E-12
C:/temp/dataset/7/8_7.odb,Step-1,Increment      1: Step Time =    1.000,"PART-1-1",            86,       9.41586,       27.7284,            0.,NA,NA,"",   456.781E-03,  -456.766E-03,   3.60743E-03,   7.10967E-12
C:/temp/dataset/7/8_7.odb,Step-1,Increment      1: Step Time =    1.000,"PART-1-1",            87,       5.17501,       27.3177,            0.,NA,NA,"",   454.491E-03,  -453.686E-03,  -27.0438E-03,   7.29647E-12
C:/temp/dataset/7/8_7.odb,Step-1,Increment      1: Step Time =    1.000,"PART-1-1",            88,       1.85763,       28.7412,            0.,NA,NA,"",   466.694E-03,  -463.892E-03,  -51.0661E-03,   6.88736E-12
C:/temp/dataset/7/8_7.odb,Step-1,Increment      1: Step Time =    1.000,"PART-1-1",            89,      -1.45910,       27.7280,            0.,NA,NA,"",   462.602E-03,  -456.479E-03,  -75.0199E-03,   7.15481E-12
C:/temp/dataset/7/8_7.odb,Step-1,Increment      1: Step Time =    1.000,"PART-1-1",            90,      -5.31380,       28.2250,            0.,NA,NA,"",   471.342E-03,  -459.972E-03,  -102.903E-03,   7.26328E-12
C:/temp/dataset/7/8_7.odb,Step-1,Increment      1: Step Time =    1.000,"PART-1-1",            91,      -8.92632,       27.8484,            0.,NA,NA,"",   475.010E-03,  -457.155E-03,  -129.012E-03,   7.30131E-12
C:/temp/dataset/7/8_7.odb,Step-1,Increment      1: Step Time =    1.000,"PART-1-1",            92,       7.03655,   996.185E-03,            0.,NA,NA,"",   263.742E-03,  -263.426E-03,  -12.8966E-03,   172.952E-09
C:/temp/dataset/7/8_7.odb,Step-1,Increment      1: Step Time =    1.000,"PART-1-1",            93,       6.93081,       13.7923,            0.,NA,NA,"",   356.216E-03,  -355.941E-03,  -13.9955E-03,   756.063E-12
C:/temp/dataset/7/8_7.odb,Step-1,Increment      1: Step Time =    1.000,"PART-1-1",            94,       7.08682,       7.47611,            0.,NA,NA,"",   310.538E-03,  -310.278E-03,  -12.7025E-03,   1.41619E-09
C:/temp/dataset/7/8_7.odb,Step-1,Increment      1: Step Time =    1.000,"PART-1-1",            95,       6.96700,      -1.15199,            0.,NA,NA,"",   248.251E-03,  -247.892E-03,  -13.3433E-03,   389.456E-09
C:/temp/dataset/7/8_7.odb,Step-1,Increment      1: Step Time =    1.000,"PART-1-1",            96,       6.47578,      -21.8661,            0.,NA,NA,"",   96.6795E-03,  -95.1570E-03,  -17.0899E-03,   457.030E-06
C:/temp/dataset/7/8_7.odb,Step-1,Increment      1: Step Time =    1.000,"PART-1-1",            97,       7.14087,      -13.1040,            0.,NA,NA,"",   162.036E-03,  -161.608E-03,  -11.7709E-03,   66.3245E-06
C:/temp/dataset/7/8_7.odb,Step-1,Increment      1: Step Time =    1.000,"PART-1-1",            98,       6.53104,      -7.08024,            0.,NA,NA,"",   205.675E-03,  -205.025E-03,  -16.3388E-03,   598.253E-09
C:/temp/dataset/7/8_7.odb,Step-1,Increment      1: Step Time =    1.000,"PART-1-1",            99,       6.85322,      -3.24169,            0.,NA,NA,"",   233.208E-03,  -232.781E-03,  -14.1111E-03,   665.249E-09
C:/temp/dataset/7/8_7.odb,Step-1,Increment      1: Step Time =    1.000,"PART-1-1",           100,       6.74184,      -8.96518,            0.,NA,NA,"",   191.985E-03,  -191.416E-03,  -14.7665E-03,   5.70129E-06
C:/temp/dataset/7/8_7.odb,Step-1,Increment      1: Step Time =    1.000,"PART-1-1",           101,       6.94703,      -23.6171,            0.,NA,NA,"",   79.2261E-03,  -78.1685E-03,  -12.9021E-03,   1.87667E-03
C:/temp/dataset/7/8_7.odb,Step-1,Increment      1: Step Time =    1.000,"PART-1-1",           102,       7.44695,      -27.8442,            0.,NA,NA,"",   26.4146E-03,  -25.8927E-03,  -5.22477E-03,   8.08071E-03
C:/temp/dataset/7/8_7.odb,Step-1,Increment      1: Step Time =    1.000,"PART-1-1",           103,       7.35225,      -17.6578,            0.,NA,NA,"",   129.155E-03,  -128.762E-03,  -10.0583E-03,   239.647E-06
C:/temp/dataset/7/8_7.odb,Step-1,Increment      1: Step Time =    1.000,"PART-1-1",           104,       7.23832,      -15.2967,            0.,NA,NA,"",   146.270E-03,  -145.856E-03,  -10.9950E-03,   151.926E-06
C:/temp/dataset/7/8_7.odb,Step-1,Increment      1: Step Time =    1.000,"PART-1-1",           105,       7.10099,       17.6583,            0.,NA,NA,"",   384.113E-03,  -383.897E-03,  -12.8662E-03,   131.939E-12
C:/temp/dataset/7/8_7.odb,Step-1,Increment      1: Step Time =    1.000,"PART-1-1",           106,       6.86948,       15.7920,            0.,NA,NA,"",   370.681E-03,  -370.397E-03,  -14.4913E-03,   315.149E-12
C:/temp/dataset/7/8_7.odb,Step-1,Increment      1: Step Time =    1.000,"PART-1-1",           107,       7.06799,       9.62990,            0.,NA,NA,"",   326.105E-03,  -325.850E-03,  -12.8949E-03,   2.06553E-09
C:/temp/dataset/7/8_7.odb,Step-1,Increment      1: Step Time =    1.000,"PART-1-1",           108,       7.09093,       5.31052,            0.,NA,NA,"",   294.891E-03,  -294.621E-03,  -12.6162E-03,   14.3065E-09
C:/temp/dataset/7/8_7.odb,Step-1,Increment      1: Step Time =    1.000,"PART-1-1",           109,       6.65187,      -5.22056,            0.,NA,NA,"",   219.019E-03,  -218.469E-03,  -15.5146E-03,   647.998E-09
C:/temp/dataset/7/8_7.odb,Step-1,Increment      1: Step Time =    1.000,"PART-1-1",           110,       7.26954,      -25.7037,            0.,NA,NA,"",   54.6618E-03,  -53.9521E-03,  -8.77973E-03,   4.76671E-03
C:/temp/dataset/7/8_7.odb,Step-1,Increment      1: Step Time =    1.000,"PART-1-1",           111,       7.53271,      -20.3934,            0.,NA,NA,"",   108.270E-03,  -107.929E-03,  -8.59391E-03,   177.774E-06
C:/temp/dataset/7/8_7.odb,Step-1,Increment      1: Step Time =    1.000,"PART-1-1",           112,       7.01178,       11.7341,            0.,NA,NA,"",   341.324E-03,  -341.062E-03,  -13.3564E-03,   1.49888E-09
C:/temp/dataset/7/8_7.odb,Step-1,Increment      1: Step Time =    1.000,"PART-1-1",           113,       7.07643,       3.14767,            0.,NA,NA,"",   279.270E-03,  -278.983E-03,  -12.6645E-03,   59.2318E-09
C:/temp/dataset/7/8_7.odb,Step-1,Increment      1: Step Time =    1.000,"PART-1-1",           114,       6.98190,      -10.9751,            0.,NA,NA,"",   177.400E-03,  -176.924E-03,  -12.9799E-03,   22.9288E-06
C:/temp/dataset/7/8_7.odb,Step-1,Increment      1: Step Time =    1.000,"PART-1-1",           115,       13.1254,       22.8014,            0.,NA,NA,"",   422.347E-03,  -421.240E-03,   30.5563E-03,   9.55568E-12
C:/temp/dataset/7/8_7.odb,Step-1,Increment      1: Step Time =    1.000,"PART-1-1",           116,       12.8923,      -4.74502,            0.,NA,NA,"",   224.033E-03,  -222.070E-03,   29.5916E-03,   816.419E-09
C:/temp/dataset/7/8_7.odb,Step-1,Increment      1: Step Time =    1.000,"PART-1-1",           117,       13.0513,      -12.4505,            0.,NA,NA,"",   169.115E-03,  -166.261E-03,   30.9382E-03,   45.6748E-06
C:/temp/dataset/7/8_7.odb,Step-1,Increment      1: Step Time =    1.000,"PART-1-1",           118,       12.2427,       17.8341,            0.,NA,NA,"",   386.069E-03,  -385.303E-03,   24.3047E-03,   129.295E-12
C:/temp/dataset/7/8_7.odb,Step-1,Increment      1: Step Time =    1.000,"PART-1-1",           119,       13.0441,       9.90429,            0.,NA,NA,"",   329.387E-03,  -327.990E-03,   30.3057E-03,   2.12266E-09
C:/temp/dataset/7/8_7.odb,Step-1,Increment      1: Step Time =    1.000,"PART-1-1",           120,       13.0522,       2.62582,            0.,NA,NA,"",   277.056E-03,  -275.366E-03,   30.5550E-03,   76.1979E-09
C:/temp/dataset/7/8_7.odb,Step-1,Increment      1: Step Time =    1.000,"PART-1-1",           121,       13.2006,      -19.7745,            0.,NA,NA,"",   118.292E-03,  -113.843E-03,   32.1359E-03,   689.207E-06
C:/temp/dataset/7/8_7.odb,Step-1,Increment      1: Step Time =    1.000,"PART-1-1",           122,       9.90112,      -27.6522,            0.,NA,NA,"",   30.5635E-03,  -30.5474E-03,   991.827E-06,   8.85063E-03
C:/temp/dataset/7/8_7.odb,Step-1,Increment      1: Step Time =    1.000,"PART-1-1",           123,       13.0591,      -22.1191,            0.,NA,NA,"",   106.068E-03,  -101.512E-03,   30.7521E-03,   3.21926E-03
C:/temp/dataset/7/8_7.odb,Step-1,Increment      1: Step Time =    1.000,"PART-1-1",           124,       13.1139,      -14.9356,            0.,NA,NA,"",   151.463E-03,  -148.163E-03,   31.4474E-03,   144.271E-06
C:/temp/dataset/7/8_7.odb,Step-1,Increment      1: Step Time =    1.000,"PART-1-1",           125,       13.1678,      -17.3995,            0.,NA,NA,"",   134.151E-03,  -130.318E-03,   31.8386E-03,   237.999E-06
C:/temp/dataset/7/8_7.odb,Step-1,Increment      1: Step Time =    1.000,"PART-1-1",           126,       12.7891,      -7.32383,            0.,NA,NA,"",   205.460E-03,  -203.416E-03,   28.9119E-03,   1.46185E-06
C:/temp/dataset/7/8_7.odb,Step-1,Increment      1: Step Time =    1.000,"PART-1-1",           127,       12.9162,      -9.94117,            0.,NA,NA,"",   186.877E-03,  -184.469E-03,   29.9010E-03,   12.7562E-06
C:/temp/dataset/7/8_7.odb,Step-1,Increment      1: Step Time =    1.000,"PART-1-1",           128,       13.0283,   193.158E-03,            0.,NA,NA,"",   259.569E-03,  -257.778E-03,   30.4456E-03,   240.218E-09
C:/temp/dataset/7/8_7.odb,Step-1,Increment      1: Step Time =    1.000,"PART-1-1",           129,       12.9794,      -2.25409,            0.,NA,NA,"",   241.969E-03,  -240.083E-03,   30.1559E-03,   586.683E-09
C:/temp/dataset/7/8_7.odb,Step-1,Increment      1: Step Time =    1.000,"PART-1-1",           130,       13.0689,       7.48049,            0.,NA,NA,"",   311.966E-03,  -310.467E-03,   30.5483E-03,   1.43657E-09
C:/temp/dataset/7/8_7.odb,Step-1,Increment      1: Step Time =    1.000,"PART-1-1",           131,       13.0764,       5.05734,            0.,NA,NA,"",   294.548E-03,  -292.947E-03,   30.6664E-03,   15.6213E-09
C:/temp/dataset/7/8_7.odb,Step-1,Increment      1: Step Time =    1.000,"PART-1-1",           132,       12.6962,       14.9270,            0.,NA,NA,"",   365.344E-03,  -364.296E-03,   27.6590E-03,   505.524E-12
C:/temp/dataset/7/8_7.odb,Step-1,Increment      1: Step Time =    1.000,"PART-1-1",           133,       12.9459,       12.3607,            0.,NA,NA,"",   347.007E-03,  -345.748E-03,   29.5319E-03,   1.27131E-09
C:/temp/dataset/7/8_7.odb,Step-1,Increment      1: Step Time =    1.000,"PART-1-1",           134,       12.9476,       20.4489,            0.,NA,NA,"",   405.290E-03,  -404.227E-03,   29.3326E-03,   15.9718E-12
C:/temp/dataset/7/8_7.odb,Step-1,Increment      1: Step Time =    1.000,"PART-1-1",           135,       13.1802,       25.1793,            0.,NA,NA,"",   439.521E-03,  -438.434E-03,   30.8905E-03,   8.32542E-12
C:/temp/dataset/7/8_7.odb,Step-1,Increment      1: Step Time =    1.000,"PART-1-1",           136,      -12.4062,       24.9250,            0.,NA,NA,"",   462.361E-03,  -435.927E-03,  -154.096E-03,   7.32741E-12
C:/temp/dataset/7/8_7.odb,Step-1,Increment      1: Step Time =    1.000,"PART-1-1",           137,       11.3078,       25.3904,            0.,NA,NA,"",   440.253E-03,  -439.912E-03,   17.3472E-03,   9.18692E-12
C:/temp/dataset/7/8_7.odb,Step-1,Increment      1: Step Time =    1.000,"PART-1-1",           138,      -10.1009,       25.2443,            0.,NA,NA,"",   459.339E-03,  -438.296E-03,  -137.436E-03,   7.31832E-12
C:/temp/dataset/7/8_7.odb,Step-1,Increment      1: Step Time =    1.000,"PART-1-1",           139,      -4.83291,       26.5053,            0.,NA,NA,"",   458.452E-03,  -447.551E-03,  -99.3811E-03,   7.24961E-12
C:/temp/dataset/7/8_7.odb,Step-1,Increment      1: Step Time =    1.000,"PART-1-1",           140,       1.72347,       26.1851,            0.,NA,NA,"",   448.429E-03,  -445.407E-03,  -51.9692E-03,   7.12604E-12
C:/temp/dataset/7/8_7.odb,Step-1,Increment      1: Step Time =    1.000,"PART-1-1",           141,       6.12189,       25.7754,            0.,NA,NA,"",   443.018E-03,  -442.560E-03,  -20.1574E-03,   8.49640E-12
C:/temp/dataset/7/8_7.odb,Step-1,Increment      1: Step Time =    1.000,"PART-1-1",           142,       7.62725,       25.7499,            0.,NA,NA,"",   442.511E-03,  -442.414E-03,  -9.27277E-03,   8.64820E-12
C:/temp/dataset/7/8_7.odb,Step-1,Increment      1: Step Time =    1.000,"PART-1-1",           143,       3.76931,       25.0880,            0.,NA,NA,"",   439.103E-03,  -437.528E-03,  -37.1489E-03,   8.23424E-12
C:/temp/dataset/7/8_7.odb,Step-1,Increment      1: Step Time =    1.000,"PART-1-1",           144,  -231.428E-03,       26.1188,            0.,NA,NA,"",   449.760E-03,  -444.876E-03,  -66.1017E-03,   7.08255E-12
C:/temp/dataset/7/8_7.odb,Step-1,Increment      1: Step Time =    1.000,"PART-1-1",           145,      -2.48530,       25.9891,            0.,NA,NA,"",   451.462E-03,  -443.880E-03,  -82.3941E-03,   7.17914E-12
C:/temp/dataset/7/8_7.odb,Step-1,Increment      1: Step Time =    1.000,"PART-1-1",           146,      -3.63425,       26.9302,            0.,NA,NA,"",   459.696E-03,  -450.654E-03,  -90.7257E-03,   7.22613E-12
C:/temp/dataset/7/8_7.odb,Step-1,Increment      1: Step Time =    1.000,"PART-1-1",           147,      -8.31738,       25.8431,            0.,NA,NA,"",   459.861E-03,  -442.672E-03,  -124.557E-03,   7.30404E-12
C:/temp/dataset/7/8_7.odb,Step-1,Increment      1: Step Time =    1.000,"PART-1-1",           148,       9.04714,   705.037E-03,            0.,NA,NA,"",   261.379E-03,  -261.374E-03,   1.64757E-03,   222.589E-09
C:/temp/dataset/7/8_7.odb,Step-1,Increment      1: Step Time =    1.000,"PART-1-1",           149,       7.85197,      -7.06885,            0.,NA,NA,"",   205.253E-03,  -205.141E-03,  -6.79153E-03,   1.89686E-06
C:/temp/dataset/7/8_7.odb,Step-1,Increment      1: Step Time =    1.000,"PART-1-1",           150,       8.74205,      -22.9842,            0.,NA,NA,"",   85.7272E-03,  -85.7272E-03,   107.522E-06,   2.15585E-03
C:/temp/dataset/7/8_7.odb,Step-1,Increment      1: Step Time =    1.000,"PART-1-1",           151,       9.28078,      -15.1075,            0.,NA,NA,"",   147.194E-03,  -147.140E-03,   4.00003E-03,   156.593E-06
C:/temp/dataset/7/8_7.odb,Step-1,Increment      1: Step Time =    1.000,"PART-1-1",           152,       8.97855,      -1.55139,            0.,NA,NA,"",   245.061E-03,  -245.058E-03,   1.21011E-03,   497.158E-09
C:/temp/dataset/7/8_7.odb,Step-1,Increment      1: Step Time =    1.000,"PART-1-1",           153,       9.09422,       9.69450,            0.,NA,NA,"",   326.375E-03,  -326.370E-03,   1.75325E-03,   2.12620E-09
C:/temp/dataset/7/8_7.odb,Step-1,Increment      1: Step Time =    1.000,"PART-1-1",           154,       8.44946,       15.5970,            0.,NA,NA,"",   369.042E-03,  -369.030E-03,  -3.06272E-03,   402.527E-12
C:/temp/dataset/7/8_7.odb,Step-1,Increment      1: Step Time =    1.000,"PART-1-1",           155,       9.11701,       7.46178,            0.,NA,NA,"",   310.234E-03,  -310.228E-03,   1.97642E-03,   3.85213E-09
C:/temp/dataset/7/8_7.odb,Step-1,Increment      1: Step Time =    1.000,"PART-1-1",           156,       8.83101,       13.9442,            0.,NA,NA,"",   357.089E-03,  -357.089E-03,  -260.846E-06,   816.601E-12
C:/temp/dataset/7/8_7.odb,Step-1,Increment      1: Step Time =    1.000,"PART-1-1",           157,       9.61385,      -19.9311,            0.,NA,NA,"",   112.369E-03,  -112.138E-03,   7.20525E-03,   359.948E-06
C:/temp/dataset/7/8_7.odb,Step-1,Increment      1: Step Time =    1.000,"PART-1-1",           158,       9.10031,       2.95854,            0.,NA,NA,"",   277.676E-03,  -277.668E-03,   1.97331E-03,   82.2457E-09
C:/temp/dataset/7/8_7.odb,Step-1,Increment      1: Step Time =    1.000,"PART-1-1",           159,       9.17986,      -12.8049,            0.,NA,NA,"",   163.773E-03,  -163.745E-03,   3.04253E-03,   69.2752E-06
C:/temp/dataset/7/8_7.odb,Step-1,Increment      1: Step Time =    1.000,"PART-1-1",           160,       8.54844,      -8.43147,            0.,NA,NA,"",   195.319E-03,  -195.311E-03,  -1.71890E-03,   6.19439E-06
C:/temp/dataset/7/8_7.odb,Step-1,Increment      1: Step Time =    1.000,"PART-1-1",           161,       8.46228,      -5.79934,            0.,NA,NA,"",   214.346E-03,  -214.332E-03,  -2.41296E-03,   775.484E-09
C:/temp/dataset/7/8_7.odb,Step-1,Increment      1: Step Time =    1.000,"PART-1-1",           162,       8.97830,      -10.5487,            0.,NA,NA,"",   180.033E-03,  -180.027E-03,   1.46077E-03,   23.1159E-06
C:/temp/dataset/7/8_7.odb,Step-1,Increment      1: Step Time =    1.000,"PART-1-1",           163,       8.84007,      -3.76868,            0.,NA,NA,"",   229.023E-03,  -229.023E-03,   266.021E-06,   715.142E-09
C:/temp/dataset/7/8_7.odb,Step-1,Increment      1: Step Time =    1.000,"PART-1-1",           164,       9.12644,       5.21383,            0.,NA,NA,"",   293.983E-03,  -293.975E-03,   2.10331E-03,   21.7422E-09
C:/temp/dataset/7/8_7.odb,Step-1,Increment      1: Step Time =    1.000,"PART-1-1",           165,       9.36869,      -17.5094,            0.,NA,NA,"",   129.915E-03,  -129.817E-03,   5.05749E-03,   263.471E-06
C:/temp/dataset/7/8_7.odb,Step-1,Increment      1: Step Time =    1.000,"PART-1-1",           166,       9.01212,       11.8707,            0.,NA,NA,"",   342.104E-03,  -342.103E-03,   1.10282E-03,   1.55422E-09
C:/temp/dataset/7/8_7.odb,Step-1,Increment      1: Step Time =    1.000,"PART-1-1",           167,       9.60003,       16.9835,            0.,NA,NA,"",   379.120E-03,  -379.084E-03,   5.21983E-03,   225.115E-12
C:/temp/dataset/7/8_7.odb,Step-1,Increment      1: Step Time =    1.000,"PART-1-1",           168,       7.13047,       19.6676,            0.,NA,NA,"",   398.628E-03,  -398.426E-03,  -12.7056E-03,   32.4747E-12
C:/temp/dataset/7/8_7.odb,Step-1,Increment      1: Step Time =    1.000,"PART-1-1",           169,       9.55406,      -25.2995,            0.,NA,NA,"",   61.6907E-03,  -61.6202E-03,   2.94795E-03,   5.75213E-03
C:/temp/dataset/7/8_7.odb,Step-1,Increment      1: Step Time =    1.000,"PART-1-1",           170,       12.3800,      -27.4389,            0.,NA,NA,"",   44.3222E-03,  -43.3730E-03,   9.12394E-03,   11.5695E-03
C:/temp/dataset/7/8_7.odb,Step-1,Increment      1: Step Time =    1.000,"PART-1-1",           171,      -11.9351,       22.4166,            0.,NA,NA,"",   444.125E-03,  -417.803E-03,  -150.624E-03,   7.34160E-12
C:/temp/dataset/7/8_7.odb,Step-1,Increment      1: Step Time =    1.000,"PART-1-1",           172,       10.9842,      -1.93535,            0.,NA,NA,"",   242.844E-03,  -242.335E-03,   15.7212E-03,   536.730E-09
C:/temp/dataset/7/8_7.odb,Step-1,Increment      1: Step Time =    1.000,"PART-1-1",           173,       11.2234,      -14.9909,            0.,NA,NA,"",   148.931E-03,  -147.838E-03,   18.0134E-03,   158.527E-06
C:/temp/dataset/7/8_7.odb,Step-1,Increment      1: Step Time =    1.000,"PART-1-1",           174,       11.0574,       21.1283,            0.,NA,NA,"",   409.388E-03,  -409.089E-03,   15.6483E-03,   21.6499E-12
C:/temp/dataset/7/8_7.odb,Step-1,Increment      1: Step Time =    1.000,"PART-1-1",           175,       10.7466,       19.4847,            0.,NA,NA,"",   397.425E-03,  -397.198E-03,   13.4444E-03,   62.3767E-12
C:/temp/dataset/7/8_7.odb,Step-1,Increment      1: Step Time =    1.000,"PART-1-1",           176,       11.0568,   433.028E-03,            0.,NA,NA,"",   259.964E-03,  -259.460E-03,   16.1848E-03,   253.873E-09
C:/temp/dataset/7/8_7.odb,Step-1,Increment      1: Step Time =    1.000,"PART-1-1",           177,       10.9662,       12.1205,            0.,NA,NA,"",   344.296E-03,  -343.959E-03,   15.2248E-03,   1.46629E-09
C:/temp/dataset/7/8_7.odb,Step-1,Increment      1: Step Time =    1.000,"PART-1-1",           178,       11.6216,      -21.4567,            0.,NA,NA,"",   104.944E-03,  -102.714E-03,   21.5183E-03,   1.53017E-03
C:/temp/dataset/7/8_7.odb,Step-1,Increment      1: Step Time =    1.000,"PART-1-1",           179,       11.2975,      -17.3958,            0.,NA,NA,"",   131.856E-03,  -130.485E-03,   18.9671E-03,   269.766E-06
C:/temp/dataset/7/8_7.odb,Step-1,Increment      1: Step Time =    1.000,"PART-1-1",           180,       10.6273,       14.4803,            0.,NA,NA,"",   361.236E-03,  -361.012E-03,   12.7128E-03,   679.279E-12
C:/temp/dataset/7/8_7.odb,Step-1,Increment      1: Step Time =    1.000,"PART-1-1",           181,       11.1012,       2.78293,            0.,NA,NA,"",   276.940E-03,  -276.451E-03,   16.4448E-03,   86.8540E-09
C:/temp/dataset/7/8_7.odb,Step-1,Increment      1: Step Time =    1.000,"PART-1-1",           182,       11.1153,       7.46695,            0.,NA,NA,"",   310.752E-03,  -310.318E-03,   16.4243E-03,   3.64695E-09
C:/temp/dataset/7/8_7.odb,Step-1,Increment      1: Step Time =    1.000,"PART-1-1",           183,       11.1247,      -12.5851,            0.,NA,NA,"",   166.169E-03,  -165.289E-03,   17.0829E-03,   60.9629E-06
C:/temp/dataset/7/8_7.odb,Step-1,Increment      1: Step Time =    1.000,"PART-1-1",           184,       10.4094,      -7.19663,            0.,NA,NA,"",   204.613E-03,  -204.278E-03,   11.7017E-03,   2.38837E-06
C:/temp/dataset/7/8_7.odb,Step-1,Increment      1: Step Time =    1.000,"PART-1-1",           185,       10.4303,      -22.2648,            0.,NA,NA,"",   95.7765E-03,  -94.9782E-03,   12.3399E-03,   1.92589E-03
C:/temp/dataset/7/8_7.odb,Step-1,Increment      1: Step Time =    1.000,"PART-1-1",           186,       10.9130,      -10.1038,            0.,NA,NA,"",   183.908E-03,  -183.259E-03,   15.4325E-03,   18.1101E-06
C:/temp/dataset/7/8_7.odb,Step-1,Increment      1: Step Time =    1.000,"PART-1-1",           187,       10.8491,      -4.38491,            0.,NA,NA,"",   225.108E-03,  -224.620E-03,   14.8071E-03,   868.880E-09
C:/temp/dataset/7/8_7.odb,Step-1,Increment      1: Step Time =    1.000,"PART-1-1",           188,       11.1275,       5.13070,            0.,NA,NA,"",   293.894E-03,  -293.427E-03,   16.5738E-03,   22.5849E-09
C:/temp/dataset/7/8_7.odb,Step-1,Increment      1: Step Time =    1.000,"PART-1-1",           189,       11.0819,       9.79848,            0.,NA,NA,"",   327.571E-03,  -327.174E-03,   16.1221E-03,   2.11288E-09
C:/temp/dataset/7/8_7.odb,Step-1,Increment      1: Step Time =    1.000,"PART-1-1",           190,       12.1026,      -24.5603,            0.,NA,NA,"",   82.0895E-03,  -80.0885E-03,   18.0144E-03,   7.23764E-03
C:/temp/dataset/7/8_7.odb,Step-1,Increment      1: Step Time =    1.000,"PART-1-1",           191,      -7.61069,       24.2264,            0.,NA,NA,"",   447.235E-03,  -431.001E-03,  -119.405E-03,   7.31046E-12
C:/temp/dataset/7/8_7.odb,Step-1,Increment      1: Step Time =    1.000,"PART-1-1",           192,      -5.77678,       24.2650,            0.,NA,NA,"",   444.197E-03,  -431.328E-03,  -106.147E-03,   7.28732E-12
C:/temp/dataset/7/8_7.odb,Step-1,Increment      1: Step Time =    1.000,"PART-1-1",           193,       1.00958,       23.8763,            0.,NA,NA,"",   432.477E-03,  -428.695E-03,  -57.0704E-03,   7.21624E-12
C:/temp/dataset/7/8_7.odb,Step-1,Increment      1: Step Time =    1.000,"PART-1-1",           194,      -3.86757,       24.8145,            0.,NA,NA,"",   445.039E-03,  -435.351E-03,  -92.3573E-03,   7.24162E-12
C:/temp/dataset/7/8_7.odb,Step-1,Increment      1: Step Time =    1.000,"PART-1-1",           195,  -996.969E-03,       24.6602,            0.,NA,NA,"",   440.173E-03,  -434.311E-03,  -71.5985E-03,   7.13549E-12
C:/temp/dataset/7/8_7.odb,Step-1,Increment      1: Step Time =    1.000,"PART-1-1",           196,       7.19995,       21.7613,            0.,NA,NA,"",   413.747E-03,  -413.565E-03,  -12.2580E-03,   13.1323E-12
C:/temp/dataset/7/8_7.odb,Step-1,Increment      1: Step Time =    1.000,"PART-1-1",           197,       2.92747,       22.7842,            0.,NA,NA,"",   423.058E-03,  -420.849E-03,  -43.1753E-03,   7.51363E-12
C:/temp/dataset/7/8_7.odb,Step-1,Increment      1: Step Time =    1.000,"PART-1-1",           198,       5.53232,       24.2100,            0.,NA,NA,"",   431.915E-03,  -431.226E-03,  -24.3791E-03,   9.01340E-12
C:/temp/dataset/7/8_7.odb,Step-1,Increment      1: Step Time =    1.000,"PART-1-1",           199,       9.18626,       19.3402,            0.,NA,NA,"",   396.118E-03,  -396.112E-03,   2.16663E-03,   51.7526E-12
C:/temp/dataset/7/8_7.odb,Step-1,Increment      1: Step Time =    1.000,"PART-1-1",           200,       11.2321,       23.1770,            0.,NA,NA,"",   424.241E-03,  -423.906E-03,   16.8578E-03,   11.2848E-12
C:/temp/dataset/7/8_7.odb,Step-1,Increment      1: Step Time =    1.000,"PART-1-1",           201,       5.11021,       22.1378,            0.,NA,NA,"",   417.132E-03,  -416.233E-03,  -27.3769E-03,   11.8766E-12
C:/temp/dataset/7/8_7.odb,Step-1,Increment      1: Step Time =    1.000,"PART-1-1",           202,   167.280E-03,       22.2372,            0.,NA,NA,"",   421.574E-03,  -416.822E-03,  -63.1175E-03,   7.07367E-12
C:/temp/dataset/7/8_7.odb,Step-1,Increment      1: Step Time =    1.000,"PART-1-1",           203,      -2.32264,       22.6339,            0.,NA,NA,"",   427.396E-03,  -419.626E-03,  -81.1303E-03,   7.25316E-12
C:/temp/dataset/7/8_7.odb,Step-1,Increment      1: Step Time =    1.000,"PART-1-1",           204,       9.17324,       21.4477,            0.,NA,NA,"",   411.355E-03,  -411.350E-03,   2.01737E-03,   19.3548E-12
C:/temp/dataset/7/8_7.odb,Step-1,Increment      1: Step Time =    1.000,"PART-1-1",           205,       9.43619,       25.5889,            0.,NA,NA,"",   441.314E-03,  -441.298E-03,   3.81028E-03,   8.95938E-12
C:/temp/dataset/7/8_7.odb,Step-1,Increment      1: Step Time =    1.000,"PART-1-1",           206,      -5.39738,       22.2321,            0.,NA,NA,"",   429.267E-03,  -416.640E-03,  -103.351E-03,   7.32813E-12
C:/temp/dataset/7/8_7.odb,Step-1,Increment      1: Step Time =    1.000,"PART-1-1",           207,      -8.66915,       22.6604,            0.,NA,NA,"",   438.452E-03,  -419.651E-03,  -127.017E-03,   7.33271E-12
C:/temp/dataset/7/8_7.odb,Step-1,Increment      1: Step Time =    1.000,"PART-1-1",           208,      -12.8188,       27.4435,            0.,NA,NA,"",   480.545E-03,  -454.125E-03,  -157.144E-03,   7.32998E-12
C:/temp/dataset/7/8_7.odb,Step-1,Increment      1: Step Time =    1.000,"PART-1-1",           209,       7.43992,       23.7550,            0.,NA,NA,"",   428.117E-03,  -427.986E-03,  -10.5750E-03,   10.9255E-12
C:/temp/dataset/7/8_7.odb,Step-1,Increment      1: Step Time =    1.000,"PART-1-1",           210,      -6.48406,       26.1481,            0.,NA,NA,"",   458.637E-03,  -444.925E-03,  -111.310E-03,   7.27995E-12
C:/temp/dataset/7/8_7.odb,Step-1,Increment      1: Step Time =    1.000,"PART-1-1",           211,       3.18484,       28.0088,            0.,NA,NA,"",   460.500E-03,  -458.631E-03,  -41.4510E-03,   6.94823E-12
C:/temp/dataset/7/8_7.odb,Step-1,Increment      1: Step Time =    1.000,"PART-1-1",           212,       11.4304,      -19.6429,            0.,NA,NA,"",   116.419E-03,  -114.632E-03,   20.3193E-03,   387.648E-06
C:/temp/dataset/7/8_7.odb,Step-1,Increment      1: Step Time =    1.000,"PART-1-1",           213,       9.33060,       23.4727,            0.,NA,NA,"",   426.006E-03,  -425.995E-03,   3.10216E-03,   11.3899E-12
C:/temp/dataset/7/8_7.odb,Step-1,Increment      1: Step Time =    1.000,"PART-1-1",           214,      -12.1707,       23.6708,            0.,NA,NA,"",   453.241E-03,  -426.865E-03,  -152.360E-03,   7.33309E-12
C:/temp/dataset/7/8_7.odb,Step-1,Increment      1: Step Time =    1.000,"PART-1-1",           215,      -13.7031,       24.9625,            0.,NA,NA,"",   465.793E-03,  -436.164E-03,  -163.473E-03,   7.32575E-12
C:/temp/dataset/7/8_7.odb,Step-1,Increment      1: Step Time =    1.000,"PART-1-1",           216,          -15.,         23.75,            0.,NA,NA,"",   460.984E-03,  -427.364E-03,  -172.818E-03,   7.32369E-12
C:/temp/dataset/7/8_7.odb,Step-1,Increment      1: Step Time =    1.000,"PART-1-1",           217,      -13.4675,       22.4583,            0.,NA,NA,"",   448.248E-03,  -418.064E-03,  -161.705E-03,   7.33077E-12
C:/temp/dataset/7/8_7.odb,Step-1,Increment      1: Step Time =    1.000,"PART-1-1",           218,      -9.86170,       27.7278,            0.,NA,NA,"",   476.031E-03,  -456.258E-03,  -135.772E-03,   7.30827E-12
C:/temp/dataset/7/8_7.odb,Step-1,Increment      1: Step Time =    1.000,"PART-1-1",           219,      -10.4490,       26.4258,            0.,NA,NA,"",   468.243E-03,  -446.829E-03,  -139.984E-03,   7.31653E-12
C:/temp/dataset/7/8_7.odb,Step-1,Increment      1: Step Time =    1.000,"PART-1-1",           220,      -9.20914,       25.5437,            0.,NA,NA,"",   459.550E-03,  -440.484E-03,  -130.997E-03,   7.31108E-12
C:/temp/dataset/7/8_7.odb,Step-1,Increment      1: Step Time =    1.000,"PART-1-1",           221,      -8.62185,       26.8458,            0.,NA,NA,"",   467.436E-03,  -449.913E-03,  -126.785E-03,   7.30244E-12
C:/temp/dataset/7/8_7.odb,Step-1,Increment      1: Step Time =    1.000,"PART-1-1",           222,      -9.15066,       28.9242,            0.,NA,NA,"",   482.938E-03,  -464.927E-03,  -130.662E-03,   7.30123E-12
C:/temp/dataset/7/8_7.odb,Step-1,Increment      1: Step Time =    1.000,"PART-1-1",           223,      -10.3125,           30.,            0.,NA,NA,"",   492.714E-03,  -472.674E-03,  -139.091E-03,   7.30803E-12
C:/temp/dataset/7/8_7.odb,Step-1,Increment      1: Step Time =    1.000,"PART-1-1",           224,      -11.0235,       28.8036,            0.,NA,NA,"",   485.896E-03,  -464.006E-03,  -144.200E-03,   7.31502E-12
C:/temp/dataset/7/8_7.odb,Step-1,Increment      1: Step Time =    1.000,"PART-1-1",           225,      -11.2536,       25.0847,            0.,NA,NA,"",   460.775E-03,  -437.111E-03,  -145.766E-03,   7.32304E-12
C:/temp/dataset/7/8_7.odb,Step-1,Increment      1: Step Time =    1.000,"PART-1-1",           226,      -10.3021,       22.5385,            0.,NA,NA,"",   441.139E-03,  -418.727E-03,  -138.821E-03,   7.33675E-12
C:/temp/dataset/7/8_7.odb,Step-1,Increment      1: Step Time =    1.000,"PART-1-1",           227,      -9.38503,       23.9523,            0.,NA,NA,"",   448.890E-03,  -428.973E-03,  -132.227E-03,   7.32601E-12
C:/temp/dataset/7/8_7.odb,Step-1,Increment      1: Step Time =    1.000,"PART-1-1",           228,      -12.9719,       28.7217,            0.,NA,NA,"",   489.652E-03,  -463.363E-03,  -158.285E-03,   7.32832E-12
C:/temp/dataset/7/8_7.odb,Step-1,Increment      1: Step Time =    1.000,"PART-1-1",           229,      -14.0625,           30.,            0.,NA,NA,"",   500.951E-03,  -472.576E-03,  -166.204E-03,   7.34585E-12
C:/temp/dataset/7/8_7.odb,Step-1,Increment      1: Step Time =    1.000,"PART-1-1",           230,          -15.,         28.75,            0.,NA,NA,"",   494.729E-03,  -463.514E-03,  -172.949E-03,   7.35973E-12
C:/temp/dataset/7/8_7.odb,Step-1,Increment      1: Step Time =    1.000,"PART-1-1",           231,      -13.9094,       27.4717,            0.,NA,NA,"",   483.347E-03,  -454.301E-03,  -165.030E-03,   7.33791E-12
C:/temp/dataset/7/8_7.odb,Step-1,Increment      1: Step Time =    1.000,"PART-1-1",           232,      -7.40072,       25.9956,            0.,NA,NA,"",   459.201E-03,  -443.798E-03,  -117.933E-03,   7.29206E-12
C:/temp/dataset/7/8_7.odb,Step-1,Increment      1: Step Time =    1.000,"PART-1-1",           233,      -7.96404,       25.0347,            0.,NA,NA,"",   453.547E-03,  -436.836E-03,  -121.981E-03,   7.30621E-12
C:/temp/dataset/7/8_7.odb,Step-1,Increment      1: Step Time =    1.000,"PART-1-1",           234,      -6.69374,       24.2457,            0.,NA,NA,"",   445.670E-03,  -431.165E-03,  -112.776E-03,   7.29877E-12
C:/temp/dataset/7/8_7.odb,Step-1,Increment      1: Step Time =    1.000,"PART-1-1",           235,      -6.13042,       25.2066,            0.,NA,NA,"",   451.416E-03,  -438.127E-03,  -108.728E-03,   7.28530E-12
C:/temp/dataset/7/8_7.odb,Step-1,Increment      1: Step Time =    1.000,"PART-1-1",           236,      -5.46940,       29.1125,            0.,NA,NA,"",   477.850E-03,  -466.384E-03,  -104.051E-03,   7.26926E-12
C:/temp/dataset/7/8_7.odb,Step-1,Increment      1: Step Time =    1.000,"PART-1-1",           237,      -4.41178,       28.2246,            0.,NA,NA,"",   469.981E-03,  -459.992E-03,  -96.3812E-03,   7.24550E-12
C:/temp/dataset/7/8_7.odb,Step-1,Increment      1: Step Time =    1.000,"PART-1-1",           238,      -3.62988,       29.1121,            0.,NA,NA,"",   475.176E-03,  -466.429E-03,  -90.7512E-03,   7.24764E-12
C:/temp/dataset/7/8_7.odb,Step-1,Increment      1: Step Time =    1.000,"PART-1-1",           239,       -4.6875,           30.,            0.,NA,NA,"",   482.956E-03,  -472.821E-03,  -98.4211E-03,   7.26741E-12
C:/temp/dataset/7/8_7.odb,Step-1,Increment      1: Step Time =    1.000,"PART-1-1",           240,  -467.629E-03,       27.9420,            0.,NA,NA,"",   463.051E-03,  -458.052E-03,  -67.8571E-03,   7.09232E-12
C:/temp/dataset/7/8_7.odb,Step-1,Increment      1: Step Time =    1.000,"PART-1-1",           241,  -845.263E-03,       26.9234,            0.,NA,NA,"",   456.168E-03,  -450.678E-03,  -70.5608E-03,   7.11858E-12
C:/temp/dataset/7/8_7.odb,Step-1,Increment      1: Step Time =    1.000,"PART-1-1",           242,   746.021E-03,       26.1520,            0.,NA,NA,"",   449.039E-03,  -445.142E-03,  -59.0355E-03,   7.14386E-12
C:/temp/dataset/7/8_7.odb,Step-1,Increment      1: Step Time =    1.000,"PART-1-1",           243,       1.12365,       27.1705,            0.,NA,NA,"",   456.009E-03,  -452.516E-03,  -56.3317E-03,   7.06489E-12
C:/temp/dataset/7/8_7.odb,Step-1,Increment      1: Step Time =    1.000,"PART-1-1",           244,       14.0901,       25.0896,            0.,NA,NA,"",   439.410E-03,  -437.810E-03,   37.4716E-03,   7.00857E-12
C:/temp/dataset/7/8_7.odb,Step-1,Increment      1: Step Time =    1.000,"PART-1-1",           245,       13.1528,       23.9903,            0.,NA,NA,"",   430.934E-03,  -429.837E-03,   30.7234E-03,   8.74322E-12
C:/temp/dataset/7/8_7.odb,Step-1,Increment      1: Step Time =    1.000,"PART-1-1",           246,       14.0627,       22.6507,            0.,NA,NA,"",   421.831E-03,  -420.175E-03,   37.3372E-03,   8.82170E-12
C:/temp/dataset/7/8_7.odb,Step-1,Increment      1: Step Time =    1.000,"PART-1-1",           247,           15.,         23.75,            0.,NA,NA,"",   430.411E-03,  -428.148E-03,   44.0854E-03,   9.61663E-12
C:/temp/dataset/7/8_7.odb,Step-1,Increment      1: Step Time =    1.000,"PART-1-1",           248,       11.2764,       28.8302,            0.,NA,NA,"",   465.093E-03,  -464.781E-03,   17.0307E-03,   6.69531E-12
C:/temp/dataset/7/8_7.odb,Step-1,Increment      1: Step Time =    1.000,"PART-1-1",           249,       10.3125,           30.,            0.,NA,NA,"",   473.320E-03,  -473.213E-03,   10.0308E-03,   6.03063E-12
C:/temp/dataset/7/8_7.odb,Step-1,Increment      1: Step Time =    1.000,"PART-1-1",           250,       9.39543,       28.8642,            0.,NA,NA,"",   464.990E-03,  -464.978E-03,   3.43001E-03,   6.49361E-12
C:/temp/dataset/7/8_7.odb,Step-1,Increment      1: Step Time =    1.000,"PART-1-1",           251,       10.3594,       27.6945,            0.,NA,NA,"",   456.664E-03,  -456.545E-03,   10.4299E-03,   7.27791E-12
C:/temp/dataset/7/8_7.odb,Step-1,Increment      1: Step Time =    1.000,"PART-1-1",           252,        8.4375,           30.,            0.,NA,NA,"",   473.178E-03,  -473.164E-03,  -3.52564E-03,   6.14861E-12
C:/temp/dataset/7/8_7.odb,Step-1,Increment      1: Step Time =    1.000,"PART-1-1",           253,       7.48312,       28.8587,            0.,NA,NA,"",   465.004E-03,  -464.888E-03,  -10.3961E-03,   6.43168E-12
C:/temp/dataset/7/8_7.odb,Step-1,Increment      1: Step Time =    1.000,"PART-1-1",           254,       8.44105,       27.7230,            0.,NA,NA,"",   456.714E-03,  -456.701E-03,  -3.44044E-03,   6.95805E-12
C:/temp/dataset/7/8_7.odb,Step-1,Increment      1: Step Time =    1.000,"PART-1-1",           255,       13.0365,       21.6252,            0.,NA,NA,"",   413.818E-03,  -412.733E-03,   29.9445E-03,   9.13144E-12
C:/temp/dataset/7/8_7.odb,Step-1,Increment      1: Step Time =    1.000,"PART-1-1",           256,       13.9738,       20.2245,            0.,NA,NA,"",   404.305E-03,  -402.631E-03,   36.7580E-03,   10.3634E-12
C:/temp/dataset/7/8_7.odb,Step-1,Increment      1: Step Time =    1.000,"PART-1-1",           257,           15.,         21.25,            0.,NA,NA,"",   412.442E-03,  -410.072E-03,   44.1508E-03,   16.7137E-12
C:/temp/dataset/7/8_7.odb,Step-1,Increment      1: Step Time =    1.000,"PART-1-1",           258,       6.90015,       14.7921,            0.,NA,NA,"",   363.449E-03,  -363.169E-03,  -14.2434E-03,   527.383E-12
C:/temp/dataset/7/8_7.odb,Step-1,Increment      1: Step Time =    1.000,"PART-1-1",           259,       5.93474,       15.8126,            0.,NA,NA,"",   371.131E-03,  -370.523E-03,  -21.2501E-03,   199.814E-12
C:/temp/dataset/7/8_7.odb,Step-1,Increment      1: Step Time =    1.000,"PART-1-1",           260,            5.,       14.7917,            0.,NA,NA,"",   364.193E-03,  -363.116E-03,  -27.9817E-03,   400.682E-12
C:/temp/dataset/7/8_7.odb,Step-1,Increment      1: Step Time =    1.000,"PART-1-1",           261,       5.96541,       13.7711,            0.,NA,NA,"",   356.381E-03,  -355.763E-03,  -20.9750E-03,   557.651E-12
C:/temp/dataset/7/8_7.odb,Step-1,Increment      1: Step Time =    1.000,"PART-1-1",           262,       7.07741,       8.55300,            0.,NA,NA,"",   318.322E-03,  -318.064E-03,  -12.7987E-03,   1.06692E-09
C:/temp/dataset/7/8_7.odb,Step-1,Increment      1: Step Time =    1.000,"PART-1-1",           263,       6.03400,       9.60662,            0.,NA,NA,"",   326.291E-03,  -325.655E-03,  -20.3703E-03,   2.29362E-09
C:/temp/dataset/7/8_7.odb,Step-1,Increment      1: Step Time =    1.000,"PART-1-1",           264,            5.,       8.54167,            0.,NA,NA,"",   319.143E-03,  -317.928E-03,  -27.8184E-03,   4.84709E-09
C:/temp/dataset/7/8_7.odb,Step-1,Increment      1: Step Time =    1.000,"PART-1-1",           265,       6.04341,       7.48805,            0.,NA,NA,"",   310.997E-03,  -310.338E-03,  -20.2468E-03,   2.86842E-09
C:/temp/dataset/7/8_7.odb,Step-1,Increment      1: Step Time =    1.000,"PART-1-1",           266,            5.,         4.375,            0.,NA,NA,"",   289.133E-03,  -287.802E-03,  -27.7095E-03,   7.07684E-09
C:/temp/dataset/7/8_7.odb,Step-1,Increment      1: Step Time =    1.000,"PART-1-1",           267,       6.03822,       3.24050,            0.,NA,NA,"",   280.354E-03,  -279.627E-03,  -20.1733E-03,   31.8172E-09
C:/temp/dataset/7/8_7.odb,Step-1,Increment      1: Step Time =    1.000,"PART-1-1",           268,       7.08368,       4.22909,            0.,NA,NA,"",   287.080E-03,  -286.802E-03,  -12.6403E-03,   36.6935E-09
C:/temp/dataset/7/8_7.odb,Step-1,Increment      1: Step Time =    1.000,"PART-1-1",           269,       6.04546,       5.36359,            0.,NA,NA,"",   295.667E-03,  -294.977E-03,  -20.1764E-03,   6.42622E-09
C:/temp/dataset/7/8_7.odb,Step-1,Increment      1: Step Time =    1.000,"PART-1-1",           270,            5.,       2.29167,            0.,NA,NA,"",   274.138E-03,  -272.740E-03,  -27.6550E-03,   59.0577E-09
C:/temp/dataset/7/8_7.odb,Step-1,Increment      1: Step Time =    1.000,"PART-1-1",           271,       6.01828,       1.12309,            0.,NA,NA,"",   265.093E-03,  -264.317E-03,  -20.2621E-03,   107.025E-09
C:/temp/dataset/7/8_7.odb,Step-1,Increment      1: Step Time =    1.000,"PART-1-1",           272,       7.05649,       2.07193,            0.,NA,NA,"",   271.506E-03,  -271.205E-03,  -12.7805E-03,   115.010E-09
C:/temp/dataset/7/8_7.odb,Step-1,Increment      1: Step Time =    1.000,"PART-1-1",           273,       7.00178,  -77.9012E-03,            0.,NA,NA,"",   255.996E-03,  -255.659E-03,  -13.1199E-03,   275.770E-09
C:/temp/dataset/7/8_7.odb,Step-1,Increment      1: Step Time =    1.000,"PART-1-1",           274,            5.,   208.333E-03,            0.,NA,NA,"",   259.151E-03,  -257.677E-03,  -27.6003E-03,   213.132E-09
C:/temp/dataset/7/8_7.odb,Step-1,Increment      1: Step Time =    1.000,"PART-1-1",           275,       5.98350,  -992.661E-03,            0.,NA,NA,"",   249.858E-03,  -249.019E-03,  -20.4580E-03,   285.101E-09
C:/temp/dataset/7/8_7.odb,Step-1,Increment      1: Step Time =    1.000,"PART-1-1",           276,       6.59145,      -6.15040,            0.,NA,NA,"",   212.344E-03,  -211.746E-03,  -15.9267E-03,   301.704E-09
C:/temp/dataset/7/8_7.odb,Step-1,Increment      1: Step Time =    1.000,"PART-1-1",           277,       5.82593,      -5.11028,            0.,NA,NA,"",   220.295E-03,  -219.245E-03,  -21.4875E-03,   1.04794E-06
C:/temp/dataset/7/8_7.odb,Step-1,Increment      1: Step Time =    1.000,"PART-1-1",           278,            5.,      -6.04167,            0.,NA,NA,"",   214.255E-03,  -212.492E-03,  -27.4317E-03,   2.02866E-06
C:/temp/dataset/7/8_7.odb,Step-1,Increment      1: Step Time =    1.000,"PART-1-1",           279,       5.76552,      -7.08179,            0.,NA,NA,"",   206.158E-03,  -204.994E-03,  -21.8707E-03,   1.26188E-06
C:/temp/dataset/7/8_7.odb,Step-1,Increment      1: Step Time =    1.000,"PART-1-1",           280,       8.25955,      -15.2021,            0.,NA,NA,"",   146.558E-03,  -146.517E-03,  -3.46988E-03,   136.210E-06
C:/temp/dataset/7/8_7.odb,Step-1,Increment      1: Step Time =    1.000,"PART-1-1",           281,       9.23032,      -13.9562,            0.,NA,NA,"",   155.481E-03,  -155.442E-03,   3.50231E-03,   108.329E-06
C:/temp/dataset/7/8_7.odb,Step-1,Increment      1: Step Time =    1.000,"PART-1-1",           282,       8.16037,      -12.9544,            0.,NA,NA,"",   162.742E-03,  -162.684E-03,  -4.35798E-03,   60.5715E-06
C:/temp/dataset/7/8_7.odb,Step-1,Increment      1: Step Time =    1.000,"PART-1-1",           283,       7.18960,      -14.2003,            0.,NA,NA,"",   154.154E-03,  -153.733E-03,  -11.3862E-03,   104.197E-06
C:/temp/dataset/7/8_7.odb,Step-1,Increment      1: Step Time =    1.000,"PART-1-1",           284,            5.,      -22.7083,            0.,NA,NA,"",   92.2252E-03,  -87.1255E-03,  -30.2430E-03,   267.331E-06
C:/temp/dataset/7/8_7.odb,Step-1,Increment      1: Step Time =    1.000,"PART-1-1",           285,       5.97351,      -23.6835,            0.,NA,NA,"",   80.2377E-03,  -77.4290E-03,  -21.0439E-03,   976.995E-06
C:/temp/dataset/7/8_7.odb,Step-1,Increment      1: Step Time =    1.000,"PART-1-1",           286,       6.71140,      -22.7416,            0.,NA,NA,"",   88.3037E-03,  -87.0062E-03,  -15.0819E-03,   1.12414E-03
C:/temp/dataset/7/8_7.odb,Step-1,Increment      1: Step Time =    1.000,"PART-1-1",           287,       5.73789,      -21.7664,            0.,NA,NA,"",   98.7795E-03,  -95.9812E-03,  -23.3455E-03,   370.468E-06
C:/temp/dataset/7/8_7.odb,Step-1,Increment      1: Step Time =    1.000,"PART-1-1",           288,       9.95056,      -28.8261,            0.,NA,NA,"",   14.6060E-03,  -14.6047E-03,   188.524E-06,   8.05615E-03
C:/temp/dataset/7/8_7.odb,Step-1,Increment      1: Step Time =    1.000,"PART-1-1",           289,       8.67404,      -27.7482,            0.,NA,NA,"",   27.5886E-03,  -27.5475E-03,  -1.50602E-03,   7.70304E-03
C:/temp/dataset/7/8_7.odb,Step-1,Increment      1: Step Time =    1.000,"PART-1-1",           290,       7.47347,      -28.9221,            0.,NA,NA,"",   11.4874E-03,  -11.2342E-03,  -2.39867E-03,   7.14265E-03
C:/temp/dataset/7/8_7.odb,Step-1,Increment      1: Step Time =    1.000,"PART-1-1",           291,          8.75,          -30.,            0.,NA,NA,"",            0.,  -6.30717E-39,  -3.30930E-39,   6.78502E-03
C:/temp/dataset/7/8_7.odb,Step-1,Increment      1: Step Time =    1.000,"PART-1-1",           292,       9.14805,      -24.1419,            0.,NA,NA,"",   74.4970E-03,  -74.4686E-03,   2.05419E-03,   3.90446E-03
C:/temp/dataset/7/8_7.odb,Step-1,Increment      1: Step Time =    1.000,"PART-1-1",           293,       7.84454,      -23.3007,            0.,NA,NA,"",   82.0719E-03,  -81.8341E-03,  -6.24277E-03,   1.94176E-03
C:/temp/dataset/7/8_7.odb,Step-1,Increment      1: Step Time =    1.000,"PART-1-1",           294,       7.10828,      -24.6604,            0.,NA,NA,"",   67.4852E-03,  -66.5742E-03,  -11.0513E-03,   3.19431E-03
C:/temp/dataset/7/8_7.odb,Step-1,Increment      1: Step Time =    1.000,"PART-1-1",           295,       8.41180,      -25.5016,            0.,NA,NA,"",   57.1702E-03,  -57.1035E-03,  -2.76012E-03,   5.05570E-03
C:/temp/dataset/7/8_7.odb,Step-1,Increment      1: Step Time =    1.000,"PART-1-1",           296,       7.00425,      -21.1298,            0.,NA,NA,"",   102.551E-03,  -101.749E-03,  -12.8029E-03,   285.782E-06
C:/temp/dataset/7/8_7.odb,Step-1,Increment      1: Step Time =    1.000,"PART-1-1",           297,       6.26636,      -19.9884,            0.,NA,NA,"",   112.531E-03,  -110.975E-03,  -18.6482E-03,   260.899E-06
C:/temp/dataset/7/8_7.odb,Step-1,Increment      1: Step Time =    1.000,"PART-1-1",           298,            5.,       -20.625,            0.,NA,NA,"",   109.474E-03,  -105.525E-03,  -29.1378E-03,   606.705E-06
C:/temp/dataset/7/8_7.odb,Step-1,Increment      1: Step Time =    1.000,"PART-1-1",           299,       12.8526,      -8.63250,            0.,NA,NA,"",   196.164E-03,  -193.947E-03,   29.4067E-03,   7.28711E-06
C:/temp/dataset/7/8_7.odb,Step-1,Increment      1: Step Time =    1.000,"PART-1-1",           300,       13.9581,      -9.97058,            0.,NA,NA,"",   188.046E-03,  -184.282E-03,   37.4349E-03,   6.73343E-06
C:/temp/dataset/7/8_7.odb,Step-1,Increment      1: Step Time =    1.000,"PART-1-1",           301,           15.,         -8.75,            0.,NA,NA,"",   198.312E-03,  -193.151E-03,   44.9470E-03,   714.073E-09
C:/temp/dataset/7/8_7.odb,Step-1,Increment      1: Step Time =    1.000,"PART-1-1",           302,       13.8945,      -7.41192,            0.,NA,NA,"",   206.139E-03,  -202.807E-03,   36.9109E-03,   1.13350E-06
C:/temp/dataset/7/8_7.odb,Step-1,Increment      1: Step Time =    1.000,"PART-1-1",           303,            5.,        10.625,            0.,NA,NA,"",   334.155E-03,  -332.991E-03,  -27.8728E-03,   2.71006E-09
C:/temp/dataset/7/8_7.odb,Step-1,Increment      1: Step Time =    1.000,"PART-1-1",           304,       7.03988,       10.6820,            0.,NA,NA,"",   333.714E-03,  -333.456E-03,  -13.1257E-03,   1.68836E-09
C:/temp/dataset/7/8_7.odb,Step-1,Increment      1: Step Time =    1.000,"PART-1-1",           305,       6.00589,       11.7004,            0.,NA,NA,"",   341.416E-03,  -340.792E-03,  -20.6282E-03,   1.27384E-09
C:/temp/dataset/7/8_7.odb,Step-1,Increment      1: Step Time =    1.000,"PART-1-1",           306,       2.74639,       25.6366,            0.,NA,NA,"",   443.711E-03,  -441.468E-03,  -44.5591E-03,   7.34946E-12
C:/temp/dataset/7/8_7.odb,Step-1,Increment      1: Step Time =    1.000,"PART-1-1",           307,       1.36653,       25.0307,            0.,NA,NA,"",   440.439E-03,  -437.051E-03,  -54.5198E-03,   7.15598E-12
C:/temp/dataset/7/8_7.odb,Step-1,Increment      1: Step Time =    1.000,"PART-1-1",           308,       1.96853,       23.3303,            0.,NA,NA,"",   427.719E-03,  -424.772E-03,  -50.1228E-03,   7.37290E-12
C:/temp/dataset/7/8_7.odb,Step-1,Increment      1: Step Time =    1.000,"PART-1-1",           309,       3.34839,       23.9361,            0.,NA,NA,"",   431.064E-03,  -429.189E-03,  -40.1621E-03,   7.15545E-12
C:/temp/dataset/7/8_7.odb,Step-1,Increment      1: Step Time =    1.000,"PART-1-1",           310,       4.47216,       26.2029,            0.,NA,NA,"",   446.762E-03,  -445.607E-03,  -32.0963E-03,   7.63172E-12
C:/temp/dataset/7/8_7.odb,Step-1,Increment      1: Step Time =    1.000,"PART-1-1",           311,       4.17993,       27.6633,            0.,NA,NA,"",   457.442E-03,  -456.158E-03,  -34.2474E-03,   7.15221E-12
C:/temp/dataset/7/8_7.odb,Step-1,Increment      1: Step Time =    1.000,"PART-1-1",           312,       2.45416,       27.0970,            0.,NA,NA,"",   454.426E-03,  -452.019E-03,  -46.7101E-03,   7.00106E-12
C:/temp/dataset/7/8_7.odb,Step-1,Increment      1: Step Time =    1.000,"PART-1-1",           313,      -1.66705,       28.8640,            0.,NA,NA,"",   470.950E-03,  -464.687E-03,  -76.5531E-03,   7.19099E-12
C:/temp/dataset/7/8_7.odb,Step-1,Increment      1: Step Time =    1.000,"PART-1-1",           314,   261.919E-03,       29.0779,            0.,NA,NA,"",   470.469E-03,  -466.284E-03,  -62.6120E-03,   7.07094E-12
C:/temp/dataset/7/8_7.odb,Step-1,Increment      1: Step Time =    1.000,"PART-1-1",           315,    -937.5E-03,           30.,            0.,NA,NA,"",   478.265E-03,  -472.919E-03,  -71.3081E-03,   7.17972E-12
C:/temp/dataset/7/8_7.odb,Step-1,Increment      1: Step Time =    1.000,"PART-1-1",           316,          -15.,         21.25,            0.,NA,NA,"",   444.253E-03,  -409.288E-03,  -172.753E-03,   7.33870E-12
C:/temp/dataset/7/8_7.odb,Step-1,Increment      1: Step Time =    1.000,"PART-1-1",           317,      -13.3250,           20.,            0.,NA,NA,"",   431.313E-03,  -400.294E-03,  -160.610E-03,   7.36159E-12
C:/temp/dataset/7/8_7.odb,Step-1,Increment      1: Step Time =    1.000,"PART-1-1",           318,      -11.7925,       21.2083,            0.,NA,NA,"",   435.554E-03,  -409.071E-03,  -149.562E-03,   7.35056E-12
C:/temp/dataset/7/8_7.odb,Step-1,Increment      1: Step Time =    1.000,"PART-1-1",           319,       10.1137,       15.7319,            0.,NA,NA,"",   370.156E-03,  -370.048E-03,   8.96631E-03,   431.272E-12
C:/temp/dataset/7/8_7.odb,Step-1,Increment      1: Step Time =    1.000,"PART-1-1",           320,       9.02474,       16.2903,            0.,NA,NA,"",   374.058E-03,  -374.057E-03,   1.07856E-03,   309.214E-12
C:/temp/dataset/7/8_7.odb,Step-1,Increment      1: Step Time =    1.000,"PART-1-1",           321,       8.64023,       14.7706,            0.,NA,NA,"",   363.063E-03,  -363.059E-03,  -1.66178E-03,   597.204E-12
C:/temp/dataset/7/8_7.odb,Step-1,Increment      1: Step Time =    1.000,"PART-1-1",           322,       9.72917,       14.2122,            0.,NA,NA,"",   359.105E-03,  -359.051E-03,   6.22598E-03,   692.299E-12
C:/temp/dataset/7/8_7.odb,Step-1,Increment      1: Step Time =    1.000,"PART-1-1",           323,       12.8210,       13.6438,            0.,NA,NA,"",   356.171E-03,  -355.022E-03,   28.5954E-03,   854.609E-12
C:/temp/dataset/7/8_7.odb,Step-1,Increment      1: Step Time =    1.000,"PART-1-1",           324,       13.9730,       12.4303,            0.,NA,NA,"",   348.245E-03,  -346.278E-03,   36.9557E-03,   955.159E-12
C:/temp/dataset/7/8_7.odb,Step-1,Increment      1: Step Time =    1.000,"PART-1-1",           325,           15.,         13.75,            0.,NA,NA,"",   358.599E-03,  -355.846E-03,   44.3468E-03,   745.688E-12
C:/temp/dataset/7/8_7.odb,Step-1,Increment      1: Step Time =    1.000,"PART-1-1",           326,       13.8481,       14.9635,            0.,NA,NA,"",   366.362E-03,  -364.590E-03,   35.9866E-03,   312.248E-12
C:/temp/dataset/7/8_7.odb,Step-1,Increment      1: Step Time =    1.000,"PART-1-1",           327,       10.1008,       2.87074,            0.,NA,NA,"",   277.213E-03,  -277.060E-03,   9.20904E-03,   77.5496E-09
C:/temp/dataset/7/8_7.odb,Step-1,Increment      1: Step Time =    1.000,"PART-1-1",           328,       9.07373,       1.83179,            0.,NA,NA,"",   269.527E-03,  -269.521E-03,   1.81047E-03,   150.812E-09
C:/temp/dataset/7/8_7.odb,Step-1,Increment      1: Step Time =    1.000,"PART-1-1",           329,       10.0520,   569.032E-03,            0.,NA,NA,"",   260.570E-03,  -260.417E-03,   8.91615E-03,   217.386E-09
C:/temp/dataset/7/8_7.odb,Step-1,Increment      1: Step Time =    1.000,"PART-1-1",           330,       11.0790,       1.60798,            0.,NA,NA,"",   268.452E-03,  -267.956E-03,   16.3148E-03,   167.263E-09
C:/temp/dataset/7/8_7.odb,Step-1,Increment      1: Step Time =    1.000,"PART-1-1",           331,       9.98138,      -1.74337,            0.,NA,NA,"",   243.843E-03,  -243.696E-03,   8.46556E-03,   467.552E-09
C:/temp/dataset/7/8_7.odb,Step-1,Increment      1: Step Time =    1.000,"PART-1-1",           332,       8.90931,      -2.66004,            0.,NA,NA,"",   237.041E-03,  -237.040E-03,   738.108E-06,   571.958E-09
C:/temp/dataset/7/8_7.odb,Step-1,Increment      1: Step Time =    1.000,"PART-1-1",           333,       9.84458,      -4.07679,            0.,NA,NA,"",   226.947E-03,  -226.822E-03,   7.53627E-03,   736.782E-09
C:/temp/dataset/7/8_7.odb,Step-1,Increment      1: Step Time =    1.000,"PART-1-1",           334,       10.9167,      -3.16013,            0.,NA,NA,"",   233.976E-03,  -233.478E-03,   15.2642E-03,   621.570E-09
C:/temp/dataset/7/8_7.odb,Step-1,Increment      1: Step Time =    1.000,"PART-1-1",           335,            5.,      -3.95833,            0.,NA,NA,"",   229.206E-03,  -227.551E-03,  -27.4893E-03,   1.23961E-06
C:/temp/dataset/7/8_7.odb,Step-1,Increment      1: Step Time =    1.000,"PART-1-1",           336,       6.75254,      -4.23112,            0.,NA,NA,"",   226.110E-03,  -225.625E-03,  -14.8129E-03,   643.714E-09
C:/temp/dataset/7/8_7.odb,Step-1,Increment      1: Step Time =    1.000,"PART-1-1",           337,       5.92661,      -3.07918,            0.,NA,NA,"",   234.856E-03,  -233.931E-03,  -20.8141E-03,   600.588E-09
C:/temp/dataset/7/8_7.odb,Step-1,Increment      1: Step Time =    1.000,"PART-1-1",           338,       7.06139,      -12.0396,            0.,NA,NA,"",   169.712E-03,  -169.261E-03,  -12.3766E-03,   43.9400E-06
C:/temp/dataset/7/8_7.odb,Step-1,Increment      1: Step Time =    1.000,"PART-1-1",           339,       5.99095,      -11.1126,            0.,NA,NA,"",   177.058E-03,  -175.908E-03,  -20.1448E-03,   14.0211E-06
C:/temp/dataset/7/8_7.odb,Step-1,Increment      1: Step Time =    1.000,"PART-1-1",           340,            5.,      -12.2917,            0.,NA,NA,"",   169.593E-03,  -167.384E-03,  -27.2834E-03,   30.2901E-06
C:/temp/dataset/7/8_7.odb,Step-1,Increment      1: Step Time =    1.000,"PART-1-1",           341,       6.07044,      -13.2187,            0.,NA,NA,"",   161.940E-03,  -160.755E-03,  -19.5514E-03,   46.1884E-06
C:/temp/dataset/7/8_7.odb,Step-1,Increment      1: Step Time =    1.000,"PART-1-1",           342,       6.63644,      -8.02271,            0.,NA,NA,"",   198.828E-03,  -198.219E-03,  -15.5525E-03,   3.13488E-06
C:/temp/dataset/7/8_7.odb,Step-1,Increment      1: Step Time =    1.000,"PART-1-1",           343,            5.,        -8.125,            0.,NA,NA,"",   199.327E-03,  -197.438E-03,  -27.3726E-03,   1.61435E-06
C:/temp/dataset/7/8_7.odb,Step-1,Increment      1: Step Time =    1.000,"PART-1-1",           344,       5.87092,      -9.06592,            0.,NA,NA,"",   191.825E-03,  -190.666E-03,  -21.0571E-03,   2.66107E-06
C:/temp/dataset/7/8_7.odb,Step-1,Increment      1: Step Time =    1.000,"PART-1-1",           345,       13.0826,      -13.6930,            0.,NA,NA,"",   160.285E-03,  -157.220E-03,   31.1953E-03,   96.9332E-06
C:/temp/dataset/7/8_7.odb,Step-1,Increment      1: Step Time =    1.000,"PART-1-1",           346,       14.0569,      -14.9678,            0.,NA,NA,"",   152.802E-03,  -147.966E-03,   38.1371E-03,   106.947E-06
C:/temp/dataset/7/8_7.odb,Step-1,Increment      1: Step Time =    1.000,"PART-1-1",           347,           15.,        -13.75,            0.,NA,NA,"",   163.214E-03,  -156.885E-03,   45.0082E-03,   76.2916E-06
C:/temp/dataset/7/8_7.odb,Step-1,Increment      1: Step Time =    1.000,"PART-1-1",           348,       14.0257,      -12.4752,            0.,NA,NA,"",   170.393E-03,  -166.109E-03,   37.9674E-03,   30.7572E-06
C:/temp/dataset/7/8_7.odb,Step-1,Increment      1: Step Time =    1.000,"PART-1-1",           349,       8.13738,      -21.6888,            0.,NA,NA,"",   97.3905E-03,  -97.3098E-03,  -3.96250E-03,   1.12260E-03
C:/temp/dataset/7/8_7.odb,Step-1,Increment      1: Step Time =    1.000,"PART-1-1",           350,            5.,      -28.9583,            0.,NA,NA,"",   18.7830E-03,  -14.7586E-03,  -11.6183E-03,   10.9038E-03
C:/temp/dataset/7/8_7.odb,Step-1,Increment      1: Step Time =    1.000,"PART-1-1",           351,          6.25,          -30.,            0.,NA,NA,"",            0.,  -2.63408E-39,  -11.0724E-39,   10.0533E-03
C:/temp/dataset/7/8_7.odb,Step-1,Increment      1: Step Time =    1.000,"PART-1-1",           352,       6.22347,      -27.8804,            0.,NA,NA,"",   27.2199E-03,  -25.5283E-03,  -9.44631E-03,   6.24395E-03
C:/temp/dataset/7/8_7.odb,Step-1,Increment      1: Step Time =    1.000,"PART-1-1",           353,           15.,        -28.75,            0.,NA,NA,"",   39.9313E-03,  -35.5004E-03,   18.2821E-03,   15.0173E-03
C:/temp/dataset/7/8_7.odb,Step-1,Increment      1: Step Time =    1.000,"PART-1-1",           354,       13.6900,      -27.4695,            0.,NA,NA,"",   50.8936E-03,  -48.7792E-03,   14.5172E-03,   9.90595E-03
C:/temp/dataset/7/8_7.odb,Step-1,Increment      1: Step Time =    1.000,"PART-1-1",           355,       12.4400,      -28.7195,            0.,NA,NA,"",   20.3295E-03,  -20.1076E-03,   2.99516E-03,   10.4817E-03
C:/temp/dataset/7/8_7.odb,Step-1,Increment      1: Step Time =    1.000,"PART-1-1",           356,         13.75,          -30.,            0.,NA,NA,"",            0.,  -4.64990E-39,   8.85314E-39,   16.6076E-03
C:/temp/dataset/7/8_7.odb,Step-1,Increment      1: Step Time =    1.000,"PART-1-1",           357,       9.58617,      -22.6245,            0.,NA,NA,"",   90.6131E-03,  -90.4014E-03,   6.18911E-03,   1.98187E-03
C:/temp/dataset/7/8_7.odb,Step-1,Increment      1: Step Time =    1.000,"PART-1-1",           358,       10.0221,      -21.0980,            0.,NA,NA,"",   103.990E-03,  -103.495E-03,   10.1266E-03,   1.03799E-03
C:/temp/dataset/7/8_7.odb,Step-1,Increment      1: Step Time =    1.000,"PART-1-1",           359,       8.57328,      -20.1623,            0.,NA,NA,"",   110.036E-03,  -110.035E-03,  -561.768E-06,   247.030E-06
C:/temp/dataset/7/8_7.odb,Step-1,Increment      1: Step Time =    1.000,"PART-1-1",           360,       11.1406,      -27.5456,            0.,NA,NA,"",   35.9591E-03,  -35.7614E-03,   3.76573E-03,   9.57476E-03
C:/temp/dataset/7/8_7.odb,Step-1,Increment      1: Step Time =    1.000,"PART-1-1",           361,         11.25,          -30.,            0.,NA,NA,"",            0.,  -8.19896E-39,   1.65729E-39,   8.47181E-03
C:/temp/dataset/7/8_7.odb,Step-1,Increment      1: Step Time =    1.000,"PART-1-1",           362,       11.2605,      -16.1933,            0.,NA,NA,"",   140.344E-03,  -139.125E-03,   18.4588E-03,   207.033E-06
C:/temp/dataset/7/8_7.odb,Step-1,Increment      1: Step Time =    1.000,"PART-1-1",           363,       10.2521,      -15.0492,            0.,NA,NA,"",   147.904E-03,  -147.491E-03,   11.0453E-03,   142.664E-06
C:/temp/dataset/7/8_7.odb,Step-1,Increment      1: Step Time =    1.000,"PART-1-1",           364,       9.32474,      -16.3084,            0.,NA,NA,"",   138.559E-03,  -138.486E-03,   4.51017E-03,   196.156E-06
C:/temp/dataset/7/8_7.odb,Step-1,Increment      1: Step Time =    1.000,"PART-1-1",           365,       10.3331,      -17.4526,            0.,NA,NA,"",   130.706E-03,  -130.147E-03,   12.0780E-03,   239.411E-06
C:/temp/dataset/7/8_7.odb,Step-1,Increment      1: Step Time =    1.000,"PART-1-1",           366,       7.44248,      -19.0256,            0.,NA,NA,"",   118.984E-03,  -118.617E-03,  -9.33204E-03,   123.716E-06
C:/temp/dataset/7/8_7.odb,Step-1,Increment      1: Step Time =    1.000,"PART-1-1",           367,       6.17612,      -17.5789,            0.,NA,NA,"",   130.673E-03,  -129.284E-03,  -19.0056E-03,   221.379E-06
C:/temp/dataset/7/8_7.odb,Step-1,Increment      1: Step Time =    1.000,"PART-1-1",           368,            5.,      -18.5417,            0.,NA,NA,"",   125.149E-03,  -121.938E-03,  -28.1679E-03,   445.913E-06
C:/temp/dataset/7/8_7.odb,Step-1,Increment      1: Step Time =    1.000,"PART-1-1",           369,       12.8407,      -6.03443,            0.,NA,NA,"",   214.746E-03,  -212.744E-03,   29.2518E-03,   564.982E-09
C:/temp/dataset/7/8_7.odb,Step-1,Increment      1: Step Time =    1.000,"PART-1-1",           370,           15.,         -6.25,            0.,NA,NA,"",   215.954E-03,  -211.240E-03,   44.8755E-03,   1.91574E-06
C:/temp/dataset/7/8_7.odb,Step-1,Increment      1: Step Time =    1.000,"PART-1-1",           371,       13.9462,      -4.87251,            0.,NA,NA,"",   224.285E-03,  -221.175E-03,   37.2161E-03,   946.499E-09
C:/temp/dataset/7/8_7.odb,Step-1,Increment      1: Step Time =    1.000,"PART-1-1",           372,       7.64514,      -8.69832,            0.,NA,NA,"",   193.540E-03,  -193.364E-03,  -8.24337E-03,   5.73886E-06
C:/temp/dataset/7/8_7.odb,Step-1,Increment      1: Step Time =    1.000,"PART-1-1",           373,       8.20020,      -7.75016,            0.,NA,NA,"",   200.271E-03,  -200.226E-03,  -4.25598E-03,   4.15611E-06
C:/temp/dataset/7/8_7.odb,Step-1,Increment      1: Step Time =    1.000,"PART-1-1",           374,       7.19150,      -7.07454,            0.,NA,NA,"",   205.409E-03,  -205.083E-03,  -11.5655E-03,   1.24937E-06
C:/temp/dataset/7/8_7.odb,Step-1,Increment      1: Step Time =    1.000,"PART-1-1",           375,       7.97278,      -1.35169,            0.,NA,NA,"",   246.550E-03,  -246.475E-03,  -6.06658E-03,   386.005E-09
C:/temp/dataset/7/8_7.odb,Step-1,Increment      1: Step Time =    1.000,"PART-1-1",           376,       9.01285,  -423.179E-03,            0.,NA,NA,"",   253.220E-03,  -253.216E-03,   1.42890E-03,   356.191E-09
C:/temp/dataset/7/8_7.odb,Step-1,Increment      1: Step Time =    1.000,"PART-1-1",           377,       8.04185,   850.611E-03,            0.,NA,NA,"",   262.460E-03,  -262.400E-03,  -5.62450E-03,   177.847E-09
C:/temp/dataset/7/8_7.odb,Step-1,Increment      1: Step Time =    1.000,"PART-1-1",           378,       8.08837,       3.05311,            0.,NA,NA,"",   278.377E-03,  -278.326E-03,  -5.34558E-03,   64.5194E-09
C:/temp/dataset/7/8_7.odb,Step-1,Increment      1: Step Time =    1.000,"PART-1-1",           379,       9.11337,       4.08618,            0.,NA,NA,"",   285.829E-03,  -285.822E-03,   2.03832E-03,   51.9885E-09
C:/temp/dataset/7/8_7.odb,Step-1,Increment      1: Step Time =    1.000,"PART-1-1",           380,       8.10868,       5.26217,            0.,NA,NA,"",   294.345E-03,  -294.298E-03,  -5.25645E-03,   17.0418E-09
C:/temp/dataset/7/8_7.odb,Step-1,Increment      1: Step Time =    1.000,"PART-1-1",           381,       7.08888,       6.39331,            0.,NA,NA,"",   302.715E-03,  -302.450E-03,  -12.6593E-03,   7.67651E-09
C:/temp/dataset/7/8_7.odb,Step-1,Increment      1: Step Time =    1.000,"PART-1-1",           382,            5.,       6.45833,            0.,NA,NA,"",   304.135E-03,  -302.865E-03,  -27.7639E-03,   4.98958E-09
C:/temp/dataset/7/8_7.odb,Step-1,Increment      1: Step Time =    1.000,"PART-1-1",           383,           15.,         16.25,            0.,NA,NA,"",   376.535E-03,  -373.922E-03,   44.2815E-03,   179.881E-12
C:/temp/dataset/7/8_7.odb,Step-1,Increment      1: Step Time =    1.000,"PART-1-1",           384,       13.6214,       17.6671,            0.,NA,NA,"",   385.657E-03,  -384.131E-03,   34.2767E-03,   71.9755E-12
C:/temp/dataset/7/8_7.odb,Step-1,Increment      1: Step Time =    1.000,"PART-1-1",           385,       12.4694,       16.3805,            0.,NA,NA,"",   375.699E-03,  -374.799E-03,   25.9818E-03,   308.280E-12
C:/temp/dataset/7/8_7.odb,Step-1,Increment      1: Step Time =    1.000,"PART-1-1",           386,       10.0881,       9.74649,            0.,NA,NA,"",   326.894E-03,  -326.772E-03,   8.93765E-03,   1.92836E-09
C:/temp/dataset/7/8_7.odb,Step-1,Increment      1: Step Time =    1.000,"PART-1-1",           387,       9.10561,       8.57814,            0.,NA,NA,"",   318.305E-03,  -318.299E-03,   1.86483E-03,   2.12354E-09
C:/temp/dataset/7/8_7.odb,Step-1,Increment      1: Step Time =    1.000,"PART-1-1",           388,       10.1162,       7.46436,            0.,NA,NA,"",   310.409E-03,  -310.273E-03,   9.20035E-03,   3.57065E-09
C:/temp/dataset/7/8_7.odb,Step-1,Increment      1: Step Time =    1.000,"PART-1-1",           389,       11.0986,       8.63272,            0.,NA,NA,"",   319.161E-03,  -318.746E-03,   16.2732E-03,   1.96413E-09
C:/temp/dataset/7/8_7.odb,Step-1,Increment      1: Step Time =    1.000,"PART-1-1",           390,       9.96644,       19.4124,            0.,NA,NA,"",   396.732E-03,  -396.655E-03,   7.80550E-03,   55.1381E-12
C:/temp/dataset/7/8_7.odb,Step-1,Increment      1: Step Time =    1.000,"PART-1-1",           391,       10.9020,       20.3065,            0.,NA,NA,"",   403.406E-03,  -403.143E-03,   14.5463E-03,   38.6541E-12
C:/temp/dataset/7/8_7.odb,Step-1,Increment      1: Step Time =    1.000,"PART-1-1",           392,       10.1153,       21.2880,            0.,NA,NA,"",   410.314E-03,  -410.219E-03,   8.83282E-03,   19.2187E-12
C:/temp/dataset/7/8_7.odb,Step-1,Increment      1: Step Time =    1.000,"PART-1-1",           393,       9.17975,       20.3940,            0.,NA,NA,"",   403.736E-03,  -403.731E-03,   2.09200E-03,   31.0299E-12
C:/temp/dataset/7/8_7.odb,Step-1,Increment      1: Step Time =    1.000,"PART-1-1",           394,           15.,         28.75,            0.,NA,NA,"",   466.374E-03,  -464.298E-03,   43.9548E-03,   6.91569E-12
C:/temp/dataset/7/8_7.odb,Step-1,Increment      1: Step Time =    1.000,"PART-1-1",           395,       14.0625,           30.,            0.,NA,NA,"",   474.767E-03,  -473.311E-03,   37.1438E-03,   7.09675E-12
C:/temp/dataset/7/8_7.odb,Step-1,Increment      1: Step Time =    1.000,"PART-1-1",           396,       13.1487,       28.7914,            0.,NA,NA,"",   465.554E-03,  -464.550E-03,   30.5686E-03,   6.81879E-12
C:/temp/dataset/7/8_7.odb,Step-1,Increment      1: Step Time =    1.000,"PART-1-1",           397,       14.0862,       27.5414,            0.,NA,NA,"",   457.067E-03,  -455.536E-03,   37.3795E-03,   6.67879E-12
C:/temp/dataset/7/8_7.odb,Step-1,Increment      1: Step Time =    1.000,"PART-1-1",           398,       12.2440,       25.2848,            0.,NA,NA,"",   439.835E-03,  -439.173E-03,   24.1189E-03,   8.48844E-12
C:/temp/dataset/7/8_7.odb,Step-1,Increment      1: Step Time =    1.000,"PART-1-1",           399,       13.1763,       26.3811,            0.,NA,NA,"",   448.185E-03,  -447.123E-03,   30.8311E-03,   7.63131E-12
C:/temp/dataset/7/8_7.odb,Step-1,Increment      1: Step Time =    1.000,"PART-1-1",           400,       12.2376,       27.6217,            0.,NA,NA,"",   456.700E-03,  -456.068E-03,   24.0120E-03,   7.36703E-12
C:/temp/dataset/7/8_7.odb,Step-1,Increment      1: Step Time =    1.000,"PART-1-1",           401,       11.3053,       26.5254,            0.,NA,NA,"",   448.452E-03,  -448.118E-03,   17.2998E-03,   8.34344E-12
C:/temp/dataset/7/8_7.odb,Step-1,Increment      1: Step Time =    1.000,"PART-1-1",           402,       12.1875,           30.,            0.,NA,NA,"",   473.850E-03,  -473.262E-03,   23.5873E-03,   6.37989E-12
C:/temp/dataset/7/8_7.odb,Step-1,Increment      1: Step Time =    1.000,"PART-1-1",           403,        6.5625,           30.,            0.,NA,NA,"",   473.424E-03,  -473.115E-03,  -17.0821E-03,   6.16061E-12
C:/temp/dataset/7/8_7.odb,Step-1,Increment      1: Step Time =    1.000,"PART-1-1",           404,       5.40000,       28.6589,            0.,NA,NA,"",   464.087E-03,  -463.389E-03,  -25.4521E-03,   6.54964E-12
C:/temp/dataset/7/8_7.odb,Step-1,Increment      1: Step Time =    1.000,"PART-1-1",           405,       6.32063,       27.5176,            0.,NA,NA,"",   455.548E-03,  -455.161E-03,  -18.7660E-03,   7.12061E-12
C:/temp/dataset/7/8_7.odb,Step-1,Increment      1: Step Time =    1.000,"PART-1-1",           406,        2.8125,           30.,            0.,NA,NA,"",   475.078E-03,  -473.017E-03,  -44.1951E-03,   6.67465E-12
C:/temp/dataset/7/8_7.odb,Step-1,Increment      1: Step Time =    1.000,"PART-1-1",           407,       1.86631,       29.3706,            0.,NA,NA,"",   471.212E-03,  -468.442E-03,  -51.0197E-03,   6.87721E-12
C:/temp/dataset/7/8_7.odb,Step-1,Increment      1: Step Time =    1.000,"PART-1-1",           408,       2.52123,       28.3750,            0.,NA,NA,"",   463.575E-03,  -461.261E-03,  -46.2585E-03,   6.88644E-12
C:/temp/dataset/7/8_7.odb,Step-1,Increment      1: Step Time =    1.000,"PART-1-1",           409,       3.46742,       29.0044,            0.,NA,NA,"",   467.502E-03,  -465.836E-03,  -39.4339E-03,   6.65535E-12
C:/temp/dataset/7/8_7.odb,Step-1,Increment      1: Step Time =    1.000,"PART-1-1",           410,       1.19073,       28.4486,            0.,NA,NA,"",   465.127E-03,  -461.758E-03,  -55.8802E-03,   6.97392E-12
C:/temp/dataset/7/8_7.odb,Step-1,Increment      1: Step Time =    1.000,"PART-1-1",           411,      -2.48443,       27.9761,            0.,NA,NA,"",   465.602E-03,  -458.246E-03,  -82.4397E-03,   7.19064E-12
C:/temp/dataset/7/8_7.odb,Step-1,Increment      1: Step Time =    1.000,"PART-1-1",           412,       -2.8125,           30.,            0.,NA,NA,"",   480.425E-03,  -472.870E-03,  -84.8646E-03,   7.25019E-12
C:/temp/dataset/7/8_7.odb,Step-1,Increment      1: Step Time =    1.000,"PART-1-1",           413,      -7.28733,       29.0238,            0.,NA,NA,"",   480.215E-03,  -465.695E-03,  -117.193E-03,   7.28566E-12
C:/temp/dataset/7/8_7.odb,Step-1,Increment      1: Step Time =    1.000,"PART-1-1",           414,      -6.19423,       28.1363,            0.,NA,NA,"",   472.125E-03,  -459.307E-03,  -109.266E-03,   7.27303E-12
C:/temp/dataset/7/8_7.odb,Step-1,Increment      1: Step Time =    1.000,"PART-1-1",           415,       -6.5625,           30.,            0.,NA,NA,"",   485.853E-03,  -472.772E-03,  -111.978E-03,   7.28216E-12
C:/temp/dataset/7/8_7.odb,Step-1,Increment      1: Step Time =    1.000,"PART-1-1",           416,      -11.8079,       27.5253,            0.,NA,NA,"",   478.793E-03,  -454.743E-03,  -149.838E-03,   7.32205E-12
C:/temp/dataset/7/8_7.odb,Step-1,Increment      1: Step Time =    1.000,"PART-1-1",           417,      -12.6125,       26.1842,            0.,NA,NA,"",   471.451E-03,  -445.026E-03,  -155.620E-03,   7.32829E-12
C:/temp/dataset/7/8_7.odb,Step-1,Increment      1: Step Time =    1.000,"PART-1-1",           418,      -8.13992,       23.4434,            0.,NA,NA,"",   442.813E-03,  -425.326E-03,  -123.211E-03,   7.32254E-12
C:/temp/dataset/7/8_7.odb,Step-1,Increment      1: Step Time =    1.000,"PART-1-1",           419,       -8.4375,           30.,            0.,NA,NA,"",   489.108E-03,  -472.723E-03,  -125.534E-03,   7.29392E-12
C:/temp/dataset/7/8_7.odb,Step-1,Increment      1: Step Time =    1.000,"PART-1-1",           420,      -8.00049,       27.9480,            0.,NA,NA,"",   473.955E-03,  -457.898E-03,  -122.321E-03,   7.29221E-12
C:/temp/dataset/7/8_7.odb,Step-1,Increment      1: Step Time =    1.000,"PART-1-1",           421,      -12.1875,           30.,            0.,NA,NA,"",   496.665E-03,  -472.625E-03,  -152.647E-03,   7.32255E-12
C:/temp/dataset/7/8_7.odb,Step-1,Increment      1: Step Time =    1.000,"PART-1-1",           422,          -15.,         26.25,            0.,NA,NA,"",   477.812E-03,  -445.439E-03,  -172.884E-03,   7.33367E-12
C:/temp/dataset/7/8_7.odb,Step-1,Increment      1: Step Time =    1.000,"PART-1-1",           423,  -614.199E-03,       25.3895,            0.,NA,NA,"",   444.953E-03,  -439.593E-03,  -68.8501E-03,   7.11452E-12
C:/temp/dataset/7/8_7.odb,Step-1,Increment      1: Step Time =    1.000,"PART-1-1",           424,      -1.97220,       26.8586,            0.,NA,NA,"",   457.008E-03,  -450.179E-03,  -78.7070E-03,   7.17104E-12
C:/temp/dataset/7/8_7.odb,Step-1,Increment      1: Step Time =    1.000,"PART-1-1",           425,      -1.74113,       25.3247,            0.,NA,NA,"",   445.795E-03,  -439.095E-03,  -76.9963E-03,   7.17362E-12
C:/temp/dataset/7/8_7.odb,Step-1,Increment      1: Step Time =    1.000,"PART-1-1",           426,       8.18659,       21.6045,            0.,NA,NA,"",   412.489E-03,  -412.457E-03,  -5.12030E-03,   14.2489E-12
C:/temp/dataset/7/8_7.odb,Step-1,Increment      1: Step Time =    1.000,"PART-1-1",           427,       9.25192,       22.4602,            0.,NA,NA,"",   418.680E-03,  -418.672E-03,   2.55977E-03,   14.5436E-12
C:/temp/dataset/7/8_7.odb,Step-1,Increment      1: Step Time =    1.000,"PART-1-1",           428,       8.38526,       23.6138,            0.,NA,NA,"",   427.007E-03,  -426.990E-03,  -3.73643E-03,   10.9839E-12
C:/temp/dataset/7/8_7.odb,Step-1,Increment      1: Step Time =    1.000,"PART-1-1",           429,       7.31993,       22.7581,            0.,NA,NA,"",   420.930E-03,  -420.775E-03,  -11.4165E-03,   11.4278E-12
C:/temp/dataset/7/8_7.odb,Step-1,Increment      1: Step Time =    1.000,"PART-1-1",           430,           15.,         26.25,            0.,NA,NA,"",   448.389E-03,  -446.223E-03,   44.0201E-03,   6.43633E-12
C:/temp/dataset/7/8_7.odb,Step-1,Increment      1: Step Time =    1.000,"PART-1-1",           431,        4.6875,           30.,            0.,NA,NA,"",   474.058E-03,  -473.066E-03,  -30.6386E-03,   6.28031E-12
C:/temp/dataset/7/8_7.odb,Step-1,Increment      1: Step Time =    1.000,"PART-1-1",           432,       9.38339,       24.5308,            0.,NA,NA,"",   433.660E-03,  -433.646E-03,   3.45622E-03,   10.2233E-12
C:/temp/dataset/7/8_7.odb,Step-1,Increment      1: Step Time =    1.000,"PART-1-1",           433,       8.53172,       25.6694,            0.,NA,NA,"",   441.865E-03,  -441.856E-03,  -2.73124E-03,   8.66939E-12
C:/temp/dataset/7/8_7.odb,Step-1,Increment      1: Step Time =    1.000,"PART-1-1",           434,       7.53359,       24.7524,            0.,NA,NA,"",   435.313E-03,  -435.200E-03,  -9.92389E-03,   9.62240E-12
C:/temp/dataset/7/8_7.odb,Step-1,Increment      1: Step Time =    1.000,"PART-1-1",           435,     937.5E-03,           30.,            0.,NA,NA,"",   476.481E-03,  -472.968E-03,  -57.7516E-03,   7.00417E-12
C:/temp/dataset/7/8_7.odb,Step-1,Increment      1: Step Time =    1.000,"PART-1-1",           436,       5.64845,       26.5466,            0.,NA,NA,"",   448.744E-03,  -448.123E-03,  -23.6006E-03,   7.81220E-12
C:/temp/dataset/7/8_7.odb,Step-1,Increment      1: Step Time =    1.000,"PART-1-1",           437,       4.65082,       24.6490,            0.,NA,NA,"",   435.465E-03,  -434.377E-03,  -30.7640E-03,   8.60326E-12
C:/temp/dataset/7/8_7.odb,Step-1,Increment      1: Step Time =    1.000,"PART-1-1",           438,       5.82711,       24.9927,            0.,NA,NA,"",   437.460E-03,  -436.893E-03,  -22.2682E-03,   8.51243E-12
C:/temp/dataset/7/8_7.odb,Step-1,Increment      1: Step Time =    1.000,"PART-1-1",           439,      -3.57200,       27.5772,            0.,NA,NA,"",   464.199E-03,  -455.333E-03,  -90.2926E-03,   7.22618E-12
C:/temp/dataset/7/8_7.odb,Step-1,Increment      1: Step Time =    1.000,"PART-1-1",           440,      -3.05977,       26.4597,            0.,NA,NA,"",   455.566E-03,  -447.267E-03,  -86.5599E-03,   7.19813E-12
C:/temp/dataset/7/8_7.odb,Step-1,Increment      1: Step Time =    1.000,"PART-1-1",           441,      -4.23358,       26.7178,            0.,NA,NA,"",   459.051E-03,  -449.102E-03,  -95.0534E-03,   7.23624E-12
C:/temp/dataset/7/8_7.odb,Step-1,Increment      1: Step Time =    1.000,"PART-1-1",           442,      -5.07335,       27.3652,            0.,NA,NA,"",   464.897E-03,  -453.761E-03,  -101.142E-03,   7.25745E-12
C:/temp/dataset/7/8_7.odb,Step-1,Increment      1: Step Time =    1.000,"PART-1-1",           443,      -5.65848,       26.3267,            0.,NA,NA,"",   458.504E-03,  -446.238E-03,  -105.345E-03,   7.26782E-12
C:/temp/dataset/7/8_7.odb,Step-1,Increment      1: Step Time =    1.000,"PART-1-1",           444,      -6.77936,       27.0978,            0.,NA,NA,"",   465.815E-03,  -451.784E-03,  -113.470E-03,   7.28198E-12
C:/temp/dataset/7/8_7.odb,Step-1,Increment      1: Step Time =    1.000,"PART-1-1",           445,       13.0726,       6.26892,            0.,NA,NA,"",   303.255E-03,  -301.707E-03,   30.6073E-03,   8.02465E-09
C:/temp/dataset/7/8_7.odb,Step-1,Increment      1: Step Time =    1.000,"PART-1-1",           446,       14.0382,       5.02867,            0.,NA,NA,"",   295.172E-03,  -292.765E-03,   37.6209E-03,   6.85002E-09
C:/temp/dataset/7/8_7.odb,Step-1,Increment      1: Step Time =    1.000,"PART-1-1",           447,           15.,          6.25,            0.,NA,NA,"",   304.892E-03,  -301.620E-03,   44.5428E-03,   4.73277E-09
C:/temp/dataset/7/8_7.odb,Step-1,Increment      1: Step Time =    1.000,"PART-1-1",           448,       14.0344,       7.49025,            0.,NA,NA,"",   312.822E-03,  -310.562E-03,   37.5292E-03,   3.21627E-09
C:/temp/dataset/7/8_7.odb,Step-1,Increment      1: Step Time =    1.000,"PART-1-1",           449,            5.,       12.7083,            0.,NA,NA,"",   349.172E-03,  -348.054E-03,  -27.9272E-03,   1.17216E-09
C:/temp/dataset/7/8_7.odb,Step-1,Increment      1: Step Time =    1.000,"PART-1-1",           450,       6.97129,       12.7632,            0.,NA,NA,"",   348.770E-03,  -348.502E-03,  -13.6760E-03,   1.09685E-09
C:/temp/dataset/7/8_7.odb,Step-1,Increment      1: Step Time =    1.000,"PART-1-1",           451,       8.08110,       9.66220,            0.,NA,NA,"",   326.158E-03,  -326.110E-03,  -5.57085E-03,   1.70129E-09
C:/temp/dataset/7/8_7.odb,Step-1,Increment      1: Step Time =    1.000,"PART-1-1",           452,       8.10192,       7.46894,            0.,NA,NA,"",   310.300E-03,  -310.253E-03,  -5.36303E-03,   2.56582E-09
C:/temp/dataset/7/8_7.odb,Step-1,Increment      1: Step Time =    1.000,"PART-1-1",           453,            5.,        -1.875,            0.,NA,NA,"",   244.172E-03,  -242.614E-03,  -27.5453E-03,   573.768E-09
C:/temp/dataset/7/8_7.odb,Step-1,Increment      1: Step Time =    1.000,"PART-1-1",           454,       6.91011,      -2.19684,            0.,NA,NA,"",   240.728E-03,  -240.336E-03,  -13.7272E-03,   520.336E-09
C:/temp/dataset/7/8_7.odb,Step-1,Increment      1: Step Time =    1.000,"PART-1-1",           455,       11.0205,  -751.161E-03,            0.,NA,NA,"",   251.404E-03,  -250.897E-03,   15.9531E-03,   377.967E-09
C:/temp/dataset/7/8_7.odb,Step-1,Increment      1: Step Time =    1.000,"PART-1-1",           456,       13.1408,      -16.1676,            0.,NA,NA,"",   142.771E-03,  -139.219E-03,   31.6452E-03,   189.707E-06
C:/temp/dataset/7/8_7.odb,Step-1,Increment      1: Step Time =    1.000,"PART-1-1",           457,       14.0839,      -17.4497,            0.,NA,NA,"",   135.510E-03,  -130.042E-03,   38.1044E-03,   297.350E-06
C:/temp/dataset/7/8_7.odb,Step-1,Increment      1: Step Time =    1.000,"PART-1-1",           458,           15.,        -16.25,            0.,NA,NA,"",   145.770E-03,  -138.736E-03,   44.7333E-03,   283.152E-06
C:/temp/dataset/7/8_7.odb,Step-1,Increment      1: Step Time =    1.000,"PART-1-1",           459,            5.,       -14.375,            0.,NA,NA,"",   154.817E-03,  -152.386E-03,  -27.3261E-03,   99.0727E-06
C:/temp/dataset/7/8_7.odb,Step-1,Increment      1: Step Time =    1.000,"PART-1-1",           460,       6.11916,      -15.3567,            0.,NA,NA,"",   146.660E-03,  -145.392E-03,  -19.2428E-03,   114.780E-06
C:/temp/dataset/7/8_7.odb,Step-1,Increment      1: Step Time =    1.000,"PART-1-1",           461,       13.0403,       1.40949,            0.,NA,NA,"",   268.311E-03,  -266.572E-03,   30.5003E-03,   151.382E-09
C:/temp/dataset/7/8_7.odb,Step-1,Increment      1: Step Time =    1.000,"PART-1-1",           462,       14.0142,   96.5788E-03,            0.,NA,NA,"",   259.836E-03,  -257.105E-03,   37.5761E-03,   171.826E-09
C:/temp/dataset/7/8_7.odb,Step-1,Increment      1: Step Time =    1.000,"PART-1-1",           463,           15.,          1.25,            0.,NA,NA,"",   269.203E-03,  -265.470E-03,   44.6736E-03,   114.339E-09
C:/temp/dataset/7/8_7.odb,Step-1,Increment      1: Step Time =    1.000,"PART-1-1",           464,       14.0261,       2.56291,            0.,NA,NA,"",   277.496E-03,  -274.937E-03,   37.5979E-03,   44.9022E-09
C:/temp/dataset/7/8_7.odb,Step-1,Increment      1: Step Time =    1.000,"PART-1-1",           465,            5.,      -10.2083,            0.,NA,NA,"",   184.434E-03,  -182.399E-03,  -27.3170E-03,   5.03707E-06
C:/temp/dataset/7/8_7.odb,Step-1,Increment      1: Step Time =    1.000,"PART-1-1",           466,       6.86187,      -9.97015,            0.,NA,NA,"",   184.688E-03,  -184.166E-03,  -13.8733E-03,   14.2593E-06
C:/temp/dataset/7/8_7.odb,Step-1,Increment      1: Step Time =    1.000,"PART-1-1",           467,            5.,      -24.7917,            0.,NA,NA,"",   72.1455E-03,  -65.6804E-03,  -29.8507E-03,   1.14599E-03
C:/temp/dataset/7/8_7.odb,Step-1,Increment      1: Step Time =    1.000,"PART-1-1",           468,       6.13477,      -25.7685,            0.,NA,NA,"",   56.4162E-03,  -53.7191E-03,  -17.2349E-03,   2.95658E-03
C:/temp/dataset/7/8_7.odb,Step-1,Increment      1: Step Time =    1.000,"PART-1-1",           469,       13.1299,      -20.9468,            0.,NA,NA,"",   111.924E-03,  -107.319E-03,   31.7713E-03,   1.23878E-03
C:/temp/dataset/7/8_7.odb,Step-1,Increment      1: Step Time =    1.000,"PART-1-1",           470,       14.0295,      -22.3095,            0.,NA,NA,"",   109.408E-03,  -102.961E-03,   37.0011E-03,   3.45613E-03
C:/temp/dataset/7/8_7.odb,Step-1,Increment      1: Step Time =    1.000,"PART-1-1",           471,           15.,        -21.25,            0.,NA,NA,"",   113.628E-03,  -105.984E-03,   40.9735E-03,   1.28649E-03
C:/temp/dataset/7/8_7.odb,Step-1,Increment      1: Step Time =    1.000,"PART-1-1",           472,       14.1003,      -19.8873,            0.,NA,NA,"",   119.483E-03,  -113.482E-03,   37.3898E-03,   812.611E-06
C:/temp/dataset/7/8_7.odb,Step-1,Increment      1: Step Time =    1.000,"PART-1-1",           473,            5.,       -26.875,            0.,NA,NA,"",   48.9488E-03,  -41.4992E-03,  -25.9577E-03,   4.56496E-03
C:/temp/dataset/7/8_7.odb,Step-1,Increment      1: Step Time =    1.000,"PART-1-1",           474,       7.35824,      -26.7740,            0.,NA,NA,"",   40.4514E-03,  -39.8420E-03,  -6.99517E-03,   6.26026E-03
C:/temp/dataset/7/8_7.odb,Step-1,Increment      1: Step Time =    1.000,"PART-1-1",           475,       11.2665,      -23.4125,            0.,NA,NA,"",   88.6442E-03,  -87.1482E-03,   16.2169E-03,   4.23890E-03
C:/temp/dataset/7/8_7.odb,Step-1,Increment      1: Step Time =    1.000,"PART-1-1",           476,       10.8283,      -24.9299,            0.,NA,NA,"",   71.0348E-03,  -70.3163E-03,   10.0778E-03,   5.95082E-03
C:/temp/dataset/7/8_7.odb,Step-1,Increment      1: Step Time =    1.000,"PART-1-1",           477,            5.,      -16.4583,            0.,NA,NA,"",   140.062E-03,  -137.325E-03,  -27.5554E-03,   239.254E-06
C:/temp/dataset/7/8_7.odb,Step-1,Increment      1: Step Time =    1.000,"PART-1-1",           478,       7.29529,      -16.4772,            0.,NA,NA,"",   137.763E-03,  -137.360E-03,  -10.5320E-03,   180.520E-06
C:/temp/dataset/7/8_7.odb,Step-1,Increment      1: Step Time =    1.000,"PART-1-1",           479,            5.,       18.9583,            0.,NA,NA,"",   394.244E-03,  -393.242E-03,  -28.0906E-03,   7.59172E-12
C:/temp/dataset/7/8_7.odb,Step-1,Increment      1: Step Time =    1.000,"PART-1-1",           480,       6.05050,       17.7875,            0.,NA,NA,"",   385.348E-03,  -384.804E-03,  -20.4648E-03,   65.5383E-12
C:/temp/dataset/7/8_7.odb,Step-1,Increment      1: Step Time =    1.000,"PART-1-1",           481,       7.11573,       18.6629,            0.,NA,NA,"",   391.370E-03,  -391.162E-03,  -12.7859E-03,   80.6007E-12
C:/temp/dataset/7/8_7.odb,Step-1,Increment      1: Step Time =    1.000,"PART-1-1",           482,       6.06524,       19.8338,            0.,NA,NA,"",   400.121E-03,  -399.600E-03,  -20.4117E-03,   13.5271E-12
C:/temp/dataset/7/8_7.odb,Step-1,Increment      1: Step Time =    1.000,"PART-1-1",           483,       6.98524,       16.7251,            0.,NA,NA,"",   377.395E-03,  -377.147E-03,  -13.6787E-03,   222.660E-12
C:/temp/dataset/7/8_7.odb,Step-1,Increment      1: Step Time =    1.000,"PART-1-1",           484,            5.,        16.875,            0.,NA,NA,"",   379.217E-03,  -378.179E-03,  -28.0362E-03,   100.360E-12
C:/temp/dataset/7/8_7.odb,Step-1,Increment      1: Step Time =    1.000,"PART-1-1",           485,       7.88091,       13.8682,            0.,NA,NA,"",   356.586E-03,  -356.515E-03,  -7.12820E-03,   708.391E-12
C:/temp/dataset/7/8_7.odb,Step-1,Increment      1: Step Time =    1.000,"PART-1-1",           486,       7.65947,       15.6945,            0.,NA,NA,"",   369.818E-03,  -369.714E-03,  -8.77699E-03,   336.186E-12
C:/temp/dataset/7/8_7.odb,Step-1,Increment      1: Step Time =    1.000,"PART-1-1",           487,       8.92157,       12.9075,            0.,NA,NA,"",   349.596E-03,  -349.596E-03,   420.992E-06,   1.14622E-09
C:/temp/dataset/7/8_7.odb,Step-1,Increment      1: Step Time =    1.000,"PART-1-1",           488,       9.98918,       11.9956,            0.,NA,NA,"",   343.128E-03,  -343.031E-03,   8.16383E-03,   1.37536E-09
C:/temp/dataset/7/8_7.odb,Step-1,Increment      1: Step Time =    1.000,"PART-1-1",           489,       10.7968,       13.3004,            0.,NA,NA,"",   352.762E-03,  -352.486E-03,   13.9688E-03,   1.03691E-09
C:/temp/dataset/7/8_7.odb,Step-1,Increment      1: Step Time =    1.000,"PART-1-1",           490,       13.0565,       8.69239,            0.,NA,NA,"",   320.675E-03,  -319.228E-03,   30.4270E-03,   1.09333E-09
C:/temp/dataset/7/8_7.odb,Step-1,Increment      1: Step Time =    1.000,"PART-1-1",           491,           15.,          8.75,            0.,NA,NA,"",   322.775E-03,  -319.696E-03,   44.4775E-03,   4.66062E-09
C:/temp/dataset/7/8_7.odb,Step-1,Increment      1: Step Time =    1.000,"PART-1-1",           492,       14.0220,       9.95215,            0.,NA,NA,"",   330.482E-03,  -328.362E-03,   37.3753E-03,   2.18978E-09
C:/temp/dataset/7/8_7.odb,Step-1,Increment      1: Step Time =    1.000,"PART-1-1",           493,       8.15713,      -6.43409,            0.,NA,NA,"",   209.787E-03,  -209.736E-03,  -4.60234E-03,   1.21150E-06
C:/temp/dataset/7/8_7.odb,Step-1,Increment      1: Step Time =    1.000,"PART-1-1",           494,       7.55707,      -5.50995,            0.,NA,NA,"",   216.586E-03,  -216.401E-03,  -8.96391E-03,   388.080E-09
C:/temp/dataset/7/8_7.odb,Step-1,Increment      1: Step Time =    1.000,"PART-1-1",           495,       13.0039,      -1.03047,            0.,NA,NA,"",   250.767E-03,  -248.930E-03,   30.3008E-03,   380.466E-09
C:/temp/dataset/7/8_7.odb,Step-1,Increment      1: Step Time =    1.000,"PART-1-1",           496,       13.9897,      -2.37705,            0.,NA,NA,"",   242.136E-03,  -239.220E-03,   37.4644E-03,   484.529E-09
C:/temp/dataset/7/8_7.odb,Step-1,Increment      1: Step Time =    1.000,"PART-1-1",           497,           15.,         -1.25,            0.,NA,NA,"",   251.408E-03,  -247.395E-03,   44.7394E-03,   418.158E-09
C:/temp/dataset/7/8_7.odb,Step-1,Increment      1: Step Time =    1.000,"PART-1-1",           498,       11.0188,      -11.3444,            0.,NA,NA,"",   175.034E-03,  -174.278E-03,   16.2491E-03,   38.9781E-06
C:/temp/dataset/7/8_7.odb,Step-1,Increment      1: Step Time =    1.000,"PART-1-1",           499,       9.94563,      -10.3262,            0.,NA,NA,"",   181.838E-03,  -181.641E-03,   8.44887E-03,   18.7726E-06
C:/temp/dataset/7/8_7.odb,Step-1,Increment      1: Step Time =    1.000,"PART-1-1",           500,       9.07908,      -11.6768,            0.,NA,NA,"",   171.899E-03,  -171.884E-03,   2.24142E-03,   45.4245E-06
C:/temp/dataset/7/8_7.odb,Step-1,Increment      1: Step Time =    1.000,"PART-1-1",           501,       10.1523,      -12.6950,            0.,NA,NA,"",   164.821E-03,  -164.513E-03,   10.0722E-03,   59.7271E-06
C:/temp/dataset/7/8_7.odb,Step-1,Increment      1: Step Time =    1.000,"PART-1-1",           502,       11.2699,       24.2837,            0.,NA,NA,"",   432.247E-03,  -431.909E-03,   17.1025E-03,   9.92643E-12
C:/temp/dataset/7/8_7.odb,Step-1,Increment      1: Step Time =    1.000,"PART-1-1",           503,       12.1787,       22.9892,            0.,NA,NA,"",   423.238E-03,  -422.573E-03,   23.7071E-03,   9.13261E-12
C:/temp/dataset/7/8_7.odb,Step-1,Increment      1: Step Time =    1.000,"PART-1-1",           504,           15.,         -3.75,            0.,NA,NA,"",   233.656E-03,  -229.319E-03,   44.8064E-03,   1.12395E-06
C:/temp/dataset/7/8_7.odb,Step-1,Increment      1: Step Time =    1.000,"PART-1-1",           505,       12.9359,      -3.49956,            0.,NA,NA,"",   233.000E-03,  -231.077E-03,   29.8738E-03,   592.775E-09
C:/temp/dataset/7/8_7.odb,Step-1,Increment      1: Step Time =    1.000,"PART-1-1",           506,           15.,        -11.25,            0.,NA,NA,"",   180.728E-03,  -175.034E-03,   45.0056E-03,   16.4156E-06
C:/temp/dataset/7/8_7.odb,Step-1,Increment      1: Step Time =    1.000,"PART-1-1",           507,       12.9838,      -11.1958,            0.,NA,NA,"",   177.993E-03,  -175.374E-03,   30.4211E-03,   29.2712E-06
C:/temp/dataset/7/8_7.odb,Step-1,Increment      1: Step Time =    1.000,"PART-1-1",           508,           15.,         11.25,            0.,NA,NA,"",   340.678E-03,  -337.771E-03,   44.4122E-03,   2.20738E-09
C:/temp/dataset/7/8_7.odb,Step-1,Increment      1: Step Time =    1.000,"PART-1-1",           509,       12.9950,       11.1325,            0.,NA,NA,"",   338.195E-03,  -336.869E-03,   29.9188E-03,   1.58623E-09
C:/temp/dataset/7/8_7.odb,Step-1,Increment      1: Step Time =    1.000,"PART-1-1",           510,           15.,          3.75,            0.,NA,NA,"",   287.033E-03,  -283.545E-03,   44.6082E-03,   15.5541E-09
C:/temp/dataset/7/8_7.odb,Step-1,Increment      1: Step Time =    1.000,"PART-1-1",           511,       13.0643,       3.84158,            0.,NA,NA,"",   285.801E-03,  -284.157E-03,   30.6107E-03,   45.2253E-09
C:/temp/dataset/7/8_7.odb,Step-1,Increment      1: Step Time =    1.000,"PART-1-1",           512,           15.,        -18.75,            0.,NA,NA,"",   128.873E-03,  -121.173E-03,   43.8786E-03,   646.832E-06
C:/temp/dataset/7/8_7.odb,Step-1,Increment      1: Step Time =    1.000,"PART-1-1",           513,       13.1842,      -18.5870,            0.,NA,NA,"",   126.070E-03,  -121.942E-03,   31.9958E-03,   365.432E-06
C:/temp/dataset/7/8_7.odb,Step-1,Increment      1: Step Time =    1.000,"PART-1-1",           514,       13.5513,      -24.7801,            0.,NA,NA,"",   90.3456E-03,  -86.2550E-03,   26.8776E-03,   7.20117E-03
C:/temp/dataset/7/8_7.odb,Step-1,Increment      1: Step Time =    1.000,"PART-1-1",           515,       12.2413,      -25.9996,            0.,NA,NA,"",   64.8659E-03,  -63.4027E-03,   13.6999E-03,   8.64685E-03
C:/temp/dataset/7/8_7.odb,Step-1,Increment      1: Step Time =    1.000,"PART-1-1",           516,           15.,        -26.25,            0.,NA,NA,"",   86.3282E-03,  -78.2123E-03,   36.5430E-03,   8.48046E-03
C:/temp/dataset/7/8_7.odb,Step-1,Increment      1: Step Time =    1.000,"PART-1-1",           517,           15.,        -23.75,            0.,NA,NA,"",   110.544E-03,  -103.318E-03,   39.3095E-03,   5.79774E-03
C:/temp/dataset/7/8_7.odb,Step-1,Increment      1: Step Time =    1.000,"PART-1-1",           518,       12.5809,      -23.3397,            0.,NA,NA,"",   96.0279E-03,  -92.6812E-03,   25.1308E-03,   4.95700E-03
C:/temp/dataset/7/8_7.odb,Step-1,Increment      1: Step Time =    1.000,"PART-1-1",           519,       9.49127,      -18.7202,            0.,NA,NA,"",   121.167E-03,  -121.009E-03,   6.19820E-03,   227.134E-06
C:/temp/dataset/7/8_7.odb,Step-1,Increment      1: Step Time =    1.000,"PART-1-1",           520,       8.36047,      -17.5836,            0.,NA,NA,"",   129.341E-03,  -129.318E-03,  -2.44680E-03,   213.669E-06
C:/temp/dataset/7/8_7.odb,Step-1,Increment      1: Step Time =    1.000,"PART-1-1",           521,       11.5260,      -20.5498,            0.,NA,NA,"",   110.674E-03,  -108.645E-03,   21.0928E-03,   778.339E-06
C:/temp/dataset/7/8_7.odb,Step-1,Increment      1: Step Time =    1.000,"PART-1-1",           522,       10.5221,      -19.7870,            0.,NA,NA,"",   114.308E-03,  -113.459E-03,   13.9079E-03,   335.367E-06
C:/temp/dataset/7/8_7.odb,Step-1,Increment      1: Step Time =    1.000,"PART-1-1",           523,       11.0260,      -21.8608,            0.,NA,NA,"",   100.379E-03,  -98.9576E-03,   16.8301E-03,   1.69194E-03
C:/temp/dataset/7/8_7.odb,Step-1,Increment      1: Step Time =    1.000,"PART-1-1",           524,       7.98010,      -10.7619,            0.,NA,NA,"",   178.571E-03,  -178.478E-03,  -5.75826E-03,   21.2638E-06
C:/temp/dataset/7/8_7.odb,Step-1,Increment      1: Step Time =    1.000,"PART-1-1",           525,       8.65118,      -4.78401,            0.,NA,NA,"",   221.680E-03,  -221.677E-03,  -1.07350E-03,   597.726E-09
C:/temp/dataset/7/8_7.odb,Step-1,Increment      1: Step Time =    1.000,"PART-1-1",           526,       7.84665,      -3.50518,            0.,NA,NA,"",   231.005E-03,  -230.902E-03,  -6.92263E-03,   590.498E-09
C:/temp/dataset/7/8_7.odb,Step-1,Increment      1: Step Time =    1.000,"PART-1-1",           527,       9.43586,      -6.49799,            0.,NA,NA,"",   209.358E-03,  -209.306E-03,   4.64386E-03,   1.57484E-06
C:/temp/dataset/7/8_7.odb,Step-1,Increment      1: Step Time =    1.000,"PART-1-1",           528,       10.6293,      -5.79077,            0.,NA,NA,"",   214.859E-03,  -214.449E-03,   13.2538E-03,   1.11182E-06
C:/temp/dataset/7/8_7.odb,Step-1,Increment      1: Step Time =    1.000,"PART-1-1",           529,       11.1144,       3.95682,            0.,NA,NA,"",   285.417E-03,  -284.939E-03,   16.5093E-03,   54.6413E-09
C:/temp/dataset/7/8_7.odb,Step-1,Increment      1: Step Time =    1.000,"PART-1-1",           530,       10.1270,       5.17226,            0.,NA,NA,"",   293.849E-03,  -293.701E-03,   9.33854E-03,   20.5805E-09
C:/temp/dataset/7/8_7.odb,Step-1,Increment      1: Step Time =    1.000,"PART-1-1",           531,       9.05317,       10.7826,            0.,NA,NA,"",   334.239E-03,  -334.236E-03,   1.42803E-03,   1.70336E-09
C:/temp/dataset/7/8_7.odb,Step-1,Increment      1: Step Time =    1.000,"PART-1-1",           532,       8.01195,       11.8024,            0.,NA,NA,"",   341.637E-03,  -341.582E-03,  -6.12678E-03,   1.32295E-09
C:/temp/dataset/7/8_7.odb,Step-1,Increment      1: Step Time =    1.000,"PART-1-1",           533,       11.0241,       10.9595,            0.,NA,NA,"",   335.932E-03,  -335.567E-03,   15.6734E-03,   1.65688E-09
C:/temp/dataset/7/8_7.odb,Step-1,Increment      1: Step Time =    1.000,"PART-1-1",           534,       8.35051,       17.3209,            0.,NA,NA,"",   381.510E-03,  -381.490E-03,  -3.82317E-03,   160.659E-12
C:/temp/dataset/7/8_7.odb,Step-1,Increment      1: Step Time =    1.000,"PART-1-1",           535,       12.5952,       19.1415,            0.,NA,NA,"",   395.675E-03,  -394.765E-03,   26.8186E-03,   67.7908E-12
C:/temp/dataset/7/8_7.odb,Step-1,Increment      1: Step Time =    1.000,"PART-1-1",           536,           15.,         18.75,            0.,NA,NA,"",   394.483E-03,  -391.997E-03,   44.2161E-03,   15.0336E-12
C:/temp/dataset/7/8_7.odb,Step-1,Increment      1: Step Time =    1.000,"PART-1-1",           537,      -7.03326,       22.4462,            0.,NA,NA,"",   433.720E-03,  -418.145E-03,  -115.184E-03,   7.33028E-12
C:/temp/dataset/7/8_7.odb,Step-1,Increment      1: Step Time =    1.000,"PART-1-1",           538,      -8.48458,       21.3302,            0.,NA,NA,"",   428.858E-03,  -410.038E-03,  -125.648E-03,   7.35033E-12
C:/temp/dataset/7/8_7.odb,Step-1,Increment      1: Step Time =    1.000,"PART-1-1",           539,      -6.65000,           20.,            0.,NA,NA,"",   415.930E-03,  -400.469E-03,  -112.349E-03,   7.37255E-12
C:/temp/dataset/7/8_7.odb,Step-1,Increment      1: Step Time =    1.000,"PART-1-1",           540,      -5.19869,       21.1160,            0.,NA,NA,"",   421.088E-03,  -408.576E-03,  -101.885E-03,   7.35575E-12
C:/temp/dataset/7/8_7.odb,Step-1,Increment      1: Step Time =    1.000,"PART-1-1",           541,       9.42603,       26.6587,            0.,NA,NA,"",   449.047E-03,  -449.032E-03,   3.70886E-03,   8.02773E-12
C:/temp/dataset/7/8_7.odb,Step-1,Increment      1: Step Time =    1.000,"PART-1-1",           542,       10.3720,       25.4897,            0.,NA,NA,"",   440.732E-03,  -440.605E-03,   10.5788E-03,   8.78086E-12
C:/temp/dataset/7/8_7.odb,Step-1,Increment      1: Step Time =    1.000,"PART-1-1",           543,       6.87457,       25.7626,            0.,NA,NA,"",   442.732E-03,  -442.487E-03,  -14.7151E-03,   8.44171E-12
C:/temp/dataset/7/8_7.odb,Step-1,Increment      1: Step Time =    1.000,"PART-1-1",           544,       7.54675,       26.7337,            0.,NA,NA,"",   449.634E-03,  -449.525E-03,  -9.88053E-03,   7.81912E-12
C:/temp/dataset/7/8_7.odb,Step-1,Increment      1: Step Time =    1.000,"PART-1-1",           545,      -3.17643,       25.4018,            0.,NA,NA,"",   448.214E-03,  -439.615E-03,  -87.3757E-03,   7.21217E-12
C:/temp/dataset/7/8_7.odb,Step-1,Increment      1: Step Time =    1.000,"PART-1-1",           546,      -4.35024,       25.6599,            0.,NA,NA,"",   451.741E-03,  -441.451E-03,  -95.8692E-03,   7.24830E-12
C:/temp/dataset/7/8_7.odb,Step-1,Increment      1: Step Time =    1.000,"PART-1-1",           547,       4.01884,       22.4610,            0.,NA,NA,"",   420.025E-03,  -418.541E-03,  -35.2761E-03,   9.05744E-12
C:/temp/dataset/7/8_7.odb,Step-1,Increment      1: Step Time =    1.000,"PART-1-1",           548,       5.32127,       23.1739,            0.,NA,NA,"",   424.519E-03,  -423.730E-03,  -25.8780E-03,   9.92441E-12
C:/temp/dataset/7/8_7.odb,Step-1,Increment      1: Step Time =    1.000,"PART-1-1",           549,       11.1447,       22.1526,            0.,NA,NA,"",   416.815E-03,  -416.498E-03,   16.2530E-03,   15.0622E-12
C:/temp/dataset/7/8_7.odb,Step-1,Increment      1: Step Time =    1.000,"PART-1-1",           550,       10.2813,       23.3249,            0.,NA,NA,"",   425.068E-03,  -424.950E-03,   9.97997E-03,   11.6772E-12
C:/temp/dataset/7/8_7.odb,Step-1,Increment      1: Step Time =    1.000,"PART-1-1",           551,       6.15508,       21.9496,            0.,NA,NA,"",   415.372E-03,  -414.899E-03,  -19.8174E-03,   11.7592E-12
C:/temp/dataset/7/8_7.odb,Step-1,Increment      1: Step Time =    1.000,"PART-1-1",           552,       6.48612,       23.9825,            0.,NA,NA,"",   429.961E-03,  -429.606E-03,  -17.4771E-03,   10.1323E-12
C:/temp/dataset/7/8_7.odb,Step-1,Increment      1: Step Time =    1.000,"PART-1-1",           553,   6.30745E-03,       24.2683,            0.,NA,NA,"",   436.273E-03,  -431.503E-03,  -64.3344E-03,   7.08488E-12
C:/temp/dataset/7/8_7.odb,Step-1,Increment      1: Step Time =    1.000,"PART-1-1",           554,      -1.65981,       23.6471,            0.,NA,NA,"",   433.743E-03,  -426.968E-03,  -76.3644E-03,   7.19157E-12
C:/temp/dataset/7/8_7.odb,Step-1,Increment      1: Step Time =    1.000,"PART-1-1",           555,      -1.07768,       22.4355,            0.,NA,NA,"",   424.397E-03,  -418.224E-03,  -72.1239E-03,   7.14343E-12
C:/temp/dataset/7/8_7.odb,Step-1,Increment      1: Step Time =    1.000,"PART-1-1",           556,   588.432E-03,       23.0567,            0.,NA,NA,"",   427.008E-03,  -422.759E-03,  -60.0939E-03,   7.09507E-12
C:/temp/dataset/7/8_7.odb,Step-1,Increment      1: Step Time =    1.000,"PART-1-1",           557,      -4.82218,       24.5397,            0.,NA,NA,"",   444.561E-03,  -433.340E-03,  -99.2521E-03,   7.26261E-12
C:/temp/dataset/7/8_7.odb,Step-1,Increment      1: Step Time =    1.000,"PART-1-1",           558,      -3.09511,       23.7242,            0.,NA,NA,"",   436.200E-03,  -427.488E-03,  -86.7438E-03,   7.23379E-12
C:/temp/dataset/7/8_7.odb,Step-1,Increment      1: Step Time =    1.000,"PART-1-1",           559,      -5.58708,       23.2486,            0.,NA,NA,"",   436.732E-03,  -423.984E-03,  -104.749E-03,   7.30327E-12
C:/temp/dataset/7/8_7.odb,Step-1,Increment      1: Step Time =    1.000,"PART-1-1",           560,       8.76337,      -9.49006,            0.,NA,NA,"",   187.669E-03,  -187.669E-03,  -132.819E-06,   14.4392E-06
C:/temp/dataset/7/8_7.odb,Step-1,Increment      1: Step Time =    1.000,"PART-1-1",           561,       9.72759,      -26.4759,            0.,NA,NA,"",   46.9229E-03,  -46.8791E-03,   2.02670E-03,   7.34860E-03
C:/temp/dataset/7/8_7.odb,Step-1,Increment      1: Step Time =    1.000,"PART-1-1",           562,       9.12173,       6.33780,            0.,NA,NA,"",   302.108E-03,  -302.102E-03,   2.03987E-03,   12.6279E-09
C:/temp/dataset/7/8_7.odb,Step-1,Increment      1: Step Time =    1.000,"PART-1-1",           563,       11.1214,       6.29882,            0.,NA,NA,"",   302.323E-03,  -301.872E-03,   16.4990E-03,   12.9089E-09
C:/temp/dataset/7/8_7.odb,Step-1,Increment      1: Step Time =    1.000,"PART-1-1",           564,       11.1740,      -13.7880,            0.,NA,NA,"",   157.540E-03,  -156.562E-03,   17.5280E-03,   105.894E-06
C:/temp/dataset/7/8_7.odb,Step-1,Increment      1: Step Time =    1.000,"PART-1-1",           565,       10.6612,      -8.65022,            0.,NA,NA,"",   194.246E-03,  -193.772E-03,   13.5635E-03,   9.90013E-06
C:/temp/dataset/7/8_7.odb,Step-1,Increment      1: Step Time =    1.000,"PART-1-1",           566,       9.47894,      -7.81405,            0.,NA,NA,"",   199.856E-03,  -199.793E-03,   4.99107E-03,   3.99806E-06
C:/temp/dataset/7/8_7.odb,Step-1,Increment      1: Step Time =    1.000,"PART-1-1",           567,       11.3640,      -18.5194,            0.,NA,NA,"",   124.017E-03,  -122.450E-03,   19.6493E-03,   247.096E-06
C:/temp/dataset/7/8_7.odb,Step-1,Increment      1: Step Time =    1.000,"PART-1-1",           568,       12.0025,       20.7886,            0.,NA,NA,"",   407.279E-03,  -406.658E-03,   22.4904E-03,   18.9492E-12
C:/temp/dataset/7/8_7.odb,Step-1,Increment      1: Step Time =    1.000,"PART-1-1",           569,       11.4947,       18.6594,            0.,NA,NA,"",   391.705E-03,  -391.250E-03,   18.8745E-03,   90.4283E-12
C:/temp/dataset/7/8_7.odb,Step-1,Increment      1: Step Time =    1.000,"PART-1-1",           570,       9.39315,       18.1618,            0.,NA,NA,"",   387.616E-03,  -387.598E-03,   3.69323E-03,   138.481E-12
C:/temp/dataset/7/8_7.odb,Step-1,Increment      1: Step Time =    1.000,"PART-1-1",           571,       10.9214,       17.4088,            0.,NA,NA,"",   382.478E-03,  -382.193E-03,   14.7623E-03,   157.186E-12
C:/temp/dataset/7/8_7.odb,Step-1,Increment      1: Step Time =    1.000,"PART-1-1",           572,      -9.97500,           20.,            0.,NA,NA,"",   422.975E-03,  -400.382E-03,  -136.389E-03,   7.36137E-12
C:/temp/dataset/7/8_7.odb,Step-1,Increment      1: Step Time =    1.000,"PART-1-1",           573,       11.9818,      -2.09472,            0.,NA,NA,"",   242.297E-03,  -241.209E-03,   22.9385E-03,   483.534E-09
C:/temp/dataset/7/8_7.odb,Step-1,Increment      1: Step Time =    1.000,"PART-1-1",           574,       12.0426,   313.093E-03,            0.,NA,NA,"",   259.668E-03,  -258.619E-03,   23.3152E-03,   221.667E-09
C:/temp/dataset/7/8_7.odb,Step-1,Increment      1: Step Time =    1.000,"PART-1-1",           575,       12.1686,      -14.9632,            0.,NA,NA,"",   150.037E-03,  -147.984E-03,   24.7386E-03,   126.007E-06
C:/temp/dataset/7/8_7.odb,Step-1,Increment      1: Step Time =    1.000,"PART-1-1",           576,       12.0880,      -12.5178,            0.,NA,NA,"",   167.496E-03,  -165.766E-03,   24.0113E-03,   49.9350E-06
C:/temp/dataset/7/8_7.odb,Step-1,Increment      1: Step Time =    1.000,"PART-1-1",           577,       12.0767,       2.70437,            0.,NA,NA,"",   276.908E-03,  -275.909E-03,   23.4999E-03,   74.7934E-09
C:/temp/dataset/7/8_7.odb,Step-1,Increment      1: Step Time =    1.000,"PART-1-1",           578,       11.6617,       14.7036,            0.,NA,NA,"",   363.215E-03,  -362.654E-03,   20.1859E-03,   527.816E-12
C:/temp/dataset/7/8_7.odb,Step-1,Increment      1: Step Time =    1.000,"PART-1-1",           579,       11.9561,       12.2406,            0.,NA,NA,"",   345.579E-03,  -344.853E-03,   22.3783E-03,   1.20389E-09
C:/temp/dataset/7/8_7.odb,Step-1,Increment      1: Step Time =    1.000,"PART-1-1",           580,       12.3155,      -19.7087,            0.,NA,NA,"",   117.333E-03,  -114.315E-03,   26.4406E-03,   258.572E-06
C:/temp/dataset/7/8_7.odb,Step-1,Increment      1: Step Time =    1.000,"PART-1-1",           581,       12.3404,      -21.7879,            0.,NA,NA,"",   105.041E-03,  -101.753E-03,   26.0790E-03,   2.08246E-03
C:/temp/dataset/7/8_7.odb,Step-1,Increment      1: Step Time =    1.000,"PART-1-1",           582,       12.2327,      -17.3977,            0.,NA,NA,"",   132.820E-03,  -130.360E-03,   25.4494E-03,   238.277E-06
C:/temp/dataset/7/8_7.odb,Step-1,Increment      1: Step Time =    1.000,"PART-1-1",           583,       12.1020,       5.09402,            0.,NA,NA,"",   294.137E-03,  -293.187E-03,   23.6201E-03,   18.0617E-09
C:/temp/dataset/7/8_7.odb,Step-1,Increment      1: Step Time =    1.000,"PART-1-1",           584,       12.0630,       9.85139,            0.,NA,NA,"",   328.404E-03,  -327.582E-03,   23.2139E-03,   1.74667E-09
C:/temp/dataset/7/8_7.odb,Step-1,Increment      1: Step Time =    1.000,"PART-1-1",           585,       12.0921,       7.47372,            0.,NA,NA,"",   311.279E-03,  -310.392E-03,   23.4863E-03,   2.24671E-09
C:/temp/dataset/7/8_7.odb,Step-1,Increment      1: Step Time =    1.000,"PART-1-1",           586,       11.9146,      -10.0225,            0.,NA,NA,"",   185.253E-03,  -183.862E-03,   22.6657E-03,   13.6241E-06
C:/temp/dataset/7/8_7.odb,Step-1,Increment      1: Step Time =    1.000,"PART-1-1",           587,       11.5993,      -7.26023,            0.,NA,NA,"",   204.856E-03,  -203.847E-03,   20.3063E-03,   1.85005E-06
C:/temp/dataset/7/8_7.odb,Step-1,Increment      1: Step Time =    1.000,"PART-1-1",           588,       11.8707,      -4.56496,            0.,NA,NA,"",   224.446E-03,  -223.345E-03,   22.1990E-03,   679.764E-09
C:/temp/dataset/7/8_7.odb,Step-1,Increment      1: Step Time =    1.000,"PART-1-1",           589,      -3.86001,       22.4330,            0.,NA,NA,"",   428.186E-03,  -418.133E-03,  -92.2404E-03,   7.27988E-12
C:/temp/dataset/7/8_7.odb,Step-1,Increment      1: Step Time =    1.000,"PART-1-1",           590,       3.35000,           20.,            0.,NA,NA,"",   402.726E-03,  -400.730E-03,  -40.0475E-03,   7.18729E-12
C:/temp/dataset/7/8_7.odb,Step-1,Increment      1: Step Time =    1.000,"PART-1-1",           591,       5.05511,       21.0689,            0.,NA,NA,"",   409.444E-03,  -408.503E-03,  -27.7473E-03,   7.60707E-12
C:/temp/dataset/7/8_7.odb,Step-1,Increment      1: Step Time =    1.000,"PART-1-1",           592,       2.31373,       21.3921,            0.,NA,NA,"",   413.514E-03,  -410.768E-03,  -47.5763E-03,   7.27352E-12
C:/temp/dataset/7/8_7.odb,Step-1,Increment      1: Step Time =    1.000,"PART-1-1",           593,      -1.98632,       21.3170,            0.,NA,NA,"",   417.589E-03,  -410.113E-03,  -78.6643E-03,   7.33290E-12
C:/temp/dataset/7/8_7.odb,Step-1,Increment      1: Step Time =    1.000,"PART-1-1",           594,   25.0000E-03,           20.,            0.,NA,NA,"",   405.737E-03,  -400.643E-03,  -64.0877E-03,   7.42947E-12
C:/temp/dataset/7/8_7.odb,Step-1,Increment      1: Step Time =    1.000,"PART-1-1",           595,   933.640E-03,       21.1186,            0.,NA,NA,"",   412.786E-03,  -408.755E-03,  -57.5474E-03,   6.99128E-12
C:/temp/dataset/7/8_7.odb,Step-1,Increment      1: Step Time =    1.000,"PART-1-1",           596,       7.16521,       20.7144,            0.,NA,NA,"",   406.187E-03,  -405.995E-03,  -12.4818E-03,   19.2275E-12
C:/temp/dataset/7/8_7.odb,Step-1,Increment      1: Step Time =    1.000,"PART-1-1",           597,       8.15837,       19.5039,            0.,NA,NA,"",   397.304E-03,  -397.269E-03,  -5.26947E-03,   42.1141E-12
C:/temp/dataset/7/8_7.odb,Step-1,Increment      1: Step Time =    1.000,"PART-1-1",           598,      -3.32500,           20.,            0.,NA,NA,"",   410.175E-03,  -400.556E-03,  -88.3087E-03,   7.40164E-12
