ODB Name,Step,Frame,Part Instance Name,    êﬂì_ÉâÉxÉã,X,Y,Z,Section Name,Material Name,Section Point,   U-Magnitude,          U-U1,          U-U2,       S-Mises
C:/temp/dataset/7/9_3.odb,Step-1,Increment      1: Step Time =    1.000,"PART-1-1",             1,          -15.,           20.,            0.,NA,NA,"",       4.74589,      -2.56029,      -3.99605,   163.999E-06
C:/temp/dataset/7/9_3.odb,Step-1,Increment      1: Step Time =    1.000,"PART-1-1",             2,          -15.,           25.,            0.,NA,NA,"",       5.28160,      -3.37253,      -4.06464,   1.79782E-03
C:/temp/dataset/7/9_3.odb,Step-1,Increment      1: Step Time =    1.000,"PART-1-1",             3,      -11.6500,           20.,            0.,NA,NA,"",       4.32242,      -2.60563,      -3.44876,   645.184E-06
C:/temp/dataset/7/9_3.odb,Step-1,Increment      1: Step Time =    1.000,"PART-1-1",             4,      -8.30000,           20.,            0.,NA,NA,"",       3.93314,      -2.65615,      -2.90076,   2.91398E-03
C:/temp/dataset/7/9_3.odb,Step-1,Increment      1: Step Time =    1.000,"PART-1-1",             5,           -5.,           20.,            0.,NA,NA,"",       3.59940,      -2.71200,      -2.36659,   5.26861E-03
C:/temp/dataset/7/9_3.odb,Step-1,Increment      1: Step Time =    1.000,"PART-1-1",             6,      -1.65000,           20.,            0.,NA,NA,"",       3.32623,      -2.77381,      -1.83571,   7.33607E-03
C:/temp/dataset/7/9_3.odb,Step-1,Increment      1: Step Time =    1.000,"PART-1-1",             7,       1.70000,           20.,            0.,NA,NA,"",       3.12841,      -2.83764,      -1.31709,   11.0568E-03
C:/temp/dataset/7/9_3.odb,Step-1,Increment      1: Step Time =    1.000,"PART-1-1",             8,            5.,           20.,            0.,NA,NA,"",       3.02624,      -2.91784,  -802.693E-03,   24.3987E-03
C:/temp/dataset/7/9_3.odb,Step-1,Increment      1: Step Time =    1.000,"PART-1-1",             9,            5.,         13.75,            0.,NA,NA,"",       2.32722,      -2.23113,  -661.824E-03,   16.1332E-03
C:/temp/dataset/7/9_3.odb,Step-1,Increment      1: Step Time =    1.000,"PART-1-1",            10,            5.,           7.5,            0.,NA,NA,"",       1.70602,      -1.61799,  -540.945E-03,   16.0340E-03
C:/temp/dataset/7/9_3.odb,Step-1,Increment      1: Step Time =    1.000,"PART-1-1",            11,            5.,          1.25,            0.,NA,NA,"",       1.18857,      -1.10786,  -430.528E-03,   15.7084E-03
C:/temp/dataset/7/9_3.odb,Step-1,Increment      1: Step Time =    1.000,"PART-1-1",            12,            5.,           -5.,            0.,NA,NA,"",   772.808E-03,  -698.895E-03,  -329.814E-03,   15.2961E-03
C:/temp/dataset/7/9_3.odb,Step-1,Increment      1: Step Time =    1.000,"PART-1-1",            13,            5.,        -11.25,            0.,NA,NA,"",   455.138E-03,  -388.314E-03,  -237.408E-03,   14.8052E-03
C:/temp/dataset/7/9_3.odb,Step-1,Increment      1: Step Time =    1.000,"PART-1-1",            14,            5.,         -17.5,            0.,NA,NA,"",   230.179E-03,  -172.865E-03,  -151.987E-03,   14.2510E-03
C:/temp/dataset/7/9_3.odb,Step-1,Increment      1: Step Time =    1.000,"PART-1-1",            15,            5.,        -23.75,            0.,NA,NA,"",   87.4394E-03,  -48.9161E-03,  -72.4766E-03,   13.5814E-03
C:/temp/dataset/7/9_3.odb,Step-1,Increment      1: Step Time =    1.000,"PART-1-1",            16,            5.,          -30.,            0.,NA,NA,"",            0.,  -3.68634E-39,  -7.22939E-39,   14.1274E-03
C:/temp/dataset/7/9_3.odb,Step-1,Increment      1: Step Time =    1.000,"PART-1-1",            17,           15.,          -30.,            0.,NA,NA,"",            0.,  -3.00576E-39,   5.72667E-39,   10.8560E-03
C:/temp/dataset/7/9_3.odb,Step-1,Increment      1: Step Time =    1.000,"PART-1-1",            18,           15.,         -22.5,            0.,NA,NA,"",   97.0155E-03,  -63.3449E-03,   73.4808E-03,   11.6820E-03
C:/temp/dataset/7/9_3.odb,Step-1,Increment      1: Step Time =    1.000,"PART-1-1",            19,           15.,          -15.,            0.,NA,NA,"",   291.840E-03,  -249.082E-03,   152.082E-03,   12.3589E-03
C:/temp/dataset/7/9_3.odb,Step-1,Increment      1: Step Time =    1.000,"PART-1-1",            20,           15.,          -7.5,            0.,NA,NA,"",   616.950E-03,  -572.262E-03,   230.530E-03,   12.9834E-03
C:/temp/dataset/7/9_3.odb,Step-1,Increment      1: Step Time =    1.000,"PART-1-1",            21,           15.,            0.,            0.,NA,NA,"",       1.08319,      -1.03925,   305.376E-03,   13.5171E-03
C:/temp/dataset/7/9_3.odb,Step-1,Increment      1: Step Time =    1.000,"PART-1-1",            22,           15.,           7.5,            0.,NA,NA,"",       1.69681,      -1.65535,   372.834E-03,   13.9711E-03
C:/temp/dataset/7/9_3.odb,Step-1,Increment      1: Step Time =    1.000,"PART-1-1",            23,           15.,           15.,            0.,NA,NA,"",       2.46362,      -2.42586,   429.653E-03,   14.5832E-03
C:/temp/dataset/7/9_3.odb,Step-1,Increment      1: Step Time =    1.000,"PART-1-1",            24,           15.,          22.5,            0.,NA,NA,"",       3.39440,      -3.36316,   459.401E-03,   9.10626E-03
C:/temp/dataset/7/9_3.odb,Step-1,Increment      1: Step Time =    1.000,"PART-1-1",            25,           15.,           30.,            0.,NA,NA,"",       4.40567,      -4.38649,   410.717E-03,   259.331E-06
C:/temp/dataset/7/9_3.odb,Step-1,Increment      1: Step Time =    1.000,"PART-1-1",            26,         11.25,           30.,            0.,NA,NA,"",       4.35556,      -4.35459,  -91.8107E-03,   2.52509E-03
C:/temp/dataset/7/9_3.odb,Step-1,Increment      1: Step Time =    1.000,"PART-1-1",            27,           7.5,           30.,            0.,NA,NA,"",       4.38006,      -4.33923,  -596.637E-03,   8.38031E-03
C:/temp/dataset/7/9_3.odb,Step-1,Increment      1: Step Time =    1.000,"PART-1-1",            28,          3.75,           30.,            0.,NA,NA,"",       4.48082,      -4.33613,      -1.12945,   11.0239E-03
C:/temp/dataset/7/9_3.odb,Step-1,Increment      1: Step Time =    1.000,"PART-1-1",            29,            0.,           30.,            0.,NA,NA,"",       4.64932,      -4.32833,      -1.69756,   9.36163E-03
C:/temp/dataset/7/9_3.odb,Step-1,Increment      1: Step Time =    1.000,"PART-1-1",            30,         -3.75,           30.,            0.,NA,NA,"",       4.87952,      -4.30814,      -2.29119,   6.54722E-03
C:/temp/dataset/7/9_3.odb,Step-1,Increment      1: Step Time =    1.000,"PART-1-1",            31,          -7.5,           30.,            0.,NA,NA,"",       5.16727,      -4.27646,      -2.90045,   4.18376E-03
C:/temp/dataset/7/9_3.odb,Step-1,Increment      1: Step Time =    1.000,"PART-1-1",            32,        -11.25,           30.,            0.,NA,NA,"",       5.50917,      -4.23570,      -3.52277,   2.51726E-03
C:/temp/dataset/7/9_3.odb,Step-1,Increment      1: Step Time =    1.000,"PART-1-1",            33,          -15.,           30.,            0.,NA,NA,"",       5.89203,      -4.18790,      -4.14457,   3.05342E-03
C:/temp/dataset/7/9_3.odb,Step-1,Increment      1: Step Time =    1.000,"PART-1-1",            34,          -15.,          22.5,            0.,NA,NA,"",       5.00412,      -2.96728,      -4.02944,   370.218E-06
C:/temp/dataset/7/9_3.odb,Step-1,Increment      1: Step Time =    1.000,"PART-1-1",            35,            5.,       15.8333,            0.,NA,NA,"",       2.55627,      -2.45736,  -704.226E-03,   15.5473E-03
C:/temp/dataset/7/9_3.odb,Step-1,Increment      1: Step Time =    1.000,"PART-1-1",            36,            5.,       17.9167,            0.,NA,NA,"",       2.79296,      -2.69129,  -746.695E-03,   18.5502E-03
C:/temp/dataset/7/9_3.odb,Step-1,Increment      1: Step Time =    1.000,"PART-1-1",            37,            5.,       9.58333,            0.,NA,NA,"",       1.90157,      -1.81092,  -580.103E-03,   16.0950E-03
C:/temp/dataset/7/9_3.odb,Step-1,Increment      1: Step Time =    1.000,"PART-1-1",            38,            5.,       11.6667,            0.,NA,NA,"",       2.10868,      -2.01534,  -620.422E-03,   16.0586E-03
C:/temp/dataset/7/9_3.odb,Step-1,Increment      1: Step Time =    1.000,"PART-1-1",            39,            5.,       3.33333,            0.,NA,NA,"",       1.34961,      -1.26653,  -466.188E-03,   15.8325E-03
C:/temp/dataset/7/9_3.odb,Step-1,Increment      1: Step Time =    1.000,"PART-1-1",            40,            5.,       5.41667,            0.,NA,NA,"",       1.52206,      -1.43655,  -502.980E-03,   15.9443E-03
C:/temp/dataset/7/9_3.odb,Step-1,Increment      1: Step Time =    1.000,"PART-1-1",            41,            5.,      -2.91667,            0.,NA,NA,"",   900.300E-03,  -824.141E-03,  -362.396E-03,   15.4345E-03
C:/temp/dataset/7/9_3.odb,Step-1,Increment      1: Step Time =    1.000,"PART-1-1",            42,            5.,  -833.333E-03,            0.,NA,NA,"",       1.03884,  -960.427E-03,  -395.948E-03,   15.5772E-03
C:/temp/dataset/7/9_3.odb,Step-1,Increment      1: Step Time =    1.000,"PART-1-1",            43,            5.,      -9.16667,            0.,NA,NA,"",   550.407E-03,  -481.101E-03,  -267.377E-03,   14.9797E-03
C:/temp/dataset/7/9_3.odb,Step-1,Increment      1: Step Time =    1.000,"PART-1-1",            44,            5.,      -7.08333,            0.,NA,NA,"",   656.241E-03,  -584.596E-03,  -298.161E-03,   15.1284E-03
C:/temp/dataset/7/9_3.odb,Step-1,Increment      1: Step Time =    1.000,"PART-1-1",            45,            5.,      -15.4167,            0.,NA,NA,"",   295.336E-03,  -234.334E-03,  -179.753E-03,   14.4460E-03
C:/temp/dataset/7/9_3.odb,Step-1,Increment      1: Step Time =    1.000,"PART-1-1",            46,            5.,      -13.3333,            0.,NA,NA,"",   370.207E-03,  -306.101E-03,  -208.220E-03,   14.6311E-03
C:/temp/dataset/7/9_3.odb,Step-1,Increment      1: Step Time =    1.000,"PART-1-1",            47,            5.,      -21.6667,            0.,NA,NA,"",   126.927E-03,  -80.2572E-03,  -98.3325E-03,   13.8399E-03
C:/temp/dataset/7/9_3.odb,Step-1,Increment      1: Step Time =    1.000,"PART-1-1",            48,            5.,      -19.5833,            0.,NA,NA,"",   174.240E-03,  -121.571E-03,  -124.819E-03,   14.0440E-03
C:/temp/dataset/7/9_3.odb,Step-1,Increment      1: Step Time =    1.000,"PART-1-1",            49,            5.,      -27.9167,            0.,NA,NA,"",   27.1003E-03,  -13.4502E-03,  -23.5269E-03,   13.2018E-03
C:/temp/dataset/7/9_3.odb,Step-1,Increment      1: Step Time =    1.000,"PART-1-1",            50,            5.,      -25.8333,            0.,NA,NA,"",   54.5185E-03,  -26.9040E-03,  -47.4177E-03,   13.0328E-03
C:/temp/dataset/7/9_3.odb,Step-1,Increment      1: Step Time =    1.000,"PART-1-1",            51,          12.5,          -30.,            0.,NA,NA,"",            0.,  -2.36563E-39,   10.2849E-39,   4.28875E-03
C:/temp/dataset/7/9_3.odb,Step-1,Increment      1: Step Time =    1.000,"PART-1-1",            52,           10.,          -30.,            0.,NA,NA,"",            0.,   3.56580E-39,  -767.001E-42,   2.84588E-03
C:/temp/dataset/7/9_3.odb,Step-1,Increment      1: Step Time =    1.000,"PART-1-1",            53,           7.5,          -30.,            0.,NA,NA,"",            0.,   2.09409E-39,  -19.4817E-39,   5.55416E-03
C:/temp/dataset/7/9_3.odb,Step-1,Increment      1: Step Time =    1.000,"PART-1-1",            54,           15.,          -25.,            0.,NA,NA,"",   56.8610E-03,  -30.6457E-03,   47.8959E-03,   11.3477E-03
C:/temp/dataset/7/9_3.odb,Step-1,Increment      1: Step Time =    1.000,"PART-1-1",            55,           15.,         -27.5,            0.,NA,NA,"",   25.9913E-03,  -11.9585E-03,   23.0769E-03,   11.2123E-03
C:/temp/dataset/7/9_3.odb,Step-1,Increment      1: Step Time =    1.000,"PART-1-1",            56,           15.,         -17.5,            0.,NA,NA,"",   213.254E-03,  -172.234E-03,   125.748E-03,   12.1314E-03
C:/temp/dataset/7/9_3.odb,Step-1,Increment      1: Step Time =    1.000,"PART-1-1",            57,           15.,          -20.,            0.,NA,NA,"",   148.641E-03,  -110.406E-03,   99.5226E-03,   11.8952E-03
C:/temp/dataset/7/9_3.odb,Step-1,Increment      1: Step Time =    1.000,"PART-1-1",            58,           15.,          -10.,            0.,NA,NA,"",   493.280E-03,  -448.847E-03,   204.599E-03,   12.7886E-03
C:/temp/dataset/7/9_3.odb,Step-1,Increment      1: Step Time =    1.000,"PART-1-1",            59,           15.,         -12.5,            0.,NA,NA,"",   385.029E-03,  -341.202E-03,   178.406E-03,   12.5774E-03
C:/temp/dataset/7/9_3.odb,Step-1,Increment      1: Step Time =    1.000,"PART-1-1",            60,           15.,          -2.5,            0.,NA,NA,"",   911.662E-03,  -867.256E-03,   281.059E-03,   13.3515E-03
C:/temp/dataset/7/9_3.odb,Step-1,Increment      1: Step Time =    1.000,"PART-1-1",            61,           15.,           -5.,            0.,NA,NA,"",   756.324E-03,  -711.659E-03,   256.060E-03,   13.1758E-03
C:/temp/dataset/7/9_3.odb,Step-1,Increment      1: Step Time =    1.000,"PART-1-1",            62,           15.,            5.,            0.,NA,NA,"",       1.47559,      -1.43314,   351.402E-03,   13.8197E-03
C:/temp/dataset/7/9_3.odb,Step-1,Increment      1: Step Time =    1.000,"PART-1-1",            63,           15.,           2.5,            0.,NA,NA,"",       1.27111,      -1.22782,   328.872E-03,   13.6718E-03
C:/temp/dataset/7/9_3.odb,Step-1,Increment      1: Step Time =    1.000,"PART-1-1",            64,           15.,          12.5,            0.,NA,NA,"",       2.19036,      -2.15125,   412.061E-03,   14.3843E-03
C:/temp/dataset/7/9_3.odb,Step-1,Increment      1: Step Time =    1.000,"PART-1-1",            65,           15.,           10.,            0.,NA,NA,"",       1.93497,      -1.89462,   393.074E-03,   14.1514E-03
C:/temp/dataset/7/9_3.odb,Step-1,Increment      1: Step Time =    1.000,"PART-1-1",            66,           15.,           20.,            0.,NA,NA,"",       3.06682,      -3.03267,   456.384E-03,   12.5656E-03
C:/temp/dataset/7/9_3.odb,Step-1,Increment      1: Step Time =    1.000,"PART-1-1",            67,           15.,          17.5,            0.,NA,NA,"",       2.75571,      -2.71952,   445.159E-03,   14.1088E-03
C:/temp/dataset/7/9_3.odb,Step-1,Increment      1: Step Time =    1.000,"PART-1-1",            68,           15.,          27.5,            0.,NA,NA,"",       4.07078,      -4.04762,   433.661E-03,   773.967E-06
C:/temp/dataset/7/9_3.odb,Step-1,Increment      1: Step Time =    1.000,"PART-1-1",            69,           15.,           25.,            0.,NA,NA,"",       3.73183,      -3.70440,   451.638E-03,   4.55179E-03
C:/temp/dataset/7/9_3.odb,Step-1,Increment      1: Step Time =    1.000,"PART-1-1",            70,        13.125,           30.,            0.,NA,NA,"",       4.37223,      -4.36937,   158.364E-03,   428.817E-06
C:/temp/dataset/7/9_3.odb,Step-1,Increment      1: Step Time =    1.000,"PART-1-1",            71,         9.375,           30.,            0.,NA,NA,"",       4.35802,      -4.34456,  -342.234E-03,   5.54852E-03
C:/temp/dataset/7/9_3.odb,Step-1,Increment      1: Step Time =    1.000,"PART-1-1",            72,         5.625,           30.,            0.,NA,NA,"",       4.42148,      -4.33734,  -858.499E-03,   10.1991E-03
C:/temp/dataset/7/9_3.odb,Step-1,Increment      1: Step Time =    1.000,"PART-1-1",            73,         1.875,           30.,            0.,NA,NA,"",       4.55710,      -4.33365,      -1.40948,   10.5859E-03
C:/temp/dataset/7/9_3.odb,Step-1,Increment      1: Step Time =    1.000,"PART-1-1",            74,        -1.875,           30.,            0.,NA,NA,"",       4.75694,      -4.31982,      -1.99190,   7.95883E-03
C:/temp/dataset/7/9_3.odb,Step-1,Increment      1: Step Time =    1.000,"PART-1-1",            75,        -5.625,           30.,            0.,NA,NA,"",       5.01647,      -4.29357,      -2.59428,   5.29208E-03
C:/temp/dataset/7/9_3.odb,Step-1,Increment      1: Step Time =    1.000,"PART-1-1",            76,        -9.375,           30.,            0.,NA,NA,"",       5.33116,      -4.25702,      -3.20923,   3.17785E-03
C:/temp/dataset/7/9_3.odb,Step-1,Increment      1: Step Time =    1.000,"PART-1-1",            77,       -13.125,           30.,            0.,NA,NA,"",       5.69612,      -4.21121,      -3.83556,   3.30486E-03
C:/temp/dataset/7/9_3.odb,Step-1,Increment      1: Step Time =    1.000,"PART-1-1",            78,          -15.,          27.5,            0.,NA,NA,"",       5.57829,      -3.77858,      -4.10362,   3.11236E-03
C:/temp/dataset/7/9_3.odb,Step-1,Increment      1: Step Time =    1.000,"PART-1-1",            79,      -7.07467,       28.0475,            0.,NA,NA,"",       4.85513,      -3.96496,      -2.80203,   3.05067E-03
C:/temp/dataset/7/9_3.odb,Step-1,Increment      1: Step Time =    1.000,"PART-1-1",            80,      -10.7971,       27.6072,            0.,NA,NA,"",       5.14227,      -3.84836,      -3.41073,   3.06826E-03
C:/temp/dataset/7/9_3.odb,Step-1,Increment      1: Step Time =    1.000,"PART-1-1",            81,      -3.50976,       28.2242,            0.,NA,NA,"",       4.60337,      -4.02944,      -2.22589,   4.64994E-03
C:/temp/dataset/7/9_3.odb,Step-1,Increment      1: Step Time =    1.000,"PART-1-1",            82,       11.3028,       27.6605,            0.,NA,NA,"",       4.03783,      -4.03737,  -61.1518E-03,   4.85038E-03
C:/temp/dataset/7/9_3.odb,Step-1,Increment      1: Step Time =    1.000,"PART-1-1",            83,       7.46624,       27.7175,            0.,NA,NA,"",       4.06331,      -4.02282,  -572.196E-03,   6.30994E-03
C:/temp/dataset/7/9_3.odb,Step-1,Increment      1: Step Time =    1.000,"PART-1-1",            84,   523.838E-03,       28.1559,            0.,NA,NA,"",       4.35113,      -4.05078,      -1.58855,   6.09626E-03
C:/temp/dataset/7/9_3.odb,Step-1,Increment      1: Step Time =    1.000,"PART-1-1",            85,       13.1724,       27.5829,            0.,NA,NA,"",       4.04612,      -4.04180,   186.880E-03,   2.96916E-03
C:/temp/dataset/7/9_3.odb,Step-1,Increment      1: Step Time =    1.000,"PART-1-1",            86,       9.41586,       27.7284,            0.,NA,NA,"",       4.04651,      -4.03455,  -310.895E-03,   5.90956E-03
C:/temp/dataset/7/9_3.odb,Step-1,Increment      1: Step Time =    1.000,"PART-1-1",            87,       5.17501,       27.3177,            0.,NA,NA,"",       4.05276,      -3.95490,  -885.242E-03,   5.70572E-03
C:/temp/dataset/7/9_3.odb,Step-1,Increment      1: Step Time =    1.000,"PART-1-1",            88,       1.85763,       28.7412,            0.,NA,NA,"",       4.37369,      -4.14596,      -1.39292,   7.63338E-03
C:/temp/dataset/7/9_3.odb,Step-1,Increment      1: Step Time =    1.000,"PART-1-1",            89,      -1.45910,       27.7280,            0.,NA,NA,"",       4.39839,      -3.97052,      -1.89230,   4.85759E-03
C:/temp/dataset/7/9_3.odb,Step-1,Increment      1: Step Time =    1.000,"PART-1-1",            90,      -5.31380,       28.2250,            0.,NA,NA,"",       4.73650,      -4.01219,      -2.51729,   3.86121E-03
C:/temp/dataset/7/9_3.odb,Step-1,Increment      1: Step Time =    1.000,"PART-1-1",            91,      -8.92632,       27.8484,            0.,NA,NA,"",       4.99296,      -3.91100,      -3.10383,   2.49654E-03
C:/temp/dataset/7/9_3.odb,Step-1,Increment      1: Step Time =    1.000,"PART-1-1",            92,       7.03655,   996.185E-03,            0.,NA,NA,"",       1.11755,      -1.08325,  -274.760E-03,   9.69172E-03
C:/temp/dataset/7/9_3.odb,Step-1,Increment      1: Step Time =    1.000,"PART-1-1",            93,       6.93081,       13.7923,            0.,NA,NA,"",       2.28091,      -2.23547,  -453.028E-03,   10.3599E-03
C:/temp/dataset/7/9_3.odb,Step-1,Increment      1: Step Time =    1.000,"PART-1-1",            94,       7.08682,       7.47611,            0.,NA,NA,"",       1.64981,      -1.61244,  -349.136E-03,   9.75372E-03
C:/temp/dataset/7/9_3.odb,Step-1,Increment      1: Step Time =    1.000,"PART-1-1",            95,       6.96700,      -1.15199,            0.,NA,NA,"",   966.620E-03,  -932.230E-03,  -255.541E-03,   9.81224E-03
C:/temp/dataset/7/9_3.odb,Step-1,Increment      1: Step Time =    1.000,"PART-1-1",            96,       6.47578,      -21.8661,            0.,NA,NA,"",   98.4289E-03,  -69.1385E-03,  -70.0579E-03,   10.0333E-03
C:/temp/dataset/7/9_3.odb,Step-1,Increment      1: Step Time =    1.000,"PART-1-1",            97,       7.14087,      -13.1040,            0.,NA,NA,"",   331.150E-03,  -304.892E-03,  -129.231E-03,   8.79638E-03
C:/temp/dataset/7/9_3.odb,Step-1,Increment      1: Step Time =    1.000,"PART-1-1",            98,       6.53104,      -7.08024,            0.,NA,NA,"",   617.132E-03,  -577.942E-03,  -216.415E-03,   10.8081E-03
C:/temp/dataset/7/9_3.odb,Step-1,Increment      1: Step Time =    1.000,"PART-1-1",            99,       6.85322,      -3.24169,            0.,NA,NA,"",   832.262E-03,  -796.920E-03,  -239.956E-03,   10.0584E-03
C:/temp/dataset/7/9_3.odb,Step-1,Increment      1: Step Time =    1.000,"PART-1-1",           100,       6.74184,      -8.96518,            0.,NA,NA,"",   517.264E-03,  -482.830E-03,  -185.572E-03,   10.1037E-03
C:/temp/dataset/7/9_3.odb,Step-1,Increment      1: Step Time =    1.000,"PART-1-1",           101,       6.94703,      -23.6171,            0.,NA,NA,"",   62.9069E-03,  -40.9823E-03,  -47.7255E-03,   8.72924E-03
C:/temp/dataset/7/9_3.odb,Step-1,Increment      1: Step Time =    1.000,"PART-1-1",           102,       7.44695,      -27.8442,            0.,NA,NA,"",   13.0955E-03,  -3.61208E-03,  -12.5875E-03,   7.56477E-03
C:/temp/dataset/7/9_3.odb,Step-1,Increment      1: Step Time =    1.000,"PART-1-1",           103,       7.35225,      -17.6578,            0.,NA,NA,"",   179.402E-03,  -157.713E-03,  -85.5082E-03,   8.00531E-03
C:/temp/dataset/7/9_3.odb,Step-1,Increment      1: Step Time =    1.000,"PART-1-1",           104,       7.23832,      -15.2967,            0.,NA,NA,"",   251.911E-03,  -227.858E-03,  -107.425E-03,   8.42758E-03
C:/temp/dataset/7/9_3.odb,Step-1,Increment      1: Step Time =    1.000,"PART-1-1",           105,       7.10099,       17.6583,            0.,NA,NA,"",       2.71206,      -2.66706,  -491.964E-03,   10.7746E-03
C:/temp/dataset/7/9_3.odb,Step-1,Increment      1: Step Time =    1.000,"PART-1-1",           106,       6.86948,       15.7920,            0.,NA,NA,"",       2.50243,      -2.45373,  -491.311E-03,   11.3057E-03
C:/temp/dataset/7/9_3.odb,Step-1,Increment      1: Step Time =    1.000,"PART-1-1",           107,       7.06799,       9.62990,            0.,NA,NA,"",       1.85231,      -1.81304,  -379.349E-03,   9.86899E-03
C:/temp/dataset/7/9_3.odb,Step-1,Increment      1: Step Time =    1.000,"PART-1-1",           108,       7.09093,       5.31052,            0.,NA,NA,"",       1.45907,      -1.42321,  -321.509E-03,   9.67540E-03
C:/temp/dataset/7/9_3.odb,Step-1,Increment      1: Step Time =    1.000,"PART-1-1",           109,       6.65187,      -5.22056,            0.,NA,NA,"",   717.409E-03,  -679.436E-03,  -230.309E-03,   10.5421E-03
C:/temp/dataset/7/9_3.odb,Step-1,Increment      1: Step Time =    1.000,"PART-1-1",           110,       7.26954,      -25.7037,            0.,NA,NA,"",   33.1356E-03,  -17.3732E-03,  -28.2159E-03,   8.06598E-03
C:/temp/dataset/7/9_3.odb,Step-1,Increment      1: Step Time =    1.000,"PART-1-1",           111,       7.53271,      -20.3934,            0.,NA,NA,"",   111.175E-03,  -92.6919E-03,  -61.3843E-03,   7.40616E-03
C:/temp/dataset/7/9_3.odb,Step-1,Increment      1: Step Time =    1.000,"PART-1-1",           112,       7.01178,       11.7341,            0.,NA,NA,"",       2.06295,      -2.02092,  -414.285E-03,   10.1173E-03
C:/temp/dataset/7/9_3.odb,Step-1,Increment      1: Step Time =    1.000,"PART-1-1",           113,       7.07643,       3.14767,            0.,NA,NA,"",       1.28145,      -1.24664,  -296.648E-03,   9.64871E-03
C:/temp/dataset/7/9_3.odb,Step-1,Increment      1: Step Time =    1.000,"PART-1-1",           114,       6.98190,      -10.9751,            0.,NA,NA,"",   420.564E-03,  -391.024E-03,  -154.837E-03,   9.33937E-03
C:/temp/dataset/7/9_3.odb,Step-1,Increment      1: Step Time =    1.000,"PART-1-1",           115,       13.1254,       22.8014,            0.,NA,NA,"",       3.38850,      -3.38177,   213.463E-03,   6.95007E-03
C:/temp/dataset/7/9_3.odb,Step-1,Increment      1: Step Time =    1.000,"PART-1-1",           116,       12.8923,      -4.74502,            0.,NA,NA,"",   726.081E-03,  -713.486E-03,   134.654E-03,   7.21397E-03
C:/temp/dataset/7/9_3.odb,Step-1,Increment      1: Step Time =    1.000,"PART-1-1",           117,       13.0513,      -12.4505,            0.,NA,NA,"",   348.184E-03,  -332.980E-03,   101.767E-03,   7.28985E-03
C:/temp/dataset/7/9_3.odb,Step-1,Increment      1: Step Time =    1.000,"PART-1-1",           118,       12.2427,       17.8341,            0.,NA,NA,"",       2.73030,      -2.72775,   118.061E-03,   6.22847E-03
C:/temp/dataset/7/9_3.odb,Step-1,Increment      1: Step Time =    1.000,"PART-1-1",           119,       13.0441,       9.90429,            0.,NA,NA,"",       1.87695,      -1.86605,   202.013E-03,   8.18810E-03
C:/temp/dataset/7/9_3.odb,Step-1,Increment      1: Step Time =    1.000,"PART-1-1",           120,       13.0522,       2.62582,            0.,NA,NA,"",       1.23531,      -1.22237,   178.344E-03,   7.96633E-03
C:/temp/dataset/7/9_3.odb,Step-1,Increment      1: Step Time =    1.000,"PART-1-1",           121,       13.2006,      -19.7745,            0.,NA,NA,"",   123.844E-03,  -107.182E-03,   62.0435E-03,   7.26800E-03
C:/temp/dataset/7/9_3.odb,Step-1,Increment      1: Step Time =    1.000,"PART-1-1",           122,       9.90112,      -27.6522,            0.,NA,NA,"",   2.22548E-03,  -33.6322E-06,  -2.22523E-03,   1.26602E-03
C:/temp/dataset/7/9_3.odb,Step-1,Increment      1: Step Time =    1.000,"PART-1-1",           123,       13.0591,      -22.1191,            0.,NA,NA,"",   75.9193E-03,  -61.1685E-03,   44.9683E-03,   6.76377E-03
C:/temp/dataset/7/9_3.odb,Step-1,Increment      1: Step Time =    1.000,"PART-1-1",           124,       13.1139,      -14.9356,            0.,NA,NA,"",   257.882E-03,  -241.879E-03,   89.4311E-03,   7.32359E-03
C:/temp/dataset/7/9_3.odb,Step-1,Increment      1: Step Time =    1.000,"PART-1-1",           125,       13.1678,      -17.3995,            0.,NA,NA,"",   182.899E-03,  -166.339E-03,   76.0505E-03,   7.32335E-03
C:/temp/dataset/7/9_3.odb,Step-1,Increment      1: Step Time =    1.000,"PART-1-1",           126,       12.7891,      -7.32383,            0.,NA,NA,"",   580.545E-03,  -568.697E-03,   116.684E-03,   6.81503E-03
C:/temp/dataset/7/9_3.odb,Step-1,Increment      1: Step Time =    1.000,"PART-1-1",           127,       12.9162,      -9.94117,            0.,NA,NA,"",   453.618E-03,  -440.120E-03,   109.831E-03,   7.04571E-03
C:/temp/dataset/7/9_3.odb,Step-1,Increment      1: Step Time =    1.000,"PART-1-1",           128,       13.0283,   193.158E-03,            0.,NA,NA,"",       1.05195,      -1.03874,   166.208E-03,   7.80476E-03
C:/temp/dataset/7/9_3.odb,Step-1,Increment      1: Step Time =    1.000,"PART-1-1",           129,       12.9794,      -2.25409,            0.,NA,NA,"",   882.798E-03,  -869.656E-03,   151.757E-03,   7.56518E-03
C:/temp/dataset/7/9_3.odb,Step-1,Increment      1: Step Time =    1.000,"PART-1-1",           130,       13.0689,       7.48049,            0.,NA,NA,"",       1.64783,      -1.63596,   197.417E-03,   8.18395E-03
C:/temp/dataset/7/9_3.odb,Step-1,Increment      1: Step Time =    1.000,"PART-1-1",           131,       13.0764,       5.05734,            0.,NA,NA,"",       1.43432,      -1.42171,   189.765E-03,   8.12454E-03
C:/temp/dataset/7/9_3.odb,Step-1,Increment      1: Step Time =    1.000,"PART-1-1",           132,       12.6962,       14.9270,            0.,NA,NA,"",       2.39818,      -2.39195,   172.764E-03,   7.24666E-03
C:/temp/dataset/7/9_3.odb,Step-1,Increment      1: Step Time =    1.000,"PART-1-1",           133,       12.9459,       12.3607,            0.,NA,NA,"",       2.12420,      -2.11502,   197.270E-03,   7.95701E-03
C:/temp/dataset/7/9_3.odb,Step-1,Increment      1: Step Time =    1.000,"PART-1-1",           134,       12.9476,       20.4489,            0.,NA,NA,"",       3.07199,      -3.06556,   198.697E-03,   7.66336E-03
C:/temp/dataset/7/9_3.odb,Step-1,Increment      1: Step Time =    1.000,"PART-1-1",           135,       13.1802,       25.1793,            0.,NA,NA,"",       3.71547,      -3.70970,   207.015E-03,   5.37379E-03
C:/temp/dataset/7/9_3.odb,Step-1,Increment      1: Step Time =    1.000,"PART-1-1",           136,      -12.4062,       24.9250,            0.,NA,NA,"",       4.97575,      -3.39376,      -3.63875,   2.44435E-03
C:/temp/dataset/7/9_3.odb,Step-1,Increment      1: Step Time =    1.000,"PART-1-1",           137,       11.3078,       25.3904,            0.,NA,NA,"",       3.72208,      -3.72188,  -39.0256E-03,   6.57884E-03
C:/temp/dataset/7/9_3.odb,Step-1,Increment      1: Step Time =    1.000,"PART-1-1",           138,      -10.1009,       25.2443,            0.,NA,NA,"",       4.76742,      -3.47617,      -3.26259,   3.02645E-03
C:/temp/dataset/7/9_3.odb,Step-1,Increment      1: Step Time =    1.000,"PART-1-1",           139,      -4.83291,       26.5053,            0.,NA,NA,"",       4.45691,      -3.74541,      -2.41577,   3.13833E-03
C:/temp/dataset/7/9_3.odb,Step-1,Increment      1: Step Time =    1.000,"PART-1-1",           140,       1.72347,       26.1851,            0.,NA,NA,"",       4.01027,      -3.76601,      -1.37817,   3.54512E-03
C:/temp/dataset/7/9_3.odb,Step-1,Increment      1: Step Time =    1.000,"PART-1-1",           141,       6.12189,       25.7754,            0.,NA,NA,"",       3.81070,      -3.73984,  -731.441E-03,   5.36521E-03
C:/temp/dataset/7/9_3.odb,Step-1,Increment      1: Step Time =    1.000,"PART-1-1",           142,       7.62725,       25.7499,            0.,NA,NA,"",       3.78241,      -3.74569,  -525.794E-03,   6.25896E-03
C:/temp/dataset/7/9_3.odb,Step-1,Increment      1: Step Time =    1.000,"PART-1-1",           143,       3.76931,       25.0880,            0.,NA,NA,"",       3.77487,      -3.62363,      -1.05778,   3.90583E-03
C:/temp/dataset/7/9_3.odb,Step-1,Increment      1: Step Time =    1.000,"PART-1-1",           144,  -231.428E-03,       26.1188,            0.,NA,NA,"",       4.09656,      -3.73689,      -1.67851,   3.46156E-03
C:/temp/dataset/7/9_3.odb,Step-1,Increment      1: Step Time =    1.000,"PART-1-1",           145,      -2.48530,       25.9891,            0.,NA,NA,"",       4.21450,      -3.69227,      -2.03204,   3.17263E-03
C:/temp/dataset/7/9_3.odb,Step-1,Increment      1: Step Time =    1.000,"PART-1-1",           146,      -3.63425,       26.9302,            0.,NA,NA,"",       4.42715,      -3.82563,      -2.22805,   3.52584E-03
C:/temp/dataset/7/9_3.odb,Step-1,Increment      1: Step Time =    1.000,"PART-1-1",           147,      -8.31738,       25.8431,            0.,NA,NA,"",       4.66814,      -3.59626,      -2.97632,   2.96573E-03
C:/temp/dataset/7/9_3.odb,Step-1,Increment      1: Step Time =    1.000,"PART-1-1",           148,       9.04714,   705.037E-03,            0.,NA,NA,"",       1.06865,      -1.06149,  -123.486E-03,   3.79886E-03
C:/temp/dataset/7/9_3.odb,Step-1,Increment      1: Step Time =    1.000,"PART-1-1",           149,       7.85197,      -7.06885,            0.,NA,NA,"",   593.363E-03,  -575.161E-03,  -145.840E-03,   7.06659E-03
C:/temp/dataset/7/9_3.odb,Step-1,Increment      1: Step Time =    1.000,"PART-1-1",           150,       8.74205,      -22.9842,            0.,NA,NA,"",   51.3940E-03,  -44.6239E-03,  -25.4961E-03,   4.29328E-03
C:/temp/dataset/7/9_3.odb,Step-1,Increment      1: Step Time =    1.000,"PART-1-1",           151,       9.28078,      -15.1075,            0.,NA,NA,"",   233.524E-03,  -230.035E-03,  -40.2184E-03,   2.97388E-03
C:/temp/dataset/7/9_3.odb,Step-1,Increment      1: Step Time =    1.000,"PART-1-1",           152,       8.97855,      -1.55139,            0.,NA,NA,"",   911.188E-03,  -903.911E-03,  -114.936E-03,   3.97284E-03
C:/temp/dataset/7/9_3.odb,Step-1,Increment      1: Step Time =    1.000,"PART-1-1",           153,       9.09422,       9.69450,            0.,NA,NA,"",       1.83184,      -1.82271,  -182.625E-03,   3.80671E-03
C:/temp/dataset/7/9_3.odb,Step-1,Increment      1: Step Time =    1.000,"PART-1-1",           154,       8.44946,       15.5970,            0.,NA,NA,"",       2.45642,      -2.43697,  -308.492E-03,   5.38247E-03
C:/temp/dataset/7/9_3.odb,Step-1,Increment      1: Step Time =    1.000,"PART-1-1",           155,       9.11701,       7.46178,            0.,NA,NA,"",       1.62181,      -1.61359,  -163.124E-03,   3.68326E-03
C:/temp/dataset/7/9_3.odb,Step-1,Increment      1: Step Time =    1.000,"PART-1-1",           156,       8.83101,       13.9442,            0.,NA,NA,"",       2.27041,      -2.25679,  -248.330E-03,   4.66384E-03
C:/temp/dataset/7/9_3.odb,Step-1,Increment      1: Step Time =    1.000,"PART-1-1",           157,       9.61385,      -19.9311,            0.,NA,NA,"",   100.225E-03,  -98.5363E-03,  -18.3212E-03,   2.08224E-03
C:/temp/dataset/7/9_3.odb,Step-1,Increment      1: Step Time =    1.000,"PART-1-1",           158,       9.10031,       2.95854,            0.,NA,NA,"",       1.23942,      -1.23221,  -133.458E-03,   3.66856E-03
C:/temp/dataset/7/9_3.odb,Step-1,Increment      1: Step Time =    1.000,"PART-1-1",           159,       9.17986,      -12.8049,            0.,NA,NA,"",   316.643E-03,  -312.379E-03,  -51.7879E-03,   3.27193E-03
C:/temp/dataset/7/9_3.odb,Step-1,Increment      1: Step Time =    1.000,"PART-1-1",           160,       8.54844,      -8.43147,            0.,NA,NA,"",   514.709E-03,  -504.792E-03,  -100.552E-03,   5.07350E-03
C:/temp/dataset/7/9_3.odb,Step-1,Increment      1: Step Time =    1.000,"PART-1-1",           161,       8.46228,      -5.79934,            0.,NA,NA,"",   654.575E-03,  -643.268E-03,  -121.140E-03,   5.36801E-03
C:/temp/dataset/7/9_3.odb,Step-1,Increment      1: Step Time =    1.000,"PART-1-1",           162,       8.97830,      -10.5487,            0.,NA,NA,"",   411.549E-03,  -405.662E-03,  -69.3585E-03,   3.84991E-03
C:/temp/dataset/7/9_3.odb,Step-1,Increment      1: Step Time =    1.000,"PART-1-1",           163,       8.84007,      -3.76868,            0.,NA,NA,"",   770.022E-03,  -761.966E-03,  -111.093E-03,   4.33791E-03
C:/temp/dataset/7/9_3.odb,Step-1,Increment      1: Step Time =    1.000,"PART-1-1",           164,       9.12644,       5.21383,            0.,NA,NA,"",       1.42402,      -1.41649,  -146.238E-03,   3.61866E-03
C:/temp/dataset/7/9_3.odb,Step-1,Increment      1: Step Time =    1.000,"PART-1-1",           165,       9.36869,      -17.5094,            0.,NA,NA,"",   160.626E-03,  -157.734E-03,  -30.3420E-03,   2.72154E-03
C:/temp/dataset/7/9_3.odb,Step-1,Increment      1: Step Time =    1.000,"PART-1-1",           166,       9.01212,       11.8707,            0.,NA,NA,"",       2.04993,      -2.03921,  -209.467E-03,   4.10604E-03
C:/temp/dataset/7/9_3.odb,Step-1,Increment      1: Step Time =    1.000,"PART-1-1",           167,       9.60003,       16.9835,            0.,NA,NA,"",       2.60918,      -2.60233,  -189.016E-03,   1.70527E-03
C:/temp/dataset/7/9_3.odb,Step-1,Increment      1: Step Time =    1.000,"PART-1-1",           168,       7.13047,       19.6676,            0.,NA,NA,"",       2.95193,      -2.90642,  -516.352E-03,   6.54153E-03
C:/temp/dataset/7/9_3.odb,Step-1,Increment      1: Step Time =    1.000,"PART-1-1",           169,       9.55406,      -25.2995,            0.,NA,NA,"",   17.9650E-03,  -15.8771E-03,  -8.40573E-03,   2.21890E-03
C:/temp/dataset/7/9_3.odb,Step-1,Increment      1: Step Time =    1.000,"PART-1-1",           170,       12.3800,      -27.4389,            0.,NA,NA,"",   10.6966E-03,  -3.46410E-03,   10.1201E-03,   5.21352E-03
C:/temp/dataset/7/9_3.odb,Step-1,Increment      1: Step Time =    1.000,"PART-1-1",           171,      -11.9351,       22.4166,            0.,NA,NA,"",       4.62723,      -2.99499,      -3.52722,   1.78086E-03
C:/temp/dataset/7/9_3.odb,Step-1,Increment      1: Step Time =    1.000,"PART-1-1",           172,       10.9842,      -1.93535,            0.,NA,NA,"",   882.284E-03,  -882.038E-03,   20.8324E-03,   1.85719E-03
C:/temp/dataset/7/9_3.odb,Step-1,Increment      1: Step Time =    1.000,"PART-1-1",           173,       11.2234,      -14.9909,            0.,NA,NA,"",   236.169E-03,  -234.810E-03,   25.2978E-03,   2.28934E-03
C:/temp/dataset/7/9_3.odb,Step-1,Increment      1: Step Time =    1.000,"PART-1-1",           174,       11.0574,       21.1283,            0.,NA,NA,"",       3.13505,      -3.13480,  -39.2038E-03,   6.15063E-03
C:/temp/dataset/7/9_3.odb,Step-1,Increment      1: Step Time =    1.000,"PART-1-1",           175,       10.7466,       19.4847,            0.,NA,NA,"",       2.91870,      -2.91790,  -68.1841E-03,   4.56737E-03
C:/temp/dataset/7/9_3.odb,Step-1,Increment      1: Step Time =    1.000,"PART-1-1",           176,       11.0568,   433.028E-03,            0.,NA,NA,"",       1.04675,      -1.04647,   24.3409E-03,   2.09304E-03
C:/temp/dataset/7/9_3.odb,Step-1,Increment      1: Step Time =    1.000,"PART-1-1",           177,       10.9662,       12.1205,            0.,NA,NA,"",       2.07466,      -2.07465,  -8.56000E-03,   1.85548E-03
C:/temp/dataset/7/9_3.odb,Step-1,Increment      1: Step Time =    1.000,"PART-1-1",           178,       11.6216,      -21.4567,            0.,NA,NA,"",   72.8140E-03,  -69.3227E-03,   22.2765E-03,   3.14616E-03
C:/temp/dataset/7/9_3.odb,Step-1,Increment      1: Step Time =    1.000,"PART-1-1",           179,       11.2975,      -17.3958,            0.,NA,NA,"",   163.296E-03,  -161.569E-03,   23.6873E-03,   2.42696E-03
C:/temp/dataset/7/9_3.odb,Step-1,Increment      1: Step Time =    1.000,"PART-1-1",           180,       10.6273,       14.4803,            0.,NA,NA,"",       2.32568,      -2.32502,  -55.3978E-03,   966.608E-06
C:/temp/dataset/7/9_3.odb,Step-1,Increment      1: Step Time =    1.000,"PART-1-1",           181,       11.1012,       2.78293,            0.,NA,NA,"",       1.22442,      -1.22415,   25.5445E-03,   2.25067E-03
C:/temp/dataset/7/9_3.odb,Step-1,Increment      1: Step Time =    1.000,"PART-1-1",           182,       11.1153,       7.46695,            0.,NA,NA,"",       1.62202,      -1.62190,   19.4127E-03,   2.32474E-03
C:/temp/dataset/7/9_3.odb,Step-1,Increment      1: Step Time =    1.000,"PART-1-1",           183,       11.1247,      -12.5851,            0.,NA,NA,"",   322.971E-03,  -322.023E-03,   24.7277E-03,   2.07654E-03
C:/temp/dataset/7/9_3.odb,Step-1,Increment      1: Step Time =    1.000,"PART-1-1",           184,       10.4094,      -7.19663,            0.,NA,NA,"",   568.291E-03,  -568.223E-03,  -8.82426E-03,   373.572E-06
C:/temp/dataset/7/9_3.odb,Step-1,Increment      1: Step Time =    1.000,"PART-1-1",           185,       10.4303,      -22.2648,            0.,NA,NA,"",   54.2928E-03,  -54.2926E-03,   134.852E-06,   412.305E-06
C:/temp/dataset/7/9_3.odb,Step-1,Increment      1: Step Time =    1.000,"PART-1-1",           186,       10.9130,      -10.1038,            0.,NA,NA,"",   426.980E-03,  -426.624E-03,   17.4191E-03,   1.55222E-03
C:/temp/dataset/7/9_3.odb,Step-1,Increment      1: Step Time =    1.000,"PART-1-1",           187,       10.8491,      -4.38491,            0.,NA,NA,"",   727.356E-03,  -727.229E-03,   13.5754E-03,   1.44590E-03
C:/temp/dataset/7/9_3.odb,Step-1,Increment      1: Step Time =    1.000,"PART-1-1",           188,       11.1275,       5.13070,            0.,NA,NA,"",       1.41648,      -1.41627,   24.6685E-03,   2.35077E-03
C:/temp/dataset/7/9_3.odb,Step-1,Increment      1: Step Time =    1.000,"PART-1-1",           189,       11.0819,       9.79848,            0.,NA,NA,"",       1.84169,      -1.84166,   10.6225E-03,   2.21651E-03
C:/temp/dataset/7/9_3.odb,Step-1,Increment      1: Step Time =    1.000,"PART-1-1",           190,       12.1026,      -24.5603,            0.,NA,NA,"",   31.6548E-03,  -24.9456E-03,   19.4870E-03,   4.32742E-03
C:/temp/dataset/7/9_3.odb,Step-1,Increment      1: Step Time =    1.000,"PART-1-1",           191,      -7.61069,       24.2264,            0.,NA,NA,"",       4.38973,      -3.34765,      -2.83953,   3.06257E-03
C:/temp/dataset/7/9_3.odb,Step-1,Increment      1: Step Time =    1.000,"PART-1-1",           192,      -5.77678,       24.2650,            0.,NA,NA,"",       4.22815,      -3.37968,      -2.54067,   3.10838E-03
C:/temp/dataset/7/9_3.odb,Step-1,Increment      1: Step Time =    1.000,"PART-1-1",           193,       1.00958,       23.8763,            0.,NA,NA,"",       3.71358,      -3.41472,      -1.45957,   3.55778E-03
C:/temp/dataset/7/9_3.odb,Step-1,Increment      1: Step Time =    1.000,"PART-1-1",           194,      -3.86757,       24.8145,            0.,NA,NA,"",       4.14838,      -3.49244,      -2.23873,   3.07508E-03
C:/temp/dataset/7/9_3.odb,Step-1,Increment      1: Step Time =    1.000,"PART-1-1",           195,  -996.969E-03,       24.6602,            0.,NA,NA,"",       3.93271,      -3.50647,      -1.78070,   3.18882E-03
C:/temp/dataset/7/9_3.odb,Step-1,Increment      1: Step Time =    1.000,"PART-1-1",           196,       7.19995,       21.7613,            0.,NA,NA,"",       3.22648,      -3.18237,  -531.707E-03,   7.54525E-03
C:/temp/dataset/7/9_3.odb,Step-1,Increment      1: Step Time =    1.000,"PART-1-1",           197,       2.92747,       22.7842,            0.,NA,NA,"",       3.47732,      -3.27948,      -1.15620,   7.22086E-03
C:/temp/dataset/7/9_3.odb,Step-1,Increment      1: Step Time =    1.000,"PART-1-1",           198,       5.53232,       24.2100,            0.,NA,NA,"",       3.60067,      -3.51244,  -792.235E-03,   4.55355E-03
C:/temp/dataset/7/9_3.odb,Step-1,Increment      1: Step Time =    1.000,"PART-1-1",           199,       9.18626,       19.3402,            0.,NA,NA,"",       2.89567,      -2.88417,  -257.790E-03,   3.53855E-03
C:/temp/dataset/7/9_3.odb,Step-1,Increment      1: Step Time =    1.000,"PART-1-1",           200,       11.2321,       23.1770,            0.,NA,NA,"",       3.41410,      -3.41396,  -30.7727E-03,   7.10975E-03
C:/temp/dataset/7/9_3.odb,Step-1,Increment      1: Step Time =    1.000,"PART-1-1",           201,       5.11021,       22.1378,            0.,NA,NA,"",       3.31835,      -3.21485,  -822.319E-03,   7.40330E-03
C:/temp/dataset/7/9_3.odb,Step-1,Increment      1: Step Time =    1.000,"PART-1-1",           202,   167.280E-03,       22.2372,            0.,NA,NA,"",       3.52519,      -3.15464,      -1.57328,   6.10967E-03
C:/temp/dataset/7/9_3.odb,Step-1,Increment      1: Step Time =    1.000,"PART-1-1",           203,      -2.32264,       22.6339,            0.,NA,NA,"",       3.73525,      -3.17500,      -1.96760,   4.19468E-03
C:/temp/dataset/7/9_3.odb,Step-1,Increment      1: Step Time =    1.000,"PART-1-1",           204,       9.17324,       21.4477,            0.,NA,NA,"",       3.17059,      -3.15849,  -276.714E-03,   6.16739E-03
C:/temp/dataset/7/9_3.odb,Step-1,Increment      1: Step Time =    1.000,"PART-1-1",           205,       9.43619,       25.5889,            0.,NA,NA,"",       3.74596,      -3.73514,  -284.508E-03,   6.98215E-03
C:/temp/dataset/7/9_3.odb,Step-1,Increment      1: Step Time =    1.000,"PART-1-1",           206,      -5.39738,       22.2321,            0.,NA,NA,"",       3.92559,      -3.06299,      -2.45527,   3.57836E-03
C:/temp/dataset/7/9_3.odb,Step-1,Increment      1: Step Time =    1.000,"PART-1-1",           207,      -8.66915,       22.6604,            0.,NA,NA,"",       4.29619,      -3.08145,      -2.99365,   2.86576E-03
C:/temp/dataset/7/9_3.odb,Step-1,Increment      1: Step Time =    1.000,"PART-1-1",           208,      -12.8188,       27.4435,            0.,NA,NA,"",       5.33171,      -3.79608,      -3.74392,   2.89680E-03
C:/temp/dataset/7/9_3.odb,Step-1,Increment      1: Step Time =    1.000,"PART-1-1",           209,       7.43992,       23.7550,            0.,NA,NA,"",       3.50178,      -3.46213,  -525.477E-03,   6.86349E-03
C:/temp/dataset/7/9_3.odb,Step-1,Increment      1: Step Time =    1.000,"PART-1-1",           210,      -6.48406,       26.1481,            0.,NA,NA,"",       4.54311,      -3.66871,      -2.67963,   2.97470E-03
C:/temp/dataset/7/9_3.odb,Step-1,Increment      1: Step Time =    1.000,"PART-1-1",           211,       3.18484,       28.0088,            0.,NA,NA,"",       4.21423,      -4.04458,      -1.18368,   6.42678E-03
C:/temp/dataset/7/9_3.odb,Step-1,Increment      1: Step Time =    1.000,"PART-1-1",           212,       11.4304,      -19.6429,            0.,NA,NA,"",   108.070E-03,  -105.670E-03,   22.6509E-03,   2.69826E-03
C:/temp/dataset/7/9_3.odb,Step-1,Increment      1: Step Time =    1.000,"PART-1-1",           213,       9.33060,       23.4727,            0.,NA,NA,"",       3.44883,      -3.43776,  -276.001E-03,   7.29168E-03
C:/temp/dataset/7/9_3.odb,Step-1,Increment      1: Step Time =    1.000,"PART-1-1",           214,      -12.1707,       23.6708,            0.,NA,NA,"",       4.80011,      -3.19454,      -3.58274,   2.06483E-03
C:/temp/dataset/7/9_3.odb,Step-1,Increment      1: Step Time =    1.000,"PART-1-1",           215,      -13.7031,       24.9625,            0.,NA,NA,"",       5.12695,      -3.38287,      -3.85251,   1.84820E-03
C:/temp/dataset/7/9_3.odb,Step-1,Increment      1: Step Time =    1.000,"PART-1-1",           216,          -15.,         23.75,            0.,NA,NA,"",       5.14050,      -3.17003,      -4.04669,   1.06707E-03
C:/temp/dataset/7/9_3.odb,Step-1,Increment      1: Step Time =    1.000,"PART-1-1",           217,      -13.4675,       22.4583,            0.,NA,NA,"",       4.81313,      -2.98083,      -3.77901,   944.877E-06
C:/temp/dataset/7/9_3.odb,Step-1,Increment      1: Step Time =    1.000,"PART-1-1",           218,      -9.86170,       27.7278,            0.,NA,NA,"",       5.06572,      -3.87976,      -3.25715,   2.68061E-03
C:/temp/dataset/7/9_3.odb,Step-1,Increment      1: Step Time =    1.000,"PART-1-1",           219,      -10.4490,       26.4258,            0.,NA,NA,"",       4.95366,      -3.66172,      -3.33625,   2.82357E-03
C:/temp/dataset/7/9_3.odb,Step-1,Increment      1: Step Time =    1.000,"PART-1-1",           220,      -9.20914,       25.5437,            0.,NA,NA,"",       4.71549,      -3.53632,      -3.11934,   2.99460E-03
C:/temp/dataset/7/9_3.odb,Step-1,Increment      1: Step Time =    1.000,"PART-1-1",           221,      -8.62185,       26.8458,            0.,NA,NA,"",       4.82976,      -3.75313,      -3.03983,   2.72081E-03
C:/temp/dataset/7/9_3.odb,Step-1,Increment      1: Step Time =    1.000,"PART-1-1",           222,      -9.15066,       28.9242,            0.,NA,NA,"",       5.16089,      -4.08323,      -3.15626,   2.42064E-03
C:/temp/dataset/7/9_3.odb,Step-1,Increment      1: Step Time =    1.000,"PART-1-1",           223,      -10.3125,           30.,            0.,NA,NA,"",       5.41828,      -4.24683,      -3.36485,   2.64065E-03
C:/temp/dataset/7/9_3.odb,Step-1,Increment      1: Step Time =    1.000,"PART-1-1",           224,      -11.0235,       28.8036,            0.,NA,NA,"",       5.32318,      -4.04015,      -3.46604,   2.73423E-03
C:/temp/dataset/7/9_3.odb,Step-1,Increment      1: Step Time =    1.000,"PART-1-1",           225,      -11.2536,       25.0847,            0.,NA,NA,"",       4.86898,      -3.43490,      -3.45085,   2.67675E-03
C:/temp/dataset/7/9_3.odb,Step-1,Increment      1: Step Time =    1.000,"PART-1-1",           226,      -10.3021,       22.5385,            0.,NA,NA,"",       4.45636,      -3.03792,      -3.26040,   2.32554E-03
C:/temp/dataset/7/9_3.odb,Step-1,Increment      1: Step Time =    1.000,"PART-1-1",           227,      -9.38503,       23.9523,            0.,NA,NA,"",       4.53115,      -3.27861,      -3.12762,   2.81674E-03
C:/temp/dataset/7/9_3.odb,Step-1,Increment      1: Step Time =    1.000,"PART-1-1",           228,      -12.9719,       28.7217,            0.,NA,NA,"",       5.51230,      -4.00315,      -3.78949,   2.96812E-03
C:/temp/dataset/7/9_3.odb,Step-1,Increment      1: Step Time =    1.000,"PART-1-1",           229,      -14.0625,           30.,            0.,NA,NA,"",       5.79286,      -4.19953,      -3.99014,   3.03023E-03
C:/temp/dataset/7/9_3.odb,Step-1,Increment      1: Step Time =    1.000,"PART-1-1",           230,          -15.,         28.75,            0.,NA,NA,"",       5.73340,      -3.98295,      -4.12407,   3.09179E-03
C:/temp/dataset/7/9_3.odb,Step-1,Increment      1: Step Time =    1.000,"PART-1-1",           231,      -13.9094,       27.4717,            0.,NA,NA,"",       5.45367,      -3.78726,      -3.92418,   2.80729E-03
C:/temp/dataset/7/9_3.odb,Step-1,Increment      1: Step Time =    1.000,"PART-1-1",           232,      -7.40072,       25.9956,            0.,NA,NA,"",       4.60349,      -3.63267,      -2.82769,   2.94758E-03
C:/temp/dataset/7/9_3.odb,Step-1,Increment      1: Step Time =    1.000,"PART-1-1",           233,      -7.96404,       25.0347,            0.,NA,NA,"",       4.52857,      -3.47175,      -2.90773,   2.97437E-03
C:/temp/dataset/7/9_3.odb,Step-1,Increment      1: Step Time =    1.000,"PART-1-1",           234,      -6.69374,       24.2457,            0.,NA,NA,"",       4.30691,      -3.36371,      -2.68979,   3.06488E-03
C:/temp/dataset/7/9_3.odb,Step-1,Increment      1: Step Time =    1.000,"PART-1-1",           235,      -6.13042,       25.2066,            0.,NA,NA,"",       4.38514,      -3.52393,      -2.60986,   2.88984E-03
C:/temp/dataset/7/9_3.odb,Step-1,Increment      1: Step Time =    1.000,"PART-1-1",           236,      -5.46940,       29.1125,            0.,NA,NA,"",       4.87568,      -4.15231,      -2.55551,   4.45892E-03
C:/temp/dataset/7/9_3.odb,Step-1,Increment      1: Step Time =    1.000,"PART-1-1",           237,      -4.41178,       28.2246,            0.,NA,NA,"",       4.66813,      -4.02105,      -2.37120,   4.24243E-03
C:/temp/dataset/7/9_3.odb,Step-1,Increment      1: Step Time =    1.000,"PART-1-1",           238,      -3.62988,       29.1121,            0.,NA,NA,"",       4.74063,      -4.16821,      -2.25823,   5.51350E-03
C:/temp/dataset/7/9_3.odb,Step-1,Increment      1: Step Time =    1.000,"PART-1-1",           239,       -4.6875,           30.,            0.,NA,NA,"",       4.94623,      -4.30120,      -2.44230,   5.92521E-03
C:/temp/dataset/7/9_3.odb,Step-1,Increment      1: Step Time =    1.000,"PART-1-1",           240,  -467.629E-03,       27.9420,            0.,NA,NA,"",       4.37225,      -4.01129,      -1.73957,   5.46212E-03
C:/temp/dataset/7/9_3.odb,Step-1,Increment      1: Step Time =    1.000,"PART-1-1",           241,  -845.263E-03,       26.9234,            0.,NA,NA,"",       4.24627,      -3.85295,      -1.78483,   4.03136E-03
C:/temp/dataset/7/9_3.odb,Step-1,Increment      1: Step Time =    1.000,"PART-1-1",           242,   746.021E-03,       26.1520,            0.,NA,NA,"",       4.05078,      -3.75178,      -1.52741,   3.48543E-03
C:/temp/dataset/7/9_3.odb,Step-1,Increment      1: Step Time =    1.000,"PART-1-1",           243,       1.12365,       27.1705,            0.,NA,NA,"",       4.17924,      -3.90739,      -1.48270,   4.75760E-03
C:/temp/dataset/7/9_3.odb,Step-1,Increment      1: Step Time =    1.000,"PART-1-1",           244,       14.0901,       25.0896,            0.,NA,NA,"",       3.72118,      -3.70668,   328.157E-03,   4.46988E-03
C:/temp/dataset/7/9_3.odb,Step-1,Increment      1: Step Time =    1.000,"PART-1-1",           245,       13.1528,       23.9903,            0.,NA,NA,"",       3.55131,      -3.54504,   210.926E-03,   6.09953E-03
C:/temp/dataset/7/9_3.odb,Step-1,Increment      1: Step Time =    1.000,"PART-1-1",           246,       14.0627,       22.6507,            0.,NA,NA,"",       3.38855,      -3.37191,   335.481E-03,   7.57752E-03
C:/temp/dataset/7/9_3.odb,Step-1,Increment      1: Step Time =    1.000,"PART-1-1",           247,           15.,         23.75,            0.,NA,NA,"",       3.56237,      -3.53295,   456.877E-03,   6.84260E-03
C:/temp/dataset/7/9_3.odb,Step-1,Increment      1: Step Time =    1.000,"PART-1-1",           248,       11.2764,       28.8302,            0.,NA,NA,"",       4.19827,      -4.19757,  -76.4917E-03,   3.25117E-03
C:/temp/dataset/7/9_3.odb,Step-1,Increment      1: Step Time =    1.000,"PART-1-1",           249,       10.3125,           30.,            0.,NA,NA,"",       4.35439,      -4.34899,  -216.761E-03,   4.03897E-03
C:/temp/dataset/7/9_3.odb,Step-1,Increment      1: Step Time =    1.000,"PART-1-1",           250,       9.39543,       28.8642,            0.,NA,NA,"",       4.20388,      -4.19118,  -326.510E-03,   5.16149E-03
C:/temp/dataset/7/9_3.odb,Step-1,Increment      1: Step Time =    1.000,"PART-1-1",           251,       10.3594,       27.6945,            0.,NA,NA,"",       4.03990,      -4.03562,  -185.817E-03,   5.33559E-03
C:/temp/dataset/7/9_3.odb,Step-1,Increment      1: Step Time =    1.000,"PART-1-1",           252,        8.4375,           30.,            0.,NA,NA,"",       4.36664,      -4.34141,  -468.722E-03,   6.95590E-03
C:/temp/dataset/7/9_3.odb,Step-1,Increment      1: Step Time =    1.000,"PART-1-1",           253,       7.48312,       28.8587,            0.,NA,NA,"",       4.22306,      -4.18244,  -584.303E-03,   6.94087E-03
C:/temp/dataset/7/9_3.odb,Step-1,Increment      1: Step Time =    1.000,"PART-1-1",           254,       8.44105,       27.7230,            0.,NA,NA,"",       4.05250,      -4.02846,  -440.726E-03,   6.02598E-03
C:/temp/dataset/7/9_3.odb,Step-1,Increment      1: Step Time =    1.000,"PART-1-1",           255,       13.0365,       21.6252,            0.,NA,NA,"",       3.22862,      -3.22200,   206.606E-03,   7.24116E-03
C:/temp/dataset/7/9_3.odb,Step-1,Increment      1: Step Time =    1.000,"PART-1-1",           256,       13.9738,       20.2245,            0.,NA,NA,"",       3.06591,      -3.04841,   327.174E-03,   9.85084E-03
C:/temp/dataset/7/9_3.odb,Step-1,Increment      1: Step Time =    1.000,"PART-1-1",           257,           15.,         21.25,            0.,NA,NA,"",       3.22888,      -3.19608,   459.074E-03,   10.8461E-03
C:/temp/dataset/7/9_3.odb,Step-1,Increment      1: Step Time =    1.000,"PART-1-1",           258,       6.90015,       14.7921,            0.,NA,NA,"",       2.39047,      -2.34344,  -471.838E-03,   10.6794E-03
C:/temp/dataset/7/9_3.odb,Step-1,Increment      1: Step Time =    1.000,"PART-1-1",           259,       5.93474,       15.8126,            0.,NA,NA,"",       2.52698,      -2.45533,  -597.501E-03,   13.5008E-03
C:/temp/dataset/7/9_3.odb,Step-1,Increment      1: Step Time =    1.000,"PART-1-1",           260,            5.,       14.7917,            0.,NA,NA,"",       2.44054,      -2.34301,  -683.013E-03,   15.8712E-03
C:/temp/dataset/7/9_3.odb,Step-1,Increment      1: Step Time =    1.000,"PART-1-1",           261,       5.96541,       13.7711,            0.,NA,NA,"",       2.30112,      -2.23256,  -557.507E-03,   13.2353E-03
C:/temp/dataset/7/9_3.odb,Step-1,Increment      1: Step Time =    1.000,"PART-1-1",           262,       7.07741,       8.55300,            0.,NA,NA,"",       1.74949,      -1.71120,  -364.055E-03,   9.81147E-03
C:/temp/dataset/7/9_3.odb,Step-1,Increment      1: Step Time =    1.000,"PART-1-1",           263,       6.03400,       9.60662,            0.,NA,NA,"",       1.87369,      -1.81123,  -479.747E-03,   12.9798E-03
C:/temp/dataset/7/9_3.odb,Step-1,Increment      1: Step Time =    1.000,"PART-1-1",           264,            5.,       8.54167,            0.,NA,NA,"",       1.80234,      -1.71301,  -560.374E-03,   16.0644E-03
C:/temp/dataset/7/9_3.odb,Step-1,Increment      1: Step Time =    1.000,"PART-1-1",           265,       6.04341,       7.48805,            0.,NA,NA,"",       1.67466,      -1.61446,  -444.976E-03,   12.8920E-03
C:/temp/dataset/7/9_3.odb,Step-1,Increment      1: Step Time =    1.000,"PART-1-1",           266,            5.,         4.375,            0.,NA,NA,"",       1.43440,      -1.35012,  -484.440E-03,   15.8880E-03
C:/temp/dataset/7/9_3.odb,Step-1,Increment      1: Step Time =    1.000,"PART-1-1",           267,       6.03822,       3.24050,            0.,NA,NA,"",       1.31241,      -1.25585,  -381.156E-03,   12.7398E-03
C:/temp/dataset/7/9_3.odb,Step-1,Increment      1: Step Time =    1.000,"PART-1-1",           268,       7.08368,       4.22909,            0.,NA,NA,"",       1.36870,      -1.33338,  -308.955E-03,   9.66197E-03
C:/temp/dataset/7/9_3.odb,Step-1,Increment      1: Step Time =    1.000,"PART-1-1",           269,       6.04546,       5.36359,            0.,NA,NA,"",       1.48735,      -1.42912,  -412.080E-03,   12.8088E-03
C:/temp/dataset/7/9_3.odb,Step-1,Increment      1: Step Time =    1.000,"PART-1-1",           270,            5.,       2.29167,            0.,NA,NA,"",       1.26767,      -1.18578,  -448.219E-03,   15.7702E-03
C:/temp/dataset/7/9_3.odb,Step-1,Increment      1: Step Time =    1.000,"PART-1-1",           271,       6.01828,       1.12309,            0.,NA,NA,"",       1.15013,      -1.09484,  -352.306E-03,   12.6994E-03
C:/temp/dataset/7/9_3.odb,Step-1,Increment      1: Step Time =    1.000,"PART-1-1",           272,       7.05649,       2.07193,            0.,NA,NA,"",       1.19797,      -1.16342,  -285.626E-03,   9.67010E-03
C:/temp/dataset/7/9_3.odb,Step-1,Increment      1: Step Time =    1.000,"PART-1-1",           273,       7.00178,  -77.9012E-03,            0.,NA,NA,"",       1.04058,      -1.00624,  -265.122E-03,   9.75196E-03
C:/temp/dataset/7/9_3.odb,Step-1,Increment      1: Step Time =    1.000,"PART-1-1",           274,            5.,   208.333E-03,            0.,NA,NA,"",       1.11230,      -1.03274,  -413.106E-03,   15.6423E-03
C:/temp/dataset/7/9_3.odb,Step-1,Increment      1: Step Time =    1.000,"PART-1-1",           275,       5.98350,  -992.661E-03,            0.,NA,NA,"",       1.00006,  -945.662E-03,  -325.345E-03,   12.6942E-03
C:/temp/dataset/7/9_3.odb,Step-1,Increment      1: Step Time =    1.000,"PART-1-1",           276,       6.59145,      -6.15040,            0.,NA,NA,"",   666.195E-03,  -627.605E-03,  -223.446E-03,   10.6767E-03
C:/temp/dataset/7/9_3.odb,Step-1,Increment      1: Step Time =    1.000,"PART-1-1",           277,       5.82593,      -5.11028,            0.,NA,NA,"",   743.392E-03,  -688.704E-03,  -279.853E-03,   12.9108E-03
C:/temp/dataset/7/9_3.odb,Step-1,Increment      1: Step Time =    1.000,"PART-1-1",           278,            5.,      -6.04167,            0.,NA,NA,"",   713.169E-03,  -640.386E-03,  -313.874E-03,   15.2132E-03
C:/temp/dataset/7/9_3.odb,Step-1,Increment      1: Step Time =    1.000,"PART-1-1",           279,       5.76552,      -7.08179,            0.,NA,NA,"",   635.327E-03,  -580.887E-03,  -257.314E-03,   12.9760E-03
C:/temp/dataset/7/9_3.odb,Step-1,Increment      1: Step Time =    1.000,"PART-1-1",           280,       8.25955,      -15.2021,            0.,NA,NA,"",   240.007E-03,  -228.291E-03,  -74.0715E-03,   5.69528E-03
C:/temp/dataset/7/9_3.odb,Step-1,Increment      1: Step Time =    1.000,"PART-1-1",           281,       9.23032,      -13.9562,            0.,NA,NA,"",   273.464E-03,  -269.602E-03,  -45.7961E-03,   3.12278E-03
C:/temp/dataset/7/9_3.odb,Step-1,Increment      1: Step Time =    1.000,"PART-1-1",           282,       8.16037,      -12.9544,            0.,NA,NA,"",   321.085E-03,  -307.951E-03,  -90.8911E-03,   6.03019E-03
C:/temp/dataset/7/9_3.odb,Step-1,Increment      1: Step Time =    1.000,"PART-1-1",           283,       7.18960,      -14.2003,            0.,NA,NA,"",   290.071E-03,  -264.931E-03,  -118.122E-03,   8.61239E-03
C:/temp/dataset/7/9_3.odb,Step-1,Increment      1: Step Time =    1.000,"PART-1-1",           284,            5.,      -22.7083,            0.,NA,NA,"",   106.278E-03,  -63.3875E-03,  -85.3061E-03,   13.6968E-03
C:/temp/dataset/7/9_3.odb,Step-1,Increment      1: Step Time =    1.000,"PART-1-1",           285,       5.97351,      -23.6835,            0.,NA,NA,"",   74.9026E-03,  -44.3767E-03,  -60.3417E-03,   11.1652E-03
C:/temp/dataset/7/9_3.odb,Step-1,Increment      1: Step Time =    1.000,"PART-1-1",           286,       6.71140,      -22.7416,            0.,NA,NA,"",   79.6631E-03,  -54.1701E-03,  -58.4107E-03,   9.39079E-03
C:/temp/dataset/7/9_3.odb,Step-1,Increment      1: Step Time =    1.000,"PART-1-1",           287,       5.73789,      -21.7664,            0.,NA,NA,"",   112.277E-03,  -74.3931E-03,  -84.0946E-03,   11.9073E-03
C:/temp/dataset/7/9_3.odb,Step-1,Increment      1: Step Time =    1.000,"PART-1-1",           288,       9.95056,      -28.8261,            0.,NA,NA,"",   2.59750E-03,   2.42912E-03,  -919.987E-06,   1.75798E-03
C:/temp/dataset/7/9_3.odb,Step-1,Increment      1: Step Time =    1.000,"PART-1-1",           289,       8.67404,      -27.7482,            0.,NA,NA,"",   7.47532E-03,  -963.304E-06,  -7.41299E-03,   4.37575E-03
C:/temp/dataset/7/9_3.odb,Step-1,Increment      1: Step Time =    1.000,"PART-1-1",           290,       7.47347,      -28.9221,            0.,NA,NA,"",   5.53294E-03,   373.161E-06,  -5.52034E-03,   6.46341E-03
C:/temp/dataset/7/9_3.odb,Step-1,Increment      1: Step Time =    1.000,"PART-1-1",           291,          8.75,          -30.,            0.,NA,NA,"",            0.,   2.39119E-39,  -6.36687E-39,   3.85620E-03
C:/temp/dataset/7/9_3.odb,Step-1,Increment      1: Step Time =    1.000,"PART-1-1",           292,       9.14805,      -24.1419,            0.,NA,NA,"",   32.7867E-03,  -28.6983E-03,  -15.8548E-03,   3.24930E-03
C:/temp/dataset/7/9_3.odb,Step-1,Increment      1: Step Time =    1.000,"PART-1-1",           293,       7.84454,      -23.3007,            0.,NA,NA,"",   56.3512E-03,  -42.2418E-03,  -37.2972E-03,   6.49393E-03
C:/temp/dataset/7/9_3.odb,Step-1,Increment      1: Step Time =    1.000,"PART-1-1",           294,       7.10828,      -24.6604,            0.,NA,NA,"",   46.8835E-03,  -27.9771E-03,  -37.6210E-03,   8.38024E-03
C:/temp/dataset/7/9_3.odb,Step-1,Increment      1: Step Time =    1.000,"PART-1-1",           295,       8.41180,      -25.5016,            0.,NA,NA,"",   24.6183E-03,  -15.8448E-03,  -18.8415E-03,   5.14179E-03
C:/temp/dataset/7/9_3.odb,Step-1,Increment      1: Step Time =    1.000,"PART-1-1",           296,       7.00425,      -21.1298,            0.,NA,NA,"",   104.279E-03,  -80.1738E-03,  -66.6797E-03,   8.74083E-03
C:/temp/dataset/7/9_3.odb,Step-1,Increment      1: Step Time =    1.000,"PART-1-1",           297,       6.26636,      -19.9884,            0.,NA,NA,"",   140.415E-03,  -106.021E-03,  -92.0645E-03,   10.7188E-03
C:/temp/dataset/7/9_3.odb,Step-1,Increment      1: Step Time =    1.000,"PART-1-1",           298,            5.,       -20.625,            0.,NA,NA,"",   149.635E-03,  -99.7254E-03,  -111.559E-03,   13.9455E-03
C:/temp/dataset/7/9_3.odb,Step-1,Increment      1: Step Time =    1.000,"PART-1-1",           299,       12.8526,      -8.63250,            0.,NA,NA,"",   514.925E-03,  -502.254E-03,   113.527E-03,   6.92961E-03
C:/temp/dataset/7/9_3.odb,Step-1,Increment      1: Step Time =    1.000,"PART-1-1",           300,       13.9581,      -9.97058,            0.,NA,NA,"",   470.919E-03,  -443.837E-03,   157.397E-03,   9.91401E-03
C:/temp/dataset/7/9_3.odb,Step-1,Increment      1: Step Time =    1.000,"PART-1-1",           301,           15.,         -8.75,            0.,NA,NA,"",   553.170E-03,  -508.571E-03,   217.606E-03,   12.8863E-03
C:/temp/dataset/7/9_3.odb,Step-1,Increment      1: Step Time =    1.000,"PART-1-1",           302,       13.8945,      -7.41192,            0.,NA,NA,"",   595.714E-03,  -569.745E-03,   173.969E-03,   9.90166E-03
C:/temp/dataset/7/9_3.odb,Step-1,Increment      1: Step Time =    1.000,"PART-1-1",           303,            5.,        10.625,            0.,NA,NA,"",       2.00368,      -1.91170,  -600.127E-03,   16.0785E-03
C:/temp/dataset/7/9_3.odb,Step-1,Increment      1: Step Time =    1.000,"PART-1-1",           304,       7.03988,       10.6820,            0.,NA,NA,"",       1.95614,      -1.91552,  -396.572E-03,   9.99261E-03
C:/temp/dataset/7/9_3.odb,Step-1,Increment      1: Step Time =    1.000,"PART-1-1",           305,       6.00589,       11.7004,            0.,NA,NA,"",       2.08273,      -2.01745,  -517.366E-03,   13.0865E-03
C:/temp/dataset/7/9_3.odb,Step-1,Increment      1: Step Time =    1.000,"PART-1-1",           306,       2.74639,       25.6366,            0.,NA,NA,"",       3.88986,      -3.69461,      -1.21692,   3.54376E-03
C:/temp/dataset/7/9_3.odb,Step-1,Increment      1: Step Time =    1.000,"PART-1-1",           307,       1.36653,       25.0307,            0.,NA,NA,"",       3.86112,      -3.59115,      -1.41843,   2.83640E-03
C:/temp/dataset/7/9_3.odb,Step-1,Increment      1: Step Time =    1.000,"PART-1-1",           308,       1.96853,       23.3303,            0.,NA,NA,"",       3.59223,      -3.34605,      -1.30693,   4.44153E-03
C:/temp/dataset/7/9_3.odb,Step-1,Increment      1: Step Time =    1.000,"PART-1-1",           309,       3.34839,       23.9361,            0.,NA,NA,"",       3.62548,      -3.45287,      -1.10534,   4.06304E-03
C:/temp/dataset/7/9_3.odb,Step-1,Increment      1: Step Time =    1.000,"PART-1-1",           310,       4.47216,       26.2029,            0.,NA,NA,"",       3.91265,      -3.79034,  -970.656E-03,   4.35924E-03
C:/temp/dataset/7/9_3.odb,Step-1,Increment      1: Step Time =    1.000,"PART-1-1",           311,       4.17993,       27.6633,            0.,NA,NA,"",       4.13069,      -3.99948,      -1.03284,   5.94683E-03
C:/temp/dataset/7/9_3.odb,Step-1,Increment      1: Step Time =    1.000,"PART-1-1",           312,       2.45416,       27.0970,            0.,NA,NA,"",       4.11078,      -3.90644,      -1.27993,   4.82925E-03
C:/temp/dataset/7/9_3.odb,Step-1,Increment      1: Step Time =    1.000,"PART-1-1",           313,      -1.66705,       28.8640,            0.,NA,NA,"",       4.57638,      -4.14414,      -1.94149,   6.25325E-03
C:/temp/dataset/7/9_3.odb,Step-1,Increment      1: Step Time =    1.000,"PART-1-1",           314,   261.919E-03,       29.0779,            0.,NA,NA,"",       4.49928,      -4.18874,      -1.64255,   7.66328E-03
C:/temp/dataset/7/9_3.odb,Step-1,Increment      1: Step Time =    1.000,"PART-1-1",           315,    -937.5E-03,           30.,            0.,NA,NA,"",       4.70124,      -4.32448,      -1.84403,   8.64879E-03
C:/temp/dataset/7/9_3.odb,Step-1,Increment      1: Step Time =    1.000,"PART-1-1",           316,          -15.,         21.25,            0.,NA,NA,"",       4.87248,      -2.76395,      -4.01269,   171.940E-06
C:/temp/dataset/7/9_3.odb,Step-1,Increment      1: Step Time =    1.000,"PART-1-1",           317,      -13.3250,           20.,            0.,NA,NA,"",       4.53087,      -2.58265,      -3.72273,   223.626E-06
C:/temp/dataset/7/9_3.odb,Step-1,Increment      1: Step Time =    1.000,"PART-1-1",           318,      -11.7925,       21.2083,            0.,NA,NA,"",       4.47340,      -2.80093,      -3.48799,   1.06859E-03
C:/temp/dataset/7/9_3.odb,Step-1,Increment      1: Step Time =    1.000,"PART-1-1",           319,       10.1137,       15.7319,            0.,NA,NA,"",       2.46469,      -2.46174,  -120.553E-03,   758.150E-06
C:/temp/dataset/7/9_3.odb,Step-1,Increment      1: Step Time =    1.000,"PART-1-1",           320,       9.02474,       16.2903,            0.,NA,NA,"",       2.53090,      -2.51855,  -249.775E-03,   3.57143E-03
C:/temp/dataset/7/9_3.odb,Step-1,Increment      1: Step Time =    1.000,"PART-1-1",           321,       8.64023,       14.7706,            0.,NA,NA,"",       2.36248,      -2.34607,  -277.973E-03,   5.06295E-03
C:/temp/dataset/7/9_3.odb,Step-1,Increment      1: Step Time =    1.000,"PART-1-1",           322,       9.72917,       14.2122,            0.,NA,NA,"",       2.29522,      -2.29014,  -152.555E-03,   1.88754E-03
C:/temp/dataset/7/9_3.odb,Step-1,Increment      1: Step Time =    1.000,"PART-1-1",           323,       12.8210,       13.6438,            0.,NA,NA,"",       2.25873,      -2.25108,   185.705E-03,   7.60780E-03
C:/temp/dataset/7/9_3.odb,Step-1,Increment      1: Step Time =    1.000,"PART-1-1",           324,       13.9730,       12.4303,            0.,NA,NA,"",       2.15405,      -2.13240,   304.607E-03,   11.1703E-03
C:/temp/dataset/7/9_3.odb,Step-1,Increment      1: Step Time =    1.000,"PART-1-1",           325,           15.,         13.75,            0.,NA,NA,"",       2.32473,      -2.28628,   421.073E-03,   14.4581E-03
C:/temp/dataset/7/9_3.odb,Step-1,Increment      1: Step Time =    1.000,"PART-1-1",           326,       13.8481,       14.9635,            0.,NA,NA,"",       2.42675,      -2.40799,   301.183E-03,   10.8900E-03
C:/temp/dataset/7/9_3.odb,Step-1,Increment      1: Step Time =    1.000,"PART-1-1",           327,       10.1008,       2.87074,            0.,NA,NA,"",       1.22870,      -1.22753,  -53.6708E-03,   759.759E-06
C:/temp/dataset/7/9_3.odb,Step-1,Increment      1: Step Time =    1.000,"PART-1-1",           328,       9.07373,       1.83179,            0.,NA,NA,"",       1.15235,      -1.14518,  -128.417E-03,   3.73381E-03
C:/temp/dataset/7/9_3.odb,Step-1,Increment      1: Step Time =    1.000,"PART-1-1",           329,       10.0520,   569.032E-03,            0.,NA,NA,"",       1.05447,      -1.05332,  -49.1637E-03,   902.169E-06
C:/temp/dataset/7/9_3.odb,Step-1,Increment      1: Step Time =    1.000,"PART-1-1",           330,       11.0790,       1.60798,            0.,NA,NA,"",       1.13376,      -1.13348,   25.0040E-03,   2.17166E-03
C:/temp/dataset/7/9_3.odb,Step-1,Increment      1: Step Time =    1.000,"PART-1-1",           331,       9.98138,      -1.74337,            0.,NA,NA,"",   893.519E-03,  -892.307E-03,  -46.5090E-03,   1.10613E-03
C:/temp/dataset/7/9_3.odb,Step-1,Increment      1: Step Time =    1.000,"PART-1-1",           332,       8.90931,      -2.66004,            0.,NA,NA,"",   838.996E-03,  -831.338E-03,  -113.100E-03,   4.15271E-03
C:/temp/dataset/7/9_3.odb,Step-1,Increment      1: Step Time =    1.000,"PART-1-1",           333,       9.84458,      -4.07679,            0.,NA,NA,"",   745.436E-03,  -743.894E-03,  -47.9110E-03,   1.49113E-03
C:/temp/dataset/7/9_3.odb,Step-1,Increment      1: Step Time =    1.000,"PART-1-1",           334,       10.9167,      -3.16013,            0.,NA,NA,"",   802.867E-03,  -802.685E-03,   17.1034E-03,   1.64843E-03
C:/temp/dataset/7/9_3.odb,Step-1,Increment      1: Step Time =    1.000,"PART-1-1",           335,            5.,      -3.95833,            0.,NA,NA,"",   835.185E-03,  -760.148E-03,  -345.990E-03,   15.3627E-03
C:/temp/dataset/7/9_3.odb,Step-1,Increment      1: Step Time =    1.000,"PART-1-1",           336,       6.75254,      -4.23112,            0.,NA,NA,"",   773.561E-03,  -736.908E-03,  -235.295E-03,   10.2981E-03
C:/temp/dataset/7/9_3.odb,Step-1,Increment      1: Step Time =    1.000,"PART-1-1",           337,       5.92661,      -3.07918,            0.,NA,NA,"",   863.994E-03,  -809.941E-03,  -300.802E-03,   12.7476E-03
C:/temp/dataset/7/9_3.odb,Step-1,Increment      1: Step Time =    1.000,"PART-1-1",           338,       7.06139,      -12.0396,            0.,NA,NA,"",   374.444E-03,  -346.579E-03,  -141.744E-03,   9.06941E-03
C:/temp/dataset/7/9_3.odb,Step-1,Increment      1: Step Time =    1.000,"PART-1-1",           339,       5.99095,      -11.1126,            0.,NA,NA,"",   435.821E-03,  -389.005E-03,  -196.509E-03,   12.0718E-03
C:/temp/dataset/7/9_3.odb,Step-1,Increment      1: Step Time =    1.000,"PART-1-1",           340,            5.,      -12.2917,            0.,NA,NA,"",   411.397E-03,  -345.894E-03,  -222.721E-03,   14.7179E-03
C:/temp/dataset/7/9_3.odb,Step-1,Increment      1: Step Time =    1.000,"PART-1-1",           341,       6.07044,      -13.2187,            0.,NA,NA,"",   348.511E-03,  -304.745E-03,  -169.086E-03,   11.7119E-03
C:/temp/dataset/7/9_3.odb,Step-1,Increment      1: Step Time =    1.000,"PART-1-1",           342,       6.63644,      -8.02271,            0.,NA,NA,"",   566.051E-03,  -529.295E-03,  -200.650E-03,   10.4544E-03
C:/temp/dataset/7/9_3.odb,Step-1,Increment      1: Step Time =    1.000,"PART-1-1",           343,            5.,        -8.125,            0.,NA,NA,"",   601.989E-03,  -531.501E-03,  -282.662E-03,   15.0576E-03
C:/temp/dataset/7/9_3.odb,Step-1,Increment      1: Step Time =    1.000,"PART-1-1",           344,       5.87092,      -9.06592,            0.,NA,NA,"",   532.160E-03,  -481.448E-03,  -226.721E-03,   12.5336E-03
C:/temp/dataset/7/9_3.odb,Step-1,Increment      1: Step Time =    1.000,"PART-1-1",           345,       13.0826,      -13.6930,            0.,NA,NA,"",   301.156E-03,  -285.538E-03,   95.7249E-03,   7.30726E-03
C:/temp/dataset/7/9_3.odb,Step-1,Increment      1: Step Time =    1.000,"PART-1-1",           346,       14.0569,      -14.9678,            0.,NA,NA,"",   273.183E-03,  -244.965E-03,   120.918E-03,   9.84018E-03
C:/temp/dataset/7/9_3.odb,Step-1,Increment      1: Step Time =    1.000,"PART-1-1",           347,           15.,        -13.75,            0.,NA,NA,"",   336.579E-03,  -293.218E-03,   165.253E-03,   12.4676E-03
C:/temp/dataset/7/9_3.odb,Step-1,Increment      1: Step Time =    1.000,"PART-1-1",           348,       14.0257,      -12.4752,            0.,NA,NA,"",   364.585E-03,  -336.533E-03,   140.240E-03,   9.93287E-03
C:/temp/dataset/7/9_3.odb,Step-1,Increment      1: Step Time =    1.000,"PART-1-1",           349,       8.13738,      -21.6888,            0.,NA,NA,"",   78.5255E-03,  -66.5760E-03,  -41.6401E-03,   5.83944E-03
C:/temp/dataset/7/9_3.odb,Step-1,Increment      1: Step Time =    1.000,"PART-1-1",           350,            5.,      -28.9583,            0.,NA,NA,"",   14.2939E-03,  -8.65405E-03,  -11.3764E-03,   12.6777E-03
C:/temp/dataset/7/9_3.odb,Step-1,Increment      1: Step Time =    1.000,"PART-1-1",           351,          6.25,          -30.,            0.,NA,NA,"",            0.,   816.965E-42,  -14.9562E-39,   9.06023E-03
C:/temp/dataset/7/9_3.odb,Step-1,Increment      1: Step Time =    1.000,"PART-1-1",           352,       6.22347,      -27.8804,            0.,NA,NA,"",   19.0880E-03,  -7.30520E-03,  -17.6348E-03,   10.3261E-03
C:/temp/dataset/7/9_3.odb,Step-1,Increment      1: Step Time =    1.000,"PART-1-1",           353,           15.,        -28.75,            0.,NA,NA,"",   13.1396E-03,  -7.20604E-03,   10.9873E-03,   10.3952E-03
C:/temp/dataset/7/9_3.odb,Step-1,Increment      1: Step Time =    1.000,"PART-1-1",           354,       13.6900,      -27.4695,            0.,NA,NA,"",   17.8276E-03,  -6.58538E-03,   16.5667E-03,   8.18046E-03
C:/temp/dataset/7/9_3.odb,Step-1,Increment      1: Step Time =    1.000,"PART-1-1",           355,       12.4400,      -28.7195,            0.,NA,NA,"",   4.69178E-03,   948.395E-06,   4.59492E-03,   4.62260E-03
C:/temp/dataset/7/9_3.odb,Step-1,Increment      1: Step Time =    1.000,"PART-1-1",           356,         13.75,          -30.,            0.,NA,NA,"",            0.,   1.51630E-39,   11.5053E-39,   6.89019E-03
C:/temp/dataset/7/9_3.odb,Step-1,Increment      1: Step Time =    1.000,"PART-1-1",           357,       9.58617,      -22.6245,            0.,NA,NA,"",   50.6877E-03,  -48.8945E-03,  -13.3628E-03,   2.15934E-03
C:/temp/dataset/7/9_3.odb,Step-1,Increment      1: Step Time =    1.000,"PART-1-1",           358,       10.0221,      -21.0980,            0.,NA,NA,"",   75.2401E-03,  -74.8159E-03,  -7.97819E-03,   1.07929E-03
C:/temp/dataset/7/9_3.odb,Step-1,Increment      1: Step Time =    1.000,"PART-1-1",           359,       8.57328,      -20.1623,            0.,NA,NA,"",   103.171E-03,  -94.9124E-03,  -40.4453E-03,   4.72936E-03
C:/temp/dataset/7/9_3.odb,Step-1,Increment      1: Step Time =    1.000,"PART-1-1",           360,       11.1406,      -27.5456,            0.,NA,NA,"",   3.58360E-03,  -821.492E-06,   3.48817E-03,   2.00197E-03
C:/temp/dataset/7/9_3.odb,Step-1,Increment      1: Step Time =    1.000,"PART-1-1",           361,         11.25,          -30.,            0.,NA,NA,"",            0.,   2.72028E-39,   3.08507E-39,   2.75283E-03
C:/temp/dataset/7/9_3.odb,Step-1,Increment      1: Step Time =    1.000,"PART-1-1",           362,       11.2605,      -16.1933,            0.,NA,NA,"",   197.994E-03,  -196.456E-03,   24.6352E-03,   2.35752E-03
C:/temp/dataset/7/9_3.odb,Step-1,Increment      1: Step Time =    1.000,"PART-1-1",           363,       10.2521,      -15.0492,            0.,NA,NA,"",   231.972E-03,  -231.848E-03,  -7.57391E-03,   517.711E-06
C:/temp/dataset/7/9_3.odb,Step-1,Increment      1: Step Time =    1.000,"PART-1-1",           364,       9.32474,      -16.3084,            0.,NA,NA,"",   195.340E-03,  -192.161E-03,  -35.0941E-03,   2.84646E-03
C:/temp/dataset/7/9_3.odb,Step-1,Increment      1: Step Time =    1.000,"PART-1-1",           365,       10.3331,      -17.4526,            0.,NA,NA,"",   159.131E-03,  -159.094E-03,  -3.43318E-03,   427.875E-06
C:/temp/dataset/7/9_3.odb,Step-1,Increment      1: Step Time =    1.000,"PART-1-1",           366,       7.44248,      -19.0256,            0.,NA,NA,"",   143.109E-03,  -123.044E-03,  -73.0778E-03,   7.71152E-03
C:/temp/dataset/7/9_3.odb,Step-1,Increment      1: Step Time =    1.000,"PART-1-1",           367,       6.17612,      -17.5789,            0.,NA,NA,"",   202.758E-03,  -164.446E-03,  -118.610E-03,   11.1257E-03
C:/temp/dataset/7/9_3.odb,Step-1,Increment      1: Step Time =    1.000,"PART-1-1",           368,            5.,      -18.5417,            0.,NA,NA,"",   201.098E-03,  -145.963E-03,  -138.330E-03,   14.1450E-03
C:/temp/dataset/7/9_3.odb,Step-1,Increment      1: Step Time =    1.000,"PART-1-1",           369,       12.8407,      -6.03443,            0.,NA,NA,"",   651.175E-03,  -638.949E-03,   125.593E-03,   7.01224E-03
C:/temp/dataset/7/9_3.odb,Step-1,Increment      1: Step Time =    1.000,"PART-1-1",           370,           15.,         -6.25,            0.,NA,NA,"",   684.656E-03,  -639.948E-03,   243.353E-03,   13.0811E-03
C:/temp/dataset/7/9_3.odb,Step-1,Increment      1: Step Time =    1.000,"PART-1-1",           371,       13.9462,      -4.87251,            0.,NA,NA,"",   738.331E-03,  -711.892E-03,   195.813E-03,   10.1918E-03
C:/temp/dataset/7/9_3.odb,Step-1,Increment      1: Step Time =    1.000,"PART-1-1",           372,       7.64514,      -8.69832,            0.,NA,NA,"",   513.679E-03,  -493.183E-03,  -143.654E-03,   7.60187E-03
C:/temp/dataset/7/9_3.odb,Step-1,Increment      1: Step Time =    1.000,"PART-1-1",           373,       8.20020,      -7.75016,            0.,NA,NA,"",   553.119E-03,  -539.373E-03,  -122.546E-03,   6.07553E-03
C:/temp/dataset/7/9_3.odb,Step-1,Increment      1: Step Time =    1.000,"PART-1-1",           374,       7.19150,      -7.07454,            0.,NA,NA,"",   604.086E-03,  -576.287E-03,  -181.145E-03,   8.90542E-03
C:/temp/dataset/7/9_3.odb,Step-1,Increment      1: Step Time =    1.000,"PART-1-1",           375,       7.97278,      -1.35169,            0.,NA,NA,"",   935.790E-03,  -917.382E-03,  -184.699E-03,   6.89046E-03
C:/temp/dataset/7/9_3.odb,Step-1,Increment      1: Step Time =    1.000,"PART-1-1",           376,       9.01285,  -423.179E-03,            0.,NA,NA,"",   988.250E-03,  -981.036E-03,  -119.189E-03,   3.88606E-03
C:/temp/dataset/7/9_3.odb,Step-1,Increment      1: Step Time =    1.000,"PART-1-1",           377,       8.04185,   850.611E-03,            0.,NA,NA,"",       1.08996,      -1.07169,  -198.714E-03,   6.74338E-03
C:/temp/dataset/7/9_3.odb,Step-1,Increment      1: Step Time =    1.000,"PART-1-1",           378,       8.08837,       3.05311,            0.,NA,NA,"",       1.25722,      -1.23874,  -214.769E-03,   6.65693E-03
C:/temp/dataset/7/9_3.odb,Step-1,Increment      1: Step Time =    1.000,"PART-1-1",           379,       9.11337,       4.08618,            0.,NA,NA,"",       1.33002,      -1.32266,  -139.741E-03,   3.64368E-03
C:/temp/dataset/7/9_3.odb,Step-1,Increment      1: Step Time =    1.000,"PART-1-1",           380,       8.10868,       5.26217,            0.,NA,NA,"",       1.43827,      -1.41916,  -233.707E-03,   6.64566E-03
C:/temp/dataset/7/9_3.odb,Step-1,Increment      1: Step Time =    1.000,"PART-1-1",           381,       7.08888,       6.39331,            0.,NA,NA,"",       1.55287,      -1.51627,  -335.162E-03,   9.71450E-03
C:/temp/dataset/7/9_3.odb,Step-1,Increment      1: Step Time =    1.000,"PART-1-1",           382,            5.,       6.45833,            0.,NA,NA,"",       1.61259,      -1.52583,  -521.815E-03,   15.9889E-03
C:/temp/dataset/7/9_3.odb,Step-1,Increment      1: Step Time =    1.000,"PART-1-1",           383,           15.,         16.25,            0.,NA,NA,"",       2.60728,      -2.57025,   437.849E-03,   14.3716E-03
C:/temp/dataset/7/9_3.odb,Step-1,Increment      1: Step Time =    1.000,"PART-1-1",           384,       13.6214,       17.6671,            0.,NA,NA,"",       2.73709,      -2.72254,   281.805E-03,   10.0776E-03
C:/temp/dataset/7/9_3.odb,Step-1,Increment      1: Step Time =    1.000,"PART-1-1",           385,       12.4694,       16.3805,            0.,NA,NA,"",       2.56069,      -2.55649,   146.612E-03,   6.66016E-03
C:/temp/dataset/7/9_3.odb,Step-1,Increment      1: Step Time =    1.000,"PART-1-1",           386,       10.0881,       9.74649,            0.,NA,NA,"",       1.83352,      -1.83150,  -86.0975E-03,   828.075E-06
C:/temp/dataset/7/9_3.odb,Step-1,Increment      1: Step Time =    1.000,"PART-1-1",           387,       9.10561,       8.57814,            0.,NA,NA,"",       1.72514,      -1.71648,  -172.668E-03,   3.74397E-03
C:/temp/dataset/7/9_3.odb,Step-1,Increment      1: Step Time =    1.000,"PART-1-1",           388,       10.1162,       7.46436,            0.,NA,NA,"",       1.61867,      -1.61708,  -71.8058E-03,   720.386E-06
C:/temp/dataset/7/9_3.odb,Step-1,Increment      1: Step Time =    1.000,"PART-1-1",           389,       11.0986,       8.63272,            0.,NA,NA,"",       1.73002,      -1.72995,   15.2452E-03,   2.27236E-03
C:/temp/dataset/7/9_3.odb,Step-1,Increment      1: Step Time =    1.000,"PART-1-1",           390,       9.96644,       19.4124,            0.,NA,NA,"",       2.90557,      -2.90101,  -162.746E-03,   3.60032E-03
C:/temp/dataset/7/9_3.odb,Step-1,Increment      1: Step Time =    1.000,"PART-1-1",           391,       10.9020,       20.3065,            0.,NA,NA,"",       3.02568,      -3.02521,  -53.6719E-03,   5.31035E-03
C:/temp/dataset/7/9_3.odb,Step-1,Increment      1: Step Time =    1.000,"PART-1-1",           392,       10.1153,       21.2880,            0.,NA,NA,"",       3.15048,      -3.14654,  -157.623E-03,   5.94779E-03
C:/temp/dataset/7/9_3.odb,Step-1,Increment      1: Step Time =    1.000,"PART-1-1",           393,       9.17975,       20.3940,            0.,NA,NA,"",       3.03117,      -3.01938,  -267.160E-03,   4.70760E-03
C:/temp/dataset/7/9_3.odb,Step-1,Increment      1: Step Time =    1.000,"PART-1-1",           394,           15.,         28.75,            0.,NA,NA,"",       4.23867,      -4.21757,   422.365E-03,   257.193E-06
C:/temp/dataset/7/9_3.odb,Step-1,Increment      1: Step Time =    1.000,"PART-1-1",           395,       14.0625,           30.,            0.,NA,NA,"",       4.38705,      -4.37783,   284.379E-03,   236.185E-06
C:/temp/dataset/7/9_3.odb,Step-1,Increment      1: Step Time =    1.000,"PART-1-1",           396,       13.1487,       28.7914,            0.,NA,NA,"",       4.21013,      -4.20658,   172.751E-03,   1.48357E-03
C:/temp/dataset/7/9_3.odb,Step-1,Increment      1: Step Time =    1.000,"PART-1-1",           397,       14.0862,       27.5414,            0.,NA,NA,"",       4.05632,      -4.04450,   309.519E-03,   1.67099E-03
C:/temp/dataset/7/9_3.odb,Step-1,Increment      1: Step Time =    1.000,"PART-1-1",           398,       12.2440,       25.2848,            0.,NA,NA,"",       3.71636,      -3.71542,   83.6003E-03,   5.80705E-03
C:/temp/dataset/7/9_3.odb,Step-1,Increment      1: Step Time =    1.000,"PART-1-1",           399,       13.1763,       26.3811,            0.,NA,NA,"",       3.88114,      -3.87611,   197.481E-03,   4.13584E-03
C:/temp/dataset/7/9_3.odb,Step-1,Increment      1: Step Time =    1.000,"PART-1-1",           400,       12.2376,       27.6217,            0.,NA,NA,"",       4.03970,      -4.03922,   62.5380E-03,   3.84131E-03
C:/temp/dataset/7/9_3.odb,Step-1,Increment      1: Step Time =    1.000,"PART-1-1",           401,       11.3053,       26.5254,            0.,NA,NA,"",       3.88038,      -3.88006,  -49.7787E-03,   5.57524E-03
C:/temp/dataset/7/9_3.odb,Step-1,Increment      1: Step Time =    1.000,"PART-1-1",           402,       12.1875,           30.,            0.,NA,NA,"",       4.36165,      -4.36153,   33.0581E-03,   1.46186E-03
C:/temp/dataset/7/9_3.odb,Step-1,Increment      1: Step Time =    1.000,"PART-1-1",           403,        6.5625,           30.,            0.,NA,NA,"",       4.39848,      -4.33807,  -726.511E-03,   9.31967E-03
C:/temp/dataset/7/9_3.odb,Step-1,Increment      1: Step Time =    1.000,"PART-1-1",           404,       5.40000,       28.6589,            0.,NA,NA,"",       4.23798,      -4.14740,  -871.529E-03,   7.80036E-03
C:/temp/dataset/7/9_3.odb,Step-1,Increment      1: Step Time =    1.000,"PART-1-1",           405,       6.32063,       27.5176,            0.,NA,NA,"",       4.05481,      -3.98911,  -726.990E-03,   5.90993E-03
C:/temp/dataset/7/9_3.odb,Step-1,Increment      1: Step Time =    1.000,"PART-1-1",           406,        2.8125,           30.,            0.,NA,NA,"",       4.51683,      -4.33508,      -1.26841,   10.8067E-03
C:/temp/dataset/7/9_3.odb,Step-1,Increment      1: Step Time =    1.000,"PART-1-1",           407,       1.86631,       29.3706,            0.,NA,NA,"",       4.46512,      -4.23963,      -1.40100,   9.05015E-03
C:/temp/dataset/7/9_3.odb,Step-1,Increment      1: Step Time =    1.000,"PART-1-1",           408,       2.52123,       28.3750,            0.,NA,NA,"",       4.29258,      -4.09491,      -1.28762,   7.01043E-03
C:/temp/dataset/7/9_3.odb,Step-1,Increment      1: Step Time =    1.000,"PART-1-1",           409,       3.46742,       29.0044,            0.,NA,NA,"",       4.34743,      -4.19090,      -1.15607,   8.67111E-03
C:/temp/dataset/7/9_3.odb,Step-1,Increment      1: Step Time =    1.000,"PART-1-1",           410,       1.19073,       28.4486,            0.,NA,NA,"",       4.36137,      -4.09887,      -1.49024,   6.86132E-03
C:/temp/dataset/7/9_3.odb,Step-1,Increment      1: Step Time =    1.000,"PART-1-1",           411,      -2.48443,       27.9761,            0.,NA,NA,"",       4.49845,      -3.99988,      -2.05840,   4.76808E-03
C:/temp/dataset/7/9_3.odb,Step-1,Increment      1: Step Time =    1.000,"PART-1-1",           412,       -2.8125,           30.,            0.,NA,NA,"",       4.81641,      -4.31439,      -2.14100,   7.24803E-03
C:/temp/dataset/7/9_3.odb,Step-1,Increment      1: Step Time =    1.000,"PART-1-1",           413,      -7.28733,       29.0238,            0.,NA,NA,"",       5.01023,      -4.12003,      -2.85092,   3.44836E-03
C:/temp/dataset/7/9_3.odb,Step-1,Increment      1: Step Time =    1.000,"PART-1-1",           414,      -6.19423,       28.1363,            0.,NA,NA,"",       4.79407,      -3.98886,      -2.65934,   3.44710E-03
C:/temp/dataset/7/9_3.odb,Step-1,Increment      1: Step Time =    1.000,"PART-1-1",           415,       -6.5625,           30.,            0.,NA,NA,"",       5.09018,      -4.28531,      -2.74701,   4.73698E-03
C:/temp/dataset/7/9_3.odb,Step-1,Increment      1: Step Time =    1.000,"PART-1-1",           416,      -11.8079,       27.5253,            0.,NA,NA,"",       5.23517,      -3.82214,      -3.57746,   3.03512E-03
C:/temp/dataset/7/9_3.odb,Step-1,Increment      1: Step Time =    1.000,"PART-1-1",           417,      -12.6125,       26.1842,            0.,NA,NA,"",       5.15200,      -3.59453,      -3.69087,   2.53196E-03
C:/temp/dataset/7/9_3.odb,Step-1,Increment      1: Step Time =    1.000,"PART-1-1",           418,      -8.13992,       23.4434,            0.,NA,NA,"",       4.34071,      -3.21488,      -2.91656,   2.90569E-03
C:/temp/dataset/7/9_3.odb,Step-1,Increment      1: Step Time =    1.000,"PART-1-1",           419,       -8.4375,           30.,            0.,NA,NA,"",       5.24763,      -4.26703,      -3.05451,   3.62644E-03
C:/temp/dataset/7/9_3.odb,Step-1,Increment      1: Step Time =    1.000,"PART-1-1",           420,      -8.00049,       27.9480,            0.,NA,NA,"",       4.92218,      -3.93826,      -2.95262,   2.74484E-03
C:/temp/dataset/7/9_3.odb,Step-1,Increment      1: Step Time =    1.000,"PART-1-1",           421,      -12.1875,           30.,            0.,NA,NA,"",       5.60192,      -4.22332,      -3.68036,   2.97687E-03
C:/temp/dataset/7/9_3.odb,Step-1,Increment      1: Step Time =    1.000,"PART-1-1",           422,          -15.,         26.25,            0.,NA,NA,"",       5.42756,      -3.57516,      -4.08370,   2.47724E-03
C:/temp/dataset/7/9_3.odb,Step-1,Increment      1: Step Time =    1.000,"PART-1-1",           423,  -614.199E-03,       25.3895,            0.,NA,NA,"",       4.01382,      -3.62222,      -1.72923,   3.02005E-03
C:/temp/dataset/7/9_3.odb,Step-1,Increment      1: Step Time =    1.000,"PART-1-1",           424,      -1.97220,       26.8586,            0.,NA,NA,"",       4.30491,      -3.83193,      -1.96176,   3.79932E-03
C:/temp/dataset/7/9_3.odb,Step-1,Increment      1: Step Time =    1.000,"PART-1-1",           425,      -1.74113,       25.3247,            0.,NA,NA,"",       4.07223,      -3.59875,      -1.90581,   3.05731E-03
C:/temp/dataset/7/9_3.odb,Step-1,Increment      1: Step Time =    1.000,"PART-1-1",           426,       8.18659,       21.6045,            0.,NA,NA,"",       3.19575,      -3.17024,  -402.986E-03,   6.55019E-03
C:/temp/dataset/7/9_3.odb,Step-1,Increment      1: Step Time =    1.000,"PART-1-1",           427,       9.25192,       22.4602,            0.,NA,NA,"",       3.30856,      -3.29702,  -276.101E-03,   6.78654E-03
C:/temp/dataset/7/9_3.odb,Step-1,Increment      1: Step Time =    1.000,"PART-1-1",           428,       8.38526,       23.6138,            0.,NA,NA,"",       3.47273,      -3.44966,  -399.634E-03,   6.92309E-03
C:/temp/dataset/7/9_3.odb,Step-1,Increment      1: Step Time =    1.000,"PART-1-1",           429,       7.31993,       22.7581,            0.,NA,NA,"",       3.36309,      -3.32129,  -528.602E-03,   6.82413E-03
C:/temp/dataset/7/9_3.odb,Step-1,Increment      1: Step Time =    1.000,"PART-1-1",           430,           15.,         26.25,            0.,NA,NA,"",       3.90159,      -3.87628,   443.634E-03,   2.65681E-03
C:/temp/dataset/7/9_3.odb,Step-1,Increment      1: Step Time =    1.000,"PART-1-1",           431,        4.6875,           30.,            0.,NA,NA,"",       4.44888,      -4.33669,  -992.807E-03,   10.6384E-03
C:/temp/dataset/7/9_3.odb,Step-1,Increment      1: Step Time =    1.000,"PART-1-1",           432,       9.38339,       24.5308,            0.,NA,NA,"",       3.59702,      -3.58610,  -280.051E-03,   7.08581E-03
C:/temp/dataset/7/9_3.odb,Step-1,Increment      1: Step Time =    1.000,"PART-1-1",           433,       8.53172,       25.6694,            0.,NA,NA,"",       3.76202,      -3.74023,  -404.328E-03,   6.55500E-03
C:/temp/dataset/7/9_3.odb,Step-1,Increment      1: Step Time =    1.000,"PART-1-1",           434,       7.53359,       24.7524,            0.,NA,NA,"",       3.64197,      -3.60381,  -525.832E-03,   6.42277E-03
C:/temp/dataset/7/9_3.odb,Step-1,Increment      1: Step Time =    1.000,"PART-1-1",           435,     937.5E-03,           30.,            0.,NA,NA,"",       4.60127,      -4.33139,      -1.55266,   9.95712E-03
C:/temp/dataset/7/9_3.odb,Step-1,Increment      1: Step Time =    1.000,"PART-1-1",           436,       5.64845,       26.5466,            0.,NA,NA,"",       3.93104,      -3.84712,  -807.930E-03,   5.39280E-03
C:/temp/dataset/7/9_3.odb,Step-1,Increment      1: Step Time =    1.000,"PART-1-1",           437,       4.65082,       24.6490,            0.,NA,NA,"",       3.68537,      -3.56767,  -923.947E-03,   3.93768E-03
C:/temp/dataset/7/9_3.odb,Step-1,Increment      1: Step Time =    1.000,"PART-1-1",           438,       5.82711,       24.9927,            0.,NA,NA,"",       3.70522,      -3.62605,  -761.852E-03,   4.73641E-03
C:/temp/dataset/7/9_3.odb,Step-1,Increment      1: Step Time =    1.000,"PART-1-1",           439,      -3.57200,       27.5772,            0.,NA,NA,"",       4.51480,      -3.92742,      -2.22682,   3.97155E-03
C:/temp/dataset/7/9_3.odb,Step-1,Increment      1: Step Time =    1.000,"PART-1-1",           440,      -3.05977,       26.4597,            0.,NA,NA,"",       4.32006,      -3.75860,      -2.12976,   3.28554E-03
C:/temp/dataset/7/9_3.odb,Step-1,Increment      1: Step Time =    1.000,"PART-1-1",           441,      -4.23358,       26.7178,            0.,NA,NA,"",       4.44096,      -3.78573,      -2.32171,   3.30906E-03
C:/temp/dataset/7/9_3.odb,Step-1,Increment      1: Step Time =    1.000,"PART-1-1",           442,      -5.07335,       27.3652,            0.,NA,NA,"",       4.59609,      -3.87836,      -2.46625,   3.35383E-03
C:/temp/dataset/7/9_3.odb,Step-1,Increment      1: Step Time =    1.000,"PART-1-1",           443,      -5.65848,       26.3267,            0.,NA,NA,"",       4.49814,      -3.70730,      -2.54739,   3.03730E-03
C:/temp/dataset/7/9_3.odb,Step-1,Increment      1: Step Time =    1.000,"PART-1-1",           444,      -6.77936,       27.0978,            0.,NA,NA,"",       4.69840,      -3.81633,      -2.74055,   2.85216E-03
C:/temp/dataset/7/9_3.odb,Step-1,Increment      1: Step Time =    1.000,"PART-1-1",           445,       13.0726,       6.26892,            0.,NA,NA,"",       1.53910,      -1.52686,   193.755E-03,   8.15416E-03
C:/temp/dataset/7/9_3.odb,Step-1,Increment      1: Step Time =    1.000,"PART-1-1",           446,       14.0382,       5.02867,            0.,NA,NA,"",       1.45230,      -1.42684,   270.755E-03,   10.9718E-03
C:/temp/dataset/7/9_3.odb,Step-1,Increment      1: Step Time =    1.000,"PART-1-1",           447,           15.,          6.25,            0.,NA,NA,"",       1.58410,      -1.54212,   362.262E-03,   13.8952E-03
C:/temp/dataset/7/9_3.odb,Step-1,Increment      1: Step Time =    1.000,"PART-1-1",           448,       14.0344,       7.49025,            0.,NA,NA,"",       1.66959,      -1.64505,   285.207E-03,   11.0778E-03
C:/temp/dataset/7/9_3.odb,Step-1,Increment      1: Step Time =    1.000,"PART-1-1",           449,            5.,       12.7083,            0.,NA,NA,"",       2.21655,      -2.12186,  -640.963E-03,   16.0878E-03
C:/temp/dataset/7/9_3.odb,Step-1,Increment      1: Step Time =    1.000,"PART-1-1",           450,       6.97129,       12.7632,            0.,NA,NA,"",       2.17054,      -2.12683,  -433.398E-03,   10.2460E-03
C:/temp/dataset/7/9_3.odb,Step-1,Increment      1: Step Time =    1.000,"PART-1-1",           451,       8.08110,       9.66220,            0.,NA,NA,"",       1.83877,      -1.81717,  -281.046E-03,   6.83763E-03
C:/temp/dataset/7/9_3.odb,Step-1,Increment      1: Step Time =    1.000,"PART-1-1",           452,       8.10192,       7.46894,            0.,NA,NA,"",       1.63252,      -1.61232,  -256.070E-03,   6.71839E-03
C:/temp/dataset/7/9_3.odb,Step-1,Increment      1: Step Time =    1.000,"PART-1-1",           453,            5.,        -1.875,            0.,NA,NA,"",   968.181E-03,  -890.898E-03,  -379.046E-03,   15.5054E-03
C:/temp/dataset/7/9_3.odb,Step-1,Increment      1: Step Time =    1.000,"PART-1-1",           454,       6.91011,      -2.19684,            0.,NA,NA,"",   898.025E-03,  -863.162E-03,  -247.792E-03,   9.93695E-03
C:/temp/dataset/7/9_3.odb,Step-1,Increment      1: Step Time =    1.000,"PART-1-1",           455,       11.0205,  -751.161E-03,            0.,NA,NA,"",   962.677E-03,  -962.412E-03,   22.5941E-03,   1.97456E-03
C:/temp/dataset/7/9_3.odb,Step-1,Increment      1: Step Time =    1.000,"PART-1-1",           456,       13.1408,      -16.1676,            0.,NA,NA,"",   218.586E-03,  -202.282E-03,   82.8369E-03,   7.32372E-03
C:/temp/dataset/7/9_3.odb,Step-1,Increment      1: Step Time =    1.000,"PART-1-1",           457,       14.0839,      -17.4497,            0.,NA,NA,"",   196.763E-03,  -168.808E-03,   101.091E-03,   9.72659E-03
C:/temp/dataset/7/9_3.odb,Step-1,Increment      1: Step Time =    1.000,"PART-1-1",           458,           15.,        -16.25,            0.,NA,NA,"",   250.755E-03,  -208.764E-03,   138.909E-03,   12.2450E-03
C:/temp/dataset/7/9_3.odb,Step-1,Increment      1: Step Time =    1.000,"PART-1-1",           459,            5.,       -14.375,            0.,NA,NA,"",   331.533E-03,  -268.919E-03,  -193.899E-03,   14.5378E-03
C:/temp/dataset/7/9_3.odb,Step-1,Increment      1: Step Time =    1.000,"PART-1-1",           460,       6.11916,      -15.3567,            0.,NA,NA,"",   271.529E-03,  -230.306E-03,  -143.830E-03,   11.4351E-03
C:/temp/dataset/7/9_3.odb,Step-1,Increment      1: Step Time =    1.000,"PART-1-1",           461,       13.0403,       1.40949,            0.,NA,NA,"",       1.14167,      -1.12859,   172.360E-03,   7.88531E-03
C:/temp/dataset/7/9_3.odb,Step-1,Increment      1: Step Time =    1.000,"PART-1-1",           462,       14.0142,   96.5788E-03,            0.,NA,NA,"",       1.06490,      -1.03839,   236.139E-03,   10.6601E-03
C:/temp/dataset/7/9_3.odb,Step-1,Increment      1: Step Time =    1.000,"PART-1-1",           463,           15.,          1.25,            0.,NA,NA,"",       1.17509,      -1.13146,   317.236E-03,   13.5943E-03
C:/temp/dataset/7/9_3.odb,Step-1,Increment      1: Step Time =    1.000,"PART-1-1",           464,       14.0261,       2.56291,            0.,NA,NA,"",       1.25055,      -1.22451,   253.867E-03,   10.8185E-03
C:/temp/dataset/7/9_3.odb,Step-1,Increment      1: Step Time =    1.000,"PART-1-1",           465,            5.,      -10.2083,            0.,NA,NA,"",   501.466E-03,  -433.380E-03,  -252.290E-03,   14.8908E-03
C:/temp/dataset/7/9_3.odb,Step-1,Increment      1: Step Time =    1.000,"PART-1-1",           466,       6.86187,      -9.97015,            0.,NA,NA,"",   467.607E-03,  -435.679E-03,  -169.823E-03,   9.72012E-03
C:/temp/dataset/7/9_3.odb,Step-1,Increment      1: Step Time =    1.000,"PART-1-1",           467,            5.,      -24.7917,            0.,NA,NA,"",   70.1997E-03,  -36.7760E-03,  -59.7956E-03,   13.3149E-03
C:/temp/dataset/7/9_3.odb,Step-1,Increment      1: Step Time =    1.000,"PART-1-1",           468,       6.13477,      -25.7685,            0.,NA,NA,"",   43.8359E-03,  -21.5803E-03,  -38.1560E-03,   10.5537E-03
C:/temp/dataset/7/9_3.odb,Step-1,Increment      1: Step Time =    1.000,"PART-1-1",           469,       13.1299,      -20.9468,            0.,NA,NA,"",   98.3236E-03,  -82.6147E-03,   53.3137E-03,   7.00648E-03
C:/temp/dataset/7/9_3.odb,Step-1,Increment      1: Step Time =    1.000,"PART-1-1",           470,       14.0295,      -22.3095,            0.,NA,NA,"",   85.8805E-03,  -61.7002E-03,   59.7373E-03,   9.22716E-03
C:/temp/dataset/7/9_3.odb,Step-1,Increment      1: Step Time =    1.000,"PART-1-1",           471,           15.,        -21.25,            0.,NA,NA,"",   121.259E-03,  -85.0019E-03,   86.4781E-03,   11.7918E-03
C:/temp/dataset/7/9_3.odb,Step-1,Increment      1: Step Time =    1.000,"PART-1-1",           472,       14.1003,      -19.8873,            0.,NA,NA,"",   135.325E-03,  -108.332E-03,   81.0983E-03,   9.57624E-03
C:/temp/dataset/7/9_3.odb,Step-1,Increment      1: Step Time =    1.000,"PART-1-1",           473,            5.,       -26.875,            0.,NA,NA,"",   40.4664E-03,  -19.5116E-03,  -35.4518E-03,   12.9883E-03
C:/temp/dataset/7/9_3.odb,Step-1,Increment      1: Step Time =    1.000,"PART-1-1",           474,       7.35824,      -26.7740,            0.,NA,NA,"",   22.0686E-03,  -9.16028E-03,  -20.0777E-03,   7.65566E-03
C:/temp/dataset/7/9_3.odb,Step-1,Increment      1: Step Time =    1.000,"PART-1-1",           475,       11.2665,      -23.4125,            0.,NA,NA,"",   39.6923E-03,  -37.8216E-03,   12.0419E-03,   2.20582E-03
C:/temp/dataset/7/9_3.odb,Step-1,Increment      1: Step Time =    1.000,"PART-1-1",           476,       10.8283,      -24.9299,            0.,NA,NA,"",   19.9010E-03,  -19.3758E-03,   4.54189E-03,   1.11380E-03
C:/temp/dataset/7/9_3.odb,Step-1,Increment      1: Step Time =    1.000,"PART-1-1",           477,            5.,      -16.4583,            0.,NA,NA,"",   261.574E-03,  -202.325E-03,  -165.788E-03,   14.3467E-03
C:/temp/dataset/7/9_3.odb,Step-1,Increment      1: Step Time =    1.000,"PART-1-1",           478,       7.29529,      -16.4772,            0.,NA,NA,"",   213.994E-03,  -191.138E-03,  -96.2281E-03,   8.21904E-03
C:/temp/dataset/7/9_3.odb,Step-1,Increment      1: Step Time =    1.000,"PART-1-1",           479,            5.,       18.9583,            0.,NA,NA,"",       2.91426,      -2.80957,  -774.084E-03,   22.8185E-03
C:/temp/dataset/7/9_3.odb,Step-1,Increment      1: Step Time =    1.000,"PART-1-1",           480,       6.05050,       17.7875,            0.,NA,NA,"",       2.74799,      -2.67672,  -621.797E-03,   13.7597E-03
C:/temp/dataset/7/9_3.odb,Step-1,Increment      1: Step Time =    1.000,"PART-1-1",           481,       7.11573,       18.6629,            0.,NA,NA,"",       2.82818,      -2.78258,  -505.819E-03,   6.92277E-03
C:/temp/dataset/7/9_3.odb,Step-1,Increment      1: Step Time =    1.000,"PART-1-1",           482,       6.06524,       19.8338,            0.,NA,NA,"",       2.98528,      -2.91261,  -654.646E-03,   14.0073E-03
C:/temp/dataset/7/9_3.odb,Step-1,Increment      1: Step Time =    1.000,"PART-1-1",           483,       6.98524,       16.7251,            0.,NA,NA,"",       2.60579,      -2.55886,  -492.303E-03,   10.2628E-03
C:/temp/dataset/7/9_3.odb,Step-1,Increment      1: Step Time =    1.000,"PART-1-1",           484,            5.,        16.875,            0.,NA,NA,"",       2.67478,      -2.57467,  -724.920E-03,   16.6458E-03
C:/temp/dataset/7/9_3.odb,Step-1,Increment      1: Step Time =    1.000,"PART-1-1",           485,       7.88091,       13.8682,            0.,NA,NA,"",       2.27269,      -2.24543,  -350.972E-03,   7.51726E-03
C:/temp/dataset/7/9_3.odb,Step-1,Increment      1: Step Time =    1.000,"PART-1-1",           486,       7.65947,       15.6945,            0.,NA,NA,"",       2.47730,      -2.44489,  -399.447E-03,   8.20708E-03
C:/temp/dataset/7/9_3.odb,Step-1,Increment      1: Step Time =    1.000,"PART-1-1",           487,       8.92157,       12.9075,            0.,NA,NA,"",       2.15873,      -2.14660,  -228.495E-03,   4.38187E-03
C:/temp/dataset/7/9_3.odb,Step-1,Increment      1: Step Time =    1.000,"PART-1-1",           488,       9.98918,       11.9956,            0.,NA,NA,"",       2.05912,      -2.05622,  -109.301E-03,   1.14700E-03
C:/temp/dataset/7/9_3.odb,Step-1,Increment      1: Step Time =    1.000,"PART-1-1",           489,       10.7968,       13.3004,            0.,NA,NA,"",       2.19819,      -2.19797,  -31.2811E-03,   1.42590E-03
C:/temp/dataset/7/9_3.odb,Step-1,Increment      1: Step Time =    1.000,"PART-1-1",           490,       13.0565,       8.69239,            0.,NA,NA,"",       1.76039,      -1.74901,   199.924E-03,   8.18533E-03
C:/temp/dataset/7/9_3.odb,Step-1,Increment      1: Step Time =    1.000,"PART-1-1",           491,           15.,          8.75,            0.,NA,NA,"",       1.81376,      -1.77284,   383.107E-03,   14.0596E-03
C:/temp/dataset/7/9_3.odb,Step-1,Increment      1: Step Time =    1.000,"PART-1-1",           492,       14.0220,       9.95215,            0.,NA,NA,"",       1.90309,      -1.87969,   297.537E-03,   11.1701E-03
C:/temp/dataset/7/9_3.odb,Step-1,Increment      1: Step Time =    1.000,"PART-1-1",           493,       8.15713,      -6.43409,            0.,NA,NA,"",   623.222E-03,  -608.651E-03,  -133.979E-03,   6.22321E-03
C:/temp/dataset/7/9_3.odb,Step-1,Increment      1: Step Time =    1.000,"PART-1-1",           494,       7.55707,      -5.50995,            0.,NA,NA,"",   683.557E-03,  -660.756E-03,  -175.075E-03,   7.96939E-03
C:/temp/dataset/7/9_3.odb,Step-1,Increment      1: Step Time =    1.000,"PART-1-1",           495,       13.0039,      -1.03047,            0.,NA,NA,"",   965.408E-03,  -952.223E-03,   159.013E-03,   7.68539E-03
C:/temp/dataset/7/9_3.odb,Step-1,Increment      1: Step Time =    1.000,"PART-1-1",           496,       13.9897,      -2.37705,            0.,NA,NA,"",   894.504E-03,  -867.826E-03,   216.831E-03,   10.4575E-03
C:/temp/dataset/7/9_3.odb,Step-1,Increment      1: Step Time =    1.000,"PART-1-1",           497,           15.,         -1.25,            0.,NA,NA,"",   995.390E-03,  -951.195E-03,   293.311E-03,   13.4337E-03
C:/temp/dataset/7/9_3.odb,Step-1,Increment      1: Step Time =    1.000,"PART-1-1",           498,       11.0188,      -11.3444,            0.,NA,NA,"",   373.053E-03,  -372.435E-03,   21.4661E-03,   1.81151E-03
C:/temp/dataset/7/9_3.odb,Step-1,Increment      1: Step Time =    1.000,"PART-1-1",           499,       9.94563,      -10.3262,            0.,NA,NA,"",   416.337E-03,  -415.494E-03,  -26.4825E-03,   1.21849E-03
C:/temp/dataset/7/9_3.odb,Step-1,Increment      1: Step Time =    1.000,"PART-1-1",           500,       9.07908,      -11.6768,            0.,NA,NA,"",   362.497E-03,  -357.460E-03,  -60.2217E-03,   3.55817E-03
C:/temp/dataset/7/9_3.odb,Step-1,Increment      1: Step Time =    1.000,"PART-1-1",           501,       10.1523,      -12.6950,            0.,NA,NA,"",   316.896E-03,  -316.597E-03,  -13.7620E-03,   708.086E-06
C:/temp/dataset/7/9_3.odb,Step-1,Increment      1: Step Time =    1.000,"PART-1-1",           502,       11.2699,       24.2837,            0.,NA,NA,"",       3.56756,      -3.56740,  -34.5037E-03,   6.78094E-03
C:/temp/dataset/7/9_3.odb,Step-1,Increment      1: Step Time =    1.000,"PART-1-1",           503,       12.1787,       22.9892,            0.,NA,NA,"",       3.39869,      -3.39747,   91.1124E-03,   6.76766E-03
C:/temp/dataset/7/9_3.odb,Step-1,Increment      1: Step Time =    1.000,"PART-1-1",           504,           15.,         -3.75,            0.,NA,NA,"",   831.984E-03,  -787.421E-03,   268.635E-03,   13.2631E-03
C:/temp/dataset/7/9_3.odb,Step-1,Increment      1: Step Time =    1.000,"PART-1-1",           505,       12.9359,      -3.49956,            0.,NA,NA,"",   802.416E-03,  -789.541E-03,   143.165E-03,   7.39001E-03
C:/temp/dataset/7/9_3.odb,Step-1,Increment      1: Step Time =    1.000,"PART-1-1",           506,           15.,        -11.25,            0.,NA,NA,"",   437.250E-03,  -393.071E-03,   191.527E-03,   12.6822E-03
C:/temp/dataset/7/9_3.odb,Step-1,Increment      1: Step Time =    1.000,"PART-1-1",           507,       12.9838,      -11.1958,            0.,NA,NA,"",   398.947E-03,  -384.592E-03,   106.055E-03,   7.16867E-03
C:/temp/dataset/7/9_3.odb,Step-1,Increment      1: Step Time =    1.000,"PART-1-1",           508,           15.,         11.25,            0.,NA,NA,"",       2.06049,      -2.02075,   402.731E-03,   14.2592E-03
C:/temp/dataset/7/9_3.odb,Step-1,Increment      1: Step Time =    1.000,"PART-1-1",           509,       12.9950,       11.1325,            0.,NA,NA,"",       1.99848,      -1.98844,   200.003E-03,   8.07209E-03
C:/temp/dataset/7/9_3.odb,Step-1,Increment      1: Step Time =    1.000,"PART-1-1",           510,           15.,          3.75,            0.,NA,NA,"",       1.37127,      -1.32838,   340.266E-03,   13.7457E-03
C:/temp/dataset/7/9_3.odb,Step-1,Increment      1: Step Time =    1.000,"PART-1-1",           511,       13.0643,       3.84158,            0.,NA,NA,"",       1.33284,      -1.32006,   184.153E-03,   8.04526E-03
C:/temp/dataset/7/9_3.odb,Step-1,Increment      1: Step Time =    1.000,"PART-1-1",           512,           15.,        -18.75,            0.,NA,NA,"",   179.248E-03,  -139.455E-03,   112.616E-03,   12.0140E-03
C:/temp/dataset/7/9_3.odb,Step-1,Increment      1: Step Time =    1.000,"PART-1-1",           513,       13.1842,      -18.5870,            0.,NA,NA,"",   151.741E-03,  -135.095E-03,   69.0995E-03,   7.29768E-03
C:/temp/dataset/7/9_3.odb,Step-1,Increment      1: Step Time =    1.000,"PART-1-1",           514,       13.5513,      -24.7801,            0.,NA,NA,"",   43.7007E-03,  -26.7289E-03,   34.5733E-03,   7.82780E-03
C:/temp/dataset/7/9_3.odb,Step-1,Increment      1: Step Time =    1.000,"PART-1-1",           515,       12.2413,      -25.9996,            0.,NA,NA,"",   19.2408E-03,  -11.7665E-03,   15.2236E-03,   4.64075E-03
C:/temp/dataset/7/9_3.odb,Step-1,Increment      1: Step Time =    1.000,"PART-1-1",           516,           15.,        -26.25,            0.,NA,NA,"",   40.5604E-03,  -19.8541E-03,   35.3690E-03,   11.1748E-03
C:/temp/dataset/7/9_3.odb,Step-1,Increment      1: Step Time =    1.000,"PART-1-1",           517,           15.,        -23.75,            0.,NA,NA,"",   75.6230E-03,  -45.2300E-03,   60.6060E-03,   11.4966E-03
C:/temp/dataset/7/9_3.odb,Step-1,Increment      1: Step Time =    1.000,"PART-1-1",           518,       12.5809,      -23.3397,            0.,NA,NA,"",   51.5972E-03,  -41.3067E-03,   30.9197E-03,   5.55622E-03
C:/temp/dataset/7/9_3.odb,Step-1,Increment      1: Step Time =    1.000,"PART-1-1",           519,       9.49127,      -18.7202,            0.,NA,NA,"",   128.659E-03,  -126.413E-03,  -23.9345E-03,   2.39875E-03
C:/temp/dataset/7/9_3.odb,Step-1,Increment      1: Step Time =    1.000,"PART-1-1",           520,       8.36047,      -17.5836,            0.,NA,NA,"",   167.508E-03,  -157.104E-03,  -58.1152E-03,   5.35687E-03
C:/temp/dataset/7/9_3.odb,Step-1,Increment      1: Step Time =    1.000,"PART-1-1",           521,       11.5260,      -20.5498,            0.,NA,NA,"",   89.4316E-03,  -86.5105E-03,   22.6702E-03,   2.92868E-03
C:/temp/dataset/7/9_3.odb,Step-1,Increment      1: Step Time =    1.000,"PART-1-1",           522,       10.5221,      -19.7870,            0.,NA,NA,"",   101.612E-03,  -101.595E-03,   1.86993E-03,   512.111E-06
C:/temp/dataset/7/9_3.odb,Step-1,Increment      1: Step Time =    1.000,"PART-1-1",           523,       11.0260,      -21.8608,            0.,NA,NA,"",   62.3789E-03,  -61.4713E-03,   10.6020E-03,   1.62826E-03
C:/temp/dataset/7/9_3.odb,Step-1,Increment      1: Step Time =    1.000,"PART-1-1",           524,       7.98010,      -10.7619,            0.,NA,NA,"",   413.282E-03,  -397.636E-03,  -112.639E-03,   6.58958E-03
C:/temp/dataset/7/9_3.odb,Step-1,Increment      1: Step Time =    1.000,"PART-1-1",           525,       8.65118,      -4.78401,            0.,NA,NA,"",   710.886E-03,  -701.272E-03,  -116.517E-03,   4.86046E-03
C:/temp/dataset/7/9_3.odb,Step-1,Increment      1: Step Time =    1.000,"PART-1-1",           526,       7.84665,      -3.50518,            0.,NA,NA,"",   798.126E-03,  -778.743E-03,  -174.830E-03,   7.19484E-03
C:/temp/dataset/7/9_3.odb,Step-1,Increment      1: Step Time =    1.000,"PART-1-1",           527,       9.43586,      -6.49799,            0.,NA,NA,"",   607.952E-03,  -604.657E-03,  -63.2084E-03,   2.62773E-03
C:/temp/dataset/7/9_3.odb,Step-1,Increment      1: Step Time =    1.000,"PART-1-1",           528,       10.6293,      -5.79077,            0.,NA,NA,"",   645.157E-03,  -645.155E-03,   1.73215E-03,   843.147E-06
C:/temp/dataset/7/9_3.odb,Step-1,Increment      1: Step Time =    1.000,"PART-1-1",           529,       11.1144,       3.95682,            0.,NA,NA,"",       1.31861,      -1.31837,   25.2097E-03,   2.30051E-03
C:/temp/dataset/7/9_3.odb,Step-1,Increment      1: Step Time =    1.000,"PART-1-1",           530,       10.1270,       5.17226,            0.,NA,NA,"",       1.41702,      -1.41572,  -60.6175E-03,   683.120E-06
C:/temp/dataset/7/9_3.odb,Step-1,Increment      1: Step Time =    1.000,"PART-1-1",           531,       9.05317,       10.7826,            0.,NA,NA,"",       1.93929,      -1.92938,  -195.753E-03,   3.95751E-03
C:/temp/dataset/7/9_3.odb,Step-1,Increment      1: Step Time =    1.000,"PART-1-1",           532,       8.01195,       11.8024,            0.,NA,NA,"",       2.05320,      -2.02936,  -312.010E-03,   7.11675E-03
C:/temp/dataset/7/9_3.odb,Step-1,Increment      1: Step Time =    1.000,"PART-1-1",           533,       11.0241,       10.9595,            0.,NA,NA,"",       1.95633,      -1.95633,   1.39572E-03,   2.04603E-03
C:/temp/dataset/7/9_3.odb,Step-1,Increment      1: Step Time =    1.000,"PART-1-1",           534,       8.35051,       17.3209,            0.,NA,NA,"",       2.65557,      -2.63380,  -339.400E-03,   5.68392E-03
C:/temp/dataset/7/9_3.odb,Step-1,Increment      1: Step Time =    1.000,"PART-1-1",           535,       12.5952,       19.1415,            0.,NA,NA,"",       2.89804,      -2.89373,   157.974E-03,   6.92660E-03
C:/temp/dataset/7/9_3.odb,Step-1,Increment      1: Step Time =    1.000,"PART-1-1",           536,           15.,         18.75,            0.,NA,NA,"",       2.90895,      -2.87370,   451.474E-03,   13.3647E-03
C:/temp/dataset/7/9_3.odb,Step-1,Increment      1: Step Time =    1.000,"PART-1-1",           537,      -7.03326,       22.4462,            0.,NA,NA,"",       4.10524,      -3.07178,      -2.72345,   3.14961E-03
C:/temp/dataset/7/9_3.odb,Step-1,Increment      1: Step Time =    1.000,"PART-1-1",           538,      -8.48458,       21.3302,            0.,NA,NA,"",       4.11346,      -2.86971,      -2.94708,   2.55244E-03
C:/temp/dataset/7/9_3.odb,Step-1,Increment      1: Step Time =    1.000,"PART-1-1",           539,      -6.65000,           20.,            0.,NA,NA,"",       3.75912,      -2.68337,      -2.63259,   4.10433E-03
C:/temp/dataset/7/9_3.odb,Step-1,Increment      1: Step Time =    1.000,"PART-1-1",           540,      -5.19869,       21.1160,            0.,NA,NA,"",       3.76200,      -2.88811,      -2.41069,   4.20634E-03
C:/temp/dataset/7/9_3.odb,Step-1,Increment      1: Step Time =    1.000,"PART-1-1",           541,       9.42603,       26.6587,            0.,NA,NA,"",       3.89664,      -3.88526,  -297.571E-03,   6.28572E-03
C:/temp/dataset/7/9_3.odb,Step-1,Increment      1: Step Time =    1.000,"PART-1-1",           542,       10.3720,       25.4897,            0.,NA,NA,"",       3.73168,      -3.72819,  -161.496E-03,   6.68762E-03
C:/temp/dataset/7/9_3.odb,Step-1,Increment      1: Step Time =    1.000,"PART-1-1",           543,       6.87457,       25.7626,            0.,NA,NA,"",       3.79501,      -3.74272,  -627.827E-03,   5.70607E-03
C:/temp/dataset/7/9_3.odb,Step-1,Increment      1: Step Time =    1.000,"PART-1-1",           544,       7.54675,       26.7337,            0.,NA,NA,"",       3.92309,      -3.88449,  -548.957E-03,   6.15637E-03
C:/temp/dataset/7/9_3.odb,Step-1,Increment      1: Step Time =    1.000,"PART-1-1",           545,      -3.17643,       25.4018,            0.,NA,NA,"",       4.17937,      -3.59285,      -2.13507,   3.02712E-03
C:/temp/dataset/7/9_3.odb,Step-1,Increment      1: Step Time =    1.000,"PART-1-1",           546,      -4.35024,       25.6599,            0.,NA,NA,"",       4.30204,      -3.61846,      -2.32687,   2.95434E-03
C:/temp/dataset/7/9_3.odb,Step-1,Increment      1: Step Time =    1.000,"PART-1-1",           547,       4.01884,       22.4610,            0.,NA,NA,"",       3.39497,      -3.24877,  -985.583E-03,   5.88563E-03
C:/temp/dataset/7/9_3.odb,Step-1,Increment      1: Step Time =    1.000,"PART-1-1",           548,       5.32127,       23.1739,            0.,NA,NA,"",       3.45870,      -3.36307,  -807.692E-03,   5.29149E-03
C:/temp/dataset/7/9_3.odb,Step-1,Increment      1: Step Time =    1.000,"PART-1-1",           549,       11.1447,       22.1526,            0.,NA,NA,"",       3.27330,      -3.27312,  -34.6839E-03,   6.57697E-03
C:/temp/dataset/7/9_3.odb,Step-1,Increment      1: Step Time =    1.000,"PART-1-1",           550,       10.2813,       23.3249,            0.,NA,NA,"",       3.42894,      -3.42553,  -152.999E-03,   7.05280E-03
C:/temp/dataset/7/9_3.odb,Step-1,Increment      1: Step Time =    1.000,"PART-1-1",           551,       6.15508,       21.9496,            0.,NA,NA,"",       3.26837,      -3.19828,  -673.249E-03,   7.08355E-03
C:/temp/dataset/7/9_3.odb,Step-1,Increment      1: Step Time =    1.000,"PART-1-1",           552,       6.48612,       23.9825,            0.,NA,NA,"",       3.54876,      -3.48739,  -657.125E-03,   5.50832E-03
C:/temp/dataset/7/9_3.odb,Step-1,Increment      1: Step Time =    1.000,"PART-1-1",           553,   6.30745E-03,       24.2683,            0.,NA,NA,"",       3.82045,      -3.46025,      -1.61941,   3.27842E-03
C:/temp/dataset/7/9_3.odb,Step-1,Increment      1: Step Time =    1.000,"PART-1-1",           554,      -1.65981,       23.6471,            0.,NA,NA,"",       3.83144,      -3.34206,      -1.87366,   3.40097E-03
C:/temp/dataset/7/9_3.odb,Step-1,Increment      1: Step Time =    1.000,"PART-1-1",           555,      -1.07768,       22.4355,            0.,NA,NA,"",       3.62532,      -3.16427,      -1.76929,   5.07992E-03
C:/temp/dataset/7/9_3.odb,Step-1,Increment      1: Step Time =    1.000,"PART-1-1",           556,   588.432E-03,       23.0567,            0.,NA,NA,"",       3.61818,      -3.28522,      -1.51609,   4.75899E-03
C:/temp/dataset/7/9_3.odb,Step-1,Increment      1: Step Time =    1.000,"PART-1-1",           557,      -4.82218,       24.5397,            0.,NA,NA,"",       4.18540,      -3.43639,      -2.38931,   3.07748E-03
C:/temp/dataset/7/9_3.odb,Step-1,Increment      1: Step Time =    1.000,"PART-1-1",           558,      -3.09511,       23.7242,            0.,NA,NA,"",       3.94072,      -3.33309,      -2.10233,   3.33932E-03
C:/temp/dataset/7/9_3.odb,Step-1,Increment      1: Step Time =    1.000,"PART-1-1",           559,      -5.58708,       23.2486,            0.,NA,NA,"",       4.07645,      -3.22155,      -2.49780,   3.20242E-03
C:/temp/dataset/7/9_3.odb,Step-1,Increment      1: Step Time =    1.000,"PART-1-1",           560,       8.76337,      -9.49006,            0.,NA,NA,"",   461.615E-03,  -453.849E-03,  -84.3181E-03,   4.46881E-03
C:/temp/dataset/7/9_3.odb,Step-1,Increment      1: Step Time =    1.000,"PART-1-1",           561,       9.72759,      -26.4759,            0.,NA,NA,"",   8.00768E-03,  -6.39591E-03,  -4.81821E-03,   1.76650E-03
C:/temp/dataset/7/9_3.odb,Step-1,Increment      1: Step Time =    1.000,"PART-1-1",           562,       9.12173,       6.33780,            0.,NA,NA,"",       1.52122,      -1.51335,  -154.508E-03,   3.65100E-03
C:/temp/dataset/7/9_3.odb,Step-1,Increment      1: Step Time =    1.000,"PART-1-1",           563,       11.1214,       6.29882,            0.,NA,NA,"",       1.51742,      -1.51726,   22.2184E-03,   2.33809E-03
C:/temp/dataset/7/9_3.odb,Step-1,Increment      1: Step Time =    1.000,"PART-1-1",           564,       11.1740,      -13.7880,            0.,NA,NA,"",   277.803E-03,  -276.657E-03,   25.2064E-03,   2.18276E-03
C:/temp/dataset/7/9_3.odb,Step-1,Increment      1: Step Time =    1.000,"PART-1-1",           565,       10.6612,      -8.65022,            0.,NA,NA,"",   494.832E-03,  -494.804E-03,   5.32642E-03,   900.698E-06
C:/temp/dataset/7/9_3.odb,Step-1,Increment      1: Step Time =    1.000,"PART-1-1",           566,       9.47894,      -7.81405,            0.,NA,NA,"",   538.379E-03,  -535.449E-03,  -56.0918E-03,   2.47989E-03
C:/temp/dataset/7/9_3.odb,Step-1,Increment      1: Step Time =    1.000,"PART-1-1",           567,       11.3640,      -18.5194,            0.,NA,NA,"",   134.178E-03,  -132.129E-03,   23.3629E-03,   2.56721E-03
C:/temp/dataset/7/9_3.odb,Step-1,Increment      1: Step Time =    1.000,"PART-1-1",           568,       12.0025,       20.7886,            0.,NA,NA,"",       3.10080,      -3.09977,   80.0299E-03,   6.64929E-03
C:/temp/dataset/7/9_3.odb,Step-1,Increment      1: Step Time =    1.000,"PART-1-1",           569,       11.4947,       18.6594,            0.,NA,NA,"",       2.82186,      -2.82173,   26.3113E-03,   5.10786E-03
C:/temp/dataset/7/9_3.odb,Step-1,Increment      1: Step Time =    1.000,"PART-1-1",           570,       9.39315,       18.1618,            0.,NA,NA,"",       2.75025,      -2.74121,  -222.765E-03,   2.26580E-03
C:/temp/dataset/7/9_3.odb,Step-1,Increment      1: Step Time =    1.000,"PART-1-1",           571,       10.9214,       17.4088,            0.,NA,NA,"",       2.66389,      -2.66364,  -36.5858E-03,   2.84575E-03
C:/temp/dataset/7/9_3.odb,Step-1,Increment      1: Step Time =    1.000,"PART-1-1",           572,      -9.97500,           20.,            0.,NA,NA,"",       4.12245,      -2.63011,      -3.17444,   1.80371E-03
C:/temp/dataset/7/9_3.odb,Step-1,Increment      1: Step Time =    1.000,"PART-1-1",           573,       11.9818,      -2.09472,            0.,NA,NA,"",   879.504E-03,  -875.212E-03,   86.7777E-03,   4.70439E-03
C:/temp/dataset/7/9_3.odb,Step-1,Increment      1: Step Time =    1.000,"PART-1-1",           574,       12.0426,   313.093E-03,            0.,NA,NA,"",       1.04637,      -1.04199,   95.6570E-03,   4.94396E-03
C:/temp/dataset/7/9_3.odb,Step-1,Increment      1: Step Time =    1.000,"PART-1-1",           575,       12.1686,      -14.9632,            0.,NA,NA,"",   244.633E-03,  -237.814E-03,   57.3583E-03,   4.79869E-03
C:/temp/dataset/7/9_3.odb,Step-1,Increment      1: Step Time =    1.000,"PART-1-1",           576,       12.0880,      -12.5178,            0.,NA,NA,"",   332.974E-03,  -326.931E-03,   63.1492E-03,   4.67462E-03
C:/temp/dataset/7/9_3.odb,Step-1,Increment      1: Step Time =    1.000,"PART-1-1",           577,       12.0767,       2.70437,            0.,NA,NA,"",       1.22692,      -1.22266,   102.221E-03,   5.10456E-03
C:/temp/dataset/7/9_3.odb,Step-1,Increment      1: Step Time =    1.000,"PART-1-1",           578,       11.6617,       14.7036,            0.,NA,NA,"",       2.35831,      -2.35760,   58.0764E-03,   4.09851E-03
C:/temp/dataset/7/9_3.odb,Step-1,Increment      1: Step Time =    1.000,"PART-1-1",           579,       11.9561,       12.2406,            0.,NA,NA,"",       2.09623,      -2.09412,   94.0960E-03,   4.90258E-03
C:/temp/dataset/7/9_3.odb,Step-1,Increment      1: Step Time =    1.000,"PART-1-1",           580,       12.3155,      -19.7087,            0.,NA,NA,"",   114.197E-03,  -105.975E-03,   42.5461E-03,   4.99421E-03
C:/temp/dataset/7/9_3.odb,Step-1,Increment      1: Step Time =    1.000,"PART-1-1",           581,       12.3404,      -21.7879,            0.,NA,NA,"",   73.3658E-03,  -64.9057E-03,   34.2023E-03,   4.91973E-03
C:/temp/dataset/7/9_3.odb,Step-1,Increment      1: Step Time =    1.000,"PART-1-1",           582,       12.2327,      -17.3977,            0.,NA,NA,"",   170.902E-03,  -163.447E-03,   49.9263E-03,   4.86783E-03
C:/temp/dataset/7/9_3.odb,Step-1,Increment      1: Step Time =    1.000,"PART-1-1",           583,       12.1020,       5.09402,            0.,NA,NA,"",       1.42244,      -1.41838,   107.389E-03,   5.23421E-03
C:/temp/dataset/7/9_3.odb,Step-1,Increment      1: Step Time =    1.000,"PART-1-1",           584,       12.0630,       9.85139,            0.,NA,NA,"",       1.85623,      -1.85319,   106.252E-03,   5.19768E-03
C:/temp/dataset/7/9_3.odb,Step-1,Increment      1: Step Time =    1.000,"PART-1-1",           585,       12.0921,       7.47372,            0.,NA,NA,"",       1.63191,      -1.62830,   108.477E-03,   5.25082E-03
C:/temp/dataset/7/9_3.odb,Step-1,Increment      1: Step Time =    1.000,"PART-1-1",           586,       11.9146,      -10.0225,            0.,NA,NA,"",   437.378E-03,  -432.747E-03,   63.4788E-03,   4.28948E-03
C:/temp/dataset/7/9_3.odb,Step-1,Increment      1: Step Time =    1.000,"PART-1-1",           587,       11.5993,      -7.26023,            0.,NA,NA,"",   570.179E-03,  -567.597E-03,   54.2006E-03,   3.48284E-03
C:/temp/dataset/7/9_3.odb,Step-1,Increment      1: Step Time =    1.000,"PART-1-1",           588,       11.8707,      -4.56496,            0.,NA,NA,"",   723.556E-03,  -719.694E-03,   74.6619E-03,   4.32115E-03
C:/temp/dataset/7/9_3.odb,Step-1,Increment      1: Step Time =    1.000,"PART-1-1",           589,      -3.86001,       22.4330,            0.,NA,NA,"",       3.82287,      -3.11918,      -2.21022,   3.85700E-03
C:/temp/dataset/7/9_3.odb,Step-1,Increment      1: Step Time =    1.000,"PART-1-1",           590,       3.35000,           20.,            0.,NA,NA,"",       3.06705,      -2.87595,      -1.06570,   14.7748E-03
C:/temp/dataset/7/9_3.odb,Step-1,Increment      1: Step Time =    1.000,"PART-1-1",           591,       5.05511,       21.0689,            0.,NA,NA,"",       3.17142,      -3.06591,  -811.219E-03,   12.3760E-03
C:/temp/dataset/7/9_3.odb,Step-1,Increment      1: Step Time =    1.000,"PART-1-1",           592,       2.31373,       21.3921,            0.,NA,NA,"",       3.30354,      -3.06424,      -1.23441,   7.60706E-03
C:/temp/dataset/7/9_3.odb,Step-1,Increment      1: Step Time =    1.000,"PART-1-1",           593,      -1.98632,       21.3170,            0.,NA,NA,"",       3.53031,      -2.97478,      -1.90099,   5.56567E-03
C:/temp/dataset/7/9_3.odb,Step-1,Increment      1: Step Time =    1.000,"PART-1-1",           594,   25.0000E-03,           20.,            0.,NA,NA,"",       3.21746,      -2.80545,      -1.57527,   7.88106E-03
C:/temp/dataset/7/9_3.odb,Step-1,Increment      1: Step Time =    1.000,"PART-1-1",           595,   933.640E-03,       21.1186,            0.,NA,NA,"",       3.32659,      -2.99648,      -1.44474,   7.74371E-03
C:/temp/dataset/7/9_3.odb,Step-1,Increment      1: Step Time =    1.000,"PART-1-1",           596,       7.16521,       20.7144,            0.,NA,NA,"",       3.08488,      -3.04008,  -523.818E-03,   6.50496E-03
C:/temp/dataset/7/9_3.odb,Step-1,Increment      1: Step Time =    1.000,"PART-1-1",           597,       8.15837,       19.5039,            0.,NA,NA,"",       2.92121,      -2.89565,  -385.589E-03,   4.31516E-03
C:/temp/dataset/7/9_3.odb,Step-1,Increment      1: Step Time =    1.000,"PART-1-1",           598,      -3.32500,           20.,            0.,NA,NA,"",       3.45375,      -2.74239,      -2.09945,   6.32031E-03
