ODB Name,Step,Frame,Part Instance Name,    êﬂì_ÉâÉxÉã,X,Y,Z,Section Name,Material Name,Section Point,   U-Magnitude,          U-U1,          U-U2,       S-Mises
C:/temp/dataset/9/12_3.odb,Step-1,Increment      1: Step Time =    1.000,"PART-1-1",             1,            5.,           20.,            0.,NA,NA,"",   172.047E-03,  -171.649E-03,  -11.6844E-03,   2.48471E-09
C:/temp/dataset/9/12_3.odb,Step-1,Increment      1: Step Time =    1.000,"PART-1-1",             2,            0.,           20.,            0.,NA,NA,"",   173.762E-03,  -171.625E-03,  -27.1653E-03,   1.01567E-09
C:/temp/dataset/9/12_3.odb,Step-1,Increment      1: Step Time =    1.000,"PART-1-1",             3,            5.,          12.5,            0.,NA,NA,"",   148.884E-03,  -148.428E-03,  -11.6485E-03,   3.59280E-09
C:/temp/dataset/9/12_3.odb,Step-1,Increment      1: Step Time =    1.000,"PART-1-1",             4,            5.,            5.,            0.,NA,NA,"",   125.744E-03,  -125.206E-03,  -11.6125E-03,   33.2691E-09
C:/temp/dataset/9/12_3.odb,Step-1,Increment      1: Step Time =    1.000,"PART-1-1",             5,            0.,            5.,            0.,NA,NA,"",   128.081E-03,  -125.182E-03,  -27.0934E-03,   9.20681E-09
C:/temp/dataset/9/12_3.odb,Step-1,Increment      1: Step Time =    1.000,"PART-1-1",             6,           -5.,            5.,            0.,NA,NA,"",   132.201E-03,  -125.158E-03,  -42.5743E-03,   2.62821E-09
C:/temp/dataset/9/12_3.odb,Step-1,Increment      1: Step Time =    1.000,"PART-1-1",             7,           -5.,          12.5,            0.,NA,NA,"",   154.377E-03,  -148.380E-03,  -42.6103E-03,   2.02609E-09
C:/temp/dataset/9/12_3.odb,Step-1,Increment      1: Step Time =    1.000,"PART-1-1",             8,           -5.,           20.,            0.,NA,NA,"",   176.821E-03,  -171.601E-03,  -42.6463E-03,   5.04951E-09
C:/temp/dataset/9/12_3.odb,Step-1,Increment      1: Step Time =    1.000,"PART-1-1",             9,           15.,           30.,            0.,NA,NA,"",   203.569E-03,  -202.659E-03,   19.2296E-03,   105.754E-12
C:/temp/dataset/9/12_3.odb,Step-1,Increment      1: Step Time =    1.000,"PART-1-1",            10,           7.5,           30.,            0.,NA,NA,"",   202.663E-03,  -202.623E-03,  -3.99184E-03,   623.849E-12
C:/temp/dataset/9/12_3.odb,Step-1,Increment      1: Step Time =    1.000,"PART-1-1",            11,            0.,           30.,            0.,NA,NA,"",   204.407E-03,  -202.587E-03,  -27.2133E-03,   648.389E-12
C:/temp/dataset/9/12_3.odb,Step-1,Increment      1: Step Time =    1.000,"PART-1-1",            12,          -7.5,           30.,            0.,NA,NA,"",   208.736E-03,  -202.551E-03,  -50.4347E-03,   1.28985E-09
C:/temp/dataset/9/12_3.odb,Step-1,Increment      1: Step Time =    1.000,"PART-1-1",            13,          -15.,           30.,            0.,NA,NA,"",   215.494E-03,  -202.515E-03,  -73.6561E-03,   161.205E-12
C:/temp/dataset/9/12_3.odb,Step-1,Increment      1: Step Time =    1.000,"PART-1-1",            14,          -15.,         21.25,            0.,NA,NA,"",   190.243E-03,  -175.424E-03,  -73.6142E-03,   1.47928E-09
C:/temp/dataset/9/12_3.odb,Step-1,Increment      1: Step Time =    1.000,"PART-1-1",            15,          -15.,          12.5,            0.,NA,NA,"",   165.576E-03,  -148.332E-03,  -73.5723E-03,   1.05987E-09
C:/temp/dataset/9/12_3.odb,Step-1,Increment      1: Step Time =    1.000,"PART-1-1",            16,          -15.,          3.75,            0.,NA,NA,"",   141.795E-03,  -121.240E-03,  -73.5303E-03,   176.211E-12
C:/temp/dataset/9/12_3.odb,Step-1,Increment      1: Step Time =    1.000,"PART-1-1",            17,          -15.,           -5.,            0.,NA,NA,"",   119.434E-03,  -94.1485E-03,  -73.4884E-03,   122.428E-12
C:/temp/dataset/9/12_3.odb,Step-1,Increment      1: Step Time =    1.000,"PART-1-1",            18,          -10.,           -5.,            0.,NA,NA,"",   110.604E-03,  -94.1725E-03,  -58.0074E-03,   312.694E-12
C:/temp/dataset/9/12_3.odb,Step-1,Increment      1: Step Time =    1.000,"PART-1-1",            19,           -5.,           -5.,            0.,NA,NA,"",   103.351E-03,  -94.1965E-03,  -42.5264E-03,   1.09376E-09
C:/temp/dataset/9/12_3.odb,Step-1,Increment      1: Step Time =    1.000,"PART-1-1",            20,            0.,           -5.,            0.,NA,NA,"",   98.0252E-03,  -94.2204E-03,  -27.0454E-03,   18.7645E-09
C:/temp/dataset/9/12_3.odb,Step-1,Increment      1: Step Time =    1.000,"PART-1-1",            21,            5.,           -5.,            0.,NA,NA,"",   94.9512E-03,  -94.2444E-03,  -11.5638E-03,   585.773E-09
C:/temp/dataset/9/12_3.odb,Step-1,Increment      1: Step Time =    1.000,"PART-1-1",            22,            5.,        -11.25,            0.,NA,NA,"",   75.7994E-03,  -74.9169E-03,  -11.5330E-03,   4.66472E-06
C:/temp/dataset/9/12_3.odb,Step-1,Increment      1: Step Time =    1.000,"PART-1-1",            23,            5.,         -17.5,            0.,NA,NA,"",   56.8032E-03,  -55.5669E-03,  -11.7862E-03,   145.263E-06
C:/temp/dataset/9/12_3.odb,Step-1,Increment      1: Step Time =    1.000,"PART-1-1",            24,            5.,        -23.75,            0.,NA,NA,"",   35.3653E-03,  -32.9189E-03,  -12.9246E-03,   120.619E-06
C:/temp/dataset/9/12_3.odb,Step-1,Increment      1: Step Time =    1.000,"PART-1-1",            25,            5.,          -30.,            0.,NA,NA,"",            0.,  -2.04434E-39,  -3.51476E-39,   7.00307E-03
C:/temp/dataset/9/12_3.odb,Step-1,Increment      1: Step Time =    1.000,"PART-1-1",            26,           15.,          -30.,            0.,NA,NA,"",            0.,  -3.71119E-39,   5.65505E-39,   11.6919E-03
C:/temp/dataset/9/12_3.odb,Step-1,Increment      1: Step Time =    1.000,"PART-1-1",            27,           15.,         -22.5,            0.,NA,NA,"",   48.1447E-03,  -45.1288E-03,   16.7721E-03,   1.60522E-03
C:/temp/dataset/9/12_3.odb,Step-1,Increment      1: Step Time =    1.000,"PART-1-1",            28,           15.,          -15.,            0.,NA,NA,"",   66.1541E-03,  -63.2524E-03,   19.3775E-03,   54.8173E-06
C:/temp/dataset/9/12_3.odb,Step-1,Increment      1: Step Time =    1.000,"PART-1-1",            29,           15.,          -7.5,            0.,NA,NA,"",   88.6985E-03,  -86.5479E-03,   19.4132E-03,   1.18317E-06
C:/temp/dataset/9/12_3.odb,Step-1,Increment      1: Step Time =    1.000,"PART-1-1",            30,           15.,            0.,            0.,NA,NA,"",   111.470E-03,  -109.774E-03,   19.3736E-03,   120.012E-09
C:/temp/dataset/9/12_3.odb,Step-1,Increment      1: Step Time =    1.000,"PART-1-1",            31,           15.,           7.5,            0.,NA,NA,"",   134.393E-03,  -132.995E-03,   19.3374E-03,   615.693E-12
C:/temp/dataset/9/12_3.odb,Step-1,Increment      1: Step Time =    1.000,"PART-1-1",            32,           15.,           15.,            0.,NA,NA,"",   157.404E-03,  -156.216E-03,   19.3015E-03,   1.41176E-09
C:/temp/dataset/9/12_3.odb,Step-1,Increment      1: Step Time =    1.000,"PART-1-1",            33,           15.,          22.5,            0.,NA,NA,"",   180.469E-03,  -179.438E-03,   19.2655E-03,   767.354E-12
C:/temp/dataset/9/12_3.odb,Step-1,Increment      1: Step Time =    1.000,"PART-1-1",            34,           2.5,           20.,            0.,NA,NA,"",   172.733E-03,  -171.637E-03,  -19.4249E-03,   811.092E-12
C:/temp/dataset/9/12_3.odb,Step-1,Increment      1: Step Time =    1.000,"PART-1-1",            35,            5.,           15.,            0.,NA,NA,"",   156.603E-03,  -156.168E-03,  -11.6604E-03,   2.84104E-09
C:/temp/dataset/9/12_3.odb,Step-1,Increment      1: Step Time =    1.000,"PART-1-1",            36,            5.,          17.5,            0.,NA,NA,"",   164.324E-03,  -163.909E-03,  -11.6724E-03,   2.64930E-09
C:/temp/dataset/9/12_3.odb,Step-1,Increment      1: Step Time =    1.000,"PART-1-1",            37,            5.,           7.5,            0.,NA,NA,"",   133.454E-03,  -132.947E-03,  -11.6245E-03,   8.07941E-09
C:/temp/dataset/9/12_3.odb,Step-1,Increment      1: Step Time =    1.000,"PART-1-1",            38,            5.,           10.,            0.,NA,NA,"",   141.168E-03,  -140.687E-03,  -11.6365E-03,   5.10879E-09
C:/temp/dataset/9/12_3.odb,Step-1,Increment      1: Step Time =    1.000,"PART-1-1",            39,           2.5,            5.,            0.,NA,NA,"",   126.681E-03,  -125.194E-03,  -19.3529E-03,   3.98498E-09
C:/temp/dataset/9/12_3.odb,Step-1,Increment      1: Step Time =    1.000,"PART-1-1",            40,          -2.5,            5.,            0.,NA,NA,"",   129.927E-03,  -125.170E-03,  -34.8338E-03,   5.98842E-09
C:/temp/dataset/9/12_3.odb,Step-1,Increment      1: Step Time =    1.000,"PART-1-1",            41,           -5.,           10.,            0.,NA,NA,"",   146.949E-03,  -140.639E-03,  -42.5983E-03,   1.80214E-09
C:/temp/dataset/9/12_3.odb,Step-1,Increment      1: Step Time =    1.000,"PART-1-1",            42,           -5.,           7.5,            0.,NA,NA,"",   139.555E-03,  -132.899E-03,  -42.5863E-03,   1.69009E-09
C:/temp/dataset/9/12_3.odb,Step-1,Increment      1: Step Time =    1.000,"PART-1-1",            43,           -5.,          17.5,            0.,NA,NA,"",   169.316E-03,  -163.861E-03,  -42.6343E-03,   3.11772E-09
C:/temp/dataset/9/12_3.odb,Step-1,Increment      1: Step Time =    1.000,"PART-1-1",            44,           -5.,           15.,            0.,NA,NA,"",   161.834E-03,  -156.120E-03,  -42.6223E-03,   2.28435E-09
C:/temp/dataset/9/12_3.odb,Step-1,Increment      1: Step Time =    1.000,"PART-1-1",            45,          -2.5,           20.,            0.,NA,NA,"",   175.127E-03,  -171.613E-03,  -34.9058E-03,   1.81708E-09
C:/temp/dataset/9/12_3.odb,Step-1,Increment      1: Step Time =    1.000,"PART-1-1",            46,          12.5,           30.,            0.,NA,NA,"",   202.973E-03,  -202.647E-03,   11.4891E-03,   244.580E-12
C:/temp/dataset/9/12_3.odb,Step-1,Increment      1: Step Time =    1.000,"PART-1-1",            47,           10.,           30.,            0.,NA,NA,"",   202.670E-03,  -202.635E-03,   3.74864E-03,   470.683E-12
C:/temp/dataset/9/12_3.odb,Step-1,Increment      1: Step Time =    1.000,"PART-1-1",            48,            5.,           30.,            0.,NA,NA,"",   202.951E-03,  -202.611E-03,  -11.7323E-03,   477.765E-12
C:/temp/dataset/9/12_3.odb,Step-1,Increment      1: Step Time =    1.000,"PART-1-1",            49,           2.5,           30.,            0.,NA,NA,"",   203.533E-03,  -202.599E-03,  -19.4728E-03,   148.546E-12
C:/temp/dataset/9/12_3.odb,Step-1,Increment      1: Step Time =    1.000,"PART-1-1",            50,          -2.5,           30.,            0.,NA,NA,"",   205.569E-03,  -202.575E-03,  -34.9537E-03,   1.17327E-09
C:/temp/dataset/9/12_3.odb,Step-1,Increment      1: Step Time =    1.000,"PART-1-1",            51,           -5.,           30.,            0.,NA,NA,"",   207.014E-03,  -202.563E-03,  -42.6942E-03,   1.47036E-09
C:/temp/dataset/9/12_3.odb,Step-1,Increment      1: Step Time =    1.000,"PART-1-1",            52,          -10.,           30.,            0.,NA,NA,"",   210.729E-03,  -202.539E-03,  -58.1752E-03,   739.177E-12
C:/temp/dataset/9/12_3.odb,Step-1,Increment      1: Step Time =    1.000,"PART-1-1",            53,         -12.5,           30.,            0.,NA,NA,"",   212.984E-03,  -202.527E-03,  -65.9156E-03,   204.698E-12
C:/temp/dataset/9/12_3.odb,Step-1,Increment      1: Step Time =    1.000,"PART-1-1",            54,          -15.,       27.8125,            0.,NA,NA,"",   209.138E-03,  -195.742E-03,  -73.6456E-03,   154.227E-12
C:/temp/dataset/9/12_3.odb,Step-1,Increment      1: Step Time =    1.000,"PART-1-1",            55,          -15.,        25.625,            0.,NA,NA,"",   202.809E-03,  -188.970E-03,  -73.6351E-03,   479.158E-12
C:/temp/dataset/9/12_3.odb,Step-1,Increment      1: Step Time =    1.000,"PART-1-1",            56,          -15.,       23.4375,            0.,NA,NA,"",   196.510E-03,  -182.197E-03,  -73.6247E-03,   1.02120E-09
C:/temp/dataset/9/12_3.odb,Step-1,Increment      1: Step Time =    1.000,"PART-1-1",            57,          -15.,       19.0625,            0.,NA,NA,"",   184.012E-03,  -168.651E-03,  -73.6037E-03,   1.69202E-09
C:/temp/dataset/9/12_3.odb,Step-1,Increment      1: Step Time =    1.000,"PART-1-1",            58,          -15.,        16.875,            0.,NA,NA,"",   177.821E-03,  -161.878E-03,  -73.5932E-03,   1.62294E-09
C:/temp/dataset/9/12_3.odb,Step-1,Increment      1: Step Time =    1.000,"PART-1-1",            59,          -15.,       14.6875,            0.,NA,NA,"",   171.674E-03,  -155.105E-03,  -73.5827E-03,   1.37487E-09
C:/temp/dataset/9/12_3.odb,Step-1,Increment      1: Step Time =    1.000,"PART-1-1",            60,          -15.,       10.3125,            0.,NA,NA,"",   159.532E-03,  -141.559E-03,  -73.5618E-03,   723.173E-12
C:/temp/dataset/9/12_3.odb,Step-1,Increment      1: Step Time =    1.000,"PART-1-1",            61,          -15.,         8.125,            0.,NA,NA,"",   153.548E-03,  -134.786E-03,  -73.5513E-03,   386.228E-12
C:/temp/dataset/9/12_3.odb,Step-1,Increment      1: Step Time =    1.000,"PART-1-1",            62,          -15.,        5.9375,            0.,NA,NA,"",   147.633E-03,  -128.013E-03,  -73.5408E-03,   134.682E-12
C:/temp/dataset/9/12_3.odb,Step-1,Increment      1: Step Time =    1.000,"PART-1-1",            63,          -15.,        1.5625,            0.,NA,NA,"",   136.044E-03,  -114.467E-03,  -73.5198E-03,   202.444E-12
C:/temp/dataset/9/12_3.odb,Step-1,Increment      1: Step Time =    1.000,"PART-1-1",            64,          -15.,     -625.E-03,            0.,NA,NA,"",   130.391E-03,  -107.694E-03,  -73.5093E-03,   141.127E-12
C:/temp/dataset/9/12_3.odb,Step-1,Increment      1: Step Time =    1.000,"PART-1-1",            65,          -15.,       -2.8125,            0.,NA,NA,"",   124.849E-03,  -100.921E-03,  -73.4989E-03,   112.852E-12
C:/temp/dataset/9/12_3.odb,Step-1,Increment      1: Step Time =    1.000,"PART-1-1",            66,         -12.5,           -5.,            0.,NA,NA,"",   114.843E-03,  -94.1605E-03,  -65.7479E-03,   207.238E-12
C:/temp/dataset/9/12_3.odb,Step-1,Increment      1: Step Time =    1.000,"PART-1-1",            67,          -7.5,           -5.,            0.,NA,NA,"",   106.759E-03,  -94.1845E-03,  -50.2669E-03,   549.943E-12
C:/temp/dataset/9/12_3.odb,Step-1,Increment      1: Step Time =    1.000,"PART-1-1",            68,          -2.5,           -5.,            0.,NA,NA,"",   100.426E-03,  -94.2084E-03,  -34.7859E-03,   3.98875E-09
C:/temp/dataset/9/12_3.odb,Step-1,Increment      1: Step Time =    1.000,"PART-1-1",            69,           2.5,           -5.,            0.,NA,NA,"",   96.1895E-03,  -94.2324E-03,  -19.3048E-03,   93.5840E-09
C:/temp/dataset/9/12_3.odb,Step-1,Increment      1: Step Time =    1.000,"PART-1-1",            70,            5.,      -7.08333,            0.,NA,NA,"",   88.5530E-03,  -87.7963E-03,  -11.5518E-03,   1.11934E-06
C:/temp/dataset/9/12_3.odb,Step-1,Increment      1: Step Time =    1.000,"PART-1-1",            71,            5.,      -9.16667,            0.,NA,NA,"",   82.1669E-03,  -81.3524E-03,  -11.5402E-03,   458.020E-09
C:/temp/dataset/9/12_3.odb,Step-1,Increment      1: Step Time =    1.000,"PART-1-1",            72,            5.,      -13.3333,            0.,NA,NA,"",   69.4580E-03,  -68.4920E-03,  -11.5442E-03,   21.5792E-06
C:/temp/dataset/9/12_3.odb,Step-1,Increment      1: Step Time =    1.000,"PART-1-1",            73,            5.,      -15.4167,            0.,NA,NA,"",   63.1407E-03,  -62.0645E-03,  -11.6081E-03,   64.5642E-06
C:/temp/dataset/9/12_3.odb,Step-1,Increment      1: Step Time =    1.000,"PART-1-1",            74,            5.,      -19.5833,            0.,NA,NA,"",   50.2985E-03,  -48.8100E-03,  -12.1456E-03,   243.320E-06
C:/temp/dataset/9/12_3.odb,Step-1,Increment      1: Step Time =    1.000,"PART-1-1",            75,            5.,      -21.6667,            0.,NA,NA,"",   43.3009E-03,  -41.4126E-03,  -12.6476E-03,   249.979E-06
C:/temp/dataset/9/12_3.odb,Step-1,Increment      1: Step Time =    1.000,"PART-1-1",            76,            5.,      -25.8333,            0.,NA,NA,"",   25.9853E-03,  -22.9780E-03,  -12.1346E-03,   926.162E-06
C:/temp/dataset/9/12_3.odb,Step-1,Increment      1: Step Time =    1.000,"PART-1-1",            77,            5.,      -27.9167,            0.,NA,NA,"",   15.0776E-03,  -12.0753E-03,  -9.02897E-03,   3.17363E-03
C:/temp/dataset/9/12_3.odb,Step-1,Increment      1: Step Time =    1.000,"PART-1-1",            78,           7.5,          -30.,            0.,NA,NA,"",            0.,  -2.52839E-39,  -866.798E-42,   2.44781E-03
C:/temp/dataset/9/12_3.odb,Step-1,Increment      1: Step Time =    1.000,"PART-1-1",            79,           10.,          -30.,            0.,NA,NA,"",            0.,  -2.16628E-39,  -1.21971E-39,   3.27473E-03
C:/temp/dataset/9/12_3.odb,Step-1,Increment      1: Step Time =    1.000,"PART-1-1",            80,          12.5,          -30.,            0.,NA,NA,"",            0.,  -4.18813E-39,   1.53991E-39,   3.84637E-03
C:/temp/dataset/9/12_3.odb,Step-1,Increment      1: Step Time =    1.000,"PART-1-1",            81,           15.,         -27.5,            0.,NA,NA,"",   28.4189E-03,  -24.9415E-03,   13.6217E-03,   5.26408E-03
C:/temp/dataset/9/12_3.odb,Step-1,Increment      1: Step Time =    1.000,"PART-1-1",            82,           15.,          -25.,            0.,NA,NA,"",   42.6882E-03,  -39.3281E-03,   16.6008E-03,   2.90807E-03
C:/temp/dataset/9/12_3.odb,Step-1,Increment      1: Step Time =    1.000,"PART-1-1",            83,           15.,          -20.,            0.,NA,NA,"",   51.8734E-03,  -48.4335E-03,   18.5752E-03,   657.858E-06
C:/temp/dataset/9/12_3.odb,Step-1,Increment      1: Step Time =    1.000,"PART-1-1",            84,           15.,         -17.5,            0.,NA,NA,"",   58.7748E-03,  -55.5826E-03,   19.1063E-03,   196.551E-06
C:/temp/dataset/9/12_3.odb,Step-1,Increment      1: Step Time =    1.000,"PART-1-1",            85,           15.,         -12.5,            0.,NA,NA,"",   73.6399E-03,  -71.0317E-03,   19.4249E-03,   12.4348E-06
C:/temp/dataset/9/12_3.odb,Step-1,Increment      1: Step Time =    1.000,"PART-1-1",            86,           15.,          -10.,            0.,NA,NA,"",   81.1560E-03,  -78.7965E-03,   19.4269E-03,   832.205E-09
C:/temp/dataset/9/12_3.odb,Step-1,Increment      1: Step Time =    1.000,"PART-1-1",            87,           15.,           -5.,            0.,NA,NA,"",   96.2666E-03,  -94.2917E-03,   19.3992E-03,   753.509E-09
C:/temp/dataset/9/12_3.odb,Step-1,Increment      1: Step Time =    1.000,"PART-1-1",            88,           15.,          -2.5,            0.,NA,NA,"",   103.858E-03,  -102.033E-03,   19.3860E-03,   336.642E-09
C:/temp/dataset/9/12_3.odb,Step-1,Increment      1: Step Time =    1.000,"PART-1-1",            89,           15.,           2.5,            0.,NA,NA,"",   119.098E-03,  -117.514E-03,   19.3615E-03,   34.2954E-09
C:/temp/dataset/9/12_3.odb,Step-1,Increment      1: Step Time =    1.000,"PART-1-1",            90,           15.,            5.,            0.,NA,NA,"",   126.740E-03,  -125.254E-03,   19.3494E-03,   7.48315E-09
C:/temp/dataset/9/12_3.odb,Step-1,Increment      1: Step Time =    1.000,"PART-1-1",            91,           15.,           10.,            0.,NA,NA,"",   142.056E-03,  -140.735E-03,   19.3255E-03,   278.817E-12
C:/temp/dataset/9/12_3.odb,Step-1,Increment      1: Step Time =    1.000,"PART-1-1",            92,           15.,          12.5,            0.,NA,NA,"",   149.727E-03,  -148.476E-03,   19.3135E-03,   1.01656E-09
C:/temp/dataset/9/12_3.odb,Step-1,Increment      1: Step Time =    1.000,"PART-1-1",            93,           15.,          17.5,            0.,NA,NA,"",   165.088E-03,  -163.957E-03,   19.2895E-03,   1.43597E-09
C:/temp/dataset/9/12_3.odb,Step-1,Increment      1: Step Time =    1.000,"PART-1-1",            94,           15.,           20.,            0.,NA,NA,"",   172.776E-03,  -171.697E-03,   19.2775E-03,   1.16591E-09
C:/temp/dataset/9/12_3.odb,Step-1,Increment      1: Step Time =    1.000,"PART-1-1",            95,           15.,           25.,            0.,NA,NA,"",   188.166E-03,  -187.178E-03,   19.2536E-03,   376.437E-12
C:/temp/dataset/9/12_3.odb,Step-1,Increment      1: Step Time =    1.000,"PART-1-1",            96,           15.,          27.5,            0.,NA,NA,"",   195.866E-03,  -194.919E-03,   19.2416E-03,   130.640E-12
C:/temp/dataset/9/12_3.odb,Step-1,Increment      1: Step Time =    1.000,"PART-1-1",            97,       7.09255,      -21.6558,            0.,NA,NA,"",   41.9317E-03,  -41.6229E-03,  -5.07986E-03,   253.339E-06
C:/temp/dataset/9/12_3.odb,Step-1,Increment      1: Step Time =    1.000,"PART-1-1",            98,       7.09346,      -17.4368,            0.,NA,NA,"",   56.0708E-03,  -55.8443E-03,  -5.03407E-03,   93.3048E-06
C:/temp/dataset/9/12_3.odb,Step-1,Increment      1: Step Time =    1.000,"PART-1-1",            99,       7.15828,      -23.7452,            0.,NA,NA,"",   33.2546E-03,  -32.9132E-03,  -4.75239E-03,   925.465E-06
C:/temp/dataset/9/12_3.odb,Step-1,Increment      1: Step Time =    1.000,"PART-1-1",           100,       7.44609,      -27.8729,            0.,NA,NA,"",   11.1428E-03,  -10.9217E-03,  -2.20875E-03,   3.46553E-03
C:/temp/dataset/9/12_3.odb,Step-1,Increment      1: Step Time =    1.000,"PART-1-1",           101,       7.30780,      -25.7939,            0.,NA,NA,"",   22.8818E-03,  -22.5997E-03,  -3.58157E-03,   2.11362E-03
C:/temp/dataset/9/12_3.odb,Step-1,Increment      1: Step Time =    1.000,"PART-1-1",           102,       7.08258,      -10.9526,            0.,NA,NA,"",   76.0164E-03,  -75.8459E-03,  -5.08826E-03,   10.0324E-06
C:/temp/dataset/9/12_3.odb,Step-1,Increment      1: Step Time =    1.000,"PART-1-1",           103,       7.09950,      -13.1236,            0.,NA,NA,"",   69.3378E-03,  -69.1555E-03,  -5.02499E-03,   28.5226E-06
C:/temp/dataset/9/12_3.odb,Step-1,Increment      1: Step Time =    1.000,"PART-1-1",           104,       6.95448,      -6.62029,            0.,NA,NA,"",   89.4078E-03,  -89.2382E-03,  -5.50555E-03,   230.446E-09
C:/temp/dataset/9/12_3.odb,Step-1,Increment      1: Step Time =    1.000,"PART-1-1",           105,       7.04974,      -8.78764,            0.,NA,NA,"",   82.6973E-03,  -82.5337E-03,  -5.20030E-03,   2.50159E-06
C:/temp/dataset/9/12_3.odb,Step-1,Increment      1: Step Time =    1.000,"PART-1-1",           106,       7.10540,      -15.2896,            0.,NA,NA,"",   62.6928E-03,  -62.4933E-03,  -4.99746E-03,   62.6190E-06
C:/temp/dataset/9/12_3.odb,Step-1,Increment      1: Step Time =    1.000,"PART-1-1",           107,       7.08223,      -19.5608,            0.,NA,NA,"",   49.2917E-03,  -49.0278E-03,  -5.09378E-03,   60.9089E-06
C:/temp/dataset/9/12_3.odb,Step-1,Increment      1: Step Time =    1.000,"PART-1-1",           108,      -11.8989,       25.3809,            0.,NA,NA,"",   198.822E-03,  -188.228E-03,  -64.0324E-03,   914.343E-12
C:/temp/dataset/9/12_3.odb,Step-1,Increment      1: Step Time =    1.000,"PART-1-1",           109,      -12.7134,       3.51066,            0.,NA,NA,"",   137.616E-03,  -120.510E-03,  -66.4494E-03,   230.641E-12
C:/temp/dataset/9/12_3.odb,Step-1,Increment      1: Step Time =    1.000,"PART-1-1",           110,      -13.0834,       10.3867,            0.,NA,NA,"",   157.099E-03,  -141.798E-03,  -67.6280E-03,   473.530E-12
C:/temp/dataset/9/12_3.odb,Step-1,Increment      1: Step Time =    1.000,"PART-1-1",           111,      -12.9355,       8.20912,            0.,NA,NA,"",   150.833E-03,  -135.056E-03,  -67.1597E-03,   404.007E-12
C:/temp/dataset/9/12_3.odb,Step-1,Increment      1: Step Time =    1.000,"PART-1-1",           112,      -13.1801,       12.5484,            0.,NA,NA,"",   163.294E-03,  -148.490E-03,  -67.9379E-03,   601.273E-12
C:/temp/dataset/9/12_3.odb,Step-1,Increment      1: Step Time =    1.000,"PART-1-1",           113,      -12.7454,       20.6010,            0.,NA,NA,"",   185.785E-03,  -173.425E-03,  -66.6303E-03,   830.767E-12
C:/temp/dataset/9/12_3.odb,Step-1,Increment      1: Step Time =    1.000,"PART-1-1",           114,      -13.1621,       18.5389,            0.,NA,NA,"",   180.316E-03,  -167.038E-03,  -67.9106E-03,   892.216E-12
C:/temp/dataset/9/12_3.odb,Step-1,Increment      1: Step Time =    1.000,"PART-1-1",           115,      -12.3840,       22.8683,            0.,NA,NA,"",   191.975E-03,  -180.447E-03,  -65.5223E-03,   916.170E-12
C:/temp/dataset/9/12_3.odb,Step-1,Increment      1: Step Time =    1.000,"PART-1-1",           116,      -13.4658,       16.5948,            0.,NA,NA,"",   175.117E-03,  -161.018E-03,  -68.8418E-03,   930.018E-12
C:/temp/dataset/9/12_3.odb,Step-1,Increment      1: Step Time =    1.000,"PART-1-1",           117,      -13.3466,       14.6489,            0.,NA,NA,"",   169.441E-03,  -154.993E-03,  -68.4633E-03,   774.789E-12
C:/temp/dataset/9/12_3.odb,Step-1,Increment      1: Step Time =    1.000,"PART-1-1",           118,      -12.3609,       5.76892,            0.,NA,NA,"",   143.284E-03,  -127.504E-03,  -65.3688E-03,   386.452E-12
C:/temp/dataset/9/12_3.odb,Step-1,Increment      1: Step Time =    1.000,"PART-1-1",           119,      -12.8583,       1.39410,            0.,NA,NA,"",   132.136E-03,  -113.956E-03,  -66.8879E-03,   231.186E-12
C:/temp/dataset/9/12_3.odb,Step-1,Increment      1: Step Time =    1.000,"PART-1-1",           120,      -12.6304,  -685.754E-03,            0.,NA,NA,"",   126.249E-03,  -107.518E-03,  -66.1722E-03,   245.625E-12
C:/temp/dataset/9/12_3.odb,Step-1,Increment      1: Step Time =    1.000,"PART-1-1",           121,   38.5673E-03,       27.2989,            0.,NA,NA,"",   196.103E-03,  -194.224E-03,  -27.0809E-03,   928.927E-12
C:/temp/dataset/9/12_3.odb,Step-1,Increment      1: Step Time =    1.000,"PART-1-1",           122,      -4.16985,       22.2766,            0.,NA,NA,"",   183.096E-03,  -178.654E-03,  -40.0869E-03,   1.52425E-09
C:/temp/dataset/9/12_3.odb,Step-1,Increment      1: Step Time =    1.000,"PART-1-1",           123,      -7.85548,       28.0855,            0.,NA,NA,"",   203.261E-03,  -196.622E-03,  -51.5261E-03,   823.025E-12
C:/temp/dataset/9/12_3.odb,Step-1,Increment      1: Step Time =    1.000,"PART-1-1",           124,       9.92813,      -27.7267,            0.,NA,NA,"",   12.6363E-03,  -12.6290E-03,   428.291E-06,   3.81286E-03
C:/temp/dataset/9/12_3.odb,Step-1,Increment      1: Step Time =    1.000,"PART-1-1",           125,       13.1106,      -17.4438,            0.,NA,NA,"",   57.2772E-03,  -55.6435E-03,   13.5825E-03,   103.904E-06
C:/temp/dataset/9/12_3.odb,Step-1,Increment      1: Step Time =    1.000,"PART-1-1",           126,       12.8150,       2.64061,            0.,NA,NA,"",   118.610E-03,  -117.939E-03,   12.5956E-03,   48.0410E-09
C:/temp/dataset/9/12_3.odb,Step-1,Increment      1: Step Time =    1.000,"PART-1-1",           127,       7.56819,       12.3225,            0.,NA,NA,"",   147.937E-03,  -147.891E-03,  -3.69598E-03,   1.60214E-09
C:/temp/dataset/9/12_3.odb,Step-1,Increment      1: Step Time =    1.000,"PART-1-1",           128,       7.47113,       19.8748,            0.,NA,NA,"",   171.321E-03,  -171.273E-03,  -4.03269E-03,   929.215E-12
C:/temp/dataset/9/12_3.odb,Step-1,Increment      1: Step Time =    1.000,"PART-1-1",           129,       12.4223,       27.5153,            0.,NA,NA,"",   195.279E-03,  -194.954E-03,   11.2604E-03,   338.913E-12
C:/temp/dataset/9/12_3.odb,Step-1,Increment      1: Step Time =    1.000,"PART-1-1",           130,       12.3750,       22.5091,            0.,NA,NA,"",   179.799E-03,  -179.453E-03,   11.1380E-03,   658.672E-12
C:/temp/dataset/9/12_3.odb,Step-1,Increment      1: Step Time =    1.000,"PART-1-1",           131,       7.58839,       27.9970,            0.,NA,NA,"",   196.457E-03,  -196.422E-03,  -3.70857E-03,   413.381E-12
C:/temp/dataset/9/12_3.odb,Step-1,Increment      1: Step Time =    1.000,"PART-1-1",           132,   199.805E-03,       22.3057,            0.,NA,NA,"",   180.727E-03,  -178.765E-03,  -26.5577E-03,   1.04780E-09
C:/temp/dataset/9/12_3.odb,Step-1,Increment      1: Step Time =    1.000,"PART-1-1",           133,       12.6934,       9.82310,            0.,NA,NA,"",   140.705E-03,  -140.177E-03,   12.1845E-03,   1.27978E-09
C:/temp/dataset/9/12_3.odb,Step-1,Increment      1: Step Time =    1.000,"PART-1-1",           134,      -7.14717,       12.7802,            0.,NA,NA,"",   157.157E-03,  -149.237E-03,  -49.2597E-03,   1.43087E-09
C:/temp/dataset/9/12_3.odb,Step-1,Increment      1: Step Time =    1.000,"PART-1-1",           135,      -6.86178,       17.9412,            0.,NA,NA,"",   172.162E-03,  -165.218E-03,  -48.4008E-03,   2.32493E-09
C:/temp/dataset/9/12_3.odb,Step-1,Increment      1: Step Time =    1.000,"PART-1-1",           136,      -2.68307,      -2.95682,            0.,NA,NA,"",   106.572E-03,  -100.534E-03,  -35.3625E-03,   3.59956E-09
C:/temp/dataset/9/12_3.odb,Step-1,Increment      1: Step Time =    1.000,"PART-1-1",           137,      -7.59808,      -3.03341,            0.,NA,NA,"",   112.308E-03,  -100.273E-03,  -50.5800E-03,   421.309E-12
C:/temp/dataset/9/12_3.odb,Step-1,Increment      1: Step Time =    1.000,"PART-1-1",           138,  -248.196E-03,       2.69947,            0.,NA,NA,"",   121.299E-03,  -118.058E-03,  -27.8508E-03,   3.16402E-09
C:/temp/dataset/9/12_3.odb,Step-1,Increment      1: Step Time =    1.000,"PART-1-1",           139,       2.16631,      -2.47375,            0.,NA,NA,"",   104.062E-03,  -102.053E-03,  -20.3502E-03,   63.3831E-09
C:/temp/dataset/9/12_3.odb,Step-1,Increment      1: Step Time =    1.000,"PART-1-1",           140,       4.39271,       2.43636,            0.,NA,NA,"",   118.038E-03,  -117.266E-03,  -13.4805E-03,   36.2730E-09
C:/temp/dataset/9/12_3.odb,Step-1,Increment      1: Step Time =    1.000,"PART-1-1",           141,       12.9283,      -5.27800,            0.,NA,NA,"",   94.3192E-03,  -93.4212E-03,   12.9845E-03,   291.797E-09
C:/temp/dataset/9/12_3.odb,Step-1,Increment      1: Step Time =    1.000,"PART-1-1",           142,       13.0847,      -12.6172,            0.,NA,NA,"",   71.9298E-03,  -70.6514E-03,   13.5011E-03,   21.3025E-06
C:/temp/dataset/9/12_3.odb,Step-1,Increment      1: Step Time =    1.000,"PART-1-1",           143,       12.4838,       17.4790,            0.,NA,NA,"",   164.283E-03,  -163.880E-03,   11.4990E-03,   678.398E-12
C:/temp/dataset/9/12_3.odb,Step-1,Increment      1: Step Time =    1.000,"PART-1-1",           144,       2.63438,       22.2143,            0.,NA,NA,"",   179.504E-03,  -178.494E-03,  -19.0194E-03,   1.08571E-09
C:/temp/dataset/9/12_3.odb,Step-1,Increment      1: Step Time =    1.000,"PART-1-1",           145,       7.54366,       14.9275,            0.,NA,NA,"",   156.002E-03,  -155.956E-03,  -3.78442E-03,   1.45398E-09
C:/temp/dataset/9/12_3.odb,Step-1,Increment      1: Step Time =    1.000,"PART-1-1",           146,       7.50510,       17.4443,            0.,NA,NA,"",   163.795E-03,  -163.748E-03,  -3.91586E-03,   1.24888E-09
C:/temp/dataset/9/12_3.odb,Step-1,Increment      1: Step Time =    1.000,"PART-1-1",           147,       7.12790,       7.03873,            0.,NA,NA,"",   131.625E-03,  -131.529E-03,  -5.03389E-03,   11.7058E-09
C:/temp/dataset/9/12_3.odb,Step-1,Increment      1: Step Time =    1.000,"PART-1-1",           148,       7.48952,       9.64170,            0.,NA,NA,"",   139.645E-03,  -139.590E-03,  -3.92673E-03,   1.65049E-09
C:/temp/dataset/9/12_3.odb,Step-1,Increment      1: Step Time =    1.000,"PART-1-1",           149,       2.16717,       2.56251,            0.,NA,NA,"",   119.397E-03,  -117.646E-03,  -20.3717E-03,   18.9750E-09
C:/temp/dataset/9/12_3.odb,Step-1,Increment      1: Step Time =    1.000,"PART-1-1",           150,      -2.68606,       3.12146,            0.,NA,NA,"",   124.493E-03,  -119.353E-03,  -35.4009E-03,   3.55888E-09
C:/temp/dataset/9/12_3.odb,Step-1,Increment      1: Step Time =    1.000,"PART-1-1",           151,      -7.08307,       10.2840,            0.,NA,NA,"",   149.768E-03,  -141.509E-03,  -49.0493E-03,   1.24697E-09
C:/temp/dataset/9/12_3.odb,Step-1,Increment      1: Step Time =    1.000,"PART-1-1",           152,      -2.13928,       22.2031,            0.,NA,NA,"",   181.609E-03,  -178.436E-03,  -33.7995E-03,   1.66415E-09
C:/temp/dataset/9/12_3.odb,Step-1,Increment      1: Step Time =    1.000,"PART-1-1",           153,       9.90766,       27.6812,            0.,NA,NA,"",   195.486E-03,  -195.455E-03,   3.47385E-03,   393.762E-12
C:/temp/dataset/9/12_3.odb,Step-1,Increment      1: Step Time =    1.000,"PART-1-1",           154,       5.18317,       27.8350,            0.,NA,NA,"",   196.226E-03,  -195.909E-03,  -11.1548E-03,   524.039E-12
C:/temp/dataset/9/12_3.odb,Step-1,Increment      1: Step Time =    1.000,"PART-1-1",           155,       2.70091,       27.4744,            0.,NA,NA,"",   195.689E-03,  -194.780E-03,  -18.8386E-03,   790.840E-12
C:/temp/dataset/9/12_3.odb,Step-1,Increment      1: Step Time =    1.000,"PART-1-1",           156,      -2.92570,       26.9909,            0.,NA,NA,"",   196.628E-03,  -193.256E-03,  -36.2574E-03,   838.029E-12
C:/temp/dataset/9/12_3.odb,Step-1,Increment      1: Step Time =    1.000,"PART-1-1",           157,      -5.52449,       27.7330,            0.,NA,NA,"",   200.498E-03,  -195.542E-03,  -44.3072E-03,   762.219E-12
C:/temp/dataset/9/12_3.odb,Step-1,Increment      1: Step Time =    1.000,"PART-1-1",           158,      -10.1759,       28.1970,            0.,NA,NA,"",   205.521E-03,  -196.956E-03,  -58.7110E-03,   724.146E-12
C:/temp/dataset/9/12_3.odb,Step-1,Increment      1: Step Time =    1.000,"PART-1-1",           159,      -7.15795,       15.3782,            0.,NA,NA,"",   164.828E-03,  -157.281E-03,  -49.3055E-03,   1.68610E-09
C:/temp/dataset/9/12_3.odb,Step-1,Increment      1: Step Time =    1.000,"PART-1-1",           160,      -7.10855,       7.92361,            0.,NA,NA,"",   142.906E-03,  -134.200E-03,  -49.1168E-03,   1.00430E-09
C:/temp/dataset/9/12_3.odb,Step-1,Increment      1: Step Time =    1.000,"PART-1-1",           161,      -7.31416,       5.72319,            0.,NA,NA,"",   136.754E-03,  -127.386E-03,  -49.7429E-03,   1.18309E-09
C:/temp/dataset/9/12_3.odb,Step-1,Increment      1: Step Time =    1.000,"PART-1-1",           162,      -10.0288,      -2.82434,            0.,NA,NA,"",   116.443E-03,  -100.909E-03,  -58.1071E-03,   310.308E-12
C:/temp/dataset/9/12_3.odb,Step-1,Increment      1: Step Time =    1.000,"PART-1-1",           163,      -5.14639,      -3.11924,            0.,NA,NA,"",   108.866E-03,  -100.019E-03,  -42.9887E-03,   1.21702E-09
C:/temp/dataset/9/12_3.odb,Step-1,Increment      1: Step Time =    1.000,"PART-1-1",           164,  -261.821E-03,      -2.60038,            0.,NA,NA,"",   105.400E-03,  -101.649E-03,  -27.8676E-03,   16.0335E-09
C:/temp/dataset/9/12_3.odb,Step-1,Increment      1: Step Time =    1.000,"PART-1-1",           165,       4.38015,      -2.33295,            0.,NA,NA,"",   103.384E-03,  -102.499E-03,  -13.4963E-03,   118.413E-09
C:/temp/dataset/9/12_3.odb,Step-1,Increment      1: Step Time =    1.000,"PART-1-1",           166,       13.0639,      -10.1924,            0.,NA,NA,"",   79.3342E-03,  -78.1896E-03,   13.4279E-03,   6.05389E-06
C:/temp/dataset/9/12_3.odb,Step-1,Increment      1: Step Time =    1.000,"PART-1-1",           167,       13.0843,      -19.8267,            0.,NA,NA,"",   50.4285E-03,  -48.5698E-03,   13.5651E-03,   299.424E-06
C:/temp/dataset/9/12_3.odb,Step-1,Increment      1: Step Time =    1.000,"PART-1-1",           168,       12.4446,      -27.5067,            0.,NA,NA,"",   18.6519E-03,  -18.2336E-03,   3.92814E-03,   5.00348E-03
C:/temp/dataset/9/12_3.odb,Step-1,Increment      1: Step Time =    1.000,"PART-1-1",           169,       12.9329,      -22.1971,            0.,NA,NA,"",   45.0338E-03,  -43.1603E-03,   12.8544E-03,   1.41789E-03
C:/temp/dataset/9/12_3.odb,Step-1,Increment      1: Step Time =    1.000,"PART-1-1",           170,       13.1086,      -15.0383,            0.,NA,NA,"",   64.5447E-03,  -63.0990E-03,   13.5844E-03,   63.9170E-06
C:/temp/dataset/9/12_3.odb,Step-1,Increment      1: Step Time =    1.000,"PART-1-1",           171,       13.0208,      -7.75462,            0.,NA,NA,"",   86.7724E-03,  -85.7498E-03,   13.2827E-03,   845.204E-09
C:/temp/dataset/9/12_3.odb,Step-1,Increment      1: Step Time =    1.000,"PART-1-1",           172,       12.7756,      -2.70708,            0.,NA,NA,"",   102.149E-03,  -101.381E-03,   12.4992E-03,   265.647E-09
C:/temp/dataset/9/12_3.odb,Step-1,Increment      1: Step Time =    1.000,"PART-1-1",           173,       12.6338,  -14.4220E-03,            0.,NA,NA,"",   110.377E-03,  -109.718E-03,   12.0471E-03,   127.146E-09
C:/temp/dataset/9/12_3.odb,Step-1,Increment      1: Step Time =    1.000,"PART-1-1",           174,       13.0186,       5.13380,            0.,NA,NA,"",   126.352E-03,  -125.659E-03,   13.2139E-03,   15.3090E-09
C:/temp/dataset/9/12_3.odb,Step-1,Increment      1: Step Time =    1.000,"PART-1-1",           175,       13.0709,       7.51902,            0.,NA,NA,"",   133.714E-03,  -133.045E-03,   13.3646E-03,   4.04361E-09
C:/temp/dataset/9/12_3.odb,Step-1,Increment      1: Step Time =    1.000,"PART-1-1",           176,       12.5119,       12.3699,            0.,NA,NA,"",   148.516E-03,  -148.061E-03,   11.6104E-03,   1.02399E-09
C:/temp/dataset/9/12_3.odb,Step-1,Increment      1: Step Time =    1.000,"PART-1-1",           177,       12.4863,       14.9454,            0.,NA,NA,"",   156.460E-03,  -156.035E-03,   11.5187E-03,   780.080E-12
C:/temp/dataset/9/12_3.odb,Step-1,Increment      1: Step Time =    1.000,"PART-1-1",           178,       12.4500,       19.9932,            0.,NA,NA,"",   172.041E-03,  -171.664E-03,   11.3822E-03,   700.305E-12
C:/temp/dataset/9/12_3.odb,Step-1,Increment      1: Step Time =    1.000,"PART-1-1",           179,       9.19048,      -23.6482,            0.,NA,NA,"",   34.1587E-03,  -34.1377E-03,   1.19992E-03,   1.36922E-03
C:/temp/dataset/9/12_3.odb,Step-1,Increment      1: Step Time =    1.000,"PART-1-1",           180,       9.11932,      -19.5624,            0.,NA,NA,"",   49.1572E-03,  -49.1308E-03,   1.60976E-03,   117.578E-06
C:/temp/dataset/9/12_3.odb,Step-1,Increment      1: Step Time =    1.000,"PART-1-1",           181,       9.13323,      -12.9344,            0.,NA,NA,"",   69.7305E-03,  -69.7182E-03,   1.30786E-03,   31.1779E-06
C:/temp/dataset/9/12_3.odb,Step-1,Increment      1: Step Time =    1.000,"PART-1-1",           182,       9.14303,      -17.4019,            0.,NA,NA,"",   55.9432E-03,  -55.9214E-03,   1.56167E-03,   103.792E-06
C:/temp/dataset/9/12_3.odb,Step-1,Increment      1: Step Time =    1.000,"PART-1-1",           183,       9.11260,      -10.6744,            0.,NA,NA,"",   76.7120E-03,  -76.7025E-03,   1.20425E-03,   10.7584E-06
C:/temp/dataset/9/12_3.odb,Step-1,Increment      1: Step Time =    1.000,"PART-1-1",           184,       9.06671,      -8.40676,            0.,NA,NA,"",   83.7243E-03,  -83.7178E-03,   1.04308E-03,   2.68512E-06
C:/temp/dataset/9/12_3.odb,Step-1,Increment      1: Step Time =    1.000,"PART-1-1",           185,       9.15359,      -15.1846,            0.,NA,NA,"",   62.7886E-03,  -62.7718E-03,   1.45248E-03,   69.5051E-06
C:/temp/dataset/9/12_3.odb,Step-1,Increment      1: Step Time =    1.000,"PART-1-1",           186,       9.09437,      -21.6308,            0.,NA,NA,"",   42.1615E-03,  -42.1365E-03,   1.45308E-03,   477.069E-06
C:/temp/dataset/9/12_3.odb,Step-1,Increment      1: Step Time =    1.000,"PART-1-1",           187,       8.94944,      -6.10597,            0.,NA,NA,"",   90.8416E-03,  -90.8391E-03,   667.746E-06,   441.762E-09
C:/temp/dataset/9/12_3.odb,Step-1,Increment      1: Step Time =    1.000,"PART-1-1",           188,      -11.3189,       17.6054,            0.,NA,NA,"",   175.546E-03,  -164.157E-03,  -62.1993E-03,   431.065E-12
C:/temp/dataset/9/12_3.odb,Step-1,Increment      1: Step Time =    1.000,"PART-1-1",           189,      -10.4260,       2.85148,            0.,NA,NA,"",   132.520E-03,  -118.480E-03,  -59.3640E-03,   529.992E-12
C:/temp/dataset/9/12_3.odb,Step-1,Increment      1: Step Time =    1.000,"PART-1-1",           190,      -12.4413,       27.8959,            0.,NA,NA,"",   206.738E-03,  -196.013E-03,  -65.7237E-03,   510.377E-12
C:/temp/dataset/9/12_3.odb,Step-1,Increment      1: Step Time =    1.000,"PART-1-1",           191,      -10.6658,       19.6683,            0.,NA,NA,"",   180.856E-03,  -170.547E-03,  -60.1869E-03,   530.222E-12
C:/temp/dataset/9/12_3.odb,Step-1,Increment      1: Step Time =    1.000,"PART-1-1",           192,      -12.1118,       16.4066,            0.,NA,NA,"",   172.976E-03,  -160.441E-03,  -64.6484E-03,   527.548E-12
C:/temp/dataset/9/12_3.odb,Step-1,Increment      1: Step Time =    1.000,"PART-1-1",           193,      -11.5166,       14.9043,            0.,NA,NA,"",   167.974E-03,  -155.793E-03,  -62.7986E-03,   483.016E-12
C:/temp/dataset/9/12_3.odb,Step-1,Increment      1: Step Time =    1.000,"PART-1-1",           194,      -11.2054,       12.7278,            0.,NA,NA,"",   161.368E-03,  -149.055E-03,  -61.8246E-03,   551.474E-12
C:/temp/dataset/9/12_3.odb,Step-1,Increment      1: Step Time =    1.000,"PART-1-1",           195,      -11.1139,       10.5020,            0.,NA,NA,"",   154.909E-03,  -142.164E-03,  -61.5307E-03,   583.758E-12
C:/temp/dataset/9/12_3.odb,Step-1,Increment      1: Step Time =    1.000,"PART-1-1",           196,      -9.42029,       24.1195,            0.,NA,NA,"",   192.756E-03,  -184.335E-03,  -56.3521E-03,   987.880E-12
C:/temp/dataset/9/12_3.odb,Step-1,Increment      1: Step Time =    1.000,"PART-1-1",           197,      -11.0759,       8.46025,            0.,NA,NA,"",   149.076E-03,  -135.843E-03,  -61.4031E-03,   603.342E-12
C:/temp/dataset/9/12_3.odb,Step-1,Increment      1: Step Time =    1.000,"PART-1-1",           198,      -10.9473,       6.84821,            0.,NA,NA,"",   144.371E-03,  -130.852E-03,  -60.9971E-03,   591.679E-12
C:/temp/dataset/9/12_3.odb,Step-1,Increment      1: Step Time =    1.000,"PART-1-1",           199,       9.64075,      -25.5803,            0.,NA,NA,"",   24.9840E-03,  -24.9506E-03,   1.29022E-03,   2.65221E-03
C:/temp/dataset/9/12_3.odb,Step-1,Increment      1: Step Time =    1.000,"PART-1-1",           200,       6.22595,      -2.03957,            0.,NA,NA,"",   103.709E-03,  -103.416E-03,  -7.78299E-03,   189.256E-09
C:/temp/dataset/9/12_3.odb,Step-1,Increment      1: Step Time =    1.000,"PART-1-1",           201,       6.24072,       2.15031,            0.,NA,NA,"",   116.647E-03,  -116.389E-03,  -7.75738E-03,   41.1801E-09
C:/temp/dataset/9/12_3.odb,Step-1,Increment      1: Step Time =    1.000,"PART-1-1",           202,      -7.69234,       3.89067,            0.,NA,NA,"",   131.927E-03,  -121.711E-03,  -50.9050E-03,   1.41481E-09
C:/temp/dataset/9/12_3.odb,Step-1,Increment      1: Step Time =    1.000,"PART-1-1",           203,       7.31807,       22.0589,            0.,NA,NA,"",   178.093E-03,  -178.035E-03,  -4.51705E-03,   1.06017E-09
C:/temp/dataset/9/12_3.odb,Step-1,Increment      1: Step Time =    1.000,"PART-1-1",           204,      -6.44398,       20.4265,            0.,NA,NA,"",   179.220E-03,  -172.915E-03,  -47.1191E-03,   1.59449E-09
C:/temp/dataset/9/12_3.odb,Step-1,Increment      1: Step Time =    1.000,"PART-1-1",           205,       12.2962,       25.0128,            0.,NA,NA,"",   187.521E-03,  -187.205E-03,   10.8820E-03,   542.025E-12
C:/temp/dataset/9/12_3.odb,Step-1,Increment      1: Step Time =    1.000,"PART-1-1",           206,       12.2257,      -24.8009,            0.,NA,NA,"",   34.3461E-03,  -33.4716E-03,   7.70103E-03,   3.31964E-03
C:/temp/dataset/9/12_3.odb,Step-1,Increment      1: Step Time =    1.000,"PART-1-1",           207,      -2.06005,       24.5200,            0.,NA,NA,"",   188.621E-03,  -185.610E-03,  -33.5653E-03,   1.15436E-09
C:/temp/dataset/9/12_3.odb,Step-1,Increment      1: Step Time =    1.000,"PART-1-1",           208,       9.31619,       25.0673,            0.,NA,NA,"",   187.367E-03,  -187.359E-03,   1.65509E-03,   541.676E-12
C:/temp/dataset/9/12_3.odb,Step-1,Increment      1: Step Time =    1.000,"PART-1-1",           209,       3.21447,       24.8112,            0.,NA,NA,"",   187.332E-03,  -186.537E-03,  -17.2358E-03,   1.11606E-09
C:/temp/dataset/9/12_3.odb,Step-1,Increment      1: Step Time =    1.000,"PART-1-1",           210,      -7.52022,      -1.18711,            0.,NA,NA,"",   117.340E-03,  -105.990E-03,  -50.3478E-03,   679.667E-12
C:/temp/dataset/9/12_3.odb,Step-1,Increment      1: Step Time =    1.000,"PART-1-1",           211,       10.0127,       14.9017,            0.,NA,NA,"",   155.936E-03,  -155.888E-03,   3.86032E-03,   358.470E-12
C:/temp/dataset/9/12_3.odb,Step-1,Increment      1: Step Time =    1.000,"PART-1-1",           212,       10.7293,       3.02357,            0.,NA,NA,"",   119.272E-03,  -119.115E-03,   6.13599E-03,   47.5736E-09
C:/temp/dataset/9/12_3.odb,Step-1,Increment      1: Step Time =    1.000,"PART-1-1",           213,       11.4837,       7.36813,            0.,NA,NA,"",   132.839E-03,  -132.570E-03,   8.45079E-03,   6.15943E-09
C:/temp/dataset/9/12_3.odb,Step-1,Increment      1: Step Time =    1.000,"PART-1-1",           214,      -9.20573,       12.9161,            0.,NA,NA,"",   159.655E-03,  -149.648E-03,  -55.6341E-03,   913.637E-12
C:/temp/dataset/9/12_3.odb,Step-1,Increment      1: Step Time =    1.000,"PART-1-1",           215,   314.418E-03,       24.7704,            0.,NA,NA,"",   188.231E-03,  -186.397E-03,  -26.2147E-03,   1.11255E-09
C:/temp/dataset/9/12_3.odb,Step-1,Increment      1: Step Time =    1.000,"PART-1-1",           216,       7.52406,       26.3727,            0.,NA,NA,"",   191.432E-03,  -191.393E-03,  -3.89996E-03,   466.923E-12
C:/temp/dataset/9/12_3.odb,Step-1,Increment      1: Step Time =    1.000,"PART-1-1",           217,  -811.906E-03,   82.6841E-03,            0.,NA,NA,"",   113.864E-03,  -109.954E-03,  -29.5836E-03,   3.49080E-09
C:/temp/dataset/9/12_3.odb,Step-1,Increment      1: Step Time =    1.000,"PART-1-1",           218,       11.1400,      -19.6444,            0.,NA,NA,"",   49.6827E-03,  -49.0463E-03,   7.92641E-03,   166.977E-06
C:/temp/dataset/9/12_3.odb,Step-1,Increment      1: Step Time =    1.000,"PART-1-1",           219,       11.1036,      -10.4226,            0.,NA,NA,"",   77.8243E-03,  -77.4750E-03,   7.36570E-03,   9.32028E-06
C:/temp/dataset/9/12_3.odb,Step-1,Increment      1: Step Time =    1.000,"PART-1-1",           220,       10.9280,      -5.64335,            0.,NA,NA,"",   92.5300E-03,  -92.2804E-03,   6.79153E-03,   362.894E-09
C:/temp/dataset/9/12_3.odb,Step-1,Increment      1: Step Time =    1.000,"PART-1-1",           221,       11.0667,       5.48495,            0.,NA,NA,"",   126.940E-03,  -126.737E-03,   7.16872E-03,   18.4292E-09
C:/temp/dataset/9/12_3.odb,Step-1,Increment      1: Step Time =    1.000,"PART-1-1",           222,       11.1390,      -12.7671,            0.,NA,NA,"",   70.6017E-03,  -70.2009E-03,   7.51198E-03,   28.9256E-06
C:/temp/dataset/9/12_3.odb,Step-1,Increment      1: Step Time =    1.000,"PART-1-1",           223,       11.1627,      -15.1016,            0.,NA,NA,"",   63.4155E-03,  -62.9504E-03,   7.66631E-03,   69.7119E-06
C:/temp/dataset/9/12_3.odb,Step-1,Increment      1: Step Time =    1.000,"PART-1-1",           224,      -9.10801,       10.4728,            0.,NA,NA,"",   152.473E-03,  -142.084E-03,  -55.3198E-03,   855.459E-12
C:/temp/dataset/9/12_3.odb,Step-1,Increment      1: Step Time =    1.000,"PART-1-1",           225,      -9.12162,       8.28854,            0.,NA,NA,"",   146.203E-03,  -135.321E-03,  -55.3514E-03,   817.035E-12
C:/temp/dataset/9/12_3.odb,Step-1,Increment      1: Step Time =    1.000,"PART-1-1",           226,      -8.73753,       18.6317,            0.,NA,NA,"",   175.909E-03,  -167.347E-03,  -54.2118E-03,   932.297E-12
C:/temp/dataset/9/12_3.odb,Step-1,Increment      1: Step Time =    1.000,"PART-1-1",           227,      -9.90634,  -397.381E-03,            0.,NA,NA,"",   122.839E-03,  -108.424E-03,  -57.7394E-03,   402.600E-12
C:/temp/dataset/9/12_3.odb,Step-1,Increment      1: Step Time =    1.000,"PART-1-1",           228,       9.93939,       19.9385,            0.,NA,NA,"",   171.521E-03,  -171.483E-03,   3.60920E-03,   650.120E-12
C:/temp/dataset/9/12_3.odb,Step-1,Increment      1: Step Time =    1.000,"PART-1-1",           229,       5.70370,       25.8085,            0.,NA,NA,"",   189.876E-03,  -189.637E-03,  -9.53344E-03,   689.205E-12
C:/temp/dataset/9/12_3.odb,Step-1,Increment      1: Step Time =    1.000,"PART-1-1",           230,       10.0348,       12.2094,            0.,NA,NA,"",   147.605E-03,  -147.552E-03,   3.94154E-03,   532.962E-12
C:/temp/dataset/9/12_3.odb,Step-1,Increment      1: Step Time =    1.000,"PART-1-1",           231,       9.98921,       17.4486,            0.,NA,NA,"",   163.817E-03,  -163.774E-03,   3.77538E-03,   427.081E-12
C:/temp/dataset/9/12_3.odb,Step-1,Increment      1: Step Time =    1.000,"PART-1-1",           232,       10.1044,       9.10575,            0.,NA,NA,"",   138.006E-03,  -137.943E-03,   4.17206E-03,   2.11084E-09
C:/temp/dataset/9/12_3.odb,Step-1,Increment      1: Step Time =    1.000,"PART-1-1",           233,      -3.11139,      -1.10310,            0.,NA,NA,"",   112.429E-03,  -106.271E-03,  -36.6976E-03,   2.94658E-09
C:/temp/dataset/9/12_3.odb,Step-1,Increment      1: Step Time =    1.000,"PART-1-1",           234,      -6.48507,       25.5695,            0.,NA,NA,"",   194.665E-03,  -188.839E-03,  -47.2710E-03,   732.820E-12
C:/temp/dataset/9/12_3.odb,Step-1,Increment      1: Step Time =    1.000,"PART-1-1",           235,      -4.76537,       24.8732,            0.,NA,NA,"",   191.345E-03,  -186.691E-03,  -41.9432E-03,   808.688E-12
C:/temp/dataset/9/12_3.odb,Step-1,Increment      1: Step Time =    1.000,"PART-1-1",           236,      -8.46351,       26.0628,            0.,NA,NA,"",   197.704E-03,  -190.356E-03,  -53.3990E-03,   860.893E-12
C:/temp/dataset/9/12_3.odb,Step-1,Increment      1: Step Time =    1.000,"PART-1-1",           237,      -9.50218,       15.8804,            0.,NA,NA,"",   168.597E-03,  -158.825E-03,  -56.5661E-03,   851.511E-12
C:/temp/dataset/9/12_3.odb,Step-1,Increment      1: Step Time =    1.000,"PART-1-1",           238,      -5.29510,      -1.38770,            0.,NA,NA,"",   113.988E-03,  -105.379E-03,  -43.4574E-03,   1.34229E-09
C:/temp/dataset/9/12_3.odb,Step-1,Increment      1: Step Time =    1.000,"PART-1-1",           239,       11.0587,      -21.7318,            0.,NA,NA,"",   43.4832E-03,  -42.8326E-03,   7.49401E-03,   732.605E-06
C:/temp/dataset/9/12_3.odb,Step-1,Increment      1: Step Time =    1.000,"PART-1-1",           240,       11.1670,      -17.4071,            0.,NA,NA,"",   56.3788E-03,  -55.8301E-03,   7.84658E-03,   119.980E-06
C:/temp/dataset/9/12_3.odb,Step-1,Increment      1: Step Time =    1.000,"PART-1-1",           241,       11.0513,      -8.06140,            0.,NA,NA,"",   85.0960E-03,  -84.7921E-03,   7.18585E-03,   2.04941E-06
C:/temp/dataset/9/12_3.odb,Step-1,Increment      1: Step Time =    1.000,"PART-1-1",           242,       10.1357,   7.39639E-03,            0.,NA,NA,"",   109.858E-03,  -109.773E-03,   4.31238E-03,   130.661E-09
C:/temp/dataset/9/12_3.odb,Step-1,Increment      1: Step Time =    1.000,"PART-1-1",           243,       10.6886,      -3.06387,            0.,NA,NA,"",   100.448E-03,  -100.266E-03,   6.03865E-03,   293.088E-09
C:/temp/dataset/9/12_3.odb,Step-1,Increment      1: Step Time =    1.000,"PART-1-1",           244,       9.76329,       22.4053,            0.,NA,NA,"",   179.145E-03,  -179.119E-03,   3.05213E-03,   708.288E-12
C:/temp/dataset/9/12_3.odb,Step-1,Increment      1: Step Time =    1.000,"PART-1-1",           245,       8.68231,      -3.74099,            0.,NA,NA,"",   98.1601E-03,  -98.1600E-03,  -170.246E-06,   342.964E-09
C:/temp/dataset/9/12_3.odb,Step-1,Increment      1: Step Time =    1.000,"PART-1-1",           246,      -9.34414,       6.30777,            0.,NA,NA,"",   140.814E-03,  -129.187E-03,  -56.0309E-03,   821.330E-12
C:/temp/dataset/9/12_3.odb,Step-1,Increment      1: Step Time =    1.000,"PART-1-1",           247,      -9.93235,       4.61568,            0.,NA,NA,"",   136.778E-03,  -123.945E-03,  -57.8440E-03,   676.284E-12
C:/temp/dataset/9/12_3.odb,Step-1,Increment      1: Step Time =    1.000,"PART-1-1",           248,      -8.14937,       21.0679,            0.,NA,NA,"",   182.574E-03,  -174.893E-03,  -52.4024E-03,   977.026E-12
C:/temp/dataset/9/12_3.odb,Step-1,Increment      1: Step Time =    1.000,"PART-1-1",           249,       10.7972,      -23.3791,            0.,NA,NA,"",   37.3486E-03,  -36.9040E-03,   5.74515E-03,   1.53124E-03
C:/temp/dataset/9/12_3.odb,Step-1,Increment      1: Step Time =    1.000,"PART-1-1",           250,       4.15357,   65.4176E-03,            0.,NA,NA,"",   110.838E-03,  -109.924E-03,  -14.2095E-03,   55.7294E-09
C:/temp/dataset/9/12_3.odb,Step-1,Increment      1: Step Time =    1.000,"PART-1-1",           251,       8.71950,       3.82470,            0.,NA,NA,"",   121.585E-03,  -121.585E-03,  -90.6296E-06,   37.4141E-09
C:/temp/dataset/9/12_3.odb,Step-1,Increment      1: Step Time =    1.000,"PART-1-1",           252,       5.00281,       23.5204,            0.,NA,NA,"",   182.923E-03,  -182.549E-03,  -11.6926E-03,   1.05736E-09
C:/temp/dataset/9/12_3.odb,Step-1,Increment      1: Step Time =    1.000,"PART-1-1",           253,       7.40149,   60.9774E-03,            0.,NA,NA,"",   110.004E-03,  -109.926E-03,  -4.15352E-03,   95.7162E-09
C:/temp/dataset/9/12_3.odb,Step-1,Increment      1: Step Time =    1.000,"PART-1-1",           254,      -5.73116,       22.7675,            0.,NA,NA,"",   185.683E-03,  -180.166E-03,  -44.9233E-03,   1.33447E-09
C:/temp/dataset/9/12_3.odb,Step-1,Increment      1: Step Time =    1.000,"PART-1-1",           255,      -5.42683,       1.83799,            0.,NA,NA,"",   123.430E-03,  -115.366E-03,  -43.8807E-03,   1.96435E-09
C:/temp/dataset/9/12_3.odb,Step-1,Increment      1: Step Time =    1.000,"PART-1-1",           256,       6.81561,       24.0815,            0.,NA,NA,"",   184.395E-03,  -184.295E-03,  -6.08248E-03,   809.003E-12
C:/temp/dataset/9/12_3.odb,Step-1,Increment      1: Step Time =    1.000,"PART-1-1",           257,      -7.40884,       23.3683,            0.,NA,NA,"",   188.793E-03,  -182.019E-03,  -50.1206E-03,   1.01655E-09
C:/temp/dataset/9/12_3.odb,Step-1,Increment      1: Step Time =    1.000,"PART-1-1",           258,      -3.69176,       23.9755,            0.,NA,NA,"",   187.927E-03,  -183.917E-03,  -38.6148E-03,   1.08104E-09
C:/temp/dataset/9/12_3.odb,Step-1,Increment      1: Step Time =    1.000,"PART-1-1",           259,      -8.10961,       1.76736,            0.,NA,NA,"",   126.410E-03,  -115.135E-03,  -52.1868E-03,   944.985E-12
C:/temp/dataset/9/12_3.odb,Step-1,Increment      1: Step Time =    1.000,"PART-1-1",           260,       5.94930,   61.4696E-03,            0.,NA,NA,"",   110.260E-03,  -109.920E-03,  -8.64966E-03,   78.4470E-09
C:/temp/dataset/9/12_3.odb,Step-1,Increment      1: Step Time =    1.000,"PART-1-1",           261,       1.93878,   62.7924E-03,            0.,NA,NA,"",   111.906E-03,  -109.905E-03,  -21.0669E-03,   26.0455E-09
C:/temp/dataset/9/12_3.odb,Step-1,Increment      1: Step Time =    1.000,"PART-1-1",           262,       6.71051,      -4.41826,            0.,NA,NA,"",   96.2581E-03,  -96.0535E-03,  -6.27134E-03,   433.022E-09
C:/temp/dataset/9/12_3.odb,Step-1,Increment      1: Step Time =    1.000,"PART-1-1",           263,      -12.5366,      -2.82410,            0.,NA,NA,"",   120.496E-03,  -100.897E-03,  -65.8717E-03,   190.185E-12
C:/temp/dataset/9/12_3.odb,Step-1,Increment      1: Step Time =    1.000,"PART-1-1",           264,       6.75090,       4.53602,            0.,NA,NA,"",   123.933E-03,  -123.778E-03,  -6.18919E-03,   28.9444E-09
C:/temp/dataset/9/12_3.odb,Step-1,Increment      1: Step Time =    1.000,"PART-1-1",           265,      -5.22339,       3.46233,            0.,NA,NA,"",   127.932E-03,  -120.396E-03,  -43.2586E-03,   2.73696E-09
C:/temp/dataset/9/12_3.odb,Step-1,Increment      1: Step Time =    1.000,"PART-1-1",           266,       4.93795,       21.9167,            0.,NA,NA,"",   177.981E-03,  -177.583E-03,  -11.8857E-03,   1.47698E-09
C:/temp/dataset/9/12_3.odb,Step-1,Increment      1: Step Time =    1.000,"PART-1-1",           267,       8.13144,      -1.42002,            0.,NA,NA,"",   105.361E-03,  -105.344E-03,  -1.88653E-03,   187.196E-09
C:/temp/dataset/9/12_3.odb,Step-1,Increment      1: Step Time =    1.000,"PART-1-1",           268,      -3.13115,       1.39136,            0.,NA,NA,"",   119.778E-03,  -113.994E-03,  -36.7707E-03,   2.76704E-09
C:/temp/dataset/9/12_3.odb,Step-1,Increment      1: Step Time =    1.000,"PART-1-1",           269,       9.17709,       6.32873,            0.,NA,NA,"",   129.347E-03,  -129.340E-03,   1.31421E-03,   15.1776E-09
C:/temp/dataset/9/12_3.odb,Step-1,Increment      1: Step Time =    1.000,"PART-1-1",           270,      -11.0423,       1.34077,            0.,NA,NA,"",   129.243E-03,  -113.800E-03,  -61.2648E-03,   387.154E-12
C:/temp/dataset/9/12_3.odb,Step-1,Increment      1: Step Time =    1.000,"PART-1-1",           271,      -10.1478,       26.6048,            0.,NA,NA,"",   200.774E-03,  -192.026E-03,  -58.6164E-03,   866.757E-12
C:/temp/dataset/9/12_3.odb,Step-1,Increment      1: Step Time =    1.000,"PART-1-1",           272,      -10.1118,       21.9370,            0.,NA,NA,"",   186.957E-03,  -177.574E-03,  -58.4828E-03,   853.106E-12
C:/temp/dataset/9/12_3.odb,Step-1,Increment      1: Step Time =    1.000,"PART-1-1",           273,       8.13886,       1.50501,            0.,NA,NA,"",   114.416E-03,  -114.400E-03,  -1.87736E-03,   69.5662E-09
C:/temp/dataset/9/12_3.odb,Step-1,Increment      1: Step Time =    1.000,"PART-1-1",           274,      -7.06249,   219.393E-03,            0.,NA,NA,"",   120.712E-03,  -110.347E-03,  -48.9373E-03,   1.04421E-09
C:/temp/dataset/9/12_3.odb,Step-1,Increment      1: Step Time =    1.000,"PART-1-1",           275,      -5.40522,   241.534E-03,            0.,NA,NA,"",   118.795E-03,  -110.423E-03,  -43.8062E-03,   1.40581E-09
C:/temp/dataset/9/12_3.odb,Step-1,Increment      1: Step Time =    1.000,"PART-1-1",           276,      -3.80180,   194.541E-03,            0.,NA,NA,"",   116.925E-03,  -110.286E-03,  -38.8414E-03,   2.58123E-09
C:/temp/dataset/9/12_3.odb,Step-1,Increment      1: Step Time =    1.000,"PART-1-1",           277,      -2.71285,       28.4954,            0.,NA,NA,"",   201.093E-03,  -197.916E-03,  -35.6055E-03,   901.876E-12
C:/temp/dataset/9/12_3.odb,Step-1,Increment      1: Step Time =    1.000,"PART-1-1",           278,         -3.75,           30.,            0.,NA,NA,"",   206.256E-03,  -202.569E-03,  -38.8240E-03,   1.33032E-09
C:/temp/dataset/9/12_3.odb,Step-1,Increment      1: Step Time =    1.000,"PART-1-1",           279,      -5.26224,       28.8665,            0.,NA,NA,"",   203.750E-03,  -199.052E-03,  -43.5007E-03,   1.09498E-09
C:/temp/dataset/9/12_3.odb,Step-1,Increment      1: Step Time =    1.000,"PART-1-1",           280,      -4.22509,       27.3619,            0.,NA,NA,"",   198.529E-03,  -194.399E-03,  -40.2823E-03,   717.868E-12
C:/temp/dataset/9/12_3.odb,Step-1,Increment      1: Step Time =    1.000,"PART-1-1",           281,      -3.84553,       25.9321,            0.,NA,NA,"",   193.956E-03,  -189.974E-03,  -39.1003E-03,   783.918E-12
C:/temp/dataset/9/12_3.odb,Step-1,Increment      1: Step Time =    1.000,"PART-1-1",           282,      -6.00478,       26.6512,            0.,NA,NA,"",   197.569E-03,  -192.190E-03,  -45.7891E-03,   710.243E-12
C:/temp/dataset/9/12_3.odb,Step-1,Increment      1: Step Time =    1.000,"PART-1-1",           283,      -5.62522,       25.2214,            0.,NA,NA,"",   192.991E-03,  -187.765E-03,  -44.6071E-03,   697.973E-12
C:/temp/dataset/9/12_3.odb,Step-1,Increment      1: Step Time =    1.000,"PART-1-1",           284,      -10.0879,       29.0985,            0.,NA,NA,"",   208.122E-03,  -199.748E-03,  -58.4431E-03,   654.896E-12
C:/temp/dataset/9/12_3.odb,Step-1,Increment      1: Step Time =    1.000,"PART-1-1",           285,        -11.25,           30.,            0.,NA,NA,"",   211.824E-03,  -202.533E-03,  -62.0454E-03,   461.909E-12
C:/temp/dataset/9/12_3.odb,Step-1,Increment      1: Step Time =    1.000,"PART-1-1",           286,      -12.4706,       28.9480,            0.,NA,NA,"",   209.859E-03,  -199.270E-03,  -65.8197E-03,   264.787E-12
C:/temp/dataset/9/12_3.odb,Step-1,Increment      1: Step Time =    1.000,"PART-1-1",           287,      -11.3086,       28.0465,            0.,NA,NA,"",   206.100E-03,  -196.485E-03,  -62.2174E-03,   601.763E-12
C:/temp/dataset/9/12_3.odb,Step-1,Increment      1: Step Time =    1.000,"PART-1-1",           288,      -13.4495,       25.5029,            0.,NA,NA,"",   200.768E-03,  -188.599E-03,  -68.8338E-03,   620.207E-12
C:/temp/dataset/9/12_3.odb,Step-1,Increment      1: Step Time =    1.000,"PART-1-1",           289,          -15.,       24.5313,            0.,NA,NA,"",   199.656E-03,  -185.583E-03,  -73.6299E-03,   749.133E-12
C:/temp/dataset/9/12_3.odb,Step-1,Increment      1: Step Time =    1.000,"PART-1-1",           290,      -13.6920,       23.1529,            0.,NA,NA,"",   194.211E-03,  -181.322E-03,  -69.5735E-03,   867.754E-12
C:/temp/dataset/9/12_3.odb,Step-1,Increment      1: Step Time =    1.000,"PART-1-1",           291,      -12.1415,       24.1246,            0.,NA,NA,"",   195.388E-03,  -184.338E-03,  -64.7773E-03,   906.333E-12
C:/temp/dataset/9/12_3.odb,Step-1,Increment      1: Step Time =    1.000,"PART-1-1",           292,          8.75,          -30.,            0.,NA,NA,"",            0.,  -2.69430E-39,  -1.40381E-39,   2.90171E-03
C:/temp/dataset/9/12_3.odb,Step-1,Increment      1: Step Time =    1.000,"PART-1-1",           293,       9.96407,      -28.8633,            0.,NA,NA,"",   6.05255E-03,  -6.05198E-03,   83.2479E-06,   3.45146E-03
C:/temp/dataset/9/12_3.odb,Step-1,Increment      1: Step Time =    1.000,"PART-1-1",           294,       8.68711,      -27.7998,            0.,NA,NA,"",   11.5097E-03,  -11.4934E-03,  -612.417E-06,   3.30275E-03
C:/temp/dataset/9/12_3.odb,Step-1,Increment      1: Step Time =    1.000,"PART-1-1",           295,       7.47304,      -28.9365,            0.,NA,NA,"",   4.84588E-03,  -4.73753E-03,  -1.01901E-03,   3.06032E-03
C:/temp/dataset/9/12_3.odb,Step-1,Increment      1: Step Time =    1.000,"PART-1-1",           296,       10.9279,      -22.5555,            0.,NA,NA,"",   40.5575E-03,  -40.0051E-03,   6.67111E-03,   1.13037E-03
C:/temp/dataset/9/12_3.odb,Step-1,Increment      1: Step Time =    1.000,"PART-1-1",           297,       10.0765,      -21.6813,            0.,NA,NA,"",   42.6338E-03,  -42.3978E-03,   4.47967E-03,   579.378E-06
C:/temp/dataset/9/12_3.odb,Step-1,Increment      1: Step Time =    1.000,"PART-1-1",           298,       9.14242,      -22.6395,            0.,NA,NA,"",   38.3831E-03,  -38.3575E-03,   1.40288E-03,   920.324E-06
C:/temp/dataset/9/12_3.odb,Step-1,Increment      1: Step Time =    1.000,"PART-1-1",           299,       9.99384,      -23.5137,            0.,NA,NA,"",   35.6188E-03,  -35.4486E-03,   3.47726E-03,   1.42591E-03
C:/temp/dataset/9/12_3.odb,Step-1,Increment      1: Step Time =    1.000,"PART-1-1",           300,       7.08785,      -18.4988,            0.,NA,NA,"",   52.7335E-03,  -52.4898E-03,  -5.06334E-03,   72.5503E-06
C:/temp/dataset/9/12_3.odb,Step-1,Increment      1: Step Time =    1.000,"PART-1-1",           301,       6.04673,      -17.4684,            0.,NA,NA,"",   56.3578E-03,  -55.7230E-03,  -8.43480E-03,   95.4036E-06
C:/temp/dataset/9/12_3.odb,Step-1,Increment      1: Step Time =    1.000,"PART-1-1",           302,            5.,      -18.5417,            0.,NA,NA,"",   53.5882E-03,  -52.2398E-03,  -11.9456E-03,   191.393E-06
C:/temp/dataset/9/12_3.odb,Step-1,Increment      1: Step Time =    1.000,"PART-1-1",           303,       6.04112,      -19.5721,            0.,NA,NA,"",   49.6935E-03,  -48.9392E-03,  -8.62557E-03,   132.655E-06
C:/temp/dataset/9/12_3.odb,Step-1,Increment      1: Step Time =    1.000,"PART-1-1",           304,       7.10245,      -14.2066,            0.,NA,NA,"",   66.0146E-03,  -65.8241E-03,  -5.01104E-03,   44.7664E-06
C:/temp/dataset/9/12_3.odb,Step-1,Increment      1: Step Time =    1.000,"PART-1-1",           305,       6.04975,      -13.2285,            0.,NA,NA,"",   69.3253E-03,  -68.8275E-03,  -8.29310E-03,   19.9323E-06
C:/temp/dataset/9/12_3.odb,Step-1,Increment      1: Step Time =    1.000,"PART-1-1",           306,            5.,       -14.375,            0.,NA,NA,"",   66.2973E-03,  -65.2806E-03,  -11.5658E-03,   42.6564E-06
C:/temp/dataset/9/12_3.odb,Step-1,Increment      1: Step Time =    1.000,"PART-1-1",           307,       6.05270,      -15.3531,            0.,NA,NA,"",   62.8416E-03,  -62.2884E-03,  -8.31989E-03,   49.4311E-06
C:/temp/dataset/9/12_3.odb,Step-1,Increment      1: Step Time =    1.000,"PART-1-1",           308,            5.,      -6.04167,            0.,NA,NA,"",   91.7509E-03,  -91.0200E-03,  -11.5578E-03,   915.515E-09
C:/temp/dataset/9/12_3.odb,Step-1,Increment      1: Step Time =    1.000,"PART-1-1",           309,       5.97724,      -6.85181,            0.,NA,NA,"",   88.9270E-03,  -88.5171E-03,  -8.52893E-03,   477.601E-09
C:/temp/dataset/9/12_3.odb,Step-1,Increment      1: Step Time =    1.000,"PART-1-1",           310,       6.83249,      -5.51927,            0.,NA,NA,"",   92.8324E-03,  -92.6455E-03,  -5.88841E-03,   179.189E-09
C:/temp/dataset/9/12_3.odb,Step-1,Increment      1: Step Time =    1.000,"PART-1-1",           311,       5.85525,      -4.70913,            0.,NA,NA,"",   95.5659E-03,  -95.1489E-03,  -8.91743E-03,   372.509E-09
C:/temp/dataset/9/12_3.odb,Step-1,Increment      1: Step Time =    1.000,"PART-1-1",           312,       4.27314,       1.25089,            0.,NA,NA,"",   114.435E-03,  -113.595E-03,  -13.8450E-03,   42.9037E-09
C:/temp/dataset/9/12_3.odb,Step-1,Increment      1: Step Time =    1.000,"PART-1-1",           313,       3.27994,       2.49943,            0.,NA,NA,"",   118.669E-03,  -117.456E-03,  -16.9261E-03,   26.6819E-09
C:/temp/dataset/9/12_3.odb,Step-1,Increment      1: Step Time =    1.000,"PART-1-1",           314,       2.05297,       1.31265,            0.,NA,NA,"",   115.647E-03,  -113.775E-03,  -20.7193E-03,   18.2334E-09
C:/temp/dataset/9/12_3.odb,Step-1,Increment      1: Step Time =    1.000,"PART-1-1",           315,       3.04617,   64.1050E-03,            0.,NA,NA,"",   111.321E-03,  -109.914E-03,  -17.6382E-03,   38.8104E-09
C:/temp/dataset/9/12_3.odb,Step-1,Increment      1: Step Time =    1.000,"PART-1-1",           316,       6.28410,       12.4112,            0.,NA,NA,"",   148.358E-03,  -148.159E-03,  -7.67222E-03,   2.51825E-09
C:/temp/dataset/9/12_3.odb,Step-1,Increment      1: Step Time =    1.000,"PART-1-1",           317,            5.,         11.25,            0.,NA,NA,"",   145.026E-03,  -144.558E-03,  -11.6425E-03,   4.29442E-09
C:/temp/dataset/9/12_3.odb,Step-1,Increment      1: Step Time =    1.000,"PART-1-1",           318,       6.24476,       9.82085,            0.,NA,NA,"",   140.355E-03,  -140.139E-03,  -7.78160E-03,   2.94806E-09
C:/temp/dataset/9/12_3.odb,Step-1,Increment      1: Step Time =    1.000,"PART-1-1",           319,       7.52885,       10.9821,            0.,NA,NA,"",   143.791E-03,  -143.740E-03,  -3.81135E-03,   1.45201E-09
C:/temp/dataset/9/12_3.odb,Step-1,Increment      1: Step Time =    1.000,"PART-1-1",           320,       6.23557,       19.9374,            0.,NA,NA,"",   171.641E-03,  -171.461E-03,  -7.85854E-03,   1.53804E-09
C:/temp/dataset/9/12_3.odb,Step-1,Increment      1: Step Time =    1.000,"PART-1-1",           321,            5.,         18.75,            0.,NA,NA,"",   168.185E-03,  -167.779E-03,  -11.6784E-03,   2.82968E-09
C:/temp/dataset/9/12_3.odb,Step-1,Increment      1: Step Time =    1.000,"PART-1-1",           322,       6.25255,       17.4722,            0.,NA,NA,"",   164.014E-03,  -163.829E-03,  -7.79413E-03,   1.91078E-09
C:/temp/dataset/9/12_3.odb,Step-1,Increment      1: Step Time =    1.000,"PART-1-1",           323,       7.48812,       18.6595,            0.,NA,NA,"",   167.558E-03,  -167.511E-03,  -3.97428E-03,   971.372E-12
C:/temp/dataset/9/12_3.odb,Step-1,Increment      1: Step Time =    1.000,"PART-1-1",           324,       12.4612,       28.7577,            0.,NA,NA,"",   199.126E-03,  -198.800E-03,   11.3748E-03,   240.873E-12
C:/temp/dataset/9/12_3.odb,Step-1,Increment      1: Step Time =    1.000,"PART-1-1",           325,         11.25,           30.,            0.,NA,NA,"",   202.784E-03,  -202.641E-03,   7.61888E-03,   347.448E-12
C:/temp/dataset/9/12_3.odb,Step-1,Increment      1: Step Time =    1.000,"PART-1-1",           326,       9.95383,       28.8406,            0.,NA,NA,"",   199.078E-03,  -199.045E-03,   3.61125E-03,   404.508E-12
C:/temp/dataset/9/12_3.odb,Step-1,Increment      1: Step Time =    1.000,"PART-1-1",           327,       11.1650,       27.5983,            0.,NA,NA,"",   195.343E-03,  -195.205E-03,   7.36715E-03,   355.948E-12
C:/temp/dataset/9/12_3.odb,Step-1,Increment      1: Step Time =    1.000,"PART-1-1",           328,       9.61193,       26.3742,            0.,NA,NA,"",   191.424E-03,  -191.407E-03,   2.56447E-03,   450.858E-12
C:/temp/dataset/9/12_3.odb,Step-1,Increment      1: Step Time =    1.000,"PART-1-1",           329,       10.8062,       25.0400,            0.,NA,NA,"",   187.387E-03,  -187.282E-03,   6.26853E-03,   500.843E-12
C:/temp/dataset/9/12_3.odb,Step-1,Increment      1: Step Time =    1.000,"PART-1-1",           330,       12.3592,       26.2641,            0.,NA,NA,"",   191.400E-03,  -191.079E-03,   11.0712E-03,   434.827E-12
C:/temp/dataset/9/12_3.odb,Step-1,Increment      1: Step Time =    1.000,"PART-1-1",           331,       7.54419,       28.9985,            0.,NA,NA,"",   199.560E-03,  -199.523E-03,  -3.85020E-03,   512.576E-12
C:/temp/dataset/9/12_3.odb,Step-1,Increment      1: Step Time =    1.000,"PART-1-1",           332,          6.25,           30.,            0.,NA,NA,"",   202.770E-03,  -202.617E-03,  -7.86207E-03,   553.781E-12
C:/temp/dataset/9/12_3.odb,Step-1,Increment      1: Step Time =    1.000,"PART-1-1",           333,       5.09159,       28.9175,            0.,NA,NA,"",   199.588E-03,  -199.260E-03,  -11.4436E-03,   461.814E-12
C:/temp/dataset/9/12_3.odb,Step-1,Increment      1: Step Time =    1.000,"PART-1-1",           334,       6.38578,       27.9160,            0.,NA,NA,"",   196.306E-03,  -196.165E-03,  -7.43168E-03,   431.836E-12
C:/temp/dataset/9/12_3.odb,Step-1,Increment      1: Step Time =    1.000,"PART-1-1",           335,       2.95769,       26.1428,            0.,NA,NA,"",   191.510E-03,  -190.659E-03,  -18.0372E-03,   930.441E-12
C:/temp/dataset/9/12_3.odb,Step-1,Increment      1: Step Time =    1.000,"PART-1-1",           336,       4.45909,       25.3098,            0.,NA,NA,"",   188.563E-03,  -188.087E-03,  -13.3846E-03,   864.117E-12
C:/temp/dataset/9/12_3.odb,Step-1,Increment      1: Step Time =    1.000,"PART-1-1",           337,       5.44343,       26.8217,            0.,NA,NA,"",   193.050E-03,  -192.773E-03,  -10.3441E-03,   596.694E-12
C:/temp/dataset/9/12_3.odb,Step-1,Increment      1: Step Time =    1.000,"PART-1-1",           338,       3.94204,       27.6547,            0.,NA,NA,"",   195.919E-03,  -195.345E-03,  -14.9967E-03,   637.016E-12
C:/temp/dataset/9/12_3.odb,Step-1,Increment      1: Step Time =    1.000,"PART-1-1",           339,       6.06395,       7.26936,            0.,NA,NA,"",   132.500E-03,  -132.238E-03,  -8.32919E-03,   4.52350E-09
C:/temp/dataset/9/12_3.odb,Step-1,Increment      1: Step Time =    1.000,"PART-1-1",           340,       7.30871,       8.34021,            0.,NA,NA,"",   135.633E-03,  -135.559E-03,  -4.48031E-03,   5.16929E-09
C:/temp/dataset/9/12_3.odb,Step-1,Increment      1: Step Time =    1.000,"PART-1-1",           341,            5.,          8.75,            0.,NA,NA,"",   137.311E-03,  -136.817E-03,  -11.6305E-03,   4.38558E-09
C:/temp/dataset/9/12_3.odb,Step-1,Increment      1: Step Time =    1.000,"PART-1-1",           342,      -13.9291,       1.47830,            0.,NA,NA,"",   134.063E-03,  -114.212E-03,  -70.2039E-03,   211.001E-12
C:/temp/dataset/9/12_3.odb,Step-1,Increment      1: Step Time =    1.000,"PART-1-1",           343,          -15.,    468.75E-03,            0.,NA,NA,"",   133.204E-03,  -111.081E-03,  -73.5146E-03,   170.456E-12
C:/temp/dataset/9/12_3.odb,Step-1,Increment      1: Step Time =    1.000,"PART-1-1",           344,      -13.8152,  -655.377E-03,            0.,NA,NA,"",   128.284E-03,  -107.606E-03,  -69.8408E-03,   190.910E-12
C:/temp/dataset/9/12_3.odb,Step-1,Increment      1: Step Time =    1.000,"PART-1-1",           345,      -12.7443,   354.171E-03,            0.,NA,NA,"",   129.186E-03,  -110.737E-03,  -66.5300E-03,   231.435E-12
C:/temp/dataset/9/12_3.odb,Step-1,Increment      1: Step Time =    1.000,"PART-1-1",           346,      -13.9678,       8.16706,            0.,NA,NA,"",   152.163E-03,  -134.921E-03,  -70.3555E-03,   302.602E-12
C:/temp/dataset/9/12_3.odb,Step-1,Increment      1: Step Time =    1.000,"PART-1-1",           347,          -15.,       7.03125,            0.,NA,NA,"",   150.582E-03,  -131.400E-03,  -73.5460E-03,   247.824E-12
C:/temp/dataset/9/12_3.odb,Step-1,Increment      1: Step Time =    1.000,"PART-1-1",           348,      -13.6804,       5.85321,            0.,NA,NA,"",   145.417E-03,  -127.759E-03,  -69.4548E-03,   191.693E-12
C:/temp/dataset/9/12_3.odb,Step-1,Increment      1: Step Time =    1.000,"PART-1-1",           349,      -12.6482,       6.98902,            0.,NA,NA,"",   147.056E-03,  -131.280E-03,  -66.2642E-03,   376.904E-12
C:/temp/dataset/9/12_3.odb,Step-1,Increment      1: Step Time =    1.000,"PART-1-1",           350,      -5.93089,       17.7206,            0.,NA,NA,"",   170.719E-03,  -164.540E-03,  -45.5175E-03,   2.44363E-09
C:/temp/dataset/9/12_3.odb,Step-1,Increment      1: Step Time =    1.000,"PART-1-1",           351,      -7.00986,       16.6597,            0.,NA,NA,"",   168.488E-03,  -161.250E-03,  -48.8532E-03,   1.85183E-09
C:/temp/dataset/9/12_3.odb,Step-1,Increment      1: Step Time =    1.000,"PART-1-1",           352,      -6.07897,       15.1891,            0.,NA,NA,"",   163.303E-03,  -156.701E-03,  -45.9639E-03,   1.97702E-09
C:/temp/dataset/9/12_3.odb,Step-1,Increment      1: Step Time =    1.000,"PART-1-1",           353,           -5.,         16.25,            0.,NA,NA,"",   165.572E-03,  -159.991E-03,  -42.6283E-03,   2.51453E-09
C:/temp/dataset/9/12_3.odb,Step-1,Increment      1: Step Time =    1.000,"PART-1-1",           354,      -7.79966,       18.2865,            0.,NA,NA,"",   174.018E-03,  -166.283E-03,  -51.3063E-03,   1.50030E-09
C:/temp/dataset/9/12_3.odb,Step-1,Increment      1: Step Time =    1.000,"PART-1-1",           355,      -6.65288,       19.1839,            0.,NA,NA,"",   175.683E-03,  -169.067E-03,  -47.7600E-03,   1.76703E-09
C:/temp/dataset/9/12_3.odb,Step-1,Increment      1: Step Time =    1.000,"PART-1-1",           356,      -7.29668,       20.7472,            0.,NA,NA,"",   180.883E-03,  -173.904E-03,  -49.7608E-03,   1.19482E-09
C:/temp/dataset/9/12_3.odb,Step-1,Increment      1: Step Time =    1.000,"PART-1-1",           357,      -8.44345,       19.8498,            0.,NA,NA,"",   179.231E-03,  -171.120E-03,  -53.3071E-03,   810.072E-12
C:/temp/dataset/9/12_3.odb,Step-1,Increment      1: Step Time =    1.000,"PART-1-1",           358,      -2.59303,       4.06073,            0.,NA,NA,"",   127.205E-03,  -122.262E-03,  -35.1174E-03,   4.17179E-09
C:/temp/dataset/9/12_3.odb,Step-1,Increment      1: Step Time =    1.000,"PART-1-1",           359,      -1.46713,       2.91047,            0.,NA,NA,"",   122.846E-03,  -118.706E-03,  -31.6258E-03,   2.66565E-09
C:/temp/dataset/9/12_3.odb,Step-1,Increment      1: Step Time =    1.000,"PART-1-1",           360,  -124.098E-03,       3.84974,            0.,NA,NA,"",   124.684E-03,  -121.620E-03,  -27.4721E-03,   4.90766E-09
C:/temp/dataset/9/12_3.odb,Step-1,Increment      1: Step Time =    1.000,"PART-1-1",           361,         -1.25,            5.,            0.,NA,NA,"",   128.949E-03,  -125.176E-03,  -30.9636E-03,   7.06257E-09
C:/temp/dataset/9/12_3.odb,Step-1,Increment      1: Step Time =    1.000,"PART-1-1",           362,      -11.2683,  -541.568E-03,            0.,NA,NA,"",   124.484E-03,  -107.971E-03,  -61.9558E-03,   310.762E-12
C:/temp/dataset/9/12_3.odb,Step-1,Increment      1: Step Time =    1.000,"PART-1-1",           363,      -10.4743,   471.696E-03,            0.,NA,NA,"",   126.041E-03,  -111.112E-03,  -59.5021E-03,   380.239E-12
C:/temp/dataset/9/12_3.odb,Step-1,Increment      1: Step Time =    1.000,"PART-1-1",           364,      -11.9503,       1.36743,            0.,NA,NA,"",   130.667E-03,  -113.878E-03,  -64.0764E-03,   302.765E-12
C:/temp/dataset/9/12_3.odb,Step-1,Increment      1: Step Time =    1.000,"PART-1-1",           365,      -13.0095,       9.29789,            0.,NA,NA,"",   153.961E-03,  -138.427E-03,  -67.3938E-03,   425.872E-12
C:/temp/dataset/9/12_3.odb,Step-1,Increment      1: Step Time =    1.000,"PART-1-1",           366,      -14.0417,       10.3496,            0.,NA,NA,"",   158.292E-03,  -141.678E-03,  -70.5949E-03,   533.213E-12
C:/temp/dataset/9/12_3.odb,Step-1,Increment      1: Step Time =    1.000,"PART-1-1",           367,          -15.,       9.21875,            0.,NA,NA,"",   156.532E-03,  -138.173E-03,  -73.5565E-03,   555.088E-12
C:/temp/dataset/9/12_3.odb,Step-1,Increment      1: Step Time =    1.000,"PART-1-1",           368,      -6.40766,      -1.28741,            0.,NA,NA,"",   115.625E-03,  -105.685E-03,  -46.9026E-03,   924.398E-12
C:/temp/dataset/9/12_3.odb,Step-1,Increment      1: Step Time =    1.000,"PART-1-1",           369,      -5.35016,  -573.084E-03,            0.,NA,NA,"",   116.389E-03,  -107.901E-03,  -43.6318E-03,   1.28981E-09
C:/temp/dataset/9/12_3.odb,Step-1,Increment      1: Step Time =    1.000,"PART-1-1",           370,      -6.23385,   230.463E-03,            0.,NA,NA,"",   119.730E-03,  -110.385E-03,  -46.3717E-03,   1.21634E-09
C:/temp/dataset/9/12_3.odb,Step-1,Increment      1: Step Time =    1.000,"PART-1-1",           371,      -7.29135,  -483.859E-03,            0.,NA,NA,"",   119.016E-03,  -108.168E-03,  -49.6425E-03,   790.689E-12
C:/temp/dataset/9/12_3.odb,Step-1,Increment      1: Step Time =    1.000,"PART-1-1",           372,   952.242E-03,      -2.53706,            0.,NA,NA,"",   104.665E-03,  -101.851E-03,  -24.1089E-03,   20.1918E-09
C:/temp/dataset/9/12_3.odb,Step-1,Increment      1: Step Time =    1.000,"PART-1-1",           373,  -130.910E-03,      -3.80019,            0.,NA,NA,"",   101.711E-03,  -97.9346E-03,  -27.4565E-03,   4.94344E-09
C:/temp/dataset/9/12_3.odb,Step-1,Increment      1: Step Time =    1.000,"PART-1-1",           374,          1.25,           -5.,            0.,NA,NA,"",   97.0345E-03,  -94.2264E-03,  -23.1751E-03,   18.8734E-09
C:/temp/dataset/9/12_3.odb,Step-1,Increment      1: Step Time =    1.000,"PART-1-1",           375,       2.33315,      -3.73687,            0.,NA,NA,"",   100.125E-03,  -98.1425E-03,  -19.8275E-03,   35.2123E-09
C:/temp/dataset/9/12_3.odb,Step-1,Increment      1: Step Time =    1.000,"PART-1-1",           376,       4.26686,      -1.13377,            0.,NA,NA,"",   107.111E-03,  -106.211E-03,  -13.8529E-03,   79.1976E-09
C:/temp/dataset/9/12_3.odb,Step-1,Increment      1: Step Time =    1.000,"PART-1-1",           377,       2.05254,      -1.20548,            0.,NA,NA,"",   107.983E-03,  -105.979E-03,  -20.7085E-03,   28.4860E-09
C:/temp/dataset/9/12_3.odb,Step-1,Increment      1: Step Time =    1.000,"PART-1-1",           378,       3.27323,      -2.40335,            0.,NA,NA,"",   103.666E-03,  -102.276E-03,  -16.9232E-03,   51.2147E-09
C:/temp/dataset/9/12_3.odb,Step-1,Increment      1: Step Time =    1.000,"PART-1-1",           379,       10.4325,       1.51548,            0.,NA,NA,"",   114.563E-03,  -114.444E-03,   5.22421E-03,   82.2203E-09
C:/temp/dataset/9/12_3.odb,Step-1,Increment      1: Step Time =    1.000,"PART-1-1",           380,       11.3847,  -3.51279E-03,            0.,NA,NA,"",   110.050E-03,  -109.745E-03,   8.17974E-03,   109.488E-09
C:/temp/dataset/9/12_3.odb,Step-1,Increment      1: Step Time =    1.000,"PART-1-1",           381,       12.7244,       1.31309,            0.,NA,NA,"",   114.493E-03,  -113.828E-03,   12.3214E-03,   84.4568E-09
C:/temp/dataset/9/12_3.odb,Step-1,Increment      1: Step Time =    1.000,"PART-1-1",           382,       11.7722,       2.83209,            0.,NA,NA,"",   118.896E-03,  -118.527E-03,   9.36581E-03,   44.2945E-09
C:/temp/dataset/9/12_3.odb,Step-1,Increment      1: Step Time =    1.000,"PART-1-1",           383,       9.00808,      -7.25637,            0.,NA,NA,"",   87.2824E-03,  -87.2782E-03,   854.927E-06,   1.48096E-06
C:/temp/dataset/9/12_3.odb,Step-1,Increment      1: Step Time =    1.000,"PART-1-1",           384,       7.95196,      -6.36313,            0.,NA,NA,"",   90.0711E-03,  -90.0386E-03,  -2.41910E-03,   302.145E-09
C:/temp/dataset/9/12_3.odb,Step-1,Increment      1: Step Time =    1.000,"PART-1-1",           385,       7.00211,      -7.70397,            0.,NA,NA,"",   86.0517E-03,  -85.8850E-03,  -5.35290E-03,   1.35223E-06
C:/temp/dataset/9/12_3.odb,Step-1,Increment      1: Step Time =    1.000,"PART-1-1",           386,       8.05823,      -8.59720,            0.,NA,NA,"",   83.1519E-03,  -83.1259E-03,  -2.07880E-03,   2.44335E-06
C:/temp/dataset/9/12_3.odb,Step-1,Increment      1: Step Time =    1.000,"PART-1-1",           387,       7.09104,      -12.0381,            0.,NA,NA,"",   72.6743E-03,  -72.4981E-03,  -5.05659E-03,   19.1121E-06
C:/temp/dataset/9/12_3.odb,Step-1,Increment      1: Step Time =    1.000,"PART-1-1",           388,       6.04129,      -11.1013,            0.,NA,NA,"",   75.8395E-03,  -75.3824E-03,  -8.31381E-03,   6.14067E-06
C:/temp/dataset/9/12_3.odb,Step-1,Increment      1: Step Time =    1.000,"PART-1-1",           389,            5.,      -12.2917,            0.,NA,NA,"",   72.6250E-03,  -71.7032E-03,  -11.5342E-03,   13.2574E-06
C:/temp/dataset/9/12_3.odb,Step-1,Increment      1: Step Time =    1.000,"PART-1-1",           390,       9.13117,      -18.4822,            0.,NA,NA,"",   52.5839E-03,  -52.5596E-03,   1.59855E-03,   89.5651E-06
C:/temp/dataset/9/12_3.odb,Step-1,Increment      1: Step Time =    1.000,"PART-1-1",           391,       10.1297,      -19.6034,            0.,NA,NA,"",   49.3321E-03,  -49.0948E-03,   4.83266E-03,   127.876E-06
C:/temp/dataset/9/12_3.odb,Step-1,Increment      1: Step Time =    1.000,"PART-1-1",           392,       11.1535,      -18.5257,            0.,NA,NA,"",   52.9953E-03,  -52.4037E-03,   7.89648E-03,   105.404E-06
C:/temp/dataset/9/12_3.odb,Step-1,Increment      1: Step Time =    1.000,"PART-1-1",           393,       10.1550,      -17.4045,            0.,NA,NA,"",   56.0779E-03,  -55.8777E-03,   4.73495E-03,   99.8811E-06
C:/temp/dataset/9/12_3.odb,Step-1,Increment      1: Step Time =    1.000,"PART-1-1",           394,       6.27183,       14.9637,            0.,NA,NA,"",   156.253E-03,  -156.062E-03,  -7.72242E-03,   2.14741E-09
C:/temp/dataset/9/12_3.odb,Step-1,Increment      1: Step Time =    1.000,"PART-1-1",           395,       7.52438,       16.1859,            0.,NA,NA,"",   159.899E-03,  -159.852E-03,  -3.85014E-03,   1.32845E-09
C:/temp/dataset/9/12_3.odb,Step-1,Increment      1: Step Time =    1.000,"PART-1-1",           396,            5.,         16.25,            0.,NA,NA,"",   160.463E-03,  -160.039E-03,  -11.6664E-03,   2.71218E-09
C:/temp/dataset/9/12_3.odb,Step-1,Increment      1: Step Time =    1.000,"PART-1-1",           397,       2.56719,       21.1071,            0.,NA,NA,"",   176.118E-03,  -175.066E-03,  -19.2221E-03,   619.640E-12
C:/temp/dataset/9/12_3.odb,Step-1,Increment      1: Step Time =    1.000,"PART-1-1",           398,       1.41709,       22.2600,            0.,NA,NA,"",   180.077E-03,  -178.629E-03,  -22.7886E-03,   966.498E-12
C:/temp/dataset/9/12_3.odb,Step-1,Increment      1: Step Time =    1.000,"PART-1-1",           399,   99.9026E-03,       21.1528,            0.,NA,NA,"",   177.243E-03,  -175.195E-03,  -26.8615E-03,   925.282E-12
C:/temp/dataset/9/12_3.odb,Step-1,Increment      1: Step Time =    1.000,"PART-1-1",           400,          1.25,           20.,            0.,NA,NA,"",   173.205E-03,  -171.631E-03,  -23.2951E-03,   814.912E-12
C:/temp/dataset/9/12_3.odb,Step-1,Increment      1: Step Time =    1.000,"PART-1-1",           401,       7.55593,       13.6250,            0.,NA,NA,"",   151.969E-03,  -151.923E-03,  -3.74020E-03,   1.49566E-09
C:/temp/dataset/9/12_3.odb,Step-1,Increment      1: Step Time =    1.000,"PART-1-1",           402,            5.,         13.75,            0.,NA,NA,"",   152.743E-03,  -152.298E-03,  -11.6544E-03,   3.19262E-09
C:/temp/dataset/9/12_3.odb,Step-1,Increment      1: Step Time =    1.000,"PART-1-1",           403,       8.77818,       14.9146,            0.,NA,NA,"",   155.922E-03,  -155.922E-03,   37.9539E-06,   761.183E-12
C:/temp/dataset/9/12_3.odb,Step-1,Increment      1: Step Time =    1.000,"PART-1-1",           404,       10.0010,       16.1752,            0.,NA,NA,"",   159.876E-03,  -159.831E-03,   3.81785E-03,   383.347E-12
C:/temp/dataset/9/12_3.odb,Step-1,Increment      1: Step Time =    1.000,"PART-1-1",           405,       8.74716,       17.4465,            0.,NA,NA,"",   163.761E-03,  -163.761E-03,  -70.2396E-06,   743.733E-12
C:/temp/dataset/9/12_3.odb,Step-1,Increment      1: Step Time =    1.000,"PART-1-1",           406,       10.1219,       5.90684,            0.,NA,NA,"",   128.109E-03,  -128.039E-03,   4.24146E-03,   15.6571E-09
C:/temp/dataset/9/12_3.odb,Step-1,Increment      1: Step Time =    1.000,"PART-1-1",           407,       8.94830,       5.07672,            0.,NA,NA,"",   125.464E-03,  -125.463E-03,   611.792E-06,   25.8487E-09
C:/temp/dataset/9/12_3.odb,Step-1,Increment      1: Step Time =    1.000,"PART-1-1",           408,       9.72441,       3.42413,            0.,NA,NA,"",   120.388E-03,  -120.350E-03,   3.02267E-03,   38.9287E-09
C:/temp/dataset/9/12_3.odb,Step-1,Increment      1: Step Time =    1.000,"PART-1-1",           409,       10.8980,       4.25426,            0.,NA,NA,"",   123.106E-03,  -122.926E-03,   6.65236E-03,   32.5754E-09
C:/temp/dataset/9/12_3.odb,Step-1,Increment      1: Step Time =    1.000,"PART-1-1",           410,       8.15250,       6.68373,            0.,NA,NA,"",   130.448E-03,  -130.435E-03,  -1.85984E-03,   11.7655E-09
C:/temp/dataset/9/12_3.odb,Step-1,Increment      1: Step Time =    1.000,"PART-1-1",           411,       9.64075,       7.71724,            0.,NA,NA,"",   133.670E-03,  -133.642E-03,   2.74314E-03,   7.97453E-09
C:/temp/dataset/9/12_3.odb,Step-1,Increment      1: Step Time =    1.000,"PART-1-1",           412,       8.79696,       9.37373,            0.,NA,NA,"",   138.767E-03,  -138.767E-03,   122.664E-06,   1.84452E-09
C:/temp/dataset/9/12_3.odb,Step-1,Increment      1: Step Time =    1.000,"PART-1-1",           413,   959.485E-03,       2.63099,            0.,NA,NA,"",   120.293E-03,  -117.852E-03,  -24.1113E-03,   8.89272E-09
C:/temp/dataset/9/12_3.odb,Step-1,Increment      1: Step Time =    1.000,"PART-1-1",           414,       2.33358,       3.78125,            0.,NA,NA,"",   123.034E-03,  -121.420E-03,  -19.8623E-03,   9.02432E-09
C:/temp/dataset/9/12_3.odb,Step-1,Increment      1: Step Time =    1.000,"PART-1-1",           415,          1.25,            5.,            0.,NA,NA,"",   127.324E-03,  -125.188E-03,  -23.2231E-03,   6.03044E-09
C:/temp/dataset/9/12_3.odb,Step-1,Increment      1: Step Time =    1.000,"PART-1-1",           416,      -9.23288,       7.29816,            0.,NA,NA,"",   143.501E-03,  -132.254E-03,  -55.6912E-03,   820.229E-12
C:/temp/dataset/9/12_3.odb,Step-1,Increment      1: Step Time =    1.000,"PART-1-1",           417,      -8.32915,       6.01548,            0.,NA,NA,"",   138.760E-03,  -128.287E-03,  -52.8869E-03,   960.767E-12
C:/temp/dataset/9/12_3.odb,Step-1,Increment      1: Step Time =    1.000,"PART-1-1",           418,      -7.21136,       6.82340,            0.,NA,NA,"",   139.822E-03,  -130.793E-03,  -49.4299E-03,   974.386E-12
C:/temp/dataset/9/12_3.odb,Step-1,Increment      1: Step Time =    1.000,"PART-1-1",           419,      -8.11509,       8.10607,            0.,NA,NA,"",   144.530E-03,  -134.761E-03,  -52.2341E-03,   921.607E-12
C:/temp/dataset/9/12_3.odb,Step-1,Increment      1: Step Time =    1.000,"PART-1-1",           420,      -13.1318,       11.4675,            0.,NA,NA,"",   160.192E-03,  -145.144E-03,  -67.7829E-03,   529.885E-12
C:/temp/dataset/9/12_3.odb,Step-1,Increment      1: Step Time =    1.000,"PART-1-1",           421,      -14.0901,       12.5242,            0.,NA,NA,"",   164.415E-03,  -148.411E-03,  -70.7551E-03,   789.998E-12
C:/temp/dataset/9/12_3.odb,Step-1,Increment      1: Step Time =    1.000,"PART-1-1",           422,          -15.,       11.4063,            0.,NA,NA,"",   162.546E-03,  -144.946E-03,  -73.5670E-03,   891.129E-12
C:/temp/dataset/9/12_3.odb,Step-1,Increment      1: Step Time =    1.000,"PART-1-1",           423,      -9.35396,       14.3983,            0.,NA,NA,"",   164.122E-03,  -154.236E-03,  -56.1001E-03,   886.107E-12
C:/temp/dataset/9/12_3.odb,Step-1,Increment      1: Step Time =    1.000,"PART-1-1",           424,      -10.5094,       15.3924,            0.,NA,NA,"",   168.250E-03,  -157.309E-03,  -59.6824E-03,   594.138E-12
C:/temp/dataset/9/12_3.odb,Step-1,Increment      1: Step Time =    1.000,"PART-1-1",           425,      -11.3610,       13.8160,            0.,NA,NA,"",   164.669E-03,  -152.424E-03,  -62.3116E-03,   504.848E-12
C:/temp/dataset/9/12_3.odb,Step-1,Increment      1: Step Time =    1.000,"PART-1-1",           426,      -10.2056,       12.8219,            0.,NA,NA,"",   160.484E-03,  -149.352E-03,  -58.7293E-03,   680.355E-12
C:/temp/dataset/9/12_3.odb,Step-1,Increment      1: Step Time =    1.000,"PART-1-1",           427,      -14.0810,       18.8007,            0.,NA,NA,"",   182.149E-03,  -167.845E-03,  -70.7572E-03,   1.28036E-09
C:/temp/dataset/9/12_3.odb,Step-1,Increment      1: Step Time =    1.000,"PART-1-1",           428,          -15.,       17.9688,            0.,NA,NA,"",   180.912E-03,  -165.264E-03,  -73.5985E-03,   1.65748E-09
C:/temp/dataset/9/12_3.odb,Step-1,Increment      1: Step Time =    1.000,"PART-1-1",           429,      -14.2329,       16.7349,            0.,NA,NA,"",   176.458E-03,  -161.448E-03,  -71.2175E-03,   1.26778E-09
C:/temp/dataset/9/12_3.odb,Step-1,Increment      1: Step Time =    1.000,"PART-1-1",           430,      -13.3139,       17.5668,            0.,NA,NA,"",   177.709E-03,  -164.028E-03,  -68.3762E-03,   907.044E-12
C:/temp/dataset/9/12_3.odb,Step-1,Increment      1: Step Time =    1.000,"PART-1-1",           431,      -12.9537,       19.5700,            0.,NA,NA,"",   183.041E-03,  -170.232E-03,  -67.2705E-03,   837.734E-12
C:/temp/dataset/9/12_3.odb,Step-1,Increment      1: Step Time =    1.000,"PART-1-1",           432,      -13.8727,       20.9255,            0.,NA,NA,"",   187.992E-03,  -174.424E-03,  -70.1222E-03,   1.11730E-09
C:/temp/dataset/9/12_3.odb,Step-1,Increment      1: Step Time =    1.000,"PART-1-1",           433,          -15.,       20.1563,            0.,NA,NA,"",   187.123E-03,  -172.037E-03,  -73.6089E-03,   1.58854E-09
C:/temp/dataset/9/12_3.odb,Step-1,Increment      1: Step Time =    1.000,"PART-1-1",           434,       1.76445,       24.7908,            0.,NA,NA,"",   187.728E-03,  -186.467E-03,  -21.7252E-03,   1.11936E-09
C:/temp/dataset/9/12_3.odb,Step-1,Increment      1: Step Time =    1.000,"PART-1-1",           435,       1.36974,       27.3866,            0.,NA,NA,"",   195.853E-03,  -194.502E-03,  -22.9598E-03,   842.530E-12
C:/temp/dataset/9/12_3.odb,Step-1,Increment      1: Step Time =    1.000,"PART-1-1",           436,   176.493E-03,       26.0346,            0.,NA,NA,"",   192.167E-03,  -190.311E-03,  -26.6478E-03,   1.00845E-09
C:/temp/dataset/9/12_3.odb,Step-1,Increment      1: Step Time =    1.000,"PART-1-1",           437,       7.39460,       20.9669,            0.,NA,NA,"",   174.707E-03,  -174.654E-03,  -4.27487E-03,   1.00501E-09
C:/temp/dataset/9/12_3.odb,Step-1,Increment      1: Step Time =    1.000,"PART-1-1",           438,       8.70526,       19.9066,            0.,NA,NA,"",   171.378E-03,  -171.378E-03,  -211.745E-06,   681.427E-12
C:/temp/dataset/9/12_3.odb,Step-1,Increment      1: Step Time =    1.000,"PART-1-1",           439,       9.85134,       21.1719,            0.,NA,NA,"",   175.333E-03,  -175.301E-03,   3.33066E-03,   681.021E-12
C:/temp/dataset/9/12_3.odb,Step-1,Increment      1: Step Time =    1.000,"PART-1-1",           440,       8.54068,       22.2321,            0.,NA,NA,"",   178.579E-03,  -178.577E-03,  -732.463E-06,   799.368E-12
C:/temp/dataset/9/12_3.odb,Step-1,Increment      1: Step Time =    1.000,"PART-1-1",           441,       4.10864,       24.1658,            0.,NA,NA,"",   185.109E-03,  -184.543E-03,  -14.4642E-03,   1.05657E-09
C:/temp/dataset/9/12_3.odb,Step-1,Increment      1: Step Time =    1.000,"PART-1-1",           442,       5.90921,       23.8009,            0.,NA,NA,"",   183.637E-03,  -183.422E-03,  -8.88752E-03,   924.058E-12
C:/temp/dataset/9/12_3.odb,Step-1,Increment      1: Step Time =    1.000,"PART-1-1",           443,       6.25965,       24.9450,            0.,NA,NA,"",   187.129E-03,  -186.966E-03,  -7.80796E-03,   719.897E-12
C:/temp/dataset/9/12_3.odb,Step-1,Increment      1: Step Time =    1.000,"PART-1-1",           444,   19.2837E-03,       28.6494,            0.,NA,NA,"",   200.254E-03,  -198.406E-03,  -27.1471E-03,   658.302E-12
C:/temp/dataset/9/12_3.odb,Step-1,Increment      1: Step Time =    1.000,"PART-1-1",           445,       2.60045,       28.7372,            0.,NA,NA,"",   199.611E-03,  -198.690E-03,  -19.1557E-03,   451.868E-12
C:/temp/dataset/9/12_3.odb,Step-1,Increment      1: Step Time =    1.000,"PART-1-1",           446,          1.25,           30.,            0.,NA,NA,"",   203.934E-03,  -202.593E-03,  -23.3430E-03,   347.823E-12
C:/temp/dataset/9/12_3.odb,Step-1,Increment      1: Step Time =    1.000,"PART-1-1",           447,      -7.67774,       29.0428,            0.,NA,NA,"",   205.995E-03,  -199.587E-03,  -50.9804E-03,   1.00924E-09
C:/temp/dataset/9/12_3.odb,Step-1,Increment      1: Step Time =    1.000,"PART-1-1",           448,      -6.68998,       27.9093,            0.,NA,NA,"",   201.852E-03,  -196.082E-03,  -47.9167E-03,   764.341E-12
C:/temp/dataset/9/12_3.odb,Step-1,Increment      1: Step Time =    1.000,"PART-1-1",           449,         -6.25,           30.,            0.,NA,NA,"",   207.841E-03,  -202.557E-03,  -46.5644E-03,   1.38265E-09
C:/temp/dataset/9/12_3.odb,Step-1,Increment      1: Step Time =    1.000,"PART-1-1",           450,      -12.1701,       26.6384,            0.,NA,NA,"",   202.780E-03,  -192.121E-03,  -64.8781E-03,   712.837E-12
C:/temp/dataset/9/12_3.odb,Step-1,Increment      1: Step Time =    1.000,"PART-1-1",           451,      -13.7206,       27.8542,            0.,NA,NA,"",   207.904E-03,  -195.878E-03,  -69.6847E-03,   300.634E-12
C:/temp/dataset/9/12_3.odb,Step-1,Increment      1: Step Time =    1.000,"PART-1-1",           452,          -15.,       26.7188,            0.,NA,NA,"",   205.970E-03,  -192.356E-03,  -73.6404E-03,   264.133E-12
C:/temp/dataset/9/12_3.odb,Step-1,Increment      1: Step Time =    1.000,"PART-1-1",           453,        -13.75,           30.,            0.,NA,NA,"",   214.208E-03,  -202.521E-03,  -69.7859E-03,   136.825E-12
C:/temp/dataset/9/12_3.odb,Step-1,Increment      1: Step Time =    1.000,"PART-1-1",           454,          -15.,       28.9063,            0.,NA,NA,"",   212.313E-03,  -199.129E-03,  -73.6509E-03,   145.087E-12
C:/temp/dataset/9/12_3.odb,Step-1,Increment      1: Step Time =    1.000,"PART-1-1",           455,      -9.01567,       28.1413,            0.,NA,NA,"",   204.362E-03,  -196.789E-03,  -55.1186E-03,   759.267E-12
C:/temp/dataset/9/12_3.odb,Step-1,Increment      1: Step Time =    1.000,"PART-1-1",           456,         -8.75,           30.,            0.,NA,NA,"",   209.699E-03,  -202.545E-03,  -54.3049E-03,   1.01580E-09
C:/temp/dataset/9/12_3.odb,Step-1,Increment      1: Step Time =    1.000,"PART-1-1",           457,      -10.9923,       18.6369,            0.,NA,NA,"",   178.189E-03,  -167.352E-03,  -61.1931E-03,   424.413E-12
C:/temp/dataset/9/12_3.odb,Step-1,Increment      1: Step Time =    1.000,"PART-1-1",           458,      -11.7056,       20.1347,            0.,NA,NA,"",   183.303E-03,  -171.986E-03,  -63.4086E-03,   629.131E-12
C:/temp/dataset/9/12_3.odb,Step-1,Increment      1: Step Time =    1.000,"PART-1-1",           459,      -12.2405,       18.0722,            0.,NA,NA,"",   177.918E-03,  -165.598E-03,  -65.0550E-03,   599.216E-12
C:/temp/dataset/9/12_3.odb,Step-1,Increment      1: Step Time =    1.000,"PART-1-1",           460,      -11.7153,       17.0060,            0.,NA,NA,"",   174.252E-03,  -162.299E-03,  -63.4239E-03,   451.974E-12
C:/temp/dataset/9/12_3.odb,Step-1,Increment      1: Step Time =    1.000,"PART-1-1",           461,      -12.7888,       16.5007,            0.,NA,NA,"",   174.037E-03,  -160.729E-03,  -66.7451E-03,   705.362E-12
C:/temp/dataset/9/12_3.odb,Step-1,Increment      1: Step Time =    1.000,"PART-1-1",           462,      -13.2634,       13.5986,            0.,NA,NA,"",   166.364E-03,  -151.742E-03,  -68.2006E-03,   683.183E-12
C:/temp/dataset/9/12_3.odb,Step-1,Increment      1: Step Time =    1.000,"PART-1-1",           463,      -14.1733,       14.6682,            0.,NA,NA,"",   170.542E-03,  -155.049E-03,  -71.0230E-03,   1.05342E-09
C:/temp/dataset/9/12_3.odb,Step-1,Increment      1: Step Time =    1.000,"PART-1-1",           464,          -15.,       13.5938,            0.,NA,NA,"",   168.618E-03,  -151.718E-03,  -73.5775E-03,   1.21620E-09
C:/temp/dataset/9/12_3.odb,Step-1,Increment      1: Step Time =    1.000,"PART-1-1",           465,      -6.04154,       10.1420,            0.,NA,NA,"",   148.330E-03,  -141.074E-03,  -45.8238E-03,   1.51463E-09
C:/temp/dataset/9/12_3.odb,Step-1,Increment      1: Step Time =    1.000,"PART-1-1",           466,      -7.09581,       9.10381,            0.,NA,NA,"",   146.332E-03,  -137.855E-03,  -49.0831E-03,   1.16193E-09
C:/temp/dataset/9/12_3.odb,Step-1,Increment      1: Step Time =    1.000,"PART-1-1",           467,      -6.05428,       7.71180,            0.,NA,NA,"",   141.202E-03,  -133.550E-03,  -45.8516E-03,   1.28603E-09
C:/temp/dataset/9/12_3.odb,Step-1,Increment      1: Step Time =    1.000,"PART-1-1",           468,           -5.,          8.75,            0.,NA,NA,"",   143.248E-03,  -136.769E-03,  -42.5923E-03,   1.67277E-09
C:/temp/dataset/9/12_3.odb,Step-1,Increment      1: Step Time =    1.000,"PART-1-1",           469,      -6.15708,       5.36159,            0.,NA,NA,"",   134.445E-03,  -126.272E-03,  -46.1586E-03,   1.65402E-09
C:/temp/dataset/9/12_3.odb,Step-1,Increment      1: Step Time =    1.000,"PART-1-1",           470,           -5.,          6.25,            0.,NA,NA,"",   135.873E-03,  -129.029E-03,  -42.5803E-03,   1.61907E-09
C:/temp/dataset/9/12_3.odb,Step-1,Increment      1: Step Time =    1.000,"PART-1-1",           471,      -13.8567,       3.63033,            0.,NA,NA,"",   139.676E-03,  -120.875E-03,  -69.9899E-03,   186.971E-12
C:/temp/dataset/9/12_3.odb,Step-1,Increment      1: Step Time =    1.000,"PART-1-1",           472,      -12.5372,       4.63979,            0.,NA,NA,"",   140.434E-03,  -124.007E-03,  -65.9091E-03,   294.793E-12
C:/temp/dataset/9/12_3.odb,Step-1,Increment      1: Step Time =    1.000,"PART-1-1",           473,          -15.,       4.84375,            0.,NA,NA,"",   144.704E-03,  -124.627E-03,  -73.5356E-03,   120.565E-12
C:/temp/dataset/9/12_3.odb,Step-1,Increment      1: Step Time =    1.000,"PART-1-1",           474,      -12.7859,       2.45238,            0.,NA,NA,"",   134.864E-03,  -117.233E-03,  -66.6687E-03,   212.678E-12
C:/temp/dataset/9/12_3.odb,Step-1,Increment      1: Step Time =    1.000,"PART-1-1",           475,          -15.,       2.65625,            0.,NA,NA,"",   138.908E-03,  -117.854E-03,  -73.5251E-03,   188.242E-12
C:/temp/dataset/9/12_3.odb,Step-1,Increment      1: Step Time =    1.000,"PART-1-1",           476,      -13.7683,      -2.81830,            0.,NA,NA,"",   122.633E-03,  -100.909E-03,  -69.6853E-03,   148.858E-12
C:/temp/dataset/9/12_3.odb,Step-1,Increment      1: Step Time =    1.000,"PART-1-1",           477,          -15.,      -3.90625,            0.,NA,NA,"",   122.124E-03,  -97.5350E-03,  -73.4936E-03,   105.263E-12
C:/temp/dataset/9/12_3.odb,Step-1,Increment      1: Step Time =    1.000,"PART-1-1",           478,        -13.75,           -5.,            0.,NA,NA,"",   117.097E-03,  -94.1545E-03,  -69.6181E-03,   168.075E-12
C:/temp/dataset/9/12_3.odb,Step-1,Increment      1: Step Time =    1.000,"PART-1-1",           479,      -12.5183,      -3.91205,            0.,NA,NA,"",   117.656E-03,  -97.5289E-03,  -65.8098E-03,   178.231E-12
C:/temp/dataset/9/12_3.odb,Step-1,Increment      1: Step Time =    1.000,"PART-1-1",           480,      -3.91473,      -3.03803,            0.,NA,NA,"",   107.657E-03,  -100.276E-03,  -39.1756E-03,   1.69672E-09
C:/temp/dataset/9/12_3.odb,Step-1,Increment      1: Step Time =    1.000,"PART-1-1",           481,      -5.07319,      -4.05962,            0.,NA,NA,"",   106.104E-03,  -97.1077E-03,  -42.7575E-03,   451.939E-12
C:/temp/dataset/9/12_3.odb,Step-1,Increment      1: Step Time =    1.000,"PART-1-1",           482,         -3.75,           -5.,            0.,NA,NA,"",   101.825E-03,  -94.2024E-03,  -38.6562E-03,   1.12816E-09
C:/temp/dataset/9/12_3.odb,Step-1,Increment      1: Step Time =    1.000,"PART-1-1",           483,      -2.59153,      -3.97841,            0.,NA,NA,"",   103.496E-03,  -97.3710E-03,  -35.0742E-03,   1.52036E-09
C:/temp/dataset/9/12_3.odb,Step-1,Increment      1: Step Time =    1.000,"PART-1-1",           484,   563.435E-03,   72.7383E-03,            0.,NA,NA,"",   112.809E-03,  -109.929E-03,  -25.3252E-03,   10.6530E-09
C:/temp/dataset/9/12_3.odb,Step-1,Increment      1: Step Time =    1.000,"PART-1-1",           485,  -536.863E-03,      -1.25885,            0.,NA,NA,"",   109.631E-03,  -105.801E-03,  -28.7256E-03,   6.61164E-09
C:/temp/dataset/9/12_3.odb,Step-1,Increment      1: Step Time =    1.000,"PART-1-1",           486,       7.06616,      -9.87010,            0.,NA,NA,"",   79.3549E-03,  -79.1880E-03,  -5.14424E-03,   6.26506E-06
C:/temp/dataset/9/12_3.odb,Step-1,Increment      1: Step Time =    1.000,"PART-1-1",           487,       6.02487,      -8.97716,            0.,NA,NA,"",   82.3696E-03,  -81.9431E-03,  -8.37125E-03,   1.26023E-06
C:/temp/dataset/9/12_3.odb,Step-1,Increment      1: Step Time =    1.000,"PART-1-1",           488,            5.,      -10.2083,            0.,NA,NA,"",   78.9802E-03,  -78.1333E-03,  -11.5352E-03,   2.32005E-06
C:/temp/dataset/9/12_3.odb,Step-1,Increment      1: Step Time =    1.000,"PART-1-1",           489,       13.0743,      -11.4048,            0.,NA,NA,"",   75.6324E-03,  -74.4241E-03,   13.4650E-03,   13.6009E-06
C:/temp/dataset/9/12_3.odb,Step-1,Increment      1: Step Time =    1.000,"PART-1-1",           490,       14.0423,      -12.5586,            0.,NA,NA,"",   72.7266E-03,  -70.8397E-03,   16.4589E-03,   13.8922E-06
C:/temp/dataset/9/12_3.odb,Step-1,Increment      1: Step Time =    1.000,"PART-1-1",           491,           15.,        -11.25,            0.,NA,NA,"",   77.3937E-03,  -74.9151E-03,   19.4298E-03,   7.04977E-06
C:/temp/dataset/9/12_3.odb,Step-1,Increment      1: Step Time =    1.000,"PART-1-1",           492,       14.0319,      -10.0962,            0.,NA,NA,"",   80.1928E-03,  -78.4927E-03,   16.4251E-03,   3.07256E-06
C:/temp/dataset/9/12_3.odb,Step-1,Increment      1: Step Time =    1.000,"PART-1-1",           493,       7.09943,      -16.3632,            0.,NA,NA,"",   59.3950E-03,  -59.1829E-03,  -5.01454E-03,   76.2671E-06
C:/temp/dataset/9/12_3.odb,Step-1,Increment      1: Step Time =    1.000,"PART-1-1",           494,            5.,      -16.4583,            0.,NA,NA,"",   59.9800E-03,  -58.8320E-03,  -11.6789E-03,   103.463E-06
C:/temp/dataset/9/12_3.odb,Step-1,Increment      1: Step Time =    1.000,"PART-1-1",           495,       13.0966,      -13.8278,            0.,NA,NA,"",   68.2358E-03,  -66.8784E-03,   13.5430E-03,   43.4594E-06
C:/temp/dataset/9/12_3.odb,Step-1,Increment      1: Step Time =    1.000,"PART-1-1",           496,       14.0543,      -15.0192,            0.,NA,NA,"",   65.2771E-03,  -63.1691E-03,   16.4548E-03,   47.0561E-06
C:/temp/dataset/9/12_3.odb,Step-1,Increment      1: Step Time =    1.000,"PART-1-1",           497,           15.,        -13.75,            0.,NA,NA,"",   69.8933E-03,  -67.1427E-03,   19.4146E-03,   33.3537E-06
C:/temp/dataset/9/12_3.odb,Step-1,Increment      1: Step Time =    1.000,"PART-1-1",           498,       13.0974,      -18.6352,            0.,NA,NA,"",   53.7861E-03,  -52.0469E-03,   13.5671E-03,   151.005E-06
C:/temp/dataset/9/12_3.odb,Step-1,Increment      1: Step Time =    1.000,"PART-1-1",           499,       14.0421,      -19.9133,            0.,NA,NA,"",   51.0434E-03,  -48.4840E-03,   15.9603E-03,   336.560E-06
C:/temp/dataset/9/12_3.odb,Step-1,Increment      1: Step Time =    1.000,"PART-1-1",           500,           15.,        -18.75,            0.,NA,NA,"",   55.1876E-03,  -51.8504E-03,   18.8999E-03,   279.069E-06
C:/temp/dataset/9/12_3.odb,Step-1,Increment      1: Step Time =    1.000,"PART-1-1",           501,       14.0553,      -17.4719,            0.,NA,NA,"",   57.9409E-03,  -55.5870E-03,   16.3473E-03,   125.440E-06
C:/temp/dataset/9/12_3.odb,Step-1,Increment      1: Step Time =    1.000,"PART-1-1",           502,       7.12541,      -22.7005,            0.,NA,NA,"",   37.7963E-03,  -37.4691E-03,  -4.96235E-03,   578.586E-06
C:/temp/dataset/9/12_3.odb,Step-1,Increment      1: Step Time =    1.000,"PART-1-1",           503,       6.04628,      -21.6612,            0.,NA,NA,"",   42.4495E-03,  -41.5307E-03,  -8.78406E-03,   154.445E-06
C:/temp/dataset/9/12_3.odb,Step-1,Increment      1: Step Time =    1.000,"PART-1-1",           504,            5.,      -22.7083,            0.,NA,NA,"",   39.4919E-03,  -37.3348E-03,  -12.8732E-03,   87.9555E-06
C:/temp/dataset/9/12_3.odb,Step-1,Increment      1: Step Time =    1.000,"PART-1-1",           505,       6.07914,      -23.7476,            0.,NA,NA,"",   33.9593E-03,  -32.8715E-03,  -8.52656E-03,   483.798E-06
C:/temp/dataset/9/12_3.odb,Step-1,Increment      1: Step Time =    1.000,"PART-1-1",           506,       6.22304,      -27.8948,            0.,NA,NA,"",   11.5666E-03,  -10.8488E-03,  -4.01138E-03,   2.68544E-03
C:/temp/dataset/9/12_3.odb,Step-1,Increment      1: Step Time =    1.000,"PART-1-1",           507,            5.,      -28.9583,            0.,NA,NA,"",   8.04396E-03,  -6.32649E-03,  -4.96797E-03,   4.68038E-03
C:/temp/dataset/9/12_3.odb,Step-1,Increment      1: Step Time =    1.000,"PART-1-1",           508,          6.25,          -30.,            0.,NA,NA,"",            0.,  -1.14561E-39,  -4.72261E-39,   4.31286E-03
C:/temp/dataset/9/12_3.odb,Step-1,Increment      1: Step Time =    1.000,"PART-1-1",           509,       9.78444,      -26.6535,            0.,NA,NA,"",   19.0964E-03,  -19.0769E-03,   861.343E-06,   3.24997E-03
C:/temp/dataset/9/12_3.odb,Step-1,Increment      1: Step Time =    1.000,"PART-1-1",           510,       8.47427,      -25.6871,            0.,NA,NA,"",   23.4882E-03,  -23.4658E-03,  -1.02639E-03,   2.29920E-03
C:/temp/dataset/9/12_3.odb,Step-1,Increment      1: Step Time =    1.000,"PART-1-1",           511,       7.37694,      -26.8334,            0.,NA,NA,"",   16.9671E-03,  -16.7171E-03,  -2.90181E-03,   2.71492E-03
C:/temp/dataset/9/12_3.odb,Step-1,Increment      1: Step Time =    1.000,"PART-1-1",           512,       13.7223,      -27.5034,            0.,NA,NA,"",   21.6361E-03,  -20.7071E-03,   6.27177E-03,   4.25349E-03
C:/temp/dataset/9/12_3.odb,Step-1,Increment      1: Step Time =    1.000,"PART-1-1",           513,       12.4723,      -28.7534,            0.,NA,NA,"",   8.47903E-03,  -8.38113E-03,   1.28477E-03,   4.50537E-03
C:/temp/dataset/9/12_3.odb,Step-1,Increment      1: Step Time =    1.000,"PART-1-1",           514,         13.75,          -30.,            0.,NA,NA,"",            0.,  -1.92790E-39,   3.83599E-39,   7.09541E-03
C:/temp/dataset/9/12_3.odb,Step-1,Increment      1: Step Time =    1.000,"PART-1-1",           515,           15.,        -28.75,            0.,NA,NA,"",   17.0522E-03,  -15.1325E-03,   7.86044E-03,   6.42286E-03
C:/temp/dataset/9/12_3.odb,Step-1,Increment      1: Step Time =    1.000,"PART-1-1",           516,         11.25,          -30.,            0.,NA,NA,"",            0.,  -3.50481E-39,   739.535E-42,   3.60612E-03
C:/temp/dataset/9/12_3.odb,Step-1,Increment      1: Step Time =    1.000,"PART-1-1",           517,       11.1864,      -27.6167,            0.,NA,NA,"",   14.9924E-03,  -14.9091E-03,   1.57745E-03,   4.12457E-03
C:/temp/dataset/9/12_3.odb,Step-1,Increment      1: Step Time =    1.000,"PART-1-1",           518,       9.10684,      -20.5966,            0.,NA,NA,"",   45.7784E-03,  -45.7513E-03,   1.57452E-03,   261.685E-06
C:/temp/dataset/9/12_3.odb,Step-1,Increment      1: Step Time =    1.000,"PART-1-1",           519,       11.0993,      -20.6881,            0.,NA,NA,"",   46.6440E-03,  -45.9844E-03,   7.81657E-03,   359.967E-06
C:/temp/dataset/9/12_3.odb,Step-1,Increment      1: Step Time =    1.000,"PART-1-1",           520,       7.08739,      -20.6083,            0.,NA,NA,"",   45.7347E-03,  -45.4497E-03,  -5.09774E-03,   109.024E-06
C:/temp/dataset/9/12_3.odb,Step-1,Increment      1: Step Time =    1.000,"PART-1-1",           521,            5.,       -20.625,            0.,NA,NA,"",   46.8925E-03,  -45.2234E-03,  -12.3999E-03,   245.006E-06
C:/temp/dataset/9/12_3.odb,Step-1,Increment      1: Step Time =    1.000,"PART-1-1",           522,       9.14341,      -14.0595,            0.,NA,NA,"",   66.2591E-03,  -66.2449E-03,   1.37250E-03,   48.4607E-06
C:/temp/dataset/9/12_3.odb,Step-1,Increment      1: Step Time =    1.000,"PART-1-1",           523,       10.1582,      -15.1431,            0.,NA,NA,"",   63.0282E-03,  -62.8617E-03,   4.57772E-03,   62.5481E-06
C:/temp/dataset/9/12_3.odb,Step-1,Increment      1: Step Time =    1.000,"PART-1-1",           524,       11.1509,      -13.9343,            0.,NA,NA,"",   67.0044E-03,  -66.5742E-03,   7.58040E-03,   47.5865E-06
C:/temp/dataset/9/12_3.odb,Step-1,Increment      1: Step Time =    1.000,"PART-1-1",           525,       10.1361,      -12.8507,            0.,NA,NA,"",   70.0977E-03,  -69.9585E-03,   4.41489E-03,   27.5002E-06
C:/temp/dataset/9/12_3.odb,Step-1,Increment      1: Step Time =    1.000,"PART-1-1",           526,       9.12292,      -11.8044,            0.,NA,NA,"",   73.2200E-03,  -73.2093E-03,   1.25185E-03,   20.6222E-06
C:/temp/dataset/9/12_3.odb,Step-1,Increment      1: Step Time =    1.000,"PART-1-1",           527,       11.1213,      -11.5948,            0.,NA,NA,"",   74.2124E-03,  -73.8391E-03,   7.43480E-03,   18.7614E-06
C:/temp/dataset/9/12_3.odb,Step-1,Increment      1: Step Time =    1.000,"PART-1-1",           528,       10.1081,      -10.5485,            0.,NA,NA,"",   77.2073E-03,  -77.0882E-03,   4.28616E-03,   9.17477E-06
C:/temp/dataset/9/12_3.odb,Step-1,Increment      1: Step Time =    1.000,"PART-1-1",           529,       13.8169,  -7.21098E-03,            0.,NA,NA,"",   110.864E-03,  -109.746E-03,   15.7104E-03,   94.2360E-09
C:/temp/dataset/9/12_3.odb,Step-1,Increment      1: Step Time =    1.000,"PART-1-1",           530,           15.,          1.25,            0.,NA,NA,"",   115.282E-03,  -113.644E-03,   19.3675E-03,   77.2014E-09
C:/temp/dataset/9/12_3.odb,Step-1,Increment      1: Step Time =    1.000,"PART-1-1",           531,       13.9075,       2.57030,            0.,NA,NA,"",   118.806E-03,  -117.726E-03,   15.9786E-03,   34.6307E-09
C:/temp/dataset/9/12_3.odb,Step-1,Increment      1: Step Time =    1.000,"PART-1-1",           532,       10.8083,      -4.35361,            0.,NA,NA,"",   96.4870E-03,  -96.2735E-03,   6.41505E-03,   262.076E-09
C:/temp/dataset/9/12_3.odb,Step-1,Increment      1: Step Time =    1.000,"PART-1-1",           533,       9.68548,      -3.40243,            0.,NA,NA,"",   99.2565E-03,  -99.2132E-03,   2.93410E-03,   283.739E-09
C:/temp/dataset/9/12_3.odb,Step-1,Increment      1: Step Time =    1.000,"PART-1-1",           534,       8.81587,      -4.92348,            0.,NA,NA,"",   94.4998E-03,  -94.4995E-03,   248.694E-06,   287.976E-09
C:/temp/dataset/9/12_3.odb,Step-1,Increment      1: Step Time =    1.000,"PART-1-1",           535,       9.93870,      -5.87466,            0.,NA,NA,"",   91.6356E-03,  -91.5597E-03,   3.72948E-03,   378.323E-09
C:/temp/dataset/9/12_3.odb,Step-1,Increment      1: Step Time =    1.000,"PART-1-1",           536,       10.7940,       8.23694,            0.,NA,NA,"",   135.404E-03,  -135.256E-03,   6.31142E-03,   4.11846E-09
C:/temp/dataset/9/12_3.odb,Step-1,Increment      1: Step Time =    1.000,"PART-1-1",           537,       11.2752,       6.42654,            0.,NA,NA,"",   129.888E-03,  -129.653E-03,   7.80976E-03,   12.0239E-09
C:/temp/dataset/9/12_3.odb,Step-1,Increment      1: Step Time =    1.000,"PART-1-1",           538,       12.8821,       8.67106,            0.,NA,NA,"",   137.207E-03,  -136.611E-03,   12.7745E-03,   2.63365E-09
C:/temp/dataset/9/12_3.odb,Step-1,Increment      1: Step Time =    1.000,"PART-1-1",           539,       14.0355,       7.50951,            0.,NA,NA,"",   134.021E-03,  -133.020E-03,   16.3510E-03,   2.16299E-09
C:/temp/dataset/9/12_3.odb,Step-1,Increment      1: Step Time =    1.000,"PART-1-1",           540,           15.,          8.75,            0.,NA,NA,"",   138.224E-03,  -136.865E-03,   19.3315E-03,   591.648E-12
C:/temp/dataset/9/12_3.odb,Step-1,Increment      1: Step Time =    1.000,"PART-1-1",           541,       13.8467,       9.91155,            0.,NA,NA,"",   141.337E-03,  -140.456E-03,   15.7550E-03,   770.704E-12
C:/temp/dataset/9/12_3.odb,Step-1,Increment      1: Step Time =    1.000,"PART-1-1",           542,       12.4850,       16.2122,            0.,NA,NA,"",   160.371E-03,  -159.957E-03,   11.5089E-03,   708.026E-12
C:/temp/dataset/9/12_3.odb,Step-1,Increment      1: Step Time =    1.000,"PART-1-1",           543,       13.7431,       14.9727,            0.,NA,NA,"",   156.884E-03,  -156.126E-03,   15.4101E-03,   1.07713E-09
C:/temp/dataset/9/12_3.odb,Step-1,Increment      1: Step Time =    1.000,"PART-1-1",           544,           15.,         16.25,            0.,NA,NA,"",   161.245E-03,  -160.087E-03,   19.2955E-03,   1.42751E-09
C:/temp/dataset/9/12_3.odb,Step-1,Increment      1: Step Time =    1.000,"PART-1-1",           545,       13.7419,       17.4895,            0.,NA,NA,"",   164.640E-03,  -163.918E-03,   15.3943E-03,   1.02825E-09
C:/temp/dataset/9/12_3.odb,Step-1,Increment      1: Step Time =    1.000,"PART-1-1",           546,       12.4991,       13.6576,            0.,NA,NA,"",   152.487E-03,  -152.048E-03,   11.5646E-03,   871.411E-12
C:/temp/dataset/9/12_3.odb,Step-1,Increment      1: Step Time =    1.000,"PART-1-1",           547,       13.7559,       12.4349,            0.,NA,NA,"",   149.072E-03,  -148.268E-03,   15.4620E-03,   989.050E-12
C:/temp/dataset/9/12_3.odb,Step-1,Increment      1: Step Time =    1.000,"PART-1-1",           548,           15.,         13.75,            0.,NA,NA,"",   153.565E-03,  -152.346E-03,   19.3075E-03,   1.23427E-09
C:/temp/dataset/9/12_3.odb,Step-1,Increment      1: Step Time =    1.000,"PART-1-1",           549,           15.,         21.25,            0.,NA,NA,"",   176.622E-03,  -175.567E-03,   19.2715E-03,   966.530E-12
C:/temp/dataset/9/12_3.odb,Step-1,Increment      1: Step Time =    1.000,"PART-1-1",           550,       13.6875,       22.5045,            0.,NA,NA,"",   180.088E-03,  -179.445E-03,   15.2018E-03,   628.374E-12
C:/temp/dataset/9/12_3.odb,Step-1,Increment      1: Step Time =    1.000,"PART-1-1",           551,       12.4125,       21.2511,            0.,NA,NA,"",   175.919E-03,  -175.559E-03,   11.2601E-03,   670.887E-12
C:/temp/dataset/9/12_3.odb,Step-1,Increment      1: Step Time =    1.000,"PART-1-1",           552,       13.7250,       19.9966,            0.,NA,NA,"",   172.364E-03,  -171.681E-03,   15.3299E-03,   866.158E-12
C:/temp/dataset/9/12_3.odb,Step-1,Increment      1: Step Time =    1.000,"PART-1-1",           553,       13.6481,       25.0064,            0.,NA,NA,"",   187.797E-03,  -187.192E-03,   15.0678E-03,   405.974E-12
C:/temp/dataset/9/12_3.odb,Step-1,Increment      1: Step Time =    1.000,"PART-1-1",           554,       12.3356,       23.7609,            0.,NA,NA,"",   183.659E-03,  -183.329E-03,   11.0100E-03,   597.506E-12
C:/temp/dataset/9/12_3.odb,Step-1,Increment      1: Step Time =    1.000,"PART-1-1",           555,           15.,         23.75,            0.,NA,NA,"",   184.317E-03,  -183.308E-03,   19.2595E-03,   569.870E-12
C:/temp/dataset/9/12_3.odb,Step-1,Increment      1: Step Time =    1.000,"PART-1-1",           556,       13.7112,       27.5077,            0.,NA,NA,"",   195.532E-03,  -194.936E-03,   15.2510E-03,   232.185E-12
C:/temp/dataset/9/12_3.odb,Step-1,Increment      1: Step Time =    1.000,"PART-1-1",           557,           15.,         28.75,            0.,NA,NA,"",   199.717E-03,  -198.789E-03,   19.2356E-03,   107.343E-12
C:/temp/dataset/9/12_3.odb,Step-1,Increment      1: Step Time =    1.000,"PART-1-1",           558,         13.75,           30.,            0.,NA,NA,"",   203.234E-03,  -202.653E-03,   15.3593E-03,   178.157E-12
C:/temp/dataset/9/12_3.odb,Step-1,Increment      1: Step Time =    1.000,"PART-1-1",           559,            5.,      -24.7917,            0.,NA,NA,"",   30.8840E-03,  -28.1397E-03,  -12.7271E-03,   508.757E-06
C:/temp/dataset/9/12_3.odb,Step-1,Increment      1: Step Time =    1.000,"PART-1-1",           560,       6.15390,      -25.8136,            0.,NA,NA,"",   23.8819E-03,  -22.7601E-03,  -7.23325E-03,   1.30228E-03
C:/temp/dataset/9/12_3.odb,Step-1,Increment      1: Step Time =    1.000,"PART-1-1",           561,       7.23304,      -24.7696,            0.,NA,NA,"",   28.2851E-03,  -27.9614E-03,  -4.26692E-03,   1.47007E-03
C:/temp/dataset/9/12_3.odb,Step-1,Increment      1: Step Time =    1.000,"PART-1-1",           562,       13.0086,      -21.0119,            0.,NA,NA,"",   47.6851E-03,  -45.7689E-03,   13.3820E-03,   558.747E-06
C:/temp/dataset/9/12_3.odb,Step-1,Increment      1: Step Time =    1.000,"PART-1-1",           563,       13.9664,      -22.3485,            0.,NA,NA,"",   46.7024E-03,  -43.9570E-03,   15.7763E-03,   1.52533E-03
C:/temp/dataset/9/12_3.odb,Step-1,Increment      1: Step Time =    1.000,"PART-1-1",           564,           15.,        -21.25,            0.,NA,NA,"",   48.6719E-03,  -45.3587E-03,   17.6508E-03,   533.941E-06
C:/temp/dataset/9/12_3.odb,Step-1,Increment      1: Step Time =    1.000,"PART-1-1",           565,            5.,       -26.875,            0.,NA,NA,"",   20.9576E-03,  -17.7908E-03,  -11.0773E-03,   1.96829E-03
C:/temp/dataset/9/12_3.odb,Step-1,Increment      1: Step Time =    1.000,"PART-1-1",           566,       12.9745,      -6.51631,            0.,NA,NA,"",   90.5438E-03,  -89.5862E-03,   13.1336E-03,   352.016E-09
C:/temp/dataset/9/12_3.odb,Step-1,Increment      1: Step Time =    1.000,"PART-1-1",           567,       14.0104,      -7.62731,            0.,NA,NA,"",   87.6864E-03,  -86.1489E-03,   16.3479E-03,   515.246E-09
C:/temp/dataset/9/12_3.odb,Step-1,Increment      1: Step Time =    1.000,"PART-1-1",           568,           15.,         -6.25,            0.,NA,NA,"",   92.4793E-03,  -90.4203E-03,   19.4062E-03,   858.861E-09
C:/temp/dataset/9/12_3.odb,Step-1,Increment      1: Step Time =    1.000,"PART-1-1",           569,       13.9641,      -5.13900,            0.,NA,NA,"",   95.2430E-03,  -93.8565E-03,   16.1919E-03,   427.379E-09
C:/temp/dataset/9/12_3.odb,Step-1,Increment      1: Step Time =    1.000,"PART-1-1",           570,       11.1649,      -16.2543,            0.,NA,NA,"",   59.8783E-03,  -59.3756E-03,   7.74277E-03,   91.1474E-06
C:/temp/dataset/9/12_3.odb,Step-1,Increment      1: Step Time =    1.000,"PART-1-1",           571,       9.14831,      -16.2933,            0.,NA,NA,"",   59.3726E-03,  -59.3536E-03,   1.50160E-03,   82.9625E-06
C:/temp/dataset/9/12_3.odb,Step-1,Increment      1: Step Time =    1.000,"PART-1-1",           572,            5.,        -8.125,            0.,NA,NA,"",   85.3581E-03,  -84.5736E-03,  -11.5457E-03,   649.240E-09
C:/temp/dataset/9/12_3.odb,Step-1,Increment      1: Step Time =    1.000,"PART-1-1",           573,       12.8519,      -3.99254,            0.,NA,NA,"",   98.2313E-03,  -97.4015E-03,   12.7418E-03,   236.913E-09
C:/temp/dataset/9/12_3.odb,Step-1,Increment      1: Step Time =    1.000,"PART-1-1",           574,           15.,         -3.75,            0.,NA,NA,"",   100.060E-03,  -98.1625E-03,   19.3925E-03,   521.162E-09
C:/temp/dataset/9/12_3.odb,Step-1,Increment      1: Step Time =    1.000,"PART-1-1",           575,       13.8878,      -2.60354,            0.,NA,NA,"",   102.949E-03,  -101.707E-03,   15.9427E-03,   230.150E-09
C:/temp/dataset/9/12_3.odb,Step-1,Increment      1: Step Time =    1.000,"PART-1-1",           576,       13.0423,      -8.97351,            0.,NA,NA,"",   83.0524E-03,  -81.9715E-03,   13.3554E-03,   3.60454E-06
C:/temp/dataset/9/12_3.odb,Step-1,Increment      1: Step Time =    1.000,"PART-1-1",           577,           15.,         -8.75,            0.,NA,NA,"",   84.9240E-03,  -82.6736E-03,   19.4208E-03,   372.882E-09
C:/temp/dataset/9/12_3.odb,Step-1,Increment      1: Step Time =    1.000,"PART-1-1",           578,       8.09346,      -21.6433,            0.,NA,NA,"",   41.8582E-03,  -41.8214E-03,  -1.75492E-03,   357.649E-06
C:/temp/dataset/9/12_3.odb,Step-1,Increment      1: Step Time =    1.000,"PART-1-1",           579,       8.17438,      -23.6967,            0.,NA,NA,"",   33.4070E-03,  -33.3674E-03,  -1.62737E-03,   1.10405E-03
C:/temp/dataset/9/12_3.odb,Step-1,Increment      1: Step Time =    1.000,"PART-1-1",           580,       8.10077,      -19.5616,            0.,NA,NA,"",   49.1039E-03,  -49.0744E-03,  -1.70187E-03,   71.9253E-06
C:/temp/dataset/9/12_3.odb,Step-1,Increment      1: Step Time =    1.000,"PART-1-1",           581,       8.11824,      -17.4194,            0.,NA,NA,"",   55.9212E-03,  -55.8948E-03,  -1.71865E-03,   84.0483E-06
C:/temp/dataset/9/12_3.odb,Step-1,Increment      1: Step Time =    1.000,"PART-1-1",           582,          -15.,       22.3438,            0.,NA,NA,"",   193.372E-03,  -178.810E-03,  -73.6194E-03,   1.25330E-09
C:/temp/dataset/9/12_3.odb,Step-1,Increment      1: Step Time =    1.000,"PART-1-1",           583,      -12.5647,       21.7347,            0.,NA,NA,"",   188.871E-03,  -176.936E-03,  -66.0763E-03,   846.077E-12
C:/temp/dataset/9/12_3.odb,Step-1,Increment      1: Step Time =    1.000,"PART-1-1",           584,      -4.95050,       22.5220,            0.,NA,NA,"",   184.377E-03,  -179.410E-03,  -42.5051E-03,   1.37798E-09
C:/temp/dataset/9/12_3.odb,Step-1,Increment      1: Step Time =    1.000,"PART-1-1",           585,      -3.93081,       23.1260,            0.,NA,NA,"",   185.507E-03,  -181.285E-03,  -39.3508E-03,   1.25212E-09
C:/temp/dataset/9/12_3.odb,Step-1,Increment      1: Step Time =    1.000,"PART-1-1",           586,      -4.22857,       24.4244,            0.,NA,NA,"",   189.631E-03,  -185.304E-03,  -40.2790E-03,   931.750E-12
C:/temp/dataset/9/12_3.odb,Step-1,Increment      1: Step Time =    1.000,"PART-1-1",           587,      -5.24826,       23.8204,            0.,NA,NA,"",   188.501E-03,  -183.429E-03,  -43.4332E-03,   1.02533E-09
C:/temp/dataset/9/12_3.odb,Step-1,Increment      1: Step Time =    1.000,"PART-1-1",           588,      -10.1110,       10.4874,            0.,NA,NA,"",   153.664E-03,  -142.124E-03,  -58.4252E-03,   690.248E-12
C:/temp/dataset/9/12_3.odb,Step-1,Increment      1: Step Time =    1.000,"PART-1-1",           589,      -9.15687,       11.6944,            0.,NA,NA,"",   156.059E-03,  -145.866E-03,  -55.4769E-03,   882.207E-12
C:/temp/dataset/9/12_3.odb,Step-1,Increment      1: Step Time =    1.000,"PART-1-1",           590,      -11.1597,       11.6149,            0.,NA,NA,"",   158.134E-03,  -145.610E-03,  -61.6776E-03,   563.895E-12
C:/temp/dataset/9/12_3.odb,Step-1,Increment      1: Step Time =    1.000,"PART-1-1",           591,      -6.07359,       12.6401,            0.,NA,NA,"",   155.737E-03,  -148.808E-03,  -45.9350E-03,   1.71613E-09
C:/temp/dataset/9/12_3.odb,Step-1,Increment      1: Step Time =    1.000,"PART-1-1",           592,      -7.11512,       11.5321,            0.,NA,NA,"",   153.458E-03,  -145.373E-03,  -49.1545E-03,   1.33998E-09
C:/temp/dataset/9/12_3.odb,Step-1,Increment      1: Step Time =    1.000,"PART-1-1",           593,           -5.,         11.25,            0.,NA,NA,"",   150.659E-03,  -144.510E-03,  -42.6043E-03,   1.91328E-09
C:/temp/dataset/9/12_3.odb,Step-1,Increment      1: Step Time =    1.000,"PART-1-1",           594,      -10.0988,       8.37440,            0.,NA,NA,"",   147.615E-03,  -135.582E-03,  -58.3773E-03,   694.000E-12
C:/temp/dataset/9/12_3.odb,Step-1,Increment      1: Step Time =    1.000,"PART-1-1",           595,      -9.11481,       9.38066,            0.,NA,NA,"",   149.333E-03,  -138.702E-03,  -55.3356E-03,   829.589E-12
C:/temp/dataset/9/12_3.odb,Step-1,Increment      1: Step Time =    1.000,"PART-1-1",           596,      -11.0949,       9.48111,            0.,NA,NA,"",   151.987E-03,  -139.004E-03,  -61.4669E-03,   592.405E-12
C:/temp/dataset/9/12_3.odb,Step-1,Increment      1: Step Time =    1.000,"PART-1-1",           597,      -11.8142,       15.6555,            0.,NA,NA,"",   170.475E-03,  -158.117E-03,  -63.7235E-03,   482.681E-12
C:/temp/dataset/9/12_3.odb,Step-1,Increment      1: Step Time =    1.000,"PART-1-1",           598,      -13.4062,       15.6218,            0.,NA,NA,"",   172.276E-03,  -158.005E-03,  -68.6525E-03,   847.948E-12
C:/temp/dataset/9/12_3.odb,Step-1,Increment      1: Step Time =    1.000,"PART-1-1",           599,      -12.4316,       14.7766,            0.,NA,NA,"",   168.684E-03,  -155.393E-03,  -65.6309E-03,   557.319E-12
C:/temp/dataset/9/12_3.odb,Step-1,Increment      1: Step Time =    1.000,"PART-1-1",           600,      -5.72199,       20.2132,            0.,NA,NA,"",   178.009E-03,  -172.258E-03,  -44.8827E-03,   3.02492E-09
C:/temp/dataset/9/12_3.odb,Step-1,Increment      1: Step Time =    1.000,"PART-1-1",           601,           -5.,         18.75,            0.,NA,NA,"",   173.066E-03,  -167.731E-03,  -42.6403E-03,   4.00038E-09
C:/temp/dataset/9/12_3.odb,Step-1,Increment      1: Step Time =    1.000,"PART-1-1",           602,          -15.,       15.7813,            0.,NA,NA,"",   174.742E-03,  -158.491E-03,  -73.5880E-03,   1.49768E-09
C:/temp/dataset/9/12_3.odb,Step-1,Increment      1: Step Time =    1.000,"PART-1-1",           603,      -10.4105,       16.7429,            0.,NA,NA,"",   172.063E-03,  -161.491E-03,  -59.3827E-03,   508.338E-12
C:/temp/dataset/9/12_3.odb,Step-1,Increment      1: Step Time =    1.000,"PART-1-1",           604,      -12.1928,       12.6381,            0.,NA,NA,"",   162.305E-03,  -148.773E-03,  -64.8812E-03,   483.045E-12
C:/temp/dataset/9/12_3.odb,Step-1,Increment      1: Step Time =    1.000,"PART-1-1",           605,      -12.0987,       10.4443,            0.,NA,NA,"",   155.978E-03,  -141.981E-03,  -64.5793E-03,   472.881E-12
C:/temp/dataset/9/12_3.odb,Step-1,Increment      1: Step Time =    1.000,"PART-1-1",           606,      -7.50325,       4.80693,            0.,NA,NA,"",   134.331E-03,  -124.549E-03,  -50.3240E-03,   1.30425E-09
C:/temp/dataset/9/12_3.odb,Step-1,Increment      1: Step Time =    1.000,"PART-1-1",           607,      -9.63824,       5.46172,            0.,NA,NA,"",   138.783E-03,  -126.566E-03,  -56.9375E-03,   745.769E-12
C:/temp/dataset/9/12_3.odb,Step-1,Increment      1: Step Time =    1.000,"PART-1-1",           608,      -8.81234,       4.25317,            0.,NA,NA,"",   134.325E-03,  -122.828E-03,  -54.3745E-03,   969.299E-12
C:/temp/dataset/9/12_3.odb,Step-1,Increment      1: Step Time =    1.000,"PART-1-1",           609,          -15.,      -1.71875,            0.,NA,NA,"",   127.605E-03,  -104.308E-03,  -73.5041E-03,   122.019E-12
C:/temp/dataset/9/12_3.odb,Step-1,Increment      1: Step Time =    1.000,"PART-1-1",           610,      -12.5835,      -1.75493,            0.,NA,NA,"",   123.362E-03,  -104.207E-03,  -66.0220E-03,   214.696E-12
C:/temp/dataset/9/12_3.odb,Step-1,Increment      1: Step Time =    1.000,"PART-1-1",           611,        -11.25,           -5.,            0.,NA,NA,"",   112.677E-03,  -94.1665E-03,  -61.8776E-03,   246.767E-12
C:/temp/dataset/9/12_3.odb,Step-1,Increment      1: Step Time =    1.000,"PART-1-1",           612,      -10.0144,      -3.91217,            0.,NA,NA,"",   113.511E-03,  -97.5406E-03,  -58.0572E-03,   276.296E-12
C:/temp/dataset/9/12_3.odb,Step-1,Increment      1: Step Time =    1.000,"PART-1-1",           613,      -11.2827,      -2.82422,            0.,NA,NA,"",   118.423E-03,  -100.903E-03,  -61.9894E-03,   242.448E-12
C:/temp/dataset/9/12_3.odb,Step-1,Increment      1: Step Time =    1.000,"PART-1-1",           614,         -8.75,           -5.,            0.,NA,NA,"",   108.630E-03,  -94.1785E-03,  -54.1371E-03,   394.863E-12
C:/temp/dataset/9/12_3.odb,Step-1,Increment      1: Step Time =    1.000,"PART-1-1",           615,      -7.54904,      -4.01671,            0.,NA,NA,"",   109.526E-03,  -97.2287E-03,  -50.4234E-03,   453.047E-12
C:/temp/dataset/9/12_3.odb,Step-1,Increment      1: Step Time =    1.000,"PART-1-1",           616,      -8.81345,      -2.92887,            0.,NA,NA,"",   114.332E-03,  -100.591E-03,  -54.3435E-03,   337.178E-12
C:/temp/dataset/9/12_3.odb,Step-1,Increment      1: Step Time =    1.000,"PART-1-1",           617,  -969.738E-03,       22.2544,            0.,NA,NA,"",   181.132E-03,  -178.601E-03,  -30.1786E-03,   1.21737E-09
C:/temp/dataset/9/12_3.odb,Step-1,Increment      1: Step Time =    1.000,"PART-1-1",           618,      -2.31964,       21.1016,            0.,NA,NA,"",   178.364E-03,  -175.025E-03,  -34.3526E-03,   1.38419E-09
C:/temp/dataset/9/12_3.odb,Step-1,Increment      1: Step Time =    1.000,"PART-1-1",           619,         -1.25,           20.,            0.,NA,NA,"",   174.403E-03,  -171.619E-03,  -31.0356E-03,   1.34996E-09
C:/temp/dataset/9/12_3.odb,Step-1,Increment      1: Step Time =    1.000,"PART-1-1",           620,         -1.25,           30.,            0.,NA,NA,"",   204.952E-03,  -202.581E-03,  -31.0835E-03,   914.582E-12
C:/temp/dataset/9/12_3.odb,Step-1,Increment      1: Step Time =    1.000,"PART-1-1",           621,      -1.44357,       27.1449,            0.,NA,NA,"",   196.312E-03,  -193.740E-03,  -31.6691E-03,   871.713E-12
C:/temp/dataset/9/12_3.odb,Step-1,Increment      1: Step Time =    1.000,"PART-1-1",           622,      -4.58492,       21.1383,            0.,NA,NA,"",   179.947E-03,  -175.128E-03,  -41.3666E-03,   2.77040E-09
C:/temp/dataset/9/12_3.odb,Step-1,Increment      1: Step Time =    1.000,"PART-1-1",           623,         -3.75,           20.,            0.,NA,NA,"",   175.934E-03,  -171.607E-03,  -38.7760E-03,   2.95346E-09
C:/temp/dataset/9/12_3.odb,Step-1,Increment      1: Step Time =    1.000,"PART-1-1",           624,      -3.15456,       22.2398,            0.,NA,NA,"",   182.327E-03,  -178.545E-03,  -36.9432E-03,   1.37560E-09
C:/temp/dataset/9/12_3.odb,Step-1,Increment      1: Step Time =    1.000,"PART-1-1",           625,      -11.2479,       22.4027,            0.,NA,NA,"",   189.444E-03,  -179.011E-03,  -62.0025E-03,   851.274E-12
C:/temp/dataset/9/12_3.odb,Step-1,Increment      1: Step Time =    1.000,"PART-1-1",           626,      -10.3888,       20.8027,            0.,NA,NA,"",   183.896E-03,  -174.061E-03,  -59.3349E-03,   657.904E-12
C:/temp/dataset/9/12_3.odb,Step-1,Increment      1: Step Time =    1.000,"PART-1-1",           627,       9.41561,      -24.6142,            0.,NA,NA,"",   29.8567E-03,  -29.8248E-03,   1.37941E-03,   2.00281E-03
C:/temp/dataset/9/12_3.odb,Step-1,Increment      1: Step Time =    1.000,"PART-1-1",           628,           15.,        -16.25,            0.,NA,NA,"",   62.4248E-03,  -59.3729E-03,   19.2798E-03,   120.966E-06
C:/temp/dataset/9/12_3.odb,Step-1,Increment      1: Step Time =    1.000,"PART-1-1",           629,       13.1096,      -16.2411,            0.,NA,NA,"",   60.8956E-03,  -59.3615E-03,   13.5829E-03,   82.9883E-06
C:/temp/dataset/9/12_3.odb,Step-1,Increment      1: Step Time =    1.000,"PART-1-1",           630,           15.,          3.75,            0.,NA,NA,"",   122.918E-03,  -121.384E-03,   19.3554E-03,   21.7596E-09
C:/temp/dataset/9/12_3.odb,Step-1,Increment      1: Step Time =    1.000,"PART-1-1",           631,       14.0093,       5.06690,            0.,NA,NA,"",   126.509E-03,  -125.457E-03,   16.2817E-03,   9.81727E-09
C:/temp/dataset/9/12_3.odb,Step-1,Increment      1: Step Time =    1.000,"PART-1-1",           632,       12.9168,       3.88721,            0.,NA,NA,"",   122.481E-03,  -121.799E-03,   12.9048E-03,   31.1324E-09
C:/temp/dataset/9/12_3.odb,Step-1,Increment      1: Step Time =    1.000,"PART-1-1",           633,       12.6026,       11.0965,            0.,NA,NA,"",   144.609E-03,  -144.119E-03,   11.8975E-03,   1.09968E-09
C:/temp/dataset/9/12_3.odb,Step-1,Increment      1: Step Time =    1.000,"PART-1-1",           634,           15.,         11.25,            0.,NA,NA,"",   145.890E-03,  -144.606E-03,   19.3195E-03,   672.743E-12
C:/temp/dataset/9/12_3.odb,Step-1,Increment      1: Step Time =    1.000,"PART-1-1",           635,       12.4669,       18.7361,            0.,NA,NA,"",   168.161E-03,  -167.772E-03,   11.4406E-03,   675.294E-12
C:/temp/dataset/9/12_3.odb,Step-1,Increment      1: Step Time =    1.000,"PART-1-1",           636,           15.,         18.75,            0.,NA,NA,"",   168.931E-03,  -167.827E-03,   19.2835E-03,   1.30142E-09
C:/temp/dataset/9/12_3.odb,Step-1,Increment      1: Step Time =    1.000,"PART-1-1",           637,           15.,         26.25,            0.,NA,NA,"",   192.016E-03,  -191.048E-03,   19.2476E-03,   237.881E-12
C:/temp/dataset/9/12_3.odb,Step-1,Increment      1: Step Time =    1.000,"PART-1-1",           638,          8.75,           30.,            0.,NA,NA,"",   202.629E-03,  -202.629E-03,  -121.599E-06,   548.449E-12
C:/temp/dataset/9/12_3.odb,Step-1,Increment      1: Step Time =    1.000,"PART-1-1",           639,       8.74802,       27.8391,            0.,NA,NA,"",   195.939E-03,  -195.939E-03,  -117.360E-06,   380.868E-12
C:/temp/dataset/9/12_3.odb,Step-1,Increment      1: Step Time =    1.000,"PART-1-1",           640,       11.0691,       22.4572,            0.,NA,NA,"",   179.427E-03,  -179.286E-03,   7.09506E-03,   626.581E-12
C:/temp/dataset/9/12_3.odb,Step-1,Increment      1: Step Time =    1.000,"PART-1-1",           641,       11.1947,       19.9658,            0.,NA,NA,"",   171.737E-03,  -171.573E-03,   7.49573E-03,   579.364E-12
C:/temp/dataset/9/12_3.odb,Step-1,Increment      1: Step Time =    1.000,"PART-1-1",           642,          3.75,           30.,            0.,NA,NA,"",   203.205E-03,  -202.605E-03,  -15.6025E-03,   268.014E-12
C:/temp/dataset/9/12_3.odb,Step-1,Increment      1: Step Time =    1.000,"PART-1-1",           643,       6.12801,       21.9878,            0.,NA,NA,"",   177.998E-03,  -177.809E-03,  -8.20138E-03,   1.21416E-09
C:/temp/dataset/9/12_3.odb,Step-1,Increment      1: Step Time =    1.000,"PART-1-1",           644,       7.06684,       23.0702,            0.,NA,NA,"",   181.243E-03,  -181.165E-03,  -5.29976E-03,   891.467E-12
C:/temp/dataset/9/12_3.odb,Step-1,Increment      1: Step Time =    1.000,"PART-1-1",           645,       4.97038,       22.7185,            0.,NA,NA,"",   180.452E-03,  -180.066E-03,  -11.7891E-03,   1.21605E-09
C:/temp/dataset/9/12_3.odb,Step-1,Increment      1: Step Time =    1.000,"PART-1-1",           646,          3.75,           20.,            0.,NA,NA,"",   172.347E-03,  -171.643E-03,  -15.5546E-03,   775.382E-12
C:/temp/dataset/9/12_3.odb,Step-1,Increment      1: Step Time =    1.000,"PART-1-1",           647,       4.96897,       20.9583,            0.,NA,NA,"",   175.014E-03,  -174.616E-03,  -11.7850E-03,   1.70452E-09
C:/temp/dataset/9/12_3.odb,Step-1,Increment      1: Step Time =    1.000,"PART-1-1",           648,       3.78616,       22.0655,            0.,NA,NA,"",   178.708E-03,  -178.039E-03,  -15.4525E-03,   1.17694E-09
C:/temp/dataset/9/12_3.odb,Step-1,Increment      1: Step Time =    1.000,"PART-1-1",           649,           -5.,         13.75,            0.,NA,NA,"",   158.102E-03,  -152.250E-03,  -42.6163E-03,   2.14166E-09
C:/temp/dataset/9/12_3.odb,Step-1,Increment      1: Step Time =    1.000,"PART-1-1",           650,      -7.15256,       14.0792,            0.,NA,NA,"",   160.988E-03,  -153.259E-03,  -49.2826E-03,   1.54456E-09
C:/temp/dataset/9/12_3.odb,Step-1,Increment      1: Step Time =    1.000,"PART-1-1",           651,      -9.70164,       19.1500,            0.,NA,NA,"",   178.367E-03,  -168.947E-03,  -57.1994E-03,   587.475E-12
C:/temp/dataset/9/12_3.odb,Step-1,Increment      1: Step Time =    1.000,"PART-1-1",           652,      -9.13060,       21.5024,            0.,NA,NA,"",   184.749E-03,  -176.233E-03,  -55.4426E-03,   835.458E-12
C:/temp/dataset/9/12_3.odb,Step-1,Increment      1: Step Time =    1.000,"PART-1-1",           653,         -1.25,           -5.,            0.,NA,NA,"",   99.1571E-03,  -94.2144E-03,  -30.9157E-03,   8.03845E-09
C:/temp/dataset/9/12_3.odb,Step-1,Increment      1: Step Time =    1.000,"PART-1-1",           654,      -1.47244,      -2.77860,            0.,NA,NA,"",   105.920E-03,  -101.091E-03,  -31.6150E-03,   6.08156E-09
C:/temp/dataset/9/12_3.odb,Step-1,Increment      1: Step Time =    1.000,"PART-1-1",           655,      -9.96758,      -1.61086,            0.,NA,NA,"",   119.625E-03,  -104.666E-03,  -57.9232E-03,   340.931E-12
C:/temp/dataset/9/12_3.odb,Step-1,Increment      1: Step Time =    1.000,"PART-1-1",           656,      -6.37223,      -3.07632,            0.,NA,NA,"",   110.535E-03,  -100.146E-03,  -46.7843E-03,   704.432E-12
C:/temp/dataset/9/12_3.odb,Step-1,Increment      1: Step Time =    1.000,"PART-1-1",           657,         -6.25,           -5.,            0.,NA,NA,"",   104.998E-03,  -94.1905E-03,  -46.3966E-03,   413.306E-12
C:/temp/dataset/9/12_3.odb,Step-1,Increment      1: Step Time =    1.000,"PART-1-1",           658,         -3.75,            5.,            0.,NA,NA,"",   131.012E-03,  -125.164E-03,  -38.7041E-03,   4.54865E-09
C:/temp/dataset/9/12_3.odb,Step-1,Increment      1: Step Time =    1.000,"PART-1-1",           659,      -5.11170,       4.23117,            0.,NA,NA,"",   130.062E-03,  -122.777E-03,  -42.9165E-03,   2.59270E-09
C:/temp/dataset/9/12_3.odb,Step-1,Increment      1: Step Time =    1.000,"PART-1-1",           660,      -3.95473,       3.29190,            0.,NA,NA,"",   126.162E-03,  -119.875E-03,  -39.3298E-03,   2.87896E-09
C:/temp/dataset/9/12_3.odb,Step-1,Increment      1: Step Time =    1.000,"PART-1-1",           661,          3.75,           -5.,            0.,NA,NA,"",   95.4940E-03,  -94.2384E-03,  -15.4345E-03,   145.693E-09
C:/temp/dataset/9/12_3.odb,Step-1,Increment      1: Step Time =    1.000,"PART-1-1",           662,       4.69008,      -3.66648,            0.,NA,NA,"",   99.1665E-03,  -98.3717E-03,  -12.5301E-03,   251.774E-09
C:/temp/dataset/9/12_3.odb,Step-1,Increment      1: Step Time =    1.000,"PART-1-1",           663,       4.69636,       3.71818,            0.,NA,NA,"",   121.884E-03,  -121.236E-03,  -12.5465E-03,   28.5196E-09
C:/temp/dataset/9/12_3.odb,Step-1,Increment      1: Step Time =    1.000,"PART-1-1",           664,          3.75,            5.,            0.,NA,NA,"",   126.154E-03,  -125.200E-03,  -15.4827E-03,   19.0887E-09
C:/temp/dataset/9/12_3.odb,Step-1,Increment      1: Step Time =    1.000,"PART-1-1",           665,       8.42013,       25.7200,            0.,NA,NA,"",   189.379E-03,  -189.376E-03,  -1.12243E-03,   458.723E-12
C:/temp/dataset/9/12_3.odb,Step-1,Increment      1: Step Time =    1.000,"PART-1-1",           666,       7.55622,       27.1849,            0.,NA,NA,"",   193.945E-03,  -193.907E-03,  -3.80426E-03,   436.024E-12
C:/temp/dataset/9/12_3.odb,Step-1,Increment      1: Step Time =    1.000,"PART-1-1",           667,       6.61388,       26.0906,            0.,NA,NA,"",   190.633E-03,  -190.515E-03,  -6.71670E-03,   541.759E-12
C:/temp/dataset/9/12_3.odb,Step-1,Increment      1: Step Time =    1.000,"PART-1-1",           668,       10.0237,       13.5556,            0.,NA,NA,"",   151.770E-03,  -151.720E-03,   3.90093E-03,   369.244E-12
C:/temp/dataset/9/12_3.odb,Step-1,Increment      1: Step Time =    1.000,"PART-1-1",           669,       8.80148,       12.2659,            0.,NA,NA,"",   147.721E-03,  -147.721E-03,   122.775E-06,   755.156E-12
C:/temp/dataset/9/12_3.odb,Step-1,Increment      1: Step Time =    1.000,"PART-1-1",           670,            5.,          6.25,            0.,NA,NA,"",   129.598E-03,  -129.077E-03,  -11.6185E-03,   14.2672E-09
C:/temp/dataset/9/12_3.odb,Step-1,Increment      1: Step Time =    1.000,"PART-1-1",           671,       5.87545,       4.76801,            0.,NA,NA,"",   124.810E-03,  -124.492E-03,  -8.90085E-03,   25.3293E-09
C:/temp/dataset/9/12_3.odb,Step-1,Increment      1: Step Time =    1.000,"PART-1-1",           672,       6.93940,       5.78737,            0.,NA,NA,"",   127.777E-03,  -127.654E-03,  -5.61154E-03,   20.2184E-09
C:/temp/dataset/9/12_3.odb,Step-1,Increment      1: Step Time =    1.000,"PART-1-1",           673,       7.73520,       4.18036,            0.,NA,NA,"",   122.722E-03,  -122.682E-03,  -3.13991E-03,   31.4669E-09
C:/temp/dataset/9/12_3.odb,Step-1,Increment      1: Step Time =    1.000,"PART-1-1",           674,       6.49581,       3.34316,            0.,NA,NA,"",   120.286E-03,  -120.084E-03,  -6.97329E-03,   32.8223E-09
C:/temp/dataset/9/12_3.odb,Step-1,Increment      1: Step Time =    1.000,"PART-1-1",           675,       7.18979,       1.82766,            0.,NA,NA,"",   115.495E-03,  -115.395E-03,  -4.81737E-03,   51.2693E-09
C:/temp/dataset/9/12_3.odb,Step-1,Increment      1: Step Time =    1.000,"PART-1-1",           676,       8.42918,       2.66485,            0.,NA,NA,"",   117.997E-03,  -117.993E-03,  -983.992E-06,   51.2628E-09
C:/temp/dataset/9/12_3.odb,Step-1,Increment      1: Step Time =    1.000,"PART-1-1",           677,  -530.051E-03,       1.39108,            0.,NA,NA,"",   117.567E-03,  -114.006E-03,  -28.7172E-03,   2.67229E-09
C:/temp/dataset/9/12_3.odb,Step-1,Increment      1: Step Time =    1.000,"PART-1-1",           678,      -10.1792,       3.73358,            0.,NA,NA,"",   134.636E-03,  -121.213E-03,  -58.6040E-03,   583.920E-12
C:/temp/dataset/9/12_3.odb,Step-1,Increment      1: Step Time =    1.000,"PART-1-1",           679,      -9.26781,       2.30942,            0.,NA,NA,"",   129.441E-03,  -116.807E-03,  -55.7754E-03,   677.133E-12
C:/temp/dataset/9/12_3.odb,Step-1,Increment      1: Step Time =    1.000,"PART-1-1",           680,      -7.90097,       2.82902,            0.,NA,NA,"",   129.155E-03,  -118.423E-03,  -51.5459E-03,   1.10615E-09
C:/temp/dataset/9/12_3.odb,Step-1,Increment      1: Step Time =    1.000,"PART-1-1",           681,      -2.90861,       2.25641,            0.,NA,NA,"",   122.127E-03,  -116.674E-03,  -36.0858E-03,   2.80347E-09
C:/temp/dataset/9/12_3.odb,Step-1,Increment      1: Step Time =    1.000,"PART-1-1",           682,      -1.97153,   737.020E-03,            0.,NA,NA,"",   116.786E-03,  -111.974E-03,  -33.1771E-03,   3.30315E-09
C:/temp/dataset/9/12_3.odb,Step-1,Increment      1: Step Time =    1.000,"PART-1-1",           683,      -12.0057,       8.33468,            0.,NA,NA,"",   149.929E-03,  -135.450E-03,  -64.2814E-03,   479.183E-12
C:/temp/dataset/9/12_3.odb,Step-1,Increment      1: Step Time =    1.000,"PART-1-1",           684,   257.111E-03,       23.5381,            0.,NA,NA,"",   184.478E-03,  -182.581E-03,  -26.3862E-03,   1.07645E-09
C:/temp/dataset/9/12_3.odb,Step-1,Increment      1: Step Time =    1.000,"PART-1-1",           685,       2.92443,       23.5127,            0.,NA,NA,"",   183.413E-03,  -182.515E-03,  -18.1276E-03,   1.10281E-09
C:/temp/dataset/9/12_3.odb,Step-1,Increment      1: Step Time =    1.000,"PART-1-1",           686,  -872.814E-03,       24.6452,            0.,NA,NA,"",   188.390E-03,  -186.004E-03,  -29.8900E-03,   1.14133E-09
C:/temp/dataset/9/12_3.odb,Step-1,Increment      1: Step Time =    1.000,"PART-1-1",           687,      -2.49287,       25.7554,            0.,NA,NA,"",   192.623E-03,  -189.433E-03,  -34.9113E-03,   909.208E-12
C:/temp/dataset/9/12_3.odb,Step-1,Increment      1: Step Time =    1.000,"PART-1-1",           688,      -6.57000,       23.0679,            0.,NA,NA,"",   187.224E-03,  -181.093E-03,  -47.5220E-03,   1.08211E-09
C:/temp/dataset/9/12_3.odb,Step-1,Increment      1: Step Time =    1.000,"PART-1-1",           689,      -7.77911,       22.2181,            0.,NA,NA,"",   185.672E-03,  -178.456E-03,  -51.2615E-03,   952.940E-12
C:/temp/dataset/9/12_3.odb,Step-1,Increment      1: Step Time =    1.000,"PART-1-1",           690,      -6.08757,       21.5970,            0.,NA,NA,"",   182.441E-03,  -176.541E-03,  -46.0212E-03,   1.44296E-09
C:/temp/dataset/9/12_3.odb,Step-1,Increment      1: Step Time =    1.000,"PART-1-1",           691,      -10.6596,       24.7502,            0.,NA,NA,"",   195.765E-03,  -186.282E-03,  -60.1922E-03,   926.408E-12
C:/temp/dataset/9/12_3.odb,Step-1,Increment      1: Step Time =    1.000,"PART-1-1",           692,      -8.94190,       25.0911,            0.,NA,NA,"",   195.217E-03,  -187.346E-03,  -54.8756E-03,   905.870E-12
C:/temp/dataset/9/12_3.odb,Step-1,Increment      1: Step Time =    1.000,"PART-1-1",           693,      -9.30563,       26.3338,            0.,NA,NA,"",   199.226E-03,  -191.191E-03,  -56.0077E-03,   851.378E-12
C:/temp/dataset/9/12_3.odb,Step-1,Increment      1: Step Time =    1.000,"PART-1-1",           694,      -11.0233,       25.9928,            0.,NA,NA,"",   199.773E-03,  -190.127E-03,  -61.3244E-03,   853.807E-12
C:/temp/dataset/9/12_3.odb,Step-1,Increment      1: Step Time =    1.000,"PART-1-1",           695,      -9.11986,       17.2561,            0.,NA,NA,"",   172.235E-03,  -163.086E-03,  -55.3890E-03,   903.125E-12
C:/temp/dataset/9/12_3.odb,Step-1,Increment      1: Step Time =    1.000,"PART-1-1",           696,      -11.0116,       7.65423,            0.,NA,NA,"",   146.721E-03,  -133.348E-03,  -61.2001E-03,   592.643E-12
C:/temp/dataset/9/12_3.odb,Step-1,Increment      1: Step Time =    1.000,"PART-1-1",           697,      -11.6541,       6.30856,            0.,NA,NA,"",   143.802E-03,  -129.178E-03,  -63.1829E-03,   483.658E-12
C:/temp/dataset/9/12_3.odb,Step-1,Increment      1: Step Time =    1.000,"PART-1-1",           698,      -3.46647,   792.949E-03,            0.,NA,NA,"",   118.341E-03,  -112.140E-03,  -37.8061E-03,   2.58989E-09
C:/temp/dataset/9/12_3.odb,Step-1,Increment      1: Step Time =    1.000,"PART-1-1",           699,      -4.27899,       1.61468,            0.,NA,NA,"",   121.564E-03,  -114.680E-03,  -40.3257E-03,   2.32117E-09
C:/temp/dataset/9/12_3.odb,Step-1,Increment      1: Step Time =    1.000,"PART-1-1",           700,      -5.41602,       1.03976,            0.,NA,NA,"",   121.109E-03,  -112.895E-03,  -43.8434E-03,   1.59234E-09
C:/temp/dataset/9/12_3.odb,Step-1,Increment      1: Step Time =    1.000,"PART-1-1",           701,      -4.60351,   218.037E-03,            0.,NA,NA,"",   117.838E-03,  -110.354E-03,  -41.3238E-03,   1.96652E-09
C:/temp/dataset/9/12_3.odb,Step-1,Increment      1: Step Time =    1.000,"PART-1-1",           702,      -1.96165,  -510.209E-03,            0.,NA,NA,"",   113.078E-03,  -108.112E-03,  -33.1406E-03,   1.99220E-09
C:/temp/dataset/9/12_3.odb,Step-1,Increment      1: Step Time =    1.000,"PART-1-1",           703,      -2.89723,      -2.02996,            0.,NA,NA,"",   109.500E-03,  -103.402E-03,  -36.0300E-03,   1.81847E-09
C:/temp/dataset/9/12_3.odb,Step-1,Increment      1: Step Time =    1.000,"PART-1-1",           704,       6.46823,      -3.22891,            0.,NA,NA,"",   99.9820E-03,  -99.7348E-03,  -7.02713E-03,   279.759E-09
C:/temp/dataset/9/12_3.odb,Step-1,Increment      1: Step Time =    1.000,"PART-1-1",           705,       5.30305,      -2.18626,            0.,NA,NA,"",   103.506E-03,  -102.958E-03,  -10.6396E-03,   128.539E-09
C:/temp/dataset/9/12_3.odb,Step-1,Increment      1: Step Time =    1.000,"PART-1-1",           706,       8.11637,      -13.0290,            0.,NA,NA,"",   69.4652E-03,  -69.4404E-03,  -1.85617E-03,   26.7238E-06
C:/temp/dataset/9/12_3.odb,Step-1,Increment      1: Step Time =    1.000,"PART-1-1",           707,       8.09759,      -10.8135,            0.,NA,NA,"",   76.3001E-03,  -76.2754E-03,  -1.94148E-03,   9.49094E-06
C:/temp/dataset/9/12_3.odb,Step-1,Increment      1: Step Time =    1.000,"PART-1-1",           708,           15.,        -26.25,            0.,NA,NA,"",   37.0096E-03,  -33.4727E-03,   15.7889E-03,   3.64179E-03
C:/temp/dataset/9/12_3.odb,Step-1,Increment      1: Step Time =    1.000,"PART-1-1",           709,       13.6129,      -24.9005,            0.,NA,NA,"",   38.3598E-03,  -36.5640E-03,   11.5993E-03,   3.15192E-03
C:/temp/dataset/9/12_3.odb,Step-1,Increment      1: Step Time =    1.000,"PART-1-1",           710,       12.3352,      -26.1538,            0.,NA,NA,"",   27.0798E-03,  -26.4410E-03,   5.84704E-03,   3.81778E-03
C:/temp/dataset/9/12_3.odb,Step-1,Increment      1: Step Time =    1.000,"PART-1-1",           711,       11.5115,      -24.0900,            0.,NA,NA,"",   35.7058E-03,  -35.0191E-03,   6.96889E-03,   2.29216E-03
C:/temp/dataset/9/12_3.odb,Step-1,Increment      1: Step Time =    1.000,"PART-1-1",           712,       12.5793,      -23.4990,            0.,NA,NA,"",   40.6160E-03,  -39.1921E-03,   10.6599E-03,   2.26370E-03
C:/temp/dataset/9/12_3.odb,Step-1,Increment      1: Step Time =    1.000,"PART-1-1",           713,       11.9958,      -21.9645,            0.,NA,NA,"",   44.0249E-03,  -42.8329E-03,   10.1752E-03,   960.641E-06
C:/temp/dataset/9/12_3.odb,Step-1,Increment      1: Step Time =    1.000,"PART-1-1",           714,           15.,        -23.75,            0.,NA,NA,"",   47.3734E-03,  -44.2539E-03,   16.9066E-03,   2.47452E-03
C:/temp/dataset/9/12_3.odb,Step-1,Increment      1: Step Time =    1.000,"PART-1-1",           715,       11.0775,      -9.24199,            0.,NA,NA,"",   81.4598E-03,  -81.1343E-03,   7.27438E-03,   5.64848E-06
C:/temp/dataset/9/12_3.odb,Step-1,Increment      1: Step Time =    1.000,"PART-1-1",           716,       10.0590,      -8.23408,            0.,NA,NA,"",   84.3551E-03,  -84.2547E-03,   4.11447E-03,   2.20782E-06
C:/temp/dataset/9/12_3.odb,Step-1,Increment      1: Step Time =    1.000,"PART-1-1",           717,       9.08966,      -9.54059,            0.,NA,NA,"",   80.2174E-03,  -80.2095E-03,   1.12200E-03,   6.69501E-06
C:/temp/dataset/9/12_3.odb,Step-1,Increment      1: Step Time =    1.000,"PART-1-1",           718,           15.,         -1.25,            0.,NA,NA,"",   107.662E-03,  -105.903E-03,   19.3798E-03,   222.746E-09
C:/temp/dataset/9/12_3.odb,Step-1,Increment      1: Step Time =    1.000,"PART-1-1",           719,       12.7047,      -1.36075,            0.,NA,NA,"",   106.261E-03,  -105.549E-03,   12.2732E-03,   185.512E-09
C:/temp/dataset/9/12_3.odb,Step-1,Increment      1: Step Time =    1.000,"PART-1-1",           720,       10.4122,      -1.52824,            0.,NA,NA,"",   105.147E-03,  -105.020E-03,   5.17555E-03,   199.352E-09
C:/temp/dataset/9/12_3.odb,Step-1,Increment      1: Step Time =    1.000,"PART-1-1",           721,       11.7321,      -2.88547,            0.,NA,NA,"",   101.249E-03,  -100.824E-03,   9.26887E-03,   232.147E-09
C:/temp/dataset/9/12_3.odb,Step-1,Increment      1: Step Time =    1.000,"PART-1-1",           722,       13.0447,       6.32641,            0.,NA,NA,"",   130.033E-03,  -129.352E-03,   13.2892E-03,   9.88697E-09
C:/temp/dataset/9/12_3.odb,Step-1,Increment      1: Step Time =    1.000,"PART-1-1",           723,           15.,          6.25,            0.,NA,NA,"",   130.565E-03,  -129.125E-03,   19.3434E-03,   4.38048E-09
C:/temp/dataset/9/12_3.odb,Step-1,Increment      1: Step Time =    1.000,"PART-1-1",           724,       12.2773,       7.44357,            0.,NA,NA,"",   133.254E-03,  -132.807E-03,   10.9077E-03,   4.81479E-09
C:/temp/dataset/9/12_3.odb,Step-1,Increment      1: Step Time =    1.000,"PART-1-1",           725,       11.3989,       9.46443,            0.,NA,NA,"",   139.300E-03,  -139.060E-03,   8.17828E-03,   1.46460E-09
C:/temp/dataset/9/12_3.odb,Step-1,Increment      1: Step Time =    1.000,"PART-1-1",           726,       10.0696,       10.6576,            0.,NA,NA,"",   142.805E-03,  -142.748E-03,   4.05680E-03,   989.360E-12
C:/temp/dataset/9/12_3.odb,Step-1,Increment      1: Step Time =    1.000,"PART-1-1",           727,       11.2733,       12.2896,            0.,NA,NA,"",   148.011E-03,  -147.807E-03,   7.77599E-03,   717.429E-12
C:/temp/dataset/9/12_3.odb,Step-1,Increment      1: Step Time =    1.000,"PART-1-1",           728,       11.2495,       14.9235,            0.,NA,NA,"",   156.151E-03,  -155.962E-03,   7.68952E-03,   448.861E-12
C:/temp/dataset/9/12_3.odb,Step-1,Increment      1: Step Time =    1.000,"PART-1-1",           729,       11.2365,       17.4638,            0.,NA,NA,"",   164.005E-03,  -163.827E-03,   7.63721E-03,   447.974E-12
C:/temp/dataset/9/12_3.odb,Step-1,Increment      1: Step Time =    1.000,"PART-1-1",           730,       9.96430,       18.6935,            0.,NA,NA,"",   167.669E-03,  -167.628E-03,   3.69229E-03,   531.485E-12
C:/temp/dataset/9/12_3.odb,Step-1,Increment      1: Step Time =    1.000,"PART-1-1",           731,       8.12949,      -15.2371,            0.,NA,NA,"",   62.6661E-03,  -62.6413E-03,  -1.76296E-03,   57.6281E-06
C:/temp/dataset/9/12_3.odb,Step-1,Increment      1: Step Time =    1.000,"PART-1-1",           732,       10.9896,      -6.85237,            0.,NA,NA,"",   88.8120E-03,  -88.5366E-03,   6.98833E-03,   1.09030E-06
C:/temp/dataset/9/12_3.odb,Step-1,Increment      1: Step Time =    1.000,"PART-1-1",           733,       10.9332,      -25.1906,            0.,NA,NA,"",   29.2609E-03,  -28.9436E-03,   4.29779E-03,   2.75871E-03
C:/temp/dataset/9/12_3.odb,Step-1,Increment      1: Step Time =    1.000,"PART-1-1",           734,       11.9281,      -5.46067,            0.,NA,NA,"",   93.3758E-03,  -92.8508E-03,   9.88785E-03,   246.687E-09
C:/temp/dataset/9/12_3.odb,Step-1,Increment      1: Step Time =    1.000,"PART-1-1",           735,      -11.5697,       3.18107,            0.,NA,NA,"",   135.042E-03,  -119.495E-03,  -62.9067E-03,   362.812E-12
C:/temp/dataset/9/12_3.odb,Step-1,Increment      1: Step Time =    1.000,"PART-1-1",           736,      -10.7341,       2.09613,            0.,NA,NA,"",   130.868E-03,  -116.140E-03,  -60.3144E-03,   429.334E-12
C:/temp/dataset/9/12_3.odb,Step-1,Increment      1: Step Time =    1.000,"PART-1-1",           737,      -6.76822,       1.80268,            0.,NA,NA,"",   124.860E-03,  -115.250E-03,  -48.0338E-03,   1.44026E-09
C:/temp/dataset/9/12_3.odb,Step-1,Increment      1: Step Time =    1.000,"PART-1-1",           738,      -5.32511,       2.65016,            0.,NA,NA,"",   125.675E-03,  -117.881E-03,  -43.5697E-03,   2.17013E-09
C:/temp/dataset/9/12_3.odb,Step-1,Increment      1: Step Time =    1.000,"PART-1-1",           739,      -6.45786,       3.67650,            0.,NA,NA,"",   129.887E-03,  -121.054E-03,  -47.0818E-03,   1.96281E-09
C:/temp/dataset/9/12_3.odb,Step-1,Increment      1: Step Time =    1.000,"PART-1-1",           740,      -10.1618,       27.4009,            0.,NA,NA,"",   203.146E-03,  -194.491E-03,  -58.6637E-03,   771.481E-12
C:/temp/dataset/9/12_3.odb,Step-1,Increment      1: Step Time =    1.000,"PART-1-1",           741,      -8.15950,       27.0742,            0.,NA,NA,"",   200.475E-03,  -193.489E-03,  -52.4626E-03,   800.545E-12
C:/temp/dataset/9/12_3.odb,Step-1,Increment      1: Step Time =    1.000,"PART-1-1",           742,      -8.41457,       23.7439,            0.,NA,NA,"",   190.756E-03,  -183.177E-03,  -53.2364E-03,   956.768E-12
C:/temp/dataset/9/12_3.odb,Step-1,Increment      1: Step Time =    1.000,"PART-1-1",           743,      -9.76606,       23.0282,            0.,NA,NA,"",   189.846E-03,  -180.955E-03,  -57.4174E-03,   911.091E-12
C:/temp/dataset/9/12_3.odb,Step-1,Increment      1: Step Time =    1.000,"PART-1-1",           744,      -10.1457,       6.57799,            0.,NA,NA,"",   142.580E-03,  -130.020E-03,  -58.5140E-03,   700.285E-12
C:/temp/dataset/9/12_3.odb,Step-1,Increment      1: Step Time =    1.000,"PART-1-1",           745,      -11.1466,       5.19230,            0.,NA,NA,"",   140.007E-03,  -125.724E-03,  -61.6064E-03,   493.114E-12
C:/temp/dataset/9/12_3.odb,Step-1,Increment      1: Step Time =    1.000,"PART-1-1",           746,       7.77017,   782.991E-03,            0.,NA,NA,"",   112.203E-03,  -112.163E-03,  -3.01544E-03,   80.9899E-09
C:/temp/dataset/9/12_3.odb,Step-1,Increment      1: Step Time =    1.000,"PART-1-1",           747,       6.09501,       1.10589,            0.,NA,NA,"",   113.452E-03,  -113.155E-03,  -8.20352E-03,   59.6997E-09
C:/temp/dataset/9/12_3.odb,Step-1,Increment      1: Step Time =    1.000,"PART-1-1",           748,       6.67539,   61.2235E-03,            0.,NA,NA,"",   110.109E-03,  -109.923E-03,  -6.40159E-03,   85.1255E-09
C:/temp/dataset/9/12_3.odb,Step-1,Increment      1: Step Time =    1.000,"PART-1-1",           749,       5.31672,       2.29333,            0.,NA,NA,"",   117.309E-03,  -116.827E-03,  -10.6189E-03,   36.6692E-09
C:/temp/dataset/9/12_3.odb,Step-1,Increment      1: Step Time =    1.000,"PART-1-1",           750,      -6.94695,       24.4689,            0.,NA,NA,"",   191.716E-03,  -185.429E-03,  -48.6958E-03,   846.430E-12
C:/temp/dataset/9/12_3.odb,Step-1,Increment      1: Step Time =    1.000,"PART-1-1",           751,      -2.09966,       23.3616,            0.,NA,NA,"",   185.113E-03,  -182.023E-03,  -33.6824E-03,   1.28934E-09
C:/temp/dataset/9/12_3.odb,Step-1,Increment      1: Step Time =    1.000,"PART-1-1",           752,      -2.87591,       24.2478,            0.,NA,NA,"",   188.255E-03,  -184.763E-03,  -36.0900E-03,   1.09740E-09
C:/temp/dataset/9/12_3.odb,Step-1,Increment      1: Step Time =    1.000,"PART-1-1",           753,       9.53974,       23.7363,            0.,NA,NA,"",   183.254E-03,  -183.239E-03,   2.35361E-03,   626.801E-12
C:/temp/dataset/9/12_3.odb,Step-1,Increment      1: Step Time =    1.000,"PART-1-1",           754,      -5.22075,      -2.25347,            0.,NA,NA,"",   111.424E-03,  -102.699E-03,  -43.2230E-03,   1.16119E-09
C:/temp/dataset/9/12_3.odb,Step-1,Increment      1: Step Time =    1.000,"PART-1-1",           755,      -7.55915,      -2.11026,            0.,NA,NA,"",   114.816E-03,  -103.131E-03,  -50.4639E-03,   460.261E-12
C:/temp/dataset/9/12_3.odb,Step-1,Increment      1: Step Time =    1.000,"PART-1-1",           756,      -4.20325,      -1.24540,            0.,NA,NA,"",   113.160E-03,  -105.825E-03,  -40.0775E-03,   1.67724E-09
C:/temp/dataset/9/12_3.odb,Step-1,Increment      1: Step Time =    1.000,"PART-1-1",           757,       12.0426,       5.30937,            0.,NA,NA,"",   126.609E-03,  -126.198E-03,   10.1913E-03,   15.7363E-09
C:/temp/dataset/9/12_3.odb,Step-1,Increment      1: Step Time =    1.000,"PART-1-1",           758,      -8.17645,       12.8481,            0.,NA,NA,"",   158.378E-03,  -149.443E-03,  -52.4469E-03,   1.15414E-09
C:/temp/dataset/9/12_3.odb,Step-1,Increment      1: Step Time =    1.000,"PART-1-1",           759,      -8.09554,       10.3784,            0.,NA,NA,"",   151.094E-03,  -141.796E-03,  -52.1845E-03,   1.02668E-09
C:/temp/dataset/9/12_3.odb,Step-1,Increment      1: Step Time =    1.000,"PART-1-1",           760,      -8.33007,       15.6293,            0.,NA,NA,"",   166.682E-03,  -158.053E-03,  -52.9358E-03,   1.24423E-09
C:/temp/dataset/9/12_3.odb,Step-1,Increment      1: Step Time =    1.000,"PART-1-1",           761,       12.1122,      -19.7356,            0.,NA,NA,"",   50.0363E-03,  -48.8477E-03,   10.8411E-03,   129.514E-06
C:/temp/dataset/9/12_3.odb,Step-1,Increment      1: Step Time =    1.000,"PART-1-1",           762,       12.1388,      -17.4254,            0.,NA,NA,"",   56.7430E-03,  -55.7173E-03,   10.7399E-03,   102.938E-06
C:/temp/dataset/9/12_3.odb,Step-1,Increment      1: Step Time =    1.000,"PART-1-1",           763,       12.0361,      -7.90801,            0.,NA,NA,"",   85.8825E-03,  -85.2706E-03,   10.2340E-03,   1.39172E-06
C:/temp/dataset/9/12_3.odb,Step-1,Increment      1: Step Time =    1.000,"PART-1-1",           764,       12.0837,      -10.3075,            0.,NA,NA,"",   78.5221E-03,  -77.8309E-03,   10.3960E-03,   6.89398E-06
C:/temp/dataset/9/12_3.odb,Step-1,Increment      1: Step Time =    1.000,"PART-1-1",           765,       12.1118,      -12.6921,            0.,NA,NA,"",   71.2014E-03,  -70.4220E-03,   10.5068E-03,   23.3021E-06
C:/temp/dataset/9/12_3.odb,Step-1,Increment      1: Step Time =    1.000,"PART-1-1",           766,       12.1357,      -15.0700,            0.,NA,NA,"",   63.9075E-03,  -63.0174E-03,   10.6293E-03,   56.0910E-06
C:/temp/dataset/9/12_3.odb,Step-1,Increment      1: Step Time =    1.000,"PART-1-1",           767,      -8.71328,  -792.246E-03,            0.,NA,NA,"",   120.058E-03,  -107.207E-03,  -54.0436E-03,   507.970E-12
C:/temp/dataset/9/12_3.odb,Step-1,Increment      1: Step Time =    1.000,"PART-1-1",           768,      -7.47429,       25.8162,            0.,NA,NA,"",   196.165E-03,  -189.597E-03,  -50.3350E-03,   760.158E-12
C:/temp/dataset/9/12_3.odb,Step-1,Increment      1: Step Time =    1.000,"PART-1-1",           769,       9.13729,   756.201E-03,            0.,NA,NA,"",   112.093E-03,  -112.087E-03,   1.21750E-03,   93.6422E-09
C:/temp/dataset/9/12_3.odb,Step-1,Increment      1: Step Time =    1.000,"PART-1-1",           770,       7.76646,  -679.521E-03,            0.,NA,NA,"",   107.677E-03,  -107.635E-03,  -3.02000E-03,   136.604E-09
C:/temp/dataset/9/12_3.odb,Step-1,Increment      1: Step Time =    1.000,"PART-1-1",           771,       9.13358,  -706.311E-03,            0.,NA,NA,"",   107.565E-03,  -107.558E-03,   1.21289E-03,   141.801E-09
C:/temp/dataset/9/12_3.odb,Step-1,Increment      1: Step Time =    1.000,"PART-1-1",           772,       7.17869,      -1.72980,            0.,NA,NA,"",   104.492E-03,  -104.380E-03,  -4.83478E-03,   168.440E-09
C:/temp/dataset/9/12_3.odb,Step-1,Increment      1: Step Time =    1.000,"PART-1-1",           773,       6.08762,  -989.051E-03,            0.,NA,NA,"",   106.984E-03,  -106.668E-03,  -8.21634E-03,   122.218E-09
C:/temp/dataset/9/12_3.odb,Step-1,Increment      1: Step Time =    1.000,"PART-1-1",           774,       8.06590,       24.5744,            0.,NA,NA,"",   185.840E-03,  -185.827E-03,  -2.21369E-03,   596.904E-12
C:/temp/dataset/9/12_3.odb,Step-1,Increment      1: Step Time =    1.000,"PART-1-1",           775,       7.69641,      -4.07963,            0.,NA,NA,"",   97.1601E-03,  -97.1067E-03,  -3.22089E-03,   314.938E-09
C:/temp/dataset/9/12_3.odb,Step-1,Increment      1: Step Time =    1.000,"PART-1-1",           776,       8.40687,      -2.58051,            0.,NA,NA,"",   101.757E-03,  -101.752E-03,  -1.02835E-03,   243.902E-09
C:/temp/dataset/9/12_3.odb,Step-1,Increment      1: Step Time =    1.000,"PART-1-1",           777,      -9.00797,   684.990E-03,            0.,NA,NA,"",   124.561E-03,  -111.779E-03,  -54.9631E-03,   645.273E-12
C:/temp/dataset/9/12_3.odb,Step-1,Increment      1: Step Time =    1.000,"PART-1-1",           778,       5.05143,   63.4436E-03,            0.,NA,NA,"",   110.515E-03,  -109.922E-03,  -11.4296E-03,   66.0280E-09
C:/temp/dataset/9/12_3.odb,Step-1,Increment      1: Step Time =    1.000,"PART-1-1",           779,      -3.45659,  -454.281E-03,            0.,NA,NA,"",   114.677E-03,  -108.278E-03,  -37.7695E-03,   2.15502E-09
C:/temp/dataset/9/12_3.odb,Step-1,Increment      1: Step Time =    1.000,"PART-1-1",           780,      -7.58605,   993.377E-03,            0.,NA,NA,"",   123.560E-03,  -112.741E-03,  -50.5620E-03,   904.978E-12
