ODB Name,Step,Frame,Part Instance Name,    êﬂì_ÉâÉxÉã,X,Y,Z,Section Name,Material Name,Section Point,   U-Magnitude,          U-U1,          U-U2,       S-Mises
C:/temp/dataset/9/15_5.odb,Step-1,Increment      1: Step Time =    1.000,"PART-1-1",             1,            5.,           20.,            0.,NA,NA,"",       12.9778,       12.9762,  -201.797E-03,   6.90137E-03
C:/temp/dataset/9/15_5.odb,Step-1,Increment      1: Step Time =    1.000,"PART-1-1",             2,            0.,           20.,            0.,NA,NA,"",       13.3471,       13.2722,       1.41204,   4.74579E-03
C:/temp/dataset/9/15_5.odb,Step-1,Increment      1: Step Time =    1.000,"PART-1-1",             3,            5.,          12.5,            0.,NA,NA,"",       10.4737,       10.4714,   218.103E-03,   4.37733E-03
C:/temp/dataset/9/15_5.odb,Step-1,Increment      1: Step Time =    1.000,"PART-1-1",             4,            5.,            5.,            0.,NA,NA,"",       8.03126,       8.01084,   572.288E-03,   12.2003E-03
C:/temp/dataset/9/15_5.odb,Step-1,Increment      1: Step Time =    1.000,"PART-1-1",             5,            0.,            5.,            0.,NA,NA,"",       8.58863,       8.31766,       2.14035,   11.5151E-03
C:/temp/dataset/9/15_5.odb,Step-1,Increment      1: Step Time =    1.000,"PART-1-1",             6,           -5.,            5.,            0.,NA,NA,"",       9.43068,       8.64692,       3.76409,   11.1224E-03
C:/temp/dataset/9/15_5.odb,Step-1,Increment      1: Step Time =    1.000,"PART-1-1",             7,           -5.,          12.5,            0.,NA,NA,"",       11.6614,       11.1603,       3.38165,   7.00517E-03
C:/temp/dataset/9/15_5.odb,Step-1,Increment      1: Step Time =    1.000,"PART-1-1",             8,           -5.,           20.,            0.,NA,NA,"",       13.8940,       13.5624,       3.01721,   4.87890E-03
C:/temp/dataset/9/15_5.odb,Step-1,Increment      1: Step Time =    1.000,"PART-1-1",             9,           15.,           30.,            0.,NA,NA,"",       16.2189,       15.7045,      -4.05242,   51.9823E-06
C:/temp/dataset/9/15_5.odb,Step-1,Increment      1: Step Time =    1.000,"PART-1-1",            10,           7.5,           30.,            0.,NA,NA,"",       16.1970,       16.1198,      -1.57913,   1.65953E-03
C:/temp/dataset/9/15_5.odb,Step-1,Increment      1: Step Time =    1.000,"PART-1-1",            11,            0.,           30.,            0.,NA,NA,"",       16.5395,       16.5163,   875.682E-03,   2.43840E-03
C:/temp/dataset/9/15_5.odb,Step-1,Increment      1: Step Time =    1.000,"PART-1-1",            12,          -7.5,           30.,            0.,NA,NA,"",       17.2220,       16.9042,       3.29351,   888.193E-06
C:/temp/dataset/9/15_5.odb,Step-1,Increment      1: Step Time =    1.000,"PART-1-1",            13,          -15.,           30.,            0.,NA,NA,"",       18.2097,       17.2966,       5.69404,   16.0655E-06
C:/temp/dataset/9/15_5.odb,Step-1,Increment      1: Step Time =    1.000,"PART-1-1",            14,          -15.,         21.25,            0.,NA,NA,"",       15.7498,       14.4985,       6.15232,   248.106E-06
C:/temp/dataset/9/15_5.odb,Step-1,Increment      1: Step Time =    1.000,"PART-1-1",            15,          -15.,          12.5,            0.,NA,NA,"",       13.4578,       11.7137,       6.62589,   5.74157E-03
C:/temp/dataset/9/15_5.odb,Step-1,Increment      1: Step Time =    1.000,"PART-1-1",            16,          -15.,          3.75,            0.,NA,NA,"",       11.3662,       8.83216,       7.15425,   2.77349E-03
C:/temp/dataset/9/15_5.odb,Step-1,Increment      1: Step Time =    1.000,"PART-1-1",            17,          -15.,           -5.,            0.,NA,NA,"",       9.66195,       5.88982,       7.65919,   49.4323E-06
C:/temp/dataset/9/15_5.odb,Step-1,Increment      1: Step Time =    1.000,"PART-1-1",            18,          -10.,           -5.,            0.,NA,NA,"",       8.19954,       5.60333,       5.98625,   897.508E-06
C:/temp/dataset/9/15_5.odb,Step-1,Increment      1: Step Time =    1.000,"PART-1-1",            19,           -5.,           -5.,            0.,NA,NA,"",       6.85654,       5.32471,       4.31969,   2.20902E-03
C:/temp/dataset/9/15_5.odb,Step-1,Increment      1: Step Time =    1.000,"PART-1-1",            20,            0.,           -5.,            0.,NA,NA,"",       5.71846,       5.05663,       2.67044,   2.08345E-03
C:/temp/dataset/9/15_5.odb,Step-1,Increment      1: Step Time =    1.000,"PART-1-1",            21,            5.,           -5.,            0.,NA,NA,"",       4.88740,       4.78492,   995.618E-03,   35.0419E-03
C:/temp/dataset/9/15_5.odb,Step-1,Increment      1: Step Time =    1.000,"PART-1-1",            22,            5.,        -11.25,            0.,NA,NA,"",       3.14045,       2.97895,   994.136E-03,   50.7379E-03
C:/temp/dataset/9/15_5.odb,Step-1,Increment      1: Step Time =    1.000,"PART-1-1",            23,            5.,         -17.5,            0.,NA,NA,"",       1.71403,       1.49782,   833.323E-03,   67.2710E-03
C:/temp/dataset/9/15_5.odb,Step-1,Increment      1: Step Time =    1.000,"PART-1-1",            24,            5.,        -23.75,            0.,NA,NA,"",   690.484E-03,   487.206E-03,   489.284E-03,   83.4208E-03
C:/temp/dataset/9/15_5.odb,Step-1,Increment      1: Step Time =    1.000,"PART-1-1",            25,            5.,          -30.,            0.,NA,NA,"",            0.,   30.9980E-39,   57.4879E-39,   114.329E-03
C:/temp/dataset/9/15_5.odb,Step-1,Increment      1: Step Time =    1.000,"PART-1-1",            26,           15.,          -30.,            0.,NA,NA,"",            0.,   29.9152E-39,  -55.6607E-39,   106.675E-03
C:/temp/dataset/9/15_5.odb,Step-1,Increment      1: Step Time =    1.000,"PART-1-1",            27,           15.,         -22.5,            0.,NA,NA,"",   826.490E-03,   560.017E-03,  -607.838E-03,   78.7612E-03
C:/temp/dataset/9/15_5.odb,Step-1,Increment      1: Step Time =    1.000,"PART-1-1",            28,           15.,          -15.,            0.,NA,NA,"",       2.16321,       1.80873,      -1.18657,   59.4857E-03
C:/temp/dataset/9/15_5.odb,Step-1,Increment      1: Step Time =    1.000,"PART-1-1",            29,           15.,          -7.5,            0.,NA,NA,"",       4.05082,       3.64740,      -1.76228,   39.3180E-03
C:/temp/dataset/9/15_5.odb,Step-1,Increment      1: Step Time =    1.000,"PART-1-1",            30,           15.,            0.,            0.,NA,NA,"",       6.32248,       5.89081,      -2.29611,   15.5505E-03
C:/temp/dataset/9/15_5.odb,Step-1,Increment      1: Step Time =    1.000,"PART-1-1",            31,           15.,           7.5,            0.,NA,NA,"",       8.73456,       8.28687,      -2.76049,   7.14136E-03
C:/temp/dataset/9/15_5.odb,Step-1,Increment      1: Step Time =    1.000,"PART-1-1",            32,           15.,           15.,            0.,NA,NA,"",       11.2142,       10.7448,      -3.21045,   2.51297E-03
C:/temp/dataset/9/15_5.odb,Step-1,Increment      1: Step Time =    1.000,"PART-1-1",            33,           15.,          22.5,            0.,NA,NA,"",       13.7220,       13.2314,      -3.63644,   1.00155E-03
C:/temp/dataset/9/15_5.odb,Step-1,Increment      1: Step Time =    1.000,"PART-1-1",            34,           2.5,           20.,            0.,NA,NA,"",       13.1408,       13.1269,   604.871E-03,   5.64113E-03
C:/temp/dataset/9/15_5.odb,Step-1,Increment      1: Step Time =    1.000,"PART-1-1",            35,            5.,           15.,            0.,NA,NA,"",       11.3030,       11.3027,   84.1262E-03,   2.68903E-03
C:/temp/dataset/9/15_5.odb,Step-1,Increment      1: Step Time =    1.000,"PART-1-1",            36,            5.,          17.5,            0.,NA,NA,"",       12.1368,       12.1367,  -54.5138E-03,   1.42099E-03
C:/temp/dataset/9/15_5.odb,Step-1,Increment      1: Step Time =    1.000,"PART-1-1",            37,            5.,           7.5,            0.,NA,NA,"",       8.83375,       8.82136,   467.685E-03,   9.45535E-03
C:/temp/dataset/9/15_5.odb,Step-1,Increment      1: Step Time =    1.000,"PART-1-1",            38,            5.,           10.,            0.,NA,NA,"",       9.64989,       9.64367,   346.275E-03,   6.32999E-03
C:/temp/dataset/9/15_5.odb,Step-1,Increment      1: Step Time =    1.000,"PART-1-1",            39,           2.5,            5.,            0.,NA,NA,"",       8.26945,       8.15945,       1.34432,   11.9005E-03
C:/temp/dataset/9/15_5.odb,Step-1,Increment      1: Step Time =    1.000,"PART-1-1",            40,          -2.5,            5.,            0.,NA,NA,"",       8.97602,       8.47799,       2.94833,   11.4582E-03
C:/temp/dataset/9/15_5.odb,Step-1,Increment      1: Step Time =    1.000,"PART-1-1",            41,           -5.,           10.,            0.,NA,NA,"",       10.9160,       10.3389,       3.50211,   8.11915E-03
C:/temp/dataset/9/15_5.odb,Step-1,Increment      1: Step Time =    1.000,"PART-1-1",            42,           -5.,           7.5,            0.,NA,NA,"",       10.1724,       9.50389,       3.62675,   7.79994E-03
C:/temp/dataset/9/15_5.odb,Step-1,Increment      1: Step Time =    1.000,"PART-1-1",            43,           -5.,          17.5,            0.,NA,NA,"",       13.1519,       12.7714,       3.14042,   3.59823E-03
C:/temp/dataset/9/15_5.odb,Step-1,Increment      1: Step Time =    1.000,"PART-1-1",            44,           -5.,           15.,            0.,NA,NA,"",       12.4066,       11.9702,       3.26161,   5.28053E-03
C:/temp/dataset/9/15_5.odb,Step-1,Increment      1: Step Time =    1.000,"PART-1-1",            45,          -2.5,           20.,            0.,NA,NA,"",       13.5983,       13.4164,       2.21683,   4.92267E-03
C:/temp/dataset/9/15_5.odb,Step-1,Increment      1: Step Time =    1.000,"PART-1-1",            46,          12.5,           30.,            0.,NA,NA,"",       16.1697,       15.8442,      -3.22827,   207.317E-06
C:/temp/dataset/9/15_5.odb,Step-1,Increment      1: Step Time =    1.000,"PART-1-1",            47,           10.,           30.,            0.,NA,NA,"",       16.1627,       15.9830,      -2.40347,   864.334E-06
C:/temp/dataset/9/15_5.odb,Step-1,Increment      1: Step Time =    1.000,"PART-1-1",            48,            5.,           30.,            0.,NA,NA,"",       16.2717,       16.2541,  -756.930E-03,   2.28919E-03
C:/temp/dataset/9/15_5.odb,Step-1,Increment      1: Step Time =    1.000,"PART-1-1",            49,           2.5,           30.,            0.,NA,NA,"",       16.3861,       16.3860,   61.6078E-03,   2.54440E-03
C:/temp/dataset/9/15_5.odb,Step-1,Increment      1: Step Time =    1.000,"PART-1-1",            50,          -2.5,           30.,            0.,NA,NA,"",       16.7307,       16.6456,       1.68528,   2.04065E-03
C:/temp/dataset/9/15_5.odb,Step-1,Increment      1: Step Time =    1.000,"PART-1-1",            51,           -5.,           30.,            0.,NA,NA,"",       16.9586,       16.7747,       2.49092,   1.48585E-03
C:/temp/dataset/9/15_5.odb,Step-1,Increment      1: Step Time =    1.000,"PART-1-1",            52,          -10.,           30.,            0.,NA,NA,"",       17.5195,       17.0344,       4.09426,   405.491E-06
C:/temp/dataset/9/15_5.odb,Step-1,Increment      1: Step Time =    1.000,"PART-1-1",            53,         -12.5,           30.,            0.,NA,NA,"",       17.8493,       17.1652,       4.89419,   95.8286E-06
C:/temp/dataset/9/15_5.odb,Step-1,Increment      1: Step Time =    1.000,"PART-1-1",            54,          -15.,       27.8125,            0.,NA,NA,"",       17.5838,       16.5966,       5.80904,   84.1773E-06
C:/temp/dataset/9/15_5.odb,Step-1,Increment      1: Step Time =    1.000,"PART-1-1",            55,          -15.,        25.625,            0.,NA,NA,"",       16.9643,       15.8965,       5.92374,   218.430E-06
C:/temp/dataset/9/15_5.odb,Step-1,Increment      1: Step Time =    1.000,"PART-1-1",            56,          -15.,       23.4375,            0.,NA,NA,"",       16.3525,       15.1969,       6.03799,   197.196E-06
C:/temp/dataset/9/15_5.odb,Step-1,Increment      1: Step Time =    1.000,"PART-1-1",            57,          -15.,       19.0625,            0.,NA,NA,"",       15.1578,       13.8013,       6.26771,   1.15632E-03
C:/temp/dataset/9/15_5.odb,Step-1,Increment      1: Step Time =    1.000,"PART-1-1",            58,          -15.,        16.875,            0.,NA,NA,"",       14.5774,       13.1046,       6.38512,   2.35448E-03
C:/temp/dataset/9/15_5.odb,Step-1,Increment      1: Step Time =    1.000,"PART-1-1",            59,          -15.,       14.6875,            0.,NA,NA,"",       14.0098,       12.4079,       6.50519,   3.52146E-03
C:/temp/dataset/9/15_5.odb,Step-1,Increment      1: Step Time =    1.000,"PART-1-1",            60,          -15.,       10.3125,            0.,NA,NA,"",       12.9199,       11.0140,       6.75396,   7.69606E-03
C:/temp/dataset/9/15_5.odb,Step-1,Increment      1: Step Time =    1.000,"PART-1-1",            61,          -15.,         8.125,            0.,NA,NA,"",       12.3885,       10.2984,       6.88604,   6.68858E-03
C:/temp/dataset/9/15_5.odb,Step-1,Increment      1: Step Time =    1.000,"PART-1-1",            62,          -15.,        5.9375,            0.,NA,NA,"",       11.8695,       9.57157,       7.01933,   5.77149E-03
C:/temp/dataset/9/15_5.odb,Step-1,Increment      1: Step Time =    1.000,"PART-1-1",            63,          -15.,        1.5625,            0.,NA,NA,"",       10.8844,       8.08898,       7.28276,   1.07175E-03
C:/temp/dataset/9/15_5.odb,Step-1,Increment      1: Step Time =    1.000,"PART-1-1",            64,          -15.,     -625.E-03,            0.,NA,NA,"",       10.4385,       7.35384,       7.40830,   758.926E-06
C:/temp/dataset/9/15_5.odb,Step-1,Increment      1: Step Time =    1.000,"PART-1-1",            65,          -15.,       -2.8125,            0.,NA,NA,"",       10.0297,       6.62142,       7.53334,   256.810E-06
C:/temp/dataset/9/15_5.odb,Step-1,Increment      1: Step Time =    1.000,"PART-1-1",            66,         -12.5,           -5.,            0.,NA,NA,"",       8.91990,       5.74594,       6.82266,   318.000E-06
C:/temp/dataset/9/15_5.odb,Step-1,Increment      1: Step Time =    1.000,"PART-1-1",            67,          -7.5,           -5.,            0.,NA,NA,"",       7.50858,       5.46269,       5.15149,   1.53857E-03
C:/temp/dataset/9/15_5.odb,Step-1,Increment      1: Step Time =    1.000,"PART-1-1",            68,          -2.5,           -5.,            0.,NA,NA,"",       6.25564,       5.18988,       3.49258,   2.72989E-03
C:/temp/dataset/9/15_5.odb,Step-1,Increment      1: Step Time =    1.000,"PART-1-1",            69,           2.5,           -5.,            0.,NA,NA,"",       5.25837,       4.92208,       1.85030,   6.97574E-03
C:/temp/dataset/9/15_5.odb,Step-1,Increment      1: Step Time =    1.000,"PART-1-1",            70,            5.,      -7.08333,            0.,NA,NA,"",       4.27393,       4.15520,       1.00041,   44.3026E-03
C:/temp/dataset/9/15_5.odb,Step-1,Increment      1: Step Time =    1.000,"PART-1-1",            71,            5.,      -9.16667,            0.,NA,NA,"",       3.69245,       3.55248,       1.00703,   44.9587E-03
C:/temp/dataset/9/15_5.odb,Step-1,Increment      1: Step Time =    1.000,"PART-1-1",            72,            5.,      -13.3333,            0.,NA,NA,"",       2.62416,       2.44169,   961.425E-03,   56.1041E-03
C:/temp/dataset/9/15_5.odb,Step-1,Increment      1: Step Time =    1.000,"PART-1-1",            73,            5.,      -15.4167,            0.,NA,NA,"",       2.14758,       1.94625,   907.848E-03,   61.7280E-03
C:/temp/dataset/9/15_5.odb,Step-1,Increment      1: Step Time =    1.000,"PART-1-1",            74,            5.,      -19.5833,            0.,NA,NA,"",       1.32609,       1.10168,   738.120E-03,   72.7864E-03
C:/temp/dataset/9/15_5.odb,Step-1,Increment      1: Step Time =    1.000,"PART-1-1",            75,            5.,      -21.6667,            0.,NA,NA,"",   985.061E-03,   763.018E-03,   623.016E-03,   78.0977E-03
C:/temp/dataset/9/15_5.odb,Step-1,Increment      1: Step Time =    1.000,"PART-1-1",            76,            5.,      -25.8333,            0.,NA,NA,"",   438.704E-03,   277.334E-03,   339.922E-03,   86.4274E-03
C:/temp/dataset/9/15_5.odb,Step-1,Increment      1: Step Time =    1.000,"PART-1-1",            77,            5.,      -27.9167,            0.,NA,NA,"",   224.246E-03,   133.437E-03,   180.225E-03,   95.3915E-03
C:/temp/dataset/9/15_5.odb,Step-1,Increment      1: Step Time =    1.000,"PART-1-1",            78,           7.5,          -30.,            0.,NA,NA,"",            0.,   8.88281E-39,   152.336E-39,   34.4607E-03
C:/temp/dataset/9/15_5.odb,Step-1,Increment      1: Step Time =    1.000,"PART-1-1",            79,           10.,          -30.,            0.,NA,NA,"",            0.,  -21.8224E-39,   1.36024E-39,   9.56583E-03
C:/temp/dataset/9/15_5.odb,Step-1,Increment      1: Step Time =    1.000,"PART-1-1",            80,          12.5,          -30.,            0.,NA,NA,"",            0.,   58.4836E-39,  -144.969E-39,   33.4810E-03
C:/temp/dataset/9/15_5.odb,Step-1,Increment      1: Step Time =    1.000,"PART-1-1",            81,           15.,         -27.5,            0.,NA,NA,"",   249.487E-03,   133.491E-03,  -210.770E-03,   94.5645E-03
C:/temp/dataset/9/15_5.odb,Step-1,Increment      1: Step Time =    1.000,"PART-1-1",            82,           15.,          -25.,            0.,NA,NA,"",   510.445E-03,   302.720E-03,  -410.993E-03,   83.8048E-03
C:/temp/dataset/9/15_5.odb,Step-1,Increment      1: Step Time =    1.000,"PART-1-1",            83,           15.,          -20.,            0.,NA,NA,"",       1.20573,   900.253E-03,  -802.086E-03,   72.1452E-03
C:/temp/dataset/9/15_5.odb,Step-1,Increment      1: Step Time =    1.000,"PART-1-1",            84,           15.,         -17.5,            0.,NA,NA,"",       1.65167,       1.31869,  -994.518E-03,   65.8619E-03
C:/temp/dataset/9/15_5.odb,Step-1,Increment      1: Step Time =    1.000,"PART-1-1",            85,           15.,         -12.5,            0.,NA,NA,"",       2.73689,       2.36422,      -1.37877,   53.1086E-03
C:/temp/dataset/9/15_5.odb,Step-1,Increment      1: Step Time =    1.000,"PART-1-1",            86,           15.,          -10.,            0.,NA,NA,"",       3.36799,       2.97910,      -1.57108,   46.5271E-03
C:/temp/dataset/9/15_5.odb,Step-1,Increment      1: Step Time =    1.000,"PART-1-1",            87,           15.,           -5.,            0.,NA,NA,"",       4.77797,       4.36224,      -1.94932,   31.1233E-03
C:/temp/dataset/9/15_5.odb,Step-1,Increment      1: Step Time =    1.000,"PART-1-1",            88,           15.,          -2.5,            0.,NA,NA,"",       5.53915,       5.11404,      -2.12808,   22.6628E-03
C:/temp/dataset/9/15_5.odb,Step-1,Increment      1: Step Time =    1.000,"PART-1-1",            89,           15.,           2.5,            0.,NA,NA,"",       7.11859,       6.68185,      -2.45502,   10.8505E-03
C:/temp/dataset/9/15_5.odb,Step-1,Increment      1: Step Time =    1.000,"PART-1-1",            90,           15.,            5.,            0.,NA,NA,"",       7.92284,       7.48107,      -2.60865,   8.43273E-03
C:/temp/dataset/9/15_5.odb,Step-1,Increment      1: Step Time =    1.000,"PART-1-1",            91,           15.,           10.,            0.,NA,NA,"",       9.55425,       9.09972,      -2.91183,   5.86604E-03
C:/temp/dataset/9/15_5.odb,Step-1,Increment      1: Step Time =    1.000,"PART-1-1",            92,           15.,          12.5,            0.,NA,NA,"",       10.3814,       9.91946,      -3.06217,   4.29199E-03
C:/temp/dataset/9/15_5.odb,Step-1,Increment      1: Step Time =    1.000,"PART-1-1",            93,           15.,          17.5,            0.,NA,NA,"",       12.0503,       11.5736,      -3.35567,   790.956E-06
C:/temp/dataset/9/15_5.odb,Step-1,Increment      1: Step Time =    1.000,"PART-1-1",            94,           15.,           20.,            0.,NA,NA,"",       12.8869,       12.4033,      -3.49743,   502.630E-06
C:/temp/dataset/9/15_5.odb,Step-1,Increment      1: Step Time =    1.000,"PART-1-1",            95,           15.,           25.,            0.,NA,NA,"",       14.5549,       14.0570,      -3.77440,   743.728E-06
C:/temp/dataset/9/15_5.odb,Step-1,Increment      1: Step Time =    1.000,"PART-1-1",            96,           15.,          27.5,            0.,NA,NA,"",       15.3867,       14.8808,      -3.91291,   203.145E-06
C:/temp/dataset/9/15_5.odb,Step-1,Increment      1: Step Time =    1.000,"PART-1-1",            97,       7.09255,      -21.6558,            0.,NA,NA,"",   773.377E-03,   688.838E-03,   351.589E-03,   47.3616E-03
C:/temp/dataset/9/15_5.odb,Step-1,Increment      1: Step Time =    1.000,"PART-1-1",            98,       7.09346,      -17.4368,            0.,NA,NA,"",       1.49520,       1.42498,   452.837E-03,   40.6213E-03
C:/temp/dataset/9/15_5.odb,Step-1,Increment      1: Step Time =    1.000,"PART-1-1",            99,       7.15828,      -23.7452,            0.,NA,NA,"",   494.738E-03,   413.488E-03,   271.650E-03,   49.6236E-03
C:/temp/dataset/9/15_5.odb,Step-1,Increment      1: Step Time =    1.000,"PART-1-1",           100,       7.44609,      -27.8729,            0.,NA,NA,"",   105.562E-03,   64.7508E-03,   83.3707E-03,   52.2024E-03
C:/temp/dataset/9/15_5.odb,Step-1,Increment      1: Step Time =    1.000,"PART-1-1",           101,       7.30780,      -25.7939,            0.,NA,NA,"",   270.663E-03,   205.176E-03,   176.525E-03,   52.0832E-03
C:/temp/dataset/9/15_5.odb,Step-1,Increment      1: Step Time =    1.000,"PART-1-1",           102,       7.08258,      -10.9526,            0.,NA,NA,"",       2.99390,       2.95534,   478.908E-03,   30.4455E-03
C:/temp/dataset/9/15_5.odb,Step-1,Increment      1: Step Time =    1.000,"PART-1-1",           103,       7.09950,      -13.1236,            0.,NA,NA,"",       2.44455,       2.39593,   485.155E-03,   33.7964E-03
C:/temp/dataset/9/15_5.odb,Step-1,Increment      1: Step Time =    1.000,"PART-1-1",           104,       6.95448,      -6.62029,            0.,NA,NA,"",       4.21062,       4.18747,   440.908E-03,   21.6816E-03
C:/temp/dataset/9/15_5.odb,Step-1,Increment      1: Step Time =    1.000,"PART-1-1",           105,       7.04974,      -8.78764,            0.,NA,NA,"",       3.58272,       3.55295,   460.883E-03,   27.5471E-03
C:/temp/dataset/9/15_5.odb,Step-1,Increment      1: Step Time =    1.000,"PART-1-1",           106,       7.10540,      -15.2896,            0.,NA,NA,"",       1.94236,       1.88309,   476.143E-03,   37.0989E-03
C:/temp/dataset/9/15_5.odb,Step-1,Increment      1: Step Time =    1.000,"PART-1-1",           107,       7.08223,      -19.5608,            0.,NA,NA,"",       1.10527,       1.02570,   411.790E-03,   44.1229E-03
C:/temp/dataset/9/15_5.odb,Step-1,Increment      1: Step Time =    1.000,"PART-1-1",           108,      -11.8989,       25.3809,            0.,NA,NA,"",       16.4174,       15.6551,       4.94478,   260.806E-06
C:/temp/dataset/9/15_5.odb,Step-1,Increment      1: Step Time =    1.000,"PART-1-1",           109,      -12.7134,       3.51066,            0.,NA,NA,"",       10.7320,       8.61447,       6.40052,   4.90899E-03
C:/temp/dataset/9/15_5.odb,Step-1,Increment      1: Step Time =    1.000,"PART-1-1",           110,      -13.0834,       10.3867,            0.,NA,NA,"",       12.5300,       10.9306,       6.12560,   4.15841E-03
C:/temp/dataset/9/15_5.odb,Step-1,Increment      1: Step Time =    1.000,"PART-1-1",           111,      -12.9355,       8.20912,            0.,NA,NA,"",       11.9426,       10.2066,       6.20073,   4.45688E-03
C:/temp/dataset/9/15_5.odb,Step-1,Increment      1: Step Time =    1.000,"PART-1-1",           112,      -13.1801,       12.5484,            0.,NA,NA,"",       13.1062,       11.6325,       6.03786,   4.61420E-03
C:/temp/dataset/9/15_5.odb,Step-1,Increment      1: Step Time =    1.000,"PART-1-1",           113,      -12.7454,       20.6010,            0.,NA,NA,"",       15.1907,       14.1735,       5.46542,   1.29846E-03
C:/temp/dataset/9/15_5.odb,Step-1,Increment      1: Step Time =    1.000,"PART-1-1",           114,      -13.1621,       18.5389,            0.,NA,NA,"",       14.6928,       13.5389,       5.70752,   1.83525E-03
C:/temp/dataset/9/15_5.odb,Step-1,Increment      1: Step Time =    1.000,"PART-1-1",           115,      -12.3840,       22.8683,            0.,NA,NA,"",       15.7704,       14.8774,       5.23129,   622.155E-06
C:/temp/dataset/9/15_5.odb,Step-1,Increment      1: Step Time =    1.000,"PART-1-1",           116,      -13.4658,       16.5948,            0.,NA,NA,"",       14.2217,       12.9361,       5.90885,   2.45691E-03
C:/temp/dataset/9/15_5.odb,Step-1,Increment      1: Step Time =    1.000,"PART-1-1",           117,      -13.3466,       14.6489,            0.,NA,NA,"",       13.6843,       12.3103,       5.97643,   3.65111E-03
C:/temp/dataset/9/15_5.odb,Step-1,Increment      1: Step Time =    1.000,"PART-1-1",           118,      -12.3609,       5.76892,            0.,NA,NA,"",       11.1984,       9.35735,       6.15170,   5.51077E-03
C:/temp/dataset/9/15_5.odb,Step-1,Increment      1: Step Time =    1.000,"PART-1-1",           119,      -12.8583,       1.39410,            0.,NA,NA,"",       10.2829,       7.90732,       6.57354,   1.55809E-03
C:/temp/dataset/9/15_5.odb,Step-1,Increment      1: Step Time =    1.000,"PART-1-1",           120,      -12.6304,  -685.754E-03,            0.,NA,NA,"",       9.77647,       7.19598,       6.61795,   216.514E-06
C:/temp/dataset/9/15_5.odb,Step-1,Increment      1: Step Time =    1.000,"PART-1-1",           121,   38.5673E-03,       27.2989,            0.,NA,NA,"",       15.6716,       15.6390,       1.01083,   642.307E-06
C:/temp/dataset/9/15_5.odb,Step-1,Increment      1: Step Time =    1.000,"PART-1-1",           122,      -4.16985,       22.2766,            0.,NA,NA,"",       14.4859,       14.2442,       2.63468,   2.25918E-03
C:/temp/dataset/9/15_5.odb,Step-1,Increment      1: Step Time =    1.000,"PART-1-1",           123,      -7.85548,       28.0855,            0.,NA,NA,"",       16.6822,       16.3090,       3.50895,   605.992E-06
C:/temp/dataset/9/15_5.odb,Step-1,Increment      1: Step Time =    1.000,"PART-1-1",           124,       9.92813,      -27.7267,            0.,NA,NA,"",   38.8995E-03,   38.5217E-03,   5.40822E-03,   13.0669E-03
C:/temp/dataset/9/15_5.odb,Step-1,Increment      1: Step Time =    1.000,"PART-1-1",           125,       13.1106,      -17.4438,            0.,NA,NA,"",       1.46230,       1.31830,  -632.778E-03,   40.5999E-03
C:/temp/dataset/9/15_5.odb,Step-1,Increment      1: Step Time =    1.000,"PART-1-1",           126,       12.8150,       2.64061,            0.,NA,NA,"",       7.05688,       6.83270,      -1.76460,   7.94357E-03
C:/temp/dataset/9/15_5.odb,Step-1,Increment      1: Step Time =    1.000,"PART-1-1",           127,       7.56819,       12.3225,            0.,NA,NA,"",       10.2848,       10.2663,  -615.679E-03,   3.21813E-03
C:/temp/dataset/9/15_5.odb,Step-1,Increment      1: Step Time =    1.000,"PART-1-1",           128,       7.47113,       19.8748,            0.,NA,NA,"",       12.8284,       12.7887,      -1.00831,   3.57930E-03
C:/temp/dataset/9/15_5.odb,Step-1,Increment      1: Step Time =    1.000,"PART-1-1",           129,       12.4223,       27.5153,            0.,NA,NA,"",       15.3392,       15.0301,      -3.06388,   655.922E-06
C:/temp/dataset/9/15_5.odb,Step-1,Increment      1: Step Time =    1.000,"PART-1-1",           130,       12.3750,       22.5091,            0.,NA,NA,"",       13.6664,       13.3827,      -2.77025,   590.451E-06
C:/temp/dataset/9/15_5.odb,Step-1,Increment      1: Step Time =    1.000,"PART-1-1",           131,       7.58839,       27.9970,            0.,NA,NA,"",       15.5297,       15.4575,      -1.49611,   1.05708E-03
C:/temp/dataset/9/15_5.odb,Step-1,Increment      1: Step Time =    1.000,"PART-1-1",           132,   199.805E-03,       22.3057,            0.,NA,NA,"",       14.0629,       14.0093,       1.22697,   3.26630E-03
C:/temp/dataset/9/15_5.odb,Step-1,Increment      1: Step Time =    1.000,"PART-1-1",           133,       12.6934,       9.82310,            0.,NA,NA,"",       9.41180,       9.16400,      -2.14551,   4.03528E-03
C:/temp/dataset/9/15_5.odb,Step-1,Increment      1: Step Time =    1.000,"PART-1-1",           134,      -7.14717,       12.7802,            0.,NA,NA,"",       12.0768,       11.3726,       4.06356,   3.94426E-03
C:/temp/dataset/9/15_5.odb,Step-1,Increment      1: Step Time =    1.000,"PART-1-1",           135,      -6.86178,       17.9412,            0.,NA,NA,"",       13.5312,       13.0121,       3.71224,   3.14988E-03
C:/temp/dataset/9/15_5.odb,Step-1,Increment      1: Step Time =    1.000,"PART-1-1",           136,      -2.68307,      -2.95682,            0.,NA,NA,"",       6.80363,       5.87123,       3.43773,   751.898E-06
C:/temp/dataset/9/15_5.odb,Step-1,Increment      1: Step Time =    1.000,"PART-1-1",           137,      -7.59808,      -3.03341,            0.,NA,NA,"",       7.94981,       6.12197,       5.07158,   667.523E-06
C:/temp/dataset/9/15_5.odb,Step-1,Increment      1: Step Time =    1.000,"PART-1-1",           138,  -248.196E-03,       2.69947,            0.,NA,NA,"",       7.93494,       7.58328,       2.33607,   6.69546E-03
C:/temp/dataset/9/15_5.odb,Step-1,Increment      1: Step Time =    1.000,"PART-1-1",           139,       2.16631,      -2.47375,            0.,NA,NA,"",       6.04535,       5.76369,       1.82375,   4.54287E-03
C:/temp/dataset/9/15_5.odb,Step-1,Increment      1: Step Time =    1.000,"PART-1-1",           140,       4.39271,       2.43636,            0.,NA,NA,"",       7.27809,       7.22548,   873.589E-03,   10.9826E-03
C:/temp/dataset/9/15_5.odb,Step-1,Increment      1: Step Time =    1.000,"PART-1-1",           141,       12.9283,      -5.27800,            0.,NA,NA,"",       4.54309,       4.34963,      -1.31164,   21.5889E-03
C:/temp/dataset/9/15_5.odb,Step-1,Increment      1: Step Time =    1.000,"PART-1-1",           142,       13.0847,      -12.6172,            0.,NA,NA,"",       2.52292,       2.35656,  -900.976E-03,   33.1624E-03
C:/temp/dataset/9/15_5.odb,Step-1,Increment      1: Step Time =    1.000,"PART-1-1",           143,       12.4838,       17.4790,            0.,NA,NA,"",       11.9762,       11.7076,      -2.52202,   2.22068E-03
C:/temp/dataset/9/15_5.odb,Step-1,Increment      1: Step Time =    1.000,"PART-1-1",           144,       2.63438,       22.2143,            0.,NA,NA,"",       13.8486,       13.8415,   443.833E-03,   3.47491E-03
C:/temp/dataset/9/15_5.odb,Step-1,Increment      1: Step Time =    1.000,"PART-1-1",           145,       7.54366,       14.9275,            0.,NA,NA,"",       11.1588,       11.1335,  -752.089E-03,   2.71825E-03
C:/temp/dataset/9/15_5.odb,Step-1,Increment      1: Step Time =    1.000,"PART-1-1",           146,       7.50510,       17.4443,            0.,NA,NA,"",       12.0073,       11.9749,  -881.367E-03,   3.30145E-03
C:/temp/dataset/9/15_5.odb,Step-1,Increment      1: Step Time =    1.000,"PART-1-1",           147,       7.12790,       7.03873,            0.,NA,NA,"",       8.55344,       8.55126,  -193.527E-03,   4.86072E-03
C:/temp/dataset/9/15_5.odb,Step-1,Increment      1: Step Time =    1.000,"PART-1-1",           148,       7.48952,       9.64170,            0.,NA,NA,"",       9.39498,       9.38441,  -445.665E-03,   4.14284E-03
C:/temp/dataset/9/15_5.odb,Step-1,Increment      1: Step Time =    1.000,"PART-1-1",           149,       2.16717,       2.56251,            0.,NA,NA,"",       7.55954,       7.39518,       1.56779,   6.60325E-03
C:/temp/dataset/9/15_5.odb,Step-1,Increment      1: Step Time =    1.000,"PART-1-1",           150,      -2.68606,       3.12146,            0.,NA,NA,"",       8.46084,       7.86986,       3.10662,   7.22714E-03
C:/temp/dataset/9/15_5.odb,Step-1,Increment      1: Step Time =    1.000,"PART-1-1",           151,      -7.08307,       10.2840,            0.,NA,NA,"",       11.3479,       10.5539,       4.17026,   3.99839E-03
C:/temp/dataset/9/15_5.odb,Step-1,Increment      1: Step Time =    1.000,"PART-1-1",           152,      -2.13928,       22.2031,            0.,NA,NA,"",       14.2468,       14.1077,       1.98643,   3.03483E-03
C:/temp/dataset/9/15_5.odb,Step-1,Increment      1: Step Time =    1.000,"PART-1-1",           153,       9.90766,       27.6812,            0.,NA,NA,"",       15.3895,       15.2252,      -2.24323,   934.088E-06
C:/temp/dataset/9/15_5.odb,Step-1,Increment      1: Step Time =    1.000,"PART-1-1",           154,       5.18317,       27.8350,            0.,NA,NA,"",       15.5518,       15.5362,  -696.317E-03,   1.05314E-03
C:/temp/dataset/9/15_5.odb,Step-1,Increment      1: Step Time =    1.000,"PART-1-1",           155,       2.70091,       27.4744,            0.,NA,NA,"",       15.5537,       15.5531,   135.666E-03,   763.567E-06
C:/temp/dataset/9/15_5.odb,Step-1,Increment      1: Step Time =    1.000,"PART-1-1",           156,      -2.92570,       26.9909,            0.,NA,NA,"",       15.8222,       15.6972,       1.98506,   716.994E-06
C:/temp/dataset/9/15_5.odb,Step-1,Increment      1: Step Time =    1.000,"PART-1-1",           157,      -5.52449,       27.7330,            0.,NA,NA,"",       16.3122,       16.0735,       2.78061,   804.669E-06
C:/temp/dataset/9/15_5.odb,Step-1,Increment      1: Step Time =    1.000,"PART-1-1",           158,      -10.1759,       28.1970,            0.,NA,NA,"",       17.0049,       16.4663,       4.24567,   375.804E-06
C:/temp/dataset/9/15_5.odb,Step-1,Increment      1: Step Time =    1.000,"PART-1-1",           159,      -7.15795,       15.3782,            0.,NA,NA,"",       12.8289,       12.2102,       3.93618,   3.42962E-03
C:/temp/dataset/9/15_5.odb,Step-1,Increment      1: Step Time =    1.000,"PART-1-1",           160,      -7.10855,       7.92361,            0.,NA,NA,"",       10.6775,       9.77193,       4.30320,   4.16113E-03
C:/temp/dataset/9/15_5.odb,Step-1,Increment      1: Step Time =    1.000,"PART-1-1",           161,      -7.31416,       5.72319,            0.,NA,NA,"",       10.0957,       9.04102,       4.49264,   7.64619E-03
C:/temp/dataset/9/15_5.odb,Step-1,Increment      1: Step Time =    1.000,"PART-1-1",           162,      -10.0288,      -2.82434,            0.,NA,NA,"",       8.63399,       6.33088,       5.87075,   503.001E-06
C:/temp/dataset/9/15_5.odb,Step-1,Increment      1: Step Time =    1.000,"PART-1-1",           163,      -5.14639,      -3.11924,            0.,NA,NA,"",       7.32240,       5.95479,       4.26121,   856.573E-06
C:/temp/dataset/9/15_5.odb,Step-1,Increment      1: Step Time =    1.000,"PART-1-1",           164,  -261.821E-03,      -2.60038,            0.,NA,NA,"",       6.41636,       5.85584,       2.62273,   1.44581E-03
C:/temp/dataset/9/15_5.odb,Step-1,Increment      1: Step Time =    1.000,"PART-1-1",           165,       4.38015,      -2.33295,            0.,NA,NA,"",       5.78913,       5.68442,       1.09608,   10.8802E-03
C:/temp/dataset/9/15_5.odb,Step-1,Increment      1: Step Time =    1.000,"PART-1-1",           166,       13.0639,      -10.1924,            0.,NA,NA,"",       3.14267,       2.96507,      -1.04153,   29.4532E-03
C:/temp/dataset/9/15_5.odb,Step-1,Increment      1: Step Time =    1.000,"PART-1-1",           167,       13.0843,      -19.8267,            0.,NA,NA,"",       1.03169,   901.785E-03,  -501.162E-03,   43.8283E-03
C:/temp/dataset/9/15_5.odb,Step-1,Increment      1: Step Time =    1.000,"PART-1-1",           168,       12.4446,      -27.5067,            0.,NA,NA,"",   110.407E-03,   65.9047E-03,  -88.5795E-03,   45.5755E-03
C:/temp/dataset/9/15_5.odb,Step-1,Increment      1: Step Time =    1.000,"PART-1-1",           169,       12.9329,      -22.1971,            0.,NA,NA,"",   663.065E-03,   556.434E-03,  -360.606E-03,   44.8245E-03
C:/temp/dataset/9/15_5.odb,Step-1,Increment      1: Step Time =    1.000,"PART-1-1",           170,       13.1086,      -15.0383,            0.,NA,NA,"",       1.96088,       1.80499,  -766.222E-03,   37.0113E-03
C:/temp/dataset/9/15_5.odb,Step-1,Increment      1: Step Time =    1.000,"PART-1-1",           171,       13.0208,      -7.75462,            0.,NA,NA,"",       3.81579,       3.62833,      -1.18130,   25.6700E-03
C:/temp/dataset/9/15_5.odb,Step-1,Increment      1: Step Time =    1.000,"PART-1-1",           172,       12.7756,      -2.70708,            0.,NA,NA,"",       5.33433,       5.13960,      -1.42814,   16.9201E-03
C:/temp/dataset/9/15_5.odb,Step-1,Increment      1: Step Time =    1.000,"PART-1-1",           173,       12.6338,  -14.4220E-03,            0.,NA,NA,"",       6.19049,       5.99344,      -1.54948,   11.8952E-03
C:/temp/dataset/9/15_5.odb,Step-1,Increment      1: Step Time =    1.000,"PART-1-1",           174,       13.0186,       5.13380,            0.,NA,NA,"",       7.87582,       7.62381,      -1.97637,   6.04203E-03
C:/temp/dataset/9/15_5.odb,Step-1,Increment      1: Step Time =    1.000,"PART-1-1",           175,       13.0709,       7.51902,            0.,NA,NA,"",       8.65960,       8.39270,      -2.13335,   5.03143E-03
C:/temp/dataset/9/15_5.odb,Step-1,Increment      1: Step Time =    1.000,"PART-1-1",           176,       12.5119,       12.3699,            0.,NA,NA,"",       10.2578,       10.0114,      -2.23497,   3.36207E-03
C:/temp/dataset/9/15_5.odb,Step-1,Increment      1: Step Time =    1.000,"PART-1-1",           177,       12.4863,       14.9454,            0.,NA,NA,"",       11.1224,       10.8656,      -2.37651,   2.83975E-03
C:/temp/dataset/9/15_5.odb,Step-1,Increment      1: Step Time =    1.000,"PART-1-1",           178,       12.4500,       19.9932,            0.,NA,NA,"",       12.8227,       12.5450,      -2.65399,   1.34719E-03
C:/temp/dataset/9/15_5.odb,Step-1,Increment      1: Step Time =    1.000,"PART-1-1",           179,       9.19048,      -23.6482,            0.,NA,NA,"",   389.837E-03,   381.992E-03,   77.8164E-03,   19.9767E-03
C:/temp/dataset/9/15_5.odb,Step-1,Increment      1: Step Time =    1.000,"PART-1-1",           180,       9.11932,      -19.5624,            0.,NA,NA,"",   977.719E-03,   972.530E-03,   100.597E-03,   18.4544E-03
C:/temp/dataset/9/15_5.odb,Step-1,Increment      1: Step Time =    1.000,"PART-1-1",           181,       9.13323,      -12.9344,            0.,NA,NA,"",       2.36889,       2.36876,   24.3727E-03,   15.4022E-03
C:/temp/dataset/9/15_5.odb,Step-1,Increment      1: Step Time =    1.000,"PART-1-1",           182,       9.14303,      -17.4019,            0.,NA,NA,"",       1.37513,       1.37241,   86.5499E-03,   17.2182E-03
C:/temp/dataset/9/15_5.odb,Step-1,Increment      1: Step Time =    1.000,"PART-1-1",           183,       9.11260,      -10.6744,            0.,NA,NA,"",       2.94845,       2.94834,  -25.3268E-03,   14.4190E-03
C:/temp/dataset/9/15_5.odb,Step-1,Increment      1: Step Time =    1.000,"PART-1-1",           184,       9.06671,      -8.40676,            0.,NA,NA,"",       3.57460,       3.57364,  -82.8829E-03,   13.3178E-03
C:/temp/dataset/9/15_5.odb,Step-1,Increment      1: Step Time =    1.000,"PART-1-1",           185,       9.15359,      -15.1846,            0.,NA,NA,"",       1.84095,       1.83999,   59.7349E-03,   16.1943E-03
C:/temp/dataset/9/15_5.odb,Step-1,Increment      1: Step Time =    1.000,"PART-1-1",           186,       9.09437,      -21.6308,            0.,NA,NA,"",   653.483E-03,   645.645E-03,   100.910E-03,   19.8274E-03
C:/temp/dataset/9/15_5.odb,Step-1,Increment      1: Step Time =    1.000,"PART-1-1",           187,       8.94944,      -6.10597,            0.,NA,NA,"",       4.25263,       4.25041,  -137.250E-03,   13.2953E-03
C:/temp/dataset/9/15_5.odb,Step-1,Increment      1: Step Time =    1.000,"PART-1-1",           188,      -11.3189,       17.6054,            0.,NA,NA,"",       14.1228,       13.1448,       5.16423,   2.79751E-03
C:/temp/dataset/9/15_5.odb,Step-1,Increment      1: Step Time =    1.000,"PART-1-1",           189,      -10.4260,       2.85148,            0.,NA,NA,"",       10.0213,       8.25643,       5.67967,   4.85649E-03
C:/temp/dataset/9/15_5.odb,Step-1,Increment      1: Step Time =    1.000,"PART-1-1",           190,      -12.4413,       27.8959,            0.,NA,NA,"",       17.2262,       16.4888,       4.98612,   253.954E-06
C:/temp/dataset/9/15_5.odb,Step-1,Increment      1: Step Time =    1.000,"PART-1-1",           191,      -10.6658,       19.6683,            0.,NA,NA,"",       14.5944,       13.7661,       4.84671,   2.40626E-03
C:/temp/dataset/9/15_5.odb,Step-1,Increment      1: Step Time =    1.000,"PART-1-1",           192,      -12.1118,       16.4066,            0.,NA,NA,"",       13.9299,       12.8053,       5.48324,   2.82397E-03
C:/temp/dataset/9/15_5.odb,Step-1,Increment      1: Step Time =    1.000,"PART-1-1",           193,      -11.5166,       14.9043,            0.,NA,NA,"",       13.4172,       12.2952,       5.37126,   3.34994E-03
C:/temp/dataset/9/15_5.odb,Step-1,Increment      1: Step Time =    1.000,"PART-1-1",           194,      -11.2054,       12.7278,            0.,NA,NA,"",       12.7732,       11.5818,       5.38682,   3.15729E-03
C:/temp/dataset/9/15_5.odb,Step-1,Increment      1: Step Time =    1.000,"PART-1-1",           195,      -11.1139,       10.5020,            0.,NA,NA,"",       12.1591,       10.8557,       5.47687,   2.68183E-03
C:/temp/dataset/9/15_5.odb,Step-1,Increment      1: Step Time =    1.000,"PART-1-1",           196,      -9.42029,       24.1195,            0.,NA,NA,"",       15.6971,       15.1198,       4.21789,   993.854E-06
C:/temp/dataset/9/15_5.odb,Step-1,Increment      1: Step Time =    1.000,"PART-1-1",           197,      -11.0759,       8.46025,            0.,NA,NA,"",       11.6087,       10.1815,       5.57676,   3.91381E-03
C:/temp/dataset/9/15_5.odb,Step-1,Increment      1: Step Time =    1.000,"PART-1-1",           198,      -10.9473,       6.84821,            0.,NA,NA,"",       11.1576,       9.63612,       5.62479,   5.20695E-03
C:/temp/dataset/9/15_5.odb,Step-1,Increment      1: Step Time =    1.000,"PART-1-1",           199,       9.64075,      -25.5803,            0.,NA,NA,"",   184.879E-03,   182.697E-03,   28.3158E-03,   15.1739E-03
C:/temp/dataset/9/15_5.odb,Step-1,Increment      1: Step Time =    1.000,"PART-1-1",           200,       6.22595,      -2.03957,            0.,NA,NA,"",       5.69114,       5.66909,   500.494E-03,   16.5900E-03
C:/temp/dataset/9/15_5.odb,Step-1,Increment      1: Step Time =    1.000,"PART-1-1",           201,       6.24072,       2.15031,            0.,NA,NA,"",       7.03310,       7.02613,   312.921E-03,   12.9446E-03
C:/temp/dataset/9/15_5.odb,Step-1,Increment      1: Step Time =    1.000,"PART-1-1",           202,      -7.69234,       3.89067,            0.,NA,NA,"",       9.67103,       8.44179,       4.71857,   7.94582E-03
C:/temp/dataset/9/15_5.odb,Step-1,Increment      1: Step Time =    1.000,"PART-1-1",           203,       7.31807,       22.0589,            0.,NA,NA,"",       13.5654,       13.5224,      -1.07904,   2.32915E-03
C:/temp/dataset/9/15_5.odb,Step-1,Increment      1: Step Time =    1.000,"PART-1-1",           204,      -6.44398,       20.4265,            0.,NA,NA,"",       14.2042,       13.7776,       3.45493,   4.15149E-03
C:/temp/dataset/9/15_5.odb,Step-1,Increment      1: Step Time =    1.000,"PART-1-1",           205,       12.2962,       25.0128,            0.,NA,NA,"",       14.5028,       14.2133,      -2.88330,   722.875E-06
C:/temp/dataset/9/15_5.odb,Step-1,Increment      1: Step Time =    1.000,"PART-1-1",           206,       12.2257,      -24.8009,            0.,NA,NA,"",   310.305E-03,   256.502E-03,  -174.631E-03,   37.9200E-03
C:/temp/dataset/9/15_5.odb,Step-1,Increment      1: Step Time =    1.000,"PART-1-1",           207,      -2.06005,       24.5200,            0.,NA,NA,"",       14.9657,       14.8523,       1.83850,   1.29056E-03
C:/temp/dataset/9/15_5.odb,Step-1,Increment      1: Step Time =    1.000,"PART-1-1",           208,       9.31619,       25.0673,            0.,NA,NA,"",       14.5244,       14.3992,      -1.90312,   1.03382E-03
C:/temp/dataset/9/15_5.odb,Step-1,Increment      1: Step Time =    1.000,"PART-1-1",           209,       3.21447,       24.8112,            0.,NA,NA,"",       14.6573,       14.6568,   114.334E-03,   823.595E-06
C:/temp/dataset/9/15_5.odb,Step-1,Increment      1: Step Time =    1.000,"PART-1-1",           210,      -7.52022,      -1.18711,            0.,NA,NA,"",       8.35010,       6.73112,       4.94127,   1.53979E-03
C:/temp/dataset/9/15_5.odb,Step-1,Increment      1: Step Time =    1.000,"PART-1-1",           211,       10.0127,       14.9017,            0.,NA,NA,"",       11.0978,       10.9874,      -1.56147,   3.19725E-03
C:/temp/dataset/9/15_5.odb,Step-1,Increment      1: Step Time =    1.000,"PART-1-1",           212,       10.7293,       3.02357,            0.,NA,NA,"",       7.15002,       7.06045,      -1.12820,   5.79744E-03
C:/temp/dataset/9/15_5.odb,Step-1,Increment      1: Step Time =    1.000,"PART-1-1",           213,       11.4837,       7.36813,            0.,NA,NA,"",       8.57890,       8.42630,      -1.61088,   3.69005E-03
C:/temp/dataset/9/15_5.odb,Step-1,Increment      1: Step Time =    1.000,"PART-1-1",           214,      -9.20573,       12.9161,            0.,NA,NA,"",       12.4624,       11.5316,       4.72604,   2.85882E-03
C:/temp/dataset/9/15_5.odb,Step-1,Increment      1: Step Time =    1.000,"PART-1-1",           215,   314.418E-03,       24.7704,            0.,NA,NA,"",       14.8413,       14.8035,       1.05837,   1.23360E-03
C:/temp/dataset/9/15_5.odb,Step-1,Increment      1: Step Time =    1.000,"PART-1-1",           216,       7.52406,       26.3727,            0.,NA,NA,"",       14.9925,       14.9284,      -1.38476,   980.062E-06
C:/temp/dataset/9/15_5.odb,Step-1,Increment      1: Step Time =    1.000,"PART-1-1",           217,  -811.906E-03,   82.6841E-03,            0.,NA,NA,"",       7.26558,       6.76250,       2.65654,   2.46541E-03
C:/temp/dataset/9/15_5.odb,Step-1,Increment      1: Step Time =    1.000,"PART-1-1",           218,       11.1400,      -19.6444,            0.,NA,NA,"",   954.376E-03,   931.862E-03,  -206.075E-03,   18.2237E-03
C:/temp/dataset/9/15_5.odb,Step-1,Increment      1: Step Time =    1.000,"PART-1-1",           219,       11.1036,      -10.4226,            0.,NA,NA,"",       2.99942,       2.95240,  -529.044E-03,   15.1458E-03
C:/temp/dataset/9/15_5.odb,Step-1,Increment      1: Step Time =    1.000,"PART-1-1",           220,       10.9280,      -5.64335,            0.,NA,NA,"",       4.37096,       4.31187,  -716.278E-03,   15.7443E-03
C:/temp/dataset/9/15_5.odb,Step-1,Increment      1: Step Time =    1.000,"PART-1-1",           221,       11.0667,       5.48495,            0.,NA,NA,"",       7.95628,       7.83732,      -1.37068,   3.70451E-03
C:/temp/dataset/9/15_5.odb,Step-1,Increment      1: Step Time =    1.000,"PART-1-1",           222,       11.1390,      -12.7671,            0.,NA,NA,"",       2.39617,       2.35588,  -437.579E-03,   15.8817E-03
C:/temp/dataset/9/15_5.odb,Step-1,Increment      1: Step Time =    1.000,"PART-1-1",           223,       11.1627,      -15.1016,            0.,NA,NA,"",       1.84841,       1.81430,  -353.491E-03,   16.8307E-03
C:/temp/dataset/9/15_5.odb,Step-1,Increment      1: Step Time =    1.000,"PART-1-1",           224,      -9.10801,       10.4728,            0.,NA,NA,"",       11.7656,       10.7317,       4.82303,   2.44478E-03
C:/temp/dataset/9/15_5.odb,Step-1,Increment      1: Step Time =    1.000,"PART-1-1",           225,      -9.12162,       8.28854,            0.,NA,NA,"",       11.1657,       10.0106,       4.94568,   4.00256E-03
C:/temp/dataset/9/15_5.odb,Step-1,Increment      1: Step Time =    1.000,"PART-1-1",           226,      -8.73753,       18.6317,            0.,NA,NA,"",       14.0027,       13.3326,       4.27995,   3.44566E-03
C:/temp/dataset/9/15_5.odb,Step-1,Increment      1: Step Time =    1.000,"PART-1-1",           227,      -9.90634,  -397.381E-03,            0.,NA,NA,"",       9.12626,       7.13409,       5.69151,   1.38831E-03
C:/temp/dataset/9/15_5.odb,Step-1,Increment      1: Step Time =    1.000,"PART-1-1",           228,       9.93939,       19.9385,            0.,NA,NA,"",       12.7994,       12.6688,      -1.82386,   2.31585E-03
C:/temp/dataset/9/15_5.odb,Step-1,Increment      1: Step Time =    1.000,"PART-1-1",           229,       5.70370,       25.8085,            0.,NA,NA,"",       14.8640,       14.8448,  -755.027E-03,   779.994E-06
C:/temp/dataset/9/15_5.odb,Step-1,Increment      1: Step Time =    1.000,"PART-1-1",           230,       10.0348,       12.2094,            0.,NA,NA,"",       10.1916,       10.0928,      -1.41530,   3.24518E-03
C:/temp/dataset/9/15_5.odb,Step-1,Increment      1: Step Time =    1.000,"PART-1-1",           231,       9.98921,       17.4486,            0.,NA,NA,"",       11.9583,       11.8369,      -1.69927,   3.17946E-03
C:/temp/dataset/9/15_5.odb,Step-1,Increment      1: Step Time =    1.000,"PART-1-1",           232,       10.1044,       9.10575,            0.,NA,NA,"",       9.15411,       9.06655,      -1.26307,   3.15133E-03
C:/temp/dataset/9/15_5.odb,Step-1,Increment      1: Step Time =    1.000,"PART-1-1",           233,      -3.11139,      -1.10310,            0.,NA,NA,"",       7.37490,       6.50455,       3.47562,   1.24895E-03
C:/temp/dataset/9/15_5.odb,Step-1,Increment      1: Step Time =    1.000,"PART-1-1",           234,      -6.48507,       25.5695,            0.,NA,NA,"",       15.7575,       15.4285,       3.20319,   1.04382E-03
C:/temp/dataset/9/15_5.odb,Step-1,Increment      1: Step Time =    1.000,"PART-1-1",           235,      -4.76537,       24.8732,            0.,NA,NA,"",       15.3499,       15.1125,       2.68909,   1.20889E-03
C:/temp/dataset/9/15_5.odb,Step-1,Increment      1: Step Time =    1.000,"PART-1-1",           236,      -8.46351,       26.0628,            0.,NA,NA,"",       16.1479,       15.6919,       3.81030,   738.864E-06
C:/temp/dataset/9/15_5.odb,Step-1,Increment      1: Step Time =    1.000,"PART-1-1",           237,      -9.50218,       15.8804,            0.,NA,NA,"",       13.3414,       12.4981,       4.66787,   3.31152E-03
C:/temp/dataset/9/15_5.odb,Step-1,Increment      1: Step Time =    1.000,"PART-1-1",           238,      -5.29510,      -1.38770,            0.,NA,NA,"",       7.77602,       6.53566,       4.21327,   1.41134E-03
C:/temp/dataset/9/15_5.odb,Step-1,Increment      1: Step Time =    1.000,"PART-1-1",           239,       11.0587,      -21.7318,            0.,NA,NA,"",   627.971E-03,   611.507E-03,  -142.851E-03,   18.1860E-03
C:/temp/dataset/9/15_5.odb,Step-1,Increment      1: Step Time =    1.000,"PART-1-1",           240,       11.1670,      -17.4071,            0.,NA,NA,"",       1.36465,       1.33639,  -276.313E-03,   17.7281E-03
C:/temp/dataset/9/15_5.odb,Step-1,Increment      1: Step Time =    1.000,"PART-1-1",           241,       11.0513,      -8.06140,            0.,NA,NA,"",       3.65528,       3.60117,  -626.641E-03,   15.1900E-03
C:/temp/dataset/9/15_5.odb,Step-1,Increment      1: Step Time =    1.000,"PART-1-1",           242,       10.1357,   7.39639E-03,            0.,NA,NA,"",       6.16963,       6.11974,  -783.053E-03,   11.1775E-03
C:/temp/dataset/9/15_5.odb,Step-1,Increment      1: Step Time =    1.000,"PART-1-1",           243,       10.6886,      -3.06387,            0.,NA,NA,"",       5.17535,       5.11541,  -785.420E-03,   14.9934E-03
C:/temp/dataset/9/15_5.odb,Step-1,Increment      1: Step Time =    1.000,"PART-1-1",           244,       9.76329,       22.4053,            0.,NA,NA,"",       13.6301,       13.4966,      -1.90328,   1.35845E-03
C:/temp/dataset/9/15_5.odb,Step-1,Increment      1: Step Time =    1.000,"PART-1-1",           245,       8.68231,      -3.74099,            0.,NA,NA,"",       4.99557,       4.99289,  -163.625E-03,   16.1968E-03
C:/temp/dataset/9/15_5.odb,Step-1,Increment      1: Step Time =    1.000,"PART-1-1",           246,      -9.34414,       6.30777,            0.,NA,NA,"",       10.6726,       9.35961,       5.12851,   6.09480E-03
C:/temp/dataset/9/15_5.odb,Step-1,Increment      1: Step Time =    1.000,"PART-1-1",           247,      -9.93235,       4.61568,            0.,NA,NA,"",       10.3533,       8.82320,       5.41681,   6.39580E-03
C:/temp/dataset/9/15_5.odb,Step-1,Increment      1: Step Time =    1.000,"PART-1-1",           248,      -8.14937,       21.0679,            0.,NA,NA,"",       14.6242,       14.0756,       3.96792,   2.81884E-03
C:/temp/dataset/9/15_5.odb,Step-1,Increment      1: Step Time =    1.000,"PART-1-1",           249,       10.7972,      -23.3791,            0.,NA,NA,"",   408.438E-03,   400.301E-03,  -81.1219E-03,   15.4195E-03
C:/temp/dataset/9/15_5.odb,Step-1,Increment      1: Step Time =    1.000,"PART-1-1",           250,       4.15357,   65.4176E-03,            0.,NA,NA,"",       6.55836,       6.47235,       1.05866,   9.35629E-03
C:/temp/dataset/9/15_5.odb,Step-1,Increment      1: Step Time =    1.000,"PART-1-1",           251,       8.71950,       3.82470,            0.,NA,NA,"",       7.44529,       7.42580,  -538.309E-03,   6.10721E-03
C:/temp/dataset/9/15_5.odb,Step-1,Increment      1: Step Time =    1.000,"PART-1-1",           252,       5.00281,       23.5204,            0.,NA,NA,"",       14.1405,       14.1349,  -399.070E-03,   1.48199E-03
C:/temp/dataset/9/15_5.odb,Step-1,Increment      1: Step Time =    1.000,"PART-1-1",           253,       7.40149,   60.9774E-03,            0.,NA,NA,"",       6.28271,       6.28251,   49.1259E-03,   13.6186E-03
C:/temp/dataset/9/15_5.odb,Step-1,Increment      1: Step Time =    1.000,"PART-1-1",           254,      -5.73116,       22.7675,            0.,NA,NA,"",       14.8170,       14.4872,       3.10861,   2.21887E-03
C:/temp/dataset/9/15_5.odb,Step-1,Increment      1: Step Time =    1.000,"PART-1-1",           255,      -5.42683,       1.83799,            0.,NA,NA,"",       8.63630,       7.61231,       4.07902,   4.82715E-03
C:/temp/dataset/9/15_5.odb,Step-1,Increment      1: Step Time =    1.000,"PART-1-1",           256,       6.81561,       24.0815,            0.,NA,NA,"",       14.2535,       14.2166,      -1.02504,   1.24455E-03
C:/temp/dataset/9/15_5.odb,Step-1,Increment      1: Step Time =    1.000,"PART-1-1",           257,      -7.40884,       23.3683,            0.,NA,NA,"",       15.2067,       14.7710,       3.61369,   1.80944E-03
C:/temp/dataset/9/15_5.odb,Step-1,Increment      1: Step Time =    1.000,"PART-1-1",           258,      -3.69176,       23.9755,            0.,NA,NA,"",       14.9578,       14.7653,       2.39213,   1.59241E-03
C:/temp/dataset/9/15_5.odb,Step-1,Increment      1: Step Time =    1.000,"PART-1-1",           259,      -8.10961,       1.76736,            0.,NA,NA,"",       9.21015,       7.75233,       4.97274,   4.49307E-03
C:/temp/dataset/9/15_5.odb,Step-1,Increment      1: Step Time =    1.000,"PART-1-1",           260,       5.94930,   61.4696E-03,            0.,NA,NA,"",       6.38523,       6.36588,   496.689E-03,   12.8066E-03
C:/temp/dataset/9/15_5.odb,Step-1,Increment      1: Step Time =    1.000,"PART-1-1",           261,       1.93878,   62.7924E-03,            0.,NA,NA,"",       6.83134,       6.59920,       1.76573,   4.69794E-03
C:/temp/dataset/9/15_5.odb,Step-1,Increment      1: Step Time =    1.000,"PART-1-1",           262,       6.71051,      -4.41826,            0.,NA,NA,"",       4.89627,       4.87597,   445.405E-03,   19.4254E-03
C:/temp/dataset/9/15_5.odb,Step-1,Increment      1: Step Time =    1.000,"PART-1-1",           263,      -12.5366,      -2.82410,            0.,NA,NA,"",       9.32463,       6.47537,       6.70956,   506.482E-06
C:/temp/dataset/9/15_5.odb,Step-1,Increment      1: Step Time =    1.000,"PART-1-1",           264,       6.75090,       4.53602,            0.,NA,NA,"",       7.76466,       7.76452,   46.9469E-03,   8.01423E-03
C:/temp/dataset/9/15_5.odb,Step-1,Increment      1: Step Time =    1.000,"PART-1-1",           265,      -5.22339,       3.46233,            0.,NA,NA,"",       9.03737,       8.14133,       3.92336,   6.85744E-03
C:/temp/dataset/9/15_5.odb,Step-1,Increment      1: Step Time =    1.000,"PART-1-1",           266,       4.93795,       21.9167,            0.,NA,NA,"",       13.6157,       13.6126,  -289.400E-03,   2.25537E-03
C:/temp/dataset/9/15_5.odb,Step-1,Increment      1: Step Time =    1.000,"PART-1-1",           267,       8.13144,      -1.42002,            0.,NA,NA,"",       5.76425,       5.76328,  -105.662E-03,   15.0196E-03
C:/temp/dataset/9/15_5.odb,Step-1,Increment      1: Step Time =    1.000,"PART-1-1",           268,      -3.13115,       1.39136,            0.,NA,NA,"",       8.05396,       7.32644,       3.34507,   3.83786E-03
C:/temp/dataset/9/15_5.odb,Step-1,Increment      1: Step Time =    1.000,"PART-1-1",           269,       9.17709,       6.32873,            0.,NA,NA,"",       8.25022,       8.21011,  -812.515E-03,   2.73705E-03
C:/temp/dataset/9/15_5.odb,Step-1,Increment      1: Step Time =    1.000,"PART-1-1",           270,      -11.0423,       1.34077,            0.,NA,NA,"",       9.80993,       7.78368,       5.97068,   2.57057E-03
C:/temp/dataset/9/15_5.odb,Step-1,Increment      1: Step Time =    1.000,"PART-1-1",           271,      -10.1478,       26.6048,            0.,NA,NA,"",       16.5293,       15.9547,       4.32053,   430.539E-06
C:/temp/dataset/9/15_5.odb,Step-1,Increment      1: Step Time =    1.000,"PART-1-1",           272,      -10.1118,       21.9370,            0.,NA,NA,"",       15.1588,       14.4592,       4.55207,   1.63629E-03
C:/temp/dataset/9/15_5.odb,Step-1,Increment      1: Step Time =    1.000,"PART-1-1",           273,       8.13886,       1.50501,            0.,NA,NA,"",       6.71336,       6.70889,  -244.728E-03,   11.0253E-03
C:/temp/dataset/9/15_5.odb,Step-1,Increment      1: Step Time =    1.000,"PART-1-1",           274,      -7.06249,   219.393E-03,            0.,NA,NA,"",       8.58086,       7.17223,       4.71066,   2.83076E-03
C:/temp/dataset/9/15_5.odb,Step-1,Increment      1: Step Time =    1.000,"PART-1-1",           275,      -5.40522,   241.534E-03,            0.,NA,NA,"",       8.21246,       7.08123,       4.15940,   2.86688E-03
C:/temp/dataset/9/15_5.odb,Step-1,Increment      1: Step Time =    1.000,"PART-1-1",           276,      -3.80180,   194.541E-03,            0.,NA,NA,"",       7.86072,       6.97153,       3.63161,   2.63962E-03
C:/temp/dataset/9/15_5.odb,Step-1,Increment      1: Step Time =    1.000,"PART-1-1",           277,      -2.71285,       28.4954,            0.,NA,NA,"",       16.2754,       16.1716,       1.83543,   1.17783E-03
C:/temp/dataset/9/15_5.odb,Step-1,Increment      1: Step Time =    1.000,"PART-1-1",           278,         -3.75,           30.,            0.,NA,NA,"",       16.8401,       16.7101,       2.08855,   1.76435E-03
C:/temp/dataset/9/15_5.odb,Step-1,Increment      1: Step Time =    1.000,"PART-1-1",           279,      -5.26224,       28.8665,            0.,NA,NA,"",       16.6344,       16.4242,       2.63588,   1.00638E-03
C:/temp/dataset/9/15_5.odb,Step-1,Increment      1: Step Time =    1.000,"PART-1-1",           280,      -4.22509,       27.3619,            0.,NA,NA,"",       16.0634,       15.8857,       2.38318,   760.238E-06
C:/temp/dataset/9/15_5.odb,Step-1,Increment      1: Step Time =    1.000,"PART-1-1",           281,      -3.84553,       25.9321,            0.,NA,NA,"",       15.5809,       15.4045,       2.33761,   820.940E-06
C:/temp/dataset/9/15_5.odb,Step-1,Increment      1: Step Time =    1.000,"PART-1-1",           282,      -6.00478,       26.6512,            0.,NA,NA,"",       16.0325,       15.7509,       2.99215,   765.442E-06
C:/temp/dataset/9/15_5.odb,Step-1,Increment      1: Step Time =    1.000,"PART-1-1",           283,      -5.62522,       25.2214,            0.,NA,NA,"",       15.5522,       15.2706,       2.94622,   1.14064E-03
C:/temp/dataset/9/15_5.odb,Step-1,Increment      1: Step Time =    1.000,"PART-1-1",           284,      -10.0879,       29.0985,            0.,NA,NA,"",       17.2617,       16.7505,       4.16997,   330.119E-06
C:/temp/dataset/9/15_5.odb,Step-1,Increment      1: Step Time =    1.000,"PART-1-1",           285,        -11.25,           30.,            0.,NA,NA,"",       17.6805,       17.0997,       4.49428,   257.992E-06
C:/temp/dataset/9/15_5.odb,Step-1,Increment      1: Step Time =    1.000,"PART-1-1",           286,      -12.4706,       28.9480,            0.,NA,NA,"",       17.5373,       16.8271,       4.94015,   146.706E-06
C:/temp/dataset/9/15_5.odb,Step-1,Increment      1: Step Time =    1.000,"PART-1-1",           287,      -11.3086,       28.0465,            0.,NA,NA,"",       17.1119,       16.4775,       4.61592,   305.872E-06
C:/temp/dataset/9/15_5.odb,Step-1,Increment      1: Step Time =    1.000,"PART-1-1",           288,      -13.4495,       25.5029,            0.,NA,NA,"",       16.6855,       15.7758,       5.43423,   217.992E-06
C:/temp/dataset/9/15_5.odb,Step-1,Increment      1: Step Time =    1.000,"PART-1-1",           289,          -15.,       24.5313,            0.,NA,NA,"",       16.6573,       15.5466,       5.98090,   216.383E-06
C:/temp/dataset/9/15_5.odb,Step-1,Increment      1: Step Time =    1.000,"PART-1-1",           290,      -13.6920,       23.1529,            0.,NA,NA,"",       16.0583,       15.0373,       5.63483,   321.172E-06
C:/temp/dataset/9/15_5.odb,Step-1,Increment      1: Step Time =    1.000,"PART-1-1",           291,      -12.1415,       24.1246,            0.,NA,NA,"",       16.0916,       15.2660,       5.08808,   332.288E-06
C:/temp/dataset/9/15_5.odb,Step-1,Increment      1: Step Time =    1.000,"PART-1-1",           292,          8.75,          -30.,            0.,NA,NA,"",            0.,  -7.57830E-39,   36.2881E-39,   19.2507E-03
C:/temp/dataset/9/15_5.odb,Step-1,Increment      1: Step Time =    1.000,"PART-1-1",           293,       9.96407,      -28.8633,            0.,NA,NA,"",   2.23850E-03,   1.63539E-03,   1.52852E-03,   2.85084E-03
C:/temp/dataset/9/15_5.odb,Step-1,Increment      1: Step Time =    1.000,"PART-1-1",           294,       8.68711,      -27.7998,            0.,NA,NA,"",   63.0557E-03,   45.9836E-03,   43.1454E-03,   29.6269E-03
C:/temp/dataset/9/15_5.odb,Step-1,Increment      1: Step Time =    1.000,"PART-1-1",           295,       7.47304,      -28.9365,            0.,NA,NA,"",   39.8505E-03,   15.4165E-03,   36.7477E-03,   42.9472E-03
C:/temp/dataset/9/15_5.odb,Step-1,Increment      1: Step Time =    1.000,"PART-1-1",           296,       10.9279,      -22.5555,            0.,NA,NA,"",   513.268E-03,   501.367E-03,  -109.885E-03,   16.7383E-03
C:/temp/dataset/9/15_5.odb,Step-1,Increment      1: Step Time =    1.000,"PART-1-1",           297,       10.0765,      -21.6813,            0.,NA,NA,"",   625.509E-03,   625.153E-03,  -21.1071E-03,   11.3742E-03
C:/temp/dataset/9/15_5.odb,Step-1,Increment      1: Step Time =    1.000,"PART-1-1",           298,       9.14242,      -22.6395,            0.,NA,NA,"",   514.477E-03,   506.550E-03,   89.9654E-03,   19.8337E-03
C:/temp/dataset/9/15_5.odb,Step-1,Increment      1: Step Time =    1.000,"PART-1-1",           299,       9.99384,      -23.5137,            0.,NA,NA,"",   388.882E-03,   388.882E-03,  -42.2728E-06,   11.9300E-03
C:/temp/dataset/9/15_5.odb,Step-1,Increment      1: Step Time =    1.000,"PART-1-1",           300,       7.08785,      -18.4988,            0.,NA,NA,"",       1.29348,       1.21831,   434.515E-03,   42.3478E-03
C:/temp/dataset/9/15_5.odb,Step-1,Increment      1: Step Time =    1.000,"PART-1-1",           301,       6.04673,      -17.4684,            0.,NA,NA,"",       1.59323,       1.45829,   641.703E-03,   53.7339E-03
C:/temp/dataset/9/15_5.odb,Step-1,Increment      1: Step Time =    1.000,"PART-1-1",           302,            5.,      -18.5417,            0.,NA,NA,"",       1.51424,       1.29289,   788.279E-03,   70.0098E-03
C:/temp/dataset/9/15_5.odb,Step-1,Increment      1: Step Time =    1.000,"PART-1-1",           303,       6.04112,      -19.5721,            0.,NA,NA,"",       1.20552,       1.06045,   573.332E-03,   58.2676E-03
C:/temp/dataset/9/15_5.odb,Step-1,Increment      1: Step Time =    1.000,"PART-1-1",           304,       7.10245,      -14.2066,            0.,NA,NA,"",       2.18753,       2.13357,   482.881E-03,   35.4298E-03
C:/temp/dataset/9/15_5.odb,Step-1,Increment      1: Step Time =    1.000,"PART-1-1",           305,       6.04975,      -13.2285,            0.,NA,NA,"",       2.52180,       2.41605,   722.595E-03,   44.6954E-03
C:/temp/dataset/9/15_5.odb,Step-1,Increment      1: Step Time =    1.000,"PART-1-1",           306,            5.,       -14.375,            0.,NA,NA,"",       2.38068,       2.18842,   937.273E-03,   58.9086E-03
C:/temp/dataset/9/15_5.odb,Step-1,Increment      1: Step Time =    1.000,"PART-1-1",           307,       6.05270,      -15.3531,            0.,NA,NA,"",       2.03273,       1.91169,   690.958E-03,   49.1758E-03
C:/temp/dataset/9/15_5.odb,Step-1,Increment      1: Step Time =    1.000,"PART-1-1",           308,            5.,      -6.04167,            0.,NA,NA,"",       4.57839,       4.46793,   999.654E-03,   44.6326E-03
C:/temp/dataset/9/15_5.odb,Step-1,Increment      1: Step Time =    1.000,"PART-1-1",           309,       5.97724,      -6.85181,            0.,NA,NA,"",       4.23104,       4.16834,   725.683E-03,   32.3090E-03
C:/temp/dataset/9/15_5.odb,Step-1,Increment      1: Step Time =    1.000,"PART-1-1",           310,       6.83249,      -5.51927,            0.,NA,NA,"",       4.54677,       4.52474,   446.998E-03,   18.1712E-03
C:/temp/dataset/9/15_5.odb,Step-1,Increment      1: Step Time =    1.000,"PART-1-1",           311,       5.85525,      -4.70913,            0.,NA,NA,"",       4.87984,       4.82730,   714.153E-03,   24.1845E-03
C:/temp/dataset/9/15_5.odb,Step-1,Increment      1: Step Time =    1.000,"PART-1-1",           312,       4.27314,       1.25089,            0.,NA,NA,"",       6.91683,       6.84903,   966.127E-03,   9.83251E-03
C:/temp/dataset/9/15_5.odb,Step-1,Increment      1: Step Time =    1.000,"PART-1-1",           313,       3.27994,       2.49943,            0.,NA,NA,"",       7.41154,       7.31055,       1.21934,   8.18111E-03
C:/temp/dataset/9/15_5.odb,Step-1,Increment      1: Step Time =    1.000,"PART-1-1",           314,       2.05297,       1.31265,            0.,NA,NA,"",       7.19336,       6.99770,       1.66632,   5.67766E-03
C:/temp/dataset/9/15_5.odb,Step-1,Increment      1: Step Time =    1.000,"PART-1-1",           315,       3.04617,   64.1050E-03,            0.,NA,NA,"",       6.68648,       6.53593,       1.41090,   7.07230E-03
C:/temp/dataset/9/15_5.odb,Step-1,Increment      1: Step Time =    1.000,"PART-1-1",           316,       6.28410,       12.4112,            0.,NA,NA,"",       10.3701,       10.3682,  -199.771E-03,   3.45030E-03
C:/temp/dataset/9/15_5.odb,Step-1,Increment      1: Step Time =    1.000,"PART-1-1",           317,            5.,         11.25,            0.,NA,NA,"",       10.0610,       10.0570,   282.992E-03,   5.37777E-03
C:/temp/dataset/9/15_5.odb,Step-1,Increment      1: Step Time =    1.000,"PART-1-1",           318,       6.24476,       9.82085,            0.,NA,NA,"",       9.51341,       9.51328,  -50.6241E-03,   4.96036E-03
C:/temp/dataset/9/15_5.odb,Step-1,Increment      1: Step Time =    1.000,"PART-1-1",           319,       7.52885,       10.9821,            0.,NA,NA,"",       9.83895,       9.82466,  -530.064E-03,   3.63003E-03
C:/temp/dataset/9/15_5.odb,Step-1,Increment      1: Step Time =    1.000,"PART-1-1",           320,       6.23557,       19.9374,            0.,NA,NA,"",       12.8964,       12.8821,  -605.688E-03,   4.33543E-03
C:/temp/dataset/9/15_5.odb,Step-1,Increment      1: Step Time =    1.000,"PART-1-1",           321,            5.,         18.75,            0.,NA,NA,"",       12.5548,       12.5541,  -126.670E-03,   2.42240E-03
C:/temp/dataset/9/15_5.odb,Step-1,Increment      1: Step Time =    1.000,"PART-1-1",           322,       6.25255,       17.4722,            0.,NA,NA,"",       12.0646,       12.0555,  -469.608E-03,   1.49457E-03
C:/temp/dataset/9/15_5.odb,Step-1,Increment      1: Step Time =    1.000,"PART-1-1",           323,       7.48812,       18.6595,            0.,NA,NA,"",       12.4184,       12.3824,  -945.551E-03,   3.21586E-03
C:/temp/dataset/9/15_5.odb,Step-1,Increment      1: Step Time =    1.000,"PART-1-1",           324,       12.4612,       28.7577,            0.,NA,NA,"",       15.7543,       15.4370,      -3.14596,   371.068E-06
C:/temp/dataset/9/15_5.odb,Step-1,Increment      1: Step Time =    1.000,"PART-1-1",           325,         11.25,           30.,            0.,NA,NA,"",       16.1610,       15.9138,      -2.81589,   540.794E-06
C:/temp/dataset/9/15_5.odb,Step-1,Increment      1: Step Time =    1.000,"PART-1-1",           326,       9.95383,       28.8406,            0.,NA,NA,"",       15.7758,       15.6038,      -2.32318,   763.340E-06
C:/temp/dataset/9/15_5.odb,Step-1,Increment      1: Step Time =    1.000,"PART-1-1",           327,       11.1650,       27.5983,            0.,NA,NA,"",       15.3587,       15.1277,      -2.65356,   779.019E-06
C:/temp/dataset/9/15_5.odb,Step-1,Increment      1: Step Time =    1.000,"PART-1-1",           328,       9.61193,       26.3742,            0.,NA,NA,"",       14.9565,       14.8122,      -2.07303,   883.446E-06
C:/temp/dataset/9/15_5.odb,Step-1,Increment      1: Step Time =    1.000,"PART-1-1",           329,       10.8062,       25.0400,            0.,NA,NA,"",       14.5050,       14.3062,      -2.39312,   855.410E-06
C:/temp/dataset/9/15_5.odb,Step-1,Increment      1: Step Time =    1.000,"PART-1-1",           330,       12.3592,       26.2641,            0.,NA,NA,"",       14.9211,       14.6218,      -2.97355,   669.519E-06
C:/temp/dataset/9/15_5.odb,Step-1,Increment      1: Step Time =    1.000,"PART-1-1",           331,       7.54419,       28.9985,            0.,NA,NA,"",       15.8631,       15.7885,      -1.53745,   1.25252E-03
C:/temp/dataset/9/15_5.odb,Step-1,Increment      1: Step Time =    1.000,"PART-1-1",           332,          6.25,           30.,            0.,NA,NA,"",       16.2293,       16.1873,      -1.16766,   1.97397E-03
C:/temp/dataset/9/15_5.odb,Step-1,Increment      1: Step Time =    1.000,"PART-1-1",           333,       5.09159,       28.9175,            0.,NA,NA,"",       15.9117,       15.8951,  -726.442E-03,   1.61528E-03
C:/temp/dataset/9/15_5.odb,Step-1,Increment      1: Step Time =    1.000,"PART-1-1",           334,       6.38578,       27.9160,            0.,NA,NA,"",       15.5357,       15.4970,      -1.09582,   1.04657E-03
C:/temp/dataset/9/15_5.odb,Step-1,Increment      1: Step Time =    1.000,"PART-1-1",           335,       2.95769,       26.1428,            0.,NA,NA,"",       15.1058,       15.1053,   125.065E-03,   290.560E-06
C:/temp/dataset/9/15_5.odb,Step-1,Increment      1: Step Time =    1.000,"PART-1-1",           336,       4.45909,       25.3098,            0.,NA,NA,"",       14.7542,       14.7508,  -319.612E-03,   660.581E-06
C:/temp/dataset/9/15_5.odb,Step-1,Increment      1: Step Time =    1.000,"PART-1-1",           337,       5.44343,       26.8217,            0.,NA,NA,"",       15.2080,       15.1906,  -725.603E-03,   765.026E-06
C:/temp/dataset/9/15_5.odb,Step-1,Increment      1: Step Time =    1.000,"PART-1-1",           338,       3.94204,       27.6547,            0.,NA,NA,"",       15.5473,       15.5447,  -279.705E-03,   891.229E-06
C:/temp/dataset/9/15_5.odb,Step-1,Increment      1: Step Time =    1.000,"PART-1-1",           339,       6.06395,       7.26936,            0.,NA,NA,"",       8.68571,       8.68466,   135.209E-03,   6.70645E-03
C:/temp/dataset/9/15_5.odb,Step-1,Increment      1: Step Time =    1.000,"PART-1-1",           340,       7.30871,       8.34021,            0.,NA,NA,"",       8.97225,       8.96659,  -318.676E-03,   4.61435E-03
C:/temp/dataset/9/15_5.odb,Step-1,Increment      1: Step Time =    1.000,"PART-1-1",           341,            5.,          8.75,            0.,NA,NA,"",       9.24093,       9.23191,   408.136E-03,   7.90956E-03
C:/temp/dataset/9/15_5.odb,Step-1,Increment      1: Step Time =    1.000,"PART-1-1",           342,      -13.9291,       1.47830,            0.,NA,NA,"",       10.5812,       7.99805,       6.92776,   520.447E-06
C:/temp/dataset/9/15_5.odb,Step-1,Increment      1: Step Time =    1.000,"PART-1-1",           343,          -15.,    468.75E-03,            0.,NA,NA,"",       10.6570,       7.72090,       7.34573,   697.247E-06
C:/temp/dataset/9/15_5.odb,Step-1,Increment      1: Step Time =    1.000,"PART-1-1",           344,      -13.8152,  -655.377E-03,            0.,NA,NA,"",       10.1047,       7.27482,       7.01305,   386.529E-06
C:/temp/dataset/9/15_5.odb,Step-1,Increment      1: Step Time =    1.000,"PART-1-1",           345,      -12.7443,   354.171E-03,            0.,NA,NA,"",       10.0264,       7.55124,       6.59596,   707.706E-06
C:/temp/dataset/9/15_5.odb,Step-1,Increment      1: Step Time =    1.000,"PART-1-1",           346,      -13.9678,       8.16706,            0.,NA,NA,"",       12.1625,       10.2528,       6.54274,   5.22533E-03
C:/temp/dataset/9/15_5.odb,Step-1,Increment      1: Step Time =    1.000,"PART-1-1",           347,          -15.,       7.03125,            0.,NA,NA,"",       12.1273,       9.93638,       6.95270,   6.03856E-03
C:/temp/dataset/9/15_5.odb,Step-1,Increment      1: Step Time =    1.000,"PART-1-1",           348,      -13.6804,       5.85321,            0.,NA,NA,"",       11.5295,       9.46453,       6.58419,   4.80907E-03
C:/temp/dataset/9/15_5.odb,Step-1,Increment      1: Step Time =    1.000,"PART-1-1",           349,      -12.6482,       6.98902,            0.,NA,NA,"",       11.5701,       9.78372,       6.17629,   4.69761E-03
C:/temp/dataset/9/15_5.odb,Step-1,Increment      1: Step Time =    1.000,"PART-1-1",           350,      -5.93089,       17.7206,            0.,NA,NA,"",       13.3390,       12.8917,       3.42565,   2.64667E-03
C:/temp/dataset/9/15_5.odb,Step-1,Increment      1: Step Time =    1.000,"PART-1-1",           351,      -7.00986,       16.6597,            0.,NA,NA,"",       13.1788,       12.6118,       3.82418,   3.11232E-03
C:/temp/dataset/9/15_5.odb,Step-1,Increment      1: Step Time =    1.000,"PART-1-1",           352,      -6.07897,       15.1891,            0.,NA,NA,"",       12.6145,       12.0904,       3.59830,   4.07519E-03
C:/temp/dataset/9/15_5.odb,Step-1,Increment      1: Step Time =    1.000,"PART-1-1",           353,           -5.,         16.25,            0.,NA,NA,"",       12.7794,       12.3720,       3.20110,   4.38087E-03
C:/temp/dataset/9/15_5.odb,Step-1,Increment      1: Step Time =    1.000,"PART-1-1",           354,      -7.79966,       18.2865,            0.,NA,NA,"",       13.7649,       13.1721,       3.99588,   3.32526E-03
C:/temp/dataset/9/15_5.odb,Step-1,Increment      1: Step Time =    1.000,"PART-1-1",           355,      -6.65288,       19.1839,            0.,NA,NA,"",       13.8655,       13.3945,       3.58326,   3.50253E-03
C:/temp/dataset/9/15_5.odb,Step-1,Increment      1: Step Time =    1.000,"PART-1-1",           356,      -7.29668,       20.7472,            0.,NA,NA,"",       14.4127,       13.9267,       3.71127,   3.34704E-03
C:/temp/dataset/9/15_5.odb,Step-1,Increment      1: Step Time =    1.000,"PART-1-1",           357,      -8.44345,       19.8498,            0.,NA,NA,"",       14.3108,       13.7038,       4.12378,   3.04893E-03
C:/temp/dataset/9/15_5.odb,Step-1,Increment      1: Step Time =    1.000,"PART-1-1",           358,      -2.59303,       4.06073,            0.,NA,NA,"",       8.71690,       8.17465,       3.02646,   9.18176E-03
C:/temp/dataset/9/15_5.odb,Step-1,Increment      1: Step Time =    1.000,"PART-1-1",           359,      -1.46713,       2.91047,            0.,NA,NA,"",       8.19071,       7.72581,       2.72022,   6.95728E-03
C:/temp/dataset/9/15_5.odb,Step-1,Increment      1: Step Time =    1.000,"PART-1-1",           360,  -124.098E-03,       3.84974,            0.,NA,NA,"",       8.25912,       7.95024,       2.23760,   9.13974E-03
C:/temp/dataset/9/15_5.odb,Step-1,Increment      1: Step Time =    1.000,"PART-1-1",           361,         -1.25,            5.,            0.,NA,NA,"",       8.77434,       8.39758,       2.54355,   11.3986E-03
C:/temp/dataset/9/15_5.odb,Step-1,Increment      1: Step Time =    1.000,"PART-1-1",           362,      -11.2683,  -541.568E-03,            0.,NA,NA,"",       9.44537,       7.16524,       6.15422,   787.585E-06
C:/temp/dataset/9/15_5.odb,Step-1,Increment      1: Step Time =    1.000,"PART-1-1",           363,      -10.4743,   471.696E-03,            0.,NA,NA,"",       9.46742,       7.45841,       5.83130,   1.91180E-03
C:/temp/dataset/9/15_5.odb,Step-1,Increment      1: Step Time =    1.000,"PART-1-1",           364,      -11.9503,       1.36743,            0.,NA,NA,"",       10.0444,       7.84569,       6.27170,   2.02744E-03
C:/temp/dataset/9/15_5.odb,Step-1,Increment      1: Step Time =    1.000,"PART-1-1",           365,      -13.0095,       9.29789,            0.,NA,NA,"",       12.2356,       10.5702,       6.16281,   4.21065E-03
C:/temp/dataset/9/15_5.odb,Step-1,Increment      1: Step Time =    1.000,"PART-1-1",           366,      -14.0417,       10.3496,            0.,NA,NA,"",       12.7227,       10.9727,       6.43953,   5.61131E-03
C:/temp/dataset/9/15_5.odb,Step-1,Increment      1: Step Time =    1.000,"PART-1-1",           367,          -15.,       9.21875,            0.,NA,NA,"",       12.6529,       10.6578,       6.81971,   7.00514E-03
C:/temp/dataset/9/15_5.odb,Step-1,Increment      1: Step Time =    1.000,"PART-1-1",           368,      -6.40766,      -1.28741,            0.,NA,NA,"",       8.05899,       6.63315,       4.57697,   1.43574E-03
C:/temp/dataset/9/15_5.odb,Step-1,Increment      1: Step Time =    1.000,"PART-1-1",           369,      -5.35016,  -573.084E-03,            0.,NA,NA,"",       7.99233,       6.80831,       4.18621,   2.09561E-03
C:/temp/dataset/9/15_5.odb,Step-1,Increment      1: Step Time =    1.000,"PART-1-1",           370,      -6.23385,   230.463E-03,            0.,NA,NA,"",       8.39386,       7.12665,       4.43482,   2.86753E-03
C:/temp/dataset/9/15_5.odb,Step-1,Increment      1: Step Time =    1.000,"PART-1-1",           371,      -7.29135,  -483.859E-03,            0.,NA,NA,"",       8.46256,       6.95170,       4.82584,   2.16604E-03
C:/temp/dataset/9/15_5.odb,Step-1,Increment      1: Step Time =    1.000,"PART-1-1",           372,   952.242E-03,      -2.53706,            0.,NA,NA,"",       6.22060,       5.81006,       2.22242,   1.54621E-03
C:/temp/dataset/9/15_5.odb,Step-1,Increment      1: Step Time =    1.000,"PART-1-1",           373,  -130.910E-03,      -3.80019,            0.,NA,NA,"",       6.06421,       5.45605,       2.64691,   1.61044E-03
C:/temp/dataset/9/15_5.odb,Step-1,Increment      1: Step Time =    1.000,"PART-1-1",           374,          1.25,           -5.,            0.,NA,NA,"",       5.47812,       4.98937,       2.26187,   2.82610E-03
C:/temp/dataset/9/15_5.odb,Step-1,Increment      1: Step Time =    1.000,"PART-1-1",           375,       2.33315,      -3.73687,            0.,NA,NA,"",       5.65099,       5.34506,       1.83413,   3.01991E-03
C:/temp/dataset/9/15_5.odb,Step-1,Increment      1: Step Time =    1.000,"PART-1-1",           376,       4.26686,      -1.13377,            0.,NA,NA,"",       6.17246,       6.07754,       1.07829,   9.54510E-03
C:/temp/dataset/9/15_5.odb,Step-1,Increment      1: Step Time =    1.000,"PART-1-1",           377,       2.05254,      -1.20548,            0.,NA,NA,"",       6.43705,       6.18205,       1.79383,   3.13620E-03
C:/temp/dataset/9/15_5.odb,Step-1,Increment      1: Step Time =    1.000,"PART-1-1",           378,       3.27323,      -2.40335,            0.,NA,NA,"",       5.90751,       5.72536,       1.45565,   5.46005E-03
C:/temp/dataset/9/15_5.odb,Step-1,Increment      1: Step Time =    1.000,"PART-1-1",           379,       10.4325,       1.51548,            0.,NA,NA,"",       6.65873,       6.59000,  -954.243E-03,   8.38584E-03
C:/temp/dataset/9/15_5.odb,Step-1,Increment      1: Step Time =    1.000,"PART-1-1",           380,       11.3847,  -3.51279E-03,            0.,NA,NA,"",       6.16621,       6.05521,      -1.16471,   10.3598E-03
C:/temp/dataset/9/15_5.odb,Step-1,Increment      1: Step Time =    1.000,"PART-1-1",           381,       12.7244,       1.31309,            0.,NA,NA,"",       6.62293,       6.41222,      -1.65729,   9.86021E-03
C:/temp/dataset/9/15_5.odb,Step-1,Increment      1: Step Time =    1.000,"PART-1-1",           382,       11.7722,       2.83209,            0.,NA,NA,"",       7.09472,       6.94582,      -1.44591,   6.31545E-03
C:/temp/dataset/9/15_5.odb,Step-1,Increment      1: Step Time =    1.000,"PART-1-1",           383,       9.00808,      -7.25637,            0.,NA,NA,"",       3.90899,       3.90749,  -108.373E-03,   13.0651E-03
C:/temp/dataset/9/15_5.odb,Step-1,Increment      1: Step Time =    1.000,"PART-1-1",           384,       7.95196,      -6.36313,            0.,NA,NA,"",       4.21963,       4.21687,   152.830E-03,   15.6635E-03
C:/temp/dataset/9/15_5.odb,Step-1,Increment      1: Step Time =    1.000,"PART-1-1",           385,       7.00211,      -7.70397,            0.,NA,NA,"",       3.89216,       3.86565,   453.464E-03,   24.6221E-03
C:/temp/dataset/9/15_5.odb,Step-1,Increment      1: Step Time =    1.000,"PART-1-1",           386,       8.05823,      -8.59720,            0.,NA,NA,"",       3.56610,       3.56105,   189.669E-03,   18.7853E-03
C:/temp/dataset/9/15_5.odb,Step-1,Increment      1: Step Time =    1.000,"PART-1-1",           387,       7.09104,      -12.0381,            0.,NA,NA,"",       2.71392,       2.67037,   484.206E-03,   32.1086E-03
C:/temp/dataset/9/15_5.odb,Step-1,Increment      1: Step Time =    1.000,"PART-1-1",           388,       6.04129,      -11.1013,            0.,NA,NA,"",       3.05460,       2.96450,   736.422E-03,   40.3106E-03
C:/temp/dataset/9/15_5.odb,Step-1,Increment      1: Step Time =    1.000,"PART-1-1",           389,            5.,      -12.2917,            0.,NA,NA,"",       2.87757,       2.70544,   980.310E-03,   53.4157E-03
C:/temp/dataset/9/15_5.odb,Step-1,Increment      1: Step Time =    1.000,"PART-1-1",           390,       9.13117,      -18.4822,            0.,NA,NA,"",       1.16921,       1.16531,   95.3889E-03,   17.8080E-03
C:/temp/dataset/9/15_5.odb,Step-1,Increment      1: Step Time =    1.000,"PART-1-1",           391,       10.1297,      -19.6034,            0.,NA,NA,"",   950.327E-03,   948.869E-03,  -52.6245E-03,   11.2282E-03
C:/temp/dataset/9/15_5.odb,Step-1,Increment      1: Step Time =    1.000,"PART-1-1",           392,       11.1535,      -18.5257,            0.,NA,NA,"",       1.15180,       1.12656,  -239.828E-03,   17.9772E-03
C:/temp/dataset/9/15_5.odb,Step-1,Increment      1: Step Time =    1.000,"PART-1-1",           393,       10.1550,      -17.4045,            0.,NA,NA,"",       1.35470,       1.35142,  -94.1936E-03,   11.2132E-03
C:/temp/dataset/9/15_5.odb,Step-1,Increment      1: Step Time =    1.000,"PART-1-1",           394,       6.27183,       14.9637,            0.,NA,NA,"",       11.2225,       11.2175,  -334.751E-03,   2.20094E-03
C:/temp/dataset/9/15_5.odb,Step-1,Increment      1: Step Time =    1.000,"PART-1-1",           395,       7.52438,       16.1859,            0.,NA,NA,"",       11.5828,       11.5540,  -816.531E-03,   2.78201E-03
C:/temp/dataset/9/15_5.odb,Step-1,Increment      1: Step Time =    1.000,"PART-1-1",           396,            5.,         16.25,            0.,NA,NA,"",       11.7191,       11.7191,   15.6142E-03,   1.69256E-03
C:/temp/dataset/9/15_5.odb,Step-1,Increment      1: Step Time =    1.000,"PART-1-1",           397,       2.56719,       21.1071,            0.,NA,NA,"",       13.4937,       13.4835,   525.219E-03,   4.30983E-03
C:/temp/dataset/9/15_5.odb,Step-1,Increment      1: Step Time =    1.000,"PART-1-1",           398,       1.41709,       22.2600,            0.,NA,NA,"",       13.9506,       13.9255,   835.919E-03,   3.23415E-03
C:/temp/dataset/9/15_5.odb,Step-1,Increment      1: Step Time =    1.000,"PART-1-1",           399,   99.9026E-03,       21.1528,            0.,NA,NA,"",       13.7044,       13.6407,       1.31968,   4.05141E-03
C:/temp/dataset/9/15_5.odb,Step-1,Increment      1: Step Time =    1.000,"PART-1-1",           400,          1.25,           20.,            0.,NA,NA,"",       13.2382,       13.1998,       1.00841,   5.08678E-03
C:/temp/dataset/9/15_5.odb,Step-1,Increment      1: Step Time =    1.000,"PART-1-1",           401,       7.55593,       13.6250,            0.,NA,NA,"",       10.7213,       10.6995,  -683.453E-03,   2.92445E-03
C:/temp/dataset/9/15_5.odb,Step-1,Increment      1: Step Time =    1.000,"PART-1-1",           402,            5.,         13.75,            0.,NA,NA,"",       10.8878,       10.8867,   151.751E-03,   3.52892E-03
C:/temp/dataset/9/15_5.odb,Step-1,Increment      1: Step Time =    1.000,"PART-1-1",           403,       8.77818,       14.9146,            0.,NA,NA,"",       11.1205,       11.0602,      -1.15697,   2.92440E-03
C:/temp/dataset/9/15_5.odb,Step-1,Increment      1: Step Time =    1.000,"PART-1-1",           404,       10.0010,       16.1752,            0.,NA,NA,"",       11.5278,       11.4119,      -1.63037,   3.19620E-03
C:/temp/dataset/9/15_5.odb,Step-1,Increment      1: Step Time =    1.000,"PART-1-1",           405,       8.74716,       17.4465,            0.,NA,NA,"",       11.9755,       11.9058,      -1.29074,   3.13662E-03
C:/temp/dataset/9/15_5.odb,Step-1,Increment      1: Step Time =    1.000,"PART-1-1",           406,       10.1219,       5.90684,            0.,NA,NA,"",       8.09736,       8.02340,      -1.09190,   2.90309E-03
C:/temp/dataset/9/15_5.odb,Step-1,Increment      1: Step Time =    1.000,"PART-1-1",           407,       8.94830,       5.07672,            0.,NA,NA,"",       7.84645,       7.81745,  -674.010E-03,   4.06105E-03
C:/temp/dataset/9/15_5.odb,Step-1,Increment      1: Step Time =    1.000,"PART-1-1",           408,       9.72441,       3.42413,            0.,NA,NA,"",       7.29019,       7.24236,  -833.695E-03,   5.41081E-03
C:/temp/dataset/9/15_5.odb,Step-1,Increment      1: Step Time =    1.000,"PART-1-1",           409,       10.8980,       4.25426,            0.,NA,NA,"",       7.55253,       7.44857,      -1.24881,   4.59536E-03
C:/temp/dataset/9/15_5.odb,Step-1,Increment      1: Step Time =    1.000,"PART-1-1",           410,       8.15250,       6.68373,            0.,NA,NA,"",       8.39540,       8.38029,  -503.440E-03,   3.39097E-03
C:/temp/dataset/9/15_5.odb,Step-1,Increment      1: Step Time =    1.000,"PART-1-1",           411,       9.64075,       7.71724,            0.,NA,NA,"",       8.69915,       8.63719,      -1.03642,   2.93479E-03
C:/temp/dataset/9/15_5.odb,Step-1,Increment      1: Step Time =    1.000,"PART-1-1",           412,       8.79696,       9.37373,            0.,NA,NA,"",       9.26426,       9.22476,  -854.613E-03,   3.19845E-03
C:/temp/dataset/9/15_5.odb,Step-1,Increment      1: Step Time =    1.000,"PART-1-1",           413,   959.485E-03,       2.63099,            0.,NA,NA,"",       7.73850,       7.48870,       1.95032,   6.74280E-03
C:/temp/dataset/9/15_5.odb,Step-1,Increment      1: Step Time =    1.000,"PART-1-1",           414,       2.33358,       3.78125,            0.,NA,NA,"",       7.91330,       7.77832,       1.45534,   8.95329E-03
C:/temp/dataset/9/15_5.odb,Step-1,Increment      1: Step Time =    1.000,"PART-1-1",           415,          1.25,            5.,            0.,NA,NA,"",       8.41965,       8.23781,       1.74038,   11.5367E-03
C:/temp/dataset/9/15_5.odb,Step-1,Increment      1: Step Time =    1.000,"PART-1-1",           416,      -9.23288,       7.29816,            0.,NA,NA,"",       10.9174,       9.68611,       5.03676,   5.04603E-03
C:/temp/dataset/9/15_5.odb,Step-1,Increment      1: Step Time =    1.000,"PART-1-1",           417,      -8.32915,       6.01548,            0.,NA,NA,"",       10.3827,       9.20079,       4.81096,   6.58549E-03
C:/temp/dataset/9/15_5.odb,Step-1,Increment      1: Step Time =    1.000,"PART-1-1",           418,      -7.21136,       6.82340,            0.,NA,NA,"",       10.3846,       9.40721,       4.39812,   5.40785E-03
C:/temp/dataset/9/15_5.odb,Step-1,Increment      1: Step Time =    1.000,"PART-1-1",           419,      -8.11509,       8.10607,            0.,NA,NA,"",       10.9193,       9.89143,       4.62506,   4.01451E-03
C:/temp/dataset/9/15_5.odb,Step-1,Increment      1: Step Time =    1.000,"PART-1-1",           420,      -13.1318,       11.4675,            0.,NA,NA,"",       12.8178,       11.2832,       6.08149,   3.96217E-03
C:/temp/dataset/9/15_5.odb,Step-1,Increment      1: Step Time =    1.000,"PART-1-1",           421,      -14.0901,       12.5242,            0.,NA,NA,"",       13.2814,       11.6739,       6.33362,   5.03715E-03
C:/temp/dataset/9/15_5.odb,Step-1,Increment      1: Step Time =    1.000,"PART-1-1",           422,          -15.,       11.4063,            0.,NA,NA,"",       13.1889,       11.3671,       6.68865,   7.00054E-03
C:/temp/dataset/9/15_5.odb,Step-1,Increment      1: Step Time =    1.000,"PART-1-1",           423,      -9.35396,       14.3983,            0.,NA,NA,"",       12.9016,       12.0163,       4.69689,   3.03914E-03
C:/temp/dataset/9/15_5.odb,Step-1,Increment      1: Step Time =    1.000,"PART-1-1",           424,      -10.5094,       15.3924,            0.,NA,NA,"",       13.3744,       12.3968,       5.01929,   3.21566E-03
C:/temp/dataset/9/15_5.odb,Step-1,Increment      1: Step Time =    1.000,"PART-1-1",           425,      -11.3610,       13.8160,            0.,NA,NA,"",       13.0950,       11.9392,       5.37909,   3.19156E-03
C:/temp/dataset/9/15_5.odb,Step-1,Increment      1: Step Time =    1.000,"PART-1-1",           426,      -10.2056,       12.8219,            0.,NA,NA,"",       12.6145,       11.5567,       5.05642,   2.84611E-03
C:/temp/dataset/9/15_5.odb,Step-1,Increment      1: Step Time =    1.000,"PART-1-1",           427,      -14.0810,       18.8007,            0.,NA,NA,"",       14.9242,       13.6702,       5.98803,   1.35367E-03
C:/temp/dataset/9/15_5.odb,Step-1,Increment      1: Step Time =    1.000,"PART-1-1",           428,          -15.,       17.9688,            0.,NA,NA,"",       14.8661,       13.4529,       6.32613,   1.74982E-03
C:/temp/dataset/9/15_5.odb,Step-1,Increment      1: Step Time =    1.000,"PART-1-1",           429,      -14.2329,       16.7349,            0.,NA,NA,"",       14.3988,       13.0205,       6.14737,   2.28205E-03
C:/temp/dataset/9/15_5.odb,Step-1,Increment      1: Step Time =    1.000,"PART-1-1",           430,      -13.3139,       17.5668,            0.,NA,NA,"",       14.4557,       13.2376,       5.80795,   2.11421E-03
C:/temp/dataset/9/15_5.odb,Step-1,Increment      1: Step Time =    1.000,"PART-1-1",           431,      -12.9537,       19.5700,            0.,NA,NA,"",       14.9399,       13.8561,       5.58630,   1.53967E-03
C:/temp/dataset/9/15_5.odb,Step-1,Increment      1: Step Time =    1.000,"PART-1-1",           432,      -13.8727,       20.9255,            0.,NA,NA,"",       15.4684,       14.3361,       5.80927,   695.267E-06
C:/temp/dataset/9/15_5.odb,Step-1,Increment      1: Step Time =    1.000,"PART-1-1",           433,          -15.,       20.1563,            0.,NA,NA,"",       15.4524,       14.1497,       6.20983,   697.790E-06
C:/temp/dataset/9/15_5.odb,Step-1,Increment      1: Step Time =    1.000,"PART-1-1",           434,       1.76445,       24.7908,            0.,NA,NA,"",       14.7420,       14.7303,   587.114E-03,   1.07567E-03
C:/temp/dataset/9/15_5.odb,Step-1,Increment      1: Step Time =    1.000,"PART-1-1",           435,       1.36974,       27.3866,            0.,NA,NA,"",       15.6067,       15.5962,   573.969E-03,   661.352E-06
C:/temp/dataset/9/15_5.odb,Step-1,Increment      1: Step Time =    1.000,"PART-1-1",           436,   176.493E-03,       26.0346,            0.,NA,NA,"",       15.2566,       15.2214,       1.03477,   511.724E-06
C:/temp/dataset/9/15_5.odb,Step-1,Increment      1: Step Time =    1.000,"PART-1-1",           437,       7.39460,       20.9669,            0.,NA,NA,"",       13.1980,       13.1566,      -1.04392,   2.91245E-03
C:/temp/dataset/9/15_5.odb,Step-1,Increment      1: Step Time =    1.000,"PART-1-1",           438,       8.70526,       19.9066,            0.,NA,NA,"",       12.8070,       12.7285,      -1.41598,   2.82066E-03
C:/temp/dataset/9/15_5.odb,Step-1,Increment      1: Step Time =    1.000,"PART-1-1",           439,       9.85134,       21.1719,            0.,NA,NA,"",       13.2153,       13.0832,      -1.86383,   1.70189E-03
C:/temp/dataset/9/15_5.odb,Step-1,Increment      1: Step Time =    1.000,"PART-1-1",           440,       8.54068,       22.2321,            0.,NA,NA,"",       13.5913,       13.5093,      -1.49100,   1.80919E-03
C:/temp/dataset/9/15_5.odb,Step-1,Increment      1: Step Time =    1.000,"PART-1-1",           441,       4.10864,       24.1658,            0.,NA,NA,"",       14.3971,       14.3964,  -142.164E-03,   1.10596E-03
C:/temp/dataset/9/15_5.odb,Step-1,Increment      1: Step Time =    1.000,"PART-1-1",           442,       5.90921,       23.8009,            0.,NA,NA,"",       14.1936,       14.1757,  -711.715E-03,   1.27998E-03
C:/temp/dataset/9/15_5.odb,Step-1,Increment      1: Step Time =    1.000,"PART-1-1",           443,       6.25965,       24.9450,            0.,NA,NA,"",       14.5583,       14.5311,  -889.920E-03,   949.516E-06
C:/temp/dataset/9/15_5.odb,Step-1,Increment      1: Step Time =    1.000,"PART-1-1",           444,   19.2837E-03,       28.6494,            0.,NA,NA,"",       16.1055,       16.0779,   943.460E-03,   1.48438E-03
C:/temp/dataset/9/15_5.odb,Step-1,Increment      1: Step Time =    1.000,"PART-1-1",           445,       2.60045,       28.7372,            0.,NA,NA,"",       15.9700,       15.9697,   98.8312E-03,   1.63729E-03
C:/temp/dataset/9/15_5.odb,Step-1,Increment      1: Step Time =    1.000,"PART-1-1",           446,          1.25,           30.,            0.,NA,NA,"",       16.4580,       16.4513,   469.213E-03,   2.49346E-03
C:/temp/dataset/9/15_5.odb,Step-1,Increment      1: Step Time =    1.000,"PART-1-1",           447,      -7.67774,       29.0428,            0.,NA,NA,"",       16.9514,       16.6067,       3.40127,   649.069E-06
C:/temp/dataset/9/15_5.odb,Step-1,Increment      1: Step Time =    1.000,"PART-1-1",           448,      -6.68998,       27.9093,            0.,NA,NA,"",       16.4939,       16.1913,       3.14495,   702.535E-06
C:/temp/dataset/9/15_5.odb,Step-1,Increment      1: Step Time =    1.000,"PART-1-1",           449,         -6.25,           30.,            0.,NA,NA,"",       17.0860,       16.8393,       2.89251,   1.18355E-03
C:/temp/dataset/9/15_5.odb,Step-1,Increment      1: Step Time =    1.000,"PART-1-1",           450,      -12.1701,       26.6384,            0.,NA,NA,"",       16.8215,       16.0719,       4.96551,   225.192E-06
C:/temp/dataset/9/15_5.odb,Step-1,Increment      1: Step Time =    1.000,"PART-1-1",           451,      -13.7206,       27.8542,            0.,NA,NA,"",       17.4009,       16.5426,       5.39751,   148.300E-06
C:/temp/dataset/9/15_5.odb,Step-1,Increment      1: Step Time =    1.000,"PART-1-1",           452,          -15.,       26.7188,            0.,NA,NA,"",       17.2732,       16.2465,       5.86642,   150.278E-06
C:/temp/dataset/9/15_5.odb,Step-1,Increment      1: Step Time =    1.000,"PART-1-1",           453,        -13.75,           30.,            0.,NA,NA,"",       18.0258,       17.2309,       5.29410,   37.4080E-06
C:/temp/dataset/9/15_5.odb,Step-1,Increment      1: Step Time =    1.000,"PART-1-1",           454,          -15.,       28.9063,            0.,NA,NA,"",       17.8960,       16.9466,       5.75155,   31.6144E-06
C:/temp/dataset/9/15_5.odb,Step-1,Increment      1: Step Time =    1.000,"PART-1-1",           455,      -9.01567,       28.1413,            0.,NA,NA,"",       16.8401,       16.3877,       3.87739,   487.464E-06
C:/temp/dataset/9/15_5.odb,Step-1,Increment      1: Step Time =    1.000,"PART-1-1",           456,         -8.75,           30.,            0.,NA,NA,"",       17.3666,       16.9692,       3.69404,   643.221E-06
C:/temp/dataset/9/15_5.odb,Step-1,Increment      1: Step Time =    1.000,"PART-1-1",           457,      -10.9923,       18.6369,            0.,NA,NA,"",       14.3562,       13.4554,       5.00520,   2.57215E-03
C:/temp/dataset/9/15_5.odb,Step-1,Increment      1: Step Time =    1.000,"PART-1-1",           458,      -11.7056,       20.1347,            0.,NA,NA,"",       14.8912,       13.9699,       5.15637,   1.79642E-03
C:/temp/dataset/9/15_5.odb,Step-1,Increment      1: Step Time =    1.000,"PART-1-1",           459,      -12.2405,       18.0722,            0.,NA,NA,"",       14.4070,       13.3420,       5.43627,   2.26513E-03
C:/temp/dataset/9/15_5.odb,Step-1,Increment      1: Step Time =    1.000,"PART-1-1",           460,      -11.7153,       17.0060,            0.,NA,NA,"",       14.0248,       12.9751,       5.32359,   2.75801E-03
C:/temp/dataset/9/15_5.odb,Step-1,Increment      1: Step Time =    1.000,"PART-1-1",           461,      -12.7888,       16.5007,            0.,NA,NA,"",       14.0750,       12.8708,       5.69627,   2.57663E-03
C:/temp/dataset/9/15_5.odb,Step-1,Increment      1: Step Time =    1.000,"PART-1-1",           462,      -13.2634,       13.5986,            0.,NA,NA,"",       13.3944,       11.9718,       6.00722,   4.19784E-03
C:/temp/dataset/9/15_5.odb,Step-1,Increment      1: Step Time =    1.000,"PART-1-1",           463,      -14.1733,       14.6682,            0.,NA,NA,"",       13.8456,       12.3592,       6.24107,   3.44309E-03
C:/temp/dataset/9/15_5.odb,Step-1,Increment      1: Step Time =    1.000,"PART-1-1",           464,          -15.,       13.5938,            0.,NA,NA,"",       13.7307,       12.0592,       6.56565,   4.17229E-03
C:/temp/dataset/9/15_5.odb,Step-1,Increment      1: Step Time =    1.000,"PART-1-1",           465,      -6.04154,       10.1420,            0.,NA,NA,"",       11.1290,       10.4469,       3.83622,   6.01273E-03
C:/temp/dataset/9/15_5.odb,Step-1,Increment      1: Step Time =    1.000,"PART-1-1",           466,      -7.09581,       9.10381,            0.,NA,NA,"",       11.0119,       10.1644,       4.23615,   4.03534E-03
C:/temp/dataset/9/15_5.odb,Step-1,Increment      1: Step Time =    1.000,"PART-1-1",           467,      -6.05428,       7.71180,            0.,NA,NA,"",       10.4226,       9.63844,       3.96630,   5.38063E-03
C:/temp/dataset/9/15_5.odb,Step-1,Increment      1: Step Time =    1.000,"PART-1-1",           468,           -5.,          8.75,            0.,NA,NA,"",       10.5438,       9.92346,       3.56340,   7.63830E-03
C:/temp/dataset/9/15_5.odb,Step-1,Increment      1: Step Time =    1.000,"PART-1-1",           469,      -6.15708,       5.36159,            0.,NA,NA,"",       9.76340,       8.84638,       4.13103,   8.31977E-03
C:/temp/dataset/9/15_5.odb,Step-1,Increment      1: Step Time =    1.000,"PART-1-1",           470,           -5.,          6.25,            0.,NA,NA,"",       9.80266,       9.08079,       3.69206,   5.95146E-03
C:/temp/dataset/9/15_5.odb,Step-1,Increment      1: Step Time =    1.000,"PART-1-1",           471,      -13.8567,       3.63033,            0.,NA,NA,"",       11.0442,       8.72230,       6.77461,   3.89397E-03
C:/temp/dataset/9/15_5.odb,Step-1,Increment      1: Step Time =    1.000,"PART-1-1",           472,      -12.5372,       4.63979,            0.,NA,NA,"",       10.9608,       8.98636,       6.27565,   5.32625E-03
C:/temp/dataset/9/15_5.odb,Step-1,Increment      1: Step Time =    1.000,"PART-1-1",           473,          -15.,       4.84375,            0.,NA,NA,"",       11.6164,       9.20456,       7.08632,   4.59133E-03
C:/temp/dataset/9/15_5.odb,Step-1,Increment      1: Step Time =    1.000,"PART-1-1",           474,      -12.7859,       2.45238,            0.,NA,NA,"",       10.5032,       8.26048,       6.48702,   3.20868E-03
C:/temp/dataset/9/15_5.odb,Step-1,Increment      1: Step Time =    1.000,"PART-1-1",           475,          -15.,       2.65625,            0.,NA,NA,"",       11.1207,       8.45850,       7.21973,   350.527E-06
C:/temp/dataset/9/15_5.odb,Step-1,Increment      1: Step Time =    1.000,"PART-1-1",           476,      -13.7683,      -2.81830,            0.,NA,NA,"",       9.67466,       6.54841,       7.12161,   352.998E-06
C:/temp/dataset/9/15_5.odb,Step-1,Increment      1: Step Time =    1.000,"PART-1-1",           477,          -15.,      -3.90625,            0.,NA,NA,"",       9.84050,       6.25565,       7.59620,   104.360E-06
C:/temp/dataset/9/15_5.odb,Step-1,Increment      1: Step Time =    1.000,"PART-1-1",           478,        -13.75,           -5.,            0.,NA,NA,"",       9.28864,       5.81781,       7.24099,   123.943E-06
C:/temp/dataset/9/15_5.odb,Step-1,Increment      1: Step Time =    1.000,"PART-1-1",           479,      -12.5183,      -3.91205,            0.,NA,NA,"",       9.11705,       6.11076,       6.76604,   339.579E-06
C:/temp/dataset/9/15_5.odb,Step-1,Increment      1: Step Time =    1.000,"PART-1-1",           480,      -3.91473,      -3.03803,            0.,NA,NA,"",       7.05505,       5.91277,       3.84875,   779.205E-06
C:/temp/dataset/9/15_5.odb,Step-1,Increment      1: Step Time =    1.000,"PART-1-1",           481,      -5.07319,      -4.05962,            0.,NA,NA,"",       7.08618,       5.63982,       4.29026,   1.40217E-03
C:/temp/dataset/9/15_5.odb,Step-1,Increment      1: Step Time =    1.000,"PART-1-1",           482,         -3.75,           -5.,            0.,NA,NA,"",       6.54886,       5.25690,       3.90545,   2.47809E-03
C:/temp/dataset/9/15_5.odb,Step-1,Increment      1: Step Time =    1.000,"PART-1-1",           483,      -2.59153,      -3.97841,            0.,NA,NA,"",       6.52622,       5.53049,       3.46486,   1.70660E-03
C:/temp/dataset/9/15_5.odb,Step-1,Increment      1: Step Time =    1.000,"PART-1-1",           484,   563.435E-03,   72.7383E-03,            0.,NA,NA,"",       7.03685,       6.68084,       2.20991,   3.12286E-03
C:/temp/dataset/9/15_5.odb,Step-1,Increment      1: Step Time =    1.000,"PART-1-1",           485,  -536.863E-03,      -1.25885,            0.,NA,NA,"",       6.83864,       6.30877,       2.63940,   829.536E-06
C:/temp/dataset/9/15_5.odb,Step-1,Increment      1: Step Time =    1.000,"PART-1-1",           486,       7.06616,      -9.87010,            0.,NA,NA,"",       3.28375,       3.24968,   471.775E-03,   28.9727E-03
C:/temp/dataset/9/15_5.odb,Step-1,Increment      1: Step Time =    1.000,"PART-1-1",           487,       6.02487,      -8.97716,            0.,NA,NA,"",       3.62565,       3.55069,   733.413E-03,   36.3052E-03
C:/temp/dataset/9/15_5.odb,Step-1,Increment      1: Step Time =    1.000,"PART-1-1",           488,            5.,      -10.2083,            0.,NA,NA,"",       3.41223,       3.26144,       1.00316,   47.8236E-03
C:/temp/dataset/9/15_5.odb,Step-1,Increment      1: Step Time =    1.000,"PART-1-1",           489,       13.0743,      -11.4048,            0.,NA,NA,"",       2.82607,       2.65415,  -970.637E-03,   31.2976E-03
C:/temp/dataset/9/15_5.odb,Step-1,Increment      1: Step Time =    1.000,"PART-1-1",           490,       14.0423,      -12.5586,            0.,NA,NA,"",       2.61819,       2.35869,      -1.13646,   42.8553E-03
C:/temp/dataset/9/15_5.odb,Step-1,Increment      1: Step Time =    1.000,"PART-1-1",           491,           15.,        -11.25,            0.,NA,NA,"",       3.04558,       2.66459,      -1.47496,   49.8078E-03
C:/temp/dataset/9/15_5.odb,Step-1,Increment      1: Step Time =    1.000,"PART-1-1",           492,       14.0319,      -10.0962,            0.,NA,NA,"",       3.24389,       2.97087,      -1.30258,   37.6372E-03
C:/temp/dataset/9/15_5.odb,Step-1,Increment      1: Step Time =    1.000,"PART-1-1",           493,       7.09943,      -16.3632,            0.,NA,NA,"",       1.71238,       1.64753,   466.792E-03,   38.8403E-03
C:/temp/dataset/9/15_5.odb,Step-1,Increment      1: Step Time =    1.000,"PART-1-1",           494,            5.,      -16.4583,            0.,NA,NA,"",       1.92524,       1.71583,   873.198E-03,   64.4855E-03
C:/temp/dataset/9/15_5.odb,Step-1,Increment      1: Step Time =    1.000,"PART-1-1",           495,       13.0966,      -13.8278,            0.,NA,NA,"",       2.23448,       2.07340,  -832.998E-03,   35.0848E-03
C:/temp/dataset/9/15_5.odb,Step-1,Increment      1: Step Time =    1.000,"PART-1-1",           496,       14.0543,      -15.0192,            0.,NA,NA,"",       2.05045,       1.80469,  -973.357E-03,   48.0087E-03
C:/temp/dataset/9/15_5.odb,Step-1,Increment      1: Step Time =    1.000,"PART-1-1",           497,           15.,        -13.75,            0.,NA,NA,"",       2.44256,       2.07869,      -1.28263,   56.2799E-03
C:/temp/dataset/9/15_5.odb,Step-1,Increment      1: Step Time =    1.000,"PART-1-1",           498,       13.0974,      -18.6352,            0.,NA,NA,"",       1.23851,       1.10153,  -566.169E-03,   42.2027E-03
C:/temp/dataset/9/15_5.odb,Step-1,Increment      1: Step Time =    1.000,"PART-1-1",           499,       14.0421,      -19.9133,            0.,NA,NA,"",       1.10812,   897.623E-03,  -649.769E-03,   57.7786E-03
C:/temp/dataset/9/15_5.odb,Step-1,Increment      1: Step Time =    1.000,"PART-1-1",           500,           15.,        -18.75,            0.,NA,NA,"",       1.42036,       1.10015,  -898.384E-03,   68.9769E-03
C:/temp/dataset/9/15_5.odb,Step-1,Increment      1: Step Time =    1.000,"PART-1-1",           501,       14.0553,      -17.4719,            0.,NA,NA,"",       1.54567,       1.31576,  -811.099E-03,   53.0156E-03
C:/temp/dataset/9/15_5.odb,Step-1,Increment      1: Step Time =    1.000,"PART-1-1",           502,       7.12541,      -22.7005,            0.,NA,NA,"",   626.773E-03,   543.043E-03,   312.968E-03,   48.4963E-03
C:/temp/dataset/9/15_5.odb,Step-1,Increment      1: Step Time =    1.000,"PART-1-1",           503,       6.04628,      -21.6612,            0.,NA,NA,"",   870.637E-03,   722.629E-03,   485.609E-03,   62.5452E-03
C:/temp/dataset/9/15_5.odb,Step-1,Increment      1: Step Time =    1.000,"PART-1-1",           504,            5.,      -22.7083,            0.,NA,NA,"",   832.155E-03,   616.995E-03,   558.389E-03,   80.7057E-03
C:/temp/dataset/9/15_5.odb,Step-1,Increment      1: Step Time =    1.000,"PART-1-1",           505,       6.07914,      -23.7476,            0.,NA,NA,"",   585.370E-03,   446.516E-03,   378.524E-03,   66.3671E-03
C:/temp/dataset/9/15_5.odb,Step-1,Increment      1: Step Time =    1.000,"PART-1-1",           506,       6.22304,      -27.8948,            0.,NA,NA,"",   153.569E-03,   90.1349E-03,   124.335E-03,   72.7577E-03
C:/temp/dataset/9/15_5.odb,Step-1,Increment      1: Step Time =    1.000,"PART-1-1",           507,            5.,      -28.9583,            0.,NA,NA,"",   118.902E-03,   78.2208E-03,   89.5496E-03,   97.8777E-03
C:/temp/dataset/9/15_5.odb,Step-1,Increment      1: Step Time =    1.000,"PART-1-1",           508,          6.25,          -30.,            0.,NA,NA,"",            0.,  -951.854E-42,   108.233E-39,   70.2332E-03
C:/temp/dataset/9/15_5.odb,Step-1,Increment      1: Step Time =    1.000,"PART-1-1",           509,       9.78444,      -26.6535,            0.,NA,NA,"",   102.023E-03,   100.915E-03,   14.9978E-03,   13.9998E-03
C:/temp/dataset/9/15_5.odb,Step-1,Increment      1: Step Time =    1.000,"PART-1-1",           510,       8.47427,      -25.6871,            0.,NA,NA,"",   215.598E-03,   189.067E-03,   103.616E-03,   32.0913E-03
C:/temp/dataset/9/15_5.odb,Step-1,Increment      1: Step Time =    1.000,"PART-1-1",           511,       7.37694,      -26.8334,            0.,NA,NA,"",   179.805E-03,   125.024E-03,   129.224E-03,   50.6454E-03
C:/temp/dataset/9/15_5.odb,Step-1,Increment      1: Step Time =    1.000,"PART-1-1",           512,       13.7223,      -27.5034,            0.,NA,NA,"",   166.319E-03,   88.0322E-03,  -141.111E-03,   68.3105E-03
C:/temp/dataset/9/15_5.odb,Step-1,Increment      1: Step Time =    1.000,"PART-1-1",           513,       12.4723,      -28.7534,            0.,NA,NA,"",   41.0928E-03,   10.3613E-03,  -39.7650E-03,   39.1606E-03
C:/temp/dataset/9/15_5.odb,Step-1,Increment      1: Step Time =    1.000,"PART-1-1",           514,         13.75,          -30.,            0.,NA,NA,"",            0.,  -8.81823E-39,  -106.463E-39,   65.7030E-03
C:/temp/dataset/9/15_5.odb,Step-1,Increment      1: Step Time =    1.000,"PART-1-1",           515,           15.,        -28.75,            0.,NA,NA,"",   129.767E-03,   78.6209E-03,  -103.239E-03,   92.8175E-03
C:/temp/dataset/9/15_5.odb,Step-1,Increment      1: Step Time =    1.000,"PART-1-1",           516,         11.25,          -30.,            0.,NA,NA,"",            0.,  -10.1172E-39,  -36.6909E-39,   18.9332E-03
C:/temp/dataset/9/15_5.odb,Step-1,Increment      1: Step Time =    1.000,"PART-1-1",           517,       11.1864,      -27.6167,            0.,NA,NA,"",   57.7164E-03,   45.0275E-03,  -36.1069E-03,   22.4744E-03
C:/temp/dataset/9/15_5.odb,Step-1,Increment      1: Step Time =    1.000,"PART-1-1",           518,       9.10684,      -20.5966,            0.,NA,NA,"",   808.468E-03,   801.959E-03,   102.383E-03,   19.1292E-03
C:/temp/dataset/9/15_5.odb,Step-1,Increment      1: Step Time =    1.000,"PART-1-1",           519,       11.0993,      -20.6881,            0.,NA,NA,"",   783.916E-03,   764.589E-03,  -172.998E-03,   18.1355E-03
C:/temp/dataset/9/15_5.odb,Step-1,Increment      1: Step Time =    1.000,"PART-1-1",           520,       7.08739,      -20.6083,            0.,NA,NA,"",   932.355E-03,   849.784E-03,   383.605E-03,   45.7164E-03
C:/temp/dataset/9/15_5.odb,Step-1,Increment      1: Step Time =    1.000,"PART-1-1",           521,            5.,       -20.625,            0.,NA,NA,"",       1.14969,   924.839E-03,   682.972E-03,   75.4082E-03
C:/temp/dataset/9/15_5.odb,Step-1,Increment      1: Step Time =    1.000,"PART-1-1",           522,       9.14341,      -14.0595,            0.,NA,NA,"",       2.09845,       2.09799,   43.8079E-03,   15.7785E-03
C:/temp/dataset/9/15_5.odb,Step-1,Increment      1: Step Time =    1.000,"PART-1-1",           523,       10.1582,      -15.1431,            0.,NA,NA,"",       1.83038,       1.82457,  -145.687E-03,   11.2030E-03
C:/temp/dataset/9/15_5.odb,Step-1,Increment      1: Step Time =    1.000,"PART-1-1",           524,       11.1509,      -13.9343,            0.,NA,NA,"",       2.11531,       2.07823,  -394.309E-03,   16.3575E-03
C:/temp/dataset/9/15_5.odb,Step-1,Increment      1: Step Time =    1.000,"PART-1-1",           525,       10.1361,      -12.8507,            0.,NA,NA,"",       2.36900,       2.36011,  -205.097E-03,   11.1849E-03
C:/temp/dataset/9/15_5.odb,Step-1,Increment      1: Step Time =    1.000,"PART-1-1",           526,       9.12292,      -11.8044,            0.,NA,NA,"",       2.65285,       2.65285,   1.31083E-03,   14.8815E-03
C:/temp/dataset/9/15_5.odb,Step-1,Increment      1: Step Time =    1.000,"PART-1-1",           527,       11.1213,      -11.5948,            0.,NA,NA,"",       2.69146,       2.64793,  -482.094E-03,   15.5133E-03
C:/temp/dataset/9/15_5.odb,Step-1,Increment      1: Step Time =    1.000,"PART-1-1",           528,       10.1081,      -10.5485,            0.,NA,NA,"",       2.96132,       2.94848,  -275.435E-03,   11.2058E-03
C:/temp/dataset/9/15_5.odb,Step-1,Increment      1: Step Time =    1.000,"PART-1-1",           529,       13.8169,  -7.21098E-03,            0.,NA,NA,"",       6.24443,       5.94201,      -1.91976,   12.9486E-03
C:/temp/dataset/9/15_5.odb,Step-1,Increment      1: Step Time =    1.000,"PART-1-1",           530,           15.,          1.25,            0.,NA,NA,"",       6.71939,       6.28507,      -2.37656,   13.1616E-03
C:/temp/dataset/9/15_5.odb,Step-1,Increment      1: Step Time =    1.000,"PART-1-1",           531,       13.9075,       2.57030,            0.,NA,NA,"",       7.07838,       6.75709,      -2.10835,   9.09868E-03
C:/temp/dataset/9/15_5.odb,Step-1,Increment      1: Step Time =    1.000,"PART-1-1",           532,       10.8083,      -4.35361,            0.,NA,NA,"",       4.76859,       4.70912,  -750.783E-03,   15.2859E-03
C:/temp/dataset/9/15_5.odb,Step-1,Increment      1: Step Time =    1.000,"PART-1-1",           533,       9.68548,      -3.40243,            0.,NA,NA,"",       5.07547,       5.05337,  -473.139E-03,   14.5916E-03
C:/temp/dataset/9/15_5.odb,Step-1,Increment      1: Step Time =    1.000,"PART-1-1",           534,       8.81587,      -4.92348,            0.,NA,NA,"",       4.61955,       4.61711,  -149.969E-03,   14.9226E-03
C:/temp/dataset/9/15_5.odb,Step-1,Increment      1: Step Time =    1.000,"PART-1-1",           535,       9.93870,      -5.87466,            0.,NA,NA,"",       4.30124,       4.28014,  -425.457E-03,   13.3650E-03
C:/temp/dataset/9/15_5.odb,Step-1,Increment      1: Step Time =    1.000,"PART-1-1",           536,       10.7940,       8.23694,            0.,NA,NA,"",       8.86300,       8.74567,      -1.43739,   3.26218E-03
C:/temp/dataset/9/15_5.odb,Step-1,Increment      1: Step Time =    1.000,"PART-1-1",           537,       11.2752,       6.42654,            0.,NA,NA,"",       8.26688,       8.13143,      -1.49034,   3.66970E-03
C:/temp/dataset/9/15_5.odb,Step-1,Increment      1: Step Time =    1.000,"PART-1-1",           538,       12.8821,       8.67106,            0.,NA,NA,"",       9.03451,       8.77750,      -2.13959,   4.50966E-03
C:/temp/dataset/9/15_5.odb,Step-1,Increment      1: Step Time =    1.000,"PART-1-1",           539,       14.0355,       7.50951,            0.,NA,NA,"",       8.69111,       8.33969,      -2.44639,   6.01899E-03
C:/temp/dataset/9/15_5.odb,Step-1,Increment      1: Step Time =    1.000,"PART-1-1",           540,           15.,          8.75,            0.,NA,NA,"",       9.14339,       8.69237,      -2.83624,   6.52467E-03
C:/temp/dataset/9/15_5.odb,Step-1,Increment      1: Step Time =    1.000,"PART-1-1",           541,       13.8467,       9.91155,            0.,NA,NA,"",       9.47525,       9.13184,      -2.52781,   4.78130E-03
C:/temp/dataset/9/15_5.odb,Step-1,Increment      1: Step Time =    1.000,"PART-1-1",           542,       12.4850,       16.2122,            0.,NA,NA,"",       11.5492,       11.2864,      -2.44949,   2.50680E-03
C:/temp/dataset/9/15_5.odb,Step-1,Increment      1: Step Time =    1.000,"PART-1-1",           543,       13.7431,       14.9727,            0.,NA,NA,"",       11.1604,       10.8054,      -2.79254,   2.36764E-03
C:/temp/dataset/9/15_5.odb,Step-1,Increment      1: Step Time =    1.000,"PART-1-1",           544,           15.,         16.25,            0.,NA,NA,"",       11.6320,       11.1590,      -3.28346,   1.65233E-03
C:/temp/dataset/9/15_5.odb,Step-1,Increment      1: Step Time =    1.000,"PART-1-1",           545,       13.7419,       17.4895,            0.,NA,NA,"",       12.0059,       11.6408,      -2.93805,   1.33070E-03
C:/temp/dataset/9/15_5.odb,Step-1,Increment      1: Step Time =    1.000,"PART-1-1",           546,       12.4991,       13.6576,            0.,NA,NA,"",       10.6896,       10.4379,      -2.30585,   3.06756E-03
C:/temp/dataset/9/15_5.odb,Step-1,Increment      1: Step Time =    1.000,"PART-1-1",           547,       13.7559,       12.4349,            0.,NA,NA,"",       10.3112,       9.96551,      -2.64759,   3.55286E-03
C:/temp/dataset/9/15_5.odb,Step-1,Increment      1: Step Time =    1.000,"PART-1-1",           548,           15.,         13.75,            0.,NA,NA,"",       10.7972,       10.3316,      -3.13662,   3.40800E-03
C:/temp/dataset/9/15_5.odb,Step-1,Increment      1: Step Time =    1.000,"PART-1-1",           549,           15.,         21.25,            0.,NA,NA,"",       13.3048,       12.8176,      -3.56719,   762.235E-06
C:/temp/dataset/9/15_5.odb,Step-1,Increment      1: Step Time =    1.000,"PART-1-1",           550,       13.6875,       22.5045,            0.,NA,NA,"",       13.6872,       13.3071,      -3.20326,   736.445E-06
C:/temp/dataset/9/15_5.odb,Step-1,Increment      1: Step Time =    1.000,"PART-1-1",           551,       12.4125,       21.2511,            0.,NA,NA,"",       13.2449,       12.9642,      -2.71234,   874.261E-06
C:/temp/dataset/9/15_5.odb,Step-1,Increment      1: Step Time =    1.000,"PART-1-1",           552,       13.7250,       19.9966,            0.,NA,NA,"",       12.8477,       12.4743,      -3.07521,   780.063E-06
C:/temp/dataset/9/15_5.odb,Step-1,Increment      1: Step Time =    1.000,"PART-1-1",           553,       13.6481,       25.0064,            0.,NA,NA,"",       14.5218,       14.1351,      -3.32906,   651.639E-06
C:/temp/dataset/9/15_5.odb,Step-1,Increment      1: Step Time =    1.000,"PART-1-1",           554,       12.3356,       23.7609,            0.,NA,NA,"",       14.0849,       13.7983,      -2.82687,   532.455E-06
C:/temp/dataset/9/15_5.odb,Step-1,Increment      1: Step Time =    1.000,"PART-1-1",           555,           15.,         23.75,            0.,NA,NA,"",       14.1387,       13.6445,      -3.70546,   878.253E-06
C:/temp/dataset/9/15_5.odb,Step-1,Increment      1: Step Time =    1.000,"PART-1-1",           556,       13.7112,       27.5077,            0.,NA,NA,"",       15.3569,       14.9554,      -3.48861,   382.818E-06
C:/temp/dataset/9/15_5.odb,Step-1,Increment      1: Step Time =    1.000,"PART-1-1",           557,           15.,         28.75,            0.,NA,NA,"",       15.8027,       15.2926,      -3.98259,   75.4652E-06
C:/temp/dataset/9/15_5.odb,Step-1,Increment      1: Step Time =    1.000,"PART-1-1",           558,         13.75,           30.,            0.,NA,NA,"",       16.1890,       15.7744,      -3.64043,   78.2742E-06
C:/temp/dataset/9/15_5.odb,Step-1,Increment      1: Step Time =    1.000,"PART-1-1",           559,            5.,      -24.7917,            0.,NA,NA,"",   559.403E-03,   373.941E-03,   416.053E-03,   84.9299E-03
C:/temp/dataset/9/15_5.odb,Step-1,Increment      1: Step Time =    1.000,"PART-1-1",           560,       6.15390,      -25.8136,            0.,NA,NA,"",   350.288E-03,   238.181E-03,   256.849E-03,   69.1023E-03
C:/temp/dataset/9/15_5.odb,Step-1,Increment      1: Step Time =    1.000,"PART-1-1",           561,       7.23304,      -24.7696,            0.,NA,NA,"",   375.709E-03,   301.035E-03,   224.800E-03,   50.6377E-03
C:/temp/dataset/9/15_5.odb,Step-1,Increment      1: Step Time =    1.000,"PART-1-1",           562,       13.0086,      -21.0119,            0.,NA,NA,"",   838.286E-03,   720.141E-03,  -429.092E-03,   44.2933E-03
C:/temp/dataset/9/15_5.odb,Step-1,Increment      1: Step Time =    1.000,"PART-1-1",           563,       13.9664,      -22.3485,            0.,NA,NA,"",   734.542E-03,   553.318E-03,  -483.107E-03,   61.5912E-03
C:/temp/dataset/9/15_5.odb,Step-1,Increment      1: Step Time =    1.000,"PART-1-1",           564,           15.,        -21.25,            0.,NA,NA,"",       1.00780,   719.890E-03,  -705.279E-03,   75.4008E-03
C:/temp/dataset/9/15_5.odb,Step-1,Increment      1: Step Time =    1.000,"PART-1-1",           565,            5.,       -26.875,            0.,NA,NA,"",   329.688E-03,   199.910E-03,   262.164E-03,   90.0033E-03
C:/temp/dataset/9/15_5.odb,Step-1,Increment      1: Step Time =    1.000,"PART-1-1",           566,       12.9745,      -6.51631,            0.,NA,NA,"",       4.17415,       3.98370,      -1.24646,   23.6136E-03
C:/temp/dataset/9/15_5.odb,Step-1,Increment      1: Step Time =    1.000,"PART-1-1",           567,       14.0104,      -7.62731,            0.,NA,NA,"",       3.92217,       3.63720,      -1.46773,   31.9996E-03
C:/temp/dataset/9/15_5.odb,Step-1,Increment      1: Step Time =    1.000,"PART-1-1",           568,           15.,         -6.25,            0.,NA,NA,"",       4.40941,       3.99952,      -1.85654,   35.2450E-03
C:/temp/dataset/9/15_5.odb,Step-1,Increment      1: Step Time =    1.000,"PART-1-1",           569,       13.9641,      -5.13900,            0.,NA,NA,"",       4.64944,       4.35578,      -1.62618,   25.6328E-03
C:/temp/dataset/9/15_5.odb,Step-1,Increment      1: Step Time =    1.000,"PART-1-1",           570,       11.1649,      -16.2543,            0.,NA,NA,"",       1.59903,       1.56797,  -313.630E-03,   17.2773E-03
C:/temp/dataset/9/15_5.odb,Step-1,Increment      1: Step Time =    1.000,"PART-1-1",           571,       9.14831,      -16.2933,            0.,NA,NA,"",       1.60109,       1.59933,   75.0052E-03,   16.6787E-03
C:/temp/dataset/9/15_5.odb,Step-1,Increment      1: Step Time =    1.000,"PART-1-1",           572,            5.,        -8.125,            0.,NA,NA,"",       3.98070,       3.85179,       1.00484,   43.9792E-03
C:/temp/dataset/9/15_5.odb,Step-1,Increment      1: Step Time =    1.000,"PART-1-1",           573,       12.8519,      -3.99254,            0.,NA,NA,"",       4.93458,       4.74046,      -1.37044,   19.2447E-03
C:/temp/dataset/9/15_5.odb,Step-1,Increment      1: Step Time =    1.000,"PART-1-1",           574,           15.,         -3.75,            0.,NA,NA,"",       5.15505,       4.73428,      -2.03990,   26.8997E-03
C:/temp/dataset/9/15_5.odb,Step-1,Increment      1: Step Time =    1.000,"PART-1-1",           575,       13.8878,      -2.60354,            0.,NA,NA,"",       5.42512,       5.12688,      -1.77400,   18.8697E-03
C:/temp/dataset/9/15_5.odb,Step-1,Increment      1: Step Time =    1.000,"PART-1-1",           576,       13.0423,      -8.97351,            0.,NA,NA,"",       3.47317,       3.29068,      -1.11100,   27.5444E-03
C:/temp/dataset/9/15_5.odb,Step-1,Increment      1: Step Time =    1.000,"PART-1-1",           577,           15.,         -8.75,            0.,NA,NA,"",       3.70332,       3.30694,      -1.66695,   42.9297E-03
C:/temp/dataset/9/15_5.odb,Step-1,Increment      1: Step Time =    1.000,"PART-1-1",           578,       8.09346,      -21.6433,            0.,NA,NA,"",   701.386E-03,   664.026E-03,   225.859E-03,   32.9164E-03
C:/temp/dataset/9/15_5.odb,Step-1,Increment      1: Step Time =    1.000,"PART-1-1",           579,       8.17438,      -23.6967,            0.,NA,NA,"",   431.067E-03,   394.184E-03,   174.463E-03,   34.1508E-03
C:/temp/dataset/9/15_5.odb,Step-1,Increment      1: Step Time =    1.000,"PART-1-1",           580,       8.10077,      -19.5616,            0.,NA,NA,"",       1.02821,   995.930E-03,   255.602E-03,   30.5440E-03
C:/temp/dataset/9/15_5.odb,Step-1,Increment      1: Step Time =    1.000,"PART-1-1",           581,       8.11824,      -17.4194,            0.,NA,NA,"",       1.42146,       1.39570,   269.399E-03,   28.1082E-03
C:/temp/dataset/9/15_5.odb,Step-1,Increment      1: Step Time =    1.000,"PART-1-1",           582,          -15.,       22.3438,            0.,NA,NA,"",       16.0499,       14.8475,       6.09510,   42.8645E-06
C:/temp/dataset/9/15_5.odb,Step-1,Increment      1: Step Time =    1.000,"PART-1-1",           583,      -12.5647,       21.7347,            0.,NA,NA,"",       15.4786,       14.5252,       5.34830,   935.665E-06
C:/temp/dataset/9/15_5.odb,Step-1,Increment      1: Step Time =    1.000,"PART-1-1",           584,      -4.95050,       22.5220,            0.,NA,NA,"",       14.6503,       14.3660,       2.87196,   2.31866E-03
C:/temp/dataset/9/15_5.odb,Step-1,Increment      1: Step Time =    1.000,"PART-1-1",           585,      -3.93081,       23.1260,            0.,NA,NA,"",       14.7207,       14.5045,       2.51356,   1.89912E-03
C:/temp/dataset/9/15_5.odb,Step-1,Increment      1: Step Time =    1.000,"PART-1-1",           586,      -4.22857,       24.4244,            0.,NA,NA,"",       15.1535,       14.9390,       2.54064,   1.35911E-03
C:/temp/dataset/9/15_5.odb,Step-1,Increment      1: Step Time =    1.000,"PART-1-1",           587,      -5.24826,       23.8204,            0.,NA,NA,"",       15.0809,       14.7995,       2.89927,   1.61745E-03
C:/temp/dataset/9/15_5.odb,Step-1,Increment      1: Step Time =    1.000,"PART-1-1",           588,      -10.1110,       10.4874,            0.,NA,NA,"",       11.9594,       10.7937,       5.15010,   2.37990E-03
C:/temp/dataset/9/15_5.odb,Step-1,Increment      1: Step Time =    1.000,"PART-1-1",           589,      -9.15687,       11.6944,            0.,NA,NA,"",       12.1137,       11.1332,       4.77423,   2.39483E-03
C:/temp/dataset/9/15_5.odb,Step-1,Increment      1: Step Time =    1.000,"PART-1-1",           590,      -11.1597,       11.6149,            0.,NA,NA,"",       12.4657,       11.2201,       5.43167,   2.63478E-03
C:/temp/dataset/9/15_5.odb,Step-1,Increment      1: Step Time =    1.000,"PART-1-1",           591,      -6.07359,       12.6401,            0.,NA,NA,"",       11.8656,       11.2667,       3.72219,   5.34250E-03
C:/temp/dataset/9/15_5.odb,Step-1,Increment      1: Step Time =    1.000,"PART-1-1",           592,      -7.11512,       11.5321,            0.,NA,NA,"",       11.7121,       10.9648,       4.11653,   3.92592E-03
C:/temp/dataset/9/15_5.odb,Step-1,Increment      1: Step Time =    1.000,"PART-1-1",           593,           -5.,         11.25,            0.,NA,NA,"",       11.2887,       10.7512,       3.44162,   7.55478E-03
C:/temp/dataset/9/15_5.odb,Step-1,Increment      1: Step Time =    1.000,"PART-1-1",           594,      -10.0988,       8.37440,            0.,NA,NA,"",       11.3847,       10.0960,       5.26133,   3.82347E-03
C:/temp/dataset/9/15_5.odb,Step-1,Increment      1: Step Time =    1.000,"PART-1-1",           595,      -9.11481,       9.38066,            0.,NA,NA,"",       11.4649,       10.3727,       4.88388,   2.89569E-03
C:/temp/dataset/9/15_5.odb,Step-1,Increment      1: Step Time =    1.000,"PART-1-1",           596,      -11.0949,       9.48111,            0.,NA,NA,"",       11.8832,       10.5199,       5.52651,   3.04348E-03
C:/temp/dataset/9/15_5.odb,Step-1,Increment      1: Step Time =    1.000,"PART-1-1",           597,      -11.8142,       15.6555,            0.,NA,NA,"",       13.6737,       12.5504,       5.42735,   3.06498E-03
C:/temp/dataset/9/15_5.odb,Step-1,Increment      1: Step Time =    1.000,"PART-1-1",           598,      -13.4062,       15.6218,            0.,NA,NA,"",       13.9521,       12.6233,       5.94241,   2.87918E-03
C:/temp/dataset/9/15_5.odb,Step-1,Increment      1: Step Time =    1.000,"PART-1-1",           599,      -12.4316,       14.7766,            0.,NA,NA,"",       13.5485,       12.3031,       5.67414,   3.35961E-03
C:/temp/dataset/9/15_5.odb,Step-1,Increment      1: Step Time =    1.000,"PART-1-1",           600,      -5.72199,       20.2132,            0.,NA,NA,"",       14.0472,       13.6695,       3.23545,   4.03984E-03
C:/temp/dataset/9/15_5.odb,Step-1,Increment      1: Step Time =    1.000,"PART-1-1",           601,           -5.,         18.75,            0.,NA,NA,"",       13.5246,       13.1696,       3.07850,   2.40213E-03
C:/temp/dataset/9/15_5.odb,Step-1,Increment      1: Step Time =    1.000,"PART-1-1",           602,          -15.,       15.7813,            0.,NA,NA,"",       14.2919,       12.7563,       6.44489,   2.91245E-03
C:/temp/dataset/9/15_5.odb,Step-1,Increment      1: Step Time =    1.000,"PART-1-1",           603,      -10.4105,       16.7429,            0.,NA,NA,"",       13.7322,       12.8219,       4.91649,   2.99650E-03
C:/temp/dataset/9/15_5.odb,Step-1,Increment      1: Step Time =    1.000,"PART-1-1",           604,      -12.1928,       12.6381,            0.,NA,NA,"",       12.9369,       11.6073,       5.71266,   3.59778E-03
C:/temp/dataset/9/15_5.odb,Step-1,Increment      1: Step Time =    1.000,"PART-1-1",           605,      -12.0987,       10.4443,            0.,NA,NA,"",       12.3417,       10.8932,       5.80141,   3.31657E-03
C:/temp/dataset/9/15_5.odb,Step-1,Increment      1: Step Time =    1.000,"PART-1-1",           606,      -7.50325,       4.80693,            0.,NA,NA,"",       9.88020,       8.74094,       4.60591,   8.03973E-03
C:/temp/dataset/9/15_5.odb,Step-1,Increment      1: Step Time =    1.000,"PART-1-1",           607,      -9.63824,       5.46172,            0.,NA,NA,"",       10.5099,       9.09170,       5.27247,   6.25995E-03
C:/temp/dataset/9/15_5.odb,Step-1,Increment      1: Step Time =    1.000,"PART-1-1",           608,      -8.81234,       4.25317,            0.,NA,NA,"",       10.0108,       8.63316,       5.06799,   6.92983E-03
C:/temp/dataset/9/15_5.odb,Step-1,Increment      1: Step Time =    1.000,"PART-1-1",           609,          -15.,      -1.71875,            0.,NA,NA,"",       10.2292,       6.98740,       7.47078,   515.387E-06
C:/temp/dataset/9/15_5.odb,Step-1,Increment      1: Step Time =    1.000,"PART-1-1",           610,      -12.5835,      -1.75493,            0.,NA,NA,"",       9.54623,       6.83548,       6.66384,   277.253E-06
C:/temp/dataset/9/15_5.odb,Step-1,Increment      1: Step Time =    1.000,"PART-1-1",           611,        -11.25,           -5.,            0.,NA,NA,"",       8.55655,       5.67443,       6.40433,   621.906E-06
C:/temp/dataset/9/15_5.odb,Step-1,Increment      1: Step Time =    1.000,"PART-1-1",           612,      -10.0144,      -3.91217,            0.,NA,NA,"",       8.41146,       5.96719,       5.92835,   522.884E-06
C:/temp/dataset/9/15_5.odb,Step-1,Increment      1: Step Time =    1.000,"PART-1-1",           613,      -11.2827,      -2.82422,            0.,NA,NA,"",       8.97570,       6.40306,       6.28999,   472.918E-06
C:/temp/dataset/9/15_5.odb,Step-1,Increment      1: Step Time =    1.000,"PART-1-1",           614,         -8.75,           -5.,            0.,NA,NA,"",       7.84984,       5.53272,       5.56858,   1.22015E-03
C:/temp/dataset/9/15_5.odb,Step-1,Increment      1: Step Time =    1.000,"PART-1-1",           615,      -7.54904,      -4.01671,            0.,NA,NA,"",       7.72514,       5.79243,       5.11131,   905.101E-06
C:/temp/dataset/9/15_5.odb,Step-1,Increment      1: Step Time =    1.000,"PART-1-1",           616,      -8.81345,      -2.92887,            0.,NA,NA,"",       8.28835,       6.22625,       5.47088,   566.360E-06
C:/temp/dataset/9/15_5.odb,Step-1,Increment      1: Step Time =    1.000,"PART-1-1",           617,  -969.738E-03,       22.2544,            0.,NA,NA,"",       14.1502,       14.0587,       1.60707,   3.08712E-03
C:/temp/dataset/9/15_5.odb,Step-1,Increment      1: Step Time =    1.000,"PART-1-1",           618,      -2.31964,       21.1016,            0.,NA,NA,"",       13.9220,       13.7624,       2.10188,   3.89453E-03
C:/temp/dataset/9/15_5.odb,Step-1,Increment      1: Step Time =    1.000,"PART-1-1",           619,         -1.25,           20.,            0.,NA,NA,"",       13.4672,       13.3444,       1.81468,   4.81876E-03
C:/temp/dataset/9/15_5.odb,Step-1,Increment      1: Step Time =    1.000,"PART-1-1",           620,         -1.25,           30.,            0.,NA,NA,"",       16.6304,       16.5810,       1.28101,   2.24133E-03
C:/temp/dataset/9/15_5.odb,Step-1,Increment      1: Step Time =    1.000,"PART-1-1",           621,      -1.44357,       27.1449,            0.,NA,NA,"",       15.7397,       15.6682,       1.49874,   633.014E-06
C:/temp/dataset/9/15_5.odb,Step-1,Increment      1: Step Time =    1.000,"PART-1-1",           622,      -4.58492,       21.1383,            0.,NA,NA,"",       14.1863,       13.9018,       2.82702,   3.48301E-03
C:/temp/dataset/9/15_5.odb,Step-1,Increment      1: Step Time =    1.000,"PART-1-1",           623,         -3.75,           20.,            0.,NA,NA,"",       13.7408,       13.4892,       2.61750,   5.69260E-03
C:/temp/dataset/9/15_5.odb,Step-1,Increment      1: Step Time =    1.000,"PART-1-1",           624,      -3.15456,       22.2398,            0.,NA,NA,"",       14.3635,       14.1764,       2.31095,   2.45156E-03
C:/temp/dataset/9/15_5.odb,Step-1,Increment      1: Step Time =    1.000,"PART-1-1",           625,      -11.2479,       22.4027,            0.,NA,NA,"",       15.4627,       14.6685,       4.89185,   1.11925E-03
C:/temp/dataset/9/15_5.odb,Step-1,Increment      1: Step Time =    1.000,"PART-1-1",           626,      -10.3888,       20.8027,            0.,NA,NA,"",       14.8742,       14.1124,       4.69929,   1.97642E-03
C:/temp/dataset/9/15_5.odb,Step-1,Increment      1: Step Time =    1.000,"PART-1-1",           627,       9.41561,      -24.6142,            0.,NA,NA,"",   279.656E-03,   275.090E-03,   50.3291E-03,   17.6001E-03
C:/temp/dataset/9/15_5.odb,Step-1,Increment      1: Step Time =    1.000,"PART-1-1",           628,           15.,        -16.25,            0.,NA,NA,"",       1.89941,       1.55515,      -1.09054,   62.6514E-03
C:/temp/dataset/9/15_5.odb,Step-1,Increment      1: Step Time =    1.000,"PART-1-1",           629,       13.1096,      -16.2411,            0.,NA,NA,"",       1.70359,       1.55368,  -698.799E-03,   38.8006E-03
C:/temp/dataset/9/15_5.odb,Step-1,Increment      1: Step Time =    1.000,"PART-1-1",           630,           15.,          3.75,            0.,NA,NA,"",       7.51983,       7.08063,      -2.53231,   9.62740E-03
C:/temp/dataset/9/15_5.odb,Step-1,Increment      1: Step Time =    1.000,"PART-1-1",           631,       14.0093,       5.06690,            0.,NA,NA,"",       7.89238,       7.55229,      -2.29185,   7.15214E-03
C:/temp/dataset/9/15_5.odb,Step-1,Increment      1: Step Time =    1.000,"PART-1-1",           632,       12.9168,       3.88721,            0.,NA,NA,"",       7.46583,       7.22772,      -1.87049,   6.94681E-03
C:/temp/dataset/9/15_5.odb,Step-1,Increment      1: Step Time =    1.000,"PART-1-1",           633,       12.6026,       11.0965,            0.,NA,NA,"",       9.83388,       9.58685,      -2.19034,   3.66706E-03
C:/temp/dataset/9/15_5.odb,Step-1,Increment      1: Step Time =    1.000,"PART-1-1",           634,           15.,         11.25,            0.,NA,NA,"",       9.96695,       9.50877,      -2.98718,   5.08596E-03
C:/temp/dataset/9/15_5.odb,Step-1,Increment      1: Step Time =    1.000,"PART-1-1",           635,       12.4669,       18.7361,            0.,NA,NA,"",       12.3996,       12.1265,      -2.58830,   1.76429E-03
C:/temp/dataset/9/15_5.odb,Step-1,Increment      1: Step Time =    1.000,"PART-1-1",           636,           15.,         18.75,            0.,NA,NA,"",       12.4687,       11.9885,      -3.42694,   164.420E-06
C:/temp/dataset/9/15_5.odb,Step-1,Increment      1: Step Time =    1.000,"PART-1-1",           637,           15.,         26.25,            0.,NA,NA,"",       14.9708,       14.4690,      -3.84355,   475.583E-06
C:/temp/dataset/9/15_5.odb,Step-1,Increment      1: Step Time =    1.000,"PART-1-1",           638,          8.75,           30.,            0.,NA,NA,"",       16.1747,       16.0517,      -1.99113,   1.26416E-03
C:/temp/dataset/9/15_5.odb,Step-1,Increment      1: Step Time =    1.000,"PART-1-1",           639,       8.74802,       27.8391,            0.,NA,NA,"",       15.4550,       15.3415,      -1.86951,   975.961E-06
C:/temp/dataset/9/15_5.odb,Step-1,Increment      1: Step Time =    1.000,"PART-1-1",           640,       11.0691,       22.4572,            0.,NA,NA,"",       13.6410,       13.4394,      -2.33662,   974.282E-06
C:/temp/dataset/9/15_5.odb,Step-1,Increment      1: Step Time =    1.000,"PART-1-1",           641,       11.1947,       19.9658,            0.,NA,NA,"",       12.8040,       12.6067,      -2.23864,   1.82412E-03
C:/temp/dataset/9/15_5.odb,Step-1,Increment      1: Step Time =    1.000,"PART-1-1",           642,          3.75,           30.,            0.,NA,NA,"",       16.3240,       16.3203,  -347.134E-03,   2.41935E-03
C:/temp/dataset/9/15_5.odb,Step-1,Increment      1: Step Time =    1.000,"PART-1-1",           643,       6.12801,       21.9878,            0.,NA,NA,"",       13.5850,       13.5678,  -683.524E-03,   2.37126E-03
C:/temp/dataset/9/15_5.odb,Step-1,Increment      1: Step Time =    1.000,"PART-1-1",           644,       7.06684,       23.0702,            0.,NA,NA,"",       13.9099,       13.8701,      -1.05196,   1.66031E-03
C:/temp/dataset/9/15_5.odb,Step-1,Increment      1: Step Time =    1.000,"PART-1-1",           645,       4.97038,       22.7185,            0.,NA,NA,"",       13.8783,       13.8740,  -344.350E-03,   1.78593E-03
C:/temp/dataset/9/15_5.odb,Step-1,Increment      1: Step Time =    1.000,"PART-1-1",           646,          3.75,           20.,            0.,NA,NA,"",       13.0534,       13.0519,   200.782E-03,   6.93905E-03
C:/temp/dataset/9/15_5.odb,Step-1,Increment      1: Step Time =    1.000,"PART-1-1",           647,       4.96897,       20.9583,            0.,NA,NA,"",       13.2980,       13.2957,  -245.725E-03,   4.41101E-03
C:/temp/dataset/9/15_5.odb,Step-1,Increment      1: Step Time =    1.000,"PART-1-1",           648,       3.78616,       22.0655,            0.,NA,NA,"",       13.7273,       13.7271,   78.3695E-03,   2.61429E-03
C:/temp/dataset/9/15_5.odb,Step-1,Increment      1: Step Time =    1.000,"PART-1-1",           649,           -5.,         13.75,            0.,NA,NA,"",       12.0340,       11.5665,       3.32169,   6.16320E-03
C:/temp/dataset/9/15_5.odb,Step-1,Increment      1: Step Time =    1.000,"PART-1-1",           650,      -7.15256,       14.0792,            0.,NA,NA,"",       12.4525,       11.7926,       3.99978,   3.62913E-03
C:/temp/dataset/9/15_5.odb,Step-1,Increment      1: Step Time =    1.000,"PART-1-1",           651,      -9.70164,       19.1500,            0.,NA,NA,"",       14.2972,       13.5494,       4.56351,   2.89429E-03
C:/temp/dataset/9/15_5.odb,Step-1,Increment      1: Step Time =    1.000,"PART-1-1",           652,      -9.13060,       21.5024,            0.,NA,NA,"",       14.8900,       14.2676,       4.26005,   2.21730E-03
C:/temp/dataset/9/15_5.odb,Step-1,Increment      1: Step Time =    1.000,"PART-1-1",           653,         -1.25,           -5.,            0.,NA,NA,"",       5.97834,       5.12328,       3.08099,   2.38706E-03
C:/temp/dataset/9/15_5.odb,Step-1,Increment      1: Step Time =    1.000,"PART-1-1",           654,      -1.47244,      -2.77860,            0.,NA,NA,"",       6.59978,       5.86334,       3.02958,   899.605E-06
C:/temp/dataset/9/15_5.odb,Step-1,Increment      1: Step Time =    1.000,"PART-1-1",           655,      -9.96758,      -1.61086,            0.,NA,NA,"",       8.87370,       6.73221,       5.78099,   699.843E-06
C:/temp/dataset/9/15_5.odb,Step-1,Increment      1: Step Time =    1.000,"PART-1-1",           656,      -6.37223,      -3.07632,            0.,NA,NA,"",       7.63081,       6.03809,       4.66592,   747.507E-06
C:/temp/dataset/9/15_5.odb,Step-1,Increment      1: Step Time =    1.000,"PART-1-1",           657,         -6.25,           -5.,            0.,NA,NA,"",       7.17701,       5.39334,       4.73512,   1.86504E-03
C:/temp/dataset/9/15_5.odb,Step-1,Increment      1: Step Time =    1.000,"PART-1-1",           658,         -3.75,            5.,            0.,NA,NA,"",       9.19512,       8.56123,       3.35492,   12.7742E-03
C:/temp/dataset/9/15_5.odb,Step-1,Increment      1: Step Time =    1.000,"PART-1-1",           659,      -5.11170,       4.23117,            0.,NA,NA,"",       9.23064,       8.39216,       3.84401,   9.37158E-03
C:/temp/dataset/9/15_5.odb,Step-1,Increment      1: Step Time =    1.000,"PART-1-1",           660,      -3.95473,       3.29190,            0.,NA,NA,"",       8.74193,       8.00506,       3.51291,   6.46903E-03
C:/temp/dataset/9/15_5.odb,Step-1,Increment      1: Step Time =    1.000,"PART-1-1",           661,          3.75,           -5.,            0.,NA,NA,"",       5.06430,       4.85656,       1.43560,   11.1915E-03
C:/temp/dataset/9/15_5.odb,Step-1,Increment      1: Step Time =    1.000,"PART-1-1",           662,       4.69008,      -3.66648,            0.,NA,NA,"",       5.33997,       5.23591,       1.04909,   17.6407E-03
C:/temp/dataset/9/15_5.odb,Step-1,Increment      1: Step Time =    1.000,"PART-1-1",           663,       4.69636,       3.71818,            0.,NA,NA,"",       7.65588,       7.62190,   720.577E-03,   11.1359E-03
C:/temp/dataset/9/15_5.odb,Step-1,Increment      1: Step Time =    1.000,"PART-1-1",           664,          3.75,            5.,            0.,NA,NA,"",       8.13828,       8.08231,   952.845E-03,   10.5885E-03
C:/temp/dataset/9/15_5.odb,Step-1,Increment      1: Step Time =    1.000,"PART-1-1",           665,       8.42013,       25.7200,            0.,NA,NA,"",       14.7559,       14.6641,      -1.64381,   957.495E-06
C:/temp/dataset/9/15_5.odb,Step-1,Increment      1: Step Time =    1.000,"PART-1-1",           666,       7.55622,       27.1849,            0.,NA,NA,"",       15.2610,       15.1929,      -1.44037,   951.893E-06
C:/temp/dataset/9/15_5.odb,Step-1,Increment      1: Step Time =    1.000,"PART-1-1",           667,       6.61388,       26.0906,            0.,NA,NA,"",       14.9250,       14.8866,      -1.06963,   866.232E-06
C:/temp/dataset/9/15_5.odb,Step-1,Increment      1: Step Time =    1.000,"PART-1-1",           668,       10.0237,       13.5556,            0.,NA,NA,"",       10.6441,       10.5396,      -1.48824,   3.22306E-03
C:/temp/dataset/9/15_5.odb,Step-1,Increment      1: Step Time =    1.000,"PART-1-1",           669,       8.80148,       12.2659,            0.,NA,NA,"",       10.2297,       10.1792,      -1.01574,   2.98367E-03
C:/temp/dataset/9/15_5.odb,Step-1,Increment      1: Step Time =    1.000,"PART-1-1",           670,            5.,          6.25,            0.,NA,NA,"",       8.42842,       8.41219,   522.749E-03,   11.6276E-03
C:/temp/dataset/9/15_5.odb,Step-1,Increment      1: Step Time =    1.000,"PART-1-1",           671,       5.87545,       4.76801,            0.,NA,NA,"",       7.89446,       7.88831,   311.727E-03,   10.2889E-03
C:/temp/dataset/9/15_5.odb,Step-1,Increment      1: Step Time =    1.000,"PART-1-1",           672,       6.93940,       5.78737,            0.,NA,NA,"",       8.15635,       8.15604,  -71.6432E-03,   5.13189E-03
C:/temp/dataset/9/15_5.odb,Step-1,Increment      1: Step Time =    1.000,"PART-1-1",           673,       7.73520,       4.18036,            0.,NA,NA,"",       7.59892,       7.59494,  -245.940E-03,   6.77234E-03
C:/temp/dataset/9/15_5.odb,Step-1,Increment      1: Step Time =    1.000,"PART-1-1",           674,       6.49581,       3.34316,            0.,NA,NA,"",       7.39820,       7.39600,   180.609E-03,   11.0623E-03
C:/temp/dataset/9/15_5.odb,Step-1,Increment      1: Step Time =    1.000,"PART-1-1",           675,       7.18979,       1.82766,            0.,NA,NA,"",       6.86687,       6.86679,   33.6645E-03,   11.7839E-03
C:/temp/dataset/9/15_5.odb,Step-1,Increment      1: Step Time =    1.000,"PART-1-1",           676,       8.42918,       2.66485,            0.,NA,NA,"",       7.07834,       7.06757,  -390.329E-03,   8.65827E-03
C:/temp/dataset/9/15_5.odb,Step-1,Increment      1: Step Time =    1.000,"PART-1-1",           677,  -530.051E-03,       1.39108,            0.,NA,NA,"",       7.59485,       7.17320,       2.49538,   4.54664E-03
C:/temp/dataset/9/15_5.odb,Step-1,Increment      1: Step Time =    1.000,"PART-1-1",           678,      -10.1792,       3.73358,            0.,NA,NA,"",       10.1837,       8.53973,       5.54804,   5.65329E-03
C:/temp/dataset/9/15_5.odb,Step-1,Increment      1: Step Time =    1.000,"PART-1-1",           679,      -9.26781,       2.30942,            0.,NA,NA,"",       9.61469,       8.00434,       5.32662,   4.49837E-03
C:/temp/dataset/9/15_5.odb,Step-1,Increment      1: Step Time =    1.000,"PART-1-1",           680,      -7.90097,       2.82902,            0.,NA,NA,"",       9.43542,       8.09629,       4.84533,   6.09125E-03
C:/temp/dataset/9/15_5.odb,Step-1,Increment      1: Step Time =    1.000,"PART-1-1",           681,      -2.90861,       2.25641,            0.,NA,NA,"",       8.25447,       7.59822,       3.22540,   5.52807E-03
C:/temp/dataset/9/15_5.odb,Step-1,Increment      1: Step Time =    1.000,"PART-1-1",           682,      -1.97153,   737.020E-03,            0.,NA,NA,"",       7.65581,       7.04339,       3.00034,   3.20266E-03
C:/temp/dataset/9/15_5.odb,Step-1,Increment      1: Step Time =    1.000,"PART-1-1",           683,      -12.0057,       8.33468,            0.,NA,NA,"",       11.7725,       10.1940,       5.88844,   4.04211E-03
C:/temp/dataset/9/15_5.odb,Step-1,Increment      1: Step Time =    1.000,"PART-1-1",           684,   257.111E-03,       23.5381,            0.,NA,NA,"",       14.4517,       14.4064,       1.14295,   2.17770E-03
C:/temp/dataset/9/15_5.odb,Step-1,Increment      1: Step Time =    1.000,"PART-1-1",           685,       2.92443,       23.5127,            0.,NA,NA,"",       14.2519,       14.2491,   279.574E-03,   2.06045E-03
C:/temp/dataset/9/15_5.odb,Step-1,Increment      1: Step Time =    1.000,"PART-1-1",           686,  -872.814E-03,       24.6452,            0.,NA,NA,"",       14.8986,       14.8280,       1.44889,   1.30174E-03
C:/temp/dataset/9/15_5.odb,Step-1,Increment      1: Step Time =    1.000,"PART-1-1",           687,      -2.49287,       25.7554,            0.,NA,NA,"",       15.3943,       15.2751,       1.91192,   783.456E-06
C:/temp/dataset/9/15_5.odb,Step-1,Increment      1: Step Time =    1.000,"PART-1-1",           688,      -6.57000,       23.0679,            0.,NA,NA,"",       15.0104,       14.6293,       3.36112,   2.03068E-03
C:/temp/dataset/9/15_5.odb,Step-1,Increment      1: Step Time =    1.000,"PART-1-1",           689,      -7.77911,       22.2181,            0.,NA,NA,"",       14.9127,       14.4228,       3.79103,   2.20325E-03
C:/temp/dataset/9/15_5.odb,Step-1,Increment      1: Step Time =    1.000,"PART-1-1",           690,      -6.08757,       21.5970,            0.,NA,NA,"",       14.5077,       14.1315,       3.28257,   3.09830E-03
C:/temp/dataset/9/15_5.odb,Step-1,Increment      1: Step Time =    1.000,"PART-1-1",           691,      -10.6596,       24.7502,            0.,NA,NA,"",       16.0552,       15.3877,       4.58140,   606.542E-06
C:/temp/dataset/9/15_5.odb,Step-1,Increment      1: Step Time =    1.000,"PART-1-1",           692,      -8.94190,       25.0911,            0.,NA,NA,"",       15.9201,       15.4057,       4.01423,   776.770E-06
C:/temp/dataset/9/15_5.odb,Step-1,Increment      1: Step Time =    1.000,"PART-1-1",           693,      -9.30563,       26.3338,            0.,NA,NA,"",       16.3373,       15.8234,       4.06542,   569.308E-06
C:/temp/dataset/9/15_5.odb,Step-1,Increment      1: Step Time =    1.000,"PART-1-1",           694,      -11.0233,       25.9928,            0.,NA,NA,"",       16.4698,       15.8048,       4.63267,   331.243E-06
C:/temp/dataset/9/15_5.odb,Step-1,Increment      1: Step Time =    1.000,"PART-1-1",           695,      -9.11986,       17.2561,            0.,NA,NA,"",       13.6685,       12.9158,       4.47335,   3.30698E-03
C:/temp/dataset/9/15_5.odb,Step-1,Increment      1: Step Time =    1.000,"PART-1-1",           696,      -11.0116,       7.65423,            0.,NA,NA,"",       11.3827,       9.90949,       5.60063,   4.52320E-03
C:/temp/dataset/9/15_5.odb,Step-1,Increment      1: Step Time =    1.000,"PART-1-1",           697,      -11.6541,       6.30856,            0.,NA,NA,"",       11.1739,       9.49680,       5.88779,   5.31891E-03
C:/temp/dataset/9/15_5.odb,Step-1,Increment      1: Step Time =    1.000,"PART-1-1",           698,      -3.46647,   792.949E-03,            0.,NA,NA,"",       7.95473,       7.14913,       3.48822,   3.23747E-03
C:/temp/dataset/9/15_5.odb,Step-1,Increment      1: Step Time =    1.000,"PART-1-1",           699,      -4.27899,       1.61468,            0.,NA,NA,"",       8.34001,       7.46869,       3.71139,   4.21607E-03
C:/temp/dataset/9/15_5.odb,Step-1,Increment      1: Step Time =    1.000,"PART-1-1",           700,      -5.41602,       1.03976,            0.,NA,NA,"",       8.42247,       7.34653,       4.11905,   3.85841E-03
C:/temp/dataset/9/15_5.odb,Step-1,Increment      1: Step Time =    1.000,"PART-1-1",           701,      -4.60351,   218.037E-03,            0.,NA,NA,"",       8.03372,       7.02624,       3.89521,   2.73759E-03
C:/temp/dataset/9/15_5.odb,Step-1,Increment      1: Step Time =    1.000,"PART-1-1",           702,      -1.96165,  -510.209E-03,            0.,NA,NA,"",       7.30775,       6.63396,       3.06493,   1.77996E-03
C:/temp/dataset/9/15_5.odb,Step-1,Increment      1: Step Time =    1.000,"PART-1-1",           703,      -2.89723,      -2.02996,            0.,NA,NA,"",       7.08779,       6.18785,       3.45648,   578.601E-06
C:/temp/dataset/9/15_5.odb,Step-1,Increment      1: Step Time =    1.000,"PART-1-1",           704,       6.46823,      -3.22891,            0.,NA,NA,"",       5.29157,       5.27035,   473.462E-03,   18.2044E-03
C:/temp/dataset/9/15_5.odb,Step-1,Increment      1: Step Time =    1.000,"PART-1-1",           705,       5.30305,      -2.18626,            0.,NA,NA,"",       5.73203,       5.67665,   794.841E-03,   13.3331E-03
C:/temp/dataset/9/15_5.odb,Step-1,Increment      1: Step Time =    1.000,"PART-1-1",           706,       8.11637,      -13.0290,            0.,NA,NA,"",       2.39353,       2.37989,   255.213E-03,   23.6915E-03
C:/temp/dataset/9/15_5.odb,Step-1,Increment      1: Step Time =    1.000,"PART-1-1",           707,       8.09759,      -10.8135,            0.,NA,NA,"",       2.95838,       2.94960,   227.735E-03,   21.4986E-03
C:/temp/dataset/9/15_5.odb,Step-1,Increment      1: Step Time =    1.000,"PART-1-1",           708,           15.,        -26.25,            0.,NA,NA,"",   376.233E-03,   209.759E-03,  -312.334E-03,   87.8721E-03
C:/temp/dataset/9/15_5.odb,Step-1,Increment      1: Step Time =    1.000,"PART-1-1",           709,       13.6129,      -24.9005,            0.,NA,NA,"",   397.819E-03,   272.164E-03,  -290.150E-03,   60.4523E-03
C:/temp/dataset/9/15_5.odb,Step-1,Increment      1: Step Time =    1.000,"PART-1-1",           710,       12.3352,      -26.1538,            0.,NA,NA,"",   197.126E-03,   145.456E-03,  -133.046E-03,   40.2358E-03
C:/temp/dataset/9/15_5.odb,Step-1,Increment      1: Step Time =    1.000,"PART-1-1",           711,       11.5115,      -24.0900,            0.,NA,NA,"",   349.226E-03,   321.920E-03,  -135.375E-03,   25.5520E-03
C:/temp/dataset/9/15_5.odb,Step-1,Increment      1: Step Time =    1.000,"PART-1-1",           712,       12.5793,      -23.4990,            0.,NA,NA,"",   473.219E-03,   395.042E-03,  -260.533E-03,   41.3121E-03
C:/temp/dataset/9/15_5.odb,Step-1,Increment      1: Step Time =    1.000,"PART-1-1",           713,       11.9958,      -21.9645,            0.,NA,NA,"",   632.965E-03,   580.100E-03,  -253.237E-03,   30.7119E-03
C:/temp/dataset/9/15_5.odb,Step-1,Increment      1: Step Time =    1.000,"PART-1-1",           714,           15.,        -23.75,            0.,NA,NA,"",   660.974E-03,   420.930E-03,  -509.612E-03,   81.1001E-03
C:/temp/dataset/9/15_5.odb,Step-1,Increment      1: Step Time =    1.000,"PART-1-1",           715,       11.0775,      -9.24199,            0.,NA,NA,"",       3.32152,       3.27109,  -576.608E-03,   15.1691E-03
C:/temp/dataset/9/15_5.odb,Step-1,Increment      1: Step Time =    1.000,"PART-1-1",           716,       10.0590,      -8.23408,            0.,NA,NA,"",       3.60314,       3.58579,  -353.152E-03,   11.6116E-03
C:/temp/dataset/9/15_5.odb,Step-1,Increment      1: Step Time =    1.000,"PART-1-1",           717,       9.08966,      -9.54059,            0.,NA,NA,"",       3.25641,       3.25599,  -52.2564E-03,   13.7712E-03
C:/temp/dataset/9/15_5.odb,Step-1,Increment      1: Step Time =    1.000,"PART-1-1",           718,           15.,         -1.25,            0.,NA,NA,"",       5.92876,       5.50010,      -2.21339,   19.0835E-03
C:/temp/dataset/9/15_5.odb,Step-1,Increment      1: Step Time =    1.000,"PART-1-1",           719,       12.7047,      -1.36075,            0.,NA,NA,"",       5.76003,       5.56408,      -1.48962,   14.3987E-03
C:/temp/dataset/9/15_5.odb,Step-1,Increment      1: Step Time =    1.000,"PART-1-1",           720,       10.4122,      -1.52824,            0.,NA,NA,"",       5.66906,       5.61438,  -785.542E-03,   13.0056E-03
C:/temp/dataset/9/15_5.odb,Step-1,Increment      1: Step Time =    1.000,"PART-1-1",           721,       11.7321,      -2.88547,            0.,NA,NA,"",       5.24456,       5.12694,      -1.10448,   14.9797E-03
C:/temp/dataset/9/15_5.odb,Step-1,Increment      1: Step Time =    1.000,"PART-1-1",           722,       13.0447,       6.32641,            0.,NA,NA,"",       8.26701,       8.00756,      -2.05484,   5.53869E-03
C:/temp/dataset/9/15_5.odb,Step-1,Increment      1: Step Time =    1.000,"PART-1-1",           723,           15.,          6.25,            0.,NA,NA,"",       8.32772,       7.88311,      -2.68469,   7.80216E-03
C:/temp/dataset/9/15_5.odb,Step-1,Increment      1: Step Time =    1.000,"PART-1-1",           724,       12.2773,       7.44357,            0.,NA,NA,"",       8.61523,       8.40945,      -1.87173,   4.26937E-03
C:/temp/dataset/9/15_5.odb,Step-1,Increment      1: Step Time =    1.000,"PART-1-1",           725,       11.3989,       9.46443,            0.,NA,NA,"",       9.27294,       9.11517,      -1.70326,   3.32240E-03
C:/temp/dataset/9/15_5.odb,Step-1,Increment      1: Step Time =    1.000,"PART-1-1",           726,       10.0696,       10.6576,            0.,NA,NA,"",       9.67158,       9.57845,      -1.33894,   3.20591E-03
C:/temp/dataset/9/15_5.odb,Step-1,Increment      1: Step Time =    1.000,"PART-1-1",           727,       11.2733,       12.2896,            0.,NA,NA,"",       10.2163,       10.0520,      -1.82470,   3.11372E-03
C:/temp/dataset/9/15_5.odb,Step-1,Increment      1: Step Time =    1.000,"PART-1-1",           728,       11.2495,       14.9235,            0.,NA,NA,"",       11.1024,       10.9264,      -1.96866,   2.94760E-03
C:/temp/dataset/9/15_5.odb,Step-1,Increment      1: Step Time =    1.000,"PART-1-1",           729,       11.2365,       17.4638,            0.,NA,NA,"",       11.9599,       11.7722,      -2.11035,   2.61806E-03
C:/temp/dataset/9/15_5.odb,Step-1,Increment      1: Step Time =    1.000,"PART-1-1",           730,       9.96430,       18.6935,            0.,NA,NA,"",       12.3791,       12.2531,      -1.76175,   2.70644E-03
C:/temp/dataset/9/15_5.odb,Step-1,Increment      1: Step Time =    1.000,"PART-1-1",           731,       8.12949,      -15.2371,            0.,NA,NA,"",       1.87803,       1.85880,   268.058E-03,   25.7726E-03
C:/temp/dataset/9/15_5.odb,Step-1,Increment      1: Step Time =    1.000,"PART-1-1",           732,       10.9896,      -6.85237,            0.,NA,NA,"",       4.00769,       3.95119,  -670.557E-03,   15.3922E-03
C:/temp/dataset/9/15_5.odb,Step-1,Increment      1: Step Time =    1.000,"PART-1-1",           733,       10.9332,      -25.1906,            0.,NA,NA,"",   222.349E-03,   212.821E-03,  -64.3908E-03,   17.5564E-03
C:/temp/dataset/9/15_5.odb,Step-1,Increment      1: Step Time =    1.000,"PART-1-1",           734,       11.9281,      -5.46067,            0.,NA,NA,"",       4.44669,       4.33014,      -1.01140,   17.7787E-03
C:/temp/dataset/9/15_5.odb,Step-1,Increment      1: Step Time =    1.000,"PART-1-1",           735,      -11.5697,       3.18107,            0.,NA,NA,"",       10.3748,       8.43547,       6.03975,   4.52559E-03
C:/temp/dataset/9/15_5.odb,Step-1,Increment      1: Step Time =    1.000,"PART-1-1",           736,      -10.7341,       2.09613,            0.,NA,NA,"",       9.91199,       8.01984,       5.82492,   3.63384E-03
C:/temp/dataset/9/15_5.odb,Step-1,Increment      1: Step Time =    1.000,"PART-1-1",           737,      -6.76822,       1.80268,            0.,NA,NA,"",       8.91643,       7.68245,       4.52578,   4.63548E-03
C:/temp/dataset/9/15_5.odb,Step-1,Increment      1: Step Time =    1.000,"PART-1-1",           738,      -5.32511,       2.65016,            0.,NA,NA,"",       8.83440,       7.87635,       4.00120,   5.73740E-03
C:/temp/dataset/9/15_5.odb,Step-1,Increment      1: Step Time =    1.000,"PART-1-1",           739,      -6.45786,       3.67650,            0.,NA,NA,"",       9.35028,       8.29169,       4.32152,   7.59520E-03
C:/temp/dataset/9/15_5.odb,Step-1,Increment      1: Step Time =    1.000,"PART-1-1",           740,      -10.1618,       27.4009,            0.,NA,NA,"",       16.7668,       16.2105,       4.28313,   366.208E-06
C:/temp/dataset/9/15_5.odb,Step-1,Increment      1: Step Time =    1.000,"PART-1-1",           741,      -8.15950,       27.0742,            0.,NA,NA,"",       16.4136,       16.0004,       3.65975,   565.990E-06
C:/temp/dataset/9/15_5.odb,Step-1,Increment      1: Step Time =    1.000,"PART-1-1",           742,      -8.41457,       23.7439,            0.,NA,NA,"",       15.4501,       14.9456,       3.91573,   1.40524E-03
C:/temp/dataset/9/15_5.odb,Step-1,Increment      1: Step Time =    1.000,"PART-1-1",           743,      -9.76606,       23.0282,            0.,NA,NA,"",       15.4256,       14.7892,       4.38506,   1.23171E-03
C:/temp/dataset/9/15_5.odb,Step-1,Increment      1: Step Time =    1.000,"PART-1-1",           744,      -10.1457,       6.57799,            0.,NA,NA,"",       10.9143,       9.49806,       5.37671,   5.62923E-03
C:/temp/dataset/9/15_5.odb,Step-1,Increment      1: Step Time =    1.000,"PART-1-1",           745,      -11.1466,       5.19230,            0.,NA,NA,"",       10.7747,       9.09050,       5.78424,   5.87830E-03
C:/temp/dataset/9/15_5.odb,Step-1,Increment      1: Step Time =    1.000,"PART-1-1",           746,       7.77017,   782.991E-03,            0.,NA,NA,"",       6.49651,       6.49578,  -97.2493E-03,   12.2924E-03
C:/temp/dataset/9/15_5.odb,Step-1,Increment      1: Step Time =    1.000,"PART-1-1",           747,       6.09501,       1.10589,            0.,NA,NA,"",       6.70835,       6.69611,   405.031E-03,   12.7280E-03
C:/temp/dataset/9/15_5.odb,Step-1,Increment      1: Step Time =    1.000,"PART-1-1",           748,       6.67539,   61.2235E-03,            0.,NA,NA,"",       6.32981,       6.32395,   272.216E-03,   13.1117E-03
C:/temp/dataset/9/15_5.odb,Step-1,Increment      1: Step Time =    1.000,"PART-1-1",           749,       5.31672,       2.29333,            0.,NA,NA,"",       7.15040,       7.12578,   592.861E-03,   12.2809E-03
C:/temp/dataset/9/15_5.odb,Step-1,Increment      1: Step Time =    1.000,"PART-1-1",           750,      -6.94695,       24.4689,            0.,NA,NA,"",       15.4794,       15.0994,       3.40876,   1.29814E-03
C:/temp/dataset/9/15_5.odb,Step-1,Increment      1: Step Time =    1.000,"PART-1-1",           751,      -2.09966,       23.3616,            0.,NA,NA,"",       14.6057,       14.4799,       1.91275,   2.17158E-03
C:/temp/dataset/9/15_5.odb,Step-1,Increment      1: Step Time =    1.000,"PART-1-1",           752,      -2.87591,       24.2478,            0.,NA,NA,"",       14.9591,       14.8087,       2.11559,   1.43353E-03
C:/temp/dataset/9/15_5.odb,Step-1,Increment      1: Step Time =    1.000,"PART-1-1",           753,       9.53974,       23.7363,            0.,NA,NA,"",       14.0777,       13.9485,      -1.90326,   979.438E-06
C:/temp/dataset/9/15_5.odb,Step-1,Increment      1: Step Time =    1.000,"PART-1-1",           754,      -5.22075,      -2.25347,            0.,NA,NA,"",       7.54686,       6.24515,       4.23711,   844.123E-06
C:/temp/dataset/9/15_5.odb,Step-1,Increment      1: Step Time =    1.000,"PART-1-1",           755,      -7.55915,      -2.11026,            0.,NA,NA,"",       8.14631,       6.42651,       5.00624,   900.586E-06
C:/temp/dataset/9/15_5.odb,Step-1,Increment      1: Step Time =    1.000,"PART-1-1",           756,      -4.20325,      -1.24540,            0.,NA,NA,"",       7.56870,       6.51996,       3.84387,   1.33985E-03
C:/temp/dataset/9/15_5.odb,Step-1,Increment      1: Step Time =    1.000,"PART-1-1",           757,       12.0426,       5.30937,            0.,NA,NA,"",       7.90921,       7.73020,      -1.67319,   4.67773E-03
C:/temp/dataset/9/15_5.odb,Step-1,Increment      1: Step Time =    1.000,"PART-1-1",           758,      -8.17645,       12.8481,            0.,NA,NA,"",       12.2665,       11.4523,       4.39468,   3.20914E-03
C:/temp/dataset/9/15_5.odb,Step-1,Increment      1: Step Time =    1.000,"PART-1-1",           759,      -8.09554,       10.3784,            0.,NA,NA,"",       11.5539,       10.6429,       4.49675,   3.14488E-03
C:/temp/dataset/9/15_5.odb,Step-1,Increment      1: Step Time =    1.000,"PART-1-1",           760,      -8.33007,       15.6293,            0.,NA,NA,"",       13.0820,       12.3545,       4.30183,   3.14641E-03
C:/temp/dataset/9/15_5.odb,Step-1,Increment      1: Step Time =    1.000,"PART-1-1",           761,       12.1122,      -19.7356,            0.,NA,NA,"",   979.240E-03,   913.406E-03,  -352.986E-03,   30.2569E-03
C:/temp/dataset/9/15_5.odb,Step-1,Increment      1: Step Time =    1.000,"PART-1-1",           762,       12.1388,      -17.4254,            0.,NA,NA,"",       1.39984,       1.32454,  -452.920E-03,   28.3930E-03
C:/temp/dataset/9/15_5.odb,Step-1,Increment      1: Step Time =    1.000,"PART-1-1",           763,       12.0361,      -7.90801,            0.,NA,NA,"",       3.72441,       3.61372,  -901.252E-03,   19.6017E-03
C:/temp/dataset/9/15_5.odb,Step-1,Increment      1: Step Time =    1.000,"PART-1-1",           764,       12.0837,      -10.3075,            0.,NA,NA,"",       3.05904,       2.95724,  -782.577E-03,   21.4720E-03
C:/temp/dataset/9/15_5.odb,Step-1,Increment      1: Step Time =    1.000,"PART-1-1",           765,       12.1118,      -12.6921,            0.,NA,NA,"",       2.44692,       2.35432,  -666.777E-03,   23.6932E-03
C:/temp/dataset/9/15_5.odb,Step-1,Increment      1: Step Time =    1.000,"PART-1-1",           766,       12.1357,      -15.0700,            0.,NA,NA,"",       1.89139,       1.80730,  -557.688E-03,   26.1290E-03
C:/temp/dataset/9/15_5.odb,Step-1,Increment      1: Step Time =    1.000,"PART-1-1",           767,      -8.71328,  -792.246E-03,            0.,NA,NA,"",       8.73620,       6.93237,       5.31633,   1.41832E-03
C:/temp/dataset/9/15_5.odb,Step-1,Increment      1: Step Time =    1.000,"PART-1-1",           768,      -7.47429,       25.8162,            0.,NA,NA,"",       15.9506,       15.5603,       3.50680,   885.762E-06
C:/temp/dataset/9/15_5.odb,Step-1,Increment      1: Step Time =    1.000,"PART-1-1",           769,       9.13729,   756.201E-03,            0.,NA,NA,"",       6.43333,       6.41262,  -515.791E-03,   10.4917E-03
C:/temp/dataset/9/15_5.odb,Step-1,Increment      1: Step Time =    1.000,"PART-1-1",           770,       7.76646,  -679.521E-03,            0.,NA,NA,"",       6.02244,       6.02238,  -28.9842E-03,   14.1227E-03
C:/temp/dataset/9/15_5.odb,Step-1,Increment      1: Step Time =    1.000,"PART-1-1",           771,       9.13358,  -706.311E-03,            0.,NA,NA,"",       5.95745,       5.94101,  -442.270E-03,   12.6829E-03
C:/temp/dataset/9/15_5.odb,Step-1,Increment      1: Step Time =    1.000,"PART-1-1",           772,       7.17869,      -1.72980,            0.,NA,NA,"",       5.71836,       5.71499,   196.253E-03,   15.2832E-03
C:/temp/dataset/9/15_5.odb,Step-1,Increment      1: Step Time =    1.000,"PART-1-1",           773,       6.08762,  -989.051E-03,            0.,NA,NA,"",       6.03820,       6.01749,   499.622E-03,   14.3678E-03
C:/temp/dataset/9/15_5.odb,Step-1,Increment      1: Step Time =    1.000,"PART-1-1",           774,       8.06590,       24.5744,            0.,NA,NA,"",       14.3825,       14.3078,      -1.46380,   1.13325E-03
C:/temp/dataset/9/15_5.odb,Step-1,Increment      1: Step Time =    1.000,"PART-1-1",           775,       7.69641,      -4.07963,            0.,NA,NA,"",       4.93539,       4.93342,   139.448E-03,   16.4196E-03
C:/temp/dataset/9/15_5.odb,Step-1,Increment      1: Step Time =    1.000,"PART-1-1",           776,       8.40687,      -2.58051,            0.,NA,NA,"",       5.37729,       5.37559,  -135.140E-03,   15.5687E-03
C:/temp/dataset/9/15_5.odb,Step-1,Increment      1: Step Time =    1.000,"PART-1-1",           777,      -9.00797,   684.990E-03,            0.,NA,NA,"",       9.15572,       7.44338,       5.33134,   2.88959E-03
C:/temp/dataset/9/15_5.odb,Step-1,Increment      1: Step Time =    1.000,"PART-1-1",           778,       5.05143,   63.4436E-03,            0.,NA,NA,"",       6.46597,       6.41917,   776.545E-03,   11.2192E-03
C:/temp/dataset/9/15_5.odb,Step-1,Increment      1: Step Time =    1.000,"PART-1-1",           779,      -3.45659,  -454.281E-03,            0.,NA,NA,"",       7.61745,       6.73781,       3.55352,   1.92566E-03
C:/temp/dataset/9/15_5.odb,Step-1,Increment      1: Step Time =    1.000,"PART-1-1",           780,      -7.58605,   993.377E-03,            0.,NA,NA,"",       8.89478,       7.46156,       4.84172,   3.55460E-03
