ODB Name,Step,Frame,Part Instance Name,    êﬂì_ÉâÉxÉã,X,Y,Z,Section Name,Material Name,Section Point,   U-Magnitude,          U-U1,          U-U2,       S-Mises
C:/temp/dataset/9/16_5.odb,Step-1,Increment      1: Step Time =    1.000,"PART-1-1",             1,            5.,           20.,            0.,NA,NA,"",       8.64609,       8.64276,   239.896E-03,   417.965E-06
C:/temp/dataset/9/16_5.odb,Step-1,Increment      1: Step Time =    1.000,"PART-1-1",             2,            0.,           20.,            0.,NA,NA,"",       8.84060,       8.75020,       1.26101,   424.451E-06
C:/temp/dataset/9/16_5.odb,Step-1,Increment      1: Step Time =    1.000,"PART-1-1",             3,            5.,          12.5,            0.,NA,NA,"",       7.11666,       7.10545,   399.366E-03,   87.2802E-06
C:/temp/dataset/9/16_5.odb,Step-1,Increment      1: Step Time =    1.000,"PART-1-1",             4,            5.,            5.,            0.,NA,NA,"",       5.60176,       5.57430,   553.945E-03,   3.25974E-03
C:/temp/dataset/9/16_5.odb,Step-1,Increment      1: Step Time =    1.000,"PART-1-1",             5,            0.,            5.,            0.,NA,NA,"",       5.91146,       5.69743,       1.57628,   3.11739E-03
C:/temp/dataset/9/16_5.odb,Step-1,Increment      1: Step Time =    1.000,"PART-1-1",             6,           -5.,            5.,            0.,NA,NA,"",       6.36968,       5.81716,       2.59491,   2.69458E-03
C:/temp/dataset/9/16_5.odb,Step-1,Increment      1: Step Time =    1.000,"PART-1-1",             7,           -5.,          12.5,            0.,NA,NA,"",       7.73561,       7.34056,       2.44047,   349.651E-06
C:/temp/dataset/9/16_5.odb,Step-1,Increment      1: Step Time =    1.000,"PART-1-1",             8,           -5.,           20.,            0.,NA,NA,"",       9.14728,       8.85816,       2.28162,   1.04621E-03
C:/temp/dataset/9/16_5.odb,Step-1,Increment      1: Step Time =    1.000,"PART-1-1",             9,           15.,           30.,            0.,NA,NA,"",       10.6692,       10.4766,      -2.01838,   5.43478E-06
C:/temp/dataset/9/16_5.odb,Step-1,Increment      1: Step Time =    1.000,"PART-1-1",            10,           7.5,           30.,            0.,NA,NA,"",       10.6459,       10.6350,  -483.265E-03,   175.454E-06
C:/temp/dataset/9/16_5.odb,Step-1,Increment      1: Step Time =    1.000,"PART-1-1",            11,            0.,           30.,            0.,NA,NA,"",       10.8423,       10.7913,       1.05050,   419.520E-06
C:/temp/dataset/9/16_5.odb,Step-1,Increment      1: Step Time =    1.000,"PART-1-1",            12,          -7.5,           30.,            0.,NA,NA,"",       11.2457,       10.9459,       2.57950,   335.074E-06
C:/temp/dataset/9/16_5.odb,Step-1,Increment      1: Step Time =    1.000,"PART-1-1",            13,          -15.,           30.,            0.,NA,NA,"",       11.8362,       11.1017,       4.10459,   10.3019E-06
C:/temp/dataset/9/16_5.odb,Step-1,Increment      1: Step Time =    1.000,"PART-1-1",            14,          -15.,         21.25,            0.,NA,NA,"",       10.2601,       9.32193,       4.28627,   399.925E-06
C:/temp/dataset/9/16_5.odb,Step-1,Increment      1: Step Time =    1.000,"PART-1-1",            15,          -15.,          12.5,            0.,NA,NA,"",       8.76861,       7.54699,       4.46448,   499.884E-06
C:/temp/dataset/9/16_5.odb,Step-1,Increment      1: Step Time =    1.000,"PART-1-1",            16,          -15.,          3.75,            0.,NA,NA,"",       7.41496,       5.78902,       4.63345,   2.92548E-03
C:/temp/dataset/9/16_5.odb,Step-1,Increment      1: Step Time =    1.000,"PART-1-1",            17,          -15.,           -5.,            0.,NA,NA,"",       6.26762,       4.03088,       4.79949,   4.95581E-03
C:/temp/dataset/9/16_5.odb,Step-1,Increment      1: Step Time =    1.000,"PART-1-1",            18,          -10.,           -5.,            0.,NA,NA,"",       5.44537,       3.90485,       3.79529,   5.69831E-03
C:/temp/dataset/9/16_5.odb,Step-1,Increment      1: Step Time =    1.000,"PART-1-1",            19,           -5.,           -5.,            0.,NA,NA,"",       4.69203,       3.77495,       2.78656,   5.96978E-03
C:/temp/dataset/9/16_5.odb,Step-1,Increment      1: Step Time =    1.000,"PART-1-1",            20,            0.,           -5.,            0.,NA,NA,"",       4.05019,       3.64272,       1.77050,   6.35961E-03
C:/temp/dataset/9/16_5.odb,Step-1,Increment      1: Step Time =    1.000,"PART-1-1",            21,            5.,           -5.,            0.,NA,NA,"",       3.57571,       3.49893,   737.008E-03,   11.2197E-03
C:/temp/dataset/9/16_5.odb,Step-1,Increment      1: Step Time =    1.000,"PART-1-1",            22,            5.,        -11.25,            0.,NA,NA,"",       2.34928,       2.22788,   745.422E-03,   28.5554E-03
C:/temp/dataset/9/16_5.odb,Step-1,Increment      1: Step Time =    1.000,"PART-1-1",            23,            5.,         -17.5,            0.,NA,NA,"",       1.31334,       1.15250,   629.762E-03,   44.9840E-03
C:/temp/dataset/9/16_5.odb,Step-1,Increment      1: Step Time =    1.000,"PART-1-1",            24,            5.,        -23.75,            0.,NA,NA,"",   540.875E-03,   388.087E-03,   376.742E-03,   61.4227E-03
C:/temp/dataset/9/16_5.odb,Step-1,Increment      1: Step Time =    1.000,"PART-1-1",            25,            5.,          -30.,            0.,NA,NA,"",            0.,   24.7032E-39,   46.0665E-39,   90.5572E-03
C:/temp/dataset/9/16_5.odb,Step-1,Increment      1: Step Time =    1.000,"PART-1-1",            26,           15.,          -30.,            0.,NA,NA,"",            0.,   24.3389E-39,  -44.4699E-39,   85.6470E-03
C:/temp/dataset/9/16_5.odb,Step-1,Increment      1: Step Time =    1.000,"PART-1-1",            27,           15.,         -22.5,            0.,NA,NA,"",   652.901E-03,   461.229E-03,  -462.112E-03,   57.2859E-03
C:/temp/dataset/9/16_5.odb,Step-1,Increment      1: Step Time =    1.000,"PART-1-1",            28,           15.,          -15.,            0.,NA,NA,"",       1.66269,       1.43000,  -848.319E-03,   37.6620E-03
C:/temp/dataset/9/16_5.odb,Step-1,Increment      1: Step Time =    1.000,"PART-1-1",            29,           15.,          -7.5,            0.,NA,NA,"",       3.01600,       2.78342,      -1.16140,   17.5981E-03
C:/temp/dataset/9/16_5.odb,Step-1,Increment      1: Step Time =    1.000,"PART-1-1",            30,           15.,            0.,            0.,NA,NA,"",       4.53491,       4.31963,      -1.38066,   2.27826E-03
C:/temp/dataset/9/16_5.odb,Step-1,Increment      1: Step Time =    1.000,"PART-1-1",            31,           15.,           7.5,            0.,NA,NA,"",       6.06785,       5.86815,      -1.54390,   314.512E-06
C:/temp/dataset/9/16_5.odb,Step-1,Increment      1: Step Time =    1.000,"PART-1-1",            32,           15.,           15.,            0.,NA,NA,"",       7.59877,       7.40569,      -1.70204,   117.522E-06
C:/temp/dataset/9/16_5.odb,Step-1,Increment      1: Step Time =    1.000,"PART-1-1",            33,           15.,          22.5,            0.,NA,NA,"",       9.13320,       8.94179,      -1.86001,   135.319E-06
C:/temp/dataset/9/16_5.odb,Step-1,Increment      1: Step Time =    1.000,"PART-1-1",            34,           2.5,           20.,            0.,NA,NA,"",       8.72891,       8.69659,   750.534E-03,   435.805E-06
C:/temp/dataset/9/16_5.odb,Step-1,Increment      1: Step Time =    1.000,"PART-1-1",            35,            5.,           15.,            0.,NA,NA,"",       7.62570,       7.61783,   346.383E-03,   13.8315E-06
C:/temp/dataset/9/16_5.odb,Step-1,Increment      1: Step Time =    1.000,"PART-1-1",            36,            5.,          17.5,            0.,NA,NA,"",       8.13545,       8.13017,   293.281E-03,   107.628E-06
C:/temp/dataset/9/16_5.odb,Step-1,Increment      1: Step Time =    1.000,"PART-1-1",            37,            5.,           7.5,            0.,NA,NA,"",       6.10228,       6.08145,   503.838E-03,   1.02186E-03
C:/temp/dataset/9/16_5.odb,Step-1,Increment      1: Step Time =    1.000,"PART-1-1",            38,            5.,           10.,            0.,NA,NA,"",       6.60860,       6.59312,   452.015E-03,   289.588E-06
C:/temp/dataset/9/16_5.odb,Step-1,Increment      1: Step Time =    1.000,"PART-1-1",            39,           2.5,            5.,            0.,NA,NA,"",       5.73670,       5.63702,       1.06477,   3.63063E-03
C:/temp/dataset/9/16_5.odb,Step-1,Increment      1: Step Time =    1.000,"PART-1-1",            40,          -2.5,            5.,            0.,NA,NA,"",       6.12341,       5.75695,       2.08656,   3.07457E-03
C:/temp/dataset/9/16_5.odb,Step-1,Increment      1: Step Time =    1.000,"PART-1-1",            41,           -5.,           10.,            0.,NA,NA,"",       7.27534,       6.83504,       2.49256,   96.8692E-06
C:/temp/dataset/9/16_5.odb,Step-1,Increment      1: Step Time =    1.000,"PART-1-1",            42,           -5.,           7.5,            0.,NA,NA,"",       6.82100,       6.32887,       2.54390,   771.491E-06
C:/temp/dataset/9/16_5.odb,Step-1,Increment      1: Step Time =    1.000,"PART-1-1",            43,           -5.,          17.5,            0.,NA,NA,"",       8.67260,       8.35235,       2.33503,   632.069E-06
C:/temp/dataset/9/16_5.odb,Step-1,Increment      1: Step Time =    1.000,"PART-1-1",            44,           -5.,           15.,            0.,NA,NA,"",       8.20158,       7.84628,       2.38784,   457.175E-06
C:/temp/dataset/9/16_5.odb,Step-1,Increment      1: Step Time =    1.000,"PART-1-1",            45,          -2.5,           20.,            0.,NA,NA,"",       8.98024,       8.80383,       1.77121,   540.976E-06
C:/temp/dataset/9/16_5.odb,Step-1,Increment      1: Step Time =    1.000,"PART-1-1",            46,          12.5,           30.,            0.,NA,NA,"",       10.6367,       10.5295,      -1.50674,   14.6646E-06
C:/temp/dataset/9/16_5.odb,Step-1,Increment      1: Step Time =    1.000,"PART-1-1",            47,           10.,           30.,            0.,NA,NA,"",       10.6290,       10.5823,  -995.008E-03,   81.2507E-06
C:/temp/dataset/9/16_5.odb,Step-1,Increment      1: Step Time =    1.000,"PART-1-1",            48,            5.,           30.,            0.,NA,NA,"",       10.6874,       10.6873,   28.3332E-03,   271.332E-06
C:/temp/dataset/9/16_5.odb,Step-1,Increment      1: Step Time =    1.000,"PART-1-1",            49,           2.5,           30.,            0.,NA,NA,"",       10.7530,       10.7395,   539.630E-03,   353.616E-06
C:/temp/dataset/9/16_5.odb,Step-1,Increment      1: Step Time =    1.000,"PART-1-1",            50,          -2.5,           30.,            0.,NA,NA,"",       10.9547,       10.8429,       1.56082,   450.723E-06
C:/temp/dataset/9/16_5.odb,Step-1,Increment      1: Step Time =    1.000,"PART-1-1",            51,           -5.,           30.,            0.,NA,NA,"",       11.0894,       10.8944,       2.07050,   435.797E-06
C:/temp/dataset/9/16_5.odb,Step-1,Increment      1: Step Time =    1.000,"PART-1-1",            52,          -10.,           30.,            0.,NA,NA,"",       11.4228,       10.9975,       3.08798,   173.310E-06
C:/temp/dataset/9/16_5.odb,Step-1,Increment      1: Step Time =    1.000,"PART-1-1",            53,         -12.5,           30.,            0.,NA,NA,"",       11.6200,       11.0495,       3.59624,   32.0427E-06
C:/temp/dataset/9/16_5.odb,Step-1,Increment      1: Step Time =    1.000,"PART-1-1",            54,          -15.,       27.8125,            0.,NA,NA,"",       11.4365,       10.6568,       4.15031,   25.3126E-06
C:/temp/dataset/9/16_5.odb,Step-1,Increment      1: Step Time =    1.000,"PART-1-1",            55,          -15.,        25.625,            0.,NA,NA,"",       11.0402,       10.2118,       4.19592,   139.696E-06
C:/temp/dataset/9/16_5.odb,Step-1,Increment      1: Step Time =    1.000,"PART-1-1",            56,          -15.,       23.4375,            0.,NA,NA,"",       10.6479,       9.76676,       4.24126,   280.597E-06
C:/temp/dataset/9/16_5.odb,Step-1,Increment      1: Step Time =    1.000,"PART-1-1",            57,          -15.,       19.0625,            0.,NA,NA,"",       9.87763,       8.87749,       4.33102,   463.542E-06
C:/temp/dataset/9/16_5.odb,Step-1,Increment      1: Step Time =    1.000,"PART-1-1",            58,          -15.,        16.875,            0.,NA,NA,"",       9.50108,       8.43354,       4.37560,   470.365E-06
C:/temp/dataset/9/16_5.odb,Step-1,Increment      1: Step Time =    1.000,"PART-1-1",            59,          -15.,       14.6875,            0.,NA,NA,"",       9.13118,       7.99007,       4.42009,   460.376E-06
C:/temp/dataset/9/16_5.odb,Step-1,Increment      1: Step Time =    1.000,"PART-1-1",            60,          -15.,       10.3125,            0.,NA,NA,"",       8.41419,       7.10429,       4.50862,   644.431E-06
C:/temp/dataset/9/16_5.odb,Step-1,Increment      1: Step Time =    1.000,"PART-1-1",            61,          -15.,         8.125,            0.,NA,NA,"",       8.06893,       6.66229,       4.55210,   1.02941E-03
C:/temp/dataset/9/16_5.odb,Step-1,Increment      1: Step Time =    1.000,"PART-1-1",            62,          -15.,        5.9375,            0.,NA,NA,"",       7.73452,       6.22212,       4.59435,   1.54792E-03
C:/temp/dataset/9/16_5.odb,Step-1,Increment      1: Step Time =    1.000,"PART-1-1",            63,          -15.,        1.5625,            0.,NA,NA,"",       7.11039,       5.35661,       4.67593,   4.87438E-03
C:/temp/dataset/9/16_5.odb,Step-1,Increment      1: Step Time =    1.000,"PART-1-1",            64,          -15.,     -625.E-03,            0.,NA,NA,"",       6.81369,       4.91606,       4.71792,   4.62537E-03
C:/temp/dataset/9/16_5.odb,Step-1,Increment      1: Step Time =    1.000,"PART-1-1",            65,          -15.,       -2.8125,            0.,NA,NA,"",       6.53166,       4.47358,       4.75916,   4.90038E-03
C:/temp/dataset/9/16_5.odb,Step-1,Increment      1: Step Time =    1.000,"PART-1-1",            66,         -12.5,           -5.,            0.,NA,NA,"",       5.84938,       3.96837,       4.29736,   5.22547E-03
C:/temp/dataset/9/16_5.odb,Step-1,Increment      1: Step Time =    1.000,"PART-1-1",            67,          -7.5,           -5.,            0.,NA,NA,"",       5.05806,       3.84024,       3.29189,   5.93637E-03
C:/temp/dataset/9/16_5.odb,Step-1,Increment      1: Step Time =    1.000,"PART-1-1",            68,          -2.5,           -5.,            0.,NA,NA,"",       4.35368,       3.70929,       2.27941,   5.99475E-03
C:/temp/dataset/9/16_5.odb,Step-1,Increment      1: Step Time =    1.000,"PART-1-1",            69,           2.5,           -5.,            0.,NA,NA,"",       3.79042,       3.57505,       1.25946,   7.20586E-03
C:/temp/dataset/9/16_5.odb,Step-1,Increment      1: Step Time =    1.000,"PART-1-1",            70,            5.,      -7.08333,            0.,NA,NA,"",       3.14768,       3.05663,   751.594E-03,   18.4757E-03
C:/temp/dataset/9/16_5.odb,Step-1,Increment      1: Step Time =    1.000,"PART-1-1",            71,            5.,      -9.16667,            0.,NA,NA,"",       2.73978,       2.63366,   755.121E-03,   23.2386E-03
C:/temp/dataset/9/16_5.odb,Step-1,Increment      1: Step Time =    1.000,"PART-1-1",            72,            5.,      -13.3333,            0.,NA,NA,"",       1.97915,       1.84283,   721.794E-03,   33.9405E-03
C:/temp/dataset/9/16_5.odb,Step-1,Increment      1: Step Time =    1.000,"PART-1-1",            73,            5.,      -15.4167,            0.,NA,NA,"",       1.63273,       1.48282,   683.399E-03,   39.4497E-03
C:/temp/dataset/9/16_5.odb,Step-1,Increment      1: Step Time =    1.000,"PART-1-1",            74,            5.,      -19.5833,            0.,NA,NA,"",       1.02382,   856.670E-03,   560.643E-03,   50.5294E-03
C:/temp/dataset/9/16_5.odb,Step-1,Increment      1: Step Time =    1.000,"PART-1-1",            75,            5.,      -21.6667,            0.,NA,NA,"",   766.118E-03,   600.177E-03,   476.155E-03,   55.9480E-03
C:/temp/dataset/9/16_5.odb,Step-1,Increment      1: Step Time =    1.000,"PART-1-1",            76,            5.,      -25.8333,            0.,NA,NA,"",   346.154E-03,   223.681E-03,   264.177E-03,   65.0974E-03
C:/temp/dataset/9/16_5.odb,Step-1,Increment      1: Step Time =    1.000,"PART-1-1",            77,            5.,      -27.9167,            0.,NA,NA,"",   178.357E-03,   108.188E-03,   141.798E-03,   73.8770E-03
C:/temp/dataset/9/16_5.odb,Step-1,Increment      1: Step Time =    1.000,"PART-1-1",            78,           7.5,          -30.,            0.,NA,NA,"",            0.,   10.4089E-39,   112.775E-39,   26.0986E-03
C:/temp/dataset/9/16_5.odb,Step-1,Increment      1: Step Time =    1.000,"PART-1-1",            79,           10.,          -30.,            0.,NA,NA,"",            0.,  -13.0104E-39,   3.37414E-39,   5.10665E-03
C:/temp/dataset/9/16_5.odb,Step-1,Increment      1: Step Time =    1.000,"PART-1-1",            80,          12.5,          -30.,            0.,NA,NA,"",            0.,   47.3385E-39,  -110.817E-39,   25.2872E-03
C:/temp/dataset/9/16_5.odb,Step-1,Increment      1: Step Time =    1.000,"PART-1-1",            81,           15.,         -27.5,            0.,NA,NA,"",   201.245E-03,   113.023E-03,  -166.510E-03,   73.0336E-03
C:/temp/dataset/9/16_5.odb,Step-1,Increment      1: Step Time =    1.000,"PART-1-1",            82,           15.,          -25.,            0.,NA,NA,"",   406.827E-03,   253.755E-03,  -317.988E-03,   62.7361E-03
C:/temp/dataset/9/16_5.odb,Step-1,Increment      1: Step Time =    1.000,"PART-1-1",            83,           15.,          -20.,            0.,NA,NA,"",   944.130E-03,   730.184E-03,  -598.510E-03,   50.6118E-03
C:/temp/dataset/9/16_5.odb,Step-1,Increment      1: Step Time =    1.000,"PART-1-1",            84,           15.,         -17.5,            0.,NA,NA,"",       1.28160,       1.05536,  -727.132E-03,   44.1897E-03
C:/temp/dataset/9/16_5.odb,Step-1,Increment      1: Step Time =    1.000,"PART-1-1",            85,           15.,         -12.5,            0.,NA,NA,"",       2.08284,       1.84753,  -961.708E-03,   31.0887E-03
C:/temp/dataset/9/16_5.odb,Step-1,Increment      1: Step Time =    1.000,"PART-1-1",            86,           15.,          -10.,            0.,NA,NA,"",       2.53624,       2.30110,      -1.06650,   24.3853E-03
C:/temp/dataset/9/16_5.odb,Step-1,Increment      1: Step Time =    1.000,"PART-1-1",            87,           15.,           -5.,            0.,NA,NA,"",       3.51421,       3.28624,      -1.24512,   11.1487E-03
C:/temp/dataset/9/16_5.odb,Step-1,Increment      1: Step Time =    1.000,"PART-1-1",            88,           15.,          -2.5,            0.,NA,NA,"",       4.02274,       3.80083,      -1.31759,   5.84403E-03
C:/temp/dataset/9/16_5.odb,Step-1,Increment      1: Step Time =    1.000,"PART-1-1",            89,           15.,           2.5,            0.,NA,NA,"",       5.04704,       4.83798,      -1.43755,   367.952E-06
C:/temp/dataset/9/16_5.odb,Step-1,Increment      1: Step Time =    1.000,"PART-1-1",            90,           15.,            5.,            0.,NA,NA,"",       5.55791,       5.35412,      -1.49125,   302.478E-06
C:/temp/dataset/9/16_5.odb,Step-1,Increment      1: Step Time =    1.000,"PART-1-1",            91,           15.,           10.,            0.,NA,NA,"",       6.57769,       6.38100,      -1.59651,   187.552E-06
C:/temp/dataset/9/16_5.odb,Step-1,Increment      1: Step Time =    1.000,"PART-1-1",            92,           15.,          12.5,            0.,NA,NA,"",       7.08795,       6.89341,      -1.64925,   118.645E-06
C:/temp/dataset/9/16_5.odb,Step-1,Increment      1: Step Time =    1.000,"PART-1-1",            93,           15.,          17.5,            0.,NA,NA,"",       8.11002,       7.91790,      -1.75478,   145.745E-06
C:/temp/dataset/9/16_5.odb,Step-1,Increment      1: Step Time =    1.000,"PART-1-1",            94,           15.,           20.,            0.,NA,NA,"",       8.62154,       8.42996,      -1.80742,   160.063E-06
C:/temp/dataset/9/16_5.odb,Step-1,Increment      1: Step Time =    1.000,"PART-1-1",            95,           15.,           25.,            0.,NA,NA,"",       9.64497,       9.45342,      -1.91268,   74.3929E-06
C:/temp/dataset/9/16_5.odb,Step-1,Increment      1: Step Time =    1.000,"PART-1-1",            96,           15.,          27.5,            0.,NA,NA,"",       10.1570,       9.96497,      -1.96548,   14.5581E-06
C:/temp/dataset/9/16_5.odb,Step-1,Increment      1: Step Time =    1.000,"PART-1-1",            97,       7.09255,      -21.6558,            0.,NA,NA,"",   610.280E-03,   549.236E-03,   266.049E-03,   34.1368E-03
C:/temp/dataset/9/16_5.odb,Step-1,Increment      1: Step Time =    1.000,"PART-1-1",            98,       7.09346,      -17.4368,            0.,NA,NA,"",       1.16027,       1.10852,   342.636E-03,   27.5449E-03
C:/temp/dataset/9/16_5.odb,Step-1,Increment      1: Step Time =    1.000,"PART-1-1",            99,       7.15828,      -23.7452,            0.,NA,NA,"",   393.446E-03,   335.144E-03,   206.102E-03,   36.6501E-03
C:/temp/dataset/9/16_5.odb,Step-1,Increment      1: Step Time =    1.000,"PART-1-1",           100,       7.44609,      -27.8729,            0.,NA,NA,"",   84.7174E-03,   55.8513E-03,   63.6999E-03,   40.1548E-03
C:/temp/dataset/9/16_5.odb,Step-1,Increment      1: Step Time =    1.000,"PART-1-1",           101,       7.30780,      -25.7939,            0.,NA,NA,"",   216.699E-03,   170.152E-03,   134.189E-03,   39.3963E-03
C:/temp/dataset/9/16_5.odb,Step-1,Increment      1: Step Time =    1.000,"PART-1-1",           102,       7.08258,      -10.9526,            0.,NA,NA,"",       2.26068,       2.22979,   372.479E-03,   17.8401E-03
C:/temp/dataset/9/16_5.odb,Step-1,Increment      1: Step Time =    1.000,"PART-1-1",           103,       7.09950,      -13.1236,            0.,NA,NA,"",       1.86304,       1.82553,   371.967E-03,   20.9900E-03
C:/temp/dataset/9/16_5.odb,Step-1,Increment      1: Step Time =    1.000,"PART-1-1",           104,       6.95448,      -6.62029,            0.,NA,NA,"",       3.12199,       3.10117,   359.949E-03,   12.0511E-03
C:/temp/dataset/9/16_5.odb,Step-1,Increment      1: Step Time =    1.000,"PART-1-1",           105,       7.04974,      -8.78764,            0.,NA,NA,"",       2.68047,       2.65545,   365.390E-03,   14.8483E-03
C:/temp/dataset/9/16_5.odb,Step-1,Increment      1: Step Time =    1.000,"PART-1-1",           106,       7.10540,      -15.2896,            0.,NA,NA,"",       1.49394,       1.44944,   361.911E-03,   24.1932E-03
C:/temp/dataset/9/16_5.odb,Step-1,Increment      1: Step Time =    1.000,"PART-1-1",           107,       7.08223,      -19.5608,            0.,NA,NA,"",   865.072E-03,   807.150E-03,   311.222E-03,   30.9174E-03
C:/temp/dataset/9/16_5.odb,Step-1,Increment      1: Step Time =    1.000,"PART-1-1",           108,      -11.8989,       25.3809,            0.,NA,NA,"",       10.7100,       10.0972,       3.57062,   239.783E-06
C:/temp/dataset/9/16_5.odb,Step-1,Increment      1: Step Time =    1.000,"PART-1-1",           109,      -12.7134,       3.51066,            0.,NA,NA,"",       7.06304,       5.69062,       4.18371,   3.46859E-03
C:/temp/dataset/9/16_5.odb,Step-1,Increment      1: Step Time =    1.000,"PART-1-1",           110,      -13.0834,       10.3867,            0.,NA,NA,"",       8.19104,       7.07943,       4.12004,   316.836E-06
C:/temp/dataset/9/16_5.odb,Step-1,Increment      1: Step Time =    1.000,"PART-1-1",           111,      -12.9355,       8.20912,            0.,NA,NA,"",       7.81909,       6.63643,       4.13473,   356.407E-06
C:/temp/dataset/9/16_5.odb,Step-1,Increment      1: Step Time =    1.000,"PART-1-1",           112,      -13.1801,       12.5484,            0.,NA,NA,"",       8.56184,       7.51885,       4.09536,   265.026E-06
C:/temp/dataset/9/16_5.odb,Step-1,Increment      1: Step Time =    1.000,"PART-1-1",           113,      -12.7454,       20.6010,            0.,NA,NA,"",       9.91709,       9.14272,       3.84180,   252.832E-06
C:/temp/dataset/9/16_5.odb,Step-1,Increment      1: Step Time =    1.000,"PART-1-1",           114,      -13.1621,       18.5389,            0.,NA,NA,"",       9.59223,       8.73265,       3.96884,   282.482E-06
C:/temp/dataset/9/16_5.odb,Step-1,Increment      1: Step Time =    1.000,"PART-1-1",           115,      -12.3840,       22.8683,            0.,NA,NA,"",       10.2925,       9.59613,       3.72147,   252.599E-06
C:/temp/dataset/9/16_5.odb,Step-1,Increment      1: Step Time =    1.000,"PART-1-1",           116,      -13.4658,       16.5948,            0.,NA,NA,"",       9.28438,       8.34459,       4.07034,   307.130E-06
C:/temp/dataset/9/16_5.odb,Step-1,Increment      1: Step Time =    1.000,"PART-1-1",           117,      -13.3466,       14.6489,            0.,NA,NA,"",       8.93654,       7.94771,       4.08604,   285.691E-06
C:/temp/dataset/9/16_5.odb,Step-1,Increment      1: Step Time =    1.000,"PART-1-1",           118,      -12.3609,       5.76892,            0.,NA,NA,"",       7.36056,       6.13361,       4.06899,   753.859E-06
C:/temp/dataset/9/16_5.odb,Step-1,Increment      1: Step Time =    1.000,"PART-1-1",           119,      -12.8583,       1.39410,            0.,NA,NA,"",       6.77188,       5.27090,       4.25159,   4.95326E-03
C:/temp/dataset/9/16_5.odb,Step-1,Increment      1: Step Time =    1.000,"PART-1-1",           120,      -12.6304,  -685.754E-03,            0.,NA,NA,"",       6.44127,       4.84534,       4.24414,   5.00646E-03
C:/temp/dataset/9/16_5.odb,Step-1,Increment      1: Step Time =    1.000,"PART-1-1",           121,   38.5673E-03,       27.2989,            0.,NA,NA,"",       10.2981,       10.2392,       1.09984,   186.472E-06
C:/temp/dataset/9/16_5.odb,Step-1,Increment      1: Step Time =    1.000,"PART-1-1",           122,      -4.16985,       22.2766,            0.,NA,NA,"",       9.52997,       9.30372,       2.06423,   244.527E-06
C:/temp/dataset/9/16_5.odb,Step-1,Increment      1: Step Time =    1.000,"PART-1-1",           123,      -7.85548,       28.0855,            0.,NA,NA,"",       10.9013,       10.5637,       2.69211,   247.260E-06
C:/temp/dataset/9/16_5.odb,Step-1,Increment      1: Step Time =    1.000,"PART-1-1",           124,       9.92813,      -27.7267,            0.,NA,NA,"",   37.8392E-03,   37.6725E-03,   3.54827E-03,   12.3452E-03
C:/temp/dataset/9/16_5.odb,Step-1,Increment      1: Step Time =    1.000,"PART-1-1",           125,       13.1106,      -17.4438,            0.,NA,NA,"",       1.14750,       1.05210,  -458.074E-03,   27.9904E-03
C:/temp/dataset/9/16_5.odb,Step-1,Increment      1: Step Time =    1.000,"PART-1-1",           126,       12.8150,       2.64061,            0.,NA,NA,"",       5.01248,       4.91362,  -990.619E-03,   1.57902E-03
C:/temp/dataset/9/16_5.odb,Step-1,Increment      1: Step Time =    1.000,"PART-1-1",           127,       7.56819,       12.3225,            0.,NA,NA,"",       7.01564,       7.01456,  -122.925E-03,   137.611E-06
C:/temp/dataset/9/16_5.odb,Step-1,Increment      1: Step Time =    1.000,"PART-1-1",           128,       7.47113,       19.8748,            0.,NA,NA,"",       8.56839,       8.56434,  -263.314E-03,   154.424E-06
C:/temp/dataset/9/16_5.odb,Step-1,Increment      1: Step Time =    1.000,"PART-1-1",           129,       12.4223,       27.5153,            0.,NA,NA,"",       10.1253,       10.0227,      -1.43825,   69.9660E-06
C:/temp/dataset/9/16_5.odb,Step-1,Increment      1: Step Time =    1.000,"PART-1-1",           130,       12.3750,       22.5091,            0.,NA,NA,"",       9.09608,       8.99937,      -1.32289,   105.785E-06
C:/temp/dataset/9/16_5.odb,Step-1,Increment      1: Step Time =    1.000,"PART-1-1",           131,       7.58839,       27.9970,            0.,NA,NA,"",       10.2337,       10.2234,  -458.873E-03,   149.106E-06
C:/temp/dataset/9/16_5.odb,Step-1,Increment      1: Step Time =    1.000,"PART-1-1",           132,   199.805E-03,       22.3057,            0.,NA,NA,"",       9.29097,       9.21676,       1.17199,   283.899E-06
C:/temp/dataset/9/16_5.odb,Step-1,Increment      1: Step Time =    1.000,"PART-1-1",           133,       12.6934,       9.82310,            0.,NA,NA,"",       6.49116,       6.39384,      -1.11983,   72.6122E-06
C:/temp/dataset/9/16_5.odb,Step-1,Increment      1: Step Time =    1.000,"PART-1-1",           134,      -7.14717,       12.7802,            0.,NA,NA,"",       7.97537,       7.44135,       2.86928,   326.931E-06
C:/temp/dataset/9/16_5.odb,Step-1,Increment      1: Step Time =    1.000,"PART-1-1",           135,      -6.86178,       17.9412,            0.,NA,NA,"",       8.90055,       8.48014,       2.70315,   442.204E-06
C:/temp/dataset/9/16_5.odb,Step-1,Increment      1: Step Time =    1.000,"PART-1-1",           136,      -2.68307,      -2.95682,            0.,NA,NA,"",       4.71918,       4.13266,       2.27855,   5.26053E-03
C:/temp/dataset/9/16_5.odb,Step-1,Increment      1: Step Time =    1.000,"PART-1-1",           137,      -7.59808,      -3.03341,            0.,NA,NA,"",       5.36013,       4.24276,       3.27566,   5.31223E-03
C:/temp/dataset/9/16_5.odb,Step-1,Increment      1: Step Time =    1.000,"PART-1-1",           138,  -248.196E-03,       2.69947,            0.,NA,NA,"",       5.49244,       5.23161,       1.67247,   3.52150E-03
C:/temp/dataset/9/16_5.odb,Step-1,Increment      1: Step Time =    1.000,"PART-1-1",           139,       2.16631,      -2.47375,            0.,NA,NA,"",       4.30247,       4.10768,       1.27991,   4.53929E-03
C:/temp/dataset/9/16_5.odb,Step-1,Increment      1: Step Time =    1.000,"PART-1-1",           140,       4.39271,       2.43636,            0.,NA,NA,"",       5.11679,       5.06466,   728.500E-03,   3.33648E-03
C:/temp/dataset/9/16_5.odb,Step-1,Increment      1: Step Time =    1.000,"PART-1-1",           141,       12.9283,      -5.27800,            0.,NA,NA,"",       3.36425,       3.26319,  -818.399E-03,   10.2359E-03
C:/temp/dataset/9/16_5.odb,Step-1,Increment      1: Step Time =    1.000,"PART-1-1",           142,       13.0847,      -12.6172,            0.,NA,NA,"",       1.93646,       1.83469,  -619.535E-03,   20.6648E-03
C:/temp/dataset/9/16_5.odb,Step-1,Increment      1: Step Time =    1.000,"PART-1-1",           143,       12.4838,       17.4790,            0.,NA,NA,"",       8.06284,       7.96707,      -1.23902,   92.1534E-06
C:/temp/dataset/9/16_5.odb,Step-1,Increment      1: Step Time =    1.000,"PART-1-1",           144,       2.63438,       22.2143,            0.,NA,NA,"",       9.17121,       9.14621,   676.632E-03,   232.602E-06
C:/temp/dataset/9/16_5.odb,Step-1,Increment      1: Step Time =    1.000,"PART-1-1",           145,       7.54366,       14.9275,            0.,NA,NA,"",       7.55099,       7.54901,  -173.215E-03,   87.4273E-06
C:/temp/dataset/9/16_5.odb,Step-1,Increment      1: Step Time =    1.000,"PART-1-1",           146,       7.50510,       17.4443,            0.,NA,NA,"",       8.06857,       8.06561,  -218.736E-03,   114.923E-06
C:/temp/dataset/9/16_5.odb,Step-1,Increment      1: Step Time =    1.000,"PART-1-1",           147,       7.12790,       7.03873,            0.,NA,NA,"",       5.94215,       5.94162,   79.1080E-03,   373.926E-06
C:/temp/dataset/9/16_5.odb,Step-1,Increment      1: Step Time =    1.000,"PART-1-1",           148,       7.48952,       9.64170,            0.,NA,NA,"",       6.46704,       6.46684,  -49.9138E-03,   195.983E-06
C:/temp/dataset/9/16_5.odb,Step-1,Increment      1: Step Time =    1.000,"PART-1-1",           149,       2.16717,       2.56251,            0.,NA,NA,"",       5.27862,       5.14480,       1.18105,   3.49940E-03
C:/temp/dataset/9/16_5.odb,Step-1,Increment      1: Step Time =    1.000,"PART-1-1",           150,      -2.68606,       3.12146,            0.,NA,NA,"",       5.79520,       5.37697,       2.16161,   3.37602E-03
C:/temp/dataset/9/16_5.odb,Step-1,Increment      1: Step Time =    1.000,"PART-1-1",           151,      -7.08307,       10.2840,            0.,NA,NA,"",       7.52063,       6.93547,       2.90846,   427.294E-06
C:/temp/dataset/9/16_5.odb,Step-1,Increment      1: Step Time =    1.000,"PART-1-1",           152,      -2.13928,       22.2031,            0.,NA,NA,"",       9.39196,       9.24561,       1.65156,   362.029E-06
C:/temp/dataset/9/16_5.odb,Step-1,Increment      1: Step Time =    1.000,"PART-1-1",           153,       9.90766,       27.6812,            0.,NA,NA,"",       10.1522,       10.1098,  -926.977E-03,   117.683E-06
C:/temp/dataset/9/16_5.odb,Step-1,Increment      1: Step Time =    1.000,"PART-1-1",           154,       5.18317,       27.8350,            0.,NA,NA,"",       10.2409,       10.2409,   36.7977E-03,   179.559E-06
C:/temp/dataset/9/16_5.odb,Step-1,Increment      1: Step Time =    1.000,"PART-1-1",           155,       2.70091,       27.4744,            0.,NA,NA,"",       10.2342,       10.2193,   552.119E-03,   185.543E-06
C:/temp/dataset/9/16_5.odb,Step-1,Increment      1: Step Time =    1.000,"PART-1-1",           156,      -2.92570,       26.9909,            0.,NA,NA,"",       10.3804,       10.2383,       1.71130,   179.825E-06
C:/temp/dataset/9/16_5.odb,Step-1,Increment      1: Step Time =    1.000,"PART-1-1",           157,      -5.52449,       27.7330,            0.,NA,NA,"",       10.6780,       10.4436,       2.22519,   246.284E-06
C:/temp/dataset/9/16_5.odb,Step-1,Increment      1: Step Time =    1.000,"PART-1-1",           158,      -10.1759,       28.1970,            0.,NA,NA,"",       11.0945,       10.6345,       3.16154,   200.900E-06
C:/temp/dataset/9/16_5.odb,Step-1,Increment      1: Step Time =    1.000,"PART-1-1",           159,      -7.15795,       15.3782,            0.,NA,NA,"",       8.45057,       7.96721,       2.81703,   326.594E-06
C:/temp/dataset/9/16_5.odb,Step-1,Increment      1: Step Time =    1.000,"PART-1-1",           160,      -7.10855,       7.92361,            0.,NA,NA,"",       7.10597,       6.45881,       2.96286,   559.438E-06
C:/temp/dataset/9/16_5.odb,Step-1,Increment      1: Step Time =    1.000,"PART-1-1",           161,      -7.31416,       5.72319,            0.,NA,NA,"",       6.74584,       6.01673,       3.05047,   935.375E-06
C:/temp/dataset/9/16_5.odb,Step-1,Increment      1: Step Time =    1.000,"PART-1-1",           162,      -10.0288,      -2.82434,            0.,NA,NA,"",       5.74830,       4.34682,       3.76139,   5.26736E-03
C:/temp/dataset/9/16_5.odb,Step-1,Increment      1: Step Time =    1.000,"PART-1-1",           163,      -5.14639,      -3.11924,            0.,NA,NA,"",       5.00643,       4.16265,       2.78150,   5.32399E-03
C:/temp/dataset/9/16_5.odb,Step-1,Increment      1: Step Time =    1.000,"PART-1-1",           164,  -261.821E-03,      -2.60038,            0.,NA,NA,"",       4.50934,       4.14370,       1.77874,   5.00954E-03
C:/temp/dataset/9/16_5.odb,Step-1,Increment      1: Step Time =    1.000,"PART-1-1",           165,       4.38015,      -2.33295,            0.,NA,NA,"",       4.16094,       4.07908,   821.321E-03,   5.51094E-03
C:/temp/dataset/9/16_5.odb,Step-1,Increment      1: Step Time =    1.000,"PART-1-1",           166,       13.0639,      -10.1924,            0.,NA,NA,"",       2.38521,       2.28156,  -695.515E-03,   17.1217E-03
C:/temp/dataset/9/16_5.odb,Step-1,Increment      1: Step Time =    1.000,"PART-1-1",           167,       13.0843,      -19.8267,            0.,NA,NA,"",   818.989E-03,   730.260E-03,  -370.761E-03,   31.4076E-03
C:/temp/dataset/9/16_5.odb,Step-1,Increment      1: Step Time =    1.000,"PART-1-1",           168,       12.4446,      -27.5067,            0.,NA,NA,"",   91.8358E-03,   60.9191E-03,  -68.7217E-03,   36.0068E-03
C:/temp/dataset/9/16_5.odb,Step-1,Increment      1: Step Time =    1.000,"PART-1-1",           169,       12.9329,      -22.1971,            0.,NA,NA,"",   533.411E-03,   458.942E-03,  -271.846E-03,   33.2707E-03
C:/temp/dataset/9/16_5.odb,Step-1,Increment      1: Step Time =    1.000,"PART-1-1",           170,       13.1086,      -15.0383,            0.,NA,NA,"",       1.52173,       1.42220,  -541.297E-03,   24.3735E-03
C:/temp/dataset/9/16_5.odb,Step-1,Increment      1: Step Time =    1.000,"PART-1-1",           171,       13.0208,      -7.75462,            0.,NA,NA,"",       2.86207,       2.75824,  -763.907E-03,   13.6638E-03
C:/temp/dataset/9/16_5.odb,Step-1,Increment      1: Step Time =    1.000,"PART-1-1",           172,       12.7756,      -2.70708,            0.,NA,NA,"",       3.89551,       3.80015,  -856.628E-03,   6.91510E-03
C:/temp/dataset/9/16_5.odb,Step-1,Increment      1: Step Time =    1.000,"PART-1-1",           173,       12.6338,  -14.4220E-03,            0.,NA,NA,"",       4.45591,       4.36545,  -893.308E-03,   3.92373E-03
C:/temp/dataset/9/16_5.odb,Step-1,Increment      1: Step Time =    1.000,"PART-1-1",           174,       13.0186,       5.13380,            0.,NA,NA,"",       5.53192,       5.42414,      -1.08667,   376.903E-06
C:/temp/dataset/9/16_5.odb,Step-1,Increment      1: Step Time =    1.000,"PART-1-1",           175,       13.0709,       7.51902,            0.,NA,NA,"",       6.02375,       5.91328,      -1.14835,   54.6213E-06
C:/temp/dataset/9/16_5.odb,Step-1,Increment      1: Step Time =    1.000,"PART-1-1",           176,       12.5119,       12.3699,            0.,NA,NA,"",       7.01234,       6.91961,      -1.13664,   34.9539E-06
C:/temp/dataset/9/16_5.odb,Step-1,Increment      1: Step Time =    1.000,"PART-1-1",           177,       12.4863,       14.9454,            0.,NA,NA,"",       7.54173,       7.44791,      -1.18594,   68.3330E-06
C:/temp/dataset/9/16_5.odb,Step-1,Increment      1: Step Time =    1.000,"PART-1-1",           178,       12.4500,       19.9932,            0.,NA,NA,"",       8.57954,       8.48273,      -1.28518,   99.2940E-06
C:/temp/dataset/9/16_5.odb,Step-1,Increment      1: Step Time =    1.000,"PART-1-1",           179,       9.19048,      -23.6482,            0.,NA,NA,"",   320.214E-03,   314.916E-03,   58.0058E-03,   16.3074E-03
C:/temp/dataset/9/16_5.odb,Step-1,Increment      1: Step Time =    1.000,"PART-1-1",           180,       9.11932,      -19.5624,            0.,NA,NA,"",   778.165E-03,   774.258E-03,   77.8791E-03,   14.9481E-03
C:/temp/dataset/9/16_5.odb,Step-1,Increment      1: Step Time =    1.000,"PART-1-1",           181,       9.13323,      -12.9344,            0.,NA,NA,"",       1.82087,       1.82044,   39.8048E-03,   12.7387E-03
C:/temp/dataset/9/16_5.odb,Step-1,Increment      1: Step Time =    1.000,"PART-1-1",           182,       9.14303,      -17.4019,            0.,NA,NA,"",       1.08116,       1.07882,   71.1690E-03,   14.0570E-03
C:/temp/dataset/9/16_5.odb,Step-1,Increment      1: Step Time =    1.000,"PART-1-1",           183,       9.11260,      -10.6744,            0.,NA,NA,"",       2.24212,       2.24207,   14.8998E-03,   12.1909E-03
C:/temp/dataset/9/16_5.odb,Step-1,Increment      1: Step Time =    1.000,"PART-1-1",           184,       9.06671,      -8.40676,            0.,NA,NA,"",       2.68965,       2.68963,  -12.2854E-03,   11.9081E-03
C:/temp/dataset/9/16_5.odb,Step-1,Increment      1: Step Time =    1.000,"PART-1-1",           185,       9.15359,      -15.1846,            0.,NA,NA,"",       1.43086,       1.42971,   57.3246E-03,   13.3241E-03
C:/temp/dataset/9/16_5.odb,Step-1,Increment      1: Step Time =    1.000,"PART-1-1",           186,       9.09437,      -21.6308,            0.,NA,NA,"",   527.156E-03,   521.627E-03,   76.1449E-03,   15.9695E-03
C:/temp/dataset/9/16_5.odb,Step-1,Increment      1: Step Time =    1.000,"PART-1-1",           187,       8.94944,      -6.10597,            0.,NA,NA,"",       3.16458,       3.16442,  -31.5567E-03,   12.0150E-03
C:/temp/dataset/9/16_5.odb,Step-1,Increment      1: Step Time =    1.000,"PART-1-1",           188,      -11.3189,       17.6054,            0.,NA,NA,"",       9.24085,       8.50474,       3.61425,   124.272E-06
C:/temp/dataset/9/16_5.odb,Step-1,Increment      1: Step Time =    1.000,"PART-1-1",           189,      -10.4260,       2.85148,            0.,NA,NA,"",       6.65359,       5.50546,       3.73633,   3.30151E-03
C:/temp/dataset/9/16_5.odb,Step-1,Increment      1: Step Time =    1.000,"PART-1-1",           190,      -12.4413,       27.8959,            0.,NA,NA,"",       11.2230,       10.6204,       3.62830,   133.621E-06
C:/temp/dataset/9/16_5.odb,Step-1,Increment      1: Step Time =    1.000,"PART-1-1",           191,      -10.6658,       19.6683,            0.,NA,NA,"",       9.55041,       8.90974,       3.43904,   155.861E-06
C:/temp/dataset/9/16_5.odb,Step-1,Increment      1: Step Time =    1.000,"PART-1-1",           192,      -12.1118,       16.4066,            0.,NA,NA,"",       9.10858,       8.27818,       3.79975,   173.110E-06
C:/temp/dataset/9/16_5.odb,Step-1,Increment      1: Step Time =    1.000,"PART-1-1",           193,      -11.5166,       14.9043,            0.,NA,NA,"",       8.78345,       7.96139,       3.71014,   85.0871E-06
C:/temp/dataset/9/16_5.odb,Step-1,Increment      1: Step Time =    1.000,"PART-1-1",           194,      -11.2054,       12.7278,            0.,NA,NA,"",       8.37236,       7.51429,       3.69215,   69.4800E-06
C:/temp/dataset/9/16_5.odb,Step-1,Increment      1: Step Time =    1.000,"PART-1-1",           195,      -11.1139,       10.5020,            0.,NA,NA,"",       7.98197,       7.06221,       3.71982,   204.439E-06
C:/temp/dataset/9/16_5.odb,Step-1,Increment      1: Step Time =    1.000,"PART-1-1",           196,      -9.42029,       24.1195,            0.,NA,NA,"",       10.2659,       9.78878,       3.09345,   274.471E-06
C:/temp/dataset/9/16_5.odb,Step-1,Increment      1: Step Time =    1.000,"PART-1-1",           197,      -11.0759,       8.46025,            0.,NA,NA,"",       7.63578,       6.64893,       3.75458,   280.900E-06
C:/temp/dataset/9/16_5.odb,Step-1,Increment      1: Step Time =    1.000,"PART-1-1",           198,      -10.9473,       6.84821,            0.,NA,NA,"",       7.35598,       6.32117,       3.76208,   420.934E-06
C:/temp/dataset/9/16_5.odb,Step-1,Increment      1: Step Time =    1.000,"PART-1-1",           199,       9.64075,      -25.5803,            0.,NA,NA,"",   157.566E-03,   156.236E-03,   20.4275E-03,   13.5289E-03
C:/temp/dataset/9/16_5.odb,Step-1,Increment      1: Step Time =    1.000,"PART-1-1",           200,       6.22595,      -2.03957,            0.,NA,NA,"",       4.11404,       4.09071,   437.530E-03,   7.86706E-03
C:/temp/dataset/9/16_5.odb,Step-1,Increment      1: Step Time =    1.000,"PART-1-1",           201,       6.24072,       2.15031,            0.,NA,NA,"",       4.97405,       4.96118,   357.579E-03,   3.91573E-03
C:/temp/dataset/9/16_5.odb,Step-1,Increment      1: Step Time =    1.000,"PART-1-1",           202,      -7.69234,       3.89067,            0.,NA,NA,"",       6.47769,       5.65235,       3.16408,   2.59130E-03
C:/temp/dataset/9/16_5.odb,Step-1,Increment      1: Step Time =    1.000,"PART-1-1",           203,       7.31807,       22.0589,            0.,NA,NA,"",       9.01904,       9.01476,  -278.086E-03,   175.339E-06
C:/temp/dataset/9/16_5.odb,Step-1,Increment      1: Step Time =    1.000,"PART-1-1",           204,      -6.44398,       20.4265,            0.,NA,NA,"",       9.33490,       8.97525,       2.56618,   324.822E-06
C:/temp/dataset/9/16_5.odb,Step-1,Increment      1: Step Time =    1.000,"PART-1-1",           205,       12.2962,       25.0128,            0.,NA,NA,"",       9.61001,       9.51335,      -1.35957,   107.733E-06
C:/temp/dataset/9/16_5.odb,Step-1,Increment      1: Step Time =    1.000,"PART-1-1",           206,       12.2257,      -24.8009,            0.,NA,NA,"",   256.273E-03,   218.554E-03,  -133.827E-03,   29.6412E-03
C:/temp/dataset/9/16_5.odb,Step-1,Increment      1: Step Time =    1.000,"PART-1-1",           207,      -2.06005,       24.5200,            0.,NA,NA,"",       9.84515,       9.71644,       1.58680,   109.381E-06
C:/temp/dataset/9/16_5.odb,Step-1,Increment      1: Step Time =    1.000,"PART-1-1",           208,       9.31619,       25.0673,            0.,NA,NA,"",       9.61701,       9.58767,  -750.630E-03,   149.428E-06
C:/temp/dataset/9/16_5.odb,Step-1,Increment      1: Step Time =    1.000,"PART-1-1",           209,       3.21447,       24.8112,            0.,NA,NA,"",       9.67758,       9.66448,   503.391E-03,   113.453E-06
C:/temp/dataset/9/16_5.odb,Step-1,Increment      1: Step Time =    1.000,"PART-1-1",           210,      -7.52022,      -1.18711,            0.,NA,NA,"",       5.63171,       4.61634,       3.22576,   4.79908E-03
C:/temp/dataset/9/16_5.odb,Step-1,Increment      1: Step Time =    1.000,"PART-1-1",           211,       10.0127,       14.9017,            0.,NA,NA,"",       7.52207,       7.49142,  -678.362E-03,   77.5255E-06
C:/temp/dataset/9/16_5.odb,Step-1,Increment      1: Step Time =    1.000,"PART-1-1",           212,       10.7293,       3.02357,            0.,NA,NA,"",       5.07039,       5.03795,  -572.683E-03,   2.07449E-03
C:/temp/dataset/9/16_5.odb,Step-1,Increment      1: Step Time =    1.000,"PART-1-1",           213,       11.4837,       7.36813,            0.,NA,NA,"",       5.97263,       5.91614,  -819.540E-03,   130.268E-06
C:/temp/dataset/9/16_5.odb,Step-1,Increment      1: Step Time =    1.000,"PART-1-1",           214,      -9.20573,       12.9161,            0.,NA,NA,"",       8.19748,       7.51119,       3.28338,   251.792E-06
C:/temp/dataset/9/16_5.odb,Step-1,Increment      1: Step Time =    1.000,"PART-1-1",           215,   314.418E-03,       24.7704,            0.,NA,NA,"",       9.77914,       9.71744,       1.09683,   99.2789E-06
C:/temp/dataset/9/16_5.odb,Step-1,Increment      1: Step Time =    1.000,"PART-1-1",           216,       7.52406,       26.3727,            0.,NA,NA,"",       9.90112,       9.89257,  -411.331E-03,   154.497E-06
C:/temp/dataset/9/16_5.odb,Step-1,Increment      1: Step Time =    1.000,"PART-1-1",           217,  -811.906E-03,   82.6841E-03,            0.,NA,NA,"",       5.05518,       4.70883,       1.83896,   3.97855E-03
C:/temp/dataset/9/16_5.odb,Step-1,Increment      1: Step Time =    1.000,"PART-1-1",           218,       11.1400,      -19.6444,            0.,NA,NA,"",   764.364E-03,   749.448E-03,  -150.271E-03,   15.3192E-03
C:/temp/dataset/9/16_5.odb,Step-1,Increment      1: Step Time =    1.000,"PART-1-1",           219,       11.1036,      -10.4226,            0.,NA,NA,"",       2.28512,       2.26000,  -337.909E-03,   12.6522E-03
C:/temp/dataset/9/16_5.odb,Step-1,Increment      1: Step Time =    1.000,"PART-1-1",           220,       10.9280,      -5.64335,            0.,NA,NA,"",       3.24946,       3.22225,  -419.677E-03,   10.9917E-03
C:/temp/dataset/9/16_5.odb,Step-1,Increment      1: Step Time =    1.000,"PART-1-1",           221,       11.0667,       5.48495,            0.,NA,NA,"",       5.58160,       5.53829,  -693.991E-03,   656.359E-06
C:/temp/dataset/9/16_5.odb,Step-1,Increment      1: Step Time =    1.000,"PART-1-1",           222,       11.1390,      -12.7671,            0.,NA,NA,"",       1.84678,       1.82391,  -289.692E-03,   13.2400E-03
C:/temp/dataset/9/16_5.odb,Step-1,Increment      1: Step Time =    1.000,"PART-1-1",           223,       11.1627,      -15.1016,            0.,NA,NA,"",       1.44162,       1.42113,  -242.189E-03,   13.9626E-03
C:/temp/dataset/9/16_5.odb,Step-1,Increment      1: Step Time =    1.000,"PART-1-1",           224,      -9.10801,       10.4728,            0.,NA,NA,"",       7.75886,       7.01519,       3.31465,   398.999E-06
C:/temp/dataset/9/16_5.odb,Step-1,Increment      1: Step Time =    1.000,"PART-1-1",           225,      -9.12162,       8.28854,            0.,NA,NA,"",       7.38443,       6.57412,       3.36316,   427.729E-06
C:/temp/dataset/9/16_5.odb,Step-1,Increment      1: Step Time =    1.000,"PART-1-1",           226,      -8.73753,       18.6317,            0.,NA,NA,"",       9.18694,       8.65905,       3.06931,   147.817E-06
C:/temp/dataset/9/16_5.odb,Step-1,Increment      1: Step Time =    1.000,"PART-1-1",           227,      -9.90634,  -397.381E-03,            0.,NA,NA,"",       6.08439,       4.83612,       3.69213,   4.80763E-03
C:/temp/dataset/9/16_5.odb,Step-1,Increment      1: Step Time =    1.000,"PART-1-1",           228,       9.93939,       19.9385,            0.,NA,NA,"",       8.55959,       8.52489,  -769.996E-03,   94.1791E-06
C:/temp/dataset/9/16_5.odb,Step-1,Increment      1: Step Time =    1.000,"PART-1-1",           229,       5.70370,       25.8085,            0.,NA,NA,"",       9.81572,       9.81568,  -26.8328E-03,   152.457E-06
C:/temp/dataset/9/16_5.odb,Step-1,Increment      1: Step Time =    1.000,"PART-1-1",           230,       10.0348,       12.2094,            0.,NA,NA,"",       6.96736,       6.93921,  -625.696E-03,   98.4080E-06
C:/temp/dataset/9/16_5.odb,Step-1,Increment      1: Step Time =    1.000,"PART-1-1",           231,       9.98921,       17.4486,            0.,NA,NA,"",       8.04676,       8.01380,  -727.539E-03,   89.9185E-06
C:/temp/dataset/9/16_5.odb,Step-1,Increment      1: Step Time =    1.000,"PART-1-1",           232,       10.1044,       9.10575,            0.,NA,NA,"",       6.32783,       6.30175,  -573.881E-03,   148.027E-06
C:/temp/dataset/9/16_5.odb,Step-1,Increment      1: Step Time =    1.000,"PART-1-1",           233,      -3.11139,      -1.10310,            0.,NA,NA,"",       5.08814,       4.52308,       2.33043,   4.52376E-03
C:/temp/dataset/9/16_5.odb,Step-1,Increment      1: Step Time =    1.000,"PART-1-1",           234,      -6.48507,       25.5695,            0.,NA,NA,"",       10.3219,       10.0229,       2.46630,   213.473E-06
C:/temp/dataset/9/16_5.odb,Step-1,Increment      1: Step Time =    1.000,"PART-1-1",           235,      -4.76537,       24.8732,            0.,NA,NA,"",       10.0732,       9.84519,       2.13090,   130.180E-06
C:/temp/dataset/9/16_5.odb,Step-1,Increment      1: Step Time =    1.000,"PART-1-1",           236,      -8.46351,       26.0628,            0.,NA,NA,"",       10.5587,       10.1645,       2.85826,   258.018E-06
C:/temp/dataset/9/16_5.odb,Step-1,Increment      1: Step Time =    1.000,"PART-1-1",           237,      -9.50218,       15.8804,            0.,NA,NA,"",       8.75559,       8.11733,       3.28168,   130.644E-06
C:/temp/dataset/9/16_5.odb,Step-1,Increment      1: Step Time =    1.000,"PART-1-1",           238,      -5.29510,      -1.38770,            0.,NA,NA,"",       5.30584,       4.51972,       2.77923,   4.74664E-03
C:/temp/dataset/9/16_5.odb,Step-1,Increment      1: Step Time =    1.000,"PART-1-1",           239,       11.0587,      -21.7318,            0.,NA,NA,"",   511.064E-03,   499.752E-03,  -106.931E-03,   15.6093E-03
C:/temp/dataset/9/16_5.odb,Step-1,Increment      1: Step Time =    1.000,"PART-1-1",           240,       11.1670,      -17.4071,            0.,NA,NA,"",       1.07784,       1.05994,  -195.568E-03,   14.7330E-03
C:/temp/dataset/9/16_5.odb,Step-1,Increment      1: Step Time =    1.000,"PART-1-1",           241,       11.0513,      -8.06140,            0.,NA,NA,"",       2.75218,       2.72512,  -384.985E-03,   12.0791E-03
C:/temp/dataset/9/16_5.odb,Step-1,Increment      1: Step Time =    1.000,"PART-1-1",           242,       10.1357,   7.39639E-03,            0.,NA,NA,"",       4.44067,       4.42366,  -388.335E-03,   5.21191E-03
C:/temp/dataset/9/16_5.odb,Step-1,Increment      1: Step Time =    1.000,"PART-1-1",           243,       10.6886,      -3.06387,            0.,NA,NA,"",       3.79161,       3.76687,  -432.392E-03,   8.62432E-03
C:/temp/dataset/9/16_5.odb,Step-1,Increment      1: Step Time =    1.000,"PART-1-1",           244,       9.76329,       22.4053,            0.,NA,NA,"",       9.06774,       9.03361,  -785.991E-03,   130.413E-06
C:/temp/dataset/9/16_5.odb,Step-1,Increment      1: Step Time =    1.000,"PART-1-1",           245,       8.68231,      -3.74099,            0.,NA,NA,"",       3.66847,       3.66839,  -23.9877E-03,   10.6324E-03
C:/temp/dataset/9/16_5.odb,Step-1,Increment      1: Step Time =    1.000,"PART-1-1",           246,      -9.34414,       6.30777,            0.,NA,NA,"",       7.07623,       6.17855,       3.44943,   652.757E-06
C:/temp/dataset/9/16_5.odb,Step-1,Increment      1: Step Time =    1.000,"PART-1-1",           247,      -9.93235,       4.61568,            0.,NA,NA,"",       6.87002,       5.84970,       3.60252,   1.79777E-03
C:/temp/dataset/9/16_5.odb,Step-1,Increment      1: Step Time =    1.000,"PART-1-1",           248,      -8.14937,       21.0679,            0.,NA,NA,"",       9.59009,       9.14138,       2.89913,   215.183E-06
C:/temp/dataset/9/16_5.odb,Step-1,Increment      1: Step Time =    1.000,"PART-1-1",           249,       10.7972,      -23.3791,            0.,NA,NA,"",   338.236E-03,   332.497E-03,  -62.0452E-03,   14.0650E-03
C:/temp/dataset/9/16_5.odb,Step-1,Increment      1: Step Time =    1.000,"PART-1-1",           250,       4.15357,   65.4176E-03,            0.,NA,NA,"",       4.65520,       4.58185,   823.098E-03,   4.39398E-03
C:/temp/dataset/9/16_5.odb,Step-1,Increment      1: Step Time =    1.000,"PART-1-1",           251,       8.71950,       3.82470,            0.,NA,NA,"",       5.25135,       5.24827,  -179.757E-03,   2.13792E-03
C:/temp/dataset/9/16_5.odb,Step-1,Increment      1: Step Time =    1.000,"PART-1-1",           252,       5.00281,       23.5204,            0.,NA,NA,"",       9.36428,       9.36283,   164.897E-03,   142.303E-06
C:/temp/dataset/9/16_5.odb,Step-1,Increment      1: Step Time =    1.000,"PART-1-1",           253,       7.40149,   60.9774E-03,            0.,NA,NA,"",       4.50229,       4.49938,   161.972E-03,   5.63130E-03
C:/temp/dataset/9/16_5.odb,Step-1,Increment      1: Step Time =    1.000,"PART-1-1",           254,      -5.73116,       22.7675,            0.,NA,NA,"",       9.73005,       9.43651,       2.37195,   243.930E-06
C:/temp/dataset/9/16_5.odb,Step-1,Increment      1: Step Time =    1.000,"PART-1-1",           255,      -5.42683,       1.83799,            0.,NA,NA,"",       5.86273,       5.18071,       2.74441,   3.63649E-03
C:/temp/dataset/9/16_5.odb,Step-1,Increment      1: Step Time =    1.000,"PART-1-1",           256,       6.81561,       24.0815,            0.,NA,NA,"",       9.44161,       9.43909,  -217.906E-03,   160.052E-06
C:/temp/dataset/9/16_5.odb,Step-1,Increment      1: Step Time =    1.000,"PART-1-1",           257,      -7.40884,       23.3683,            0.,NA,NA,"",       9.96672,       9.59389,       2.70049,   260.178E-06
C:/temp/dataset/9/16_5.odb,Step-1,Increment      1: Step Time =    1.000,"PART-1-1",           258,      -3.69176,       23.9755,            0.,NA,NA,"",       9.83131,       9.63980,       1.93104,   124.965E-06
C:/temp/dataset/9/16_5.odb,Step-1,Increment      1: Step Time =    1.000,"PART-1-1",           259,      -8.10961,       1.76736,            0.,NA,NA,"",       6.17938,       5.23109,       3.28945,   3.79841E-03
C:/temp/dataset/9/16_5.odb,Step-1,Increment      1: Step Time =    1.000,"PART-1-1",           260,       5.94930,   61.4696E-03,            0.,NA,NA,"",       4.55873,       4.53581,   456.586E-03,   5.08922E-03
C:/temp/dataset/9/16_5.odb,Step-1,Increment      1: Step Time =    1.000,"PART-1-1",           261,       1.93878,   62.7924E-03,            0.,NA,NA,"",       4.80924,       4.63664,       1.27685,   3.82851E-03
C:/temp/dataset/9/16_5.odb,Step-1,Increment      1: Step Time =    1.000,"PART-1-1",           262,       6.71051,      -4.41826,            0.,NA,NA,"",       3.59413,       3.57430,   376.996E-03,   12.8788E-03
C:/temp/dataset/9/16_5.odb,Step-1,Increment      1: Step Time =    1.000,"PART-1-1",           263,      -12.5366,      -2.82410,            0.,NA,NA,"",       6.13478,       4.40985,       4.26483,   5.12144E-03
C:/temp/dataset/9/16_5.odb,Step-1,Increment      1: Step Time =    1.000,"PART-1-1",           264,       6.75090,       4.53602,            0.,NA,NA,"",       5.44326,       5.43932,   207.189E-03,   2.41588E-03
C:/temp/dataset/9/16_5.odb,Step-1,Increment      1: Step Time =    1.000,"PART-1-1",           265,      -5.22339,       3.46233,            0.,NA,NA,"",       6.12091,       5.50723,       2.67132,   3.01915E-03
C:/temp/dataset/9/16_5.odb,Step-1,Increment      1: Step Time =    1.000,"PART-1-1",           266,       4.93795,       21.9167,            0.,NA,NA,"",       9.03881,       9.03632,   212.014E-03,   167.585E-06
C:/temp/dataset/9/16_5.odb,Step-1,Increment      1: Step Time =    1.000,"PART-1-1",           267,       8.13144,      -1.42002,            0.,NA,NA,"",       4.17173,       4.17151,   42.5941E-03,   7.50322E-03
C:/temp/dataset/9/16_5.odb,Step-1,Increment      1: Step Time =    1.000,"PART-1-1",           268,      -3.13115,       1.39136,            0.,NA,NA,"",       5.52865,       5.03382,       2.28617,   3.67732E-03
C:/temp/dataset/9/16_5.odb,Step-1,Increment      1: Step Time =    1.000,"PART-1-1",           269,       9.17709,       6.32873,            0.,NA,NA,"",       5.76160,       5.75242,  -325.084E-03,   521.959E-06
C:/temp/dataset/9/16_5.odb,Step-1,Increment      1: Step Time =    1.000,"PART-1-1",           270,      -11.0423,       1.34077,            0.,NA,NA,"",       6.50565,       5.21568,       3.88848,   4.34556E-03
C:/temp/dataset/9/16_5.odb,Step-1,Increment      1: Step Time =    1.000,"PART-1-1",           271,      -10.1478,       26.6048,            0.,NA,NA,"",       10.7919,       10.3099,       3.18920,   242.750E-06
C:/temp/dataset/9/16_5.odb,Step-1,Increment      1: Step Time =    1.000,"PART-1-1",           272,      -10.1118,       21.9370,            0.,NA,NA,"",       9.91712,       9.35919,       3.27947,   234.925E-06
C:/temp/dataset/9/16_5.odb,Step-1,Increment      1: Step Time =    1.000,"PART-1-1",           273,       8.13886,       1.50501,            0.,NA,NA,"",       4.78211,       4.78209,  -15.1902E-03,   4.24399E-03
C:/temp/dataset/9/16_5.odb,Step-1,Increment      1: Step Time =    1.000,"PART-1-1",           274,      -7.06249,   219.393E-03,            0.,NA,NA,"",       5.79439,       4.89103,       3.10689,   4.33166E-03
C:/temp/dataset/9/16_5.odb,Step-1,Increment      1: Step Time =    1.000,"PART-1-1",           275,      -5.40522,   241.534E-03,            0.,NA,NA,"",       5.58970,       4.85471,       2.77067,   4.18878E-03
C:/temp/dataset/9/16_5.odb,Step-1,Increment      1: Step Time =    1.000,"PART-1-1",           276,      -3.80180,   194.541E-03,            0.,NA,NA,"",       5.39220,       4.80557,       2.44588,   4.11408E-03
C:/temp/dataset/9/16_5.odb,Step-1,Increment      1: Step Time =    1.000,"PART-1-1",           277,      -2.71285,       28.4954,            0.,NA,NA,"",       10.6668,       10.5406,       1.63611,   312.773E-06
C:/temp/dataset/9/16_5.odb,Step-1,Increment      1: Step Time =    1.000,"PART-1-1",           278,         -3.75,           30.,            0.,NA,NA,"",       11.0193,       10.8687,       1.81575,   444.853E-06
C:/temp/dataset/9/16_5.odb,Step-1,Increment      1: Step Time =    1.000,"PART-1-1",           279,      -5.26224,       28.8665,            0.,NA,NA,"",       10.8830,       10.6690,       2.14787,   332.848E-06
C:/temp/dataset/9/16_5.odb,Step-1,Increment      1: Step Time =    1.000,"PART-1-1",           280,      -4.22509,       27.3619,            0.,NA,NA,"",       10.5267,       10.3410,       1.96834,   207.493E-06
C:/temp/dataset/9/16_5.odb,Step-1,Increment      1: Step Time =    1.000,"PART-1-1",           281,      -3.84553,       25.9321,            0.,NA,NA,"",       10.2238,       10.0417,       1.92115,   140.635E-06
C:/temp/dataset/9/16_5.odb,Step-1,Increment      1: Step Time =    1.000,"PART-1-1",           282,      -6.00478,       26.6512,            0.,NA,NA,"",       10.4986,       10.2332,       2.34577,   218.045E-06
C:/temp/dataset/9/16_5.odb,Step-1,Increment      1: Step Time =    1.000,"PART-1-1",           283,      -5.62522,       25.2214,            0.,NA,NA,"",       10.1965,       9.93405,       2.29864,   167.126E-06
C:/temp/dataset/9/16_5.odb,Step-1,Increment      1: Step Time =    1.000,"PART-1-1",           284,      -10.0879,       29.0985,            0.,NA,NA,"",       11.2584,       10.8160,       3.12476,   169.128E-06
C:/temp/dataset/9/16_5.odb,Step-1,Increment      1: Step Time =    1.000,"PART-1-1",           285,        -11.25,           30.,            0.,NA,NA,"",       11.5190,       11.0235,       3.34211,   102.393E-06
C:/temp/dataset/9/16_5.odb,Step-1,Increment      1: Step Time =    1.000,"PART-1-1",           286,      -12.4706,       28.9480,            0.,NA,NA,"",       11.4213,       10.8350,       3.61227,   73.1289E-06
C:/temp/dataset/9/16_5.odb,Step-1,Increment      1: Step Time =    1.000,"PART-1-1",           287,      -11.3086,       28.0465,            0.,NA,NA,"",       11.1565,       10.6274,       3.39492,   165.056E-06
C:/temp/dataset/9/16_5.odb,Step-1,Increment      1: Step Time =    1.000,"PART-1-1",           288,      -13.4495,       25.5029,            0.,NA,NA,"",       10.8717,       10.1545,       3.88318,   165.738E-06
C:/temp/dataset/9/16_5.odb,Step-1,Increment      1: Step Time =    1.000,"PART-1-1",           289,          -15.,       24.5313,            0.,NA,NA,"",       10.8435,       9.98928,       4.21862,   210.875E-06
C:/temp/dataset/9/16_5.odb,Step-1,Increment      1: Step Time =    1.000,"PART-1-1",           290,      -13.6920,       23.1529,            0.,NA,NA,"",       10.4681,       9.68142,       3.98127,   243.639E-06
C:/temp/dataset/9/16_5.odb,Step-1,Increment      1: Step Time =    1.000,"PART-1-1",           291,      -12.1415,       24.1246,            0.,NA,NA,"",       10.5000,       9.84665,       3.64609,   243.041E-06
C:/temp/dataset/9/16_5.odb,Step-1,Increment      1: Step Time =    1.000,"PART-1-1",           292,          8.75,          -30.,            0.,NA,NA,"",            0.,  -3.96013E-39,   28.0305E-39,   14.2961E-03
C:/temp/dataset/9/16_5.odb,Step-1,Increment      1: Step Time =    1.000,"PART-1-1",           293,       9.96407,      -28.8633,            0.,NA,NA,"",   5.35484E-03,   5.26473E-03,   978.233E-06,   3.70613E-03
C:/temp/dataset/9/16_5.odb,Step-1,Increment      1: Step Time =    1.000,"PART-1-1",           294,       8.68711,      -27.7998,            0.,NA,NA,"",   53.3785E-03,   42.4059E-03,   32.4191E-03,   23.2250E-03
C:/temp/dataset/9/16_5.odb,Step-1,Increment      1: Step Time =    1.000,"PART-1-1",           295,       7.47304,      -28.9365,            0.,NA,NA,"",   31.6180E-03,   14.4937E-03,   28.1004E-03,   32.9644E-03
C:/temp/dataset/9/16_5.odb,Step-1,Increment      1: Step Time =    1.000,"PART-1-1",           296,       10.9279,      -22.5555,            0.,NA,NA,"",   421.069E-03,   412.790E-03,  -83.0834E-03,   14.7922E-03
C:/temp/dataset/9/16_5.odb,Step-1,Increment      1: Step Time =    1.000,"PART-1-1",           297,       10.0765,      -21.6813,            0.,NA,NA,"",   508.458E-03,   508.220E-03,  -15.5398E-03,   11.3376E-03
C:/temp/dataset/9/16_5.odb,Step-1,Increment      1: Step Time =    1.000,"PART-1-1",           298,       9.14242,      -22.6395,            0.,NA,NA,"",   418.477E-03,   413.011E-03,   67.4178E-03,   16.0876E-03
C:/temp/dataset/9/16_5.odb,Step-1,Increment      1: Step Time =    1.000,"PART-1-1",           299,       9.99384,      -23.5137,            0.,NA,NA,"",   321.994E-03,   321.993E-03,  -910.830E-06,   11.6938E-03
C:/temp/dataset/9/16_5.odb,Step-1,Increment      1: Step Time =    1.000,"PART-1-1",           300,       7.08785,      -18.4988,            0.,NA,NA,"",       1.00808,   953.068E-03,   328.468E-03,   29.2136E-03
C:/temp/dataset/9/16_5.odb,Step-1,Increment      1: Step Time =    1.000,"PART-1-1",           301,       6.04673,      -17.4684,            0.,NA,NA,"",       1.22780,       1.12822,   484.358E-03,   35.9454E-03
C:/temp/dataset/9/16_5.odb,Step-1,Increment      1: Step Time =    1.000,"PART-1-1",           302,            5.,      -18.5417,            0.,NA,NA,"",       1.16469,   999.965E-03,   597.146E-03,   47.7507E-03
C:/temp/dataset/9/16_5.odb,Step-1,Increment      1: Step Time =    1.000,"PART-1-1",           303,       6.04112,      -19.5721,            0.,NA,NA,"",   936.130E-03,   829.474E-03,   433.949E-03,   40.4482E-03
C:/temp/dataset/9/16_5.odb,Step-1,Increment      1: Step Time =    1.000,"PART-1-1",           304,       7.10245,      -14.2066,            0.,NA,NA,"",       1.67483,       1.63381,   368.405E-03,   22.5756E-03
C:/temp/dataset/9/16_5.odb,Step-1,Increment      1: Step Time =    1.000,"PART-1-1",           305,       6.04975,      -13.2285,            0.,NA,NA,"",       1.91169,       1.83223,   545.424E-03,   27.0453E-03
C:/temp/dataset/9/16_5.odb,Step-1,Increment      1: Step Time =    1.000,"PART-1-1",           306,            5.,       -14.375,            0.,NA,NA,"",       1.80276,       1.65941,   704.484E-03,   36.6936E-03
C:/temp/dataset/9/16_5.odb,Step-1,Increment      1: Step Time =    1.000,"PART-1-1",           307,       6.05270,      -15.3531,            0.,NA,NA,"",       1.55393,       1.46399,   520.996E-03,   31.4530E-03
C:/temp/dataset/9/16_5.odb,Step-1,Increment      1: Step Time =    1.000,"PART-1-1",           308,            5.,      -6.04167,            0.,NA,NA,"",       3.35760,       3.27363,   746.224E-03,   15.8803E-03
C:/temp/dataset/9/16_5.odb,Step-1,Increment      1: Step Time =    1.000,"PART-1-1",           309,       5.97724,      -6.85181,            0.,NA,NA,"",       3.12710,       3.07745,   555.039E-03,   14.1388E-03
C:/temp/dataset/9/16_5.odb,Step-1,Increment      1: Step Time =    1.000,"PART-1-1",           310,       6.83249,      -5.51927,            0.,NA,NA,"",       3.35676,       3.33645,   368.710E-03,   12.2677E-03
C:/temp/dataset/9/16_5.odb,Step-1,Increment      1: Step Time =    1.000,"PART-1-1",           311,       5.85525,      -4.70913,            0.,NA,NA,"",       3.57904,       3.53601,   553.327E-03,   11.9662E-03
C:/temp/dataset/9/16_5.odb,Step-1,Increment      1: Step Time =    1.000,"PART-1-1",           312,       4.27314,       1.25089,            0.,NA,NA,"",       4.88559,       4.82358,   775.960E-03,   3.88723E-03
C:/temp/dataset/9/16_5.odb,Step-1,Increment      1: Step Time =    1.000,"PART-1-1",           313,       3.27994,       2.49943,            0.,NA,NA,"",       5.19306,       5.10458,   954.534E-03,   3.26411E-03
C:/temp/dataset/9/16_5.odb,Step-1,Increment      1: Step Time =    1.000,"PART-1-1",           314,       2.05297,       1.31265,            0.,NA,NA,"",       5.04288,       4.89083,       1.22898,   3.68305E-03
C:/temp/dataset/9/16_5.odb,Step-1,Increment      1: Step Time =    1.000,"PART-1-1",           315,       3.04617,   64.1050E-03,            0.,NA,NA,"",       4.72747,       4.60939,       1.04998,   4.08525E-03
C:/temp/dataset/9/16_5.odb,Step-1,Increment      1: Step Time =    1.000,"PART-1-1",           316,       6.28410,       12.4112,            0.,NA,NA,"",       7.06133,       7.05998,   138.168E-03,   92.1529E-06
C:/temp/dataset/9/16_5.odb,Step-1,Increment      1: Step Time =    1.000,"PART-1-1",           317,            5.,         11.25,            0.,NA,NA,"",       6.86248,       6.84926,   425.756E-03,   187.909E-06
C:/temp/dataset/9/16_5.odb,Step-1,Increment      1: Step Time =    1.000,"PART-1-1",           318,       6.24476,       9.82085,            0.,NA,NA,"",       6.53300,       6.52991,   200.982E-03,   201.193E-06
C:/temp/dataset/9/16_5.odb,Step-1,Increment      1: Step Time =    1.000,"PART-1-1",           319,       7.52885,       10.9821,            0.,NA,NA,"",       6.74123,       6.74068,  -86.4172E-03,   172.055E-06
C:/temp/dataset/9/16_5.odb,Step-1,Increment      1: Step Time =    1.000,"PART-1-1",           320,       6.23557,       19.9374,            0.,NA,NA,"",       8.60355,       8.60354,  -11.7181E-03,   225.926E-06
C:/temp/dataset/9/16_5.odb,Step-1,Increment      1: Step Time =    1.000,"PART-1-1",           321,            5.,         18.75,            0.,NA,NA,"",       8.39056,       8.38633,   266.634E-03,   168.516E-06
C:/temp/dataset/9/16_5.odb,Step-1,Increment      1: Step Time =    1.000,"PART-1-1",           322,       6.25255,       17.4722,            0.,NA,NA,"",       8.09799,       8.09790,   37.2034E-03,   65.3218E-06
C:/temp/dataset/9/16_5.odb,Step-1,Increment      1: Step Time =    1.000,"PART-1-1",           323,       7.48812,       18.6595,            0.,NA,NA,"",       8.31852,       8.31503,  -241.072E-03,   106.222E-06
C:/temp/dataset/9/16_5.odb,Step-1,Increment      1: Step Time =    1.000,"PART-1-1",           324,       12.4612,       28.7577,            0.,NA,NA,"",       10.3810,       10.2760,      -1.47249,   36.9684E-06
C:/temp/dataset/9/16_5.odb,Step-1,Increment      1: Step Time =    1.000,"PART-1-1",           325,         11.25,           30.,            0.,NA,NA,"",       10.6298,       10.5559,      -1.25088,   47.9747E-06
C:/temp/dataset/9/16_5.odb,Step-1,Increment      1: Step Time =    1.000,"PART-1-1",           326,       9.95383,       28.8406,            0.,NA,NA,"",       10.3906,       10.3460,  -960.980E-03,   86.8679E-06
C:/temp/dataset/9/16_5.odb,Step-1,Increment      1: Step Time =    1.000,"PART-1-1",           327,       11.1650,       27.5983,            0.,NA,NA,"",       10.1355,       10.0662,      -1.18262,   92.5624E-06
C:/temp/dataset/9/16_5.odb,Step-1,Increment      1: Step Time =    1.000,"PART-1-1",           328,       9.61193,       26.3742,            0.,NA,NA,"",       9.88438,       9.84872,  -838.789E-03,   128.411E-06
C:/temp/dataset/9/16_5.odb,Step-1,Increment      1: Step Time =    1.000,"PART-1-1",           329,       10.8062,       25.0400,            0.,NA,NA,"",       9.60862,       9.55051,      -1.05511,   126.219E-06
C:/temp/dataset/9/16_5.odb,Step-1,Increment      1: Step Time =    1.000,"PART-1-1",           330,       12.3592,       26.2641,            0.,NA,NA,"",       9.86767,       9.76801,      -1.39890,   87.7998E-06
C:/temp/dataset/9/16_5.odb,Step-1,Increment      1: Step Time =    1.000,"PART-1-1",           331,       7.54419,       28.9985,            0.,NA,NA,"",       10.4398,       10.4291,  -471.054E-03,   150.271E-06
C:/temp/dataset/9/16_5.odb,Step-1,Increment      1: Step Time =    1.000,"PART-1-1",           332,          6.25,           30.,            0.,NA,NA,"",       10.6636,       10.6612,  -227.438E-03,   223.539E-06
C:/temp/dataset/9/16_5.odb,Step-1,Increment      1: Step Time =    1.000,"PART-1-1",           333,       5.09159,       28.9175,            0.,NA,NA,"",       10.4641,       10.4641,   32.5865E-03,   215.413E-06
C:/temp/dataset/9/16_5.odb,Step-1,Increment      1: Step Time =    1.000,"PART-1-1",           334,       6.38578,       27.9160,            0.,NA,NA,"",       10.2343,       10.2321,  -211.010E-03,   163.648E-06
C:/temp/dataset/9/16_5.odb,Step-1,Increment      1: Step Time =    1.000,"PART-1-1",           335,       2.95769,       26.1428,            0.,NA,NA,"",       9.95591,       9.94191,   527.776E-03,   125.692E-06
C:/temp/dataset/9/16_5.odb,Step-1,Increment      1: Step Time =    1.000,"PART-1-1",           336,       4.45909,       25.3098,            0.,NA,NA,"",       9.74298,       9.74006,   238.338E-03,   133.462E-06
C:/temp/dataset/9/16_5.odb,Step-1,Increment      1: Step Time =    1.000,"PART-1-1",           337,       5.44343,       26.8217,            0.,NA,NA,"",       10.0283,       10.0283,   4.99481E-03,   156.734E-06
C:/temp/dataset/9/16_5.odb,Step-1,Increment      1: Step Time =    1.000,"PART-1-1",           338,       3.94204,       27.6547,            0.,NA,NA,"",       10.2343,       10.2301,   294.510E-03,   182.281E-06
C:/temp/dataset/9/16_5.odb,Step-1,Increment      1: Step Time =    1.000,"PART-1-1",           339,       6.06395,       7.26936,            0.,NA,NA,"",       6.01860,       6.01154,   291.476E-03,   459.217E-06
C:/temp/dataset/9/16_5.odb,Step-1,Increment      1: Step Time =    1.000,"PART-1-1",           340,       7.30871,       8.34021,            0.,NA,NA,"",       6.20414,       6.20412,   14.6422E-03,   155.116E-06
C:/temp/dataset/9/16_5.odb,Step-1,Increment      1: Step Time =    1.000,"PART-1-1",           341,            5.,          8.75,            0.,NA,NA,"",       6.35502,       6.33701,   478.110E-03,   454.864E-06
C:/temp/dataset/9/16_5.odb,Step-1,Increment      1: Step Time =    1.000,"PART-1-1",           342,      -13.9291,       1.47830,            0.,NA,NA,"",       6.93982,       5.31382,       4.46368,   4.84576E-03
C:/temp/dataset/9/16_5.odb,Step-1,Increment      1: Step Time =    1.000,"PART-1-1",           343,          -15.,    468.75E-03,            0.,NA,NA,"",       6.96046,       5.13676,       4.69698,   4.56473E-03
C:/temp/dataset/9/16_5.odb,Step-1,Increment      1: Step Time =    1.000,"PART-1-1",           344,      -13.8152,  -655.377E-03,            0.,NA,NA,"",       6.62575,       4.88079,       4.48090,   4.81126E-03
C:/temp/dataset/9/16_5.odb,Step-1,Increment      1: Step Time =    1.000,"PART-1-1",           345,      -12.7443,   354.171E-03,            0.,NA,NA,"",       6.60541,       5.05840,       4.24782,   4.87964E-03
C:/temp/dataset/9/16_5.odb,Step-1,Increment      1: Step Time =    1.000,"PART-1-1",           346,      -13.9678,       8.16706,            0.,NA,NA,"",       7.94211,       6.64923,       4.34337,   614.786E-06
C:/temp/dataset/9/16_5.odb,Step-1,Increment      1: Step Time =    1.000,"PART-1-1",           347,          -15.,       7.03125,            0.,NA,NA,"",       7.90013,       6.44177,       4.57337,   1.16299E-03
C:/temp/dataset/9/16_5.odb,Step-1,Increment      1: Step Time =    1.000,"PART-1-1",           348,      -13.6804,       5.85321,            0.,NA,NA,"",       7.54519,       6.17781,       4.33180,   547.896E-06
C:/temp/dataset/9/16_5.odb,Step-1,Increment      1: Step Time =    1.000,"PART-1-1",           349,      -12.6482,       6.98902,            0.,NA,NA,"",       7.58872,       6.38464,       4.10184,   216.138E-06
C:/temp/dataset/9/16_5.odb,Step-1,Increment      1: Step Time =    1.000,"PART-1-1",           350,      -5.93089,       17.7206,            0.,NA,NA,"",       8.78504,       8.41616,       2.51897,   478.483E-06
C:/temp/dataset/9/16_5.odb,Step-1,Increment      1: Step Time =    1.000,"PART-1-1",           351,      -7.00986,       16.6597,            0.,NA,NA,"",       8.67444,       8.22360,       2.76012,   349.509E-06
C:/temp/dataset/9/16_5.odb,Step-1,Increment      1: Step Time =    1.000,"PART-1-1",           352,      -6.07897,       15.1891,            0.,NA,NA,"",       8.32400,       7.90673,       2.60240,   387.594E-06
C:/temp/dataset/9/16_5.odb,Step-1,Increment      1: Step Time =    1.000,"PART-1-1",           353,           -5.,         16.25,            0.,NA,NA,"",       8.43657,       8.09934,       2.36145,   497.277E-06
C:/temp/dataset/9/16_5.odb,Step-1,Increment      1: Step Time =    1.000,"PART-1-1",           354,      -7.79966,       18.2865,            0.,NA,NA,"",       9.04250,       8.56952,       2.88620,   259.925E-06
C:/temp/dataset/9/16_5.odb,Step-1,Increment      1: Step Time =    1.000,"PART-1-1",           355,      -6.65288,       19.1839,            0.,NA,NA,"",       9.11647,       8.72747,       2.63463,   323.157E-06
C:/temp/dataset/9/16_5.odb,Step-1,Increment      1: Step Time =    1.000,"PART-1-1",           356,      -7.29668,       20.7472,            0.,NA,NA,"",       9.46155,       9.05833,       2.73268,   241.877E-06
C:/temp/dataset/9/16_5.odb,Step-1,Increment      1: Step Time =    1.000,"PART-1-1",           357,      -8.44345,       19.8498,            0.,NA,NA,"",       9.38709,       8.90009,       2.98426,   145.793E-06
C:/temp/dataset/9/16_5.odb,Step-1,Increment      1: Step Time =    1.000,"PART-1-1",           358,      -2.59303,       4.06073,            0.,NA,NA,"",       5.95853,       5.56710,       2.12402,   3.20195E-03
C:/temp/dataset/9/16_5.odb,Step-1,Increment      1: Step Time =    1.000,"PART-1-1",           359,      -1.46713,       2.91047,            0.,NA,NA,"",       5.64022,       5.30438,       1.91721,   3.43302E-03
C:/temp/dataset/9/16_5.odb,Step-1,Increment      1: Step Time =    1.000,"PART-1-1",           360,  -124.098E-03,       3.84974,            0.,NA,NA,"",       5.70078,       5.46443,       1.62446,   3.33872E-03
C:/temp/dataset/9/16_5.odb,Step-1,Increment      1: Step Time =    1.000,"PART-1-1",           361,         -1.25,            5.,            0.,NA,NA,"",       6.01305,       5.72727,       1.83171,   3.08299E-03
C:/temp/dataset/9/16_5.odb,Step-1,Increment      1: Step Time =    1.000,"PART-1-1",           362,      -11.2683,  -541.568E-03,            0.,NA,NA,"",       6.25948,       4.84073,       3.96842,   4.90457E-03
C:/temp/dataset/9/16_5.odb,Step-1,Increment      1: Step Time =    1.000,"PART-1-1",           363,      -10.4743,   471.696E-03,            0.,NA,NA,"",       6.29516,       5.02618,       3.79033,   4.58264E-03
C:/temp/dataset/9/16_5.odb,Step-1,Increment      1: Step Time =    1.000,"PART-1-1",           364,      -11.9503,       1.36743,            0.,NA,NA,"",       6.63764,       5.24321,       4.07026,   4.59068E-03
C:/temp/dataset/9/16_5.odb,Step-1,Increment      1: Step Time =    1.000,"PART-1-1",           365,      -13.0095,       9.29789,            0.,NA,NA,"",       8.00403,       6.85779,       4.12738,   322.523E-06
C:/temp/dataset/9/16_5.odb,Step-1,Increment      1: Step Time =    1.000,"PART-1-1",           366,      -14.0417,       10.3496,            0.,NA,NA,"",       8.30101,       7.09181,       4.31429,   464.959E-06
C:/temp/dataset/9/16_5.odb,Step-1,Increment      1: Step Time =    1.000,"PART-1-1",           367,          -15.,       9.21875,            0.,NA,NA,"",       8.24034,       6.88316,       4.53048,   822.461E-06
C:/temp/dataset/9/16_5.odb,Step-1,Increment      1: Step Time =    1.000,"PART-1-1",           368,      -6.40766,      -1.28741,            0.,NA,NA,"",       5.46657,       4.56807,       3.00268,   4.76939E-03
C:/temp/dataset/9/16_5.odb,Step-1,Increment      1: Step Time =    1.000,"PART-1-1",           369,      -5.35016,  -573.084E-03,            0.,NA,NA,"",       5.44709,       4.68724,       2.77500,   4.46850E-03
C:/temp/dataset/9/16_5.odb,Step-1,Increment      1: Step Time =    1.000,"PART-1-1",           370,      -6.23385,   230.463E-03,            0.,NA,NA,"",       5.69051,       4.87287,       2.93890,   4.26494E-03
C:/temp/dataset/9/16_5.odb,Step-1,Increment      1: Step Time =    1.000,"PART-1-1",           371,      -7.29135,  -483.859E-03,            0.,NA,NA,"",       5.71167,       4.75366,       3.16637,   4.55712E-03
C:/temp/dataset/9/16_5.odb,Step-1,Increment      1: Step Time =    1.000,"PART-1-1",           372,   952.242E-03,      -2.53706,            0.,NA,NA,"",       4.40011,       4.12567,       1.52964,   4.93756E-03
C:/temp/dataset/9/16_5.odb,Step-1,Increment      1: Step Time =    1.000,"PART-1-1",           373,  -130.910E-03,      -3.80019,            0.,NA,NA,"",       4.27877,       3.89329,       1.77486,   5.70435E-03
C:/temp/dataset/9/16_5.odb,Step-1,Increment      1: Step Time =    1.000,"PART-1-1",           374,          1.25,           -5.,            0.,NA,NA,"",       3.91431,       3.60911,       1.51530,   6.59367E-03
C:/temp/dataset/9/16_5.odb,Step-1,Increment      1: Step Time =    1.000,"PART-1-1",           375,       2.33315,      -3.73687,            0.,NA,NA,"",       4.04554,       3.84107,       1.26987,   5.75568E-03
C:/temp/dataset/9/16_5.odb,Step-1,Increment      1: Step Time =    1.000,"PART-1-1",           376,       4.26686,      -1.13377,            0.,NA,NA,"",       4.40833,       4.33092,   822.493E-03,   5.03297E-03
C:/temp/dataset/9/16_5.odb,Step-1,Increment      1: Step Time =    1.000,"PART-1-1",           377,       2.05254,      -1.20548,            0.,NA,NA,"",       4.55560,       4.37254,       1.27840,   4.27129E-03
C:/temp/dataset/9/16_5.odb,Step-1,Increment      1: Step Time =    1.000,"PART-1-1",           378,       3.27323,      -2.40335,            0.,NA,NA,"",       4.22612,       4.09350,       1.05041,   4.51032E-03
C:/temp/dataset/9/16_5.odb,Step-1,Increment      1: Step Time =    1.000,"PART-1-1",           379,       10.4325,       1.51548,            0.,NA,NA,"",       4.75591,       4.73160,  -480.239E-03,   3.61310E-03
C:/temp/dataset/9/16_5.odb,Step-1,Increment      1: Step Time =    1.000,"PART-1-1",           380,       11.3847,  -3.51279E-03,            0.,NA,NA,"",       4.44039,       4.39400,  -640.172E-03,   4.36139E-03
C:/temp/dataset/9/16_5.odb,Step-1,Increment      1: Step Time =    1.000,"PART-1-1",           381,       12.7244,       1.31309,            0.,NA,NA,"",       4.73476,       4.64003,  -942.376E-03,   2.72953E-03
C:/temp/dataset/9/16_5.odb,Step-1,Increment      1: Step Time =    1.000,"PART-1-1",           382,       11.7722,       2.83209,            0.,NA,NA,"",       5.03663,       4.97564,  -781.422E-03,   1.77195E-03
C:/temp/dataset/9/16_5.odb,Step-1,Increment      1: Step Time =    1.000,"PART-1-1",           383,       9.00808,      -7.25637,            0.,NA,NA,"",       2.92501,       2.92493,  -21.5671E-03,   11.9108E-03
C:/temp/dataset/9/16_5.odb,Step-1,Increment      1: Step Time =    1.000,"PART-1-1",           384,       7.95196,      -6.36313,            0.,NA,NA,"",       3.13640,       3.13213,   163.665E-03,   11.8447E-03
C:/temp/dataset/9/16_5.odb,Step-1,Increment      1: Step Time =    1.000,"PART-1-1",           385,       7.00211,      -7.70397,            0.,NA,NA,"",       2.89913,       2.87620,   363.893E-03,   13.3123E-03
C:/temp/dataset/9/16_5.odb,Step-1,Increment      1: Step Time =    1.000,"PART-1-1",           386,       8.05823,      -8.59720,            0.,NA,NA,"",       2.67711,       2.67130,   176.245E-03,   12.4230E-03
C:/temp/dataset/9/16_5.odb,Step-1,Increment      1: Step Time =    1.000,"PART-1-1",           387,       7.09104,      -12.0381,            0.,NA,NA,"",       2.05877,       2.02459,   373.608E-03,   19.3978E-03
C:/temp/dataset/9/16_5.odb,Step-1,Increment      1: Step Time =    1.000,"PART-1-1",           388,       6.04129,      -11.1013,            0.,NA,NA,"",       2.29583,       2.22706,   557.701E-03,   22.7120E-03
C:/temp/dataset/9/16_5.odb,Step-1,Increment      1: Step Time =    1.000,"PART-1-1",           389,            5.,      -12.2917,            0.,NA,NA,"",       2.16146,       2.03251,   735.409E-03,   31.2465E-03
C:/temp/dataset/9/16_5.odb,Step-1,Increment      1: Step Time =    1.000,"PART-1-1",           390,       9.13117,      -18.4822,            0.,NA,NA,"",   924.739E-03,   921.641E-03,   75.6289E-03,   14.4778E-03
C:/temp/dataset/9/16_5.odb,Step-1,Increment      1: Step Time =    1.000,"PART-1-1",           391,       10.1297,      -19.6034,            0.,NA,NA,"",   760.395E-03,   759.534E-03,  -36.1833E-03,   11.2670E-03
C:/temp/dataset/9/16_5.odb,Step-1,Increment      1: Step Time =    1.000,"PART-1-1",           392,       11.1535,      -18.5257,            0.,NA,NA,"",   915.825E-03,   899.468E-03,  -172.315E-03,   15.0274E-03
C:/temp/dataset/9/16_5.odb,Step-1,Increment      1: Step Time =    1.000,"PART-1-1",           393,       10.1550,      -17.4045,            0.,NA,NA,"",       1.06916,       1.06737,  -61.8030E-03,   11.2646E-03
C:/temp/dataset/9/16_5.odb,Step-1,Increment      1: Step Time =    1.000,"PART-1-1",           394,       6.27183,       14.9637,            0.,NA,NA,"",       7.58390,       7.58340,   86.5579E-03,   41.7634E-06
C:/temp/dataset/9/16_5.odb,Step-1,Increment      1: Step Time =    1.000,"PART-1-1",           395,       7.52438,       16.1859,            0.,NA,NA,"",       7.80978,       7.80732,  -195.981E-03,   85.5632E-06
C:/temp/dataset/9/16_5.odb,Step-1,Increment      1: Step Time =    1.000,"PART-1-1",           396,            5.,         16.25,            0.,NA,NA,"",       7.88048,       7.87398,   319.856E-03,   31.1677E-06
C:/temp/dataset/9/16_5.odb,Step-1,Increment      1: Step Time =    1.000,"PART-1-1",           397,       2.56719,       21.1071,            0.,NA,NA,"",       8.94988,       8.92138,   713.632E-03,   326.790E-06
C:/temp/dataset/9/16_5.odb,Step-1,Increment      1: Step Time =    1.000,"PART-1-1",           398,       1.41709,       22.2600,            0.,NA,NA,"",       9.22790,       9.18148,   924.366E-03,   250.692E-06
C:/temp/dataset/9/16_5.odb,Step-1,Increment      1: Step Time =    1.000,"PART-1-1",           399,   99.9026E-03,       21.1528,            0.,NA,NA,"",       9.06548,       8.98349,       1.21651,   356.502E-06
C:/temp/dataset/9/16_5.odb,Step-1,Increment      1: Step Time =    1.000,"PART-1-1",           400,          1.25,           20.,            0.,NA,NA,"",       8.78119,       8.72340,       1.00579,   424.841E-06
C:/temp/dataset/9/16_5.odb,Step-1,Increment      1: Step Time =    1.000,"PART-1-1",           401,       7.55593,       13.6250,            0.,NA,NA,"",       7.28330,       7.28179,  -148.070E-03,   108.157E-06
C:/temp/dataset/9/16_5.odb,Step-1,Increment      1: Step Time =    1.000,"PART-1-1",           402,            5.,         13.75,            0.,NA,NA,"",       7.37108,       7.36164,   372.899E-03,   47.3916E-06
C:/temp/dataset/9/16_5.odb,Step-1,Increment      1: Step Time =    1.000,"PART-1-1",           403,       8.77818,       14.9146,            0.,NA,NA,"",       7.53225,       7.52021,  -425.789E-03,   84.7397E-06
C:/temp/dataset/9/16_5.odb,Step-1,Increment      1: Step Time =    1.000,"PART-1-1",           404,       10.0010,       16.1752,            0.,NA,NA,"",       7.78442,       7.75262,  -702.963E-03,   78.7688E-06
C:/temp/dataset/9/16_5.odb,Step-1,Increment      1: Step Time =    1.000,"PART-1-1",           405,       8.74716,       17.4465,            0.,NA,NA,"",       8.05362,       8.03971,  -473.156E-03,   90.0781E-06
C:/temp/dataset/9/16_5.odb,Step-1,Increment      1: Step Time =    1.000,"PART-1-1",           406,       10.1219,       5.90684,            0.,NA,NA,"",       5.66839,       5.64544,  -509.519E-03,   551.073E-06
C:/temp/dataset/9/16_5.odb,Step-1,Increment      1: Step Time =    1.000,"PART-1-1",           407,       8.94830,       5.07672,            0.,NA,NA,"",       5.50639,       5.50061,  -252.177E-03,   1.29064E-03
C:/temp/dataset/9/16_5.odb,Step-1,Increment      1: Step Time =    1.000,"PART-1-1",           408,       9.72441,       3.42413,            0.,NA,NA,"",       5.15678,       5.14303,  -376.254E-03,   2.04057E-03
C:/temp/dataset/9/16_5.odb,Step-1,Increment      1: Step Time =    1.000,"PART-1-1",           409,       10.8980,       4.25426,            0.,NA,NA,"",       5.32630,       5.28852,  -633.303E-03,   1.34319E-03
C:/temp/dataset/9/16_5.odb,Step-1,Increment      1: Step Time =    1.000,"PART-1-1",           410,       8.15250,       6.68373,            0.,NA,NA,"",       5.84851,       5.84722,  -122.906E-03,   358.395E-06
C:/temp/dataset/9/16_5.odb,Step-1,Increment      1: Step Time =    1.000,"PART-1-1",           411,       9.64075,       7.71724,            0.,NA,NA,"",       6.04376,       6.02703,  -449.348E-03,   232.134E-06
C:/temp/dataset/9/16_5.odb,Step-1,Increment      1: Step Time =    1.000,"PART-1-1",           412,       8.79696,       9.37373,            0.,NA,NA,"",       6.39189,       6.38428,  -311.821E-03,   145.504E-06
C:/temp/dataset/9/16_5.odb,Step-1,Increment      1: Step Time =    1.000,"PART-1-1",           413,   959.485E-03,       2.63099,            0.,NA,NA,"",       5.38082,       5.18820,       1.42682,   3.49620E-03
C:/temp/dataset/9/16_5.odb,Step-1,Increment      1: Step Time =    1.000,"PART-1-1",           414,       2.33358,       3.78125,            0.,NA,NA,"",       5.50626,       5.39054,       1.12290,   3.51946E-03
C:/temp/dataset/9/16_5.odb,Step-1,Increment      1: Step Time =    1.000,"PART-1-1",           415,          1.25,            5.,            0.,NA,NA,"",       5.81923,       5.66739,       1.32068,   3.34446E-03
C:/temp/dataset/9/16_5.odb,Step-1,Increment      1: Step Time =    1.000,"PART-1-1",           416,      -9.23288,       7.29816,            0.,NA,NA,"",       7.22915,       6.37630,       3.40637,   426.242E-06
C:/temp/dataset/9/16_5.odb,Step-1,Increment      1: Step Time =    1.000,"PART-1-1",           417,      -8.32915,       6.01548,            0.,NA,NA,"",       6.90987,       6.09782,       3.25006,   746.648E-06
C:/temp/dataset/9/16_5.odb,Step-1,Increment      1: Step Time =    1.000,"PART-1-1",           418,      -7.21136,       6.82340,            0.,NA,NA,"",       6.92473,       6.23785,       3.00684,   401.812E-06
C:/temp/dataset/9/16_5.odb,Step-1,Increment      1: Step Time =    1.000,"PART-1-1",           419,      -8.11509,       8.10607,            0.,NA,NA,"",       7.24365,       6.51651,       3.16316,   426.268E-06
C:/temp/dataset/9/16_5.odb,Step-1,Increment      1: Step Time =    1.000,"PART-1-1",           420,      -13.1318,       11.4675,            0.,NA,NA,"",       8.37555,       7.29908,       4.10770,   280.463E-06
C:/temp/dataset/9/16_5.odb,Step-1,Increment      1: Step Time =    1.000,"PART-1-1",           421,      -14.0901,       12.5242,            0.,NA,NA,"",       8.66383,       7.53288,       4.27991,   382.969E-06
C:/temp/dataset/9/16_5.odb,Step-1,Increment      1: Step Time =    1.000,"PART-1-1",           422,          -15.,       11.4063,            0.,NA,NA,"",       8.59033,       7.32559,       4.48660,   570.575E-06
C:/temp/dataset/9/16_5.odb,Step-1,Increment      1: Step Time =    1.000,"PART-1-1",           423,      -9.35396,       14.3983,            0.,NA,NA,"",       8.47561,       7.81416,       3.28251,   188.016E-06
C:/temp/dataset/9/16_5.odb,Step-1,Increment      1: Step Time =    1.000,"PART-1-1",           424,      -10.5094,       15.3924,            0.,NA,NA,"",       8.76658,       8.03935,       3.49596,   60.6996E-06
C:/temp/dataset/9/16_5.odb,Step-1,Increment      1: Step Time =    1.000,"PART-1-1",           425,      -11.3610,       13.8160,            0.,NA,NA,"",       8.57739,       7.73778,       3.70112,   48.2277E-06
C:/temp/dataset/9/16_5.odb,Step-1,Increment      1: Step Time =    1.000,"PART-1-1",           426,      -10.2056,       12.8219,            0.,NA,NA,"",       8.28287,       7.51273,       3.48780,   152.157E-06
C:/temp/dataset/9/16_5.odb,Step-1,Increment      1: Step Time =    1.000,"PART-1-1",           427,      -14.0810,       18.8007,            0.,NA,NA,"",       9.73399,       8.80504,       4.14991,   370.685E-06
C:/temp/dataset/9/16_5.odb,Step-1,Increment      1: Step Time =    1.000,"PART-1-1",           428,          -15.,       17.9688,            0.,NA,NA,"",       9.68857,       8.65545,       4.35332,   467.454E-06
C:/temp/dataset/9/16_5.odb,Step-1,Increment      1: Step Time =    1.000,"PART-1-1",           429,      -14.2329,       16.7349,            0.,NA,NA,"",       9.39199,       8.38905,       4.22296,   388.754E-06
C:/temp/dataset/9/16_5.odb,Step-1,Increment      1: Step Time =    1.000,"PART-1-1",           430,      -13.3139,       17.5668,            0.,NA,NA,"",       9.43740,       8.53857,       4.01961,   294.169E-06
C:/temp/dataset/9/16_5.odb,Step-1,Increment      1: Step Time =    1.000,"PART-1-1",           431,      -12.9537,       19.5700,            0.,NA,NA,"",       9.75361,       8.93762,       3.90535,   263.593E-06
C:/temp/dataset/9/16_5.odb,Step-1,Increment      1: Step Time =    1.000,"PART-1-1",           432,      -13.8727,       20.9255,            0.,NA,NA,"",       10.0872,       9.23229,       4.06398,   318.141E-06
C:/temp/dataset/9/16_5.odb,Step-1,Increment      1: Step Time =    1.000,"PART-1-1",           433,          -15.,       20.1563,            0.,NA,NA,"",       10.0682,       9.09965,       4.30868,   432.663E-06
C:/temp/dataset/9/16_5.odb,Step-1,Increment      1: Step Time =    1.000,"PART-1-1",           434,       1.76445,       24.7908,            0.,NA,NA,"",       9.72395,       9.69097,   800.188E-03,   103.955E-06
C:/temp/dataset/9/16_5.odb,Step-1,Increment      1: Step Time =    1.000,"PART-1-1",           435,       1.36974,       27.3866,            0.,NA,NA,"",       10.2626,       10.2293,   826.058E-03,   185.173E-06
C:/temp/dataset/9/16_5.odb,Step-1,Increment      1: Step Time =    1.000,"PART-1-1",           436,   176.493E-03,       26.0346,            0.,NA,NA,"",       10.0386,       9.97835,       1.09837,   106.592E-06
C:/temp/dataset/9/16_5.odb,Step-1,Increment      1: Step Time =    1.000,"PART-1-1",           437,       7.39460,       20.9669,            0.,NA,NA,"",       8.79379,       8.78962,  -270.713E-03,   152.513E-06
C:/temp/dataset/9/16_5.odb,Step-1,Increment      1: Step Time =    1.000,"PART-1-1",           438,       8.70526,       19.9066,            0.,NA,NA,"",       8.56021,       8.54460,  -516.645E-03,   116.716E-06
C:/temp/dataset/9/16_5.odb,Step-1,Increment      1: Step Time =    1.000,"PART-1-1",           439,       9.85134,       21.1719,            0.,NA,NA,"",       8.81370,       8.77929,  -778.003E-03,   104.967E-06
C:/temp/dataset/9/16_5.odb,Step-1,Increment      1: Step Time =    1.000,"PART-1-1",           440,       8.54068,       22.2321,            0.,NA,NA,"",       9.03984,       9.02417,  -532.031E-03,   147.738E-06
C:/temp/dataset/9/16_5.odb,Step-1,Increment      1: Step Time =    1.000,"PART-1-1",           441,       4.10864,       24.1658,            0.,NA,NA,"",       9.51956,       9.51370,   334.166E-03,   125.326E-06
C:/temp/dataset/9/16_5.odb,Step-1,Increment      1: Step Time =    1.000,"PART-1-1",           442,       5.90921,       23.8009,            0.,NA,NA,"",       9.40099,       9.40095,  -26.4793E-03,   146.852E-06
C:/temp/dataset/9/16_5.odb,Step-1,Increment      1: Step Time =    1.000,"PART-1-1",           443,       6.25965,       24.9450,            0.,NA,NA,"",       9.62819,       9.62741,  -122.356E-03,   150.430E-06
C:/temp/dataset/9/16_5.odb,Step-1,Increment      1: Step Time =    1.000,"PART-1-1",           444,   19.2837E-03,       28.6494,            0.,NA,NA,"",       10.5701,       10.5153,       1.07521,   296.399E-06
C:/temp/dataset/9/16_5.odb,Step-1,Increment      1: Step Time =    1.000,"PART-1-1",           445,       2.60045,       28.7372,            0.,NA,NA,"",       10.4936,       10.4794,   545.907E-03,   260.224E-06
C:/temp/dataset/9/16_5.odb,Step-1,Increment      1: Step Time =    1.000,"PART-1-1",           446,          1.25,           30.,            0.,NA,NA,"",       10.7948,       10.7654,   795.124E-03,   385.629E-06
C:/temp/dataset/9/16_5.odb,Step-1,Increment      1: Step Time =    1.000,"PART-1-1",           447,      -7.67774,       29.0428,            0.,NA,NA,"",       11.0731,       10.7548,       2.63581,   275.281E-06
C:/temp/dataset/9/16_5.odb,Step-1,Increment      1: Step Time =    1.000,"PART-1-1",           448,      -6.68998,       27.9093,            0.,NA,NA,"",       10.7876,       10.5036,       2.45871,   244.118E-06
C:/temp/dataset/9/16_5.odb,Step-1,Increment      1: Step Time =    1.000,"PART-1-1",           449,         -6.25,           30.,            0.,NA,NA,"",       11.1649,       10.9201,       2.32508,   385.976E-06
C:/temp/dataset/9/16_5.odb,Step-1,Increment      1: Step Time =    1.000,"PART-1-1",           450,      -12.1701,       26.6384,            0.,NA,NA,"",       10.9664,       10.3588,       3.59947,   185.739E-06
C:/temp/dataset/9/16_5.odb,Step-1,Increment      1: Step Time =    1.000,"PART-1-1",           451,      -13.7206,       27.8542,            0.,NA,NA,"",       11.3272,       10.6386,       3.88926,   70.1239E-06
C:/temp/dataset/9/16_5.odb,Step-1,Increment      1: Step Time =    1.000,"PART-1-1",           452,          -15.,       26.7188,            0.,NA,NA,"",       11.2379,       10.4343,       4.17314,   81.6527E-06
C:/temp/dataset/9/16_5.odb,Step-1,Increment      1: Step Time =    1.000,"PART-1-1",           453,        -13.75,           30.,            0.,NA,NA,"",       11.7258,       11.0756,       3.85040,   11.8709E-06
C:/temp/dataset/9/16_5.odb,Step-1,Increment      1: Step Time =    1.000,"PART-1-1",           454,          -15.,       28.9063,            0.,NA,NA,"",       11.6359,       10.8793,       4.12746,   11.0729E-06
C:/temp/dataset/9/16_5.odb,Step-1,Increment      1: Step Time =    1.000,"PART-1-1",           455,      -9.01567,       28.1413,            0.,NA,NA,"",       10.9957,       10.5991,       2.92685,   221.465E-06
C:/temp/dataset/9/16_5.odb,Step-1,Increment      1: Step Time =    1.000,"PART-1-1",           456,         -8.75,           30.,            0.,NA,NA,"",       11.3317,       10.9717,       2.83379,   254.604E-06
C:/temp/dataset/9/16_5.odb,Step-1,Increment      1: Step Time =    1.000,"PART-1-1",           457,      -10.9923,       18.6369,            0.,NA,NA,"",       9.39427,       8.70717,       3.52667,   131.076E-06
C:/temp/dataset/9/16_5.odb,Step-1,Increment      1: Step Time =    1.000,"PART-1-1",           458,      -11.7056,       20.1347,            0.,NA,NA,"",       9.73267,       9.02620,       3.64039,   199.857E-06
C:/temp/dataset/9/16_5.odb,Step-1,Increment      1: Step Time =    1.000,"PART-1-1",           459,      -12.2405,       18.0722,            0.,NA,NA,"",       9.41578,       8.61866,       3.79152,   202.565E-06
C:/temp/dataset/9/16_5.odb,Step-1,Increment      1: Step Time =    1.000,"PART-1-1",           460,      -11.7153,       17.0060,            0.,NA,NA,"",       9.17378,       8.39145,       3.70702,   145.715E-06
C:/temp/dataset/9/16_5.odb,Step-1,Increment      1: Step Time =    1.000,"PART-1-1",           461,      -12.7888,       16.5007,            0.,NA,NA,"",       9.19584,       8.31137,       3.93504,   238.632E-06
C:/temp/dataset/9/16_5.odb,Step-1,Increment      1: Step Time =    1.000,"PART-1-1",           462,      -13.2634,       13.5986,            0.,NA,NA,"",       8.74853,       7.73323,       4.09070,   272.358E-06
C:/temp/dataset/9/16_5.odb,Step-1,Increment      1: Step Time =    1.000,"PART-1-1",           463,      -14.1733,       14.6682,            0.,NA,NA,"",       9.03280,       7.96887,       4.25307,   374.031E-06
C:/temp/dataset/9/16_5.odb,Step-1,Increment      1: Step Time =    1.000,"PART-1-1",           464,          -15.,       13.5938,            0.,NA,NA,"",       8.94893,       7.76848,       4.44231,   480.151E-06
C:/temp/dataset/9/16_5.odb,Step-1,Increment      1: Step Time =    1.000,"PART-1-1",           465,      -6.04154,       10.1420,            0.,NA,NA,"",       7.39591,       6.88529,       2.70042,   257.224E-06
C:/temp/dataset/9/16_5.odb,Step-1,Increment      1: Step Time =    1.000,"PART-1-1",           466,      -7.09581,       9.10381,            0.,NA,NA,"",       7.31236,       6.69719,       2.93567,   439.508E-06
C:/temp/dataset/9/16_5.odb,Step-1,Increment      1: Step Time =    1.000,"PART-1-1",           467,      -6.05428,       7.71180,            0.,NA,NA,"",       6.96149,       6.39386,       2.75336,   441.839E-06
C:/temp/dataset/9/16_5.odb,Step-1,Increment      1: Step Time =    1.000,"PART-1-1",           468,           -5.,          8.75,            0.,NA,NA,"",       7.04749,       6.58219,       2.51830,   188.332E-06
C:/temp/dataset/9/16_5.odb,Step-1,Increment      1: Step Time =    1.000,"PART-1-1",           469,      -6.15708,       5.36159,            0.,NA,NA,"",       6.55665,       5.91763,       2.82336,   1.51373E-03
C:/temp/dataset/9/16_5.odb,Step-1,Increment      1: Step Time =    1.000,"PART-1-1",           470,           -5.,          6.25,            0.,NA,NA,"",       6.59564,       6.07476,       2.56901,   770.417E-06
C:/temp/dataset/9/16_5.odb,Step-1,Increment      1: Step Time =    1.000,"PART-1-1",           471,      -13.8567,       3.63033,            0.,NA,NA,"",       7.23925,       5.74050,       4.41060,   3.34118E-03
C:/temp/dataset/9/16_5.odb,Step-1,Increment      1: Step Time =    1.000,"PART-1-1",           472,      -12.5372,       4.63979,            0.,NA,NA,"",       7.20972,       5.91184,       4.12677,   1.95226E-03
C:/temp/dataset/9/16_5.odb,Step-1,Increment      1: Step Time =    1.000,"PART-1-1",           473,          -15.,       4.84375,            0.,NA,NA,"",       7.57182,       6.00331,       4.61441,   1.34626E-03
C:/temp/dataset/9/16_5.odb,Step-1,Increment      1: Step Time =    1.000,"PART-1-1",           474,      -12.7859,       2.45238,            0.,NA,NA,"",       6.91610,       5.48107,       4.21784,   4.29405E-03
C:/temp/dataset/9/16_5.odb,Step-1,Increment      1: Step Time =    1.000,"PART-1-1",           475,          -15.,       2.65625,            0.,NA,NA,"",       7.26244,       5.57511,       4.65415,   4.18184E-03
C:/temp/dataset/9/16_5.odb,Step-1,Increment      1: Step Time =    1.000,"PART-1-1",           476,      -13.7683,      -2.81830,            0.,NA,NA,"",       6.33131,       4.44173,       4.51181,   4.99903E-03
C:/temp/dataset/9/16_5.odb,Step-1,Increment      1: Step Time =    1.000,"PART-1-1",           477,          -15.,      -3.90625,            0.,NA,NA,"",       6.39716,       4.25219,       4.77938,   4.93135E-03
C:/temp/dataset/9/16_5.odb,Step-1,Increment      1: Step Time =    1.000,"PART-1-1",           478,        -13.75,           -5.,            0.,NA,NA,"",       6.05681,       3.99968,       4.54836,   5.07269E-03
C:/temp/dataset/9/16_5.odb,Step-1,Increment      1: Step Time =    1.000,"PART-1-1",           479,      -12.5183,      -3.91205,            0.,NA,NA,"",       5.98963,       4.18897,       4.28115,   5.16810E-03
C:/temp/dataset/9/16_5.odb,Step-1,Increment      1: Step Time =    1.000,"PART-1-1",           480,      -3.91473,      -3.03803,            0.,NA,NA,"",       4.85852,       4.14766,       2.53024,   5.29132E-03
C:/temp/dataset/9/16_5.odb,Step-1,Increment      1: Step Time =    1.000,"PART-1-1",           481,      -5.07319,      -4.05962,            0.,NA,NA,"",       4.84798,       3.96884,       2.78410,   5.64792E-03
C:/temp/dataset/9/16_5.odb,Step-1,Increment      1: Step Time =    1.000,"PART-1-1",           482,         -3.75,           -5.,            0.,NA,NA,"",       4.51895,       3.74218,       2.53319,   5.98211E-03
C:/temp/dataset/9/16_5.odb,Step-1,Increment      1: Step Time =    1.000,"PART-1-1",           483,      -2.59153,      -3.97841,            0.,NA,NA,"",       4.53521,       3.92096,       2.27907,   5.63230E-03
C:/temp/dataset/9/16_5.odb,Step-1,Increment      1: Step Time =    1.000,"PART-1-1",           484,   563.435E-03,   72.7383E-03,            0.,NA,NA,"",       4.92571,       4.67276,       1.55818,   3.91463E-03
C:/temp/dataset/9/16_5.odb,Step-1,Increment      1: Step Time =    1.000,"PART-1-1",           485,  -536.863E-03,      -1.25885,            0.,NA,NA,"",       4.78190,       4.42653,       1.80897,   4.45774E-03
C:/temp/dataset/9/16_5.odb,Step-1,Increment      1: Step Time =    1.000,"PART-1-1",           486,       7.06616,      -9.87010,            0.,NA,NA,"",       2.46806,       2.44014,   370.197E-03,   16.3286E-03
C:/temp/dataset/9/16_5.odb,Step-1,Increment      1: Step Time =    1.000,"PART-1-1",           487,       6.02487,      -8.97716,            0.,NA,NA,"",       2.70147,       2.64301,   558.972E-03,   18.5021E-03
C:/temp/dataset/9/16_5.odb,Step-1,Increment      1: Step Time =    1.000,"PART-1-1",           488,            5.,      -10.2083,            0.,NA,NA,"",       2.54218,       2.42841,   751.989E-03,   25.9091E-03
C:/temp/dataset/9/16_5.odb,Step-1,Increment      1: Step Time =    1.000,"PART-1-1",           489,       13.0743,      -11.4048,            0.,NA,NA,"",       2.15710,       2.05432,  -657.919E-03,   18.8814E-03
C:/temp/dataset/9/16_5.odb,Step-1,Increment      1: Step Time =    1.000,"PART-1-1",           490,       14.0423,      -12.5586,            0.,NA,NA,"",       2.00179,       1.84025,  -787.793E-03,   25.4462E-03
C:/temp/dataset/9/16_5.odb,Step-1,Increment      1: Step Time =    1.000,"PART-1-1",           491,           15.,        -11.25,            0.,NA,NA,"",       2.30579,       2.07025,      -1.01524,   27.7412E-03
C:/temp/dataset/9/16_5.odb,Step-1,Increment      1: Step Time =    1.000,"PART-1-1",           492,       14.0319,      -10.0962,            0.,NA,NA,"",       2.45338,       2.29086,  -878.096E-03,   20.2216E-03
C:/temp/dataset/9/16_5.odb,Step-1,Increment      1: Step Time =    1.000,"PART-1-1",           493,       7.09943,      -16.3632,            0.,NA,NA,"",       1.32294,       1.27474,   353.828E-03,   25.8525E-03
C:/temp/dataset/9/16_5.odb,Step-1,Increment      1: Step Time =    1.000,"PART-1-1",           494,            5.,      -16.4583,            0.,NA,NA,"",       1.46946,       1.31365,   658.511E-03,   42.2130E-03
C:/temp/dataset/9/16_5.odb,Step-1,Increment      1: Step Time =    1.000,"PART-1-1",           495,       13.0966,      -13.8278,            0.,NA,NA,"",       1.72454,       1.62382,  -580.740E-03,   22.5130E-03
C:/temp/dataset/9/16_5.odb,Step-1,Increment      1: Step Time =    1.000,"PART-1-1",           496,       14.0543,      -15.0192,            0.,NA,NA,"",       1.58409,       1.42486,  -692.180E-03,   30.6623E-03
C:/temp/dataset/9/16_5.odb,Step-1,Increment      1: Step Time =    1.000,"PART-1-1",           497,           15.,        -13.75,            0.,NA,NA,"",       1.86823,       1.63383,  -906.018E-03,   34.3732E-03
C:/temp/dataset/9/16_5.odb,Step-1,Increment      1: Step Time =    1.000,"PART-1-1",           498,       13.0974,      -18.6352,            0.,NA,NA,"",   977.458E-03,   885.242E-03,  -414.452E-03,   29.6948E-03
C:/temp/dataset/9/16_5.odb,Step-1,Increment      1: Step Time =    1.000,"PART-1-1",           499,       14.0421,      -19.9133,            0.,NA,NA,"",   873.523E-03,   727.998E-03,  -482.765E-03,   40.7273E-03
C:/temp/dataset/9/16_5.odb,Step-1,Increment      1: Step Time =    1.000,"PART-1-1",           500,           15.,        -18.75,            0.,NA,NA,"",       1.10719,   886.194E-03,  -663.726E-03,   47.3924E-03
C:/temp/dataset/9/16_5.odb,Step-1,Increment      1: Step Time =    1.000,"PART-1-1",           501,       14.0553,      -17.4719,            0.,NA,NA,"",       1.20631,       1.05203,  -590.273E-03,   35.7837E-03
C:/temp/dataset/9/16_5.odb,Step-1,Increment      1: Step Time =    1.000,"PART-1-1",           502,       7.12541,      -22.7005,            0.,NA,NA,"",   496.602E-03,   436.345E-03,   237.101E-03,   35.4002E-03
C:/temp/dataset/9/16_5.odb,Step-1,Increment      1: Step Time =    1.000,"PART-1-1",           503,       6.04628,      -21.6612,            0.,NA,NA,"",   680.879E-03,   572.164E-03,   369.086E-03,   44.7850E-03
C:/temp/dataset/9/16_5.odb,Step-1,Increment      1: Step Time =    1.000,"PART-1-1",           504,            5.,      -22.7083,            0.,NA,NA,"",   649.524E-03,   488.319E-03,   428.284E-03,   58.6571E-03
C:/temp/dataset/9/16_5.odb,Step-1,Increment      1: Step Time =    1.000,"PART-1-1",           505,       6.07914,      -23.7476,            0.,NA,NA,"",   460.670E-03,   358.587E-03,   289.192E-03,   48.8184E-03
C:/temp/dataset/9/16_5.odb,Step-1,Increment      1: Step Time =    1.000,"PART-1-1",           506,       6.22304,      -27.8948,            0.,NA,NA,"",   121.510E-03,   74.6439E-03,   95.8802E-03,   55.9257E-03
C:/temp/dataset/9/16_5.odb,Step-1,Increment      1: Step Time =    1.000,"PART-1-1",           507,            5.,      -28.9583,            0.,NA,NA,"",   94.6810E-03,   62.9240E-03,   70.7465E-03,   76.5856E-03
C:/temp/dataset/9/16_5.odb,Step-1,Increment      1: Step Time =    1.000,"PART-1-1",           508,          6.25,          -30.,            0.,NA,NA,"",            0.,  -326.994E-42,   84.7634E-39,   55.3068E-03
C:/temp/dataset/9/16_5.odb,Step-1,Increment      1: Step Time =    1.000,"PART-1-1",           509,       9.78444,      -26.6535,            0.,NA,NA,"",   90.2412E-03,   89.6216E-03,   10.5570E-03,   12.8970E-03
C:/temp/dataset/9/16_5.odb,Step-1,Increment      1: Step Time =    1.000,"PART-1-1",           510,       8.47427,      -25.6871,            0.,NA,NA,"",   177.417E-03,   159.392E-03,   77.9167E-03,   24.7409E-03
C:/temp/dataset/9/16_5.odb,Step-1,Increment      1: Step Time =    1.000,"PART-1-1",           511,       7.37694,      -26.8334,            0.,NA,NA,"",   144.173E-03,   105.393E-03,   98.3778E-03,   38.5621E-03
C:/temp/dataset/9/16_5.odb,Step-1,Increment      1: Step Time =    1.000,"PART-1-1",           512,       13.7223,      -27.5034,            0.,NA,NA,"",   134.663E-03,   78.0401E-03,  -109.744E-03,   52.8180E-03
C:/temp/dataset/9/16_5.odb,Step-1,Increment      1: Step Time =    1.000,"PART-1-1",           513,       12.4723,      -28.7534,            0.,NA,NA,"",   33.3984E-03,   12.8061E-03,  -30.8457E-03,   30.4924E-03
C:/temp/dataset/9/16_5.odb,Step-1,Increment      1: Step Time =    1.000,"PART-1-1",           514,         13.75,          -30.,            0.,NA,NA,"",            0.,  -5.67928E-39,  -83.2523E-39,   52.3858E-03
C:/temp/dataset/9/16_5.odb,Step-1,Increment      1: Step Time =    1.000,"PART-1-1",           515,           15.,        -28.75,            0.,NA,NA,"",   105.148E-03,   65.4766E-03,  -82.2730E-03,   73.1595E-03
C:/temp/dataset/9/16_5.odb,Step-1,Increment      1: Step Time =    1.000,"PART-1-1",           516,         11.25,          -30.,            0.,NA,NA,"",            0.,  -5.45719E-39,  -28.3236E-39,   13.8200E-03
C:/temp/dataset/9/16_5.odb,Step-1,Increment      1: Step Time =    1.000,"PART-1-1",           517,       11.1864,      -27.6167,            0.,NA,NA,"",   52.1098E-03,   43.8627E-03,  -28.1335E-03,   18.9190E-03
C:/temp/dataset/9/16_5.odb,Step-1,Increment      1: Step Time =    1.000,"PART-1-1",           518,       9.10684,      -20.5966,            0.,NA,NA,"",   647.622E-03,   642.901E-03,   78.0536E-03,   15.4457E-03
C:/temp/dataset/9/16_5.odb,Step-1,Increment      1: Step Time =    1.000,"PART-1-1",           519,       11.0993,      -20.6881,            0.,NA,NA,"",   632.578E-03,   619.529E-03,  -127.824E-03,   15.4136E-03
C:/temp/dataset/9/16_5.odb,Step-1,Increment      1: Step Time =    1.000,"PART-1-1",           520,       7.08739,      -20.6083,            0.,NA,NA,"",   732.784E-03,   672.946E-03,   290.027E-03,   32.5094E-03
C:/temp/dataset/9/16_5.odb,Step-1,Increment      1: Step Time =    1.000,"PART-1-1",           521,            5.,       -20.625,            0.,NA,NA,"",   890.909E-03,   723.201E-03,   520.288E-03,   53.2219E-03
C:/temp/dataset/9/16_5.odb,Step-1,Increment      1: Step Time =    1.000,"PART-1-1",           522,       9.14341,      -14.0595,            0.,NA,NA,"",       1.62186,       1.62111,   49.5105E-03,   13.0173E-03
C:/temp/dataset/9/16_5.odb,Step-1,Increment      1: Step Time =    1.000,"PART-1-1",           523,       10.1582,      -15.1431,            0.,NA,NA,"",       1.42671,       1.42376,  -91.7505E-03,   11.2589E-03
C:/temp/dataset/9/16_5.odb,Step-1,Increment      1: Step Time =    1.000,"PART-1-1",           524,       11.1509,      -13.9343,            0.,NA,NA,"",       1.63990,       1.61825,  -265.585E-03,   13.5925E-03
C:/temp/dataset/9/16_5.odb,Step-1,Increment      1: Step Time =    1.000,"PART-1-1",           525,       10.1361,      -12.8507,            0.,NA,NA,"",       1.82503,       1.82081,  -124.122E-03,   11.2555E-03
C:/temp/dataset/9/16_5.odb,Step-1,Increment      1: Step Time =    1.000,"PART-1-1",           526,       9.12292,      -11.8044,            0.,NA,NA,"",       2.02813,       2.02793,   28.2519E-03,   12.4531E-03
C:/temp/dataset/9/16_5.odb,Step-1,Increment      1: Step Time =    1.000,"PART-1-1",           527,       11.1213,      -11.5948,            0.,NA,NA,"",       2.06237,       2.03839,  -313.540E-03,   12.9278E-03
C:/temp/dataset/9/16_5.odb,Step-1,Increment      1: Step Time =    1.000,"PART-1-1",           528,       10.1081,      -10.5485,            0.,NA,NA,"",       2.25568,       2.24995,  -160.673E-03,   11.2730E-03
C:/temp/dataset/9/16_5.odb,Step-1,Increment      1: Step Time =    1.000,"PART-1-1",           529,       13.8169,  -7.21098E-03,            0.,NA,NA,"",       4.48864,       4.34260,      -1.13569,   2.68641E-03
C:/temp/dataset/9/16_5.odb,Step-1,Increment      1: Step Time =    1.000,"PART-1-1",           530,           15.,          1.25,            0.,NA,NA,"",       4.79113,       4.57904,      -1.40972,   1.30485E-03
C:/temp/dataset/9/16_5.odb,Step-1,Increment      1: Step Time =    1.000,"PART-1-1",           531,       13.9075,       2.57030,            0.,NA,NA,"",       5.02462,       4.87586,      -1.21356,   882.198E-06
C:/temp/dataset/9/16_5.odb,Step-1,Increment      1: Step Time =    1.000,"PART-1-1",           532,       10.8083,      -4.35361,            0.,NA,NA,"",       3.51961,       3.49366,  -426.610E-03,   9.78142E-03
C:/temp/dataset/9/16_5.odb,Step-1,Increment      1: Step Time =    1.000,"PART-1-1",           533,       9.68548,      -3.40243,            0.,NA,NA,"",       3.72404,       3.71709,  -227.549E-03,   9.36409E-03
C:/temp/dataset/9/16_5.odb,Step-1,Increment      1: Step Time =    1.000,"PART-1-1",           534,       8.81587,      -4.92348,            0.,NA,NA,"",       3.41564,       3.41552,  -28.0057E-03,   11.3441E-03
C:/temp/dataset/9/16_5.odb,Step-1,Increment      1: Step Time =    1.000,"PART-1-1",           535,       9.93870,      -5.87466,            0.,NA,NA,"",       3.20071,       3.19279,  -224.984E-03,   11.1332E-03
C:/temp/dataset/9/16_5.odb,Step-1,Increment      1: Step Time =    1.000,"PART-1-1",           536,       10.7940,       8.23694,            0.,NA,NA,"",       6.14862,       6.10902,  -696.686E-03,   110.963E-06
C:/temp/dataset/9/16_5.odb,Step-1,Increment      1: Step Time =    1.000,"PART-1-1",           537,       11.2752,       6.42654,            0.,NA,NA,"",       5.77712,       5.72734,  -756.746E-03,   369.758E-06
C:/temp/dataset/9/16_5.odb,Step-1,Increment      1: Step Time =    1.000,"PART-1-1",           538,       12.8821,       8.67106,            0.,NA,NA,"",       6.25727,       6.15363,      -1.13410,   54.4107E-06
C:/temp/dataset/9/16_5.odb,Step-1,Increment      1: Step Time =    1.000,"PART-1-1",           539,       14.0355,       7.50951,            0.,NA,NA,"",       6.04259,       5.89074,      -1.34614,   170.573E-06
C:/temp/dataset/9/16_5.odb,Step-1,Increment      1: Step Time =    1.000,"PART-1-1",           540,           15.,          8.75,            0.,NA,NA,"",       6.32273,       6.12466,      -1.57019,   244.495E-06
C:/temp/dataset/9/16_5.odb,Step-1,Increment      1: Step Time =    1.000,"PART-1-1",           541,       13.8467,       9.91155,            0.,NA,NA,"",       6.53024,       6.38743,      -1.35820,   111.367E-06
C:/temp/dataset/9/16_5.odb,Step-1,Increment      1: Step Time =    1.000,"PART-1-1",           542,       12.4850,       16.2122,            0.,NA,NA,"",       7.80229,       7.70750,      -1.21249,   80.0287E-06
C:/temp/dataset/9/16_5.odb,Step-1,Increment      1: Step Time =    1.000,"PART-1-1",           543,       13.7431,       14.9727,            0.,NA,NA,"",       7.56589,       7.42681,      -1.44398,   90.9337E-06
C:/temp/dataset/9/16_5.odb,Step-1,Increment      1: Step Time =    1.000,"PART-1-1",           544,           15.,         16.25,            0.,NA,NA,"",       7.85435,       7.66181,      -1.72842,   131.703E-06
C:/temp/dataset/9/16_5.odb,Step-1,Increment      1: Step Time =    1.000,"PART-1-1",           545,       13.7419,       17.4895,            0.,NA,NA,"",       8.08232,       7.94250,      -1.49689,   116.473E-06
C:/temp/dataset/9/16_5.odb,Step-1,Increment      1: Step Time =    1.000,"PART-1-1",           546,       12.4991,       13.6576,            0.,NA,NA,"",       7.27702,       7.18376,      -1.16130,   47.0253E-06
C:/temp/dataset/9/16_5.odb,Step-1,Increment      1: Step Time =    1.000,"PART-1-1",           547,       13.7559,       12.4349,            0.,NA,NA,"",       7.04559,       6.90652,      -1.39295,   75.8907E-06
C:/temp/dataset/9/16_5.odb,Step-1,Increment      1: Step Time =    1.000,"PART-1-1",           548,           15.,         13.75,            0.,NA,NA,"",       7.34329,       7.14956,      -1.67565,   116.315E-06
C:/temp/dataset/9/16_5.odb,Step-1,Increment      1: Step Time =    1.000,"PART-1-1",           549,           15.,         21.25,            0.,NA,NA,"",       8.87735,       8.68590,      -1.83371,   148.563E-06
C:/temp/dataset/9/16_5.odb,Step-1,Increment      1: Step Time =    1.000,"PART-1-1",           550,       13.6875,       22.5045,            0.,NA,NA,"",       9.11065,       8.97058,      -1.59148,   114.136E-06
C:/temp/dataset/9/16_5.odb,Step-1,Increment      1: Step Time =    1.000,"PART-1-1",           551,       12.4125,       21.2511,            0.,NA,NA,"",       8.83782,       8.74108,      -1.30404,   97.9027E-06
C:/temp/dataset/9/16_5.odb,Step-1,Increment      1: Step Time =    1.000,"PART-1-1",           552,       13.7250,       19.9966,            0.,NA,NA,"",       8.59656,       8.45635,      -1.54630,   128.310E-06
C:/temp/dataset/9/16_5.odb,Step-1,Increment      1: Step Time =    1.000,"PART-1-1",           553,       13.6481,       25.0064,            0.,NA,NA,"",       9.62349,       9.48338,      -1.63616,   80.8819E-06
C:/temp/dataset/9/16_5.odb,Step-1,Increment      1: Step Time =    1.000,"PART-1-1",           554,       12.3356,       23.7609,            0.,NA,NA,"",       9.35304,       9.25638,      -1.34122,   105.079E-06
C:/temp/dataset/9/16_5.odb,Step-1,Increment      1: Step Time =    1.000,"PART-1-1",           555,           15.,         23.75,            0.,NA,NA,"",       9.38907,       9.19762,      -1.88633,   105.247E-06
C:/temp/dataset/9/16_5.odb,Step-1,Increment      1: Step Time =    1.000,"PART-1-1",           556,       13.7112,       27.5077,            0.,NA,NA,"",       10.1377,       9.99382,      -1.70189,   37.6915E-06
C:/temp/dataset/9/16_5.odb,Step-1,Increment      1: Step Time =    1.000,"PART-1-1",           557,           15.,         28.75,            0.,NA,NA,"",       10.4131,       10.2208,      -1.99193,   5.65508E-06
C:/temp/dataset/9/16_5.odb,Step-1,Increment      1: Step Time =    1.000,"PART-1-1",           558,         13.75,           30.,            0.,NA,NA,"",       10.6499,       10.5030,      -1.76257,   5.74904E-06
C:/temp/dataset/9/16_5.odb,Step-1,Increment      1: Step Time =    1.000,"PART-1-1",           559,            5.,      -24.7917,            0.,NA,NA,"",   439.773E-03,   299.798E-03,   321.748E-03,   63.2688E-03
C:/temp/dataset/9/16_5.odb,Step-1,Increment      1: Step Time =    1.000,"PART-1-1",           560,       6.15390,      -25.8136,            0.,NA,NA,"",   277.046E-03,   194.445E-03,   197.346E-03,   52.0117E-03
C:/temp/dataset/9/16_5.odb,Step-1,Increment      1: Step Time =    1.000,"PART-1-1",           561,       7.23304,      -24.7696,            0.,NA,NA,"",   299.887E-03,   246.534E-03,   170.743E-03,   37.8403E-03
C:/temp/dataset/9/16_5.odb,Step-1,Increment      1: Step Time =    1.000,"PART-1-1",           562,       13.0086,      -21.0119,            0.,NA,NA,"",   669.796E-03,   588.117E-03,  -320.539E-03,   32.3184E-03
C:/temp/dataset/9/16_5.odb,Step-1,Increment      1: Step Time =    1.000,"PART-1-1",           563,       13.9664,      -22.3485,            0.,NA,NA,"",   584.980E-03,   456.706E-03,  -365.543E-03,   45.0038E-03
C:/temp/dataset/9/16_5.odb,Step-1,Increment      1: Step Time =    1.000,"PART-1-1",           564,           15.,        -21.25,            0.,NA,NA,"",   792.650E-03,   588.218E-03,  -531.314E-03,   53.9229E-03
C:/temp/dataset/9/16_5.odb,Step-1,Increment      1: Step Time =    1.000,"PART-1-1",           565,            5.,       -26.875,            0.,NA,NA,"",   261.221E-03,   161.964E-03,   204.949E-03,   68.7401E-03
C:/temp/dataset/9/16_5.odb,Step-1,Increment      1: Step Time =    1.000,"PART-1-1",           566,       12.9745,      -6.51631,            0.,NA,NA,"",       3.11124,       3.00876,  -791.945E-03,   11.9177E-03
C:/temp/dataset/9/16_5.odb,Step-1,Increment      1: Step Time =    1.000,"PART-1-1",           567,       14.0104,      -7.62731,            0.,NA,NA,"",       2.93222,       2.77069,  -959.786E-03,   14.9757E-03
C:/temp/dataset/9/16_5.odb,Step-1,Increment      1: Step Time =    1.000,"PART-1-1",           568,           15.,         -6.25,            0.,NA,NA,"",       3.26332,       3.03283,      -1.20467,   14.3780E-03
C:/temp/dataset/9/16_5.odb,Step-1,Increment      1: Step Time =    1.000,"PART-1-1",           569,       13.9641,      -5.13900,            0.,NA,NA,"",       3.43269,       3.27479,      -1.02915,   9.94745E-03
C:/temp/dataset/9/16_5.odb,Step-1,Increment      1: Step Time =    1.000,"PART-1-1",           570,       11.1649,      -16.2543,            0.,NA,NA,"",       1.25482,       1.23566,  -218.422E-03,   14.3425E-03
C:/temp/dataset/9/16_5.odb,Step-1,Increment      1: Step Time =    1.000,"PART-1-1",           571,       9.14831,      -16.2933,            0.,NA,NA,"",       1.25147,       1.24976,   65.3207E-03,   13.6690E-03
C:/temp/dataset/9/16_5.odb,Step-1,Increment      1: Step Time =    1.000,"PART-1-1",           572,            5.,        -8.125,            0.,NA,NA,"",       2.94165,       2.84315,   754.851E-03,   20.9384E-03
C:/temp/dataset/9/16_5.odb,Step-1,Increment      1: Step Time =    1.000,"PART-1-1",           573,       12.8519,      -3.99254,            0.,NA,NA,"",       3.62895,       3.53077,  -838.408E-03,   8.54458E-03
C:/temp/dataset/9/16_5.odb,Step-1,Increment      1: Step Time =    1.000,"PART-1-1",           574,           15.,         -3.75,            0.,NA,NA,"",       3.76766,       3.54261,      -1.28266,   8.48654E-03
C:/temp/dataset/9/16_5.odb,Step-1,Increment      1: Step Time =    1.000,"PART-1-1",           575,       13.8878,      -2.60354,            0.,NA,NA,"",       3.95244,       3.80060,      -1.08501,   5.69574E-03
C:/temp/dataset/9/16_5.odb,Step-1,Increment      1: Step Time =    1.000,"PART-1-1",           576,       13.0423,      -8.97351,            0.,NA,NA,"",       2.62076,       2.51696,  -730.285E-03,   15.3679E-03
C:/temp/dataset/9/16_5.odb,Step-1,Increment      1: Step Time =    1.000,"PART-1-1",           577,           15.,         -8.75,            0.,NA,NA,"",       2.77329,       2.53916,      -1.11525,   21.0032E-03
C:/temp/dataset/9/16_5.odb,Step-1,Increment      1: Step Time =    1.000,"PART-1-1",           578,       8.09346,      -21.6433,            0.,NA,NA,"",   559.608E-03,   533.024E-03,   170.433E-03,   24.2113E-03
C:/temp/dataset/9/16_5.odb,Step-1,Increment      1: Step Time =    1.000,"PART-1-1",           579,       8.17438,      -23.6967,            0.,NA,NA,"",   348.082E-03,   322.299E-03,   131.472E-03,   25.6462E-03
C:/temp/dataset/9/16_5.odb,Step-1,Increment      1: Step Time =    1.000,"PART-1-1",           580,       8.10077,      -19.5616,            0.,NA,NA,"",   811.836E-03,   788.391E-03,   193.695E-03,   22.0200E-03
C:/temp/dataset/9/16_5.odb,Step-1,Increment      1: Step Time =    1.000,"PART-1-1",           581,       8.11824,      -17.4194,            0.,NA,NA,"",       1.11087,       1.09155,   206.232E-03,   19.8322E-03
C:/temp/dataset/9/16_5.odb,Step-1,Increment      1: Step Time =    1.000,"PART-1-1",           582,          -15.,       22.3438,            0.,NA,NA,"",       10.4534,       9.54430,       4.26380,   341.190E-06
C:/temp/dataset/9/16_5.odb,Step-1,Increment      1: Step Time =    1.000,"PART-1-1",           583,      -12.5647,       21.7347,            0.,NA,NA,"",       10.1038,       9.36936,       3.78167,   246.571E-06
C:/temp/dataset/9/16_5.odb,Step-1,Increment      1: Step Time =    1.000,"PART-1-1",           584,      -4.95050,       22.5220,            0.,NA,NA,"",       9.62916,       9.37018,       2.21819,   215.184E-06
C:/temp/dataset/9/16_5.odb,Step-1,Increment      1: Step Time =    1.000,"PART-1-1",           585,      -3.93081,       23.1260,            0.,NA,NA,"",       9.68009,       9.47172,       1.99764,   172.980E-06
C:/temp/dataset/9/16_5.odb,Step-1,Increment      1: Step Time =    1.000,"PART-1-1",           586,      -4.22857,       24.4244,            0.,NA,NA,"",       9.95195,       9.74251,       2.03099,   108.993E-06
C:/temp/dataset/9/16_5.odb,Step-1,Increment      1: Step Time =    1.000,"PART-1-1",           587,      -5.24826,       23.8204,            0.,NA,NA,"",       9.90021,       9.64081,       2.25144,   176.029E-06
C:/temp/dataset/9/16_5.odb,Step-1,Increment      1: Step Time =    1.000,"PART-1-1",           588,      -10.1110,       10.4874,            0.,NA,NA,"",       7.86858,       7.03869,       3.51730,   278.016E-06
C:/temp/dataset/9/16_5.odb,Step-1,Increment      1: Step Time =    1.000,"PART-1-1",           589,      -9.15687,       11.6944,            0.,NA,NA,"",       7.97725,       7.26314,       3.29899,   322.109E-06
C:/temp/dataset/9/16_5.odb,Step-1,Increment      1: Step Time =    1.000,"PART-1-1",           590,      -11.1597,       11.6149,            0.,NA,NA,"",       8.17630,       7.28819,       3.70596,   126.305E-06
C:/temp/dataset/9/16_5.odb,Step-1,Increment      1: Step Time =    1.000,"PART-1-1",           591,      -6.07359,       12.6401,            0.,NA,NA,"",       7.85328,       7.39094,       2.65481,   324.655E-06
C:/temp/dataset/9/16_5.odb,Step-1,Increment      1: Step Time =    1.000,"PART-1-1",           592,      -7.11512,       11.5321,            0.,NA,NA,"",       7.74714,       7.18837,       2.88888,   371.168E-06
C:/temp/dataset/9/16_5.odb,Step-1,Increment      1: Step Time =    1.000,"PART-1-1",           593,           -5.,         11.25,            0.,NA,NA,"",       7.50475,       7.08782,       2.46660,   195.270E-06
C:/temp/dataset/9/16_5.odb,Step-1,Increment      1: Step Time =    1.000,"PART-1-1",           594,      -10.0988,       8.37440,            0.,NA,NA,"",       7.50861,       6.61156,       3.55900,   345.784E-06
C:/temp/dataset/9/16_5.odb,Step-1,Increment      1: Step Time =    1.000,"PART-1-1",           595,      -9.11481,       9.38066,            0.,NA,NA,"",       7.57069,       6.79465,       3.33889,   419.448E-06
C:/temp/dataset/9/16_5.odb,Step-1,Increment      1: Step Time =    1.000,"PART-1-1",           596,      -11.0949,       9.48111,            0.,NA,NA,"",       7.80798,       6.85550,       3.73720,   224.116E-06
C:/temp/dataset/9/16_5.odb,Step-1,Increment      1: Step Time =    1.000,"PART-1-1",           597,      -11.8142,       15.6555,            0.,NA,NA,"",       8.94593,       8.11975,       3.75492,   127.440E-06
C:/temp/dataset/9/16_5.odb,Step-1,Increment      1: Step Time =    1.000,"PART-1-1",           598,      -13.4062,       15.6218,            0.,NA,NA,"",       9.10992,       8.14610,       4.07819,   296.279E-06
C:/temp/dataset/9/16_5.odb,Step-1,Increment      1: Step Time =    1.000,"PART-1-1",           599,      -12.4316,       14.7766,            0.,NA,NA,"",       8.85832,       7.95453,       3.89811,   182.586E-06
C:/temp/dataset/9/16_5.odb,Step-1,Increment      1: Step Time =    1.000,"PART-1-1",           600,      -5.72199,       20.2132,            0.,NA,NA,"",       9.24025,       8.91665,       2.42394,   598.350E-06
C:/temp/dataset/9/16_5.odb,Step-1,Increment      1: Step Time =    1.000,"PART-1-1",           601,           -5.,         18.75,            0.,NA,NA,"",       8.90971,       8.60549,       2.30833,   781.989E-06
C:/temp/dataset/9/16_5.odb,Step-1,Increment      1: Step Time =    1.000,"PART-1-1",           602,          -15.,       15.7813,            0.,NA,NA,"",       9.31525,       8.21175,       4.39785,   465.919E-06
C:/temp/dataset/9/16_5.odb,Step-1,Increment      1: Step Time =    1.000,"PART-1-1",           603,      -10.4105,       16.7429,            0.,NA,NA,"",       8.99777,       8.31094,       3.44791,   55.0997E-06
C:/temp/dataset/9/16_5.odb,Step-1,Increment      1: Step Time =    1.000,"PART-1-1",           604,      -12.1928,       12.6381,            0.,NA,NA,"",       8.46522,       7.51654,       3.89378,   122.750E-06
C:/temp/dataset/9/16_5.odb,Step-1,Increment      1: Step Time =    1.000,"PART-1-1",           605,      -12.0987,       10.4443,            0.,NA,NA,"",       8.08469,       7.07078,       3.91999,   155.039E-06
C:/temp/dataset/9/16_5.odb,Step-1,Increment      1: Step Time =    1.000,"PART-1-1",           606,      -7.50325,       4.80693,            0.,NA,NA,"",       6.61041,       5.83445,       3.10753,   1.77404E-03
C:/temp/dataset/9/16_5.odb,Step-1,Increment      1: Step Time =    1.000,"PART-1-1",           607,      -9.63824,       5.46172,            0.,NA,NA,"",       6.97146,       6.01394,       3.52615,   1.21865E-03
C:/temp/dataset/9/16_5.odb,Step-1,Increment      1: Step Time =    1.000,"PART-1-1",           608,      -8.81234,       4.25317,            0.,NA,NA,"",       6.67286,       5.75144,       3.38348,   2.12314E-03
C:/temp/dataset/9/16_5.odb,Step-1,Increment      1: Step Time =    1.000,"PART-1-1",           609,          -15.,      -1.71875,            0.,NA,NA,"",       6.67064,       4.69495,       4.73866,   4.74615E-03
C:/temp/dataset/9/16_5.odb,Step-1,Increment      1: Step Time =    1.000,"PART-1-1",           610,      -12.5835,      -1.75493,            0.,NA,NA,"",       6.28616,       4.62767,       4.25448,   5.06338E-03
C:/temp/dataset/9/16_5.odb,Step-1,Increment      1: Step Time =    1.000,"PART-1-1",           611,        -11.25,           -5.,            0.,NA,NA,"",       5.64549,       3.93675,       4.04643,   5.47584E-03
C:/temp/dataset/9/16_5.odb,Step-1,Increment      1: Step Time =    1.000,"PART-1-1",           612,      -10.0144,      -3.91217,            0.,NA,NA,"",       5.59447,       4.12574,       3.77840,   5.47465E-03
C:/temp/dataset/9/16_5.odb,Step-1,Increment      1: Step Time =    1.000,"PART-1-1",           613,      -11.2827,      -2.82422,            0.,NA,NA,"",       5.93940,       4.37841,       4.01323,   5.20196E-03
C:/temp/dataset/9/16_5.odb,Step-1,Increment      1: Step Time =    1.000,"PART-1-1",           614,         -8.75,           -5.,            0.,NA,NA,"",       5.24939,       3.87266,       3.54382,   5.82721E-03
C:/temp/dataset/9/16_5.odb,Step-1,Increment      1: Step Time =    1.000,"PART-1-1",           615,      -7.54904,      -4.01671,            0.,NA,NA,"",       5.20743,       4.04149,       3.28384,   5.61713E-03
C:/temp/dataset/9/16_5.odb,Step-1,Increment      1: Step Time =    1.000,"PART-1-1",           616,      -8.81345,      -2.92887,            0.,NA,NA,"",       5.55226,       4.29486,       3.51877,   5.28326E-03
C:/temp/dataset/9/16_5.odb,Step-1,Increment      1: Step Time =    1.000,"PART-1-1",           617,  -969.738E-03,       22.2544,            0.,NA,NA,"",       9.33853,       9.23119,       1.41183,   291.823E-06
C:/temp/dataset/9/16_5.odb,Step-1,Increment      1: Step Time =    1.000,"PART-1-1",           618,      -2.31964,       21.1016,            0.,NA,NA,"",       9.18568,       9.02484,       1.71143,   406.057E-06
C:/temp/dataset/9/16_5.odb,Step-1,Increment      1: Step Time =    1.000,"PART-1-1",           619,         -1.25,           20.,            0.,NA,NA,"",       8.90697,       8.77699,       1.51611,   474.570E-06
C:/temp/dataset/9/16_5.odb,Step-1,Increment      1: Step Time =    1.000,"PART-1-1",           620,         -1.25,           30.,            0.,NA,NA,"",       10.8957,       10.8172,       1.30574,   435.688E-06
C:/temp/dataset/9/16_5.odb,Step-1,Increment      1: Step Time =    1.000,"PART-1-1",           621,      -1.44357,       27.1449,            0.,NA,NA,"",       10.3348,       10.2388,       1.40569,   180.769E-06
C:/temp/dataset/9/16_5.odb,Step-1,Increment      1: Step Time =    1.000,"PART-1-1",           622,      -4.58492,       21.1383,            0.,NA,NA,"",       9.33715,       9.08079,       2.17293,   549.035E-06
C:/temp/dataset/9/16_5.odb,Step-1,Increment      1: Step Time =    1.000,"PART-1-1",           623,         -3.75,           20.,            0.,NA,NA,"",       9.06031,       8.83085,       2.02618,   734.692E-06
C:/temp/dataset/9/16_5.odb,Step-1,Increment      1: Step Time =    1.000,"PART-1-1",           624,      -3.15456,       22.2398,            0.,NA,NA,"",       9.45904,       9.27476,       1.85800,   254.672E-06
C:/temp/dataset/9/16_5.odb,Step-1,Increment      1: Step Time =    1.000,"PART-1-1",           625,      -11.2479,       22.4027,            0.,NA,NA,"",       10.1034,       9.47765,       3.50044,   238.024E-06
C:/temp/dataset/9/16_5.odb,Step-1,Increment      1: Step Time =    1.000,"PART-1-1",           626,      -10.3888,       20.8027,            0.,NA,NA,"",       9.73251,       9.13438,       3.35928,   188.321E-06
C:/temp/dataset/9/16_5.odb,Step-1,Increment      1: Step Time =    1.000,"PART-1-1",           627,       9.41561,      -24.6142,            0.,NA,NA,"",   233.199E-03,   230.235E-03,   37.0637E-03,   14.9510E-03
C:/temp/dataset/9/16_5.odb,Step-1,Increment      1: Step Time =    1.000,"PART-1-1",           628,           15.,        -16.25,            0.,NA,NA,"",       1.46694,       1.23691,  -788.662E-03,   40.9190E-03
C:/temp/dataset/9/16_5.odb,Step-1,Increment      1: Step Time =    1.000,"PART-1-1",           629,       13.1096,      -16.2411,            0.,NA,NA,"",       1.32939,       1.23184,  -499.868E-03,   26.1807E-03
C:/temp/dataset/9/16_5.odb,Step-1,Increment      1: Step Time =    1.000,"PART-1-1",           630,           15.,          3.75,            0.,NA,NA,"",       5.30265,       5.09635,      -1.46468,   50.4023E-06
C:/temp/dataset/9/16_5.odb,Step-1,Increment      1: Step Time =    1.000,"PART-1-1",           631,       14.0093,       5.06690,            0.,NA,NA,"",       5.54115,       5.38917,      -1.28884,   189.637E-06
C:/temp/dataset/9/16_5.odb,Step-1,Increment      1: Step Time =    1.000,"PART-1-1",           632,       12.9168,       3.88721,            0.,NA,NA,"",       5.27263,       5.16927,      -1.03884,   974.943E-06
C:/temp/dataset/9/16_5.odb,Step-1,Increment      1: Step Time =    1.000,"PART-1-1",           633,       12.6026,       11.0965,            0.,NA,NA,"",       6.75168,       6.65675,      -1.12824,   48.4532E-06
C:/temp/dataset/9/16_5.odb,Step-1,Increment      1: Step Time =    1.000,"PART-1-1",           634,           15.,         11.25,            0.,NA,NA,"",       6.83275,       6.63723,      -1.62287,   151.787E-06
C:/temp/dataset/9/16_5.odb,Step-1,Increment      1: Step Time =    1.000,"PART-1-1",           635,       12.4669,       18.7361,            0.,NA,NA,"",       8.32120,       8.22493,      -1.26211,   93.0943E-06
C:/temp/dataset/9/16_5.odb,Step-1,Increment      1: Step Time =    1.000,"PART-1-1",           636,           15.,         18.75,            0.,NA,NA,"",       8.36576,       8.17395,      -1.78110,   153.803E-06
C:/temp/dataset/9/16_5.odb,Step-1,Increment      1: Step Time =    1.000,"PART-1-1",           637,           15.,         26.25,            0.,NA,NA,"",       9.90093,       9.70919,      -1.93906,   44.3451E-06
C:/temp/dataset/9/16_5.odb,Step-1,Increment      1: Step Time =    1.000,"PART-1-1",           638,          8.75,           30.,            0.,NA,NA,"",       10.6344,       10.6087,  -739.128E-03,   128.734E-06
C:/temp/dataset/9/16_5.odb,Step-1,Increment      1: Step Time =    1.000,"PART-1-1",           639,       8.74802,       27.8391,            0.,NA,NA,"",       10.1902,       10.1666,  -692.916E-03,   131.693E-06
C:/temp/dataset/9/16_5.odb,Step-1,Increment      1: Step Time =    1.000,"PART-1-1",           640,       11.0691,       22.4572,            0.,NA,NA,"",       9.07792,       9.01648,      -1.05445,   116.298E-06
C:/temp/dataset/9/16_5.odb,Step-1,Increment      1: Step Time =    1.000,"PART-1-1",           641,       11.1947,       19.9658,            0.,NA,NA,"",       8.56567,       8.50381,      -1.02759,   94.1191E-06
C:/temp/dataset/9/16_5.odb,Step-1,Increment      1: Step Time =    1.000,"PART-1-1",           642,          3.75,           30.,            0.,NA,NA,"",       10.7172,       10.7134,   284.027E-03,   312.188E-06
C:/temp/dataset/9/16_5.odb,Step-1,Increment      1: Step Time =    1.000,"PART-1-1",           643,       6.12801,       21.9878,            0.,NA,NA,"",       9.02560,       9.02554,  -32.9813E-03,   173.919E-06
C:/temp/dataset/9/16_5.odb,Step-1,Increment      1: Step Time =    1.000,"PART-1-1",           644,       7.06684,       23.0702,            0.,NA,NA,"",       9.23030,       9.22696,  -247.987E-03,   158.533E-06
C:/temp/dataset/9/16_5.odb,Step-1,Increment      1: Step Time =    1.000,"PART-1-1",           645,       4.97038,       22.7185,            0.,NA,NA,"",       9.20152,       9.19959,   188.449E-03,   142.082E-06
C:/temp/dataset/9/16_5.odb,Step-1,Increment      1: Step Time =    1.000,"PART-1-1",           646,          3.75,           20.,            0.,NA,NA,"",       8.68381,       8.66968,   495.187E-03,   470.541E-06
C:/temp/dataset/9/16_5.odb,Step-1,Increment      1: Step Time =    1.000,"PART-1-1",           647,       4.96897,       20.9583,            0.,NA,NA,"",       8.84253,       8.83964,   225.949E-03,   267.960E-06
C:/temp/dataset/9/16_5.odb,Step-1,Increment      1: Step Time =    1.000,"PART-1-1",           648,       3.78616,       22.0655,            0.,NA,NA,"",       9.10211,       9.09126,   444.405E-03,   180.730E-06
C:/temp/dataset/9/16_5.odb,Step-1,Increment      1: Step Time =    1.000,"PART-1-1",           649,           -5.,         13.75,            0.,NA,NA,"",       7.96791,       7.59337,       2.41420,   398.832E-06
C:/temp/dataset/9/16_5.odb,Step-1,Increment      1: Step Time =    1.000,"PART-1-1",           650,      -7.15256,       14.0792,            0.,NA,NA,"",       8.21210,       7.70421,       2.84318,   318.742E-06
C:/temp/dataset/9/16_5.odb,Step-1,Increment      1: Step Time =    1.000,"PART-1-1",           651,      -9.70164,       19.1500,            0.,NA,NA,"",       9.36773,       8.78435,       3.25416,   106.435E-06
C:/temp/dataset/9/16_5.odb,Step-1,Increment      1: Step Time =    1.000,"PART-1-1",           652,      -9.13060,       21.5024,            0.,NA,NA,"",       9.75252,       9.25029,       3.08930,   208.699E-06
C:/temp/dataset/9/16_5.odb,Step-1,Increment      1: Step Time =    1.000,"PART-1-1",           653,         -1.25,           -5.,            0.,NA,NA,"",       4.19711,       3.67617,       2.02522,   6.18494E-03
C:/temp/dataset/9/16_5.odb,Step-1,Increment      1: Step Time =    1.000,"PART-1-1",           654,      -1.47244,      -2.77860,            0.,NA,NA,"",       4.60870,       4.13810,       2.02887,   5.12477E-03
C:/temp/dataset/9/16_5.odb,Step-1,Increment      1: Step Time =    1.000,"PART-1-1",           655,      -9.96758,      -1.61086,            0.,NA,NA,"",       5.91364,       4.59153,       3.72678,   5.03205E-03
C:/temp/dataset/9/16_5.odb,Step-1,Increment      1: Step Time =    1.000,"PART-1-1",           656,      -6.37223,      -3.07632,            0.,NA,NA,"",       5.18044,       4.20276,       3.02883,   5.31988E-03
C:/temp/dataset/9/16_5.odb,Step-1,Increment      1: Step Time =    1.000,"PART-1-1",           657,         -6.25,           -5.,            0.,NA,NA,"",       4.87203,       3.80766,       3.03947,   5.95343E-03
C:/temp/dataset/9/16_5.odb,Step-1,Increment      1: Step Time =    1.000,"PART-1-1",           658,         -3.75,            5.,            0.,NA,NA,"",       6.24252,       5.78696,       2.34097,   3.33648E-03
C:/temp/dataset/9/16_5.odb,Step-1,Increment      1: Step Time =    1.000,"PART-1-1",           659,      -5.11170,       4.23117,            0.,NA,NA,"",       6.24416,       5.66178,       2.63322,   2.97977E-03
C:/temp/dataset/9/16_5.odb,Step-1,Increment      1: Step Time =    1.000,"PART-1-1",           660,      -3.95473,       3.29190,            0.,NA,NA,"",       5.95463,       5.44228,       2.41645,   3.10048E-03
C:/temp/dataset/9/16_5.odb,Step-1,Increment      1: Step Time =    1.000,"PART-1-1",           661,          3.75,           -5.,            0.,NA,NA,"",       3.67747,       3.53827,       1.00220,   8.12803E-03
C:/temp/dataset/9/16_5.odb,Step-1,Increment      1: Step Time =    1.000,"PART-1-1",           662,       4.69008,      -3.66648,            0.,NA,NA,"",       3.87231,       3.79285,   780.428E-03,   7.58869E-03
C:/temp/dataset/9/16_5.odb,Step-1,Increment      1: Step Time =    1.000,"PART-1-1",           663,       4.69636,       3.71818,            0.,NA,NA,"",       5.35905,       5.32057,   640.992E-03,   3.26833E-03
C:/temp/dataset/9/16_5.odb,Step-1,Increment      1: Step Time =    1.000,"PART-1-1",           664,          3.75,            5.,            0.,NA,NA,"",       5.66386,       5.60576,   809.199E-03,   3.99368E-03
C:/temp/dataset/9/16_5.odb,Step-1,Increment      1: Step Time =    1.000,"PART-1-1",           665,       8.42013,       25.7200,            0.,NA,NA,"",       9.75746,       9.74015,  -580.967E-03,   147.956E-06
C:/temp/dataset/9/16_5.odb,Step-1,Increment      1: Step Time =    1.000,"PART-1-1",           666,       7.55622,       27.1849,            0.,NA,NA,"",       10.0674,       10.0580,  -435.094E-03,   147.049E-06
C:/temp/dataset/9/16_5.odb,Step-1,Increment      1: Step Time =    1.000,"PART-1-1",           667,       6.61388,       26.0906,            0.,NA,NA,"",       9.85656,       9.85412,  -219.063E-03,   153.205E-06
C:/temp/dataset/9/16_5.odb,Step-1,Increment      1: Step Time =    1.000,"PART-1-1",           668,       10.0237,       13.5556,            0.,NA,NA,"",       7.24472,       7.21531,  -652.046E-03,   81.7749E-06
C:/temp/dataset/9/16_5.odb,Step-1,Increment      1: Step Time =    1.000,"PART-1-1",           669,       8.80148,       12.2659,            0.,NA,NA,"",       6.98692,       6.97689,  -374.297E-03,   112.909E-06
C:/temp/dataset/9/16_5.odb,Step-1,Increment      1: Step Time =    1.000,"PART-1-1",           670,            5.,          6.25,            0.,NA,NA,"",       5.85011,       5.82610,   529.457E-03,   941.714E-06
C:/temp/dataset/9/16_5.odb,Step-1,Increment      1: Step Time =    1.000,"PART-1-1",           671,       5.87545,       4.76801,            0.,NA,NA,"",       5.52027,       5.50711,   380.983E-03,   2.51918E-03
C:/temp/dataset/9/16_5.odb,Step-1,Increment      1: Step Time =    1.000,"PART-1-1",           672,       6.93940,       5.78737,            0.,NA,NA,"",       5.69242,       5.69061,   143.586E-03,   1.11349E-03
C:/temp/dataset/9/16_5.odb,Step-1,Increment      1: Step Time =    1.000,"PART-1-1",           673,       7.73520,       4.18036,            0.,NA,NA,"",       5.34385,       5.34383,   13.6726E-03,   2.15471E-03
C:/temp/dataset/9/16_5.odb,Step-1,Increment      1: Step Time =    1.000,"PART-1-1",           674,       6.49581,       3.34316,            0.,NA,NA,"",       5.20841,       5.20074,   282.504E-03,   3.28564E-03
C:/temp/dataset/9/16_5.odb,Step-1,Increment      1: Step Time =    1.000,"PART-1-1",           675,       7.18979,       1.82766,            0.,NA,NA,"",       4.87459,       4.87159,   171.007E-03,   4.01968E-03
C:/temp/dataset/9/16_5.odb,Step-1,Increment      1: Step Time =    1.000,"PART-1-1",           676,       8.42918,       2.66485,            0.,NA,NA,"",       5.01651,       5.01557,  -97.1612E-03,   3.19091E-03
C:/temp/dataset/9/16_5.odb,Step-1,Increment      1: Step Time =    1.000,"PART-1-1",           677,  -530.051E-03,       1.39108,            0.,NA,NA,"",       5.27125,       4.97024,       1.75579,   3.73331E-03
C:/temp/dataset/9/16_5.odb,Step-1,Increment      1: Step Time =    1.000,"PART-1-1",           678,      -10.1792,       3.73358,            0.,NA,NA,"",       6.76020,       5.67749,       3.66966,   2.51717E-03
C:/temp/dataset/9/16_5.odb,Step-1,Increment      1: Step Time =    1.000,"PART-1-1",           679,      -9.26781,       2.30942,            0.,NA,NA,"",       6.41592,       5.36864,       3.51307,   3.53323E-03
C:/temp/dataset/9/16_5.odb,Step-1,Increment      1: Step Time =    1.000,"PART-1-1",           680,      -7.90097,       2.82902,            0.,NA,NA,"",       6.32646,       5.44159,       3.22695,   3.18959E-03
C:/temp/dataset/9/16_5.odb,Step-1,Increment      1: Step Time =    1.000,"PART-1-1",           681,      -2.90861,       2.25641,            0.,NA,NA,"",       5.66052,       5.20535,       2.22393,   3.53079E-03
C:/temp/dataset/9/16_5.odb,Step-1,Increment      1: Step Time =    1.000,"PART-1-1",           682,      -1.97153,   737.020E-03,            0.,NA,NA,"",       5.29024,       4.87154,       2.06272,   3.85687E-03
C:/temp/dataset/9/16_5.odb,Step-1,Increment      1: Step Time =    1.000,"PART-1-1",           683,      -12.0057,       8.33468,            0.,NA,NA,"",       7.72572,       6.64269,       3.94480,   177.086E-06
C:/temp/dataset/9/16_5.odb,Step-1,Increment      1: Step Time =    1.000,"PART-1-1",           684,   257.111E-03,       23.5381,            0.,NA,NA,"",       9.53483,       9.46710,       1.13444,   172.729E-06
C:/temp/dataset/9/16_5.odb,Step-1,Increment      1: Step Time =    1.000,"PART-1-1",           685,       2.92443,       23.5127,            0.,NA,NA,"",       9.42384,       9.40535,   590.050E-03,   139.209E-06
C:/temp/dataset/9/16_5.odb,Step-1,Increment      1: Step Time =    1.000,"PART-1-1",           686,  -872.814E-03,       24.6452,            0.,NA,NA,"",       9.80916,       9.71694,       1.34187,   106.788E-06
C:/temp/dataset/9/16_5.odb,Step-1,Increment      1: Step Time =    1.000,"PART-1-1",           687,      -2.49287,       25.7554,            0.,NA,NA,"",       10.1128,       9.97742,       1.64908,   98.9651E-06
C:/temp/dataset/9/16_5.odb,Step-1,Increment      1: Step Time =    1.000,"PART-1-1",           688,      -6.57000,       23.0679,            0.,NA,NA,"",       9.84743,       9.51521,       2.53627,   232.546E-06
C:/temp/dataset/9/16_5.odb,Step-1,Increment      1: Step Time =    1.000,"PART-1-1",           689,      -7.77911,       22.2181,            0.,NA,NA,"",       9.77702,       9.36754,       2.79987,   229.529E-06
C:/temp/dataset/9/16_5.odb,Step-1,Increment      1: Step Time =    1.000,"PART-1-1",           690,      -6.08757,       21.5970,            0.,NA,NA,"",       9.53113,       9.20575,       2.46916,   277.440E-06
C:/temp/dataset/9/16_5.odb,Step-1,Increment      1: Step Time =    1.000,"PART-1-1",           691,      -10.6596,       24.7502,            0.,NA,NA,"",       10.4865,       9.94301,       3.33202,   252.996E-06
C:/temp/dataset/9/16_5.odb,Step-1,Increment      1: Step Time =    1.000,"PART-1-1",           692,      -8.94190,       25.0911,            0.,NA,NA,"",       10.4110,       9.97661,       2.97589,   261.352E-06
C:/temp/dataset/9/16_5.odb,Step-1,Increment      1: Step Time =    1.000,"PART-1-1",           693,      -9.30563,       26.3338,            0.,NA,NA,"",       10.6744,       10.2372,       3.02374,   248.748E-06
C:/temp/dataset/9/16_5.odb,Step-1,Increment      1: Step Time =    1.000,"PART-1-1",           694,      -11.0233,       25.9928,            0.,NA,NA,"",       10.7488,       10.2035,       3.37993,   232.344E-06
C:/temp/dataset/9/16_5.odb,Step-1,Increment      1: Step Time =    1.000,"PART-1-1",           695,      -9.11986,       17.2561,            0.,NA,NA,"",       8.96908,       8.38812,       3.17552,   129.117E-06
C:/temp/dataset/9/16_5.odb,Step-1,Increment      1: Step Time =    1.000,"PART-1-1",           696,      -11.0116,       7.65423,            0.,NA,NA,"",       7.49538,       6.48500,       3.75838,   276.203E-06
C:/temp/dataset/9/16_5.odb,Step-1,Increment      1: Step Time =    1.000,"PART-1-1",           697,      -11.6541,       6.30856,            0.,NA,NA,"",       7.35602,       6.22726,       3.91564,   526.842E-06
C:/temp/dataset/9/16_5.odb,Step-1,Increment      1: Step Time =    1.000,"PART-1-1",           698,      -3.46647,   792.949E-03,            0.,NA,NA,"",       5.45905,       4.91964,       2.36609,   3.90048E-03
C:/temp/dataset/9/16_5.odb,Step-1,Increment      1: Step Time =    1.000,"PART-1-1",           699,      -4.27899,       1.61468,            0.,NA,NA,"",       5.69317,       5.10733,       2.51542,   3.64201E-03
C:/temp/dataset/9/16_5.odb,Step-1,Increment      1: Step Time =    1.000,"PART-1-1",           700,      -5.41602,       1.03976,            0.,NA,NA,"",       5.72552,       5.01770,       2.75759,   3.91582E-03
C:/temp/dataset/9/16_5.odb,Step-1,Increment      1: Step Time =    1.000,"PART-1-1",           701,      -4.60351,   218.037E-03,            0.,NA,NA,"",       5.48944,       4.83015,       2.60837,   4.15108E-03
C:/temp/dataset/9/16_5.odb,Step-1,Increment      1: Step Time =    1.000,"PART-1-1",           702,      -1.96165,  -510.209E-03,            0.,NA,NA,"",       5.06482,       4.61578,       2.08496,   4.25637E-03
C:/temp/dataset/9/16_5.odb,Step-1,Increment      1: Step Time =    1.000,"PART-1-1",           703,      -2.89723,      -2.02996,            0.,NA,NA,"",       4.90328,       4.32795,       2.30456,   4.88426E-03
C:/temp/dataset/9/16_5.odb,Step-1,Increment      1: Step Time =    1.000,"PART-1-1",           704,       6.46823,      -3.22891,            0.,NA,NA,"",       3.85526,       3.83363,   407.792E-03,   10.4180E-03
C:/temp/dataset/9/16_5.odb,Step-1,Increment      1: Step Time =    1.000,"PART-1-1",           705,       5.30305,      -2.18626,            0.,NA,NA,"",       4.13308,       4.08494,   628.985E-03,   6.78198E-03
C:/temp/dataset/9/16_5.odb,Step-1,Increment      1: Step Time =    1.000,"PART-1-1",           706,       8.11637,      -13.0290,            0.,NA,NA,"",       1.83292,       1.82135,   205.619E-03,   15.8703E-03
C:/temp/dataset/9/16_5.odb,Step-1,Increment      1: Step Time =    1.000,"PART-1-1",           707,       8.09759,      -10.8135,            0.,NA,NA,"",       2.24288,       2.23451,   193.509E-03,   14.0556E-03
C:/temp/dataset/9/16_5.odb,Step-1,Increment      1: Step Time =    1.000,"PART-1-1",           708,           15.,        -26.25,            0.,NA,NA,"",   301.555E-03,   177.152E-03,  -244.034E-03,   66.8665E-03
C:/temp/dataset/9/16_5.odb,Step-1,Increment      1: Step Time =    1.000,"PART-1-1",           709,       13.6129,      -24.9005,            0.,NA,NA,"",   321.064E-03,   230.964E-03,  -223.019E-03,   45.6493E-03
C:/temp/dataset/9/16_5.odb,Step-1,Increment      1: Step Time =    1.000,"PART-1-1",           710,       12.3352,      -26.1538,            0.,NA,NA,"",   163.871E-03,   127.736E-03,  -102.651E-03,   31.5619E-03
C:/temp/dataset/9/16_5.odb,Step-1,Increment      1: Step Time =    1.000,"PART-1-1",           711,       11.5115,      -24.0900,            0.,NA,NA,"",   289.937E-03,   270.817E-03,  -103.546E-03,   20.7447E-03
C:/temp/dataset/9/16_5.odb,Step-1,Increment      1: Step Time =    1.000,"PART-1-1",           712,       12.5793,      -23.4990,            0.,NA,NA,"",   385.115E-03,   330.248E-03,  -198.117E-03,   31.3947E-03
C:/temp/dataset/9/16_5.odb,Step-1,Increment      1: Step Time =    1.000,"PART-1-1",           713,       11.9958,      -21.9645,            0.,NA,NA,"",   513.209E-03,   476.654E-03,  -190.222E-03,   23.5428E-03
C:/temp/dataset/9/16_5.odb,Step-1,Increment      1: Step Time =    1.000,"PART-1-1",           714,           15.,        -23.75,            0.,NA,NA,"",   524.428E-03,   349.643E-03,  -390.863E-03,   59.8994E-03
C:/temp/dataset/9/16_5.odb,Step-1,Increment      1: Step Time =    1.000,"PART-1-1",           715,       11.0775,      -9.24199,            0.,NA,NA,"",       2.51583,       2.48975,  -361.354E-03,   12.3424E-03
C:/temp/dataset/9/16_5.odb,Step-1,Increment      1: Step Time =    1.000,"PART-1-1",           716,       10.0590,      -8.23408,            0.,NA,NA,"",       2.71381,       2.70659,  -197.898E-03,   11.3397E-03
C:/temp/dataset/9/16_5.odb,Step-1,Increment      1: Step Time =    1.000,"PART-1-1",           717,       9.08966,      -9.54059,            0.,NA,NA,"",       2.46315,       2.46315,   2.07747E-03,   12.0212E-03
C:/temp/dataset/9/16_5.odb,Step-1,Increment      1: Step Time =    1.000,"PART-1-1",           718,           15.,         -1.25,            0.,NA,NA,"",       4.27868,       4.06009,      -1.35011,   4.04933E-03
C:/temp/dataset/9/16_5.odb,Step-1,Increment      1: Step Time =    1.000,"PART-1-1",           719,       12.7047,      -1.36075,            0.,NA,NA,"",       4.17570,       4.08284,  -875.723E-03,   5.38737E-03
C:/temp/dataset/9/16_5.odb,Step-1,Increment      1: Step Time =    1.000,"PART-1-1",           720,       10.4122,      -1.52824,            0.,NA,NA,"",       4.11618,       4.09560,  -411.108E-03,   6.86700E-03
C:/temp/dataset/9/16_5.odb,Step-1,Increment      1: Step Time =    1.000,"PART-1-1",           721,       11.7321,      -2.88547,            0.,NA,NA,"",       3.83742,       3.78311,  -643.340E-03,   7.42197E-03
C:/temp/dataset/9/16_5.odb,Step-1,Increment      1: Step Time =    1.000,"PART-1-1",           722,       13.0447,       6.32641,            0.,NA,NA,"",       5.77803,       5.66891,      -1.11759,   173.814E-06
C:/temp/dataset/9/16_5.odb,Step-1,Increment      1: Step Time =    1.000,"PART-1-1",           723,           15.,          6.25,            0.,NA,NA,"",       5.81294,       5.61133,      -1.51764,   298.621E-06
C:/temp/dataset/9/16_5.odb,Step-1,Increment      1: Step Time =    1.000,"PART-1-1",           724,       12.2773,       7.44357,            0.,NA,NA,"",       5.99599,       5.91471,  -983.914E-03,   71.8277E-06
C:/temp/dataset/9/16_5.odb,Step-1,Increment      1: Step Time =    1.000,"PART-1-1",           725,       11.3989,       9.46443,            0.,NA,NA,"",       6.40404,       6.34781,  -846.806E-03,   57.3701E-06
C:/temp/dataset/9/16_5.odb,Step-1,Increment      1: Step Time =    1.000,"PART-1-1",           726,       10.0696,       10.6576,            0.,NA,NA,"",       6.64758,       6.62046,  -599.811E-03,   109.952E-06
C:/temp/dataset/9/16_5.odb,Step-1,Increment      1: Step Time =    1.000,"PART-1-1",           727,       11.2733,       12.2896,            0.,NA,NA,"",       6.98523,       6.92943,  -881.148E-03,   47.6887E-06
C:/temp/dataset/9/16_5.odb,Step-1,Increment      1: Step Time =    1.000,"PART-1-1",           728,       11.2495,       14.9235,            0.,NA,NA,"",       7.52761,       7.46967,  -932.142E-03,   63.8553E-06
C:/temp/dataset/9/16_5.odb,Step-1,Increment      1: Step Time =    1.000,"PART-1-1",           729,       11.2365,       17.4638,            0.,NA,NA,"",       8.05071,       7.99044,  -983.277E-03,   84.1811E-06
C:/temp/dataset/9/16_5.odb,Step-1,Increment      1: Step Time =    1.000,"PART-1-1",           730,       9.96430,       18.6935,            0.,NA,NA,"",       8.30321,       8.26937,  -748.780E-03,   84.3559E-06
C:/temp/dataset/9/16_5.odb,Step-1,Increment      1: Step Time =    1.000,"PART-1-1",           731,       8.12949,      -15.2371,            0.,NA,NA,"",       1.45283,       1.43770,   209.177E-03,   17.7566E-03
C:/temp/dataset/9/16_5.odb,Step-1,Increment      1: Step Time =    1.000,"PART-1-1",           732,       10.9896,      -6.85237,            0.,NA,NA,"",       2.99884,       2.97170,  -402.576E-03,   11.5184E-03
C:/temp/dataset/9/16_5.odb,Step-1,Increment      1: Step Time =    1.000,"PART-1-1",           733,       10.9332,      -25.1906,            0.,NA,NA,"",   189.029E-03,   182.287E-03,  -50.0332E-03,   15.4332E-03
C:/temp/dataset/9/16_5.odb,Step-1,Increment      1: Step Time =    1.000,"PART-1-1",           734,       11.9281,      -5.46067,            0.,NA,NA,"",       3.30067,       3.24239,  -617.501E-03,   10.1240E-03
C:/temp/dataset/9/16_5.odb,Step-1,Increment      1: Step Time =    1.000,"PART-1-1",           735,      -11.5697,       3.18107,            0.,NA,NA,"",       6.85755,       5.59840,       3.96030,   3.17486E-03
C:/temp/dataset/9/16_5.odb,Step-1,Increment      1: Step Time =    1.000,"PART-1-1",           736,      -10.7341,       2.09613,            0.,NA,NA,"",       6.57806,       5.36054,       3.81254,   3.84516E-03
C:/temp/dataset/9/16_5.odb,Step-1,Increment      1: Step Time =    1.000,"PART-1-1",           737,      -6.76822,       1.80268,            0.,NA,NA,"",       6.01708,       5.20591,       3.01724,   3.70866E-03
C:/temp/dataset/9/16_5.odb,Step-1,Increment      1: Step Time =    1.000,"PART-1-1",           738,      -5.32511,       2.65016,            0.,NA,NA,"",       5.99082,       5.34387,       2.70796,   3.31444E-03
C:/temp/dataset/9/16_5.odb,Step-1,Increment      1: Step Time =    1.000,"PART-1-1",           739,      -6.45786,       3.67650,            0.,NA,NA,"",       6.29698,       5.58007,       2.91802,   2.90332E-03
C:/temp/dataset/9/16_5.odb,Step-1,Increment      1: Step Time =    1.000,"PART-1-1",           740,      -10.1618,       27.4009,            0.,NA,NA,"",       10.9430,       10.4722,       3.17537,   216.239E-06
C:/temp/dataset/9/16_5.odb,Step-1,Increment      1: Step Time =    1.000,"PART-1-1",           741,      -8.15950,       27.0742,            0.,NA,NA,"",       10.7292,       10.3641,       2.77520,   242.274E-06
C:/temp/dataset/9/16_5.odb,Step-1,Increment      1: Step Time =    1.000,"PART-1-1",           742,      -8.41457,       23.7439,            0.,NA,NA,"",       10.1151,       9.69135,       2.89699,   261.225E-06
C:/temp/dataset/9/16_5.odb,Step-1,Increment      1: Step Time =    1.000,"PART-1-1",           743,      -9.76606,       23.0282,            0.,NA,NA,"",       10.0903,       9.57393,       3.18650,   251.402E-06
C:/temp/dataset/9/16_5.odb,Step-1,Increment      1: Step Time =    1.000,"PART-1-1",           744,      -10.1457,       6.57799,            0.,NA,NA,"",       7.21553,       6.24994,       3.60584,   551.701E-06
C:/temp/dataset/9/16_5.odb,Step-1,Increment      1: Step Time =    1.000,"PART-1-1",           745,      -11.1466,       5.19230,            0.,NA,NA,"",       7.11496,       5.99229,       3.83603,   1.25485E-03
C:/temp/dataset/9/16_5.odb,Step-1,Increment      1: Step Time =    1.000,"PART-1-1",           746,       7.77017,   782.991E-03,            0.,NA,NA,"",       4.64139,       4.64081,   73.5694E-03,   4.93897E-03
C:/temp/dataset/9/16_5.odb,Step-1,Increment      1: Step Time =    1.000,"PART-1-1",           747,       6.09501,       1.10589,            0.,NA,NA,"",       4.76617,       4.74873,   407.301E-03,   4.46322E-03
C:/temp/dataset/9/16_5.odb,Step-1,Increment      1: Step Time =    1.000,"PART-1-1",           748,       6.67539,   61.2235E-03,            0.,NA,NA,"",       4.52810,       4.51754,   309.062E-03,   5.33833E-03
C:/temp/dataset/9/16_5.odb,Step-1,Increment      1: Step Time =    1.000,"PART-1-1",           749,       5.31672,       2.29333,            0.,NA,NA,"",       5.04218,       5.01288,   542.775E-03,   3.66160E-03
C:/temp/dataset/9/16_5.odb,Step-1,Increment      1: Step Time =    1.000,"PART-1-1",           750,      -6.94695,       24.4689,            0.,NA,NA,"",       10.1429,       9.80835,       2.58343,   227.590E-06
C:/temp/dataset/9/16_5.odb,Step-1,Increment      1: Step Time =    1.000,"PART-1-1",           751,      -2.09966,       23.3616,            0.,NA,NA,"",       9.61833,       9.48105,       1.61922,   211.857E-06
C:/temp/dataset/9/16_5.odb,Step-1,Increment      1: Step Time =    1.000,"PART-1-1",           752,      -2.87591,       24.2478,            0.,NA,NA,"",       9.83665,       9.67810,       1.75896,   110.463E-06
C:/temp/dataset/9/16_5.odb,Step-1,Increment      1: Step Time =    1.000,"PART-1-1",           753,       9.53974,       23.7363,            0.,NA,NA,"",       9.34232,       9.31068,  -768.303E-03,   134.117E-06
C:/temp/dataset/9/16_5.odb,Step-1,Increment      1: Step Time =    1.000,"PART-1-1",           754,      -5.22075,      -2.25347,            0.,NA,NA,"",       5.15527,       4.34121,       2.78042,   5.03277E-03
C:/temp/dataset/9/16_5.odb,Step-1,Increment      1: Step Time =    1.000,"PART-1-1",           755,      -7.55915,      -2.11026,            0.,NA,NA,"",       5.49439,       4.42955,       3.25076,   5.06620E-03
C:/temp/dataset/9/16_5.odb,Step-1,Increment      1: Step Time =    1.000,"PART-1-1",           756,      -4.20325,      -1.24540,            0.,NA,NA,"",       5.19334,       4.52135,       2.55501,   4.63560E-03
C:/temp/dataset/9/16_5.odb,Step-1,Increment      1: Step Time =    1.000,"PART-1-1",           757,       12.0426,       5.30937,            0.,NA,NA,"",       5.55300,       5.48118,  -890.209E-03,   508.610E-06
C:/temp/dataset/9/16_5.odb,Step-1,Increment      1: Step Time =    1.000,"PART-1-1",           758,      -8.17645,       12.8481,            0.,NA,NA,"",       8.08446,       7.47627,       3.07633,   291.713E-06
C:/temp/dataset/9/16_5.odb,Step-1,Increment      1: Step Time =    1.000,"PART-1-1",           759,      -8.09554,       10.3784,            0.,NA,NA,"",       7.63790,       6.97535,       3.11158,   406.413E-06
C:/temp/dataset/9/16_5.odb,Step-1,Increment      1: Step Time =    1.000,"PART-1-1",           760,      -8.33007,       15.6293,            0.,NA,NA,"",       8.60093,       8.04224,       3.04933,   226.880E-06
C:/temp/dataset/9/16_5.odb,Step-1,Increment      1: Step Time =    1.000,"PART-1-1",           761,       12.1122,      -19.7356,            0.,NA,NA,"",   781.969E-03,   737.549E-03,  -259.800E-03,   22.4977E-03
C:/temp/dataset/9/16_5.odb,Step-1,Increment      1: Step Time =    1.000,"PART-1-1",           762,       12.1388,      -17.4254,            0.,NA,NA,"",       1.10330,       1.05422,  -325.425E-03,   20.5077E-03
C:/temp/dataset/9/16_5.odb,Step-1,Increment      1: Step Time =    1.000,"PART-1-1",           763,       12.0361,      -7.90801,            0.,NA,NA,"",       2.80039,       2.74120,  -572.682E-03,   12.2426E-03
C:/temp/dataset/9/16_5.odb,Step-1,Increment      1: Step Time =    1.000,"PART-1-1",           764,       12.0837,      -10.3075,            0.,NA,NA,"",       2.32767,       2.27002,  -514.835E-03,   14.1374E-03
C:/temp/dataset/9/16_5.odb,Step-1,Increment      1: Step Time =    1.000,"PART-1-1",           765,       12.1118,      -12.6921,            0.,NA,NA,"",       1.88345,       1.82823,  -452.760E-03,   16.1289E-03
C:/temp/dataset/9/16_5.odb,Step-1,Increment      1: Step Time =    1.000,"PART-1-1",           766,       12.1357,      -15.0700,            0.,NA,NA,"",       1.47282,       1.42023,  -390.031E-03,   18.3201E-03
C:/temp/dataset/9/16_5.odb,Step-1,Increment      1: Step Time =    1.000,"PART-1-1",           767,      -8.71328,  -792.246E-03,            0.,NA,NA,"",       5.85698,       4.72636,       3.45916,   4.78700E-03
C:/temp/dataset/9/16_5.odb,Step-1,Increment      1: Step Time =    1.000,"PART-1-1",           768,      -7.47429,       25.8162,            0.,NA,NA,"",       10.4389,       10.0937,       2.66232,   234.475E-06
C:/temp/dataset/9/16_5.odb,Step-1,Increment      1: Step Time =    1.000,"PART-1-1",           769,       9.13729,   756.201E-03,            0.,NA,NA,"",       4.60729,       4.60284,  -202.333E-03,   4.58143E-03
C:/temp/dataset/9/16_5.odb,Step-1,Increment      1: Step Time =    1.000,"PART-1-1",           770,       7.76646,  -679.521E-03,            0.,NA,NA,"",       4.33696,       4.33576,   102.096E-03,   6.46228E-03
C:/temp/dataset/9/16_5.odb,Step-1,Increment      1: Step Time =    1.000,"PART-1-1",           771,       9.13358,  -706.311E-03,            0.,NA,NA,"",       4.30063,       4.29719,  -172.186E-03,   6.22459E-03
C:/temp/dataset/9/16_5.odb,Step-1,Increment      1: Step Time =    1.000,"PART-1-1",           772,       7.17869,      -1.72980,            0.,NA,NA,"",       4.13746,       4.13052,   239.554E-03,   7.56877E-03
C:/temp/dataset/9/16_5.odb,Step-1,Increment      1: Step Time =    1.000,"PART-1-1",           773,       6.08762,  -989.051E-03,            0.,NA,NA,"",       4.33698,       4.31382,   447.563E-03,   6.31356E-03
C:/temp/dataset/9/16_5.odb,Step-1,Increment      1: Step Time =    1.000,"PART-1-1",           774,       8.06590,       24.5744,            0.,NA,NA,"",       9.52569,       9.51337,  -484.252E-03,   154.314E-06
C:/temp/dataset/9/16_5.odb,Step-1,Increment      1: Step Time =    1.000,"PART-1-1",           775,       7.69641,      -4.07963,            0.,NA,NA,"",       3.62487,       3.62060,   175.872E-03,   11.1676E-03
C:/temp/dataset/9/16_5.odb,Step-1,Increment      1: Step Time =    1.000,"PART-1-1",           776,       8.40687,      -2.58051,            0.,NA,NA,"",       3.92028,       3.92027,   8.95884E-03,   8.98891E-03
C:/temp/dataset/9/16_5.odb,Step-1,Increment      1: Step Time =    1.000,"PART-1-1",           777,      -9.00797,   684.990E-03,            0.,NA,NA,"",       6.12561,       5.03339,       3.49114,   4.30666E-03
C:/temp/dataset/9/16_5.odb,Step-1,Increment      1: Step Time =    1.000,"PART-1-1",           778,       5.05143,   63.4436E-03,            0.,NA,NA,"",       4.60351,       4.55886,   639.612E-03,   4.69559E-03
C:/temp/dataset/9/16_5.odb,Step-1,Increment      1: Step Time =    1.000,"PART-1-1",           779,      -3.45659,  -454.281E-03,            0.,NA,NA,"",       5.24024,       4.66442,       2.38816,   4.31767E-03
C:/temp/dataset/9/16_5.odb,Step-1,Increment      1: Step Time =    1.000,"PART-1-1",           780,      -7.58605,   993.377E-03,            0.,NA,NA,"",       5.98703,       5.06124,       3.19819,   4.07070E-03
