ODB Name,Step,Frame,Part Instance Name,    êﬂì_ÉâÉxÉã,X,Y,Z,Section Name,Material Name,Section Point,   U-Magnitude,          U-U1,          U-U2,       S-Mises
C:/temp/dataset/9/17_1.odb,Step-1,Increment      1: Step Time =    1.000,"PART-1-1",             1,            5.,           20.,            0.,NA,NA,"",       1.32737,       1.31463,   183.470E-03,   617.062E-06
C:/temp/dataset/9/17_1.odb,Step-1,Increment      1: Step Time =    1.000,"PART-1-1",             2,            0.,           20.,            0.,NA,NA,"",       1.37394,       1.32143,   376.228E-03,   621.184E-06
C:/temp/dataset/9/17_1.odb,Step-1,Increment      1: Step Time =    1.000,"PART-1-1",             3,            5.,          12.5,            0.,NA,NA,"",       1.03949,       1.02298,   184.576E-03,   1.05265E-03
C:/temp/dataset/9/17_1.odb,Step-1,Increment      1: Step Time =    1.000,"PART-1-1",             4,            5.,            5.,            0.,NA,NA,"",   765.767E-03,   744.643E-03,   178.619E-03,   2.41860E-03
C:/temp/dataset/9/17_1.odb,Step-1,Increment      1: Step Time =    1.000,"PART-1-1",             5,            0.,            5.,            0.,NA,NA,"",   842.939E-03,   759.505E-03,   365.649E-03,   1.84222E-03
C:/temp/dataset/9/17_1.odb,Step-1,Increment      1: Step Time =    1.000,"PART-1-1",             6,           -5.,            5.,            0.,NA,NA,"",   955.546E-03,   767.598E-03,   569.088E-03,   1.80835E-03
C:/temp/dataset/9/17_1.odb,Step-1,Increment      1: Step Time =    1.000,"PART-1-1",             7,           -5.,          12.5,            0.,NA,NA,"",       1.19674,       1.05149,   571.440E-03,   577.515E-06
C:/temp/dataset/9/17_1.odb,Step-1,Increment      1: Step Time =    1.000,"PART-1-1",             8,           -5.,           20.,            0.,NA,NA,"",       1.44488,       1.32873,   567.585E-03,   983.201E-06
C:/temp/dataset/9/17_1.odb,Step-1,Increment      1: Step Time =    1.000,"PART-1-1",             9,           15.,           30.,            0.,NA,NA,"",       1.70758,       1.69447,  -211.175E-03,   1.06694E-06
C:/temp/dataset/9/17_1.odb,Step-1,Increment      1: Step Time =    1.000,"PART-1-1",            10,           7.5,           30.,            0.,NA,NA,"",       1.70185,       1.69997,   79.9161E-03,   71.7104E-06
C:/temp/dataset/9/17_1.odb,Step-1,Increment      1: Step Time =    1.000,"PART-1-1",            11,            0.,           30.,            0.,NA,NA,"",       1.74392,       1.70433,   369.509E-03,   289.952E-06
C:/temp/dataset/9/17_1.odb,Step-1,Increment      1: Step Time =    1.000,"PART-1-1",            12,          -7.5,           30.,            0.,NA,NA,"",       1.82883,       1.70773,   654.425E-03,   221.541E-06
C:/temp/dataset/9/17_1.odb,Step-1,Increment      1: Step Time =    1.000,"PART-1-1",            13,          -15.,           30.,            0.,NA,NA,"",       1.95159,       1.71247,   936.031E-03,   5.95566E-06
C:/temp/dataset/9/17_1.odb,Step-1,Increment      1: Step Time =    1.000,"PART-1-1",            14,          -15.,         21.25,            0.,NA,NA,"",       1.67409,       1.38420,   941.579E-03,   115.574E-06
C:/temp/dataset/9/17_1.odb,Step-1,Increment      1: Step Time =    1.000,"PART-1-1",            15,          -15.,          12.5,            0.,NA,NA,"",       1.42173,       1.05844,   949.219E-03,   630.944E-06
C:/temp/dataset/9/17_1.odb,Step-1,Increment      1: Step Time =    1.000,"PART-1-1",            16,          -15.,          3.75,            0.,NA,NA,"",       1.20572,   724.913E-03,   963.461E-03,   1.22496E-03
C:/temp/dataset/9/17_1.odb,Step-1,Increment      1: Step Time =    1.000,"PART-1-1",            17,          -15.,           -5.,            0.,NA,NA,"",       1.04973,   377.158E-03,   979.635E-03,   1.00053E-03
C:/temp/dataset/9/17_1.odb,Step-1,Increment      1: Step Time =    1.000,"PART-1-1",            18,          -10.,           -5.,            0.,NA,NA,"",   862.769E-03,   374.440E-03,   777.281E-03,   595.486E-06
C:/temp/dataset/9/17_1.odb,Step-1,Increment      1: Step Time =    1.000,"PART-1-1",            19,           -5.,           -5.,            0.,NA,NA,"",   684.287E-03,   372.450E-03,   574.047E-03,   609.107E-06
C:/temp/dataset/9/17_1.odb,Step-1,Increment      1: Step Time =    1.000,"PART-1-1",            20,            0.,           -5.,            0.,NA,NA,"",   527.513E-03,   373.085E-03,   372.931E-03,   1.41725E-03
C:/temp/dataset/9/17_1.odb,Step-1,Increment      1: Step Time =    1.000,"PART-1-1",            21,            5.,           -5.,            0.,NA,NA,"",   415.537E-03,   381.697E-03,   164.250E-03,   9.70192E-03
C:/temp/dataset/9/17_1.odb,Step-1,Increment      1: Step Time =    1.000,"PART-1-1",            22,            5.,        -11.25,            0.,NA,NA,"",   253.209E-03,   222.359E-03,   121.125E-03,   7.25261E-03
C:/temp/dataset/9/17_1.odb,Step-1,Increment      1: Step Time =    1.000,"PART-1-1",            23,            5.,         -17.5,            0.,NA,NA,"",   130.730E-03,   102.297E-03,   81.3978E-03,   7.33535E-03
C:/temp/dataset/9/17_1.odb,Step-1,Increment      1: Step Time =    1.000,"PART-1-1",            24,            5.,        -23.75,            0.,NA,NA,"",   50.5873E-03,   30.2953E-03,   40.5127E-03,   7.36830E-03
C:/temp/dataset/9/17_1.odb,Step-1,Increment      1: Step Time =    1.000,"PART-1-1",            25,            5.,          -30.,            0.,NA,NA,"",            0.,   2.19470E-39,   4.24165E-39,   8.26910E-03
C:/temp/dataset/9/17_1.odb,Step-1,Increment      1: Step Time =    1.000,"PART-1-1",            26,           15.,          -30.,            0.,NA,NA,"",            0.,   1.86777E-39,  -3.49543E-39,   6.64042E-03
C:/temp/dataset/9/17_1.odb,Step-1,Increment      1: Step Time =    1.000,"PART-1-1",            27,           15.,         -22.5,            0.,NA,NA,"",   56.8366E-03,   37.9918E-03,  -42.2731E-03,   6.38672E-03
C:/temp/dataset/9/17_1.odb,Step-1,Increment      1: Step Time =    1.000,"PART-1-1",            28,           15.,          -15.,            0.,NA,NA,"",   164.602E-03,   140.520E-03,  -85.7209E-03,   6.32580E-03
C:/temp/dataset/9/17_1.odb,Step-1,Increment      1: Step Time =    1.000,"PART-1-1",            29,           15.,          -7.5,            0.,NA,NA,"",   338.722E-03,   312.648E-03,  -130.321E-03,   6.16069E-03
C:/temp/dataset/9/17_1.odb,Step-1,Increment      1: Step Time =    1.000,"PART-1-1",            30,           15.,            0.,            0.,NA,NA,"",   578.304E-03,   553.603E-03,  -167.210E-03,   3.16556E-03
C:/temp/dataset/9/17_1.odb,Step-1,Increment      1: Step Time =    1.000,"PART-1-1",            31,           15.,           7.5,            0.,NA,NA,"",   847.661E-03,   827.127E-03,  -185.447E-03,   1.31652E-03
C:/temp/dataset/9/17_1.odb,Step-1,Increment      1: Step Time =    1.000,"PART-1-1",            32,           15.,           15.,            0.,NA,NA,"",       1.12921,       1.11176,  -197.707E-03,   676.226E-06
C:/temp/dataset/9/17_1.odb,Step-1,Increment      1: Step Time =    1.000,"PART-1-1",            33,           15.,          22.5,            0.,NA,NA,"",       1.41808,       1.40311,  -205.530E-03,   53.0277E-06
C:/temp/dataset/9/17_1.odb,Step-1,Increment      1: Step Time =    1.000,"PART-1-1",            34,           2.5,           20.,            0.,NA,NA,"",       1.34764,       1.31820,   280.137E-03,   638.938E-06
C:/temp/dataset/9/17_1.odb,Step-1,Increment      1: Step Time =    1.000,"PART-1-1",            35,            5.,           15.,            0.,NA,NA,"",       1.13435,       1.11920,   184.787E-03,   795.452E-06
C:/temp/dataset/9/17_1.odb,Step-1,Increment      1: Step Time =    1.000,"PART-1-1",            36,            5.,          17.5,            0.,NA,NA,"",       1.23022,       1.21632,   184.426E-03,   554.318E-06
C:/temp/dataset/9/17_1.odb,Step-1,Increment      1: Step Time =    1.000,"PART-1-1",            37,            5.,           7.5,            0.,NA,NA,"",   854.048E-03,   834.432E-03,   181.990E-03,   1.78388E-03
C:/temp/dataset/9/17_1.odb,Step-1,Increment      1: Step Time =    1.000,"PART-1-1",            38,            5.,           10.,            0.,NA,NA,"",   945.901E-03,   927.898E-03,   183.672E-03,   1.34364E-03
C:/temp/dataset/9/17_1.odb,Step-1,Increment      1: Step Time =    1.000,"PART-1-1",            39,           2.5,            5.,            0.,NA,NA,"",   799.323E-03,   752.691E-03,   269.021E-03,   2.54427E-03
C:/temp/dataset/9/17_1.odb,Step-1,Increment      1: Step Time =    1.000,"PART-1-1",            40,          -2.5,            5.,            0.,NA,NA,"",   895.463E-03,   764.826E-03,   465.719E-03,   1.08495E-03
C:/temp/dataset/9/17_1.odb,Step-1,Increment      1: Step Time =    1.000,"PART-1-1",            41,           -5.,           10.,            0.,NA,NA,"",       1.11525,   957.625E-03,   571.607E-03,   811.735E-06
C:/temp/dataset/9/17_1.odb,Step-1,Increment      1: Step Time =    1.000,"PART-1-1",            42,           -5.,           7.5,            0.,NA,NA,"",       1.03498,   863.008E-03,   571.316E-03,   1.18361E-03
C:/temp/dataset/9/17_1.odb,Step-1,Increment      1: Step Time =    1.000,"PART-1-1",            43,           -5.,          17.5,            0.,NA,NA,"",       1.36208,       1.23726,   569.604E-03,   266.431E-06
C:/temp/dataset/9/17_1.odb,Step-1,Increment      1: Step Time =    1.000,"PART-1-1",            44,           -5.,           15.,            0.,NA,NA,"",       1.27908,       1.14468,   570.736E-03,   343.360E-06
C:/temp/dataset/9/17_1.odb,Step-1,Increment      1: Step Time =    1.000,"PART-1-1",            45,          -2.5,           20.,            0.,NA,NA,"",       1.40626,       1.32469,   471.964E-03,   726.245E-06
C:/temp/dataset/9/17_1.odb,Step-1,Increment      1: Step Time =    1.000,"PART-1-1",            46,          12.5,           30.,            0.,NA,NA,"",       1.70018,       1.69635,  -114.118E-03,   10.1307E-06
C:/temp/dataset/9/17_1.odb,Step-1,Increment      1: Step Time =    1.000,"PART-1-1",            47,           10.,           30.,            0.,NA,NA,"",       1.69828,       1.69819,  -17.0749E-03,   29.6348E-06
C:/temp/dataset/9/17_1.odb,Step-1,Increment      1: Step Time =    1.000,"PART-1-1",            48,            5.,           30.,            0.,NA,NA,"",       1.71077,       1.70161,   176.777E-03,   143.053E-06
C:/temp/dataset/9/17_1.odb,Step-1,Increment      1: Step Time =    1.000,"PART-1-1",            49,           2.5,           30.,            0.,NA,NA,"",       1.72486,       1.70306,   273.361E-03,   223.996E-06
C:/temp/dataset/9/17_1.odb,Step-1,Increment      1: Step Time =    1.000,"PART-1-1",            50,          -2.5,           30.,            0.,NA,NA,"",       1.76773,       1.70545,   465.092E-03,   315.958E-06
C:/temp/dataset/9/17_1.odb,Step-1,Increment      1: Step Time =    1.000,"PART-1-1",            51,           -5.,           30.,            0.,NA,NA,"",       1.79609,       1.70654,   560.050E-03,   298.175E-06
C:/temp/dataset/9/17_1.odb,Step-1,Increment      1: Step Time =    1.000,"PART-1-1",            52,          -10.,           30.,            0.,NA,NA,"",       1.86579,       1.70911,   748.395E-03,   116.683E-06
C:/temp/dataset/9/17_1.odb,Step-1,Increment      1: Step Time =    1.000,"PART-1-1",            53,         -12.5,           30.,            0.,NA,NA,"",       1.90679,       1.71072,   842.194E-03,   26.3333E-06
C:/temp/dataset/9/17_1.odb,Step-1,Increment      1: Step Time =    1.000,"PART-1-1",            54,          -15.,       27.8125,            0.,NA,NA,"",       1.88068,       1.63031,   937.570E-03,   21.7026E-06
C:/temp/dataset/9/17_1.odb,Step-1,Increment      1: Step Time =    1.000,"PART-1-1",            55,          -15.,        25.625,            0.,NA,NA,"",       1.81063,       1.54811,   939.012E-03,   82.8427E-06
C:/temp/dataset/9/17_1.odb,Step-1,Increment      1: Step Time =    1.000,"PART-1-1",            56,          -15.,       23.4375,            0.,NA,NA,"",       1.74168,       1.46602,   940.323E-03,   131.335E-06
C:/temp/dataset/9/17_1.odb,Step-1,Increment      1: Step Time =    1.000,"PART-1-1",            57,          -15.,       19.0625,            0.,NA,NA,"",       1.60814,       1.30268,   942.948E-03,   10.7236E-06
C:/temp/dataset/9/17_1.odb,Step-1,Increment      1: Step Time =    1.000,"PART-1-1",            58,          -15.,        16.875,            0.,NA,NA,"",       1.54402,       1.22136,   944.608E-03,   174.773E-06
C:/temp/dataset/9/17_1.odb,Step-1,Increment      1: Step Time =    1.000,"PART-1-1",            59,          -15.,       14.6875,            0.,NA,NA,"",       1.48185,       1.14004,   946.682E-03,   399.650E-06
C:/temp/dataset/9/17_1.odb,Step-1,Increment      1: Step Time =    1.000,"PART-1-1",            60,          -15.,       10.3125,            0.,NA,NA,"",       1.36381,   976.337E-03,   952.224E-03,   851.442E-06
C:/temp/dataset/9/17_1.odb,Step-1,Increment      1: Step Time =    1.000,"PART-1-1",            61,          -15.,         8.125,            0.,NA,NA,"",       1.30829,   893.491E-03,   955.661E-03,   1.03749E-03
C:/temp/dataset/9/17_1.odb,Step-1,Increment      1: Step Time =    1.000,"PART-1-1",            62,          -15.,        5.9375,            0.,NA,NA,"",       1.25546,   809.710E-03,   959.454E-03,   1.15882E-03
C:/temp/dataset/9/17_1.odb,Step-1,Increment      1: Step Time =    1.000,"PART-1-1",            63,          -15.,        1.5625,            0.,NA,NA,"",       1.15961,   639.133E-03,   967.578E-03,   1.24630E-03
C:/temp/dataset/9/17_1.odb,Step-1,Increment      1: Step Time =    1.000,"PART-1-1",            64,          -15.,     -625.E-03,            0.,NA,NA,"",       1.11780,   552.452E-03,   971.736E-03,   1.23528E-03
C:/temp/dataset/9/17_1.odb,Step-1,Increment      1: Step Time =    1.000,"PART-1-1",            65,          -15.,       -2.8125,            0.,NA,NA,"",       1.08095,   464.976E-03,   975.835E-03,   1.11062E-03
C:/temp/dataset/9/17_1.odb,Step-1,Increment      1: Step Time =    1.000,"PART-1-1",            66,         -12.5,           -5.,            0.,NA,NA,"",   956.269E-03,   376.154E-03,   879.181E-03,   1.01330E-03
C:/temp/dataset/9/17_1.odb,Step-1,Increment      1: Step Time =    1.000,"PART-1-1",            67,          -7.5,           -5.,            0.,NA,NA,"",   771.426E-03,   373.392E-03,   675.038E-03,   471.759E-06
C:/temp/dataset/9/17_1.odb,Step-1,Increment      1: Step Time =    1.000,"PART-1-1",            68,          -2.5,           -5.,            0.,NA,NA,"",   602.187E-03,   372.264E-03,   473.338E-03,   1.05617E-03
C:/temp/dataset/9/17_1.odb,Step-1,Increment      1: Step Time =    1.000,"PART-1-1",            69,           2.5,           -5.,            0.,NA,NA,"",   463.303E-03,   374.718E-03,   272.462E-03,   3.04632E-03
C:/temp/dataset/9/17_1.odb,Step-1,Increment      1: Step Time =    1.000,"PART-1-1",            70,            5.,      -7.08333,            0.,NA,NA,"",   357.887E-03,   326.553E-03,   146.445E-03,   8.61289E-03
C:/temp/dataset/9/17_1.odb,Step-1,Increment      1: Step Time =    1.000,"PART-1-1",            71,            5.,      -9.16667,            0.,NA,NA,"",   303.689E-03,   272.520E-03,   134.015E-03,   7.10237E-03
C:/temp/dataset/9/17_1.odb,Step-1,Increment      1: Step Time =    1.000,"PART-1-1",            72,            5.,      -13.3333,            0.,NA,NA,"",   207.452E-03,   177.079E-03,   108.071E-03,   7.25415E-03
C:/temp/dataset/9/17_1.odb,Step-1,Increment      1: Step Time =    1.000,"PART-1-1",            73,            5.,      -15.4167,            0.,NA,NA,"",   166.639E-03,   137.035E-03,   94.8162E-03,   7.30890E-03
C:/temp/dataset/9/17_1.odb,Step-1,Increment      1: Step Time =    1.000,"PART-1-1",            74,            5.,      -19.5833,            0.,NA,NA,"",   99.6040E-03,   72.9184E-03,   67.8517E-03,   7.35680E-03
C:/temp/dataset/9/17_1.odb,Step-1,Increment      1: Step Time =    1.000,"PART-1-1",            75,            5.,      -21.6667,            0.,NA,NA,"",   73.0153E-03,   48.9091E-03,   54.2138E-03,   7.36152E-03
C:/temp/dataset/9/17_1.odb,Step-1,Increment      1: Step Time =    1.000,"PART-1-1",            76,            5.,      -25.8333,            0.,NA,NA,"",   31.7725E-03,   16.9103E-03,   26.8986E-03,   7.20346E-03
C:/temp/dataset/9/17_1.odb,Step-1,Increment      1: Step Time =    1.000,"PART-1-1",            77,            5.,      -27.9167,            0.,NA,NA,"",   15.9728E-03,   8.38159E-03,   13.5971E-03,   7.48644E-03
C:/temp/dataset/9/17_1.odb,Step-1,Increment      1: Step Time =    1.000,"PART-1-1",            78,           7.5,          -30.,            0.,NA,NA,"",            0.,  -143.709E-42,   6.04148E-39,   3.01671E-03
C:/temp/dataset/9/17_1.odb,Step-1,Increment      1: Step Time =    1.000,"PART-1-1",            79,           10.,          -30.,            0.,NA,NA,"",            0.,  -1.15765E-39,   400.940E-42,   1.35891E-03
C:/temp/dataset/9/17_1.odb,Step-1,Increment      1: Step Time =    1.000,"PART-1-1",            80,          12.5,          -30.,            0.,NA,NA,"",            0.,   786.243E-42,  -3.93918E-39,   2.40672E-03
C:/temp/dataset/9/17_1.odb,Step-1,Increment      1: Step Time =    1.000,"PART-1-1",            81,           15.,         -27.5,            0.,NA,NA,"",   15.7915E-03,   7.76155E-03,  -13.7524E-03,   6.51466E-03
C:/temp/dataset/9/17_1.odb,Step-1,Increment      1: Step Time =    1.000,"PART-1-1",            82,           15.,          -25.,            0.,NA,NA,"",   33.8198E-03,   19.0890E-03,  -27.9175E-03,   6.34416E-03
C:/temp/dataset/9/17_1.odb,Step-1,Increment      1: Step Time =    1.000,"PART-1-1",            83,           15.,          -20.,            0.,NA,NA,"",   85.8958E-03,   64.5201E-03,  -56.7031E-03,   6.33933E-03
C:/temp/dataset/9/17_1.odb,Step-1,Increment      1: Step Time =    1.000,"PART-1-1",            84,           15.,         -17.5,            0.,NA,NA,"",   121.684E-03,   98.7068E-03,  -71.1622E-03,   6.32771E-03
C:/temp/dataset/9/17_1.odb,Step-1,Increment      1: Step Time =    1.000,"PART-1-1",            85,           15.,         -12.5,            0.,NA,NA,"",   214.911E-03,   189.996E-03,  -100.440E-03,   6.34461E-03
C:/temp/dataset/9/17_1.odb,Step-1,Increment      1: Step Time =    1.000,"PART-1-1",            86,           15.,          -10.,            0.,NA,NA,"",   272.866E-03,   247.280E-03,  -115.361E-03,   6.34256E-03
C:/temp/dataset/9/17_1.odb,Step-1,Increment      1: Step Time =    1.000,"PART-1-1",            87,           15.,           -5.,            0.,NA,NA,"",   412.407E-03,   386.205E-03,  -144.656E-03,   5.53401E-03
C:/temp/dataset/9/17_1.odb,Step-1,Increment      1: Step Time =    1.000,"PART-1-1",            88,           15.,          -2.5,            0.,NA,NA,"",   492.923E-03,   467.172E-03,  -157.238E-03,   4.42284E-03
C:/temp/dataset/9/17_1.odb,Step-1,Increment      1: Step Time =    1.000,"PART-1-1",            89,           15.,           2.5,            0.,NA,NA,"",   666.559E-03,   643.257E-03,  -174.701E-03,   2.16596E-03
C:/temp/dataset/9/17_1.odb,Step-1,Increment      1: Step Time =    1.000,"PART-1-1",            90,           15.,            5.,            0.,NA,NA,"",   756.462E-03,   734.611E-03,  -180.501E-03,   1.58975E-03
C:/temp/dataset/9/17_1.odb,Step-1,Increment      1: Step Time =    1.000,"PART-1-1",            91,           15.,           10.,            0.,NA,NA,"",   940.220E-03,   920.832E-03,  -189.954E-03,   1.13057E-03
C:/temp/dataset/9/17_1.odb,Step-1,Increment      1: Step Time =    1.000,"PART-1-1",            92,           15.,          12.5,            0.,NA,NA,"",       1.03413,       1.01576,  -194.066E-03,   919.966E-06
C:/temp/dataset/9/17_1.odb,Step-1,Increment      1: Step Time =    1.000,"PART-1-1",            93,           15.,          17.5,            0.,NA,NA,"",       1.22513,       1.20856,  -200.813E-03,   423.354E-06
C:/temp/dataset/9/17_1.odb,Step-1,Increment      1: Step Time =    1.000,"PART-1-1",            94,           15.,           20.,            0.,NA,NA,"",       1.32153,       1.30579,  -203.385E-03,   201.126E-06
C:/temp/dataset/9/17_1.odb,Step-1,Increment      1: Step Time =    1.000,"PART-1-1",            95,           15.,           25.,            0.,NA,NA,"",       1.51460,       1.50033,  -207.441E-03,   7.63435E-06
C:/temp/dataset/9/17_1.odb,Step-1,Increment      1: Step Time =    1.000,"PART-1-1",            96,           15.,          27.5,            0.,NA,NA,"",       1.61107,       1.59742,  -209.297E-03,   8.90053E-06
C:/temp/dataset/9/17_1.odb,Step-1,Increment      1: Step Time =    1.000,"PART-1-1",            97,       7.09255,      -21.6558,            0.,NA,NA,"",   54.5026E-03,   43.3380E-03,   33.0508E-03,   4.52054E-03
C:/temp/dataset/9/17_1.odb,Step-1,Increment      1: Step Time =    1.000,"PART-1-1",            98,       7.09346,      -17.4368,            0.,NA,NA,"",   109.444E-03,   97.4742E-03,   49.7681E-03,   4.49408E-03
C:/temp/dataset/9/17_1.odb,Step-1,Increment      1: Step Time =    1.000,"PART-1-1",            99,       7.15828,      -23.7452,            0.,NA,NA,"",   34.4306E-03,   24.5505E-03,   24.1401E-03,   4.44620E-03
C:/temp/dataset/9/17_1.odb,Step-1,Increment      1: Step Time =    1.000,"PART-1-1",           100,       7.44609,      -27.8729,            0.,NA,NA,"",   7.48380E-03,   2.83385E-03,   6.92651E-03,   4.21270E-03
C:/temp/dataset/9/17_1.odb,Step-1,Increment      1: Step Time =    1.000,"PART-1-1",           101,       7.30780,      -25.7939,            0.,NA,NA,"",   18.7506E-03,   11.1270E-03,   15.0922E-03,   4.39646E-03
C:/temp/dataset/9/17_1.odb,Step-1,Increment      1: Step Time =    1.000,"PART-1-1",           102,       7.08258,      -10.9526,            0.,NA,NA,"",   235.443E-03,   223.223E-03,   74.8666E-03,   4.47386E-03
C:/temp/dataset/9/17_1.odb,Step-1,Increment      1: Step Time =    1.000,"PART-1-1",           103,       7.09950,      -13.1236,            0.,NA,NA,"",   187.557E-03,   175.437E-03,   66.3281E-03,   4.47803E-03
C:/temp/dataset/9/17_1.odb,Step-1,Increment      1: Step Time =    1.000,"PART-1-1",           104,       6.95448,      -6.62029,            0.,NA,NA,"",   347.333E-03,   334.437E-03,   93.7650E-03,   4.60532E-03
C:/temp/dataset/9/17_1.odb,Step-1,Increment      1: Step Time =    1.000,"PART-1-1",           105,       7.04974,      -8.78764,            0.,NA,NA,"",   288.670E-03,   276.188E-03,   83.9697E-03,   4.70880E-03
C:/temp/dataset/9/17_1.odb,Step-1,Increment      1: Step Time =    1.000,"PART-1-1",           106,       7.10540,      -15.2896,            0.,NA,NA,"",   145.454E-03,   133.429E-03,   57.9120E-03,   4.46794E-03
C:/temp/dataset/9/17_1.odb,Step-1,Increment      1: Step Time =    1.000,"PART-1-1",           107,       7.08223,      -19.5608,            0.,NA,NA,"",   79.2522E-03,   67.4944E-03,   41.5382E-03,   4.51864E-03
C:/temp/dataset/9/17_1.odb,Step-1,Increment      1: Step Time =    1.000,"PART-1-1",           108,      -11.8989,       25.3809,            0.,NA,NA,"",       1.74312,       1.53666,   822.894E-03,   101.807E-06
C:/temp/dataset/9/17_1.odb,Step-1,Increment      1: Step Time =    1.000,"PART-1-1",           109,      -12.7134,       3.51066,            0.,NA,NA,"",       1.12940,   714.839E-03,   874.381E-03,   748.979E-06
C:/temp/dataset/9/17_1.odb,Step-1,Increment      1: Step Time =    1.000,"PART-1-1",           110,      -13.0834,       10.3867,            0.,NA,NA,"",       1.31555,   978.352E-03,   879.490E-03,   594.654E-06
C:/temp/dataset/9/17_1.odb,Step-1,Increment      1: Step Time =    1.000,"PART-1-1",           111,      -12.9355,       8.20912,            0.,NA,NA,"",       1.25342,   895.958E-03,   876.539E-03,   670.400E-06
C:/temp/dataset/9/17_1.odb,Step-1,Increment      1: Step Time =    1.000,"PART-1-1",           112,      -13.1801,       12.5484,            0.,NA,NA,"",       1.37767,       1.05939,   880.719E-03,   495.734E-06
C:/temp/dataset/9/17_1.odb,Step-1,Increment      1: Step Time =    1.000,"PART-1-1",           113,      -12.7454,       20.6010,            0.,NA,NA,"",       1.60645,       1.35833,   857.693E-03,   140.773E-06
C:/temp/dataset/9/17_1.odb,Step-1,Increment      1: Step Time =    1.000,"PART-1-1",           114,      -13.1621,       18.5389,            0.,NA,NA,"",       1.55194,       1.28194,   874.715E-03,   211.564E-06
C:/temp/dataset/9/17_1.odb,Step-1,Increment      1: Step Time =    1.000,"PART-1-1",           115,      -12.3840,       22.8683,            0.,NA,NA,"",       1.67082,       1.44273,   842.701E-03,   73.4080E-06
C:/temp/dataset/9/17_1.odb,Step-1,Increment      1: Step Time =    1.000,"PART-1-1",           116,      -13.4658,       16.5948,            0.,NA,NA,"",       1.50065,       1.21001,   887.600E-03,   278.234E-06
C:/temp/dataset/9/17_1.odb,Step-1,Increment      1: Step Time =    1.000,"PART-1-1",           117,      -13.3466,       14.6489,            0.,NA,NA,"",       1.44130,       1.13770,   884.866E-03,   386.239E-06
C:/temp/dataset/9/17_1.odb,Step-1,Increment      1: Step Time =    1.000,"PART-1-1",           118,      -12.3609,       5.76892,            0.,NA,NA,"",       1.17433,   802.310E-03,   857.530E-03,   645.622E-06
C:/temp/dataset/9/17_1.odb,Step-1,Increment      1: Step Time =    1.000,"PART-1-1",           119,      -12.8583,       1.39410,            0.,NA,NA,"",       1.08593,   631.813E-03,   883.211E-03,   817.462E-06
C:/temp/dataset/9/17_1.odb,Step-1,Increment      1: Step Time =    1.000,"PART-1-1",           120,      -12.6304,  -685.754E-03,            0.,NA,NA,"",       1.03510,   549.275E-03,   877.344E-03,   857.794E-06
C:/temp/dataset/9/17_1.odb,Step-1,Increment      1: Step Time =    1.000,"PART-1-1",           121,   38.5673E-03,       27.2989,            0.,NA,NA,"",       1.64312,       1.60086,   370.219E-03,   87.7433E-06
C:/temp/dataset/9/17_1.odb,Step-1,Increment      1: Step Time =    1.000,"PART-1-1",           122,      -4.16985,       22.2766,            0.,NA,NA,"",       1.51092,       1.41325,   534.416E-03,   315.520E-06
C:/temp/dataset/9/17_1.odb,Step-1,Increment      1: Step Time =    1.000,"PART-1-1",           123,      -7.85548,       28.0855,            0.,NA,NA,"",       1.76739,       1.63576,   669.297E-03,   136.248E-06
C:/temp/dataset/9/17_1.odb,Step-1,Increment      1: Step Time =    1.000,"PART-1-1",           124,       9.92813,      -27.7267,            0.,NA,NA,"",   1.26960E-03,   757.051E-06,   1.01920E-03,   634.367E-06
C:/temp/dataset/9/17_1.odb,Step-1,Increment      1: Step Time =    1.000,"PART-1-1",           125,       13.1106,      -17.4438,            0.,NA,NA,"",   104.510E-03,   95.5119E-03,  -42.4252E-03,   3.73076E-03
C:/temp/dataset/9/17_1.odb,Step-1,Increment      1: Step Time =    1.000,"PART-1-1",           126,       12.8150,       2.64061,            0.,NA,NA,"",   655.367E-03,   648.163E-03,  -96.9005E-03,   1.52843E-03
C:/temp/dataset/9/17_1.odb,Step-1,Increment      1: Step Time =    1.000,"PART-1-1",           127,       7.56819,       12.3225,            0.,NA,NA,"",       1.01717,       1.01343,   87.1038E-03,   627.551E-06
C:/temp/dataset/9/17_1.odb,Step-1,Increment      1: Step Time =    1.000,"PART-1-1",           128,       7.47113,       19.8748,            0.,NA,NA,"",       1.30986,       1.30693,   87.5104E-03,   528.599E-06
C:/temp/dataset/9/17_1.odb,Step-1,Increment      1: Step Time =    1.000,"PART-1-1",           129,       12.4223,       27.5153,            0.,NA,NA,"",       1.60369,       1.59997,  -109.227E-03,   13.1286E-06
C:/temp/dataset/9/17_1.odb,Step-1,Increment      1: Step Time =    1.000,"PART-1-1",           130,       12.3750,       22.5091,            0.,NA,NA,"",       1.40924,       1.40542,  -103.642E-03,   149.546E-06
C:/temp/dataset/9/17_1.odb,Step-1,Increment      1: Step Time =    1.000,"PART-1-1",           131,       7.58839,       27.9970,            0.,NA,NA,"",       1.62420,       1.62232,   78.0225E-03,   57.9165E-06
C:/temp/dataset/9/17_1.odb,Step-1,Increment      1: Step Time =    1.000,"PART-1-1",           132,   199.805E-03,       22.3057,            0.,NA,NA,"",       1.45671,       1.40962,   367.397E-03,   428.007E-06
C:/temp/dataset/9/17_1.odb,Step-1,Increment      1: Step Time =    1.000,"PART-1-1",           133,       12.6934,       9.82310,            0.,NA,NA,"",   920.636E-03,   914.856E-03,  -103.000E-03,   702.612E-06
C:/temp/dataset/9/17_1.odb,Step-1,Increment      1: Step Time =    1.000,"PART-1-1",           134,      -7.14717,       12.7802,            0.,NA,NA,"",       1.24779,       1.06389,   652.010E-03,   420.721E-06
C:/temp/dataset/9/17_1.odb,Step-1,Increment      1: Step Time =    1.000,"PART-1-1",           135,      -6.86178,       17.9412,            0.,NA,NA,"",       1.40810,       1.25501,   638.495E-03,   450.235E-06
C:/temp/dataset/9/17_1.odb,Step-1,Increment      1: Step Time =    1.000,"PART-1-1",           136,      -2.68307,      -2.95682,            0.,NA,NA,"",   659.101E-03,   453.497E-03,   478.283E-03,   939.763E-06
C:/temp/dataset/9/17_1.odb,Step-1,Increment      1: Step Time =    1.000,"PART-1-1",           137,      -7.59808,      -3.03341,            0.,NA,NA,"",   814.471E-03,   452.668E-03,   677.093E-03,   286.151E-06
C:/temp/dataset/9/17_1.odb,Step-1,Increment      1: Step Time =    1.000,"PART-1-1",           138,  -248.196E-03,       2.69947,            0.,NA,NA,"",   768.687E-03,   670.495E-03,   375.919E-03,   1.21553E-03
C:/temp/dataset/9/17_1.odb,Step-1,Increment      1: Step Time =    1.000,"PART-1-1",           139,       2.16631,      -2.47375,            0.,NA,NA,"",   550.755E-03,   472.428E-03,   283.095E-03,   2.49370E-03
C:/temp/dataset/9/17_1.odb,Step-1,Increment      1: Step Time =    1.000,"PART-1-1",           140,       4.39271,       2.43636,            0.,NA,NA,"",   682.368E-03,   652.883E-03,   198.421E-03,   1.72096E-03
C:/temp/dataset/9/17_1.odb,Step-1,Increment      1: Step Time =    1.000,"PART-1-1",           141,       12.9283,      -5.27800,            0.,NA,NA,"",   382.996E-03,   374.445E-03,  -80.4749E-03,   3.29518E-03
C:/temp/dataset/9/17_1.odb,Step-1,Increment      1: Step Time =    1.000,"PART-1-1",           142,       13.0847,      -12.6172,            0.,NA,NA,"",   192.817E-03,   183.623E-03,  -58.8311E-03,   3.67867E-03
C:/temp/dataset/9/17_1.odb,Step-1,Increment      1: Step Time =    1.000,"PART-1-1",           143,       12.4838,       17.4790,            0.,NA,NA,"",       1.21370,       1.20927,  -103.604E-03,   392.524E-06
C:/temp/dataset/9/17_1.odb,Step-1,Increment      1: Step Time =    1.000,"PART-1-1",           144,       2.63438,       22.2143,            0.,NA,NA,"",       1.42990,       1.40345,   273.775E-03,   367.758E-06
C:/temp/dataset/9/17_1.odb,Step-1,Increment      1: Step Time =    1.000,"PART-1-1",           145,       7.54366,       14.9275,            0.,NA,NA,"",       1.11725,       1.11384,   87.1378E-03,   520.200E-06
C:/temp/dataset/9/17_1.odb,Step-1,Increment      1: Step Time =    1.000,"PART-1-1",           146,       7.50510,       17.4443,            0.,NA,NA,"",       1.21490,       1.21175,   87.4706E-03,   464.426E-06
C:/temp/dataset/9/17_1.odb,Step-1,Increment      1: Step Time =    1.000,"PART-1-1",           147,       7.12790,       7.03873,            0.,NA,NA,"",   821.225E-03,   814.612E-03,   104.011E-03,   824.391E-06
C:/temp/dataset/9/17_1.odb,Step-1,Increment      1: Step Time =    1.000,"PART-1-1",           148,       7.48952,       9.64170,            0.,NA,NA,"",   915.991E-03,   911.501E-03,   90.5883E-03,   765.250E-06
C:/temp/dataset/9/17_1.odb,Step-1,Increment      1: Step Time =    1.000,"PART-1-1",           149,       2.16717,       2.56251,            0.,NA,NA,"",   718.977E-03,   661.611E-03,   281.422E-03,   1.09490E-03
C:/temp/dataset/9/17_1.odb,Step-1,Increment      1: Step Time =    1.000,"PART-1-1",           150,      -2.68606,       3.12146,            0.,NA,NA,"",   837.249E-03,   690.221E-03,   473.901E-03,   1.24207E-03
C:/temp/dataset/9/17_1.odb,Step-1,Increment      1: Step Time =    1.000,"PART-1-1",           151,      -7.08307,       10.2840,            0.,NA,NA,"",       1.16824,   970.390E-03,   650.475E-03,   567.928E-06
C:/temp/dataset/9/17_1.odb,Step-1,Increment      1: Step Time =    1.000,"PART-1-1",           152,      -2.13928,       22.2031,            0.,NA,NA,"",       1.48057,       1.40826,   457.043E-03,   484.027E-06
C:/temp/dataset/9/17_1.odb,Step-1,Increment      1: Step Time =    1.000,"PART-1-1",           153,       9.90766,       27.6812,            0.,NA,NA,"",       1.60836,       1.60832,  -11.7384E-03,   30.5213E-06
C:/temp/dataset/9/17_1.odb,Step-1,Increment      1: Step Time =    1.000,"PART-1-1",           154,       5.18317,       27.8350,            0.,NA,NA,"",       1.62689,       1.61784,   171.381E-03,   92.5883E-06
C:/temp/dataset/9/17_1.odb,Step-1,Increment      1: Step Time =    1.000,"PART-1-1",           155,       2.70091,       27.4744,            0.,NA,NA,"",       1.62788,       1.60573,   267.630E-03,   103.734E-06
C:/temp/dataset/9/17_1.odb,Step-1,Increment      1: Step Time =    1.000,"PART-1-1",           156,      -2.92570,       26.9909,            0.,NA,NA,"",       1.66305,       1.59114,   483.750E-03,   58.9621E-06
C:/temp/dataset/9/17_1.odb,Step-1,Increment      1: Step Time =    1.000,"PART-1-1",           157,      -5.52449,       27.7330,            0.,NA,NA,"",       1.72220,       1.62098,   581.720E-03,   126.097E-06
C:/temp/dataset/9/17_1.odb,Step-1,Increment      1: Step Time =    1.000,"PART-1-1",           158,      -10.1759,       28.1970,            0.,NA,NA,"",       1.80731,       1.64144,   756.338E-03,   111.782E-06
C:/temp/dataset/9/17_1.odb,Step-1,Increment      1: Step Time =    1.000,"PART-1-1",           159,      -7.15795,       15.3782,            0.,NA,NA,"",       1.33066,       1.16047,   651.123E-03,   340.283E-06
C:/temp/dataset/9/17_1.odb,Step-1,Increment      1: Step Time =    1.000,"PART-1-1",           160,      -7.10855,       7.92361,            0.,NA,NA,"",       1.09633,   881.279E-03,   652.149E-03,   791.280E-06
C:/temp/dataset/9/17_1.odb,Step-1,Increment      1: Step Time =    1.000,"PART-1-1",           161,      -7.31416,       5.72319,            0.,NA,NA,"",       1.03560,   797.423E-03,   660.744E-03,   514.482E-06
C:/temp/dataset/9/17_1.odb,Step-1,Increment      1: Step Time =    1.000,"PART-1-1",           162,      -10.0288,      -2.82434,            0.,NA,NA,"",   903.161E-03,   462.647E-03,   775.666E-03,   672.174E-06
C:/temp/dataset/9/17_1.odb,Step-1,Increment      1: Step Time =    1.000,"PART-1-1",           163,      -5.14639,      -3.11924,            0.,NA,NA,"",   731.211E-03,   447.848E-03,   578.015E-03,   584.053E-06
C:/temp/dataset/9/17_1.odb,Step-1,Increment      1: Step Time =    1.000,"PART-1-1",           164,  -261.821E-03,      -2.60038,            0.,NA,NA,"",   602.693E-03,   467.561E-03,   380.296E-03,   1.49943E-03
C:/temp/dataset/9/17_1.odb,Step-1,Increment      1: Step Time =    1.000,"PART-1-1",           165,       4.38015,      -2.33295,            0.,NA,NA,"",   515.742E-03,   477.294E-03,   195.396E-03,   2.61769E-03
C:/temp/dataset/9/17_1.odb,Step-1,Increment      1: Step Time =    1.000,"PART-1-1",           166,       13.0639,      -10.1924,            0.,NA,NA,"",   248.016E-03,   238.804E-03,  -66.9647E-03,   3.64188E-03
C:/temp/dataset/9/17_1.odb,Step-1,Increment      1: Step Time =    1.000,"PART-1-1",           167,       13.0843,      -19.8267,            0.,NA,NA,"",   71.0510E-03,   62.4615E-03,  -33.8645E-03,   3.71104E-03
C:/temp/dataset/9/17_1.odb,Step-1,Increment      1: Step Time =    1.000,"PART-1-1",           168,       12.4446,      -27.5067,            0.,NA,NA,"",   6.56869E-03,   2.82731E-03,  -5.92908E-03,   3.08422E-03
C:/temp/dataset/9/17_1.odb,Step-1,Increment      1: Step Time =    1.000,"PART-1-1",           169,       12.9329,      -22.1971,            0.,NA,NA,"",   43.7119E-03,   36.2812E-03,  -24.3804E-03,   3.50178E-03
C:/temp/dataset/9/17_1.odb,Step-1,Increment      1: Step Time =    1.000,"PART-1-1",           170,       13.1086,      -15.0383,            0.,NA,NA,"",   145.047E-03,   135.866E-03,  -50.7836E-03,   3.71989E-03
C:/temp/dataset/9/17_1.odb,Step-1,Increment      1: Step Time =    1.000,"PART-1-1",           171,       13.0208,      -7.75462,            0.,NA,NA,"",   311.069E-03,   302.005E-03,  -74.5475E-03,   3.53889E-03
C:/temp/dataset/9/17_1.odb,Step-1,Increment      1: Step Time =    1.000,"PART-1-1",           172,       12.7756,      -2.70708,            0.,NA,NA,"",   465.490E-03,   457.911E-03,  -83.6573E-03,   2.84929E-03
C:/temp/dataset/9/17_1.odb,Step-1,Increment      1: Step Time =    1.000,"PART-1-1",           173,       12.6338,  -14.4220E-03,            0.,NA,NA,"",   558.570E-03,   551.980E-03,  -85.5483E-03,   2.20757E-03
C:/temp/dataset/9/17_1.odb,Step-1,Increment      1: Step Time =    1.000,"PART-1-1",           174,       13.0186,       5.13380,            0.,NA,NA,"",   747.617E-03,   739.728E-03,  -108.326E-03,   1.10401E-03
C:/temp/dataset/9/17_1.odb,Step-1,Increment      1: Step Time =    1.000,"PART-1-1",           175,       13.0709,       7.51902,            0.,NA,NA,"",   836.012E-03,   828.221E-03,  -113.870E-03,   896.804E-06
C:/temp/dataset/9/17_1.odb,Step-1,Increment      1: Step Time =    1.000,"PART-1-1",           176,       12.5119,       12.3699,            0.,NA,NA,"",       1.01665,       1.01179,  -99.2963E-03,   573.911E-06
C:/temp/dataset/9/17_1.odb,Step-1,Increment      1: Step Time =    1.000,"PART-1-1",           177,       12.4863,       14.9454,            0.,NA,NA,"",       1.11553,       1.11093,  -101.169E-03,   483.178E-06
C:/temp/dataset/9/17_1.odb,Step-1,Increment      1: Step Time =    1.000,"PART-1-1",           178,       12.4500,       19.9932,            0.,NA,NA,"",       1.31146,       1.30728,  -104.536E-03,   277.899E-06
C:/temp/dataset/9/17_1.odb,Step-1,Increment      1: Step Time =    1.000,"PART-1-1",           179,       9.19048,      -23.6482,            0.,NA,NA,"",   24.0885E-03,   22.3802E-03,   8.90989E-03,   1.68709E-03
C:/temp/dataset/9/17_1.odb,Step-1,Increment      1: Step Time =    1.000,"PART-1-1",           180,       9.11932,      -19.5624,            0.,NA,NA,"",   66.2935E-03,   64.4175E-03,   15.6593E-03,   1.74122E-03
C:/temp/dataset/9/17_1.odb,Step-1,Increment      1: Step Time =    1.000,"PART-1-1",           181,       9.13323,      -12.9344,            0.,NA,NA,"",   177.830E-03,   176.094E-03,   24.7916E-03,   1.73016E-03
C:/temp/dataset/9/17_1.odb,Step-1,Increment      1: Step Time =    1.000,"PART-1-1",           182,       9.14303,      -17.4019,            0.,NA,NA,"",   96.6670E-03,   94.8886E-03,   18.4572E-03,   1.70844E-03
C:/temp/dataset/9/17_1.odb,Step-1,Increment      1: Step Time =    1.000,"PART-1-1",           183,       9.11260,      -10.6744,            0.,NA,NA,"",   228.178E-03,   226.435E-03,   28.1511E-03,   1.72855E-03
C:/temp/dataset/9/17_1.odb,Step-1,Increment      1: Step Time =    1.000,"PART-1-1",           184,       9.06671,      -8.40676,            0.,NA,NA,"",   284.858E-03,   283.064E-03,   31.9203E-03,   1.48776E-03
C:/temp/dataset/9/17_1.odb,Step-1,Increment      1: Step Time =    1.000,"PART-1-1",           185,       9.15359,      -15.1846,            0.,NA,NA,"",   133.847E-03,   132.132E-03,   21.3560E-03,   1.70126E-03
C:/temp/dataset/9/17_1.odb,Step-1,Increment      1: Step Time =    1.000,"PART-1-1",           186,       9.09437,      -21.6308,            0.,NA,NA,"",   42.5940E-03,   40.6245E-03,   12.8023E-03,   1.78482E-03
C:/temp/dataset/9/17_1.odb,Step-1,Increment      1: Step Time =    1.000,"PART-1-1",           187,       8.94944,      -6.10597,            0.,NA,NA,"",   349.285E-03,   347.352E-03,   36.6936E-03,   1.24746E-03
C:/temp/dataset/9/17_1.odb,Step-1,Increment      1: Step Time =    1.000,"PART-1-1",           188,      -11.3189,       17.6054,            0.,NA,NA,"",       1.48410,       1.24602,   806.221E-03,   378.062E-06
C:/temp/dataset/9/17_1.odb,Step-1,Increment      1: Step Time =    1.000,"PART-1-1",           189,      -10.4260,       2.85148,            0.,NA,NA,"",       1.04389,   687.849E-03,   785.218E-03,   326.647E-06
C:/temp/dataset/9/17_1.odb,Step-1,Increment      1: Step Time =    1.000,"PART-1-1",           190,      -12.4413,       27.8959,            0.,NA,NA,"",       1.83585,       1.63164,   841.494E-03,   81.1617E-06
C:/temp/dataset/9/17_1.odb,Step-1,Increment      1: Step Time =    1.000,"PART-1-1",           191,      -10.6658,       19.6683,            0.,NA,NA,"",       1.53512,       1.32202,   780.295E-03,   305.784E-06
C:/temp/dataset/9/17_1.odb,Step-1,Increment      1: Step Time =    1.000,"PART-1-1",           192,      -12.1118,       16.4066,            0.,NA,NA,"",       1.46480,       1.20215,   836.939E-03,   366.652E-06
C:/temp/dataset/9/17_1.odb,Step-1,Increment      1: Step Time =    1.000,"PART-1-1",           193,      -11.5166,       14.9043,            0.,NA,NA,"",       1.40672,       1.14605,   815.734E-03,   432.324E-06
C:/temp/dataset/9/17_1.odb,Step-1,Increment      1: Step Time =    1.000,"PART-1-1",           194,      -11.2054,       12.7278,            0.,NA,NA,"",       1.33544,       1.06493,   805.793E-03,   463.323E-06
C:/temp/dataset/9/17_1.odb,Step-1,Increment      1: Step Time =    1.000,"PART-1-1",           195,      -11.1139,       10.5020,            0.,NA,NA,"",       1.26903,   981.612E-03,   804.278E-03,   472.769E-06
C:/temp/dataset/9/17_1.odb,Step-1,Increment      1: Step Time =    1.000,"PART-1-1",           196,      -9.42029,       24.1195,            0.,NA,NA,"",       1.65720,       1.48734,   730.838E-03,   135.800E-06
C:/temp/dataset/9/17_1.odb,Step-1,Increment      1: Step Time =    1.000,"PART-1-1",           197,      -11.0759,       8.46025,            0.,NA,NA,"",       1.21072,   904.549E-03,   804.758E-03,   472.422E-06
C:/temp/dataset/9/17_1.odb,Step-1,Increment      1: Step Time =    1.000,"PART-1-1",           198,      -10.9473,       6.84821,            0.,NA,NA,"",       1.16320,   843.068E-03,   801.421E-03,   462.068E-06
C:/temp/dataset/9/17_1.odb,Step-1,Increment      1: Step Time =    1.000,"PART-1-1",           199,       9.64075,      -25.5803,            0.,NA,NA,"",   10.0593E-03,   9.35730E-03,   3.69204E-03,   1.04472E-03
C:/temp/dataset/9/17_1.odb,Step-1,Increment      1: Step Time =    1.000,"PART-1-1",           200,       6.22595,      -2.03957,            0.,NA,NA,"",   501.421E-03,   484.926E-03,   127.553E-03,   3.07708E-03
C:/temp/dataset/9/17_1.odb,Step-1,Increment      1: Step Time =    1.000,"PART-1-1",           201,       6.24072,       2.15031,            0.,NA,NA,"",   652.103E-03,   638.553E-03,   132.245E-03,   2.41945E-03
C:/temp/dataset/9/17_1.odb,Step-1,Increment      1: Step Time =    1.000,"PART-1-1",           202,      -7.69234,       3.89067,            0.,NA,NA,"",   992.650E-03,   726.458E-03,   676.471E-03,   349.268E-06
C:/temp/dataset/9/17_1.odb,Step-1,Increment      1: Step Time =    1.000,"PART-1-1",           203,       7.31807,       22.0589,            0.,NA,NA,"",       1.39549,       1.39243,   92.3354E-03,   389.946E-06
C:/temp/dataset/9/17_1.odb,Step-1,Increment      1: Step Time =    1.000,"PART-1-1",           204,      -6.44398,       20.4265,            0.,NA,NA,"",       1.48269,       1.34621,   621.361E-03,   553.071E-06
C:/temp/dataset/9/17_1.odb,Step-1,Increment      1: Step Time =    1.000,"PART-1-1",           205,       12.2962,       25.0128,            0.,NA,NA,"",       1.50638,       1.50289,  -102.465E-03,   45.8301E-06
C:/temp/dataset/9/17_1.odb,Step-1,Increment      1: Step Time =    1.000,"PART-1-1",           206,       12.2257,      -24.8009,            0.,NA,NA,"",   18.7695E-03,   14.7930E-03,  -11.5526E-03,   2.62188E-03
C:/temp/dataset/9/17_1.odb,Step-1,Increment      1: Step Time =    1.000,"PART-1-1",           207,      -2.06005,       24.5200,            0.,NA,NA,"",       1.56336,       1.49643,   452.568E-03,   173.384E-06
C:/temp/dataset/9/17_1.odb,Step-1,Increment      1: Step Time =    1.000,"PART-1-1",           208,       9.31619,       25.0673,            0.,NA,NA,"",       1.50748,       1.50742,   13.0735E-03,   115.806E-06
C:/temp/dataset/9/17_1.odb,Step-1,Increment      1: Step Time =    1.000,"PART-1-1",           209,       3.21447,       24.8112,            0.,NA,NA,"",       1.52350,       1.50289,   249.720E-03,   182.948E-06
C:/temp/dataset/9/17_1.odb,Step-1,Increment      1: Step Time =    1.000,"PART-1-1",           210,      -7.52022,      -1.18711,            0.,NA,NA,"",   853.854E-03,   526.191E-03,   672.451E-03,   493.296E-06
C:/temp/dataset/9/17_1.odb,Step-1,Increment      1: Step Time =    1.000,"PART-1-1",           211,       10.0127,       14.9017,            0.,NA,NA,"",       1.11087,       1.11085,  -6.90384E-03,   453.248E-06
C:/temp/dataset/9/17_1.odb,Step-1,Increment      1: Step Time =    1.000,"PART-1-1",           212,       10.7293,       3.02357,            0.,NA,NA,"",   663.685E-03,   663.243E-03,  -24.2399E-03,   1.19329E-03
C:/temp/dataset/9/17_1.odb,Step-1,Increment      1: Step Time =    1.000,"PART-1-1",           213,       11.4837,       7.36813,            0.,NA,NA,"",   825.101E-03,   823.249E-03,  -55.2481E-03,   576.529E-06
C:/temp/dataset/9/17_1.odb,Step-1,Increment      1: Step Time =    1.000,"PART-1-1",           214,      -9.20573,       12.9161,            0.,NA,NA,"",       1.29567,       1.07058,   729.809E-03,   437.215E-06
C:/temp/dataset/9/17_1.odb,Step-1,Increment      1: Step Time =    1.000,"PART-1-1",           215,   314.418E-03,       24.7704,            0.,NA,NA,"",       1.54672,       1.50389,   361.462E-03,   183.414E-06
C:/temp/dataset/9/17_1.odb,Step-1,Increment      1: Step Time =    1.000,"PART-1-1",           216,       7.52406,       26.3727,            0.,NA,NA,"",       1.56165,       1.55951,   81.6944E-03,   102.848E-06
C:/temp/dataset/9/17_1.odb,Step-1,Increment      1: Step Time =    1.000,"PART-1-1",           217,  -811.906E-03,   82.6841E-03,            0.,NA,NA,"",   697.021E-03,   570.898E-03,   399.892E-03,   1.26718E-03
C:/temp/dataset/9/17_1.odb,Step-1,Increment      1: Step Time =    1.000,"PART-1-1",           218,       11.1400,      -19.6444,            0.,NA,NA,"",   63.6317E-03,   62.8511E-03,  -9.93645E-03,   1.02821E-03
C:/temp/dataset/9/17_1.odb,Step-1,Increment      1: Step Time =    1.000,"PART-1-1",           219,       11.1036,      -10.4226,            0.,NA,NA,"",   232.478E-03,   231.689E-03,  -19.1315E-03,   1.01123E-03
C:/temp/dataset/9/17_1.odb,Step-1,Increment      1: Step Time =    1.000,"PART-1-1",           220,       10.9280,      -5.64335,            0.,NA,NA,"",   362.332E-03,   361.727E-03,  -20.9341E-03,   1.68509E-03
C:/temp/dataset/9/17_1.odb,Step-1,Increment      1: Step Time =    1.000,"PART-1-1",           221,       11.0667,       5.48495,            0.,NA,NA,"",   754.576E-03,   753.609E-03,  -38.2036E-03,   649.532E-06
C:/temp/dataset/9/17_1.odb,Step-1,Increment      1: Step Time =    1.000,"PART-1-1",           222,       11.1390,      -12.7671,            0.,NA,NA,"",   179.669E-03,   178.843E-03,  -17.2091E-03,   1.00371E-03
C:/temp/dataset/9/17_1.odb,Step-1,Increment      1: Step Time =    1.000,"PART-1-1",           223,       11.1627,      -15.1016,            0.,NA,NA,"",   133.831E-03,   132.979E-03,  -15.0733E-03,   1.04294E-03
C:/temp/dataset/9/17_1.odb,Step-1,Increment      1: Step Time =    1.000,"PART-1-1",           224,      -9.10801,       10.4728,            0.,NA,NA,"",       1.21993,   979.167E-03,   727.639E-03,   440.630E-06
C:/temp/dataset/9/17_1.odb,Step-1,Increment      1: Step Time =    1.000,"PART-1-1",           225,      -9.12162,       8.28854,            0.,NA,NA,"",       1.15608,   896.810E-03,   729.561E-03,   471.211E-06
C:/temp/dataset/9/17_1.odb,Step-1,Increment      1: Step Time =    1.000,"PART-1-1",           226,      -8.73753,       18.6317,            0.,NA,NA,"",       1.46471,       1.28198,   708.458E-03,   468.819E-06
C:/temp/dataset/9/17_1.odb,Step-1,Increment      1: Step Time =    1.000,"PART-1-1",           227,      -9.90634,  -397.381E-03,            0.,NA,NA,"",   950.011E-03,   559.334E-03,   767.898E-03,   426.140E-06
C:/temp/dataset/9/17_1.odb,Step-1,Increment      1: Step Time =    1.000,"PART-1-1",           228,       9.93939,       19.9385,            0.,NA,NA,"",       1.30716,       1.30713,  -7.69652E-03,   388.351E-06
C:/temp/dataset/9/17_1.odb,Step-1,Increment      1: Step Time =    1.000,"PART-1-1",           229,       5.70370,       25.8085,            0.,NA,NA,"",       1.54676,       1.53920,   152.677E-03,   144.086E-06
C:/temp/dataset/9/17_1.odb,Step-1,Increment      1: Step Time =    1.000,"PART-1-1",           230,       10.0348,       12.2094,            0.,NA,NA,"",       1.00713,       1.00711,  -5.73737E-03,   453.329E-06
C:/temp/dataset/9/17_1.odb,Step-1,Increment      1: Step Time =    1.000,"PART-1-1",           231,       9.98921,       17.4486,            0.,NA,NA,"",       1.20989,       1.20987,  -7.87514E-03,   457.577E-06
C:/temp/dataset/9/17_1.odb,Step-1,Increment      1: Step Time =    1.000,"PART-1-1",           232,       10.1044,       9.10575,            0.,NA,NA,"",   889.204E-03,   889.184E-03,  -6.00479E-03,   431.527E-06
C:/temp/dataset/9/17_1.odb,Step-1,Increment      1: Step Time =    1.000,"PART-1-1",           233,      -3.11139,      -1.10310,            0.,NA,NA,"",   721.707E-03,   526.296E-03,   493.837E-03,   1.06821E-03
C:/temp/dataset/9/17_1.odb,Step-1,Increment      1: Step Time =    1.000,"PART-1-1",           234,      -6.48507,       25.5695,            0.,NA,NA,"",       1.65973,       1.53975,   619.586E-03,   113.132E-06
C:/temp/dataset/9/17_1.odb,Step-1,Increment      1: Step Time =    1.000,"PART-1-1",           235,      -4.76537,       24.8732,            0.,NA,NA,"",       1.61078,       1.51208,   555.172E-03,   103.955E-06
C:/temp/dataset/9/17_1.odb,Step-1,Increment      1: Step Time =    1.000,"PART-1-1",           236,      -8.46351,       26.0628,            0.,NA,NA,"",       1.70709,       1.55983,   693.624E-03,   130.574E-06
C:/temp/dataset/9/17_1.odb,Step-1,Increment      1: Step Time =    1.000,"PART-1-1",           237,      -9.50218,       15.8804,            0.,NA,NA,"",       1.39301,       1.18082,   739.016E-03,   450.662E-06
C:/temp/dataset/9/17_1.odb,Step-1,Increment      1: Step Time =    1.000,"PART-1-1",           238,      -5.29510,      -1.38770,            0.,NA,NA,"",   778.591E-03,   516.541E-03,   582.571E-03,   715.971E-06
C:/temp/dataset/9/17_1.odb,Step-1,Increment      1: Step Time =    1.000,"PART-1-1",           239,       11.0587,      -21.7318,            0.,NA,NA,"",   39.7064E-03,   39.0772E-03,  -7.04099E-03,   934.653E-06
C:/temp/dataset/9/17_1.odb,Step-1,Increment      1: Step Time =    1.000,"PART-1-1",           240,       11.1670,      -17.4071,            0.,NA,NA,"",   95.0808E-03,   94.2375E-03,  -12.6355E-03,   1.06125E-03
C:/temp/dataset/9/17_1.odb,Step-1,Increment      1: Step Time =    1.000,"PART-1-1",           241,       11.0513,      -8.06140,            0.,NA,NA,"",   292.777E-03,   292.034E-03,  -20.8376E-03,   1.21946E-03
C:/temp/dataset/9/17_1.odb,Step-1,Increment      1: Step Time =    1.000,"PART-1-1",           242,       10.1357,   7.39639E-03,            0.,NA,NA,"",   553.678E-03,   553.674E-03,  -2.17820E-03,   2.02300E-03
C:/temp/dataset/9/17_1.odb,Step-1,Increment      1: Step Time =    1.000,"PART-1-1",           243,       10.6886,      -3.06387,            0.,NA,NA,"",   445.451E-03,   445.112E-03,  -17.3893E-03,   2.15290E-03
C:/temp/dataset/9/17_1.odb,Step-1,Increment      1: Step Time =    1.000,"PART-1-1",           244,       9.76329,       22.4053,            0.,NA,NA,"",       1.40355,       1.40355,  -2.49880E-03,   251.774E-06
C:/temp/dataset/9/17_1.odb,Step-1,Increment      1: Step Time =    1.000,"PART-1-1",           245,       8.68231,      -3.74099,            0.,NA,NA,"",   425.018E-03,   422.607E-03,   45.2113E-03,   2.15691E-03
C:/temp/dataset/9/17_1.odb,Step-1,Increment      1: Step Time =    1.000,"PART-1-1",           246,      -9.34414,       6.30777,            0.,NA,NA,"",       1.10532,   821.399E-03,   739.625E-03,   357.029E-06
C:/temp/dataset/9/17_1.odb,Step-1,Increment      1: Step Time =    1.000,"PART-1-1",           247,      -9.93235,       4.61568,            0.,NA,NA,"",       1.07516,   756.406E-03,   764.074E-03,   315.417E-06
C:/temp/dataset/9/17_1.odb,Step-1,Increment      1: Step Time =    1.000,"PART-1-1",           248,      -8.14937,       21.0679,            0.,NA,NA,"",       1.53335,       1.37184,   684.986E-03,   344.708E-06
C:/temp/dataset/9/17_1.odb,Step-1,Increment      1: Step Time =    1.000,"PART-1-1",           249,       10.7972,      -23.3791,            0.,NA,NA,"",   24.2880E-03,   24.0333E-03,  -3.50833E-03,   560.333E-06
C:/temp/dataset/9/17_1.odb,Step-1,Increment      1: Step Time =    1.000,"PART-1-1",           250,       4.15357,   65.4176E-03,            0.,NA,NA,"",   601.812E-03,   565.549E-03,   205.749E-03,   1.59637E-03
C:/temp/dataset/9/17_1.odb,Step-1,Increment      1: Step Time =    1.000,"PART-1-1",           251,       8.71950,       3.82470,            0.,NA,NA,"",   696.580E-03,   695.046E-03,   46.2070E-03,   1.38844E-03
C:/temp/dataset/9/17_1.odb,Step-1,Increment      1: Step Time =    1.000,"PART-1-1",           252,       5.00281,       23.5204,            0.,NA,NA,"",       1.46274,       1.45146,   181.341E-03,   263.535E-06
C:/temp/dataset/9/17_1.odb,Step-1,Increment      1: Step Time =    1.000,"PART-1-1",           253,       7.40149,   60.9774E-03,            0.,NA,NA,"",   566.489E-03,   559.332E-03,   89.7654E-03,   2.45565E-03
C:/temp/dataset/9/17_1.odb,Step-1,Increment      1: Step Time =    1.000,"PART-1-1",           254,      -5.73116,       22.7675,            0.,NA,NA,"",       1.55114,       1.43325,   593.151E-03,   242.370E-06
C:/temp/dataset/9/17_1.odb,Step-1,Increment      1: Step Time =    1.000,"PART-1-1",           255,      -5.42683,       1.83799,            0.,NA,NA,"",   870.372E-03,   643.284E-03,   586.288E-03,   1.09410E-03
C:/temp/dataset/9/17_1.odb,Step-1,Increment      1: Step Time =    1.000,"PART-1-1",           256,       6.81561,       24.0815,            0.,NA,NA,"",       1.47559,       1.47143,   110.686E-03,   221.146E-06
C:/temp/dataset/9/17_1.odb,Step-1,Increment      1: Step Time =    1.000,"PART-1-1",           257,      -7.40884,       23.3683,            0.,NA,NA,"",       1.59816,       1.45739,   655.854E-03,   210.550E-06
C:/temp/dataset/9/17_1.odb,Step-1,Increment      1: Step Time =    1.000,"PART-1-1",           258,      -3.69176,       23.9755,            0.,NA,NA,"",       1.56440,       1.47717,   515.105E-03,   193.860E-06
C:/temp/dataset/9/17_1.odb,Step-1,Increment      1: Step Time =    1.000,"PART-1-1",           259,      -8.10961,       1.76736,            0.,NA,NA,"",   946.534E-03,   643.450E-03,   694.189E-03,   422.168E-06
C:/temp/dataset/9/17_1.odb,Step-1,Increment      1: Step Time =    1.000,"PART-1-1",           260,       5.94930,   61.4696E-03,            0.,NA,NA,"",   579.350E-03,   562.096E-03,   140.339E-03,   2.25209E-03
C:/temp/dataset/9/17_1.odb,Step-1,Increment      1: Step Time =    1.000,"PART-1-1",           261,       1.93878,   62.7924E-03,            0.,NA,NA,"",   638.111E-03,   568.130E-03,   290.539E-03,   1.33747E-03
C:/temp/dataset/9/17_1.odb,Step-1,Increment      1: Step Time =    1.000,"PART-1-1",           262,       6.71051,      -4.41826,            0.,NA,NA,"",   414.765E-03,   400.746E-03,   106.924E-03,   3.05033E-03
C:/temp/dataset/9/17_1.odb,Step-1,Increment      1: Step Time =    1.000,"PART-1-1",           263,      -12.5366,      -2.82410,            0.,NA,NA,"",   992.124E-03,   463.726E-03,   877.079E-03,   1.02466E-03
C:/temp/dataset/9/17_1.odb,Step-1,Increment      1: Step Time =    1.000,"PART-1-1",           264,       6.75090,       4.53602,            0.,NA,NA,"",   733.706E-03,   724.394E-03,   116.530E-03,   1.91475E-03
C:/temp/dataset/9/17_1.odb,Step-1,Increment      1: Step Time =    1.000,"PART-1-1",           265,      -5.22339,       3.46233,            0.,NA,NA,"",   912.952E-03,   706.820E-03,   577.829E-03,   1.38414E-03
C:/temp/dataset/9/17_1.odb,Step-1,Increment      1: Step Time =    1.000,"PART-1-1",           266,       4.93795,       21.9167,            0.,NA,NA,"",       1.40170,       1.38946,   184.814E-03,   360.896E-06
C:/temp/dataset/9/17_1.odb,Step-1,Increment      1: Step Time =    1.000,"PART-1-1",           267,       8.13144,      -1.42002,            0.,NA,NA,"",   508.338E-03,   504.305E-03,   63.9033E-03,   2.52275E-03
C:/temp/dataset/9/17_1.odb,Step-1,Increment      1: Step Time =    1.000,"PART-1-1",           268,      -3.13115,       1.39136,            0.,NA,NA,"",   794.679E-03,   623.279E-03,   492.988E-03,   1.34406E-03
C:/temp/dataset/9/17_1.odb,Step-1,Increment      1: Step Time =    1.000,"PART-1-1",           269,       9.17709,       6.32873,            0.,NA,NA,"",   786.909E-03,   786.352E-03,   29.5851E-03,   543.600E-06
C:/temp/dataset/9/17_1.odb,Step-1,Increment      1: Step Time =    1.000,"PART-1-1",           270,      -11.0423,       1.34077,            0.,NA,NA,"",       1.02646,   628.820E-03,   811.297E-03,   478.854E-06
C:/temp/dataset/9/17_1.odb,Step-1,Increment      1: Step Time =    1.000,"PART-1-1",           271,      -10.1478,       26.6048,            0.,NA,NA,"",       1.75305,       1.58146,   756.427E-03,   118.645E-06
C:/temp/dataset/9/17_1.odb,Step-1,Increment      1: Step Time =    1.000,"PART-1-1",           272,      -10.1118,       21.9370,            0.,NA,NA,"",       1.59743,       1.40607,   758.121E-03,   186.265E-06
C:/temp/dataset/9/17_1.odb,Step-1,Increment      1: Step Time =    1.000,"PART-1-1",           273,       8.13886,       1.50501,            0.,NA,NA,"",   614.490E-03,   610.987E-03,   65.5162E-03,   2.17360E-03
C:/temp/dataset/9/17_1.odb,Step-1,Increment      1: Step Time =    1.000,"PART-1-1",           274,      -7.06249,   219.393E-03,            0.,NA,NA,"",   874.367E-03,   581.421E-03,   653.044E-03,   642.013E-06
C:/temp/dataset/9/17_1.odb,Step-1,Increment      1: Step Time =    1.000,"PART-1-1",           275,      -5.40522,   241.534E-03,            0.,NA,NA,"",   825.000E-03,   580.688E-03,   586.025E-03,   910.893E-06
C:/temp/dataset/9/17_1.odb,Step-1,Increment      1: Step Time =    1.000,"PART-1-1",           276,      -3.80180,   194.541E-03,            0.,NA,NA,"",   777.658E-03,   577.386E-03,   520.938E-03,   1.13308E-03
C:/temp/dataset/9/17_1.odb,Step-1,Increment      1: Step Time =    1.000,"PART-1-1",           277,      -2.71285,       28.4954,            0.,NA,NA,"",       1.71520,       1.64827,   474.461E-03,   182.615E-06
C:/temp/dataset/9/17_1.odb,Step-1,Increment      1: Step Time =    1.000,"PART-1-1",           278,         -3.75,           30.,            0.,NA,NA,"",       1.78136,       1.70600,   512.649E-03,   308.239E-06
C:/temp/dataset/9/17_1.odb,Step-1,Increment      1: Step Time =    1.000,"PART-1-1",           279,      -5.26224,       28.8665,            0.,NA,NA,"",       1.75899,       1.66376,   570.911E-03,   202.875E-06
C:/temp/dataset/9/17_1.odb,Step-1,Increment      1: Step Time =    1.000,"PART-1-1",           280,      -4.22509,       27.3619,            0.,NA,NA,"",       1.69217,       1.60610,   532.826E-03,   86.1615E-06
C:/temp/dataset/9/17_1.odb,Step-1,Increment      1: Step Time =    1.000,"PART-1-1",           281,      -3.84553,       25.9321,            0.,NA,NA,"",       1.63621,       1.55155,   519.517E-03,   48.2799E-06
C:/temp/dataset/9/17_1.odb,Step-1,Increment      1: Step Time =    1.000,"PART-1-1",           282,      -6.00478,       26.6512,            0.,NA,NA,"",       1.69064,       1.58034,   600.680E-03,   95.3298E-06
C:/temp/dataset/9/17_1.odb,Step-1,Increment      1: Step Time =    1.000,"PART-1-1",           283,      -5.62522,       25.2214,            0.,NA,NA,"",       1.63509,       1.52593,   587.415E-03,   102.848E-06
C:/temp/dataset/9/17_1.odb,Step-1,Increment      1: Step Time =    1.000,"PART-1-1",           284,      -10.0879,       29.0985,            0.,NA,NA,"",       1.83649,       1.67530,   752.373E-03,   100.886E-06
C:/temp/dataset/9/17_1.odb,Step-1,Increment      1: Step Time =    1.000,"PART-1-1",           285,        -11.25,           30.,            0.,NA,NA,"",       1.88580,       1.70989,   795.301E-03,   72.3626E-06
C:/temp/dataset/9/17_1.odb,Step-1,Increment      1: Step Time =    1.000,"PART-1-1",           286,      -12.4706,       28.9480,            0.,NA,NA,"",       1.87126,       1.67120,   841.847E-03,   46.4449E-06
C:/temp/dataset/9/17_1.odb,Step-1,Increment      1: Step Time =    1.000,"PART-1-1",           287,      -11.3086,       28.0465,            0.,NA,NA,"",       1.82112,       1.63653,   798.920E-03,   94.3337E-06
C:/temp/dataset/9/17_1.odb,Step-1,Increment      1: Step Time =    1.000,"PART-1-1",           288,      -13.4495,       25.5029,            0.,NA,NA,"",       1.77622,       1.54238,   880.916E-03,   82.8535E-06
C:/temp/dataset/9/17_1.odb,Step-1,Increment      1: Step Time =    1.000,"PART-1-1",           289,          -15.,       24.5313,            0.,NA,NA,"",       1.77600,       1.50704,   939.680E-03,   108.402E-06
C:/temp/dataset/9/17_1.odb,Step-1,Increment      1: Step Time =    1.000,"PART-1-1",           290,      -13.6920,       23.1529,            0.,NA,NA,"",       1.70587,       1.45438,   891.504E-03,   96.4045E-06
C:/temp/dataset/9/17_1.odb,Step-1,Increment      1: Step Time =    1.000,"PART-1-1",           291,      -12.1415,       24.1246,            0.,NA,NA,"",       1.70664,       1.48965,   832.806E-03,   73.4498E-06
C:/temp/dataset/9/17_1.odb,Step-1,Increment      1: Step Time =    1.000,"PART-1-1",           292,          8.75,          -30.,            0.,NA,NA,"",            0.,  -1.12837E-39,   3.47562E-39,   2.00312E-03
C:/temp/dataset/9/17_1.odb,Step-1,Increment      1: Step Time =    1.000,"PART-1-1",           293,       9.96407,      -28.8633,            0.,NA,NA,"",   1.02033E-03,  -928.921E-06,   422.103E-06,   743.487E-06
C:/temp/dataset/9/17_1.odb,Step-1,Increment      1: Step Time =    1.000,"PART-1-1",           294,       8.68711,      -27.7998,            0.,NA,NA,"",   4.13070E-03,   1.31465E-03,   3.91591E-03,   2.39331E-03
C:/temp/dataset/9/17_1.odb,Step-1,Increment      1: Step Time =    1.000,"PART-1-1",           295,       7.47304,      -28.9365,            0.,NA,NA,"",   3.04643E-03,   171.647E-06,   3.04159E-03,   3.56390E-03
C:/temp/dataset/9/17_1.odb,Step-1,Increment      1: Step Time =    1.000,"PART-1-1",           296,       10.9279,      -22.5555,            0.,NA,NA,"",   31.5683E-03,   31.1474E-03,  -5.13784E-03,   743.510E-06
C:/temp/dataset/9/17_1.odb,Step-1,Increment      1: Step Time =    1.000,"PART-1-1",           297,       10.0765,      -21.6813,            0.,NA,NA,"",   39.6512E-03,   39.5505E-03,   2.82344E-03,   437.273E-06
C:/temp/dataset/9/17_1.odb,Step-1,Increment      1: Step Time =    1.000,"PART-1-1",           298,       9.14242,      -22.6395,            0.,NA,NA,"",   32.7189E-03,   30.8807E-03,   10.8122E-03,   1.73098E-03
C:/temp/dataset/9/17_1.odb,Step-1,Increment      1: Step Time =    1.000,"PART-1-1",           299,       9.99384,      -23.5137,            0.,NA,NA,"",   23.1724E-03,   23.0001E-03,   2.82040E-03,   552.145E-06
C:/temp/dataset/9/17_1.odb,Step-1,Increment      1: Step Time =    1.000,"PART-1-1",           300,       7.08785,      -18.4988,            0.,NA,NA,"",   93.6768E-03,   81.7886E-03,   45.6724E-03,   4.50614E-03
C:/temp/dataset/9/17_1.odb,Step-1,Increment      1: Step Time =    1.000,"PART-1-1",           301,       6.04673,      -17.4684,            0.,NA,NA,"",   119.237E-03,   99.5579E-03,   65.6182E-03,   5.91411E-03
C:/temp/dataset/9/17_1.odb,Step-1,Increment      1: Step Time =    1.000,"PART-1-1",           302,            5.,      -18.5417,            0.,NA,NA,"",   114.582E-03,   86.9365E-03,   74.6392E-03,   7.34598E-03
C:/temp/dataset/9/17_1.odb,Step-1,Increment      1: Step Time =    1.000,"PART-1-1",           303,       6.04112,      -19.5721,            0.,NA,NA,"",   88.7463E-03,   69.8794E-03,   54.7062E-03,   5.93740E-03
C:/temp/dataset/9/17_1.odb,Step-1,Increment      1: Step Time =    1.000,"PART-1-1",           304,       7.10245,      -14.2066,            0.,NA,NA,"",   165.803E-03,   153.722E-03,   62.1295E-03,   4.47255E-03
C:/temp/dataset/9/17_1.odb,Step-1,Increment      1: Step Time =    1.000,"PART-1-1",           305,       6.04975,      -13.2285,            0.,NA,NA,"",   196.415E-03,   175.939E-03,   87.3178E-03,   5.86547E-03
C:/temp/dataset/9/17_1.odb,Step-1,Increment      1: Step Time =    1.000,"PART-1-1",           306,            5.,       -14.375,            0.,NA,NA,"",   186.429E-03,   156.396E-03,   101.469E-03,   7.28220E-03
C:/temp/dataset/9/17_1.odb,Step-1,Increment      1: Step Time =    1.000,"PART-1-1",           307,       6.05270,      -15.3531,            0.,NA,NA,"",   155.051E-03,   134.899E-03,   76.4402E-03,   5.88786E-03
C:/temp/dataset/9/17_1.odb,Step-1,Increment      1: Step Time =    1.000,"PART-1-1",           308,            5.,      -6.04167,            0.,NA,NA,"",   387.217E-03,   354.705E-03,   155.313E-03,   9.69472E-03
C:/temp/dataset/9/17_1.odb,Step-1,Increment      1: Step Time =    1.000,"PART-1-1",           309,       5.97724,      -6.85181,            0.,NA,NA,"",   351.266E-03,   329.489E-03,   121.757E-03,   6.20853E-03
C:/temp/dataset/9/17_1.odb,Step-1,Increment      1: Step Time =    1.000,"PART-1-1",           310,       6.83249,      -5.51927,            0.,NA,NA,"",   379.199E-03,   365.528E-03,   100.899E-03,   3.08497E-03
C:/temp/dataset/9/17_1.odb,Step-1,Increment      1: Step Time =    1.000,"PART-1-1",           311,       5.85525,      -4.70913,            0.,NA,NA,"",   413.257E-03,   390.778E-03,   134.439E-03,   5.57103E-03
C:/temp/dataset/9/17_1.odb,Step-1,Increment      1: Step Time =    1.000,"PART-1-1",           312,       4.27314,       1.25089,            0.,NA,NA,"",   641.834E-03,   609.183E-03,   202.106E-03,   1.54886E-03
C:/temp/dataset/9/17_1.odb,Step-1,Increment      1: Step Time =    1.000,"PART-1-1",           313,       3.27994,       2.49943,            0.,NA,NA,"",   699.589E-03,   657.350E-03,   239.408E-03,   1.14379E-03
C:/temp/dataset/9/17_1.odb,Step-1,Increment      1: Step Time =    1.000,"PART-1-1",           314,       2.05297,       1.31265,            0.,NA,NA,"",   678.091E-03,   614.868E-03,   285.910E-03,   1.04478E-03
C:/temp/dataset/9/17_1.odb,Step-1,Increment      1: Step Time =    1.000,"PART-1-1",           315,       3.04617,   64.1050E-03,            0.,NA,NA,"",   618.709E-03,   566.944E-03,   247.740E-03,   1.32052E-03
C:/temp/dataset/9/17_1.odb,Step-1,Increment      1: Step Time =    1.000,"PART-1-1",           316,       6.28410,       12.4112,            0.,NA,NA,"",       1.02712,       1.01812,   135.669E-03,   805.008E-06
C:/temp/dataset/9/17_1.odb,Step-1,Increment      1: Step Time =    1.000,"PART-1-1",           317,            5.,         11.25,            0.,NA,NA,"",   992.511E-03,   975.265E-03,   184.216E-03,   1.20402E-03
C:/temp/dataset/9/17_1.odb,Step-1,Increment      1: Step Time =    1.000,"PART-1-1",           318,       6.24476,       9.82085,            0.,NA,NA,"",   929.740E-03,   919.598E-03,   136.956E-03,   1.02981E-03
C:/temp/dataset/9/17_1.odb,Step-1,Increment      1: Step Time =    1.000,"PART-1-1",           319,       7.52885,       10.9821,            0.,NA,NA,"",   966.377E-03,   962.279E-03,   88.9040E-03,   693.217E-06
C:/temp/dataset/9/17_1.odb,Step-1,Increment      1: Step Time =    1.000,"PART-1-1",           320,       6.23557,       19.9374,            0.,NA,NA,"",       1.31770,       1.31074,   135.269E-03,   526.537E-06
C:/temp/dataset/9/17_1.odb,Step-1,Increment      1: Step Time =    1.000,"PART-1-1",           321,            5.,         18.75,            0.,NA,NA,"",       1.27849,       1.26517,   184.030E-03,   437.570E-06
C:/temp/dataset/9/17_1.odb,Step-1,Increment      1: Step Time =    1.000,"PART-1-1",           322,       6.25255,       17.4722,            0.,NA,NA,"",       1.22158,       1.21401,   135.786E-03,   432.532E-06
C:/temp/dataset/9/17_1.odb,Step-1,Increment      1: Step Time =    1.000,"PART-1-1",           323,       7.48812,       18.6595,            0.,NA,NA,"",       1.26237,       1.25934,   87.4713E-03,   480.085E-06
C:/temp/dataset/9/17_1.odb,Step-1,Increment      1: Step Time =    1.000,"PART-1-1",           324,       12.4612,       28.7577,            0.,NA,NA,"",       1.65193,       1.64815,  -111.670E-03,   7.46495E-06
C:/temp/dataset/9/17_1.odb,Step-1,Increment      1: Step Time =    1.000,"PART-1-1",           325,         11.25,           30.,            0.,NA,NA,"",       1.69854,       1.69728,  -65.5919E-03,   20.3802E-06
C:/temp/dataset/9/17_1.odb,Step-1,Increment      1: Step Time =    1.000,"PART-1-1",           326,       9.95383,       28.8406,            0.,NA,NA,"",       1.65331,       1.65325,  -14.3992E-03,   18.2059E-06
C:/temp/dataset/9/17_1.odb,Step-1,Increment      1: Step Time =    1.000,"PART-1-1",           327,       11.1650,       27.5983,            0.,NA,NA,"",       1.60528,       1.60414,  -60.4795E-03,   20.4810E-06
C:/temp/dataset/9/17_1.odb,Step-1,Increment      1: Step Time =    1.000,"PART-1-1",           328,       9.61193,       26.3742,            0.,NA,NA,"",       1.55788,       1.55788,   690.312E-06,   62.3312E-06
C:/temp/dataset/9/17_1.odb,Step-1,Increment      1: Step Time =    1.000,"PART-1-1",           329,       10.8062,       25.0400,            0.,NA,NA,"",       1.50579,       1.50513,  -44.6905E-03,   74.2466E-06
C:/temp/dataset/9/17_1.odb,Step-1,Increment      1: Step Time =    1.000,"PART-1-1",           330,       12.3592,       26.2641,            0.,NA,NA,"",       1.55505,       1.55144,  -105.845E-03,   18.7183E-06
C:/temp/dataset/9/17_1.odb,Step-1,Increment      1: Step Time =    1.000,"PART-1-1",           331,       7.54419,       28.9985,            0.,NA,NA,"",       1.66301,       1.66113,   78.9794E-03,   49.1226E-06
C:/temp/dataset/9/17_1.odb,Step-1,Increment      1: Step Time =    1.000,"PART-1-1",           332,          6.25,           30.,            0.,NA,NA,"",       1.70565,       1.70081,   128.370E-03,   106.666E-06
C:/temp/dataset/9/17_1.odb,Step-1,Increment      1: Step Time =    1.000,"PART-1-1",           333,       5.09159,       28.9175,            0.,NA,NA,"",       1.66881,       1.65970,   174.095E-03,   97.2470E-06
C:/temp/dataset/9/17_1.odb,Step-1,Increment      1: Step Time =    1.000,"PART-1-1",           334,       6.38578,       27.9160,            0.,NA,NA,"",       1.62488,       1.62008,   124.721E-03,   74.6004E-06
C:/temp/dataset/9/17_1.odb,Step-1,Increment      1: Step Time =    1.000,"PART-1-1",           335,       2.95769,       26.1428,            0.,NA,NA,"",       1.57572,       1.55433,   258.704E-03,   117.748E-06
C:/temp/dataset/9/17_1.odb,Step-1,Increment      1: Step Time =    1.000,"PART-1-1",           336,       4.45909,       25.3098,            0.,NA,NA,"",       1.53427,       1.52102,   201.235E-03,   164.567E-06
C:/temp/dataset/9/17_1.odb,Step-1,Increment      1: Step Time =    1.000,"PART-1-1",           337,       5.44343,       26.8217,            0.,NA,NA,"",       1.58683,       1.57853,   162.047E-03,   102.553E-06
C:/temp/dataset/9/17_1.odb,Step-1,Increment      1: Step Time =    1.000,"PART-1-1",           338,       3.94204,       27.6547,            0.,NA,NA,"",       1.62666,       1.61178,   219.550E-03,   98.1675E-06
C:/temp/dataset/9/17_1.odb,Step-1,Increment      1: Step Time =    1.000,"PART-1-1",           339,       6.06395,       7.26936,            0.,NA,NA,"",   836.646E-03,   824.383E-03,   142.719E-03,   1.26210E-03
C:/temp/dataset/9/17_1.odb,Step-1,Increment      1: Step Time =    1.000,"PART-1-1",           340,       7.30871,       8.34021,            0.,NA,NA,"",   868.260E-03,   862.781E-03,   97.3916E-03,   833.482E-06
C:/temp/dataset/9/17_1.odb,Step-1,Increment      1: Step Time =    1.000,"PART-1-1",           341,            5.,          8.75,            0.,NA,NA,"",   899.708E-03,   880.906E-03,   182.974E-03,   1.57082E-03
C:/temp/dataset/9/17_1.odb,Step-1,Increment      1: Step Time =    1.000,"PART-1-1",           342,      -13.9291,       1.47830,            0.,NA,NA,"",       1.12263,   635.525E-03,   925.424E-03,   1.02992E-03
C:/temp/dataset/9/17_1.odb,Step-1,Increment      1: Step Time =    1.000,"PART-1-1",           343,          -15.,    468.75E-03,            0.,NA,NA,"",       1.13813,   595.901E-03,   969.658E-03,   1.23847E-03
C:/temp/dataset/9/17_1.odb,Step-1,Increment      1: Step Time =    1.000,"PART-1-1",           344,      -13.8152,  -655.377E-03,            0.,NA,NA,"",       1.07625,   550.910E-03,   924.558E-03,   1.04082E-03
C:/temp/dataset/9/17_1.odb,Step-1,Increment      1: Step Time =    1.000,"PART-1-1",           345,      -12.7443,   354.171E-03,            0.,NA,NA,"",       1.06006,   590.638E-03,   880.272E-03,   837.789E-06
C:/temp/dataset/9/17_1.odb,Step-1,Increment      1: Step Time =    1.000,"PART-1-1",           346,      -13.9678,       8.16706,            0.,NA,NA,"",       1.28061,   894.771E-03,   916.165E-03,   840.245E-06
C:/temp/dataset/9/17_1.odb,Step-1,Increment      1: Step Time =    1.000,"PART-1-1",           347,          -15.,       7.03125,            0.,NA,NA,"",       1.28152,   851.725E-03,   957.523E-03,   1.09918E-03
C:/temp/dataset/9/17_1.odb,Step-1,Increment      1: Step Time =    1.000,"PART-1-1",           348,      -13.6804,       5.85321,            0.,NA,NA,"",       1.21462,   806.084E-03,   908.581E-03,   893.171E-06
C:/temp/dataset/9/17_1.odb,Step-1,Increment      1: Step Time =    1.000,"PART-1-1",           349,      -12.6482,       6.98902,            0.,NA,NA,"",       1.21371,   849.296E-03,   867.061E-03,   659.373E-06
C:/temp/dataset/9/17_1.odb,Step-1,Increment      1: Step Time =    1.000,"PART-1-1",           350,      -5.93089,       17.7206,            0.,NA,NA,"",       1.38474,       1.24611,   603.901E-03,   193.000E-06
C:/temp/dataset/9/17_1.odb,Step-1,Increment      1: Step Time =    1.000,"PART-1-1",           351,      -7.00986,       16.6597,            0.,NA,NA,"",       1.36914,       1.20777,   644.843E-03,   342.405E-06
C:/temp/dataset/9/17_1.odb,Step-1,Increment      1: Step Time =    1.000,"PART-1-1",           352,      -6.07897,       15.1891,            0.,NA,NA,"",       1.30447,       1.15261,   610.854E-03,   281.768E-06
C:/temp/dataset/9/17_1.odb,Step-1,Increment      1: Step Time =    1.000,"PART-1-1",           353,           -5.,         16.25,            0.,NA,NA,"",       1.32056,       1.19110,   570.223E-03,   226.144E-06
C:/temp/dataset/9/17_1.odb,Step-1,Increment      1: Step Time =    1.000,"PART-1-1",           354,      -7.79966,       18.2865,            0.,NA,NA,"",       1.43612,       1.26844,   673.417E-03,   451.856E-06
C:/temp/dataset/9/17_1.odb,Step-1,Increment      1: Step Time =    1.000,"PART-1-1",           355,      -6.65288,       19.1839,            0.,NA,NA,"",       1.44498,       1.30048,   629.854E-03,   474.894E-06
C:/temp/dataset/9/17_1.odb,Step-1,Increment      1: Step Time =    1.000,"PART-1-1",           356,      -7.29668,       20.7472,            0.,NA,NA,"",       1.50786,       1.35904,   653.170E-03,   426.914E-06
C:/temp/dataset/9/17_1.odb,Step-1,Increment      1: Step Time =    1.000,"PART-1-1",           357,      -8.44345,       19.8498,            0.,NA,NA,"",       1.49862,       1.32682,   696.707E-03,   388.135E-06
C:/temp/dataset/9/17_1.odb,Step-1,Increment      1: Step Time =    1.000,"PART-1-1",           358,      -2.59303,       4.06073,            0.,NA,NA,"",   865.712E-03,   727.138E-03,   469.817E-03,   835.683E-06
C:/temp/dataset/9/17_1.odb,Step-1,Increment      1: Step Time =    1.000,"PART-1-1",           359,      -1.46713,       2.91047,            0.,NA,NA,"",   802.024E-03,   680.363E-03,   424.676E-03,   1.15704E-03
C:/temp/dataset/9/17_1.odb,Step-1,Increment      1: Step Time =    1.000,"PART-1-1",           360,  -124.098E-03,       3.84974,            0.,NA,NA,"",   805.123E-03,   714.744E-03,   370.627E-03,   1.35111E-03
C:/temp/dataset/9/17_1.odb,Step-1,Increment      1: Step Time =    1.000,"PART-1-1",           361,         -1.25,            5.,            0.,NA,NA,"",   868.117E-03,   762.367E-03,   415.240E-03,   1.39887E-03
C:/temp/dataset/9/17_1.odb,Step-1,Increment      1: Step Time =    1.000,"PART-1-1",           362,      -11.2683,  -541.568E-03,            0.,NA,NA,"",   992.048E-03,   554.402E-03,   822.677E-03,   618.709E-06
C:/temp/dataset/9/17_1.odb,Step-1,Increment      1: Step Time =    1.000,"PART-1-1",           363,      -10.4743,   471.696E-03,            0.,NA,NA,"",   988.228E-03,   594.128E-03,   789.687E-03,   437.768E-06
C:/temp/dataset/9/17_1.odb,Step-1,Increment      1: Step Time =    1.000,"PART-1-1",           364,      -11.9503,       1.36743,            0.,NA,NA,"",       1.05604,   630.351E-03,   847.282E-03,   645.125E-06
C:/temp/dataset/9/17_1.odb,Step-1,Increment      1: Step Time =    1.000,"PART-1-1",           365,      -13.0095,       9.29789,            0.,NA,NA,"",       1.28426,   937.261E-03,   877.994E-03,   631.242E-06
C:/temp/dataset/9/17_1.odb,Step-1,Increment      1: Step Time =    1.000,"PART-1-1",           366,      -14.0417,       10.3496,            0.,NA,NA,"",       1.33948,   977.381E-03,   915.929E-03,   704.782E-06
C:/temp/dataset/9/17_1.odb,Step-1,Increment      1: Step Time =    1.000,"PART-1-1",           367,          -15.,       9.21875,            0.,NA,NA,"",       1.33573,   935.020E-03,   953.893E-03,   943.826E-06
C:/temp/dataset/9/17_1.odb,Step-1,Increment      1: Step Time =    1.000,"PART-1-1",           368,      -6.40766,      -1.28741,            0.,NA,NA,"",   815.844E-03,   521.334E-03,   627.545E-03,   593.325E-06
C:/temp/dataset/9/17_1.odb,Step-1,Increment      1: Step Time =    1.000,"PART-1-1",           369,      -5.35016,  -573.084E-03,            0.,NA,NA,"",   801.480E-03,   548.653E-03,   584.252E-03,   806.672E-06
C:/temp/dataset/9/17_1.odb,Step-1,Increment      1: Step Time =    1.000,"PART-1-1",           370,      -6.23385,   230.463E-03,            0.,NA,NA,"",   849.405E-03,   581.057E-03,   619.566E-03,   776.922E-06
C:/temp/dataset/9/17_1.odb,Step-1,Increment      1: Step Time =    1.000,"PART-1-1",           371,      -7.29135,  -483.859E-03,            0.,NA,NA,"",   863.686E-03,   553.858E-03,   662.718E-03,   553.147E-06
C:/temp/dataset/9/17_1.odb,Step-1,Increment      1: Step Time =    1.000,"PART-1-1",           372,   952.242E-03,      -2.53706,            0.,NA,NA,"",   575.197E-03,   470.079E-03,   331.477E-03,   1.68955E-03
C:/temp/dataset/9/17_1.odb,Step-1,Increment      1: Step Time =    1.000,"PART-1-1",           373,  -130.910E-03,      -3.80019,            0.,NA,NA,"",   564.546E-03,   420.523E-03,   376.659E-03,   1.36241E-03
C:/temp/dataset/9/17_1.odb,Step-1,Increment      1: Step Time =    1.000,"PART-1-1",           374,          1.25,           -5.,            0.,NA,NA,"",   493.954E-03,   373.574E-03,   323.161E-03,   1.98301E-03
C:/temp/dataset/9/17_1.odb,Step-1,Increment      1: Step Time =    1.000,"PART-1-1",           375,       2.33315,      -3.73687,            0.,NA,NA,"",   507.268E-03,   424.914E-03,   277.071E-03,   2.06401E-03
C:/temp/dataset/9/17_1.odb,Step-1,Increment      1: Step Time =    1.000,"PART-1-1",           376,       4.26686,      -1.13377,            0.,NA,NA,"",   558.413E-03,   521.088E-03,   200.729E-03,   1.97637E-03
C:/temp/dataset/9/17_1.odb,Step-1,Increment      1: Step Time =    1.000,"PART-1-1",           377,       2.05254,      -1.20548,            0.,NA,NA,"",   594.250E-03,   520.564E-03,   286.612E-03,   1.61895E-03
C:/temp/dataset/9/17_1.odb,Step-1,Increment      1: Step Time =    1.000,"PART-1-1",           378,       3.27323,      -2.40335,            0.,NA,NA,"",   531.826E-03,   475.556E-03,   238.087E-03,   1.95447E-03
C:/temp/dataset/9/17_1.odb,Step-1,Increment      1: Step Time =    1.000,"PART-1-1",           379,       10.4325,       1.51548,            0.,NA,NA,"",   608.417E-03,   608.279E-03,  -12.9967E-03,   1.60023E-03
C:/temp/dataset/9/17_1.odb,Step-1,Increment      1: Step Time =    1.000,"PART-1-1",           380,       11.3847,  -3.51279E-03,            0.,NA,NA,"",   554.252E-03,   552.524E-03,  -43.7237E-03,   1.88528E-03
C:/temp/dataset/9/17_1.odb,Step-1,Increment      1: Step Time =    1.000,"PART-1-1",           381,       12.7244,       1.31309,            0.,NA,NA,"",   606.721E-03,   599.811E-03,  -91.3072E-03,   1.86140E-03
C:/temp/dataset/9/17_1.odb,Step-1,Increment      1: Step Time =    1.000,"PART-1-1",           382,       11.7722,       2.83209,            0.,NA,NA,"",   658.304E-03,   655.514E-03,  -60.5481E-03,   1.22271E-03
C:/temp/dataset/9/17_1.odb,Step-1,Increment      1: Step Time =    1.000,"PART-1-1",           383,       9.00808,      -7.25637,            0.,NA,NA,"",   316.267E-03,   314.385E-03,   34.4520E-03,   1.33416E-03
C:/temp/dataset/9/17_1.odb,Step-1,Increment      1: Step Time =    1.000,"PART-1-1",           384,       7.95196,      -6.36313,            0.,NA,NA,"",   346.615E-03,   340.363E-03,   65.5371E-03,   2.57457E-03
C:/temp/dataset/9/17_1.odb,Step-1,Increment      1: Step Time =    1.000,"PART-1-1",           385,       7.00211,      -7.70397,            0.,NA,NA,"",   317.210E-03,   304.459E-03,   89.0330E-03,   4.46146E-03
C:/temp/dataset/9/17_1.odb,Step-1,Increment      1: Step Time =    1.000,"PART-1-1",           386,       8.05823,      -8.59720,            0.,NA,NA,"",   285.223E-03,   279.241E-03,   58.1100E-03,   3.03332E-03
C:/temp/dataset/9/17_1.odb,Step-1,Increment      1: Step Time =    1.000,"PART-1-1",           387,       7.09104,      -12.0381,            0.,NA,NA,"",   210.813E-03,   198.637E-03,   70.6074E-03,   4.47740E-03
C:/temp/dataset/9/17_1.odb,Step-1,Increment      1: Step Time =    1.000,"PART-1-1",           388,       6.04129,      -11.1013,            0.,NA,NA,"",   243.149E-03,   222.426E-03,   98.2239E-03,   5.86203E-03
C:/temp/dataset/9/17_1.odb,Step-1,Increment      1: Step Time =    1.000,"PART-1-1",           389,            5.,      -12.2917,            0.,NA,NA,"",   229.717E-03,   199.083E-03,   114.611E-03,   7.25470E-03
C:/temp/dataset/9/17_1.odb,Step-1,Increment      1: Step Time =    1.000,"PART-1-1",           390,       9.13117,      -18.4822,            0.,NA,NA,"",   80.7636E-03,   78.9359E-03,   17.0843E-03,   1.72513E-03
C:/temp/dataset/9/17_1.odb,Step-1,Increment      1: Step Time =    1.000,"PART-1-1",           391,       10.1297,      -19.6034,            0.,NA,NA,"",   63.3800E-03,   63.3174E-03,   2.81500E-03,   359.408E-06
C:/temp/dataset/9/17_1.odb,Step-1,Increment      1: Step Time =    1.000,"PART-1-1",           392,       11.1535,      -18.5257,            0.,NA,NA,"",   78.5887E-03,   77.7782E-03,  -11.2576E-03,   1.04520E-03
C:/temp/dataset/9/17_1.odb,Step-1,Increment      1: Step Time =    1.000,"PART-1-1",           393,       10.1550,      -17.4045,            0.,NA,NA,"",   94.2940E-03,   94.2490E-03,   2.91424E-03,   326.251E-06
C:/temp/dataset/9/17_1.odb,Step-1,Increment      1: Step Time =    1.000,"PART-1-1",           394,       6.27183,       14.9637,            0.,NA,NA,"",       1.12469,       1.11645,   135.824E-03,   616.047E-06
C:/temp/dataset/9/17_1.odb,Step-1,Increment      1: Step Time =    1.000,"PART-1-1",           395,       7.52438,       16.1859,            0.,NA,NA,"",       1.16598,       1.16271,   87.3356E-03,   482.252E-06
C:/temp/dataset/9/17_1.odb,Step-1,Increment      1: Step Time =    1.000,"PART-1-1",           396,            5.,         16.25,            0.,NA,NA,"",       1.18216,       1.16764,   184.682E-03,   670.927E-06
C:/temp/dataset/9/17_1.odb,Step-1,Increment      1: Step Time =    1.000,"PART-1-1",           397,       2.56719,       21.1071,            0.,NA,NA,"",       1.38869,       1.36078,   277.005E-03,   495.486E-06
C:/temp/dataset/9/17_1.odb,Step-1,Increment      1: Step Time =    1.000,"PART-1-1",           398,       1.41709,       22.2600,            0.,NA,NA,"",       1.44261,       1.40652,   320.647E-03,   395.848E-06
C:/temp/dataset/9/17_1.odb,Step-1,Increment      1: Step Time =    1.000,"PART-1-1",           399,   99.9026E-03,       21.1528,            0.,NA,NA,"",       1.41525,       1.36553,   371.831E-03,   530.208E-06
C:/temp/dataset/9/17_1.odb,Step-1,Increment      1: Step Time =    1.000,"PART-1-1",           400,          1.25,           20.,            0.,NA,NA,"",       1.36002,       1.31982,   328.219E-03,   629.012E-06
C:/temp/dataset/9/17_1.odb,Step-1,Increment      1: Step Time =    1.000,"PART-1-1",           401,       7.55593,       13.6250,            0.,NA,NA,"",       1.06707,       1.06350,   87.1597E-03,   573.590E-06
C:/temp/dataset/9/17_1.odb,Step-1,Increment      1: Step Time =    1.000,"PART-1-1",           402,            5.,         13.75,            0.,NA,NA,"",       1.08679,       1.07097,   184.759E-03,   924.105E-06
C:/temp/dataset/9/17_1.odb,Step-1,Increment      1: Step Time =    1.000,"PART-1-1",           403,       8.77818,       14.9146,            0.,NA,NA,"",       1.11301,       1.11229,   40.0743E-03,   449.160E-06
C:/temp/dataset/9/17_1.odb,Step-1,Increment      1: Step Time =    1.000,"PART-1-1",           404,       10.0010,       16.1752,            0.,NA,NA,"",       1.16029,       1.16027,  -7.39574E-03,   455.190E-06
C:/temp/dataset/9/17_1.odb,Step-1,Increment      1: Step Time =    1.000,"PART-1-1",           405,       8.74716,       17.4465,            0.,NA,NA,"",       1.21143,       1.21078,   39.7412E-03,   449.533E-06
C:/temp/dataset/9/17_1.odb,Step-1,Increment      1: Step Time =    1.000,"PART-1-1",           406,       10.1219,       5.90684,            0.,NA,NA,"",   769.947E-03,   769.934E-03,  -4.40996E-03,   514.170E-06
C:/temp/dataset/9/17_1.odb,Step-1,Increment      1: Step Time =    1.000,"PART-1-1",           407,       8.94830,       5.07672,            0.,NA,NA,"",   741.573E-03,   740.593E-03,   38.1234E-03,   937.664E-06
C:/temp/dataset/9/17_1.odb,Step-1,Increment      1: Step Time =    1.000,"PART-1-1",           408,       9.72441,       3.42413,            0.,NA,NA,"",   679.087E-03,   679.001E-03,   10.8081E-03,   1.18309E-03
C:/temp/dataset/9/17_1.odb,Step-1,Increment      1: Step Time =    1.000,"PART-1-1",           409,       10.8980,       4.25426,            0.,NA,NA,"",   709.031E-03,   708.348E-03,  -31.1160E-03,   896.835E-06
C:/temp/dataset/9/17_1.odb,Step-1,Increment      1: Step Time =    1.000,"PART-1-1",           410,       8.15250,       6.68373,            0.,NA,NA,"",   803.257E-03,   800.481E-03,   66.7187E-03,   654.020E-06
C:/temp/dataset/9/17_1.odb,Step-1,Increment      1: Step Time =    1.000,"PART-1-1",           411,       9.64075,       7.71724,            0.,NA,NA,"",   837.564E-03,   837.478E-03,   12.0117E-03,   437.861E-06
C:/temp/dataset/9/17_1.odb,Step-1,Increment      1: Step Time =    1.000,"PART-1-1",           412,       8.79696,       9.37373,            0.,NA,NA,"",   901.213E-03,   900.224E-03,   42.2134E-03,   505.110E-06
C:/temp/dataset/9/17_1.odb,Step-1,Increment      1: Step Time =    1.000,"PART-1-1",           413,   959.485E-03,       2.63099,            0.,NA,NA,"",   742.567E-03,   666.111E-03,   328.180E-03,   1.15601E-03
C:/temp/dataset/9/17_1.odb,Step-1,Increment      1: Step Time =    1.000,"PART-1-1",           414,       2.33358,       3.78125,            0.,NA,NA,"",   758.636E-03,   707.017E-03,   275.054E-03,   1.72349E-03
C:/temp/dataset/9/17_1.odb,Step-1,Increment      1: Step Time =    1.000,"PART-1-1",           415,          1.25,            5.,            0.,NA,NA,"",   819.923E-03,   756.236E-03,   316.831E-03,   2.16376E-03
C:/temp/dataset/9/17_1.odb,Step-1,Increment      1: Step Time =    1.000,"PART-1-1",           416,      -9.23288,       7.29816,            0.,NA,NA,"",       1.13042,   859.215E-03,   734.578E-03,   413.244E-06
C:/temp/dataset/9/17_1.odb,Step-1,Increment      1: Step Time =    1.000,"PART-1-1",           417,      -8.32915,       6.01548,            0.,NA,NA,"",       1.07033,   809.447E-03,   700.284E-03,   431.837E-06
C:/temp/dataset/9/17_1.odb,Step-1,Increment      1: Step Time =    1.000,"PART-1-1",           418,      -7.21136,       6.82340,            0.,NA,NA,"",       1.06567,   839.605E-03,   656.292E-03,   601.607E-06
C:/temp/dataset/9/17_1.odb,Step-1,Increment      1: Step Time =    1.000,"PART-1-1",           419,      -8.11509,       8.10607,            0.,NA,NA,"",       1.12595,   889.107E-03,   690.836E-03,   552.226E-06
C:/temp/dataset/9/17_1.odb,Step-1,Increment      1: Step Time =    1.000,"PART-1-1",           420,      -13.1318,       11.4675,            0.,NA,NA,"",       1.34640,       1.01895,   880.076E-03,   543.793E-06
C:/temp/dataset/9/17_1.odb,Step-1,Increment      1: Step Time =    1.000,"PART-1-1",           421,      -14.0901,       12.5242,            0.,NA,NA,"",       1.39952,       1.05894,   915.044E-03,   540.676E-06
C:/temp/dataset/9/17_1.odb,Step-1,Increment      1: Step Time =    1.000,"PART-1-1",           422,          -15.,       11.4063,            0.,NA,NA,"",       1.39248,       1.01747,   950.665E-03,   741.090E-06
C:/temp/dataset/9/17_1.odb,Step-1,Increment      1: Step Time =    1.000,"PART-1-1",           423,      -9.35396,       14.3983,            0.,NA,NA,"",       1.34417,       1.12579,   734.433E-03,   443.947E-06
C:/temp/dataset/9/17_1.odb,Step-1,Increment      1: Step Time =    1.000,"PART-1-1",           424,      -10.5094,       15.3924,            0.,NA,NA,"",       1.39926,       1.16347,   777.352E-03,   436.168E-06
C:/temp/dataset/9/17_1.odb,Step-1,Increment      1: Step Time =    1.000,"PART-1-1",           425,      -11.3610,       13.8160,            0.,NA,NA,"",       1.37097,       1.10554,   810.759E-03,   446.688E-06
C:/temp/dataset/9/17_1.odb,Step-1,Increment      1: Step Time =    1.000,"PART-1-1",           426,      -10.2056,       12.8219,            0.,NA,NA,"",       1.31516,       1.06778,   767.786E-03,   434.719E-06
C:/temp/dataset/9/17_1.odb,Step-1,Increment      1: Step Time =    1.000,"PART-1-1",           427,      -14.0810,       18.8007,            0.,NA,NA,"",       1.57991,       1.29231,   908.885E-03,   107.745E-06
C:/temp/dataset/9/17_1.odb,Step-1,Increment      1: Step Time =    1.000,"PART-1-1",           428,          -15.,       17.9688,            0.,NA,NA,"",       1.57585,       1.26200,   943.735E-03,   83.0068E-06
C:/temp/dataset/9/17_1.odb,Step-1,Increment      1: Step Time =    1.000,"PART-1-1",           429,      -14.2329,       16.7349,            0.,NA,NA,"",       1.52225,       1.21568,   916.160E-03,   206.482E-06
C:/temp/dataset/9/17_1.odb,Step-1,Increment      1: Step Time =    1.000,"PART-1-1",           430,      -13.3139,       17.5668,            0.,NA,NA,"",       1.52605,       1.24597,   881.132E-03,   240.206E-06
C:/temp/dataset/9/17_1.odb,Step-1,Increment      1: Step Time =    1.000,"PART-1-1",           431,      -12.9537,       19.5700,            0.,NA,NA,"",       1.57891,       1.32011,   866.188E-03,   171.916E-06
C:/temp/dataset/9/17_1.odb,Step-1,Increment      1: Step Time =    1.000,"PART-1-1",           432,      -13.8727,       20.9255,            0.,NA,NA,"",       1.64004,       1.37125,   899.668E-03,   98.1101E-06
C:/temp/dataset/9/17_1.odb,Step-1,Increment      1: Step Time =    1.000,"PART-1-1",           433,          -15.,       20.1563,            0.,NA,NA,"",       1.64090,       1.34340,   942.241E-03,   63.4024E-06
C:/temp/dataset/9/17_1.odb,Step-1,Increment      1: Step Time =    1.000,"PART-1-1",           434,       1.76445,       24.7908,            0.,NA,NA,"",       1.53415,       1.50339,   305.672E-03,   183.456E-06
C:/temp/dataset/9/17_1.odb,Step-1,Increment      1: Step Time =    1.000,"PART-1-1",           435,       1.36974,       27.3866,            0.,NA,NA,"",       1.63473,       1.60330,   319.000E-03,   94.4639E-06
C:/temp/dataset/9/17_1.odb,Step-1,Increment      1: Step Time =    1.000,"PART-1-1",           436,   176.493E-03,       26.0346,            0.,NA,NA,"",       1.59492,       1.55239,   365.869E-03,   98.1347E-06
C:/temp/dataset/9/17_1.odb,Step-1,Increment      1: Step Time =    1.000,"PART-1-1",           437,       7.39460,       20.9669,            0.,NA,NA,"",       1.35274,       1.34975,   89.9289E-03,   465.853E-06
C:/temp/dataset/9/17_1.odb,Step-1,Increment      1: Step Time =    1.000,"PART-1-1",           438,       8.70526,       19.9066,            0.,NA,NA,"",       1.30760,       1.30699,   39.8764E-03,   431.381E-06
C:/temp/dataset/9/17_1.odb,Step-1,Increment      1: Step Time =    1.000,"PART-1-1",           439,       9.85134,       21.1719,            0.,NA,NA,"",       1.35538,       1.35537,  -5.11171E-03,   314.701E-06
C:/temp/dataset/9/17_1.odb,Step-1,Increment      1: Step Time =    1.000,"PART-1-1",           440,       8.54068,       22.2321,            0.,NA,NA,"",       1.39866,       1.39794,   44.9047E-03,   308.633E-06
C:/temp/dataset/9/17_1.odb,Step-1,Increment      1: Step Time =    1.000,"PART-1-1",           441,       4.10864,       24.1658,            0.,NA,NA,"",       1.49287,       1.47723,   215.566E-03,   218.675E-06
C:/temp/dataset/9/17_1.odb,Step-1,Increment      1: Step Time =    1.000,"PART-1-1",           442,       5.90921,       23.8009,            0.,NA,NA,"",       1.46871,       1.46143,   146.019E-03,   242.649E-06
C:/temp/dataset/9/17_1.odb,Step-1,Increment      1: Step Time =    1.000,"PART-1-1",           443,       6.25965,       24.9450,            0.,NA,NA,"",       1.51111,       1.50536,   131.702E-03,   177.254E-06
C:/temp/dataset/9/17_1.odb,Step-1,Increment      1: Step Time =    1.000,"PART-1-1",           444,   19.2837E-03,       28.6494,            0.,NA,NA,"",       1.69346,       1.65257,   369.899E-03,   172.447E-06
C:/temp/dataset/9/17_1.odb,Step-1,Increment      1: Step Time =    1.000,"PART-1-1",           445,       2.60045,       28.7372,            0.,NA,NA,"",       1.67634,       1.65437,   270.523E-03,   139.419E-06
C:/temp/dataset/9/17_1.odb,Step-1,Increment      1: Step Time =    1.000,"PART-1-1",           446,          1.25,           30.,            0.,NA,NA,"",       1.73378,       1.70371,   321.497E-03,   256.356E-06
C:/temp/dataset/9/17_1.odb,Step-1,Increment      1: Step Time =    1.000,"PART-1-1",           447,      -7.67774,       29.0428,            0.,NA,NA,"",       1.79802,       1.67176,   661.876E-03,   165.469E-06
C:/temp/dataset/9/17_1.odb,Step-1,Increment      1: Step Time =    1.000,"PART-1-1",           448,      -6.68998,       27.9093,            0.,NA,NA,"",       1.74440,       1.62838,   625.561E-03,   130.084E-06
C:/temp/dataset/9/17_1.odb,Step-1,Increment      1: Step Time =    1.000,"PART-1-1",           449,         -6.25,           30.,            0.,NA,NA,"",       1.81192,       1.70712,   607.301E-03,   259.728E-06
C:/temp/dataset/9/17_1.odb,Step-1,Increment      1: Step Time =    1.000,"PART-1-1",           450,      -12.1701,       26.6384,            0.,NA,NA,"",       1.78944,       1.58415,   832.202E-03,   90.7169E-06
C:/temp/dataset/9/17_1.odb,Step-1,Increment      1: Step Time =    1.000,"PART-1-1",           451,      -13.7206,       27.8542,            0.,NA,NA,"",       1.85776,       1.63097,   889.505E-03,   45.3853E-06
C:/temp/dataset/9/17_1.odb,Step-1,Increment      1: Step Time =    1.000,"PART-1-1",           452,          -15.,       26.7188,            0.,NA,NA,"",       1.84553,       1.58921,   938.304E-03,   52.0221E-06
C:/temp/dataset/9/17_1.odb,Step-1,Increment      1: Step Time =    1.000,"PART-1-1",           453,        -13.75,           30.,            0.,NA,NA,"",       1.92874,       1.71159,   889.103E-03,   9.83085E-06
C:/temp/dataset/9/17_1.odb,Step-1,Increment      1: Step Time =    1.000,"PART-1-1",           454,          -15.,       28.9063,            0.,NA,NA,"",       1.91603,       1.67140,   936.805E-03,   8.65215E-06
C:/temp/dataset/9/17_1.odb,Step-1,Increment      1: Step Time =    1.000,"PART-1-1",           455,      -9.01567,       28.1413,            0.,NA,NA,"",       1.78693,       1.63859,   712.844E-03,   122.868E-06
C:/temp/dataset/9/17_1.odb,Step-1,Increment      1: Step Time =    1.000,"PART-1-1",           456,         -8.75,           30.,            0.,NA,NA,"",       1.84679,       1.70839,   701.447E-03,   168.839E-06
C:/temp/dataset/9/17_1.odb,Step-1,Increment      1: Step Time =    1.000,"PART-1-1",           457,      -10.9923,       18.6369,            0.,NA,NA,"",       1.50926,       1.28399,   793.232E-03,   338.769E-06
C:/temp/dataset/9/17_1.odb,Step-1,Increment      1: Step Time =    1.000,"PART-1-1",           458,      -11.7056,       20.1347,            0.,NA,NA,"",       1.57063,       1.34018,   819.025E-03,   220.200E-06
C:/temp/dataset/9/17_1.odb,Step-1,Increment      1: Step Time =    1.000,"PART-1-1",           459,      -12.2405,       18.0722,            0.,NA,NA,"",       1.51793,       1.26398,   840.510E-03,   292.863E-06
C:/temp/dataset/9/17_1.odb,Step-1,Increment      1: Step Time =    1.000,"PART-1-1",           460,      -11.7153,       17.0060,            0.,NA,NA,"",       1.47424,       1.22409,   821.572E-03,   366.324E-06
C:/temp/dataset/9/17_1.odb,Step-1,Increment      1: Step Time =    1.000,"PART-1-1",           461,      -12.7888,       16.5007,            0.,NA,NA,"",       1.48263,       1.20608,   862.298E-03,   317.513E-06
C:/temp/dataset/9/17_1.odb,Step-1,Increment      1: Step Time =    1.000,"PART-1-1",           462,      -13.2634,       13.5986,            0.,NA,NA,"",       1.40932,       1.09859,   882.767E-03,   439.521E-06
C:/temp/dataset/9/17_1.odb,Step-1,Increment      1: Step Time =    1.000,"PART-1-1",           463,      -14.1733,       14.6682,            0.,NA,NA,"",       1.46144,       1.13888,   915.841E-03,   369.745E-06
C:/temp/dataset/9/17_1.odb,Step-1,Increment      1: Step Time =    1.000,"PART-1-1",           464,          -15.,       13.5938,            0.,NA,NA,"",       1.45153,       1.09929,   947.893E-03,   515.342E-06
C:/temp/dataset/9/17_1.odb,Step-1,Increment      1: Step Time =    1.000,"PART-1-1",           465,      -6.04154,       10.1420,            0.,NA,NA,"",       1.14135,   964.043E-03,   610.988E-03,   664.336E-06
C:/temp/dataset/9/17_1.odb,Step-1,Increment      1: Step Time =    1.000,"PART-1-1",           466,      -7.09581,       9.10381,            0.,NA,NA,"",       1.13209,   925.965E-03,   651.317E-03,   641.731E-06
C:/temp/dataset/9/17_1.odb,Step-1,Increment      1: Step Time =    1.000,"PART-1-1",           467,      -6.05428,       7.71180,            0.,NA,NA,"",       1.06523,   872.254E-03,   611.469E-03,   887.841E-06
C:/temp/dataset/9/17_1.odb,Step-1,Increment      1: Step Time =    1.000,"PART-1-1",           468,           -5.,          8.75,            0.,NA,NA,"",       1.07490,   910.343E-03,   571.567E-03,   992.274E-06
C:/temp/dataset/9/17_1.odb,Step-1,Increment      1: Step Time =    1.000,"PART-1-1",           469,      -6.15708,       5.36159,            0.,NA,NA,"",   995.642E-03,   782.703E-03,   615.370E-03,   1.06206E-03
C:/temp/dataset/9/17_1.odb,Step-1,Increment      1: Step Time =    1.000,"PART-1-1",           470,           -5.,          6.25,            0.,NA,NA,"",   995.021E-03,   815.262E-03,   570.451E-03,   1.69716E-03
C:/temp/dataset/9/17_1.odb,Step-1,Increment      1: Step Time =    1.000,"PART-1-1",           471,      -13.8567,       3.63033,            0.,NA,NA,"",       1.16740,   719.939E-03,   918.975E-03,   983.007E-06
C:/temp/dataset/9/17_1.odb,Step-1,Increment      1: Step Time =    1.000,"PART-1-1",           472,      -12.5372,       4.63979,            0.,NA,NA,"",       1.15128,   758.717E-03,   865.902E-03,   695.191E-06
C:/temp/dataset/9/17_1.odb,Step-1,Increment      1: Step Time =    1.000,"PART-1-1",           473,          -15.,       4.84375,            0.,NA,NA,"",       1.23017,   767.439E-03,   961.435E-03,   1.19267E-03
C:/temp/dataset/9/17_1.odb,Step-1,Increment      1: Step Time =    1.000,"PART-1-1",           474,      -12.7859,       2.45238,            0.,NA,NA,"",       1.10713,   673.435E-03,   878.765E-03,   783.255E-06
C:/temp/dataset/9/17_1.odb,Step-1,Increment      1: Step Time =    1.000,"PART-1-1",           475,          -15.,       2.65625,            0.,NA,NA,"",       1.18217,   682.140E-03,   965.509E-03,   1.23335E-03
C:/temp/dataset/9/17_1.odb,Step-1,Increment      1: Step Time =    1.000,"PART-1-1",           476,      -13.7683,      -2.81830,            0.,NA,NA,"",       1.03630,   464.359E-03,   926.435E-03,   1.04426E-03
C:/temp/dataset/9/17_1.odb,Step-1,Increment      1: Step Time =    1.000,"PART-1-1",           477,          -15.,      -3.90625,            0.,NA,NA,"",       1.06457,   421.073E-03,   977.759E-03,   1.05039E-03
C:/temp/dataset/9/17_1.odb,Step-1,Increment      1: Step Time =    1.000,"PART-1-1",           478,        -13.75,           -5.,            0.,NA,NA,"",       1.00286,   376.698E-03,   929.427E-03,   960.607E-06
C:/temp/dataset/9/17_1.odb,Step-1,Increment      1: Step Time =    1.000,"PART-1-1",           479,      -12.5183,      -3.91205,            0.,NA,NA,"",   973.368E-03,   419.895E-03,   878.142E-03,   1.01549E-03
C:/temp/dataset/9/17_1.odb,Step-1,Increment      1: Step Time =    1.000,"PART-1-1",           480,      -3.91473,      -3.03803,            0.,NA,NA,"",   694.236E-03,   450.598E-03,   528.134E-03,   761.826E-06
C:/temp/dataset/9/17_1.odb,Step-1,Increment      1: Step Time =    1.000,"PART-1-1",           481,      -5.07319,      -4.05962,            0.,NA,NA,"",   707.177E-03,   410.268E-03,   576.003E-03,   555.238E-06
C:/temp/dataset/9/17_1.odb,Step-1,Increment      1: Step Time =    1.000,"PART-1-1",           482,         -3.75,           -5.,            0.,NA,NA,"",   642.461E-03,   372.230E-03,   523.642E-03,   836.180E-06
C:/temp/dataset/9/17_1.odb,Step-1,Increment      1: Step Time =    1.000,"PART-1-1",           483,      -2.59153,      -3.97841,            0.,NA,NA,"",   630.041E-03,   413.076E-03,   475.732E-03,   949.089E-06
C:/temp/dataset/9/17_1.odb,Step-1,Increment      1: Step Time =    1.000,"PART-1-1",           484,   563.435E-03,   72.7383E-03,            0.,NA,NA,"",   665.871E-03,   569.579E-03,   344.912E-03,   1.29465E-03
C:/temp/dataset/9/17_1.odb,Step-1,Increment      1: Step Time =    1.000,"PART-1-1",           485,  -536.863E-03,      -1.25885,            0.,NA,NA,"",   649.385E-03,   519.252E-03,   389.972E-03,   1.31625E-03
C:/temp/dataset/9/17_1.odb,Step-1,Increment      1: Step Time =    1.000,"PART-1-1",           486,       7.06616,      -9.87010,            0.,NA,NA,"",   261.430E-03,   249.087E-03,   79.3823E-03,   4.55425E-03
C:/temp/dataset/9/17_1.odb,Step-1,Increment      1: Step Time =    1.000,"PART-1-1",           487,       6.02487,      -8.97716,            0.,NA,NA,"",   295.091E-03,   274.169E-03,   109.132E-03,   5.95506E-03
C:/temp/dataset/9/17_1.odb,Step-1,Increment      1: Step Time =    1.000,"PART-1-1",           488,            5.,      -10.2083,            0.,NA,NA,"",   277.867E-03,   246.823E-03,   127.626E-03,   7.16217E-03
C:/temp/dataset/9/17_1.odb,Step-1,Increment      1: Step Time =    1.000,"PART-1-1",           489,       13.0743,      -11.4048,            0.,NA,NA,"",   219.483E-03,   210.278E-03,  -62.8964E-03,   3.65692E-03
C:/temp/dataset/9/17_1.odb,Step-1,Increment      1: Step Time =    1.000,"PART-1-1",           490,       14.0423,      -12.5586,            0.,NA,NA,"",   202.778E-03,   186.519E-03,  -79.5595E-03,   5.01105E-03
C:/temp/dataset/9/17_1.odb,Step-1,Increment      1: Step Time =    1.000,"PART-1-1",           491,           15.,        -11.25,            0.,NA,NA,"",   242.915E-03,   217.644E-03,  -107.882E-03,   6.34125E-03
C:/temp/dataset/9/17_1.odb,Step-1,Increment      1: Step Time =    1.000,"PART-1-1",           492,       14.0319,      -10.0962,            0.,NA,NA,"",   259.248E-03,   242.747E-03,  -91.0139E-03,   4.98801E-03
C:/temp/dataset/9/17_1.odb,Step-1,Increment      1: Step Time =    1.000,"PART-1-1",           493,       7.09943,      -16.3632,            0.,NA,NA,"",   126.757E-03,   114.744E-03,   53.8620E-03,   4.48125E-03
C:/temp/dataset/9/17_1.odb,Step-1,Increment      1: Step Time =    1.000,"PART-1-1",           494,            5.,      -16.4583,            0.,NA,NA,"",   148.076E-03,   118.998E-03,   88.1243E-03,   7.32218E-03
C:/temp/dataset/9/17_1.odb,Step-1,Increment      1: Step Time =    1.000,"PART-1-1",           495,       13.0966,      -13.8278,            0.,NA,NA,"",   168.030E-03,   158.839E-03,  -54.8098E-03,   3.69929E-03
C:/temp/dataset/9/17_1.odb,Step-1,Increment      1: Step Time =    1.000,"PART-1-1",           496,       14.0543,      -15.0192,            0.,NA,NA,"",   153.865E-03,   137.913E-03,  -68.2248E-03,   5.02315E-03
C:/temp/dataset/9/17_1.odb,Step-1,Increment      1: Step Time =    1.000,"PART-1-1",           497,           15.,        -13.75,            0.,NA,NA,"",   188.819E-03,   164.295E-03,  -93.0576E-03,   6.33368E-03
C:/temp/dataset/9/17_1.odb,Step-1,Increment      1: Step Time =    1.000,"PART-1-1",           498,       13.0974,      -18.6352,            0.,NA,NA,"",   86.9234E-03,   78.1198E-03,  -38.1179E-03,   3.72107E-03
C:/temp/dataset/9/17_1.odb,Step-1,Increment      1: Step Time =    1.000,"PART-1-1",           499,       14.0421,      -19.9133,            0.,NA,NA,"",   77.8016E-03,   63.2002E-03,  -45.3743E-03,   5.02505E-03
C:/temp/dataset/9/17_1.odb,Step-1,Increment      1: Step Time =    1.000,"PART-1-1",           500,           15.,        -18.75,            0.,NA,NA,"",   102.919E-03,   80.6609E-03,  -63.9226E-03,   6.33372E-03
C:/temp/dataset/9/17_1.odb,Step-1,Increment      1: Step Time =    1.000,"PART-1-1",           501,       14.0553,      -17.4719,            0.,NA,NA,"",   112.268E-03,   96.8286E-03,  -56.8182E-03,   5.02966E-03
C:/temp/dataset/9/17_1.odb,Step-1,Increment      1: Step Time =    1.000,"PART-1-1",           502,       7.12541,      -22.7005,            0.,NA,NA,"",   43.8470E-03,   33.2665E-03,   28.5639E-03,   4.48521E-03
C:/temp/dataset/9/17_1.odb,Step-1,Increment      1: Step Time =    1.000,"PART-1-1",           503,       6.04628,      -21.6612,            0.,NA,NA,"",   63.2609E-03,   45.7993E-03,   43.6390E-03,   5.93958E-03
C:/temp/dataset/9/17_1.odb,Step-1,Increment      1: Step Time =    1.000,"PART-1-1",           504,            5.,      -22.7083,            0.,NA,NA,"",   61.3139E-03,   38.9299E-03,   47.3693E-03,   7.36347E-03
C:/temp/dataset/9/17_1.odb,Step-1,Increment      1: Step Time =    1.000,"PART-1-1",           505,       6.07914,      -23.7476,            0.,NA,NA,"",   42.1619E-03,   27.0626E-03,   32.3301E-03,   5.90645E-03
C:/temp/dataset/9/17_1.odb,Step-1,Increment      1: Step Time =    1.000,"PART-1-1",           506,       6.22304,      -27.8948,            0.,NA,NA,"",   11.0319E-03,   4.89747E-03,   9.88517E-03,   5.80430E-03
C:/temp/dataset/9/17_1.odb,Step-1,Increment      1: Step Time =    1.000,"PART-1-1",           507,            5.,      -28.9583,            0.,NA,NA,"",   8.43599E-03,   5.23006E-03,   6.61910E-03,   7.31175E-03
C:/temp/dataset/9/17_1.odb,Step-1,Increment      1: Step Time =    1.000,"PART-1-1",           508,          6.25,          -30.,            0.,NA,NA,"",            0.,  -375.304E-42,   8.54462E-39,   5.23187E-03
C:/temp/dataset/9/17_1.odb,Step-1,Increment      1: Step Time =    1.000,"PART-1-1",           509,       9.78444,      -26.6535,            0.,NA,NA,"",   4.83147E-03,   4.32544E-03,   2.15260E-03,   843.449E-06
C:/temp/dataset/9/17_1.odb,Step-1,Increment      1: Step Time =    1.000,"PART-1-1",           510,       8.47427,      -25.6871,            0.,NA,NA,"",   13.6838E-03,   9.81772E-03,   9.53193E-03,   2.71726E-03
C:/temp/dataset/9/17_1.odb,Step-1,Increment      1: Step Time =    1.000,"PART-1-1",           511,       7.37694,      -26.8334,            0.,NA,NA,"",   12.5437E-03,   6.25684E-03,   10.8718E-03,   4.20561E-03
C:/temp/dataset/9/17_1.odb,Step-1,Increment      1: Step Time =    1.000,"PART-1-1",           512,       13.7223,      -27.5034,            0.,NA,NA,"",   10.6773E-03,   4.61410E-03,  -9.62886E-03,   4.76222E-03
C:/temp/dataset/9/17_1.odb,Step-1,Increment      1: Step Time =    1.000,"PART-1-1",           513,       12.4723,      -28.7534,            0.,NA,NA,"",   2.66398E-03,  -118.510E-06,  -2.66134E-03,   2.67938E-03
C:/temp/dataset/9/17_1.odb,Step-1,Increment      1: Step Time =    1.000,"PART-1-1",           514,         13.75,          -30.,            0.,NA,NA,"",            0.,  -788.062E-42,  -6.84200E-39,   4.15917E-03
C:/temp/dataset/9/17_1.odb,Step-1,Increment      1: Step Time =    1.000,"PART-1-1",           515,           15.,        -28.75,            0.,NA,NA,"",   8.05904E-03,   4.60828E-03,  -6.61150E-03,   6.16426E-03
C:/temp/dataset/9/17_1.odb,Step-1,Increment      1: Step Time =    1.000,"PART-1-1",           516,         11.25,          -30.,            0.,NA,NA,"",            0.,  -1.29624E-39,  -1.93781E-39,   1.44234E-03
C:/temp/dataset/9/17_1.odb,Step-1,Increment      1: Step Time =    1.000,"PART-1-1",           517,       11.1864,      -27.6167,            0.,NA,NA,"",   2.48478E-03,   1.25548E-03,  -2.14427E-03,   1.24677E-03
C:/temp/dataset/9/17_1.odb,Step-1,Increment      1: Step Time =    1.000,"PART-1-1",           518,       9.10684,      -20.5966,            0.,NA,NA,"",   53.7855E-03,   51.8613E-03,   14.2577E-03,   1.76511E-03
C:/temp/dataset/9/17_1.odb,Step-1,Increment      1: Step Time =    1.000,"PART-1-1",           519,       11.0993,      -20.6881,            0.,NA,NA,"",   50.9994E-03,   50.2973E-03,  -8.43323E-03,   979.860E-06
C:/temp/dataset/9/17_1.odb,Step-1,Increment      1: Step Time =    1.000,"PART-1-1",           520,       7.08739,      -20.6083,            0.,NA,NA,"",   66.2377E-03,   54.7376E-03,   37.2992E-03,   4.51947E-03
C:/temp/dataset/9/17_1.odb,Step-1,Increment      1: Step Time =    1.000,"PART-1-1",           521,            5.,       -20.625,            0.,NA,NA,"",   85.7620E-03,   60.2420E-03,   61.0412E-03,   7.35827E-03
C:/temp/dataset/9/17_1.odb,Step-1,Increment      1: Step Time =    1.000,"PART-1-1",           522,       9.14341,      -14.0595,            0.,NA,NA,"",   155.070E-03,   153.344E-03,   23.0756E-03,   1.71495E-03
C:/temp/dataset/9/17_1.odb,Step-1,Increment      1: Step Time =    1.000,"PART-1-1",           523,       10.1582,      -15.1431,            0.,NA,NA,"",   132.284E-03,   132.245E-03,   3.20709E-03,   331.343E-06
C:/temp/dataset/9/17_1.odb,Step-1,Increment      1: Step Time =    1.000,"PART-1-1",           524,       11.1509,      -13.9343,            0.,NA,NA,"",   155.911E-03,   155.073E-03,  -16.1420E-03,   1.02497E-03
C:/temp/dataset/9/17_1.odb,Step-1,Increment      1: Step Time =    1.000,"PART-1-1",           525,       10.1361,      -12.8507,            0.,NA,NA,"",   177.203E-03,   177.160E-03,   3.90676E-03,   362.126E-06
C:/temp/dataset/9/17_1.odb,Step-1,Increment      1: Step Time =    1.000,"PART-1-1",           526,       9.12292,      -11.8044,            0.,NA,NA,"",   202.240E-03,   200.498E-03,   26.4883E-03,   1.71908E-03
C:/temp/dataset/9/17_1.odb,Step-1,Increment      1: Step Time =    1.000,"PART-1-1",           527,       11.1213,      -11.5948,            0.,NA,NA,"",   205.211E-03,   204.405E-03,  -18.1611E-03,   1.00476E-03
C:/temp/dataset/9/17_1.odb,Step-1,Increment      1: Step Time =    1.000,"PART-1-1",           528,       10.1081,      -10.5485,            0.,NA,NA,"",   228.792E-03,   228.744E-03,   4.69422E-03,   362.853E-06
C:/temp/dataset/9/17_1.odb,Step-1,Increment      1: Step Time =    1.000,"PART-1-1",           529,       13.8169,  -7.21098E-03,            0.,NA,NA,"",   566.739E-03,   552.589E-03,  -125.850E-03,   2.53525E-03
C:/temp/dataset/9/17_1.odb,Step-1,Increment      1: Step Time =    1.000,"PART-1-1",           530,           15.,          1.25,            0.,NA,NA,"",   622.176E-03,   598.151E-03,  -171.227E-03,   2.65878E-03
C:/temp/dataset/9/17_1.odb,Step-1,Increment      1: Step Time =    1.000,"PART-1-1",           531,       13.9075,       2.57030,            0.,NA,NA,"",   659.648E-03,   645.578E-03,  -135.516E-03,   1.77070E-03
C:/temp/dataset/9/17_1.odb,Step-1,Increment      1: Step Time =    1.000,"PART-1-1",           532,       10.8083,      -4.35361,            0.,NA,NA,"",   402.787E-03,   402.324E-03,  -19.3041E-03,   1.86755E-03
C:/temp/dataset/9/17_1.odb,Step-1,Increment      1: Step Time =    1.000,"PART-1-1",           533,       9.68548,      -3.40243,            0.,NA,NA,"",   433.959E-03,   433.732E-03,   14.0433E-03,   1.93045E-03
C:/temp/dataset/9/17_1.odb,Step-1,Increment      1: Step Time =    1.000,"PART-1-1",           534,       8.81587,      -4.92348,            0.,NA,NA,"",   386.025E-03,   383.860E-03,   40.8221E-03,   1.59259E-03
C:/temp/dataset/9/17_1.odb,Step-1,Increment      1: Step Time =    1.000,"PART-1-1",           535,       9.93870,      -5.87466,            0.,NA,NA,"",   354.448E-03,   354.358E-03,   7.99947E-03,   1.06403E-03
C:/temp/dataset/9/17_1.odb,Step-1,Increment      1: Step Time =    1.000,"PART-1-1",           536,       10.7940,       8.23694,            0.,NA,NA,"",   856.669E-03,   856.117E-03,  -30.7534E-03,   474.328E-06
C:/temp/dataset/9/17_1.odb,Step-1,Increment      1: Step Time =    1.000,"PART-1-1",           537,       11.2752,       6.42654,            0.,NA,NA,"",   789.733E-03,   788.354E-03,  -46.6509E-03,   593.512E-06
C:/temp/dataset/9/17_1.odb,Step-1,Increment      1: Step Time =    1.000,"PART-1-1",           538,       12.8821,       8.67106,            0.,NA,NA,"",   878.132E-03,   871.402E-03,  -108.508E-03,   797.685E-06
C:/temp/dataset/9/17_1.odb,Step-1,Increment      1: Step Time =    1.000,"PART-1-1",           539,       14.0355,       7.50951,            0.,NA,NA,"",   841.033E-03,   827.624E-03,  -149.578E-03,   1.09765E-03
C:/temp/dataset/9/17_1.odb,Step-1,Increment      1: Step Time =    1.000,"PART-1-1",           540,           15.,          8.75,            0.,NA,NA,"",   893.764E-03,   873.821E-03,  -187.750E-03,   1.22786E-03
C:/temp/dataset/9/17_1.odb,Step-1,Increment      1: Step Time =    1.000,"PART-1-1",           541,       13.8467,       9.91155,            0.,NA,NA,"",   929.382E-03,   917.786E-03,  -146.355E-03,   896.665E-06
C:/temp/dataset/9/17_1.odb,Step-1,Increment      1: Step Time =    1.000,"PART-1-1",           542,       12.4850,       16.2122,            0.,NA,NA,"",       1.16453,       1.16002,  -102.421E-03,   435.816E-06
C:/temp/dataset/9/17_1.odb,Step-1,Increment      1: Step Time =    1.000,"PART-1-1",           543,       13.7431,       14.9727,            0.,NA,NA,"",       1.12129,       1.11130,  -149.301E-03,   538.693E-06
C:/temp/dataset/9/17_1.odb,Step-1,Increment      1: Step Time =    1.000,"PART-1-1",           544,           15.,         16.25,            0.,NA,NA,"",       1.17708,       1.16008,  -199.327E-03,   550.098E-06
C:/temp/dataset/9/17_1.odb,Step-1,Increment      1: Step Time =    1.000,"PART-1-1",           545,       13.7419,       17.4895,            0.,NA,NA,"",       1.21841,       1.20889,  -152.080E-03,   362.590E-06
C:/temp/dataset/9/17_1.odb,Step-1,Increment      1: Step Time =    1.000,"PART-1-1",           546,       12.4991,       13.6576,            0.,NA,NA,"",       1.06596,       1.06123,  -100.269E-03,   525.608E-06
C:/temp/dataset/9/17_1.odb,Step-1,Increment      1: Step Time =    1.000,"PART-1-1",           547,       13.7559,       12.4349,            0.,NA,NA,"",       1.02426,       1.01372,  -146.542E-03,   715.551E-06
C:/temp/dataset/9/17_1.odb,Step-1,Increment      1: Step Time =    1.000,"PART-1-1",           548,           15.,         13.75,            0.,NA,NA,"",       1.08154,       1.06364,  -195.950E-03,   798.934E-06
C:/temp/dataset/9/17_1.odb,Step-1,Increment      1: Step Time =    1.000,"PART-1-1",           549,           15.,         21.25,            0.,NA,NA,"",       1.36981,       1.35445,  -204.499E-03,   125.936E-06
C:/temp/dataset/9/17_1.odb,Step-1,Increment      1: Step Time =    1.000,"PART-1-1",           550,       13.6875,       22.5045,            0.,NA,NA,"",       1.41273,       1.40425,  -154.526E-03,   85.0122E-06
C:/temp/dataset/9/17_1.odb,Step-1,Increment      1: Step Time =    1.000,"PART-1-1",           551,       12.4125,       21.2511,            0.,NA,NA,"",       1.36036,       1.35637,  -104.111E-03,   212.796E-06
C:/temp/dataset/9/17_1.odb,Step-1,Increment      1: Step Time =    1.000,"PART-1-1",           552,       13.7250,       19.9966,            0.,NA,NA,"",       1.31555,       1.30652,  -153.858E-03,   202.817E-06
C:/temp/dataset/9/17_1.odb,Step-1,Increment      1: Step Time =    1.000,"PART-1-1",           553,       13.6481,       25.0064,            0.,NA,NA,"",       1.50957,       1.50160,  -154.936E-03,   21.1630E-06
C:/temp/dataset/9/17_1.odb,Step-1,Increment      1: Step Time =    1.000,"PART-1-1",           554,       12.3356,       23.7609,            0.,NA,NA,"",       1.45783,       1.45418,  -103.062E-03,   95.2888E-06
C:/temp/dataset/9/17_1.odb,Step-1,Increment      1: Step Time =    1.000,"PART-1-1",           555,           15.,         23.75,            0.,NA,NA,"",       1.46635,       1.45174,  -206.503E-03,   23.1418E-06
C:/temp/dataset/9/17_1.odb,Step-1,Increment      1: Step Time =    1.000,"PART-1-1",           556,       13.7112,       27.5077,            0.,NA,NA,"",       1.60661,       1.59869,  -159.264E-03,   9.79018E-06
C:/temp/dataset/9/17_1.odb,Step-1,Increment      1: Step Time =    1.000,"PART-1-1",           557,           15.,         28.75,            0.,NA,NA,"",       1.65932,       1.64594,  -210.234E-03,   3.13822E-06
C:/temp/dataset/9/17_1.odb,Step-1,Increment      1: Step Time =    1.000,"PART-1-1",           558,         13.75,           30.,            0.,NA,NA,"",       1.70319,       1.69541,  -162.648E-03,   4.05776E-06
C:/temp/dataset/9/17_1.odb,Step-1,Increment      1: Step Time =    1.000,"PART-1-1",           559,            5.,      -24.7917,            0.,NA,NA,"",   40.7562E-03,   22.9680E-03,   33.6680E-03,   7.28484E-03
C:/temp/dataset/9/17_1.odb,Step-1,Increment      1: Step Time =    1.000,"PART-1-1",           560,       6.15390,      -25.8136,            0.,NA,NA,"",   25.1318E-03,   13.7209E-03,   21.0557E-03,   5.80465E-03
C:/temp/dataset/9/17_1.odb,Step-1,Increment      1: Step Time =    1.000,"PART-1-1",           561,       7.23304,      -24.7696,            0.,NA,NA,"",   26.0413E-03,   17.1936E-03,   19.5583E-03,   4.41196E-03
C:/temp/dataset/9/17_1.odb,Step-1,Increment      1: Step Time =    1.000,"PART-1-1",           562,       13.0086,      -21.0119,            0.,NA,NA,"",   56.5205E-03,   48.5123E-03,  -29.0021E-03,   3.60710E-03
C:/temp/dataset/9/17_1.odb,Step-1,Increment      1: Step Time =    1.000,"PART-1-1",           563,       13.9664,      -22.3485,            0.,NA,NA,"",   49.7497E-03,   36.7749E-03,  -33.5058E-03,   4.94492E-03
C:/temp/dataset/9/17_1.odb,Step-1,Increment      1: Step Time =    1.000,"PART-1-1",           564,           15.,        -21.25,            0.,NA,NA,"",   70.5565E-03,   50.2895E-03,  -49.4892E-03,   6.36163E-03
C:/temp/dataset/9/17_1.odb,Step-1,Increment      1: Step Time =    1.000,"PART-1-1",           565,            5.,       -26.875,            0.,NA,NA,"",   23.7021E-03,   12.2668E-03,   20.2809E-03,   7.26832E-03
C:/temp/dataset/9/17_1.odb,Step-1,Increment      1: Step Time =    1.000,"PART-1-1",           566,       12.9745,      -6.51631,            0.,NA,NA,"",   346.005E-03,   337.187E-03,  -77.6143E-03,   3.40750E-03
C:/temp/dataset/9/17_1.odb,Step-1,Increment      1: Step Time =    1.000,"PART-1-1",           567,       14.0104,      -7.62731,            0.,NA,NA,"",   323.591E-03,   307.043E-03,  -102.154E-03,   4.83531E-03
C:/temp/dataset/9/17_1.odb,Step-1,Increment      1: Step Time =    1.000,"PART-1-1",           568,           15.,         -6.25,            0.,NA,NA,"",   374.617E-03,   348.417E-03,  -137.636E-03,   5.85464E-03
C:/temp/dataset/9/17_1.odb,Step-1,Increment      1: Step Time =    1.000,"PART-1-1",           569,       13.9641,      -5.13900,            0.,NA,NA,"",   396.268E-03,   380.081E-03,  -112.101E-03,   4.36556E-03
C:/temp/dataset/9/17_1.odb,Step-1,Increment      1: Step Time =    1.000,"PART-1-1",           570,       11.1649,      -16.2543,            0.,NA,NA,"",   113.642E-03,   112.795E-03,  -13.8465E-03,   1.05256E-03
C:/temp/dataset/9/17_1.odb,Step-1,Increment      1: Step Time =    1.000,"PART-1-1",           571,       9.14831,      -16.2933,            0.,NA,NA,"",   114.505E-03,   112.758E-03,   19.9250E-03,   1.70408E-03
C:/temp/dataset/9/17_1.odb,Step-1,Increment      1: Step Time =    1.000,"PART-1-1",           572,            5.,        -8.125,            0.,NA,NA,"",   330.733E-03,   299.625E-03,   140.033E-03,   7.56153E-03
C:/temp/dataset/9/17_1.odb,Step-1,Increment      1: Step Time =    1.000,"PART-1-1",           573,       12.8519,      -3.99254,            0.,NA,NA,"",   423.302E-03,   415.228E-03,  -82.2804E-03,   3.05797E-03
C:/temp/dataset/9/17_1.odb,Step-1,Increment      1: Step Time =    1.000,"PART-1-1",           574,           15.,         -3.75,            0.,NA,NA,"",   451.915E-03,   425.861E-03,  -151.227E-03,   4.98465E-03
C:/temp/dataset/9/17_1.odb,Step-1,Increment      1: Step Time =    1.000,"PART-1-1",           575,       13.8878,      -2.60354,            0.,NA,NA,"",   477.610E-03,   462.328E-03,  -119.848E-03,   3.51549E-03
C:/temp/dataset/9/17_1.odb,Step-1,Increment      1: Step Time =    1.000,"PART-1-1",           576,       13.0423,      -8.97351,            0.,NA,NA,"",   278.556E-03,   269.412E-03,  -70.7837E-03,   3.58492E-03
C:/temp/dataset/9/17_1.odb,Step-1,Increment      1: Step Time =    1.000,"PART-1-1",           577,           15.,         -8.75,            0.,NA,NA,"",   304.794E-03,   278.930E-03,  -122.870E-03,   6.25167E-03
C:/temp/dataset/9/17_1.odb,Step-1,Increment      1: Step Time =    1.000,"PART-1-1",           578,       8.09346,      -21.6433,            0.,NA,NA,"",   47.5747E-03,   41.6772E-03,   22.9425E-03,   3.15238E-03
C:/temp/dataset/9/17_1.odb,Step-1,Increment      1: Step Time =    1.000,"PART-1-1",           579,       8.17438,      -23.6967,            0.,NA,NA,"",   28.4571E-03,   23.1445E-03,   16.5571E-03,   3.07277E-03
C:/temp/dataset/9/17_1.odb,Step-1,Increment      1: Step Time =    1.000,"PART-1-1",           580,       8.10077,      -19.5616,            0.,NA,NA,"",   71.5996E-03,   65.6410E-03,   28.5966E-03,   3.13007E-03
C:/temp/dataset/9/17_1.odb,Step-1,Increment      1: Step Time =    1.000,"PART-1-1",           581,       8.11824,      -17.4194,            0.,NA,NA,"",   101.761E-03,   95.8643E-03,   34.1366E-03,   3.10175E-03
C:/temp/dataset/9/17_1.odb,Step-1,Increment      1: Step Time =    1.000,"PART-1-1",           582,          -15.,       22.3438,            0.,NA,NA,"",       1.70769,       1.42507,   940.949E-03,   124.472E-06
C:/temp/dataset/9/17_1.odb,Step-1,Increment      1: Step Time =    1.000,"PART-1-1",           583,      -12.5647,       21.7347,            0.,NA,NA,"",       1.63834,       1.40048,   850.192E-03,   92.1216E-06
C:/temp/dataset/9/17_1.odb,Step-1,Increment      1: Step Time =    1.000,"PART-1-1",           584,      -4.95050,       22.5220,            0.,NA,NA,"",       1.53092,       1.42329,   563.880E-03,   286.614E-06
C:/temp/dataset/9/17_1.odb,Step-1,Increment      1: Step Time =    1.000,"PART-1-1",           585,      -3.93081,       23.1260,            0.,NA,NA,"",       1.53749,       1.44516,   524.765E-03,   256.448E-06
C:/temp/dataset/9/17_1.odb,Step-1,Increment      1: Step Time =    1.000,"PART-1-1",           586,      -4.22857,       24.4244,            0.,NA,NA,"",       1.58755,       1.49464,   535.155E-03,   141.841E-06
C:/temp/dataset/9/17_1.odb,Step-1,Increment      1: Step Time =    1.000,"PART-1-1",           587,      -5.24826,       23.8204,            0.,NA,NA,"",       1.58059,       1.47261,   574.193E-03,   168.213E-06
C:/temp/dataset/9/17_1.odb,Step-1,Increment      1: Step Time =    1.000,"PART-1-1",           588,      -10.1110,       10.4874,            0.,NA,NA,"",       1.24416,   980.426E-03,   765.963E-03,   432.015E-06
C:/temp/dataset/9/17_1.odb,Step-1,Increment      1: Step Time =    1.000,"PART-1-1",           589,      -9.15687,       11.6944,            0.,NA,NA,"",       1.25762,       1.02496,   728.734E-03,   441.594E-06
C:/temp/dataset/9/17_1.odb,Step-1,Increment      1: Step Time =    1.000,"PART-1-1",           590,      -11.1597,       11.6149,            0.,NA,NA,"",       1.30204,       1.02335,   805.021E-03,   465.879E-06
C:/temp/dataset/9/17_1.odb,Step-1,Increment      1: Step Time =    1.000,"PART-1-1",           591,      -6.07359,       12.6401,            0.,NA,NA,"",       1.22184,       1.05773,   611.631E-03,   462.841E-06
C:/temp/dataset/9/17_1.odb,Step-1,Increment      1: Step Time =    1.000,"PART-1-1",           592,      -7.11512,       11.5321,            0.,NA,NA,"",       1.20787,       1.01724,   651.286E-03,   481.351E-06
C:/temp/dataset/9/17_1.odb,Step-1,Increment      1: Step Time =    1.000,"PART-1-1",           593,           -5.,         11.25,            0.,NA,NA,"",       1.15587,       1.00466,   571.588E-03,   699.859E-06
C:/temp/dataset/9/17_1.odb,Step-1,Increment      1: Step Time =    1.000,"PART-1-1",           594,      -10.0988,       8.37440,            0.,NA,NA,"",       1.18315,   900.710E-03,   767.187E-03,   429.774E-06
C:/temp/dataset/9/17_1.odb,Step-1,Increment      1: Step Time =    1.000,"PART-1-1",           595,      -9.11481,       9.38066,            0.,NA,NA,"",       1.18778,   938.073E-03,   728.593E-03,   458.708E-06
C:/temp/dataset/9/17_1.odb,Step-1,Increment      1: Step Time =    1.000,"PART-1-1",           596,      -11.0949,       9.48111,            0.,NA,NA,"",       1.23968,   943.177E-03,   804.498E-03,   471.137E-06
C:/temp/dataset/9/17_1.odb,Step-1,Increment      1: Step Time =    1.000,"PART-1-1",           597,      -11.8142,       15.6555,            0.,NA,NA,"",       1.43575,       1.17411,   826.344E-03,   400.707E-06
C:/temp/dataset/9/17_1.odb,Step-1,Increment      1: Step Time =    1.000,"PART-1-1",           598,      -13.4062,       15.6218,            0.,NA,NA,"",       1.47082,       1.17386,   886.208E-03,   330.363E-06
C:/temp/dataset/9/17_1.odb,Step-1,Increment      1: Step Time =    1.000,"PART-1-1",           599,      -12.4316,       14.7766,            0.,NA,NA,"",       1.42373,       1.14189,   850.336E-03,   395.926E-06
C:/temp/dataset/9/17_1.odb,Step-1,Increment      1: Step Time =    1.000,"PART-1-1",           600,      -5.72199,       20.2132,            0.,NA,NA,"",       1.46354,       1.33740,   594.408E-03,   648.506E-06
C:/temp/dataset/9/17_1.odb,Step-1,Increment      1: Step Time =    1.000,"PART-1-1",           601,           -5.,         18.75,            0.,NA,NA,"",       1.40375,       1.28340,   568.674E-03,   352.685E-06
C:/temp/dataset/9/17_1.odb,Step-1,Increment      1: Step Time =    1.000,"PART-1-1",           602,          -15.,       15.7813,            0.,NA,NA,"",       1.51269,       1.18072,   945.590E-03,   287.562E-06
C:/temp/dataset/9/17_1.odb,Step-1,Increment      1: Step Time =    1.000,"PART-1-1",           603,      -10.4105,       16.7429,            0.,NA,NA,"",       1.43853,       1.21342,   772.649E-03,   414.086E-06
C:/temp/dataset/9/17_1.odb,Step-1,Increment      1: Step Time =    1.000,"PART-1-1",           604,      -12.1928,       12.6381,            0.,NA,NA,"",       1.35624,       1.06219,   843.290E-03,   458.556E-06
C:/temp/dataset/9/17_1.odb,Step-1,Increment      1: Step Time =    1.000,"PART-1-1",           605,      -12.0987,       10.4443,            0.,NA,NA,"",       1.29200,   980.016E-03,   841.918E-03,   509.517E-06
C:/temp/dataset/9/17_1.odb,Step-1,Increment      1: Step Time =    1.000,"PART-1-1",           606,      -7.50325,       4.80693,            0.,NA,NA,"",       1.01383,   762.154E-03,   668.562E-03,   440.063E-06
C:/temp/dataset/9/17_1.odb,Step-1,Increment      1: Step Time =    1.000,"PART-1-1",           607,      -9.63824,       5.46172,            0.,NA,NA,"",       1.08981,   788.979E-03,   751.798E-03,   326.908E-06
C:/temp/dataset/9/17_1.odb,Step-1,Increment      1: Step Time =    1.000,"PART-1-1",           608,      -8.81234,       4.25317,            0.,NA,NA,"",       1.03387,   741.544E-03,   720.417E-03,   220.116E-06
C:/temp/dataset/9/17_1.odb,Step-1,Increment      1: Step Time =    1.000,"PART-1-1",           609,          -15.,      -1.71875,            0.,NA,NA,"",       1.09872,   508.804E-03,   973.812E-03,   1.18177E-03
C:/temp/dataset/9/17_1.odb,Step-1,Increment      1: Step Time =    1.000,"PART-1-1",           610,      -12.5835,      -1.75493,            0.,NA,NA,"",       1.01295,   506.590E-03,   877.176E-03,   928.078E-06
C:/temp/dataset/9/17_1.odb,Step-1,Increment      1: Step Time =    1.000,"PART-1-1",           611,        -11.25,           -5.,            0.,NA,NA,"",   909.819E-03,   375.327E-03,   828.794E-03,   878.665E-06
C:/temp/dataset/9/17_1.odb,Step-1,Increment      1: Step Time =    1.000,"PART-1-1",           612,      -10.0144,      -3.91217,            0.,NA,NA,"",   882.263E-03,   418.933E-03,   776.455E-03,   647.291E-06
C:/temp/dataset/9/17_1.odb,Step-1,Increment      1: Step Time =    1.000,"PART-1-1",           613,      -11.2827,      -2.82422,            0.,NA,NA,"",   947.472E-03,   463.253E-03,   826.499E-03,   850.181E-06
C:/temp/dataset/9/17_1.odb,Step-1,Increment      1: Step Time =    1.000,"PART-1-1",           614,         -8.75,           -5.,            0.,NA,NA,"",   816.317E-03,   373.855E-03,   725.676E-03,   378.468E-06
C:/temp/dataset/9/17_1.odb,Step-1,Increment      1: Step Time =    1.000,"PART-1-1",           615,      -7.54904,      -4.01671,            0.,NA,NA,"",   792.239E-03,   413.070E-03,   676.029E-03,   292.601E-06
C:/temp/dataset/9/17_1.odb,Step-1,Increment      1: Step Time =    1.000,"PART-1-1",           616,      -8.81345,      -2.92887,            0.,NA,NA,"",   858.543E-03,   457.699E-03,   726.366E-03,   424.405E-06
C:/temp/dataset/9/17_1.odb,Step-1,Increment      1: Step Time =    1.000,"PART-1-1",           617,  -969.738E-03,       22.2544,            0.,NA,NA,"",       1.46802,       1.40894,   412.278E-03,   434.625E-06
C:/temp/dataset/9/17_1.odb,Step-1,Increment      1: Step Time =    1.000,"PART-1-1",           618,      -2.31964,       21.1016,            0.,NA,NA,"",       1.44339,       1.36659,   464.567E-03,   572.433E-06
C:/temp/dataset/9/17_1.odb,Step-1,Increment      1: Step Time =    1.000,"PART-1-1",           619,         -1.25,           20.,            0.,NA,NA,"",       1.38934,       1.32303,   424.104E-03,   671.844E-06
C:/temp/dataset/9/17_1.odb,Step-1,Increment      1: Step Time =    1.000,"PART-1-1",           620,         -1.25,           30.,            0.,NA,NA,"",       1.75525,       1.70490,   417.376E-03,   303.857E-06
C:/temp/dataset/9/17_1.odb,Step-1,Increment      1: Step Time =    1.000,"PART-1-1",           621,      -1.44357,       27.1449,            0.,NA,NA,"",       1.65216,       1.59600,   427.100E-03,   68.1691E-06
C:/temp/dataset/9/17_1.odb,Step-1,Increment      1: Step Time =    1.000,"PART-1-1",           622,      -4.58492,       21.1383,            0.,NA,NA,"",       1.47736,       1.37074,   551.051E-03,   597.910E-06
C:/temp/dataset/9/17_1.odb,Step-1,Increment      1: Step Time =    1.000,"PART-1-1",           623,         -3.75,           20.,            0.,NA,NA,"",       1.42475,       1.32660,   519.667E-03,   941.564E-06
C:/temp/dataset/9/17_1.odb,Step-1,Increment      1: Step Time =    1.000,"PART-1-1",           624,      -3.15456,       22.2398,            0.,NA,NA,"",       1.49542,       1.41083,   495.836E-03,   364.221E-06
C:/temp/dataset/9/17_1.odb,Step-1,Increment      1: Step Time =    1.000,"PART-1-1",           625,      -11.2479,       22.4027,            0.,NA,NA,"",       1.63391,       1.42442,   800.428E-03,   128.170E-06
C:/temp/dataset/9/17_1.odb,Step-1,Increment      1: Step Time =    1.000,"PART-1-1",           626,      -10.3888,       20.8027,            0.,NA,NA,"",       1.56592,       1.36398,   769.197E-03,   235.424E-06
C:/temp/dataset/9/17_1.odb,Step-1,Increment      1: Step Time =    1.000,"PART-1-1",           627,       9.41561,      -24.6142,            0.,NA,NA,"",   16.4360E-03,   15.2967E-03,   6.01251E-03,   1.36616E-03
C:/temp/dataset/9/17_1.odb,Step-1,Increment      1: Step Time =    1.000,"PART-1-1",           628,           15.,        -16.25,            0.,NA,NA,"",   142.235E-03,   118.660E-03,  -78.4261E-03,   6.32612E-03
C:/temp/dataset/9/17_1.odb,Step-1,Increment      1: Step Time =    1.000,"PART-1-1",           629,       13.1096,      -16.2411,            0.,NA,NA,"",   123.900E-03,   114.805E-03,  -46.5932E-03,   3.72521E-03
C:/temp/dataset/9/17_1.odb,Step-1,Increment      1: Step Time =    1.000,"PART-1-1",           630,           15.,          3.75,            0.,NA,NA,"",   711.352E-03,   688.783E-03,  -177.763E-03,   1.87218E-03
C:/temp/dataset/9/17_1.odb,Step-1,Increment      1: Step Time =    1.000,"PART-1-1",           631,       14.0093,       5.06690,            0.,NA,NA,"",   751.087E-03,   737.097E-03,  -144.287E-03,   1.32451E-03
C:/temp/dataset/9/17_1.odb,Step-1,Increment      1: Step Time =    1.000,"PART-1-1",           632,       12.9168,       3.88721,            0.,NA,NA,"",   701.381E-03,   693.829E-03,  -102.643E-03,   1.30486E-03
C:/temp/dataset/9/17_1.odb,Step-1,Increment      1: Step Time =    1.000,"PART-1-1",           633,       12.6026,       11.0965,            0.,NA,NA,"",   968.471E-03,   963.169E-03,  -101.201E-03,   636.321E-06
C:/temp/dataset/9/17_1.odb,Step-1,Increment      1: Step Time =    1.000,"PART-1-1",           634,           15.,         11.25,            0.,NA,NA,"",   987.013E-03,   968.146E-03,  -192.064E-03,   1.02584E-03
C:/temp/dataset/9/17_1.odb,Step-1,Increment      1: Step Time =    1.000,"PART-1-1",           635,       12.4669,       18.7361,            0.,NA,NA,"",       1.26255,       1.25825,  -104.104E-03,   334.470E-06
C:/temp/dataset/9/17_1.odb,Step-1,Increment      1: Step Time =    1.000,"PART-1-1",           636,           15.,         18.75,            0.,NA,NA,"",       1.27329,       1.25714,  -202.159E-03,   311.495E-06
C:/temp/dataset/9/17_1.odb,Step-1,Increment      1: Step Time =    1.000,"PART-1-1",           637,           15.,         26.25,            0.,NA,NA,"",       1.56284,       1.54889,  -208.371E-03,   8.37882E-06
C:/temp/dataset/9/17_1.odb,Step-1,Increment      1: Step Time =    1.000,"PART-1-1",           638,          8.75,           30.,            0.,NA,NA,"",       1.69938,       1.69909,   31.4310E-03,   50.5978E-06
C:/temp/dataset/9/17_1.odb,Step-1,Increment      1: Step Time =    1.000,"PART-1-1",           639,       8.74802,       27.8391,            0.,NA,NA,"",       1.61567,       1.61533,   33.1480E-03,   43.3628E-06
C:/temp/dataset/9/17_1.odb,Step-1,Increment      1: Step Time =    1.000,"PART-1-1",           640,       11.0691,       22.4572,            0.,NA,NA,"",       1.40544,       1.40444,  -53.0516E-03,   188.761E-06
C:/temp/dataset/9/17_1.odb,Step-1,Increment      1: Step Time =    1.000,"PART-1-1",           641,       11.1947,       19.9658,            0.,NA,NA,"",       1.30837,       1.30717,  -56.0821E-03,   317.328E-06
C:/temp/dataset/9/17_1.odb,Step-1,Increment      1: Step Time =    1.000,"PART-1-1",           642,          3.75,           30.,            0.,NA,NA,"",       1.71718,       1.70236,   225.113E-03,   183.413E-06
C:/temp/dataset/9/17_1.odb,Step-1,Increment      1: Step Time =    1.000,"PART-1-1",           643,       6.12801,       21.9878,            0.,NA,NA,"",       1.39782,       1.39094,   138.567E-03,   387.503E-06
C:/temp/dataset/9/17_1.odb,Step-1,Increment      1: Step Time =    1.000,"PART-1-1",           644,       7.06684,       23.0702,            0.,NA,NA,"",       1.43559,       1.43199,   101.541E-03,   288.960E-06
C:/temp/dataset/9/17_1.odb,Step-1,Increment      1: Step Time =    1.000,"PART-1-1",           645,       4.97038,       22.7185,            0.,NA,NA,"",       1.43224,       1.42049,   183.085E-03,   304.322E-06
C:/temp/dataset/9/17_1.odb,Step-1,Increment      1: Step Time =    1.000,"PART-1-1",           646,          3.75,           20.,            0.,NA,NA,"",       1.33672,       1.31645,   231.920E-03,   705.583E-06
C:/temp/dataset/9/17_1.odb,Step-1,Increment      1: Step Time =    1.000,"PART-1-1",           647,       4.96897,       20.9583,            0.,NA,NA,"",       1.36470,       1.35222,   184.174E-03,   491.966E-06
C:/temp/dataset/9/17_1.odb,Step-1,Increment      1: Step Time =    1.000,"PART-1-1",           648,       3.78616,       22.0655,            0.,NA,NA,"",       1.41516,       1.39645,   229.378E-03,   331.174E-06
C:/temp/dataset/9/17_1.odb,Step-1,Increment      1: Step Time =    1.000,"PART-1-1",           649,           -5.,         13.75,            0.,NA,NA,"",       1.23781,       1.09816,   571.149E-03,   463.965E-06
C:/temp/dataset/9/17_1.odb,Step-1,Increment      1: Step Time =    1.000,"PART-1-1",           650,      -7.15256,       14.0792,            0.,NA,NA,"",       1.28907,       1.11225,   651.611E-03,   368.879E-06
C:/temp/dataset/9/17_1.odb,Step-1,Increment      1: Step Time =    1.000,"PART-1-1",           651,      -9.70164,       19.1500,            0.,NA,NA,"",       1.49975,       1.30198,   744.385E-03,   381.769E-06
C:/temp/dataset/9/17_1.odb,Step-1,Increment      1: Step Time =    1.000,"PART-1-1",           652,      -9.13060,       21.5024,            0.,NA,NA,"",       1.56522,       1.38898,   721.567E-03,   266.165E-06
C:/temp/dataset/9/17_1.odb,Step-1,Increment      1: Step Time =    1.000,"PART-1-1",           653,         -1.25,           -5.,            0.,NA,NA,"",   563.755E-03,   372.565E-03,   423.101E-03,   1.25003E-03
C:/temp/dataset/9/17_1.odb,Step-1,Increment      1: Step Time =    1.000,"PART-1-1",           654,      -1.47244,      -2.77860,            0.,NA,NA,"",   629.493E-03,   460.453E-03,   429.236E-03,   1.16759E-03
C:/temp/dataset/9/17_1.odb,Step-1,Increment      1: Step Time =    1.000,"PART-1-1",           655,      -9.96758,      -1.61086,            0.,NA,NA,"",   925.633E-03,   511.120E-03,   771.721E-03,   517.059E-06
C:/temp/dataset/9/17_1.odb,Step-1,Increment      1: Step Time =    1.000,"PART-1-1",           656,      -6.37223,      -3.07632,            0.,NA,NA,"",   772.323E-03,   450.183E-03,   627.548E-03,   420.219E-06
C:/temp/dataset/9/17_1.odb,Step-1,Increment      1: Step Time =    1.000,"PART-1-1",           657,         -6.25,           -5.,            0.,NA,NA,"",   727.340E-03,   372.870E-03,   624.493E-03,   515.113E-06
C:/temp/dataset/9/17_1.odb,Step-1,Increment      1: Step Time =    1.000,"PART-1-1",           658,         -3.75,            5.,            0.,NA,NA,"",   924.292E-03,   766.515E-03,   516.498E-03,   650.942E-06
C:/temp/dataset/9/17_1.odb,Step-1,Increment      1: Step Time =    1.000,"PART-1-1",           659,      -5.11170,       4.23117,            0.,NA,NA,"",   933.885E-03,   737.014E-03,   573.542E-03,   1.36987E-03
C:/temp/dataset/9/17_1.odb,Step-1,Increment      1: Step Time =    1.000,"PART-1-1",           660,      -3.95473,       3.29190,            0.,NA,NA,"",   874.304E-03,   698.396E-03,   525.975E-03,   1.28223E-03
C:/temp/dataset/9/17_1.odb,Step-1,Increment      1: Step Time =    1.000,"PART-1-1",           661,          3.75,           -5.,            0.,NA,NA,"",   437.813E-03,   377.690E-03,   221.428E-03,   4.78963E-03
C:/temp/dataset/9/17_1.odb,Step-1,Increment      1: Step Time =    1.000,"PART-1-1",           662,       4.69008,      -3.66648,            0.,NA,NA,"",   465.262E-03,   428.865E-03,   180.399E-03,   4.88504E-03
C:/temp/dataset/9/17_1.odb,Step-1,Increment      1: Step Time =    1.000,"PART-1-1",           663,       4.69636,       3.71818,            0.,NA,NA,"",   724.616E-03,   699.749E-03,   188.198E-03,   2.03981E-03
C:/temp/dataset/9/17_1.odb,Step-1,Increment      1: Step Time =    1.000,"PART-1-1",           664,          3.75,            5.,            0.,NA,NA,"",   780.966E-03,   748.581E-03,   222.561E-03,   2.56061E-03
C:/temp/dataset/9/17_1.odb,Step-1,Increment      1: Step Time =    1.000,"PART-1-1",           665,       8.42013,       25.7200,            0.,NA,NA,"",       1.53422,       1.53349,   47.3828E-03,   101.663E-06
C:/temp/dataset/9/17_1.odb,Step-1,Increment      1: Step Time =    1.000,"PART-1-1",           666,       7.55622,       27.1849,            0.,NA,NA,"",       1.59291,       1.59091,   79.8671E-03,   72.9545E-06
C:/temp/dataset/9/17_1.odb,Step-1,Increment      1: Step Time =    1.000,"PART-1-1",           667,       6.61388,       26.0906,            0.,NA,NA,"",       1.55377,       1.54934,   117.194E-03,   122.649E-06
C:/temp/dataset/9/17_1.odb,Step-1,Increment      1: Step Time =    1.000,"PART-1-1",           668,       10.0237,       13.5556,            0.,NA,NA,"",       1.05885,       1.05884,  -6.32361E-03,   452.192E-06
C:/temp/dataset/9/17_1.odb,Step-1,Increment      1: Step Time =    1.000,"PART-1-1",           669,       8.80148,       12.2659,            0.,NA,NA,"",       1.01102,       1.01020,   40.6363E-03,   478.636E-06
C:/temp/dataset/9/17_1.odb,Step-1,Increment      1: Step Time =    1.000,"PART-1-1",           670,            5.,          6.25,            0.,NA,NA,"",   808.844E-03,   788.436E-03,   180.546E-03,   1.99707E-03
C:/temp/dataset/9/17_1.odb,Step-1,Increment      1: Step Time =    1.000,"PART-1-1",           671,       5.87545,       4.76801,            0.,NA,NA,"",   749.323E-03,   734.564E-03,   147.990E-03,   2.13844E-03
C:/temp/dataset/9/17_1.odb,Step-1,Increment      1: Step Time =    1.000,"PART-1-1",           672,       6.93940,       5.78737,            0.,NA,NA,"",   777.149E-03,   769.249E-03,   110.532E-03,   1.16946E-03
C:/temp/dataset/9/17_1.odb,Step-1,Increment      1: Step Time =    1.000,"PART-1-1",           673,       7.73520,       4.18036,            0.,NA,NA,"",   714.290E-03,   709.654E-03,   81.2510E-03,   1.58413E-03
C:/temp/dataset/9/17_1.odb,Step-1,Increment      1: Step Time =    1.000,"PART-1-1",           674,       6.49581,       3.34316,            0.,NA,NA,"",   692.939E-03,   681.671E-03,   124.456E-03,   2.28186E-03
C:/temp/dataset/9/17_1.odb,Step-1,Increment      1: Step Time =    1.000,"PART-1-1",           675,       7.18979,       1.82766,            0.,NA,NA,"",   632.386E-03,   624.641E-03,   98.6642E-03,   2.25675E-03
C:/temp/dataset/9/17_1.odb,Step-1,Increment      1: Step Time =    1.000,"PART-1-1",           676,       8.42918,       2.66485,            0.,NA,NA,"",   655.435E-03,   653.033E-03,   56.0616E-03,   1.80668E-03
C:/temp/dataset/9/17_1.odb,Step-1,Increment      1: Step Time =    1.000,"PART-1-1",           677,  -530.051E-03,       1.39108,            0.,NA,NA,"",   731.866E-03,   620.708E-03,   387.749E-03,   1.18502E-03
C:/temp/dataset/9/17_1.odb,Step-1,Increment      1: Step Time =    1.000,"PART-1-1",           678,      -10.1792,       3.73358,            0.,NA,NA,"",       1.05906,   722.207E-03,   774.608E-03,   303.812E-06
C:/temp/dataset/9/17_1.odb,Step-1,Increment      1: Step Time =    1.000,"PART-1-1",           679,      -9.26781,       2.30942,            0.,NA,NA,"",   995.323E-03,   665.753E-03,   739.892E-03,   246.533E-06
C:/temp/dataset/9/17_1.odb,Step-1,Increment      1: Step Time =    1.000,"PART-1-1",           680,      -7.90097,       2.82902,            0.,NA,NA,"",   968.940E-03,   685.007E-03,   685.281E-03,   389.218E-06
C:/temp/dataset/9/17_1.odb,Step-1,Increment      1: Step Time =    1.000,"PART-1-1",           681,      -2.90861,       2.25641,            0.,NA,NA,"",   815.436E-03,   656.643E-03,   483.483E-03,   1.27863E-03
C:/temp/dataset/9/17_1.odb,Step-1,Increment      1: Step Time =    1.000,"PART-1-1",           682,      -1.97153,   737.020E-03,            0.,NA,NA,"",   745.271E-03,   596.889E-03,   446.264E-03,   1.29873E-03
C:/temp/dataset/9/17_1.odb,Step-1,Increment      1: Step Time =    1.000,"PART-1-1",           683,      -12.0057,       8.33468,            0.,NA,NA,"",       1.23176,   900.286E-03,   840.664E-03,   551.782E-06
C:/temp/dataset/9/17_1.odb,Step-1,Increment      1: Step Time =    1.000,"PART-1-1",           684,   257.111E-03,       23.5381,            0.,NA,NA,"",       1.50166,       1.45676,   364.463E-03,   294.594E-06
C:/temp/dataset/9/17_1.odb,Step-1,Increment      1: Step Time =    1.000,"PART-1-1",           685,       2.92443,       23.5127,            0.,NA,NA,"",       1.47657,       1.45318,   261.780E-03,   267.164E-06
C:/temp/dataset/9/17_1.odb,Step-1,Increment      1: Step Time =    1.000,"PART-1-1",           686,  -872.814E-03,       24.6452,            0.,NA,NA,"",       1.55441,       1.50016,   407.073E-03,   187.335E-06
C:/temp/dataset/9/17_1.odb,Step-1,Increment      1: Step Time =    1.000,"PART-1-1",           687,      -2.49287,       25.7554,            0.,NA,NA,"",       1.61325,       1.54382,   468.195E-03,   72.0136E-06
C:/temp/dataset/9/17_1.odb,Step-1,Increment      1: Step Time =    1.000,"PART-1-1",           688,      -6.57000,       23.0679,            0.,NA,NA,"",       1.57449,       1.44533,   624.529E-03,   228.506E-06
C:/temp/dataset/9/17_1.odb,Step-1,Increment      1: Step Time =    1.000,"PART-1-1",           689,      -7.77911,       22.2181,            0.,NA,NA,"",       1.56535,       1.41450,   670.445E-03,   256.056E-06
C:/temp/dataset/9/17_1.odb,Step-1,Increment      1: Step Time =    1.000,"PART-1-1",           690,      -6.08757,       21.5970,            0.,NA,NA,"",       1.51648,       1.38955,   607.348E-03,   385.773E-06
C:/temp/dataset/9/17_1.odb,Step-1,Increment      1: Step Time =    1.000,"PART-1-1",           691,      -10.6596,       24.7502,            0.,NA,NA,"",       1.69993,       1.51202,   776.876E-03,   110.781E-06
C:/temp/dataset/9/17_1.odb,Step-1,Increment      1: Step Time =    1.000,"PART-1-1",           692,      -8.94190,       25.0911,            0.,NA,NA,"",       1.68181,       1.52354,   712.251E-03,   121.517E-06
C:/temp/dataset/9/17_1.odb,Step-1,Increment      1: Step Time =    1.000,"PART-1-1",           693,      -9.30563,       26.3338,            0.,NA,NA,"",       1.72992,       1.57065,   725.037E-03,   122.257E-06
C:/temp/dataset/9/17_1.odb,Step-1,Increment      1: Step Time =    1.000,"PART-1-1",           694,      -11.0233,       25.9928,            0.,NA,NA,"",       1.74762,       1.55904,   789.671E-03,   105.846E-06
C:/temp/dataset/9/17_1.odb,Step-1,Increment      1: Step Time =    1.000,"PART-1-1",           695,      -9.11986,       17.2561,            0.,NA,NA,"",       1.42834,       1.23143,   723.697E-03,   451.944E-06
C:/temp/dataset/9/17_1.odb,Step-1,Increment      1: Step Time =    1.000,"PART-1-1",           696,      -11.0116,       7.65423,            0.,NA,NA,"",       1.18684,   873.879E-03,   803.078E-03,   465.468E-06
C:/temp/dataset/9/17_1.odb,Step-1,Increment      1: Step Time =    1.000,"PART-1-1",           697,      -11.6541,       6.30856,            0.,NA,NA,"",       1.16826,   822.739E-03,   829.422E-03,   538.386E-06
C:/temp/dataset/9/17_1.odb,Step-1,Increment      1: Step Time =    1.000,"PART-1-1",           698,      -3.46647,   792.949E-03,            0.,NA,NA,"",   785.784E-03,   600.367E-03,   506.968E-03,   1.22282E-03
C:/temp/dataset/9/17_1.odb,Step-1,Increment      1: Step Time =    1.000,"PART-1-1",           699,      -4.27899,       1.61468,            0.,NA,NA,"",   832.002E-03,   633.225E-03,   539.679E-03,   1.22292E-03
C:/temp/dataset/9/17_1.odb,Step-1,Increment      1: Step Time =    1.000,"PART-1-1",           700,      -5.41602,       1.03976,            0.,NA,NA,"",   847.375E-03,   611.991E-03,   586.098E-03,   995.461E-06
C:/temp/dataset/9/17_1.odb,Step-1,Increment      1: Step Time =    1.000,"PART-1-1",           701,      -4.60351,   218.037E-03,            0.,NA,NA,"",   801.011E-03,   579.013E-03,   553.501E-03,   1.01416E-03
C:/temp/dataset/9/17_1.odb,Step-1,Increment      1: Step Time =    1.000,"PART-1-1",           702,      -1.96165,  -510.209E-03,            0.,NA,NA,"",   707.613E-03,   548.735E-03,   446.772E-03,   1.16471E-03
C:/temp/dataset/9/17_1.odb,Step-1,Increment      1: Step Time =    1.000,"PART-1-1",           703,      -2.89723,      -2.02996,            0.,NA,NA,"",   690.139E-03,   490.010E-03,   485.985E-03,   958.237E-06
C:/temp/dataset/9/17_1.odb,Step-1,Increment      1: Step Time =    1.000,"PART-1-1",           704,       6.46823,      -3.22891,            0.,NA,NA,"",   457.139E-03,   441.922E-03,   116.966E-03,   3.09404E-03
C:/temp/dataset/9/17_1.odb,Step-1,Increment      1: Step Time =    1.000,"PART-1-1",           705,       5.30305,      -2.18626,            0.,NA,NA,"",   507.369E-03,   481.328E-03,   160.459E-03,   2.70187E-03
C:/temp/dataset/9/17_1.odb,Step-1,Increment      1: Step Time =    1.000,"PART-1-1",           706,       8.11637,      -13.0290,            0.,NA,NA,"",   181.302E-03,   175.453E-03,   45.6797E-03,   3.10643E-03
C:/temp/dataset/9/17_1.odb,Step-1,Increment      1: Step Time =    1.000,"PART-1-1",           707,       8.09759,      -10.8135,            0.,NA,NA,"",   230.374E-03,   224.486E-03,   51.7511E-03,   3.09994E-03
C:/temp/dataset/9/17_1.odb,Step-1,Increment      1: Step Time =    1.000,"PART-1-1",           708,           15.,        -26.25,            0.,NA,NA,"",   24.3670E-03,   12.6549E-03,  -20.8232E-03,   6.36200E-03
C:/temp/dataset/9/17_1.odb,Step-1,Increment      1: Step Time =    1.000,"PART-1-1",           709,       13.6129,      -24.9005,            0.,NA,NA,"",   25.7897E-03,   16.4028E-03,  -19.9012E-03,   4.48632E-03
C:/temp/dataset/9/17_1.odb,Step-1,Increment      1: Step Time =    1.000,"PART-1-1",           710,       12.3352,      -26.1538,            0.,NA,NA,"",   11.7088E-03,   7.59246E-03,  -8.91351E-03,   2.76617E-03
C:/temp/dataset/9/17_1.odb,Step-1,Increment      1: Step Time =    1.000,"PART-1-1",           711,       11.5115,      -24.0900,            0.,NA,NA,"",   20.6455E-03,   18.9447E-03,  -8.20587E-03,   1.57826E-03
C:/temp/dataset/9/17_1.odb,Step-1,Increment      1: Step Time =    1.000,"PART-1-1",           712,       12.5793,      -23.4990,            0.,NA,NA,"",   30.0477E-03,   24.4776E-03,  -17.4274E-03,   3.06420E-03
C:/temp/dataset/9/17_1.odb,Step-1,Increment      1: Step Time =    1.000,"PART-1-1",           713,       11.9958,      -21.9645,            0.,NA,NA,"",   40.6575E-03,   37.3855E-03,  -15.9797E-03,   2.22373E-03
C:/temp/dataset/9/17_1.odb,Step-1,Increment      1: Step Time =    1.000,"PART-1-1",           714,           15.,        -23.75,            0.,NA,NA,"",   44.6286E-03,   27.5992E-03,  -35.0712E-03,   6.35472E-03
C:/temp/dataset/9/17_1.odb,Step-1,Increment      1: Step Time =    1.000,"PART-1-1",           715,       11.0775,      -9.24199,            0.,NA,NA,"",   261.678E-03,   260.917E-03,  -19.9416E-03,   1.10421E-03
C:/temp/dataset/9/17_1.odb,Step-1,Increment      1: Step Time =    1.000,"PART-1-1",           716,       10.0590,      -8.23408,            0.,NA,NA,"",   287.288E-03,   287.232E-03,   5.70061E-03,   354.924E-06
C:/temp/dataset/9/17_1.odb,Step-1,Increment      1: Step Time =    1.000,"PART-1-1",           717,       9.08966,      -9.54059,            0.,NA,NA,"",   255.768E-03,   253.989E-03,   30.1158E-03,   1.60694E-03
C:/temp/dataset/9/17_1.odb,Step-1,Increment      1: Step Time =    1.000,"PART-1-1",           718,           15.,         -1.25,            0.,NA,NA,"",   535.141E-03,   509.857E-03,  -162.551E-03,   3.79140E-03
C:/temp/dataset/9/17_1.odb,Step-1,Increment      1: Step Time =    1.000,"PART-1-1",           719,       12.7047,      -1.36075,            0.,NA,NA,"",   511.397E-03,   504.310E-03,  -84.8450E-03,   2.52269E-03
C:/temp/dataset/9/17_1.odb,Step-1,Increment      1: Step Time =    1.000,"PART-1-1",           720,       10.4122,      -1.52824,            0.,NA,NA,"",   498.614E-03,   498.509E-03,  -10.2138E-03,   2.04942E-03
C:/temp/dataset/9/17_1.odb,Step-1,Increment      1: Step Time =    1.000,"PART-1-1",           721,       11.7321,      -2.88547,            0.,NA,NA,"",   454.154E-03,   451.366E-03,  -50.2429E-03,   2.35358E-03
C:/temp/dataset/9/17_1.odb,Step-1,Increment      1: Step Time =    1.000,"PART-1-1",           722,       13.0447,       6.32641,            0.,NA,NA,"",   791.698E-03,   783.860E-03,  -111.128E-03,   997.246E-06
C:/temp/dataset/9/17_1.odb,Step-1,Increment      1: Step Time =    1.000,"PART-1-1",           723,           15.,          6.25,            0.,NA,NA,"",   801.900E-03,   780.728E-03,  -183.052E-03,   1.45433E-03
C:/temp/dataset/9/17_1.odb,Step-1,Increment      1: Step Time =    1.000,"PART-1-1",           724,       12.2773,       7.44357,            0.,NA,NA,"",   830.007E-03,   825.695E-03,  -84.4983E-03,   717.054E-06
C:/temp/dataset/9/17_1.odb,Step-1,Increment      1: Step Time =    1.000,"PART-1-1",           725,       11.3989,       9.46443,            0.,NA,NA,"",   903.560E-03,   901.925E-03,  -54.3310E-03,   500.681E-06
C:/temp/dataset/9/17_1.odb,Step-1,Increment      1: Step Time =    1.000,"PART-1-1",           726,       10.0696,       10.6576,            0.,NA,NA,"",   947.907E-03,   947.889E-03,  -5.88524E-03,   443.367E-06
C:/temp/dataset/9/17_1.odb,Step-1,Increment      1: Step Time =    1.000,"PART-1-1",           727,       11.2733,       12.2896,            0.,NA,NA,"",       1.01076,       1.00940,  -52.4504E-03,   458.570E-06
C:/temp/dataset/9/17_1.odb,Step-1,Increment      1: Step Time =    1.000,"PART-1-1",           728,       11.2495,       14.9235,            0.,NA,NA,"",       1.11215,       1.11084,  -53.9907E-03,   432.282E-06
C:/temp/dataset/9/17_1.odb,Step-1,Increment      1: Step Time =    1.000,"PART-1-1",           729,       11.2365,       17.4638,            0.,NA,NA,"",       1.21081,       1.20953,  -55.6999E-03,   399.180E-06
C:/temp/dataset/9/17_1.odb,Step-1,Increment      1: Step Time =    1.000,"PART-1-1",           730,       9.96430,       18.6935,            0.,NA,NA,"",       1.25850,       1.25847,  -7.80005E-03,   420.916E-06
C:/temp/dataset/9/17_1.odb,Step-1,Increment      1: Step Time =    1.000,"PART-1-1",           731,       8.12949,      -15.2371,            0.,NA,NA,"",   138.287E-03,   132.463E-03,   39.7093E-03,   3.08475E-03
C:/temp/dataset/9/17_1.odb,Step-1,Increment      1: Step Time =    1.000,"PART-1-1",           732,       10.9896,      -6.85237,            0.,NA,NA,"",   326.468E-03,   325.800E-03,  -20.8734E-03,   1.40250E-03
C:/temp/dataset/9/17_1.odb,Step-1,Increment      1: Step Time =    1.000,"PART-1-1",           733,       10.9332,      -25.1906,            0.,NA,NA,"",   11.9651E-03,   11.4935E-03,  -3.32609E-03,   796.119E-06
C:/temp/dataset/9/17_1.odb,Step-1,Increment      1: Step Time =    1.000,"PART-1-1",           734,       11.9281,      -5.46067,            0.,NA,NA,"",   371.355E-03,   367.911E-03,  -50.4551E-03,   2.41955E-03
C:/temp/dataset/9/17_1.odb,Step-1,Increment      1: Step Time =    1.000,"PART-1-1",           735,      -11.5697,       3.18107,            0.,NA,NA,"",       1.08662,   701.418E-03,   829.908E-03,   535.330E-06
C:/temp/dataset/9/17_1.odb,Step-1,Increment      1: Step Time =    1.000,"PART-1-1",           736,      -10.7341,       2.09613,            0.,NA,NA,"",       1.03470,   658.382E-03,   798.209E-03,   403.930E-06
C:/temp/dataset/9/17_1.odb,Step-1,Increment      1: Step Time =    1.000,"PART-1-1",           737,      -6.76822,       1.80268,            0.,NA,NA,"",   907.833E-03,   643.436E-03,   640.431E-03,   752.324E-06
C:/temp/dataset/9/17_1.odb,Step-1,Increment      1: Step Time =    1.000,"PART-1-1",           738,      -5.32511,       2.65016,            0.,NA,NA,"",   891.269E-03,   675.012E-03,   581.995E-03,   1.19210E-03
C:/temp/dataset/9/17_1.odb,Step-1,Increment      1: Step Time =    1.000,"PART-1-1",           739,      -6.45786,       3.67650,            0.,NA,NA,"",   952.733E-03,   716.856E-03,   627.549E-03,   861.150E-06
C:/temp/dataset/9/17_1.odb,Step-1,Increment      1: Step Time =    1.000,"PART-1-1",           740,      -10.1618,       27.4009,            0.,NA,NA,"",       1.78014,       1.61145,   756.388E-03,   110.274E-06
C:/temp/dataset/9/17_1.odb,Step-1,Increment      1: Step Time =    1.000,"PART-1-1",           741,      -8.15950,       27.0742,            0.,NA,NA,"",       1.73704,       1.59778,   681.477E-03,   119.057E-06
C:/temp/dataset/9/17_1.odb,Step-1,Increment      1: Step Time =    1.000,"PART-1-1",           742,      -8.41457,       23.7439,            0.,NA,NA,"",       1.62747,       1.47239,   693.358E-03,   172.614E-06
C:/temp/dataset/9/17_1.odb,Step-1,Increment      1: Step Time =    1.000,"PART-1-1",           743,      -9.76606,       23.0282,            0.,NA,NA,"",       1.62697,       1.44664,   744.490E-03,   142.378E-06
C:/temp/dataset/9/17_1.odb,Step-1,Increment      1: Step Time =    1.000,"PART-1-1",           744,      -10.1457,       6.57799,            0.,NA,NA,"",       1.13422,   832.262E-03,   770.577E-03,   384.121E-06
C:/temp/dataset/9/17_1.odb,Step-1,Increment      1: Step Time =    1.000,"PART-1-1",           745,      -11.1466,       5.19230,            0.,NA,NA,"",       1.12481,   779.448E-03,   810.959E-03,   461.360E-06
C:/temp/dataset/9/17_1.odb,Step-1,Increment      1: Step Time =    1.000,"PART-1-1",           746,       7.77017,   782.991E-03,            0.,NA,NA,"",   590.284E-03,   585.146E-03,   77.7142E-03,   2.29008E-03
C:/temp/dataset/9/17_1.odb,Step-1,Increment      1: Step Time =    1.000,"PART-1-1",           747,       6.09501,       1.10589,            0.,NA,NA,"",   615.595E-03,   600.307E-03,   136.340E-03,   2.28816E-03
C:/temp/dataset/9/17_1.odb,Step-1,Increment      1: Step Time =    1.000,"PART-1-1",           748,       6.67539,   61.2235E-03,            0.,NA,NA,"",   572.347E-03,   560.710E-03,   114.827E-03,   2.32107E-03
C:/temp/dataset/9/17_1.odb,Step-1,Increment      1: Step Time =    1.000,"PART-1-1",           749,       5.31672,       2.29333,            0.,NA,NA,"",   666.500E-03,   645.739E-03,   165.057E-03,   2.12817E-03
C:/temp/dataset/9/17_1.odb,Step-1,Increment      1: Step Time =    1.000,"PART-1-1",           750,      -6.94695,       24.4689,            0.,NA,NA,"",       1.62858,       1.49851,   637.756E-03,   144.486E-06
C:/temp/dataset/9/17_1.odb,Step-1,Increment      1: Step Time =    1.000,"PART-1-1",           751,      -2.09966,       23.3616,            0.,NA,NA,"",       1.52191,       1.45236,   454.846E-03,   325.734E-06
C:/temp/dataset/9/17_1.odb,Step-1,Increment      1: Step Time =    1.000,"PART-1-1",           752,      -2.87591,       24.2478,            0.,NA,NA,"",       1.56353,       1.48677,   483.872E-03,   179.904E-06
C:/temp/dataset/9/17_1.odb,Step-1,Increment      1: Step Time =    1.000,"PART-1-1",           753,       9.53974,       23.7363,            0.,NA,NA,"",       1.45555,       1.45554,   5.29232E-03,   173.044E-06
C:/temp/dataset/9/17_1.odb,Step-1,Increment      1: Step Time =    1.000,"PART-1-1",           754,      -5.22075,      -2.25347,            0.,NA,NA,"",   754.493E-03,   482.261E-03,   580.245E-03,   611.045E-06
C:/temp/dataset/9/17_1.odb,Step-1,Increment      1: Step Time =    1.000,"PART-1-1",           755,      -7.55915,      -2.11026,            0.,NA,NA,"",   833.622E-03,   489.528E-03,   674.751E-03,   402.428E-06
C:/temp/dataset/9/17_1.odb,Step-1,Increment      1: Step Time =    1.000,"PART-1-1",           756,      -4.20325,      -1.24540,            0.,NA,NA,"",   749.347E-03,   521.390E-03,   538.213E-03,   883.105E-06
C:/temp/dataset/9/17_1.odb,Step-1,Increment      1: Step Time =    1.000,"PART-1-1",           757,       12.0426,       5.30937,            0.,NA,NA,"",   750.151E-03,   746.567E-03,  -73.2401E-03,   819.232E-06
C:/temp/dataset/9/17_1.odb,Step-1,Increment      1: Step Time =    1.000,"PART-1-1",           758,      -8.17645,       12.8481,            0.,NA,NA,"",       1.27135,       1.06726,   690.864E-03,   402.536E-06
C:/temp/dataset/9/17_1.odb,Step-1,Increment      1: Step Time =    1.000,"PART-1-1",           759,      -8.09554,       10.3784,            0.,NA,NA,"",       1.19375,   974.819E-03,   689.038E-03,   474.603E-06
C:/temp/dataset/9/17_1.odb,Step-1,Increment      1: Step Time =    1.000,"PART-1-1",           760,      -8.33007,       15.6293,            0.,NA,NA,"",       1.36145,       1.17067,   695.029E-03,   391.943E-06
C:/temp/dataset/9/17_1.odb,Step-1,Increment      1: Step Time =    1.000,"PART-1-1",           761,       12.1122,      -19.7356,            0.,NA,NA,"",   66.1205E-03,   62.3520E-03,  -22.0032E-03,   2.36962E-03
C:/temp/dataset/9/17_1.odb,Step-1,Increment      1: Step Time =    1.000,"PART-1-1",           762,       12.1388,      -17.4254,            0.,NA,NA,"",   98.5102E-03,   94.5812E-03,  -27.5437E-03,   2.39555E-03
C:/temp/dataset/9/17_1.odb,Step-1,Increment      1: Step Time =    1.000,"PART-1-1",           763,       12.0361,      -7.90801,            0.,NA,NA,"",   300.542E-03,   296.767E-03,  -47.4822E-03,   2.36383E-03
C:/temp/dataset/9/17_1.odb,Step-1,Increment      1: Step Time =    1.000,"PART-1-1",           764,       12.0837,      -10.3075,            0.,NA,NA,"",   238.838E-03,   234.957E-03,  -42.8857E-03,   2.32666E-03
C:/temp/dataset/9/17_1.odb,Step-1,Increment      1: Step Time =    1.000,"PART-1-1",           765,       12.1118,      -12.6921,            0.,NA,NA,"",   184.868E-03,   180.938E-03,  -37.9144E-03,   2.34192E-03
C:/temp/dataset/9/17_1.odb,Step-1,Increment      1: Step Time =    1.000,"PART-1-1",           766,       12.1357,      -15.0700,            0.,NA,NA,"",   138.099E-03,   134.128E-03,  -32.8787E-03,   2.38098E-03
C:/temp/dataset/9/17_1.odb,Step-1,Increment      1: Step Time =    1.000,"PART-1-1",           767,      -8.71328,  -792.246E-03,            0.,NA,NA,"",   901.929E-03,   542.808E-03,   720.303E-03,   418.464E-06
C:/temp/dataset/9/17_1.odb,Step-1,Increment      1: Step Time =    1.000,"PART-1-1",           768,      -7.47429,       25.8162,            0.,NA,NA,"",       1.68316,       1.54980,   656.637E-03,   120.857E-06
C:/temp/dataset/9/17_1.odb,Step-1,Increment      1: Step Time =    1.000,"PART-1-1",           769,       9.13729,   756.201E-03,            0.,NA,NA,"",   582.849E-03,   582.016E-03,   31.1547E-03,   1.97121E-03
C:/temp/dataset/9/17_1.odb,Step-1,Increment      1: Step Time =    1.000,"PART-1-1",           770,       7.76646,  -679.521E-03,            0.,NA,NA,"",   537.158E-03,   531.663E-03,   76.6332E-03,   2.45154E-03
C:/temp/dataset/9/17_1.odb,Step-1,Increment      1: Step Time =    1.000,"PART-1-1",           771,       9.13358,  -706.311E-03,            0.,NA,NA,"",   529.774E-03,   528.858E-03,   31.1324E-03,   2.19704E-03
C:/temp/dataset/9/17_1.odb,Step-1,Increment      1: Step Time =    1.000,"PART-1-1",           772,       7.17869,      -1.72980,            0.,NA,NA,"",   503.602E-03,   494.491E-03,   95.3595E-03,   2.64848E-03
C:/temp/dataset/9/17_1.odb,Step-1,Increment      1: Step Time =    1.000,"PART-1-1",           773,       6.08762,  -989.051E-03,            0.,NA,NA,"",   540.263E-03,   523.347E-03,   134.136E-03,   2.58740E-03
C:/temp/dataset/9/17_1.odb,Step-1,Increment      1: Step Time =    1.000,"PART-1-1",           774,       8.06590,       24.5744,            0.,NA,NA,"",       1.49068,       1.48939,   61.8841E-03,   168.074E-06
C:/temp/dataset/9/17_1.odb,Step-1,Increment      1: Step Time =    1.000,"PART-1-1",           775,       7.69641,      -4.07963,            0.,NA,NA,"",   418.609E-03,   411.704E-03,   75.7180E-03,   2.33044E-03
C:/temp/dataset/9/17_1.odb,Step-1,Increment      1: Step Time =    1.000,"PART-1-1",           776,       8.40687,      -2.58051,            0.,NA,NA,"",   465.879E-03,   462.703E-03,   54.3041E-03,   2.31873E-03
C:/temp/dataset/9/17_1.odb,Step-1,Increment      1: Step Time =    1.000,"PART-1-1",           777,      -9.00797,   684.990E-03,            0.,NA,NA,"",   946.575E-03,   601.520E-03,   730.875E-03,   327.934E-06
C:/temp/dataset/9/17_1.odb,Step-1,Increment      1: Step Time =    1.000,"PART-1-1",           778,       5.05143,   63.4436E-03,            0.,NA,NA,"",   589.765E-03,   563.911E-03,   172.706E-03,   1.90032E-03
C:/temp/dataset/9/17_1.odb,Step-1,Increment      1: Step Time =    1.000,"PART-1-1",           779,      -3.45659,  -454.281E-03,            0.,NA,NA,"",   749.613E-03,   551.830E-03,   507.349E-03,   1.06920E-03
C:/temp/dataset/9/17_1.odb,Step-1,Increment      1: Step Time =    1.000,"PART-1-1",           780,      -7.58605,   993.377E-03,            0.,NA,NA,"",   910.435E-03,   612.430E-03,   673.663E-03,   534.995E-06
