ODB Name,Step,Frame,Part Instance Name,    êﬂì_ÉâÉxÉã,X,Y,Z,Section Name,Material Name,Section Point,   U-Magnitude,          U-U1,          U-U2,       S-Mises
C:/temp/dataset/9/17_3.odb,Step-1,Increment      1: Step Time =    1.000,"PART-1-1",             1,            5.,           20.,            0.,NA,NA,"",       4.09382,       4.07138,   428.036E-03,   1.85005E-03
C:/temp/dataset/9/17_3.odb,Step-1,Increment      1: Step Time =    1.000,"PART-1-1",             2,            0.,           20.,            0.,NA,NA,"",       4.23908,       4.11542,       1.01642,   1.86180E-03
C:/temp/dataset/9/17_3.odb,Step-1,Increment      1: Step Time =    1.000,"PART-1-1",             3,            5.,          12.5,            0.,NA,NA,"",       3.21326,       3.17906,   467.582E-03,   3.14670E-03
C:/temp/dataset/9/17_3.odb,Step-1,Increment      1: Step Time =    1.000,"PART-1-1",             4,            5.,            5.,            0.,NA,NA,"",       2.37445,       2.32482,   482.906E-03,   7.24438E-03
C:/temp/dataset/9/17_3.odb,Step-1,Increment      1: Step Time =    1.000,"PART-1-1",             5,            0.,            5.,            0.,NA,NA,"",       2.61283,       2.39159,       1.05222,   5.52666E-03
C:/temp/dataset/9/17_3.odb,Step-1,Increment      1: Step Time =    1.000,"PART-1-1",             6,           -5.,            5.,            0.,NA,NA,"",       2.95970,       2.44211,       1.67209,   5.41482E-03
C:/temp/dataset/9/17_3.odb,Step-1,Increment      1: Step Time =    1.000,"PART-1-1",             7,           -5.,          12.5,            0.,NA,NA,"",       3.69800,       3.31207,       1.64479,   1.73325E-03
C:/temp/dataset/9/17_3.odb,Step-1,Increment      1: Step Time =    1.000,"PART-1-1",             8,           -5.,           20.,            0.,NA,NA,"",       4.45784,       4.16062,       1.60050,   2.94017E-03
C:/temp/dataset/9/17_3.odb,Step-1,Increment      1: Step Time =    1.000,"PART-1-1",             9,           15.,           30.,            0.,NA,NA,"",       5.25015,       5.18485,  -825.416E-03,   3.32471E-06
C:/temp/dataset/9/17_3.odb,Step-1,Increment      1: Step Time =    1.000,"PART-1-1",            10,           7.5,           30.,            0.,NA,NA,"",       5.23773,       5.23734,   64.1606E-03,   217.900E-06
C:/temp/dataset/9/17_3.odb,Step-1,Increment      1: Step Time =    1.000,"PART-1-1",            11,            0.,           30.,            0.,NA,NA,"",       5.37063,       5.28603,   949.509E-03,   871.856E-06
C:/temp/dataset/9/17_3.odb,Step-1,Increment      1: Step Time =    1.000,"PART-1-1",            12,          -7.5,           30.,            0.,NA,NA,"",       5.63324,       5.33076,       1.82108,   664.060E-06
C:/temp/dataset/9/17_3.odb,Step-1,Increment      1: Step Time =    1.000,"PART-1-1",            13,          -15.,           30.,            0.,NA,NA,"",       6.01053,       5.37874,       2.68245,   17.9052E-06
C:/temp/dataset/9/17_3.odb,Step-1,Increment      1: Step Time =    1.000,"PART-1-1",            14,          -15.,         21.25,            0.,NA,NA,"",       5.16102,       4.37461,       2.73842,   346.365E-06
C:/temp/dataset/9/17_3.odb,Step-1,Increment      1: Step Time =    1.000,"PART-1-1",            15,          -15.,          12.5,            0.,NA,NA,"",       4.38797,       3.37847,       2.80004,   1.88770E-03
C:/temp/dataset/9/17_3.odb,Step-1,Increment      1: Step Time =    1.000,"PART-1-1",            16,          -15.,          3.75,            0.,NA,NA,"",       3.72633,       2.36070,       2.88317,   3.66596E-03
C:/temp/dataset/9/17_3.odb,Step-1,Increment      1: Step Time =    1.000,"PART-1-1",            17,          -15.,           -5.,            0.,NA,NA,"",       3.24752,       1.30097,       2.97555,   3.01441E-03
C:/temp/dataset/9/17_3.odb,Step-1,Increment      1: Step Time =    1.000,"PART-1-1",            18,          -10.,           -5.,            0.,NA,NA,"",       2.67631,       1.26685,       2.35748,   1.78661E-03
C:/temp/dataset/9/17_3.odb,Step-1,Increment      1: Step Time =    1.000,"PART-1-1",            19,           -5.,           -5.,            0.,NA,NA,"",       2.13081,       1.23465,       1.73666,   1.83745E-03
C:/temp/dataset/9/17_3.odb,Step-1,Increment      1: Step Time =    1.000,"PART-1-1",            20,            0.,           -5.,            0.,NA,NA,"",       1.65053,       1.21089,       1.12159,   4.28060E-03
C:/temp/dataset/9/17_3.odb,Step-1,Increment      1: Step Time =    1.000,"PART-1-1",            21,            5.,           -5.,            0.,NA,NA,"",       1.30235,       1.20972,   482.393E-03,   29.2780E-03
C:/temp/dataset/9/17_3.odb,Step-1,Increment      1: Step Time =    1.000,"PART-1-1",            22,            5.,        -11.25,            0.,NA,NA,"",   796.727E-03,   708.297E-03,   364.815E-03,   22.0969E-03
C:/temp/dataset/9/17_3.odb,Step-1,Increment      1: Step Time =    1.000,"PART-1-1",            23,            5.,         -17.5,            0.,NA,NA,"",   413.829E-03,   328.978E-03,   251.054E-03,   22.5870E-03
C:/temp/dataset/9/17_3.odb,Step-1,Increment      1: Step Time =    1.000,"PART-1-1",            24,            5.,        -23.75,            0.,NA,NA,"",   161.160E-03,   98.8278E-03,   127.302E-03,   23.0064E-03
C:/temp/dataset/9/17_3.odb,Step-1,Increment      1: Step Time =    1.000,"PART-1-1",            25,            5.,          -30.,            0.,NA,NA,"",            0.,   7.08824E-39,   13.6091E-39,   26.4818E-03
C:/temp/dataset/9/17_3.odb,Step-1,Increment      1: Step Time =    1.000,"PART-1-1",            26,           15.,          -30.,            0.,NA,NA,"",            0.,   5.93055E-39,  -11.1137E-39,   21.2111E-03
C:/temp/dataset/9/17_3.odb,Step-1,Increment      1: Step Time =    1.000,"PART-1-1",            27,           15.,         -22.5,            0.,NA,NA,"",   179.916E-03,   120.440E-03,  -133.656E-03,   19.8283E-03
C:/temp/dataset/9/17_3.odb,Step-1,Increment      1: Step Time =    1.000,"PART-1-1",            28,           15.,          -15.,            0.,NA,NA,"",   516.227E-03,   438.708E-03,  -272.075E-03,   19.2748E-03
C:/temp/dataset/9/17_3.odb,Step-1,Increment      1: Step Time =    1.000,"PART-1-1",            29,           15.,          -7.5,            0.,NA,NA,"",       1.05405,   966.716E-03,  -420.104E-03,   18.5264E-03
C:/temp/dataset/9/17_3.odb,Step-1,Increment      1: Step Time =    1.000,"PART-1-1",            30,           15.,            0.,            0.,NA,NA,"",       1.78966,       1.70124,  -555.583E-03,   9.44836E-03
C:/temp/dataset/9/17_3.odb,Step-1,Increment      1: Step Time =    1.000,"PART-1-1",            31,           15.,           7.5,            0.,NA,NA,"",       2.61584,       2.53585,  -641.902E-03,   3.93007E-03
C:/temp/dataset/9/17_3.odb,Step-1,Increment      1: Step Time =    1.000,"PART-1-1",            32,           15.,           15.,            0.,NA,NA,"",       3.47856,       3.40470,  -712.993E-03,   2.01718E-03
C:/temp/dataset/9/17_3.odb,Step-1,Increment      1: Step Time =    1.000,"PART-1-1",            33,           15.,          22.5,            0.,NA,NA,"",       4.36344,       4.29452,  -772.440E-03,   155.172E-06
C:/temp/dataset/9/17_3.odb,Step-1,Increment      1: Step Time =    1.000,"PART-1-1",            34,           2.5,           20.,            0.,NA,NA,"",       4.15735,       4.09400,   723.042E-03,   1.91632E-03
C:/temp/dataset/9/17_3.odb,Step-1,Increment      1: Step Time =    1.000,"PART-1-1",            35,            5.,           15.,            0.,NA,NA,"",       3.50353,       3.47368,   456.369E-03,   2.37674E-03
C:/temp/dataset/9/17_3.odb,Step-1,Increment      1: Step Time =    1.000,"PART-1-1",            36,            5.,          17.5,            0.,NA,NA,"",       3.79678,       3.77082,   443.235E-03,   1.65524E-03
C:/temp/dataset/9/17_3.odb,Step-1,Increment      1: Step Time =    1.000,"PART-1-1",            37,            5.,           7.5,            0.,NA,NA,"",       2.64536,       2.60096,   482.634E-03,   5.34221E-03
C:/temp/dataset/9/17_3.odb,Step-1,Increment      1: Step Time =    1.000,"PART-1-1",            38,            5.,           10.,            0.,NA,NA,"",       2.92673,       2.88769,   476.457E-03,   4.01899E-03
C:/temp/dataset/9/17_3.odb,Step-1,Increment      1: Step Time =    1.000,"PART-1-1",            39,           2.5,            5.,            0.,NA,NA,"",       2.47813,       2.35931,   758.137E-03,   7.62032E-03
C:/temp/dataset/9/17_3.odb,Step-1,Increment      1: Step Time =    1.000,"PART-1-1",            40,          -2.5,            5.,            0.,NA,NA,"",       2.77469,       2.42026,       1.35693,   3.25349E-03
C:/temp/dataset/9/17_3.odb,Step-1,Increment      1: Step Time =    1.000,"PART-1-1",            41,           -5.,           10.,            0.,NA,NA,"",       3.44854,       3.02461,       1.65656,   2.43555E-03
C:/temp/dataset/9/17_3.odb,Step-1,Increment      1: Step Time =    1.000,"PART-1-1",            42,           -5.,           7.5,            0.,NA,NA,"",       3.20287,       2.73479,       1.66713,   3.54588E-03
C:/temp/dataset/9/17_3.odb,Step-1,Increment      1: Step Time =    1.000,"PART-1-1",            43,           -5.,          17.5,            0.,NA,NA,"",       4.20424,       3.88075,       1.61723,   801.023E-06
C:/temp/dataset/9/17_3.odb,Step-1,Increment      1: Step Time =    1.000,"PART-1-1",            44,           -5.,           15.,            0.,NA,NA,"",       3.95008,       3.59738,       1.63158,   1.03220E-03
C:/temp/dataset/9/17_3.odb,Step-1,Increment      1: Step Time =    1.000,"PART-1-1",            45,          -2.5,           20.,            0.,NA,NA,"",       4.33896,       4.13688,       1.30872,   2.17620E-03
C:/temp/dataset/9/17_3.odb,Step-1,Increment      1: Step Time =    1.000,"PART-1-1",            46,          12.5,           30.,            0.,NA,NA,"",       5.22930,       5.20249,  -528.823E-03,   30.5789E-06
C:/temp/dataset/9/17_3.odb,Step-1,Increment      1: Step Time =    1.000,"PART-1-1",            47,           10.,           30.,            0.,NA,NA,"",       5.22519,       5.22002,  -232.261E-03,   90.3590E-06
C:/temp/dataset/9/17_3.odb,Step-1,Increment      1: Step Time =    1.000,"PART-1-1",            48,            5.,           30.,            0.,NA,NA,"",       5.26654,       5.25421,   360.222E-03,   432.473E-06
C:/temp/dataset/9/17_3.odb,Step-1,Increment      1: Step Time =    1.000,"PART-1-1",            49,           2.5,           30.,            0.,NA,NA,"",       5.31105,       5.27045,   655.499E-03,   674.932E-06
C:/temp/dataset/9/17_3.odb,Step-1,Increment      1: Step Time =    1.000,"PART-1-1",            50,          -2.5,           30.,            0.,NA,NA,"",       5.44458,       5.30106,       1.24186,   948.742E-06
C:/temp/dataset/9/17_3.odb,Step-1,Increment      1: Step Time =    1.000,"PART-1-1",            51,           -5.,           30.,            0.,NA,NA,"",       5.53228,       5.31583,       1.53235,   894.423E-06
C:/temp/dataset/9/17_3.odb,Step-1,Increment      1: Step Time =    1.000,"PART-1-1",            52,          -10.,           30.,            0.,NA,NA,"",       5.74698,       5.34619,       2.10855,   349.537E-06
C:/temp/dataset/9/17_3.odb,Step-1,Increment      1: Step Time =    1.000,"PART-1-1",            53,         -12.5,           30.,            0.,NA,NA,"",       5.87298,       5.36225,       2.39546,   78.8057E-06
C:/temp/dataset/9/17_3.odb,Step-1,Increment      1: Step Time =    1.000,"PART-1-1",            54,          -15.,       27.8125,            0.,NA,NA,"",       5.79347,       5.12747,       2.69692,   64.9537E-06
C:/temp/dataset/9/17_3.odb,Step-1,Increment      1: Step Time =    1.000,"PART-1-1",            55,          -15.,        25.625,            0.,NA,NA,"",       5.57907,       4.87606,       2.71110,   248.089E-06
C:/temp/dataset/9/17_3.odb,Step-1,Increment      1: Step Time =    1.000,"PART-1-1",            56,          -15.,       23.4375,            0.,NA,NA,"",       5.36797,       4.62495,       2.72487,   393.413E-06
C:/temp/dataset/9/17_3.odb,Step-1,Increment      1: Step Time =    1.000,"PART-1-1",            57,          -15.,       19.0625,            0.,NA,NA,"",       4.95904,       4.12520,       2.75223,   32.5070E-06
C:/temp/dataset/9/17_3.odb,Step-1,Increment      1: Step Time =    1.000,"PART-1-1",            58,          -15.,        16.875,            0.,NA,NA,"",       4.76263,       3.87648,       2.76686,   522.631E-06
C:/temp/dataset/9/17_3.odb,Step-1,Increment      1: Step Time =    1.000,"PART-1-1",            59,          -15.,       14.6875,            0.,NA,NA,"",       4.57216,       3.62782,       2.78273,   1.19565E-03
C:/temp/dataset/9/17_3.odb,Step-1,Increment      1: Step Time =    1.000,"PART-1-1",            60,          -15.,       10.3125,            0.,NA,NA,"",       4.21052,       3.12770,       2.81886,   2.54728E-03
C:/temp/dataset/9/17_3.odb,Step-1,Increment      1: Step Time =    1.000,"PART-1-1",            61,          -15.,         8.125,            0.,NA,NA,"",       4.04047,       2.87482,       2.83915,   3.10366E-03
C:/temp/dataset/9/17_3.odb,Step-1,Increment      1: Step Time =    1.000,"PART-1-1",            62,          -15.,        5.9375,            0.,NA,NA,"",       3.87868,       2.61925,       2.86072,   3.46696E-03
C:/temp/dataset/9/17_3.odb,Step-1,Increment      1: Step Time =    1.000,"PART-1-1",            63,          -15.,        1.5625,            0.,NA,NA,"",       3.58507,       2.09925,       2.90618,   3.73215E-03
C:/temp/dataset/9/17_3.odb,Step-1,Increment      1: Step Time =    1.000,"PART-1-1",            64,          -15.,     -625.E-03,            0.,NA,NA,"",       3.45687,       1.83513,       2.92954,   3.70264E-03
C:/temp/dataset/9/17_3.odb,Step-1,Increment      1: Step Time =    1.000,"PART-1-1",            65,          -15.,       -2.8125,            0.,NA,NA,"",       3.34370,       1.56862,       2.95293,   3.33316E-03
C:/temp/dataset/9/17_3.odb,Step-1,Increment      1: Step Time =    1.000,"PART-1-1",            66,         -12.5,           -5.,            0.,NA,NA,"",       2.96190,       1.28516,       2.66856,   3.03763E-03
C:/temp/dataset/9/17_3.odb,Step-1,Increment      1: Step Time =    1.000,"PART-1-1",            67,          -7.5,           -5.,            0.,NA,NA,"",       2.39718,       1.25042,       2.04521,   1.41920E-03
C:/temp/dataset/9/17_3.odb,Step-1,Increment      1: Step Time =    1.000,"PART-1-1",            68,          -2.5,           -5.,            0.,NA,NA,"",       1.87957,       1.22121,       1.42879,   3.18385E-03
C:/temp/dataset/9/17_3.odb,Step-1,Increment      1: Step Time =    1.000,"PART-1-1",            69,           2.5,           -5.,            0.,NA,NA,"",       1.45257,       1.20303,   814.056E-03,   9.15204E-03
C:/temp/dataset/9/17_3.odb,Step-1,Increment      1: Step Time =    1.000,"PART-1-1",            70,            5.,      -7.08333,            0.,NA,NA,"",       1.12241,       1.03547,   433.134E-03,   25.9952E-03
C:/temp/dataset/9/17_3.odb,Step-1,Increment      1: Step Time =    1.000,"PART-1-1",            71,            5.,      -9.16667,            0.,NA,NA,"",   953.865E-03,   865.928E-03,   400.035E-03,   21.5970E-03
C:/temp/dataset/9/17_3.odb,Step-1,Increment      1: Step Time =    1.000,"PART-1-1",            72,            5.,      -13.3333,            0.,NA,NA,"",   654.028E-03,   565.667E-03,   328.290E-03,   22.1727E-03
C:/temp/dataset/9/17_3.odb,Step-1,Increment      1: Step Time =    1.000,"PART-1-1",            73,            5.,      -15.4167,            0.,NA,NA,"",   526.415E-03,   439.127E-03,   290.311E-03,   22.4171E-03
C:/temp/dataset/9/17_3.odb,Step-1,Increment      1: Step Time =    1.000,"PART-1-1",            74,            5.,      -19.5833,            0.,NA,NA,"",   315.954E-03,   235.456E-03,   210.684E-03,   22.7510E-03
C:/temp/dataset/9/17_3.odb,Step-1,Increment      1: Step Time =    1.000,"PART-1-1",            75,            5.,      -21.6667,            0.,NA,NA,"",   232.098E-03,   158.683E-03,   169.378E-03,   22.8708E-03
C:/temp/dataset/9/17_3.odb,Step-1,Increment      1: Step Time =    1.000,"PART-1-1",            76,            5.,      -25.8333,            0.,NA,NA,"",   101.483E-03,   55.4532E-03,   84.9925E-03,   22.6068E-03
C:/temp/dataset/9/17_3.odb,Step-1,Increment      1: Step Time =    1.000,"PART-1-1",            77,            5.,      -27.9167,            0.,NA,NA,"",   51.2291E-03,   27.4463E-03,   43.2564E-03,   23.6581E-03
C:/temp/dataset/9/17_3.odb,Step-1,Increment      1: Step Time =    1.000,"PART-1-1",            78,           7.5,          -30.,            0.,NA,NA,"",            0.,  -1.20746E-39,   28.5972E-39,   9.44146E-03
C:/temp/dataset/9/17_3.odb,Step-1,Increment      1: Step Time =    1.000,"PART-1-1",            79,           10.,          -30.,            0.,NA,NA,"",            0.,  -4.88409E-39,   1.49088E-39,   4.05610E-03
C:/temp/dataset/9/17_3.odb,Step-1,Increment      1: Step Time =    1.000,"PART-1-1",            80,          12.5,          -30.,            0.,NA,NA,"",            0.,   4.73087E-39,  -18.1922E-39,   7.52681E-03
C:/temp/dataset/9/17_3.odb,Step-1,Increment      1: Step Time =    1.000,"PART-1-1",            81,           15.,         -27.5,            0.,NA,NA,"",   50.3679E-03,   24.9951E-03,  -43.7284E-03,   20.5988E-03
C:/temp/dataset/9/17_3.odb,Step-1,Increment      1: Step Time =    1.000,"PART-1-1",            82,           15.,          -25.,            0.,NA,NA,"",   107.422E-03,   60.9972E-03,  -88.4244E-03,   19.8413E-03
C:/temp/dataset/9/17_3.odb,Step-1,Increment      1: Step Time =    1.000,"PART-1-1",            83,           15.,          -20.,            0.,NA,NA,"",   271.018E-03,   203.267E-03,  -179.258E-03,   19.5446E-03
C:/temp/dataset/9/17_3.odb,Step-1,Increment      1: Step Time =    1.000,"PART-1-1",            84,           15.,         -17.5,            0.,NA,NA,"",   382.749E-03,   309.437E-03,  -225.267E-03,   19.3882E-03
C:/temp/dataset/9/17_3.odb,Step-1,Increment      1: Step Time =    1.000,"PART-1-1",            85,           15.,         -12.5,            0.,NA,NA,"",   672.144E-03,   591.059E-03,  -320.042E-03,   19.2366E-03
C:/temp/dataset/9/17_3.odb,Step-1,Increment      1: Step Time =    1.000,"PART-1-1",            86,           15.,          -10.,            0.,NA,NA,"",   851.184E-03,   766.812E-03,  -369.476E-03,   19.1461E-03
C:/temp/dataset/9/17_3.odb,Step-1,Increment      1: Step Time =    1.000,"PART-1-1",            87,           15.,           -5.,            0.,NA,NA,"",       1.28054,       1.19111,  -470.133E-03,   16.5894E-03
C:/temp/dataset/9/17_3.odb,Step-1,Increment      1: Step Time =    1.000,"PART-1-1",            88,           15.,          -2.5,            0.,NA,NA,"",       1.52769,       1.43783,  -516.224E-03,   13.2250E-03
C:/temp/dataset/9/17_3.odb,Step-1,Increment      1: Step Time =    1.000,"PART-1-1",            89,           15.,           2.5,            0.,NA,NA,"",       2.06041,       1.97466,  -588.218E-03,   6.45867E-03
C:/temp/dataset/9/17_3.odb,Step-1,Increment      1: Step Time =    1.000,"PART-1-1",            90,           15.,            5.,            0.,NA,NA,"",       2.33618,       2.25345,  -616.196E-03,   4.74212E-03
C:/temp/dataset/9/17_3.odb,Step-1,Increment      1: Step Time =    1.000,"PART-1-1",            91,           15.,           10.,            0.,NA,NA,"",       2.89954,       2.82188,  -666.577E-03,   3.37587E-03
C:/temp/dataset/9/17_3.odb,Step-1,Increment      1: Step Time =    1.000,"PART-1-1",            92,           15.,          12.5,            0.,NA,NA,"",       3.18730,       3.11164,  -690.360E-03,   2.74632E-03
C:/temp/dataset/9/17_3.odb,Step-1,Increment      1: Step Time =    1.000,"PART-1-1",            93,           15.,          17.5,            0.,NA,NA,"",       3.77238,       3.70024,  -734.219E-03,   1.26088E-03
C:/temp/dataset/9/17_3.odb,Step-1,Increment      1: Step Time =    1.000,"PART-1-1",            94,           15.,           20.,            0.,NA,NA,"",       4.06768,       3.99719,  -753.953E-03,   596.802E-06
C:/temp/dataset/9/17_3.odb,Step-1,Increment      1: Step Time =    1.000,"PART-1-1",            95,           15.,           25.,            0.,NA,NA,"",       4.65909,       4.59159,  -790.206E-03,   24.2932E-06
C:/temp/dataset/9/17_3.odb,Step-1,Increment      1: Step Time =    1.000,"PART-1-1",            96,           15.,          27.5,            0.,NA,NA,"",       4.95458,       4.88829,  -807.782E-03,   26.8996E-06
C:/temp/dataset/9/17_3.odb,Step-1,Increment      1: Step Time =    1.000,"PART-1-1",            97,       7.09255,      -21.6558,            0.,NA,NA,"",   174.390E-03,   140.694E-03,   103.040E-03,   14.1190E-03
C:/temp/dataset/9/17_3.odb,Step-1,Increment      1: Step Time =    1.000,"PART-1-1",            98,       7.09346,      -17.4368,            0.,NA,NA,"",   347.872E-03,   312.624E-03,   152.584E-03,   13.9112E-03
C:/temp/dataset/9/17_3.odb,Step-1,Increment      1: Step Time =    1.000,"PART-1-1",            99,       7.15828,      -23.7452,            0.,NA,NA,"",   110.531E-03,   80.5070E-03,   75.7346E-03,   13.9566E-03
C:/temp/dataset/9/17_3.odb,Step-1,Increment      1: Step Time =    1.000,"PART-1-1",           100,       7.44609,      -27.8729,            0.,NA,NA,"",   24.0630E-03,   9.96256E-03,   21.9037E-03,   13.3512E-03
C:/temp/dataset/9/17_3.odb,Step-1,Increment      1: Step Time =    1.000,"PART-1-1",           101,       7.30780,      -25.7939,            0.,NA,NA,"",   60.3579E-03,   37.1526E-03,   47.5685E-03,   13.8768E-03
C:/temp/dataset/9/17_3.odb,Step-1,Increment      1: Step Time =    1.000,"PART-1-1",           102,       7.08258,      -10.9526,            0.,NA,NA,"",   741.862E-03,   708.014E-03,   221.530E-03,   13.6932E-03
C:/temp/dataset/9/17_3.odb,Step-1,Increment      1: Step Time =    1.000,"PART-1-1",           103,       7.09950,      -13.1236,            0.,NA,NA,"",   592.563E-03,   558.204E-03,   198.846E-03,   13.7543E-03
C:/temp/dataset/9/17_3.odb,Step-1,Increment      1: Step Time =    1.000,"PART-1-1",           104,       6.95448,      -6.62029,            0.,NA,NA,"",       1.08945,       1.05548,   269.937E-03,   13.9568E-03
C:/temp/dataset/9/17_3.odb,Step-1,Increment      1: Step Time =    1.000,"PART-1-1",           105,       7.04974,      -8.78764,            0.,NA,NA,"",   907.427E-03,   873.709E-03,   245.064E-03,   14.3342E-03
C:/temp/dataset/9/17_3.odb,Step-1,Increment      1: Step Time =    1.000,"PART-1-1",           106,       7.10540,      -15.2896,            0.,NA,NA,"",   460.890E-03,   426.091E-03,   175.688E-03,   13.7756E-03
C:/temp/dataset/9/17_3.odb,Step-1,Increment      1: Step Time =    1.000,"PART-1-1",           107,       7.08223,      -19.5608,            0.,NA,NA,"",   252.733E-03,   217.618E-03,   128.516E-03,   14.0472E-03
C:/temp/dataset/9/17_3.odb,Step-1,Increment      1: Step Time =    1.000,"PART-1-1",           108,      -11.8989,       25.3809,            0.,NA,NA,"",       5.37198,       4.82725,       2.35708,   305.268E-06
C:/temp/dataset/9/17_3.odb,Step-1,Increment      1: Step Time =    1.000,"PART-1-1",           109,      -12.7134,       3.51066,            0.,NA,NA,"",       3.49273,       2.31885,       2.61192,   2.23953E-03
C:/temp/dataset/9/17_3.odb,Step-1,Increment      1: Step Time =    1.000,"PART-1-1",           110,      -13.0834,       10.3867,            0.,NA,NA,"",       4.06270,       3.12510,       2.59601,   1.77841E-03
C:/temp/dataset/9/17_3.odb,Step-1,Increment      1: Step Time =    1.000,"PART-1-1",           111,      -12.9355,       8.20912,            0.,NA,NA,"",       3.87242,       2.87274,       2.59673,   2.00435E-03
C:/temp/dataset/9/17_3.odb,Step-1,Increment      1: Step Time =    1.000,"PART-1-1",           112,      -13.1801,       12.5484,            0.,NA,NA,"",       4.25297,       3.37319,       2.59024,   1.48306E-03
C:/temp/dataset/9/17_3.odb,Step-1,Increment      1: Step Time =    1.000,"PART-1-1",           113,      -12.7454,       20.6010,            0.,NA,NA,"",       4.95372,       4.28550,       2.48472,   421.438E-06
C:/temp/dataset/9/17_3.odb,Step-1,Increment      1: Step Time =    1.000,"PART-1-1",           114,      -13.1621,       18.5389,            0.,NA,NA,"",       4.78680,       4.05368,       2.54580,   633.180E-06
C:/temp/dataset/9/17_3.odb,Step-1,Increment      1: Step Time =    1.000,"PART-1-1",           115,      -12.3840,       22.8683,            0.,NA,NA,"",       5.15074,       4.54211,       2.42885,   220.251E-06
C:/temp/dataset/9/17_3.odb,Step-1,Increment      1: Step Time =    1.000,"PART-1-1",           116,      -13.4658,       16.5948,            0.,NA,NA,"",       4.62971,       3.83498,       2.59367,   832.633E-06
C:/temp/dataset/9/17_3.odb,Step-1,Increment      1: Step Time =    1.000,"PART-1-1",           117,      -13.3466,       14.6489,            0.,NA,NA,"",       4.44790,       3.61333,       2.59376,   1.15574E-03
C:/temp/dataset/9/17_3.odb,Step-1,Increment      1: Step Time =    1.000,"PART-1-1",           118,      -12.3609,       5.76892,            0.,NA,NA,"",       3.63028,       2.58409,       2.54978,   1.92958E-03
C:/temp/dataset/9/17_3.odb,Step-1,Increment      1: Step Time =    1.000,"PART-1-1",           119,      -12.8583,       1.39410,            0.,NA,NA,"",       3.35965,       2.06631,       2.64908,   2.44608E-03
C:/temp/dataset/9/17_3.odb,Step-1,Increment      1: Step Time =    1.000,"PART-1-1",           120,      -12.6304,  -685.754E-03,            0.,NA,NA,"",       3.20396,       1.81349,       2.64133,   2.56777E-03
C:/temp/dataset/9/17_3.odb,Step-1,Increment      1: Step Time =    1.000,"PART-1-1",           121,   38.5673E-03,       27.2989,            0.,NA,NA,"",       5.06230,       4.96963,   964.182E-03,   263.069E-06
C:/temp/dataset/9/17_3.odb,Step-1,Increment      1: Step Time =    1.000,"PART-1-1",           122,      -4.16985,       22.2766,            0.,NA,NA,"",       4.65966,       4.41534,       1.48902,   943.870E-06
C:/temp/dataset/9/17_3.odb,Step-1,Increment      1: Step Time =    1.000,"PART-1-1",           123,      -7.85548,       28.0855,            0.,NA,NA,"",       5.44535,       5.11230,       1.87517,   408.880E-06
C:/temp/dataset/9/17_3.odb,Step-1,Increment      1: Step Time =    1.000,"PART-1-1",           124,       9.92813,      -27.7267,            0.,NA,NA,"",   4.62124E-03,   3.25309E-03,   3.28227E-03,   2.16220E-03
C:/temp/dataset/9/17_3.odb,Step-1,Increment      1: Step Time =    1.000,"PART-1-1",           125,       13.1106,      -17.4438,            0.,NA,NA,"",   330.021E-03,   301.176E-03,  -134.931E-03,   11.3753E-03
C:/temp/dataset/9/17_3.odb,Step-1,Increment      1: Step Time =    1.000,"PART-1-1",           126,       12.8150,       2.64061,            0.,NA,NA,"",       2.02907,       1.99865,  -350.059E-03,   4.56825E-03
C:/temp/dataset/9/17_3.odb,Step-1,Increment      1: Step Time =    1.000,"PART-1-1",           127,       7.56819,       12.3225,            0.,NA,NA,"",       3.14285,       3.13822,   170.561E-03,   1.87756E-03
C:/temp/dataset/9/17_3.odb,Step-1,Increment      1: Step Time =    1.000,"PART-1-1",           128,       7.47113,       19.8748,            0.,NA,NA,"",       4.03843,       4.03615,   135.632E-03,   1.58170E-03
C:/temp/dataset/9/17_3.odb,Step-1,Increment      1: Step Time =    1.000,"PART-1-1",           129,       12.4223,       27.5153,            0.,NA,NA,"",       4.93394,       4.90833,  -502.059E-03,   40.5103E-06
C:/temp/dataset/9/17_3.odb,Step-1,Increment      1: Step Time =    1.000,"PART-1-1",           130,       12.3750,       22.5091,            0.,NA,NA,"",       4.33865,       4.31407,  -461.119E-03,   445.181E-06
C:/temp/dataset/9/17_3.odb,Step-1,Increment      1: Step Time =    1.000,"PART-1-1",           131,       7.58839,       27.9970,            0.,NA,NA,"",       5.00009,       4.99963,   67.8625E-03,   174.977E-06
C:/temp/dataset/9/17_3.odb,Step-1,Increment      1: Step Time =    1.000,"PART-1-1",           132,   199.805E-03,       22.3057,            0.,NA,NA,"",       4.49211,       4.38420,   978.694E-03,   1.28201E-03
C:/temp/dataset/9/17_3.odb,Step-1,Increment      1: Step Time =    1.000,"PART-1-1",           133,       12.6934,       9.82310,            0.,NA,NA,"",       2.84225,       2.81402,  -399.588E-03,   2.09808E-03
C:/temp/dataset/9/17_3.odb,Step-1,Increment      1: Step Time =    1.000,"PART-1-1",           134,      -7.14717,       12.7802,            0.,NA,NA,"",       3.85465,       3.35957,       1.88986,   1.26142E-03
C:/temp/dataset/9/17_3.odb,Step-1,Increment      1: Step Time =    1.000,"PART-1-1",           135,      -6.86178,       17.9412,            0.,NA,NA,"",       4.34549,       3.94321,       1.82604,   1.34719E-03
C:/temp/dataset/9/17_3.odb,Step-1,Increment      1: Step Time =    1.000,"PART-1-1",           136,      -2.68307,      -2.95682,            0.,NA,NA,"",       2.05343,       1.46998,       1.43378,   2.82777E-03
C:/temp/dataset/9/17_3.odb,Step-1,Increment      1: Step Time =    1.000,"PART-1-1",           137,      -7.59808,      -3.03341,            0.,NA,NA,"",       2.52906,       1.49285,       2.04146,   863.385E-06
C:/temp/dataset/9/17_3.odb,Step-1,Increment      1: Step Time =    1.000,"PART-1-1",           138,  -248.196E-03,       2.69947,            0.,NA,NA,"",       2.38638,       2.12055,       1.09458,   3.64465E-03
C:/temp/dataset/9/17_3.odb,Step-1,Increment      1: Step Time =    1.000,"PART-1-1",           139,       2.16631,      -2.47375,            0.,NA,NA,"",       1.71915,       1.50293,   834.687E-03,   7.46204E-03
C:/temp/dataset/9/17_3.odb,Step-1,Increment      1: Step Time =    1.000,"PART-1-1",           140,       4.39271,       2.43636,            0.,NA,NA,"",       2.11927,       2.04550,   554.286E-03,   5.16398E-03
C:/temp/dataset/9/17_3.odb,Step-1,Increment      1: Step Time =    1.000,"PART-1-1",           141,       12.9283,      -5.27800,            0.,NA,NA,"",       1.19280,       1.16161,  -270.969E-03,   9.85057E-03
C:/temp/dataset/9/17_3.odb,Step-1,Increment      1: Step Time =    1.000,"PART-1-1",           142,       13.0847,      -12.6172,            0.,NA,NA,"",   605.148E-03,   574.530E-03,  -190.051E-03,   11.0954E-03
C:/temp/dataset/9/17_3.odb,Step-1,Increment      1: Step Time =    1.000,"PART-1-1",           143,       12.4838,       17.4790,            0.,NA,NA,"",       3.73990,       3.71429,  -436.923E-03,   1.17281E-03
C:/temp/dataset/9/17_3.odb,Step-1,Increment      1: Step Time =    1.000,"PART-1-1",           144,       2.63438,       22.2143,            0.,NA,NA,"",       4.40884,       4.35401,   693.177E-03,   1.10185E-03
C:/temp/dataset/9/17_3.odb,Step-1,Increment      1: Step Time =    1.000,"PART-1-1",           145,       7.54366,       14.9275,            0.,NA,NA,"",       3.44913,       3.44549,   158.367E-03,   1.55534E-03
C:/temp/dataset/9/17_3.odb,Step-1,Increment      1: Step Time =    1.000,"PART-1-1",           146,       7.50510,       17.4443,            0.,NA,NA,"",       3.74792,       3.74503,   147.312E-03,   1.38881E-03
C:/temp/dataset/9/17_3.odb,Step-1,Increment      1: Step Time =    1.000,"PART-1-1",           147,       7.12790,       7.03873,            0.,NA,NA,"",       2.54323,       2.53128,   246.266E-03,   2.47273E-03
C:/temp/dataset/9/17_3.odb,Step-1,Increment      1: Step Time =    1.000,"PART-1-1",           148,       7.48952,       9.64170,            0.,NA,NA,"",       2.83317,       2.82655,   193.589E-03,   2.29203E-03
C:/temp/dataset/9/17_3.odb,Step-1,Increment      1: Step Time =    1.000,"PART-1-1",           149,       2.16717,       2.56251,            0.,NA,NA,"",       2.23277,       2.08183,   806.997E-03,   3.26926E-03
C:/temp/dataset/9/17_3.odb,Step-1,Increment      1: Step Time =    1.000,"PART-1-1",           150,      -2.68606,       3.12146,            0.,NA,NA,"",       2.59730,       2.19320,       1.39133,   3.72767E-03
C:/temp/dataset/9/17_3.odb,Step-1,Increment      1: Step Time =    1.000,"PART-1-1",           151,      -7.08307,       10.2840,            0.,NA,NA,"",       3.61107,       3.07310,       1.89629,   1.70218E-03
C:/temp/dataset/9/17_3.odb,Step-1,Increment      1: Step Time =    1.000,"PART-1-1",           152,      -2.13928,       22.2031,            0.,NA,NA,"",       4.56612,       4.39084,       1.25299,   1.44872E-03
C:/temp/dataset/9/17_3.odb,Step-1,Increment      1: Step Time =    1.000,"PART-1-1",           153,       9.90766,       27.6812,            0.,NA,NA,"",       4.95007,       4.94582,  -204.938E-03,   92.8337E-06
C:/temp/dataset/9/17_3.odb,Step-1,Increment      1: Step Time =    1.000,"PART-1-1",           154,       5.18317,       27.8350,            0.,NA,NA,"",       5.00985,       4.99733,   353.934E-03,   278.554E-06
C:/temp/dataset/9/17_3.odb,Step-1,Increment      1: Step Time =    1.000,"PART-1-1",           155,       2.70091,       27.4744,            0.,NA,NA,"",       5.01433,       4.97205,   649.787E-03,   311.174E-06
C:/temp/dataset/9/17_3.odb,Step-1,Increment      1: Step Time =    1.000,"PART-1-1",           156,      -2.92570,       26.9909,            0.,NA,NA,"",       5.12456,       4.95358,       1.31268,   177.855E-06
C:/temp/dataset/9/17_3.odb,Step-1,Increment      1: Step Time =    1.000,"PART-1-1",           157,      -5.52449,       27.7330,            0.,NA,NA,"",       5.30644,       5.05665,       1.60890,   379.182E-06
C:/temp/dataset/9/17_3.odb,Step-1,Increment      1: Step Time =    1.000,"PART-1-1",           158,      -10.1759,       28.1970,            0.,NA,NA,"",       5.56806,       5.14002,       2.14090,   335.098E-06
C:/temp/dataset/9/17_3.odb,Step-1,Increment      1: Step Time =    1.000,"PART-1-1",           159,      -7.15795,       15.3782,            0.,NA,NA,"",       4.10841,       3.65521,       1.87576,   1.01939E-03
C:/temp/dataset/9/17_3.odb,Step-1,Increment      1: Step Time =    1.000,"PART-1-1",           160,      -7.10855,       7.92361,            0.,NA,NA,"",       3.39099,       2.80047,       1.91212,   2.36970E-03
C:/temp/dataset/9/17_3.odb,Step-1,Increment      1: Step Time =    1.000,"PART-1-1",           161,      -7.31416,       5.72319,            0.,NA,NA,"",       3.20519,       2.54486,       1.94858,   1.54026E-03
C:/temp/dataset/9/17_3.odb,Step-1,Increment      1: Step Time =    1.000,"PART-1-1",           162,      -10.0288,      -2.82434,            0.,NA,NA,"",       2.80021,       1.53597,       2.34136,   2.01558E-03
C:/temp/dataset/9/17_3.odb,Step-1,Increment      1: Step Time =    1.000,"PART-1-1",           163,      -5.14639,      -3.11924,            0.,NA,NA,"",       2.27438,       1.46548,       1.73931,   1.75845E-03
C:/temp/dataset/9/17_3.odb,Step-1,Increment      1: Step Time =    1.000,"PART-1-1",           164,  -261.821E-03,      -2.60038,            0.,NA,NA,"",       1.87981,       1.50041,       1.13247,   4.50105E-03
C:/temp/dataset/9/17_3.odb,Step-1,Increment      1: Step Time =    1.000,"PART-1-1",           165,       4.38015,      -2.33295,            0.,NA,NA,"",       1.60964,       1.50686,   565.980E-03,   7.80681E-03
C:/temp/dataset/9/17_3.odb,Step-1,Increment      1: Step Time =    1.000,"PART-1-1",           166,       13.0639,      -10.1924,            0.,NA,NA,"",   776.245E-03,   744.819E-03,  -218.635E-03,   10.9341E-03
C:/temp/dataset/9/17_3.odb,Step-1,Increment      1: Step Time =    1.000,"PART-1-1",           167,       13.0843,      -19.8267,            0.,NA,NA,"",   225.131E-03,   197.987E-03,  -107.168E-03,   11.3840E-03
C:/temp/dataset/9/17_3.odb,Step-1,Increment      1: Step Time =    1.000,"PART-1-1",           168,       12.4446,      -27.5067,            0.,NA,NA,"",   20.9440E-03,   9.55013E-03,  -18.6399E-03,   9.64937E-03
C:/temp/dataset/9/17_3.odb,Step-1,Increment      1: Step Time =    1.000,"PART-1-1",           169,       12.9329,      -22.1971,            0.,NA,NA,"",   139.045E-03,   115.851E-03,  -76.8910E-03,   10.8086E-03
C:/temp/dataset/9/17_3.odb,Step-1,Increment      1: Step Time =    1.000,"PART-1-1",           170,       13.1086,      -15.0383,            0.,NA,NA,"",   456.567E-03,   426.625E-03,  -162.617E-03,   11.2785E-03
C:/temp/dataset/9/17_3.odb,Step-1,Increment      1: Step Time =    1.000,"PART-1-1",           171,       13.0208,      -7.75462,            0.,NA,NA,"",   971.098E-03,   939.258E-03,  -246.627E-03,   10.5894E-03
C:/temp/dataset/9/17_3.odb,Step-1,Increment      1: Step Time =    1.000,"PART-1-1",           172,       12.7756,      -2.70708,            0.,NA,NA,"",       1.44656,       1.41745,  -288.744E-03,   8.52701E-03
C:/temp/dataset/9/17_3.odb,Step-1,Increment      1: Step Time =    1.000,"PART-1-1",           173,       12.6338,  -14.4220E-03,            0.,NA,NA,"",       1.73242,       1.70546,  -304.491E-03,   6.60702E-03
C:/temp/dataset/9/17_3.odb,Step-1,Increment      1: Step Time =    1.000,"PART-1-1",           174,       13.0186,       5.13380,            0.,NA,NA,"",       2.31165,       2.27756,  -395.527E-03,   3.29652E-03
C:/temp/dataset/9/17_3.odb,Step-1,Increment      1: Step Time =    1.000,"PART-1-1",           175,       13.0709,       7.51902,            0.,NA,NA,"",       2.58253,       2.54769,  -422.734E-03,   2.67756E-03
C:/temp/dataset/9/17_3.odb,Step-1,Increment      1: Step Time =    1.000,"PART-1-1",           176,       12.5119,       12.3699,            0.,NA,NA,"",       3.13655,       3.11097,  -399.786E-03,   1.71422E-03
C:/temp/dataset/9/17_3.odb,Step-1,Increment      1: Step Time =    1.000,"PART-1-1",           177,       12.4863,       14.9454,            0.,NA,NA,"",       3.43934,       3.41390,  -417.482E-03,   1.44372E-03
C:/temp/dataset/9/17_3.odb,Step-1,Increment      1: Step Time =    1.000,"PART-1-1",           178,       12.4500,       19.9932,            0.,NA,NA,"",       4.03923,       4.01388,  -451.796E-03,   829.531E-06
C:/temp/dataset/9/17_3.odb,Step-1,Increment      1: Step Time =    1.000,"PART-1-1",           179,       9.19048,      -23.6482,            0.,NA,NA,"",   78.3461E-03,   73.1928E-03,   27.9448E-03,   5.38824E-03
C:/temp/dataset/9/17_3.odb,Step-1,Increment      1: Step Time =    1.000,"PART-1-1",           180,       9.11932,      -19.5624,            0.,NA,NA,"",   212.251E-03,   206.803E-03,   47.7821E-03,   5.50378E-03
C:/temp/dataset/9/17_3.odb,Step-1,Increment      1: Step Time =    1.000,"PART-1-1",           181,       9.13323,      -12.9344,            0.,NA,NA,"",   561.844E-03,   557.466E-03,   70.0065E-03,   5.40222E-03
C:/temp/dataset/9/17_3.odb,Step-1,Increment      1: Step Time =    1.000,"PART-1-1",           182,       9.14303,      -17.4019,            0.,NA,NA,"",   307.883E-03,   302.905E-03,   55.1380E-03,   5.37951E-03
C:/temp/dataset/9/17_3.odb,Step-1,Increment      1: Step Time =    1.000,"PART-1-1",           183,       9.11260,      -10.6744,            0.,NA,NA,"",   718.601E-03,   714.488E-03,   76.7701E-03,   5.36799E-03
C:/temp/dataset/9/17_3.odb,Step-1,Increment      1: Step Time =    1.000,"PART-1-1",           184,       9.06671,      -8.40676,            0.,NA,NA,"",   894.556E-03,   890.618E-03,   83.8513E-03,   4.62013E-03
C:/temp/dataset/9/17_3.odb,Step-1,Increment      1: Step Time =    1.000,"PART-1-1",           185,       9.15359,      -15.1846,            0.,NA,NA,"",   424.448E-03,   419.875E-03,   62.1345E-03,   5.33564E-03
C:/temp/dataset/9/17_3.odb,Step-1,Increment      1: Step Time =    1.000,"PART-1-1",           186,       9.09437,      -21.6308,            0.,NA,NA,"",   137.257E-03,   131.393E-03,   39.6895E-03,   5.66401E-03
C:/temp/dataset/9/17_3.odb,Step-1,Increment      1: Step Time =    1.000,"PART-1-1",           187,       8.94944,      -6.10597,            0.,NA,NA,"",       1.09386,       1.08991,   92.8997E-03,   3.75423E-03
C:/temp/dataset/9/17_3.odb,Step-1,Increment      1: Step Time =    1.000,"PART-1-1",           188,      -11.3189,       17.6054,            0.,NA,NA,"",       4.57888,       3.93558,       2.34038,   1.13181E-03
C:/temp/dataset/9/17_3.odb,Step-1,Increment      1: Step Time =    1.000,"PART-1-1",           189,      -10.4260,       2.85148,            0.,NA,NA,"",       3.23101,       2.22526,       2.34258,   975.727E-06
C:/temp/dataset/9/17_3.odb,Step-1,Increment      1: Step Time =    1.000,"PART-1-1",           190,      -12.4413,       27.8959,            0.,NA,NA,"",       5.65587,       5.12014,       2.40271,   243.153E-06
C:/temp/dataset/9/17_3.odb,Step-1,Increment      1: Step Time =    1.000,"PART-1-1",           191,      -10.6658,       19.6683,            0.,NA,NA,"",       4.73505,       4.16517,       2.25212,   915.626E-06
C:/temp/dataset/9/17_3.odb,Step-1,Increment      1: Step Time =    1.000,"PART-1-1",           192,      -12.1118,       16.4066,            0.,NA,NA,"",       4.51981,       3.80491,       2.43953,   1.09744E-03
C:/temp/dataset/9/17_3.odb,Step-1,Increment      1: Step Time =    1.000,"PART-1-1",           193,      -11.5166,       14.9043,            0.,NA,NA,"",       4.34188,       3.63067,       2.38120,   1.29395E-03
C:/temp/dataset/9/17_3.odb,Step-1,Increment      1: Step Time =    1.000,"PART-1-1",           194,      -11.2054,       12.7278,            0.,NA,NA,"",       4.12351,       3.38117,       2.36029,   1.38628E-03
C:/temp/dataset/9/17_3.odb,Step-1,Increment      1: Step Time =    1.000,"PART-1-1",           195,      -11.1139,       10.5020,            0.,NA,NA,"",       3.92011,       3.12599,       2.36548,   1.41390E-03
C:/temp/dataset/9/17_3.odb,Step-1,Increment      1: Step Time =    1.000,"PART-1-1",           196,      -9.42029,       24.1195,            0.,NA,NA,"",       5.10856,       4.66541,       2.08120,   407.512E-06
C:/temp/dataset/9/17_3.odb,Step-1,Increment      1: Step Time =    1.000,"PART-1-1",           197,      -11.0759,       8.46025,            0.,NA,NA,"",       3.74159,       2.89027,       2.37609,   1.41196E-03
C:/temp/dataset/9/17_3.odb,Step-1,Increment      1: Step Time =    1.000,"PART-1-1",           198,      -10.9473,       6.84821,            0.,NA,NA,"",       3.59612,       2.70181,       2.37325,   1.37989E-03
C:/temp/dataset/9/17_3.odb,Step-1,Increment      1: Step Time =    1.000,"PART-1-1",           199,       9.64075,      -25.5803,            0.,NA,NA,"",   33.4030E-03,   31.2800E-03,   11.7184E-03,   3.41291E-03
C:/temp/dataset/9/17_3.odb,Step-1,Increment      1: Step Time =    1.000,"PART-1-1",           200,       6.22595,      -2.03957,            0.,NA,NA,"",       1.56386,       1.52245,   357.505E-03,   9.17338E-03
C:/temp/dataset/9/17_3.odb,Step-1,Increment      1: Step Time =    1.000,"PART-1-1",           201,       6.24072,       2.15031,            0.,NA,NA,"",       2.02537,       1.99428,   353.477E-03,   7.25119E-03
C:/temp/dataset/9/17_3.odb,Step-1,Increment      1: Step Time =    1.000,"PART-1-1",           202,      -7.69234,       3.89067,            0.,NA,NA,"",       3.07397,       2.32974,       2.00539,   1.05229E-03
C:/temp/dataset/9/17_3.odb,Step-1,Increment      1: Step Time =    1.000,"PART-1-1",           203,       7.31807,       22.0589,            0.,NA,NA,"",       4.30051,       4.29823,   139.803E-03,   1.16646E-03
C:/temp/dataset/9/17_3.odb,Step-1,Increment      1: Step Time =    1.000,"PART-1-1",           204,      -6.44398,       20.4265,            0.,NA,NA,"",       4.57386,       4.22045,       1.76296,   1.65802E-03
C:/temp/dataset/9/17_3.odb,Step-1,Increment      1: Step Time =    1.000,"PART-1-1",           205,       12.2962,       25.0128,            0.,NA,NA,"",       4.63611,       4.61227,  -469.481E-03,   135.318E-06
C:/temp/dataset/9/17_3.odb,Step-1,Increment      1: Step Time =    1.000,"PART-1-1",           206,       12.2257,      -24.8009,            0.,NA,NA,"",   60.2002E-03,   48.0377E-03,  -36.2828E-03,   8.13399E-03
C:/temp/dataset/9/17_3.odb,Step-1,Increment      1: Step Time =    1.000,"PART-1-1",           207,      -2.06005,       24.5200,            0.,NA,NA,"",       4.81931,       4.66006,       1.22868,   517.718E-06
C:/temp/dataset/9/17_3.odb,Step-1,Increment      1: Step Time =    1.000,"PART-1-1",           208,       9.31619,       25.0673,            0.,NA,NA,"",       4.64174,       4.64027,  -116.700E-03,   345.875E-06
C:/temp/dataset/9/17_3.odb,Step-1,Increment      1: Step Time =    1.000,"PART-1-1",           209,       3.21447,       24.8112,            0.,NA,NA,"",       4.69477,       4.65529,   607.507E-03,   546.625E-06
C:/temp/dataset/9/17_3.odb,Step-1,Increment      1: Step Time =    1.000,"PART-1-1",           210,      -7.52022,      -1.18711,            0.,NA,NA,"",       2.64960,       1.71694,       2.01804,   1.48627E-03
C:/temp/dataset/9/17_3.odb,Step-1,Increment      1: Step Time =    1.000,"PART-1-1",           211,       10.0127,       14.9017,            0.,NA,NA,"",       3.42745,       3.42502,  -129.005E-03,   1.35621E-03
C:/temp/dataset/9/17_3.odb,Step-1,Increment      1: Step Time =    1.000,"PART-1-1",           212,       10.7293,       3.02357,            0.,NA,NA,"",       2.05700,       2.05296,  -128.898E-03,   3.57564E-03
C:/temp/dataset/9/17_3.odb,Step-1,Increment      1: Step Time =    1.000,"PART-1-1",           213,       11.4837,       7.36813,            0.,NA,NA,"",       2.55091,       2.53935,  -242.552E-03,   1.72354E-03
C:/temp/dataset/9/17_3.odb,Step-1,Increment      1: Step Time =    1.000,"PART-1-1",           214,      -9.20573,       12.9161,            0.,NA,NA,"",       4.00154,       3.38934,       2.12712,   1.30863E-03
C:/temp/dataset/9/17_3.odb,Step-1,Increment      1: Step Time =    1.000,"PART-1-1",           215,   314.418E-03,       24.7704,            0.,NA,NA,"",       4.76735,       4.67192,   949.120E-03,   547.787E-06
C:/temp/dataset/9/17_3.odb,Step-1,Increment      1: Step Time =    1.000,"PART-1-1",           216,       7.52406,       26.3727,            0.,NA,NA,"",       4.80875,       4.80797,   86.7695E-03,   308.091E-06
C:/temp/dataset/9/17_3.odb,Step-1,Increment      1: Step Time =    1.000,"PART-1-1",           217,  -811.906E-03,   82.6841E-03,            0.,NA,NA,"",       2.16803,       1.81886,       1.17987,   3.79812E-03
C:/temp/dataset/9/17_3.odb,Step-1,Increment      1: Step Time =    1.000,"PART-1-1",           218,       11.1400,      -19.6444,            0.,NA,NA,"",   203.095E-03,   200.533E-03,  -32.1603E-03,   3.08524E-03
C:/temp/dataset/9/17_3.odb,Step-1,Increment      1: Step Time =    1.000,"PART-1-1",           219,       11.1036,      -10.4226,            0.,NA,NA,"",   730.252E-03,   726.896E-03,  -69.9298E-03,   2.94311E-03
C:/temp/dataset/9/17_3.odb,Step-1,Increment      1: Step Time =    1.000,"PART-1-1",           220,       10.9280,      -5.64335,            0.,NA,NA,"",       1.13174,       1.12846,  -86.1351E-03,   5.01090E-03
C:/temp/dataset/9/17_3.odb,Step-1,Increment      1: Step Time =    1.000,"PART-1-1",           221,       11.0667,       5.48495,            0.,NA,NA,"",       2.33525,       2.32813,  -182.198E-03,   1.94341E-03
C:/temp/dataset/9/17_3.odb,Step-1,Increment      1: Step Time =    1.000,"PART-1-1",           222,       11.1390,      -12.7671,            0.,NA,NA,"",   566.145E-03,   562.908E-03,  -60.4499E-03,   2.94382E-03
C:/temp/dataset/9/17_3.odb,Step-1,Increment      1: Step Time =    1.000,"PART-1-1",           223,       11.1627,      -15.1016,            0.,NA,NA,"",   423.212E-03,   420.104E-03,  -51.1976E-03,   3.08330E-03
C:/temp/dataset/9/17_3.odb,Step-1,Increment      1: Step Time =    1.000,"PART-1-1",           224,      -9.10801,       10.4728,            0.,NA,NA,"",       3.76960,       3.10925,       2.13130,   1.31895E-03
C:/temp/dataset/9/17_3.odb,Step-1,Increment      1: Step Time =    1.000,"PART-1-1",           225,      -9.12162,       8.28854,            0.,NA,NA,"",       3.57414,       2.85742,       2.14700,   1.40926E-03
C:/temp/dataset/9/17_3.odb,Step-1,Increment      1: Step Time =    1.000,"PART-1-1",           226,      -8.73753,       18.6317,            0.,NA,NA,"",       4.51918,       4.03406,       2.03700,   1.40403E-03
C:/temp/dataset/9/17_3.odb,Step-1,Increment      1: Step Time =    1.000,"PART-1-1",           227,      -9.90634,  -397.381E-03,            0.,NA,NA,"",       2.94376,       1.83035,       2.30555,   1.27892E-03
C:/temp/dataset/9/17_3.odb,Step-1,Increment      1: Step Time =    1.000,"PART-1-1",           228,       9.93939,       19.9385,            0.,NA,NA,"",       4.02821,       4.02521,  -155.568E-03,   1.16111E-03
C:/temp/dataset/9/17_3.odb,Step-1,Increment      1: Step Time =    1.000,"PART-1-1",           229,       5.70370,       25.8085,            0.,NA,NA,"",       4.76439,       4.75453,   306.322E-03,   431.089E-06
C:/temp/dataset/9/17_3.odb,Step-1,Increment      1: Step Time =    1.000,"PART-1-1",           230,       10.0348,       12.2094,            0.,NA,NA,"",       3.10988,       3.10783,  -112.823E-03,   1.35685E-03
C:/temp/dataset/9/17_3.odb,Step-1,Increment      1: Step Time =    1.000,"PART-1-1",           231,       9.98921,       17.4486,            0.,NA,NA,"",       3.73053,       3.72774,  -144.124E-03,   1.36907E-03
C:/temp/dataset/9/17_3.odb,Step-1,Increment      1: Step Time =    1.000,"PART-1-1",           232,       10.1044,       9.10575,            0.,NA,NA,"",       2.74872,       2.74692,  -99.5006E-03,   1.29277E-03
C:/temp/dataset/9/17_3.odb,Step-1,Increment      1: Step Time =    1.000,"PART-1-1",           233,      -3.11139,      -1.10310,            0.,NA,NA,"",       2.24478,       1.69447,       1.47235,   3.20744E-03
C:/temp/dataset/9/17_3.odb,Step-1,Increment      1: Step Time =    1.000,"PART-1-1",           234,      -6.48507,       25.5695,            0.,NA,NA,"",       5.11562,       4.81260,       1.73449,   340.222E-06
C:/temp/dataset/9/17_3.odb,Step-1,Increment      1: Step Time =    1.000,"PART-1-1",           235,      -4.76537,       24.8732,            0.,NA,NA,"",       4.96533,       4.72025,       1.54069,   311.537E-06
C:/temp/dataset/9/17_3.odb,Step-1,Increment      1: Step Time =    1.000,"PART-1-1",           236,      -8.46351,       26.0628,            0.,NA,NA,"",       5.26103,       4.88283,       1.95868,   392.037E-06
C:/temp/dataset/9/17_3.odb,Step-1,Increment      1: Step Time =    1.000,"PART-1-1",           237,      -9.50218,       15.8804,            0.,NA,NA,"",       4.29969,       3.72796,       2.14235,   1.34899E-03
C:/temp/dataset/9/17_3.odb,Step-1,Increment      1: Step Time =    1.000,"PART-1-1",           238,      -5.29510,      -1.38770,            0.,NA,NA,"",       2.41925,       1.67599,       1.74466,   2.15302E-03
C:/temp/dataset/9/17_3.odb,Step-1,Increment      1: Step Time =    1.000,"PART-1-1",           239,       11.0587,      -21.7318,            0.,NA,NA,"",   127.564E-03,   125.577E-03,  -22.4291E-03,   2.82175E-03
C:/temp/dataset/9/17_3.odb,Step-1,Increment      1: Step Time =    1.000,"PART-1-1",           240,       11.1670,      -17.4071,            0.,NA,NA,"",   301.932E-03,   299.029E-03,  -41.7702E-03,   3.16246E-03
C:/temp/dataset/9/17_3.odb,Step-1,Increment      1: Step Time =    1.000,"PART-1-1",           241,       11.0513,      -8.06140,            0.,NA,NA,"",   917.007E-03,   913.528E-03,  -79.8071E-03,   3.57029E-03
C:/temp/dataset/9/17_3.odb,Step-1,Increment      1: Step Time =    1.000,"PART-1-1",           242,       10.1357,   7.39639E-03,            0.,NA,NA,"",       1.72031,       1.71962,  -48.5854E-03,   6.07286E-03
C:/temp/dataset/9/17_3.odb,Step-1,Increment      1: Step Time =    1.000,"PART-1-1",           243,       10.6886,      -3.06387,            0.,NA,NA,"",       1.38761,       1.38510,  -83.4156E-03,   6.45366E-03
C:/temp/dataset/9/17_3.odb,Step-1,Increment      1: Step Time =    1.000,"PART-1-1",           244,       9.76329,       22.4053,            0.,NA,NA,"",       4.32335,       4.32069,  -151.560E-03,   751.944E-06
C:/temp/dataset/9/17_3.odb,Step-1,Increment      1: Step Time =    1.000,"PART-1-1",           245,       8.68231,      -3.74099,            0.,NA,NA,"",       1.32714,       1.32244,   111.640E-03,   6.47227E-03
C:/temp/dataset/9/17_3.odb,Step-1,Increment      1: Step Time =    1.000,"PART-1-1",           246,      -9.34414,       6.30777,            0.,NA,NA,"",       3.41883,       2.62793,       2.18686,   1.06748E-03
C:/temp/dataset/9/17_3.odb,Step-1,Increment      1: Step Time =    1.000,"PART-1-1",           247,      -9.93235,       4.61568,            0.,NA,NA,"",       3.32661,       2.43220,       2.26952,   940.814E-06
C:/temp/dataset/9/17_3.odb,Step-1,Increment      1: Step Time =    1.000,"PART-1-1",           248,      -8.14937,       21.0679,            0.,NA,NA,"",       4.72925,       4.30643,       1.95460,   1.03294E-03
C:/temp/dataset/9/17_3.odb,Step-1,Increment      1: Step Time =    1.000,"PART-1-1",           249,       10.7972,      -23.3791,            0.,NA,NA,"",   78.7326E-03,   77.9532E-03,  -11.0511E-03,   1.70026E-03
C:/temp/dataset/9/17_3.odb,Step-1,Increment      1: Step Time =    1.000,"PART-1-1",           250,       4.15357,   65.4176E-03,            0.,NA,NA,"",       1.87303,       1.77862,   587.158E-03,   4.77948E-03
C:/temp/dataset/9/17_3.odb,Step-1,Increment      1: Step Time =    1.000,"PART-1-1",           251,       8.71950,       3.82470,            0.,NA,NA,"",       2.15981,       2.15820,   83.2999E-03,   4.16157E-03
C:/temp/dataset/9/17_3.odb,Step-1,Increment      1: Step Time =    1.000,"PART-1-1",           252,       5.00281,       23.5204,            0.,NA,NA,"",       4.50784,       4.48964,   404.690E-03,   788.352E-06
C:/temp/dataset/9/17_3.odb,Step-1,Increment      1: Step Time =    1.000,"PART-1-1",           253,       7.40149,   60.9774E-03,            0.,NA,NA,"",       1.76217,       1.74672,   232.848E-03,   7.36591E-03
C:/temp/dataset/9/17_3.odb,Step-1,Increment      1: Step Time =    1.000,"PART-1-1",           254,      -5.73116,       22.7675,            0.,NA,NA,"",       4.78319,       4.48356,       1.66632,   727.068E-06
C:/temp/dataset/9/17_3.odb,Step-1,Increment      1: Step Time =    1.000,"PART-1-1",           255,      -5.42683,       1.83799,            0.,NA,NA,"",       2.69976,       2.06401,       1.74027,   3.28551E-03
C:/temp/dataset/9/17_3.odb,Step-1,Increment      1: Step Time =    1.000,"PART-1-1",           256,       6.81561,       24.0815,            0.,NA,NA,"",       4.54593,       4.54212,   186.205E-03,   661.317E-06
C:/temp/dataset/9/17_3.odb,Step-1,Increment      1: Step Time =    1.000,"PART-1-1",           257,      -7.40884,       23.3683,            0.,NA,NA,"",       4.92748,       4.56486,       1.85530,   631.661E-06
C:/temp/dataset/9/17_3.odb,Step-1,Increment      1: Step Time =    1.000,"PART-1-1",           258,      -3.69176,       23.9755,            0.,NA,NA,"",       4.82311,       4.60863,       1.42229,   579.743E-06
C:/temp/dataset/9/17_3.odb,Step-1,Increment      1: Step Time =    1.000,"PART-1-1",           259,      -8.10961,       1.76736,            0.,NA,NA,"",       2.93307,       2.07814,       2.06984,   1.27505E-03
C:/temp/dataset/9/17_3.odb,Step-1,Increment      1: Step Time =    1.000,"PART-1-1",           260,       5.94930,   61.4696E-03,            0.,NA,NA,"",       1.80278,       1.76065,   387.450E-03,   6.73650E-03
C:/temp/dataset/9/17_3.odb,Step-1,Increment      1: Step Time =    1.000,"PART-1-1",           261,       1.93878,   62.7924E-03,            0.,NA,NA,"",       1.98593,       1.79669,   846.057E-03,   4.00008E-03
C:/temp/dataset/9/17_3.odb,Step-1,Increment      1: Step Time =    1.000,"PART-1-1",           262,       6.71051,      -4.41826,            0.,NA,NA,"",       1.29780,       1.26172,   303.876E-03,   9.15144E-03
C:/temp/dataset/9/17_3.odb,Step-1,Increment      1: Step Time =    1.000,"PART-1-1",           263,      -12.5366,      -2.82410,            0.,NA,NA,"",       3.07216,       1.55225,       2.65117,   3.06656E-03
C:/temp/dataset/9/17_3.odb,Step-1,Increment      1: Step Time =    1.000,"PART-1-1",           264,       6.75090,       4.53602,            0.,NA,NA,"",       2.27519,       2.25596,   295.182E-03,   5.72682E-03
C:/temp/dataset/9/17_3.odb,Step-1,Increment      1: Step Time =    1.000,"PART-1-1",           265,      -5.22339,       3.46233,            0.,NA,NA,"",       2.82976,       2.25729,       1.70650,   4.14918E-03
C:/temp/dataset/9/17_3.odb,Step-1,Increment      1: Step Time =    1.000,"PART-1-1",           266,       4.93795,       21.9167,            0.,NA,NA,"",       4.32117,       4.30043,   422.900E-03,   1.08006E-03
C:/temp/dataset/9/17_3.odb,Step-1,Increment      1: Step Time =    1.000,"PART-1-1",           267,       8.13144,      -1.42002,            0.,NA,NA,"",       1.58329,       1.57519,   159.993E-03,   7.55795E-03
C:/temp/dataset/9/17_3.odb,Step-1,Increment      1: Step Time =    1.000,"PART-1-1",           268,      -3.13115,       1.39136,            0.,NA,NA,"",       2.46762,       1.99093,       1.45786,   4.03117E-03
C:/temp/dataset/9/17_3.odb,Step-1,Increment      1: Step Time =    1.000,"PART-1-1",           269,       9.17709,       6.32873,            0.,NA,NA,"",       2.43626,       2.43616,   21.6615E-03,   1.62710E-03
C:/temp/dataset/9/17_3.odb,Step-1,Increment      1: Step Time =    1.000,"PART-1-1",           270,      -11.0423,       1.34077,            0.,NA,NA,"",       3.17769,       2.04814,       2.42958,   1.43204E-03
C:/temp/dataset/9/17_3.odb,Step-1,Increment      1: Step Time =    1.000,"PART-1-1",           271,      -10.1478,       26.6048,            0.,NA,NA,"",       5.40203,       4.95648,       2.14831,   355.878E-06
C:/temp/dataset/9/17_3.odb,Step-1,Increment      1: Step Time =    1.000,"PART-1-1",           272,      -10.1118,       21.9370,            0.,NA,NA,"",       4.92576,       4.41988,       2.17435,   558.114E-06
C:/temp/dataset/9/17_3.odb,Step-1,Increment      1: Step Time =    1.000,"PART-1-1",           273,       8.13886,       1.50501,            0.,NA,NA,"",       1.90865,       1.90256,   152.393E-03,   6.51607E-03
C:/temp/dataset/9/17_3.odb,Step-1,Increment      1: Step Time =    1.000,"PART-1-1",           274,      -7.06249,   219.393E-03,            0.,NA,NA,"",       2.71230,       1.88330,       1.95186,   1.93281E-03
C:/temp/dataset/9/17_3.odb,Step-1,Increment      1: Step Time =    1.000,"PART-1-1",           275,      -5.40522,   241.534E-03,            0.,NA,NA,"",       2.56111,       1.87255,       1.74724,   2.73730E-03
C:/temp/dataset/9/17_3.odb,Step-1,Increment      1: Step Time =    1.000,"PART-1-1",           276,      -3.80180,   194.541E-03,            0.,NA,NA,"",       2.41595,       1.85415,       1.54885,   3.40096E-03
C:/temp/dataset/9/17_3.odb,Step-1,Increment      1: Step Time =    1.000,"PART-1-1",           277,      -2.71285,       28.4954,            0.,NA,NA,"",       5.28397,       5.12724,       1.27740,   548.912E-06
C:/temp/dataset/9/17_3.odb,Step-1,Increment      1: Step Time =    1.000,"PART-1-1",           278,         -3.75,           30.,            0.,NA,NA,"",       5.48676,       5.30846,       1.38734,   925.090E-06
C:/temp/dataset/9/17_3.odb,Step-1,Increment      1: Step Time =    1.000,"PART-1-1",           279,      -5.26224,       28.8665,            0.,NA,NA,"",       5.41888,       5.18625,       1.57070,   608.926E-06
C:/temp/dataset/9/17_3.odb,Step-1,Increment      1: Step Time =    1.000,"PART-1-1",           280,      -4.22509,       27.3619,            0.,NA,NA,"",       5.21413,       5.00524,       1.46106,   259.760E-06
C:/temp/dataset/9/17_3.odb,Step-1,Increment      1: Step Time =    1.000,"PART-1-1",           281,      -3.84553,       25.9321,            0.,NA,NA,"",       5.04282,       4.83674,       1.42687,   144.972E-06
C:/temp/dataset/9/17_3.odb,Step-1,Increment      1: Step Time =    1.000,"PART-1-1",           282,      -6.00478,       26.6512,            0.,NA,NA,"",       5.21004,       4.93454,       1.67178,   287.018E-06
C:/temp/dataset/9/17_3.odb,Step-1,Increment      1: Step Time =    1.000,"PART-1-1",           283,      -5.62522,       25.2214,            0.,NA,NA,"",       5.03998,       4.76648,       1.63770,   309.188E-06
C:/temp/dataset/9/17_3.odb,Step-1,Increment      1: Step Time =    1.000,"PART-1-1",           284,      -10.0879,       29.0985,            0.,NA,NA,"",       5.65734,       5.24319,       2.12474,   302.330E-06
C:/temp/dataset/9/17_3.odb,Step-1,Increment      1: Step Time =    1.000,"PART-1-1",           285,        -11.25,           30.,            0.,NA,NA,"",       5.80849,       5.35415,       2.25203,   216.729E-06
C:/temp/dataset/9/17_3.odb,Step-1,Increment      1: Step Time =    1.000,"PART-1-1",           286,      -12.4706,       28.9480,            0.,NA,NA,"",       5.76424,       5.24126,       2.39909,   139.115E-06
C:/temp/dataset/9/17_3.odb,Step-1,Increment      1: Step Time =    1.000,"PART-1-1",           287,      -11.3086,       28.0465,            0.,NA,NA,"",       5.61058,       5.13005,       2.27182,   282.721E-06
C:/temp/dataset/9/17_3.odb,Step-1,Increment      1: Step Time =    1.000,"PART-1-1",           288,      -13.4495,       25.5029,            0.,NA,NA,"",       5.47353,       4.85164,       2.53398,   248.313E-06
C:/temp/dataset/9/17_3.odb,Step-1,Increment      1: Step Time =    1.000,"PART-1-1",           289,          -15.,       24.5313,            0.,NA,NA,"",       5.47306,       4.75044,       2.71803,   324.682E-06
C:/temp/dataset/9/17_3.odb,Step-1,Increment      1: Step Time =    1.000,"PART-1-1",           290,      -13.6920,       23.1529,            0.,NA,NA,"",       5.25821,       4.58352,       2.57684,   289.005E-06
C:/temp/dataset/9/17_3.odb,Step-1,Increment      1: Step Time =    1.000,"PART-1-1",           291,      -12.1415,       24.1246,            0.,NA,NA,"",       5.26036,       4.68454,       2.39300,   220.397E-06
C:/temp/dataset/9/17_3.odb,Step-1,Increment      1: Step Time =    1.000,"PART-1-1",           292,          8.75,          -30.,            0.,NA,NA,"",            0.,  -3.32257E-39,   10.9451E-39,   6.18395E-03
C:/temp/dataset/9/17_3.odb,Step-1,Increment      1: Step Time =    1.000,"PART-1-1",           293,       9.96407,      -28.8633,            0.,NA,NA,"",   2.83954E-03,  -2.49942E-03,   1.34756E-03,   2.17320E-03
C:/temp/dataset/9/17_3.odb,Step-1,Increment      1: Step Time =    1.000,"PART-1-1",           294,       8.68711,      -27.7998,            0.,NA,NA,"",   13.4085E-03,   5.11689E-03,   12.3938E-03,   7.63277E-03
C:/temp/dataset/9/17_3.odb,Step-1,Increment      1: Step Time =    1.000,"PART-1-1",           295,       7.47304,      -28.9365,            0.,NA,NA,"",   9.67895E-03,   1.04662E-03,   9.62220E-03,   11.2473E-03
C:/temp/dataset/9/17_3.odb,Step-1,Increment      1: Step Time =    1.000,"PART-1-1",           296,       10.9279,      -22.5555,            0.,NA,NA,"",   101.821E-03,   100.509E-03,  -16.2906E-03,   2.24852E-03
C:/temp/dataset/9/17_3.odb,Step-1,Increment      1: Step Time =    1.000,"PART-1-1",           297,       10.0765,      -21.6813,            0.,NA,NA,"",   127.830E-03,   127.549E-03,   8.47265E-03,   1.51515E-03
C:/temp/dataset/9/17_3.odb,Step-1,Increment      1: Step Time =    1.000,"PART-1-1",           298,       9.14242,      -22.6395,            0.,NA,NA,"",   105.872E-03,   100.357E-03,   33.7230E-03,   5.50989E-03
C:/temp/dataset/9/17_3.odb,Step-1,Increment      1: Step Time =    1.000,"PART-1-1",           299,       9.99384,      -23.5137,            0.,NA,NA,"",   75.4561E-03,   74.9379E-03,   8.82803E-03,   1.88320E-03
C:/temp/dataset/9/17_3.odb,Step-1,Increment      1: Step Time =    1.000,"PART-1-1",           300,       7.08785,      -18.4988,            0.,NA,NA,"",   298.238E-03,   262.969E-03,   140.688E-03,   13.9782E-03
C:/temp/dataset/9/17_3.odb,Step-1,Increment      1: Step Time =    1.000,"PART-1-1",           301,       6.04673,      -17.4684,            0.,NA,NA,"",   378.237E-03,   319.833E-03,   201.916E-03,   18.2469E-03
C:/temp/dataset/9/17_3.odb,Step-1,Increment      1: Step Time =    1.000,"PART-1-1",           302,            5.,      -18.5417,            0.,NA,NA,"",   363.087E-03,   280.128E-03,   230.999E-03,   22.6682E-03
C:/temp/dataset/9/17_3.odb,Step-1,Increment      1: Step Time =    1.000,"PART-1-1",           303,       6.04112,      -19.5721,            0.,NA,NA,"",   282.222E-03,   225.566E-03,   169.615E-03,   18.3977E-03
C:/temp/dataset/9/17_3.odb,Step-1,Increment      1: Step Time =    1.000,"PART-1-1",           304,       7.10245,      -14.2066,            0.,NA,NA,"",   524.581E-03,   489.967E-03,   187.398E-03,   13.7633E-03
C:/temp/dataset/9/17_3.odb,Step-1,Increment      1: Step Time =    1.000,"PART-1-1",           305,       6.04975,      -13.2285,            0.,NA,NA,"",   619.994E-03,   561.010E-03,   263.932E-03,   17.9616E-03
C:/temp/dataset/9/17_3.odb,Step-1,Increment      1: Step Time =    1.000,"PART-1-1",           306,            5.,       -14.375,            0.,NA,NA,"",   588.335E-03,   500.361E-03,   309.479E-03,   22.2966E-03
C:/temp/dataset/9/17_3.odb,Step-1,Increment      1: Step Time =    1.000,"PART-1-1",           307,       6.05270,      -15.3531,            0.,NA,NA,"",   490.616E-03,   431.634E-03,   233.230E-03,   18.0942E-03
C:/temp/dataset/9/17_3.odb,Step-1,Increment      1: Step Time =    1.000,"PART-1-1",           308,            5.,      -6.04167,            0.,NA,NA,"",       1.21373,       1.12423,   457.435E-03,   29.4522E-03
C:/temp/dataset/9/17_3.odb,Step-1,Increment      1: Step Time =    1.000,"PART-1-1",           309,       5.97724,      -6.85181,            0.,NA,NA,"",       1.10210,       1.04281,   356.611E-03,   18.8348E-03
C:/temp/dataset/9/17_3.odb,Step-1,Increment      1: Step Time =    1.000,"PART-1-1",           310,       6.83249,      -5.51927,            0.,NA,NA,"",       1.18827,       1.15260,   288.984E-03,   9.37075E-03
C:/temp/dataset/9/17_3.odb,Step-1,Increment      1: Step Time =    1.000,"PART-1-1",           311,       5.85525,      -4.70913,            0.,NA,NA,"",       1.29427,       1.23420,   389.720E-03,   16.8134E-03
C:/temp/dataset/9/17_3.odb,Step-1,Increment      1: Step Time =    1.000,"PART-1-1",           312,       4.27314,       1.25089,            0.,NA,NA,"",       1.99535,       1.91196,   570.792E-03,   4.64099E-03
C:/temp/dataset/9/17_3.odb,Step-1,Increment      1: Step Time =    1.000,"PART-1-1",           313,       3.27994,       2.49943,            0.,NA,NA,"",       2.17271,       2.06386,   679.093E-03,   3.42906E-03
C:/temp/dataset/9/17_3.odb,Step-1,Increment      1: Step Time =    1.000,"PART-1-1",           314,       2.05297,       1.31265,            0.,NA,NA,"",       2.10795,       1.93923,   826.319E-03,   3.12288E-03
C:/temp/dataset/9/17_3.odb,Step-1,Increment      1: Step Time =    1.000,"PART-1-1",           315,       3.04617,   64.1050E-03,            0.,NA,NA,"",       1.92568,       1.78787,   715.376E-03,   3.95424E-03
C:/temp/dataset/9/17_3.odb,Step-1,Increment      1: Step Time =    1.000,"PART-1-1",           316,       6.28410,       12.4112,            0.,NA,NA,"",       3.17436,       3.15834,   318.583E-03,   2.40742E-03
C:/temp/dataset/9/17_3.odb,Step-1,Increment      1: Step Time =    1.000,"PART-1-1",           317,            5.,         11.25,            0.,NA,NA,"",       3.06944,       3.03288,   472.337E-03,   3.60048E-03
C:/temp/dataset/9/17_3.odb,Step-1,Increment      1: Step Time =    1.000,"PART-1-1",           318,       6.24476,       9.82085,            0.,NA,NA,"",       2.87630,       2.85678,   334.527E-03,   3.08212E-03
C:/temp/dataset/9/17_3.odb,Step-1,Increment      1: Step Time =    1.000,"PART-1-1",           319,       7.52885,       10.9821,            0.,NA,NA,"",       2.98741,       2.98184,   182.292E-03,   2.07501E-03
C:/temp/dataset/9/17_3.odb,Step-1,Increment      1: Step Time =    1.000,"PART-1-1",           320,       6.23557,       19.9374,            0.,NA,NA,"",       4.06332,       4.05358,   281.186E-03,   1.57675E-03
C:/temp/dataset/9/17_3.odb,Step-1,Increment      1: Step Time =    1.000,"PART-1-1",           321,            5.,         18.75,            0.,NA,NA,"",       3.94439,       3.92023,   435.951E-03,   1.30583E-03
C:/temp/dataset/9/17_3.odb,Step-1,Increment      1: Step Time =    1.000,"PART-1-1",           322,       6.25255,       17.4722,            0.,NA,NA,"",       3.76936,       3.75781,   294.796E-03,   1.29178E-03
C:/temp/dataset/9/17_3.odb,Step-1,Increment      1: Step Time =    1.000,"PART-1-1",           323,       7.48812,       18.6595,            0.,NA,NA,"",       3.89315,       3.89058,   141.414E-03,   1.43599E-03
C:/temp/dataset/9/17_3.odb,Step-1,Increment      1: Step Time =    1.000,"PART-1-1",           324,       12.4612,       28.7577,            0.,NA,NA,"",       5.08161,       5.05540,  -515.433E-03,   23.1341E-06
C:/temp/dataset/9/17_3.odb,Step-1,Increment      1: Step Time =    1.000,"PART-1-1",           325,         11.25,           30.,            0.,NA,NA,"",       5.22515,       5.21127,  -380.530E-03,   61.9680E-06
C:/temp/dataset/9/17_3.odb,Step-1,Increment      1: Step Time =    1.000,"PART-1-1",           326,       9.95383,       28.8406,            0.,NA,NA,"",       5.08759,       5.08289,  -218.575E-03,   56.1318E-06
C:/temp/dataset/9/17_3.odb,Step-1,Increment      1: Step Time =    1.000,"PART-1-1",           327,       11.1650,       27.5983,            0.,NA,NA,"",       4.93974,       4.92708,  -353.489E-03,   62.6212E-06
C:/temp/dataset/9/17_3.odb,Step-1,Increment      1: Step Time =    1.000,"PART-1-1",           328,       9.61193,       26.3742,            0.,NA,NA,"",       4.79576,       4.79306,  -160.752E-03,   186.220E-06
C:/temp/dataset/9/17_3.odb,Step-1,Increment      1: Step Time =    1.000,"PART-1-1",           329,       10.8062,       25.0400,            0.,NA,NA,"",       4.63547,       4.62620,  -293.069E-03,   221.292E-06
C:/temp/dataset/9/17_3.odb,Step-1,Increment      1: Step Time =    1.000,"PART-1-1",           330,       12.3592,       26.2641,            0.,NA,NA,"",       4.78507,       4.76035,  -485.771E-03,   54.8284E-06
C:/temp/dataset/9/17_3.odb,Step-1,Increment      1: Step Time =    1.000,"PART-1-1",           331,       7.54419,       28.9985,            0.,NA,NA,"",       5.11886,       5.11844,   66.0457E-03,   149.580E-06
C:/temp/dataset/9/17_3.odb,Step-1,Increment      1: Step Time =    1.000,"PART-1-1",           332,          6.25,           30.,            0.,NA,NA,"",       5.25013,       5.24584,   212.257E-03,   323.052E-06
C:/temp/dataset/9/17_3.odb,Step-1,Increment      1: Step Time =    1.000,"PART-1-1",           333,       5.09159,       28.9175,            0.,NA,NA,"",       5.13813,       5.12570,   357.132E-03,   294.234E-06
C:/temp/dataset/9/17_3.odb,Step-1,Increment      1: Step Time =    1.000,"PART-1-1",           334,       6.38578,       27.9160,            0.,NA,NA,"",       5.00295,       4.99850,   210.956E-03,   224.846E-06
C:/temp/dataset/9/17_3.odb,Step-1,Increment      1: Step Time =    1.000,"PART-1-1",           335,       2.95769,       26.1428,            0.,NA,NA,"",       4.85464,       4.81375,   628.728E-03,   351.451E-06
C:/temp/dataset/9/17_3.odb,Step-1,Increment      1: Step Time =    1.000,"PART-1-1",           336,       4.45909,       25.3098,            0.,NA,NA,"",       4.72698,       4.70484,   457.031E-03,   491.981E-06
C:/temp/dataset/9/17_3.odb,Step-1,Increment      1: Step Time =    1.000,"PART-1-1",           337,       5.44343,       26.8217,            0.,NA,NA,"",       4.88713,       4.87597,   330.179E-03,   307.170E-06
C:/temp/dataset/9/17_3.odb,Step-1,Increment      1: Step Time =    1.000,"PART-1-1",           338,       3.94204,       27.6547,            0.,NA,NA,"",       5.00991,       4.98469,   501.994E-03,   294.874E-06
C:/temp/dataset/9/17_3.odb,Step-1,Increment      1: Step Time =    1.000,"PART-1-1",           339,       6.06395,       7.26936,            0.,NA,NA,"",       2.59128,       2.56564,   363.637E-03,   3.78178E-03
C:/temp/dataset/9/17_3.odb,Step-1,Increment      1: Step Time =    1.000,"PART-1-1",           340,       7.30871,       8.34021,            0.,NA,NA,"",       2.68716,       2.67812,   220.266E-03,   2.49830E-03
C:/temp/dataset/9/17_3.odb,Step-1,Increment      1: Step Time =    1.000,"PART-1-1",           341,            5.,          8.75,            0.,NA,NA,"",       2.78526,       2.74359,   480.034E-03,   4.70079E-03
C:/temp/dataset/9/17_3.odb,Step-1,Increment      1: Step Time =    1.000,"PART-1-1",           342,      -13.9291,       1.47830,            0.,NA,NA,"",       3.47193,       2.08295,       2.77771,   3.08317E-03
C:/temp/dataset/9/17_3.odb,Step-1,Increment      1: Step Time =    1.000,"PART-1-1",           343,          -15.,    468.75E-03,            0.,NA,NA,"",       3.51922,       1.96751,       2.91784,   3.71053E-03
C:/temp/dataset/9/17_3.odb,Step-1,Increment      1: Step Time =    1.000,"PART-1-1",           344,      -13.8152,  -655.377E-03,            0.,NA,NA,"",       3.32980,       1.82445,       2.78548,   3.11807E-03
C:/temp/dataset/9/17_3.odb,Step-1,Increment      1: Step Time =    1.000,"PART-1-1",           345,      -12.7443,   354.171E-03,            0.,NA,NA,"",       3.28043,       1.94018,       2.64517,   2.50741E-03
C:/temp/dataset/9/17_3.odb,Step-1,Increment      1: Step Time =    1.000,"PART-1-1",           346,      -13.9678,       8.16706,            0.,NA,NA,"",       3.95572,       2.87394,       2.71812,   2.51286E-03
C:/temp/dataset/9/17_3.odb,Step-1,Increment      1: Step Time =    1.000,"PART-1-1",           347,          -15.,       7.03125,            0.,NA,NA,"",       3.95848,       2.74740,       2.84980,   3.28840E-03
C:/temp/dataset/9/17_3.odb,Step-1,Increment      1: Step Time =    1.000,"PART-1-1",           348,      -13.6804,       5.85321,            0.,NA,NA,"",       3.75362,       2.60191,       2.70550,   2.67093E-03
C:/temp/dataset/9/17_3.odb,Step-1,Increment      1: Step Time =    1.000,"PART-1-1",           349,      -12.6482,       6.98902,            0.,NA,NA,"",       3.75084,       2.72891,       2.57330,   1.97108E-03
C:/temp/dataset/9/17_3.odb,Step-1,Increment      1: Step Time =    1.000,"PART-1-1",           350,      -5.93089,       17.7206,            0.,NA,NA,"",       4.27380,       3.91188,       1.72119,   578.187E-06
C:/temp/dataset/9/17_3.odb,Step-1,Increment      1: Step Time =    1.000,"PART-1-1",           351,      -7.00986,       16.6597,            0.,NA,NA,"",       4.22622,       3.79931,       1.85099,   1.02480E-03
C:/temp/dataset/9/17_3.odb,Step-1,Increment      1: Step Time =    1.000,"PART-1-1",           352,      -6.07897,       15.1891,            0.,NA,NA,"",       4.02804,       3.62637,       1.75344,   846.560E-06
C:/temp/dataset/9/17_3.odb,Step-1,Increment      1: Step Time =    1.000,"PART-1-1",           353,           -5.,         16.25,            0.,NA,NA,"",       4.07710,       3.73947,       1.62453,   681.807E-06
C:/temp/dataset/9/17_3.odb,Step-1,Increment      1: Step Time =    1.000,"PART-1-1",           354,      -7.79966,       18.2865,            0.,NA,NA,"",       4.43148,       3.98847,       1.93135,   1.35288E-03
C:/temp/dataset/9/17_3.odb,Step-1,Increment      1: Step Time =    1.000,"PART-1-1",           355,      -6.65288,       19.1839,            0.,NA,NA,"",       4.45843,       4.08142,       1.79431,   1.42209E-03
C:/temp/dataset/9/17_3.odb,Step-1,Increment      1: Step Time =    1.000,"PART-1-1",           356,      -7.29668,       20.7472,            0.,NA,NA,"",       4.65107,       4.26350,       1.85877,   1.27946E-03
C:/temp/dataset/9/17_3.odb,Step-1,Increment      1: Step Time =    1.000,"PART-1-1",           357,      -8.44345,       19.8498,            0.,NA,NA,"",       4.62297,       4.16998,       1.99577,   1.16254E-03
C:/temp/dataset/9/17_3.odb,Step-1,Increment      1: Step Time =    1.000,"PART-1-1",           358,      -2.59303,       4.06073,            0.,NA,NA,"",       2.68407,       2.30558,       1.37425,   2.51068E-03
C:/temp/dataset/9/17_3.odb,Step-1,Increment      1: Step Time =    1.000,"PART-1-1",           359,      -1.46713,       2.91047,            0.,NA,NA,"",       2.48900,       2.15683,       1.24225,   3.47368E-03
C:/temp/dataset/9/17_3.odb,Step-1,Increment      1: Step Time =    1.000,"PART-1-1",           360,  -124.098E-03,       3.84974,            0.,NA,NA,"",       2.49750,       2.25526,       1.07299,   4.05227E-03
C:/temp/dataset/9/17_3.odb,Step-1,Increment      1: Step Time =    1.000,"PART-1-1",           361,         -1.25,            5.,            0.,NA,NA,"",       2.69045,       2.40642,       1.20320,   4.19833E-03
C:/temp/dataset/9/17_3.odb,Step-1,Increment      1: Step Time =    1.000,"PART-1-1",           362,      -11.2683,  -541.568E-03,            0.,NA,NA,"",       3.07231,       1.82222,       2.47358,   1.85226E-03
C:/temp/dataset/9/17_3.odb,Step-1,Increment      1: Step Time =    1.000,"PART-1-1",           363,      -10.4743,   471.696E-03,            0.,NA,NA,"",       3.06070,       1.93942,       2.36782,   1.31104E-03
C:/temp/dataset/9/17_3.odb,Step-1,Increment      1: Step Time =    1.000,"PART-1-1",           364,      -11.9503,       1.36743,            0.,NA,NA,"",       3.26821,       2.05733,       2.53940,   1.92957E-03
C:/temp/dataset/9/17_3.odb,Step-1,Increment      1: Step Time =    1.000,"PART-1-1",           365,      -13.0095,       9.29789,            0.,NA,NA,"",       3.96687,       2.99924,       2.59628,   1.88762E-03
C:/temp/dataset/9/17_3.odb,Step-1,Increment      1: Step Time =    1.000,"PART-1-1",           366,      -14.0417,       10.3496,            0.,NA,NA,"",       4.13600,       3.12653,       2.70764,   2.10798E-03
C:/temp/dataset/9/17_3.odb,Step-1,Increment      1: Step Time =    1.000,"PART-1-1",           367,          -15.,       9.21875,            0.,NA,NA,"",       4.12453,       3.00157,       2.82884,   2.82357E-03
C:/temp/dataset/9/17_3.odb,Step-1,Increment      1: Step Time =    1.000,"PART-1-1",           368,      -6.40766,      -1.28741,            0.,NA,NA,"",       2.53329,       1.69637,       1.88146,   1.78565E-03
C:/temp/dataset/9/17_3.odb,Step-1,Increment      1: Step Time =    1.000,"PART-1-1",           369,      -5.35016,  -573.084E-03,            0.,NA,NA,"",       2.48922,       1.77437,       1.74580,   2.42478E-03
C:/temp/dataset/9/17_3.odb,Step-1,Increment      1: Step Time =    1.000,"PART-1-1",           370,      -6.23385,   230.463E-03,            0.,NA,NA,"",       2.63587,       1.87794,       1.84964,   2.33637E-03
C:/temp/dataset/9/17_3.odb,Step-1,Increment      1: Step Time =    1.000,"PART-1-1",           371,      -7.29135,  -483.859E-03,            0.,NA,NA,"",       2.67966,       1.80027,       1.98485,   1.66607E-03
C:/temp/dataset/9/17_3.odb,Step-1,Increment      1: Step Time =    1.000,"PART-1-1",           372,   952.242E-03,      -2.53706,            0.,NA,NA,"",       1.79491,       1.50186,   982.906E-03,   5.07597E-03
C:/temp/dataset/9/17_3.odb,Step-1,Increment      1: Step Time =    1.000,"PART-1-1",           373,  -130.910E-03,      -3.80019,            0.,NA,NA,"",       1.76347,       1.35626,       1.12711,   4.10477E-03
C:/temp/dataset/9/17_3.odb,Step-1,Increment      1: Step Time =    1.000,"PART-1-1",           374,          1.25,           -5.,            0.,NA,NA,"",       1.54730,       1.20609,   969.279E-03,   5.98676E-03
C:/temp/dataset/9/17_3.odb,Step-1,Increment      1: Step Time =    1.000,"PART-1-1",           375,       2.33315,      -3.73687,            0.,NA,NA,"",       1.58635,       1.35682,   821.926E-03,   6.20743E-03
C:/temp/dataset/9/17_3.odb,Step-1,Increment      1: Step Time =    1.000,"PART-1-1",           376,       4.26686,      -1.13377,            0.,NA,NA,"",       1.74023,       1.64175,   577.111E-03,   5.91132E-03
C:/temp/dataset/9/17_3.odb,Step-1,Increment      1: Step Time =    1.000,"PART-1-1",           377,       2.05254,      -1.20548,            0.,NA,NA,"",       1.85191,       1.65060,   839.695E-03,   4.84275E-03
C:/temp/dataset/9/17_3.odb,Step-1,Increment      1: Step Time =    1.000,"PART-1-1",           378,       3.27323,      -2.40335,            0.,NA,NA,"",       1.65998,       1.50668,   696.743E-03,   5.85116E-03
C:/temp/dataset/9/17_3.odb,Step-1,Increment      1: Step Time =    1.000,"PART-1-1",           379,       10.4325,       1.51548,            0.,NA,NA,"",       1.88786,       1.88580,  -88.0569E-03,   4.80137E-03
C:/temp/dataset/9/17_3.odb,Step-1,Increment      1: Step Time =    1.000,"PART-1-1",           380,       11.3847,  -3.51279E-03,            0.,NA,NA,"",       1.72069,       1.71166,  -176.051E-03,   5.65030E-03
C:/temp/dataset/9/17_3.odb,Step-1,Increment      1: Step Time =    1.000,"PART-1-1",           381,       12.7244,       1.31309,            0.,NA,NA,"",       1.88001,       1.85127,  -327.461E-03,   5.56803E-03
C:/temp/dataset/9/17_3.odb,Step-1,Increment      1: Step Time =    1.000,"PART-1-1",           382,       11.7722,       2.83209,            0.,NA,NA,"",       2.03934,       2.02524,  -239.367E-03,   3.65820E-03
C:/temp/dataset/9/17_3.odb,Step-1,Increment      1: Step Time =    1.000,"PART-1-1",           383,       9.00808,      -7.25637,            0.,NA,NA,"",   991.812E-03,   987.815E-03,   88.9593E-03,   4.10171E-03
C:/temp/dataset/9/17_3.odb,Step-1,Increment      1: Step Time =    1.000,"PART-1-1",           384,       7.95196,      -6.36313,            0.,NA,NA,"",       1.08658,       1.07116,   182.422E-03,   7.85603E-03
C:/temp/dataset/9/17_3.odb,Step-1,Increment      1: Step Time =    1.000,"PART-1-1",           385,       7.00211,      -7.70397,            0.,NA,NA,"",   996.086E-03,   962.057E-03,   258.137E-03,   13.5797E-03
C:/temp/dataset/9/17_3.odb,Step-1,Increment      1: Step Time =    1.000,"PART-1-1",           386,       8.05823,      -8.59720,            0.,NA,NA,"",   896.365E-03,   881.047E-03,   165.008E-03,   9.28037E-03
C:/temp/dataset/9/17_3.odb,Step-1,Increment      1: Step Time =    1.000,"PART-1-1",           387,       7.09104,      -12.0381,            0.,NA,NA,"",   665.122E-03,   630.990E-03,   210.328E-03,   13.7286E-03
C:/temp/dataset/9/17_3.odb,Step-1,Increment      1: Step Time =    1.000,"PART-1-1",           388,       6.04129,      -11.1013,            0.,NA,NA,"",   765.757E-03,   707.116E-03,   293.888E-03,   17.8912E-03
C:/temp/dataset/9/17_3.odb,Step-1,Increment      1: Step Time =    1.000,"PART-1-1",           389,            5.,      -12.2917,            0.,NA,NA,"",   723.507E-03,   635.030E-03,   346.698E-03,   22.1379E-03
C:/temp/dataset/9/17_3.odb,Step-1,Increment      1: Step Time =    1.000,"PART-1-1",           390,       9.13117,      -18.4822,            0.,NA,NA,"",   257.866E-03,   252.648E-03,   51.6125E-03,   5.44233E-03
C:/temp/dataset/9/17_3.odb,Step-1,Increment      1: Step Time =    1.000,"PART-1-1",           391,       10.1297,      -19.6034,            0.,NA,NA,"",   202.832E-03,   202.686E-03,   7.69494E-03,   1.27127E-03
C:/temp/dataset/9/17_3.odb,Step-1,Increment      1: Step Time =    1.000,"PART-1-1",           392,       11.1535,      -18.5257,            0.,NA,NA,"",   250.159E-03,   247.435E-03,  -36.8122E-03,   3.12501E-03
C:/temp/dataset/9/17_3.odb,Step-1,Increment      1: Step Time =    1.000,"PART-1-1",           393,       10.1550,      -17.4045,            0.,NA,NA,"",   300.078E-03,   300.002E-03,   6.72784E-03,   1.16430E-03
C:/temp/dataset/9/17_3.odb,Step-1,Increment      1: Step Time =    1.000,"PART-1-1",           394,       6.27183,       14.9637,            0.,NA,NA,"",       3.47294,       3.45935,   306.971E-03,   1.84120E-03
C:/temp/dataset/9/17_3.odb,Step-1,Increment      1: Step Time =    1.000,"PART-1-1",           395,       7.52438,       16.1859,            0.,NA,NA,"",       3.59826,       3.59500,   152.955E-03,   1.44175E-03
C:/temp/dataset/9/17_3.odb,Step-1,Increment      1: Step Time =    1.000,"PART-1-1",           396,            5.,         16.25,            0.,NA,NA,"",       3.64977,       3.62191,   450.055E-03,   2.00394E-03
C:/temp/dataset/9/17_3.odb,Step-1,Increment      1: Step Time =    1.000,"PART-1-1",           397,       2.56719,       21.1071,            0.,NA,NA,"",       4.28286,       4.22389,   708.269E-03,   1.48539E-03
C:/temp/dataset/9/17_3.odb,Step-1,Increment      1: Step Time =    1.000,"PART-1-1",           398,       1.41709,       22.2600,            0.,NA,NA,"",       4.44838,       4.36909,   836.122E-03,   1.18574E-03
C:/temp/dataset/9/17_3.odb,Step-1,Increment      1: Step Time =    1.000,"PART-1-1",           399,   99.9026E-03,       21.1528,            0.,NA,NA,"",       4.36536,       4.24984,   997.610E-03,   1.58877E-03
C:/temp/dataset/9/17_3.odb,Step-1,Increment      1: Step Time =    1.000,"PART-1-1",           400,          1.25,           20.,            0.,NA,NA,"",       4.19588,       4.10473,   869.836E-03,   1.88573E-03
C:/temp/dataset/9/17_3.odb,Step-1,Increment      1: Step Time =    1.000,"PART-1-1",           401,       7.55593,       13.6250,            0.,NA,NA,"",       3.29558,       3.29147,   164.612E-03,   1.71555E-03
C:/temp/dataset/9/17_3.odb,Step-1,Increment      1: Step Time =    1.000,"PART-1-1",           402,            5.,         13.75,            0.,NA,NA,"",       3.35799,       3.32602,   462.237E-03,   2.76188E-03
C:/temp/dataset/9/17_3.odb,Step-1,Increment      1: Step Time =    1.000,"PART-1-1",           403,       8.77818,       14.9146,            0.,NA,NA,"",       3.43511,       3.43508,   14.5674E-03,   1.34387E-03
C:/temp/dataset/9/17_3.odb,Step-1,Increment      1: Step Time =    1.000,"PART-1-1",           404,       10.0010,       16.1752,            0.,NA,NA,"",       3.57872,       3.57611,  -136.561E-03,   1.36203E-03
C:/temp/dataset/9/17_3.odb,Step-1,Increment      1: Step Time =    1.000,"PART-1-1",           405,       8.74716,       17.4465,            0.,NA,NA,"",       3.73629,       3.73629,   1.43222E-03,   1.34493E-03
C:/temp/dataset/9/17_3.odb,Step-1,Increment      1: Step Time =    1.000,"PART-1-1",           406,       10.1219,       5.90684,            0.,NA,NA,"",       2.38335,       2.38199,  -80.5563E-03,   1.54009E-03
C:/temp/dataset/9/17_3.odb,Step-1,Increment      1: Step Time =    1.000,"PART-1-1",           407,       8.94830,       5.07672,            0.,NA,NA,"",       2.29753,       2.29692,   53.1856E-03,   2.80835E-03
C:/temp/dataset/9/17_3.odb,Step-1,Increment      1: Step Time =    1.000,"PART-1-1",           408,       9.72441,       3.42413,            0.,NA,NA,"",       2.10525,       2.10512,  -23.2879E-03,   3.54744E-03
C:/temp/dataset/9/17_3.odb,Step-1,Increment      1: Step Time =    1.000,"PART-1-1",           409,       10.8980,       4.25426,            0.,NA,NA,"",       2.19583,       2.19034,  -155.213E-03,   2.68508E-03
C:/temp/dataset/9/17_3.odb,Step-1,Increment      1: Step Time =    1.000,"PART-1-1",           410,       8.15250,       6.68373,            0.,NA,NA,"",       2.48730,       2.48370,   133.729E-03,   1.95946E-03
C:/temp/dataset/9/17_3.odb,Step-1,Increment      1: Step Time =    1.000,"PART-1-1",           411,       9.64075,       7.71724,            0.,NA,NA,"",       2.59101,       2.59073,  -38.1931E-03,   1.31238E-03
C:/temp/dataset/9/17_3.odb,Step-1,Increment      1: Step Time =    1.000,"PART-1-1",           412,       8.79696,       9.37373,            0.,NA,NA,"",       2.78676,       2.78637,   46.8381E-03,   1.51419E-03
C:/temp/dataset/9/17_3.odb,Step-1,Increment      1: Step Time =    1.000,"PART-1-1",           413,   959.485E-03,       2.63099,            0.,NA,NA,"",       2.30573,       2.10124,   949.310E-03,   3.46185E-03
C:/temp/dataset/9/17_3.odb,Step-1,Increment      1: Step Time =    1.000,"PART-1-1",           414,       2.33358,       3.78125,            0.,NA,NA,"",       2.35386,       2.22014,   782.092E-03,   5.15820E-03
C:/temp/dataset/9/17_3.odb,Step-1,Increment      1: Step Time =    1.000,"PART-1-1",           415,          1.25,            5.,            0.,NA,NA,"",       2.54179,       2.37574,   903.641E-03,   6.48679E-03
C:/temp/dataset/9/17_3.odb,Step-1,Increment      1: Step Time =    1.000,"PART-1-1",           416,      -9.23288,       7.29816,            0.,NA,NA,"",       3.49562,       2.74300,       2.16686,   1.23594E-03
C:/temp/dataset/9/17_3.odb,Step-1,Increment      1: Step Time =    1.000,"PART-1-1",           417,      -8.32915,       6.01548,            0.,NA,NA,"",       3.31161,       2.58653,       2.06801,   1.29304E-03
C:/temp/dataset/9/17_3.odb,Step-1,Increment      1: Step Time =    1.000,"PART-1-1",           418,      -7.21136,       6.82340,            0.,NA,NA,"",       3.29715,       2.67339,       1.92983,   1.80253E-03
C:/temp/dataset/9/17_3.odb,Step-1,Increment      1: Step Time =    1.000,"PART-1-1",           419,      -8.11509,       8.10607,            0.,NA,NA,"",       3.48178,       2.82913,       2.02949,   1.65411E-03
C:/temp/dataset/9/17_3.odb,Step-1,Increment      1: Step Time =    1.000,"PART-1-1",           420,      -13.1318,       11.4675,            0.,NA,NA,"",       4.15718,       3.24937,       2.59302,   1.62661E-03
C:/temp/dataset/9/17_3.odb,Step-1,Increment      1: Step Time =    1.000,"PART-1-1",           421,      -14.0901,       12.5242,            0.,NA,NA,"",       4.31993,       3.37592,       2.69536,   1.61735E-03
C:/temp/dataset/9/17_3.odb,Step-1,Increment      1: Step Time =    1.000,"PART-1-1",           422,          -15.,       11.4063,            0.,NA,NA,"",       4.29837,       3.25331,       2.80926,   2.21719E-03
C:/temp/dataset/9/17_3.odb,Step-1,Increment      1: Step Time =    1.000,"PART-1-1",           423,      -9.35396,       14.3983,            0.,NA,NA,"",       4.15008,       3.55892,       2.13478,   1.32878E-03
C:/temp/dataset/9/17_3.odb,Step-1,Increment      1: Step Time =    1.000,"PART-1-1",           424,      -10.5094,       15.3924,            0.,NA,NA,"",       4.31894,       3.67940,       2.26170,   1.30554E-03
C:/temp/dataset/9/17_3.odb,Step-1,Increment      1: Step Time =    1.000,"PART-1-1",           425,      -11.3610,       13.8160,            0.,NA,NA,"",       4.23234,       3.50605,       2.37072,   1.33675E-03
C:/temp/dataset/9/17_3.odb,Step-1,Increment      1: Step Time =    1.000,"PART-1-1",           426,      -10.2056,       12.8219,            0.,NA,NA,"",       4.06134,       3.38533,       2.24366,   1.30086E-03
C:/temp/dataset/9/17_3.odb,Step-1,Increment      1: Step Time =    1.000,"PART-1-1",           427,      -14.0810,       18.8007,            0.,NA,NA,"",       4.87254,       4.08944,       2.64917,   322.432E-06
C:/temp/dataset/9/17_3.odb,Step-1,Increment      1: Step Time =    1.000,"PART-1-1",           428,          -15.,       17.9688,            0.,NA,NA,"",       4.86011,       4.00079,       2.75942,   247.971E-06
C:/temp/dataset/9/17_3.odb,Step-1,Increment      1: Step Time =    1.000,"PART-1-1",           429,      -14.2329,       16.7349,            0.,NA,NA,"",       4.69590,       3.85575,       2.68043,   617.622E-06
C:/temp/dataset/9/17_3.odb,Step-1,Increment      1: Step Time =    1.000,"PART-1-1",           430,      -13.3139,       17.5668,            0.,NA,NA,"",       4.70752,       3.94431,       2.56966,   718.848E-06
C:/temp/dataset/9/17_3.odb,Step-1,Increment      1: Step Time =    1.000,"PART-1-1",           431,      -12.9537,       19.5700,            0.,NA,NA,"",       4.86940,       4.16950,       2.51522,   514.524E-06
C:/temp/dataset/9/17_3.odb,Step-1,Increment      1: Step Time =    1.000,"PART-1-1",           432,      -13.8727,       20.9255,            0.,NA,NA,"",       5.05668,       4.33004,       2.61166,   294.025E-06
C:/temp/dataset/9/17_3.odb,Step-1,Increment      1: Step Time =    1.000,"PART-1-1",           433,          -15.,       20.1563,            0.,NA,NA,"",       5.05937,       4.24979,       2.74526,   190.219E-06
C:/temp/dataset/9/17_3.odb,Step-1,Increment      1: Step Time =    1.000,"PART-1-1",           434,       1.76445,       24.7908,            0.,NA,NA,"",       4.72816,       4.66362,   778.557E-03,   548.026E-06
C:/temp/dataset/9/17_3.odb,Step-1,Increment      1: Step Time =    1.000,"PART-1-1",           435,       1.36974,       27.3866,            0.,NA,NA,"",       5.03598,       4.97087,   807.210E-03,   283.279E-06
C:/temp/dataset/9/17_3.odb,Step-1,Increment      1: Step Time =    1.000,"PART-1-1",           436,   176.493E-03,       26.0346,            0.,NA,NA,"",       4.91483,       4.82081,   956.733E-03,   292.080E-06
C:/temp/dataset/9/17_3.odb,Step-1,Increment      1: Step Time =    1.000,"PART-1-1",           437,       7.39460,       20.9669,            0.,NA,NA,"",       4.16967,       4.16740,   137.719E-03,   1.39362E-03
C:/temp/dataset/9/17_3.odb,Step-1,Increment      1: Step Time =    1.000,"PART-1-1",           438,       8.70526,       19.9066,            0.,NA,NA,"",       4.03055,       4.03053,  -10.0478E-03,   1.29058E-03
C:/temp/dataset/9/17_3.odb,Step-1,Increment      1: Step Time =    1.000,"PART-1-1",           439,       9.85134,       21.1719,            0.,NA,NA,"",       4.17587,       4.17304,  -153.613E-03,   940.370E-06
C:/temp/dataset/9/17_3.odb,Step-1,Increment      1: Step Time =    1.000,"PART-1-1",           440,       8.54068,       22.2321,            0.,NA,NA,"",       4.30932,       4.30931,  -5.90680E-03,   922.729E-06
C:/temp/dataset/9/17_3.odb,Step-1,Increment      1: Step Time =    1.000,"PART-1-1",           441,       4.10864,       24.1658,            0.,NA,NA,"",       4.60057,       4.57263,   506.192E-03,   653.804E-06
C:/temp/dataset/9/17_3.odb,Step-1,Increment      1: Step Time =    1.000,"PART-1-1",           442,       5.90921,       23.8009,            0.,NA,NA,"",       4.52549,       4.51584,   295.468E-03,   725.735E-06
C:/temp/dataset/9/17_3.odb,Step-1,Increment      1: Step Time =    1.000,"PART-1-1",           443,       6.25965,       24.9450,            0.,NA,NA,"",       4.65497,       4.64845,   246.313E-03,   530.014E-06
C:/temp/dataset/9/17_3.odb,Step-1,Increment      1: Step Time =    1.000,"PART-1-1",           444,   19.2837E-03,       28.6494,            0.,NA,NA,"",       5.21629,       5.12776,   956.955E-03,   519.046E-06
C:/temp/dataset/9/17_3.odb,Step-1,Increment      1: Step Time =    1.000,"PART-1-1",           445,       2.60045,       28.7372,            0.,NA,NA,"",       5.16261,       5.12118,   652.731E-03,   420.474E-06
C:/temp/dataset/9/17_3.odb,Step-1,Increment      1: Step Time =    1.000,"PART-1-1",           446,          1.25,           30.,            0.,NA,NA,"",       5.33899,       5.27831,   802.686E-03,   771.550E-06
C:/temp/dataset/9/17_3.odb,Step-1,Increment      1: Step Time =    1.000,"PART-1-1",           447,      -7.67774,       29.0428,            0.,NA,NA,"",       5.53902,       5.22159,       1.84816,   496.193E-06
C:/temp/dataset/9/17_3.odb,Step-1,Increment      1: Step Time =    1.000,"PART-1-1",           448,      -6.68998,       27.9093,            0.,NA,NA,"",       5.37470,       5.08451,       1.74219,   390.759E-06
C:/temp/dataset/9/17_3.odb,Step-1,Increment      1: Step Time =    1.000,"PART-1-1",           449,         -6.25,           30.,            0.,NA,NA,"",       5.58114,       5.32326,       1.67691,   778.845E-06
C:/temp/dataset/9/17_3.odb,Step-1,Increment      1: Step Time =    1.000,"PART-1-1",           450,      -12.1701,       26.6384,            0.,NA,NA,"",       5.51377,       4.97370,       2.37992,   271.904E-06
C:/temp/dataset/9/17_3.odb,Step-1,Increment      1: Step Time =    1.000,"PART-1-1",           451,      -13.7206,       27.8542,            0.,NA,NA,"",       5.72313,       5.12377,       2.54974,   135.938E-06
C:/temp/dataset/9/17_3.odb,Step-1,Increment      1: Step Time =    1.000,"PART-1-1",           452,          -15.,       26.7188,            0.,NA,NA,"",       5.68590,       5.00176,       2.70405,   155.763E-06
C:/temp/dataset/9/17_3.odb,Step-1,Increment      1: Step Time =    1.000,"PART-1-1",           453,        -13.75,           30.,            0.,NA,NA,"",       5.94038,       5.37047,       2.53893,   29.4125E-06
C:/temp/dataset/9/17_3.odb,Step-1,Increment      1: Step Time =    1.000,"PART-1-1",           454,          -15.,       28.9063,            0.,NA,NA,"",       5.90168,       5.25313,       2.68970,   25.9025E-06
C:/temp/dataset/9/17_3.odb,Step-1,Increment      1: Step Time =    1.000,"PART-1-1",           455,      -9.01567,       28.1413,            0.,NA,NA,"",       5.50545,       5.12615,       2.00812,   368.539E-06
C:/temp/dataset/9/17_3.odb,Step-1,Increment      1: Step Time =    1.000,"PART-1-1",           456,         -8.75,           30.,            0.,NA,NA,"",       5.68854,       5.33840,       1.96493,   505.975E-06
C:/temp/dataset/9/17_3.odb,Step-1,Increment      1: Step Time =    1.000,"PART-1-1",           457,      -10.9923,       18.6369,            0.,NA,NA,"",       4.65589,       4.05029,       2.29618,   1.01423E-03
C:/temp/dataset/9/17_3.odb,Step-1,Increment      1: Step Time =    1.000,"PART-1-1",           458,      -11.7056,       20.1347,            0.,NA,NA,"",       4.84391,       4.22535,       2.36851,   659.309E-06
C:/temp/dataset/9/17_3.odb,Step-1,Increment      1: Step Time =    1.000,"PART-1-1",           459,      -12.2405,       18.0722,            0.,NA,NA,"",       4.68256,       3.99463,       2.44321,   876.666E-06
C:/temp/dataset/9/17_3.odb,Step-1,Increment      1: Step Time =    1.000,"PART-1-1",           460,      -11.7153,       17.0060,            0.,NA,NA,"",       4.54871,       3.87027,       2.38993,   1.09655E-03
C:/temp/dataset/9/17_3.odb,Step-1,Increment      1: Step Time =    1.000,"PART-1-1",           461,      -12.7888,       16.5007,            0.,NA,NA,"",       4.57448,       3.81997,       2.51668,   950.256E-06
C:/temp/dataset/9/17_3.odb,Step-1,Increment      1: Step Time =    1.000,"PART-1-1",           462,      -13.2634,       13.5986,            0.,NA,NA,"",       4.34991,       3.49339,       2.59191,   1.31505E-03
C:/temp/dataset/9/17_3.odb,Step-1,Increment      1: Step Time =    1.000,"PART-1-1",           463,      -14.1733,       14.6682,            0.,NA,NA,"",       4.50962,       3.62063,       2.68844,   1.10609E-03
C:/temp/dataset/9/17_3.odb,Step-1,Increment      1: Step Time =    1.000,"PART-1-1",           464,          -15.,       13.5938,            0.,NA,NA,"",       4.47926,       3.50328,       2.79120,   1.54181E-03
C:/temp/dataset/9/17_3.odb,Step-1,Increment      1: Step Time =    1.000,"PART-1-1",           465,      -6.04154,       10.1420,            0.,NA,NA,"",       3.52862,       3.04895,       1.77626,   1.99297E-03
C:/temp/dataset/9/17_3.odb,Step-1,Increment      1: Step Time =    1.000,"PART-1-1",           466,      -7.09581,       9.10381,            0.,NA,NA,"",       3.50042,       2.93718,       1.90419,   1.92333E-03
C:/temp/dataset/9/17_3.odb,Step-1,Increment      1: Step Time =    1.000,"PART-1-1",           467,      -6.05428,       7.71180,            0.,NA,NA,"",       3.29562,       2.76790,       1.78881,   2.66156E-03
C:/temp/dataset/9/17_3.odb,Step-1,Increment      1: Step Time =    1.000,"PART-1-1",           468,           -5.,          8.75,            0.,NA,NA,"",       3.32506,       2.87981,       1.66215,   2.97551E-03
C:/temp/dataset/9/17_3.odb,Step-1,Increment      1: Step Time =    1.000,"PART-1-1",           469,      -6.15708,       5.36159,            0.,NA,NA,"",       3.08269,       2.49417,       1.81165,   3.18329E-03
C:/temp/dataset/9/17_3.odb,Step-1,Increment      1: Step Time =    1.000,"PART-1-1",           470,           -5.,          6.25,            0.,NA,NA,"",       3.08057,       2.58840,       1.67037,   5.08981E-03
C:/temp/dataset/9/17_3.odb,Step-1,Increment      1: Step Time =    1.000,"PART-1-1",           471,      -13.8567,       3.63033,            0.,NA,NA,"",       3.60906,       2.33998,       2.74769,   2.94079E-03
C:/temp/dataset/9/17_3.odb,Step-1,Increment      1: Step Time =    1.000,"PART-1-1",           472,      -12.5372,       4.63979,            0.,NA,NA,"",       3.55971,       2.45188,       2.58065,   2.07834E-03
C:/temp/dataset/9/17_3.odb,Step-1,Increment      1: Step Time =    1.000,"PART-1-1",           473,          -15.,       4.84375,            0.,NA,NA,"",       3.80123,       2.49035,       2.87185,   3.56874E-03
C:/temp/dataset/9/17_3.odb,Step-1,Increment      1: Step Time =    1.000,"PART-1-1",           474,      -12.7859,       2.45238,            0.,NA,NA,"",       3.42457,       2.19290,       2.63038,   2.34293E-03
C:/temp/dataset/9/17_3.odb,Step-1,Increment      1: Step Time =    1.000,"PART-1-1",           475,          -15.,       2.65625,            0.,NA,NA,"",       3.65419,       2.23032,       2.89461,   3.69227E-03
C:/temp/dataset/9/17_3.odb,Step-1,Increment      1: Step Time =    1.000,"PART-1-1",           476,      -13.7683,      -2.81830,            0.,NA,NA,"",       3.20720,       1.56045,       2.80199,   3.12880E-03
C:/temp/dataset/9/17_3.odb,Step-1,Increment      1: Step Time =    1.000,"PART-1-1",           477,          -15.,      -3.90625,            0.,NA,NA,"",       3.29330,       1.43484,       2.96430,   3.15813E-03
C:/temp/dataset/9/17_3.odb,Step-1,Increment      1: Step Time =    1.000,"PART-1-1",           478,        -13.75,           -5.,            0.,NA,NA,"",       3.10427,       1.29320,       2.82208,   2.88539E-03
C:/temp/dataset/9/17_3.odb,Step-1,Increment      1: Step Time =    1.000,"PART-1-1",           479,      -12.5183,      -3.91205,            0.,NA,NA,"",       3.01455,       1.41857,       2.65991,   3.04178E-03
C:/temp/dataset/9/17_3.odb,Step-1,Increment      1: Step Time =    1.000,"PART-1-1",           480,      -3.91473,      -3.03803,            0.,NA,NA,"",       2.16116,       1.46750,       1.58652,   2.29287E-03
C:/temp/dataset/9/17_3.odb,Step-1,Increment      1: Step Time =    1.000,"PART-1-1",           481,      -5.07319,      -4.05962,            0.,NA,NA,"",       2.20086,       1.35041,       1.73787,   1.67365E-03
C:/temp/dataset/9/17_3.odb,Step-1,Increment      1: Step Time =    1.000,"PART-1-1",           482,         -3.75,           -5.,            0.,NA,NA,"",       2.00287,       1.22754,       1.58261,   2.52138E-03
C:/temp/dataset/9/17_3.odb,Step-1,Increment      1: Step Time =    1.000,"PART-1-1",           483,      -2.59153,      -3.97841,            0.,NA,NA,"",       1.96467,       1.34616,       1.43100,   2.85919E-03
C:/temp/dataset/9/17_3.odb,Step-1,Increment      1: Step Time =    1.000,"PART-1-1",           484,   563.435E-03,   72.7383E-03,            0.,NA,NA,"",       2.07188,       1.80789,       1.01204,   3.87597E-03
C:/temp/dataset/9/17_3.odb,Step-1,Increment      1: Step Time =    1.000,"PART-1-1",           485,  -536.863E-03,      -1.25885,            0.,NA,NA,"",       2.02246,       1.65966,       1.15580,   3.94839E-03
C:/temp/dataset/9/17_3.odb,Step-1,Increment      1: Step Time =    1.000,"PART-1-1",           486,       7.06616,      -9.87010,            0.,NA,NA,"",   822.737E-03,   788.966E-03,   233.300E-03,   13.9070E-03
C:/temp/dataset/9/17_3.odb,Step-1,Increment      1: Step Time =    1.000,"PART-1-1",           487,       6.02487,      -8.97716,            0.,NA,NA,"",   927.348E-03,   869.291E-03,   322.968E-03,   18.1191E-03
C:/temp/dataset/9/17_3.odb,Step-1,Increment      1: Step Time =    1.000,"PART-1-1",           488,            5.,      -10.2083,            0.,NA,NA,"",   873.520E-03,   785.225E-03,   382.698E-03,   21.8071E-03
C:/temp/dataset/9/17_3.odb,Step-1,Increment      1: Step Time =    1.000,"PART-1-1",           489,       13.0743,      -11.4048,            0.,NA,NA,"",   687.875E-03,   656.862E-03,  -204.217E-03,   11.0054E-03
C:/temp/dataset/9/17_3.odb,Step-1,Increment      1: Step Time =    1.000,"PART-1-1",           490,       14.0423,      -12.5586,            0.,NA,NA,"",   635.214E-03,   581.896E-03,  -254.742E-03,   15.1639E-03
C:/temp/dataset/9/17_3.odb,Step-1,Increment      1: Step Time =    1.000,"PART-1-1",           491,           15.,        -11.25,            0.,NA,NA,"",   758.724E-03,   675.963E-03,  -344.582E-03,   19.1839E-03
C:/temp/dataset/9/17_3.odb,Step-1,Increment      1: Step Time =    1.000,"PART-1-1",           492,       14.0319,      -10.0962,            0.,NA,NA,"",   809.978E-03,   754.921E-03,  -293.527E-03,   15.0265E-03
C:/temp/dataset/9/17_3.odb,Step-1,Increment      1: Step Time =    1.000,"PART-1-1",           493,       7.09943,      -16.3632,            0.,NA,NA,"",   402.260E-03,   367.179E-03,   164.294E-03,   13.8438E-03
C:/temp/dataset/9/17_3.odb,Step-1,Increment      1: Step Time =    1.000,"PART-1-1",           494,            5.,      -16.4583,            0.,NA,NA,"",   468.254E-03,   381.986E-03,   270.829E-03,   22.5017E-03
C:/temp/dataset/9/17_3.odb,Step-1,Increment      1: Step Time =    1.000,"PART-1-1",           495,       13.0966,      -13.8278,            0.,NA,NA,"",   528.117E-03,   497.842E-03,  -176.243E-03,   11.1867E-03
C:/temp/dataset/9/17_3.odb,Step-1,Increment      1: Step Time =    1.000,"PART-1-1",           496,       14.0543,      -15.0192,            0.,NA,NA,"",   483.336E-03,   431.788E-03,  -217.193E-03,   15.2774E-03
C:/temp/dataset/9/17_3.odb,Step-1,Increment      1: Step Time =    1.000,"PART-1-1",           497,           15.,        -13.75,            0.,NA,NA,"",   591.344E-03,   511.990E-03,  -295.894E-03,   19.2506E-03
C:/temp/dataset/9/17_3.odb,Step-1,Increment      1: Step Time =    1.000,"PART-1-1",           498,       13.0974,      -18.6352,            0.,NA,NA,"",   274.949E-03,   246.939E-03,  -120.906E-03,   11.3796E-03
C:/temp/dataset/9/17_3.odb,Step-1,Increment      1: Step Time =    1.000,"PART-1-1",           499,       14.0421,      -19.9133,            0.,NA,NA,"",   245.861E-03,   199.693E-03,  -143.424E-03,   15.4634E-03
C:/temp/dataset/9/17_3.odb,Step-1,Increment      1: Step Time =    1.000,"PART-1-1",           500,           15.,        -18.75,            0.,NA,NA,"",   324.219E-03,   253.458E-03,  -202.180E-03,   19.4663E-03
C:/temp/dataset/9/17_3.odb,Step-1,Increment      1: Step Time =    1.000,"PART-1-1",           501,       14.0553,      -17.4719,            0.,NA,NA,"",   353.705E-03,   304.416E-03,  -180.107E-03,   15.3827E-03
C:/temp/dataset/9/17_3.odb,Step-1,Increment      1: Step Time =    1.000,"PART-1-1",           502,       7.12541,      -22.7005,            0.,NA,NA,"",   140.537E-03,   108.479E-03,   89.3470E-03,   14.0433E-03
C:/temp/dataset/9/17_3.odb,Step-1,Increment      1: Step Time =    1.000,"PART-1-1",           503,       6.04628,      -21.6612,            0.,NA,NA,"",   201.666E-03,   148.723E-03,   136.202E-03,   18.4900E-03
C:/temp/dataset/9/17_3.odb,Step-1,Increment      1: Step Time =    1.000,"PART-1-1",           504,            5.,      -22.7083,            0.,NA,NA,"",   195.113E-03,   126.644E-03,   148.427E-03,   22.9334E-03
C:/temp/dataset/9/17_3.odb,Step-1,Increment      1: Step Time =    1.000,"PART-1-1",           505,       6.07914,      -23.7476,            0.,NA,NA,"",   134.710E-03,   88.5852E-03,   101.487E-03,   18.4791E-03
C:/temp/dataset/9/17_3.odb,Step-1,Increment      1: Step Time =    1.000,"PART-1-1",           506,       6.22304,      -27.8948,            0.,NA,NA,"",   35.3710E-03,   16.4869E-03,   31.2936E-03,   18.3517E-03
C:/temp/dataset/9/17_3.odb,Step-1,Increment      1: Step Time =    1.000,"PART-1-1",           507,            5.,      -28.9583,            0.,NA,NA,"",   27.1000E-03,   16.9746E-03,   21.1252E-03,   23.2835E-03
C:/temp/dataset/9/17_3.odb,Step-1,Increment      1: Step Time =    1.000,"PART-1-1",           508,          6.25,          -30.,            0.,NA,NA,"",            0.,  -1.05486E-39,   27.1649E-39,   16.7058E-03
C:/temp/dataset/9/17_3.odb,Step-1,Increment      1: Step Time =    1.000,"PART-1-1",           509,       9.78444,      -26.6535,            0.,NA,NA,"",   16.4651E-03,   14.9591E-03,   6.87915E-03,   2.79182E-03
C:/temp/dataset/9/17_3.odb,Step-1,Increment      1: Step Time =    1.000,"PART-1-1",           510,       8.47427,      -25.6871,            0.,NA,NA,"",   44.5799E-03,   32.9110E-03,   30.0704E-03,   8.62428E-03
C:/temp/dataset/9/17_3.odb,Step-1,Increment      1: Step Time =    1.000,"PART-1-1",           511,       7.37694,      -26.8334,            0.,NA,NA,"",   40.3864E-03,   21.2707E-03,   34.3310E-03,   13.2931E-03
C:/temp/dataset/9/17_3.odb,Step-1,Increment      1: Step Time =    1.000,"PART-1-1",           512,       13.7223,      -27.5034,            0.,NA,NA,"",   33.9152E-03,   15.0500E-03,  -30.3931E-03,   14.9855E-03
C:/temp/dataset/9/17_3.odb,Step-1,Increment      1: Step Time =    1.000,"PART-1-1",           513,       12.4723,      -28.7534,            0.,NA,NA,"",   8.37350E-03,  -112.609E-06,  -8.37275E-03,   8.39186E-03
C:/temp/dataset/9/17_3.odb,Step-1,Increment      1: Step Time =    1.000,"PART-1-1",           514,         13.75,          -30.,            0.,NA,NA,"",            0.,  -2.41467E-39,  -21.6816E-39,   13.2375E-03
C:/temp/dataset/9/17_3.odb,Step-1,Increment      1: Step Time =    1.000,"PART-1-1",           515,           15.,        -28.75,            0.,NA,NA,"",   25.7479E-03,   14.8110E-03,  -21.0616E-03,   19.5572E-03
C:/temp/dataset/9/17_3.odb,Step-1,Increment      1: Step Time =    1.000,"PART-1-1",           516,         11.25,          -30.,            0.,NA,NA,"",            0.,  -3.88858E-39,  -6.17020E-39,   4.41981E-03
C:/temp/dataset/9/17_3.odb,Step-1,Increment      1: Step Time =    1.000,"PART-1-1",           517,       11.1864,      -27.6167,            0.,NA,NA,"",   8.16633E-03,   4.70947E-03,  -6.67157E-03,   3.87594E-03
C:/temp/dataset/9/17_3.odb,Step-1,Increment      1: Step Time =    1.000,"PART-1-1",           518,       9.10684,      -20.5966,            0.,NA,NA,"",   172.724E-03,   167.058E-03,   43.8752E-03,   5.58985E-03
C:/temp/dataset/9/17_3.odb,Step-1,Increment      1: Step Time =    1.000,"PART-1-1",           519,       11.0993,      -20.6881,            0.,NA,NA,"",   163.265E-03,   161.004E-03,  -27.0766E-03,   2.94659E-03
C:/temp/dataset/9/17_3.odb,Step-1,Increment      1: Step Time =    1.000,"PART-1-1",           520,       7.08739,      -20.6083,            0.,NA,NA,"",   211.586E-03,   177.045E-03,   115.860E-03,   14.0824E-03
C:/temp/dataset/9/17_3.odb,Step-1,Increment      1: Step Time =    1.000,"PART-1-1",           521,            5.,       -20.625,            0.,NA,NA,"",   272.330E-03,   194.968E-03,   190.134E-03,   22.8077E-03
C:/temp/dataset/9/17_3.odb,Step-1,Increment      1: Step Time =    1.000,"PART-1-1",           522,       9.14341,      -14.0595,            0.,NA,NA,"",   490.806E-03,   486.324E-03,   66.1780E-03,   5.36650E-03
C:/temp/dataset/9/17_3.odb,Step-1,Increment      1: Step Time =    1.000,"PART-1-1",           523,       10.1582,      -15.1431,            0.,NA,NA,"",   419.087E-03,   419.048E-03,   5.70723E-03,   1.17130E-03
C:/temp/dataset/9/17_3.odb,Step-1,Increment      1: Step Time =    1.000,"PART-1-1",           524,       11.1509,      -13.9343,            0.,NA,NA,"",   492.128E-03,   488.963E-03,  -55.7247E-03,   3.01868E-03
C:/temp/dataset/9/17_3.odb,Step-1,Increment      1: Step Time =    1.000,"PART-1-1",           525,       10.1361,      -12.8507,            0.,NA,NA,"",   559.290E-03,   559.266E-03,   5.17224E-03,   1.25125E-03
C:/temp/dataset/9/17_3.odb,Step-1,Increment      1: Step Time =    1.000,"PART-1-1",           526,       9.12292,      -11.8044,            0.,NA,NA,"",   637.905E-03,   633.651E-03,   73.5534E-03,   5.35539E-03
C:/temp/dataset/9/17_3.odb,Step-1,Increment      1: Step Time =    1.000,"PART-1-1",           527,       11.1213,      -11.5948,            0.,NA,NA,"",   645.588E-03,   642.303E-03,  -65.0427E-03,   2.93726E-03
C:/temp/dataset/9/17_3.odb,Step-1,Increment      1: Step Time =    1.000,"PART-1-1",           528,       10.1081,      -10.5485,            0.,NA,NA,"",   719.769E-03,   719.758E-03,   4.02533E-03,   1.23051E-03
C:/temp/dataset/9/17_3.odb,Step-1,Increment      1: Step Time =    1.000,"PART-1-1",           529,       13.8169,  -7.21098E-03,            0.,NA,NA,"",       1.75591,       1.70285,  -428.398E-03,   7.56752E-03
C:/temp/dataset/9/17_3.odb,Step-1,Increment      1: Step Time =    1.000,"PART-1-1",           530,           15.,          1.25,            0.,NA,NA,"",       1.92426,       1.83708,  -572.649E-03,   7.93243E-03
C:/temp/dataset/9/17_3.odb,Step-1,Increment      1: Step Time =    1.000,"PART-1-1",           531,       13.9075,       2.57030,            0.,NA,NA,"",       2.04077,       1.98632,  -468.256E-03,   5.28296E-03
C:/temp/dataset/9/17_3.odb,Step-1,Increment      1: Step Time =    1.000,"PART-1-1",           532,       10.8083,      -4.35361,            0.,NA,NA,"",       1.25637,       1.25349,  -84.9785E-03,   5.59197E-03
C:/temp/dataset/9/17_3.odb,Step-1,Increment      1: Step Time =    1.000,"PART-1-1",           533,       9.68548,      -3.40243,            0.,NA,NA,"",       1.35348,       1.35340,   14.5307E-03,   5.78516E-03
C:/temp/dataset/9/17_3.odb,Step-1,Increment      1: Step Time =    1.000,"PART-1-1",           534,       8.81587,      -4.92348,            0.,NA,NA,"",       1.20714,       1.20281,   102.113E-03,   4.80170E-03
C:/temp/dataset/9/17_3.odb,Step-1,Increment      1: Step Time =    1.000,"PART-1-1",           535,       9.93870,      -5.87466,            0.,NA,NA,"",       1.10865,       1.10865,   3.77597E-03,   3.14780E-03
C:/temp/dataset/9/17_3.odb,Step-1,Increment      1: Step Time =    1.000,"PART-1-1",           536,       10.7940,       8.23694,            0.,NA,NA,"",       2.64836,       2.64281,  -171.381E-03,   1.41931E-03
C:/temp/dataset/9/17_3.odb,Step-1,Increment      1: Step Time =    1.000,"PART-1-1",           537,       11.2752,       6.42654,            0.,NA,NA,"",       2.44276,       2.43353,  -212.134E-03,   1.77456E-03
C:/temp/dataset/9/17_3.odb,Step-1,Increment      1: Step Time =    1.000,"PART-1-1",           538,       12.8821,       8.67106,            0.,NA,NA,"",       2.71181,       2.68043,  -411.347E-03,   2.38182E-03
C:/temp/dataset/9/17_3.odb,Step-1,Increment      1: Step Time =    1.000,"PART-1-1",           539,       14.0355,       7.50951,            0.,NA,NA,"",       2.59674,       2.54164,  -532.064E-03,   3.27674E-03
C:/temp/dataset/9/17_3.odb,Step-1,Increment      1: Step Time =    1.000,"PART-1-1",           540,           15.,          8.75,            0.,NA,NA,"",       2.75716,       2.67839,  -654.351E-03,   3.66588E-03
C:/temp/dataset/9/17_3.odb,Step-1,Increment      1: Step Time =    1.000,"PART-1-1",           541,       13.8467,       9.91155,            0.,NA,NA,"",       2.86772,       2.81781,  -532.706E-03,   2.67701E-03
C:/temp/dataset/9/17_3.odb,Step-1,Increment      1: Step Time =    1.000,"PART-1-1",           542,       12.4850,       16.2122,            0.,NA,NA,"",       3.58939,       3.56386,  -427.287E-03,   1.30225E-03
C:/temp/dataset/9/17_3.odb,Step-1,Increment      1: Step Time =    1.000,"PART-1-1",           543,       13.7431,       14.9727,            0.,NA,NA,"",       3.45568,       3.40921,  -564.818E-03,   1.60728E-03
C:/temp/dataset/9/17_3.odb,Step-1,Increment      1: Step Time =    1.000,"PART-1-1",           544,           15.,         16.25,            0.,NA,NA,"",       3.62521,       3.55223,  -723.787E-03,   1.63995E-03
C:/temp/dataset/9/17_3.odb,Step-1,Increment      1: Step Time =    1.000,"PART-1-1",           545,       13.7419,       17.4895,            0.,NA,NA,"",       3.75312,       3.70722,  -585.180E-03,   1.08096E-03
C:/temp/dataset/9/17_3.odb,Step-1,Increment      1: Step Time =    1.000,"PART-1-1",           546,       12.4991,       13.6576,            0.,NA,NA,"",       3.28755,       3.26205,  -408.712E-03,   1.57026E-03
C:/temp/dataset/9/17_3.odb,Step-1,Increment      1: Step Time =    1.000,"PART-1-1",           547,       13.7559,       12.4349,            0.,NA,NA,"",       3.15849,       3.11117,  -544.645E-03,   2.13586E-03
C:/temp/dataset/9/17_3.odb,Step-1,Increment      1: Step Time =    1.000,"PART-1-1",           548,           15.,         13.75,            0.,NA,NA,"",       3.33254,       3.25780,  -701.837E-03,   2.38427E-03
C:/temp/dataset/9/17_3.odb,Step-1,Increment      1: Step Time =    1.000,"PART-1-1",           549,           15.,         21.25,            0.,NA,NA,"",       4.21555,       4.14586,  -763.321E-03,   372.553E-06
C:/temp/dataset/9/17_3.odb,Step-1,Increment      1: Step Time =    1.000,"PART-1-1",           550,       13.6875,       22.5045,            0.,NA,NA,"",       4.34822,       4.30428,  -616.599E-03,   252.194E-06
C:/temp/dataset/9/17_3.odb,Step-1,Increment      1: Step Time =    1.000,"PART-1-1",           551,       12.4125,       21.2511,            0.,NA,NA,"",       4.18897,       4.16402,  -456.527E-03,   634.564E-06
C:/temp/dataset/9/17_3.odb,Step-1,Increment      1: Step Time =    1.000,"PART-1-1",           552,       13.7250,       19.9966,            0.,NA,NA,"",       4.05058,       4.00551,  -602.564E-03,   603.653E-06
C:/temp/dataset/9/17_3.odb,Step-1,Increment      1: Step Time =    1.000,"PART-1-1",           553,       13.6481,       25.0064,            0.,NA,NA,"",       4.64481,       4.60192,  -629.793E-03,   62.6617E-06
C:/temp/dataset/9/17_3.odb,Step-1,Increment      1: Step Time =    1.000,"PART-1-1",           554,       12.3356,       23.7609,            0.,NA,NA,"",       4.48744,       4.46325,  -465.332E-03,   282.924E-06
C:/temp/dataset/9/17_3.odb,Step-1,Increment      1: Step Time =    1.000,"PART-1-1",           555,           15.,         23.75,            0.,NA,NA,"",       4.51129,       4.44311,  -781.380E-03,   66.6773E-06
C:/temp/dataset/9/17_3.odb,Step-1,Increment      1: Step Time =    1.000,"PART-1-1",           556,       13.7112,       27.5077,            0.,NA,NA,"",       4.94190,       4.89831,  -654.927E-03,   30.0540E-06
C:/temp/dataset/9/17_3.odb,Step-1,Increment      1: Step Time =    1.000,"PART-1-1",           557,           15.,         28.75,            0.,NA,NA,"",       5.10234,       5.03657,  -816.594E-03,   9.47095E-06
C:/temp/dataset/9/17_3.odb,Step-1,Increment      1: Step Time =    1.000,"PART-1-1",           558,         13.75,           30.,            0.,NA,NA,"",       5.23763,       5.19368,  -677.125E-03,   12.2103E-06
C:/temp/dataset/9/17_3.odb,Step-1,Increment      1: Step Time =    1.000,"PART-1-1",           559,            5.,      -24.7917,            0.,NA,NA,"",   129.997E-03,   75.1341E-03,   106.085E-03,   22.8050E-03
C:/temp/dataset/9/17_3.odb,Step-1,Increment      1: Step Time =    1.000,"PART-1-1",           560,       6.15390,      -25.8136,            0.,NA,NA,"",   80.4584E-03,   45.4162E-03,   66.4148E-03,   18.2556E-03
C:/temp/dataset/9/17_3.odb,Step-1,Increment      1: Step Time =    1.000,"PART-1-1",           561,       7.23304,      -24.7696,            0.,NA,NA,"",   83.7290E-03,   56.8010E-03,   61.5158E-03,   13.8842E-03
C:/temp/dataset/9/17_3.odb,Step-1,Increment      1: Step Time =    1.000,"PART-1-1",           562,       13.0086,      -21.0119,            0.,NA,NA,"",   179.439E-03,   154.291E-03,  -91.6120E-03,   11.0974E-03
C:/temp/dataset/9/17_3.odb,Step-1,Increment      1: Step Time =    1.000,"PART-1-1",           563,       13.9664,      -22.3485,            0.,NA,NA,"",   157.690E-03,   116.974E-03,  -105.752E-03,   15.3202E-03
C:/temp/dataset/9/17_3.odb,Step-1,Increment      1: Step Time =    1.000,"PART-1-1",           564,           15.,        -21.25,            0.,NA,NA,"",   222.977E-03,   158.897E-03,  -156.431E-03,   19.6815E-03
C:/temp/dataset/9/17_3.odb,Step-1,Increment      1: Step Time =    1.000,"PART-1-1",           565,            5.,       -26.875,            0.,NA,NA,"",   75.8429E-03,   40.2521E-03,   64.2800E-03,   22.8925E-03
C:/temp/dataset/9/17_3.odb,Step-1,Increment      1: Step Time =    1.000,"PART-1-1",           566,       12.9745,      -6.51631,            0.,NA,NA,"",       1.07885,       1.04732,  -258.923E-03,   10.1947E-03
C:/temp/dataset/9/17_3.odb,Step-1,Increment      1: Step Time =    1.000,"PART-1-1",           567,       14.0104,      -7.62731,            0.,NA,NA,"",       1.00852,   952.157E-03,  -332.440E-03,   14.5110E-03
C:/temp/dataset/9/17_3.odb,Step-1,Increment      1: Step Time =    1.000,"PART-1-1",           568,           15.,         -6.25,            0.,NA,NA,"",       1.16443,       1.07588,  -445.392E-03,   17.5797E-03
C:/temp/dataset/9/17_3.odb,Step-1,Increment      1: Step Time =    1.000,"PART-1-1",           569,       13.9641,      -5.13900,            0.,NA,NA,"",       1.23227,       1.17570,  -369.077E-03,   13.0641E-03
C:/temp/dataset/9/17_3.odb,Step-1,Increment      1: Step Time =    1.000,"PART-1-1",           570,       11.1649,      -16.2543,            0.,NA,NA,"",   360.086E-03,   357.087E-03,  -46.3759E-03,   3.12401E-03
C:/temp/dataset/9/17_3.odb,Step-1,Increment      1: Step Time =    1.000,"PART-1-1",           571,       9.14831,      -16.2933,            0.,NA,NA,"",   363.864E-03,   359.085E-03,   58.7805E-03,   5.35517E-03
C:/temp/dataset/9/17_3.odb,Step-1,Increment      1: Step Time =    1.000,"PART-1-1",           572,            5.,        -8.125,            0.,NA,NA,"",       1.03786,   950.844E-03,   415.995E-03,   22.9427E-03
C:/temp/dataset/9/17_3.odb,Step-1,Increment      1: Step Time =    1.000,"PART-1-1",           573,       12.8519,      -3.99254,            0.,NA,NA,"",       1.31684,       1.28666,  -280.308E-03,   9.15071E-03
C:/temp/dataset/9/17_3.odb,Step-1,Increment      1: Step Time =    1.000,"PART-1-1",           574,           15.,         -3.75,            0.,NA,NA,"",       1.40184,       1.31197,  -493.860E-03,   14.9257E-03
C:/temp/dataset/9/17_3.odb,Step-1,Increment      1: Step Time =    1.000,"PART-1-1",           575,       13.8878,      -2.60354,            0.,NA,NA,"",       1.48228,       1.42711,  -400.619E-03,   10.5029E-03
C:/temp/dataset/9/17_3.odb,Step-1,Increment      1: Step Time =    1.000,"PART-1-1",           576,       13.0423,      -8.97351,            0.,NA,NA,"",   870.694E-03,   839.061E-03,  -232.562E-03,   10.7474E-03
C:/temp/dataset/9/17_3.odb,Step-1,Increment      1: Step Time =    1.000,"PART-1-1",           577,           15.,         -8.75,            0.,NA,NA,"",   949.601E-03,   863.674E-03,  -394.727E-03,   18.8363E-03
C:/temp/dataset/9/17_3.odb,Step-1,Increment      1: Step Time =    1.000,"PART-1-1",           578,       8.09346,      -21.6433,            0.,NA,NA,"",   152.829E-03,   135.119E-03,   71.4116E-03,   9.88776E-03
C:/temp/dataset/9/17_3.odb,Step-1,Increment      1: Step Time =    1.000,"PART-1-1",           579,       8.17438,      -23.6967,            0.,NA,NA,"",   91.9382E-03,   75.8689E-03,   51.9282E-03,   9.68777E-03
C:/temp/dataset/9/17_3.odb,Step-1,Increment      1: Step Time =    1.000,"PART-1-1",           580,       8.10077,      -19.5616,            0.,NA,NA,"",   228.907E-03,   211.256E-03,   88.1462E-03,   9.77355E-03
C:/temp/dataset/9/17_3.odb,Step-1,Increment      1: Step Time =    1.000,"PART-1-1",           581,       8.11824,      -17.4194,            0.,NA,NA,"",   323.939E-03,   306.809E-03,   103.946E-03,   9.64482E-03
C:/temp/dataset/9/17_3.odb,Step-1,Increment      1: Step Time =    1.000,"PART-1-1",           582,          -15.,       22.3438,            0.,NA,NA,"",       5.26392,       4.49966,       2.73165,   372.935E-06
C:/temp/dataset/9/17_3.odb,Step-1,Increment      1: Step Time =    1.000,"PART-1-1",           583,      -12.5647,       21.7347,            0.,NA,NA,"",       5.05134,       4.41365,       2.45678,   275.925E-06
C:/temp/dataset/9/17_3.odb,Step-1,Increment      1: Step Time =    1.000,"PART-1-1",           584,      -4.95050,       22.5220,            0.,NA,NA,"",       4.72110,       4.44959,       1.57795,   857.843E-06
C:/temp/dataset/9/17_3.odb,Step-1,Increment      1: Step Time =    1.000,"PART-1-1",           585,      -3.93081,       23.1260,            0.,NA,NA,"",       4.74087,       4.51186,       1.45568,   766.777E-06
C:/temp/dataset/9/17_3.odb,Step-1,Increment      1: Step Time =    1.000,"PART-1-1",           586,      -4.22857,       24.4244,            0.,NA,NA,"",       4.89412,       4.66449,       1.48154,   424.208E-06
C:/temp/dataset/9/17_3.odb,Step-1,Increment      1: Step Time =    1.000,"PART-1-1",           587,      -5.24826,       23.8204,            0.,NA,NA,"",       4.87315,       4.60174,       1.60362,   504.251E-06
C:/temp/dataset/9/17_3.odb,Step-1,Increment      1: Step Time =    1.000,"PART-1-1",           588,      -10.1110,       10.4874,            0.,NA,NA,"",       3.84389,       3.11773,       2.24839,   1.29230E-03
C:/temp/dataset/9/17_3.odb,Step-1,Increment      1: Step Time =    1.000,"PART-1-1",           589,      -9.15687,       11.6944,            0.,NA,NA,"",       3.88500,       3.24957,       2.12922,   1.32174E-03
C:/temp/dataset/9/17_3.odb,Step-1,Increment      1: Step Time =    1.000,"PART-1-1",           590,      -11.1597,       11.6149,            0.,NA,NA,"",       4.02123,       3.25382,       2.36282,   1.39368E-03
C:/temp/dataset/9/17_3.odb,Step-1,Increment      1: Step Time =    1.000,"PART-1-1",           591,      -6.07359,       12.6401,            0.,NA,NA,"",       3.77501,       3.33591,       1.76704,   1.38917E-03
C:/temp/dataset/9/17_3.odb,Step-1,Increment      1: Step Time =    1.000,"PART-1-1",           592,      -7.11512,       11.5321,            0.,NA,NA,"",       3.73241,       3.21663,       1.89319,   1.44309E-03
C:/temp/dataset/9/17_3.odb,Step-1,Increment      1: Step Time =    1.000,"PART-1-1",           593,           -5.,         11.25,            0.,NA,NA,"",       3.57290,       3.16865,       1.65084,   2.10011E-03
C:/temp/dataset/9/17_3.odb,Step-1,Increment      1: Step Time =    1.000,"PART-1-1",           594,      -10.0988,       8.37440,            0.,NA,NA,"",       3.65711,       2.87394,       2.26162,   1.28464E-03
C:/temp/dataset/9/17_3.odb,Step-1,Increment      1: Step Time =    1.000,"PART-1-1",           595,      -9.11481,       9.38066,            0.,NA,NA,"",       3.67118,       2.98359,       2.13911,   1.37270E-03
C:/temp/dataset/9/17_3.odb,Step-1,Increment      1: Step Time =    1.000,"PART-1-1",           596,      -11.0949,       9.48111,            0.,NA,NA,"",       3.83025,       3.00841,       2.37070,   1.40867E-03
C:/temp/dataset/9/17_3.odb,Step-1,Increment      1: Step Time =    1.000,"PART-1-1",           597,      -11.8142,       15.6555,            0.,NA,NA,"",       4.43081,       3.71781,       2.41038,   1.19936E-03
C:/temp/dataset/9/17_3.odb,Step-1,Increment      1: Step Time =    1.000,"PART-1-1",           598,      -13.4062,       15.6218,            0.,NA,NA,"",       4.53834,       3.72419,       2.59364,   988.593E-06
C:/temp/dataset/9/17_3.odb,Step-1,Increment      1: Step Time =    1.000,"PART-1-1",           599,      -12.4316,       14.7766,            0.,NA,NA,"",       4.39402,       3.62207,       2.48758,   1.18481E-03
C:/temp/dataset/9/17_3.odb,Step-1,Increment      1: Step Time =    1.000,"PART-1-1",           600,      -5.72199,       20.2132,            0.,NA,NA,"",       4.51513,       4.19032,       1.68155,   1.94106E-03
C:/temp/dataset/9/17_3.odb,Step-1,Increment      1: Step Time =    1.000,"PART-1-1",           601,           -5.,         18.75,            0.,NA,NA,"",       4.33183,       4.02192,       1.60901,   1.05124E-03
C:/temp/dataset/9/17_3.odb,Step-1,Increment      1: Step Time =    1.000,"PART-1-1",           602,          -15.,       15.7813,            0.,NA,NA,"",       4.66663,       3.75219,       2.77463,   860.188E-06
C:/temp/dataset/9/17_3.odb,Step-1,Increment      1: Step Time =    1.000,"PART-1-1",           603,      -10.4105,       16.7429,            0.,NA,NA,"",       4.43921,       3.83176,       2.24146,   1.23957E-03
C:/temp/dataset/9/17_3.odb,Step-1,Increment      1: Step Time =    1.000,"PART-1-1",           604,      -12.1928,       12.6381,            0.,NA,NA,"",       4.18729,       3.37727,       2.47536,   1.37181E-03
C:/temp/dataset/9/17_3.odb,Step-1,Increment      1: Step Time =    1.000,"PART-1-1",           605,      -12.0987,       10.4443,            0.,NA,NA,"",       3.99052,       3.12566,       2.48083,   1.52358E-03
C:/temp/dataset/9/17_3.odb,Step-1,Increment      1: Step Time =    1.000,"PART-1-1",           606,      -7.50325,       4.80693,            0.,NA,NA,"",       3.13866,       2.43792,       1.97680,   1.32244E-03
C:/temp/dataset/9/17_3.odb,Step-1,Increment      1: Step Time =    1.000,"PART-1-1",           607,      -9.63824,       5.46172,            0.,NA,NA,"",       3.37141,       2.53028,       2.22802,   976.388E-06
C:/temp/dataset/9/17_3.odb,Step-1,Increment      1: Step Time =    1.000,"PART-1-1",           608,      -8.81234,       4.25317,            0.,NA,NA,"",       3.20019,       2.38134,       2.13786,   661.050E-06
C:/temp/dataset/9/17_3.odb,Step-1,Increment      1: Step Time =    1.000,"PART-1-1",           609,          -15.,      -1.71875,            0.,NA,NA,"",       3.39831,       1.70215,       2.94129,   3.54429E-03
C:/temp/dataset/9/17_3.odb,Step-1,Increment      1: Step Time =    1.000,"PART-1-1",           610,      -12.5835,      -1.75493,            0.,NA,NA,"",       3.13606,       1.68313,       2.64612,   2.77850E-03
C:/temp/dataset/9/17_3.odb,Step-1,Increment      1: Step Time =    1.000,"PART-1-1",           611,        -11.25,           -5.,            0.,NA,NA,"",       2.82002,       1.27624,       2.51470,   2.63473E-03
C:/temp/dataset/9/17_3.odb,Step-1,Increment      1: Step Time =    1.000,"PART-1-1",           612,      -10.0144,      -3.91217,            0.,NA,NA,"",       2.73610,       1.40257,       2.34927,   1.94229E-03
C:/temp/dataset/9/17_3.odb,Step-1,Increment      1: Step Time =    1.000,"PART-1-1",           613,      -11.2827,      -2.82422,            0.,NA,NA,"",       2.93566,       1.54434,       2.49662,   2.54628E-03
C:/temp/dataset/9/17_3.odb,Step-1,Increment      1: Step Time =    1.000,"PART-1-1",           614,         -8.75,           -5.,            0.,NA,NA,"",       2.53437,       1.25833,       2.19992,   1.13664E-03
C:/temp/dataset/9/17_3.odb,Step-1,Increment      1: Step Time =    1.000,"PART-1-1",           615,      -7.54904,      -4.01671,            0.,NA,NA,"",       2.46098,       1.37175,       2.04322,   881.463E-06
C:/temp/dataset/9/17_3.odb,Step-1,Increment      1: Step Time =    1.000,"PART-1-1",           616,      -8.81345,      -2.92887,            0.,NA,NA,"",       2.66380,       1.51453,       2.19136,   1.27595E-03
C:/temp/dataset/9/17_3.odb,Step-1,Increment      1: Step Time =    1.000,"PART-1-1",           617,  -969.738E-03,       22.2544,            0.,NA,NA,"",       4.52725,       4.38754,       1.11602,   1.30133E-03
C:/temp/dataset/9/17_3.odb,Step-1,Increment      1: Step Time =    1.000,"PART-1-1",           618,      -2.31964,       21.1016,            0.,NA,NA,"",       4.45246,       4.26420,       1.28102,   1.71463E-03
C:/temp/dataset/9/17_3.odb,Step-1,Increment      1: Step Time =    1.000,"PART-1-1",           619,         -1.25,           20.,            0.,NA,NA,"",       4.28673,       4.12607,       1.16260,   2.01319E-03
C:/temp/dataset/9/17_3.odb,Step-1,Increment      1: Step Time =    1.000,"PART-1-1",           620,         -1.25,           30.,            0.,NA,NA,"",       5.40584,       5.29359,       1.09591,   913.000E-06
C:/temp/dataset/9/17_3.odb,Step-1,Increment      1: Step Time =    1.000,"PART-1-1",           621,      -1.44357,       27.1449,            0.,NA,NA,"",       5.09064,       4.96163,       1.13878,   204.710E-06
C:/temp/dataset/9/17_3.odb,Step-1,Increment      1: Step Time =    1.000,"PART-1-1",           622,      -4.58492,       21.1383,            0.,NA,NA,"",       4.55714,       4.28726,       1.54497,   1.78850E-03
C:/temp/dataset/9/17_3.odb,Step-1,Increment      1: Step Time =    1.000,"PART-1-1",           623,         -3.75,           20.,            0.,NA,NA,"",       4.39594,       4.14841,       1.45431,   2.81797E-03
C:/temp/dataset/9/17_3.odb,Step-1,Increment      1: Step Time =    1.000,"PART-1-1",           624,      -3.15456,       22.2398,            0.,NA,NA,"",       4.61192,       4.40333,       1.37131,   1.08984E-03
C:/temp/dataset/9/17_3.odb,Step-1,Increment      1: Step Time =    1.000,"PART-1-1",           625,      -11.2479,       22.4027,            0.,NA,NA,"",       5.03760,       4.48105,       2.30165,   384.169E-06
C:/temp/dataset/9/17_3.odb,Step-1,Increment      1: Step Time =    1.000,"PART-1-1",           626,      -10.3888,       20.8027,            0.,NA,NA,"",       4.82933,       4.29233,       2.21321,   705.005E-06
C:/temp/dataset/9/17_3.odb,Step-1,Increment      1: Step Time =    1.000,"PART-1-1",           627,       9.41561,      -24.6142,            0.,NA,NA,"",   53.8817E-03,   50.4370E-03,   18.9567E-03,   4.40361E-03
C:/temp/dataset/9/17_3.odb,Step-1,Increment      1: Step Time =    1.000,"PART-1-1",           628,           15.,        -16.25,            0.,NA,NA,"",   446.723E-03,   371.192E-03,  -248.551E-03,   19.3290E-03
C:/temp/dataset/9/17_3.odb,Step-1,Increment      1: Step Time =    1.000,"PART-1-1",           629,       13.1096,      -16.2411,            0.,NA,NA,"",   390.614E-03,   361.219E-03,  -148.661E-03,   11.3261E-03
C:/temp/dataset/9/17_3.odb,Step-1,Increment      1: Step Time =    1.000,"PART-1-1",           630,           15.,          3.75,            0.,NA,NA,"",       2.19782,       2.11358,  -602.655E-03,   5.58352E-03
C:/temp/dataset/9/17_3.odb,Step-1,Increment      1: Step Time =    1.000,"PART-1-1",           631,       14.0093,       5.06690,            0.,NA,NA,"",       2.32103,       2.26532,  -505.466E-03,   3.95233E-03
C:/temp/dataset/9/17_3.odb,Step-1,Increment      1: Step Time =    1.000,"PART-1-1",           632,       12.9168,       3.88721,            0.,NA,NA,"",       2.17003,       2.13776,  -372.855E-03,   3.89741E-03
C:/temp/dataset/9/17_3.odb,Step-1,Increment      1: Step Time =    1.000,"PART-1-1",           633,       12.6026,       11.0965,            0.,NA,NA,"",       2.98888,       2.96202,  -399.809E-03,   1.90039E-03
C:/temp/dataset/9/17_3.odb,Step-1,Increment      1: Step Time =    1.000,"PART-1-1",           634,           15.,         11.25,            0.,NA,NA,"",       3.04293,       2.96630,  -678.594E-03,   3.06282E-03
C:/temp/dataset/9/17_3.odb,Step-1,Increment      1: Step Time =    1.000,"PART-1-1",           635,       12.4669,       18.7361,            0.,NA,NA,"",       3.88948,       3.86401,  -444.453E-03,   998.998E-06
C:/temp/dataset/9/17_3.odb,Step-1,Increment      1: Step Time =    1.000,"PART-1-1",           636,           15.,         18.75,            0.,NA,NA,"",       3.91991,       3.84861,  -744.257E-03,   926.596E-06
C:/temp/dataset/9/17_3.odb,Step-1,Increment      1: Step Time =    1.000,"PART-1-1",           637,           15.,         26.25,            0.,NA,NA,"",       4.80684,       4.73997,  -799.003E-03,   26.0165E-06
C:/temp/dataset/9/17_3.odb,Step-1,Increment      1: Step Time =    1.000,"PART-1-1",           638,          8.75,           30.,            0.,NA,NA,"",       5.22939,       5.22872,  -84.0218E-03,   153.913E-06
C:/temp/dataset/9/17_3.odb,Step-1,Increment      1: Step Time =    1.000,"PART-1-1",           639,       8.74802,       27.8391,            0.,NA,NA,"",       4.97322,       4.97275,  -68.5211E-03,   131.366E-06
C:/temp/dataset/9/17_3.odb,Step-1,Increment      1: Step Time =    1.000,"PART-1-1",           640,       11.0691,       22.4572,            0.,NA,NA,"",       4.32811,       4.31726,  -306.273E-03,   563.197E-06
C:/temp/dataset/9/17_3.odb,Step-1,Increment      1: Step Time =    1.000,"PART-1-1",           641,       11.1947,       19.9658,            0.,NA,NA,"",       4.03088,       4.01943,  -303.570E-03,   948.321E-06
C:/temp/dataset/9/17_3.odb,Step-1,Increment      1: Step Time =    1.000,"PART-1-1",           642,          3.75,           30.,            0.,NA,NA,"",       5.28687,       5.26241,   507.988E-03,   553.373E-06
C:/temp/dataset/9/17_3.odb,Step-1,Increment      1: Step Time =    1.000,"PART-1-1",           643,       6.12801,       21.9878,            0.,NA,NA,"",       4.30849,       4.29929,   281.334E-03,   1.15949E-03
C:/temp/dataset/9/17_3.odb,Step-1,Increment      1: Step Time =    1.000,"PART-1-1",           644,       7.06684,       23.0702,            0.,NA,NA,"",       4.42337,       4.42036,   163.078E-03,   864.083E-06
C:/temp/dataset/9/17_3.odb,Step-1,Increment      1: Step Time =    1.000,"PART-1-1",           645,       4.97038,       22.7185,            0.,NA,NA,"",       4.41455,       4.39511,   413.810E-03,   910.362E-06
C:/temp/dataset/9/17_3.odb,Step-1,Increment      1: Step Time =    1.000,"PART-1-1",           646,          3.75,           20.,            0.,NA,NA,"",       4.12324,       4.08283,   575.876E-03,   2.11603E-03
C:/temp/dataset/9/17_3.odb,Step-1,Increment      1: Step Time =    1.000,"PART-1-1",           647,       4.96897,       20.9583,            0.,NA,NA,"",       4.20800,       4.18643,   425.522E-03,   1.47364E-03
C:/temp/dataset/9/17_3.odb,Step-1,Increment      1: Step Time =    1.000,"PART-1-1",           648,       3.78616,       22.0655,            0.,NA,NA,"",       4.36308,       4.32722,   558.290E-03,   991.648E-06
C:/temp/dataset/9/17_3.odb,Step-1,Increment      1: Step Time =    1.000,"PART-1-1",           649,           -5.,         13.75,            0.,NA,NA,"",       3.82374,       3.45496,       1.63835,   1.39333E-03
C:/temp/dataset/9/17_3.odb,Step-1,Increment      1: Step Time =    1.000,"PART-1-1",           650,      -7.15256,       14.0792,            0.,NA,NA,"",       3.98106,       3.50762,       1.88293,   1.10563E-03
C:/temp/dataset/9/17_3.odb,Step-1,Increment      1: Step Time =    1.000,"PART-1-1",           651,      -9.70164,       19.1500,            0.,NA,NA,"",       4.62663,       4.09956,       2.14459,   1.14324E-03
C:/temp/dataset/9/17_3.odb,Step-1,Increment      1: Step Time =    1.000,"PART-1-1",           652,      -9.13060,       21.5024,            0.,NA,NA,"",       4.82700,       4.36322,       2.06451,   797.511E-06
C:/temp/dataset/9/17_3.odb,Step-1,Increment      1: Step Time =    1.000,"PART-1-1",           653,         -1.25,           -5.,            0.,NA,NA,"",       1.76178,       1.21571,       1.27511,   3.77385E-03
C:/temp/dataset/9/17_3.odb,Step-1,Increment      1: Step Time =    1.000,"PART-1-1",           654,      -1.47244,      -2.77860,            0.,NA,NA,"",       1.96243,       1.48496,       1.28298,   3.50984E-03
C:/temp/dataset/9/17_3.odb,Step-1,Increment      1: Step Time =    1.000,"PART-1-1",           655,      -9.96758,      -1.61086,            0.,NA,NA,"",       2.86909,       1.68353,       2.32324,   1.55099E-03
C:/temp/dataset/9/17_3.odb,Step-1,Increment      1: Step Time =    1.000,"PART-1-1",           656,      -6.37223,      -3.07632,            0.,NA,NA,"",       2.40017,       1.47894,       1.89038,   1.26641E-03
C:/temp/dataset/9/17_3.odb,Step-1,Increment      1: Step Time =    1.000,"PART-1-1",           657,         -6.25,           -5.,            0.,NA,NA,"",       2.26244,       1.24237,       1.89080,   1.55258E-03
C:/temp/dataset/9/17_3.odb,Step-1,Increment      1: Step Time =    1.000,"PART-1-1",           658,         -3.75,            5.,            0.,NA,NA,"",       2.86345,       2.43187,       1.51175,   1.95378E-03
C:/temp/dataset/9/17_3.odb,Step-1,Increment      1: Step Time =    1.000,"PART-1-1",           659,      -5.11170,       4.23117,            0.,NA,NA,"",       2.89365,       2.34915,       1.68960,   4.10464E-03
C:/temp/dataset/9/17_3.odb,Step-1,Increment      1: Step Time =    1.000,"PART-1-1",           660,      -3.95473,       3.29190,            0.,NA,NA,"",       2.71117,       2.22491,       1.54927,   3.84590E-03
C:/temp/dataset/9/17_3.odb,Step-1,Increment      1: Step Time =    1.000,"PART-1-1",           661,          3.75,           -5.,            0.,NA,NA,"",       1.37308,       1.20549,   657.385E-03,   14.5165E-03
C:/temp/dataset/9/17_3.odb,Step-1,Increment      1: Step Time =    1.000,"PART-1-1",           662,       4.69008,      -3.66648,            0.,NA,NA,"",       1.45477,       1.35633,   526.041E-03,   14.6626E-03
C:/temp/dataset/9/17_3.odb,Step-1,Increment      1: Step Time =    1.000,"PART-1-1",           663,       4.69636,       3.71818,            0.,NA,NA,"",       2.24838,       2.18804,   517.411E-03,   6.11014E-03
C:/temp/dataset/9/17_3.odb,Step-1,Increment      1: Step Time =    1.000,"PART-1-1",           664,          3.75,            5.,            0.,NA,NA,"",       2.42139,       2.34152,   616.778E-03,   7.65877E-03
C:/temp/dataset/9/17_3.odb,Step-1,Increment      1: Step Time =    1.000,"PART-1-1",           665,       8.42013,       25.7200,            0.,NA,NA,"",       4.72422,       4.72419,  -14.9739E-03,   304.045E-06
C:/temp/dataset/9/17_3.odb,Step-1,Increment      1: Step Time =    1.000,"PART-1-1",           666,       7.55622,       27.1849,            0.,NA,NA,"",       4.90440,       4.90379,   77.3427E-03,   219.023E-06
C:/temp/dataset/9/17_3.odb,Step-1,Increment      1: Step Time =    1.000,"PART-1-1",           667,       6.61388,       26.0906,            0.,NA,NA,"",       4.78526,       4.78122,   196.573E-03,   367.153E-06
C:/temp/dataset/9/17_3.odb,Step-1,Increment      1: Step Time =    1.000,"PART-1-1",           668,       10.0237,       13.5556,            0.,NA,NA,"",       3.26823,       3.26600,  -120.888E-03,   1.35332E-03
C:/temp/dataset/9/17_3.odb,Step-1,Increment      1: Step Time =    1.000,"PART-1-1",           669,       8.80148,       12.2659,            0.,NA,NA,"",       3.12293,       3.12280,   28.7465E-03,   1.43285E-03
C:/temp/dataset/9/17_3.odb,Step-1,Increment      1: Step Time =    1.000,"PART-1-1",           670,            5.,          6.25,            0.,NA,NA,"",       2.50678,       2.45966,   483.740E-03,   5.99007E-03
C:/temp/dataset/9/17_3.odb,Step-1,Increment      1: Step Time =    1.000,"PART-1-1",           671,       5.87545,       4.76801,            0.,NA,NA,"",       2.32363,       2.29062,   390.276E-03,   6.40537E-03
C:/temp/dataset/9/17_3.odb,Step-1,Increment      1: Step Time =    1.000,"PART-1-1",           672,       6.93940,       5.78737,            0.,NA,NA,"",       2.40827,       2.39291,   271.562E-03,   3.49810E-03
C:/temp/dataset/9/17_3.odb,Step-1,Increment      1: Step Time =    1.000,"PART-1-1",           673,       7.73520,       4.18036,            0.,NA,NA,"",       2.21493,       2.20686,   188.908E-03,   4.74364E-03
C:/temp/dataset/9/17_3.odb,Step-1,Increment      1: Step Time =    1.000,"PART-1-1",           674,       6.49581,       3.34316,            0.,NA,NA,"",       2.15035,       2.12572,   324.494E-03,   6.83508E-03
C:/temp/dataset/9/17_3.odb,Step-1,Increment      1: Step Time =    1.000,"PART-1-1",           675,       7.18979,       1.82766,            0.,NA,NA,"",       1.96426,       1.94799,   252.324E-03,   6.76696E-03
C:/temp/dataset/9/17_3.odb,Step-1,Increment      1: Step Time =    1.000,"PART-1-1",           676,       8.42918,       2.66485,            0.,NA,NA,"",       2.03392,       2.03047,   118.443E-03,   5.41611E-03
C:/temp/dataset/9/17_3.odb,Step-1,Increment      1: Step Time =    1.000,"PART-1-1",           677,  -530.051E-03,       1.39108,            0.,NA,NA,"",       2.27419,       1.96970,       1.13676,   3.55226E-03
C:/temp/dataset/9/17_3.odb,Step-1,Increment      1: Step Time =    1.000,"PART-1-1",           678,      -10.1792,       3.73358,            0.,NA,NA,"",       3.27739,       2.32896,       2.30592,   906.819E-06
C:/temp/dataset/9/17_3.odb,Step-1,Increment      1: Step Time =    1.000,"PART-1-1",           679,      -9.26781,       2.30942,            0.,NA,NA,"",       3.08238,       2.15205,       2.20675,   743.989E-06
C:/temp/dataset/9/17_3.odb,Step-1,Increment      1: Step Time =    1.000,"PART-1-1",           680,      -7.90097,       2.82902,            0.,NA,NA,"",       3.00153,       2.20408,       2.03746,   1.17521E-03
C:/temp/dataset/9/17_3.odb,Step-1,Increment      1: Step Time =    1.000,"PART-1-1",           681,      -2.90861,       2.25641,            0.,NA,NA,"",       2.53087,       2.09176,       1.42473,   3.83533E-03
C:/temp/dataset/9/17_3.odb,Step-1,Increment      1: Step Time =    1.000,"PART-1-1",           682,      -1.97153,   737.020E-03,            0.,NA,NA,"",       2.31610,       1.90425,       1.31839,   3.89349E-03
C:/temp/dataset/9/17_3.odb,Step-1,Increment      1: Step Time =    1.000,"PART-1-1",           683,      -12.0057,       8.33468,            0.,NA,NA,"",       3.80606,       2.88161,       2.48645,   1.64915E-03
C:/temp/dataset/9/17_3.odb,Step-1,Increment      1: Step Time =    1.000,"PART-1-1",           684,   257.111E-03,       23.5381,            0.,NA,NA,"",       4.62956,       4.52808,   964.006E-03,   881.595E-06
C:/temp/dataset/9/17_3.odb,Step-1,Increment      1: Step Time =    1.000,"PART-1-1",           685,       2.92443,       23.5127,            0.,NA,NA,"",       4.55140,       4.50469,   650.440E-03,   799.490E-06
C:/temp/dataset/9/17_3.odb,Step-1,Increment      1: Step Time =    1.000,"PART-1-1",           686,  -872.814E-03,       24.6452,            0.,NA,NA,"",       4.79140,       4.66599,       1.08907,   559.530E-06
C:/temp/dataset/9/17_3.odb,Step-1,Increment      1: Step Time =    1.000,"PART-1-1",           687,      -2.49287,       25.7554,            0.,NA,NA,"",       4.97207,       4.80693,       1.27078,   214.149E-06
C:/temp/dataset/9/17_3.odb,Step-1,Increment      1: Step Time =    1.000,"PART-1-1",           688,      -6.57000,       23.0679,            0.,NA,NA,"",       4.85486,       4.52426,       1.76089,   685.230E-06
C:/temp/dataset/9/17_3.odb,Step-1,Increment      1: Step Time =    1.000,"PART-1-1",           689,      -7.77911,       22.2181,            0.,NA,NA,"",       4.82714,       4.43531,       1.90505,   767.473E-06
C:/temp/dataset/9/17_3.odb,Step-1,Increment      1: Step Time =    1.000,"PART-1-1",           690,      -6.08757,       21.5970,            0.,NA,NA,"",       4.67723,       4.35148,       1.71496,   1.15574E-03
C:/temp/dataset/9/17_3.odb,Step-1,Increment      1: Step Time =    1.000,"PART-1-1",           691,      -10.6596,       24.7502,            0.,NA,NA,"",       5.23956,       4.74640,       2.21917,   332.433E-06
C:/temp/dataset/9/17_3.odb,Step-1,Increment      1: Step Time =    1.000,"PART-1-1",           692,      -8.94190,       25.0911,            0.,NA,NA,"",       5.18378,       4.77401,       2.02001,   364.788E-06
C:/temp/dataset/9/17_3.odb,Step-1,Increment      1: Step Time =    1.000,"PART-1-1",           693,      -9.30563,       26.3338,            0.,NA,NA,"",       5.33107,       4.91969,       2.05353,   366.913E-06
C:/temp/dataset/9/17_3.odb,Step-1,Increment      1: Step Time =    1.000,"PART-1-1",           694,      -11.0233,       25.9928,            0.,NA,NA,"",       5.38560,       4.89182,       2.25273,   317.440E-06
C:/temp/dataset/9/17_3.odb,Step-1,Increment      1: Step Time =    1.000,"PART-1-1",           695,      -9.11986,       17.2561,            0.,NA,NA,"",       4.40785,       3.88111,       2.08954,   1.35307E-03
C:/temp/dataset/9/17_3.odb,Step-1,Increment      1: Step Time =    1.000,"PART-1-1",           696,      -11.0116,       7.65423,            0.,NA,NA,"",       3.66849,       2.79625,       2.37462,   1.39077E-03
C:/temp/dataset/9/17_3.odb,Step-1,Increment      1: Step Time =    1.000,"PART-1-1",           697,      -11.6541,       6.30856,            0.,NA,NA,"",       3.61166,       2.64309,       2.46134,   1.60847E-03
C:/temp/dataset/9/17_3.odb,Step-1,Increment      1: Step Time =    1.000,"PART-1-1",           698,      -3.46647,   792.949E-03,            0.,NA,NA,"",       2.44062,       1.92264,       1.50336,   3.66917E-03
C:/temp/dataset/9/17_3.odb,Step-1,Increment      1: Step Time =    1.000,"PART-1-1",           699,      -4.27899,       1.61468,            0.,NA,NA,"",       2.58213,       2.02731,       1.59920,   3.66953E-03
C:/temp/dataset/9/17_3.odb,Step-1,Increment      1: Step Time =    1.000,"PART-1-1",           700,      -5.41602,       1.03976,            0.,NA,NA,"",       2.62949,       1.96828,       1.74358,   2.99029E-03
C:/temp/dataset/9/17_3.odb,Step-1,Increment      1: Step Time =    1.000,"PART-1-1",           701,      -4.60351,   218.037E-03,            0.,NA,NA,"",       2.48758,       1.86328,       1.64811,   3.04558E-03
C:/temp/dataset/9/17_3.odb,Step-1,Increment      1: Step Time =    1.000,"PART-1-1",           702,      -1.96165,  -510.209E-03,            0.,NA,NA,"",       2.20113,       1.75706,       1.32580,   3.49360E-03
C:/temp/dataset/9/17_3.odb,Step-1,Increment      1: Step Time =    1.000,"PART-1-1",           703,      -2.89723,      -2.02996,            0.,NA,NA,"",       2.14828,       1.58255,       1.45281,   2.87976E-03
C:/temp/dataset/9/17_3.odb,Step-1,Increment      1: Step Time =    1.000,"PART-1-1",           704,       6.46823,      -3.22891,            0.,NA,NA,"",       1.42801,       1.38932,   330.150E-03,   9.28150E-03
C:/temp/dataset/9/17_3.odb,Step-1,Increment      1: Step Time =    1.000,"PART-1-1",           705,       5.30305,      -2.18626,            0.,NA,NA,"",       1.58300,       1.51508,   458.711E-03,   8.09131E-03
C:/temp/dataset/9/17_3.odb,Step-1,Increment      1: Step Time =    1.000,"PART-1-1",           706,       8.11637,      -13.0290,            0.,NA,NA,"",   573.000E-03,   556.915E-03,   134.815E-03,   9.58344E-03
C:/temp/dataset/9/17_3.odb,Step-1,Increment      1: Step Time =    1.000,"PART-1-1",           707,       8.09759,      -10.8135,            0.,NA,NA,"",   725.912E-03,   710.263E-03,   149.914E-03,   9.52916E-03
C:/temp/dataset/9/17_3.odb,Step-1,Increment      1: Step Time =    1.000,"PART-1-1",           708,           15.,        -26.25,            0.,NA,NA,"",   77.5592E-03,   40.6182E-03,  -66.0726E-03,   19.9981E-03
C:/temp/dataset/9/17_3.odb,Step-1,Increment      1: Step Time =    1.000,"PART-1-1",           709,       13.6129,      -24.9005,            0.,NA,NA,"",   81.9955E-03,   52.7757E-03,  -62.7534E-03,   13.9950E-03
C:/temp/dataset/9/17_3.odb,Step-1,Increment      1: Step Time =    1.000,"PART-1-1",           710,       12.3352,      -26.1538,            0.,NA,NA,"",   37.5013E-03,   24.9679E-03,  -27.9813E-03,   8.61142E-03
C:/temp/dataset/9/17_3.odb,Step-1,Increment      1: Step Time =    1.000,"PART-1-1",           711,       11.5115,      -24.0900,            0.,NA,NA,"",   66.6705E-03,   61.4942E-03,  -25.7568E-03,   4.85780E-03
C:/temp/dataset/9/17_3.odb,Step-1,Increment      1: Step Time =    1.000,"PART-1-1",           712,       12.5793,      -23.4990,            0.,NA,NA,"",   95.9317E-03,   78.6969E-03,  -54.8607E-03,   9.47830E-03
C:/temp/dataset/9/17_3.odb,Step-1,Increment      1: Step Time =    1.000,"PART-1-1",           713,       11.9958,      -21.9645,            0.,NA,NA,"",   129.962E-03,   119.768E-03,  -50.4551E-03,   6.82324E-03
C:/temp/dataset/9/17_3.odb,Step-1,Increment      1: Step Time =    1.000,"PART-1-1",           714,           15.,        -23.75,            0.,NA,NA,"",   141.510E-03,   87.8250E-03,  -110.959E-03,   19.7999E-03
C:/temp/dataset/9/17_3.odb,Step-1,Increment      1: Step Time =    1.000,"PART-1-1",           715,       11.0775,      -9.24199,            0.,NA,NA,"",   820.776E-03,   817.380E-03,  -74.5901E-03,   3.22793E-03
C:/temp/dataset/9/17_3.odb,Step-1,Increment      1: Step Time =    1.000,"PART-1-1",           716,       10.0590,      -8.23408,            0.,NA,NA,"",   901.145E-03,   901.141E-03,   2.55844E-03,   1.09464E-03
C:/temp/dataset/9/17_3.odb,Step-1,Increment      1: Step Time =    1.000,"PART-1-1",           717,       9.08966,      -9.54059,            0.,NA,NA,"",   804.321E-03,   800.265E-03,   80.6732E-03,   4.98878E-03
C:/temp/dataset/9/17_3.odb,Step-1,Increment      1: Step Time =    1.000,"PART-1-1",           718,           15.,         -1.25,            0.,NA,NA,"",       1.65724,       1.56790,  -536.771E-03,   11.3280E-03
C:/temp/dataset/9/17_3.odb,Step-1,Increment      1: Step Time =    1.000,"PART-1-1",           719,       12.7047,      -1.36075,            0.,NA,NA,"",       1.58759,       1.55952,  -297.202E-03,   7.55352E-03
C:/temp/dataset/9/17_3.odb,Step-1,Increment      1: Step Time =    1.000,"PART-1-1",           720,       10.4122,      -1.52824,            0.,NA,NA,"",       1.55111,       1.54966,  -67.0801E-03,   6.16076E-03
C:/temp/dataset/9/17_3.odb,Step-1,Increment      1: Step Time =    1.000,"PART-1-1",           721,       11.7321,      -2.88547,            0.,NA,NA,"",       1.41307,       1.40088,  -185.205E-03,   7.03886E-03
C:/temp/dataset/9/17_3.odb,Step-1,Increment      1: Step Time =    1.000,"PART-1-1",           722,       13.0447,       6.32641,            0.,NA,NA,"",       2.44674,       2.41228,  -409.192E-03,   2.97739E-03
C:/temp/dataset/9/17_3.odb,Step-1,Increment      1: Step Time =    1.000,"PART-1-1",           723,           15.,          6.25,            0.,NA,NA,"",       2.47552,       2.39422,  -629.246E-03,   4.33982E-03
C:/temp/dataset/9/17_3.odb,Step-1,Increment      1: Step Time =    1.000,"PART-1-1",           724,       12.2773,       7.44357,            0.,NA,NA,"",       2.56505,       2.54342,  -332.452E-03,   2.14168E-03
C:/temp/dataset/9/17_3.odb,Step-1,Increment      1: Step Time =    1.000,"PART-1-1",           725,       11.3989,       9.46443,            0.,NA,NA,"",       2.79136,       2.78023,  -249.011E-03,   1.49620E-03
C:/temp/dataset/9/17_3.odb,Step-1,Increment      1: Step Time =    1.000,"PART-1-1",           726,       10.0696,       10.6576,            0.,NA,NA,"",       2.92853,       2.92660,  -106.143E-03,   1.32753E-03
C:/temp/dataset/9/17_3.odb,Step-1,Increment      1: Step Time =    1.000,"PART-1-1",           727,       11.2733,       12.2896,            0.,NA,NA,"",       3.11977,       3.10925,  -256.093E-03,   1.37089E-03
C:/temp/dataset/9/17_3.odb,Step-1,Increment      1: Step Time =    1.000,"PART-1-1",           728,       11.2495,       14.9235,            0.,NA,NA,"",       3.43022,       3.41934,  -273.096E-03,   1.29278E-03
C:/temp/dataset/9/17_3.odb,Step-1,Increment      1: Step Time =    1.000,"PART-1-1",           729,       11.2365,       17.4638,            0.,NA,NA,"",       3.73223,       3.72092,  -290.396E-03,   1.19379E-03
C:/temp/dataset/9/17_3.odb,Step-1,Increment      1: Step Time =    1.000,"PART-1-1",           730,       9.96430,       18.6935,            0.,NA,NA,"",       3.87929,       3.87639,  -149.882E-03,   1.25898E-03
C:/temp/dataset/9/17_3.odb,Step-1,Increment      1: Step Time =    1.000,"PART-1-1",           731,       8.12949,      -15.2371,            0.,NA,NA,"",   438.538E-03,   422.039E-03,   119.159E-03,   9.55435E-03
C:/temp/dataset/9/17_3.odb,Step-1,Increment      1: Step Time =    1.000,"PART-1-1",           732,       10.9896,      -6.85237,            0.,NA,NA,"",       1.02112,       1.01777,  -82.7404E-03,   4.15146E-03
C:/temp/dataset/9/17_3.odb,Step-1,Increment      1: Step Time =    1.000,"PART-1-1",           733,       10.9332,      -25.1906,            0.,NA,NA,"",   39.2455E-03,   37.8558E-03,  -10.3513E-03,   2.44478E-03
C:/temp/dataset/9/17_3.odb,Step-1,Increment      1: Step Time =    1.000,"PART-1-1",           734,       11.9281,      -5.46067,            0.,NA,NA,"",       1.15826,       1.14454,  -177.758E-03,   7.20850E-03
C:/temp/dataset/9/17_3.odb,Step-1,Increment      1: Step Time =    1.000,"PART-1-1",           735,      -11.5697,       3.18107,            0.,NA,NA,"",       3.36179,       2.27230,       2.47755,   1.59943E-03
C:/temp/dataset/9/17_3.odb,Step-1,Increment      1: Step Time =    1.000,"PART-1-1",           736,      -10.7341,       2.09613,            0.,NA,NA,"",       3.20291,       2.13683,       2.38592,   1.20753E-03
C:/temp/dataset/9/17_3.odb,Step-1,Increment      1: Step Time =    1.000,"PART-1-1",           737,      -6.76822,       1.80268,            0.,NA,NA,"",       2.81456,       2.07133,       1.90561,   2.26304E-03
C:/temp/dataset/9/17_3.odb,Step-1,Increment      1: Step Time =    1.000,"PART-1-1",           738,      -5.32511,       2.65016,            0.,NA,NA,"",       2.76356,       2.16052,       1.72321,   3.57706E-03
C:/temp/dataset/9/17_3.odb,Step-1,Increment      1: Step Time =    1.000,"PART-1-1",           739,      -6.45786,       3.67650,            0.,NA,NA,"",       2.95167,       2.29426,       1.85708,   2.58721E-03
C:/temp/dataset/9/17_3.odb,Step-1,Increment      1: Step Time =    1.000,"PART-1-1",           740,      -10.1618,       27.4009,            0.,NA,NA,"",       5.48493,       5.04827,       2.14462,   330.692E-06
C:/temp/dataset/9/17_3.odb,Step-1,Increment      1: Step Time =    1.000,"PART-1-1",           741,      -8.15950,       27.0742,            0.,NA,NA,"",       5.35259,       4.99755,       1.91697,   357.452E-06
C:/temp/dataset/9/17_3.odb,Step-1,Increment      1: Step Time =    1.000,"PART-1-1",           742,      -8.41457,       23.7439,            0.,NA,NA,"",       5.01740,       4.61521,       1.96828,   517.922E-06
C:/temp/dataset/9/17_3.odb,Step-1,Increment      1: Step Time =    1.000,"PART-1-1",           743,      -9.76606,       23.0282,            0.,NA,NA,"",       5.01612,       4.54245,       2.12782,   426.855E-06
C:/temp/dataset/9/17_3.odb,Step-1,Increment      1: Step Time =    1.000,"PART-1-1",           744,      -10.1457,       6.57799,            0.,NA,NA,"",       3.50734,       2.66497,       2.28021,   1.14724E-03
C:/temp/dataset/9/17_3.odb,Step-1,Increment      1: Step Time =    1.000,"PART-1-1",           745,      -11.1466,       5.19230,            0.,NA,NA,"",       3.47864,       2.50845,       2.41010,   1.37717E-03
C:/temp/dataset/9/17_3.odb,Step-1,Increment      1: Step Time =    1.000,"PART-1-1",           746,       7.77017,   782.991E-03,            0.,NA,NA,"",       1.83477,       1.82461,   192.844E-03,   6.86696E-03
C:/temp/dataset/9/17_3.odb,Step-1,Increment      1: Step Time =    1.000,"PART-1-1",           747,       6.09501,       1.10589,            0.,NA,NA,"",       1.91365,       1.87742,   370.611E-03,   6.85274E-03
C:/temp/dataset/9/17_3.odb,Step-1,Increment      1: Step Time =    1.000,"PART-1-1",           748,       6.67539,   61.2235E-03,            0.,NA,NA,"",       1.78073,       1.75363,   309.478E-03,   6.95382E-03
C:/temp/dataset/9/17_3.odb,Step-1,Increment      1: Step Time =    1.000,"PART-1-1",           749,       5.31672,       2.29333,            0.,NA,NA,"",       2.07008,       2.01989,   453.060E-03,   6.38138E-03
C:/temp/dataset/9/17_3.odb,Step-1,Increment      1: Step Time =    1.000,"PART-1-1",           750,      -6.94695,       24.4689,            0.,NA,NA,"",       5.02043,       4.68857,       1.79502,   433.739E-06
C:/temp/dataset/9/17_3.odb,Step-1,Increment      1: Step Time =    1.000,"PART-1-1",           751,      -2.09966,       23.3616,            0.,NA,NA,"",       4.69255,       4.52549,       1.24096,   974.314E-06
C:/temp/dataset/9/17_3.odb,Step-1,Increment      1: Step Time =    1.000,"PART-1-1",           752,      -2.87591,       24.2478,            0.,NA,NA,"",       4.82015,       4.63429,       1.32560,   537.528E-06
C:/temp/dataset/9/17_3.odb,Step-1,Increment      1: Step Time =    1.000,"PART-1-1",           753,       9.53974,       23.7363,            0.,NA,NA,"",       4.48265,       4.48064,  -134.127E-03,   516.369E-06
C:/temp/dataset/9/17_3.odb,Step-1,Increment      1: Step Time =    1.000,"PART-1-1",           754,      -5.22075,      -2.25347,            0.,NA,NA,"",       2.34558,       1.57092,       1.74182,   1.83880E-03
C:/temp/dataset/9/17_3.odb,Step-1,Increment      1: Step Time =    1.000,"PART-1-1",           755,      -7.55915,      -2.11026,            0.,NA,NA,"",       2.58769,       1.60518,       2.02966,   1.21265E-03
C:/temp/dataset/9/17_3.odb,Step-1,Increment      1: Step Time =    1.000,"PART-1-1",           756,      -4.20325,      -1.24540,            0.,NA,NA,"",       2.32962,       1.68515,       1.60853,   2.65344E-03
C:/temp/dataset/9/17_3.odb,Step-1,Increment      1: Step Time =    1.000,"PART-1-1",           757,       12.0426,       5.30937,            0.,NA,NA,"",       2.32059,       2.30255,  -288.764E-03,   2.44750E-03
C:/temp/dataset/9/17_3.odb,Step-1,Increment      1: Step Time =    1.000,"PART-1-1",           758,      -8.17645,       12.8481,            0.,NA,NA,"",       3.92695,       3.37453,       2.00835,   1.20582E-03
C:/temp/dataset/9/17_3.odb,Step-1,Increment      1: Step Time =    1.000,"PART-1-1",           759,      -8.09554,       10.3784,            0.,NA,NA,"",       3.68933,       3.09129,       2.01373,   1.42181E-03
C:/temp/dataset/9/17_3.odb,Step-1,Increment      1: Step Time =    1.000,"PART-1-1",           760,      -8.33007,       15.6293,            0.,NA,NA,"",       4.20286,       3.69165,       2.00893,   1.17334E-03
C:/temp/dataset/9/17_3.odb,Step-1,Increment      1: Step Time =    1.000,"PART-1-1",           761,       12.1122,      -19.7356,            0.,NA,NA,"",   210.266E-03,   198.296E-03,  -69.9335E-03,   7.22922E-03
C:/temp/dataset/9/17_3.odb,Step-1,Increment      1: Step Time =    1.000,"PART-1-1",           762,       12.1388,      -17.4254,            0.,NA,NA,"",   311.954E-03,   299.185E-03,  -88.3402E-03,   7.26319E-03
C:/temp/dataset/9/17_3.odb,Step-1,Increment      1: Step Time =    1.000,"PART-1-1",           763,       12.0361,      -7.90801,            0.,NA,NA,"",   939.814E-03,   925.655E-03,  -162.525E-03,   7.03163E-03
C:/temp/dataset/9/17_3.odb,Step-1,Increment      1: Step Time =    1.000,"PART-1-1",           764,       12.0837,      -10.3075,            0.,NA,NA,"",   748.913E-03,   734.991E-03,  -143.730E-03,   6.93911E-03
C:/temp/dataset/9/17_3.odb,Step-1,Increment      1: Step Time =    1.000,"PART-1-1",           765,       12.1118,      -12.6921,            0.,NA,NA,"",   581.394E-03,   567.825E-03,  -124.871E-03,   7.01887E-03
C:/temp/dataset/9/17_3.odb,Step-1,Increment      1: Step Time =    1.000,"PART-1-1",           766,       12.1357,      -15.0700,            0.,NA,NA,"",   435.722E-03,   422.455E-03,  -106.700E-03,   7.17626E-03
C:/temp/dataset/9/17_3.odb,Step-1,Increment      1: Step Time =    1.000,"PART-1-1",           767,      -8.71328,  -792.246E-03,            0.,NA,NA,"",       2.79667,       1.77381,       2.16217,   1.26012E-03
C:/temp/dataset/9/17_3.odb,Step-1,Increment      1: Step Time =    1.000,"PART-1-1",           768,      -7.47429,       25.8162,            0.,NA,NA,"",       5.18757,       4.84775,       1.84668,   363.193E-06
C:/temp/dataset/9/17_3.odb,Step-1,Increment      1: Step Time =    1.000,"PART-1-1",           769,       9.13729,   756.201E-03,            0.,NA,NA,"",       1.81075,       1.81005,   50.4443E-03,   5.92148E-03
C:/temp/dataset/9/17_3.odb,Step-1,Increment      1: Step Time =    1.000,"PART-1-1",           770,       7.76646,  -679.521E-03,            0.,NA,NA,"",       1.67195,       1.66044,   195.859E-03,   7.35083E-03
C:/temp/dataset/9/17_3.odb,Step-1,Increment      1: Step Time =    1.000,"PART-1-1",           771,       9.13358,  -706.311E-03,            0.,NA,NA,"",       1.64803,       1.64706,   56.5388E-03,   6.58746E-03
C:/temp/dataset/9/17_3.odb,Step-1,Increment      1: Step Time =    1.000,"PART-1-1",           772,       7.17869,      -1.72980,            0.,NA,NA,"",       1.56967,       1.54838,   257.675E-03,   7.92064E-03
C:/temp/dataset/9/17_3.odb,Step-1,Increment      1: Step Time =    1.000,"PART-1-1",           773,       6.08762,  -989.051E-03,            0.,NA,NA,"",       1.68298,       1.64111,   373.091E-03,   7.74305E-03
C:/temp/dataset/9/17_3.odb,Step-1,Increment      1: Step Time =    1.000,"PART-1-1",           774,       8.06590,       24.5744,            0.,NA,NA,"",       4.59122,       4.59109,   34.7736E-03,   502.556E-06
C:/temp/dataset/9/17_3.odb,Step-1,Increment      1: Step Time =    1.000,"PART-1-1",           775,       7.69641,      -4.07963,            0.,NA,NA,"",       1.30850,       1.29207,   206.693E-03,   6.99143E-03
C:/temp/dataset/9/17_3.odb,Step-1,Increment      1: Step Time =    1.000,"PART-1-1",           776,       8.40687,      -2.58051,            0.,NA,NA,"",       1.45283,       1.44652,   135.230E-03,   6.96367E-03
C:/temp/dataset/9/17_3.odb,Step-1,Increment      1: Step Time =    1.000,"PART-1-1",           777,      -9.00797,   684.990E-03,            0.,NA,NA,"",       2.93327,       1.95458,       2.18716,   989.861E-06
C:/temp/dataset/9/17_3.odb,Step-1,Increment      1: Step Time =    1.000,"PART-1-1",           778,       5.05143,   63.4436E-03,            0.,NA,NA,"",       1.83541,       1.76982,   486.275E-03,   5.68782E-03
C:/temp/dataset/9/17_3.odb,Step-1,Increment      1: Step Time =    1.000,"PART-1-1",           779,      -3.45659,  -454.281E-03,            0.,NA,NA,"",       2.33015,       1.77426,       1.51049,   3.20979E-03
C:/temp/dataset/9/17_3.odb,Step-1,Increment      1: Step Time =    1.000,"PART-1-1",           780,      -7.58605,   993.377E-03,            0.,NA,NA,"",       2.82264,       1.98071,       2.01099,   1.61250E-03
