ODB Name,Step,Frame,Part Instance Name,    êﬂì_ÉâÉxÉã,X,Y,Z,Section Name,Material Name,Section Point,   U-Magnitude,          U-U1,          U-U2,       S-Mises
C:/temp/dataset/9/19_9.odb,Step-1,Increment      1: Step Time =    1.000,"PART-1-1",             1,            5.,           20.,            0.,NA,NA,"",       7.12952,       7.11060,   519.064E-03,   1.60417E-03
C:/temp/dataset/9/19_9.odb,Step-1,Increment      1: Step Time =    1.000,"PART-1-1",             2,            0.,           20.,            0.,NA,NA,"",       7.37312,       7.21613,       1.51343,   1.37290E-03
C:/temp/dataset/9/19_9.odb,Step-1,Increment      1: Step Time =    1.000,"PART-1-1",             3,            5.,          12.5,            0.,NA,NA,"",       5.66438,       5.62706,   649.158E-03,   3.42503E-03
C:/temp/dataset/9/19_9.odb,Step-1,Increment      1: Step Time =    1.000,"PART-1-1",             4,            5.,            5.,            0.,NA,NA,"",       4.25584,       4.18823,   755.597E-03,   10.2783E-03
C:/temp/dataset/9/19_9.odb,Step-1,Increment      1: Step Time =    1.000,"PART-1-1",             5,            0.,            5.,            0.,NA,NA,"",       4.67295,       4.33141,       1.75368,   2.74692E-03
C:/temp/dataset/9/19_9.odb,Step-1,Increment      1: Step Time =    1.000,"PART-1-1",             6,           -5.,            5.,            0.,NA,NA,"",       5.22929,       4.42714,       2.78314,   6.37135E-03
C:/temp/dataset/9/19_9.odb,Step-1,Increment      1: Step Time =    1.000,"PART-1-1",             7,           -5.,          12.5,            0.,NA,NA,"",       6.44724,       5.87735,       2.65022,   182.169E-06
C:/temp/dataset/9/19_9.odb,Step-1,Increment      1: Step Time =    1.000,"PART-1-1",             8,           -5.,           20.,            0.,NA,NA,"",       7.74103,       7.32483,       2.50409,   3.50502E-03
C:/temp/dataset/9/19_9.odb,Step-1,Increment      1: Step Time =    1.000,"PART-1-1",             9,           15.,           30.,            0.,NA,NA,"",       9.04985,       8.89630,      -1.66001,   12.8672E-06
C:/temp/dataset/9/19_9.odb,Step-1,Increment      1: Step Time =    1.000,"PART-1-1",            10,           7.5,           30.,            0.,NA,NA,"",       9.04764,       9.04601,  -171.832E-03,   186.416E-06
C:/temp/dataset/9/19_9.odb,Step-1,Increment      1: Step Time =    1.000,"PART-1-1",            11,            0.,           30.,            0.,NA,NA,"",       9.28817,       9.19429,       1.31719,   656.935E-06
C:/temp/dataset/9/19_9.odb,Step-1,Increment      1: Step Time =    1.000,"PART-1-1",            12,          -7.5,           30.,            0.,NA,NA,"",       9.74522,       9.33523,       2.79692,   854.612E-06
C:/temp/dataset/9/19_9.odb,Step-1,Increment      1: Step Time =    1.000,"PART-1-1",            13,          -15.,           30.,            0.,NA,NA,"",       10.3933,       9.47806,       4.26474,   26.4990E-06
C:/temp/dataset/9/19_9.odb,Step-1,Increment      1: Step Time =    1.000,"PART-1-1",            14,          -15.,         21.25,            0.,NA,NA,"",       8.94086,       7.76571,       4.43089,   815.178E-06
C:/temp/dataset/9/19_9.odb,Step-1,Increment      1: Step Time =    1.000,"PART-1-1",            15,          -15.,          12.5,            0.,NA,NA,"",       7.61098,       6.06731,       4.59508,   659.779E-06
C:/temp/dataset/9/19_9.odb,Step-1,Increment      1: Step Time =    1.000,"PART-1-1",            16,          -15.,          3.75,            0.,NA,NA,"",       6.46880,       4.36460,       4.77448,   1.67414E-03
C:/temp/dataset/9/19_9.odb,Step-1,Increment      1: Step Time =    1.000,"PART-1-1",            17,          -15.,           -5.,            0.,NA,NA,"",       5.61097,       2.64069,       4.95074,   40.0359E-06
C:/temp/dataset/9/19_9.odb,Step-1,Increment      1: Step Time =    1.000,"PART-1-1",            18,          -10.,           -5.,            0.,NA,NA,"",       4.71258,       2.54276,       3.96772,   473.170E-06
C:/temp/dataset/9/19_9.odb,Step-1,Increment      1: Step Time =    1.000,"PART-1-1",            19,           -5.,           -5.,            0.,NA,NA,"",       3.86788,       2.44485,       2.99720,   5.06287E-03
C:/temp/dataset/9/19_9.odb,Step-1,Increment      1: Step Time =    1.000,"PART-1-1",            20,            0.,           -5.,            0.,NA,NA,"",       3.05204,       2.32682,       1.97506,   4.53795E-03
C:/temp/dataset/9/19_9.odb,Step-1,Increment      1: Step Time =    1.000,"PART-1-1",            21,            5.,           -5.,            0.,NA,NA,"",       2.40600,       2.25383,   842.068E-03,   51.2762E-03
C:/temp/dataset/9/19_9.odb,Step-1,Increment      1: Step Time =    1.000,"PART-1-1",            22,            5.,        -11.25,            0.,NA,NA,"",       1.49400,       1.34026,   660.105E-03,   39.7549E-03
C:/temp/dataset/9/19_9.odb,Step-1,Increment      1: Step Time =    1.000,"PART-1-1",            23,            5.,         -17.5,            0.,NA,NA,"",   793.991E-03,   639.283E-03,   470.892E-03,   41.6105E-03
C:/temp/dataset/9/19_9.odb,Step-1,Increment      1: Step Time =    1.000,"PART-1-1",            24,            5.,        -23.75,            0.,NA,NA,"",   318.498E-03,   201.494E-03,   246.660E-03,   43.7315E-03
C:/temp/dataset/9/19_9.odb,Step-1,Increment      1: Step Time =    1.000,"PART-1-1",            25,            5.,          -30.,            0.,NA,NA,"",            0.,   14.7449E-39,   27.9402E-39,   54.0330E-03
C:/temp/dataset/9/19_9.odb,Step-1,Increment      1: Step Time =    1.000,"PART-1-1",            26,           15.,          -30.,            0.,NA,NA,"",            0.,   10.5636E-39,  -19.8338E-39,   38.4678E-03
C:/temp/dataset/9/19_9.odb,Step-1,Increment      1: Step Time =    1.000,"PART-1-1",            27,           15.,         -22.5,            0.,NA,NA,"",   330.256E-03,   228.249E-03,  -238.687E-03,   33.9262E-03
C:/temp/dataset/9/19_9.odb,Step-1,Increment      1: Step Time =    1.000,"PART-1-1",            28,           15.,          -15.,            0.,NA,NA,"",   943.478E-03,   811.508E-03,  -481.254E-03,   31.2905E-03
C:/temp/dataset/9/19_9.odb,Step-1,Increment      1: Step Time =    1.000,"PART-1-1",            29,           15.,          -7.5,            0.,NA,NA,"",       1.90485,       1.75188,  -747.914E-03,   28.8707E-03
C:/temp/dataset/9/19_9.odb,Step-1,Increment      1: Step Time =    1.000,"PART-1-1",            30,           15.,            0.,            0.,NA,NA,"",       3.19660,       3.03360,      -1.00772,   12.5887E-03
C:/temp/dataset/9/19_9.odb,Step-1,Increment      1: Step Time =    1.000,"PART-1-1",            31,           15.,           7.5,            0.,NA,NA,"",       4.62121,       4.46541,      -1.18981,   3.39614E-03
C:/temp/dataset/9/19_9.odb,Step-1,Increment      1: Step Time =    1.000,"PART-1-1",            32,           15.,           15.,            0.,NA,NA,"",       6.07675,       5.92433,      -1.35245,   2.18709E-03
C:/temp/dataset/9/19_9.odb,Step-1,Increment      1: Step Time =    1.000,"PART-1-1",            33,           15.,          22.5,            0.,NA,NA,"",       7.55940,       7.40712,      -1.50969,   546.073E-06
C:/temp/dataset/9/19_9.odb,Step-1,Increment      1: Step Time =    1.000,"PART-1-1",            34,           2.5,           20.,            0.,NA,NA,"",       7.23535,       7.16346,       1.01744,   1.21304E-03
C:/temp/dataset/9/19_9.odb,Step-1,Increment      1: Step Time =    1.000,"PART-1-1",            35,            5.,           15.,            0.,NA,NA,"",       6.14906,       6.11899,   607.364E-03,   2.77537E-03
C:/temp/dataset/9/19_9.odb,Step-1,Increment      1: Step Time =    1.000,"PART-1-1",            36,            5.,          17.5,            0.,NA,NA,"",       6.63740,       6.61342,   563.693E-03,   2.30933E-03
C:/temp/dataset/9/19_9.odb,Step-1,Increment      1: Step Time =    1.000,"PART-1-1",            37,            5.,           7.5,            0.,NA,NA,"",       4.71161,       4.65557,   724.554E-03,   5.54033E-03
C:/temp/dataset/9/19_9.odb,Step-1,Increment      1: Step Time =    1.000,"PART-1-1",            38,            5.,           10.,            0.,NA,NA,"",       5.18448,       5.13856,   688.540E-03,   4.22611E-03
C:/temp/dataset/9/19_9.odb,Step-1,Increment      1: Step Time =    1.000,"PART-1-1",            39,           2.5,            5.,            0.,NA,NA,"",       4.44376,       4.26611,       1.24390,   9.00430E-03
C:/temp/dataset/9/19_9.odb,Step-1,Increment      1: Step Time =    1.000,"PART-1-1",            40,          -2.5,            5.,            0.,NA,NA,"",       4.93764,       4.38543,       2.26899,   2.87992E-03
C:/temp/dataset/9/19_9.odb,Step-1,Increment      1: Step Time =    1.000,"PART-1-1",            41,           -5.,           10.,            0.,NA,NA,"",       6.02965,       5.39302,       2.69666,   571.871E-06
C:/temp/dataset/9/19_9.odb,Step-1,Increment      1: Step Time =    1.000,"PART-1-1",            42,           -5.,           7.5,            0.,NA,NA,"",       5.62255,       4.90846,       2.74228,   1.72997E-03
C:/temp/dataset/9/19_9.odb,Step-1,Increment      1: Step Time =    1.000,"PART-1-1",            43,           -5.,          17.5,            0.,NA,NA,"",       7.30552,       6.84429,       2.55467,   1.31150E-03
C:/temp/dataset/9/19_9.odb,Step-1,Increment      1: Step Time =    1.000,"PART-1-1",            44,           -5.,           15.,            0.,NA,NA,"",       6.87307,       6.36116,       2.60282,   319.841E-06
C:/temp/dataset/9/19_9.odb,Step-1,Increment      1: Step Time =    1.000,"PART-1-1",            45,          -2.5,           20.,            0.,NA,NA,"",       7.54142,       7.26903,       2.00854,   1.87459E-03
C:/temp/dataset/9/19_9.odb,Step-1,Increment      1: Step Time =    1.000,"PART-1-1",            46,          12.5,           30.,            0.,NA,NA,"",       9.02141,       8.94602,      -1.16385,   25.3463E-06
C:/temp/dataset/9/19_9.odb,Step-1,Increment      1: Step Time =    1.000,"PART-1-1",            47,           10.,           30.,            0.,NA,NA,"",       9.02065,       8.99589,  -667.879E-03,   137.755E-06
C:/temp/dataset/9/19_9.odb,Step-1,Increment      1: Step Time =    1.000,"PART-1-1",            48,            5.,           30.,            0.,NA,NA,"",       9.10188,       9.09609,   324.534E-03,   43.8676E-06
C:/temp/dataset/9/19_9.odb,Step-1,Increment      1: Step Time =    1.000,"PART-1-1",            49,           2.5,           30.,            0.,NA,NA,"",       9.18242,       9.14564,   821.058E-03,   284.688E-06
C:/temp/dataset/9/19_9.odb,Step-1,Increment      1: Step Time =    1.000,"PART-1-1",            50,          -2.5,           30.,            0.,NA,NA,"",       9.41790,       9.24190,       1.81222,   932.794E-06
C:/temp/dataset/9/19_9.odb,Step-1,Increment      1: Step Time =    1.000,"PART-1-1",            51,           -5.,           30.,            0.,NA,NA,"",       9.57056,       9.28870,       2.30556,   1.04051E-03
C:/temp/dataset/9/19_9.odb,Step-1,Increment      1: Step Time =    1.000,"PART-1-1",            52,          -10.,           30.,            0.,NA,NA,"",       9.94115,       9.38212,       3.28667,   470.915E-06
C:/temp/dataset/9/19_9.odb,Step-1,Increment      1: Step Time =    1.000,"PART-1-1",            53,         -12.5,           30.,            0.,NA,NA,"",       10.1576,       9.42978,       3.77565,   101.605E-06
C:/temp/dataset/9/19_9.odb,Step-1,Increment      1: Step Time =    1.000,"PART-1-1",            54,          -15.,       27.8125,            0.,NA,NA,"",       10.0225,       9.04988,       4.30704,   81.3553E-06
C:/temp/dataset/9/19_9.odb,Step-1,Increment      1: Step Time =    1.000,"PART-1-1",            55,          -15.,        25.625,            0.,NA,NA,"",       9.65622,       8.62142,       4.34899,   367.481E-06
C:/temp/dataset/9/19_9.odb,Step-1,Increment      1: Step Time =    1.000,"PART-1-1",            56,          -15.,       23.4375,            0.,NA,NA,"",       9.29528,       8.19316,       4.39027,   665.748E-06
C:/temp/dataset/9/19_9.odb,Step-1,Increment      1: Step Time =    1.000,"PART-1-1",            57,          -15.,       19.0625,            0.,NA,NA,"",       8.59422,       7.33955,       4.47120,   715.605E-06
C:/temp/dataset/9/19_9.odb,Step-1,Increment      1: Step Time =    1.000,"PART-1-1",            58,          -15.,        16.875,            0.,NA,NA,"",       8.25643,       6.91469,       4.51172,   371.286E-06
C:/temp/dataset/9/19_9.odb,Step-1,Increment      1: Step Time =    1.000,"PART-1-1",            59,          -15.,       14.6875,            0.,NA,NA,"",       7.92840,       6.49080,       4.55292,   121.019E-06
C:/temp/dataset/9/19_9.odb,Step-1,Increment      1: Step Time =    1.000,"PART-1-1",            60,          -15.,       10.3125,            0.,NA,NA,"",       7.30513,       5.64362,       4.63838,   1.20066E-03
C:/temp/dataset/9/19_9.odb,Step-1,Increment      1: Step Time =    1.000,"PART-1-1",            61,          -15.,         8.125,            0.,NA,NA,"",       7.01197,       5.21905,       4.68287,   1.66525E-03
C:/temp/dataset/9/19_9.odb,Step-1,Increment      1: Step Time =    1.000,"PART-1-1",            62,          -15.,        5.9375,            0.,NA,NA,"",       6.73274,       4.79287,       4.72843,   1.83648E-03
C:/temp/dataset/9/19_9.odb,Step-1,Increment      1: Step Time =    1.000,"PART-1-1",            63,          -15.,        1.5625,            0.,NA,NA,"",       6.22192,       3.93431,       4.82011,   1.11806E-03
C:/temp/dataset/9/19_9.odb,Step-1,Increment      1: Step Time =    1.000,"PART-1-1",            64,          -15.,     -625.E-03,            0.,NA,NA,"",       5.99457,       3.50291,       4.86462,   455.293E-06
C:/temp/dataset/9/19_9.odb,Step-1,Increment      1: Step Time =    1.000,"PART-1-1",            65,          -15.,       -2.8125,            0.,NA,NA,"",       5.78983,       3.07152,       4.90794,   46.5239E-06
C:/temp/dataset/9/19_9.odb,Step-1,Increment      1: Step Time =    1.000,"PART-1-1",            66,         -12.5,           -5.,            0.,NA,NA,"",       5.15730,       2.59182,       4.45872,   52.2186E-06
C:/temp/dataset/9/19_9.odb,Step-1,Increment      1: Step Time =    1.000,"PART-1-1",            67,          -7.5,           -5.,            0.,NA,NA,"",       4.27923,       2.49275,       3.47822,   1.55104E-03
C:/temp/dataset/9/19_9.odb,Step-1,Increment      1: Step Time =    1.000,"PART-1-1",            68,          -2.5,           -5.,            0.,NA,NA,"",       3.46156,       2.38783,       2.50612,   10.1065E-03
C:/temp/dataset/9/19_9.odb,Step-1,Increment      1: Step Time =    1.000,"PART-1-1",            69,           2.5,           -5.,            0.,NA,NA,"",       2.68792,       2.27764,       1.42732,   12.9675E-03
C:/temp/dataset/9/19_9.odb,Step-1,Increment      1: Step Time =    1.000,"PART-1-1",            70,            5.,      -7.08333,            0.,NA,NA,"",       2.08042,       1.93501,   764.124E-03,   46.0826E-03
C:/temp/dataset/9/19_9.odb,Step-1,Increment      1: Step Time =    1.000,"PART-1-1",            71,            5.,      -9.16667,            0.,NA,NA,"",       1.77754,       1.62753,   714.686E-03,   38.7259E-03
C:/temp/dataset/9/19_9.odb,Step-1,Increment      1: Step Time =    1.000,"PART-1-1",            72,            5.,      -13.3333,            0.,NA,NA,"",       1.23500,       1.07863,   601.476E-03,   40.1581E-03
C:/temp/dataset/9/19_9.odb,Step-1,Increment      1: Step Time =    1.000,"PART-1-1",            73,            5.,      -15.4167,            0.,NA,NA,"",       1.00163,   844.688E-03,   538.302E-03,   40.9218E-03
C:/temp/dataset/9/19_9.odb,Step-1,Increment      1: Step Time =    1.000,"PART-1-1",            74,            5.,      -19.5833,            0.,NA,NA,"",   611.713E-03,   463.195E-03,   399.554E-03,   42.3335E-03
C:/temp/dataset/9/19_9.odb,Step-1,Increment      1: Step Time =    1.000,"PART-1-1",            75,            5.,      -21.6667,            0.,NA,NA,"",   453.787E-03,   317.036E-03,   324.670E-03,   43.0022E-03
C:/temp/dataset/9/19_9.odb,Step-1,Increment      1: Step Time =    1.000,"PART-1-1",            76,            5.,      -25.8333,            0.,NA,NA,"",   203.050E-03,   116.007E-03,   166.648E-03,   43.4327E-03
C:/temp/dataset/9/19_9.odb,Step-1,Increment      1: Step Time =    1.000,"PART-1-1",            77,            5.,      -27.9167,            0.,NA,NA,"",   104.306E-03,   58.5009E-03,   86.3564E-03,   46.3136E-03
C:/temp/dataset/9/19_9.odb,Step-1,Increment      1: Step Time =    1.000,"PART-1-1",            78,           7.5,          -30.,            0.,NA,NA,"",            0.,  -1.46253E-39,   77.3022E-39,   18.6673E-03
C:/temp/dataset/9/19_9.odb,Step-1,Increment      1: Step Time =    1.000,"PART-1-1",            79,           10.,          -30.,            0.,NA,NA,"",            0.,  -8.44997E-39,   9.97046E-39,   7.18304E-03
C:/temp/dataset/9/19_9.odb,Step-1,Increment      1: Step Time =    1.000,"PART-1-1",            80,          12.5,          -30.,            0.,NA,NA,"",            0.,   12.2860E-39,  -41.8328E-39,   12.6491E-03
C:/temp/dataset/9/19_9.odb,Step-1,Increment      1: Step Time =    1.000,"PART-1-1",            81,           15.,         -27.5,            0.,NA,NA,"",   92.0317E-03,   46.7849E-03,  -79.2529E-03,   37.0242E-03
C:/temp/dataset/9/19_9.odb,Step-1,Increment      1: Step Time =    1.000,"PART-1-1",            82,           15.,          -25.,            0.,NA,NA,"",   196.855E-03,   115.990E-03,  -159.053E-03,   34.7185E-03
C:/temp/dataset/9/19_9.odb,Step-1,Increment      1: Step Time =    1.000,"PART-1-1",            83,           15.,          -20.,            0.,NA,NA,"",   497.457E-03,   382.176E-03,  -318.442E-03,   32.7758E-03
C:/temp/dataset/9/19_9.odb,Step-1,Increment      1: Step Time =    1.000,"PART-1-1",            84,           15.,         -17.5,            0.,NA,NA,"",   701.427E-03,   576.941E-03,  -398.923E-03,   31.9543E-03
C:/temp/dataset/9/19_9.odb,Step-1,Increment      1: Step Time =    1.000,"PART-1-1",            85,           15.,         -12.5,            0.,NA,NA,"",       1.22425,       1.08532,  -566.441E-03,   30.8192E-03
C:/temp/dataset/9/19_9.odb,Step-1,Increment      1: Step Time =    1.000,"PART-1-1",            86,           15.,          -10.,            0.,NA,NA,"",       1.54443,       1.39849,  -655.373E-03,   30.2945E-03
C:/temp/dataset/9/19_9.odb,Step-1,Increment      1: Step Time =    1.000,"PART-1-1",            87,           15.,           -5.,            0.,NA,NA,"",       2.30479,       2.14579,  -841.231E-03,   25.2134E-03
C:/temp/dataset/9/19_9.odb,Step-1,Increment      1: Step Time =    1.000,"PART-1-1",            88,           15.,          -2.5,            0.,NA,NA,"",       2.73888,       2.57631,  -929.576E-03,   19.1965E-03
C:/temp/dataset/9/19_9.odb,Step-1,Increment      1: Step Time =    1.000,"PART-1-1",            89,           15.,           2.5,            0.,NA,NA,"",       3.66699,       3.50588,      -1.07499,   7.39581E-03
C:/temp/dataset/9/19_9.odb,Step-1,Increment      1: Step Time =    1.000,"PART-1-1",            90,           15.,            5.,            0.,NA,NA,"",       4.14274,       3.98443,      -1.13431,   4.49542E-03
C:/temp/dataset/9/19_9.odb,Step-1,Increment      1: Step Time =    1.000,"PART-1-1",            91,           15.,           10.,            0.,NA,NA,"",       5.10267,       4.94865,      -1.24426,   3.01627E-03
C:/temp/dataset/9/19_9.odb,Step-1,Increment      1: Step Time =    1.000,"PART-1-1",            92,           15.,          12.5,            0.,NA,NA,"",       5.58784,       5.43488,      -1.29850,   2.66020E-03
C:/temp/dataset/9/19_9.odb,Step-1,Increment      1: Step Time =    1.000,"PART-1-1",            93,           15.,          17.5,            0.,NA,NA,"",       6.56887,       6.41668,      -1.40580,   1.62672E-03
C:/temp/dataset/9/19_9.odb,Step-1,Increment      1: Step Time =    1.000,"PART-1-1",            94,           15.,           20.,            0.,NA,NA,"",       7.06339,       6.91123,      -1.45825,   1.04548E-03
C:/temp/dataset/9/19_9.odb,Step-1,Increment      1: Step Time =    1.000,"PART-1-1",            95,           15.,           25.,            0.,NA,NA,"",       8.05609,       7.90356,      -1.56026,   205.063E-06
C:/temp/dataset/9/19_9.odb,Step-1,Increment      1: Step Time =    1.000,"PART-1-1",            96,           15.,          27.5,            0.,NA,NA,"",       8.55297,       8.40002,      -1.61026,   27.4124E-06
C:/temp/dataset/9/19_9.odb,Step-1,Increment      1: Step Time =    1.000,"PART-1-1",            97,       7.09255,      -21.6558,            0.,NA,NA,"",   346.070E-03,   281.310E-03,   201.567E-03,   27.4896E-03
C:/temp/dataset/9/19_9.odb,Step-1,Increment      1: Step Time =    1.000,"PART-1-1",            98,       7.09346,      -17.4368,            0.,NA,NA,"",   671.906E-03,   605.432E-03,   291.391E-03,   26.5408E-03
C:/temp/dataset/9/19_9.odb,Step-1,Increment      1: Step Time =    1.000,"PART-1-1",            99,       7.15828,      -23.7452,            0.,NA,NA,"",   223.131E-03,   165.401E-03,   149.767E-03,   27.5187E-03
C:/temp/dataset/9/19_9.odb,Step-1,Increment      1: Step Time =    1.000,"PART-1-1",           100,       7.44609,      -27.8729,            0.,NA,NA,"",   50.3844E-03,   24.2819E-03,   44.1472E-03,   27.0263E-03
C:/temp/dataset/9/19_9.odb,Step-1,Increment      1: Step Time =    1.000,"PART-1-1",           101,       7.30780,      -25.7939,            0.,NA,NA,"",   124.245E-03,   80.0660E-03,   95.0070E-03,   27.7756E-03
C:/temp/dataset/9/19_9.odb,Step-1,Increment      1: Step Time =    1.000,"PART-1-1",           102,       7.08258,      -10.9526,            0.,NA,NA,"",       1.39235,       1.33262,   403.415E-03,   25.4861E-03
C:/temp/dataset/9/19_9.odb,Step-1,Increment      1: Step Time =    1.000,"PART-1-1",           103,       7.09950,      -13.1236,            0.,NA,NA,"",       1.12143,       1.05917,   368.469E-03,   25.7957E-03
C:/temp/dataset/9/19_9.odb,Step-1,Increment      1: Step Time =    1.000,"PART-1-1",           104,       6.95448,      -6.62029,            0.,NA,NA,"",       2.01705,       1.96077,   473.174E-03,   25.3180E-03
C:/temp/dataset/9/19_9.odb,Step-1,Increment      1: Step Time =    1.000,"PART-1-1",           105,       7.04974,      -8.78764,            0.,NA,NA,"",       1.69083,       1.63312,   437.980E-03,   26.3726E-03
C:/temp/dataset/9/19_9.odb,Step-1,Increment      1: Step Time =    1.000,"PART-1-1",           106,       7.10540,      -15.2896,            0.,NA,NA,"",   880.564E-03,   816.071E-03,   330.790E-03,   26.0552E-03
C:/temp/dataset/9/19_9.odb,Step-1,Increment      1: Step Time =    1.000,"PART-1-1",           107,       7.08223,      -19.5608,            0.,NA,NA,"",   494.307E-03,   427.271E-03,   248.552E-03,   27.0564E-03
C:/temp/dataset/9/19_9.odb,Step-1,Increment      1: Step Time =    1.000,"PART-1-1",           108,      -11.8989,       25.3809,            0.,NA,NA,"",       9.30174,       8.51340,       3.74757,   514.825E-06
C:/temp/dataset/9/19_9.odb,Step-1,Increment      1: Step Time =    1.000,"PART-1-1",           109,      -12.7134,       3.51066,            0.,NA,NA,"",       6.08472,       4.27453,       4.33039,   1.21725E-03
C:/temp/dataset/9/19_9.odb,Step-1,Increment      1: Step Time =    1.000,"PART-1-1",           110,      -13.0834,       10.3867,            0.,NA,NA,"",       7.05633,       5.62224,       4.26406,   1.00011E-03
C:/temp/dataset/9/19_9.odb,Step-1,Increment      1: Step Time =    1.000,"PART-1-1",           111,      -12.9355,       8.20912,            0.,NA,NA,"",       6.73152,       5.19701,       4.27837,   1.12828E-03
C:/temp/dataset/9/19_9.odb,Step-1,Increment      1: Step Time =    1.000,"PART-1-1",           112,      -13.1801,       12.5484,            0.,NA,NA,"",       7.38214,       6.04251,       4.24076,   807.031E-06
C:/temp/dataset/9/19_9.odb,Step-1,Increment      1: Step Time =    1.000,"PART-1-1",           113,      -12.7454,       20.6010,            0.,NA,NA,"",       8.58589,       7.59529,       4.00363,   392.550E-06
C:/temp/dataset/9/19_9.odb,Step-1,Increment      1: Step Time =    1.000,"PART-1-1",           114,      -13.1621,       18.5389,            0.,NA,NA,"",       8.29914,       7.20225,       4.12350,   472.449E-06
C:/temp/dataset/9/19_9.odb,Step-1,Increment      1: Step Time =    1.000,"PART-1-1",           115,      -12.3840,       22.8683,            0.,NA,NA,"",       8.92352,       8.03086,       3.89032,   428.366E-06
C:/temp/dataset/9/19_9.odb,Step-1,Increment      1: Step Time =    1.000,"PART-1-1",           116,      -13.4658,       16.5948,            0.,NA,NA,"",       8.02892,       6.83100,       4.21912,   478.934E-06
C:/temp/dataset/9/19_9.odb,Step-1,Increment      1: Step Time =    1.000,"PART-1-1",           117,      -13.3466,       14.6489,            0.,NA,NA,"",       7.71655,       6.45201,       4.23281,   600.335E-06
C:/temp/dataset/9/19_9.odb,Step-1,Increment      1: Step Time =    1.000,"PART-1-1",           118,      -12.3609,       5.76892,            0.,NA,NA,"",       6.32126,       4.71073,       4.21514,   1.09203E-03
C:/temp/dataset/9/19_9.odb,Step-1,Increment      1: Step Time =    1.000,"PART-1-1",           119,      -12.8583,       1.39410,            0.,NA,NA,"",       5.85489,       3.86017,       4.40214,   1.17950E-03
C:/temp/dataset/9/19_9.odb,Step-1,Increment      1: Step Time =    1.000,"PART-1-1",           120,      -12.6304,  -685.754E-03,            0.,NA,NA,"",       5.58770,       3.44494,       4.39941,   931.231E-06
C:/temp/dataset/9/19_9.odb,Step-1,Increment      1: Step Time =    1.000,"PART-1-1",           121,   38.5673E-03,       27.2989,            0.,NA,NA,"",       8.76589,       8.65921,       1.36339,   503.147E-06
C:/temp/dataset/9/19_9.odb,Step-1,Increment      1: Step Time =    1.000,"PART-1-1",           122,      -4.16985,       22.2766,            0.,NA,NA,"",       8.08589,       7.75341,       2.29486,   987.107E-06
C:/temp/dataset/9/19_9.odb,Step-1,Increment      1: Step Time =    1.000,"PART-1-1",           123,      -7.85548,       28.0855,            0.,NA,NA,"",       9.42508,       8.96642,       2.90436,   536.980E-06
C:/temp/dataset/9/19_9.odb,Step-1,Increment      1: Step Time =    1.000,"PART-1-1",           124,       9.92813,      -27.7267,            0.,NA,NA,"",   13.7763E-03,   10.1698E-03,   9.29302E-03,   6.25525E-03
C:/temp/dataset/9/19_9.odb,Step-1,Increment      1: Step Time =    1.000,"PART-1-1",           125,       13.1106,      -17.4438,            0.,NA,NA,"",   613.585E-03,   567.970E-03,  -232.158E-03,   17.8877E-03
C:/temp/dataset/9/19_9.odb,Step-1,Increment      1: Step Time =    1.000,"PART-1-1",           126,       12.8150,       2.64061,            0.,NA,NA,"",       3.62834,       3.56688,  -664.978E-03,   6.08152E-03
C:/temp/dataset/9/19_9.odb,Step-1,Increment      1: Step Time =    1.000,"PART-1-1",           127,       7.56819,       12.3225,            0.,NA,NA,"",       5.54224,       5.54015,   152.241E-03,   1.88636E-03
C:/temp/dataset/9/19_9.odb,Step-1,Increment      1: Step Time =    1.000,"PART-1-1",           128,       7.47113,       19.8748,            0.,NA,NA,"",       7.03481,       7.03474,   31.2398E-03,   1.32770E-03
C:/temp/dataset/9/19_9.odb,Step-1,Increment      1: Step Time =    1.000,"PART-1-1",           129,       12.4223,       27.5153,            0.,NA,NA,"",       8.52546,       8.45433,      -1.09901,   157.168E-06
C:/temp/dataset/9/19_9.odb,Step-1,Increment      1: Step Time =    1.000,"PART-1-1",           130,       12.3750,       22.5091,            0.,NA,NA,"",       7.52593,       7.46060,  -989.481E-03,   620.122E-06
C:/temp/dataset/9/19_9.odb,Step-1,Increment      1: Step Time =    1.000,"PART-1-1",           131,       7.58839,       27.9970,            0.,NA,NA,"",       8.64795,       8.64665,  -149.708E-03,   203.163E-06
C:/temp/dataset/9/19_9.odb,Step-1,Increment      1: Step Time =    1.000,"PART-1-1",           132,   199.805E-03,       22.3057,            0.,NA,NA,"",       7.80110,       7.66905,       1.42925,   1.01966E-03
C:/temp/dataset/9/19_9.odb,Step-1,Increment      1: Step Time =    1.000,"PART-1-1",           133,       12.6934,       9.82310,            0.,NA,NA,"",       5.01870,       4.95572,  -792.609E-03,   1.83138E-03
C:/temp/dataset/9/19_9.odb,Step-1,Increment      1: Step Time =    1.000,"PART-1-1",           134,      -7.14717,       12.7802,            0.,NA,NA,"",       6.71140,       5.97245,       3.06149,   612.335E-06
C:/temp/dataset/9/19_9.odb,Step-1,Increment      1: Step Time =    1.000,"PART-1-1",           135,      -6.86178,       17.9412,            0.,NA,NA,"",       7.54707,       6.96470,       2.90711,   1.47348E-03
C:/temp/dataset/9/19_9.odb,Step-1,Increment      1: Step Time =    1.000,"PART-1-1",           136,      -2.68307,      -2.95682,            0.,NA,NA,"",       3.74923,       2.80310,       2.48985,   8.94932E-03
C:/temp/dataset/9/19_9.odb,Step-1,Increment      1: Step Time =    1.000,"PART-1-1",           137,      -7.59808,      -3.03341,            0.,NA,NA,"",       4.50204,       2.88104,       3.45947,   2.08356E-03
C:/temp/dataset/9/19_9.odb,Step-1,Increment      1: Step Time =    1.000,"PART-1-1",           138,  -248.196E-03,       2.69947,            0.,NA,NA,"",       4.29261,       3.87305,       1.85093,   7.10628E-03
C:/temp/dataset/9/19_9.odb,Step-1,Increment      1: Step Time =    1.000,"PART-1-1",           139,       2.16631,      -2.47375,            0.,NA,NA,"",       3.15405,       2.80426,       1.44365,   15.0781E-03
C:/temp/dataset/9/19_9.odb,Step-1,Increment      1: Step Time =    1.000,"PART-1-1",           140,       4.39271,       2.43636,            0.,NA,NA,"",       3.81991,       3.71007,   909.461E-03,   5.97227E-03
C:/temp/dataset/9/19_9.odb,Step-1,Increment      1: Step Time =    1.000,"PART-1-1",           141,       12.9283,      -5.27800,            0.,NA,NA,"",       2.16554,       2.10979,  -488.225E-03,   14.5398E-03
C:/temp/dataset/9/19_9.odb,Step-1,Increment      1: Step Time =    1.000,"PART-1-1",           142,       13.0847,      -12.6172,            0.,NA,NA,"",       1.11510,       1.06486,  -330.955E-03,   16.8885E-03
C:/temp/dataset/9/19_9.odb,Step-1,Increment      1: Step Time =    1.000,"PART-1-1",           143,       12.4838,       17.4790,            0.,NA,NA,"",       6.52424,       6.46062,  -908.924E-03,   1.08498E-03
C:/temp/dataset/9/19_9.odb,Step-1,Increment      1: Step Time =    1.000,"PART-1-1",           144,       2.63438,       22.2143,            0.,NA,NA,"",       7.65947,       7.60062,   947.668E-03,   810.379E-06
C:/temp/dataset/9/19_9.odb,Step-1,Increment      1: Step Time =    1.000,"PART-1-1",           145,       7.54366,       14.9275,            0.,NA,NA,"",       6.05386,       6.05287,   109.857E-03,   1.62932E-03
C:/temp/dataset/9/19_9.odb,Step-1,Increment      1: Step Time =    1.000,"PART-1-1",           146,       7.50510,       17.4443,            0.,NA,NA,"",       6.55164,       6.55126,   70.6401E-03,   1.29994E-03
C:/temp/dataset/9/19_9.odb,Step-1,Increment      1: Step Time =    1.000,"PART-1-1",           147,       7.12790,       7.03873,            0.,NA,NA,"",       4.53530,       4.52348,   327.174E-03,   2.53440E-03
C:/temp/dataset/9/19_9.odb,Step-1,Increment      1: Step Time =    1.000,"PART-1-1",           148,       7.48952,       9.64170,            0.,NA,NA,"",       5.02318,       5.01860,   214.539E-03,   2.14673E-03
C:/temp/dataset/9/19_9.odb,Step-1,Increment      1: Step Time =    1.000,"PART-1-1",           149,       2.16717,       2.56251,            0.,NA,NA,"",       4.02445,       3.78993,       1.35376,   7.91297E-03
C:/temp/dataset/9/19_9.odb,Step-1,Increment      1: Step Time =    1.000,"PART-1-1",           150,      -2.68606,       3.12146,            0.,NA,NA,"",       4.64574,       4.00920,       2.34717,   4.78666E-03
C:/temp/dataset/9/19_9.odb,Step-1,Increment      1: Step Time =    1.000,"PART-1-1",           151,      -7.08307,       10.2840,            0.,NA,NA,"",       6.30101,       5.48805,       3.09581,   777.109E-06
C:/temp/dataset/9/19_9.odb,Step-1,Increment      1: Step Time =    1.000,"PART-1-1",           152,      -2.13928,       22.2031,            0.,NA,NA,"",       7.92685,       7.69708,       1.89471,   1.39423E-03
C:/temp/dataset/9/19_9.odb,Step-1,Increment      1: Step Time =    1.000,"PART-1-1",           153,       9.90766,       27.6812,            0.,NA,NA,"",       8.55876,       8.53745,  -603.581E-03,   201.519E-06
C:/temp/dataset/9/19_9.odb,Step-1,Increment      1: Step Time =    1.000,"PART-1-1",           154,       5.18317,       27.8350,            0.,NA,NA,"",       8.66912,       8.66280,   331.095E-03,   308.493E-06
C:/temp/dataset/9/19_9.odb,Step-1,Increment      1: Step Time =    1.000,"PART-1-1",           155,       2.70091,       27.4744,            0.,NA,NA,"",       8.68094,       8.64104,   831.393E-03,   467.196E-06
C:/temp/dataset/9/19_9.odb,Step-1,Increment      1: Step Time =    1.000,"PART-1-1",           156,      -2.92570,       26.9909,            0.,NA,NA,"",       8.87489,       8.65659,       1.95634,   393.494E-06
C:/temp/dataset/9/19_9.odb,Step-1,Increment      1: Step Time =    1.000,"PART-1-1",           157,      -5.52449,       27.7330,            0.,NA,NA,"",       9.18656,       8.85278,       2.45383,   464.882E-06
C:/temp/dataset/9/19_9.odb,Step-1,Increment      1: Step Time =    1.000,"PART-1-1",           158,      -10.1759,       28.1970,            0.,NA,NA,"",       9.63582,       9.03241,       3.35628,   473.772E-06
C:/temp/dataset/9/19_9.odb,Step-1,Increment      1: Step Time =    1.000,"PART-1-1",           159,      -7.15795,       15.3782,            0.,NA,NA,"",       7.14215,       6.47500,       3.01408,   790.714E-06
C:/temp/dataset/9/19_9.odb,Step-1,Increment      1: Step Time =    1.000,"PART-1-1",           160,      -7.10855,       7.92361,            0.,NA,NA,"",       5.93310,       5.03107,       3.14485,   1.53451E-03
C:/temp/dataset/9/19_9.odb,Step-1,Increment      1: Step Time =    1.000,"PART-1-1",           161,      -7.31416,       5.72319,            0.,NA,NA,"",       5.62532,       4.60816,       3.22631,   1.92235E-03
C:/temp/dataset/9/19_9.odb,Step-1,Increment      1: Step Time =    1.000,"PART-1-1",           162,      -10.0288,      -2.82434,            0.,NA,NA,"",       4.92791,       2.97142,       3.93128,   1.05207E-03
C:/temp/dataset/9/19_9.odb,Step-1,Increment      1: Step Time =    1.000,"PART-1-1",           163,      -5.14639,      -3.11924,            0.,NA,NA,"",       4.10274,       2.81512,       2.98455,   5.20041E-03
C:/temp/dataset/9/19_9.odb,Step-1,Increment      1: Step Time =    1.000,"PART-1-1",           164,  -261.821E-03,      -2.60038,            0.,NA,NA,"",       3.44787,       2.83015,       1.96929,   12.0834E-03
C:/temp/dataset/9/19_9.odb,Step-1,Increment      1: Step Time =    1.000,"PART-1-1",           165,       4.38015,      -2.33295,            0.,NA,NA,"",       2.94802,       2.78410,   969.361E-03,   15.6246E-03
C:/temp/dataset/9/19_9.odb,Step-1,Increment      1: Step Time =    1.000,"PART-1-1",           166,       13.0639,      -10.1924,            0.,NA,NA,"",       1.42324,       1.37040,  -384.196E-03,   16.4196E-03
C:/temp/dataset/9/19_9.odb,Step-1,Increment      1: Step Time =    1.000,"PART-1-1",           167,       13.0843,      -19.8267,            0.,NA,NA,"",   419.760E-03,   377.426E-03,  -183.708E-03,   18.2148E-03
C:/temp/dataset/9/19_9.odb,Step-1,Increment      1: Step Time =    1.000,"PART-1-1",           168,       12.4446,      -27.5067,            0.,NA,NA,"",   37.0880E-03,   20.0043E-03,  -31.2305E-03,   16.0698E-03
C:/temp/dataset/9/19_9.odb,Step-1,Increment      1: Step Time =    1.000,"PART-1-1",           169,       12.9329,      -22.1971,            0.,NA,NA,"",   259.490E-03,   223.986E-03,  -131.016E-03,   17.5325E-03
C:/temp/dataset/9/19_9.odb,Step-1,Increment      1: Step Time =    1.000,"PART-1-1",           170,       13.1086,      -15.0383,            0.,NA,NA,"",   845.306E-03,   797.152E-03,  -281.231E-03,   17.4426E-03
C:/temp/dataset/9/19_9.odb,Step-1,Increment      1: Step Time =    1.000,"PART-1-1",           171,       13.0208,      -7.75462,            0.,NA,NA,"",       1.77166,       1.71660,  -438.230E-03,   15.7211E-03
C:/temp/dataset/9/19_9.odb,Step-1,Increment      1: Step Time =    1.000,"PART-1-1",           172,       12.7756,      -2.70708,            0.,NA,NA,"",       2.61353,       2.55927,  -529.774E-03,   12.6245E-03
C:/temp/dataset/9/19_9.odb,Step-1,Increment      1: Step Time =    1.000,"PART-1-1",           173,       12.6338,  -14.4220E-03,            0.,NA,NA,"",       3.11440,       3.06162,  -570.957E-03,   9.71556E-03
C:/temp/dataset/9/19_9.odb,Step-1,Increment      1: Step Time =    1.000,"PART-1-1",           174,       13.0186,       5.13380,            0.,NA,NA,"",       4.11402,       4.04369,  -757.486E-03,   3.50827E-03
C:/temp/dataset/9/19_9.odb,Step-1,Increment      1: Step Time =    1.000,"PART-1-1",           175,       13.0709,       7.51902,            0.,NA,NA,"",       4.57654,       4.50288,  -817.766E-03,   2.42762E-03
C:/temp/dataset/9/19_9.odb,Step-1,Increment      1: Step Time =    1.000,"PART-1-1",           176,       12.5119,       12.3699,            0.,NA,NA,"",       5.51485,       5.45508,  -809.719E-03,   1.48659E-03
C:/temp/dataset/9/19_9.odb,Step-1,Increment      1: Step Time =    1.000,"PART-1-1",           177,       12.4863,       14.9454,            0.,NA,NA,"",       6.02206,       5.96070,  -857.531E-03,   1.26977E-03
C:/temp/dataset/9/19_9.odb,Step-1,Increment      1: Step Time =    1.000,"PART-1-1",           178,       12.4500,       19.9932,            0.,NA,NA,"",       7.02445,       6.95944,  -953.468E-03,   877.928E-06
C:/temp/dataset/9/19_9.odb,Step-1,Increment      1: Step Time =    1.000,"PART-1-1",           179,       9.19048,      -23.6482,            0.,NA,NA,"",   161.303E-03,   149.236E-03,   61.2149E-03,   12.1163E-03
C:/temp/dataset/9/19_9.odb,Step-1,Increment      1: Step Time =    1.000,"PART-1-1",           180,       9.11932,      -19.5624,            0.,NA,NA,"",   415.784E-03,   403.351E-03,   100.917E-03,   12.0189E-03
C:/temp/dataset/9/19_9.odb,Step-1,Increment      1: Step Time =    1.000,"PART-1-1",           181,       9.13323,      -12.9344,            0.,NA,NA,"",       1.05968,       1.05078,   137.038E-03,   11.4874E-03
C:/temp/dataset/9/19_9.odb,Step-1,Increment      1: Step Time =    1.000,"PART-1-1",           182,       9.14303,      -17.4019,            0.,NA,NA,"",   593.859E-03,   582.741E-03,   114.377E-03,   11.6720E-03
C:/temp/dataset/9/19_9.odb,Step-1,Increment      1: Step Time =    1.000,"PART-1-1",           183,       9.11260,      -10.6744,            0.,NA,NA,"",       1.34367,       1.33587,   144.524E-03,   11.2924E-03
C:/temp/dataset/9/19_9.odb,Step-1,Increment      1: Step Time =    1.000,"PART-1-1",           184,       9.06671,      -8.40676,            0.,NA,NA,"",       1.66016,       1.65331,   150.622E-03,   9.83970E-03
C:/temp/dataset/9/19_9.odb,Step-1,Increment      1: Step Time =    1.000,"PART-1-1",           185,       9.15359,      -15.1846,            0.,NA,NA,"",   808.680E-03,   798.843E-03,   125.748E-03,   11.4829E-03
C:/temp/dataset/9/19_9.odb,Step-1,Increment      1: Step Time =    1.000,"PART-1-1",           186,       9.09437,      -21.6308,            0.,NA,NA,"",   274.379E-03,   260.907E-03,   84.9207E-03,   12.4482E-03
C:/temp/dataset/9/19_9.odb,Step-1,Increment      1: Step Time =    1.000,"PART-1-1",           187,       8.94944,      -6.10597,            0.,NA,NA,"",       2.01606,       2.00986,   157.976E-03,   7.54855E-03
C:/temp/dataset/9/19_9.odb,Step-1,Increment      1: Step Time =    1.000,"PART-1-1",           188,      -11.3189,       17.6054,            0.,NA,NA,"",       7.94373,       6.98558,       3.78212,   767.739E-06
C:/temp/dataset/9/19_9.odb,Step-1,Increment      1: Step Time =    1.000,"PART-1-1",           189,      -10.4260,       2.85148,            0.,NA,NA,"",       5.65681,       4.10182,       3.89546,   1.44654E-03
C:/temp/dataset/9/19_9.odb,Step-1,Increment      1: Step Time =    1.000,"PART-1-1",           190,      -12.4413,       27.8959,            0.,NA,NA,"",       9.78673,       9.01679,       3.80494,   343.807E-06
C:/temp/dataset/9/19_9.odb,Step-1,Increment      1: Step Time =    1.000,"PART-1-1",           191,      -10.6658,       19.6683,            0.,NA,NA,"",       8.21216,       7.37327,       3.61586,   572.930E-06
C:/temp/dataset/9/19_9.odb,Step-1,Increment      1: Step Time =    1.000,"PART-1-1",           192,      -12.1118,       16.4066,            0.,NA,NA,"",       7.84152,       6.76860,       3.95923,   731.355E-06
C:/temp/dataset/9/19_9.odb,Step-1,Increment      1: Step Time =    1.000,"PART-1-1",           193,      -11.5166,       14.9043,            0.,NA,NA,"",       7.53707,       6.46654,       3.87184,   914.253E-06
C:/temp/dataset/9/19_9.odb,Step-1,Increment      1: Step Time =    1.000,"PART-1-1",           194,      -11.2054,       12.7278,            0.,NA,NA,"",       7.16397,       6.03975,       3.85278,   1.01177E-03
C:/temp/dataset/9/19_9.odb,Step-1,Increment      1: Step Time =    1.000,"PART-1-1",           195,      -11.1139,       10.5020,            0.,NA,NA,"",       6.81755,       5.60734,       3.87772,   1.02820E-03
C:/temp/dataset/9/19_9.odb,Step-1,Increment      1: Step Time =    1.000,"PART-1-1",           196,      -9.42029,       24.1195,            0.,NA,NA,"",       8.85151,       8.21819,       3.28796,   517.284E-06
C:/temp/dataset/9/19_9.odb,Step-1,Increment      1: Step Time =    1.000,"PART-1-1",           197,      -11.0759,       8.46025,            0.,NA,NA,"",       6.51463,       5.21081,       3.90998,   1.01259E-03
C:/temp/dataset/9/19_9.odb,Step-1,Increment      1: Step Time =    1.000,"PART-1-1",           198,      -10.9473,       6.84821,            0.,NA,NA,"",       6.26898,       4.89493,       3.91661,   1.02593E-03
C:/temp/dataset/9/19_9.odb,Step-1,Increment      1: Step Time =    1.000,"PART-1-1",           199,       9.64075,      -25.5803,            0.,NA,NA,"",   72.6982E-03,   66.9220E-03,   28.3985E-03,   8.64421E-03
C:/temp/dataset/9/19_9.odb,Step-1,Increment      1: Step Time =    1.000,"PART-1-1",           200,       6.22595,      -2.03957,            0.,NA,NA,"",       2.85662,       2.79279,   600.515E-03,   16.2951E-03
C:/temp/dataset/9/19_9.odb,Step-1,Increment      1: Step Time =    1.000,"PART-1-1",           201,       6.24072,       2.15031,            0.,NA,NA,"",       3.65177,       3.60883,   558.386E-03,   9.62439E-03
C:/temp/dataset/9/19_9.odb,Step-1,Increment      1: Step Time =    1.000,"PART-1-1",           202,      -7.69234,       3.89067,            0.,NA,NA,"",       5.40891,       4.25653,       3.33741,   2.14690E-03
C:/temp/dataset/9/19_9.odb,Step-1,Increment      1: Step Time =    1.000,"PART-1-1",           203,       7.31807,       22.0589,            0.,NA,NA,"",       7.47268,       7.47266,   19.6583E-03,   1.16303E-03
C:/temp/dataset/9/19_9.odb,Step-1,Increment      1: Step Time =    1.000,"PART-1-1",           204,      -6.44398,       20.4265,            0.,NA,NA,"",       7.93903,       7.43717,       2.77790,   1.34596E-03
C:/temp/dataset/9/19_9.odb,Step-1,Increment      1: Step Time =    1.000,"PART-1-1",           205,       12.2962,       25.0128,            0.,NA,NA,"",       8.02532,       7.95972,      -1.02406,   366.801E-06
C:/temp/dataset/9/19_9.odb,Step-1,Increment      1: Step Time =    1.000,"PART-1-1",           206,       12.2257,      -24.8009,            0.,NA,NA,"",   112.883E-03,   95.8962E-03,  -59.5516E-03,   12.9966E-03
C:/temp/dataset/9/19_9.odb,Step-1,Increment      1: Step Time =    1.000,"PART-1-1",           207,      -2.06005,       24.5200,            0.,NA,NA,"",       8.35626,       8.15253,       1.83395,   666.699E-06
C:/temp/dataset/9/19_9.odb,Step-1,Increment      1: Step Time =    1.000,"PART-1-1",           208,       9.31619,       25.0673,            0.,NA,NA,"",       8.04187,       8.03012,  -434.654E-03,   469.052E-06
C:/temp/dataset/9/19_9.odb,Step-1,Increment      1: Step Time =    1.000,"PART-1-1",           209,       3.21447,       24.8112,            0.,NA,NA,"",       8.14096,       8.10335,   781.664E-03,   745.840E-06
C:/temp/dataset/9/19_9.odb,Step-1,Increment      1: Step Time =    1.000,"PART-1-1",           210,      -7.52022,      -1.18711,            0.,NA,NA,"",       4.70603,       3.24549,       3.40786,   2.14975E-03
C:/temp/dataset/9/19_9.odb,Step-1,Increment      1: Step Time =    1.000,"PART-1-1",           211,       10.0127,       14.9017,            0.,NA,NA,"",       6.01089,       5.99934,  -372.550E-03,   1.00863E-03
C:/temp/dataset/9/19_9.odb,Step-1,Increment      1: Step Time =    1.000,"PART-1-1",           212,       10.7293,       3.02357,            0.,NA,NA,"",       3.68862,       3.67752,  -285.921E-03,   5.91162E-03
C:/temp/dataset/9/19_9.odb,Step-1,Increment      1: Step Time =    1.000,"PART-1-1",           213,       11.4837,       7.36813,            0.,NA,NA,"",       4.53119,       4.50239,  -510.028E-03,   1.52332E-03
C:/temp/dataset/9/19_9.odb,Step-1,Increment      1: Step Time =    1.000,"PART-1-1",           214,      -9.20573,       12.9161,            0.,NA,NA,"",       6.95888,       6.03802,       3.45952,   955.788E-06
C:/temp/dataset/9/19_9.odb,Step-1,Increment      1: Step Time =    1.000,"PART-1-1",           215,   314.418E-03,       24.7704,            0.,NA,NA,"",       8.26651,       8.15413,       1.35847,   688.550E-06
C:/temp/dataset/9/19_9.odb,Step-1,Increment      1: Step Time =    1.000,"PART-1-1",           216,       7.52406,       26.3727,            0.,NA,NA,"",       8.32620,       8.32554,  -104.915E-03,   366.621E-06
C:/temp/dataset/9/19_9.odb,Step-1,Increment      1: Step Time =    1.000,"PART-1-1",           217,  -811.906E-03,   82.6841E-03,            0.,NA,NA,"",       3.93074,       3.37028,       2.02286,   9.41293E-03
C:/temp/dataset/9/19_9.odb,Step-1,Increment      1: Step Time =    1.000,"PART-1-1",           218,       11.1400,      -19.6444,            0.,NA,NA,"",   389.731E-03,   387.078E-03,  -45.3970E-03,   3.69479E-03
C:/temp/dataset/9/19_9.odb,Step-1,Increment      1: Step Time =    1.000,"PART-1-1",           219,       11.1036,      -10.4226,            0.,NA,NA,"",       1.35381,       1.34867,  -117.819E-03,   3.02185E-03
C:/temp/dataset/9/19_9.odb,Step-1,Increment      1: Step Time =    1.000,"PART-1-1",           220,       10.9280,      -5.64335,            0.,NA,NA,"",       2.07137,       2.06515,  -160.395E-03,   7.52033E-03
C:/temp/dataset/9/19_9.odb,Step-1,Increment      1: Step Time =    1.000,"PART-1-1",           221,       11.0667,       5.48495,            0.,NA,NA,"",       4.16539,       4.14668,  -394.373E-03,   2.67021E-03
C:/temp/dataset/9/19_9.odb,Step-1,Increment      1: Step Time =    1.000,"PART-1-1",           222,       11.1390,      -12.7671,            0.,NA,NA,"",       1.05707,       1.05258,  -97.3940E-03,   3.07268E-03
C:/temp/dataset/9/19_9.odb,Step-1,Increment      1: Step Time =    1.000,"PART-1-1",           223,       11.1627,      -15.1016,            0.,NA,NA,"",   796.466E-03,   792.532E-03,  -79.0612E-03,   3.40435E-03
C:/temp/dataset/9/19_9.odb,Step-1,Increment      1: Step Time =    1.000,"PART-1-1",           224,      -9.10801,       10.4728,            0.,NA,NA,"",       6.56585,       5.56349,       3.48683,   928.757E-06
C:/temp/dataset/9/19_9.odb,Step-1,Increment      1: Step Time =    1.000,"PART-1-1",           225,      -9.12162,       8.28854,            0.,NA,NA,"",       6.23648,       5.14055,       3.53108,   1.15660E-03
C:/temp/dataset/9/19_9.odb,Step-1,Increment      1: Step Time =    1.000,"PART-1-1",           226,      -8.73753,       18.6317,            0.,NA,NA,"",       7.84365,       7.13433,       3.25948,   1.05429E-03
C:/temp/dataset/9/19_9.odb,Step-1,Increment      1: Step Time =    1.000,"PART-1-1",           227,      -9.90634,  -397.381E-03,            0.,NA,NA,"",       5.17607,       3.44901,       3.85954,   1.58880E-03
C:/temp/dataset/9/19_9.odb,Step-1,Increment      1: Step Time =    1.000,"PART-1-1",           228,       9.93939,       19.9385,            0.,NA,NA,"",       7.01285,       6.99794,  -457.043E-03,   1.02531E-03
C:/temp/dataset/9/19_9.odb,Step-1,Increment      1: Step Time =    1.000,"PART-1-1",           229,       5.70370,       25.8085,            0.,NA,NA,"",       8.25475,       8.25042,   267.537E-03,   526.318E-06
C:/temp/dataset/9/19_9.odb,Step-1,Increment      1: Step Time =    1.000,"PART-1-1",           230,       10.0348,       12.2094,            0.,NA,NA,"",       5.47982,       5.47020,  -324.656E-03,   987.969E-06
C:/temp/dataset/9/19_9.odb,Step-1,Increment      1: Step Time =    1.000,"PART-1-1",           231,       9.98921,       17.4486,            0.,NA,NA,"",       6.51635,       6.50294,  -417.810E-03,   1.03613E-03
C:/temp/dataset/9/19_9.odb,Step-1,Increment      1: Step Time =    1.000,"PART-1-1",           232,       10.1044,       9.10575,            0.,NA,NA,"",       4.87244,       4.86446,  -278.727E-03,   939.616E-06
C:/temp/dataset/9/19_9.odb,Step-1,Increment      1: Step Time =    1.000,"PART-1-1",           233,      -3.11139,      -1.10310,            0.,NA,NA,"",       4.06276,       3.17940,       2.52930,   6.28672E-03
C:/temp/dataset/9/19_9.odb,Step-1,Increment      1: Step Time =    1.000,"PART-1-1",           234,      -6.48507,       25.5695,            0.,NA,NA,"",       8.86255,       8.44596,       2.68524,   365.832E-06
C:/temp/dataset/9/19_9.odb,Step-1,Increment      1: Step Time =    1.000,"PART-1-1",           235,      -4.76537,       24.8732,            0.,NA,NA,"",       8.60589,       8.27567,       2.36107,   342.231E-06
C:/temp/dataset/9/19_9.odb,Step-1,Increment      1: Step Time =    1.000,"PART-1-1",           236,      -8.46351,       26.0628,            0.,NA,NA,"",       9.11127,       8.58095,       3.06310,   515.191E-06
C:/temp/dataset/9/19_9.odb,Step-1,Increment      1: Step Time =    1.000,"PART-1-1",           237,      -9.50218,       15.8804,            0.,NA,NA,"",       7.46714,       6.61671,       3.46082,   1.01529E-03
C:/temp/dataset/9/19_9.odb,Step-1,Increment      1: Step Time =    1.000,"PART-1-1",           238,      -5.29510,      -1.38770,            0.,NA,NA,"",       4.34170,       3.16256,       2.97466,   3.09656E-03
C:/temp/dataset/9/19_9.odb,Step-1,Increment      1: Step Time =    1.000,"PART-1-1",           239,       11.0587,      -21.7318,            0.,NA,NA,"",   248.033E-03,   246.275E-03,  -29.4766E-03,   3.43307E-03
C:/temp/dataset/9/19_9.odb,Step-1,Increment      1: Step Time =    1.000,"PART-1-1",           240,       11.1670,      -17.4071,            0.,NA,NA,"",   573.343E-03,   569.999E-03,  -61.8347E-03,   3.67151E-03
C:/temp/dataset/9/19_9.odb,Step-1,Increment      1: Step Time =    1.000,"PART-1-1",           241,       11.0513,      -8.06140,            0.,NA,NA,"",       1.68885,       1.68296,  -140.958E-03,   4.38207E-03
C:/temp/dataset/9/19_9.odb,Step-1,Increment      1: Step Time =    1.000,"PART-1-1",           242,       10.1357,   7.39639E-03,            0.,NA,NA,"",       3.10811,       3.10557,  -125.675E-03,   10.1367E-03
C:/temp/dataset/9/19_9.odb,Step-1,Increment      1: Step Time =    1.000,"PART-1-1",           243,       10.6886,      -3.06387,            0.,NA,NA,"",       2.52384,       2.51826,  -167.708E-03,   10.5467E-03
C:/temp/dataset/9/19_9.odb,Step-1,Increment      1: Step Time =    1.000,"PART-1-1",           244,       9.76329,       22.4053,            0.,NA,NA,"",       7.50670,       7.49192,  -470.835E-03,   807.336E-06
C:/temp/dataset/9/19_9.odb,Step-1,Increment      1: Step Time =    1.000,"PART-1-1",           245,       8.68231,      -3.74099,            0.,NA,NA,"",       2.42937,       2.42276,   179.077E-03,   11.5986E-03
C:/temp/dataset/9/19_9.odb,Step-1,Increment      1: Step Time =    1.000,"PART-1-1",           246,      -9.34414,       6.30777,            0.,NA,NA,"",       5.97580,       4.75974,       3.61317,   1.12529E-03
C:/temp/dataset/9/19_9.odb,Step-1,Increment      1: Step Time =    1.000,"PART-1-1",           247,      -9.93235,       4.61568,            0.,NA,NA,"",       5.81970,       4.43981,       3.76257,   1.25141E-03
C:/temp/dataset/9/19_9.odb,Step-1,Increment      1: Step Time =    1.000,"PART-1-1",           248,      -8.14937,       21.0679,            0.,NA,NA,"",       8.20387,       7.59623,       3.09850,   727.469E-06
C:/temp/dataset/9/19_9.odb,Step-1,Increment      1: Step Time =    1.000,"PART-1-1",           249,       10.7972,      -23.3791,            0.,NA,NA,"",   156.340E-03,   155.986E-03,  -10.5166E-03,   2.26255E-03
C:/temp/dataset/9/19_9.odb,Step-1,Increment      1: Step Time =    1.000,"PART-1-1",           250,       4.15357,   65.4176E-03,            0.,NA,NA,"",       3.40166,       3.25495,   988.248E-03,   9.60494E-03
C:/temp/dataset/9/19_9.odb,Step-1,Increment      1: Step Time =    1.000,"PART-1-1",           251,       8.71950,       3.82470,            0.,NA,NA,"",       3.87487,       3.87416,   74.1221E-03,   6.70411E-03
C:/temp/dataset/9/19_9.odb,Step-1,Increment      1: Step Time =    1.000,"PART-1-1",           252,       5.00281,       23.5204,            0.,NA,NA,"",       7.82390,       7.81087,   451.243E-03,   871.275E-06
C:/temp/dataset/9/19_9.odb,Step-1,Increment      1: Step Time =    1.000,"PART-1-1",           253,       7.40149,   60.9774E-03,            0.,NA,NA,"",       3.19386,       3.17288,   365.443E-03,   11.6270E-03
C:/temp/dataset/9/19_9.odb,Step-1,Increment      1: Step Time =    1.000,"PART-1-1",           254,      -5.73116,       22.7675,            0.,NA,NA,"",       8.29644,       7.88095,       2.59260,   699.040E-06
C:/temp/dataset/9/19_9.odb,Step-1,Increment      1: Step Time =    1.000,"PART-1-1",           255,      -5.42683,       1.83799,            0.,NA,NA,"",       4.80488,       3.80736,       2.93102,   1.16329E-03
C:/temp/dataset/9/19_9.odb,Step-1,Increment      1: Step Time =    1.000,"PART-1-1",           256,       6.81561,       24.0815,            0.,NA,NA,"",       7.88540,       7.88499,   80.3662E-03,   743.702E-06
C:/temp/dataset/9/19_9.odb,Step-1,Increment      1: Step Time =    1.000,"PART-1-1",           257,      -7.40884,       23.3683,            0.,NA,NA,"",       8.54245,       8.03171,       2.90949,   560.291E-06
C:/temp/dataset/9/19_9.odb,Step-1,Increment      1: Step Time =    1.000,"PART-1-1",           258,      -3.69176,       23.9755,            0.,NA,NA,"",       8.36361,       8.07796,       2.16716,   620.115E-06
C:/temp/dataset/9/19_9.odb,Step-1,Increment      1: Step Time =    1.000,"PART-1-1",           259,      -8.10961,       1.76736,            0.,NA,NA,"",       5.17408,       3.84408,       3.46325,   1.86591E-03
C:/temp/dataset/9/19_9.odb,Step-1,Increment      1: Step Time =    1.000,"PART-1-1",           260,       5.94930,   61.4696E-03,            0.,NA,NA,"",       3.27092,       3.20835,   636.716E-03,   10.6651E-03
C:/temp/dataset/9/19_9.odb,Step-1,Increment      1: Step Time =    1.000,"PART-1-1",           261,       1.93878,   62.7924E-03,            0.,NA,NA,"",       3.60879,       3.30742,       1.44372,   11.3766E-03
C:/temp/dataset/9/19_9.odb,Step-1,Increment      1: Step Time =    1.000,"PART-1-1",           262,       6.71051,      -4.41826,            0.,NA,NA,"",       2.38847,       2.33070,   522.099E-03,   16.4923E-03
C:/temp/dataset/9/19_9.odb,Step-1,Increment      1: Step Time =    1.000,"PART-1-1",           263,      -12.5366,      -2.82410,            0.,NA,NA,"",       5.35655,       3.02099,       4.42338,   466.660E-06
C:/temp/dataset/9/19_9.odb,Step-1,Increment      1: Step Time =    1.000,"PART-1-1",           264,       6.75090,       4.53602,            0.,NA,NA,"",       4.08002,       4.05690,   433.743E-03,   8.70852E-03
C:/temp/dataset/9/19_9.odb,Step-1,Increment      1: Step Time =    1.000,"PART-1-1",           265,      -5.22339,       3.46233,            0.,NA,NA,"",       5.01929,       4.12665,       2.85728,   1.52178E-03
C:/temp/dataset/9/19_9.odb,Step-1,Increment      1: Step Time =    1.000,"PART-1-1",           266,       4.93795,       21.9167,            0.,NA,NA,"",       7.51013,       7.49380,   494.989E-03,   1.20779E-03
C:/temp/dataset/9/19_9.odb,Step-1,Increment      1: Step Time =    1.000,"PART-1-1",           267,       8.13144,      -1.42002,            0.,NA,NA,"",       2.88009,       2.86930,   249.049E-03,   12.6611E-03
C:/temp/dataset/9/19_9.odb,Step-1,Increment      1: Step Time =    1.000,"PART-1-1",           268,      -3.13115,       1.39136,            0.,NA,NA,"",       4.43032,       3.67404,       2.47572,   4.66943E-03
C:/temp/dataset/9/19_9.odb,Step-1,Increment      1: Step Time =    1.000,"PART-1-1",           269,       9.17709,       6.32873,            0.,NA,NA,"",       4.34666,       4.34636,  -51.3076E-03,   2.61394E-03
C:/temp/dataset/9/19_9.odb,Step-1,Increment      1: Step Time =    1.000,"PART-1-1",           270,      -11.0423,       1.34077,            0.,NA,NA,"",       5.56172,       3.81499,       4.04705,   1.47309E-03
C:/temp/dataset/9/19_9.odb,Step-1,Increment      1: Step Time =    1.000,"PART-1-1",           271,      -10.1478,       26.6048,            0.,NA,NA,"",       9.35249,       8.71966,       3.38181,   527.489E-06
C:/temp/dataset/9/19_9.odb,Step-1,Increment      1: Step Time =    1.000,"PART-1-1",           272,      -10.1118,       21.9370,            0.,NA,NA,"",       8.53910,       7.80455,       3.46484,   428.015E-06
C:/temp/dataset/9/19_9.odb,Step-1,Increment      1: Step Time =    1.000,"PART-1-1",           273,       8.13886,       1.50501,            0.,NA,NA,"",       3.44382,       3.43722,   213.026E-03,   10.1988E-03
C:/temp/dataset/9/19_9.odb,Step-1,Increment      1: Step Time =    1.000,"PART-1-1",           274,      -7.06249,   219.393E-03,            0.,NA,NA,"",       4.81492,       3.51640,       3.28913,   1.82902E-03
C:/temp/dataset/9/19_9.odb,Step-1,Increment      1: Step Time =    1.000,"PART-1-1",           275,      -5.40522,   241.534E-03,            0.,NA,NA,"",       4.57590,       3.48914,       2.96055,   1.84704E-03
C:/temp/dataset/9/19_9.odb,Step-1,Increment      1: Step Time =    1.000,"PART-1-1",           276,      -3.80180,   194.541E-03,            0.,NA,NA,"",       4.34340,       3.44966,       2.63912,   3.99352E-03
C:/temp/dataset/9/19_9.odb,Step-1,Increment      1: Step Time =    1.000,"PART-1-1",           277,      -2.71285,       28.4954,            0.,NA,NA,"",       9.14532,       8.94907,       1.88440,   606.375E-06
C:/temp/dataset/9/19_9.odb,Step-1,Increment      1: Step Time =    1.000,"PART-1-1",           278,         -3.75,           30.,            0.,NA,NA,"",       9.49144,       9.26539,       2.05913,   992.311E-06
C:/temp/dataset/9/19_9.odb,Step-1,Increment      1: Step Time =    1.000,"PART-1-1",           279,      -5.26224,       28.8665,            0.,NA,NA,"",       9.37770,       9.07071,       2.37977,   737.493E-06
C:/temp/dataset/9/19_9.odb,Step-1,Increment      1: Step Time =    1.000,"PART-1-1",           280,      -4.22509,       27.3619,            0.,NA,NA,"",       9.02834,       8.75484,       2.20538,   367.214E-06
C:/temp/dataset/9/19_9.odb,Step-1,Increment      1: Step Time =    1.000,"PART-1-1",           281,      -3.84553,       25.9321,            0.,NA,NA,"",       8.73693,       8.46601,       2.15886,   318.616E-06
C:/temp/dataset/9/19_9.odb,Step-1,Increment      1: Step Time =    1.000,"PART-1-1",           282,      -6.00478,       26.6512,            0.,NA,NA,"",       9.02293,       8.64929,       2.56961,   372.432E-06
C:/temp/dataset/9/19_9.odb,Step-1,Increment      1: Step Time =    1.000,"PART-1-1",           283,      -5.62522,       25.2214,            0.,NA,NA,"",       8.73334,       8.36088,       2.52330,   296.405E-06
C:/temp/dataset/9/19_9.odb,Step-1,Increment      1: Step Time =    1.000,"PART-1-1",           284,      -10.0879,       29.0985,            0.,NA,NA,"",       9.78815,       9.20737,       3.32148,   423.495E-06
C:/temp/dataset/9/19_9.odb,Step-1,Increment      1: Step Time =    1.000,"PART-1-1",           285,        -11.25,           30.,            0.,NA,NA,"",       10.0469,       9.40586,       3.53119,   287.410E-06
C:/temp/dataset/9/19_9.odb,Step-1,Increment      1: Step Time =    1.000,"PART-1-1",           286,      -12.4706,       28.9480,            0.,NA,NA,"",       9.97182,       9.22338,       3.79029,   194.587E-06
C:/temp/dataset/9/19_9.odb,Step-1,Increment      1: Step Time =    1.000,"PART-1-1",           287,      -11.3086,       28.0465,            0.,NA,NA,"",       9.70894,       9.02455,       3.58063,   400.859E-06
C:/temp/dataset/9/19_9.odb,Step-1,Increment      1: Step Time =    1.000,"PART-1-1",           288,      -13.4495,       25.5029,            0.,NA,NA,"",       9.47557,       8.56735,       4.04808,   386.147E-06
C:/temp/dataset/9/19_9.odb,Step-1,Increment      1: Step Time =    1.000,"PART-1-1",           289,          -15.,       24.5313,            0.,NA,NA,"",       9.47501,       8.40723,       4.36972,   519.790E-06
C:/temp/dataset/9/19_9.odb,Step-1,Increment      1: Step Time =    1.000,"PART-1-1",           290,      -13.6920,       23.1529,            0.,NA,NA,"",       9.10739,       8.11195,       4.14015,   513.365E-06
C:/temp/dataset/9/19_9.odb,Step-1,Increment      1: Step Time =    1.000,"PART-1-1",           291,      -12.1415,       24.1246,            0.,NA,NA,"",       9.11102,       8.27199,       3.81903,   456.289E-06
C:/temp/dataset/9/19_9.odb,Step-1,Increment      1: Step Time =    1.000,"PART-1-1",           292,          8.75,          -30.,            0.,NA,NA,"",            0.,  -4.97698E-39,   23.3335E-39,   12.3537E-03
C:/temp/dataset/9/19_9.odb,Step-1,Increment      1: Step Time =    1.000,"PART-1-1",           293,       9.96407,      -28.8633,            0.,NA,NA,"",   4.77562E-03,  -2.64426E-03,   3.97673E-03,   4.77146E-03
C:/temp/dataset/9/19_9.odb,Step-1,Increment      1: Step Time =    1.000,"PART-1-1",           294,       8.68711,      -27.7998,            0.,NA,NA,"",   29.9160E-03,   14.4860E-03,   26.1748E-03,   16.3116E-03
C:/temp/dataset/9/19_9.odb,Step-1,Increment      1: Step Time =    1.000,"PART-1-1",           295,       7.47304,      -28.9365,            0.,NA,NA,"",   20.0018E-03,   4.67893E-03,   19.4468E-03,   22.6770E-03
C:/temp/dataset/9/19_9.odb,Step-1,Increment      1: Step Time =    1.000,"PART-1-1",           296,       10.9279,      -22.5555,            0.,NA,NA,"",   199.813E-03,   198.895E-03,  -19.1295E-03,   2.72954E-03
C:/temp/dataset/9/19_9.odb,Step-1,Increment      1: Step Time =    1.000,"PART-1-1",           297,       10.0765,      -21.6813,            0.,NA,NA,"",   253.395E-03,   251.901E-03,   27.4780E-03,   5.10328E-03
C:/temp/dataset/9/19_9.odb,Step-1,Increment      1: Step Time =    1.000,"PART-1-1",           298,       9.14242,      -22.6395,            0.,NA,NA,"",   214.394E-03,   201.579E-03,   73.0141E-03,   12.2473E-03
C:/temp/dataset/9/19_9.odb,Step-1,Increment      1: Step Time =    1.000,"PART-1-1",           299,       9.99384,      -23.5137,            0.,NA,NA,"",   153.698E-03,   151.476E-03,   26.0389E-03,   5.84544E-03
C:/temp/dataset/9/19_9.odb,Step-1,Increment      1: Step Time =    1.000,"PART-1-1",           300,       7.08785,      -18.4988,            0.,NA,NA,"",   579.520E-03,   512.555E-03,   270.427E-03,   26.7955E-03
C:/temp/dataset/9/19_9.odb,Step-1,Increment      1: Step Time =    1.000,"PART-1-1",           301,       6.04673,      -17.4684,            0.,NA,NA,"",   728.437E-03,   620.735E-03,   381.193E-03,   34.0676E-03
C:/temp/dataset/9/19_9.odb,Step-1,Increment      1: Step Time =    1.000,"PART-1-1",           302,            5.,      -18.5417,            0.,NA,NA,"",   699.729E-03,   547.531E-03,   435.695E-03,   41.9685E-03
C:/temp/dataset/9/19_9.odb,Step-1,Increment      1: Step Time =    1.000,"PART-1-1",           303,       6.04112,      -19.5721,            0.,NA,NA,"",   549.275E-03,   443.586E-03,   323.936E-03,   34.6876E-03
C:/temp/dataset/9/19_9.odb,Step-1,Increment      1: Step Time =    1.000,"PART-1-1",           304,       7.10245,      -14.2066,            0.,NA,NA,"",   997.335E-03,   933.868E-03,   350.096E-03,   25.9215E-03
C:/temp/dataset/9/19_9.odb,Step-1,Increment      1: Step Time =    1.000,"PART-1-1",           305,       6.04975,      -13.2285,            0.,NA,NA,"",       1.17264,       1.06740,   485.530E-03,   32.9728E-03
C:/temp/dataset/9/19_9.odb,Step-1,Increment      1: Step Time =    1.000,"PART-1-1",           306,            5.,       -14.375,            0.,NA,NA,"",       1.11510,   958.138E-03,   570.451E-03,   40.5419E-03
C:/temp/dataset/9/19_9.odb,Step-1,Increment      1: Step Time =    1.000,"PART-1-1",           307,       6.05270,      -15.3531,            0.,NA,NA,"",   935.926E-03,   828.769E-03,   434.856E-03,   33.4815E-03
C:/temp/dataset/9/19_9.odb,Step-1,Increment      1: Step Time =    1.000,"PART-1-1",           308,            5.,      -6.04167,            0.,NA,NA,"",       2.24477,       2.09660,   802.029E-03,   52.6991E-03
C:/temp/dataset/9/19_9.odb,Step-1,Increment      1: Step Time =    1.000,"PART-1-1",           309,       5.97724,      -6.85181,            0.,NA,NA,"",       2.04282,       1.94401,   627.661E-03,   33.9034E-03
C:/temp/dataset/9/19_9.odb,Step-1,Increment      1: Step Time =    1.000,"PART-1-1",           310,       6.83249,      -5.51927,            0.,NA,NA,"",       2.19413,       2.13595,   501.930E-03,   17.3448E-03
C:/temp/dataset/9/19_9.odb,Step-1,Increment      1: Step Time =    1.000,"PART-1-1",           311,       5.85525,      -4.70913,            0.,NA,NA,"",       2.38698,       2.28927,   675.932E-03,   30.1375E-03
C:/temp/dataset/9/19_9.odb,Step-1,Increment      1: Step Time =    1.000,"PART-1-1",           312,       4.27314,       1.25089,            0.,NA,NA,"",       3.60945,       3.48235,   949.399E-03,   7.85790E-03
C:/temp/dataset/9/19_9.odb,Step-1,Increment      1: Step Time =    1.000,"PART-1-1",           313,       3.27994,       2.49943,            0.,NA,NA,"",       3.91620,       3.74993,       1.12899,   5.87353E-03
C:/temp/dataset/9/19_9.odb,Step-1,Increment      1: Step Time =    1.000,"PART-1-1",           314,       2.05297,       1.31265,            0.,NA,NA,"",       3.81382,       3.54813,       1.39857,   8.90419E-03
C:/temp/dataset/9/19_9.odb,Step-1,Increment      1: Step Time =    1.000,"PART-1-1",           315,       3.04617,   64.1050E-03,            0.,NA,NA,"",       3.49896,       3.28155,       1.21414,   9.84378E-03
C:/temp/dataset/9/19_9.odb,Step-1,Increment      1: Step Time =    1.000,"PART-1-1",           316,       6.28410,       12.4112,            0.,NA,NA,"",       5.59761,       5.58328,   400.337E-03,   2.59323E-03
C:/temp/dataset/9/19_9.odb,Step-1,Increment      1: Step Time =    1.000,"PART-1-1",           317,            5.,         11.25,            0.,NA,NA,"",       5.42373,       5.38229,   669.200E-03,   3.85063E-03
C:/temp/dataset/9/19_9.odb,Step-1,Increment      1: Step Time =    1.000,"PART-1-1",           318,       6.24476,       9.82085,            0.,NA,NA,"",       5.09814,       5.07814,   451.130E-03,   3.14001E-03
C:/temp/dataset/9/19_9.odb,Step-1,Increment      1: Step Time =    1.000,"PART-1-1",           319,       7.52885,       10.9821,            0.,NA,NA,"",       5.28198,       5.27879,   183.620E-03,   2.02203E-03
C:/temp/dataset/9/19_9.odb,Step-1,Increment      1: Step Time =    1.000,"PART-1-1",           320,       6.23557,       19.9374,            0.,NA,NA,"",       7.07770,       7.07238,   274.397E-03,   1.42079E-03
C:/temp/dataset/9/19_9.odb,Step-1,Increment      1: Step Time =    1.000,"PART-1-1",           321,            5.,         18.75,            0.,NA,NA,"",       6.88286,       6.86152,   541.583E-03,   2.14373E-03
C:/temp/dataset/9/19_9.odb,Step-1,Increment      1: Step Time =    1.000,"PART-1-1",           322,       6.25255,       17.4722,            0.,NA,NA,"",       6.58975,       6.58212,   317.017E-03,   1.71874E-03
C:/temp/dataset/9/19_9.odb,Step-1,Increment      1: Step Time =    1.000,"PART-1-1",           323,       7.48812,       18.6595,            0.,NA,NA,"",       6.79295,       6.79276,   51.0562E-03,   1.25390E-03
C:/temp/dataset/9/19_9.odb,Step-1,Increment      1: Step Time =    1.000,"PART-1-1",           324,       12.4612,       28.7577,            0.,NA,NA,"",       8.77349,       8.70023,      -1.13145,   83.2134E-06
C:/temp/dataset/9/19_9.odb,Step-1,Increment      1: Step Time =    1.000,"PART-1-1",           325,         11.25,           30.,            0.,NA,NA,"",       9.01756,       8.97093,  -915.852E-03,   78.7324E-06
C:/temp/dataset/9/19_9.odb,Step-1,Increment      1: Step Time =    1.000,"PART-1-1",           326,       9.95383,       28.8406,            0.,NA,NA,"",       8.78974,       8.76672,  -635.731E-03,   160.012E-06
C:/temp/dataset/9/19_9.odb,Step-1,Increment      1: Step Time =    1.000,"PART-1-1",           327,       11.1650,       27.5983,            0.,NA,NA,"",       8.53841,       8.49587,  -851.288E-03,   175.928E-06
C:/temp/dataset/9/19_9.odb,Step-1,Increment      1: Step Time =    1.000,"PART-1-1",           328,       9.61193,       26.3742,            0.,NA,NA,"",       8.30007,       8.28382,  -519.059E-03,   324.797E-06
C:/temp/dataset/9/19_9.odb,Step-1,Increment      1: Step Time =    1.000,"PART-1-1",           329,       10.8062,       25.0400,            0.,NA,NA,"",       8.02802,       7.99482,  -729.350E-03,   378.899E-06
C:/temp/dataset/9/19_9.odb,Step-1,Increment      1: Step Time =    1.000,"PART-1-1",           330,       12.3592,       26.2641,            0.,NA,NA,"",       8.27544,       8.20707,      -1.06156,   257.250E-06
C:/temp/dataset/9/19_9.odb,Step-1,Increment      1: Step Time =    1.000,"PART-1-1",           331,       7.54419,       28.9985,            0.,NA,NA,"",       8.84778,       8.84632,  -160.758E-03,   189.209E-06
C:/temp/dataset/9/19_9.odb,Step-1,Increment      1: Step Time =    1.000,"PART-1-1",           332,          6.25,           30.,            0.,NA,NA,"",       9.07141,       9.07108,   76.3083E-03,   116.372E-06
C:/temp/dataset/9/19_9.odb,Step-1,Increment      1: Step Time =    1.000,"PART-1-1",           333,       5.09159,       28.9175,            0.,NA,NA,"",       8.88542,       8.87937,   327.854E-03,   171.016E-06
C:/temp/dataset/9/19_9.odb,Step-1,Increment      1: Step Time =    1.000,"PART-1-1",           334,       6.38578,       27.9160,            0.,NA,NA,"",       8.65520,       8.65472,   90.6425E-03,   231.532E-06
C:/temp/dataset/9/19_9.odb,Step-1,Increment      1: Step Time =    1.000,"PART-1-1",           335,       2.95769,       26.1428,            0.,NA,NA,"",       8.41100,       8.37224,   806.615E-03,   576.951E-06
C:/temp/dataset/9/19_9.odb,Step-1,Increment      1: Step Time =    1.000,"PART-1-1",           336,       4.45909,       25.3098,            0.,NA,NA,"",       8.19364,       8.17683,   524.555E-03,   623.559E-06
C:/temp/dataset/9/19_9.odb,Step-1,Increment      1: Step Time =    1.000,"PART-1-1",           337,       5.44343,       26.8217,            0.,NA,NA,"",       8.46192,       8.45662,   299.365E-03,   404.386E-06
C:/temp/dataset/9/19_9.odb,Step-1,Increment      1: Step Time =    1.000,"PART-1-1",           338,       3.94204,       27.6547,            0.,NA,NA,"",       8.67144,       8.65194,   581.246E-03,   381.321E-06
C:/temp/dataset/9/19_9.odb,Step-1,Increment      1: Step Time =    1.000,"PART-1-1",           339,       6.06395,       7.26936,            0.,NA,NA,"",       4.61939,       4.58938,   525.694E-03,   3.64625E-03
C:/temp/dataset/9/19_9.odb,Step-1,Increment      1: Step Time =    1.000,"PART-1-1",           340,       7.30871,       8.34021,            0.,NA,NA,"",       4.77794,       4.77024,   271.271E-03,   2.32620E-03
C:/temp/dataset/9/19_9.odb,Step-1,Increment      1: Step Time =    1.000,"PART-1-1",           341,            5.,          8.75,            0.,NA,NA,"",       4.94665,       4.89584,   707.146E-03,   4.76057E-03
C:/temp/dataset/9/19_9.odb,Step-1,Increment      1: Step Time =    1.000,"PART-1-1",           342,      -13.9291,       1.47830,            0.,NA,NA,"",       6.03724,       3.89723,       4.61084,   1.05360E-03
C:/temp/dataset/9/19_9.odb,Step-1,Increment      1: Step Time =    1.000,"PART-1-1",           343,          -15.,    468.75E-03,            0.,NA,NA,"",       6.10561,       3.71867,       4.84251,   780.931E-06
C:/temp/dataset/9/19_9.odb,Step-1,Increment      1: Step Time =    1.000,"PART-1-1",           344,      -13.8152,  -655.377E-03,            0.,NA,NA,"",       5.78970,       3.47390,       4.63170,   616.252E-06
C:/temp/dataset/9/19_9.odb,Step-1,Increment      1: Step Time =    1.000,"PART-1-1",           345,      -12.7443,   354.171E-03,            0.,NA,NA,"",       5.71918,       3.65259,       4.40087,   1.04862E-03
C:/temp/dataset/9/19_9.odb,Step-1,Increment      1: Step Time =    1.000,"PART-1-1",           346,      -13.9678,       8.16706,            0.,NA,NA,"",       6.87035,       5.20812,       4.48076,   1.35317E-03
C:/temp/dataset/9/19_9.odb,Step-1,Increment      1: Step Time =    1.000,"PART-1-1",           347,          -15.,       7.03125,            0.,NA,NA,"",       6.87056,       5.00622,       4.70557,   1.75514E-03
C:/temp/dataset/9/19_9.odb,Step-1,Increment      1: Step Time =    1.000,"PART-1-1",           348,      -13.6804,       5.85321,            0.,NA,NA,"",       6.52515,       4.75187,       4.47183,   1.44926E-03
C:/temp/dataset/9/19_9.odb,Step-1,Increment      1: Step Time =    1.000,"PART-1-1",           349,      -12.6482,       6.98902,            0.,NA,NA,"",       6.52523,       4.95421,       4.24670,   1.09161E-03
C:/temp/dataset/9/19_9.odb,Step-1,Increment      1: Step Time =    1.000,"PART-1-1",           350,      -5.93089,       17.7206,            0.,NA,NA,"",       7.42455,       6.90426,       2.73041,   1.01857E-03
C:/temp/dataset/9/19_9.odb,Step-1,Increment      1: Step Time =    1.000,"PART-1-1",           351,      -7.00986,       16.6597,            0.,NA,NA,"",       7.34312,       6.71980,       2.96071,   978.125E-06
C:/temp/dataset/9/19_9.odb,Step-1,Increment      1: Step Time =    1.000,"PART-1-1",           352,      -6.07897,       15.1891,            0.,NA,NA,"",       7.00558,       6.41808,       2.80827,   474.764E-06
C:/temp/dataset/9/19_9.odb,Step-1,Increment      1: Step Time =    1.000,"PART-1-1",           353,           -5.,         16.25,            0.,NA,NA,"",       7.08874,       6.60303,       2.57882,   585.298E-06
C:/temp/dataset/9/19_9.odb,Step-1,Increment      1: Step Time =    1.000,"PART-1-1",           354,      -7.79966,       18.2865,            0.,NA,NA,"",       7.69402,       7.04927,       3.08314,   1.16859E-03
C:/temp/dataset/9/19_9.odb,Step-1,Increment      1: Step Time =    1.000,"PART-1-1",           355,      -6.65288,       19.1839,            0.,NA,NA,"",       7.74101,       7.20029,       2.84236,   1.28518E-03
C:/temp/dataset/9/19_9.odb,Step-1,Increment      1: Step Time =    1.000,"PART-1-1",           356,      -7.29668,       20.7472,            0.,NA,NA,"",       8.07062,       7.51676,       2.93824,   970.673E-06
C:/temp/dataset/9/19_9.odb,Step-1,Increment      1: Step Time =    1.000,"PART-1-1",           357,      -8.44345,       19.8498,            0.,NA,NA,"",       8.02174,       7.36491,       3.17906,   800.993E-06
C:/temp/dataset/9/19_9.odb,Step-1,Increment      1: Step Time =    1.000,"PART-1-1",           358,      -2.59303,       4.06073,            0.,NA,NA,"",       4.78890,       4.19567,       2.30865,   2.89222E-03
C:/temp/dataset/9/19_9.odb,Step-1,Increment      1: Step Time =    1.000,"PART-1-1",           359,      -1.46713,       2.91047,            0.,NA,NA,"",       4.46611,       3.94172,       2.09976,   5.52336E-03
C:/temp/dataset/9/19_9.odb,Step-1,Increment      1: Step Time =    1.000,"PART-1-1",           360,  -124.098E-03,       3.84974,            0.,NA,NA,"",       4.47875,       4.10011,       1.80232,   4.09992E-03
C:/temp/dataset/9/19_9.odb,Step-1,Increment      1: Step Time =    1.000,"PART-1-1",           361,         -1.25,            5.,            0.,NA,NA,"",       4.80127,       4.35979,       2.01107,   330.124E-06
C:/temp/dataset/9/19_9.odb,Step-1,Increment      1: Step Time =    1.000,"PART-1-1",           362,      -11.2683,  -541.568E-03,            0.,NA,NA,"",       5.37892,       3.44700,       4.12928,   1.23816E-03
C:/temp/dataset/9/19_9.odb,Step-1,Increment      1: Step Time =    1.000,"PART-1-1",           363,      -10.4743,   471.696E-03,            0.,NA,NA,"",       5.36857,       3.63218,       3.95334,   1.49952E-03
C:/temp/dataset/9/19_9.odb,Step-1,Increment      1: Step Time =    1.000,"PART-1-1",           364,      -11.9503,       1.36743,            0.,NA,NA,"",       5.70732,       3.83756,       4.22452,   1.29426E-03
C:/temp/dataset/9/19_9.odb,Step-1,Increment      1: Step Time =    1.000,"PART-1-1",           365,      -13.0095,       9.29789,            0.,NA,NA,"",       6.89264,       5.40979,       4.27113,   1.05609E-03
C:/temp/dataset/9/19_9.odb,Step-1,Increment      1: Step Time =    1.000,"PART-1-1",           366,      -14.0417,       10.3496,            0.,NA,NA,"",       7.17953,       5.63301,       4.45139,   1.03955E-03
C:/temp/dataset/9/19_9.odb,Step-1,Increment      1: Step Time =    1.000,"PART-1-1",           367,          -15.,       9.21875,            0.,NA,NA,"",       7.15690,       5.43149,       4.66048,   1.42746E-03
C:/temp/dataset/9/19_9.odb,Step-1,Increment      1: Step Time =    1.000,"PART-1-1",           368,      -6.40766,      -1.28741,            0.,NA,NA,"",       4.52236,       3.20375,       3.19182,   2.28710E-03
C:/temp/dataset/9/19_9.odb,Step-1,Increment      1: Step Time =    1.000,"PART-1-1",           369,      -5.35016,  -573.084E-03,            0.,NA,NA,"",       4.45725,       3.32590,       2.96741,   2.37539E-03
C:/temp/dataset/9/19_9.odb,Step-1,Increment      1: Step Time =    1.000,"PART-1-1",           370,      -6.23385,   230.463E-03,            0.,NA,NA,"",       4.69432,       3.50271,       3.12533,   1.58386E-03
C:/temp/dataset/9/19_9.odb,Step-1,Increment      1: Step Time =    1.000,"PART-1-1",           371,      -7.29135,  -483.859E-03,            0.,NA,NA,"",       4.75856,       3.38083,       3.34871,   1.91746E-03
C:/temp/dataset/9/19_9.odb,Step-1,Increment      1: Step Time =    1.000,"PART-1-1",           372,   952.242E-03,      -2.53706,            0.,NA,NA,"",       3.29422,       2.81807,       1.70598,   11.7963E-03
C:/temp/dataset/9/19_9.odb,Step-1,Increment      1: Step Time =    1.000,"PART-1-1",           373,  -130.910E-03,      -3.80019,            0.,NA,NA,"",       3.25086,       2.58427,       1.97222,   8.44979E-03
C:/temp/dataset/9/19_9.odb,Step-1,Increment      1: Step Time =    1.000,"PART-1-1",           374,          1.25,           -5.,            0.,NA,NA,"",       2.86017,       2.29962,       1.70069,   6.00948E-03
C:/temp/dataset/9/19_9.odb,Step-1,Increment      1: Step Time =    1.000,"PART-1-1",           375,       2.33315,      -3.73687,            0.,NA,NA,"",       2.92254,       2.54850,       1.43052,   8.59185E-03
C:/temp/dataset/9/19_9.odb,Step-1,Increment      1: Step Time =    1.000,"PART-1-1",           376,       4.26686,      -1.13377,            0.,NA,NA,"",       3.17377,       3.01867,   980.051E-03,   12.3452E-03
C:/temp/dataset/9/19_9.odb,Step-1,Increment      1: Step Time =    1.000,"PART-1-1",           377,       2.05254,      -1.20548,            0.,NA,NA,"",       3.38140,       3.05812,       1.44282,   12.2665E-03
C:/temp/dataset/9/19_9.odb,Step-1,Increment      1: Step Time =    1.000,"PART-1-1",           378,       3.27323,      -2.40335,            0.,NA,NA,"",       3.04303,       2.79639,       1.20010,   12.6565E-03
C:/temp/dataset/9/19_9.odb,Step-1,Increment      1: Step Time =    1.000,"PART-1-1",           379,       10.4325,       1.51548,            0.,NA,NA,"",       3.39748,       3.39130,  -204.737E-03,   7.99172E-03
C:/temp/dataset/9/19_9.odb,Step-1,Increment      1: Step Time =    1.000,"PART-1-1",           380,       11.3847,  -3.51279E-03,            0.,NA,NA,"",       3.10182,       3.08228,  -347.568E-03,   8.95737E-03
C:/temp/dataset/9/19_9.odb,Step-1,Increment      1: Step Time =    1.000,"PART-1-1",           381,       12.7244,       1.31309,            0.,NA,NA,"",       3.37055,       3.31335,  -618.282E-03,   7.88143E-03
C:/temp/dataset/9/19_9.odb,Step-1,Increment      1: Step Time =    1.000,"PART-1-1",           382,       11.7722,       2.83209,            0.,NA,NA,"",       3.65245,       3.62141,  -475.207E-03,   5.41720E-03
C:/temp/dataset/9/19_9.odb,Step-1,Increment      1: Step Time =    1.000,"PART-1-1",           383,       9.00808,      -7.25637,            0.,NA,NA,"",       1.83419,       1.82758,   155.600E-03,   8.71227E-03
C:/temp/dataset/9/19_9.odb,Step-1,Increment      1: Step Time =    1.000,"PART-1-1",           384,       7.95196,      -6.36313,            0.,NA,NA,"",       2.00809,       1.98286,   317.317E-03,   15.0010E-03
C:/temp/dataset/9/19_9.odb,Step-1,Increment      1: Step Time =    1.000,"PART-1-1",           385,       7.00211,      -7.70397,            0.,NA,NA,"",       1.85006,       1.79273,   456.977E-03,   24.9650E-03
C:/temp/dataset/9/19_9.odb,Step-1,Increment      1: Step Time =    1.000,"PART-1-1",           386,       8.05823,      -8.59720,            0.,NA,NA,"",       1.66773,       1.64139,   295.271E-03,   17.7434E-03
C:/temp/dataset/9/19_9.odb,Step-1,Increment      1: Step Time =    1.000,"PART-1-1",           387,       7.09104,      -12.0381,            0.,NA,NA,"",       1.25335,       1.19229,   386.430E-03,   25.6497E-03
C:/temp/dataset/9/19_9.odb,Step-1,Increment      1: Step Time =    1.000,"PART-1-1",           388,       6.04129,      -11.1013,            0.,NA,NA,"",       1.43727,       1.33479,   532.979E-03,   32.6139E-03
C:/temp/dataset/9/19_9.odb,Step-1,Increment      1: Step Time =    1.000,"PART-1-1",           389,            5.,      -12.2917,            0.,NA,NA,"",       1.36133,       1.20611,   631.287E-03,   39.9604E-03
C:/temp/dataset/9/19_9.odb,Step-1,Increment      1: Step Time =    1.000,"PART-1-1",           390,       9.13117,      -18.4822,            0.,NA,NA,"",   500.977E-03,   489.177E-03,   108.091E-03,   11.8457E-03
C:/temp/dataset/9/19_9.odb,Step-1,Increment      1: Step Time =    1.000,"PART-1-1",           391,       10.1297,      -19.6034,            0.,NA,NA,"",   394.433E-03,   393.465E-03,   27.6158E-03,   4.60081E-03
C:/temp/dataset/9/19_9.odb,Step-1,Increment      1: Step Time =    1.000,"PART-1-1",           392,       11.1535,      -18.5257,            0.,NA,NA,"",   477.421E-03,   474.447E-03,  -53.2094E-03,   3.68270E-03
C:/temp/dataset/9/19_9.odb,Step-1,Increment      1: Step Time =    1.000,"PART-1-1",           393,       10.1550,      -17.4045,            0.,NA,NA,"",   575.291E-03,   574.683E-03,   26.4247E-03,   4.35307E-03
C:/temp/dataset/9/19_9.odb,Step-1,Increment      1: Step Time =    1.000,"PART-1-1",           394,       6.27183,       14.9637,            0.,NA,NA,"",       6.09621,       6.08567,   358.310E-03,   2.15189E-03
C:/temp/dataset/9/19_9.odb,Step-1,Increment      1: Step Time =    1.000,"PART-1-1",           395,       7.52438,       16.1859,            0.,NA,NA,"",       6.30240,       6.30175,   90.3947E-03,   1.47043E-03
C:/temp/dataset/9/19_9.odb,Step-1,Increment      1: Step Time =    1.000,"PART-1-1",           396,            5.,         16.25,            0.,NA,NA,"",       6.39283,       6.36595,   585.720E-03,   2.53415E-03
C:/temp/dataset/9/19_9.odb,Step-1,Increment      1: Step Time =    1.000,"PART-1-1",           397,       2.56719,       21.1071,            0.,NA,NA,"",       7.44727,       7.38217,   982.562E-03,   930.236E-06
C:/temp/dataset/9/19_9.odb,Step-1,Increment      1: Step Time =    1.000,"PART-1-1",           398,       1.41709,       22.2600,            0.,NA,NA,"",       7.72678,       7.63481,       1.18858,   900.564E-06
C:/temp/dataset/9/19_9.odb,Step-1,Increment      1: Step Time =    1.000,"PART-1-1",           399,   99.9026E-03,       21.1528,            0.,NA,NA,"",       7.58673,       7.44269,       1.47136,   1.17805E-03
C:/temp/dataset/9/19_9.odb,Step-1,Increment      1: Step Time =    1.000,"PART-1-1",           400,          1.25,           20.,            0.,NA,NA,"",       7.30032,       7.18977,       1.26561,   1.28769E-03
C:/temp/dataset/9/19_9.odb,Step-1,Increment      1: Step Time =    1.000,"PART-1-1",           401,       7.55593,       13.6250,            0.,NA,NA,"",       5.79758,       5.79610,   131.197E-03,   1.75941E-03
C:/temp/dataset/9/19_9.odb,Step-1,Increment      1: Step Time =    1.000,"PART-1-1",           402,            5.,         13.75,            0.,NA,NA,"",       5.90621,       5.87267,   628.520E-03,   3.10135E-03
C:/temp/dataset/9/19_9.odb,Step-1,Increment      1: Step Time =    1.000,"PART-1-1",           403,       8.77818,       14.9146,            0.,NA,NA,"",       6.02733,       6.02590,  -131.414E-03,   1.17162E-03
C:/temp/dataset/9/19_9.odb,Step-1,Increment      1: Step Time =    1.000,"PART-1-1",           404,       10.0010,       16.1752,            0.,NA,NA,"",       6.26329,       6.25082,  -395.133E-03,   1.01871E-03
C:/temp/dataset/9/19_9.odb,Step-1,Increment      1: Step Time =    1.000,"PART-1-1",           405,       8.74716,       17.4465,            0.,NA,NA,"",       6.52926,       6.52695,  -173.673E-03,   1.09932E-03
C:/temp/dataset/9/19_9.odb,Step-1,Increment      1: Step Time =    1.000,"PART-1-1",           406,       10.1219,       5.90684,            0.,NA,NA,"",       4.25224,       4.24637,  -223.217E-03,   2.33699E-03
C:/temp/dataset/9/19_9.odb,Step-1,Increment      1: Step Time =    1.000,"PART-1-1",           407,       8.94830,       5.07672,            0.,NA,NA,"",       4.11048,       4.11046,   12.3124E-03,   4.60046E-03
C:/temp/dataset/9/19_9.odb,Step-1,Increment      1: Step Time =    1.000,"PART-1-1",           408,       9.72441,       3.42413,            0.,NA,NA,"",       3.77666,       3.77515,  -106.623E-03,   5.93195E-03
C:/temp/dataset/9/19_9.odb,Step-1,Increment      1: Step Time =    1.000,"PART-1-1",           409,       10.8980,       4.25426,            0.,NA,NA,"",       3.92700,       3.91228,  -339.707E-03,   4.22289E-03
C:/temp/dataset/9/19_9.odb,Step-1,Increment      1: Step Time =    1.000,"PART-1-1",           410,       8.15250,       6.68373,            0.,NA,NA,"",       4.43737,       4.43524,   137.779E-03,   2.50307E-03
C:/temp/dataset/9/19_9.odb,Step-1,Increment      1: Step Time =    1.000,"PART-1-1",           411,       9.64075,       7.71724,            0.,NA,NA,"",       4.60757,       4.60465,  -164.013E-03,   1.46210E-03
C:/temp/dataset/9/19_9.odb,Step-1,Increment      1: Step Time =    1.000,"PART-1-1",           412,       8.79696,       9.37373,            0.,NA,NA,"",       4.94128,       4.94117,  -32.2043E-03,   1.28636E-03
C:/temp/dataset/9/19_9.odb,Step-1,Increment      1: Step Time =    1.000,"PART-1-1",           413,   959.485E-03,       2.63099,            0.,NA,NA,"",       4.15296,       3.83190,       1.60113,   7.41445E-03
C:/temp/dataset/9/19_9.odb,Step-1,Increment      1: Step Time =    1.000,"PART-1-1",           414,       2.33358,       3.78125,            0.,NA,NA,"",       4.22933,       4.02506,       1.29852,   7.08442E-03
C:/temp/dataset/9/19_9.odb,Step-1,Increment      1: Step Time =    1.000,"PART-1-1",           415,          1.25,            5.,            0.,NA,NA,"",       4.55351,       4.30017,       1.49767,   5.73813E-03
C:/temp/dataset/9/19_9.odb,Step-1,Increment      1: Step Time =    1.000,"PART-1-1",           416,      -9.23288,       7.29816,            0.,NA,NA,"",       6.10453,       4.95033,       3.57204,   1.09355E-03
C:/temp/dataset/9/19_9.odb,Step-1,Increment      1: Step Time =    1.000,"PART-1-1",           417,      -8.32915,       6.01548,            0.,NA,NA,"",       5.79954,       4.68387,       3.41994,   1.42537E-03
C:/temp/dataset/9/19_9.odb,Step-1,Increment      1: Step Time =    1.000,"PART-1-1",           418,      -7.21136,       6.82340,            0.,NA,NA,"",       5.77737,       4.82021,       3.18491,   1.35266E-03
C:/temp/dataset/9/19_9.odb,Step-1,Increment      1: Step Time =    1.000,"PART-1-1",           419,      -8.11509,       8.10607,            0.,NA,NA,"",       6.08334,       5.08588,       3.33779,   1.14577E-03
C:/temp/dataset/9/19_9.odb,Step-1,Increment      1: Step Time =    1.000,"PART-1-1",           420,      -13.1318,       11.4675,            0.,NA,NA,"",       7.21802,       5.83245,       4.25233,   894.750E-06
C:/temp/dataset/9/19_9.odb,Step-1,Increment      1: Step Time =    1.000,"PART-1-1",           421,      -14.0901,       12.5242,            0.,NA,NA,"",       7.49547,       6.05496,       4.41810,   663.761E-06
C:/temp/dataset/9/19_9.odb,Step-1,Increment      1: Step Time =    1.000,"PART-1-1",           422,          -15.,       11.4063,            0.,NA,NA,"",       7.45655,       5.85553,       4.61658,   928.801E-06
C:/temp/dataset/9/19_9.odb,Step-1,Increment      1: Step Time =    1.000,"PART-1-1",           423,      -9.35396,       14.3983,            0.,NA,NA,"",       7.21170,       6.32738,       3.46018,   990.444E-06
C:/temp/dataset/9/19_9.odb,Step-1,Increment      1: Step Time =    1.000,"PART-1-1",           424,      -10.5094,       15.3924,            0.,NA,NA,"",       7.49902,       6.54165,       3.66635,   964.556E-06
C:/temp/dataset/9/19_9.odb,Step-1,Increment      1: Step Time =    1.000,"PART-1-1",           425,      -11.3610,       13.8160,            0.,NA,NA,"",       7.34976,       6.25313,       3.86228,   957.486E-06
C:/temp/dataset/9/19_9.odb,Step-1,Increment      1: Step Time =    1.000,"PART-1-1",           426,      -10.2056,       12.8219,            0.,NA,NA,"",       7.05942,       6.03889,       3.65611,   976.041E-06
C:/temp/dataset/9/19_9.odb,Step-1,Increment      1: Step Time =    1.000,"PART-1-1",           427,      -14.0810,       18.8007,            0.,NA,NA,"",       8.44590,       7.27086,       4.29741,   535.304E-06
C:/temp/dataset/9/19_9.odb,Step-1,Increment      1: Step Time =    1.000,"PART-1-1",           428,          -15.,       17.9688,            0.,NA,NA,"",       8.42416,       7.12697,       4.49141,   542.657E-06
C:/temp/dataset/9/19_9.odb,Step-1,Increment      1: Step Time =    1.000,"PART-1-1",           429,      -14.2329,       16.7349,            0.,NA,NA,"",       8.14210,       6.87284,       4.36552,   338.393E-06
C:/temp/dataset/9/19_9.odb,Step-1,Increment      1: Step Time =    1.000,"PART-1-1",           430,      -13.3139,       17.5668,            0.,NA,NA,"",       8.16280,       7.01653,       4.17130,   466.057E-06
C:/temp/dataset/9/19_9.odb,Step-1,Increment      1: Step Time =    1.000,"PART-1-1",           431,      -12.9537,       19.5700,            0.,NA,NA,"",       8.44111,       7.39861,       4.06360,   412.211E-06
C:/temp/dataset/9/19_9.odb,Step-1,Increment      1: Step Time =    1.000,"PART-1-1",           432,      -13.8727,       20.9255,            0.,NA,NA,"",       8.76209,       7.68044,       4.21723,   587.141E-06
C:/temp/dataset/9/19_9.odb,Step-1,Increment      1: Step Time =    1.000,"PART-1-1",           433,          -15.,       20.1563,            0.,NA,NA,"",       8.76650,       7.55246,       4.45106,   767.608E-06
C:/temp/dataset/9/19_9.odb,Step-1,Increment      1: Step Time =    1.000,"PART-1-1",           434,       1.76445,       24.7908,            0.,NA,NA,"",       8.19894,       8.12879,       1.07020,   715.830E-06
C:/temp/dataset/9/19_9.odb,Step-1,Increment      1: Step Time =    1.000,"PART-1-1",           435,       1.36974,       27.3866,            0.,NA,NA,"",       8.71953,       8.65018,       1.09751,   475.951E-06
C:/temp/dataset/9/19_9.odb,Step-1,Increment      1: Step Time =    1.000,"PART-1-1",           436,   176.493E-03,       26.0346,            0.,NA,NA,"",       8.51614,       8.40668,       1.36100,   557.596E-06
C:/temp/dataset/9/19_9.odb,Step-1,Increment      1: Step Time =    1.000,"PART-1-1",           437,       7.39460,       20.9669,            0.,NA,NA,"",       7.25372,       7.25367,   25.4583E-03,   1.26947E-03
C:/temp/dataset/9/19_9.odb,Step-1,Increment      1: Step Time =    1.000,"PART-1-1",           438,       8.70526,       19.9066,            0.,NA,NA,"",       7.01944,       7.01621,  -213.027E-03,   1.08037E-03
C:/temp/dataset/9/19_9.odb,Step-1,Increment      1: Step Time =    1.000,"PART-1-1",           439,       9.85134,       21.1719,            0.,NA,NA,"",       7.25971,       7.24487,  -463.966E-03,   914.237E-06
C:/temp/dataset/9/19_9.odb,Step-1,Increment      1: Step Time =    1.000,"PART-1-1",           440,       8.54068,       22.2321,            0.,NA,NA,"",       7.48554,       7.48214,  -225.656E-03,   924.326E-06
C:/temp/dataset/9/19_9.odb,Step-1,Increment      1: Step Time =    1.000,"PART-1-1",           441,       4.10864,       24.1658,            0.,NA,NA,"",       7.98107,       7.95723,   616.489E-03,   786.641E-06
C:/temp/dataset/9/19_9.odb,Step-1,Increment      1: Step Time =    1.000,"PART-1-1",           442,       5.90921,       23.8009,            0.,NA,NA,"",       7.85240,       7.84790,   265.731E-03,   806.659E-06
C:/temp/dataset/9/19_9.odb,Step-1,Increment      1: Step Time =    1.000,"PART-1-1",           443,       6.25965,       24.9450,            0.,NA,NA,"",       8.06967,       8.06779,   173.962E-03,   617.418E-06
C:/temp/dataset/9/19_9.odb,Step-1,Increment      1: Step Time =    1.000,"PART-1-1",           444,   19.2837E-03,       28.6494,            0.,NA,NA,"",       9.02666,       8.92658,       1.34040,   465.758E-06
C:/temp/dataset/9/19_9.odb,Step-1,Increment      1: Step Time =    1.000,"PART-1-1",           445,       2.60045,       28.7372,            0.,NA,NA,"",       8.93150,       8.89320,   826.308E-03,   280.936E-06
C:/temp/dataset/9/19_9.odb,Step-1,Increment      1: Step Time =    1.000,"PART-1-1",           446,          1.25,           30.,            0.,NA,NA,"",       9.23221,       9.17009,       1.06921,   466.621E-06
C:/temp/dataset/9/19_9.odb,Step-1,Increment      1: Step Time =    1.000,"PART-1-1",           447,      -7.67774,       29.0428,            0.,NA,NA,"",       9.58463,       9.15089,       2.85068,   657.684E-06
C:/temp/dataset/9/19_9.odb,Step-1,Increment      1: Step Time =    1.000,"PART-1-1",           448,      -6.68998,       27.9093,            0.,NA,NA,"",       9.30379,       8.90965,       2.67930,   489.478E-06
C:/temp/dataset/9/19_9.odb,Step-1,Increment      1: Step Time =    1.000,"PART-1-1",           449,         -6.25,           30.,            0.,NA,NA,"",       9.65519,       9.31196,       2.55147,   948.383E-06
C:/temp/dataset/9/19_9.odb,Step-1,Increment      1: Step Time =    1.000,"PART-1-1",           450,      -12.1701,       26.6384,            0.,NA,NA,"",       9.54399,       8.76513,       3.77627,   427.752E-06
C:/temp/dataset/9/19_9.odb,Step-1,Increment      1: Step Time =    1.000,"PART-1-1",           451,      -13.7206,       27.8542,            0.,NA,NA,"",       9.90204,       9.03328,       4.05588,   187.844E-06
C:/temp/dataset/9/19_9.odb,Step-1,Increment      1: Step Time =    1.000,"PART-1-1",           452,          -15.,       26.7188,            0.,NA,NA,"",       9.83876,       8.83566,       4.32808,   223.314E-06
C:/temp/dataset/9/19_9.odb,Step-1,Increment      1: Step Time =    1.000,"PART-1-1",           453,        -13.75,           30.,            0.,NA,NA,"",       10.2732,       9.45389,       4.02016,   37.2989E-06
C:/temp/dataset/9/19_9.odb,Step-1,Increment      1: Step Time =    1.000,"PART-1-1",           454,          -15.,       28.9063,            0.,NA,NA,"",       10.2074,       9.26400,       4.28590,   33.4742E-06
C:/temp/dataset/9/19_9.odb,Step-1,Increment      1: Step Time =    1.000,"PART-1-1",           455,      -9.01567,       28.1413,            0.,NA,NA,"",       9.52832,       8.99940,       3.13043,   498.344E-06
C:/temp/dataset/9/19_9.odb,Step-1,Increment      1: Step Time =    1.000,"PART-1-1",           456,         -8.75,           30.,            0.,NA,NA,"",       9.84057,       9.35860,       3.04195,   662.980E-06
C:/temp/dataset/9/19_9.odb,Step-1,Increment      1: Step Time =    1.000,"PART-1-1",           457,      -10.9923,       18.6369,            0.,NA,NA,"",       8.07616,       7.17926,       3.69900,   657.471E-06
C:/temp/dataset/9/19_9.odb,Step-1,Increment      1: Step Time =    1.000,"PART-1-1",           458,      -11.7056,       20.1347,            0.,NA,NA,"",       8.39812,       7.48426,       3.80976,   439.985E-06
C:/temp/dataset/9/19_9.odb,Step-1,Increment      1: Step Time =    1.000,"PART-1-1",           459,      -12.2405,       18.0722,            0.,NA,NA,"",       8.12083,       7.09387,       3.95284,   588.314E-06
C:/temp/dataset/9/19_9.odb,Step-1,Increment      1: Step Time =    1.000,"PART-1-1",           460,      -11.7153,       17.0060,            0.,NA,NA,"",       7.89154,       6.87708,       3.87069,   735.187E-06
C:/temp/dataset/9/19_9.odb,Step-1,Increment      1: Step Time =    1.000,"PART-1-1",           461,      -12.7888,       16.5007,            0.,NA,NA,"",       7.93468,       6.79981,       4.08922,   598.028E-06
C:/temp/dataset/9/19_9.odb,Step-1,Increment      1: Step Time =    1.000,"PART-1-1",           462,      -13.2634,       13.5986,            0.,NA,NA,"",       7.54837,       6.24725,       4.23672,   693.171E-06
C:/temp/dataset/9/19_9.odb,Step-1,Increment      1: Step Time =    1.000,"PART-1-1",           463,      -14.1733,       14.6682,            0.,NA,NA,"",       7.82163,       6.47143,       4.39301,   335.053E-06
C:/temp/dataset/9/19_9.odb,Step-1,Increment      1: Step Time =    1.000,"PART-1-1",           464,          -15.,       13.5938,            0.,NA,NA,"",       7.76831,       6.27904,       4.57387,   389.938E-06
C:/temp/dataset/9/19_9.odb,Step-1,Increment      1: Step Time =    1.000,"PART-1-1",           465,      -6.04154,       10.1420,            0.,NA,NA,"",       6.16331,       5.44049,       2.89612,   566.354E-06
C:/temp/dataset/9/19_9.odb,Step-1,Increment      1: Step Time =    1.000,"PART-1-1",           466,      -7.09581,       9.10381,            0.,NA,NA,"",       6.11562,       5.25971,       3.12030,   956.788E-06
C:/temp/dataset/9/19_9.odb,Step-1,Increment      1: Step Time =    1.000,"PART-1-1",           467,      -6.05428,       7.71180,            0.,NA,NA,"",       5.77584,       4.96993,       2.94281,   1.11773E-03
C:/temp/dataset/9/19_9.odb,Step-1,Increment      1: Step Time =    1.000,"PART-1-1",           468,           -5.,          8.75,            0.,NA,NA,"",       5.82451,       5.15051,       2.71976,   973.354E-06
C:/temp/dataset/9/19_9.odb,Step-1,Increment      1: Step Time =    1.000,"PART-1-1",           469,      -6.15708,       5.36159,            0.,NA,NA,"",       5.42573,       4.51749,       3.00513,   3.27263E-03
C:/temp/dataset/9/19_9.odb,Step-1,Increment      1: Step Time =    1.000,"PART-1-1",           470,           -5.,          6.25,            0.,NA,NA,"",       5.42307,       4.66597,       2.76376,   2.93813E-03
C:/temp/dataset/9/19_9.odb,Step-1,Increment      1: Step Time =    1.000,"PART-1-1",           471,      -13.8567,       3.63033,            0.,NA,NA,"",       6.27550,       4.31959,       4.55226,   1.39193E-03
C:/temp/dataset/9/19_9.odb,Step-1,Increment      1: Step Time =    1.000,"PART-1-1",           472,      -12.5372,       4.63979,            0.,NA,NA,"",       6.20021,       4.49296,       4.27269,   1.10995E-03
C:/temp/dataset/9/19_9.odb,Step-1,Increment      1: Step Time =    1.000,"PART-1-1",           473,          -15.,       4.84375,            0.,NA,NA,"",       6.59875,       4.57902,       4.75143,   1.76773E-03
C:/temp/dataset/9/19_9.odb,Step-1,Increment      1: Step Time =    1.000,"PART-1-1",           474,      -12.7859,       2.45238,            0.,NA,NA,"",       5.96736,       4.06754,       4.36629,   1.17934E-03
C:/temp/dataset/9/19_9.odb,Step-1,Increment      1: Step Time =    1.000,"PART-1-1",           475,          -15.,       2.65625,            0.,NA,NA,"",       6.34308,       4.14966,       4.79738,   1.39901E-03
C:/temp/dataset/9/19_9.odb,Step-1,Increment      1: Step Time =    1.000,"PART-1-1",           476,      -13.7683,      -2.81830,            0.,NA,NA,"",       5.57194,       3.04626,       4.66549,   224.382E-06
C:/temp/dataset/9/19_9.odb,Step-1,Increment      1: Step Time =    1.000,"PART-1-1",           477,          -15.,      -3.90625,            0.,NA,NA,"",       5.69699,       2.85605,       4.92936,   29.2157E-06
C:/temp/dataset/9/19_9.odb,Step-1,Increment      1: Step Time =    1.000,"PART-1-1",           478,        -13.75,           -5.,            0.,NA,NA,"",       5.38319,       2.61626,       4.70467,   23.3593E-06
C:/temp/dataset/9/19_9.odb,Step-1,Increment      1: Step Time =    1.000,"PART-1-1",           479,      -12.5183,      -3.91205,            0.,NA,NA,"",       5.25343,       2.80629,       4.44109,   224.717E-06
C:/temp/dataset/9/19_9.odb,Step-1,Increment      1: Step Time =    1.000,"PART-1-1",           480,      -3.91473,      -3.03803,            0.,NA,NA,"",       3.92405,       2.80870,       2.74031,   6.24185E-03
C:/temp/dataset/9/19_9.odb,Step-1,Increment      1: Step Time =    1.000,"PART-1-1",           481,      -5.07319,      -4.05962,            0.,NA,NA,"",       3.98139,       2.62727,       2.99148,   5.16730E-03
C:/temp/dataset/9/19_9.odb,Step-1,Increment      1: Step Time =    1.000,"PART-1-1",           482,         -3.75,           -5.,            0.,NA,NA,"",       3.66787,       2.41754,       2.75841,   7.99045E-03
C:/temp/dataset/9/19_9.odb,Step-1,Increment      1: Step Time =    1.000,"PART-1-1",           483,      -2.59153,      -3.97841,            0.,NA,NA,"",       3.60319,       2.59659,       2.49815,   8.46071E-03
C:/temp/dataset/9/19_9.odb,Step-1,Increment      1: Step Time =    1.000,"PART-1-1",           484,   563.435E-03,   72.7383E-03,            0.,NA,NA,"",       3.76292,       3.33981,       1.73357,   10.3187E-03
C:/temp/dataset/9/19_9.odb,Step-1,Increment      1: Step Time =    1.000,"PART-1-1",           485,  -536.863E-03,      -1.25885,            0.,NA,NA,"",       3.68768,       3.10100,       1.99569,   10.4140E-03
C:/temp/dataset/9/19_9.odb,Step-1,Increment      1: Step Time =    1.000,"PART-1-1",           486,       7.06616,      -9.87010,            0.,NA,NA,"",       1.53837,       1.47966,   420.938E-03,   25.7544E-03
C:/temp/dataset/9/19_9.odb,Step-1,Increment      1: Step Time =    1.000,"PART-1-1",           487,       6.02487,      -8.97716,            0.,NA,NA,"",       1.72863,       1.62950,   576.978E-03,   32.8351E-03
C:/temp/dataset/9/19_9.odb,Step-1,Increment      1: Step Time =    1.000,"PART-1-1",           488,            5.,      -10.2083,            0.,NA,NA,"",       1.63276,       1.48068,   688.089E-03,   39.1873E-03
C:/temp/dataset/9/19_9.odb,Step-1,Increment      1: Step Time =    1.000,"PART-1-1",           489,       13.0743,      -11.4048,            0.,NA,NA,"",       1.26439,       1.21290,  -357.147E-03,   16.6385E-03
C:/temp/dataset/9/19_9.odb,Step-1,Increment      1: Step Time =    1.000,"PART-1-1",           490,       14.0423,      -12.5586,            0.,NA,NA,"",       1.16327,       1.07356,  -447.956E-03,   23.8462E-03
C:/temp/dataset/9/19_9.odb,Step-1,Increment      1: Step Time =    1.000,"PART-1-1",           491,           15.,        -11.25,            0.,NA,NA,"",       1.37935,       1.23693,  -610.428E-03,   30.5429E-03
C:/temp/dataset/9/19_9.odb,Step-1,Increment      1: Step Time =    1.000,"PART-1-1",           492,       14.0319,      -10.0962,            0.,NA,NA,"",       1.47703,       1.38297,  -518.668E-03,   23.3258E-03
C:/temp/dataset/9/19_9.odb,Step-1,Increment      1: Step Time =    1.000,"PART-1-1",           493,       7.09943,      -16.3632,            0.,NA,NA,"",   772.581E-03,   706.959E-03,   311.594E-03,   26.2976E-03
C:/temp/dataset/9/19_9.odb,Step-1,Increment      1: Step Time =    1.000,"PART-1-1",           494,            5.,      -16.4583,            0.,NA,NA,"",   894.603E-03,   738.365E-03,   505.104E-03,   41.2635E-03
C:/temp/dataset/9/19_9.odb,Step-1,Increment      1: Step Time =    1.000,"PART-1-1",           495,       13.0966,      -13.8278,            0.,NA,NA,"",   975.514E-03,   926.355E-03,  -305.767E-03,   17.1642E-03
C:/temp/dataset/9/19_9.odb,Step-1,Increment      1: Step Time =    1.000,"PART-1-1",           496,       14.0543,      -15.0192,            0.,NA,NA,"",   888.514E-03,   802.798E-03,  -380.753E-03,   24.3637E-03
C:/temp/dataset/9/19_9.odb,Step-1,Increment      1: Step Time =    1.000,"PART-1-1",           497,           15.,        -13.75,            0.,NA,NA,"",       1.07899,   943.525E-03,  -523.434E-03,   31.0439E-03
C:/temp/dataset/9/19_9.odb,Step-1,Increment      1: Step Time =    1.000,"PART-1-1",           498,       13.0974,      -18.6352,            0.,NA,NA,"",   512.069E-03,   468.104E-03,  -207.589E-03,   18.0483E-03
C:/temp/dataset/9/19_9.odb,Step-1,Increment      1: Step Time =    1.000,"PART-1-1",           499,       14.0421,      -19.9133,            0.,NA,NA,"",   453.919E-03,   378.085E-03,  -251.184E-03,   25.4871E-03
C:/temp/dataset/9/19_9.odb,Step-1,Increment      1: Step Time =    1.000,"PART-1-1",           500,           15.,        -18.75,            0.,NA,NA,"",   594.739E-03,   474.539E-03,  -358.507E-03,   32.3625E-03
C:/temp/dataset/9/19_9.odb,Step-1,Increment      1: Step Time =    1.000,"PART-1-1",           501,       14.0553,      -17.4719,            0.,NA,NA,"",   652.155E-03,   570.862E-03,  -315.313E-03,   24.9173E-03
C:/temp/dataset/9/19_9.odb,Step-1,Increment      1: Step Time =    1.000,"PART-1-1",           502,       7.12541,      -22.7005,            0.,NA,NA,"",   281.214E-03,   219.514E-03,   175.770E-03,   27.5132E-03
C:/temp/dataset/9/19_9.odb,Step-1,Increment      1: Step Time =    1.000,"PART-1-1",           503,       6.04628,      -21.6612,            0.,NA,NA,"",   397.065E-03,   297.525E-03,   262.943E-03,   35.2312E-03
C:/temp/dataset/9/19_9.odb,Step-1,Increment      1: Step Time =    1.000,"PART-1-1",           504,            5.,      -22.7083,            0.,NA,NA,"",   383.480E-03,   255.424E-03,   286.034E-03,   43.3565E-03
C:/temp/dataset/9/19_9.odb,Step-1,Increment      1: Step Time =    1.000,"PART-1-1",           505,       6.07914,      -23.7476,            0.,NA,NA,"",   268.603E-03,   181.568E-03,   197.941E-03,   35.6182E-03
C:/temp/dataset/9/19_9.odb,Step-1,Increment      1: Step Time =    1.000,"PART-1-1",           506,       6.22304,      -27.8948,            0.,NA,NA,"",   72.3687E-03,   37.1191E-03,   62.1240E-03,   36.2947E-03
C:/temp/dataset/9/19_9.odb,Step-1,Increment      1: Step Time =    1.000,"PART-1-1",           507,            5.,      -28.9583,            0.,NA,NA,"",   55.6158E-03,   35.8090E-03,   42.5539E-03,   46.5633E-03
C:/temp/dataset/9/19_9.odb,Step-1,Increment      1: Step Time =    1.000,"PART-1-1",           508,          6.25,          -30.,            0.,NA,NA,"",            0.,  -1.14984E-39,   54.7912E-39,   34.1333E-03
C:/temp/dataset/9/19_9.odb,Step-1,Increment      1: Step Time =    1.000,"PART-1-1",           509,       9.78444,      -26.6535,            0.,NA,NA,"",   38.5488E-03,   34.2411E-03,   17.7074E-03,   7.47853E-03
C:/temp/dataset/9/19_9.odb,Step-1,Increment      1: Step Time =    1.000,"PART-1-1",           510,       8.47427,      -25.6871,            0.,NA,NA,"",   94.6360E-03,   71.1494E-03,   62.3998E-03,   18.1126E-03
C:/temp/dataset/9/19_9.odb,Step-1,Increment      1: Step Time =    1.000,"PART-1-1",           511,       7.37694,      -26.8334,            0.,NA,NA,"",   83.9233E-03,   47.9492E-03,   68.8767E-03,   26.7366E-03
C:/temp/dataset/9/19_9.odb,Step-1,Increment      1: Step Time =    1.000,"PART-1-1",           512,       13.7223,      -27.5034,            0.,NA,NA,"",   60.8343E-03,   29.0986E-03,  -53.4236E-03,   26.2053E-03
C:/temp/dataset/9/19_9.odb,Step-1,Increment      1: Step Time =    1.000,"PART-1-1",           513,       12.4723,      -28.7534,            0.,NA,NA,"",   14.0685E-03,   639.084E-06,  -14.0539E-03,   13.9534E-03
C:/temp/dataset/9/19_9.odb,Step-1,Increment      1: Step Time =    1.000,"PART-1-1",           514,         13.75,          -30.,            0.,NA,NA,"",            0.,  -4.34346E-39,  -38.2092E-39,   23.5221E-03
C:/temp/dataset/9/19_9.odb,Step-1,Increment      1: Step Time =    1.000,"PART-1-1",           515,           15.,        -28.75,            0.,NA,NA,"",   46.8380E-03,   27.0464E-03,  -38.2399E-03,   35.2938E-03
C:/temp/dataset/9/19_9.odb,Step-1,Increment      1: Step Time =    1.000,"PART-1-1",           516,         11.25,          -30.,            0.,NA,NA,"",            0.,  -6.48360E-39,  -8.91919E-39,   6.78772E-03
C:/temp/dataset/9/19_9.odb,Step-1,Increment      1: Step Time =    1.000,"PART-1-1",           517,       11.1864,      -27.6167,            0.,NA,NA,"",   15.0498E-03,   12.0202E-03,  -9.05590E-03,   5.64690E-03
C:/temp/dataset/9/19_9.odb,Step-1,Increment      1: Step Time =    1.000,"PART-1-1",           518,       9.10684,      -20.5966,            0.,NA,NA,"",   341.500E-03,   328.504E-03,   93.3135E-03,   12.2430E-03
C:/temp/dataset/9/19_9.odb,Step-1,Increment      1: Step Time =    1.000,"PART-1-1",           519,       11.0993,      -20.6881,            0.,NA,NA,"",   315.226E-03,   313.053E-03,  -36.9452E-03,   3.53543E-03
C:/temp/dataset/9/19_9.odb,Step-1,Increment      1: Step Time =    1.000,"PART-1-1",           520,       7.08739,      -20.6083,            0.,NA,NA,"",   416.732E-03,   350.514E-03,   225.399E-03,   27.2704E-03
C:/temp/dataset/9/19_9.odb,Step-1,Increment      1: Step Time =    1.000,"PART-1-1",           521,            5.,       -20.625,            0.,NA,NA,"",   529.790E-03,   386.335E-03,   362.522E-03,   42.6600E-03
C:/temp/dataset/9/19_9.odb,Step-1,Increment      1: Step Time =    1.000,"PART-1-1",           522,       9.14341,      -14.0595,            0.,NA,NA,"",   930.180E-03,   920.795E-03,   131.804E-03,   11.4806E-03
C:/temp/dataset/9/19_9.odb,Step-1,Increment      1: Step Time =    1.000,"PART-1-1",           523,       10.1582,      -15.1431,            0.,NA,NA,"",   794.435E-03,   794.078E-03,   23.8406E-03,   4.31447E-03
C:/temp/dataset/9/19_9.odb,Step-1,Increment      1: Step Time =    1.000,"PART-1-1",           524,       11.1509,      -13.9343,            0.,NA,NA,"",   922.412E-03,   918.218E-03,  -87.8548E-03,   3.24819E-03
C:/temp/dataset/9/19_9.odb,Step-1,Increment      1: Step Time =    1.000,"PART-1-1",           525,       10.1361,      -12.8507,            0.,NA,NA,"",       1.05034,       1.05014,   20.5835E-03,   4.40262E-03
C:/temp/dataset/9/19_9.odb,Step-1,Increment      1: Step Time =    1.000,"PART-1-1",           526,       9.12292,      -11.8044,            0.,NA,NA,"",       1.19775,       1.18939,   141.310E-03,   11.3409E-03
C:/temp/dataset/9/19_9.odb,Step-1,Increment      1: Step Time =    1.000,"PART-1-1",           527,       11.1213,      -11.5948,            0.,NA,NA,"",       1.20103,       1.19624,  -107.116E-03,   3.04238E-03
C:/temp/dataset/9/19_9.odb,Step-1,Increment      1: Step Time =    1.000,"PART-1-1",           528,       10.1081,      -10.5485,            0.,NA,NA,"",       1.34082,       1.34075,   14.4635E-03,   4.29658E-03
C:/temp/dataset/9/19_9.odb,Step-1,Increment      1: Step Time =    1.000,"PART-1-1",           529,       13.8169,  -7.21098E-03,            0.,NA,NA,"",       3.14701,       3.04714,  -786.512E-03,   10.1747E-03
C:/temp/dataset/9/19_9.odb,Step-1,Increment      1: Step Time =    1.000,"PART-1-1",           530,           15.,          1.25,            0.,NA,NA,"",       3.43081,       3.26855,      -1.04261,   9.95526E-03
C:/temp/dataset/9/19_9.odb,Step-1,Increment      1: Step Time =    1.000,"PART-1-1",           531,       13.9075,       2.57030,            0.,NA,NA,"",       3.64118,       3.53610,  -868.448E-03,   6.21419E-03
C:/temp/dataset/9/19_9.odb,Step-1,Increment      1: Step Time =    1.000,"PART-1-1",           532,       10.8083,      -4.35361,            0.,NA,NA,"",       2.29227,       2.28640,  -163.961E-03,   8.85706E-03
C:/temp/dataset/9/19_9.odb,Step-1,Increment      1: Step Time =    1.000,"PART-1-1",           533,       9.68548,      -3.40243,            0.,NA,NA,"",       2.46992,       2.46991,   6.27188E-03,   9.99387E-03
C:/temp/dataset/9/19_9.odb,Step-1,Increment      1: Step Time =    1.000,"PART-1-1",           534,       8.81587,      -4.92348,            0.,NA,NA,"",       2.21726,       2.21084,   168.681E-03,   9.03208E-03
C:/temp/dataset/9/19_9.odb,Step-1,Increment      1: Step Time =    1.000,"PART-1-1",           535,       9.93870,      -5.87466,            0.,NA,NA,"",       2.03665,       2.03665,  -576.072E-06,   5.52781E-03
C:/temp/dataset/9/19_9.odb,Step-1,Increment      1: Step Time =    1.000,"PART-1-1",           536,       10.7940,       8.23694,            0.,NA,NA,"",       4.69983,       4.68322,  -394.708E-03,   1.17279E-03
C:/temp/dataset/9/19_9.odb,Step-1,Increment      1: Step Time =    1.000,"PART-1-1",           537,       11.2752,       6.42654,            0.,NA,NA,"",       4.34809,       4.32454,  -451.885E-03,   1.95848E-03
C:/temp/dataset/9/19_9.odb,Step-1,Increment      1: Step Time =    1.000,"PART-1-1",           538,       12.8821,       8.67106,            0.,NA,NA,"",       4.79709,       4.72901,  -805.344E-03,   2.12703E-03
C:/temp/dataset/9/19_9.odb,Step-1,Increment      1: Step Time =    1.000,"PART-1-1",           539,       14.0355,       7.50951,            0.,NA,NA,"",       4.59497,       4.48405,      -1.00351,   2.88681E-03
C:/temp/dataset/9/19_9.odb,Step-1,Increment      1: Step Time =    1.000,"PART-1-1",           540,           15.,          8.75,            0.,NA,NA,"",       4.86150,       4.70668,      -1.21709,   3.22603E-03
C:/temp/dataset/9/19_9.odb,Step-1,Increment      1: Step Time =    1.000,"PART-1-1",           541,       13.8467,       9.91155,            0.,NA,NA,"",       5.05565,       4.95206,      -1.01814,   2.39001E-03
C:/temp/dataset/9/19_9.odb,Step-1,Increment      1: Step Time =    1.000,"PART-1-1",           542,       12.4850,       16.2122,            0.,NA,NA,"",       6.27283,       6.21033,  -883.247E-03,   1.17326E-03
C:/temp/dataset/9/19_9.odb,Step-1,Increment      1: Step Time =    1.000,"PART-1-1",           543,       13.7431,       14.9727,            0.,NA,NA,"",       6.04422,       5.94242,      -1.10467,   1.65316E-03
C:/temp/dataset/9/19_9.odb,Step-1,Increment      1: Step Time =    1.000,"PART-1-1",           544,           15.,         16.25,            0.,NA,NA,"",       6.32245,       6.17018,      -1.37922,   1.90774E-03
C:/temp/dataset/9/19_9.odb,Step-1,Increment      1: Step Time =    1.000,"PART-1-1",           545,       13.7419,       17.4895,            0.,NA,NA,"",       6.54172,       6.43859,      -1.15704,   1.25558E-03
C:/temp/dataset/9/19_9.odb,Step-1,Increment      1: Step Time =    1.000,"PART-1-1",           546,       12.4991,       13.6576,            0.,NA,NA,"",       5.76803,       5.70747,  -833.636E-03,   1.37354E-03
C:/temp/dataset/9/19_9.odb,Step-1,Increment      1: Step Time =    1.000,"PART-1-1",           547,       13.7559,       12.4349,            0.,NA,NA,"",       5.54590,       5.44486,      -1.05379,   2.02285E-03
C:/temp/dataset/9/19_9.odb,Step-1,Increment      1: Step Time =    1.000,"PART-1-1",           548,           15.,         13.75,            0.,NA,NA,"",       5.83185,       5.67921,      -1.32553,   2.42753E-03
C:/temp/dataset/9/19_9.odb,Step-1,Increment      1: Step Time =    1.000,"PART-1-1",           549,           15.,         21.25,            0.,NA,NA,"",       7.31127,       7.15906,      -1.48409,   794.710E-06
C:/temp/dataset/9/19_9.odb,Step-1,Increment      1: Step Time =    1.000,"PART-1-1",           550,       13.6875,       22.5045,            0.,NA,NA,"",       7.53809,       7.43384,      -1.24934,   490.895E-06
C:/temp/dataset/9/19_9.odb,Step-1,Increment      1: Step Time =    1.000,"PART-1-1",           551,       12.4125,       21.2511,            0.,NA,NA,"",       7.27510,       7.20993,  -971.530E-03,   745.999E-06
C:/temp/dataset/9/19_9.odb,Step-1,Increment      1: Step Time =    1.000,"PART-1-1",           552,       13.7250,       19.9966,            0.,NA,NA,"",       7.03930,       6.93530,      -1.20555,   850.413E-06
C:/temp/dataset/9/19_9.odb,Step-1,Increment      1: Step Time =    1.000,"PART-1-1",           553,       13.6481,       25.0064,            0.,NA,NA,"",       8.03617,       7.93163,      -1.29202,   234.766E-06
C:/temp/dataset/9/19_9.odb,Step-1,Increment      1: Step Time =    1.000,"PART-1-1",           554,       12.3356,       23.7609,            0.,NA,NA,"",       7.77562,       7.71016,      -1.00681,   490.142E-06
C:/temp/dataset/9/19_9.odb,Step-1,Increment      1: Step Time =    1.000,"PART-1-1",           555,           15.,         23.75,            0.,NA,NA,"",       7.80770,       7.65531,      -1.53507,   374.942E-06
C:/temp/dataset/9/19_9.odb,Step-1,Increment      1: Step Time =    1.000,"PART-1-1",           556,       13.7112,       27.5077,            0.,NA,NA,"",       8.53535,       8.42717,      -1.35458,   78.5852E-06
C:/temp/dataset/9/19_9.odb,Step-1,Increment      1: Step Time =    1.000,"PART-1-1",           557,           15.,         28.75,            0.,NA,NA,"",       8.80140,       8.64817,      -1.63515,   11.5586E-06
C:/temp/dataset/9/19_9.odb,Step-1,Increment      1: Step Time =    1.000,"PART-1-1",           558,         13.75,           30.,            0.,NA,NA,"",       9.03219,       8.92116,      -1.41191,   11.2928E-06
C:/temp/dataset/9/19_9.odb,Step-1,Increment      1: Step Time =    1.000,"PART-1-1",           559,            5.,      -24.7917,            0.,NA,NA,"",   258.422E-03,   155.080E-03,   206.718E-03,   43.5878E-03
C:/temp/dataset/9/19_9.odb,Step-1,Increment      1: Step Time =    1.000,"PART-1-1",           560,       6.15390,      -25.8136,            0.,NA,NA,"",   162.601E-03,   96.5593E-03,   130.826E-03,   35.6283E-03
C:/temp/dataset/9/19_9.odb,Step-1,Increment      1: Step Time =    1.000,"PART-1-1",           561,       7.23304,      -24.7696,            0.,NA,NA,"",   170.664E-03,   119.040E-03,   122.293E-03,   27.5685E-03
C:/temp/dataset/9/19_9.odb,Step-1,Increment      1: Step Time =    1.000,"PART-1-1",           562,       13.0086,      -21.0119,            0.,NA,NA,"",   334.926E-03,   296.085E-03,  -156.555E-03,   17.8689E-03
C:/temp/dataset/9/19_9.odb,Step-1,Increment      1: Step Time =    1.000,"PART-1-1",           563,       13.9664,      -22.3485,            0.,NA,NA,"",   290.699E-03,   223.915E-03,  -185.387E-03,   25.7220E-03
C:/temp/dataset/9/19_9.odb,Step-1,Increment      1: Step Time =    1.000,"PART-1-1",           564,           15.,        -21.25,            0.,NA,NA,"",   409.373E-03,   300.000E-03,  -278.544E-03,   33.3383E-03
C:/temp/dataset/9/19_9.odb,Step-1,Increment      1: Step Time =    1.000,"PART-1-1",           565,            5.,       -26.875,            0.,NA,NA,"",   152.979E-03,   85.2315E-03,   127.036E-03,   44.3980E-03
C:/temp/dataset/9/19_9.odb,Step-1,Increment      1: Step Time =    1.000,"PART-1-1",           566,       12.9745,      -6.51631,            0.,NA,NA,"",       1.96346,       1.90806,  -463.120E-03,   15.0780E-03
C:/temp/dataset/9/19_9.odb,Step-1,Increment      1: Step Time =    1.000,"PART-1-1",           567,       14.0104,      -7.62731,            0.,NA,NA,"",       1.83106,       1.73296,  -591.288E-03,   22.1893E-03
C:/temp/dataset/9/19_9.odb,Step-1,Increment      1: Step Time =    1.000,"PART-1-1",           568,           15.,         -6.25,            0.,NA,NA,"",       2.10005,       1.94384,  -794.801E-03,   27.0790E-03
C:/temp/dataset/9/19_9.odb,Step-1,Increment      1: Step Time =    1.000,"PART-1-1",           569,       13.9641,      -5.13900,            0.,NA,NA,"",       2.22756,       2.12690,  -662.052E-03,   19.5249E-03
C:/temp/dataset/9/19_9.odb,Step-1,Increment      1: Step Time =    1.000,"PART-1-1",           570,       11.1649,      -16.2543,            0.,NA,NA,"",   680.610E-03,   676.991E-03,  -70.0909E-03,   3.53905E-03
C:/temp/dataset/9/19_9.odb,Step-1,Increment      1: Step Time =    1.000,"PART-1-1",           571,       9.14831,      -16.2933,            0.,NA,NA,"",   697.294E-03,   686.801E-03,   120.515E-03,   11.5729E-03
C:/temp/dataset/9/19_9.odb,Step-1,Increment      1: Step Time =    1.000,"PART-1-1",           572,            5.,        -8.125,            0.,NA,NA,"",       1.92834,       1.78138,   738.363E-03,   41.0553E-03
C:/temp/dataset/9/19_9.odb,Step-1,Increment      1: Step Time =    1.000,"PART-1-1",           573,       12.8519,      -3.99254,            0.,NA,NA,"",       2.38495,       2.32990,  -509.427E-03,   13.5018E-03
C:/temp/dataset/9/19_9.odb,Step-1,Increment      1: Step Time =    1.000,"PART-1-1",           574,           15.,         -3.75,            0.,NA,NA,"",       2.51813,       2.35697,  -886.364E-03,   22.2347E-03
C:/temp/dataset/9/19_9.odb,Step-1,Increment      1: Step Time =    1.000,"PART-1-1",           575,       13.8878,      -2.60354,            0.,NA,NA,"",       2.66803,       2.56724,  -726.404E-03,   15.1054E-03
C:/temp/dataset/9/19_9.odb,Step-1,Increment      1: Step Time =    1.000,"PART-1-1",           576,       13.0423,      -8.97351,            0.,NA,NA,"",       1.59244,       1.53854,  -410.829E-03,   16.0450E-03
C:/temp/dataset/9/19_9.odb,Step-1,Increment      1: Step Time =    1.000,"PART-1-1",           577,           15.,         -8.75,            0.,NA,NA,"",       1.71957,       1.57005,  -701.319E-03,   29.5831E-03
C:/temp/dataset/9/19_9.odb,Step-1,Increment      1: Step Time =    1.000,"PART-1-1",           578,       8.09346,      -21.6433,            0.,NA,NA,"",   305.205E-03,   269.489E-03,   143.270E-03,   19.9461E-03
C:/temp/dataset/9/19_9.odb,Step-1,Increment      1: Step Time =    1.000,"PART-1-1",           579,       8.17438,      -23.6967,            0.,NA,NA,"",   187.997E-03,   155.576E-03,   105.542E-03,   19.8236E-03
C:/temp/dataset/9/19_9.odb,Step-1,Increment      1: Step Time =    1.000,"PART-1-1",           580,       8.10077,      -19.5616,            0.,NA,NA,"",   449.026E-03,   413.652E-03,   174.688E-03,   19.5194E-03
C:/temp/dataset/9/19_9.odb,Step-1,Increment      1: Step Time =    1.000,"PART-1-1",           581,       8.11824,      -17.4194,            0.,NA,NA,"",   626.267E-03,   592.449E-03,   203.014E-03,   19.0934E-03
C:/temp/dataset/9/19_9.odb,Step-1,Increment      1: Step Time =    1.000,"PART-1-1",           582,          -15.,       22.3438,            0.,NA,NA,"",       9.11718,       7.97929,       4.41065,   743.425E-06
C:/temp/dataset/9/19_9.odb,Step-1,Increment      1: Step Time =    1.000,"PART-1-1",           583,      -12.5647,       21.7347,            0.,NA,NA,"",       8.75329,       7.81288,       3.94703,   369.606E-06
C:/temp/dataset/9/19_9.odb,Step-1,Increment      1: Step Time =    1.000,"PART-1-1",           584,      -4.95050,       22.5220,            0.,NA,NA,"",       8.19053,       7.81737,       2.44406,   833.020E-06
C:/temp/dataset/9/19_9.odb,Step-1,Increment      1: Step Time =    1.000,"PART-1-1",           585,      -3.93081,       23.1260,            0.,NA,NA,"",       8.22397,       7.91557,       2.23102,   793.461E-06
C:/temp/dataset/9/19_9.odb,Step-1,Increment      1: Step Time =    1.000,"PART-1-1",           586,      -4.22857,       24.4244,            0.,NA,NA,"",       8.48455,       8.17686,       2.26417,   467.103E-06
C:/temp/dataset/9/19_9.odb,Step-1,Increment      1: Step Time =    1.000,"PART-1-1",           587,      -5.24826,       23.8204,            0.,NA,NA,"",       8.44938,       8.07818,       2.47690,   501.683E-06
C:/temp/dataset/9/19_9.odb,Step-1,Increment      1: Step Time =    1.000,"PART-1-1",           588,      -10.1110,       10.4874,            0.,NA,NA,"",       6.69002,       5.58545,       3.68226,   978.860E-06
C:/temp/dataset/9/19_9.odb,Step-1,Increment      1: Step Time =    1.000,"PART-1-1",           589,      -9.15687,       11.6944,            0.,NA,NA,"",       6.76110,       5.80082,       3.47319,   952.823E-06
C:/temp/dataset/9/19_9.odb,Step-1,Increment      1: Step Time =    1.000,"PART-1-1",           590,      -11.1597,       11.6149,            0.,NA,NA,"",       6.98959,       5.82362,       3.86520,   1.01293E-03
C:/temp/dataset/9/19_9.odb,Step-1,Increment      1: Step Time =    1.000,"PART-1-1",           591,      -6.07359,       12.6401,            0.,NA,NA,"",       6.57716,       5.92489,       2.85563,   320.988E-06
C:/temp/dataset/9/19_9.odb,Step-1,Increment      1: Step Time =    1.000,"PART-1-1",           592,      -7.11512,       11.5321,            0.,NA,NA,"",       6.50503,       5.73034,       3.07874,   630.544E-06
C:/temp/dataset/9/19_9.odb,Step-1,Increment      1: Step Time =    1.000,"PART-1-1",           593,           -5.,         11.25,            0.,NA,NA,"",       6.23728,       5.63524,       2.67354,   387.241E-06
C:/temp/dataset/9/19_9.odb,Step-1,Increment      1: Step Time =    1.000,"PART-1-1",           594,      -10.0988,       8.37440,            0.,NA,NA,"",       6.37419,       5.17570,       3.72055,   1.02867E-03
C:/temp/dataset/9/19_9.odb,Step-1,Increment      1: Step Time =    1.000,"PART-1-1",           595,      -9.11481,       9.38066,            0.,NA,NA,"",       6.39979,       5.35207,       3.50894,   1.02588E-03
C:/temp/dataset/9/19_9.odb,Step-1,Increment      1: Step Time =    1.000,"PART-1-1",           596,      -11.0949,       9.48111,            0.,NA,NA,"",       6.66491,       5.40922,       3.89377,   1.01194E-03
C:/temp/dataset/9/19_9.odb,Step-1,Increment      1: Step Time =    1.000,"PART-1-1",           597,      -11.8142,       15.6555,            0.,NA,NA,"",       7.68915,       6.61753,       3.91553,   824.551E-06
C:/temp/dataset/9/19_9.odb,Step-1,Increment      1: Step Time =    1.000,"PART-1-1",           598,      -13.4062,       15.6218,            0.,NA,NA,"",       7.87192,       6.64144,       4.22591,   519.316E-06
C:/temp/dataset/9/19_9.odb,Step-1,Increment      1: Step Time =    1.000,"PART-1-1",           599,      -12.4316,       14.7766,            0.,NA,NA,"",       7.62527,       6.45930,       4.05242,   756.770E-06
C:/temp/dataset/9/19_9.odb,Step-1,Increment      1: Step Time =    1.000,"PART-1-1",           600,      -5.72199,       20.2132,            0.,NA,NA,"",       7.83905,       7.38077,       2.64100,   2.08142E-03
C:/temp/dataset/9/19_9.odb,Step-1,Increment      1: Step Time =    1.000,"PART-1-1",           601,           -5.,         18.75,            0.,NA,NA,"",       7.52360,       7.08565,       2.52945,   2.02087E-03
C:/temp/dataset/9/19_9.odb,Step-1,Increment      1: Step Time =    1.000,"PART-1-1",           602,          -15.,       15.7813,            0.,NA,NA,"",       8.09115,       6.70266,       4.53222,   126.180E-06
C:/temp/dataset/9/19_9.odb,Step-1,Increment      1: Step Time =    1.000,"PART-1-1",           603,      -10.4105,       16.7429,            0.,NA,NA,"",       7.70511,       6.80102,       3.62144,   884.132E-06
C:/temp/dataset/9/19_9.odb,Step-1,Increment      1: Step Time =    1.000,"PART-1-1",           604,      -12.1928,       12.6381,            0.,NA,NA,"",       7.27136,       6.04116,       4.04685,   892.985E-06
C:/temp/dataset/9/19_9.odb,Step-1,Increment      1: Step Time =    1.000,"PART-1-1",           605,      -12.0987,       10.4443,            0.,NA,NA,"",       6.93535,       5.61484,       4.07096,   984.268E-06
C:/temp/dataset/9/19_9.odb,Step-1,Increment      1: Step Time =    1.000,"PART-1-1",           606,      -7.50325,       4.80693,            0.,NA,NA,"",       5.51550,       4.43310,       3.28152,   1.80230E-03
C:/temp/dataset/9/19_9.odb,Step-1,Increment      1: Step Time =    1.000,"PART-1-1",           607,      -9.63824,       5.46172,            0.,NA,NA,"",       5.89573,       4.60000,       3.68777,   1.13596E-03
C:/temp/dataset/9/19_9.odb,Step-1,Increment      1: Step Time =    1.000,"PART-1-1",           608,      -8.81234,       4.25317,            0.,NA,NA,"",       5.61338,       4.34812,       3.55020,   1.58979E-03
C:/temp/dataset/9/19_9.odb,Step-1,Increment      1: Step Time =    1.000,"PART-1-1",           609,          -15.,      -1.71875,            0.,NA,NA,"",       5.88915,       3.28714,       4.88639,   241.367E-06
C:/temp/dataset/9/19_9.odb,Step-1,Increment      1: Step Time =    1.000,"PART-1-1",           610,      -12.5835,      -1.75493,            0.,NA,NA,"",       5.46925,       3.23288,       4.41149,   698.179E-06
C:/temp/dataset/9/19_9.odb,Step-1,Increment      1: Step Time =    1.000,"PART-1-1",           611,        -11.25,           -5.,            0.,NA,NA,"",       4.93366,       2.56735,       4.21304,   232.130E-06
C:/temp/dataset/9/19_9.odb,Step-1,Increment      1: Step Time =    1.000,"PART-1-1",           612,      -10.0144,      -3.91217,            0.,NA,NA,"",       4.81649,       2.75674,       3.94955,   634.812E-06
C:/temp/dataset/9/19_9.odb,Step-1,Increment      1: Step Time =    1.000,"PART-1-1",           613,      -11.2827,      -2.82422,            0.,NA,NA,"",       5.14069,       2.99631,       4.17718,   742.674E-06
C:/temp/dataset/9/19_9.odb,Step-1,Increment      1: Step Time =    1.000,"PART-1-1",           614,         -8.75,           -5.,            0.,NA,NA,"",       4.49411,       2.51779,       3.72261,   670.812E-06
C:/temp/dataset/9/19_9.odb,Step-1,Increment      1: Step Time =    1.000,"PART-1-1",           615,      -7.54904,      -4.01671,            0.,NA,NA,"",       4.38768,       2.68677,       3.46886,   1.49416E-03
C:/temp/dataset/9/19_9.odb,Step-1,Increment      1: Step Time =    1.000,"PART-1-1",           616,      -8.81345,      -2.92887,            0.,NA,NA,"",       4.71368,       2.92639,       3.69527,   1.29454E-03
C:/temp/dataset/9/19_9.odb,Step-1,Increment      1: Step Time =    1.000,"PART-1-1",           617,  -969.738E-03,       22.2544,            0.,NA,NA,"",       7.86081,       7.68308,       1.66212,   1.11425E-03
C:/temp/dataset/9/19_9.odb,Step-1,Increment      1: Step Time =    1.000,"PART-1-1",           618,      -2.31964,       21.1016,            0.,NA,NA,"",       7.73387,       7.48354,       1.95175,   1.45262E-03
C:/temp/dataset/9/19_9.odb,Step-1,Increment      1: Step Time =    1.000,"PART-1-1",           619,         -1.25,           20.,            0.,NA,NA,"",       7.45345,       7.24244,       1.76095,   1.60414E-03
C:/temp/dataset/9/19_9.odb,Step-1,Increment      1: Step Time =    1.000,"PART-1-1",           620,         -1.25,           30.,            0.,NA,NA,"",       9.35009,       9.21821,       1.56489,   798.611E-06
C:/temp/dataset/9/19_9.odb,Step-1,Increment      1: Step Time =    1.000,"PART-1-1",           621,      -1.44357,       27.1449,            0.,NA,NA,"",       8.81572,       8.65799,       1.66016,   439.772E-06
C:/temp/dataset/9/19_9.odb,Step-1,Increment      1: Step Time =    1.000,"PART-1-1",           622,      -4.58492,       21.1383,            0.,NA,NA,"",       7.91125,       7.53856,       2.39959,   1.96461E-03
C:/temp/dataset/9/19_9.odb,Step-1,Increment      1: Step Time =    1.000,"PART-1-1",           623,         -3.75,           20.,            0.,NA,NA,"",       7.63710,       7.29639,       2.25565,   2.67595E-03
C:/temp/dataset/9/19_9.odb,Step-1,Increment      1: Step Time =    1.000,"PART-1-1",           624,      -3.15456,       22.2398,            0.,NA,NA,"",       8.00460,       7.72555,       2.09510,   1.05146E-03
C:/temp/dataset/9/19_9.odb,Step-1,Increment      1: Step Time =    1.000,"PART-1-1",           625,      -11.2479,       22.4027,            0.,NA,NA,"",       8.73011,       7.91772,       3.67756,   403.785E-06
C:/temp/dataset/9/19_9.odb,Step-1,Increment      1: Step Time =    1.000,"PART-1-1",           626,      -10.3888,       20.8027,            0.,NA,NA,"",       8.37390,       7.58866,       3.54041,   434.066E-06
C:/temp/dataset/9/19_9.odb,Step-1,Increment      1: Step Time =    1.000,"PART-1-1",           627,       9.41561,      -24.6142,            0.,NA,NA,"",   113.343E-03,   104.759E-03,   43.2673E-03,   10.3934E-03
C:/temp/dataset/9/19_9.odb,Step-1,Increment      1: Step Time =    1.000,"PART-1-1",           628,           15.,        -16.25,            0.,NA,NA,"",   817.649E-03,   689.295E-03,  -439.798E-03,   31.6160E-03
C:/temp/dataset/9/19_9.odb,Step-1,Increment      1: Step Time =    1.000,"PART-1-1",           629,       13.1096,      -16.2411,            0.,NA,NA,"",   724.811E-03,   677.957E-03,  -256.369E-03,   17.6620E-03
C:/temp/dataset/9/19_9.odb,Step-1,Increment      1: Step Time =    1.000,"PART-1-1",           630,           15.,          3.75,            0.,NA,NA,"",       3.90450,       3.74475,      -1.10543,   5.91746E-03
C:/temp/dataset/9/19_9.odb,Step-1,Increment      1: Step Time =    1.000,"PART-1-1",           631,       14.0093,       5.06690,            0.,NA,NA,"",       4.12372,       4.01392,  -945.263E-03,   3.84694E-03
C:/temp/dataset/9/19_9.odb,Step-1,Increment      1: Step Time =    1.000,"PART-1-1",           632,       12.9168,       3.88721,            0.,NA,NA,"",       3.87110,       3.80517,  -711.412E-03,   4.74054E-03
C:/temp/dataset/9/19_9.odb,Step-1,Increment      1: Step Time =    1.000,"PART-1-1",           633,       12.6026,       11.0965,            0.,NA,NA,"",       5.26629,       5.20498,  -801.226E-03,   1.66295E-03
C:/temp/dataset/9/19_9.odb,Step-1,Increment      1: Step Time =    1.000,"PART-1-1",           634,           15.,         11.25,            0.,NA,NA,"",       5.34477,       5.19135,      -1.27140,   2.83909E-03
C:/temp/dataset/9/19_9.odb,Step-1,Increment      1: Step Time =    1.000,"PART-1-1",           635,       12.4669,       18.7361,            0.,NA,NA,"",       6.77414,       6.70982,  -931.238E-03,   977.387E-06
C:/temp/dataset/9/19_9.odb,Step-1,Increment      1: Step Time =    1.000,"PART-1-1",           636,           15.,         18.75,            0.,NA,NA,"",       6.81589,       6.66373,      -1.43214,   1.33617E-03
C:/temp/dataset/9/19_9.odb,Step-1,Increment      1: Step Time =    1.000,"PART-1-1",           637,           15.,         26.25,            0.,NA,NA,"",       8.30453,       8.15181,      -1.58532,   114.479E-06
C:/temp/dataset/9/19_9.odb,Step-1,Increment      1: Step Time =    1.000,"PART-1-1",           638,          8.75,           30.,            0.,NA,NA,"",       9.03070,       9.02093,  -419.886E-03,   162.935E-06
C:/temp/dataset/9/19_9.odb,Step-1,Increment      1: Step Time =    1.000,"PART-1-1",           639,       8.74802,       27.8391,            0.,NA,NA,"",       8.60029,       8.59203,  -376.686E-03,   184.531E-06
C:/temp/dataset/9/19_9.odb,Step-1,Increment      1: Step Time =    1.000,"PART-1-1",           640,       11.0691,       22.4572,            0.,NA,NA,"",       7.51171,       7.47615,  -730.085E-03,   657.996E-06
C:/temp/dataset/9/19_9.odb,Step-1,Increment      1: Step Time =    1.000,"PART-1-1",           641,       11.1947,       19.9658,            0.,NA,NA,"",       7.01413,       6.97859,  -705.161E-03,   871.309E-06
C:/temp/dataset/9/19_9.odb,Step-1,Increment      1: Step Time =    1.000,"PART-1-1",           642,          3.75,           30.,            0.,NA,NA,"",       9.13893,       9.12096,   572.802E-03,   123.851E-06
C:/temp/dataset/9/19_9.odb,Step-1,Increment      1: Step Time =    1.000,"PART-1-1",           643,       6.12801,       21.9878,            0.,NA,NA,"",       7.48754,       7.48312,   257.063E-03,   1.17555E-03
C:/temp/dataset/9/19_9.odb,Step-1,Increment      1: Step Time =    1.000,"PART-1-1",           644,       7.06684,       23.0702,            0.,NA,NA,"",       7.67910,       7.67894,   50.0543E-03,   911.957E-06
C:/temp/dataset/9/19_9.odb,Step-1,Increment      1: Step Time =    1.000,"PART-1-1",           645,       4.97038,       22.7185,            0.,NA,NA,"",       7.66700,       7.65238,   473.158E-03,   1.00782E-03
C:/temp/dataset/9/19_9.odb,Step-1,Increment      1: Step Time =    1.000,"PART-1-1",           646,          3.75,           20.,            0.,NA,NA,"",       7.17845,       7.13714,   769.002E-03,   1.09533E-03
C:/temp/dataset/9/19_9.odb,Step-1,Increment      1: Step Time =    1.000,"PART-1-1",           647,       4.96897,       20.9583,            0.,NA,NA,"",       7.32017,       7.30259,   507.024E-03,   1.31449E-03
C:/temp/dataset/9/19_9.odb,Step-1,Increment      1: Step Time =    1.000,"PART-1-1",           648,       3.78616,       22.0655,            0.,NA,NA,"",       7.58168,       7.54728,   721.343E-03,   924.147E-06
C:/temp/dataset/9/19_9.odb,Step-1,Increment      1: Step Time =    1.000,"PART-1-1",           649,           -5.,         13.75,            0.,NA,NA,"",       6.65923,       6.11932,       2.62664,   67.8511E-06
C:/temp/dataset/9/19_9.odb,Step-1,Increment      1: Step Time =    1.000,"PART-1-1",           650,      -7.15256,       14.0792,            0.,NA,NA,"",       6.92561,       6.22377,       3.03788,   656.428E-06
C:/temp/dataset/9/19_9.odb,Step-1,Increment      1: Step Time =    1.000,"PART-1-1",           651,      -9.70164,       19.1500,            0.,NA,NA,"",       8.02706,       7.25370,       3.43766,   777.824E-06
C:/temp/dataset/9/19_9.odb,Step-1,Increment      1: Step Time =    1.000,"PART-1-1",           652,      -9.13060,       21.5024,            0.,NA,NA,"",       8.37055,       7.70043,       3.28169,   551.045E-06
C:/temp/dataset/9/19_9.odb,Step-1,Increment      1: Step Time =    1.000,"PART-1-1",           653,         -1.25,           -5.,            0.,NA,NA,"",       3.25731,       2.35754,       2.24769,   6.88364E-03
C:/temp/dataset/9/19_9.odb,Step-1,Increment      1: Step Time =    1.000,"PART-1-1",           654,      -1.47244,      -2.77860,            0.,NA,NA,"",       3.59405,       2.81700,       2.23197,   10.0433E-03
C:/temp/dataset/9/19_9.odb,Step-1,Increment      1: Step Time =    1.000,"PART-1-1",           655,      -9.96758,      -1.61086,            0.,NA,NA,"",       5.04768,       3.20995,       3.89555,   1.26375E-03
C:/temp/dataset/9/19_9.odb,Step-1,Increment      1: Step Time =    1.000,"PART-1-1",           656,      -6.37223,      -3.07632,            0.,NA,NA,"",       4.30001,       2.84765,       3.22196,   3.14614E-03
C:/temp/dataset/9/19_9.odb,Step-1,Increment      1: Step Time =    1.000,"PART-1-1",           657,         -6.25,           -5.,            0.,NA,NA,"",       4.06840,       2.46851,       3.23394,   1.40379E-03
C:/temp/dataset/9/19_9.odb,Step-1,Increment      1: Step Time =    1.000,"PART-1-1",           658,         -3.75,            5.,            0.,NA,NA,"",       5.07963,       4.40729,       2.52556,   4.99387E-03
C:/temp/dataset/9/19_9.odb,Step-1,Increment      1: Step Time =    1.000,"PART-1-1",           659,      -5.11170,       4.23117,            0.,NA,NA,"",       5.12356,       4.27743,       2.82036,   3.78609E-03
C:/temp/dataset/9/19_9.odb,Step-1,Increment      1: Step Time =    1.000,"PART-1-1",           660,      -3.95473,       3.29190,            0.,NA,NA,"",       4.83041,       4.06814,       2.60443,   2.93834E-03
C:/temp/dataset/9/19_9.odb,Step-1,Increment      1: Step Time =    1.000,"PART-1-1",           661,          3.75,           -5.,            0.,NA,NA,"",       2.54063,       2.26514,       1.15064,   23.5088E-03
C:/temp/dataset/9/19_9.odb,Step-1,Increment      1: Step Time =    1.000,"PART-1-1",           662,       4.69008,      -3.66648,            0.,NA,NA,"",       2.67623,       2.51711,   909.030E-03,   26.4629E-03
C:/temp/dataset/9/19_9.odb,Step-1,Increment      1: Step Time =    1.000,"PART-1-1",           663,       4.69636,       3.71818,            0.,NA,NA,"",       4.03896,       3.95259,   830.794E-03,   7.89256E-03
C:/temp/dataset/9/19_9.odb,Step-1,Increment      1: Step Time =    1.000,"PART-1-1",           664,          3.75,            5.,            0.,NA,NA,"",       4.34303,       4.22733,   995.788E-03,   11.2981E-03
C:/temp/dataset/9/19_9.odb,Step-1,Increment      1: Step Time =    1.000,"PART-1-1",           665,       8.42013,       25.7200,            0.,NA,NA,"",       8.18230,       8.17784,  -269.860E-03,   388.807E-06
C:/temp/dataset/9/19_9.odb,Step-1,Increment      1: Step Time =    1.000,"PART-1-1",           666,       7.55622,       27.1849,            0.,NA,NA,"",       8.48705,       8.48610,  -127.288E-03,   283.470E-06
C:/temp/dataset/9/19_9.odb,Step-1,Increment      1: Step Time =    1.000,"PART-1-1",           667,       6.61388,       26.0906,            0.,NA,NA,"",       8.28834,       8.28794,   81.2710E-03,   428.944E-06
C:/temp/dataset/9/19_9.odb,Step-1,Increment      1: Step Time =    1.000,"PART-1-1",           668,       10.0237,       13.5556,            0.,NA,NA,"",       5.74490,       5.73431,  -348.539E-03,   992.318E-06
C:/temp/dataset/9/19_9.odb,Step-1,Increment      1: Step Time =    1.000,"PART-1-1",           669,       8.80148,       12.2659,            0.,NA,NA,"",       5.50563,       5.50495,  -86.2340E-03,   1.26053E-03
C:/temp/dataset/9/19_9.odb,Step-1,Increment      1: Step Time =    1.000,"PART-1-1",           670,            5.,          6.25,            0.,NA,NA,"",       4.47854,       4.41673,   741.519E-03,   5.44876E-03
C:/temp/dataset/9/19_9.odb,Step-1,Increment      1: Step Time =    1.000,"PART-1-1",           671,       5.87545,       4.76801,            0.,NA,NA,"",       4.16615,       4.12330,   595.974E-03,   8.72183E-03
C:/temp/dataset/9/19_9.odb,Step-1,Increment      1: Step Time =    1.000,"PART-1-1",           672,       6.93940,       5.78737,            0.,NA,NA,"",       4.30734,       4.29038,   381.806E-03,   5.05508E-03
C:/temp/dataset/9/19_9.odb,Step-1,Increment      1: Step Time =    1.000,"PART-1-1",           673,       7.73520,       4.18036,            0.,NA,NA,"",       3.97326,       3.96517,   253.321E-03,   7.34399E-03
C:/temp/dataset/9/19_9.odb,Step-1,Increment      1: Step Time =    1.000,"PART-1-1",           674,       6.49581,       3.34316,            0.,NA,NA,"",       3.86595,       3.83400,   495.991E-03,   9.60788E-03
C:/temp/dataset/9/19_9.odb,Step-1,Increment      1: Step Time =    1.000,"PART-1-1",           675,       7.18979,       1.82766,            0.,NA,NA,"",       3.54339,       3.52247,   384.445E-03,   9.72803E-03
C:/temp/dataset/9/19_9.odb,Step-1,Increment      1: Step Time =    1.000,"PART-1-1",           676,       8.42918,       2.66485,            0.,NA,NA,"",       3.65901,       3.65616,   144.405E-03,   8.55618E-03
C:/temp/dataset/9/19_9.odb,Step-1,Increment      1: Step Time =    1.000,"PART-1-1",           677,  -530.051E-03,       1.39108,            0.,NA,NA,"",       4.10621,       3.62120,       1.93595,   8.14354E-03
C:/temp/dataset/9/19_9.odb,Step-1,Increment      1: Step Time =    1.000,"PART-1-1",           678,      -10.1792,       3.73358,            0.,NA,NA,"",       5.73611,       4.27105,       3.82899,   1.30692E-03
C:/temp/dataset/9/19_9.odb,Step-1,Increment      1: Step Time =    1.000,"PART-1-1",           679,      -9.26781,       2.30942,            0.,NA,NA,"",       5.41519,       3.97317,       3.67944,   1.65004E-03
C:/temp/dataset/9/19_9.odb,Step-1,Increment      1: Step Time =    1.000,"PART-1-1",           680,      -7.90097,       2.82902,            0.,NA,NA,"",       5.28872,       4.05067,       3.40038,   1.81802E-03
C:/temp/dataset/9/19_9.odb,Step-1,Increment      1: Step Time =    1.000,"PART-1-1",           681,      -2.90861,       2.25641,            0.,NA,NA,"",       4.53544,       3.84121,       2.41149,   4.64969E-03
C:/temp/dataset/9/19_9.odb,Step-1,Increment      1: Step Time =    1.000,"PART-1-1",           682,      -1.97153,   737.020E-03,            0.,NA,NA,"",       4.17965,       3.52191,       2.25069,   7.14782E-03
C:/temp/dataset/9/19_9.odb,Step-1,Increment      1: Step Time =    1.000,"PART-1-1",           683,      -12.0057,       8.33468,            0.,NA,NA,"",       6.62144,       5.20394,       4.09420,   1.04259E-03
C:/temp/dataset/9/19_9.odb,Step-1,Increment      1: Step Time =    1.000,"PART-1-1",           684,   257.111E-03,       23.5381,            0.,NA,NA,"",       8.03351,       7.91166,       1.39392,   815.601E-06
C:/temp/dataset/9/19_9.odb,Step-1,Increment      1: Step Time =    1.000,"PART-1-1",           685,       2.92443,       23.5127,            0.,NA,NA,"",       7.89954,       7.85208,   864.654E-03,   788.555E-06
C:/temp/dataset/9/19_9.odb,Step-1,Increment      1: Step Time =    1.000,"PART-1-1",           686,  -872.814E-03,       24.6452,            0.,NA,NA,"",       8.30815,       8.15335,       1.59633,   694.091E-06
C:/temp/dataset/9/19_9.odb,Step-1,Increment      1: Step Time =    1.000,"PART-1-1",           687,      -2.49287,       25.7554,            0.,NA,NA,"",       8.61569,       8.40465,       1.89523,   434.441E-06
C:/temp/dataset/9/19_9.odb,Step-1,Increment      1: Step Time =    1.000,"PART-1-1",           688,      -6.57000,       23.0679,            0.,NA,NA,"",       8.41860,       7.95637,       2.75118,   590.268E-06
C:/temp/dataset/9/19_9.odb,Step-1,Increment      1: Step Time =    1.000,"PART-1-1",           689,      -7.77911,       22.2181,            0.,NA,NA,"",       8.37126,       7.81364,       3.00416,   565.499E-06
C:/temp/dataset/9/19_9.odb,Step-1,Increment      1: Step Time =    1.000,"PART-1-1",           690,      -6.08757,       21.5970,            0.,NA,NA,"",       8.11581,       7.65858,       2.68561,   967.645E-06
C:/temp/dataset/9/19_9.odb,Step-1,Increment      1: Step Time =    1.000,"PART-1-1",           691,      -10.6596,       24.7502,            0.,NA,NA,"",       9.07533,       8.36583,       3.51776,   501.137E-06
C:/temp/dataset/9/19_9.odb,Step-1,Increment      1: Step Time =    1.000,"PART-1-1",           692,      -8.94190,       25.0911,            0.,NA,NA,"",       8.97974,       8.39948,       3.17563,   496.389E-06
C:/temp/dataset/9/19_9.odb,Step-1,Increment      1: Step Time =    1.000,"PART-1-1",           693,      -9.30563,       26.3338,            0.,NA,NA,"",       9.23107,       8.65033,       3.22250,   515.018E-06
C:/temp/dataset/9/19_9.odb,Step-1,Increment      1: Step Time =    1.000,"PART-1-1",           694,      -11.0233,       25.9928,            0.,NA,NA,"",       9.32477,       8.61648,       3.56476,   499.599E-06
C:/temp/dataset/9/19_9.odb,Step-1,Increment      1: Step Time =    1.000,"PART-1-1",           695,      -9.11986,       17.2561,            0.,NA,NA,"",       7.65259,       6.87545,       3.36012,   1.02122E-03
C:/temp/dataset/9/19_9.odb,Step-1,Increment      1: Step Time =    1.000,"PART-1-1",           696,      -11.0116,       7.65423,            0.,NA,NA,"",       6.39109,       5.05299,       3.91322,   998.082E-06
C:/temp/dataset/9/19_9.odb,Step-1,Increment      1: Step Time =    1.000,"PART-1-1",           697,      -11.6541,       6.30856,            0.,NA,NA,"",       6.29276,       4.80291,       4.06582,   1.02896E-03
C:/temp/dataset/9/19_9.odb,Step-1,Increment      1: Step Time =    1.000,"PART-1-1",           698,      -3.46647,   792.949E-03,            0.,NA,NA,"",       4.38489,       3.56189,       2.55738,   4.20469E-03
C:/temp/dataset/9/19_9.odb,Step-1,Increment      1: Step Time =    1.000,"PART-1-1",           699,      -4.27899,       1.61468,            0.,NA,NA,"",       4.61623,       3.74082,       2.70478,   2.63323E-03
C:/temp/dataset/9/19_9.odb,Step-1,Increment      1: Step Time =    1.000,"PART-1-1",           700,      -5.41602,       1.03976,            0.,NA,NA,"",       4.68896,       3.64827,       2.94559,   1.43575E-03
C:/temp/dataset/9/19_9.odb,Step-1,Increment      1: Step Time =    1.000,"PART-1-1",           701,      -4.60351,   218.037E-03,            0.,NA,NA,"",       4.45865,       3.46934,       2.80058,   2.75331E-03
C:/temp/dataset/9/19_9.odb,Step-1,Increment      1: Step Time =    1.000,"PART-1-1",           702,      -1.96165,  -510.209E-03,            0.,NA,NA,"",       3.98953,       3.27575,       2.27723,   7.61499E-03
C:/temp/dataset/9/19_9.odb,Step-1,Increment      1: Step Time =    1.000,"PART-1-1",           703,      -2.89723,      -2.02996,            0.,NA,NA,"",       3.90436,       2.99162,       2.50883,   7.44128E-03
C:/temp/dataset/9/19_9.odb,Step-1,Increment      1: Step Time =    1.000,"PART-1-1",           704,       6.46823,      -3.22891,            0.,NA,NA,"",       2.61844,       2.55765,   560.909E-03,   16.7035E-03
C:/temp/dataset/9/19_9.odb,Step-1,Increment      1: Step Time =    1.000,"PART-1-1",           705,       5.30305,      -2.18626,            0.,NA,NA,"",       2.89552,       2.78858,   779.657E-03,   15.5230E-03
C:/temp/dataset/9/19_9.odb,Step-1,Increment      1: Step Time =    1.000,"PART-1-1",           706,       8.11637,      -13.0290,            0.,NA,NA,"",       1.08351,       1.05345,   253.435E-03,   18.6416E-03
C:/temp/dataset/9/19_9.odb,Step-1,Increment      1: Step Time =    1.000,"PART-1-1",           707,       8.09759,      -10.8135,            0.,NA,NA,"",       1.36080,       1.33266,   275.305E-03,   18.3855E-03
C:/temp/dataset/9/19_9.odb,Step-1,Increment      1: Step Time =    1.000,"PART-1-1",           708,           15.,        -26.25,            0.,NA,NA,"",   141.963E-03,   76.9019E-03,  -119.329E-03,   35.4481E-03
C:/temp/dataset/9/19_9.odb,Step-1,Increment      1: Step Time =    1.000,"PART-1-1",           709,       13.6129,      -24.9005,            0.,NA,NA,"",   150.059E-03,   102.599E-03,  -109.504E-03,   23.8208E-03
C:/temp/dataset/9/19_9.odb,Step-1,Increment      1: Step Time =    1.000,"PART-1-1",           710,       12.3352,      -26.1538,            0.,NA,NA,"",   68.7406E-03,   50.7624E-03,  -46.3513E-03,   13.9945E-03
C:/temp/dataset/9/19_9.odb,Step-1,Increment      1: Step Time =    1.000,"PART-1-1",           711,       11.5115,      -24.0900,            0.,NA,NA,"",   129.072E-03,   123.099E-03,  -38.8108E-03,   7.04064E-03
C:/temp/dataset/9/19_9.odb,Step-1,Increment      1: Step Time =    1.000,"PART-1-1",           712,       12.5793,      -23.4990,            0.,NA,NA,"",   179.547E-03,   154.157E-03,  -92.0479E-03,   15.2649E-03
C:/temp/dataset/9/19_9.odb,Step-1,Increment      1: Step Time =    1.000,"PART-1-1",           713,       11.9958,      -21.9645,            0.,NA,NA,"",   247.189E-03,   233.352E-03,  -81.5409E-03,   10.3308E-03
C:/temp/dataset/9/19_9.odb,Step-1,Increment      1: Step Time =    1.000,"PART-1-1",           714,           15.,        -23.75,            0.,NA,NA,"",   259.599E-03,   166.915E-03,  -198.824E-03,   34.2505E-03
C:/temp/dataset/9/19_9.odb,Step-1,Increment      1: Step Time =    1.000,"PART-1-1",           715,       11.0775,      -9.24199,            0.,NA,NA,"",       1.51656,       1.51110,  -128.619E-03,   3.66310E-03
C:/temp/dataset/9/19_9.odb,Step-1,Increment      1: Step Time =    1.000,"PART-1-1",           716,       10.0590,      -8.23408,            0.,NA,NA,"",       1.66663,       1.66662,   5.80450E-03,   3.53372E-03
C:/temp/dataset/9/19_9.odb,Step-1,Increment      1: Step Time =    1.000,"PART-1-1",           717,       9.08966,      -9.54059,            0.,NA,NA,"",       1.49815,       1.49077,   148.460E-03,   10.5566E-03
C:/temp/dataset/9/19_9.odb,Step-1,Increment      1: Step Time =    1.000,"PART-1-1",           718,           15.,         -1.25,            0.,NA,NA,"",       2.96553,       2.80240,  -970.013E-03,   15.8796E-03
C:/temp/dataset/9/19_9.odb,Step-1,Increment      1: Step Time =    1.000,"PART-1-1",           719,       12.7047,      -1.36075,            0.,NA,NA,"",       2.86109,       2.80751,  -551.113E-03,   11.1321E-03
C:/temp/dataset/9/19_9.odb,Step-1,Increment      1: Step Time =    1.000,"PART-1-1",           720,       10.4122,      -1.52824,            0.,NA,NA,"",       2.81171,       2.80781,  -147.965E-03,   10.2467E-03
C:/temp/dataset/9/19_9.odb,Step-1,Increment      1: Step Time =    1.000,"PART-1-1",           721,       11.7321,      -2.88547,            0.,NA,NA,"",       2.56188,       2.53823,  -347.305E-03,   10.7517E-03
C:/temp/dataset/9/19_9.odb,Step-1,Increment      1: Step Time =    1.000,"PART-1-1",           722,       13.0447,       6.32641,            0.,NA,NA,"",       4.34517,       4.27317,  -787.732E-03,   2.92399E-03
C:/temp/dataset/9/19_9.odb,Step-1,Increment      1: Step Time =    1.000,"PART-1-1",           723,           15.,          6.25,            0.,NA,NA,"",       4.38166,       4.22467,      -1.16235,   3.95049E-03
C:/temp/dataset/9/19_9.odb,Step-1,Increment      1: Step Time =    1.000,"PART-1-1",           724,       12.2773,       7.44357,            0.,NA,NA,"",       4.55117,       4.50252,  -663.676E-03,   1.88848E-03
C:/temp/dataset/9/19_9.odb,Step-1,Increment      1: Step Time =    1.000,"PART-1-1",           725,       11.3989,       9.46443,            0.,NA,NA,"",       4.93892,       4.90984,  -535.117E-03,   1.15897E-03
C:/temp/dataset/9/19_9.odb,Step-1,Increment      1: Step Time =    1.000,"PART-1-1",           726,       10.0696,       10.6576,            0.,NA,NA,"",       5.17537,       5.16658,  -301.581E-03,   956.028E-06
C:/temp/dataset/9/19_9.odb,Step-1,Increment      1: Step Time =    1.000,"PART-1-1",           727,       11.2733,       12.2896,            0.,NA,NA,"",       5.49185,       5.46251,  -566.965E-03,   1.04739E-03
C:/temp/dataset/9/19_9.odb,Step-1,Increment      1: Step Time =    1.000,"PART-1-1",           728,       11.2495,       14.9235,            0.,NA,NA,"",       6.01141,       5.97988,  -614.904E-03,   982.226E-06
C:/temp/dataset/9/19_9.odb,Step-1,Increment      1: Step Time =    1.000,"PART-1-1",           729,       11.2365,       17.4638,            0.,NA,NA,"",       6.51552,       6.48168,  -663.255E-03,   955.722E-06
C:/temp/dataset/9/19_9.odb,Step-1,Increment      1: Step Time =    1.000,"PART-1-1",           730,       9.96430,       18.6935,            0.,NA,NA,"",       6.76439,       6.75023,  -437.424E-03,   1.02852E-03
C:/temp/dataset/9/19_9.odb,Step-1,Increment      1: Step Time =    1.000,"PART-1-1",           731,       8.12949,      -15.2371,            0.,NA,NA,"",   837.689E-03,   805.866E-03,   228.698E-03,   18.7572E-03
C:/temp/dataset/9/19_9.odb,Step-1,Increment      1: Step Time =    1.000,"PART-1-1",           732,       10.9896,      -6.85237,            0.,NA,NA,"",       1.87474,       1.86874,  -149.910E-03,   5.75079E-03
C:/temp/dataset/9/19_9.odb,Step-1,Increment      1: Step Time =    1.000,"PART-1-1",           733,       10.9332,      -25.1906,            0.,NA,NA,"",   79.0567E-03,   78.1540E-03,  -11.9126E-03,   3.19003E-03
C:/temp/dataset/9/19_9.odb,Step-1,Increment      1: Step Time =    1.000,"PART-1-1",           734,       11.9281,      -5.46067,            0.,NA,NA,"",       2.11159,       2.08676,  -322.929E-03,   10.4593E-03
C:/temp/dataset/9/19_9.odb,Step-1,Increment      1: Step Time =    1.000,"PART-1-1",           735,      -11.5697,       3.18107,            0.,NA,NA,"",       5.86998,       4.18819,       4.11288,   1.29841E-03
C:/temp/dataset/9/19_9.odb,Step-1,Increment      1: Step Time =    1.000,"PART-1-1",           736,      -10.7341,       2.09613,            0.,NA,NA,"",       5.60720,       3.95850,       3.97126,   1.44711E-03
C:/temp/dataset/9/19_9.odb,Step-1,Increment      1: Step Time =    1.000,"PART-1-1",           737,      -6.76822,       1.80268,            0.,NA,NA,"",       4.98652,       3.82579,       3.19824,   1.28584E-03
C:/temp/dataset/9/19_9.odb,Step-1,Increment      1: Step Time =    1.000,"PART-1-1",           738,      -5.32511,       2.65016,            0.,NA,NA,"",       4.91045,       3.96707,       2.89394,   1.16897E-03
C:/temp/dataset/9/19_9.odb,Step-1,Increment      1: Step Time =    1.000,"PART-1-1",           739,      -6.45786,       3.67650,            0.,NA,NA,"",       5.21293,       4.19216,       3.09845,   1.72851E-03
C:/temp/dataset/9/19_9.odb,Step-1,Increment      1: Step Time =    1.000,"PART-1-1",           740,      -10.1618,       27.4009,            0.,NA,NA,"",       9.49395,       8.87607,       3.36905,   485.388E-06
C:/temp/dataset/9/19_9.odb,Step-1,Increment      1: Step Time =    1.000,"PART-1-1",           741,      -8.15950,       27.0742,            0.,NA,NA,"",       9.26717,       8.77368,       2.98378,   491.774E-06
C:/temp/dataset/9/19_9.odb,Step-1,Increment      1: Step Time =    1.000,"PART-1-1",           742,      -8.41457,       23.7439,            0.,NA,NA,"",       8.69586,       8.12500,       3.09878,   518.345E-06
C:/temp/dataset/9/19_9.odb,Step-1,Increment      1: Step Time =    1.000,"PART-1-1",           743,      -9.76606,       23.0282,            0.,NA,NA,"",       8.69366,       8.01118,       3.37649,   436.131E-06
C:/temp/dataset/9/19_9.odb,Step-1,Increment      1: Step Time =    1.000,"PART-1-1",           744,      -10.1457,       6.57799,            0.,NA,NA,"",       6.12193,       4.82732,       3.76497,   1.04744E-03
C:/temp/dataset/9/19_9.odb,Step-1,Increment      1: Step Time =    1.000,"PART-1-1",           745,      -11.1466,       5.19230,            0.,NA,NA,"",       6.06999,       4.57527,       3.98895,   1.12768E-03
C:/temp/dataset/9/19_9.odb,Step-1,Increment      1: Step Time =    1.000,"PART-1-1",           746,       7.77017,   782.991E-03,            0.,NA,NA,"",       3.31768,       3.30502,   289.551E-03,   10.7437E-03
C:/temp/dataset/9/19_9.odb,Step-1,Increment      1: Step Time =    1.000,"PART-1-1",           747,       6.09501,       1.10589,            0.,NA,NA,"",       3.46068,       3.40860,   598.095E-03,   9.88990E-03
C:/temp/dataset/9/19_9.odb,Step-1,Increment      1: Step Time =    1.000,"PART-1-1",           748,       6.67539,   61.2235E-03,            0.,NA,NA,"",       3.22930,       3.19039,   499.778E-03,   10.8476E-03
C:/temp/dataset/9/19_9.odb,Step-1,Increment      1: Step Time =    1.000,"PART-1-1",           749,       5.31672,       2.29333,            0.,NA,NA,"",       3.73186,       3.65936,   732.013E-03,   7.77170E-03
C:/temp/dataset/9/19_9.odb,Step-1,Increment      1: Step Time =    1.000,"PART-1-1",           750,      -6.94695,       24.4689,            0.,NA,NA,"",       8.70071,       8.23871,       2.79748,   424.830E-06
C:/temp/dataset/9/19_9.odb,Step-1,Increment      1: Step Time =    1.000,"PART-1-1",           751,      -2.09966,       23.3616,            0.,NA,NA,"",       8.14129,       7.92493,       1.86442,   964.349E-06
C:/temp/dataset/9/19_9.odb,Step-1,Increment      1: Step Time =    1.000,"PART-1-1",           752,      -2.87591,       24.2478,            0.,NA,NA,"",       8.35818,       8.11520,       2.00065,   627.463E-06
C:/temp/dataset/9/19_9.odb,Step-1,Increment      1: Step Time =    1.000,"PART-1-1",           753,       9.53974,       23.7363,            0.,NA,NA,"",       7.77426,       7.76107,  -452.766E-03,   632.751E-06
C:/temp/dataset/9/19_9.odb,Step-1,Increment      1: Step Time =    1.000,"PART-1-1",           754,      -5.22075,      -2.25347,            0.,NA,NA,"",       4.22017,       2.98866,       2.97956,   3.75331E-03
C:/temp/dataset/9/19_9.odb,Step-1,Increment      1: Step Time =    1.000,"PART-1-1",           755,      -7.55915,      -2.11026,            0.,NA,NA,"",       4.60150,       3.06292,       3.43399,   2.01344E-03
C:/temp/dataset/9/19_9.odb,Step-1,Increment      1: Step Time =    1.000,"PART-1-1",           756,      -4.20325,      -1.24540,            0.,NA,NA,"",       4.19964,       3.17080,       2.75373,   4.15440E-03
C:/temp/dataset/9/19_9.odb,Step-1,Increment      1: Step Time =    1.000,"PART-1-1",           757,       12.0426,       5.30937,            0.,NA,NA,"",       4.13507,       4.09479,  -575.748E-03,   2.76747E-03
C:/temp/dataset/9/19_9.odb,Step-1,Increment      1: Step Time =    1.000,"PART-1-1",           758,      -8.17645,       12.8481,            0.,NA,NA,"",       6.83321,       6.00523,       3.26037,   777.661E-06
C:/temp/dataset/9/19_9.odb,Step-1,Increment      1: Step Time =    1.000,"PART-1-1",           759,      -8.09554,       10.3784,            0.,NA,NA,"",       6.43170,       5.52579,       3.29125,   843.571E-06
C:/temp/dataset/9/19_9.odb,Step-1,Increment      1: Step Time =    1.000,"PART-1-1",           760,      -8.33007,       15.6293,            0.,NA,NA,"",       7.30260,       6.54582,       3.23732,   914.127E-06
C:/temp/dataset/9/19_9.odb,Step-1,Increment      1: Step Time =    1.000,"PART-1-1",           761,       12.1122,      -19.7356,            0.,NA,NA,"",   397.456E-03,   380.495E-03,  -114.868E-03,   10.8333E-03
C:/temp/dataset/9/19_9.odb,Step-1,Increment      1: Step Time =    1.000,"PART-1-1",           762,       12.1388,      -17.4254,            0.,NA,NA,"",   586.045E-03,   567.357E-03,  -146.816E-03,   10.6847E-03
C:/temp/dataset/9/19_9.odb,Step-1,Increment      1: Step Time =    1.000,"PART-1-1",           763,       12.0361,      -7.90801,            0.,NA,NA,"",       1.72292,       1.69862,  -288.315E-03,   9.84838E-03
C:/temp/dataset/9/19_9.odb,Step-1,Increment      1: Step Time =    1.000,"PART-1-1",           764,       12.0837,      -10.3075,            0.,NA,NA,"",       1.38093,       1.35812,  -249.927E-03,   9.67485E-03
C:/temp/dataset/9/19_9.odb,Step-1,Increment      1: Step Time =    1.000,"PART-1-1",           765,       12.1118,      -12.6921,            0.,NA,NA,"",       1.07853,       1.05721,  -213.370E-03,   9.91821E-03
C:/temp/dataset/9/19_9.odb,Step-1,Increment      1: Step Time =    1.000,"PART-1-1",           766,       12.1357,      -15.0700,            0.,NA,NA,"",   813.354E-03,   793.270E-03,  -179.628E-03,   10.3462E-03
C:/temp/dataset/9/19_9.odb,Step-1,Increment      1: Step Time =    1.000,"PART-1-1",           767,      -8.71328,  -792.246E-03,            0.,NA,NA,"",       4.94052,       3.34738,       3.63369,   1.80737E-03
C:/temp/dataset/9/19_9.odb,Step-1,Increment      1: Step Time =    1.000,"PART-1-1",           768,      -7.47429,       25.8162,            0.,NA,NA,"",       8.98561,       8.51349,       2.87430,   429.892E-06
C:/temp/dataset/9/19_9.odb,Step-1,Increment      1: Step Time =    1.000,"PART-1-1",           769,       9.13729,   756.201E-03,            0.,NA,NA,"",       3.27007,       3.26981,   41.4435E-03,   9.64818E-03
C:/temp/dataset/9/19_9.odb,Step-1,Increment      1: Step Time =    1.000,"PART-1-1",           770,       7.76646,  -679.521E-03,            0.,NA,NA,"",       3.03590,       3.02039,   306.448E-03,   11.9647E-03
C:/temp/dataset/9/19_9.odb,Step-1,Increment      1: Step Time =    1.000,"PART-1-1",           771,       9.13358,  -706.311E-03,            0.,NA,NA,"",       2.98757,       2.98691,   62.7836E-03,   11.0188E-03
C:/temp/dataset/9/19_9.odb,Step-1,Increment      1: Step Time =    1.000,"PART-1-1",           772,       7.17869,      -1.72980,            0.,NA,NA,"",       2.86140,       2.82999,   422.761E-03,   13.6342E-03
C:/temp/dataset/9/19_9.odb,Step-1,Increment      1: Step Time =    1.000,"PART-1-1",           773,       6.08762,  -989.051E-03,            0.,NA,NA,"",       3.06375,       3.00037,   619.949E-03,   13.1784E-03
C:/temp/dataset/9/19_9.odb,Step-1,Increment      1: Step Time =    1.000,"PART-1-1",           774,       8.06590,       24.5744,            0.,NA,NA,"",       7.95941,       7.95744,  -177.186E-03,   568.702E-06
C:/temp/dataset/9/19_9.odb,Step-1,Increment      1: Step Time =    1.000,"PART-1-1",           775,       7.69641,      -4.07963,            0.,NA,NA,"",       2.40196,       2.37653,   348.574E-03,   12.7768E-03
C:/temp/dataset/9/19_9.odb,Step-1,Increment      1: Step Time =    1.000,"PART-1-1",           776,       8.40687,      -2.58051,            0.,NA,NA,"",       2.65111,       2.64250,   213.465E-03,   12.0773E-03
C:/temp/dataset/9/19_9.odb,Step-1,Increment      1: Step Time =    1.000,"PART-1-1",           777,      -9.00797,   684.990E-03,            0.,NA,NA,"",       5.16752,       3.64630,       3.66166,   1.66005E-03
C:/temp/dataset/9/19_9.odb,Step-1,Increment      1: Step Time =    1.000,"PART-1-1",           778,       5.05143,   63.4436E-03,            0.,NA,NA,"",       3.33187,       3.23176,   810.596E-03,   9.62015E-03
C:/temp/dataset/9/19_9.odb,Step-1,Increment      1: Step Time =    1.000,"PART-1-1",           779,      -3.45659,  -454.281E-03,            0.,NA,NA,"",       4.20263,       3.31444,       2.58391,   5.05550E-03
C:/temp/dataset/9/19_9.odb,Step-1,Increment      1: Step Time =    1.000,"PART-1-1",           780,      -7.58605,   993.377E-03,            0.,NA,NA,"",       4.99441,       3.68039,       3.37623,   1.79539E-03
