ODB Name,Step,Frame,Part Instance Name,    êﬂì_ÉâÉxÉã,X,Y,Z,Section Name,Material Name,Section Point,   U-Magnitude,          U-U1,          U-U2,       S-Mises
C:/temp/dataset/9/1_10.odb,Step-1,Increment      4: Step Time =    1.000,"PART-1-1",             1,            5.,           20.,            0.,NA,NA,"",       15.1093,      -14.1540,      -5.28717,   7.25373E-03
C:/temp/dataset/9/1_10.odb,Step-1,Increment      4: Step Time =    1.000,"PART-1-1",             2,            0.,           20.,            0.,NA,NA,"",       15.6013,      -13.6286,      -7.59357,   7.23188E-03
C:/temp/dataset/9/1_10.odb,Step-1,Increment      4: Step Time =    1.000,"PART-1-1",             3,            5.,          12.5,            0.,NA,NA,"",       11.6197,      -10.7576,      -4.39235,   15.7976E-03
C:/temp/dataset/9/1_10.odb,Step-1,Increment      4: Step Time =    1.000,"PART-1-1",             4,            5.,            5.,            0.,NA,NA,"",       8.34837,      -7.57646,      -3.50607,   34.1168E-03
C:/temp/dataset/9/1_10.odb,Step-1,Increment      4: Step Time =    1.000,"PART-1-1",             5,            0.,            5.,            0.,NA,NA,"",       9.23499,      -7.20475,      -5.77725,   23.9507E-03
C:/temp/dataset/9/1_10.odb,Step-1,Increment      4: Step Time =    1.000,"PART-1-1",             6,           -5.,            5.,            0.,NA,NA,"",       10.5453,      -6.62831,      -8.20182,   30.8926E-03
C:/temp/dataset/9/1_10.odb,Step-1,Increment      4: Step Time =    1.000,"PART-1-1",             7,           -5.,          12.5,            0.,NA,NA,"",       13.4246,      -9.87655,      -9.09257,   12.0604E-03
C:/temp/dataset/9/1_10.odb,Step-1,Increment      4: Step Time =    1.000,"PART-1-1",             8,           -5.,           20.,            0.,NA,NA,"",       16.4311,      -13.1258,      -9.88414,   11.5013E-03
C:/temp/dataset/9/1_10.odb,Step-1,Increment      4: Step Time =    1.000,"PART-1-1",             9,           15.,           30.,            0.,NA,NA,"",       19.9280,      -19.8441,      -1.82666,   28.8492E-06
C:/temp/dataset/9/1_10.odb,Step-1,Increment      4: Step Time =    1.000,"PART-1-1",            10,           7.5,           30.,            0.,NA,NA,"",       19.7252,      -19.0090,      -5.26703,   121.337E-06
C:/temp/dataset/9/1_10.odb,Step-1,Increment      4: Step Time =    1.000,"PART-1-1",            11,            0.,           30.,            0.,NA,NA,"",       20.1468,      -18.1739,      -8.69512,   1.62276E-03
C:/temp/dataset/9/1_10.odb,Step-1,Increment      4: Step Time =    1.000,"PART-1-1",            12,          -7.5,           30.,            0.,NA,NA,"",       21.1574,      -17.3497,      -12.1089,   5.09237E-03
C:/temp/dataset/9/1_10.odb,Step-1,Increment      4: Step Time =    1.000,"PART-1-1",            13,          -15.,           30.,            0.,NA,NA,"",       22.6802,      -16.5561,      -15.5013,   9.95538E-03
C:/temp/dataset/9/1_10.odb,Step-1,Increment      4: Step Time =    1.000,"PART-1-1",            14,          -15.,         21.25,            0.,NA,NA,"",       19.2569,      -12.6815,      -14.4916,   12.7970E-03
C:/temp/dataset/9/1_10.odb,Step-1,Increment      4: Step Time =    1.000,"PART-1-1",            15,          -15.,          12.5,            0.,NA,NA,"",       16.1882,      -8.86543,      -13.5448,   1.94845E-03
C:/temp/dataset/9/1_10.odb,Step-1,Increment      4: Step Time =    1.000,"PART-1-1",            16,          -15.,          3.75,            0.,NA,NA,"",       13.5778,      -4.94690,      -12.6445,   4.99858E-03
C:/temp/dataset/9/1_10.odb,Step-1,Increment      4: Step Time =    1.000,"PART-1-1",            17,          -15.,           -5.,            0.,NA,NA,"",       11.7116,  -907.289E-03,      -11.6764,   135.228E-06
C:/temp/dataset/9/1_10.odb,Step-1,Increment      4: Step Time =    1.000,"PART-1-1",            18,          -10.,           -5.,            0.,NA,NA,"",       9.47913,      -1.46916,      -9.36459,   2.25867E-03
C:/temp/dataset/9/1_10.odb,Step-1,Increment      4: Step Time =    1.000,"PART-1-1",            19,           -5.,           -5.,            0.,NA,NA,"",       7.31822,      -2.04259,      -7.02738,   2.12980E-03
C:/temp/dataset/9/1_10.odb,Step-1,Increment      4: Step Time =    1.000,"PART-1-1",            20,            0.,           -5.,            0.,NA,NA,"",       5.39504,      -2.67067,      -4.68764,   15.5252E-03
C:/temp/dataset/9/1_10.odb,Step-1,Increment      4: Step Time =    1.000,"PART-1-1",            21,            5.,           -5.,            0.,NA,NA,"",       4.13926,      -3.45883,      -2.27376,   134.332E-03
C:/temp/dataset/9/1_10.odb,Step-1,Increment      4: Step Time =    1.000,"PART-1-1",            22,            5.,        -11.25,            0.,NA,NA,"",       2.43441,      -1.92946,      -1.48443,   92.6118E-03
C:/temp/dataset/9/1_10.odb,Step-1,Increment      4: Step Time =    1.000,"PART-1-1",            23,            5.,         -17.5,            0.,NA,NA,"",       1.18771,  -807.496E-03,  -870.984E-03,   86.0064E-03
C:/temp/dataset/9/1_10.odb,Step-1,Increment      4: Step Time =    1.000,"PART-1-1",            24,            5.,        -23.75,            0.,NA,NA,"",   431.798E-03,  -201.960E-03,  -381.656E-03,   76.1169E-03
C:/temp/dataset/9/1_10.odb,Step-1,Increment      4: Step Time =    1.000,"PART-1-1",            25,            5.,          -30.,            0.,NA,NA,"",            0.,   1.46530E-39,   2.97179E-39,   66.8589E-03
C:/temp/dataset/9/1_10.odb,Step-1,Increment      4: Step Time =    1.000,"PART-1-1",            26,           15.,          -30.,            0.,NA,NA,"",            0.,   1.24359E-39,  -2.10584E-39,   51.0107E-03
C:/temp/dataset/9/1_10.odb,Step-1,Increment      4: Step Time =    1.000,"PART-1-1",            27,           15.,         -22.5,            0.,NA,NA,"",   494.462E-03,  -305.577E-03,   388.736E-03,   68.0992E-03
C:/temp/dataset/9/1_10.odb,Step-1,Increment      4: Step Time =    1.000,"PART-1-1",            28,           15.,          -15.,            0.,NA,NA,"",       1.58851,      -1.36541,   811.810E-03,   79.5418E-03
C:/temp/dataset/9/1_10.odb,Step-1,Increment      4: Step Time =    1.000,"PART-1-1",            29,           15.,          -7.5,            0.,NA,NA,"",       3.53859,      -3.35577,       1.12270,   85.9902E-03
C:/temp/dataset/9/1_10.odb,Step-1,Increment      4: Step Time =    1.000,"PART-1-1",            30,           15.,            0.,            0.,NA,NA,"",       6.36313,      -6.27821,       1.03606,   46.5079E-03
C:/temp/dataset/9/1_10.odb,Step-1,Increment      4: Step Time =    1.000,"PART-1-1",            31,           15.,           7.5,            0.,NA,NA,"",       9.56633,      -9.55322,   500.682E-03,   19.6419E-03
C:/temp/dataset/9/1_10.odb,Step-1,Increment      4: Step Time =    1.000,"PART-1-1",            32,           15.,           15.,            0.,NA,NA,"",       12.9432,      -12.9418,  -191.531E-03,   10.9095E-03
C:/temp/dataset/9/1_10.odb,Step-1,Increment      4: Step Time =    1.000,"PART-1-1",            33,           15.,          22.5,            0.,NA,NA,"",       16.4273,      -16.3974,  -990.287E-03,   1.78654E-03
C:/temp/dataset/9/1_10.odb,Step-1,Increment      4: Step Time =    1.000,"PART-1-1",            34,           2.5,           20.,            0.,NA,NA,"",       15.3129,      -13.8907,      -6.44463,   6.97662E-03
C:/temp/dataset/9/1_10.odb,Step-1,Increment      4: Step Time =    1.000,"PART-1-1",            35,            5.,           15.,            0.,NA,NA,"",       12.7666,      -11.8737,      -4.69039,   12.2306E-03
C:/temp/dataset/9/1_10.odb,Step-1,Increment      4: Step Time =    1.000,"PART-1-1",            36,            5.,          17.5,            0.,NA,NA,"",       13.9291,      -13.0054,      -4.98793,   9.01943E-03
C:/temp/dataset/9/1_10.odb,Step-1,Increment      4: Step Time =    1.000,"PART-1-1",            37,            5.,           7.5,            0.,NA,NA,"",       9.39228,      -8.59018,      -3.79785,   25.6041E-03
C:/temp/dataset/9/1_10.odb,Step-1,Increment      4: Step Time =    1.000,"PART-1-1",            38,            5.,           10.,            0.,NA,NA,"",       10.4927,      -9.66093,      -4.09420,   19.7397E-03
C:/temp/dataset/9/1_10.odb,Step-1,Increment      4: Step Time =    1.000,"PART-1-1",            39,           2.5,            5.,            0.,NA,NA,"",       8.73494,      -7.42070,      -4.60786,   35.0024E-03
C:/temp/dataset/9/1_10.odb,Step-1,Increment      4: Step Time =    1.000,"PART-1-1",            40,          -2.5,            5.,            0.,NA,NA,"",       9.84497,      -6.94571,      -6.97715,   14.2693E-03
C:/temp/dataset/9/1_10.odb,Step-1,Increment      4: Step Time =    1.000,"PART-1-1",            41,           -5.,           10.,            0.,NA,NA,"",       12.4455,      -8.79072,      -8.80990,   15.1276E-03
C:/temp/dataset/9/1_10.odb,Step-1,Increment      4: Step Time =    1.000,"PART-1-1",            42,           -5.,           7.5,            0.,NA,NA,"",       11.4855,      -7.70311,      -8.51933,   20.6694E-03
C:/temp/dataset/9/1_10.odb,Step-1,Increment      4: Step Time =    1.000,"PART-1-1",            43,           -5.,          17.5,            0.,NA,NA,"",       15.4230,      -12.0454,      -9.63221,   6.18144E-03
C:/temp/dataset/9/1_10.odb,Step-1,Increment      4: Step Time =    1.000,"PART-1-1",            44,           -5.,           15.,            0.,NA,NA,"",       14.4179,      -10.9613,      -9.36615,   8.75958E-03
C:/temp/dataset/9/1_10.odb,Step-1,Increment      4: Step Time =    1.000,"PART-1-1",            45,          -2.5,           20.,            0.,NA,NA,"",       15.9729,      -13.3700,      -8.73937,   9.15294E-03
C:/temp/dataset/9/1_10.odb,Step-1,Increment      4: Step Time =    1.000,"PART-1-1",            46,          12.5,           30.,            0.,NA,NA,"",       19.7900,      -19.5653,      -2.97390,   63.4346E-06
C:/temp/dataset/9/1_10.odb,Step-1,Increment      4: Step Time =    1.000,"PART-1-1",            47,           10.,           30.,            0.,NA,NA,"",       19.7221,      -19.2869,      -4.12061,   138.867E-06
C:/temp/dataset/9/1_10.odb,Step-1,Increment      4: Step Time =    1.000,"PART-1-1",            48,            5.,           30.,            0.,NA,NA,"",       19.7981,      -18.7308,      -6.41265,   400.931E-06
C:/temp/dataset/9/1_10.odb,Step-1,Increment      4: Step Time =    1.000,"PART-1-1",            49,           2.5,           30.,            0.,NA,NA,"",       19.9393,      -18.4522,      -7.55588,   1.15536E-03
C:/temp/dataset/9/1_10.odb,Step-1,Increment      4: Step Time =    1.000,"PART-1-1",            50,          -2.5,           30.,            0.,NA,NA,"",       20.4194,      -17.8975,      -9.83018,   1.39116E-03
C:/temp/dataset/9/1_10.odb,Step-1,Increment      4: Step Time =    1.000,"PART-1-1",            51,           -5.,           30.,            0.,NA,NA,"",       20.7557,      -17.6237,      -10.9637,   1.47811E-03
C:/temp/dataset/9/1_10.odb,Step-1,Increment      4: Step Time =    1.000,"PART-1-1",            52,          -10.,           30.,            0.,NA,NA,"",       21.6107,      -17.0736,      -13.2482,   9.47775E-03
C:/temp/dataset/9/1_10.odb,Step-1,Increment      4: Step Time =    1.000,"PART-1-1",            53,         -12.5,           30.,            0.,NA,NA,"",       22.1199,      -16.8127,      -14.3745,   9.47786E-03
C:/temp/dataset/9/1_10.odb,Step-1,Increment      4: Step Time =    1.000,"PART-1-1",            54,          -15.,       27.8125,            0.,NA,NA,"",       21.8030,      -15.5820,      -15.2503,   10.7030E-03
C:/temp/dataset/9/1_10.odb,Step-1,Increment      4: Step Time =    1.000,"PART-1-1",            55,          -15.,        25.625,            0.,NA,NA,"",       20.9366,      -14.6096,      -14.9967,   12.2652E-03
C:/temp/dataset/9/1_10.odb,Step-1,Increment      4: Step Time =    1.000,"PART-1-1",            56,          -15.,       23.4375,            0.,NA,NA,"",       20.0864,      -13.6422,      -14.7429,   13.2045E-03
C:/temp/dataset/9/1_10.odb,Step-1,Increment      4: Step Time =    1.000,"PART-1-1",            57,          -15.,       19.0625,            0.,NA,NA,"",       18.4512,      -11.7265,      -14.2455,   11.1164E-03
C:/temp/dataset/9/1_10.odb,Step-1,Increment      4: Step Time =    1.000,"PART-1-1",            58,          -15.,        16.875,            0.,NA,NA,"",       17.6708,      -10.7744,      -14.0060,   8.40881E-03
C:/temp/dataset/9/1_10.odb,Step-1,Increment      4: Step Time =    1.000,"PART-1-1",            59,          -15.,       14.6875,            0.,NA,NA,"",       16.9162,      -9.82191,      -13.7728,   5.21538E-03
C:/temp/dataset/9/1_10.odb,Step-1,Increment      4: Step Time =    1.000,"PART-1-1",            60,          -15.,       10.3125,            0.,NA,NA,"",       15.4878,      -7.90187,      -13.3204,   1.16641E-03
C:/temp/dataset/9/1_10.odb,Step-1,Increment      4: Step Time =    1.000,"PART-1-1",            61,          -15.,         8.125,            0.,NA,NA,"",       14.8171,      -6.92850,      -13.0974,   3.68531E-03
C:/temp/dataset/9/1_10.odb,Step-1,Increment      4: Step Time =    1.000,"PART-1-1",            62,          -15.,        5.9375,            0.,NA,NA,"",       14.1789,      -5.94338,      -12.8731,   4.94460E-03
C:/temp/dataset/9/1_10.odb,Step-1,Increment      4: Step Time =    1.000,"PART-1-1",            63,          -15.,        1.5625,            0.,NA,NA,"",       13.0207,      -3.94149,      -12.4099,   3.87563E-03
C:/temp/dataset/9/1_10.odb,Step-1,Increment      4: Step Time =    1.000,"PART-1-1",            64,          -15.,     -625.E-03,            0.,NA,NA,"",       12.5171,      -2.93082,      -12.1691,   2.21115E-03
C:/temp/dataset/9/1_10.odb,Step-1,Increment      4: Step Time =    1.000,"PART-1-1",            65,          -15.,       -2.8125,            0.,NA,NA,"",       12.0772,      -1.91848,      -11.9239,   651.004E-06
C:/temp/dataset/9/1_10.odb,Step-1,Increment      4: Step Time =    1.000,"PART-1-1",            66,         -12.5,           -5.,            0.,NA,NA,"",       10.5888,      -1.18938,      -10.5218,   798.041E-06
C:/temp/dataset/9/1_10.odb,Step-1,Increment      4: Step Time =    1.000,"PART-1-1",            67,          -7.5,           -5.,            0.,NA,NA,"",       8.38468,      -1.75112,      -8.19978,   1.77259E-03
C:/temp/dataset/9/1_10.odb,Step-1,Increment      4: Step Time =    1.000,"PART-1-1",            68,          -2.5,           -5.,            0.,NA,NA,"",       6.30840,      -2.34890,      -5.85479,   9.62740E-03
C:/temp/dataset/9/1_10.odb,Step-1,Increment      4: Step Time =    1.000,"PART-1-1",            69,           2.5,           -5.,            0.,NA,NA,"",       4.62974,      -3.00616,      -3.52101,   40.3506E-03
C:/temp/dataset/9/1_10.odb,Step-1,Increment      4: Step Time =    1.000,"PART-1-1",            70,            5.,      -7.08333,            0.,NA,NA,"",       3.54346,      -2.94833,      -1.96557,   117.641E-03
C:/temp/dataset/9/1_10.odb,Step-1,Increment      4: Step Time =    1.000,"PART-1-1",            71,            5.,      -9.16667,            0.,NA,NA,"",       2.96744,      -2.41794,      -1.72025,   92.0230E-03
C:/temp/dataset/9/1_10.odb,Step-1,Increment      4: Step Time =    1.000,"PART-1-1",            72,            5.,      -13.3333,            0.,NA,NA,"",       1.95874,      -1.49621,      -1.26412,   90.3786E-03
C:/temp/dataset/9/1_10.odb,Step-1,Increment      4: Step Time =    1.000,"PART-1-1",            73,            5.,      -15.4167,            0.,NA,NA,"",       1.54394,      -1.12245,      -1.06011,   88.5535E-03
C:/temp/dataset/9/1_10.odb,Step-1,Increment      4: Step Time =    1.000,"PART-1-1",            74,            5.,      -19.5833,            0.,NA,NA,"",   887.016E-03,  -550.284E-03,  -695.690E-03,   83.0970E-03
C:/temp/dataset/9/1_10.odb,Step-1,Increment      4: Step Time =    1.000,"PART-1-1",            75,            5.,      -21.6667,            0.,NA,NA,"",   637.101E-03,  -349.031E-03,  -532.987E-03,   79.7584E-03
C:/temp/dataset/9/1_10.odb,Step-1,Increment      4: Step Time =    1.000,"PART-1-1",            76,            5.,      -25.8333,            0.,NA,NA,"",   263.926E-03,  -105.394E-03,  -241.969E-03,   70.7029E-03
C:/temp/dataset/9/1_10.odb,Step-1,Increment      4: Step Time =    1.000,"PART-1-1",            77,            5.,      -27.9167,            0.,NA,NA,"",   126.869E-03,  -53.4962E-03,  -115.038E-03,   67.9064E-03
C:/temp/dataset/9/1_10.odb,Step-1,Increment      4: Step Time =    1.000,"PART-1-1",            78,           7.5,          -30.,            0.,NA,NA,"",            0.,   37.3785E-39,  -149.088E-39,   31.2570E-03
C:/temp/dataset/9/1_10.odb,Step-1,Increment      4: Step Time =    1.000,"PART-1-1",            79,           10.,          -30.,            0.,NA,NA,"",            0.,   31.6286E-39,   10.5252E-39,   19.6793E-03
C:/temp/dataset/9/1_10.odb,Step-1,Increment      4: Step Time =    1.000,"PART-1-1",            80,          12.5,          -30.,            0.,NA,NA,"",            0.,  -11.5590E-39,   57.6629E-39,   24.3843E-03
C:/temp/dataset/9/1_10.odb,Step-1,Increment      4: Step Time =    1.000,"PART-1-1",            81,           15.,         -27.5,            0.,NA,NA,"",   124.028E-03,  -48.2023E-03,   114.278E-03,   58.3795E-03
C:/temp/dataset/9/1_10.odb,Step-1,Increment      4: Step Time =    1.000,"PART-1-1",            82,           15.,          -25.,            0.,NA,NA,"",   282.354E-03,  -136.040E-03,   247.421E-03,   63.1219E-03
C:/temp/dataset/9/1_10.odb,Step-1,Increment      4: Step Time =    1.000,"PART-1-1",            83,           15.,          -20.,            0.,NA,NA,"",   775.803E-03,  -563.496E-03,   533.238E-03,   72.0180E-03
C:/temp/dataset/9/1_10.odb,Step-1,Increment      4: Step Time =    1.000,"PART-1-1",            84,           15.,         -17.5,            0.,NA,NA,"",       1.13768,  -915.252E-03,   675.751E-03,   75.9000E-03
C:/temp/dataset/9/1_10.odb,Step-1,Increment      4: Step Time =    1.000,"PART-1-1",            85,           15.,         -12.5,            0.,NA,NA,"",       2.13492,      -1.91861,   936.385E-03,   83.0828E-03
C:/temp/dataset/9/1_10.odb,Step-1,Increment      4: Step Time =    1.000,"PART-1-1",            86,           15.,          -10.,            0.,NA,NA,"",       2.78318,      -2.58022,       1.04334,   86.0016E-03
C:/temp/dataset/9/1_10.odb,Step-1,Increment      4: Step Time =    1.000,"PART-1-1",            87,           15.,           -5.,            0.,NA,NA,"",       4.39981,      -4.24474,       1.15780,   78.9986E-03
C:/temp/dataset/9/1_10.odb,Step-1,Increment      4: Step Time =    1.000,"PART-1-1",            88,           15.,          -2.5,            0.,NA,NA,"",       5.35086,      -5.23004,       1.13064,   64.1973E-03
C:/temp/dataset/9/1_10.odb,Step-1,Increment      4: Step Time =    1.000,"PART-1-1",            89,           15.,           2.5,            0.,NA,NA,"",       7.41057,      -7.35727,   887.195E-03,   32.0932E-03
C:/temp/dataset/9/1_10.odb,Step-1,Increment      4: Step Time =    1.000,"PART-1-1",            90,           15.,            5.,            0.,NA,NA,"",       8.47919,      -8.44993,   703.802E-03,   23.6297E-03
C:/temp/dataset/9/1_10.odb,Step-1,Increment      4: Step Time =    1.000,"PART-1-1",            91,           15.,           10.,            0.,NA,NA,"",       10.6734,      -10.6697,   283.506E-03,   17.0620E-03
C:/temp/dataset/9/1_10.odb,Step-1,Increment      4: Step Time =    1.000,"PART-1-1",            92,           15.,          12.5,            0.,NA,NA,"",       11.8000,      -11.7999,   52.7657E-03,   14.2108E-03
C:/temp/dataset/9/1_10.odb,Step-1,Increment      4: Step Time =    1.000,"PART-1-1",            93,           15.,          17.5,            0.,NA,NA,"",       14.0986,      -14.0915,  -448.406E-03,   7.42676E-03
C:/temp/dataset/9/1_10.odb,Step-1,Increment      4: Step Time =    1.000,"PART-1-1",            94,           15.,           20.,            0.,NA,NA,"",       15.2614,      -15.2446,  -715.740E-03,   4.20490E-03
C:/temp/dataset/9/1_10.odb,Step-1,Increment      4: Step Time =    1.000,"PART-1-1",            95,           15.,           25.,            0.,NA,NA,"",       17.5939,      -17.5481,      -1.26849,   454.604E-06
C:/temp/dataset/9/1_10.odb,Step-1,Increment      4: Step Time =    1.000,"PART-1-1",            96,           15.,          27.5,            0.,NA,NA,"",       18.7606,      -18.6967,      -1.54768,   50.6838E-06
C:/temp/dataset/9/1_10.odb,Step-1,Increment      4: Step Time =    1.000,"PART-1-1",            97,       7.09255,      -21.6558,            0.,NA,NA,"",   446.355E-03,  -298.410E-03,  -331.940E-03,   47.8076E-03
C:/temp/dataset/9/1_10.odb,Step-1,Increment      4: Step Time =    1.000,"PART-1-1",            98,       7.09346,      -17.4368,            0.,NA,NA,"",   949.341E-03,  -775.717E-03,  -547.277E-03,   51.0509E-03
C:/temp/dataset/9/1_10.odb,Step-1,Increment      4: Step Time =    1.000,"PART-1-1",            99,       7.15828,      -23.7452,            0.,NA,NA,"",   276.650E-03,  -147.439E-03,  -234.088E-03,   45.1618E-03
C:/temp/dataset/9/1_10.odb,Step-1,Increment      4: Step Time =    1.000,"PART-1-1",           100,       7.44609,      -27.8729,            0.,NA,NA,"",   64.3925E-03,  -472.045E-06,  -64.3908E-03,   39.8579E-03
C:/temp/dataset/9/1_10.odb,Step-1,Increment      4: Step Time =    1.000,"PART-1-1",           101,       7.30780,      -25.7939,            0.,NA,NA,"",   151.340E-03,  -49.6028E-03,  -142.980E-03,   42.6956E-03
C:/temp/dataset/9/1_10.odb,Step-1,Increment      4: Step Time =    1.000,"PART-1-1",           102,       7.08258,      -10.9526,            0.,NA,NA,"",       2.22179,      -1.99279,  -982.422E-03,   55.3355E-03
C:/temp/dataset/9/1_10.odb,Step-1,Increment      4: Step Time =    1.000,"PART-1-1",           103,       7.09950,      -13.1236,            0.,NA,NA,"",       1.72465,      -1.51867,  -817.356E-03,   53.9328E-03
C:/temp/dataset/9/1_10.odb,Step-1,Increment      4: Step Time =    1.000,"PART-1-1",           104,       6.95448,      -6.62029,            0.,NA,NA,"",       3.42184,      -3.12565,      -1.39260,   62.2020E-03
C:/temp/dataset/9/1_10.odb,Step-1,Increment      4: Step Time =    1.000,"PART-1-1",           105,       7.04974,      -8.78764,            0.,NA,NA,"",       2.78628,      -2.52668,      -1.17441,   60.8079E-03
C:/temp/dataset/9/1_10.odb,Step-1,Increment      4: Step Time =    1.000,"PART-1-1",           106,       7.10540,      -15.2896,            0.,NA,NA,"",       1.30006,      -1.11259,  -672.541E-03,   52.3151E-03
C:/temp/dataset/9/1_10.odb,Step-1,Increment      4: Step Time =    1.000,"PART-1-1",           107,       7.08223,      -19.5608,            0.,NA,NA,"",   667.056E-03,  -505.630E-03,  -435.088E-03,   49.6276E-03
C:/temp/dataset/9/1_10.odb,Step-1,Increment      4: Step Time =    1.000,"PART-1-1",           108,      -11.8989,       25.3809,            0.,NA,NA,"",       20.0926,      -14.8145,      -13.5736,   10.3621E-03
C:/temp/dataset/9/1_10.odb,Step-1,Increment      4: Step Time =    1.000,"PART-1-1",           109,      -12.7134,       3.51066,            0.,NA,NA,"",       12.6482,      -5.09119,      -11.5783,   947.209E-06
C:/temp/dataset/9/1_10.odb,Step-1,Increment      4: Step Time =    1.000,"PART-1-1",           110,      -13.0834,       10.3867,            0.,NA,NA,"",       14.8937,      -8.13373,      -12.4765,   4.24376E-03
C:/temp/dataset/9/1_10.odb,Step-1,Increment      4: Step Time =    1.000,"PART-1-1",           111,      -12.9355,       8.20912,            0.,NA,NA,"",       14.1439,      -7.18577,      -12.1826,   3.04986E-03
C:/temp/dataset/9/1_10.odb,Step-1,Increment      4: Step Time =    1.000,"PART-1-1",           112,      -13.1801,       12.5484,            0.,NA,NA,"",       15.6438,      -9.07163,      -12.7449,   5.49408E-03
C:/temp/dataset/9/1_10.odb,Step-1,Increment      4: Step Time =    1.000,"PART-1-1",           113,      -12.7454,       20.6010,            0.,NA,NA,"",       18.4176,      -12.6209,      -13.4134,   10.1892E-03
C:/temp/dataset/9/1_10.odb,Step-1,Increment      4: Step Time =    1.000,"PART-1-1",           114,      -13.1621,       18.5389,            0.,NA,NA,"",       17.7552,      -11.6798,      -13.3727,   9.55051E-03
C:/temp/dataset/9/1_10.odb,Step-1,Increment      4: Step Time =    1.000,"PART-1-1",           115,      -12.3840,       22.8683,            0.,NA,NA,"",       19.2040,      -13.6528,      -13.5054,   10.3106E-03
C:/temp/dataset/9/1_10.odb,Step-1,Increment      4: Step Time =    1.000,"PART-1-1",           116,      -13.4658,       16.5948,            0.,NA,NA,"",       17.1339,      -10.8043,      -13.2981,   8.19614E-03
C:/temp/dataset/9/1_10.odb,Step-1,Increment      4: Step Time =    1.000,"PART-1-1",           117,      -13.3466,       14.6489,            0.,NA,NA,"",       16.4140,      -9.97037,      -13.0389,   6.76142E-03
C:/temp/dataset/9/1_10.odb,Step-1,Increment      4: Step Time =    1.000,"PART-1-1",           118,      -12.3609,       5.76892,            0.,NA,NA,"",       13.1882,      -6.15483,      -11.6639,   1.59350E-03
C:/temp/dataset/9/1_10.odb,Step-1,Increment      4: Step Time =    1.000,"PART-1-1",           119,      -12.8583,       1.39410,            0.,NA,NA,"",       12.1258,      -4.10436,      -11.4100,   1.66390E-03
C:/temp/dataset/9/1_10.odb,Step-1,Increment      4: Step Time =    1.000,"PART-1-1",           120,      -12.6304,  -685.754E-03,            0.,NA,NA,"",       11.5164,      -3.17020,      -11.0715,   1.88204E-03
C:/temp/dataset/9/1_10.odb,Step-1,Increment      4: Step Time =    1.000,"PART-1-1",           121,   38.5673E-03,       27.2989,            0.,NA,NA,"",       18.9075,      -16.9479,      -8.38234,   536.013E-06
C:/temp/dataset/9/1_10.odb,Step-1,Increment      4: Step Time =    1.000,"PART-1-1",           122,      -4.16985,       22.2766,            0.,NA,NA,"",       17.2430,      -14.2220,      -9.74970,   3.48376E-03
C:/temp/dataset/9/1_10.odb,Step-1,Increment      4: Step Time =    1.000,"PART-1-1",           123,      -7.85548,       28.0855,            0.,NA,NA,"",       20.3874,      -16.4419,      -12.0544,   6.71155E-03
C:/temp/dataset/9/1_10.odb,Step-1,Increment      4: Step Time =    1.000,"PART-1-1",           124,       9.92813,      -27.7267,            0.,NA,NA,"",   21.1627E-03,   18.6118E-03,  -10.0727E-03,   8.70171E-03
C:/temp/dataset/9/1_10.odb,Step-1,Increment      4: Step Time =    1.000,"PART-1-1",           125,       13.1106,      -17.4438,            0.,NA,NA,"",   939.911E-03,  -851.852E-03,   397.217E-03,   46.0743E-03
C:/temp/dataset/9/1_10.odb,Step-1,Increment      4: Step Time =    1.000,"PART-1-1",           126,       12.8150,       2.64061,            0.,NA,NA,"",       7.19984,      -7.19981,  -20.2233E-03,   22.1677E-03
C:/temp/dataset/9/1_10.odb,Step-1,Increment      4: Step Time =    1.000,"PART-1-1",           127,       7.56819,       12.3225,            0.,NA,NA,"",       11.4004,      -10.9359,      -3.22087,   9.07712E-03
C:/temp/dataset/9/1_10.odb,Step-1,Increment      4: Step Time =    1.000,"PART-1-1",           128,       7.47113,       19.8748,            0.,NA,NA,"",       14.9453,      -14.3625,      -4.13292,   7.11212E-03
C:/temp/dataset/9/1_10.odb,Step-1,Increment      4: Step Time =    1.000,"PART-1-1",           129,       12.4223,       27.5153,            0.,NA,NA,"",       18.6179,      -18.4163,      -2.73238,   356.646E-06
C:/temp/dataset/9/1_10.odb,Step-1,Increment      4: Step Time =    1.000,"PART-1-1",           130,       12.3750,       22.5091,            0.,NA,NA,"",       16.2571,      -16.1083,      -2.19417,   2.77121E-03
C:/temp/dataset/9/1_10.odb,Step-1,Increment      4: Step Time =    1.000,"PART-1-1",           131,       7.58839,       27.9970,            0.,NA,NA,"",       18.7798,      -18.1010,      -5.00343,   676.589E-06
C:/temp/dataset/9/1_10.odb,Step-1,Increment      4: Step Time =    1.000,"PART-1-1",           132,   199.805E-03,       22.3057,            0.,NA,NA,"",       16.6195,      -14.6965,      -7.76011,   4.79662E-03
C:/temp/dataset/9/1_10.odb,Step-1,Increment      4: Step Time =    1.000,"PART-1-1",           133,       12.6934,       9.82310,            0.,NA,NA,"",       10.3667,      -10.3424,  -709.318E-03,   10.4644E-03
C:/temp/dataset/9/1_10.odb,Step-1,Increment      4: Step Time =    1.000,"PART-1-1",           134,      -7.14717,       12.7802,            0.,NA,NA,"",       14.0465,      -9.78719,      -10.0755,   10.5072E-03
C:/temp/dataset/9/1_10.odb,Step-1,Increment      4: Step Time =    1.000,"PART-1-1",           135,      -6.86178,       17.9412,            0.,NA,NA,"",       15.9843,      -12.0534,      -10.4983,   7.68715E-03
C:/temp/dataset/9/1_10.odb,Step-1,Increment      4: Step Time =    1.000,"PART-1-1",           136,      -2.68307,      -2.95682,            0.,NA,NA,"",       6.98785,      -3.28190,      -6.16921,   12.1437E-03
C:/temp/dataset/9/1_10.odb,Step-1,Increment      4: Step Time =    1.000,"PART-1-1",           137,      -7.59808,      -3.03341,            0.,NA,NA,"",       8.87833,      -2.65421,      -8.47231,   2.76083E-03
C:/temp/dataset/9/1_10.odb,Step-1,Increment      4: Step Time =    1.000,"PART-1-1",           138,  -248.196E-03,       2.69947,            0.,NA,NA,"",       8.32507,      -6.13613,      -5.62625,   17.3088E-03
C:/temp/dataset/9/1_10.odb,Step-1,Increment      4: Step Time =    1.000,"PART-1-1",           139,       2.16631,      -2.47375,            0.,NA,NA,"",       5.70991,      -4.12341,      -3.94975,   36.3690E-03
C:/temp/dataset/9/1_10.odb,Step-1,Increment      4: Step Time =    1.000,"PART-1-1",           140,       4.39271,       2.43636,            0.,NA,NA,"",       7.34483,      -6.46815,      -3.47987,   23.5457E-03
C:/temp/dataset/9/1_10.odb,Step-1,Increment      4: Step Time =    1.000,"PART-1-1",           141,       12.9283,      -5.27800,            0.,NA,NA,"",       3.98970,      -3.96178,   471.125E-03,   47.9781E-03
C:/temp/dataset/9/1_10.odb,Step-1,Increment      4: Step Time =    1.000,"PART-1-1",           142,       13.0847,      -12.6172,            0.,NA,NA,"",       1.85792,      -1.78636,   510.672E-03,   49.7259E-03
C:/temp/dataset/9/1_10.odb,Step-1,Increment      4: Step Time =    1.000,"PART-1-1",           143,       12.4838,       17.4790,            0.,NA,NA,"",       13.8918,      -13.8007,      -1.58818,   5.92697E-03
C:/temp/dataset/9/1_10.odb,Step-1,Increment      4: Step Time =    1.000,"PART-1-1",           144,       2.63438,       22.2143,            0.,NA,NA,"",       16.3239,      -14.9155,      -6.63290,   4.06171E-03
C:/temp/dataset/9/1_10.odb,Step-1,Increment      4: Step Time =    1.000,"PART-1-1",           145,       7.54366,       14.9275,            0.,NA,NA,"",       12.6097,      -12.1060,      -3.52821,   7.62321E-03
C:/temp/dataset/9/1_10.odb,Step-1,Increment      4: Step Time =    1.000,"PART-1-1",           146,       7.50510,       17.4443,            0.,NA,NA,"",       13.7925,      -13.2486,      -3.83513,   6.48354E-03
C:/temp/dataset/9/1_10.odb,Step-1,Increment      4: Step Time =    1.000,"PART-1-1",           147,       7.12790,       7.03873,            0.,NA,NA,"",       9.03484,      -8.58076,      -2.82824,   11.6481E-03
C:/temp/dataset/9/1_10.odb,Step-1,Increment      4: Step Time =    1.000,"PART-1-1",           148,       7.48952,       9.64170,            0.,NA,NA,"",       10.1796,      -9.74113,      -2.95551,   10.9003E-03
C:/temp/dataset/9/1_10.odb,Step-1,Increment      4: Step Time =    1.000,"PART-1-1",           149,       2.16717,       2.56251,            0.,NA,NA,"",       7.75586,      -6.32717,      -4.48556,   15.9855E-03
C:/temp/dataset/9/1_10.odb,Step-1,Increment      4: Step Time =    1.000,"PART-1-1",           150,      -2.68606,       3.12146,            0.,NA,NA,"",       9.12991,      -6.04943,      -6.83810,   18.0440E-03
C:/temp/dataset/9/1_10.odb,Step-1,Increment      4: Step Time =    1.000,"PART-1-1",           151,      -7.08307,       10.2840,            0.,NA,NA,"",       13.0896,      -8.70913,      -9.77189,   12.8898E-03
C:/temp/dataset/9/1_10.odb,Step-1,Increment      4: Step Time =    1.000,"PART-1-1",           152,      -2.13928,       22.2031,            0.,NA,NA,"",       16.8871,      -14.4019,      -8.81819,   5.54159E-03
C:/temp/dataset/9/1_10.odb,Step-1,Increment      4: Step Time =    1.000,"PART-1-1",           153,       9.90766,       27.6812,            0.,NA,NA,"",       18.6269,      -18.2132,      -3.90431,   584.237E-06
C:/temp/dataset/9/1_10.odb,Step-1,Increment      4: Step Time =    1.000,"PART-1-1",           154,       5.18317,       27.8350,            0.,NA,NA,"",       18.7751,      -17.7604,      -6.08860,   923.839E-06
C:/temp/dataset/9/1_10.odb,Step-1,Increment      4: Step Time =    1.000,"PART-1-1",           155,       2.70091,       27.4744,            0.,NA,NA,"",       18.7525,      -17.3211,      -7.18584,   1.00075E-03
C:/temp/dataset/9/1_10.odb,Step-1,Increment      4: Step Time =    1.000,"PART-1-1",           156,      -2.92570,       26.9909,            0.,NA,NA,"",       19.1239,      -16.4836,      -9.69606,   594.524E-06
C:/temp/dataset/9/1_10.odb,Step-1,Increment      4: Step Time =    1.000,"PART-1-1",           157,      -5.52449,       27.7330,            0.,NA,NA,"",       19.8357,      -16.5368,      -10.9540,   1.53100E-03
C:/temp/dataset/9/1_10.odb,Step-1,Increment      4: Step Time =    1.000,"PART-1-1",           158,      -10.1759,       28.1970,            0.,NA,NA,"",       20.8841,      -16.2474,      -13.1212,   10.0067E-03
C:/temp/dataset/9/1_10.odb,Step-1,Increment      4: Step Time =    1.000,"PART-1-1",           159,      -7.15795,       15.3782,            0.,NA,NA,"",       15.0467,      -10.9127,      -10.3593,   8.66539E-03
C:/temp/dataset/9/1_10.odb,Step-1,Increment      4: Step Time =    1.000,"PART-1-1",           160,      -7.10855,       7.92361,            0.,NA,NA,"",       12.2281,      -7.67585,      -9.51875,   15.9481E-03
C:/temp/dataset/9/1_10.odb,Step-1,Increment      4: Step Time =    1.000,"PART-1-1",           161,      -7.31416,       5.72319,            0.,NA,NA,"",       11.5032,      -6.68515,      -9.36117,   10.4260E-03
C:/temp/dataset/9/1_10.odb,Step-1,Increment      4: Step Time =    1.000,"PART-1-1",           162,      -10.0288,      -2.82434,            0.,NA,NA,"",       9.93986,      -2.47351,      -9.62718,   966.711E-06
C:/temp/dataset/9/1_10.odb,Step-1,Increment      4: Step Time =    1.000,"PART-1-1",           163,      -5.14639,      -3.11924,            0.,NA,NA,"",       7.86757,      -2.90389,      -7.31205,   7.07243E-03
C:/temp/dataset/9/1_10.odb,Step-1,Increment      4: Step Time =    1.000,"PART-1-1",           164,  -261.821E-03,      -2.60038,            0.,NA,NA,"",       6.31105,      -3.75712,      -5.07084,   20.5181E-03
C:/temp/dataset/9/1_10.odb,Step-1,Increment      4: Step Time =    1.000,"PART-1-1",           165,       4.38015,      -2.33295,            0.,NA,NA,"",       5.33507,      -4.45608,      -2.93365,   40.5170E-03
C:/temp/dataset/9/1_10.odb,Step-1,Increment      4: Step Time =    1.000,"PART-1-1",           166,       13.0639,      -10.1924,            0.,NA,NA,"",       2.45985,      -2.40002,   539.238E-03,   51.0660E-03
C:/temp/dataset/9/1_10.odb,Step-1,Increment      4: Step Time =    1.000,"PART-1-1",           167,       13.0843,      -19.8267,            0.,NA,NA,"",   612.981E-03,  -522.633E-03,   320.312E-03,   43.4242E-03
C:/temp/dataset/9/1_10.odb,Step-1,Increment      4: Step Time =    1.000,"PART-1-1",           168,       12.4446,      -27.5067,            0.,NA,NA,"",   53.8317E-03,  -1.73632E-03,   53.8037E-03,   29.7478E-03
C:/temp/dataset/9/1_10.odb,Step-1,Increment      4: Step Time =    1.000,"PART-1-1",           169,       12.9329,      -22.1971,            0.,NA,NA,"",   358.615E-03,  -275.191E-03,   229.945E-03,   38.6772E-03
C:/temp/dataset/9/1_10.odb,Step-1,Increment      4: Step Time =    1.000,"PART-1-1",           170,       13.1086,      -15.0383,            0.,NA,NA,"",       1.35322,      -1.27162,   462.790E-03,   48.1850E-03
C:/temp/dataset/9/1_10.odb,Step-1,Increment      4: Step Time =    1.000,"PART-1-1",           171,       13.0208,      -7.75462,            0.,NA,NA,"",       3.16622,      -3.12088,   533.903E-03,   50.9977E-03
C:/temp/dataset/9/1_10.odb,Step-1,Increment      4: Step Time =    1.000,"PART-1-1",           172,       12.7756,      -2.70708,            0.,NA,NA,"",       4.94914,      -4.93844,   325.243E-03,   41.1807E-03
C:/temp/dataset/9/1_10.odb,Step-1,Increment      4: Step Time =    1.000,"PART-1-1",           173,       12.6338,  -14.4220E-03,            0.,NA,NA,"",       6.04407,      -6.04307,   110.226E-03,   31.7757E-03
C:/temp/dataset/9/1_10.odb,Step-1,Increment      4: Step Time =    1.000,"PART-1-1",           174,       13.0186,       5.13380,            0.,NA,NA,"",       8.30585,      -8.30460,  -144.224E-03,   16.2135E-03
C:/temp/dataset/9/1_10.odb,Step-1,Increment      4: Step Time =    1.000,"PART-1-1",           175,       13.0709,       7.51902,            0.,NA,NA,"",       9.36392,      -9.35803,  -331.851E-03,   13.3066E-03
C:/temp/dataset/9/1_10.odb,Step-1,Increment      4: Step Time =    1.000,"PART-1-1",           176,       12.5119,       12.3699,            0.,NA,NA,"",       11.5156,      -11.4686,      -1.03924,   8.55552E-03
C:/temp/dataset/9/1_10.odb,Step-1,Increment      4: Step Time =    1.000,"PART-1-1",           177,       12.4863,       14.9454,            0.,NA,NA,"",       12.7063,      -12.6380,      -1.31615,   7.20608E-03
C:/temp/dataset/9/1_10.odb,Step-1,Increment      4: Step Time =    1.000,"PART-1-1",           178,       12.4500,       19.9932,            0.,NA,NA,"",       15.0738,      -14.9561,      -1.87956,   4.43319E-03
C:/temp/dataset/9/1_10.odb,Step-1,Increment      4: Step Time =    1.000,"PART-1-1",           179,       9.19048,      -23.6482,            0.,NA,NA,"",   159.159E-03,  -132.537E-03,  -88.1222E-03,   17.7829E-03
C:/temp/dataset/9/1_10.odb,Step-1,Increment      4: Step Time =    1.000,"PART-1-1",           180,       9.11932,      -19.5624,            0.,NA,NA,"",   523.490E-03,  -493.985E-03,  -173.263E-03,   18.8216E-03
C:/temp/dataset/9/1_10.odb,Step-1,Increment      4: Step Time =    1.000,"PART-1-1",           181,       9.13323,      -12.9344,            0.,NA,NA,"",       1.62229,      -1.57906,  -372.027E-03,   19.4678E-03
C:/temp/dataset/9/1_10.odb,Step-1,Increment      4: Step Time =    1.000,"PART-1-1",           182,       9.14303,      -17.4019,            0.,NA,NA,"",   809.000E-03,  -777.673E-03,  -222.949E-03,   18.6954E-03
C:/temp/dataset/9/1_10.odb,Step-1,Increment      4: Step Time =    1.000,"PART-1-1",           183,       9.11260,      -10.6744,            0.,NA,NA,"",       2.15127,      -2.09791,  -476.161E-03,   20.1672E-03
C:/temp/dataset/9/1_10.odb,Step-1,Increment      4: Step Time =    1.000,"PART-1-1",           184,       9.06671,      -8.40676,            0.,NA,NA,"",       2.76248,      -2.69493,  -607.129E-03,   17.6155E-03
C:/temp/dataset/9/1_10.odb,Step-1,Increment      4: Step Time =    1.000,"PART-1-1",           185,       9.15359,      -15.1846,            0.,NA,NA,"",       1.17431,      -1.13883,  -286.466E-03,   18.8320E-03
C:/temp/dataset/9/1_10.odb,Step-1,Increment      4: Step Time =    1.000,"PART-1-1",           186,       9.09437,      -21.6308,            0.,NA,NA,"",   312.841E-03,  -283.378E-03,  -132.537E-03,   19.0066E-03
C:/temp/dataset/9/1_10.odb,Step-1,Increment      4: Step Time =    1.000,"PART-1-1",           187,       8.94944,      -6.10597,            0.,NA,NA,"",       3.47885,      -3.39077,  -777.890E-03,   19.1227E-03
C:/temp/dataset/9/1_10.odb,Step-1,Increment      4: Step Time =    1.000,"PART-1-1",           188,      -11.3189,       17.6054,            0.,NA,NA,"",       16.9211,      -11.4588,      -12.4507,   9.49288E-03
C:/temp/dataset/9/1_10.odb,Step-1,Increment      4: Step Time =    1.000,"PART-1-1",           189,      -10.4260,       2.85148,            0.,NA,NA,"",       11.6120,      -5.04249,      -10.4600,   3.16583E-03
C:/temp/dataset/9/1_10.odb,Step-1,Increment      4: Step Time =    1.000,"PART-1-1",           190,      -12.4413,       27.8959,            0.,NA,NA,"",       21.2413,      -15.8804,      -14.1070,   10.2829E-03
C:/temp/dataset/9/1_10.odb,Step-1,Increment      4: Step Time =    1.000,"PART-1-1",           191,      -10.6658,       19.6683,            0.,NA,NA,"",       17.5383,      -12.4216,      -12.3813,   9.86040E-03
C:/temp/dataset/9/1_10.odb,Step-1,Increment      4: Step Time =    1.000,"PART-1-1",           192,      -12.1118,       16.4066,            0.,NA,NA,"",       16.6911,      -10.8584,      -12.6762,   8.80142E-03
C:/temp/dataset/9/1_10.odb,Step-1,Increment      4: Step Time =    1.000,"PART-1-1",           193,      -11.5166,       14.9043,            0.,NA,NA,"",       15.9847,      -10.2666,      -12.2519,   8.75580E-03
C:/temp/dataset/9/1_10.odb,Step-1,Increment      4: Step Time =    1.000,"PART-1-1",           194,      -11.2054,       12.7278,            0.,NA,NA,"",       15.1221,      -9.35224,      -11.8834,   8.37224E-03
C:/temp/dataset/9/1_10.odb,Step-1,Increment      4: Step Time =    1.000,"PART-1-1",           195,      -11.1139,       10.5020,            0.,NA,NA,"",       14.3215,      -8.38964,      -11.6069,   7.62279E-03
C:/temp/dataset/9/1_10.odb,Step-1,Increment      4: Step Time =    1.000,"PART-1-1",           196,      -9.42029,       24.1195,            0.,NA,NA,"",       19.0282,      -14.5051,      -12.3156,   8.42367E-03
C:/temp/dataset/9/1_10.odb,Step-1,Increment      4: Step Time =    1.000,"PART-1-1",           197,      -11.0759,       8.46025,            0.,NA,NA,"",       13.6199,      -7.49497,      -11.3722,   6.29871E-03
C:/temp/dataset/9/1_10.odb,Step-1,Increment      4: Step Time =    1.000,"PART-1-1",           198,      -10.9473,       6.84821,            0.,NA,NA,"",       13.0479,      -6.79247,      -11.1405,   4.72790E-03
C:/temp/dataset/9/1_10.odb,Step-1,Increment      4: Step Time =    1.000,"PART-1-1",           199,       9.64075,      -25.5803,            0.,NA,NA,"",   49.9037E-03,  -34.8180E-03,  -35.7504E-03,   12.2843E-03
C:/temp/dataset/9/1_10.odb,Step-1,Increment      4: Step Time =    1.000,"PART-1-1",           200,       6.22595,      -2.03957,            0.,NA,NA,"",       5.20565,      -4.73747,      -2.15760,   46.7769E-03
C:/temp/dataset/9/1_10.odb,Step-1,Increment      4: Step Time =    1.000,"PART-1-1",           201,       6.24072,       2.15031,            0.,NA,NA,"",       7.00721,      -6.48328,      -2.65860,   34.0211E-03
C:/temp/dataset/9/1_10.odb,Step-1,Increment      4: Step Time =    1.000,"PART-1-1",           202,      -7.69234,       3.89067,            0.,NA,NA,"",       10.9891,      -5.81776,      -9.32274,   8.55526E-03
C:/temp/dataset/9/1_10.odb,Step-1,Increment      4: Step Time =    1.000,"PART-1-1",           203,       7.31807,       22.0589,            0.,NA,NA,"",       15.9848,      -15.3509,      -4.45679,   5.38660E-03
C:/temp/dataset/9/1_10.odb,Step-1,Increment      4: Step Time =    1.000,"PART-1-1",           204,      -6.44398,       20.4265,            0.,NA,NA,"",       16.8907,      -13.1724,      -10.5728,   9.97349E-03
C:/temp/dataset/9/1_10.odb,Step-1,Increment      4: Step Time =    1.000,"PART-1-1",           205,       12.2962,       25.0128,            0.,NA,NA,"",       17.4340,      -17.2523,      -2.51052,   1.31080E-03
C:/temp/dataset/9/1_10.odb,Step-1,Increment      4: Step Time =    1.000,"PART-1-1",           206,       12.2257,      -24.8009,            0.,NA,NA,"",   138.556E-03,  -86.3177E-03,   108.383E-03,   27.4417E-03
C:/temp/dataset/9/1_10.odb,Step-1,Increment      4: Step Time =    1.000,"PART-1-1",           207,      -2.06005,       24.5200,            0.,NA,NA,"",       17.9043,      -15.4575,      -9.03485,   1.82260E-03
C:/temp/dataset/9/1_10.odb,Step-1,Increment      4: Step Time =    1.000,"PART-1-1",           208,       9.31619,       25.0673,            0.,NA,NA,"",       17.3876,      -16.9486,      -3.88243,   1.97446E-03
C:/temp/dataset/9/1_10.odb,Step-1,Increment      4: Step Time =    1.000,"PART-1-1",           209,       3.21447,       24.8112,            0.,NA,NA,"",       17.4798,      -16.1630,      -6.65599,   2.38369E-03
C:/temp/dataset/9/1_10.odb,Step-1,Increment      4: Step Time =    1.000,"PART-1-1",           210,      -7.52022,      -1.18711,            0.,NA,NA,"",       9.33490,      -3.51575,      -8.64753,   5.44148E-03
C:/temp/dataset/9/1_10.odb,Step-1,Increment      4: Step Time =    1.000,"PART-1-1",           211,       10.0127,       14.9017,            0.,NA,NA,"",       12.5876,      -12.3532,      -2.41790,   6.18382E-03
C:/temp/dataset/9/1_10.odb,Step-1,Increment      4: Step Time =    1.000,"PART-1-1",           212,       10.7293,       3.02357,            0.,NA,NA,"",       7.23692,      -7.18059,  -901.161E-03,   16.7592E-03
C:/temp/dataset/9/1_10.odb,Step-1,Increment      4: Step Time =    1.000,"PART-1-1",           213,       11.4837,       7.36813,            0.,NA,NA,"",       9.18591,      -9.13154,  -997.920E-03,   8.27696E-03
C:/temp/dataset/9/1_10.odb,Step-1,Increment      4: Step Time =    1.000,"PART-1-1",           214,      -9.20573,       12.9161,            0.,NA,NA,"",       14.6322,      -9.63858,      -11.0090,   9.77443E-03
C:/temp/dataset/9/1_10.odb,Step-1,Increment      4: Step Time =    1.000,"PART-1-1",           215,   314.418E-03,       24.7704,            0.,NA,NA,"",       17.7259,      -15.8282,      -7.97958,   2.08556E-03
C:/temp/dataset/9/1_10.odb,Step-1,Increment      4: Step Time =    1.000,"PART-1-1",           216,       7.52406,       26.3727,            0.,NA,NA,"",       18.0155,      -17.3500,      -4.85148,   1.48190E-03
C:/temp/dataset/9/1_10.odb,Step-1,Increment      4: Step Time =    1.000,"PART-1-1",           217,  -811.906E-03,   82.6841E-03,            0.,NA,NA,"",       7.44947,      -4.90050,      -5.61068,   19.5218E-03
C:/temp/dataset/9/1_10.odb,Step-1,Increment      4: Step Time =    1.000,"PART-1-1",           218,       11.1400,      -19.6444,            0.,NA,NA,"",   509.708E-03,  -502.558E-03,   85.0768E-03,   15.1895E-03
C:/temp/dataset/9/1_10.odb,Step-1,Increment      4: Step Time =    1.000,"PART-1-1",           219,       11.1036,      -10.4226,            0.,NA,NA,"",       2.23635,      -2.23612,   32.0678E-03,   17.7802E-03
C:/temp/dataset/9/1_10.odb,Step-1,Increment      4: Step Time =    1.000,"PART-1-1",           220,       10.9280,      -5.64335,            0.,NA,NA,"",       3.68617,      -3.68247,  -165.130E-03,   25.8123E-03
C:/temp/dataset/9/1_10.odb,Step-1,Increment      4: Step Time =    1.000,"PART-1-1",           221,       11.0667,       5.48495,            0.,NA,NA,"",       8.33041,      -8.27065,  -996.010E-03,   9.14559E-03
C:/temp/dataset/9/1_10.odb,Step-1,Increment      4: Step Time =    1.000,"PART-1-1",           222,       11.1390,      -12.7671,            0.,NA,NA,"",       1.67219,      -1.67052,   74.9018E-03,   16.9081E-03
C:/temp/dataset/9/1_10.odb,Step-1,Increment      4: Step Time =    1.000,"PART-1-1",           223,       11.1627,      -15.1016,            0.,NA,NA,"",       1.19776,      -1.19395,   95.4540E-03,   16.7272E-03
C:/temp/dataset/9/1_10.odb,Step-1,Increment      4: Step Time =    1.000,"PART-1-1",           224,      -9.10801,       10.4728,            0.,NA,NA,"",       13.7202,      -8.58516,      -10.7023,   10.0462E-03
C:/temp/dataset/9/1_10.odb,Step-1,Increment      4: Step Time =    1.000,"PART-1-1",           225,      -9.12162,       8.28854,            0.,NA,NA,"",       12.9539,      -7.62687,      -10.4706,   9.68614E-03
C:/temp/dataset/9/1_10.odb,Step-1,Increment      4: Step Time =    1.000,"PART-1-1",           226,      -8.73753,       18.6317,            0.,NA,NA,"",       16.6756,      -12.1639,      -11.4068,   10.0193E-03
C:/temp/dataset/9/1_10.odb,Step-1,Increment      4: Step Time =    1.000,"PART-1-1",           227,      -9.90634,  -397.381E-03,            0.,NA,NA,"",       10.4889,      -3.60860,      -9.84865,   2.28350E-03
C:/temp/dataset/9/1_10.odb,Step-1,Increment      4: Step Time =    1.000,"PART-1-1",           228,       9.93939,       19.9385,            0.,NA,NA,"",       14.9640,      -14.6571,      -3.01514,   5.56621E-03
C:/temp/dataset/9/1_10.odb,Step-1,Increment      4: Step Time =    1.000,"PART-1-1",           229,       5.70370,       25.8085,            0.,NA,NA,"",       17.8032,      -16.8915,      -5.62413,   1.93306E-03
C:/temp/dataset/9/1_10.odb,Step-1,Increment      4: Step Time =    1.000,"PART-1-1",           230,       10.0348,       12.2094,            0.,NA,NA,"",       11.3356,      -11.1363,      -2.11661,   6.16124E-03
C:/temp/dataset/9/1_10.odb,Step-1,Increment      4: Step Time =    1.000,"PART-1-1",           231,       9.98921,       17.4486,            0.,NA,NA,"",       13.7855,      -13.5163,      -2.71126,   6.24820E-03
C:/temp/dataset/9/1_10.odb,Step-1,Increment      4: Step Time =    1.000,"PART-1-1",           232,       10.1044,       9.10575,            0.,NA,NA,"",       9.91790,      -9.75998,      -1.76279,   5.83107E-03
C:/temp/dataset/9/1_10.odb,Step-1,Increment      4: Step Time =    1.000,"PART-1-1",           233,      -3.11139,      -1.10310,            0.,NA,NA,"",       7.73709,      -4.07938,      -6.57429,   16.1019E-03
C:/temp/dataset/9/1_10.odb,Step-1,Increment      4: Step Time =    1.000,"PART-1-1",           234,      -6.48507,       25.5695,            0.,NA,NA,"",       19.0606,      -15.4570,      -11.1529,   3.27563E-03
C:/temp/dataset/9/1_10.odb,Step-1,Increment      4: Step Time =    1.000,"PART-1-1",           235,      -4.76537,       24.8732,            0.,NA,NA,"",       18.4657,      -15.3264,      -10.2997,   1.20556E-03
C:/temp/dataset/9/1_10.odb,Step-1,Increment      4: Step Time =    1.000,"PART-1-1",           236,      -8.46351,       26.0628,            0.,NA,NA,"",       19.6416,      -15.4700,      -12.1026,   6.88038E-03
C:/temp/dataset/9/1_10.odb,Step-1,Increment      4: Step Time =    1.000,"PART-1-1",           237,      -9.50218,       15.8804,            0.,NA,NA,"",       15.8090,      -10.8941,      -11.4562,   9.47309E-03
C:/temp/dataset/9/1_10.odb,Step-1,Increment      4: Step Time =    1.000,"PART-1-1",           238,      -5.29510,      -1.38770,            0.,NA,NA,"",       8.42593,      -3.68443,      -7.57768,   10.3591E-03
C:/temp/dataset/9/1_10.odb,Step-1,Increment      4: Step Time =    1.000,"PART-1-1",           239,       11.0587,      -21.7318,            0.,NA,NA,"",   291.552E-03,  -284.536E-03,   63.5725E-03,   13.6466E-03
C:/temp/dataset/9/1_10.odb,Step-1,Increment      4: Step Time =    1.000,"PART-1-1",           240,       11.1670,      -17.4071,            0.,NA,NA,"",   810.810E-03,  -804.957E-03,   97.2500E-03,   16.2230E-03
C:/temp/dataset/9/1_10.odb,Step-1,Increment      4: Step Time =    1.000,"PART-1-1",           241,       11.0513,      -8.06140,            0.,NA,NA,"",       2.89982,      -2.89955,  -39.1054E-03,   20.6662E-03
C:/temp/dataset/9/1_10.odb,Step-1,Increment      4: Step Time =    1.000,"PART-1-1",           242,       10.1357,   7.39639E-03,            0.,NA,NA,"",       5.91309,      -5.85178,  -849.321E-03,   28.3501E-03
C:/temp/dataset/9/1_10.odb,Step-1,Increment      4: Step Time =    1.000,"PART-1-1",           243,       10.6886,      -3.06387,            0.,NA,NA,"",       4.64774,      -4.63126,  -390.979E-03,   30.8650E-03
C:/temp/dataset/9/1_10.odb,Step-1,Increment      4: Step Time =    1.000,"PART-1-1",           244,       9.76329,       22.4053,            0.,NA,NA,"",       16.1315,      -15.7743,      -3.37620,   3.89119E-03
C:/temp/dataset/9/1_10.odb,Step-1,Increment      4: Step Time =    1.000,"PART-1-1",           245,       8.68231,      -3.74099,            0.,NA,NA,"",       4.35140,      -4.22471,      -1.04236,   31.0564E-03
C:/temp/dataset/9/1_10.odb,Step-1,Increment      4: Step Time =    1.000,"PART-1-1",           246,      -9.34414,       6.30777,            0.,NA,NA,"",       12.3460,      -6.72505,      -10.3536,   7.36941E-03
C:/temp/dataset/9/1_10.odb,Step-1,Increment      4: Step Time =    1.000,"PART-1-1",           247,      -9.93235,       4.61568,            0.,NA,NA,"",       11.9859,      -5.89966,      -10.4334,   4.32735E-03
C:/temp/dataset/9/1_10.odb,Step-1,Increment      4: Step Time =    1.000,"PART-1-1",           248,      -8.14937,       21.0679,            0.,NA,NA,"",       17.5097,      -13.2848,      -11.4063,   9.13074E-03
C:/temp/dataset/9/1_10.odb,Step-1,Increment      4: Step Time =    1.000,"PART-1-1",           249,       10.7972,      -23.3791,            0.,NA,NA,"",   156.748E-03,  -153.454E-03,   31.9653E-03,   10.1761E-03
C:/temp/dataset/9/1_10.odb,Step-1,Increment      4: Step Time =    1.000,"PART-1-1",           250,       4.15357,   65.4176E-03,            0.,NA,NA,"",       6.37081,      -5.44221,      -3.31204,   23.3355E-03
C:/temp/dataset/9/1_10.odb,Step-1,Increment      4: Step Time =    1.000,"PART-1-1",           251,       8.71950,       3.82470,            0.,NA,NA,"",       7.58017,      -7.36058,      -1.81132,   19.5411E-03
C:/temp/dataset/9/1_10.odb,Step-1,Increment      4: Step Time =    1.000,"PART-1-1",           252,       5.00281,       23.5204,            0.,NA,NA,"",       16.7642,      -15.7691,      -5.68959,   3.45380E-03
C:/temp/dataset/9/1_10.odb,Step-1,Increment      4: Step Time =    1.000,"PART-1-1",           253,       7.40149,   60.9774E-03,            0.,NA,NA,"",       6.00445,      -5.68576,      -1.93017,   34.6507E-03
C:/temp/dataset/9/1_10.odb,Step-1,Increment      4: Step Time =    1.000,"PART-1-1",           254,      -5.73116,       22.7675,            0.,NA,NA,"",       17.7286,      -14.2798,      -10.5067,   3.99255E-03
C:/temp/dataset/9/1_10.odb,Step-1,Increment      4: Step Time =    1.000,"PART-1-1",           255,      -5.42683,       1.83799,            0.,NA,NA,"",       9.51773,      -5.13842,      -8.01148,   15.9835E-03
C:/temp/dataset/9/1_10.odb,Step-1,Increment      4: Step Time =    1.000,"PART-1-1",           256,       6.81561,       24.0815,            0.,NA,NA,"",       16.9526,      -16.2233,      -4.91891,   3.08949E-03
C:/temp/dataset/9/1_10.odb,Step-1,Increment      4: Step Time =    1.000,"PART-1-1",           257,      -7.40884,       23.3683,            0.,NA,NA,"",       18.3021,      -14.3759,      -11.3270,   6.38248E-03
C:/temp/dataset/9/1_10.odb,Step-1,Increment      4: Step Time =    1.000,"PART-1-1",           258,      -3.69176,       23.9755,            0.,NA,NA,"",       17.9028,      -15.0365,      -9.71668,   2.01821E-03
C:/temp/dataset/9/1_10.odb,Step-1,Increment      4: Step Time =    1.000,"PART-1-1",           259,      -8.10961,       1.76736,            0.,NA,NA,"",       10.4377,      -4.80363,      -9.26669,   7.53872E-03
C:/temp/dataset/9/1_10.odb,Step-1,Increment      4: Step Time =    1.000,"PART-1-1",           260,       5.94930,   61.4696E-03,            0.,NA,NA,"",       6.13201,      -5.58546,      -2.53064,   32.7205E-03
C:/temp/dataset/9/1_10.odb,Step-1,Increment      4: Step Time =    1.000,"PART-1-1",           261,       1.93878,   62.7924E-03,            0.,NA,NA,"",       6.77188,      -5.21594,      -4.31883,   20.7432E-03
C:/temp/dataset/9/1_10.odb,Step-1,Increment      4: Step Time =    1.000,"PART-1-1",           262,       6.71051,      -4.41826,            0.,NA,NA,"",       4.18072,      -3.82642,      -1.68431,   44.4654E-03
C:/temp/dataset/9/1_10.odb,Step-1,Increment      4: Step Time =    1.000,"PART-1-1",           263,      -12.5366,      -2.82410,            0.,NA,NA,"",       11.0062,      -2.19133,      -10.7858,   1.62166E-03
C:/temp/dataset/9/1_10.odb,Step-1,Increment      4: Step Time =    1.000,"PART-1-1",           264,       6.75090,       4.53602,            0.,NA,NA,"",       7.98593,      -7.50875,      -2.71915,   27.5616E-03
C:/temp/dataset/9/1_10.odb,Step-1,Increment      4: Step Time =    1.000,"PART-1-1",           265,      -5.22339,       3.46233,            0.,NA,NA,"",       10.0291,      -5.89947,      -8.11040,   21.3068E-03
C:/temp/dataset/9/1_10.odb,Step-1,Increment      4: Step Time =    1.000,"PART-1-1",           266,       4.93795,       21.9167,            0.,NA,NA,"",       16.0166,      -15.0287,      -5.53781,   4.74647E-03
C:/temp/dataset/9/1_10.odb,Step-1,Increment      4: Step Time =    1.000,"PART-1-1",           267,       8.13144,      -1.42002,            0.,NA,NA,"",       5.32610,      -5.11843,      -1.47276,   36.3626E-03
C:/temp/dataset/9/1_10.odb,Step-1,Increment      4: Step Time =    1.000,"PART-1-1",           268,      -3.13115,       1.39136,            0.,NA,NA,"",       8.61180,      -5.20812,      -6.85847,   20.1293E-03
C:/temp/dataset/9/1_10.odb,Step-1,Increment      4: Step Time =    1.000,"PART-1-1",           269,       9.17709,       6.32873,            0.,NA,NA,"",       8.66841,      -8.46241,      -1.87853,   7.61811E-03
C:/temp/dataset/9/1_10.odb,Step-1,Increment      4: Step Time =    1.000,"PART-1-1",           270,      -11.0423,       1.34077,            0.,NA,NA,"",       11.4055,      -4.28194,      -10.5712,   2.16599E-03
C:/temp/dataset/9/1_10.odb,Step-1,Increment      4: Step Time =    1.000,"PART-1-1",           271,      -10.1478,       26.6048,            0.,NA,NA,"",       20.2114,      -15.5382,      -12.9253,   9.31777E-03
C:/temp/dataset/9/1_10.odb,Step-1,Increment      4: Step Time =    1.000,"PART-1-1",           272,      -10.1118,       21.9370,            0.,NA,NA,"",       18.2969,      -13.4704,      -12.3824,   9.38812E-03
C:/temp/dataset/9/1_10.odb,Step-1,Increment      4: Step Time =    1.000,"PART-1-1",           273,       8.13886,       1.50501,            0.,NA,NA,"",       6.59098,      -6.34157,      -1.79598,   30.7160E-03
C:/temp/dataset/9/1_10.odb,Step-1,Increment      4: Step Time =    1.000,"PART-1-1",           274,      -7.06249,   219.393E-03,            0.,NA,NA,"",       9.57275,      -4.21355,      -8.59555,   8.62382E-03
C:/temp/dataset/9/1_10.odb,Step-1,Increment      4: Step Time =    1.000,"PART-1-1",           275,      -5.40522,   241.534E-03,            0.,NA,NA,"",       8.97638,      -4.41556,      -7.81526,   13.0575E-03
C:/temp/dataset/9/1_10.odb,Step-1,Increment      4: Step Time =    1.000,"PART-1-1",           276,      -3.80180,   194.541E-03,            0.,NA,NA,"",       8.40680,      -4.58539,      -7.04616,   16.9560E-03
C:/temp/dataset/9/1_10.odb,Step-1,Increment      4: Step Time =    1.000,"PART-1-1",           277,      -2.71285,       28.4954,            0.,NA,NA,"",       19.7693,      -17.1903,      -9.76314,   903.204E-06
C:/temp/dataset/9/1_10.odb,Step-1,Increment      4: Step Time =    1.000,"PART-1-1",           278,         -3.75,           30.,            0.,NA,NA,"",       20.5796,      -17.7603,      -10.3967,   673.196E-06
C:/temp/dataset/9/1_10.odb,Step-1,Increment      4: Step Time =    1.000,"PART-1-1",           279,      -5.26224,       28.8665,            0.,NA,NA,"",       20.2939,      -17.0805,      -10.9589,   1.21486E-03
C:/temp/dataset/9/1_10.odb,Step-1,Increment      4: Step Time =    1.000,"PART-1-1",           280,      -4.22509,       27.3619,            0.,NA,NA,"",       19.4731,      -16.5104,      -10.3251,   831.898E-06
C:/temp/dataset/9/1_10.odb,Step-1,Increment      4: Step Time =    1.000,"PART-1-1",           281,      -3.84553,       25.9321,            0.,NA,NA,"",       18.7854,      -15.9038,      -9.99806,   254.686E-06
C:/temp/dataset/9/1_10.odb,Step-1,Increment      4: Step Time =    1.000,"PART-1-1",           282,      -6.00478,       26.6512,            0.,NA,NA,"",       19.4433,      -15.9953,      -11.0540,   1.73586E-03
C:/temp/dataset/9/1_10.odb,Step-1,Increment      4: Step Time =    1.000,"PART-1-1",           283,      -5.62522,       25.2214,            0.,NA,NA,"",       18.7604,      -15.3916,      -10.7261,   2.10670E-03
C:/temp/dataset/9/1_10.odb,Step-1,Increment      4: Step Time =    1.000,"PART-1-1",           284,      -10.0879,       29.0985,            0.,NA,NA,"",       21.2471,      -16.6610,      -13.1852,   9.53254E-03
C:/temp/dataset/9/1_10.odb,Step-1,Increment      4: Step Time =    1.000,"PART-1-1",           285,        -11.25,           30.,            0.,NA,NA,"",       21.8587,      -16.9421,      -13.8119,   8.99146E-03
C:/temp/dataset/9/1_10.odb,Step-1,Increment      4: Step Time =    1.000,"PART-1-1",           286,      -12.4706,       28.9480,            0.,NA,NA,"",       21.6801,      -16.3468,      -14.2411,   9.85259E-03
C:/temp/dataset/9/1_10.odb,Step-1,Increment      4: Step Time =    1.000,"PART-1-1",           287,      -11.3086,       28.0465,            0.,NA,NA,"",       21.0568,      -16.0635,      -13.6144,   9.91915E-03
C:/temp/dataset/9/1_10.odb,Step-1,Increment      4: Step Time =    1.000,"PART-1-1",           288,      -13.4495,       25.5029,            0.,NA,NA,"",       20.5060,      -14.7121,      -14.2845,   11.2717E-03
C:/temp/dataset/9/1_10.odb,Step-1,Increment      4: Step Time =    1.000,"PART-1-1",           289,          -15.,       24.5313,            0.,NA,NA,"",       20.5091,      -14.1251,      -14.8696,   12.7651E-03
C:/temp/dataset/9/1_10.odb,Step-1,Increment      4: Step Time =    1.000,"PART-1-1",           290,      -13.6920,       23.1529,            0.,NA,NA,"",       19.6400,      -13.6473,      -14.1237,   11.7024E-03
C:/temp/dataset/9/1_10.odb,Step-1,Increment      4: Step Time =    1.000,"PART-1-1",           291,      -12.1415,       24.1246,            0.,NA,NA,"",       19.6435,      -14.2325,      -13.5390,   10.2643E-03
C:/temp/dataset/9/1_10.odb,Step-1,Increment      4: Step Time =    1.000,"PART-1-1",           292,          8.75,          -30.,            0.,NA,NA,"",            0.,  -127.172E-42,   1.75514E-39,   23.4087E-03
C:/temp/dataset/9/1_10.odb,Step-1,Increment      4: Step Time =    1.000,"PART-1-1",           293,       9.96407,      -28.8633,            0.,NA,NA,"",   21.7694E-03,   21.2949E-03,  -4.52038E-03,   13.7761E-03
C:/temp/dataset/9/1_10.odb,Step-1,Increment      4: Step Time =    1.000,"PART-1-1",           294,       8.68711,      -27.7998,            0.,NA,NA,"",   39.9533E-03,   14.0568E-03,  -37.3988E-03,   23.1355E-03
C:/temp/dataset/9/1_10.odb,Step-1,Increment      4: Step Time =    1.000,"PART-1-1",           295,       7.47304,      -28.9365,            0.,NA,NA,"",   30.1824E-03,   10.4902E-03,  -28.3008E-03,   34.9471E-03
C:/temp/dataset/9/1_10.odb,Step-1,Increment      4: Step Time =    1.000,"PART-1-1",           296,       10.9279,      -22.5555,            0.,NA,NA,"",   219.407E-03,  -214.394E-03,   46.6303E-03,   11.6595E-03
C:/temp/dataset/9/1_10.odb,Step-1,Increment      4: Step Time =    1.000,"PART-1-1",           297,       10.0765,      -21.6813,            0.,NA,NA,"",   282.847E-03,  -280.851E-03,  -33.5433E-03,   7.89917E-03
C:/temp/dataset/9/1_10.odb,Step-1,Increment      4: Step Time =    1.000,"PART-1-1",           298,       9.14242,      -22.6395,            0.,NA,NA,"",   229.124E-03,  -201.405E-03,  -109.241E-03,   18.3682E-03
C:/temp/dataset/9/1_10.odb,Step-1,Increment      4: Step Time =    1.000,"PART-1-1",           299,       9.99384,      -23.5137,            0.,NA,NA,"",   143.715E-03,  -140.710E-03,  -29.2398E-03,   8.61110E-03
C:/temp/dataset/9/1_10.odb,Step-1,Increment      4: Step Time =    1.000,"PART-1-1",           300,       7.08785,      -18.4988,            0.,NA,NA,"",   800.347E-03,  -632.944E-03,  -489.834E-03,   50.3282E-03
C:/temp/dataset/9/1_10.odb,Step-1,Increment      4: Step Time =    1.000,"PART-1-1",           301,       6.04673,      -17.4684,            0.,NA,NA,"",       1.05978,  -786.490E-03,  -710.336E-03,   68.4417E-03
C:/temp/dataset/9/1_10.odb,Step-1,Increment      4: Step Time =    1.000,"PART-1-1",           302,            5.,      -18.5417,            0.,NA,NA,"",       1.03069,  -671.769E-03,  -781.699E-03,   84.5218E-03
C:/temp/dataset/9/1_10.odb,Step-1,Increment      4: Step Time =    1.000,"PART-1-1",           303,       6.04112,      -19.5721,            0.,NA,NA,"",   771.185E-03,  -523.131E-03,  -566.621E-03,   66.2673E-03
C:/temp/dataset/9/1_10.odb,Step-1,Increment      4: Step Time =    1.000,"PART-1-1",           304,       7.10245,      -14.2066,            0.,NA,NA,"",       1.50360,      -1.30729,  -742.839E-03,   53.1086E-03
C:/temp/dataset/9/1_10.odb,Step-1,Increment      4: Step Time =    1.000,"PART-1-1",           305,       6.04975,      -13.2285,            0.,NA,NA,"",       1.82815,      -1.50188,      -1.04236,   72.0747E-03
C:/temp/dataset/9/1_10.odb,Step-1,Increment      4: Step Time =    1.000,"PART-1-1",           306,            5.,       -14.375,            0.,NA,NA,"",       1.74387,      -1.30192,      -1.16021,   89.4387E-03
C:/temp/dataset/9/1_10.odb,Step-1,Increment      4: Step Time =    1.000,"PART-1-1",           307,       6.05270,      -15.3531,            0.,NA,NA,"",       1.41049,      -1.11204,  -867.667E-03,   70.3607E-03
C:/temp/dataset/9/1_10.odb,Step-1,Increment      4: Step Time =    1.000,"PART-1-1",           308,            5.,      -6.04167,            0.,NA,NA,"",       3.85293,      -3.21263,      -2.12699,   126.344E-03
C:/temp/dataset/9/1_10.odb,Step-1,Increment      4: Step Time =    1.000,"PART-1-1",           309,       5.97724,      -6.85181,            0.,NA,NA,"",       3.45843,      -3.01320,      -1.69745,   81.7123E-03
C:/temp/dataset/9/1_10.odb,Step-1,Increment      4: Step Time =    1.000,"PART-1-1",           310,       6.83249,      -5.51927,            0.,NA,NA,"",       3.76930,      -3.44346,      -1.53303,   41.1770E-03
C:/temp/dataset/9/1_10.odb,Step-1,Increment      4: Step Time =    1.000,"PART-1-1",           311,       5.85525,      -4.70913,            0.,NA,NA,"",       4.13632,      -3.64060,      -1.96345,   78.1916E-03
C:/temp/dataset/9/1_10.odb,Step-1,Increment      4: Step Time =    1.000,"PART-1-1",           312,       4.27314,       1.25089,            0.,NA,NA,"",       6.85503,      -5.95465,      -3.39613,   21.9798E-03
C:/temp/dataset/9/1_10.odb,Step-1,Increment      4: Step Time =    1.000,"PART-1-1",           313,       3.27994,       2.49943,            0.,NA,NA,"",       7.53710,      -6.40254,      -3.97685,   15.7047E-03
C:/temp/dataset/9/1_10.odb,Step-1,Increment      4: Step Time =    1.000,"PART-1-1",           314,       2.05297,       1.31265,            0.,NA,NA,"",       7.25848,      -5.77187,      -4.40125,   15.9739E-03
C:/temp/dataset/9/1_10.odb,Step-1,Increment      4: Step Time =    1.000,"PART-1-1",           315,       3.04617,   64.1050E-03,            0.,NA,NA,"",       6.55490,      -5.33303,      -3.81123,   19.8666E-03
C:/temp/dataset/9/1_10.odb,Step-1,Increment      4: Step Time =    1.000,"PART-1-1",           316,       6.28410,       12.4112,            0.,NA,NA,"",       11.4944,      -10.8467,      -3.80386,   11.9726E-03
C:/temp/dataset/9/1_10.odb,Step-1,Increment      4: Step Time =    1.000,"PART-1-1",           317,            5.,         11.25,            0.,NA,NA,"",       11.0533,      -10.2064,      -4.24317,   17.8485E-03
C:/temp/dataset/9/1_10.odb,Step-1,Increment      4: Step Time =    1.000,"PART-1-1",           318,       6.24476,       9.82085,            0.,NA,NA,"",       10.3204,      -9.70083,      -3.52193,   14.9941E-03
C:/temp/dataset/9/1_10.odb,Step-1,Increment      4: Step Time =    1.000,"PART-1-1",           319,       7.52885,       10.9821,            0.,NA,NA,"",       10.7870,      -10.3357,      -3.08754,   9.95464E-03
C:/temp/dataset/9/1_10.odb,Step-1,Increment      4: Step Time =    1.000,"PART-1-1",           320,       6.23557,       19.9374,            0.,NA,NA,"",       15.0161,      -14.2594,      -4.70680,   6.81940E-03
C:/temp/dataset/9/1_10.odb,Step-1,Increment      4: Step Time =    1.000,"PART-1-1",           321,            5.,         18.75,            0.,NA,NA,"",       14.5154,      -13.5761,      -5.13672,   7.43252E-03
C:/temp/dataset/9/1_10.odb,Step-1,Increment      4: Step Time =    1.000,"PART-1-1",           322,       6.25255,       17.4722,            0.,NA,NA,"",       13.8482,      -13.1274,      -4.40955,   6.88749E-03
C:/temp/dataset/9/1_10.odb,Step-1,Increment      4: Step Time =    1.000,"PART-1-1",           323,       7.48812,       18.6595,            0.,NA,NA,"",       14.3684,      -13.8051,      -3.98375,   6.60355E-03
C:/temp/dataset/9/1_10.odb,Step-1,Increment      4: Step Time =    1.000,"PART-1-1",           324,       12.4612,       28.7577,            0.,NA,NA,"",       19.2040,      -18.9909,      -2.85320,   157.701E-06
C:/temp/dataset/9/1_10.odb,Step-1,Increment      4: Step Time =    1.000,"PART-1-1",           325,         11.25,           30.,            0.,NA,NA,"",       19.7472,      -19.4260,      -3.54732,   45.9165E-06
C:/temp/dataset/9/1_10.odb,Step-1,Increment      4: Step Time =    1.000,"PART-1-1",           326,       9.95383,       28.8406,            0.,NA,NA,"",       19.1746,      -18.7501,      -4.01257,   353.700E-06
C:/temp/dataset/9/1_10.odb,Step-1,Increment      4: Step Time =    1.000,"PART-1-1",           327,       11.1650,       27.5983,            0.,NA,NA,"",       18.6128,      -18.3146,      -3.31839,   466.329E-06
C:/temp/dataset/9/1_10.odb,Step-1,Increment      4: Step Time =    1.000,"PART-1-1",           328,       9.61193,       26.3742,            0.,NA,NA,"",       18.0069,      -17.5809,      -3.89369,   1.24103E-03
C:/temp/dataset/9/1_10.odb,Step-1,Increment      4: Step Time =    1.000,"PART-1-1",           329,       10.8062,       25.0400,            0.,NA,NA,"",       17.3962,      -17.1001,      -3.19636,   1.50638E-03
C:/temp/dataset/9/1_10.odb,Step-1,Increment      4: Step Time =    1.000,"PART-1-1",           330,       12.3592,       26.2641,            0.,NA,NA,"",       18.0262,      -17.8346,      -2.62154,   811.769E-06
C:/temp/dataset/9/1_10.odb,Step-1,Increment      4: Step Time =    1.000,"PART-1-1",           331,       7.54419,       28.9985,            0.,NA,NA,"",       19.2524,      -18.5549,      -5.13528,   391.749E-06
C:/temp/dataset/9/1_10.odb,Step-1,Increment      4: Step Time =    1.000,"PART-1-1",           332,          6.25,           30.,            0.,NA,NA,"",       19.7530,      -18.8700,      -5.84001,   135.063E-06
C:/temp/dataset/9/1_10.odb,Step-1,Increment      4: Step Time =    1.000,"PART-1-1",           333,       5.09159,       28.9175,            0.,NA,NA,"",       19.2864,      -18.2454,      -6.25066,   419.042E-06
C:/temp/dataset/9/1_10.odb,Step-1,Increment      4: Step Time =    1.000,"PART-1-1",           334,       6.38578,       27.9160,            0.,NA,NA,"",       18.7688,      -17.9307,      -5.54608,   756.903E-06
C:/temp/dataset/9/1_10.odb,Step-1,Increment      4: Step Time =    1.000,"PART-1-1",           335,       2.95769,       26.1428,            0.,NA,NA,"",       18.1163,      -16.7421,      -6.92129,   1.61286E-03
C:/temp/dataset/9/1_10.odb,Step-1,Increment      4: Step Time =    1.000,"PART-1-1",           336,       4.45909,       25.3098,            0.,NA,NA,"",       17.6307,      -16.5270,      -6.14006,   2.15608E-03
C:/temp/dataset/9/1_10.odb,Step-1,Increment      4: Step Time =    1.000,"PART-1-1",           337,       5.44343,       26.8217,            0.,NA,NA,"",       18.2890,      -17.3260,      -5.85660,   1.36539E-03
C:/temp/dataset/9/1_10.odb,Step-1,Increment      4: Step Time =    1.000,"PART-1-1",           338,       3.94204,       27.6547,            0.,NA,NA,"",       18.7544,      -17.5406,      -6.63750,   960.499E-06
C:/temp/dataset/9/1_10.odb,Step-1,Increment      4: Step Time =    1.000,"PART-1-1",           339,       6.06395,       7.26936,            0.,NA,NA,"",       9.20092,      -8.58539,      -3.30877,   18.0375E-03
C:/temp/dataset/9/1_10.odb,Step-1,Increment      4: Step Time =    1.000,"PART-1-1",           340,       7.30871,       8.34021,            0.,NA,NA,"",       9.60239,      -9.15681,      -2.89114,   11.7961E-03
C:/temp/dataset/9/1_10.odb,Step-1,Increment      4: Step Time =    1.000,"PART-1-1",           341,            5.,          8.75,            0.,NA,NA,"",       9.93821,      -9.12127,      -3.94594,   22.8069E-03
C:/temp/dataset/9/1_10.odb,Step-1,Increment      4: Step Time =    1.000,"PART-1-1",           342,      -13.9291,       1.47830,            0.,NA,NA,"",       12.5711,      -4.02344,      -11.9098,   2.36161E-03
C:/temp/dataset/9/1_10.odb,Step-1,Increment      4: Step Time =    1.000,"PART-1-1",           343,          -15.,    468.75E-03,            0.,NA,NA,"",       12.7616,      -3.43660,      -12.2902,   3.05608E-03
C:/temp/dataset/9/1_10.odb,Step-1,Increment      4: Step Time =    1.000,"PART-1-1",           344,      -13.8152,  -655.377E-03,            0.,NA,NA,"",       12.0138,      -3.05100,      -11.6199,   1.60611E-03
C:/temp/dataset/9/1_10.odb,Step-1,Increment      4: Step Time =    1.000,"PART-1-1",           345,      -12.7443,   354.171E-03,            0.,NA,NA,"",       11.8151,      -3.63778,      -11.2411,   1.73795E-03
C:/temp/dataset/9/1_10.odb,Step-1,Increment      4: Step Time =    1.000,"PART-1-1",           346,      -13.9678,       8.16706,            0.,NA,NA,"",       14.4775,      -7.05715,      -12.6410,   2.11115E-03
C:/temp/dataset/9/1_10.odb,Step-1,Increment      4: Step Time =    1.000,"PART-1-1",           347,          -15.,       7.03125,            0.,NA,NA,"",       14.4937,      -6.43742,      -12.9857,   4.33204E-03
C:/temp/dataset/9/1_10.odb,Step-1,Increment      4: Step Time =    1.000,"PART-1-1",           348,      -13.6804,       5.85321,            0.,NA,NA,"",       13.6797,      -6.04929,      -12.2695,   2.32085E-03
C:/temp/dataset/9/1_10.odb,Step-1,Increment      4: Step Time =    1.000,"PART-1-1",           349,      -12.6482,       6.98902,            0.,NA,NA,"",       13.6640,      -6.67195,      -11.9243,   2.31214E-03
C:/temp/dataset/9/1_10.odb,Step-1,Increment      4: Step Time =    1.000,"PART-1-1",           350,      -5.93089,       17.7206,            0.,NA,NA,"",       15.6995,      -12.0500,      -10.0635,   5.59111E-03
C:/temp/dataset/9/1_10.odb,Step-1,Increment      4: Step Time =    1.000,"PART-1-1",           351,      -7.00986,       16.6597,            0.,NA,NA,"",       15.5121,      -11.4827,      -10.4294,   7.84943E-03
C:/temp/dataset/9/1_10.odb,Step-1,Increment      4: Step Time =    1.000,"PART-1-1",           352,      -6.07897,       15.1891,            0.,NA,NA,"",       14.7271,      -10.9378,      -9.86174,   8.38145E-03
C:/temp/dataset/9/1_10.odb,Step-1,Increment      4: Step Time =    1.000,"PART-1-1",           353,           -5.,         16.25,            0.,NA,NA,"",       14.9197,      -11.5040,      -9.50036,   7.19810E-03
C:/temp/dataset/9/1_10.odb,Step-1,Increment      4: Step Time =    1.000,"PART-1-1",           354,      -7.79966,       18.2865,            0.,NA,NA,"",       16.3262,      -12.1084,      -10.9513,   8.88086E-03
C:/temp/dataset/9/1_10.odb,Step-1,Increment      4: Step Time =    1.000,"PART-1-1",           355,      -6.65288,       19.1839,            0.,NA,NA,"",       16.4322,      -12.6115,      -10.5342,   8.55801E-03
C:/temp/dataset/9/1_10.odb,Step-1,Increment      4: Step Time =    1.000,"PART-1-1",           356,      -7.29668,       20.7472,            0.,NA,NA,"",       17.1978,      -13.2288,      -10.9892,   9.25368E-03
C:/temp/dataset/9/1_10.odb,Step-1,Increment      4: Step Time =    1.000,"PART-1-1",           357,      -8.44345,       19.8498,            0.,NA,NA,"",       17.0871,      -12.7229,      -11.4059,   9.52841E-03
C:/temp/dataset/9/1_10.odb,Step-1,Increment      4: Step Time =    1.000,"PART-1-1",           358,      -2.59303,       4.06073,            0.,NA,NA,"",       9.47773,      -6.49236,      -6.90483,   10.2305E-03
C:/temp/dataset/9/1_10.odb,Step-1,Increment      4: Step Time =    1.000,"PART-1-1",           359,      -1.46713,       2.91047,            0.,NA,NA,"",       8.71520,      -6.09454,      -6.22987,   16.1963E-03
C:/temp/dataset/9/1_10.odb,Step-1,Increment      4: Step Time =    1.000,"PART-1-1",           360,  -124.098E-03,       3.84974,            0.,NA,NA,"",       8.77110,      -6.66819,      -5.69802,   17.7196E-03
C:/temp/dataset/9/1_10.odb,Step-1,Increment      4: Step Time =    1.000,"PART-1-1",           361,         -1.25,            5.,            0.,NA,NA,"",       9.52662,      -7.08104,      -6.37302,   17.4756E-03
C:/temp/dataset/9/1_10.odb,Step-1,Increment      4: Step Time =    1.000,"PART-1-1",           362,      -11.2683,  -541.568E-03,            0.,NA,NA,"",       10.9963,      -3.38942,      -10.4609,   1.44709E-03
C:/temp/dataset/9/1_10.odb,Step-1,Increment      4: Step Time =    1.000,"PART-1-1",           363,      -10.4743,   471.696E-03,            0.,NA,NA,"",       10.9463,      -3.94538,      -10.2106,   2.24204E-03
C:/temp/dataset/9/1_10.odb,Step-1,Increment      4: Step Time =    1.000,"PART-1-1",           364,      -11.9503,       1.36743,            0.,NA,NA,"",       11.7636,      -4.19324,      -10.9909,   1.43197E-03
C:/temp/dataset/9/1_10.odb,Step-1,Increment      4: Step Time =    1.000,"PART-1-1",           365,      -13.0095,       9.29789,            0.,NA,NA,"",       14.5161,      -7.66097,      -12.3299,   3.60499E-03
C:/temp/dataset/9/1_10.odb,Step-1,Increment      4: Step Time =    1.000,"PART-1-1",           366,      -14.0417,       10.3496,            0.,NA,NA,"",       15.1882,      -8.01765,      -12.8995,   1.98039E-03
C:/temp/dataset/9/1_10.odb,Step-1,Increment      4: Step Time =    1.000,"PART-1-1",           367,          -15.,       9.21875,            0.,NA,NA,"",       15.1486,      -7.41655,      -13.2089,   2.40764E-03
C:/temp/dataset/9/1_10.odb,Step-1,Increment      4: Step Time =    1.000,"PART-1-1",           368,      -6.40766,      -1.28741,            0.,NA,NA,"",       8.87617,      -3.59883,      -8.11387,   7.73146E-03
C:/temp/dataset/9/1_10.odb,Step-1,Increment      4: Step Time =    1.000,"PART-1-1",           369,      -5.35016,  -573.084E-03,            0.,NA,NA,"",       8.69693,      -4.05063,      -7.69604,   11.6605E-03
C:/temp/dataset/9/1_10.odb,Step-1,Increment      4: Step Time =    1.000,"PART-1-1",           370,      -6.23385,   230.463E-03,            0.,NA,NA,"",       9.27113,      -4.31400,      -8.20629,   10.7621E-03
C:/temp/dataset/9/1_10.odb,Step-1,Increment      4: Step Time =    1.000,"PART-1-1",           371,      -7.29135,  -483.859E-03,            0.,NA,NA,"",       9.44825,      -3.86519,      -8.62147,   6.95359E-03
C:/temp/dataset/9/1_10.odb,Step-1,Increment      4: Step Time =    1.000,"PART-1-1",           372,   952.242E-03,      -2.53706,            0.,NA,NA,"",       5.98902,      -3.94241,      -4.50842,   23.5305E-03
C:/temp/dataset/9/1_10.odb,Step-1,Increment      4: Step Time =    1.000,"PART-1-1",           373,  -130.910E-03,      -3.80019,            0.,NA,NA,"",       5.84623,      -3.21639,      -4.88193,   16.2778E-03
C:/temp/dataset/9/1_10.odb,Step-1,Increment      4: Step Time =    1.000,"PART-1-1",           374,          1.25,           -5.,            0.,NA,NA,"",       4.98932,      -2.83079,      -4.10852,   23.4330E-03
C:/temp/dataset/9/1_10.odb,Step-1,Increment      4: Step Time =    1.000,"PART-1-1",           375,       2.33315,      -3.73687,            0.,NA,NA,"",       5.17930,      -3.58624,      -3.73685,   26.9429E-03
C:/temp/dataset/9/1_10.odb,Step-1,Increment      4: Step Time =    1.000,"PART-1-1",           376,       4.26686,      -1.13377,            0.,NA,NA,"",       5.84886,      -4.94497,      -3.12354,   29.6775E-03
C:/temp/dataset/9/1_10.odb,Step-1,Increment      4: Step Time =    1.000,"PART-1-1",           377,       2.05254,      -1.20548,            0.,NA,NA,"",       6.24066,      -4.67506,      -4.13396,   24.5452E-03
C:/temp/dataset/9/1_10.odb,Step-1,Increment      4: Step Time =    1.000,"PART-1-1",           378,       3.27323,      -2.40335,            0.,NA,NA,"",       5.50712,      -4.30749,      -3.43131,   29.2065E-03
C:/temp/dataset/9/1_10.odb,Step-1,Increment      4: Step Time =    1.000,"PART-1-1",           379,       10.4325,       1.51548,            0.,NA,NA,"",       6.57128,      -6.51257,  -876.500E-03,   22.3844E-03
C:/temp/dataset/9/1_10.odb,Step-1,Increment      4: Step Time =    1.000,"PART-1-1",           380,       11.3847,  -3.51279E-03,            0.,NA,NA,"",       5.95428,      -5.94282,  -369.287E-03,   26.7397E-03
C:/temp/dataset/9/1_10.odb,Step-1,Increment      4: Step Time =    1.000,"PART-1-1",           381,       12.7244,       1.31309,            0.,NA,NA,"",       6.61844,      -6.61826,   48.0734E-03,   26.8492E-03
C:/temp/dataset/9/1_10.odb,Step-1,Increment      4: Step Time =    1.000,"PART-1-1",           382,       11.7722,       2.83209,            0.,NA,NA,"",       7.20238,      -7.18770,  -459.607E-03,   17.4750E-03
C:/temp/dataset/9/1_10.odb,Step-1,Increment      4: Step Time =    1.000,"PART-1-1",           383,       9.00808,      -7.25637,            0.,NA,NA,"",       3.10902,      -3.03137,  -690.504E-03,   17.5022E-03
C:/temp/dataset/9/1_10.odb,Step-1,Increment      4: Step Time =    1.000,"PART-1-1",           384,       7.95196,      -6.36313,            0.,NA,NA,"",       3.42630,      -3.24924,      -1.08719,   33.4694E-03
C:/temp/dataset/9/1_10.odb,Step-1,Increment      4: Step Time =    1.000,"PART-1-1",           385,       7.00211,      -7.70397,            0.,NA,NA,"",       3.09222,      -2.81392,      -1.28206,   57.8111E-03
C:/temp/dataset/9/1_10.odb,Step-1,Increment      4: Step Time =    1.000,"PART-1-1",           386,       8.05823,      -8.59720,            0.,NA,NA,"",       2.75287,      -2.60452,  -891.513E-03,   38.1145E-03
C:/temp/dataset/9/1_10.odb,Step-1,Increment      4: Step Time =    1.000,"PART-1-1",           387,       7.09104,      -12.0381,            0.,NA,NA,"",       1.96451,      -1.74749,  -897.529E-03,   54.6185E-03
C:/temp/dataset/9/1_10.odb,Step-1,Increment      4: Step Time =    1.000,"PART-1-1",           388,       6.04129,      -11.1013,            0.,NA,NA,"",       2.31231,      -1.95441,      -1.23574,   73.9022E-03
C:/temp/dataset/9/1_10.odb,Step-1,Increment      4: Step Time =    1.000,"PART-1-1",           389,            5.,      -12.2917,            0.,NA,NA,"",       2.18894,      -1.70557,      -1.37204,   91.4927E-03
C:/temp/dataset/9/1_10.odb,Step-1,Increment      4: Step Time =    1.000,"PART-1-1",           390,       9.13117,      -18.4822,            0.,NA,NA,"",   657.756E-03,  -627.539E-03,  -197.072E-03,   18.7646E-03
C:/temp/dataset/9/1_10.odb,Step-1,Increment      4: Step Time =    1.000,"PART-1-1",           391,       10.1297,      -19.6034,            0.,NA,NA,"",   496.719E-03,  -494.846E-03,  -43.0944E-03,   7.17401E-03
C:/temp/dataset/9/1_10.odb,Step-1,Increment      4: Step Time =    1.000,"PART-1-1",           392,       11.1535,      -18.5257,            0.,NA,NA,"",   651.120E-03,  -644.593E-03,   91.9587E-03,   15.6810E-03
C:/temp/dataset/9/1_10.odb,Step-1,Increment      4: Step Time =    1.000,"PART-1-1",           393,       10.1550,      -17.4045,            0.,NA,NA,"",   790.176E-03,  -787.720E-03,  -62.2458E-03,   6.56602E-03
C:/temp/dataset/9/1_10.odb,Step-1,Increment      4: Step Time =    1.000,"PART-1-1",           394,       6.27183,       14.9637,            0.,NA,NA,"",       12.6738,      -11.9899,      -4.10709,   9.41615E-03
C:/temp/dataset/9/1_10.odb,Step-1,Increment      4: Step Time =    1.000,"PART-1-1",           395,       7.52438,       16.1859,            0.,NA,NA,"",       13.1996,      -12.6758,      -3.68137,   6.98632E-03
C:/temp/dataset/9/1_10.odb,Step-1,Increment      4: Step Time =    1.000,"PART-1-1",           396,            5.,         16.25,            0.,NA,NA,"",       13.3459,      -12.4376,      -4.83922,   10.5996E-03
C:/temp/dataset/9/1_10.odb,Step-1,Increment      4: Step Time =    1.000,"PART-1-1",           397,       2.56719,       21.1071,            0.,NA,NA,"",       15.8175,      -14.4026,      -6.53902,   5.43690E-03
C:/temp/dataset/9/1_10.odb,Step-1,Increment      4: Step Time =    1.000,"PART-1-1",           398,       1.41709,       22.2600,            0.,NA,NA,"",       16.4622,      -14.8057,      -7.19698,   4.43442E-03
C:/temp/dataset/9/1_10.odb,Step-1,Increment      4: Step Time =    1.000,"PART-1-1",           399,   99.9026E-03,       21.1528,            0.,NA,NA,"",       16.1096,      -14.1626,      -7.67720,   6.06753E-03
C:/temp/dataset/9/1_10.odb,Step-1,Increment      4: Step Time =    1.000,"PART-1-1",           400,          1.25,           20.,            0.,NA,NA,"",       15.4464,      -13.7593,      -7.01952,   7.11000E-03
C:/temp/dataset/9/1_10.odb,Step-1,Increment      4: Step Time =    1.000,"PART-1-1",           401,       7.55593,       13.6250,            0.,NA,NA,"",       12.0029,      -11.5190,      -3.37400,   8.35556E-03
C:/temp/dataset/9/1_10.odb,Step-1,Increment      4: Step Time =    1.000,"PART-1-1",           402,            5.,         13.75,            0.,NA,NA,"",       12.1910,      -11.3135,      -4.54143,   14.0160E-03
C:/temp/dataset/9/1_10.odb,Step-1,Increment      4: Step Time =    1.000,"PART-1-1",           403,       8.77818,       14.9146,            0.,NA,NA,"",       12.5851,      -12.2291,      -2.97210,   6.23793E-03
C:/temp/dataset/9/1_10.odb,Step-1,Increment      4: Step Time =    1.000,"PART-1-1",           404,       10.0010,       16.1752,            0.,NA,NA,"",       13.1852,      -12.9335,      -2.56381,   6.20739E-03
C:/temp/dataset/9/1_10.odb,Step-1,Increment      4: Step Time =    1.000,"PART-1-1",           405,       8.74716,       17.4465,            0.,NA,NA,"",       13.7766,      -13.3823,      -3.27230,   6.13015E-03
C:/temp/dataset/9/1_10.odb,Step-1,Increment      4: Step Time =    1.000,"PART-1-1",           406,       10.1219,       5.90684,            0.,NA,NA,"",       8.48886,      -8.36660,      -1.43555,   7.07543E-03
C:/temp/dataset/9/1_10.odb,Step-1,Increment      4: Step Time =    1.000,"PART-1-1",           407,       8.94830,       5.07672,            0.,NA,NA,"",       8.12153,      -7.90870,      -1.84707,   13.2288E-03
C:/temp/dataset/9/1_10.odb,Step-1,Increment      4: Step Time =    1.000,"PART-1-1",           408,       9.72441,       3.42413,            0.,NA,NA,"",       7.39472,      -7.26990,      -1.35291,   16.5189E-03
C:/temp/dataset/9/1_10.odb,Step-1,Increment      4: Step Time =    1.000,"PART-1-1",           409,       10.8980,       4.25426,            0.,NA,NA,"",       7.78204,      -7.72392,  -949.356E-03,   12.6156E-03
C:/temp/dataset/9/1_10.odb,Step-1,Increment      4: Step Time =    1.000,"PART-1-1",           410,       8.15250,       6.68373,            0.,NA,NA,"",       8.84082,      -8.52212,      -2.35233,   9.26593E-03
C:/temp/dataset/9/1_10.odb,Step-1,Increment      4: Step Time =    1.000,"PART-1-1",           411,       9.64075,       7.71724,            0.,NA,NA,"",       9.28635,      -9.10594,      -1.82157,   5.91353E-03
C:/temp/dataset/9/1_10.odb,Step-1,Increment      4: Step Time =    1.000,"PART-1-1",           412,       8.79696,       9.37373,            0.,NA,NA,"",       10.0305,      -9.74955,      -2.35731,   6.93065E-03
C:/temp/dataset/9/1_10.odb,Step-1,Increment      4: Step Time =    1.000,"PART-1-1",           413,   959.485E-03,       2.63099,            0.,NA,NA,"",       8.02462,      -6.23590,      -5.05055,   16.4905E-03
C:/temp/dataset/9/1_10.odb,Step-1,Increment      4: Step Time =    1.000,"PART-1-1",           414,       2.33358,       3.78125,            0.,NA,NA,"",       8.23889,      -6.87275,      -4.54363,   23.8618E-03
C:/temp/dataset/9/1_10.odb,Step-1,Increment      4: Step Time =    1.000,"PART-1-1",           415,          1.25,            5.,            0.,NA,NA,"",       8.97023,      -7.31805,      -5.18760,   29.0046E-03
C:/temp/dataset/9/1_10.odb,Step-1,Increment      4: Step Time =    1.000,"PART-1-1",           416,      -9.23288,       7.29816,            0.,NA,NA,"",       12.6465,      -7.17720,      -10.4126,   8.40693E-03
C:/temp/dataset/9/1_10.odb,Step-1,Increment      4: Step Time =    1.000,"PART-1-1",           417,      -8.32915,       6.01548,            0.,NA,NA,"",       11.9224,      -6.70450,      -9.85864,   9.15539E-03
C:/temp/dataset/9/1_10.odb,Step-1,Increment      4: Step Time =    1.000,"PART-1-1",           418,      -7.21136,       6.82340,            0.,NA,NA,"",       11.8629,      -7.18504,      -9.43942,   12.3685E-03
C:/temp/dataset/9/1_10.odb,Step-1,Increment      4: Step Time =    1.000,"PART-1-1",           419,      -8.11509,       8.10607,            0.,NA,NA,"",       12.5876,      -7.65223,      -9.99459,   12.4041E-03
C:/temp/dataset/9/1_10.odb,Step-1,Increment      4: Step Time =    1.000,"PART-1-1",           420,      -13.1318,       11.4675,            0.,NA,NA,"",       15.2660,      -8.60355,      -12.6107,   4.83053E-03
C:/temp/dataset/9/1_10.odb,Step-1,Increment      4: Step Time =    1.000,"PART-1-1",           421,      -14.0901,       12.5242,            0.,NA,NA,"",       15.9137,      -8.96823,      -13.1459,   3.54047E-03
C:/temp/dataset/9/1_10.odb,Step-1,Increment      4: Step Time =    1.000,"PART-1-1",           422,          -15.,       11.4063,            0.,NA,NA,"",       15.8345,      -8.38472,      -13.4323,   424.644E-06
C:/temp/dataset/9/1_10.odb,Step-1,Increment      4: Step Time =    1.000,"PART-1-1",           423,      -9.35396,       14.3983,            0.,NA,NA,"",       15.2180,      -10.2667,      -11.2330,   9.61265E-03
C:/temp/dataset/9/1_10.odb,Step-1,Increment      4: Step Time =    1.000,"PART-1-1",           424,      -10.5094,       15.3924,            0.,NA,NA,"",       15.8892,      -10.5805,      -11.8541,   9.15362E-03
C:/temp/dataset/9/1_10.odb,Step-1,Increment      4: Step Time =    1.000,"PART-1-1",           425,      -11.3610,       13.8160,            0.,NA,NA,"",       15.5518,      -9.80973,      -12.0676,   8.52575E-03
C:/temp/dataset/9/1_10.odb,Step-1,Increment      4: Step Time =    1.000,"PART-1-1",           426,      -10.2056,       12.8219,            0.,NA,NA,"",       14.8722,      -9.49567,      -11.4461,   9.06831E-03
C:/temp/dataset/9/1_10.odb,Step-1,Increment      4: Step Time =    1.000,"PART-1-1",           427,      -14.0810,       18.8007,            0.,NA,NA,"",       18.1013,      -11.7026,      -13.8096,   10.1829E-03
C:/temp/dataset/9/1_10.odb,Step-1,Increment      4: Step Time =    1.000,"PART-1-1",           428,          -15.,       17.9688,            0.,NA,NA,"",       18.0578,      -11.2503,      -14.1249,   9.75594E-03
C:/temp/dataset/9/1_10.odb,Step-1,Increment      4: Step Time =    1.000,"PART-1-1",           429,      -14.2329,       16.7349,            0.,NA,NA,"",       17.4010,      -10.7889,      -13.6526,   8.13314E-03
C:/temp/dataset/9/1_10.odb,Step-1,Increment      4: Step Time =    1.000,"PART-1-1",           430,      -13.3139,       17.5668,            0.,NA,NA,"",       17.4414,      -11.2419,      -13.3350,   8.87527E-03
C:/temp/dataset/9/1_10.odb,Step-1,Increment      4: Step Time =    1.000,"PART-1-1",           431,      -12.9537,       19.5700,            0.,NA,NA,"",       18.0826,      -12.1498,      -13.3926,   9.85564E-03
C:/temp/dataset/9/1_10.odb,Step-1,Increment      4: Step Time =    1.000,"PART-1-1",           432,      -13.8727,       20.9255,            0.,NA,NA,"",       18.8339,      -12.6507,      -13.9526,   11.3883E-03
C:/temp/dataset/9/1_10.odb,Step-1,Increment      4: Step Time =    1.000,"PART-1-1",           433,          -15.,       20.1563,            0.,NA,NA,"",       18.8509,      -12.2034,      -14.3678,   11.9598E-03
C:/temp/dataset/9/1_10.odb,Step-1,Increment      4: Step Time =    1.000,"PART-1-1",           434,       1.76445,       24.7908,            0.,NA,NA,"",       17.5901,      -15.9953,      -7.31850,   2.23513E-03
C:/temp/dataset/9/1_10.odb,Step-1,Increment      4: Step Time =    1.000,"PART-1-1",           435,       1.36974,       27.3866,            0.,NA,NA,"",       18.8198,      -17.1342,      -7.78471,   748.202E-06
C:/temp/dataset/9/1_10.odb,Step-1,Increment      4: Step Time =    1.000,"PART-1-1",           436,   176.493E-03,       26.0346,            0.,NA,NA,"",       18.3165,      -16.3879,      -8.18113,   1.22240E-03
C:/temp/dataset/9/1_10.odb,Step-1,Increment      4: Step Time =    1.000,"PART-1-1",           437,       7.39460,       20.9669,            0.,NA,NA,"",       15.4655,      -14.8571,      -4.29517,   6.37067E-03
C:/temp/dataset/9/1_10.odb,Step-1,Increment      4: Step Time =    1.000,"PART-1-1",           438,       8.70526,       19.9066,            0.,NA,NA,"",       14.9430,      -14.5095,      -3.57325,   5.91098E-03
C:/temp/dataset/9/1_10.odb,Step-1,Increment      4: Step Time =    1.000,"PART-1-1",           439,       9.85134,       21.1719,            0.,NA,NA,"",       15.5478,      -15.2159,      -3.19557,   4.69245E-03
C:/temp/dataset/9/1_10.odb,Step-1,Increment      4: Step Time =    1.000,"PART-1-1",           440,       8.54068,       22.2321,            0.,NA,NA,"",       16.0473,      -15.5622,      -3.91593,   4.42737E-03
C:/temp/dataset/9/1_10.odb,Step-1,Increment      4: Step Time =    1.000,"PART-1-1",           441,       4.10864,       24.1658,            0.,NA,NA,"",       17.1183,      -15.9664,      -6.17340,   2.85763E-03
C:/temp/dataset/9/1_10.odb,Step-1,Increment      4: Step Time =    1.000,"PART-1-1",           442,       5.90921,       23.8009,            0.,NA,NA,"",       16.8526,      -15.9961,      -5.30408,   3.26743E-03
C:/temp/dataset/9/1_10.odb,Step-1,Increment      4: Step Time =    1.000,"PART-1-1",           443,       6.25965,       24.9450,            0.,NA,NA,"",       17.3767,      -16.5577,      -5.27190,   2.48134E-03
C:/temp/dataset/9/1_10.odb,Step-1,Increment      4: Step Time =    1.000,"PART-1-1",           444,   19.2837E-03,       28.6494,            0.,NA,NA,"",       19.5266,      -17.5606,      -8.53883,   790.713E-06
C:/temp/dataset/9/1_10.odb,Step-1,Increment      4: Step Time =    1.000,"PART-1-1",           445,       2.60045,       28.7372,            0.,NA,NA,"",       19.3456,      -17.8863,      -7.37093,   625.606E-06
C:/temp/dataset/9/1_10.odb,Step-1,Increment      4: Step Time =    1.000,"PART-1-1",           446,          1.25,           30.,            0.,NA,NA,"",       20.0348,      -18.3129,      -8.12605,   1.38685E-03
C:/temp/dataset/9/1_10.odb,Step-1,Increment      4: Step Time =    1.000,"PART-1-1",           447,      -7.67774,       29.0428,            0.,NA,NA,"",       20.7680,      -16.8926,      -12.0810,   6.05113E-03
C:/temp/dataset/9/1_10.odb,Step-1,Increment      4: Step Time =    1.000,"PART-1-1",           448,      -6.68998,       27.9093,            0.,NA,NA,"",       20.1050,      -16.4888,      -11.5035,   3.28877E-03
C:/temp/dataset/9/1_10.odb,Step-1,Increment      4: Step Time =    1.000,"PART-1-1",           449,         -6.25,           30.,            0.,NA,NA,"",       20.9484,      -17.4885,      -11.5321,   482.157E-06
C:/temp/dataset/9/1_10.odb,Step-1,Increment      4: Step Time =    1.000,"PART-1-1",           450,      -12.1701,       26.6384,            0.,NA,NA,"",       20.6659,      -15.3470,      -13.8401,   10.3249E-03
C:/temp/dataset/9/1_10.odb,Step-1,Increment      4: Step Time =    1.000,"PART-1-1",           451,      -13.7206,       27.8542,            0.,NA,NA,"",       21.5156,      -15.7314,      -14.6780,   10.4723E-03
C:/temp/dataset/9/1_10.odb,Step-1,Increment      4: Step Time =    1.000,"PART-1-1",           452,          -15.,       26.7188,            0.,NA,NA,"",       21.3681,      -15.0954,      -15.1236,   11.5097E-03
C:/temp/dataset/9/1_10.odb,Step-1,Increment      4: Step Time =    1.000,"PART-1-1",           453,        -13.75,           30.,            0.,NA,NA,"",       22.3941,      -16.6841,      -14.9376,   9.70502E-03
C:/temp/dataset/9/1_10.odb,Step-1,Increment      4: Step Time =    1.000,"PART-1-1",           454,          -15.,       28.9063,            0.,NA,NA,"",       22.2405,      -16.0692,      -15.3760,   10.2733E-03
C:/temp/dataset/9/1_10.odb,Step-1,Increment      4: Step Time =    1.000,"PART-1-1",           455,      -9.01567,       28.1413,            0.,NA,NA,"",       20.6299,      -16.3436,      -12.5889,   8.51889E-03
C:/temp/dataset/9/1_10.odb,Step-1,Increment      4: Step Time =    1.000,"PART-1-1",           456,         -8.75,           30.,            0.,NA,NA,"",       21.3780,      -17.2088,      -12.6837,   8.17847E-03
C:/temp/dataset/9/1_10.odb,Step-1,Increment      4: Step Time =    1.000,"PART-1-1",           457,      -10.9923,       18.6369,            0.,NA,NA,"",       17.2251,      -11.9397,      -12.4156,   9.66642E-03
C:/temp/dataset/9/1_10.odb,Step-1,Increment      4: Step Time =    1.000,"PART-1-1",           458,      -11.7056,       20.1347,            0.,NA,NA,"",       17.9754,      -12.5210,      -12.8974,   9.94361E-03
C:/temp/dataset/9/1_10.odb,Step-1,Increment      4: Step Time =    1.000,"PART-1-1",           459,      -12.2405,       18.0722,            0.,NA,NA,"",       17.3365,      -11.5689,      -12.9119,   9.44247E-03
C:/temp/dataset/9/1_10.odb,Step-1,Increment      4: Step Time =    1.000,"PART-1-1",           460,      -11.7153,       17.0060,            0.,NA,NA,"",       16.8034,      -11.1586,      -12.5635,   9.13296E-03
C:/temp/dataset/9/1_10.odb,Step-1,Increment      4: Step Time =    1.000,"PART-1-1",           461,      -12.7888,       16.5007,            0.,NA,NA,"",       16.9112,      -10.8312,      -12.9875,   8.45025E-03
C:/temp/dataset/9/1_10.odb,Step-1,Increment      4: Step Time =    1.000,"PART-1-1",           462,      -13.2634,       13.5986,            0.,NA,NA,"",       16.0267,      -9.52145,      -12.8917,   6.09769E-03
C:/temp/dataset/9/1_10.odb,Step-1,Increment      4: Step Time =    1.000,"PART-1-1",           463,      -14.1733,       14.6682,            0.,NA,NA,"",       16.6633,      -9.89575,      -13.4067,   5.76328E-03
C:/temp/dataset/9/1_10.odb,Step-1,Increment      4: Step Time =    1.000,"PART-1-1",           464,          -15.,       13.5938,            0.,NA,NA,"",       16.5489,      -9.34436,      -13.6582,   3.58041E-03
C:/temp/dataset/9/1_10.odb,Step-1,Increment      4: Step Time =    1.000,"PART-1-1",           465,      -6.04154,       10.1420,            0.,NA,NA,"",       12.7625,      -8.75051,      -9.29033,   13.8653E-03
C:/temp/dataset/9/1_10.odb,Step-1,Increment      4: Step Time =    1.000,"PART-1-1",           466,      -7.09581,       9.10381,            0.,NA,NA,"",       12.6563,      -8.19372,      -9.64598,   13.7093E-03
C:/temp/dataset/9/1_10.odb,Step-1,Increment      4: Step Time =    1.000,"PART-1-1",           467,      -6.05428,       7.71180,            0.,NA,NA,"",       11.8519,      -7.69299,      -9.01588,   17.0191E-03
C:/temp/dataset/9/1_10.odb,Step-1,Increment      4: Step Time =    1.000,"PART-1-1",           468,           -5.,          8.75,            0.,NA,NA,"",       11.9618,      -8.24560,      -8.66571,   17.7781E-03
C:/temp/dataset/9/1_10.odb,Step-1,Increment      4: Step Time =    1.000,"PART-1-1",           469,      -6.15708,       5.36159,            0.,NA,NA,"",       11.0241,      -6.65547,      -8.78837,   19.2917E-03
C:/temp/dataset/9/1_10.odb,Step-1,Increment      4: Step Time =    1.000,"PART-1-1",           470,           -5.,          6.25,            0.,NA,NA,"",       11.0097,      -7.16111,      -8.36248,   28.4783E-03
C:/temp/dataset/9/1_10.odb,Step-1,Increment      4: Step Time =    1.000,"PART-1-1",           471,      -13.8567,       3.63033,            0.,NA,NA,"",       13.1106,      -5.01947,      -12.1117,   2.73914E-03
C:/temp/dataset/9/1_10.odb,Step-1,Increment      4: Step Time =    1.000,"PART-1-1",           472,      -12.5372,       4.63979,            0.,NA,NA,"",       12.9111,      -5.62473,      -11.6215,   621.293E-06
C:/temp/dataset/9/1_10.odb,Step-1,Increment      4: Step Time =    1.000,"PART-1-1",           473,          -15.,       4.84375,            0.,NA,NA,"",       13.8733,      -5.44649,      -12.7595,   4.99771E-03
C:/temp/dataset/9/1_10.odb,Step-1,Increment      4: Step Time =    1.000,"PART-1-1",           474,      -12.7859,       2.45238,            0.,NA,NA,"",       12.3804,      -4.59879,      -11.4946,   1.28272E-03
C:/temp/dataset/9/1_10.odb,Step-1,Increment      4: Step Time =    1.000,"PART-1-1",           475,          -15.,       2.65625,            0.,NA,NA,"",       13.2932,      -4.44510,      -12.5279,   4.42088E-03
C:/temp/dataset/9/1_10.odb,Step-1,Increment      4: Step Time =    1.000,"PART-1-1",           476,      -13.7683,      -2.81830,            0.,NA,NA,"",       11.5390,      -2.05525,      -11.3545,   965.362E-06
C:/temp/dataset/9/1_10.odb,Step-1,Increment      4: Step Time =    1.000,"PART-1-1",           477,          -15.,      -3.90625,            0.,NA,NA,"",       11.8845,      -1.41269,      -11.8002,   261.375E-06
C:/temp/dataset/9/1_10.odb,Step-1,Increment      4: Step Time =    1.000,"PART-1-1",           478,        -13.75,           -5.,            0.,NA,NA,"",       11.1485,      -1.04859,      -11.0991,   295.368E-06
C:/temp/dataset/9/1_10.odb,Step-1,Increment      4: Step Time =    1.000,"PART-1-1",           479,      -12.5183,      -3.91205,            0.,NA,NA,"",       10.7869,      -1.68993,      -10.6537,   1.06898E-03
C:/temp/dataset/9/1_10.odb,Step-1,Increment      4: Step Time =    1.000,"PART-1-1",           480,      -3.91473,      -3.03803,            0.,NA,NA,"",       7.41586,      -3.09143,      -6.74078,   9.57070E-03
C:/temp/dataset/9/1_10.odb,Step-1,Increment      4: Step Time =    1.000,"PART-1-1",           481,      -5.07319,      -4.05962,            0.,NA,NA,"",       7.58570,      -2.47492,      -7.17061,   4.15240E-03
C:/temp/dataset/9/1_10.odb,Step-1,Increment      4: Step Time =    1.000,"PART-1-1",           482,         -3.75,           -5.,            0.,NA,NA,"",       6.80378,      -2.19373,      -6.44042,   5.89979E-03
C:/temp/dataset/9/1_10.odb,Step-1,Increment      4: Step Time =    1.000,"PART-1-1",           483,      -2.59153,      -3.97841,            0.,NA,NA,"",       6.64076,      -2.81860,      -6.01292,   9.96678E-03
C:/temp/dataset/9/1_10.odb,Step-1,Increment      4: Step Time =    1.000,"PART-1-1",           484,   563.435E-03,   72.7383E-03,            0.,NA,NA,"",       7.08769,      -5.06090,      -4.96211,   20.0734E-03
C:/temp/dataset/9/1_10.odb,Step-1,Increment      4: Step Time =    1.000,"PART-1-1",           485,  -536.863E-03,      -1.25885,            0.,NA,NA,"",       6.87503,      -4.33023,      -5.33995,   19.4509E-03
C:/temp/dataset/9/1_10.odb,Step-1,Increment      4: Step Time =    1.000,"PART-1-1",           486,       7.06616,      -9.87010,            0.,NA,NA,"",       2.49618,      -2.25267,      -1.07537,   57.3360E-03
C:/temp/dataset/9/1_10.odb,Step-1,Increment      4: Step Time =    1.000,"PART-1-1",           487,       6.02487,      -8.97716,            0.,NA,NA,"",       2.86282,      -2.46872,      -1.44953,   76.8301E-03
C:/temp/dataset/9/1_10.odb,Step-1,Increment      4: Step Time =    1.000,"PART-1-1",           488,            5.,      -10.2083,            0.,NA,NA,"",       2.69384,      -2.16662,      -1.60079,   91.8428E-03
C:/temp/dataset/9/1_10.odb,Step-1,Increment      4: Step Time =    1.000,"PART-1-1",           489,       13.0743,      -11.4048,            0.,NA,NA,"",       2.14651,      -2.08060,   527.859E-03,   50.2730E-03
C:/temp/dataset/9/1_10.odb,Step-1,Increment      4: Step Time =    1.000,"PART-1-1",           490,       14.0423,      -12.5586,            0.,NA,NA,"",       1.98630,      -1.84956,   724.249E-03,   66.3504E-03
C:/temp/dataset/9/1_10.odb,Step-1,Increment      4: Step Time =    1.000,"PART-1-1",           491,           15.,        -11.25,            0.,NA,NA,"",       2.44594,      -2.23548,   992.611E-03,   84.4475E-03
C:/temp/dataset/9/1_10.odb,Step-1,Increment      4: Step Time =    1.000,"PART-1-1",           492,       14.0319,      -10.0962,            0.,NA,NA,"",       2.60964,      -2.48682,   791.173E-03,   68.4496E-03
C:/temp/dataset/9/1_10.odb,Step-1,Increment      4: Step Time =    1.000,"PART-1-1",           493,       7.09943,      -16.3632,            0.,NA,NA,"",       1.11631,  -936.027E-03,  -608.281E-03,   51.6758E-03
C:/temp/dataset/9/1_10.odb,Step-1,Increment      4: Step Time =    1.000,"PART-1-1",           494,            5.,      -16.4583,            0.,NA,NA,"",       1.35864,  -957.666E-03,  -963.735E-03,   87.2511E-03
C:/temp/dataset/9/1_10.odb,Step-1,Increment      4: Step Time =    1.000,"PART-1-1",           495,       13.0966,      -13.8278,            0.,NA,NA,"",       1.59392,      -1.51709,   488.899E-03,   48.9157E-03
C:/temp/dataset/9/1_10.odb,Step-1,Increment      4: Step Time =    1.000,"PART-1-1",           496,       14.0543,      -15.0192,            0.,NA,NA,"",       1.46266,      -1.31591,   638.552E-03,   63.8157E-03
C:/temp/dataset/9/1_10.odb,Step-1,Increment      4: Step Time =    1.000,"PART-1-1",           497,           15.,        -13.75,            0.,NA,NA,"",       1.84939,      -1.62883,   875.883E-03,   81.2423E-03
C:/temp/dataset/9/1_10.odb,Step-1,Increment      4: Step Time =    1.000,"PART-1-1",           498,       13.0974,      -18.6352,            0.,NA,NA,"",   766.090E-03,  -676.575E-03,   359.361E-03,   44.7244E-03
C:/temp/dataset/9/1_10.odb,Step-1,Increment      4: Step Time =    1.000,"PART-1-1",           499,       14.0421,      -19.9133,            0.,NA,NA,"",   690.465E-03,  -540.717E-03,   429.380E-03,   57.6547E-03
C:/temp/dataset/9/1_10.odb,Step-1,Increment      4: Step Time =    1.000,"PART-1-1",           500,           15.,        -18.75,            0.,NA,NA,"",   946.090E-03,  -727.371E-03,   604.995E-03,   73.9267E-03
C:/temp/dataset/9/1_10.odb,Step-1,Increment      4: Step Time =    1.000,"PART-1-1",           501,       14.0553,      -17.4719,            0.,NA,NA,"",       1.03257,  -881.136E-03,   538.335E-03,   60.9362E-03
C:/temp/dataset/9/1_10.odb,Step-1,Increment      4: Step Time =    1.000,"PART-1-1",           502,       7.12541,      -22.7005,            0.,NA,NA,"",   354.933E-03,  -216.015E-03,  -281.630E-03,   46.4982E-03
C:/temp/dataset/9/1_10.odb,Step-1,Increment      4: Step Time =    1.000,"PART-1-1",           503,       6.04628,      -21.6612,            0.,NA,NA,"",   538.671E-03,  -319.169E-03,  -433.932E-03,   63.6582E-03
C:/temp/dataset/9/1_10.odb,Step-1,Increment      4: Step Time =    1.000,"PART-1-1",           504,            5.,      -22.7083,            0.,NA,NA,"",   529.316E-03,  -268.853E-03,  -455.954E-03,   77.9040E-03
C:/temp/dataset/9/1_10.odb,Step-1,Increment      4: Step Time =    1.000,"PART-1-1",           505,       6.07914,      -23.7476,            0.,NA,NA,"",   353.373E-03,  -170.063E-03,  -309.760E-03,   60.4704E-03
C:/temp/dataset/9/1_10.odb,Step-1,Increment      4: Step Time =    1.000,"PART-1-1",           506,       6.22304,      -27.8948,            0.,NA,NA,"",   92.1012E-03,  -20.5550E-03,  -89.7781E-03,   53.6881E-03
C:/temp/dataset/9/1_10.odb,Step-1,Increment      4: Step Time =    1.000,"PART-1-1",           507,            5.,      -28.9583,            0.,NA,NA,"",   66.0893E-03,  -37.3156E-03,  -54.5466E-03,   62.5509E-03
C:/temp/dataset/9/1_10.odb,Step-1,Increment      4: Step Time =    1.000,"PART-1-1",           508,          6.25,          -30.,            0.,NA,NA,"",            0.,  -283.932E-42,   5.16590E-39,   44.3878E-03
C:/temp/dataset/9/1_10.odb,Step-1,Increment      4: Step Time =    1.000,"PART-1-1",           509,       9.78444,      -26.6535,            0.,NA,NA,"",   20.8283E-03,  -1.22840E-03,  -20.7920E-03,   10.6462E-03
C:/temp/dataset/9/1_10.odb,Step-1,Increment      4: Step Time =    1.000,"PART-1-1",           510,       8.47427,      -25.6871,            0.,NA,NA,"",   98.7513E-03,  -37.6424E-03,  -91.2955E-03,   26.7690E-03
C:/temp/dataset/9/1_10.odb,Step-1,Increment      4: Step Time =    1.000,"PART-1-1",           511,       7.37694,      -26.8334,            0.,NA,NA,"",   103.738E-03,  -18.5284E-03,  -102.070E-03,   40.6119E-03
C:/temp/dataset/9/1_10.odb,Step-1,Increment      4: Step Time =    1.000,"PART-1-1",           512,       13.7223,      -27.5034,            0.,NA,NA,"",   87.9688E-03,  -20.1361E-03,   85.6332E-03,   43.9281E-03
C:/temp/dataset/9/1_10.odb,Step-1,Increment      4: Step Time =    1.000,"PART-1-1",           513,       12.4723,      -28.7534,            0.,NA,NA,"",   26.7940E-03,   12.0905E-03,   23.9110E-03,   26.0930E-03
C:/temp/dataset/9/1_10.odb,Step-1,Increment      4: Step Time =    1.000,"PART-1-1",           514,         13.75,          -30.,            0.,NA,NA,"",            0.,   41.4336E-42,  -3.81960E-39,   33.5312E-03
C:/temp/dataset/9/1_10.odb,Step-1,Increment      4: Step Time =    1.000,"PART-1-1",           515,           15.,        -28.75,            0.,NA,NA,"",   61.0654E-03,  -30.1181E-03,   53.1214E-03,   51.9922E-03
C:/temp/dataset/9/1_10.odb,Step-1,Increment      4: Step Time =    1.000,"PART-1-1",           516,         11.25,          -30.,            0.,NA,NA,"",            0.,  -13.8280E-42,  -1.17540E-39,   18.0070E-03
C:/temp/dataset/9/1_10.odb,Step-1,Increment      4: Step Time =    1.000,"PART-1-1",           517,       11.1864,      -27.6167,            0.,NA,NA,"",   23.8957E-03,   13.4240E-03,   19.7687E-03,   13.5149E-03
C:/temp/dataset/9/1_10.odb,Step-1,Increment      4: Step Time =    1.000,"PART-1-1",           518,       9.10684,      -20.5966,            0.,NA,NA,"",   410.616E-03,  -381.346E-03,  -152.252E-03,   18.9456E-03
C:/temp/dataset/9/1_10.odb,Step-1,Increment      4: Step Time =    1.000,"PART-1-1",           519,       11.0993,      -20.6881,            0.,NA,NA,"",   392.971E-03,  -385.869E-03,   74.3757E-03,   14.3959E-03
C:/temp/dataset/9/1_10.odb,Step-1,Increment      4: Step Time =    1.000,"PART-1-1",           520,       7.08739,      -20.6083,            0.,NA,NA,"",   549.536E-03,  -394.778E-03,  -382.282E-03,   48.7094E-03
C:/temp/dataset/9/1_10.odb,Step-1,Increment      4: Step Time =    1.000,"PART-1-1",           521,            5.,       -20.625,            0.,NA,NA,"",   756.058E-03,  -442.780E-03,  -612.837E-03,   81.3937E-03
C:/temp/dataset/9/1_10.odb,Step-1,Increment      4: Step Time =    1.000,"PART-1-1",           522,       9.14341,      -14.0595,            0.,NA,NA,"",       1.38863,      -1.34957,  -327.068E-03,   19.1413E-03
C:/temp/dataset/9/1_10.odb,Step-1,Increment      4: Step Time =    1.000,"PART-1-1",           523,       10.1582,      -15.1431,            0.,NA,NA,"",       1.16646,      -1.16254,  -95.5164E-03,   6.07768E-03
C:/temp/dataset/9/1_10.odb,Step-1,Increment      4: Step Time =    1.000,"PART-1-1",           524,       11.1509,      -13.9343,            0.,NA,NA,"",       1.42428,      -1.42160,   87.3707E-03,   16.8026E-03
C:/temp/dataset/9/1_10.odb,Step-1,Increment      4: Step Time =    1.000,"PART-1-1",           525,       10.1361,      -12.8507,            0.,NA,NA,"",       1.62753,      -1.62069,  -149.046E-03,   5.84466E-03
C:/temp/dataset/9/1_10.odb,Step-1,Increment      4: Step Time =    1.000,"PART-1-1",           526,       9.12292,      -11.8044,            0.,NA,NA,"",       1.87688,      -1.82890,  -421.690E-03,   19.6249E-03
C:/temp/dataset/9/1_10.odb,Step-1,Increment      4: Step Time =    1.000,"PART-1-1",           527,       11.1213,      -11.5948,            0.,NA,NA,"",       1.94290,      -1.94209,   56.1697E-03,   17.2038E-03
C:/temp/dataset/9/1_10.odb,Step-1,Increment      4: Step Time =    1.000,"PART-1-1",           528,       10.1081,      -10.5485,            0.,NA,NA,"",       2.17380,      -2.16231,  -223.280E-03,   6.01827E-03
C:/temp/dataset/9/1_10.odb,Step-1,Increment      4: Step Time =    1.000,"PART-1-1",           529,       13.8169,  -7.21098E-03,            0.,NA,NA,"",       6.18130,      -6.15515,   568.000E-03,   37.2106E-03
C:/temp/dataset/9/1_10.odb,Step-1,Increment      4: Step Time =    1.000,"PART-1-1",           530,           15.,          1.25,            0.,NA,NA,"",       6.88365,      -6.81536,   967.172E-03,   39.1983E-03
C:/temp/dataset/9/1_10.odb,Step-1,Increment      4: Step Time =    1.000,"PART-1-1",           531,       13.9075,       2.57030,            0.,NA,NA,"",       7.28786,      -7.27511,   430.878E-03,   26.1086E-03
C:/temp/dataset/9/1_10.odb,Step-1,Increment      4: Step Time =    1.000,"PART-1-1",           532,       10.8083,      -4.35361,            0.,NA,NA,"",       4.15152,      -4.14275,  -269.629E-03,   27.0520E-03
C:/temp/dataset/9/1_10.odb,Step-1,Increment      4: Step Time =    1.000,"PART-1-1",           533,       9.68548,      -3.40243,            0.,NA,NA,"",       4.48372,      -4.42586,  -717.960E-03,   27.8821E-03
C:/temp/dataset/9/1_10.odb,Step-1,Increment      4: Step Time =    1.000,"PART-1-1",           534,       8.81587,      -4.92348,            0.,NA,NA,"",       3.89900,      -3.79336,  -901.475E-03,   22.5950E-03
C:/temp/dataset/9/1_10.odb,Step-1,Increment      4: Step Time =    1.000,"PART-1-1",           535,       9.93870,      -5.87466,            0.,NA,NA,"",       3.56546,      -3.53404,  -472.317E-03,   17.6704E-03
C:/temp/dataset/9/1_10.odb,Step-1,Increment      4: Step Time =    1.000,"PART-1-1",           536,       10.7940,       8.23694,            0.,NA,NA,"",       9.54534,      -9.44536,      -1.37798,   6.62008E-03
C:/temp/dataset/9/1_10.odb,Step-1,Increment      4: Step Time =    1.000,"PART-1-1",           537,       11.2752,       6.42654,            0.,NA,NA,"",       8.75661,      -8.69961,  -997.421E-03,   8.43833E-03
C:/temp/dataset/9/1_10.odb,Step-1,Increment      4: Step Time =    1.000,"PART-1-1",           538,       12.8821,       8.67106,            0.,NA,NA,"",       9.86256,      -9.84892,  -518.681E-03,   11.8592E-03
C:/temp/dataset/9/1_10.odb,Step-1,Increment      4: Step Time =    1.000,"PART-1-1",           539,       14.0355,       7.50951,            0.,NA,NA,"",       9.45485,      -9.45448,   83.7687E-03,   16.3669E-03
C:/temp/dataset/9/1_10.odb,Step-1,Increment      4: Step Time =    1.000,"PART-1-1",           540,           15.,          8.75,            0.,NA,NA,"",       10.1173,      -10.1096,   393.829E-03,   18.4133E-03
C:/temp/dataset/9/1_10.odb,Step-1,Increment      4: Step Time =    1.000,"PART-1-1",           541,       13.8467,       9.91155,            0.,NA,NA,"",       10.5067,      -10.5045,  -213.963E-03,   13.5228E-03
C:/temp/dataset/9/1_10.odb,Step-1,Increment      4: Step Time =    1.000,"PART-1-1",           542,       12.4850,       16.2122,            0.,NA,NA,"",       13.2978,      -13.2184,      -1.45110,   6.53991E-03
C:/temp/dataset/9/1_10.odb,Step-1,Increment      4: Step Time =    1.000,"PART-1-1",           543,       13.7431,       14.9727,            0.,NA,NA,"",       12.8107,      -12.7884,  -755.142E-03,   8.55769E-03
C:/temp/dataset/9/1_10.odb,Step-1,Increment      4: Step Time =    1.000,"PART-1-1",           544,           15.,         16.25,            0.,NA,NA,"",       13.5197,      -13.5159,  -318.516E-03,   9.17185E-03
C:/temp/dataset/9/1_10.odb,Step-1,Increment      4: Step Time =    1.000,"PART-1-1",           545,       13.7419,       17.4895,            0.,NA,NA,"",       13.9820,      -13.9448,      -1.01963,   6.08760E-03
C:/temp/dataset/9/1_10.odb,Step-1,Increment      4: Step Time =    1.000,"PART-1-1",           546,       12.4991,       13.6576,            0.,NA,NA,"",       12.1091,      -12.0518,      -1.17629,   7.84481E-03
C:/temp/dataset/9/1_10.odb,Step-1,Increment      4: Step Time =    1.000,"PART-1-1",           547,       13.7559,       12.4349,            0.,NA,NA,"",       11.6432,      -11.6327,  -494.492E-03,   11.0077E-03
C:/temp/dataset/9/1_10.odb,Step-1,Increment      4: Step Time =    1.000,"PART-1-1",           548,           15.,         13.75,            0.,NA,NA,"",       12.3698,      -12.3696,  -67.7154E-03,   12.5695E-03
C:/temp/dataset/9/1_10.odb,Step-1,Increment      4: Step Time =    1.000,"PART-1-1",           549,           15.,         21.25,            0.,NA,NA,"",       15.8441,      -15.8212,  -852.359E-03,   2.98534E-03
C:/temp/dataset/9/1_10.odb,Step-1,Increment      4: Step Time =    1.000,"PART-1-1",           550,       13.6875,       22.5045,            0.,NA,NA,"",       16.3301,      -16.2522,      -1.59305,   1.91395E-03
C:/temp/dataset/9/1_10.odb,Step-1,Increment      4: Step Time =    1.000,"PART-1-1",           551,       12.4125,       21.2511,            0.,NA,NA,"",       15.6653,      -15.5324,      -2.03653,   3.59178E-03
C:/temp/dataset/9/1_10.odb,Step-1,Increment      4: Step Time =    1.000,"PART-1-1",           552,       13.7250,       19.9966,            0.,NA,NA,"",       15.1551,      -15.0993,      -1.29883,   3.76390E-03
C:/temp/dataset/9/1_10.odb,Step-1,Increment      4: Step Time =    1.000,"PART-1-1",           553,       13.6481,       25.0064,            0.,NA,NA,"",       17.5022,      -17.3999,      -1.88990,   736.904E-06
C:/temp/dataset/9/1_10.odb,Step-1,Increment      4: Step Time =    1.000,"PART-1-1",           554,       12.3356,       23.7609,            0.,NA,NA,"",       16.8457,      -16.6807,      -2.35230,   2.02351E-03
C:/temp/dataset/9/1_10.odb,Step-1,Increment      4: Step Time =    1.000,"PART-1-1",           555,           15.,         23.75,            0.,NA,NA,"",       17.0106,      -16.9731,      -1.12913,   1.11449E-03
C:/temp/dataset/9/1_10.odb,Step-1,Increment      4: Step Time =    1.000,"PART-1-1",           556,       13.7112,       27.5077,            0.,NA,NA,"",       18.6794,      -18.5564,      -2.14014,   142.872E-06
C:/temp/dataset/9/1_10.odb,Step-1,Increment      4: Step Time =    1.000,"PART-1-1",           557,           15.,         28.75,            0.,NA,NA,"",       19.3442,      -19.2704,      -1.68718,   24.4916E-06
C:/temp/dataset/9/1_10.odb,Step-1,Increment      4: Step Time =    1.000,"PART-1-1",           558,         13.75,           30.,            0.,NA,NA,"",       19.8503,      -19.7047,      -2.40031,   39.7394E-06
C:/temp/dataset/9/1_10.odb,Step-1,Increment      4: Step Time =    1.000,"PART-1-1",           559,            5.,      -24.7917,            0.,NA,NA,"",   343.567E-03,  -147.657E-03,  -310.219E-03,   73.3670E-03
C:/temp/dataset/9/1_10.odb,Step-1,Increment      4: Step Time =    1.000,"PART-1-1",           560,       6.15390,      -25.8136,            0.,NA,NA,"",   208.745E-03,  -73.6333E-03,  -195.327E-03,   56.5754E-03
C:/temp/dataset/9/1_10.odb,Step-1,Increment      4: Step Time =    1.000,"PART-1-1",           561,       7.23304,      -24.7696,            0.,NA,NA,"",   208.650E-03,  -92.2369E-03,  -187.156E-03,   43.9037E-03
C:/temp/dataset/9/1_10.odb,Step-1,Increment      4: Step Time =    1.000,"PART-1-1",           562,       13.0086,      -21.0119,            0.,NA,NA,"",   475.748E-03,  -388.725E-03,   274.279E-03,   41.0311E-03
C:/temp/dataset/9/1_10.odb,Step-1,Increment      4: Step Time =    1.000,"PART-1-1",           563,       13.9664,      -22.3485,            0.,NA,NA,"",   425.133E-03,  -287.587E-03,   313.100E-03,   53.2914E-03
C:/temp/dataset/9/1_10.odb,Step-1,Increment      4: Step Time =    1.000,"PART-1-1",           564,           15.,        -21.25,            0.,NA,NA,"",   625.686E-03,  -423.054E-03,   460.986E-03,   70.0090E-03
C:/temp/dataset/9/1_10.odb,Step-1,Increment      4: Step Time =    1.000,"PART-1-1",           565,            5.,       -26.875,            0.,NA,NA,"",   192.984E-03,  -75.8663E-03,  -177.446E-03,   68.6417E-03
C:/temp/dataset/9/1_10.odb,Step-1,Increment      4: Step Time =    1.000,"PART-1-1",           566,       12.9745,      -6.51631,            0.,NA,NA,"",       3.56409,      -3.52755,   509.021E-03,   49.1874E-03
C:/temp/dataset/9/1_10.odb,Step-1,Increment      4: Step Time =    1.000,"PART-1-1",           567,       14.0104,      -7.62731,            0.,NA,NA,"",       3.33845,      -3.23450,   826.589E-03,   68.3374E-03
C:/temp/dataset/9/1_10.odb,Step-1,Increment      4: Step Time =    1.000,"PART-1-1",           568,           15.,         -6.25,            0.,NA,NA,"",       3.95663,      -3.78670,       1.14711,   82.5310E-03
C:/temp/dataset/9/1_10.odb,Step-1,Increment      4: Step Time =    1.000,"PART-1-1",           569,       13.9641,      -5.13900,            0.,NA,NA,"",       4.17810,      -4.09876,   810.356E-03,   63.0110E-03
C:/temp/dataset/9/1_10.odb,Step-1,Increment      4: Step Time =    1.000,"PART-1-1",           570,       11.1649,      -16.2543,            0.,NA,NA,"",   994.238E-03,  -989.408E-03,   97.8848E-03,   16.4572E-03
C:/temp/dataset/9/1_10.odb,Step-1,Increment      4: Step Time =    1.000,"PART-1-1",           571,       9.14831,      -16.2933,            0.,NA,NA,"",   982.445E-03,  -949.266E-03,  -253.164E-03,   18.7544E-03
C:/temp/dataset/9/1_10.odb,Step-1,Increment      4: Step Time =    1.000,"PART-1-1",           572,            5.,        -8.125,            0.,NA,NA,"",       3.25819,      -2.68802,      -1.84130,   99.4954E-03
C:/temp/dataset/9/1_10.odb,Step-1,Increment      4: Step Time =    1.000,"PART-1-1",           573,       12.8519,      -3.99254,            0.,NA,NA,"",       4.45675,      -4.43815,   406.660E-03,   44.1788E-03
C:/temp/dataset/9/1_10.odb,Step-1,Increment      4: Step Time =    1.000,"PART-1-1",           574,           15.,         -3.75,            0.,NA,NA,"",       4.86572,      -4.72722,       1.15266,   71.6445E-03
C:/temp/dataset/9/1_10.odb,Step-1,Increment      4: Step Time =    1.000,"PART-1-1",           575,       13.8878,      -2.60354,            0.,NA,NA,"",       5.12988,      -5.07882,   722.023E-03,   51.3124E-03
C:/temp/dataset/9/1_10.odb,Step-1,Increment      4: Step Time =    1.000,"PART-1-1",           576,       13.0423,      -8.97351,            0.,NA,NA,"",       2.79976,      -2.74701,   540.895E-03,   50.8308E-03
C:/temp/dataset/9/1_10.odb,Step-1,Increment      4: Step Time =    1.000,"PART-1-1",           577,           15.,         -8.75,            0.,NA,NA,"",       3.14735,      -2.95351,       1.08746,   85.9205E-03
C:/temp/dataset/9/1_10.odb,Step-1,Increment      4: Step Time =    1.000,"PART-1-1",           578,       8.09346,      -21.6433,            0.,NA,NA,"",   369.719E-03,  -287.197E-03,  -232.831E-03,   33.1284E-03
C:/temp/dataset/9/1_10.odb,Step-1,Increment      4: Step Time =    1.000,"PART-1-1",           579,       8.17438,      -23.6967,            0.,NA,NA,"",   211.783E-03,  -136.302E-03,  -162.092E-03,   31.2262E-03
C:/temp/dataset/9/1_10.odb,Step-1,Increment      4: Step Time =    1.000,"PART-1-1",           580,       8.10077,      -19.5616,            0.,NA,NA,"",   581.800E-03,  -495.812E-03,  -304.405E-03,   33.9607E-03
C:/temp/dataset/9/1_10.odb,Step-1,Increment      4: Step Time =    1.000,"PART-1-1",           581,       8.11824,      -17.4194,            0.,NA,NA,"",   863.269E-03,  -772.460E-03,  -385.408E-03,   34.6333E-03
C:/temp/dataset/9/1_10.odb,Step-1,Increment      4: Step Time =    1.000,"PART-1-1",           582,          -15.,       22.3438,            0.,NA,NA,"",       19.6688,      -13.1610,      -14.6167,   13.0110E-03
C:/temp/dataset/9/1_10.odb,Step-1,Increment      4: Step Time =    1.000,"PART-1-1",           583,      -12.5647,       21.7347,            0.,NA,NA,"",       18.8067,      -13.1358,      -13.4589,   10.2288E-03
C:/temp/dataset/9/1_10.odb,Step-1,Increment      4: Step Time =    1.000,"PART-1-1",           584,      -4.95050,       22.5220,            0.,NA,NA,"",       17.4837,      -14.2506,      -10.1292,   3.76745E-03
C:/temp/dataset/9/1_10.odb,Step-1,Increment      4: Step Time =    1.000,"PART-1-1",           585,      -3.93081,       23.1260,            0.,NA,NA,"",       17.5706,      -14.6285,      -9.73301,   2.91082E-03
C:/temp/dataset/9/1_10.odb,Step-1,Increment      4: Step Time =    1.000,"PART-1-1",           586,      -4.22857,       24.4244,            0.,NA,NA,"",       18.1836,      -15.1815,      -10.0082,   1.60174E-03
C:/temp/dataset/9/1_10.odb,Step-1,Increment      4: Step Time =    1.000,"PART-1-1",           587,      -5.24826,       23.8204,            0.,NA,NA,"",       18.0921,      -14.8017,      -10.4035,   2.52647E-03
C:/temp/dataset/9/1_10.odb,Step-1,Increment      4: Step Time =    1.000,"PART-1-1",           588,      -10.1110,       10.4874,            0.,NA,NA,"",       14.0168,      -8.48769,      -11.1548,   8.80143E-03
C:/temp/dataset/9/1_10.odb,Step-1,Increment      4: Step Time =    1.000,"PART-1-1",           589,      -9.15687,       11.6944,            0.,NA,NA,"",       14.1737,      -9.11250,      -10.8561,   9.96230E-03
C:/temp/dataset/9/1_10.odb,Step-1,Increment      4: Step Time =    1.000,"PART-1-1",           590,      -11.1597,       11.6149,            0.,NA,NA,"",       14.7194,      -8.87175,      -11.7453,   7.96431E-03
C:/temp/dataset/9/1_10.odb,Step-1,Increment      4: Step Time =    1.000,"PART-1-1",           591,      -6.07359,       12.6401,            0.,NA,NA,"",       13.7302,      -9.83284,      -9.58292,   11.0531E-03
C:/temp/dataset/9/1_10.odb,Step-1,Increment      4: Step Time =    1.000,"PART-1-1",           592,      -7.11512,       11.5321,            0.,NA,NA,"",       13.5659,      -9.24859,      -9.92459,   11.5227E-03
C:/temp/dataset/9/1_10.odb,Step-1,Increment      4: Step Time =    1.000,"PART-1-1",           593,           -5.,         11.25,            0.,NA,NA,"",       12.9332,      -9.33390,      -8.95236,   13.6776E-03
C:/temp/dataset/9/1_10.odb,Step-1,Increment      4: Step Time =    1.000,"PART-1-1",           594,      -10.0988,       8.37440,            0.,NA,NA,"",       13.2836,      -7.56095,      -10.9218,   7.85292E-03
C:/temp/dataset/9/1_10.odb,Step-1,Increment      4: Step Time =    1.000,"PART-1-1",           595,      -9.11481,       9.38066,            0.,NA,NA,"",       13.3341,      -8.10674,      -10.5867,   10.1208E-03
C:/temp/dataset/9/1_10.odb,Step-1,Increment      4: Step Time =    1.000,"PART-1-1",           596,      -11.0949,       9.48111,            0.,NA,NA,"",       13.9683,      -7.94342,      -11.4898,   6.92904E-03
C:/temp/dataset/9/1_10.odb,Step-1,Increment      4: Step Time =    1.000,"PART-1-1",           597,      -11.8142,       15.6555,            0.,NA,NA,"",       16.3376,      -10.5624,      -12.4640,   8.76187E-03
C:/temp/dataset/9/1_10.odb,Step-1,Increment      4: Step Time =    1.000,"PART-1-1",           598,      -13.4062,       15.6218,            0.,NA,NA,"",       16.7719,      -10.3874,      -13.1681,   7.44519E-03
C:/temp/dataset/9/1_10.odb,Step-1,Increment      4: Step Time =    1.000,"PART-1-1",           599,      -12.4316,       14.7766,            0.,NA,NA,"",       16.1957,      -10.1183,      -12.6460,   7.73399E-03
C:/temp/dataset/9/1_10.odb,Step-1,Increment      4: Step Time =    1.000,"PART-1-1",           600,      -5.72199,       20.2132,            0.,NA,NA,"",       16.6578,      -13.1489,      -10.2268,   9.03508E-03
C:/temp/dataset/9/1_10.odb,Step-1,Increment      4: Step Time =    1.000,"PART-1-1",           601,           -5.,         18.75,            0.,NA,NA,"",       15.9301,      -12.5891,      -9.76120,   4.23696E-03
C:/temp/dataset/9/1_10.odb,Step-1,Increment      4: Step Time =    1.000,"PART-1-1",           602,          -15.,       15.7813,            0.,NA,NA,"",       17.2902,      -10.2984,      -13.8887,   6.80815E-03
C:/temp/dataset/9/1_10.odb,Step-1,Increment      4: Step Time =    1.000,"PART-1-1",           603,      -10.4105,       16.7429,            0.,NA,NA,"",       16.3641,      -11.1761,      -11.9532,   9.48880E-03
C:/temp/dataset/9/1_10.odb,Step-1,Increment      4: Step Time =    1.000,"PART-1-1",           604,      -12.1928,       12.6381,            0.,NA,NA,"",       15.3789,      -9.21190,      -12.3147,   6.91862E-03
C:/temp/dataset/9/1_10.odb,Step-1,Increment      4: Step Time =    1.000,"PART-1-1",           605,      -12.0987,       10.4443,            0.,NA,NA,"",       14.6039,      -8.26173,      -12.0423,   5.90378E-03
C:/temp/dataset/9/1_10.odb,Step-1,Increment      4: Step Time =    1.000,"PART-1-1",           606,      -7.50325,       4.80693,            0.,NA,NA,"",       11.2434,      -6.25476,      -9.34303,   9.67773E-03
C:/temp/dataset/9/1_10.odb,Step-1,Increment      4: Step Time =    1.000,"PART-1-1",           607,      -9.63824,       5.46172,            0.,NA,NA,"",       12.1608,      -6.31346,      -10.3935,   5.59285E-03
C:/temp/dataset/9/1_10.odb,Step-1,Increment      4: Step Time =    1.000,"PART-1-1",           608,      -8.81234,       4.25317,            0.,NA,NA,"",       11.4867,      -5.85870,      -9.88029,   6.32459E-03
C:/temp/dataset/9/1_10.odb,Step-1,Increment      4: Step Time =    1.000,"PART-1-1",           609,          -15.,      -1.71875,            0.,NA,NA,"",       12.2885,      -2.42467,      -12.0469,   1.44615E-03
C:/temp/dataset/9/1_10.odb,Step-1,Increment      4: Step Time =    1.000,"PART-1-1",           610,      -12.5835,      -1.75493,            0.,NA,NA,"",       11.2528,      -2.68088,      -10.9288,   1.70554E-03
C:/temp/dataset/9/1_10.odb,Step-1,Increment      4: Step Time =    1.000,"PART-1-1",           611,        -11.25,           -5.,            0.,NA,NA,"",       10.0323,      -1.32932,      -9.94388,   1.55336E-03
C:/temp/dataset/9/1_10.odb,Step-1,Increment      4: Step Time =    1.000,"PART-1-1",           612,      -10.0144,      -3.91217,            0.,NA,NA,"",       9.69836,      -1.97122,      -9.49592,   1.48743E-03
C:/temp/dataset/9/1_10.odb,Step-1,Increment      4: Step Time =    1.000,"PART-1-1",           613,      -11.2827,      -2.82422,            0.,NA,NA,"",       10.4702,      -2.33218,      -10.2071,   1.16645E-03
C:/temp/dataset/9/1_10.odb,Step-1,Increment      4: Step Time =    1.000,"PART-1-1",           614,         -8.75,           -5.,            0.,NA,NA,"",       8.92952,      -1.60940,      -8.78329,   2.03723E-03
C:/temp/dataset/9/1_10.odb,Step-1,Increment      4: Step Time =    1.000,"PART-1-1",           615,      -7.54904,      -4.01671,            0.,NA,NA,"",       8.62280,      -2.20350,      -8.33650,   1.64085E-03
C:/temp/dataset/9/1_10.odb,Step-1,Increment      4: Step Time =    1.000,"PART-1-1",           616,      -8.81345,      -2.92887,            0.,NA,NA,"",       9.40684,      -2.56303,      -9.05094,   1.31742E-03
C:/temp/dataset/9/1_10.odb,Step-1,Increment      4: Step Time =    1.000,"PART-1-1",           617,  -969.738E-03,       22.2544,            0.,NA,NA,"",       16.7448,      -14.5489,      -8.28976,   4.99308E-03
C:/temp/dataset/9/1_10.odb,Step-1,Increment      4: Step Time =    1.000,"PART-1-1",           618,      -2.31964,       21.1016,            0.,NA,NA,"",       16.4297,      -13.8868,      -8.78018,   6.90221E-03
C:/temp/dataset/9/1_10.odb,Step-1,Increment      4: Step Time =    1.000,"PART-1-1",           619,         -1.25,           20.,            0.,NA,NA,"",       15.7768,      -13.4987,      -8.16645,   8.14603E-03
C:/temp/dataset/9/1_10.odb,Step-1,Increment      4: Step Time =    1.000,"PART-1-1",           620,         -1.25,           30.,            0.,NA,NA,"",       20.2751,      -18.0353,      -9.26306,   1.49441E-03
C:/temp/dataset/9/1_10.odb,Step-1,Increment      4: Step Time =    1.000,"PART-1-1",           621,      -1.44357,       27.1449,            0.,NA,NA,"",       19.0034,      -16.7154,      -9.04004,   320.508E-06
C:/temp/dataset/9/1_10.odb,Step-1,Increment      4: Step Time =    1.000,"PART-1-1",           622,      -4.58492,       21.1383,            0.,NA,NA,"",       16.8290,      -13.6696,      -9.81626,   7.16520E-03
C:/temp/dataset/9/1_10.odb,Step-1,Increment      4: Step Time =    1.000,"PART-1-1",           623,         -3.75,           20.,            0.,NA,NA,"",       16.1918,      -13.2462,      -9.31187,   12.2526E-03
C:/temp/dataset/9/1_10.odb,Step-1,Increment      4: Step Time =    1.000,"PART-1-1",           624,      -3.15456,       22.2398,            0.,NA,NA,"",       17.0602,      -14.3119,      -9.28540,   4.07143E-03
C:/temp/dataset/9/1_10.odb,Step-1,Increment      4: Step Time =    1.000,"PART-1-1",           625,      -11.2479,       22.4027,            0.,NA,NA,"",       18.7472,      -13.5615,      -12.9438,   9.83599E-03
C:/temp/dataset/9/1_10.odb,Step-1,Increment      4: Step Time =    1.000,"PART-1-1",           626,      -10.3888,       20.8027,            0.,NA,NA,"",       17.9128,      -12.9449,      -12.3813,   9.58372E-03
C:/temp/dataset/9/1_10.odb,Step-1,Increment      4: Step Time =    1.000,"PART-1-1",           627,       9.41561,      -24.6142,            0.,NA,NA,"",   97.7328E-03,  -78.0925E-03,  -58.7645E-03,   14.8737E-03
C:/temp/dataset/9/1_10.odb,Step-1,Increment      4: Step Time =    1.000,"PART-1-1",           628,           15.,        -16.25,            0.,NA,NA,"",       1.35156,      -1.12776,   744.895E-03,   77.6719E-03
C:/temp/dataset/9/1_10.odb,Step-1,Increment      4: Step Time =    1.000,"PART-1-1",           629,       13.1096,      -16.2411,            0.,NA,NA,"",       1.13556,      -1.05044,   431.351E-03,   47.0973E-03
C:/temp/dataset/9/1_10.odb,Step-1,Increment      4: Step Time =    1.000,"PART-1-1",           630,           15.,          3.75,            0.,NA,NA,"",       7.94272,      -7.90246,   798.745E-03,   27.7755E-03
C:/temp/dataset/9/1_10.odb,Step-1,Increment      4: Step Time =    1.000,"PART-1-1",           631,       14.0093,       5.06690,            0.,NA,NA,"",       8.38017,      -8.37553,   278.703E-03,   19.6237E-03
C:/temp/dataset/9/1_10.odb,Step-1,Increment      4: Step Time =    1.000,"PART-1-1",           632,       12.9168,       3.88721,            0.,NA,NA,"",       7.75112,      -7.75070,  -80.9421E-03,   19.0549E-03
C:/temp/dataset/9/1_10.odb,Step-1,Increment      4: Step Time =    1.000,"PART-1-1",           633,       12.6026,       11.0965,            0.,NA,NA,"",       10.9387,      -10.9038,  -872.481E-03,   9.48898E-03
C:/temp/dataset/9/1_10.odb,Step-1,Increment      4: Step Time =    1.000,"PART-1-1",           634,           15.,         11.25,            0.,NA,NA,"",       11.2344,      -11.2331,   169.862E-03,   15.6421E-03
C:/temp/dataset/9/1_10.odb,Step-1,Increment      4: Step Time =    1.000,"PART-1-1",           635,       12.4669,       18.7361,            0.,NA,NA,"",       14.4822,      -14.3781,      -1.73315,   5.16648E-03
C:/temp/dataset/9/1_10.odb,Step-1,Increment      4: Step Time =    1.000,"PART-1-1",           636,           15.,         18.75,            0.,NA,NA,"",       14.6794,      -14.6678,  -580.976E-03,   5.81003E-03
C:/temp/dataset/9/1_10.odb,Step-1,Increment      4: Step Time =    1.000,"PART-1-1",           637,           15.,         26.25,            0.,NA,NA,"",       18.1772,      -18.1226,      -1.40804,   212.216E-06
C:/temp/dataset/9/1_10.odb,Step-1,Increment      4: Step Time =    1.000,"PART-1-1",           638,          8.75,           30.,            0.,NA,NA,"",       19.7148,      -19.1479,      -4.69386,   133.664E-06
C:/temp/dataset/9/1_10.odb,Step-1,Increment      4: Step Time =    1.000,"PART-1-1",           639,       8.74802,       27.8391,            0.,NA,NA,"",       18.6954,      -18.1571,      -4.45385,   591.366E-06
C:/temp/dataset/9/1_10.odb,Step-1,Increment      4: Step Time =    1.000,"PART-1-1",           640,       11.0691,       22.4572,            0.,NA,NA,"",       16.1821,      -15.9406,      -2.78517,   3.11693E-03
C:/temp/dataset/9/1_10.odb,Step-1,Increment      4: Step Time =    1.000,"PART-1-1",           641,       11.1947,       19.9658,            0.,NA,NA,"",       15.0068,      -14.8059,      -2.44750,   4.70423E-03
C:/temp/dataset/9/1_10.odb,Step-1,Increment      4: Step Time =    1.000,"PART-1-1",           642,          3.75,           30.,            0.,NA,NA,"",       19.8603,      -18.5915,      -6.98467,   773.277E-06
C:/temp/dataset/9/1_10.odb,Step-1,Increment      4: Step Time =    1.000,"PART-1-1",           643,       6.12801,       21.9878,            0.,NA,NA,"",       15.9907,      -15.1900,      -4.99671,   5.15087E-03
C:/temp/dataset/9/1_10.odb,Step-1,Increment      4: Step Time =    1.000,"PART-1-1",           644,       7.06684,       23.0702,            0.,NA,NA,"",       16.4690,      -15.7875,      -4.68847,   4.05484E-03
C:/temp/dataset/9/1_10.odb,Step-1,Increment      4: Step Time =    1.000,"PART-1-1",           645,       4.97038,       22.7185,            0.,NA,NA,"",       16.3905,      -15.3991,      -5.61395,   4.01723E-03
C:/temp/dataset/9/1_10.odb,Step-1,Increment      4: Step Time =    1.000,"PART-1-1",           646,          3.75,           20.,            0.,NA,NA,"",       15.2000,      -14.0216,      -5.86795,   7.53060E-03
C:/temp/dataset/9/1_10.odb,Step-1,Increment      4: Step Time =    1.000,"PART-1-1",           647,       4.96897,       20.9583,            0.,NA,NA,"",       15.5648,      -14.5929,      -5.41385,   5.99128E-03
C:/temp/dataset/9/1_10.odb,Step-1,Increment      4: Step Time =    1.000,"PART-1-1",           648,       3.78616,       22.0655,            0.,NA,NA,"",       16.1616,      -14.9719,      -6.08598,   3.97751E-03
C:/temp/dataset/9/1_10.odb,Step-1,Increment      4: Step Time =    1.000,"PART-1-1",           649,           -5.,         13.75,            0.,NA,NA,"",       13.9196,      -10.4190,      -9.23038,   10.4567E-03
C:/temp/dataset/9/1_10.odb,Step-1,Increment      4: Step Time =    1.000,"PART-1-1",           650,      -7.15256,       14.0792,            0.,NA,NA,"",       14.5443,      -10.3501,      -10.2182,   9.53480E-03
C:/temp/dataset/9/1_10.odb,Step-1,Increment      4: Step Time =    1.000,"PART-1-1",           651,      -9.70164,       19.1500,            0.,NA,NA,"",       17.1045,      -12.2925,      -11.8936,   9.83426E-03
C:/temp/dataset/9/1_10.odb,Step-1,Increment      4: Step Time =    1.000,"PART-1-1",           652,      -9.13060,       21.5024,            0.,NA,NA,"",       17.9006,      -13.3777,      -11.8942,   9.20544E-03
C:/temp/dataset/9/1_10.odb,Step-1,Increment      4: Step Time =    1.000,"PART-1-1",           653,         -1.25,           -5.,            0.,NA,NA,"",       5.83700,      -2.50818,      -5.27063,   12.6856E-03
C:/temp/dataset/9/1_10.odb,Step-1,Increment      4: Step Time =    1.000,"PART-1-1",           654,      -1.47244,      -2.77860,            0.,NA,NA,"",       6.62987,      -3.51833,      -5.61930,   15.4930E-03
C:/temp/dataset/9/1_10.odb,Step-1,Increment      4: Step Time =    1.000,"PART-1-1",           655,      -9.96758,      -1.61086,            0.,NA,NA,"",       10.2018,      -3.04167,      -9.73777,   1.57310E-03
C:/temp/dataset/9/1_10.odb,Step-1,Increment      4: Step Time =    1.000,"PART-1-1",           656,      -6.37223,      -3.07632,            0.,NA,NA,"",       8.36767,      -2.77763,      -7.89320,   4.80759E-03
C:/temp/dataset/9/1_10.odb,Step-1,Increment      4: Step Time =    1.000,"PART-1-1",           657,         -6.25,           -5.,            0.,NA,NA,"",       7.84662,      -1.89528,      -7.61429,   203.345E-06
C:/temp/dataset/9/1_10.odb,Step-1,Increment      4: Step Time =    1.000,"PART-1-1",           658,         -3.75,            5.,            0.,NA,NA,"",       10.1809,      -6.79874,      -7.57812,   9.67374E-03
C:/temp/dataset/9/1_10.odb,Step-1,Increment      4: Step Time =    1.000,"PART-1-1",           659,      -5.11170,       4.23117,            0.,NA,NA,"",       10.2816,      -6.26048,      -8.15579,   22.3704E-03
C:/temp/dataset/9/1_10.odb,Step-1,Increment      4: Step Time =    1.000,"PART-1-1",           660,      -3.95473,       3.29190,            0.,NA,NA,"",       9.56719,      -5.97120,      -7.47502,   18.9175E-03
C:/temp/dataset/9/1_10.odb,Step-1,Increment      4: Step Time =    1.000,"PART-1-1",           661,          3.75,           -5.,            0.,NA,NA,"",       4.34643,      -3.20225,      -2.93889,   60.5110E-03
C:/temp/dataset/9/1_10.odb,Step-1,Increment      4: Step Time =    1.000,"PART-1-1",           662,       4.69008,      -3.66648,            0.,NA,NA,"",       4.73903,      -3.95371,      -2.61279,   70.3720E-03
C:/temp/dataset/9/1_10.odb,Step-1,Increment      4: Step Time =    1.000,"PART-1-1",           663,       4.69636,       3.71818,            0.,NA,NA,"",       7.85656,      -7.03630,      -3.49514,   28.5138E-03
C:/temp/dataset/9/1_10.odb,Step-1,Increment      4: Step Time =    1.000,"PART-1-1",           664,          3.75,            5.,            0.,NA,NA,"",       8.52466,      -7.50602,      -4.04096,   36.0575E-03
C:/temp/dataset/9/1_10.odb,Step-1,Increment      4: Step Time =    1.000,"PART-1-1",           665,       8.42013,       25.7200,            0.,NA,NA,"",       17.6968,      -17.1496,      -4.36693,   1.63934E-03
C:/temp/dataset/9/1_10.odb,Step-1,Increment      4: Step Time =    1.000,"PART-1-1",           666,       7.55622,       27.1849,            0.,NA,NA,"",       18.3976,      -17.7255,      -4.92754,   1.06558E-03
C:/temp/dataset/9/1_10.odb,Step-1,Increment      4: Step Time =    1.000,"PART-1-1",           667,       6.61388,       26.0906,            0.,NA,NA,"",       17.9039,      -17.1206,      -5.23772,   1.67871E-03
C:/temp/dataset/9/1_10.odb,Step-1,Increment      4: Step Time =    1.000,"PART-1-1",           668,       10.0237,       13.5556,            0.,NA,NA,"",       11.9595,      -11.7428,      -2.26614,   6.15008E-03
C:/temp/dataset/9/1_10.odb,Step-1,Increment      4: Step Time =    1.000,"PART-1-1",           669,       8.80148,       12.2659,            0.,NA,NA,"",       11.3533,      -11.0354,      -2.66766,   6.64864E-03
C:/temp/dataset/9/1_10.odb,Step-1,Increment      4: Step Time =    1.000,"PART-1-1",           670,            5.,          6.25,            0.,NA,NA,"",       8.85401,      -8.06773,      -3.64763,   28.1223E-03
C:/temp/dataset/9/1_10.odb,Step-1,Increment      4: Step Time =    1.000,"PART-1-1",           671,       5.87545,       4.76801,            0.,NA,NA,"",       8.15991,      -7.54060,      -3.11826,   30.2989E-03
C:/temp/dataset/9/1_10.odb,Step-1,Increment      4: Step Time =    1.000,"PART-1-1",           672,       6.93940,       5.78737,            0.,NA,NA,"",       8.50564,      -8.04005,      -2.77551,   16.9174E-03
C:/temp/dataset/9/1_10.odb,Step-1,Increment      4: Step Time =    1.000,"PART-1-1",           673,       7.73520,       4.18036,            0.,NA,NA,"",       7.77138,      -7.43454,      -2.26316,   22.5373E-03
C:/temp/dataset/9/1_10.odb,Step-1,Increment      4: Step Time =    1.000,"PART-1-1",           674,       6.49581,       3.34316,            0.,NA,NA,"",       7.49762,      -6.99809,      -2.69091,   32.3380E-03
C:/temp/dataset/9/1_10.odb,Step-1,Increment      4: Step Time =    1.000,"PART-1-1",           675,       7.18979,       1.82766,            0.,NA,NA,"",       6.78677,      -6.41225,      -2.22336,   31.7009E-03
C:/temp/dataset/9/1_10.odb,Step-1,Increment      4: Step Time =    1.000,"PART-1-1",           676,       8.42918,       2.66485,            0.,NA,NA,"",       7.08424,      -6.85008,      -1.80632,   25.4699E-03
C:/temp/dataset/9/1_10.odb,Step-1,Increment      4: Step Time =    1.000,"PART-1-1",           677,  -530.051E-03,       1.39108,            0.,NA,NA,"",       7.87442,      -5.51922,      -5.61647,   17.8730E-03
C:/temp/dataset/9/1_10.odb,Step-1,Increment      4: Step Time =    1.000,"PART-1-1",           678,      -10.1792,       3.73358,            0.,NA,NA,"",       11.7933,      -5.47204,      -10.4470,   3.60667E-03
C:/temp/dataset/9/1_10.odb,Step-1,Increment      4: Step Time =    1.000,"PART-1-1",           679,      -9.26781,       2.30942,            0.,NA,NA,"",       11.0257,      -4.92278,      -9.86573,   4.86210E-03
C:/temp/dataset/9/1_10.odb,Step-1,Increment      4: Step Time =    1.000,"PART-1-1",           680,      -7.90097,       2.82902,            0.,NA,NA,"",       10.7051,      -5.31146,      -9.29453,   8.20943E-03
C:/temp/dataset/9/1_10.odb,Step-1,Increment      4: Step Time =    1.000,"PART-1-1",           681,      -2.90861,       2.25641,            0.,NA,NA,"",       8.86314,      -5.62665,      -6.84807,   18.9046E-03
C:/temp/dataset/9/1_10.odb,Step-1,Increment      4: Step Time =    1.000,"PART-1-1",           682,      -1.97153,   737.020E-03,            0.,NA,NA,"",       8.02292,      -5.05323,      -6.23154,   19.7742E-03
C:/temp/dataset/9/1_10.odb,Step-1,Increment      4: Step Time =    1.000,"PART-1-1",           683,      -12.0057,       8.33468,            0.,NA,NA,"",       13.8780,      -7.34050,      -11.7777,   4.54474E-03
C:/temp/dataset/9/1_10.odb,Step-1,Increment      4: Step Time =    1.000,"PART-1-1",           684,   257.111E-03,       23.5381,            0.,NA,NA,"",       17.1718,      -15.2621,      -7.87017,   3.31824E-03
C:/temp/dataset/9/1_10.odb,Step-1,Increment      4: Step Time =    1.000,"PART-1-1",           685,       2.92443,       23.5127,            0.,NA,NA,"",       16.9003,      -15.5393,      -6.64474,   3.21174E-03
C:/temp/dataset/9/1_10.odb,Step-1,Increment      4: Step Time =    1.000,"PART-1-1",           686,  -872.814E-03,       24.6452,            0.,NA,NA,"",       17.8065,      -15.6426,      -8.50774,   2.02923E-03
C:/temp/dataset/9/1_10.odb,Step-1,Increment      4: Step Time =    1.000,"PART-1-1",           687,      -2.49287,       25.7554,            0.,NA,NA,"",       18.5140,      -15.9703,      -9.36563,   723.211E-06
C:/temp/dataset/9/1_10.odb,Step-1,Increment      4: Step Time =    1.000,"PART-1-1",           688,      -6.57000,       23.0679,            0.,NA,NA,"",       18.0128,      -14.3278,      -10.9167,   5.16663E-03
C:/temp/dataset/9/1_10.odb,Step-1,Increment      4: Step Time =    1.000,"PART-1-1",           689,      -7.77911,       22.2181,            0.,NA,NA,"",       17.9002,      -13.8283,      -11.3664,   7.74121E-03
C:/temp/dataset/9/1_10.odb,Step-1,Increment      4: Step Time =    1.000,"PART-1-1",           690,      -6.08757,       21.5970,            0.,NA,NA,"",       17.3032,      -13.7227,      -10.5399,   7.06182E-03
C:/temp/dataset/9/1_10.odb,Step-1,Increment      4: Step Time =    1.000,"PART-1-1",           691,      -10.6596,       24.7502,            0.,NA,NA,"",       19.5566,      -14.6596,      -12.9444,   9.37806E-03
C:/temp/dataset/9/1_10.odb,Step-1,Increment      4: Step Time =    1.000,"PART-1-1",           692,      -8.94190,       25.0911,            0.,NA,NA,"",       19.3304,      -14.9865,      -12.2093,   7.64211E-03
C:/temp/dataset/9/1_10.odb,Step-1,Increment      4: Step Time =    1.000,"PART-1-1",           693,      -9.30563,       26.3338,            0.,NA,NA,"",       19.9241,      -15.5038,      -12.5140,   8.22102E-03
C:/temp/dataset/9/1_10.odb,Step-1,Increment      4: Step Time =    1.000,"PART-1-1",           694,      -11.0233,       25.9928,            0.,NA,NA,"",       20.1461,      -15.1758,      -13.2499,   9.82102E-03
C:/temp/dataset/9/1_10.odb,Step-1,Increment      4: Step Time =    1.000,"PART-1-1",           695,      -9.11986,       17.2561,            0.,NA,NA,"",       16.2355,      -11.5290,      -11.4314,   9.61889E-03
C:/temp/dataset/9/1_10.odb,Step-1,Increment      4: Step Time =    1.000,"PART-1-1",           696,      -11.0116,       7.65423,            0.,NA,NA,"",       13.3325,      -7.14457,      -11.2566,   5.56695E-03
C:/temp/dataset/9/1_10.odb,Step-1,Increment      4: Step Time =    1.000,"PART-1-1",           697,      -11.6541,       6.30856,            0.,NA,NA,"",       13.1120,      -6.47433,      -11.4021,   3.13264E-03
C:/temp/dataset/9/1_10.odb,Step-1,Increment      4: Step Time =    1.000,"PART-1-1",           698,      -3.46647,   792.949E-03,            0.,NA,NA,"",       8.50408,      -4.89689,      -6.95268,   18.2867E-03
C:/temp/dataset/9/1_10.odb,Step-1,Increment      4: Step Time =    1.000,"PART-1-1",           699,      -4.27899,       1.61468,            0.,NA,NA,"",       9.05743,      -5.17192,      -7.43561,   17.9641E-03
C:/temp/dataset/9/1_10.odb,Step-1,Increment      4: Step Time =    1.000,"PART-1-1",           700,      -5.41602,       1.03976,            0.,NA,NA,"",       9.24295,      -4.77736,      -7.91258,   14.4334E-03
C:/temp/dataset/9/1_10.odb,Step-1,Increment      4: Step Time =    1.000,"PART-1-1",           701,      -4.60351,   218.037E-03,            0.,NA,NA,"",       8.68736,      -4.49976,      -7.43117,   14.8443E-03
C:/temp/dataset/9/1_10.odb,Step-1,Increment      4: Step Time =    1.000,"PART-1-1",           702,      -1.96165,  -510.209E-03,            0.,NA,NA,"",       7.56933,      -4.49149,      -6.09272,   17.8089E-03
C:/temp/dataset/9/1_10.odb,Step-1,Increment      4: Step Time =    1.000,"PART-1-1",           703,      -2.89723,      -2.02996,            0.,NA,NA,"",       7.35957,      -3.68266,      -6.37191,   13.7269E-03
C:/temp/dataset/9/1_10.odb,Step-1,Increment      4: Step Time =    1.000,"PART-1-1",           704,       6.46823,      -3.22891,            0.,NA,NA,"",       4.67909,      -4.27229,      -1.90824,   44.6905E-03
C:/temp/dataset/9/1_10.odb,Step-1,Increment      4: Step Time =    1.000,"PART-1-1",           705,       5.30305,      -2.18626,            0.,NA,NA,"",       5.25682,      -4.60693,      -2.53187,   39.8530E-03
C:/temp/dataset/9/1_10.odb,Step-1,Increment      4: Step Time =    1.000,"PART-1-1",           706,       8.11637,      -13.0290,            0.,NA,NA,"",       1.65506,      -1.54413,  -595.728E-03,   36.5644E-03
C:/temp/dataset/9/1_10.odb,Step-1,Increment      4: Step Time =    1.000,"PART-1-1",           707,       8.09759,      -10.8135,            0.,NA,NA,"",       2.16680,      -2.03952,  -731.696E-03,   37.4166E-03
C:/temp/dataset/9/1_10.odb,Step-1,Increment      4: Step Time =    1.000,"PART-1-1",           708,           15.,        -26.25,            0.,NA,NA,"",   197.857E-03,  -83.5528E-03,   179.350E-03,   60.2740E-03
C:/temp/dataset/9/1_10.odb,Step-1,Increment      4: Step Time =    1.000,"PART-1-1",           709,       13.6129,      -24.9005,            0.,NA,NA,"",   211.394E-03,  -106.788E-03,   182.438E-03,   45.0581E-03
C:/temp/dataset/9/1_10.odb,Step-1,Increment      4: Step Time =    1.000,"PART-1-1",           710,       12.3352,      -26.1538,            0.,NA,NA,"",   88.7031E-03,  -32.2431E-03,   82.6355E-03,   28.0031E-03
C:/temp/dataset/9/1_10.odb,Step-1,Increment      4: Step Time =    1.000,"PART-1-1",           711,       11.5115,      -24.0900,            0.,NA,NA,"",   139.252E-03,  -115.844E-03,   77.2749E-03,   18.2343E-03
C:/temp/dataset/9/1_10.odb,Step-1,Increment      4: Step Time =    1.000,"PART-1-1",           712,       12.5793,      -23.4990,            0.,NA,NA,"",   235.128E-03,  -168.597E-03,   163.891E-03,   32.9545E-03
C:/temp/dataset/9/1_10.odb,Step-1,Increment      4: Step Time =    1.000,"PART-1-1",           713,       11.9958,      -21.9645,            0.,NA,NA,"",   315.679E-03,  -277.461E-03,   150.561E-03,   25.8478E-03
C:/temp/dataset/9/1_10.odb,Step-1,Increment      4: Step Time =    1.000,"PART-1-1",           714,           15.,        -23.75,            0.,NA,NA,"",   380.618E-03,  -210.232E-03,   317.290E-03,   65.4755E-03
C:/temp/dataset/9/1_10.odb,Step-1,Increment      4: Step Time =    1.000,"PART-1-1",           715,       11.0775,      -9.24199,            0.,NA,NA,"",       2.55500,      -2.55500,  -262.585E-06,   18.8408E-03
C:/temp/dataset/9/1_10.odb,Step-1,Increment      4: Step Time =    1.000,"PART-1-1",           716,       10.0590,      -8.23408,            0.,NA,NA,"",       2.81129,      -2.79259,  -323.759E-03,   8.25741E-03
C:/temp/dataset/9/1_10.odb,Step-1,Increment      4: Step Time =    1.000,"PART-1-1",           717,       9.08966,      -9.54059,            0.,NA,NA,"",       2.44670,      -2.38642,  -539.770E-03,   18.9223E-03
C:/temp/dataset/9/1_10.odb,Step-1,Increment      4: Step Time =    1.000,"PART-1-1",           718,           15.,         -1.25,            0.,NA,NA,"",       5.85109,      -5.74845,       1.09112,   55.3011E-03
C:/temp/dataset/9/1_10.odb,Step-1,Increment      4: Step Time =    1.000,"PART-1-1",           719,       12.7047,      -1.36075,            0.,NA,NA,"",       5.48797,      -5.48335,   225.232E-03,   36.2383E-03
C:/temp/dataset/9/1_10.odb,Step-1,Increment      4: Step Time =    1.000,"PART-1-1",           720,       10.4122,      -1.52824,            0.,NA,NA,"",       5.26746,      -5.23223,  -608.205E-03,   28.5340E-03
C:/temp/dataset/9/1_10.odb,Step-1,Increment      4: Step Time =    1.000,"PART-1-1",           721,       11.7321,      -2.88547,            0.,NA,NA,"",       4.78194,      -4.78181,  -35.6815E-03,   34.1871E-03
C:/temp/dataset/9/1_10.odb,Step-1,Increment      4: Step Time =    1.000,"PART-1-1",           722,       13.0447,       6.32641,            0.,NA,NA,"",       8.83312,      -8.82994,  -236.854E-03,   14.7197E-03
C:/temp/dataset/9/1_10.odb,Step-1,Increment      4: Step Time =    1.000,"PART-1-1",           723,           15.,          6.25,            0.,NA,NA,"",       9.02041,      -9.00015,   604.259E-03,   21.6484E-03
C:/temp/dataset/9/1_10.odb,Step-1,Increment      4: Step Time =    1.000,"PART-1-1",           724,       12.2773,       7.44357,            0.,NA,NA,"",       9.26779,      -9.24388,  -665.353E-03,   10.5294E-03
C:/temp/dataset/9/1_10.odb,Step-1,Increment      4: Step Time =    1.000,"PART-1-1",           725,       11.3989,       9.46443,            0.,NA,NA,"",       10.1247,      -10.0488,      -1.23755,   7.21189E-03
C:/temp/dataset/9/1_10.odb,Step-1,Increment      4: Step Time =    1.000,"PART-1-1",           726,       10.0696,       10.6576,            0.,NA,NA,"",       10.6230,      -10.4448,      -1.93767,   6.01034E-03
C:/temp/dataset/9/1_10.odb,Step-1,Increment      4: Step Time =    1.000,"PART-1-1",           727,       11.2733,       12.2896,            0.,NA,NA,"",       11.4109,      -11.3012,      -1.57833,   6.51862E-03
C:/temp/dataset/9/1_10.odb,Step-1,Increment      4: Step Time =    1.000,"PART-1-1",           728,       11.2495,       14.9235,            0.,NA,NA,"",       12.6334,      -12.4947,      -1.86723,   6.08881E-03
C:/temp/dataset/9/1_10.odb,Step-1,Increment      4: Step Time =    1.000,"PART-1-1",           729,       11.2365,       17.4638,            0.,NA,NA,"",       13.8259,      -13.6577,      -2.14992,   5.65656E-03
C:/temp/dataset/9/1_10.odb,Step-1,Increment      4: Step Time =    1.000,"PART-1-1",           730,       9.96430,       18.6935,            0.,NA,NA,"",       14.3741,      -14.0862,      -2.86273,   5.88929E-03
C:/temp/dataset/9/1_10.odb,Step-1,Increment      4: Step Time =    1.000,"PART-1-1",           731,       8.12949,      -15.2371,            0.,NA,NA,"",       1.21970,      -1.12119,  -480.194E-03,   35.3619E-03
C:/temp/dataset/9/1_10.odb,Step-1,Increment      4: Step Time =    1.000,"PART-1-1",           732,       10.9896,      -6.85237,            0.,NA,NA,"",       3.27763,      -3.27620,  -96.9167E-03,   22.1376E-03
C:/temp/dataset/9/1_10.odb,Step-1,Increment      4: Step Time =    1.000,"PART-1-1",           733,       10.9332,      -25.1906,            0.,NA,NA,"",   62.7351E-03,  -54.4608E-03,   31.1402E-03,   11.0233E-03
C:/temp/dataset/9/1_10.odb,Step-1,Increment      4: Step Time =    1.000,"PART-1-1",           734,       11.9281,      -5.46067,            0.,NA,NA,"",       3.82216,      -3.81918,   150.797E-03,   36.1198E-03
C:/temp/dataset/9/1_10.odb,Step-1,Increment      4: Step Time =    1.000,"PART-1-1",           735,      -11.5697,       3.18107,            0.,NA,NA,"",       12.1293,      -5.06687,      -11.0202,   1.45803E-03
C:/temp/dataset/9/1_10.odb,Step-1,Increment      4: Step Time =    1.000,"PART-1-1",           736,      -10.7341,       2.09613,            0.,NA,NA,"",       11.5029,      -4.66275,      -10.5155,   2.58912E-03
C:/temp/dataset/9/1_10.odb,Step-1,Increment      4: Step Time =    1.000,"PART-1-1",           737,      -6.76822,       1.80268,            0.,NA,NA,"",       9.96970,      -4.96951,      -8.64284,   11.3615E-03
C:/temp/dataset/9/1_10.odb,Step-1,Increment      4: Step Time =    1.000,"PART-1-1",           738,      -5.32511,       2.65016,            0.,NA,NA,"",       9.76820,      -5.51884,      -8.05979,   17.9047E-03
C:/temp/dataset/9/1_10.odb,Step-1,Increment      4: Step Time =    1.000,"PART-1-1",           739,      -6.45786,       3.67650,            0.,NA,NA,"",       10.5081,      -5.85789,      -8.72379,   14.4742E-03
C:/temp/dataset/9/1_10.odb,Step-1,Increment      4: Step Time =    1.000,"PART-1-1",           740,      -10.1618,       27.4009,            0.,NA,NA,"",       20.5469,      -15.8926,      -13.0230,   9.54924E-03
C:/temp/dataset/9/1_10.odb,Step-1,Increment      4: Step Time =    1.000,"PART-1-1",           741,      -8.15950,       27.0742,            0.,NA,NA,"",       20.0114,      -15.9550,      -12.0787,   6.43559E-03
C:/temp/dataset/9/1_10.odb,Step-1,Increment      4: Step Time =    1.000,"PART-1-1",           742,      -8.41457,       23.7439,            0.,NA,NA,"",       18.6619,      -14.4405,      -11.8211,   7.37314E-03
C:/temp/dataset/9/1_10.odb,Step-1,Increment      4: Step Time =    1.000,"PART-1-1",           743,      -9.76606,       23.0282,            0.,NA,NA,"",       18.6578,      -13.9865,      -12.3488,   8.86692E-03
C:/temp/dataset/9/1_10.odb,Step-1,Increment      4: Step Time =    1.000,"PART-1-1",           744,      -10.1457,       6.57799,            0.,NA,NA,"",       12.6961,      -6.75860,      -10.7477,   6.14417E-03
C:/temp/dataset/9/1_10.odb,Step-1,Increment      4: Step Time =    1.000,"PART-1-1",           745,      -11.1466,       5.19230,            0.,NA,NA,"",       12.5871,      -6.02707,      -11.0503,   2.82342E-03
C:/temp/dataset/9/1_10.odb,Step-1,Increment      4: Step Time =    1.000,"PART-1-1",           746,       7.77017,   782.991E-03,            0.,NA,NA,"",       6.29531,      -6.01304,      -1.86393,   32.3636E-03
C:/temp/dataset/9/1_10.odb,Step-1,Increment      4: Step Time =    1.000,"PART-1-1",           747,       6.09501,       1.10589,            0.,NA,NA,"",       6.56838,      -6.03391,      -2.59529,   32.5764E-03
C:/temp/dataset/9/1_10.odb,Step-1,Increment      4: Step Time =    1.000,"PART-1-1",           748,       6.67539,   61.2235E-03,            0.,NA,NA,"",       6.06112,      -5.63697,      -2.22752,   33.1485E-03
C:/temp/dataset/9/1_10.odb,Step-1,Increment      4: Step Time =    1.000,"PART-1-1",           749,       5.31672,       2.29333,            0.,NA,NA,"",       7.16672,      -6.47796,      -3.06560,   29.5659E-03
C:/temp/dataset/9/1_10.odb,Step-1,Increment      4: Step Time =    1.000,"PART-1-1",           750,      -6.94695,       24.4689,            0.,NA,NA,"",       18.6761,      -14.9148,      -11.2404,   4.64906E-03
C:/temp/dataset/9/1_10.odb,Step-1,Increment      4: Step Time =    1.000,"PART-1-1",           751,      -2.09966,       23.3616,            0.,NA,NA,"",       17.3946,      -14.9293,      -8.92686,   3.60578E-03
C:/temp/dataset/9/1_10.odb,Step-1,Increment      4: Step Time =    1.000,"PART-1-1",           752,      -2.87591,       24.2478,            0.,NA,NA,"",       17.8988,      -15.2465,      -9.37604,   1.88011E-03
C:/temp/dataset/9/1_10.odb,Step-1,Increment      4: Step Time =    1.000,"PART-1-1",           753,       9.53974,       23.7363,            0.,NA,NA,"",       16.7596,      -16.3619,      -3.62956,   2.87195E-03
C:/temp/dataset/9/1_10.odb,Step-1,Increment      4: Step Time =    1.000,"PART-1-1",           754,      -5.22075,      -2.25347,            0.,NA,NA,"",       8.14148,      -3.29513,      -7.44485,   8.56688E-03
C:/temp/dataset/9/1_10.odb,Step-1,Increment      4: Step Time =    1.000,"PART-1-1",           755,      -7.55915,      -2.11026,            0.,NA,NA,"",       9.09904,      -3.08578,      -8.55982,   4.06119E-03
C:/temp/dataset/9/1_10.odb,Step-1,Increment      4: Step Time =    1.000,"PART-1-1",           756,      -4.20325,      -1.24540,            0.,NA,NA,"",       8.07100,      -3.88096,      -7.07666,   13.0665E-03
C:/temp/dataset/9/1_10.odb,Step-1,Increment      4: Step Time =    1.000,"PART-1-1",           757,       12.0426,       5.30937,            0.,NA,NA,"",       8.30576,      -8.28620,  -569.660E-03,   11.8813E-03
C:/temp/dataset/9/1_10.odb,Step-1,Increment      4: Step Time =    1.000,"PART-1-1",           758,      -8.17645,       12.8481,            0.,NA,NA,"",       14.3345,      -9.71343,      -10.5417,   10.0129E-03
C:/temp/dataset/9/1_10.odb,Step-1,Increment      4: Step Time =    1.000,"PART-1-1",           759,      -8.09554,       10.3784,            0.,NA,NA,"",       13.4007,      -8.64763,      -10.2370,   11.3578E-03
C:/temp/dataset/9/1_10.odb,Step-1,Increment      4: Step Time =    1.000,"PART-1-1",           760,      -8.33007,       15.6293,            0.,NA,NA,"",       15.4227,      -10.9038,      -10.9072,   9.03807E-03
C:/temp/dataset/9/1_10.odb,Step-1,Increment      4: Step Time =    1.000,"PART-1-1",           761,       12.1122,      -19.7356,            0.,NA,NA,"",   549.458E-03,  -509.822E-03,   204.904E-03,   28.9614E-03
C:/temp/dataset/9/1_10.odb,Step-1,Increment      4: Step Time =    1.000,"PART-1-1",           762,       12.1388,      -17.4254,            0.,NA,NA,"",   862.110E-03,  -825.506E-03,   248.542E-03,   30.8628E-03
C:/temp/dataset/9/1_10.odb,Step-1,Increment      4: Step Time =    1.000,"PART-1-1",           763,       12.0361,      -7.90801,            0.,NA,NA,"",       3.01667,      -3.00662,   246.077E-03,   35.4979E-03
C:/temp/dataset/9/1_10.odb,Step-1,Increment      4: Step Time =    1.000,"PART-1-1",           764,       12.0837,      -10.3075,            0.,NA,NA,"",       2.33182,      -2.31433,   285.028E-03,   34.1634E-03
C:/temp/dataset/9/1_10.odb,Step-1,Increment      4: Step Time =    1.000,"PART-1-1",           765,       12.1118,      -12.6921,            0.,NA,NA,"",       1.74966,      -1.72498,   292.811E-03,   33.1081E-03
C:/temp/dataset/9/1_10.odb,Step-1,Increment      4: Step Time =    1.000,"PART-1-1",           766,       12.1357,      -15.0700,            0.,NA,NA,"",       1.26104,      -1.22962,   279.754E-03,   32.1998E-03
C:/temp/dataset/9/1_10.odb,Step-1,Increment      4: Step Time =    1.000,"PART-1-1",           767,      -8.71328,  -792.246E-03,            0.,NA,NA,"",       9.91168,      -3.56125,      -9.24980,   3.46700E-03
C:/temp/dataset/9/1_10.odb,Step-1,Increment      4: Step Time =    1.000,"PART-1-1",           768,      -7.47429,       25.8162,            0.,NA,NA,"",       19.3470,      -15.4631,      -11.6276,   4.99700E-03
C:/temp/dataset/9/1_10.odb,Step-1,Increment      4: Step Time =    1.000,"PART-1-1",           769,       9.13729,   756.201E-03,            0.,NA,NA,"",       6.23554,      -6.09564,      -1.31346,   27.3698E-03
C:/temp/dataset/9/1_10.odb,Step-1,Increment      4: Step Time =    1.000,"PART-1-1",           770,       7.76646,  -679.521E-03,            0.,NA,NA,"",       5.66222,      -5.40166,      -1.69788,   34.8969E-03
C:/temp/dataset/9/1_10.odb,Step-1,Increment      4: Step Time =    1.000,"PART-1-1",           771,       9.13358,  -706.311E-03,            0.,NA,NA,"",       5.60424,      -5.48204,      -1.16389,   31.2144E-03
C:/temp/dataset/9/1_10.odb,Step-1,Increment      4: Step Time =    1.000,"PART-1-1",           772,       7.17869,      -1.72980,            0.,NA,NA,"",       5.24986,      -4.92829,      -1.80916,   38.8519E-03
C:/temp/dataset/9/1_10.odb,Step-1,Increment      4: Step Time =    1.000,"PART-1-1",           773,       6.08762,  -989.051E-03,            0.,NA,NA,"",       5.66613,      -5.15803,      -2.34515,   37.6772E-03
C:/temp/dataset/9/1_10.odb,Step-1,Increment      4: Step Time =    1.000,"PART-1-1",           774,       8.06590,       24.5744,            0.,NA,NA,"",       17.1594,      -16.5856,      -4.40038,   2.46267E-03
C:/temp/dataset/9/1_10.odb,Step-1,Increment      4: Step Time =    1.000,"PART-1-1",           775,       7.69641,      -4.07963,            0.,NA,NA,"",       4.25148,      -4.02818,      -1.35972,   34.0283E-03
C:/temp/dataset/9/1_10.odb,Step-1,Increment      4: Step Time =    1.000,"PART-1-1",           776,       8.40687,      -2.58051,            0.,NA,NA,"",       4.82766,      -4.66323,      -1.24924,   32.8522E-03
C:/temp/dataset/9/1_10.odb,Step-1,Increment      4: Step Time =    1.000,"PART-1-1",           777,      -9.00797,   684.990E-03,            0.,NA,NA,"",       10.4425,      -4.20724,      -9.55748,   4.66105E-03
C:/temp/dataset/9/1_10.odb,Step-1,Increment      4: Step Time =    1.000,"PART-1-1",           778,       5.05143,   63.4436E-03,            0.,NA,NA,"",       6.24131,      -5.51736,      -2.91765,   27.5150E-03
C:/temp/dataset/9/1_10.odb,Step-1,Increment      4: Step Time =    1.000,"PART-1-1",           779,      -3.45659,  -454.281E-03,            0.,NA,NA,"",       8.07120,      -4.33257,      -6.80978,   16.1511E-03
C:/temp/dataset/9/1_10.odb,Step-1,Increment      4: Step Time =    1.000,"PART-1-1",           780,      -7.58605,   993.377E-03,            0.,NA,NA,"",       10.0045,      -4.50817,      -8.93125,   7.93493E-03
