ODB Name,Step,Frame,Part Instance Name,    êﬂì_ÉâÉxÉã,X,Y,Z,Section Name,Material Name,Section Point,   U-Magnitude,          U-U1,          U-U2,       S-Mises
C:/temp/dataset/9/20_9.odb,Step-1,Increment      1: Step Time =    1.000,"PART-1-1",             1,            5.,           20.,            0.,NA,NA,"",       4.20193,       4.17445,   479.756E-03,   450.859E-06
C:/temp/dataset/9/20_9.odb,Step-1,Increment      1: Step Time =    1.000,"PART-1-1",             2,            0.,           20.,            0.,NA,NA,"",       4.33722,       4.20807,       1.05051,   274.089E-06
C:/temp/dataset/9/20_9.odb,Step-1,Increment      1: Step Time =    1.000,"PART-1-1",             3,            5.,          12.5,            0.,NA,NA,"",       3.36373,       3.32271,   523.679E-03,   842.371E-06
C:/temp/dataset/9/20_9.odb,Step-1,Increment      1: Step Time =    1.000,"PART-1-1",             4,            5.,            5.,            0.,NA,NA,"",       2.54799,       2.48486,   563.678E-03,   3.57162E-03
C:/temp/dataset/9/20_9.odb,Step-1,Increment      1: Step Time =    1.000,"PART-1-1",             5,            0.,            5.,            0.,NA,NA,"",       2.77385,       2.52721,       1.14345,   568.337E-06
C:/temp/dataset/9/20_9.odb,Step-1,Increment      1: Step Time =    1.000,"PART-1-1",             6,           -5.,            5.,            0.,NA,NA,"",       3.07873,       2.55495,       1.71779,   1.12838E-03
C:/temp/dataset/9/20_9.odb,Step-1,Increment      1: Step Time =    1.000,"PART-1-1",             7,           -5.,          12.5,            0.,NA,NA,"",       3.78677,       3.39842,       1.67043,   127.690E-06
C:/temp/dataset/9/20_9.odb,Step-1,Increment      1: Step Time =    1.000,"PART-1-1",             8,           -5.,           20.,            0.,NA,NA,"",       4.54172,       4.24275,       1.62056,   903.988E-06
C:/temp/dataset/9/20_9.odb,Step-1,Increment      1: Step Time =    1.000,"PART-1-1",             9,           15.,           30.,            0.,NA,NA,"",       5.29792,       5.24834,  -723.050E-03,   4.45077E-06
C:/temp/dataset/9/20_9.odb,Step-1,Increment      1: Step Time =    1.000,"PART-1-1",            10,           7.5,           30.,            0.,NA,NA,"",       5.29899,       5.29737,   131.040E-03,   82.1984E-06
C:/temp/dataset/9/20_9.odb,Step-1,Increment      1: Step Time =    1.000,"PART-1-1",            11,            0.,           30.,            0.,NA,NA,"",       5.43638,       5.34625,   985.790E-03,   137.462E-06
C:/temp/dataset/9/20_9.odb,Step-1,Increment      1: Step Time =    1.000,"PART-1-1",            12,          -7.5,           30.,            0.,NA,NA,"",       5.69809,       5.39332,       1.83857,   224.130E-06
C:/temp/dataset/9/20_9.odb,Step-1,Increment      1: Step Time =    1.000,"PART-1-1",            13,          -15.,           30.,            0.,NA,NA,"",       6.06899,       5.44105,       2.68842,   7.23412E-06
C:/temp/dataset/9/20_9.odb,Step-1,Increment      1: Step Time =    1.000,"PART-1-1",            14,          -15.,         21.25,            0.,NA,NA,"",       5.22757,       4.44952,       2.74394,   246.082E-06
C:/temp/dataset/9/20_9.odb,Step-1,Increment      1: Step Time =    1.000,"PART-1-1",            15,          -15.,          12.5,            0.,NA,NA,"",       4.45163,       3.46198,       2.79852,   8.24998E-06
C:/temp/dataset/9/20_9.odb,Step-1,Increment      1: Step Time =    1.000,"PART-1-1",            16,          -15.,          3.75,            0.,NA,NA,"",       3.77935,       2.47543,       2.85583,   270.746E-06
C:/temp/dataset/9/20_9.odb,Step-1,Increment      1: Step Time =    1.000,"PART-1-1",            17,          -15.,           -5.,            0.,NA,NA,"",       3.26978,       1.48549,       2.91286,   7.72289E-06
C:/temp/dataset/9/20_9.odb,Step-1,Increment      1: Step Time =    1.000,"PART-1-1",            18,          -10.,           -5.,            0.,NA,NA,"",       2.76089,       1.45329,       2.34744,   113.269E-06
C:/temp/dataset/9/20_9.odb,Step-1,Increment      1: Step Time =    1.000,"PART-1-1",            19,           -5.,           -5.,            0.,NA,NA,"",       2.27901,       1.42056,       1.78210,   263.245E-06
C:/temp/dataset/9/20_9.odb,Step-1,Increment      1: Step Time =    1.000,"PART-1-1",            20,            0.,           -5.,            0.,NA,NA,"",       1.85476,       1.39092,       1.22698,   4.45632E-03
C:/temp/dataset/9/20_9.odb,Step-1,Increment      1: Step Time =    1.000,"PART-1-1",            21,            5.,           -5.,            0.,NA,NA,"",       1.47760,       1.35762,   583.231E-03,   34.0095E-03
C:/temp/dataset/9/20_9.odb,Step-1,Increment      1: Step Time =    1.000,"PART-1-1",            22,            5.,        -11.25,            0.,NA,NA,"",   920.427E-03,   807.640E-03,   441.479E-03,   25.7644E-03
C:/temp/dataset/9/20_9.odb,Step-1,Increment      1: Step Time =    1.000,"PART-1-1",            23,            5.,         -17.5,            0.,NA,NA,"",   495.395E-03,   387.692E-03,   308.402E-03,   26.8394E-03
C:/temp/dataset/9/20_9.odb,Step-1,Increment      1: Step Time =    1.000,"PART-1-1",            24,            5.,        -23.75,            0.,NA,NA,"",   202.778E-03,   125.072E-03,   159.612E-03,   28.1238E-03
C:/temp/dataset/9/20_9.odb,Step-1,Increment      1: Step Time =    1.000,"PART-1-1",            25,            5.,          -30.,            0.,NA,NA,"",            0.,   9.62556E-39,   18.1824E-39,   35.3211E-03
C:/temp/dataset/9/20_9.odb,Step-1,Increment      1: Step Time =    1.000,"PART-1-1",            26,           15.,          -30.,            0.,NA,NA,"",            0.,   5.77107E-39,  -10.9395E-39,   21.0471E-03
C:/temp/dataset/9/20_9.odb,Step-1,Increment      1: Step Time =    1.000,"PART-1-1",            27,           15.,         -22.5,            0.,NA,NA,"",   191.105E-03,   137.214E-03,  -133.017E-03,   18.8910E-03
C:/temp/dataset/9/20_9.odb,Step-1,Increment      1: Step Time =    1.000,"PART-1-1",            28,           15.,          -15.,            0.,NA,NA,"",   561.399E-03,   496.147E-03,  -262.693E-03,   17.1625E-03
C:/temp/dataset/9/20_9.odb,Step-1,Increment      1: Step Time =    1.000,"PART-1-1",            29,           15.,          -7.5,            0.,NA,NA,"",       1.14499,       1.07407,  -396.708E-03,   15.2116E-03
C:/temp/dataset/9/20_9.odb,Step-1,Increment      1: Step Time =    1.000,"PART-1-1",            30,           15.,            0.,            0.,NA,NA,"",       1.91879,       1.85008,  -508.878E-03,   5.20644E-03
C:/temp/dataset/9/20_9.odb,Step-1,Increment      1: Step Time =    1.000,"PART-1-1",            31,           15.,           7.5,            0.,NA,NA,"",       2.75409,       2.69426,  -570.899E-03,   702.370E-06
C:/temp/dataset/9/20_9.odb,Step-1,Increment      1: Step Time =    1.000,"PART-1-1",            32,           15.,           15.,            0.,NA,NA,"",       3.59589,       3.54151,  -622.959E-03,   511.648E-06
C:/temp/dataset/9/20_9.odb,Step-1,Increment      1: Step Time =    1.000,"PART-1-1",            33,           15.,          22.5,            0.,NA,NA,"",       4.44537,       4.39399,  -673.901E-03,   164.878E-06
C:/temp/dataset/9/20_9.odb,Step-1,Increment      1: Step Time =    1.000,"PART-1-1",            34,           2.5,           20.,            0.,NA,NA,"",       4.26053,       4.19120,   765.452E-03,   226.932E-06
C:/temp/dataset/9/20_9.odb,Step-1,Increment      1: Step Time =    1.000,"PART-1-1",            35,            5.,           15.,            0.,NA,NA,"",       3.64180,       3.60601,   509.308E-03,   691.525E-06
C:/temp/dataset/9/20_9.odb,Step-1,Increment      1: Step Time =    1.000,"PART-1-1",            36,            5.,          17.5,            0.,NA,NA,"",       3.92125,       3.88993,   494.552E-03,   606.115E-06
C:/temp/dataset/9/20_9.odb,Step-1,Increment      1: Step Time =    1.000,"PART-1-1",            37,            5.,           7.5,            0.,NA,NA,"",       2.81420,       2.75983,   550.524E-03,   1.46063E-03
C:/temp/dataset/9/20_9.odb,Step-1,Increment      1: Step Time =    1.000,"PART-1-1",            38,            5.,           10.,            0.,NA,NA,"",       3.08752,       3.04037,   537.532E-03,   1.05447E-03
C:/temp/dataset/9/20_9.odb,Step-1,Increment      1: Step Time =    1.000,"PART-1-1",            39,           2.5,            5.,            0.,NA,NA,"",       2.65068,       2.50983,   852.560E-03,   1.61031E-03
C:/temp/dataset/9/20_9.odb,Step-1,Increment      1: Step Time =    1.000,"PART-1-1",            40,          -2.5,            5.,            0.,NA,NA,"",       2.91729,       2.54171,       1.43189,   1.27945E-03
C:/temp/dataset/9/20_9.odb,Step-1,Increment      1: Step Time =    1.000,"PART-1-1",            41,           -5.,           10.,            0.,NA,NA,"",       3.54392,       3.11689,       1.68653,   64.9793E-06
C:/temp/dataset/9/20_9.odb,Step-1,Increment      1: Step Time =    1.000,"PART-1-1",            42,           -5.,           7.5,            0.,NA,NA,"",       3.30728,       2.83545,       1.70245,   211.482E-06
C:/temp/dataset/9/20_9.odb,Step-1,Increment      1: Step Time =    1.000,"PART-1-1",            43,           -5.,          17.5,            0.,NA,NA,"",       4.28675,       3.96160,       1.63767,   429.877E-06
C:/temp/dataset/9/20_9.odb,Step-1,Increment      1: Step Time =    1.000,"PART-1-1",            44,           -5.,           15.,            0.,NA,NA,"",       4.03468,       3.68001,       1.65413,   219.736E-06
C:/temp/dataset/9/20_9.odb,Step-1,Increment      1: Step Time =    1.000,"PART-1-1",            45,          -2.5,           20.,            0.,NA,NA,"",       4.43106,       4.22505,       1.33539,   414.982E-06
C:/temp/dataset/9/20_9.odb,Step-1,Increment      1: Step Time =    1.000,"PART-1-1",            46,          12.5,           30.,            0.,NA,NA,"",       5.28283,       5.26461,  -438.333E-03,   10.8942E-06
C:/temp/dataset/9/20_9.odb,Step-1,Increment      1: Step Time =    1.000,"PART-1-1",            47,           10.,           30.,            0.,NA,NA,"",       5.28318,       5.28094,  -153.670E-03,   54.2783E-06
C:/temp/dataset/9/20_9.odb,Step-1,Increment      1: Step Time =    1.000,"PART-1-1",            48,            5.,           30.,            0.,NA,NA,"",       5.33007,       5.31382,   415.891E-03,   53.3934E-06
C:/temp/dataset/9/20_9.odb,Step-1,Increment      1: Step Time =    1.000,"PART-1-1",            49,           2.5,           30.,            0.,NA,NA,"",       5.37603,       5.33015,   700.857E-03,   32.3236E-06
C:/temp/dataset/9/20_9.odb,Step-1,Increment      1: Step Time =    1.000,"PART-1-1",            50,          -2.5,           30.,            0.,NA,NA,"",       5.51055,       5.36209,       1.27049,   222.744E-06
C:/temp/dataset/9/20_9.odb,Step-1,Increment      1: Step Time =    1.000,"PART-1-1",            51,           -5.,           30.,            0.,NA,NA,"",       5.59798,       5.37773,       1.55478,   264.371E-06
C:/temp/dataset/9/20_9.odb,Step-1,Increment      1: Step Time =    1.000,"PART-1-1",            52,          -10.,           30.,            0.,NA,NA,"",       5.81037,       5.40903,       2.12196,   124.984E-06
C:/temp/dataset/9/20_9.odb,Step-1,Increment      1: Step Time =    1.000,"PART-1-1",            53,         -12.5,           30.,            0.,NA,NA,"",       5.93423,       5.42496,       2.40517,   26.4926E-06
C:/temp/dataset/9/20_9.odb,Step-1,Increment      1: Step Time =    1.000,"PART-1-1",            54,          -15.,       27.8125,            0.,NA,NA,"",       5.85426,       5.19314,       2.70251,   21.0117E-06
C:/temp/dataset/9/20_9.odb,Step-1,Increment      1: Step Time =    1.000,"PART-1-1",            55,          -15.,        25.625,            0.,NA,NA,"",       5.64216,       4.94516,       2.71650,   100.262E-06
C:/temp/dataset/9/20_9.odb,Step-1,Increment      1: Step Time =    1.000,"PART-1-1",            56,          -15.,       23.4375,            0.,NA,NA,"",       5.43310,       4.69723,       2.73031,   188.207E-06
C:/temp/dataset/9/20_9.odb,Step-1,Increment      1: Step Time =    1.000,"PART-1-1",            57,          -15.,       19.0625,            0.,NA,NA,"",       5.02610,       4.20215,       2.75747,   247.777E-06
C:/temp/dataset/9/20_9.odb,Step-1,Increment      1: Step Time =    1.000,"PART-1-1",            58,          -15.,        16.875,            0.,NA,NA,"",       4.82927,       3.95516,       2.77102,   191.250E-06
C:/temp/dataset/9/20_9.odb,Step-1,Increment      1: Step Time =    1.000,"PART-1-1",            59,          -15.,       14.6875,            0.,NA,NA,"",       4.63759,       3.70847,       2.78468,   99.3421E-06
C:/temp/dataset/9/20_9.odb,Step-1,Increment      1: Step Time =    1.000,"PART-1-1",            60,          -15.,       10.3125,            0.,NA,NA,"",       4.27204,       3.21557,       2.81256,   114.372E-06
C:/temp/dataset/9/20_9.odb,Step-1,Increment      1: Step Time =    1.000,"PART-1-1",            61,          -15.,         8.125,            0.,NA,NA,"",       4.09956,       2.96909,       2.82682,   214.009E-06
C:/temp/dataset/9/20_9.odb,Step-1,Increment      1: Step Time =    1.000,"PART-1-1",            62,          -15.,        5.9375,            0.,NA,NA,"",       3.93502,       2.72242,       2.84127,   269.804E-06
C:/temp/dataset/9/20_9.odb,Step-1,Increment      1: Step Time =    1.000,"PART-1-1",            63,          -15.,        1.5625,            0.,NA,NA,"",       3.63363,       2.22810,       2.87034,   198.200E-06
C:/temp/dataset/9/20_9.odb,Step-1,Increment      1: Step Time =    1.000,"PART-1-1",            64,          -15.,     -625.E-03,            0.,NA,NA,"",       3.49914,       1.98056,       2.88467,   92.9193E-06
C:/temp/dataset/9/20_9.odb,Step-1,Increment      1: Step Time =    1.000,"PART-1-1",            65,          -15.,       -2.8125,            0.,NA,NA,"",       3.37733,       1.73299,       2.89882,   15.2096E-06
C:/temp/dataset/9/20_9.odb,Step-1,Increment      1: Step Time =    1.000,"PART-1-1",            66,         -12.5,           -5.,            0.,NA,NA,"",       3.01275,       1.46945,       2.63009,   19.5216E-06
C:/temp/dataset/9/20_9.odb,Step-1,Increment      1: Step Time =    1.000,"PART-1-1",            67,          -7.5,           -5.,            0.,NA,NA,"",       2.51554,       1.43689,       2.06477,   185.847E-06
C:/temp/dataset/9/20_9.odb,Step-1,Increment      1: Step Time =    1.000,"PART-1-1",            68,          -2.5,           -5.,            0.,NA,NA,"",       2.05504,       1.40436,       1.50032,   1.34249E-03
C:/temp/dataset/9/20_9.odb,Step-1,Increment      1: Step Time =    1.000,"PART-1-1",            69,           2.5,           -5.,            0.,NA,NA,"",       1.66051,       1.36850,   940.468E-03,   14.1320E-03
C:/temp/dataset/9/20_9.odb,Step-1,Increment      1: Step Time =    1.000,"PART-1-1",            70,            5.,      -7.08333,            0.,NA,NA,"",       1.27519,       1.16369,   521.472E-03,   30.5865E-03
C:/temp/dataset/9/20_9.odb,Step-1,Increment      1: Step Time =    1.000,"PART-1-1",            71,            5.,      -9.16667,            0.,NA,NA,"",       1.09202,   979.615E-03,   482.562E-03,   25.2276E-03
C:/temp/dataset/9/20_9.odb,Step-1,Increment      1: Step Time =    1.000,"PART-1-1",            72,            5.,      -13.3333,            0.,NA,NA,"",   763.538E-03,   650.962E-03,   399.047E-03,   25.9300E-03
C:/temp/dataset/9/20_9.odb,Step-1,Increment      1: Step Time =    1.000,"PART-1-1",            73,            5.,      -15.4167,            0.,NA,NA,"",   621.855E-03,   510.802E-03,   354.661E-03,   26.4055E-03
C:/temp/dataset/9/20_9.odb,Step-1,Increment      1: Step Time =    1.000,"PART-1-1",            74,            5.,      -19.5833,            0.,NA,NA,"",   383.899E-03,   282.118E-03,   260.361E-03,   27.2936E-03
C:/temp/dataset/9/20_9.odb,Step-1,Increment      1: Step Time =    1.000,"PART-1-1",            75,            5.,      -21.6667,            0.,NA,NA,"",   286.714E-03,   194.447E-03,   210.702E-03,   27.6982E-03
C:/temp/dataset/9/20_9.odb,Step-1,Increment      1: Step Time =    1.000,"PART-1-1",            76,            5.,      -25.8333,            0.,NA,NA,"",   130.414E-03,   73.4835E-03,   107.740E-03,   27.8686E-03
C:/temp/dataset/9/20_9.odb,Step-1,Increment      1: Step Time =    1.000,"PART-1-1",            77,            5.,      -27.9167,            0.,NA,NA,"",   67.7740E-03,   38.1155E-03,   56.0403E-03,   29.8334E-03
C:/temp/dataset/9/20_9.odb,Step-1,Increment      1: Step Time =    1.000,"PART-1-1",            78,           7.5,          -30.,            0.,NA,NA,"",            0.,  -171.078E-42,   44.4280E-39,   12.5010E-03
C:/temp/dataset/9/20_9.odb,Step-1,Increment      1: Step Time =    1.000,"PART-1-1",            79,           10.,          -30.,            0.,NA,NA,"",            0.,  -2.91924E-39,   9.95330E-39,   5.18578E-03
C:/temp/dataset/9/20_9.odb,Step-1,Increment      1: Step Time =    1.000,"PART-1-1",            80,          12.5,          -30.,            0.,NA,NA,"",            0.,   3.88065E-39,  -17.0669E-39,   6.67090E-03
C:/temp/dataset/9/20_9.odb,Step-1,Increment      1: Step Time =    1.000,"PART-1-1",            81,           15.,         -27.5,            0.,NA,NA,"",   51.2551E-03,   26.0298E-03,  -44.1535E-03,   20.8270E-03
C:/temp/dataset/9/20_9.odb,Step-1,Increment      1: Step Time =    1.000,"PART-1-1",            82,           15.,          -25.,            0.,NA,NA,"",   112.061E-03,   68.1438E-03,  -88.9614E-03,   19.4984E-03
C:/temp/dataset/9/20_9.odb,Step-1,Increment      1: Step Time =    1.000,"PART-1-1",            83,           15.,          -20.,            0.,NA,NA,"",   291.463E-03,   232.017E-03,  -176.406E-03,   18.1373E-03
C:/temp/dataset/9/20_9.odb,Step-1,Increment      1: Step Time =    1.000,"PART-1-1",            84,           15.,         -17.5,            0.,NA,NA,"",   414.694E-03,   351.874E-03,  -219.444E-03,   17.5984E-03
C:/temp/dataset/9/20_9.odb,Step-1,Increment      1: Step Time =    1.000,"PART-1-1",            85,           15.,         -12.5,            0.,NA,NA,"",   731.841E-03,   664.516E-03,  -306.611E-03,   16.8191E-03
C:/temp/dataset/9/20_9.odb,Step-1,Increment      1: Step Time =    1.000,"PART-1-1",            86,           15.,          -10.,            0.,NA,NA,"",   926.314E-03,   857.047E-03,  -351.466E-03,   16.3615E-03
C:/temp/dataset/9/20_9.odb,Step-1,Increment      1: Step Time =    1.000,"PART-1-1",            87,           15.,           -5.,            0.,NA,NA,"",       1.38665,       1.31496,  -440.090E-03,   12.6526E-03
C:/temp/dataset/9/20_9.odb,Step-1,Increment      1: Step Time =    1.000,"PART-1-1",            88,           15.,          -2.5,            0.,NA,NA,"",       1.64692,       1.57597,  -478.185E-03,   8.90258E-03
C:/temp/dataset/9/20_9.odb,Step-1,Increment      1: Step Time =    1.000,"PART-1-1",            89,           15.,           2.5,            0.,NA,NA,"",       2.19601,       2.13033,  -533.043E-03,   2.54657E-03
C:/temp/dataset/9/20_9.odb,Step-1,Increment      1: Step Time =    1.000,"PART-1-1",            90,           15.,            5.,            0.,NA,NA,"",       2.47487,       2.41231,  -552.942E-03,   1.16780E-03
C:/temp/dataset/9/20_9.odb,Step-1,Increment      1: Step Time =    1.000,"PART-1-1",            91,           15.,           10.,            0.,NA,NA,"",       3.03378,       2.97619,  -588.307E-03,   615.742E-06
C:/temp/dataset/9/20_9.odb,Step-1,Increment      1: Step Time =    1.000,"PART-1-1",            92,           15.,          12.5,            0.,NA,NA,"",       3.31433,       3.25853,  -605.648E-03,   580.478E-06
C:/temp/dataset/9/20_9.odb,Step-1,Increment      1: Step Time =    1.000,"PART-1-1",            93,           15.,          17.5,            0.,NA,NA,"",       3.87837,       3.82517,  -640.152E-03,   409.021E-06
C:/temp/dataset/9/20_9.odb,Step-1,Increment      1: Step Time =    1.000,"PART-1-1",            94,           15.,           20.,            0.,NA,NA,"",       4.16160,       4.10939,  -657.147E-03,   285.255E-06
C:/temp/dataset/9/20_9.odb,Step-1,Increment      1: Step Time =    1.000,"PART-1-1",            95,           15.,           25.,            0.,NA,NA,"",       4.72944,       4.67877,  -690.424E-03,   69.8040E-06
C:/temp/dataset/9/20_9.odb,Step-1,Increment      1: Step Time =    1.000,"PART-1-1",            96,           15.,          27.5,            0.,NA,NA,"",       5.01365,       4.96359,  -706.779E-03,   11.5399E-06
C:/temp/dataset/9/20_9.odb,Step-1,Increment      1: Step Time =    1.000,"PART-1-1",            97,       7.09255,      -21.6558,            0.,NA,NA,"",   218.978E-03,   172.055E-03,   135.457E-03,   18.2952E-03
C:/temp/dataset/9/20_9.odb,Step-1,Increment      1: Step Time =    1.000,"PART-1-1",            98,       7.09346,      -17.4368,            0.,NA,NA,"",   417.888E-03,   367.450E-03,   199.024E-03,   17.6992E-03
C:/temp/dataset/9/20_9.odb,Step-1,Increment      1: Step Time =    1.000,"PART-1-1",            99,       7.15828,      -23.7452,            0.,NA,NA,"",   143.037E-03,   102.055E-03,   100.222E-03,   18.3237E-03
C:/temp/dataset/9/20_9.odb,Step-1,Increment      1: Step Time =    1.000,"PART-1-1",           100,       7.44609,      -27.8729,            0.,NA,NA,"",   33.5471E-03,   15.8849E-03,   29.5478E-03,   18.0400E-03
C:/temp/dataset/9/20_9.odb,Step-1,Increment      1: Step Time =    1.000,"PART-1-1",           101,       7.30780,      -25.7939,            0.,NA,NA,"",   80.9822E-03,   50.2408E-03,   63.5136E-03,   18.5335E-03
C:/temp/dataset/9/20_9.odb,Step-1,Increment      1: Step Time =    1.000,"PART-1-1",           102,       7.08258,      -10.9526,            0.,NA,NA,"",   854.499E-03,   805.226E-03,   285.971E-03,   17.0067E-03
C:/temp/dataset/9/20_9.odb,Step-1,Increment      1: Step Time =    1.000,"PART-1-1",           103,       7.09950,      -13.1236,            0.,NA,NA,"",   690.578E-03,   640.717E-03,   257.642E-03,   17.2323E-03
C:/temp/dataset/9/20_9.odb,Step-1,Increment      1: Step Time =    1.000,"PART-1-1",           104,       6.95448,      -6.62029,            0.,NA,NA,"",       1.23205,       1.18291,   344.513E-03,   16.5316E-03
C:/temp/dataset/9/20_9.odb,Step-1,Increment      1: Step Time =    1.000,"PART-1-1",           105,       7.04974,      -8.78764,            0.,NA,NA,"",       1.03492,   985.795E-03,   315.058E-03,   17.6423E-03
C:/temp/dataset/9/20_9.odb,Step-1,Increment      1: Step Time =    1.000,"PART-1-1",           106,       7.10540,      -15.2896,            0.,NA,NA,"",   544.587E-03,   494.353E-03,   228.451E-03,   17.3935E-03
C:/temp/dataset/9/20_9.odb,Step-1,Increment      1: Step Time =    1.000,"PART-1-1",           107,       7.08223,      -19.5608,            0.,NA,NA,"",   309.726E-03,   260.072E-03,   168.204E-03,   18.0215E-03
C:/temp/dataset/9/20_9.odb,Step-1,Increment      1: Step Time =    1.000,"PART-1-1",           108,      -11.8989,       25.3809,            0.,NA,NA,"",       5.43938,       4.89743,       2.36686,   146.542E-06
C:/temp/dataset/9/20_9.odb,Step-1,Increment      1: Step Time =    1.000,"PART-1-1",           109,      -12.7134,       3.51066,            0.,NA,NA,"",       3.56078,       2.43397,       2.59903,   183.342E-06
C:/temp/dataset/9/20_9.odb,Step-1,Increment      1: Step Time =    1.000,"PART-1-1",           110,      -13.0834,       10.3867,            0.,NA,NA,"",       4.12973,       3.21178,       2.59598,   155.098E-06
C:/temp/dataset/9/20_9.odb,Step-1,Increment      1: Step Time =    1.000,"PART-1-1",           111,      -12.9355,       8.20912,            0.,NA,NA,"",       3.93956,       2.96556,       2.59338,   179.061E-06
C:/temp/dataset/9/20_9.odb,Step-1,Increment      1: Step Time =    1.000,"PART-1-1",           112,      -13.1801,       12.5484,            0.,NA,NA,"",       4.32050,       3.45584,       2.59304,   129.724E-06
C:/temp/dataset/9/20_9.odb,Step-1,Increment      1: Step Time =    1.000,"PART-1-1",           113,      -12.7454,       20.6010,            0.,NA,NA,"",       5.02367,       4.36144,       2.49302,   120.545E-06
C:/temp/dataset/9/20_9.odb,Step-1,Increment      1: Step Time =    1.000,"PART-1-1",           114,      -13.1621,       18.5389,            0.,NA,NA,"",       4.85636,       4.13109,       2.55310,   133.900E-06
C:/temp/dataset/9/20_9.odb,Step-1,Increment      1: Step Time =    1.000,"PART-1-1",           115,      -12.3840,       22.8683,            0.,NA,NA,"",       5.21997,       4.61576,       2.43780,   134.077E-06
C:/temp/dataset/9/20_9.odb,Step-1,Increment      1: Step Time =    1.000,"PART-1-1",           116,      -13.4658,       16.5948,            0.,NA,NA,"",       4.69837,       3.91364,       2.59963,   128.099E-06
C:/temp/dataset/9/20_9.odb,Step-1,Increment      1: Step Time =    1.000,"PART-1-1",           117,      -13.3466,       14.6489,            0.,NA,NA,"",       4.51598,       3.69352,       2.59846,   116.137E-06
C:/temp/dataset/9/20_9.odb,Step-1,Increment      1: Step Time =    1.000,"PART-1-1",           118,      -12.3609,       5.76892,            0.,NA,NA,"",       3.70039,       2.68680,       2.54440,   174.996E-06
C:/temp/dataset/9/20_9.odb,Step-1,Increment      1: Step Time =    1.000,"PART-1-1",           119,      -12.8583,       1.39410,            0.,NA,NA,"",       3.42537,       2.19547,       2.62928,   182.824E-06
C:/temp/dataset/9/20_9.odb,Step-1,Increment      1: Step Time =    1.000,"PART-1-1",           120,      -12.6304,  -685.754E-03,            0.,NA,NA,"",       3.26878,       1.95855,       2.61706,   156.367E-06
C:/temp/dataset/9/20_9.odb,Step-1,Increment      1: Step Time =    1.000,"PART-1-1",           121,   38.5673E-03,       27.2989,            0.,NA,NA,"",       5.13663,       5.03854,   999.050E-03,   146.075E-06
C:/temp/dataset/9/20_9.odb,Step-1,Increment      1: Step Time =    1.000,"PART-1-1",           122,      -4.16985,       22.2766,            0.,NA,NA,"",       4.74243,       4.49529,       1.51097,   254.717E-06
C:/temp/dataset/9/20_9.odb,Step-1,Increment      1: Step Time =    1.000,"PART-1-1",           123,      -7.85548,       28.0855,            0.,NA,NA,"",       5.51300,       5.17840,       1.89139,   143.096E-06
C:/temp/dataset/9/20_9.odb,Step-1,Increment      1: Step Time =    1.000,"PART-1-1",           124,       9.92813,      -27.7267,            0.,NA,NA,"",   10.4908E-03,   6.35037E-03,   8.35042E-03,   5.17536E-03
C:/temp/dataset/9/20_9.odb,Step-1,Increment      1: Step Time =    1.000,"PART-1-1",           125,       13.1106,      -17.4438,            0.,NA,NA,"",   365.972E-03,   346.214E-03,  -118.623E-03,   9.14664E-03
C:/temp/dataset/9/20_9.odb,Step-1,Increment      1: Step Time =    1.000,"PART-1-1",           126,       12.8150,       2.64061,            0.,NA,NA,"",       2.17762,       2.15813,  -290.669E-03,   2.49856E-03
C:/temp/dataset/9/20_9.odb,Step-1,Increment      1: Step Time =    1.000,"PART-1-1",           127,       7.56819,       12.3225,            0.,NA,NA,"",       3.29388,       3.28550,   234.806E-03,   441.080E-06
C:/temp/dataset/9/20_9.odb,Step-1,Increment      1: Step Time =    1.000,"PART-1-1",           128,       7.47113,       19.8748,            0.,NA,NA,"",       4.14857,       4.14379,   199.138E-03,   290.247E-06
C:/temp/dataset/9/20_9.odb,Step-1,Increment      1: Step Time =    1.000,"PART-1-1",           129,       12.4223,       27.5153,            0.,NA,NA,"",       4.99921,       4.98210,  -413.323E-03,   54.7774E-06
C:/temp/dataset/9/20_9.odb,Step-1,Increment      1: Step Time =    1.000,"PART-1-1",           130,       12.3750,       22.5091,            0.,NA,NA,"",       4.42788,       4.41195,  -375.210E-03,   161.811E-06
C:/temp/dataset/9/20_9.odb,Step-1,Increment      1: Step Time =    1.000,"PART-1-1",           131,       7.58839,       27.9970,            0.,NA,NA,"",       5.07038,       5.06861,   133.942E-03,   66.3375E-06
C:/temp/dataset/9/20_9.odb,Step-1,Increment      1: Step Time =    1.000,"PART-1-1",           132,   199.805E-03,       22.3057,            0.,NA,NA,"",       4.58277,       4.46942,       1.01296,   222.369E-06
C:/temp/dataset/9/20_9.odb,Step-1,Increment      1: Step Time =    1.000,"PART-1-1",           133,       12.6934,       9.82310,            0.,NA,NA,"",       2.98837,       2.97045,  -326.823E-03,   401.436E-06
C:/temp/dataset/9/20_9.odb,Step-1,Increment      1: Step Time =    1.000,"PART-1-1",           134,      -7.14717,       12.7802,            0.,NA,NA,"",       3.93810,       3.44355,       1.91065,   157.483E-06
C:/temp/dataset/9/20_9.odb,Step-1,Increment      1: Step Time =    1.000,"PART-1-1",           135,      -6.86178,       17.9412,            0.,NA,NA,"",       4.42589,       4.02308,       1.84481,   387.040E-06
C:/temp/dataset/9/20_9.odb,Step-1,Increment      1: Step Time =    1.000,"PART-1-1",           136,      -2.68307,      -2.95682,            0.,NA,NA,"",       2.22440,       1.63570,       1.50746,   1.25677E-03
C:/temp/dataset/9/20_9.odb,Step-1,Increment      1: Step Time =    1.000,"PART-1-1",           137,      -7.59808,      -3.03341,            0.,NA,NA,"",       2.64830,       1.66008,       2.06340,   218.995E-06
C:/temp/dataset/9/20_9.odb,Step-1,Increment      1: Step Time =    1.000,"PART-1-1",           138,  -248.196E-03,       2.69947,            0.,NA,NA,"",       2.55754,       2.26471,       1.18831,   1.58141E-03
C:/temp/dataset/9/20_9.odb,Step-1,Increment      1: Step Time =    1.000,"PART-1-1",           139,       2.16631,      -2.47375,            0.,NA,NA,"",       1.91805,       1.66581,   950.784E-03,   10.4796E-03
C:/temp/dataset/9/20_9.odb,Step-1,Increment      1: Step Time =    1.000,"PART-1-1",           140,       4.39271,       2.43636,            0.,NA,NA,"",       2.29534,       2.20208,   647.616E-03,   2.61637E-03
C:/temp/dataset/9/20_9.odb,Step-1,Increment      1: Step Time =    1.000,"PART-1-1",           141,       12.9283,      -5.27800,            0.,NA,NA,"",       1.30855,       1.28815,  -230.136E-03,   7.14037E-03
C:/temp/dataset/9/20_9.odb,Step-1,Increment      1: Step Time =    1.000,"PART-1-1",           142,       13.0847,      -12.6172,            0.,NA,NA,"",   670.815E-03,   650.237E-03,  -164.881E-03,   8.49897E-03
C:/temp/dataset/9/20_9.odb,Step-1,Increment      1: Step Time =    1.000,"PART-1-1",           143,       12.4838,       17.4790,            0.,NA,NA,"",       3.85504,       3.83872,  -354.333E-03,   242.216E-06
C:/temp/dataset/9/20_9.odb,Step-1,Increment      1: Step Time =    1.000,"PART-1-1",           144,       2.63438,       22.2143,            0.,NA,NA,"",       4.50331,       4.44277,   735.897E-03,   193.607E-06
C:/temp/dataset/9/20_9.odb,Step-1,Increment      1: Step Time =    1.000,"PART-1-1",           145,       7.54366,       14.9275,            0.,NA,NA,"",       3.58768,       3.58082,   221.690E-03,   391.317E-06
C:/temp/dataset/9/20_9.odb,Step-1,Increment      1: Step Time =    1.000,"PART-1-1",           146,       7.50510,       17.4443,            0.,NA,NA,"",       3.87266,       3.86694,   210.488E-03,   312.705E-06
C:/temp/dataset/9/20_9.odb,Step-1,Increment      1: Step Time =    1.000,"PART-1-1",           147,       7.12790,       7.03873,            0.,NA,NA,"",       2.71195,       2.69355,   315.415E-03,   923.999E-06
C:/temp/dataset/9/20_9.odb,Step-1,Increment      1: Step Time =    1.000,"PART-1-1",           148,       7.48952,       9.64170,            0.,NA,NA,"",       2.99463,       2.98334,   259.802E-03,   470.564E-06
C:/temp/dataset/9/20_9.odb,Step-1,Increment      1: Step Time =    1.000,"PART-1-1",           149,       2.16717,       2.56251,            0.,NA,NA,"",       2.41053,       2.23334,   907.096E-03,   3.25490E-03
C:/temp/dataset/9/20_9.odb,Step-1,Increment      1: Step Time =    1.000,"PART-1-1",           150,      -2.68606,       3.12146,            0.,NA,NA,"",       2.75126,       2.32804,       1.46617,   618.507E-06
C:/temp/dataset/9/20_9.odb,Step-1,Increment      1: Step Time =    1.000,"PART-1-1",           151,      -7.08307,       10.2840,            0.,NA,NA,"",       3.69906,       3.16208,       1.91945,   125.489E-06
C:/temp/dataset/9/20_9.odb,Step-1,Increment      1: Step Time =    1.000,"PART-1-1",           152,      -2.13928,       22.2031,            0.,NA,NA,"",       4.65295,       4.47337,       1.28019,   329.317E-06
C:/temp/dataset/9/20_9.odb,Step-1,Increment      1: Step Time =    1.000,"PART-1-1",           153,       9.90766,       27.6812,            0.,NA,NA,"",       5.01905,       5.01742,  -128.119E-03,   69.7693E-06
C:/temp/dataset/9/20_9.odb,Step-1,Increment      1: Step Time =    1.000,"PART-1-1",           154,       5.18317,       27.8350,            0.,NA,NA,"",       5.08244,       5.06595,   409.053E-03,   85.0871E-06
C:/temp/dataset/9/20_9.odb,Step-1,Increment      1: Step Time =    1.000,"PART-1-1",           155,       2.70091,       27.4744,            0.,NA,NA,"",       5.08876,       5.04116,   694.390E-03,   129.630E-06
C:/temp/dataset/9/20_9.odb,Step-1,Increment      1: Step Time =    1.000,"PART-1-1",           156,      -2.92570,       26.9909,            0.,NA,NA,"",       5.19800,       5.02267,       1.33866,   120.845E-06
C:/temp/dataset/9/20_9.odb,Step-1,Increment      1: Step Time =    1.000,"PART-1-1",           157,      -5.52449,       27.7330,            0.,NA,NA,"",       5.37638,       5.12358,       1.62922,   124.294E-06
C:/temp/dataset/9/20_9.odb,Step-1,Increment      1: Step Time =    1.000,"PART-1-1",           158,      -10.1759,       28.1970,            0.,NA,NA,"",       5.63366,       5.20578,       2.15358,   128.193E-06
C:/temp/dataset/9/20_9.odb,Step-1,Increment      1: Step Time =    1.000,"PART-1-1",           159,      -7.15795,       15.3782,            0.,NA,NA,"",       4.18931,       3.73621,       1.89501,   225.474E-06
C:/temp/dataset/9/20_9.odb,Step-1,Increment      1: Step Time =    1.000,"PART-1-1",           160,      -7.10855,       7.92361,            0.,NA,NA,"",       3.48471,       2.89649,       1.93741,   223.129E-06
C:/temp/dataset/9/20_9.odb,Step-1,Increment      1: Step Time =    1.000,"PART-1-1",           161,      -7.31416,       5.72319,            0.,NA,NA,"",       3.30489,       2.65011,       1.97465,   352.456E-06
C:/temp/dataset/9/20_9.odb,Step-1,Increment      1: Step Time =    1.000,"PART-1-1",           162,      -10.0288,      -2.82434,            0.,NA,NA,"",       2.88956,       1.69965,       2.33682,   163.969E-06
C:/temp/dataset/9/20_9.odb,Step-1,Increment      1: Step Time =    1.000,"PART-1-1",           163,      -5.14639,      -3.11924,            0.,NA,NA,"",       2.42130,       1.63416,       1.78669,   322.760E-06
C:/temp/dataset/9/20_9.odb,Step-1,Increment      1: Step Time =    1.000,"PART-1-1",           164,  -261.821E-03,      -2.60038,            0.,NA,NA,"",       2.07000,       1.66220,       1.23368,   4.70735E-03
C:/temp/dataset/9/20_9.odb,Step-1,Increment      1: Step Time =    1.000,"PART-1-1",           165,       4.38015,      -2.33295,            0.,NA,NA,"",       1.80004,       1.67014,   671.398E-03,   10.9035E-03
C:/temp/dataset/9/20_9.odb,Step-1,Increment      1: Step Time =    1.000,"PART-1-1",           166,       13.0639,      -10.1924,            0.,NA,NA,"",   858.146E-03,   837.141E-03,  -188.704E-03,   8.19732E-03
C:/temp/dataset/9/20_9.odb,Step-1,Increment      1: Step Time =    1.000,"PART-1-1",           167,       13.0843,      -19.8267,            0.,NA,NA,"",   248.318E-03,   229.553E-03,  -94.6962E-03,   9.36921E-03
C:/temp/dataset/9/20_9.odb,Step-1,Increment      1: Step Time =    1.000,"PART-1-1",           168,       12.4446,      -27.5067,            0.,NA,NA,"",   19.3593E-03,   11.2660E-03,  -15.7435E-03,   8.13463E-03
C:/temp/dataset/9/20_9.odb,Step-1,Increment      1: Step Time =    1.000,"PART-1-1",           169,       12.9329,      -22.1971,            0.,NA,NA,"",   151.469E-03,   135.602E-03,  -67.4895E-03,   8.99156E-03
C:/temp/dataset/9/20_9.odb,Step-1,Increment      1: Step Time =    1.000,"PART-1-1",           170,       13.1086,      -15.0383,            0.,NA,NA,"",   506.782E-03,   486.466E-03,  -142.055E-03,   8.85419E-03
C:/temp/dataset/9/20_9.odb,Step-1,Increment      1: Step Time =    1.000,"PART-1-1",           171,       13.0208,      -7.75462,            0.,NA,NA,"",       1.06987,       1.04874,  -211.591E-03,   7.77987E-03
C:/temp/dataset/9/20_9.odb,Step-1,Increment      1: Step Time =    1.000,"PART-1-1",           172,       12.7756,      -2.70708,            0.,NA,NA,"",       1.57797,       1.55943,  -241.212E-03,   6.10750E-03
C:/temp/dataset/9/20_9.odb,Step-1,Increment      1: Step Time =    1.000,"PART-1-1",           173,       12.6338,  -14.4220E-03,            0.,NA,NA,"",       1.87566,       1.85890,  -250.145E-03,   4.46310E-03
C:/temp/dataset/9/20_9.odb,Step-1,Increment      1: Step Time =    1.000,"PART-1-1",           174,       13.0186,       5.13380,            0.,NA,NA,"",       2.46156,       2.43916,  -331.333E-03,   1.16445E-03
C:/temp/dataset/9/20_9.odb,Step-1,Increment      1: Step Time =    1.000,"PART-1-1",           175,       13.0709,       7.51902,            0.,NA,NA,"",       2.73117,       2.70817,  -353.730E-03,   590.645E-06
C:/temp/dataset/9/20_9.odb,Step-1,Increment      1: Step Time =    1.000,"PART-1-1",           176,       12.5119,       12.3699,            0.,NA,NA,"",       3.27527,       3.25926,  -323.437E-03,   321.098E-06
C:/temp/dataset/9/20_9.odb,Step-1,Increment      1: Step Time =    1.000,"PART-1-1",           177,       12.4863,       14.9454,            0.,NA,NA,"",       3.56710,       3.55108,  -337.739E-03,   275.892E-06
C:/temp/dataset/9/20_9.odb,Step-1,Increment      1: Step Time =    1.000,"PART-1-1",           178,       12.4500,       19.9932,            0.,NA,NA,"",       4.14122,       4.12492,  -367.158E-03,   208.834E-06
C:/temp/dataset/9/20_9.odb,Step-1,Increment      1: Step Time =    1.000,"PART-1-1",           179,       9.19048,      -23.6482,            0.,NA,NA,"",   102.446E-03,   91.3681E-03,   46.3358E-03,   8.99407E-03
C:/temp/dataset/9/20_9.odb,Step-1,Increment      1: Step Time =    1.000,"PART-1-1",           180,       9.11932,      -19.5624,            0.,NA,NA,"",   257.687E-03,   245.492E-03,   78.3363E-03,   8.90757E-03
C:/temp/dataset/9/20_9.odb,Step-1,Increment      1: Step Time =    1.000,"PART-1-1",           181,       9.13323,      -12.9344,            0.,NA,NA,"",   648.258E-03,   637.527E-03,   117.469E-03,   8.52514E-03
C:/temp/dataset/9/20_9.odb,Step-1,Increment      1: Step Time =    1.000,"PART-1-1",           182,       9.14303,      -17.4019,            0.,NA,NA,"",   365.789E-03,   354.179E-03,   91.4245E-03,   8.68790E-03
C:/temp/dataset/9/20_9.odb,Step-1,Increment      1: Step Time =    1.000,"PART-1-1",           183,       9.11260,      -10.6744,            0.,NA,NA,"",   820.258E-03,   809.989E-03,   129.390E-03,   8.32493E-03
C:/temp/dataset/9/20_9.odb,Step-1,Increment      1: Step Time =    1.000,"PART-1-1",           184,       9.06671,      -8.40676,            0.,NA,NA,"",       1.01187,       1.00197,   141.211E-03,   7.18327E-03
C:/temp/dataset/9/20_9.odb,Step-1,Increment      1: Step Time =    1.000,"PART-1-1",           185,       9.15359,      -15.1846,            0.,NA,NA,"",   496.086E-03,   485.053E-03,   104.043E-03,   8.56165E-03
C:/temp/dataset/9/20_9.odb,Step-1,Increment      1: Step Time =    1.000,"PART-1-1",           186,       9.09437,      -21.6308,            0.,NA,NA,"",   171.698E-03,   159.152E-03,   64.4282E-03,   9.17984E-03
C:/temp/dataset/9/20_9.odb,Step-1,Increment      1: Step Time =    1.000,"PART-1-1",           187,       8.94944,      -6.10597,            0.,NA,NA,"",       1.22771,       1.21792,   154.690E-03,   5.58031E-03
C:/temp/dataset/9/20_9.odb,Step-1,Increment      1: Step Time =    1.000,"PART-1-1",           188,      -11.3189,       17.6054,            0.,NA,NA,"",       4.65153,       4.01382,       2.35073,   142.218E-06
C:/temp/dataset/9/20_9.odb,Step-1,Increment      1: Step Time =    1.000,"PART-1-1",           189,      -10.4260,       2.85148,            0.,NA,NA,"",       3.31635,       2.34504,       2.34499,   231.966E-06
C:/temp/dataset/9/20_9.odb,Step-1,Increment      1: Step Time =    1.000,"PART-1-1",           190,      -12.4413,       27.8959,            0.,NA,NA,"",       5.71962,       5.18613,       2.41209,   92.7038E-06
C:/temp/dataset/9/20_9.odb,Step-1,Increment      1: Step Time =    1.000,"PART-1-1",           191,      -10.6658,       19.6683,            0.,NA,NA,"",       4.80870,       4.24250,       2.26379,   106.305E-06
C:/temp/dataset/9/20_9.odb,Step-1,Increment      1: Step Time =    1.000,"PART-1-1",           192,      -12.1118,       16.4066,            0.,NA,NA,"",       4.59081,       3.88371,       2.44792,   140.442E-06
C:/temp/dataset/9/20_9.odb,Step-1,Increment      1: Step Time =    1.000,"PART-1-1",           193,      -11.5166,       14.9043,            0.,NA,NA,"",       4.41382,       3.71059,       2.39026,   172.528E-06
C:/temp/dataset/9/20_9.odb,Step-1,Increment      1: Step Time =    1.000,"PART-1-1",           194,      -11.2054,       12.7278,            0.,NA,NA,"",       4.19617,       3.46345,       2.36903,   193.666E-06
C:/temp/dataset/9/20_9.odb,Step-1,Increment      1: Step Time =    1.000,"PART-1-1",           195,      -11.1139,       10.5020,            0.,NA,NA,"",       3.99369,       3.21226,       2.37297,   198.547E-06
C:/temp/dataset/9/20_9.odb,Step-1,Increment      1: Step Time =    1.000,"PART-1-1",           196,      -9.42029,       24.1195,            0.,NA,NA,"",       5.18064,       4.73841,       2.09441,   147.534E-06
C:/temp/dataset/9/20_9.odb,Step-1,Increment      1: Step Time =    1.000,"PART-1-1",           197,      -11.0759,       8.46025,            0.,NA,NA,"",       3.81653,       2.98209,       2.38181,   196.187E-06
C:/temp/dataset/9/20_9.odb,Step-1,Increment      1: Step Time =    1.000,"PART-1-1",           198,      -10.9473,       6.84821,            0.,NA,NA,"",       3.67308,       2.79963,       2.37772,   189.664E-06
C:/temp/dataset/9/20_9.odb,Step-1,Increment      1: Step Time =    1.000,"PART-1-1",           199,       9.64075,      -25.5803,            0.,NA,NA,"",   47.1668E-03,   41.1074E-03,   23.1277E-03,   6.84006E-03
C:/temp/dataset/9/20_9.odb,Step-1,Increment      1: Step Time =    1.000,"PART-1-1",           200,       6.22595,      -2.03957,            0.,NA,NA,"",       1.74059,       1.68254,   445.754E-03,   10.4977E-03
C:/temp/dataset/9/20_9.odb,Step-1,Increment      1: Step Time =    1.000,"PART-1-1",           201,       6.24072,       2.15031,            0.,NA,NA,"",       2.19804,       2.15414,   437.120E-03,   3.36046E-03
C:/temp/dataset/9/20_9.odb,Step-1,Increment      1: Step Time =    1.000,"PART-1-1",           202,      -7.69234,       3.89067,            0.,NA,NA,"",       3.17800,       2.44567,       2.02938,   427.279E-06
C:/temp/dataset/9/20_9.odb,Step-1,Increment      1: Step Time =    1.000,"PART-1-1",           203,       7.31807,       22.0589,            0.,NA,NA,"",       4.39844,       4.39377,   202.747E-03,   276.193E-06
C:/temp/dataset/9/20_9.odb,Step-1,Increment      1: Step Time =    1.000,"PART-1-1",           204,      -6.44398,       20.4265,            0.,NA,NA,"",       4.65492,       4.30058,       1.78135,   301.685E-06
C:/temp/dataset/9/20_9.odb,Step-1,Increment      1: Step Time =    1.000,"PART-1-1",           205,       12.2962,       25.0128,            0.,NA,NA,"",       4.71333,       4.69777,  -382.640E-03,   109.413E-06
C:/temp/dataset/9/20_9.odb,Step-1,Increment      1: Step Time =    1.000,"PART-1-1",           206,       12.2257,      -24.8009,            0.,NA,NA,"",   64.3677E-03,   57.5451E-03,  -28.8402E-03,   6.25579E-03
C:/temp/dataset/9/20_9.odb,Step-1,Increment      1: Step Time =    1.000,"PART-1-1",           207,      -2.06005,       24.5200,            0.,NA,NA,"",       4.90002,       4.73626,       1.25622,   184.710E-06
C:/temp/dataset/9/20_9.odb,Step-1,Increment      1: Step Time =    1.000,"PART-1-1",           208,       9.31619,       25.0673,            0.,NA,NA,"",       4.72364,       4.72344,  -43.8719E-03,   127.972E-06
C:/temp/dataset/9/20_9.odb,Step-1,Increment      1: Step Time =    1.000,"PART-1-1",           209,       3.21447,       24.8112,            0.,NA,NA,"",       4.77944,       4.73462,   653.016E-03,   199.480E-06
C:/temp/dataset/9/20_9.odb,Step-1,Increment      1: Step Time =    1.000,"PART-1-1",           210,      -7.52022,      -1.18711,            0.,NA,NA,"",       2.76872,       1.86878,       2.04290,   276.220E-06
C:/temp/dataset/9/20_9.odb,Step-1,Increment      1: Step Time =    1.000,"PART-1-1",           211,       10.0127,       14.9017,            0.,NA,NA,"",       3.56233,       3.56187,  -57.4991E-03,   196.872E-06
C:/temp/dataset/9/20_9.odb,Step-1,Increment      1: Step Time =    1.000,"PART-1-1",           212,       10.7293,       3.02357,            0.,NA,NA,"",       2.21599,       2.21507,  -64.0467E-03,   2.64185E-03
C:/temp/dataset/9/20_9.odb,Step-1,Increment      1: Step Time =    1.000,"PART-1-1",           213,       11.4837,       7.36813,            0.,NA,NA,"",       2.70675,       2.70112,  -174.525E-03,   457.772E-06
C:/temp/dataset/9/20_9.odb,Step-1,Increment      1: Step Time =    1.000,"PART-1-1",           214,      -9.20573,       12.9161,            0.,NA,NA,"",       4.07955,       3.47192,       2.14207,   196.513E-06
C:/temp/dataset/9/20_9.odb,Step-1,Increment      1: Step Time =    1.000,"PART-1-1",           215,   314.418E-03,       24.7704,            0.,NA,NA,"",       4.85000,       4.74913,   984.008E-03,   186.458E-06
C:/temp/dataset/9/20_9.odb,Step-1,Increment      1: Step Time =    1.000,"PART-1-1",           216,       7.52406,       26.3727,            0.,NA,NA,"",       4.88634,       4.88398,   151.761E-03,   98.2984E-06
C:/temp/dataset/9/20_9.odb,Step-1,Increment      1: Step Time =    1.000,"PART-1-1",           217,  -811.906E-03,   82.6841E-03,            0.,NA,NA,"",       2.34601,       1.97059,       1.27299,   1.90269E-03
C:/temp/dataset/9/20_9.odb,Step-1,Increment      1: Step Time =    1.000,"PART-1-1",           218,       11.1400,      -19.6444,            0.,NA,NA,"",   235.822E-03,   235.583E-03,  -10.6199E-03,   1.07703E-03
C:/temp/dataset/9/20_9.odb,Step-1,Increment      1: Step Time =    1.000,"PART-1-1",           219,       11.1036,      -10.4226,            0.,NA,NA,"",   821.365E-03,   820.863E-03,  -28.7060E-03,   818.653E-06
C:/temp/dataset/9/20_9.odb,Step-1,Increment      1: Step Time =    1.000,"PART-1-1",           220,       10.9280,      -5.64335,            0.,NA,NA,"",       1.25684,       1.25635,  -35.2155E-03,   4.30817E-03
C:/temp/dataset/9/20_9.odb,Step-1,Increment      1: Step Time =    1.000,"PART-1-1",           221,       11.0667,       5.48495,            0.,NA,NA,"",       2.49406,       2.49136,  -115.998E-03,   1.15271E-03
C:/temp/dataset/9/20_9.odb,Step-1,Increment      1: Step Time =    1.000,"PART-1-1",           222,       11.1390,      -12.7671,            0.,NA,NA,"",   641.182E-03,   640.727E-03,  -24.1501E-03,   700.117E-06
C:/temp/dataset/9/20_9.odb,Step-1,Increment      1: Step Time =    1.000,"PART-1-1",           223,       11.1627,      -15.1016,            0.,NA,NA,"",   482.892E-03,   482.480E-03,  -19.9362E-03,   803.933E-06
C:/temp/dataset/9/20_9.odb,Step-1,Increment      1: Step Time =    1.000,"PART-1-1",           224,      -9.10801,       10.4728,            0.,NA,NA,"",       3.85022,       3.19622,       2.14671,   185.814E-06
C:/temp/dataset/9/20_9.odb,Step-1,Increment      1: Step Time =    1.000,"PART-1-1",           225,      -9.12162,       8.28854,            0.,NA,NA,"",       3.65788,       2.95039,       2.16224,   221.329E-06
C:/temp/dataset/9/20_9.odb,Step-1,Increment      1: Step Time =    1.000,"PART-1-1",           226,      -8.73753,       18.6317,            0.,NA,NA,"",       4.59657,       4.11293,       2.05238,   215.233E-06
C:/temp/dataset/9/20_9.odb,Step-1,Increment      1: Step Time =    1.000,"PART-1-1",           227,      -9.90634,  -397.381E-03,            0.,NA,NA,"",       3.03644,       1.97377,       2.30742,   245.500E-06
C:/temp/dataset/9/20_9.odb,Step-1,Increment      1: Step Time =    1.000,"PART-1-1",           228,       9.93939,       19.9385,            0.,NA,NA,"",       4.13571,       4.13490,  -81.6580E-03,   224.442E-06
C:/temp/dataset/9/20_9.odb,Step-1,Increment      1: Step Time =    1.000,"PART-1-1",           229,       5.70370,       25.8085,            0.,NA,NA,"",       4.84532,       4.83172,   362.791E-03,   134.846E-06
C:/temp/dataset/9/20_9.odb,Step-1,Increment      1: Step Time =    1.000,"PART-1-1",           230,       10.0348,       12.2094,            0.,NA,NA,"",       3.25704,       3.25676,  -42.7157E-03,   188.060E-06
C:/temp/dataset/9/20_9.odb,Step-1,Increment      1: Step Time =    1.000,"PART-1-1",           231,       9.98921,       17.4486,            0.,NA,NA,"",       3.85190,       3.85124,  -71.2361E-03,   206.169E-06
C:/temp/dataset/9/20_9.odb,Step-1,Increment      1: Step Time =    1.000,"PART-1-1",           232,       10.1044,       9.10575,            0.,NA,NA,"",       2.90611,       2.90595,  -30.7583E-03,   209.639E-06
C:/temp/dataset/9/20_9.odb,Step-1,Increment      1: Step Time =    1.000,"PART-1-1",           233,      -3.11139,      -1.10310,            0.,NA,NA,"",       2.40891,       1.84916,       1.54385,   664.341E-06
C:/temp/dataset/9/20_9.odb,Step-1,Increment      1: Step Time =    1.000,"PART-1-1",           234,      -6.48507,       25.5695,            0.,NA,NA,"",       5.18894,       4.88408,       1.75240,   104.051E-06
C:/temp/dataset/9/20_9.odb,Step-1,Increment      1: Step Time =    1.000,"PART-1-1",           235,      -4.76537,       24.8732,            0.,NA,NA,"",       5.04194,       4.79398,       1.56171,   105.861E-06
C:/temp/dataset/9/20_9.odb,Step-1,Increment      1: Step Time =    1.000,"PART-1-1",           236,      -8.46351,       26.0628,            0.,NA,NA,"",       5.33143,       4.95273,       1.97347,   141.032E-06
C:/temp/dataset/9/20_9.odb,Step-1,Increment      1: Step Time =    1.000,"PART-1-1",           237,      -9.50218,       15.8804,            0.,NA,NA,"",       4.37593,       3.80767,       2.15648,   206.811E-06
C:/temp/dataset/9/20_9.odb,Step-1,Increment      1: Step Time =    1.000,"PART-1-1",           238,      -5.29510,      -1.38770,            0.,NA,NA,"",       2.56268,       1.83133,       1.79264,   392.587E-06
C:/temp/dataset/9/20_9.odb,Step-1,Increment      1: Step Time =    1.000,"PART-1-1",           239,       11.0587,      -21.7318,            0.,NA,NA,"",   149.878E-03,   149.787E-03,  -5.19939E-03,   1.17338E-03
C:/temp/dataset/9/20_9.odb,Step-1,Increment      1: Step Time =    1.000,"PART-1-1",           240,       11.1670,      -17.4071,            0.,NA,NA,"",   347.346E-03,   347.001E-03,  -15.4783E-03,   965.835E-06
C:/temp/dataset/9/20_9.odb,Step-1,Increment      1: Step Time =    1.000,"PART-1-1",           241,       11.0513,      -8.06140,            0.,NA,NA,"",       1.02479,       1.02423,  -33.8662E-03,   2.05227E-03
C:/temp/dataset/9/20_9.odb,Step-1,Increment      1: Step Time =    1.000,"PART-1-1",           242,       10.1357,   7.39639E-03,            0.,NA,NA,"",       1.87700,       1.87693,   15.9668E-03,   5.02124E-03
C:/temp/dataset/9/20_9.odb,Step-1,Increment      1: Step Time =    1.000,"PART-1-1",           243,       10.6886,      -3.06387,            0.,NA,NA,"",       1.52966,       1.52944,  -26.4159E-03,   5.89418E-03
C:/temp/dataset/9/20_9.odb,Step-1,Increment      1: Step Time =    1.000,"PART-1-1",           244,       9.76329,       22.4053,            0.,NA,NA,"",       4.41779,       4.41711,  -77.5711E-03,   195.645E-06
C:/temp/dataset/9/20_9.odb,Step-1,Increment      1: Step Time =    1.000,"PART-1-1",           245,       8.68231,      -3.74099,            0.,NA,NA,"",       1.47844,       1.46757,   178.948E-03,   7.65831E-03
C:/temp/dataset/9/20_9.odb,Step-1,Increment      1: Step Time =    1.000,"PART-1-1",           246,      -9.34414,       6.30777,            0.,NA,NA,"",       3.50517,       2.72866,       2.20015,   219.131E-06
C:/temp/dataset/9/20_9.odb,Step-1,Increment      1: Step Time =    1.000,"PART-1-1",           247,      -9.93235,       4.61568,            0.,NA,NA,"",       3.41269,       2.54140,       2.27766,   215.956E-06
C:/temp/dataset/9/20_9.odb,Step-1,Increment      1: Step Time =    1.000,"PART-1-1",           248,      -8.14937,       21.0679,            0.,NA,NA,"",       4.80670,       4.38435,       1.97023,   158.316E-06
C:/temp/dataset/9/20_9.odb,Step-1,Increment      1: Step Time =    1.000,"PART-1-1",           249,       10.7972,      -23.3791,            0.,NA,NA,"",   94.9006E-03,   94.8450E-03,   3.24839E-03,   1.78064E-03
C:/temp/dataset/9/20_9.odb,Step-1,Increment      1: Step Time =    1.000,"PART-1-1",           250,       4.15357,   65.4176E-03,            0.,NA,NA,"",       2.05702,       1.93877,   687.371E-03,   5.29549E-03
C:/temp/dataset/9/20_9.odb,Step-1,Increment      1: Step Time =    1.000,"PART-1-1",           251,       8.71950,       3.82470,            0.,NA,NA,"",       2.32639,       2.32131,   153.603E-03,   2.72765E-03
C:/temp/dataset/9/20_9.odb,Step-1,Increment      1: Step Time =    1.000,"PART-1-1",           252,       5.00281,       23.5204,            0.,NA,NA,"",       4.59856,       4.57577,   457.311E-03,   217.959E-06
C:/temp/dataset/9/20_9.odb,Step-1,Increment      1: Step Time =    1.000,"PART-1-1",           253,       7.40149,   60.9774E-03,            0.,NA,NA,"",       1.93252,       1.90709,   312.437E-03,   5.74887E-03
C:/temp/dataset/9/20_9.odb,Step-1,Increment      1: Step Time =    1.000,"PART-1-1",           254,      -5.73116,       22.7675,            0.,NA,NA,"",       4.86257,       4.56121,       1.68522,   192.657E-06
C:/temp/dataset/9/20_9.odb,Step-1,Increment      1: Step Time =    1.000,"PART-1-1",           255,      -5.42683,       1.83799,            0.,NA,NA,"",       2.83327,       2.19884,       1.78677,   375.747E-06
C:/temp/dataset/9/20_9.odb,Step-1,Increment      1: Step Time =    1.000,"PART-1-1",           256,       6.81561,       24.0815,            0.,NA,NA,"",       4.63420,       4.62761,   247.136E-03,   185.316E-06
C:/temp/dataset/9/20_9.odb,Step-1,Increment      1: Step Time =    1.000,"PART-1-1",           257,      -7.40884,       23.3683,            0.,NA,NA,"",       5.00342,       4.64022,       1.87151,   147.857E-06
C:/temp/dataset/9/20_9.odb,Step-1,Increment      1: Step Time =    1.000,"PART-1-1",           258,      -3.69176,       23.9755,            0.,NA,NA,"",       4.90301,       4.68508,       1.44551,   167.388E-06
C:/temp/dataset/9/20_9.odb,Step-1,Increment      1: Step Time =    1.000,"PART-1-1",           259,      -8.10961,       1.76736,            0.,NA,NA,"",       3.04042,       2.20772,       2.09049,   349.236E-06
C:/temp/dataset/9/20_9.odb,Step-1,Increment      1: Step Time =    1.000,"PART-1-1",           260,       5.94930,   61.4696E-03,            0.,NA,NA,"",       1.97989,       1.92166,   476.656E-03,   5.45485E-03
C:/temp/dataset/9/20_9.odb,Step-1,Increment      1: Step Time =    1.000,"PART-1-1",           261,       1.93878,   62.7924E-03,            0.,NA,NA,"",       2.17287,       1.95341,   951.612E-03,   4.93163E-03
C:/temp/dataset/9/20_9.odb,Step-1,Increment      1: Step Time =    1.000,"PART-1-1",           262,       6.71051,      -4.41826,            0.,NA,NA,"",       1.45979,       1.40828,   384.353E-03,   11.3121E-03
C:/temp/dataset/9/20_9.odb,Step-1,Increment      1: Step Time =    1.000,"PART-1-1",           263,      -12.5366,      -2.82410,            0.,NA,NA,"",       3.13209,       1.71586,       2.62027,   92.5799E-06
C:/temp/dataset/9/20_9.odb,Step-1,Increment      1: Step Time =    1.000,"PART-1-1",           264,       6.75090,       4.53602,            0.,NA,NA,"",       2.44606,       2.41791,   370.022E-03,   3.11698E-03
C:/temp/dataset/9/20_9.odb,Step-1,Increment      1: Step Time =    1.000,"PART-1-1",           265,      -5.22339,       3.46233,            0.,NA,NA,"",       2.95771,       2.38219,       1.75306,   501.595E-06
C:/temp/dataset/9/20_9.odb,Step-1,Increment      1: Step Time =    1.000,"PART-1-1",           266,       4.93795,       21.9167,            0.,NA,NA,"",       4.41908,       4.39349,   474.869E-03,   307.068E-06
C:/temp/dataset/9/20_9.odb,Step-1,Increment      1: Step Time =    1.000,"PART-1-1",           267,       8.13144,      -1.42002,            0.,NA,NA,"",       1.74784,       1.73205,   234.412E-03,   7.04664E-03
C:/temp/dataset/9/20_9.odb,Step-1,Increment      1: Step Time =    1.000,"PART-1-1",           268,      -3.13115,       1.39136,            0.,NA,NA,"",       2.62485,       2.13352,       1.52902,   314.905E-06
C:/temp/dataset/9/20_9.odb,Step-1,Increment      1: Step Time =    1.000,"PART-1-1",           269,       9.17709,       6.32873,            0.,NA,NA,"",       2.60126,       2.59970,   89.9014E-03,   1.12124E-03
C:/temp/dataset/9/20_9.odb,Step-1,Increment      1: Step Time =    1.000,"PART-1-1",           270,      -11.0423,       1.34077,            0.,NA,NA,"",       3.25904,       2.17792,       2.42446,   230.777E-06
C:/temp/dataset/9/20_9.odb,Step-1,Increment      1: Step Time =    1.000,"PART-1-1",           271,      -10.1478,       26.6048,            0.,NA,NA,"",       5.46986,       5.02501,       2.16071,   145.794E-06
C:/temp/dataset/9/20_9.odb,Step-1,Increment      1: Step Time =    1.000,"PART-1-1",           272,      -10.1118,       21.9370,            0.,NA,NA,"",       4.99915,       4.49554,       2.18669,   114.351E-06
C:/temp/dataset/9/20_9.odb,Step-1,Increment      1: Step Time =    1.000,"PART-1-1",           273,       8.13886,       1.50501,            0.,NA,NA,"",       2.07624,       2.06380,   227.005E-03,   4.40138E-03
C:/temp/dataset/9/20_9.odb,Step-1,Increment      1: Step Time =    1.000,"PART-1-1",           274,      -7.06249,   219.393E-03,            0.,NA,NA,"",       2.83395,       2.02538,       1.98220,   365.642E-06
C:/temp/dataset/9/20_9.odb,Step-1,Increment      1: Step Time =    1.000,"PART-1-1",           275,      -5.40522,   241.534E-03,            0.,NA,NA,"",       2.69994,       2.01715,       1.79465,   380.275E-06
C:/temp/dataset/9/20_9.odb,Step-1,Increment      1: Step Time =    1.000,"PART-1-1",           276,      -3.80180,   194.541E-03,            0.,NA,NA,"",       2.57064,       2.00135,       1.61331,   338.823E-06
C:/temp/dataset/9/20_9.odb,Step-1,Increment      1: Step Time =    1.000,"PART-1-1",           277,      -2.71285,       28.4954,            0.,NA,NA,"",       5.35371,       5.19233,       1.30460,   154.348E-06
C:/temp/dataset/9/20_9.odb,Step-1,Increment      1: Step Time =    1.000,"PART-1-1",           278,         -3.75,           30.,            0.,NA,NA,"",       5.55265,       5.36993,       1.41269,   245.115E-06
C:/temp/dataset/9/20_9.odb,Step-1,Increment      1: Step Time =    1.000,"PART-1-1",           279,      -5.26224,       28.8665,            0.,NA,NA,"",       5.48669,       5.25065,       1.59202,   190.959E-06
C:/temp/dataset/9/20_9.odb,Step-1,Increment      1: Step Time =    1.000,"PART-1-1",           280,      -4.22509,       27.3619,            0.,NA,NA,"",       5.28576,       5.07316,       1.48402,   105.847E-06
C:/temp/dataset/9/20_9.odb,Step-1,Increment      1: Step Time =    1.000,"PART-1-1",           281,      -3.84553,       25.9321,            0.,NA,NA,"",       5.11806,       4.90830,       1.45022,   104.152E-06
C:/temp/dataset/9/20_9.odb,Step-1,Increment      1: Step Time =    1.000,"PART-1-1",           282,      -6.00478,       26.6512,            0.,NA,NA,"",       5.28176,       5.00381,       1.69083,   105.785E-06
C:/temp/dataset/9/20_9.odb,Step-1,Increment      1: Step Time =    1.000,"PART-1-1",           283,      -5.62522,       25.2214,            0.,NA,NA,"",       5.11491,       4.83904,       1.65709,   89.3987E-06
C:/temp/dataset/9/20_9.odb,Step-1,Increment      1: Step Time =    1.000,"PART-1-1",           284,      -10.0879,       29.0985,            0.,NA,NA,"",       5.72180,       5.30743,       2.13778,   113.969E-06
C:/temp/dataset/9/20_9.odb,Step-1,Increment      1: Step Time =    1.000,"PART-1-1",           285,        -11.25,           30.,            0.,NA,NA,"",       5.87089,       5.41697,       2.26357,   75.8434E-06
C:/temp/dataset/9/20_9.odb,Step-1,Increment      1: Step Time =    1.000,"PART-1-1",           286,      -12.4706,       28.9480,            0.,NA,NA,"",       5.82671,       5.30557,       2.40863,   52.2416E-06
C:/temp/dataset/9/20_9.odb,Step-1,Increment      1: Step Time =    1.000,"PART-1-1",           287,      -11.3086,       28.0465,            0.,NA,NA,"",       5.67531,       5.19594,       2.28284,   108.409E-06
C:/temp/dataset/9/20_9.odb,Step-1,Increment      1: Step Time =    1.000,"PART-1-1",           288,      -13.4495,       25.5029,            0.,NA,NA,"",       5.53885,       4.92128,       2.54162,   107.284E-06
C:/temp/dataset/9/20_9.odb,Step-1,Increment      1: Step Time =    1.000,"PART-1-1",           289,          -15.,       24.5313,            0.,NA,NA,"",       5.53722,       4.82118,       2.72343,   144.900E-06
C:/temp/dataset/9/20_9.odb,Step-1,Increment      1: Step Time =    1.000,"PART-1-1",           290,      -13.6920,       23.1529,            0.,NA,NA,"",       5.32540,       4.65648,       2.58401,   148.848E-06
C:/temp/dataset/9/20_9.odb,Step-1,Increment      1: Step Time =    1.000,"PART-1-1",           291,      -12.1415,       24.1246,            0.,NA,NA,"",       5.32880,       4.75656,       2.40235,   137.408E-06
C:/temp/dataset/9/20_9.odb,Step-1,Increment      1: Step Time =    1.000,"PART-1-1",           292,          8.75,          -30.,            0.,NA,NA,"",            0.,  -2.80948E-39,   16.8366E-39,   8.74003E-03
C:/temp/dataset/9/20_9.odb,Step-1,Increment      1: Step Time =    1.000,"PART-1-1",           293,       9.96407,      -28.8633,            0.,NA,NA,"",   4.00700E-03,  -1.52020E-03,   3.70743E-03,   4.21948E-03
C:/temp/dataset/9/20_9.odb,Step-1,Increment      1: Step Time =    1.000,"PART-1-1",           294,       8.68711,      -27.7998,            0.,NA,NA,"",   20.7852E-03,   9.41052E-03,   18.5328E-03,   11.4315E-03
C:/temp/dataset/9/20_9.odb,Step-1,Increment      1: Step Time =    1.000,"PART-1-1",           295,       7.47304,      -28.9365,            0.,NA,NA,"",   13.4563E-03,   3.34538E-03,   13.0339E-03,   15.2061E-03
C:/temp/dataset/9/20_9.odb,Step-1,Increment      1: Step Time =    1.000,"PART-1-1",           296,       10.9279,      -22.5555,            0.,NA,NA,"",   120.953E-03,   120.952E-03,  -481.719E-06,   1.39576E-03
C:/temp/dataset/9/20_9.odb,Step-1,Increment      1: Step Time =    1.000,"PART-1-1",           297,       10.0765,      -21.6813,            0.,NA,NA,"",   156.247E-03,   153.450E-03,   29.4343E-03,   4.67932E-03
C:/temp/dataset/9/20_9.odb,Step-1,Increment      1: Step Time =    1.000,"PART-1-1",           298,       9.14242,      -22.6395,            0.,NA,NA,"",   135.001E-03,   123.151E-03,   55.3077E-03,   9.06316E-03
C:/temp/dataset/9/20_9.odb,Step-1,Increment      1: Step Time =    1.000,"PART-1-1",           299,       9.99384,      -23.5137,            0.,NA,NA,"",   95.7766E-03,   92.4073E-03,   25.1800E-03,   5.13526E-03
C:/temp/dataset/9/20_9.odb,Step-1,Increment      1: Step Time =    1.000,"PART-1-1",           300,       7.08785,      -18.4988,            0.,NA,NA,"",   361.673E-03,   311.478E-03,   183.816E-03,   17.8591E-03
C:/temp/dataset/9/20_9.odb,Step-1,Increment      1: Step Time =    1.000,"PART-1-1",           301,       6.04673,      -17.4684,            0.,NA,NA,"",   454.045E-03,   376.554E-03,   253.700E-03,   22.2647E-03
C:/temp/dataset/9/20_9.odb,Step-1,Increment      1: Step Time =    1.000,"PART-1-1",           302,            5.,      -18.5417,            0.,NA,NA,"",   437.808E-03,   332.686E-03,   284.597E-03,   27.0657E-03
C:/temp/dataset/9/20_9.odb,Step-1,Increment      1: Step Time =    1.000,"PART-1-1",           303,       6.04112,      -19.5721,            0.,NA,NA,"",   344.682E-03,   270.064E-03,   214.175E-03,   22.6531E-03
C:/temp/dataset/9/20_9.odb,Step-1,Increment      1: Step Time =    1.000,"PART-1-1",           304,       7.10245,      -14.2066,            0.,NA,NA,"",   615.398E-03,   565.291E-03,   243.229E-03,   17.3100E-03
C:/temp/dataset/9/20_9.odb,Step-1,Increment      1: Step Time =    1.000,"PART-1-1",           305,       6.04975,      -13.2285,            0.,NA,NA,"",   723.794E-03,   644.885E-03,   328.636E-03,   21.5823E-03
C:/temp/dataset/9/20_9.odb,Step-1,Increment      1: Step Time =    1.000,"PART-1-1",           306,            5.,       -14.375,            0.,NA,NA,"",   690.788E-03,   578.777E-03,   377.101E-03,   26.1716E-03
C:/temp/dataset/9/20_9.odb,Step-1,Increment      1: Step Time =    1.000,"PART-1-1",           307,       6.05270,      -15.3531,            0.,NA,NA,"",   580.216E-03,   501.561E-03,   291.699E-03,   21.8962E-03
C:/temp/dataset/9/20_9.odb,Step-1,Increment      1: Step Time =    1.000,"PART-1-1",           308,            5.,      -6.04167,            0.,NA,NA,"",       1.37549,       1.26010,   551.471E-03,   35.9387E-03
C:/temp/dataset/9/20_9.odb,Step-1,Increment      1: Step Time =    1.000,"PART-1-1",           309,       5.97724,      -6.85181,            0.,NA,NA,"",       1.24999,       1.17023,   439.369E-03,   22.2630E-03
C:/temp/dataset/9/20_9.odb,Step-1,Increment      1: Step Time =    1.000,"PART-1-1",           310,       6.83249,      -5.51927,            0.,NA,NA,"",       1.34036,       1.28925,   366.585E-03,   11.1072E-03
C:/temp/dataset/9/20_9.odb,Step-1,Increment      1: Step Time =    1.000,"PART-1-1",           311,       5.85525,      -4.70913,            0.,NA,NA,"",       1.46149,       1.38123,   477.654E-03,   19.9327E-03
C:/temp/dataset/9/20_9.odb,Step-1,Increment      1: Step Time =    1.000,"PART-1-1",           312,       4.27314,       1.25089,            0.,NA,NA,"",       2.17508,       2.07011,   667.531E-03,   4.15646E-03
C:/temp/dataset/9/20_9.odb,Step-1,Increment      1: Step Time =    1.000,"PART-1-1",           313,       3.27994,       2.49943,            0.,NA,NA,"",       2.34996,       2.21787,   776.769E-03,   2.87139E-03
C:/temp/dataset/9/20_9.odb,Step-1,Increment      1: Step Time =    1.000,"PART-1-1",           314,       2.05297,       1.31265,            0.,NA,NA,"",       2.28992,       2.09311,   928.776E-03,   3.68562E-03
C:/temp/dataset/9/20_9.odb,Step-1,Increment      1: Step Time =    1.000,"PART-1-1",           315,       3.04617,   64.1050E-03,            0.,NA,NA,"",       2.11220,       1.94656,   819.941E-03,   4.89336E-03
C:/temp/dataset/9/20_9.odb,Step-1,Increment      1: Step Time =    1.000,"PART-1-1",           316,       6.28410,       12.4112,            0.,NA,NA,"",       3.32572,       3.30403,   379.162E-03,   629.043E-06
C:/temp/dataset/9/20_9.odb,Step-1,Increment      1: Step Time =    1.000,"PART-1-1",           317,            5.,         11.25,            0.,NA,NA,"",       3.22535,       3.18139,   530.685E-03,   953.605E-06
C:/temp/dataset/9/20_9.odb,Step-1,Increment      1: Step Time =    1.000,"PART-1-1",           318,       6.24476,       9.82085,            0.,NA,NA,"",       3.03799,       3.01174,   398.556E-03,   745.464E-06
C:/temp/dataset/9/20_9.odb,Step-1,Increment      1: Step Time =    1.000,"PART-1-1",           319,       7.52885,       10.9821,            0.,NA,NA,"",       3.14399,       3.13425,   247.344E-03,   457.967E-06
C:/temp/dataset/9/20_9.odb,Step-1,Increment      1: Step Time =    1.000,"PART-1-1",           320,       6.23557,       19.9374,            0.,NA,NA,"",       4.17288,       4.15907,   339.254E-03,   349.041E-06
C:/temp/dataset/9/20_9.odb,Step-1,Increment      1: Step Time =    1.000,"PART-1-1",           321,            5.,         18.75,            0.,NA,NA,"",       4.06144,       4.03211,   487.177E-03,   594.098E-06
C:/temp/dataset/9/20_9.odb,Step-1,Increment      1: Step Time =    1.000,"PART-1-1",           322,       6.25255,       17.4722,            0.,NA,NA,"",       3.89437,       3.87838,   352.511E-03,   446.399E-06
C:/temp/dataset/9/20_9.odb,Step-1,Increment      1: Step Time =    1.000,"PART-1-1",           323,       7.48812,       18.6595,            0.,NA,NA,"",       4.01052,       4.00528,   204.850E-03,   282.613E-06
C:/temp/dataset/9/20_9.odb,Step-1,Increment      1: Step Time =    1.000,"PART-1-1",           324,       12.4612,       28.7577,            0.,NA,NA,"",       5.14104,       5.12337,  -425.832E-03,   29.6870E-06
C:/temp/dataset/9/20_9.odb,Step-1,Increment      1: Step Time =    1.000,"PART-1-1",           325,         11.25,           30.,            0.,NA,NA,"",       5.28107,       5.27276,  -295.999E-03,   32.1062E-06
C:/temp/dataset/9/20_9.odb,Step-1,Increment      1: Step Time =    1.000,"PART-1-1",           326,       9.95383,       28.8406,            0.,NA,NA,"",       5.15112,       5.14920,  -140.896E-03,   57.3419E-06
C:/temp/dataset/9/20_9.odb,Step-1,Increment      1: Step Time =    1.000,"PART-1-1",           327,       11.1650,       27.5983,            0.,NA,NA,"",       5.00707,       4.99975,  -270.720E-03,   61.2243E-06
C:/temp/dataset/9/20_9.odb,Step-1,Increment      1: Step Time =    1.000,"PART-1-1",           328,       9.61193,       26.3742,            0.,NA,NA,"",       4.87120,       4.87044,  -85.9816E-03,   96.0171E-06
C:/temp/dataset/9/20_9.odb,Step-1,Increment      1: Step Time =    1.000,"PART-1-1",           329,       10.8062,       25.0400,            0.,NA,NA,"",       4.71540,       4.71058,  -213.259E-03,   108.992E-06
C:/temp/dataset/9/20_9.odb,Step-1,Increment      1: Step Time =    1.000,"PART-1-1",           330,       12.3592,       26.2641,            0.,NA,NA,"",       4.85628,       4.83994,  -397.988E-03,   80.8573E-06
C:/temp/dataset/9/20_9.odb,Step-1,Increment      1: Step Time =    1.000,"PART-1-1",           331,       7.54419,       28.9985,            0.,NA,NA,"",       5.18468,       5.18299,   132.491E-03,   72.7141E-06
C:/temp/dataset/9/20_9.odb,Step-1,Increment      1: Step Time =    1.000,"PART-1-1",           332,          6.25,           30.,            0.,NA,NA,"",       5.31264,       5.30560,   273.446E-03,   68.5712E-06
C:/temp/dataset/9/20_9.odb,Step-1,Increment      1: Step Time =    1.000,"PART-1-1",           333,       5.09159,       28.9175,            0.,NA,NA,"",       5.20623,       5.18986,   412.478E-03,   63.0291E-06
C:/temp/dataset/9/20_9.odb,Step-1,Increment      1: Step Time =    1.000,"PART-1-1",           334,       6.38578,       27.9160,            0.,NA,NA,"",       5.07455,       5.06728,   271.475E-03,   67.8484E-06
C:/temp/dataset/9/20_9.odb,Step-1,Increment      1: Step Time =    1.000,"PART-1-1",           335,       2.95769,       26.1428,            0.,NA,NA,"",       4.93411,       4.88789,   673.725E-03,   159.115E-06
C:/temp/dataset/9/20_9.odb,Step-1,Increment      1: Step Time =    1.000,"PART-1-1",           336,       4.45909,       25.3098,            0.,NA,NA,"",       4.81005,       4.78316,   507.876E-03,   161.079E-06
C:/temp/dataset/9/20_9.odb,Step-1,Increment      1: Step Time =    1.000,"PART-1-1",           337,       5.44343,       26.8217,            0.,NA,NA,"",       4.96386,       4.94883,   385.934E-03,   107.928E-06
C:/temp/dataset/9/20_9.odb,Step-1,Increment      1: Step Time =    1.000,"PART-1-1",           338,       3.94204,       27.6547,            0.,NA,NA,"",       5.08359,       5.05356,   551.710E-03,   104.196E-06
C:/temp/dataset/9/20_9.odb,Step-1,Increment      1: Step Time =    1.000,"PART-1-1",           339,       6.06395,       7.26936,            0.,NA,NA,"",       2.76098,       2.72679,   433.172E-03,   856.461E-06
C:/temp/dataset/9/20_9.odb,Step-1,Increment      1: Step Time =    1.000,"PART-1-1",           340,       7.30871,       8.34021,            0.,NA,NA,"",       2.85276,       2.83821,   287.708E-03,   563.633E-06
C:/temp/dataset/9/20_9.odb,Step-1,Increment      1: Step Time =    1.000,"PART-1-1",           341,            5.,          8.75,            0.,NA,NA,"",       2.95022,       2.89961,   544.148E-03,   1.12929E-03
C:/temp/dataset/9/20_9.odb,Step-1,Increment      1: Step Time =    1.000,"PART-1-1",           342,      -13.9291,       1.47830,            0.,NA,NA,"",       3.52891,       2.21179,       2.74977,   175.666E-06
C:/temp/dataset/9/20_9.odb,Step-1,Increment      1: Step Time =    1.000,"PART-1-1",           343,          -15.,    468.75E-03,            0.,NA,NA,"",       3.56489,       2.10434,       2.87753,   145.112E-06
C:/temp/dataset/9/20_9.odb,Step-1,Increment      1: Step Time =    1.000,"PART-1-1",           344,      -13.8152,  -655.377E-03,            0.,NA,NA,"",       3.38322,       1.96956,       2.75082,   109.346E-06
C:/temp/dataset/9/20_9.odb,Step-1,Increment      1: Step Time =    1.000,"PART-1-1",           345,      -12.7443,   354.171E-03,            0.,NA,NA,"",       3.34591,       2.07702,       2.62318,   168.099E-06
C:/temp/dataset/9/20_9.odb,Step-1,Increment      1: Step Time =    1.000,"PART-1-1",           346,      -13.9678,       8.16706,            0.,NA,NA,"",       4.01869,       2.96734,       2.71013,   184.568E-06
C:/temp/dataset/9/20_9.odb,Step-1,Increment      1: Step Time =    1.000,"PART-1-1",           347,          -15.,       7.03125,            0.,NA,NA,"",       4.01625,       2.84579,       2.83403,   242.525E-06
C:/temp/dataset/9/20_9.odb,Step-1,Increment      1: Step Time =    1.000,"PART-1-1",           348,      -13.6804,       5.85321,            0.,NA,NA,"",       3.81660,       2.70462,       2.69286,   218.576E-06
C:/temp/dataset/9/20_9.odb,Step-1,Increment      1: Step Time =    1.000,"PART-1-1",           349,      -12.6482,       6.98902,            0.,NA,NA,"",       3.81925,       2.82622,       2.56888,   174.611E-06
C:/temp/dataset/9/20_9.odb,Step-1,Increment      1: Step Time =    1.000,"PART-1-1",           350,      -5.93089,       17.7206,            0.,NA,NA,"",       4.35543,       3.99228,       1.74112,   332.960E-06
C:/temp/dataset/9/20_9.odb,Step-1,Increment      1: Step Time =    1.000,"PART-1-1",           351,      -7.00986,       16.6597,            0.,NA,NA,"",       4.30674,       3.87961,       1.86993,   271.296E-06
C:/temp/dataset/9/20_9.odb,Step-1,Increment      1: Step Time =    1.000,"PART-1-1",           352,      -6.07897,       15.1891,            0.,NA,NA,"",       4.11084,       3.70811,       1.77453,   210.201E-06
C:/temp/dataset/9/20_9.odb,Step-1,Increment      1: Step Time =    1.000,"PART-1-1",           353,           -5.,         16.25,            0.,NA,NA,"",       4.16029,       3.82086,       1.64592,   278.311E-06
C:/temp/dataset/9/20_9.odb,Step-1,Increment      1: Step Time =    1.000,"PART-1-1",           354,      -7.79966,       18.2865,            0.,NA,NA,"",       4.51055,       4.06794,       1.94856,   273.704E-06
C:/temp/dataset/9/20_9.odb,Step-1,Increment      1: Step Time =    1.000,"PART-1-1",           355,      -6.65288,       19.1839,            0.,NA,NA,"",       4.53944,       4.16166,       1.81303,   310.496E-06
C:/temp/dataset/9/20_9.odb,Step-1,Increment      1: Step Time =    1.000,"PART-1-1",           356,      -7.29668,       20.7472,            0.,NA,NA,"",       4.73031,       4.34248,       1.87581,   213.499E-06
C:/temp/dataset/9/20_9.odb,Step-1,Increment      1: Step Time =    1.000,"PART-1-1",           357,      -8.44345,       19.8498,            0.,NA,NA,"",       4.70059,       4.24854,       2.01132,   159.294E-06
C:/temp/dataset/9/20_9.odb,Step-1,Increment      1: Step Time =    1.000,"PART-1-1",           358,      -2.59303,       4.06073,            0.,NA,NA,"",       2.83334,       2.43471,       1.44915,   883.218E-06
C:/temp/dataset/9/20_9.odb,Step-1,Increment      1: Step Time =    1.000,"PART-1-1",           359,      -1.46713,       2.91047,            0.,NA,NA,"",       2.65264,       2.29644,       1.32772,   869.673E-06
C:/temp/dataset/9/20_9.odb,Step-1,Increment      1: Step Time =    1.000,"PART-1-1",           360,  -124.098E-03,       3.84974,            0.,NA,NA,"",       2.66418,       2.39554,       1.16587,   915.345E-06
C:/temp/dataset/9/20_9.odb,Step-1,Increment      1: Step Time =    1.000,"PART-1-1",           361,         -1.25,            5.,            0.,NA,NA,"",       2.84322,       2.53471,       1.28806,   937.583E-06
C:/temp/dataset/9/20_9.odb,Step-1,Increment      1: Step Time =    1.000,"PART-1-1",           362,      -11.2683,  -541.568E-03,            0.,NA,NA,"",       3.15093,       1.96617,       2.46222,   193.884E-06
C:/temp/dataset/9/20_9.odb,Step-1,Increment      1: Step Time =    1.000,"PART-1-1",           363,      -10.4743,   471.696E-03,            0.,NA,NA,"",       3.14754,       2.07588,       2.36596,   227.985E-06
C:/temp/dataset/9/20_9.odb,Step-1,Increment      1: Step Time =    1.000,"PART-1-1",           364,      -11.9503,       1.36743,            0.,NA,NA,"",       3.34165,       2.18669,       2.52685,   201.543E-06
C:/temp/dataset/9/20_9.odb,Step-1,Increment      1: Step Time =    1.000,"PART-1-1",           365,      -13.0095,       9.29789,            0.,NA,NA,"",       4.03389,       3.08869,       2.59467,   164.801E-06
C:/temp/dataset/9/20_9.odb,Step-1,Increment      1: Step Time =    1.000,"PART-1-1",           366,      -14.0417,       10.3496,            0.,NA,NA,"",       4.20012,       3.21368,       2.70431,   120.648E-06
C:/temp/dataset/9/20_9.odb,Step-1,Increment      1: Step Time =    1.000,"PART-1-1",           367,          -15.,       9.21875,            0.,NA,NA,"",       4.18487,       3.09234,       2.81966,   163.173E-06
C:/temp/dataset/9/20_9.odb,Step-1,Increment      1: Step Time =    1.000,"PART-1-1",           368,      -6.40766,      -1.28741,            0.,NA,NA,"",       2.66472,       1.85010,       1.91778,   335.630E-06
C:/temp/dataset/9/20_9.odb,Step-1,Increment      1: Step Time =    1.000,"PART-1-1",           369,      -5.35016,  -573.084E-03,            0.,NA,NA,"",       2.63055,       1.92418,       1.79369,   359.784E-06
C:/temp/dataset/9/20_9.odb,Step-1,Increment      1: Step Time =    1.000,"PART-1-1",           370,      -6.23385,   230.463E-03,            0.,NA,NA,"",       2.76620,       2.02127,       1.88847,   354.354E-06
C:/temp/dataset/9/20_9.odb,Step-1,Increment      1: Step Time =    1.000,"PART-1-1",           371,      -7.29135,  -483.859E-03,            0.,NA,NA,"",       2.80025,       1.94705,       2.01256,   316.891E-06
C:/temp/dataset/9/20_9.odb,Step-1,Increment      1: Step Time =    1.000,"PART-1-1",           372,   952.242E-03,      -2.53706,            0.,NA,NA,"",       1.99124,       1.66370,       1.09414,   5.67885E-03
C:/temp/dataset/9/20_9.odb,Step-1,Increment      1: Step Time =    1.000,"PART-1-1",           373,  -130.910E-03,      -3.80019,            0.,NA,NA,"",       1.95842,       1.52316,       1.23101,   4.88316E-03
C:/temp/dataset/9/20_9.odb,Step-1,Increment      1: Step Time =    1.000,"PART-1-1",           374,          1.25,           -5.,            0.,NA,NA,"",       1.75971,       1.37969,       1.09225,   8.65132E-03
C:/temp/dataset/9/20_9.odb,Step-1,Increment      1: Step Time =    1.000,"PART-1-1",           375,       2.33315,      -3.73687,            0.,NA,NA,"",       1.79105,       1.52239,   943.492E-03,   9.68066E-03
C:/temp/dataset/9/20_9.odb,Step-1,Increment      1: Step Time =    1.000,"PART-1-1",           376,       4.26686,      -1.13377,            0.,NA,NA,"",       1.92791,       1.80400,   680.014E-03,   7.65397E-03
C:/temp/dataset/9/20_9.odb,Step-1,Increment      1: Step Time =    1.000,"PART-1-1",           377,       2.05254,      -1.20548,            0.,NA,NA,"",       2.04463,       1.81065,   949.757E-03,   6.93748E-03
C:/temp/dataset/9/20_9.odb,Step-1,Increment      1: Step Time =    1.000,"PART-1-1",           378,       3.27323,      -2.40335,            0.,NA,NA,"",       1.85607,       1.67047,   809.038E-03,   9.13452E-03
C:/temp/dataset/9/20_9.odb,Step-1,Increment      1: Step Time =    1.000,"PART-1-1",           379,       10.4325,       1.51548,            0.,NA,NA,"",       2.04612,       2.04598,  -23.3652E-03,   3.78350E-03
C:/temp/dataset/9/20_9.odb,Step-1,Increment      1: Step Time =    1.000,"PART-1-1",           380,       11.3847,  -3.51279E-03,            0.,NA,NA,"",       1.87081,       1.86715,  -116.952E-03,   4.26533E-03
C:/temp/dataset/9/20_9.odb,Step-1,Increment      1: Step Time =    1.000,"PART-1-1",           381,       12.7244,       1.31309,            0.,NA,NA,"",       2.02642,       2.00827,  -270.591E-03,   3.46546E-03
C:/temp/dataset/9/20_9.odb,Step-1,Increment      1: Step Time =    1.000,"PART-1-1",           382,       11.7722,       2.83209,            0.,NA,NA,"",       2.19345,       2.18627,  -177.316E-03,   2.35383E-03
C:/temp/dataset/9/20_9.odb,Step-1,Increment      1: Step Time =    1.000,"PART-1-1",           383,       9.00808,      -7.25637,            0.,NA,NA,"",       1.11739,       1.10746,   148.593E-03,   6.46557E-03
C:/temp/dataset/9/20_9.odb,Step-1,Increment      1: Step Time =    1.000,"PART-1-1",           384,       7.95196,      -6.36313,            0.,NA,NA,"",       1.22484,       1.19898,   250.348E-03,   10.1395E-03
C:/temp/dataset/9/20_9.odb,Step-1,Increment      1: Step Time =    1.000,"PART-1-1",           385,       7.00211,      -7.70397,            0.,NA,NA,"",       1.13101,       1.08159,   330.668E-03,   16.5538E-03
C:/temp/dataset/9/20_9.odb,Step-1,Increment      1: Step Time =    1.000,"PART-1-1",           386,       8.05823,      -8.59720,            0.,NA,NA,"",       1.01861,   992.648E-03,   228.525E-03,   12.1296E-03
C:/temp/dataset/9/20_9.odb,Step-1,Increment      1: Step Time =    1.000,"PART-1-1",           387,       7.09104,      -12.0381,            0.,NA,NA,"",   770.435E-03,   720.822E-03,   272.002E-03,   17.1250E-03
C:/temp/dataset/9/20_9.odb,Step-1,Increment      1: Step Time =    1.000,"PART-1-1",           388,       6.04129,      -11.1013,            0.,NA,NA,"",   883.978E-03,   805.336E-03,   364.488E-03,   21.3856E-03
C:/temp/dataset/9/20_9.odb,Step-1,Increment      1: Step Time =    1.000,"PART-1-1",           389,            5.,      -12.2917,            0.,NA,NA,"",   840.094E-03,   727.316E-03,   420.440E-03,   25.8532E-03
C:/temp/dataset/9/20_9.odb,Step-1,Increment      1: Step Time =    1.000,"PART-1-1",           390,       9.13117,      -18.4822,            0.,NA,NA,"",   309.422E-03,   297.497E-03,   85.0754E-03,   8.79780E-03
C:/temp/dataset/9/20_9.odb,Step-1,Increment      1: Step Time =    1.000,"PART-1-1",           391,       10.1297,      -19.6034,            0.,NA,NA,"",   241.846E-03,   239.482E-03,   33.7374E-03,   4.36589E-03
C:/temp/dataset/9/20_9.odb,Step-1,Increment      1: Step Time =    1.000,"PART-1-1",           392,       11.1535,      -18.5257,            0.,NA,NA,"",   289.093E-03,   288.806E-03,  -12.8831E-03,   1.02141E-03
C:/temp/dataset/9/20_9.odb,Step-1,Increment      1: Step Time =    1.000,"PART-1-1",           393,       10.1550,      -17.4045,            0.,NA,NA,"",   351.632E-03,   349.569E-03,   38.0295E-03,   4.21849E-03
C:/temp/dataset/9/20_9.odb,Step-1,Increment      1: Step Time =    1.000,"PART-1-1",           394,       6.27183,       14.9637,            0.,NA,NA,"",       3.61189,       3.59336,   365.429E-03,   534.594E-06
C:/temp/dataset/9/20_9.odb,Step-1,Increment      1: Step Time =    1.000,"PART-1-1",           395,       7.52438,       16.1859,            0.,NA,NA,"",       3.73006,       3.72380,   216.117E-03,   353.286E-06
C:/temp/dataset/9/20_9.odb,Step-1,Increment      1: Step Time =    1.000,"PART-1-1",           396,            5.,         16.25,            0.,NA,NA,"",       3.78138,       3.74791,   501.962E-03,   645.388E-06
C:/temp/dataset/9/20_9.odb,Step-1,Increment      1: Step Time =    1.000,"PART-1-1",           397,       2.56719,       21.1071,            0.,NA,NA,"",       4.38182,       4.31704,   750.666E-03,   168.591E-06
C:/temp/dataset/9/20_9.odb,Step-1,Increment      1: Step Time =    1.000,"PART-1-1",           398,       1.41709,       22.2600,            0.,NA,NA,"",       4.54108,       4.45609,   874.450E-03,   197.066E-06
C:/temp/dataset/9/20_9.odb,Step-1,Increment      1: Step Time =    1.000,"PART-1-1",           399,   99.9026E-03,       21.1528,            0.,NA,NA,"",       4.45976,       4.33878,       1.03174,   237.334E-06
C:/temp/dataset/9/20_9.odb,Step-1,Increment      1: Step Time =    1.000,"PART-1-1",           400,          1.25,           20.,            0.,NA,NA,"",       4.29667,       4.19963,   908.032E-03,   243.059E-06
C:/temp/dataset/9/20_9.odb,Step-1,Increment      1: Step Time =    1.000,"PART-1-1",           401,       7.55593,       13.6250,            0.,NA,NA,"",       3.44063,       3.43305,   228.271E-03,   415.848E-06
C:/temp/dataset/9/20_9.odb,Step-1,Increment      1: Step Time =    1.000,"PART-1-1",           402,            5.,         13.75,            0.,NA,NA,"",       3.50256,       3.46427,   516.547E-03,   766.635E-06
C:/temp/dataset/9/20_9.odb,Step-1,Increment      1: Step Time =    1.000,"PART-1-1",           403,       8.77818,       14.9146,            0.,NA,NA,"",       3.57224,       3.57130,   82.0814E-03,   258.219E-06
C:/temp/dataset/9/20_9.odb,Step-1,Increment      1: Step Time =    1.000,"PART-1-1",           404,       10.0010,       16.1752,            0.,NA,NA,"",       3.70704,       3.70648,  -64.3628E-03,   200.555E-06
C:/temp/dataset/9/20_9.odb,Step-1,Increment      1: Step Time =    1.000,"PART-1-1",           405,       8.74716,       17.4465,            0.,NA,NA,"",       3.85968,       3.85905,   69.6103E-03,   237.899E-06
C:/temp/dataset/9/20_9.odb,Step-1,Increment      1: Step Time =    1.000,"PART-1-1",           406,       10.1219,       5.90684,            0.,NA,NA,"",       2.54556,       2.54552,  -13.1974E-03,   1.02954E-03
C:/temp/dataset/9/20_9.odb,Step-1,Increment      1: Step Time =    1.000,"PART-1-1",           407,       8.94830,       5.07672,            0.,NA,NA,"",       2.46363,       2.46061,   122.116E-03,   1.91917E-03
C:/temp/dataset/9/20_9.odb,Step-1,Increment      1: Step Time =    1.000,"PART-1-1",           408,       9.72441,       3.42413,            0.,NA,NA,"",       2.26843,       2.26800,   44.4131E-03,   2.54959E-03
C:/temp/dataset/9/20_9.odb,Step-1,Increment      1: Step Time =    1.000,"PART-1-1",           409,       10.8980,       4.25426,            0.,NA,NA,"",       2.35508,       2.35337,  -89.7996E-03,   1.87848E-03
C:/temp/dataset/9/20_9.odb,Step-1,Increment      1: Step Time =    1.000,"PART-1-1",           410,       8.15250,       6.68373,            0.,NA,NA,"",       2.65457,       2.64683,   202.643E-03,   947.011E-06
C:/temp/dataset/9/20_9.odb,Step-1,Increment      1: Step Time =    1.000,"PART-1-1",           411,       9.64075,       7.71724,            0.,NA,NA,"",       2.75276,       2.75260,   29.8985E-03,   579.862E-06
C:/temp/dataset/9/20_9.odb,Step-1,Increment      1: Step Time =    1.000,"PART-1-1",           412,       8.79696,       9.37373,            0.,NA,NA,"",       2.94680,       2.94458,   114.502E-03,   283.646E-06
C:/temp/dataset/9/20_9.odb,Step-1,Increment      1: Step Time =    1.000,"PART-1-1",           413,   959.485E-03,       2.63099,            0.,NA,NA,"",       2.48137,       2.24926,       1.04787,   2.33379E-03
C:/temp/dataset/9/20_9.odb,Step-1,Increment      1: Step Time =    1.000,"PART-1-1",           414,       2.33358,       3.78125,            0.,NA,NA,"",       2.52809,       2.37014,   879.610E-03,   1.96171E-03
C:/temp/dataset/9/20_9.odb,Step-1,Increment      1: Step Time =    1.000,"PART-1-1",           415,          1.25,            5.,            0.,NA,NA,"",       2.70973,       2.51911,   998.377E-03,   488.241E-06
C:/temp/dataset/9/20_9.odb,Step-1,Increment      1: Step Time =    1.000,"PART-1-1",           416,      -9.23288,       7.29816,            0.,NA,NA,"",       3.58059,       2.83955,       2.18119,   215.434E-06
C:/temp/dataset/9/20_9.odb,Step-1,Increment      1: Step Time =    1.000,"PART-1-1",           417,      -8.32915,       6.01548,            0.,NA,NA,"",       3.40440,       2.68936,       2.08741,   268.544E-06
C:/temp/dataset/9/20_9.odb,Step-1,Increment      1: Step Time =    1.000,"PART-1-1",           418,      -7.21136,       6.82340,            0.,NA,NA,"",       3.39373,       2.77340,       1.95594,   228.211E-06
C:/temp/dataset/9/20_9.odb,Step-1,Increment      1: Step Time =    1.000,"PART-1-1",           419,      -8.11509,       8.10607,            0.,NA,NA,"",       3.57046,       2.92345,       2.04979,   199.646E-06
C:/temp/dataset/9/20_9.odb,Step-1,Increment      1: Step Time =    1.000,"PART-1-1",           420,      -13.1318,       11.4675,            0.,NA,NA,"",       4.22442,       3.33381,       2.59450,   139.379E-06
C:/temp/dataset/9/20_9.odb,Step-1,Increment      1: Step Time =    1.000,"PART-1-1",           421,      -14.0901,       12.5242,            0.,NA,NA,"",       4.38537,       3.45891,       2.69581,   68.2874E-06
C:/temp/dataset/9/20_9.odb,Step-1,Increment      1: Step Time =    1.000,"PART-1-1",           422,          -15.,       11.4063,            0.,NA,NA,"",       4.36100,       3.33877,       2.80551,   60.1917E-06
C:/temp/dataset/9/20_9.odb,Step-1,Increment      1: Step Time =    1.000,"PART-1-1",           423,      -9.35396,       14.3983,            0.,NA,NA,"",       4.22698,       3.63977,       2.14928,   203.009E-06
C:/temp/dataset/9/20_9.odb,Step-1,Increment      1: Step Time =    1.000,"PART-1-1",           424,      -10.5094,       15.3924,            0.,NA,NA,"",       4.39310,       3.75912,       2.27339,   187.292E-06
C:/temp/dataset/9/20_9.odb,Step-1,Increment      1: Step Time =    1.000,"PART-1-1",           425,      -11.3610,       13.8160,            0.,NA,NA,"",       4.30456,       3.58700,       2.37964,   181.619E-06
C:/temp/dataset/9/20_9.odb,Step-1,Increment      1: Step Time =    1.000,"PART-1-1",           426,      -10.2056,       12.8219,            0.,NA,NA,"",       4.13670,       3.46768,       2.25555,   193.406E-06
C:/temp/dataset/9/20_9.odb,Step-1,Increment      1: Step Time =    1.000,"PART-1-1",           427,      -14.0810,       18.8007,            0.,NA,NA,"",       4.94076,       4.16660,       2.65529,   185.240E-06
C:/temp/dataset/9/20_9.odb,Step-1,Increment      1: Step Time =    1.000,"PART-1-1",           428,          -15.,       17.9688,            0.,NA,NA,"",       4.92707,       4.07861,       2.76424,   219.405E-06
C:/temp/dataset/9/20_9.odb,Step-1,Increment      1: Step Time =    1.000,"PART-1-1",           429,      -14.2329,       16.7349,            0.,NA,NA,"",       4.76346,       3.93439,       2.68534,   149.543E-06
C:/temp/dataset/9/20_9.odb,Step-1,Increment      1: Step Time =    1.000,"PART-1-1",           430,      -13.3139,       17.5668,            0.,NA,NA,"",       4.77670,       4.02233,       2.57637,   130.065E-06
C:/temp/dataset/9/20_9.odb,Step-1,Increment      1: Step Time =    1.000,"PART-1-1",           431,      -12.9537,       19.5700,            0.,NA,NA,"",       4.93926,       4.24622,       2.52307,   122.737E-06
C:/temp/dataset/9/20_9.odb,Step-1,Increment      1: Step Time =    1.000,"PART-1-1",           432,      -13.8727,       20.9255,            0.,NA,NA,"",       5.12488,       4.40546,       2.61846,   180.749E-06
C:/temp/dataset/9/20_9.odb,Step-1,Increment      1: Step Time =    1.000,"PART-1-1",           433,          -15.,       20.1563,            0.,NA,NA,"",       5.12629,       4.32579,       2.75071,   247.501E-06
C:/temp/dataset/9/20_9.odb,Step-1,Increment      1: Step Time =    1.000,"PART-1-1",           434,       1.76445,       24.7908,            0.,NA,NA,"",       4.81201,       4.74189,   818.533E-03,   192.885E-06
C:/temp/dataset/9/20_9.odb,Step-1,Increment      1: Step Time =    1.000,"PART-1-1",           435,       1.36974,       27.3866,            0.,NA,NA,"",       5.11050,       5.03986,   846.738E-03,   134.886E-06
C:/temp/dataset/9/20_9.odb,Step-1,Increment      1: Step Time =    1.000,"PART-1-1",           436,   176.493E-03,       26.0346,            0.,NA,NA,"",       4.99327,       4.89383,   991.543E-03,   161.123E-06
C:/temp/dataset/9/20_9.odb,Step-1,Increment      1: Step Time =    1.000,"PART-1-1",           437,       7.39460,       20.9669,            0.,NA,NA,"",       4.27348,       4.26875,   200.944E-03,   288.332E-06
C:/temp/dataset/9/20_9.odb,Step-1,Increment      1: Step Time =    1.000,"PART-1-1",           438,       8.70526,       19.9066,            0.,NA,NA,"",       4.13974,       4.13932,   58.7029E-03,   232.405E-06
C:/temp/dataset/9/20_9.odb,Step-1,Increment      1: Step Time =    1.000,"PART-1-1",           439,       9.85134,       21.1719,            0.,NA,NA,"",       4.27672,       4.27598,  -79.6205E-03,   210.263E-06
C:/temp/dataset/9/20_9.odb,Step-1,Increment      1: Step Time =    1.000,"PART-1-1",           440,       8.54068,       22.2321,            0.,NA,NA,"",       4.40585,       4.40541,   62.5641E-03,   218.979E-06
C:/temp/dataset/9/20_9.odb,Step-1,Increment      1: Step Time =    1.000,"PART-1-1",           441,       4.10864,       24.1658,            0.,NA,NA,"",       4.68820,       4.65522,   555.169E-03,   202.435E-06
C:/temp/dataset/9/20_9.odb,Step-1,Increment      1: Step Time =    1.000,"PART-1-1",           442,       5.90921,       23.8009,            0.,NA,NA,"",       4.61514,       4.60168,   352.196E-03,   200.054E-06
C:/temp/dataset/9/20_9.odb,Step-1,Increment      1: Step Time =    1.000,"PART-1-1",           443,       6.25965,       24.9450,            0.,NA,NA,"",       4.73950,       4.72968,   304.965E-03,   155.339E-06
C:/temp/dataset/9/20_9.odb,Step-1,Increment      1: Step Time =    1.000,"PART-1-1",           444,   19.2837E-03,       28.6494,            0.,NA,NA,"",       5.28634,       5.19234,   992.442E-03,   112.650E-06
C:/temp/dataset/9/20_9.odb,Step-1,Increment      1: Step Time =    1.000,"PART-1-1",           445,       2.60045,       28.7372,            0.,NA,NA,"",       5.23233,       5.18561,   697.638E-03,   69.3709E-06
C:/temp/dataset/9/20_9.odb,Step-1,Increment      1: Step Time =    1.000,"PART-1-1",           446,          1.25,           30.,            0.,NA,NA,"",       5.40444,       5.33823,   843.338E-03,   83.4309E-06
C:/temp/dataset/9/20_9.odb,Step-1,Increment      1: Step Time =    1.000,"PART-1-1",           447,      -7.67774,       29.0428,            0.,NA,NA,"",       5.60524,       5.28588,       1.86499,   174.503E-06
C:/temp/dataset/9/20_9.odb,Step-1,Increment      1: Step Time =    1.000,"PART-1-1",           448,      -6.68998,       27.9093,            0.,NA,NA,"",       5.44350,       5.15100,       1.76036,   129.815E-06
C:/temp/dataset/9/20_9.odb,Step-1,Increment      1: Step Time =    1.000,"PART-1-1",           449,         -6.25,           30.,            0.,NA,NA,"",       5.64648,       5.38552,       1.69674,   244.583E-06
C:/temp/dataset/9/20_9.odb,Step-1,Increment      1: Step Time =    1.000,"PART-1-1",           450,      -12.1701,       26.6384,            0.,NA,NA,"",       5.57936,       5.04179,       2.38948,   119.152E-06
C:/temp/dataset/9/20_9.odb,Step-1,Increment      1: Step Time =    1.000,"PART-1-1",           451,      -13.7206,       27.8542,            0.,NA,NA,"",       5.78548,       5.18962,       2.55727,   50.2527E-06
C:/temp/dataset/9/20_9.odb,Step-1,Increment      1: Step Time =    1.000,"PART-1-1",           452,          -15.,       26.7188,            0.,NA,NA,"",       5.74786,       5.06916,       2.70952,   60.3264E-06
C:/temp/dataset/9/20_9.odb,Step-1,Increment      1: Step Time =    1.000,"PART-1-1",           453,        -13.75,           30.,            0.,NA,NA,"",       6.00030,       5.43300,       2.54678,   9.68385E-06
C:/temp/dataset/9/20_9.odb,Step-1,Increment      1: Step Time =    1.000,"PART-1-1",           454,          -15.,       28.9063,            0.,NA,NA,"",       5.96131,       5.31711,       2.69547,   8.74303E-06
C:/temp/dataset/9/20_9.odb,Step-1,Increment      1: Step Time =    1.000,"PART-1-1",           455,      -9.01567,       28.1413,            0.,NA,NA,"",       5.57210,       5.19208,       2.02252,   133.516E-06
C:/temp/dataset/9/20_9.odb,Step-1,Increment      1: Step Time =    1.000,"PART-1-1",           456,         -8.75,           30.,            0.,NA,NA,"",       5.75275,       5.40116,       1.98031,   174.727E-06
C:/temp/dataset/9/20_9.odb,Step-1,Increment      1: Step Time =    1.000,"PART-1-1",           457,      -10.9923,       18.6369,            0.,NA,NA,"",       4.72914,       4.12811,       2.30727,   118.992E-06
C:/temp/dataset/9/20_9.odb,Step-1,Increment      1: Step Time =    1.000,"PART-1-1",           458,      -11.7056,       20.1347,            0.,NA,NA,"",       4.91565,       4.30196,       2.37840,   100.859E-06
C:/temp/dataset/9/20_9.odb,Step-1,Increment      1: Step Time =    1.000,"PART-1-1",           459,      -12.2405,       18.0722,            0.,NA,NA,"",       4.75359,       4.07243,       2.45191,   123.368E-06
C:/temp/dataset/9/20_9.odb,Step-1,Increment      1: Step Time =    1.000,"PART-1-1",           460,      -11.7153,       17.0060,            0.,NA,NA,"",       4.62055,       3.94876,       2.39933,   137.670E-06
C:/temp/dataset/9/20_9.odb,Step-1,Increment      1: Step Time =    1.000,"PART-1-1",           461,      -12.7888,       16.5007,            0.,NA,NA,"",       4.64426,       3.89868,       2.52378,   128.170E-06
C:/temp/dataset/9/20_9.odb,Step-1,Increment      1: Step Time =    1.000,"PART-1-1",           462,      -13.2634,       13.5986,            0.,NA,NA,"",       4.41770,       3.57467,       2.59573,   118.704E-06
C:/temp/dataset/9/20_9.odb,Step-1,Increment      1: Step Time =    1.000,"PART-1-1",           463,      -14.1733,       14.6682,            0.,NA,NA,"",       4.57625,       3.70100,       2.69160,   88.9840E-06
C:/temp/dataset/9/20_9.odb,Step-1,Increment      1: Step Time =    1.000,"PART-1-1",           464,          -15.,       13.5938,            0.,NA,NA,"",       4.54386,       3.58521,       2.79158,   46.7743E-06
C:/temp/dataset/9/20_9.odb,Step-1,Increment      1: Step Time =    1.000,"PART-1-1",           465,      -6.04154,       10.1420,            0.,NA,NA,"",       3.62035,       3.13947,       1.80296,   67.4125E-06
C:/temp/dataset/9/20_9.odb,Step-1,Increment      1: Step Time =    1.000,"PART-1-1",           466,      -7.09581,       9.10381,            0.,NA,NA,"",       3.59103,       3.02930,       1.92843,   143.135E-06
C:/temp/dataset/9/20_9.odb,Step-1,Increment      1: Step Time =    1.000,"PART-1-1",           467,      -6.05428,       7.71180,            0.,NA,NA,"",       3.39495,       2.86600,       1.81982,   108.513E-06
C:/temp/dataset/9/20_9.odb,Step-1,Increment      1: Step Time =    1.000,"PART-1-1",           468,           -5.,          8.75,            0.,NA,NA,"",       3.42472,       2.97612,       1.69453,   31.7650E-06
C:/temp/dataset/9/20_9.odb,Step-1,Increment      1: Step Time =    1.000,"PART-1-1",           469,      -6.15708,       5.36159,            0.,NA,NA,"",       3.19077,       2.60243,       1.84618,   578.807E-06
C:/temp/dataset/9/20_9.odb,Step-1,Increment      1: Step Time =    1.000,"PART-1-1",           470,           -5.,          6.25,            0.,NA,NA,"",       3.19169,       2.69479,       1.71026,   335.456E-06
C:/temp/dataset/9/20_9.odb,Step-1,Increment      1: Step Time =    1.000,"PART-1-1",           471,      -13.8567,       3.63033,            0.,NA,NA,"",       3.66938,       2.45470,       2.72741,   220.288E-06
C:/temp/dataset/9/20_9.odb,Step-1,Increment      1: Step Time =    1.000,"PART-1-1",           472,      -12.5372,       4.63979,            0.,NA,NA,"",       3.62899,       2.56044,       2.57171,   170.064E-06
C:/temp/dataset/9/20_9.odb,Step-1,Increment      1: Step Time =    1.000,"PART-1-1",           473,          -15.,       4.84375,            0.,NA,NA,"",       3.85601,       2.59896,       2.84854,   272.264E-06
C:/temp/dataset/9/20_9.odb,Step-1,Increment      1: Step Time =    1.000,"PART-1-1",           474,      -12.7859,       2.45238,            0.,NA,NA,"",       3.49169,       2.31475,       2.61416,   179.443E-06
C:/temp/dataset/9/20_9.odb,Step-1,Increment      1: Step Time =    1.000,"PART-1-1",           475,          -15.,       2.65625,            0.,NA,NA,"",       3.70517,       2.35180,       2.86309,   234.395E-06
C:/temp/dataset/9/20_9.odb,Step-1,Increment      1: Step Time =    1.000,"PART-1-1",           476,      -13.7683,      -2.81830,            0.,NA,NA,"",       3.25401,       1.72443,       2.75951,   47.3331E-06
C:/temp/dataset/9/20_9.odb,Step-1,Increment      1: Step Time =    1.000,"PART-1-1",           477,          -15.,      -3.90625,            0.,NA,NA,"",       3.32168,       1.60923,       2.90584,   6.76517E-06
C:/temp/dataset/9/20_9.odb,Step-1,Increment      1: Step Time =    1.000,"PART-1-1",           478,        -13.75,           -5.,            0.,NA,NA,"",       3.14069,       1.47748,       2.77146,   6.68922E-06
C:/temp/dataset/9/20_9.odb,Step-1,Increment      1: Step Time =    1.000,"PART-1-1",           479,      -12.5183,      -3.91205,            0.,NA,NA,"",       3.07052,       1.59263,       2.62519,   49.3159E-06
C:/temp/dataset/9/20_9.odb,Step-1,Increment      1: Step Time =    1.000,"PART-1-1",           480,      -3.91473,      -3.03803,            0.,NA,NA,"",       2.32076,       1.63498,       1.64704,   445.518E-06
C:/temp/dataset/9/20_9.odb,Step-1,Increment      1: Step Time =    1.000,"PART-1-1",           481,      -5.07319,      -4.05962,            0.,NA,NA,"",       2.34874,       1.52725,       1.78440,   233.177E-06
C:/temp/dataset/9/20_9.odb,Step-1,Increment      1: Step Time =    1.000,"PART-1-1",           482,         -3.75,           -5.,            0.,NA,NA,"",       2.16496,       1.41234,       1.64083,   198.598E-06
C:/temp/dataset/9/20_9.odb,Step-1,Increment      1: Step Time =    1.000,"PART-1-1",           483,      -2.59153,      -3.97841,            0.,NA,NA,"",       2.13833,       1.52023,       1.50378,   781.916E-06
C:/temp/dataset/9/20_9.odb,Step-1,Increment      1: Step Time =    1.000,"PART-1-1",           484,   563.435E-03,   72.7383E-03,            0.,NA,NA,"",       2.25612,       1.96197,       1.11389,   3.31443E-03
C:/temp/dataset/9/20_9.odb,Step-1,Increment      1: Step Time =    1.000,"PART-1-1",           485,  -536.863E-03,      -1.25885,            0.,NA,NA,"",       2.20636,       1.81615,       1.25285,   2.61440E-03
C:/temp/dataset/9/20_9.odb,Step-1,Increment      1: Step Time =    1.000,"PART-1-1",           486,       7.06616,      -9.87010,            0.,NA,NA,"",   942.804E-03,   893.619E-03,   300.543E-03,   17.1888E-03
C:/temp/dataset/9/20_9.odb,Step-1,Increment      1: Step Time =    1.000,"PART-1-1",           487,       6.02487,      -8.97716,            0.,NA,NA,"",       1.06019,   982.189E-03,   399.133E-03,   21.6457E-03
C:/temp/dataset/9/20_9.odb,Step-1,Increment      1: Step Time =    1.000,"PART-1-1",           488,            5.,      -10.2083,            0.,NA,NA,"",       1.00438,   891.660E-03,   462.307E-03,   25.4747E-03
C:/temp/dataset/9/20_9.odb,Step-1,Increment      1: Step Time =    1.000,"PART-1-1",           489,       13.0743,      -11.4048,            0.,NA,NA,"",   761.578E-03,   740.799E-03,  -176.685E-03,   8.33686E-03
C:/temp/dataset/9/20_9.odb,Step-1,Increment      1: Step Time =    1.000,"PART-1-1",           490,       14.0423,      -12.5586,            0.,NA,NA,"",   697.377E-03,   656.475E-03,  -235.322E-03,   12.6511E-03
C:/temp/dataset/9/20_9.odb,Step-1,Increment      1: Step Time =    1.000,"PART-1-1",           491,           15.,        -11.25,            0.,NA,NA,"",   826.048E-03,   757.729E-03,  -328.940E-03,   16.5845E-03
C:/temp/dataset/9/20_9.odb,Step-1,Increment      1: Step Time =    1.000,"PART-1-1",           492,       14.0319,      -10.0962,            0.,NA,NA,"",   888.081E-03,   846.229E-03,  -269.417E-03,   12.2519E-03
C:/temp/dataset/9/20_9.odb,Step-1,Increment      1: Step Time =    1.000,"PART-1-1",           493,       7.09943,      -16.3632,            0.,NA,NA,"",   479.058E-03,   428.625E-03,   213.956E-03,   17.5469E-03
C:/temp/dataset/9/20_9.odb,Step-1,Increment      1: Step Time =    1.000,"PART-1-1",           494,            5.,      -16.4583,            0.,NA,NA,"",   556.728E-03,   447.083E-03,   331.757E-03,   26.6223E-03
C:/temp/dataset/9/20_9.odb,Step-1,Increment      1: Step Time =    1.000,"PART-1-1",           495,       13.0966,      -13.8278,            0.,NA,NA,"",   585.946E-03,   565.510E-03,  -153.399E-03,   8.67652E-03
C:/temp/dataset/9/20_9.odb,Step-1,Increment      1: Step Time =    1.000,"PART-1-1",           496,       14.0543,      -15.0192,            0.,NA,NA,"",   530.419E-03,   490.404E-03,  -202.107E-03,   13.0052E-03
C:/temp/dataset/9/20_9.odb,Step-1,Increment      1: Step Time =    1.000,"PART-1-1",           497,           15.,        -13.75,            0.,NA,NA,"",   643.641E-03,   577.326E-03,  -284.549E-03,   16.9848E-03
C:/temp/dataset/9/20_9.odb,Step-1,Increment      1: Step Time =    1.000,"PART-1-1",           498,       13.0974,      -18.6352,            0.,NA,NA,"",   304.339E-03,   285.079E-03,  -106.546E-03,   9.25689E-03
C:/temp/dataset/9/20_9.odb,Step-1,Increment      1: Step Time =    1.000,"PART-1-1",           499,       14.0421,      -19.9133,            0.,NA,NA,"",   266.828E-03,   229.782E-03,  -135.636E-03,   13.7471E-03
C:/temp/dataset/9/20_9.odb,Step-1,Increment      1: Step Time =    1.000,"PART-1-1",           500,           15.,        -18.75,            0.,NA,NA,"",   350.169E-03,   288.866E-03,  -197.926E-03,   17.8677E-03
C:/temp/dataset/9/20_9.odb,Step-1,Increment      1: Step Time =    1.000,"PART-1-1",           501,       14.0553,      -17.4719,            0.,NA,NA,"",   386.931E-03,   348.111E-03,  -168.922E-03,   13.3692E-03
C:/temp/dataset/9/20_9.odb,Step-1,Increment      1: Step Time =    1.000,"PART-1-1",           502,       7.12541,      -22.7005,            0.,NA,NA,"",   179.022E-03,   134.757E-03,   117.854E-03,   18.3152E-03
C:/temp/dataset/9/20_9.odb,Step-1,Increment      1: Step Time =    1.000,"PART-1-1",           503,       6.04628,      -21.6612,            0.,NA,NA,"",   251.228E-03,   182.223E-03,   172.946E-03,   22.9870E-03
C:/temp/dataset/9/20_9.odb,Step-1,Increment      1: Step Time =    1.000,"PART-1-1",           504,            5.,      -22.7083,            0.,NA,NA,"",   243.191E-03,   157.467E-03,   185.327E-03,   27.9080E-03
C:/temp/dataset/9/20_9.odb,Step-1,Increment      1: Step Time =    1.000,"PART-1-1",           505,       6.07914,      -23.7476,            0.,NA,NA,"",   171.642E-03,   112.388E-03,   129.730E-03,   23.2207E-03
C:/temp/dataset/9/20_9.odb,Step-1,Increment      1: Step Time =    1.000,"PART-1-1",           506,       6.22304,      -27.8948,            0.,NA,NA,"",   47.2781E-03,   24.2324E-03,   40.5957E-03,   23.6717E-03
C:/temp/dataset/9/20_9.odb,Step-1,Increment      1: Step Time =    1.000,"PART-1-1",           507,            5.,      -28.9583,            0.,NA,NA,"",   36.3482E-03,   23.5639E-03,   27.6755E-03,   30.1430E-03
C:/temp/dataset/9/20_9.odb,Step-1,Increment      1: Step Time =    1.000,"PART-1-1",           508,          6.25,          -30.,            0.,NA,NA,"",            0.,  -397.398E-42,   35.9388E-39,   22.5189E-03
C:/temp/dataset/9/20_9.odb,Step-1,Increment      1: Step Time =    1.000,"PART-1-1",           509,       9.78444,      -26.6535,            0.,NA,NA,"",   25.8974E-03,   21.1173E-03,   14.9911E-03,   6.05906E-03
C:/temp/dataset/9/20_9.odb,Step-1,Increment      1: Step Time =    1.000,"PART-1-1",           510,       8.47427,      -25.6871,            0.,NA,NA,"",   62.1823E-03,   44.2260E-03,   43.7116E-03,   12.6319E-03
C:/temp/dataset/9/20_9.odb,Step-1,Increment      1: Step Time =    1.000,"PART-1-1",           511,       7.37694,      -26.8334,            0.,NA,NA,"",   55.2590E-03,   30.5567E-03,   46.0417E-03,   17.8549E-03
C:/temp/dataset/9/20_9.odb,Step-1,Increment      1: Step Time =    1.000,"PART-1-1",           512,       13.7223,      -27.5034,            0.,NA,NA,"",   33.2663E-03,   16.1937E-03,  -29.0587E-03,   14.3013E-03
C:/temp/dataset/9/20_9.odb,Step-1,Increment      1: Step Time =    1.000,"PART-1-1",           513,       12.4723,      -28.7534,            0.,NA,NA,"",   7.09495E-03,  -30.1784E-06,  -7.09488E-03,   7.05531E-03
C:/temp/dataset/9/20_9.odb,Step-1,Increment      1: Step Time =    1.000,"PART-1-1",           514,         13.75,          -30.,            0.,NA,NA,"",            0.,  -2.88319E-39,  -20.6522E-39,   12.6005E-03
C:/temp/dataset/9/20_9.odb,Step-1,Increment      1: Step Time =    1.000,"PART-1-1",           515,           15.,        -28.75,            0.,NA,NA,"",   25.7203E-03,   14.5646E-03,  -21.1993E-03,   19.6876E-03
C:/temp/dataset/9/20_9.odb,Step-1,Increment      1: Step Time =    1.000,"PART-1-1",           516,         11.25,          -30.,            0.,NA,NA,"",            0.,  -4.06529E-39,  -2.75251E-39,   3.54449E-03
C:/temp/dataset/9/20_9.odb,Step-1,Increment      1: Step Time =    1.000,"PART-1-1",           517,       11.1864,      -27.6167,            0.,NA,NA,"",   7.49792E-03,   7.02488E-03,  -2.62107E-03,   2.13095E-03
C:/temp/dataset/9/20_9.odb,Step-1,Increment      1: Step Time =    1.000,"PART-1-1",           518,       9.10684,      -20.5966,            0.,NA,NA,"",   212.540E-03,   200.129E-03,   71.5654E-03,   9.05018E-03
C:/temp/dataset/9/20_9.odb,Step-1,Increment      1: Step Time =    1.000,"PART-1-1",           519,       11.0993,      -20.6881,            0.,NA,NA,"",   190.636E-03,   190.481E-03,  -7.66879E-03,   1.09590E-03
C:/temp/dataset/9/20_9.odb,Step-1,Increment      1: Step Time =    1.000,"PART-1-1",           520,       7.08739,      -20.6083,            0.,NA,NA,"",   262.307E-03,   213.794E-03,   151.977E-03,   18.1575E-03
C:/temp/dataset/9/20_9.odb,Step-1,Increment      1: Step Time =    1.000,"PART-1-1",           521,            5.,       -20.625,            0.,NA,NA,"",   333.570E-03,   236.022E-03,   235.718E-03,   27.4924E-03
C:/temp/dataset/9/20_9.odb,Step-1,Increment      1: Step Time =    1.000,"PART-1-1",           522,       9.14341,      -14.0595,            0.,NA,NA,"",   569.768E-03,   558.870E-03,   110.908E-03,   8.54075E-03
C:/temp/dataset/9/20_9.odb,Step-1,Increment      1: Step Time =    1.000,"PART-1-1",           523,       10.1582,      -15.1431,            0.,NA,NA,"",   484.634E-03,   482.783E-03,   42.3138E-03,   4.19826E-03
C:/temp/dataset/9/20_9.odb,Step-1,Increment      1: Step Time =    1.000,"PART-1-1",           524,       11.1509,      -13.9343,            0.,NA,NA,"",   559.400E-03,   558.970E-03,  -21.9258E-03,   753.989E-06
C:/temp/dataset/9/20_9.odb,Step-1,Increment      1: Step Time =    1.000,"PART-1-1",           525,       10.1361,      -12.8507,            0.,NA,NA,"",   639.911E-03,   638.178E-03,   47.0626E-03,   4.23271E-03
C:/temp/dataset/9/20_9.odb,Step-1,Increment      1: Step Time =    1.000,"PART-1-1",           526,       9.12292,      -11.8044,            0.,NA,NA,"",   731.902E-03,   721.381E-03,   123.656E-03,   8.39222E-03
C:/temp/dataset/9/20_9.odb,Step-1,Increment      1: Step Time =    1.000,"PART-1-1",           527,       11.1213,      -11.5948,            0.,NA,NA,"",   728.603E-03,   728.131E-03,  -26.2441E-03,   761.836E-06
C:/temp/dataset/9/20_9.odb,Step-1,Increment      1: Step Time =    1.000,"PART-1-1",           528,       10.1081,      -10.5485,            0.,NA,NA,"",   816.060E-03,   814.470E-03,   50.9311E-03,   4.10758E-03
C:/temp/dataset/9/20_9.odb,Step-1,Increment      1: Step Time =    1.000,"PART-1-1",           529,       13.8169,  -7.21098E-03,            0.,NA,NA,"",       1.89232,       1.85416,  -378.111E-03,   4.22941E-03
C:/temp/dataset/9/20_9.odb,Step-1,Increment      1: Step Time =    1.000,"PART-1-1",           530,           15.,          1.25,            0.,NA,NA,"",       2.05705,       1.98980,  -521.670E-03,   3.85099E-03
C:/temp/dataset/9/20_9.odb,Step-1,Increment      1: Step Time =    1.000,"PART-1-1",           531,       13.9075,       2.57030,            0.,NA,NA,"",       2.18314,       2.14408,  -411.137E-03,   2.22571E-03
C:/temp/dataset/9/20_9.odb,Step-1,Increment      1: Step Time =    1.000,"PART-1-1",           532,       10.8083,      -4.35361,            0.,NA,NA,"",       1.39043,       1.39009,  -31.0201E-03,   5.02556E-03
C:/temp/dataset/9/20_9.odb,Step-1,Increment      1: Step Time =    1.000,"PART-1-1",           533,       9.68548,      -3.40243,            0.,NA,NA,"",       1.50002,       1.49807,   76.4118E-03,   6.17681E-03
C:/temp/dataset/9/20_9.odb,Step-1,Increment      1: Step Time =    1.000,"PART-1-1",           534,       8.81587,      -4.92348,            0.,NA,NA,"",       1.35011,       1.33981,   166.505E-03,   6.31612E-03
C:/temp/dataset/9/20_9.odb,Step-1,Increment      1: Step Time =    1.000,"PART-1-1",           535,       9.93870,      -5.87466,            0.,NA,NA,"",       1.23813,       1.23668,   59.9260E-03,   4.09850E-03
C:/temp/dataset/9/20_9.odb,Step-1,Increment      1: Step Time =    1.000,"PART-1-1",           536,       10.7940,       8.23694,            0.,NA,NA,"",       2.80543,       2.80355,  -102.724E-03,   331.017E-06
C:/temp/dataset/9/20_9.odb,Step-1,Increment      1: Step Time =    1.000,"PART-1-1",           537,       11.2752,       6.42654,            0.,NA,NA,"",       2.60036,       2.59630,  -145.141E-03,   767.991E-06
C:/temp/dataset/9/20_9.odb,Step-1,Increment      1: Step Time =    1.000,"PART-1-1",           538,       12.8821,       8.67106,            0.,NA,NA,"",       2.85962,       2.83929,  -340.326E-03,   492.501E-06
C:/temp/dataset/9/20_9.odb,Step-1,Increment      1: Step Time =    1.000,"PART-1-1",           539,       14.0355,       7.50951,            0.,NA,NA,"",       2.74045,       2.70119,  -462.219E-03,   632.562E-06
C:/temp/dataset/9/20_9.odb,Step-1,Increment      1: Step Time =    1.000,"PART-1-1",           540,           15.,          8.75,            0.,NA,NA,"",       2.89384,       2.83520,  -579.630E-03,   667.819E-06
C:/temp/dataset/9/20_9.odb,Step-1,Increment      1: Step Time =    1.000,"PART-1-1",           541,       13.8467,       9.91155,            0.,NA,NA,"",       3.00828,       2.97329,  -457.509E-03,   502.972E-06
C:/temp/dataset/9/20_9.odb,Step-1,Increment      1: Step Time =    1.000,"PART-1-1",           542,       12.4850,       16.2122,            0.,NA,NA,"",       3.71098,       3.69481,  -346.044E-03,   257.951E-06
C:/temp/dataset/9/20_9.odb,Step-1,Increment      1: Step Time =    1.000,"PART-1-1",           543,       13.7431,       14.9727,            0.,NA,NA,"",       3.57864,       3.54627,  -480.293E-03,   381.866E-06
C:/temp/dataset/9/20_9.odb,Step-1,Increment      1: Step Time =    1.000,"PART-1-1",           544,           15.,         16.25,            0.,NA,NA,"",       3.73702,       3.68326,  -631.575E-03,   460.618E-06
C:/temp/dataset/9/20_9.odb,Step-1,Increment      1: Step Time =    1.000,"PART-1-1",           545,       13.7419,       17.4895,            0.,NA,NA,"",       3.86404,       3.83192,  -497.178E-03,   306.984E-06
C:/temp/dataset/9/20_9.odb,Step-1,Increment      1: Step Time =    1.000,"PART-1-1",           546,       12.4991,       13.6576,            0.,NA,NA,"",       3.42109,       3.40507,  -330.596E-03,   297.597E-06
C:/temp/dataset/9/20_9.odb,Step-1,Increment      1: Step Time =    1.000,"PART-1-1",           547,       13.7559,       12.4349,            0.,NA,NA,"",       3.29180,       3.25886,  -464.489E-03,   443.872E-06
C:/temp/dataset/9/20_9.odb,Step-1,Increment      1: Step Time =    1.000,"PART-1-1",           548,           15.,         13.75,            0.,NA,NA,"",       3.45498,       3.39993,  -614.314E-03,   547.744E-06
C:/temp/dataset/9/20_9.odb,Step-1,Increment      1: Step Time =    1.000,"PART-1-1",           549,           15.,         21.25,            0.,NA,NA,"",       4.30343,       4.25166,  -665.553E-03,   224.992E-06
C:/temp/dataset/9/20_9.odb,Step-1,Increment      1: Step Time =    1.000,"PART-1-1",           550,       13.6875,       22.5045,            0.,NA,NA,"",       4.43409,       4.40296,  -524.495E-03,   139.628E-06
C:/temp/dataset/9/20_9.odb,Step-1,Increment      1: Step Time =    1.000,"PART-1-1",           551,       12.4125,       21.2511,            0.,NA,NA,"",       4.28451,       4.26840,  -371.198E-03,   184.221E-06
C:/temp/dataset/9/20_9.odb,Step-1,Increment      1: Step Time =    1.000,"PART-1-1",           552,       13.7250,       19.9966,            0.,NA,NA,"",       4.14886,       4.11714,  -512.085E-03,   222.727E-06
C:/temp/dataset/9/20_9.odb,Step-1,Increment      1: Step Time =    1.000,"PART-1-1",           553,       13.6481,       25.0064,            0.,NA,NA,"",       4.71886,       4.68827,  -536.490E-03,   74.2352E-06
C:/temp/dataset/9/20_9.odb,Step-1,Increment      1: Step Time =    1.000,"PART-1-1",           554,       12.3356,       23.7609,            0.,NA,NA,"",       4.57059,       4.55485,  -378.936E-03,   134.795E-06
C:/temp/dataset/9/20_9.odb,Step-1,Increment      1: Step Time =    1.000,"PART-1-1",           555,           15.,         23.75,            0.,NA,NA,"",       4.58738,       4.53637,  -682.188E-03,   117.283E-06
C:/temp/dataset/9/20_9.odb,Step-1,Increment      1: Step Time =    1.000,"PART-1-1",           556,       13.7112,       27.5077,            0.,NA,NA,"",       5.00428,       4.97284,  -560.031E-03,   28.6295E-06
C:/temp/dataset/9/20_9.odb,Step-1,Increment      1: Step Time =    1.000,"PART-1-1",           557,           15.,         28.75,            0.,NA,NA,"",       5.15578,       5.10597,  -714.919E-03,   4.62646E-06
C:/temp/dataset/9/20_9.odb,Step-1,Increment      1: Step Time =    1.000,"PART-1-1",           558,         13.75,           30.,            0.,NA,NA,"",       5.28845,       5.25648,  -580.686E-03,   4.40127E-06
C:/temp/dataset/9/20_9.odb,Step-1,Increment      1: Step Time =    1.000,"PART-1-1",           559,            5.,      -24.7917,            0.,NA,NA,"",   165.222E-03,   97.1189E-03,   133.664E-03,   28.0021E-03
C:/temp/dataset/9/20_9.odb,Step-1,Increment      1: Step Time =    1.000,"PART-1-1",           560,       6.15390,      -25.8136,            0.,NA,NA,"",   105.100E-03,   60.9655E-03,   85.6109E-03,   23.2234E-03
C:/temp/dataset/9/20_9.odb,Step-1,Increment      1: Step Time =    1.000,"PART-1-1",           561,       7.23304,      -24.7696,            0.,NA,NA,"",   110.268E-03,   73.9627E-03,   81.7832E-03,   18.3753E-03
C:/temp/dataset/9/20_9.odb,Step-1,Increment      1: Step Time =    1.000,"PART-1-1",           562,       13.0086,      -21.0119,            0.,NA,NA,"",   197.023E-03,   179.746E-03,  -80.6826E-03,   9.17736E-03
C:/temp/dataset/9/20_9.odb,Step-1,Increment      1: Step Time =    1.000,"PART-1-1",           563,       13.9664,      -22.3485,            0.,NA,NA,"",   168.454E-03,   135.124E-03,  -100.589E-03,   13.9331E-03
C:/temp/dataset/9/20_9.odb,Step-1,Increment      1: Step Time =    1.000,"PART-1-1",           564,           15.,        -21.25,            0.,NA,NA,"",   238.480E-03,   181.416E-03,  -154.793E-03,   18.5069E-03
C:/temp/dataset/9/20_9.odb,Step-1,Increment      1: Step Time =    1.000,"PART-1-1",           565,            5.,       -26.875,            0.,NA,NA,"",   98.8074E-03,   54.7682E-03,   82.2396E-03,   28.5303E-03
C:/temp/dataset/9/20_9.odb,Step-1,Increment      1: Step Time =    1.000,"PART-1-1",           566,       12.9745,      -6.51631,            0.,NA,NA,"",       1.18627,       1.16549,  -221.038E-03,   7.41354E-03
C:/temp/dataset/9/20_9.odb,Step-1,Increment      1: Step Time =    1.000,"PART-1-1",           567,       14.0104,      -7.62731,            0.,NA,NA,"",       1.10310,       1.06065,  -303.062E-03,   11.4012E-03
C:/temp/dataset/9/20_9.odb,Step-1,Increment      1: Step Time =    1.000,"PART-1-1",           568,           15.,         -6.25,            0.,NA,NA,"",       1.26312,       1.19166,  -418.837E-03,   13.9562E-03
C:/temp/dataset/9/20_9.odb,Step-1,Increment      1: Step Time =    1.000,"PART-1-1",           569,       13.9641,      -5.13900,            0.,NA,NA,"",       1.34308,       1.30101,  -333.526E-03,   9.60137E-03
C:/temp/dataset/9/20_9.odb,Step-1,Increment      1: Step Time =    1.000,"PART-1-1",           570,       11.1649,      -16.2543,            0.,NA,NA,"",   412.521E-03,   412.146E-03,  -17.5885E-03,   886.097E-06
C:/temp/dataset/9/20_9.odb,Step-1,Increment      1: Step Time =    1.000,"PART-1-1",           571,       9.14831,      -16.2933,            0.,NA,NA,"",   428.543E-03,   417.207E-03,   97.9182E-03,   8.62166E-03
C:/temp/dataset/9/20_9.odb,Step-1,Increment      1: Step Time =    1.000,"PART-1-1",           572,            5.,        -8.125,            0.,NA,NA,"",       1.18329,       1.07194,   501.116E-03,   27.1774E-03
C:/temp/dataset/9/20_9.odb,Step-1,Increment      1: Step Time =    1.000,"PART-1-1",           573,       12.8519,      -3.99254,            0.,NA,NA,"",       1.44085,       1.42137,  -236.142E-03,   6.57517E-03
C:/temp/dataset/9/20_9.odb,Step-1,Increment      1: Step Time =    1.000,"PART-1-1",           574,           15.,         -3.75,            0.,NA,NA,"",       1.51486,       1.44335,  -459.950E-03,   10.7886E-03
C:/temp/dataset/9/20_9.odb,Step-1,Increment      1: Step Time =    1.000,"PART-1-1",           575,       13.8878,      -2.60354,            0.,NA,NA,"",       1.60764,       1.56729,  -357.886E-03,   6.92473E-03
C:/temp/dataset/9/20_9.odb,Step-1,Increment      1: Step Time =    1.000,"PART-1-1",           576,       13.0423,      -8.97351,            0.,NA,NA,"",   961.016E-03,   939.951E-03,  -200.108E-03,   7.96328E-03
C:/temp/dataset/9/20_9.odb,Step-1,Increment      1: Step Time =    1.000,"PART-1-1",           577,           15.,         -8.75,            0.,NA,NA,"",       1.03263,   962.464E-03,  -374.149E-03,   15.7935E-03
C:/temp/dataset/9/20_9.odb,Step-1,Increment      1: Step Time =    1.000,"PART-1-1",           578,       8.09346,      -21.6433,            0.,NA,NA,"",   192.564E-03,   164.607E-03,   99.9270E-03,   13.7286E-03
C:/temp/dataset/9/20_9.odb,Step-1,Increment      1: Step Time =    1.000,"PART-1-1",           579,       8.17438,      -23.6967,            0.,NA,NA,"",   120.473E-03,   95.6371E-03,   73.2613E-03,   13.6679E-03
C:/temp/dataset/9/20_9.odb,Step-1,Increment      1: Step Time =    1.000,"PART-1-1",           580,       8.10077,      -19.5616,            0.,NA,NA,"",   280.293E-03,   251.763E-03,   123.206E-03,   13.4568E-03
C:/temp/dataset/9/20_9.odb,Step-1,Increment      1: Step Time =    1.000,"PART-1-1",           581,       8.11824,      -17.4194,            0.,NA,NA,"",   388.022E-03,   359.805E-03,   145.264E-03,   13.1888E-03
C:/temp/dataset/9/20_9.odb,Step-1,Increment      1: Step Time =    1.000,"PART-1-1",           582,          -15.,       22.3438,            0.,NA,NA,"",       5.32986,       4.57334,       2.73715,   217.843E-06
C:/temp/dataset/9/20_9.odb,Step-1,Increment      1: Step Time =    1.000,"PART-1-1",           583,      -12.5647,       21.7347,            0.,NA,NA,"",       5.12107,       4.48854,       2.46543,   120.078E-06
C:/temp/dataset/9/20_9.odb,Step-1,Increment      1: Step Time =    1.000,"PART-1-1",           584,      -4.95050,       22.5220,            0.,NA,NA,"",       4.80204,       4.52829,       1.59819,   217.053E-06
C:/temp/dataset/9/20_9.odb,Step-1,Increment      1: Step Time =    1.000,"PART-1-1",           585,      -3.93081,       23.1260,            0.,NA,NA,"",       4.82232,       4.59016,       1.47824,   205.632E-06
C:/temp/dataset/9/20_9.odb,Step-1,Increment      1: Step Time =    1.000,"PART-1-1",           586,      -4.22857,       24.4244,            0.,NA,NA,"",       4.97234,       4.73954,       1.50363,   133.448E-06
C:/temp/dataset/9/20_9.odb,Step-1,Increment      1: Step Time =    1.000,"PART-1-1",           587,      -5.24826,       23.8204,            0.,NA,NA,"",       4.95129,       4.67756,       1.62347,   142.317E-06
C:/temp/dataset/9/20_9.odb,Step-1,Increment      1: Step Time =    1.000,"PART-1-1",           588,      -10.1110,       10.4874,            0.,NA,NA,"",       3.92097,       3.20424,       2.25984,   194.525E-06
C:/temp/dataset/9/20_9.odb,Step-1,Increment      1: Step Time =    1.000,"PART-1-1",           589,      -9.15687,       11.6944,            0.,NA,NA,"",       3.96414,       3.33407,       2.14440,   192.500E-06
C:/temp/dataset/9/20_9.odb,Step-1,Increment      1: Step Time =    1.000,"PART-1-1",           590,      -11.1597,       11.6149,            0.,NA,NA,"",       4.09425,       3.33785,       2.37099,   194.768E-06
C:/temp/dataset/9/20_9.odb,Step-1,Increment      1: Step Time =    1.000,"PART-1-1",           591,      -6.07359,       12.6401,            0.,NA,NA,"",       3.86121,       3.42098,       1.79050,   130.928E-06
C:/temp/dataset/9/20_9.odb,Step-1,Increment      1: Step Time =    1.000,"PART-1-1",           592,      -7.11512,       11.5321,            0.,NA,NA,"",       3.81786,       3.30281,       1.91507,   134.695E-06
C:/temp/dataset/9/20_9.odb,Step-1,Increment      1: Step Time =    1.000,"PART-1-1",           593,           -5.,         11.25,            0.,NA,NA,"",       3.66464,       3.25765,       1.67850,   92.1388E-06
C:/temp/dataset/9/20_9.odb,Step-1,Increment      1: Step Time =    1.000,"PART-1-1",           594,      -10.0988,       8.37440,            0.,NA,NA,"",       3.73640,       2.96624,       2.27203,   202.910E-06
C:/temp/dataset/9/20_9.odb,Step-1,Increment      1: Step Time =    1.000,"PART-1-1",           595,      -9.11481,       9.38066,            0.,NA,NA,"",       3.75326,       3.07330,       2.15448,   199.682E-06
C:/temp/dataset/9/20_9.odb,Step-1,Increment      1: Step Time =    1.000,"PART-1-1",           596,      -11.0949,       9.48111,            0.,NA,NA,"",       3.90442,       3.09719,       2.37738,   196.255E-06
C:/temp/dataset/9/20_9.odb,Step-1,Increment      1: Step Time =    1.000,"PART-1-1",           597,      -11.8142,       15.6555,            0.,NA,NA,"",       4.50224,       3.79713,       2.41908,   155.685E-06
C:/temp/dataset/9/20_9.odb,Step-1,Increment      1: Step Time =    1.000,"PART-1-1",           598,      -13.4062,       15.6218,            0.,NA,NA,"",       4.60674,       3.80356,       2.59903,   117.781E-06
C:/temp/dataset/9/20_9.odb,Step-1,Increment      1: Step Time =    1.000,"PART-1-1",           599,      -12.4316,       14.7766,            0.,NA,NA,"",       4.46398,       3.70205,       2.49438,   141.969E-06
C:/temp/dataset/9/20_9.odb,Step-1,Increment      1: Step Time =    1.000,"PART-1-1",           600,      -5.72199,       20.2132,            0.,NA,NA,"",       4.59783,       4.27162,       1.70097,   528.593E-06
C:/temp/dataset/9/20_9.odb,Step-1,Increment      1: Step Time =    1.000,"PART-1-1",           601,           -5.,         18.75,            0.,NA,NA,"",       4.41406,       4.10242,       1.62916,   603.461E-06
C:/temp/dataset/9/20_9.odb,Step-1,Increment      1: Step Time =    1.000,"PART-1-1",           602,          -15.,       15.7813,            0.,NA,NA,"",       4.73275,       3.83178,       2.77783,   144.980E-06
C:/temp/dataset/9/20_9.odb,Step-1,Increment      1: Step Time =    1.000,"PART-1-1",           603,      -10.4105,       16.7429,            0.,NA,NA,"",       4.51356,       3.91070,       2.25358,   167.309E-06
C:/temp/dataset/9/20_9.odb,Step-1,Increment      1: Step Time =    1.000,"PART-1-1",           604,      -12.1928,       12.6381,            0.,NA,NA,"",       4.25732,       3.45965,       2.48105,   161.067E-06
C:/temp/dataset/9/20_9.odb,Step-1,Increment      1: Step Time =    1.000,"PART-1-1",           605,      -12.0987,       10.4443,            0.,NA,NA,"",       4.06076,       3.21202,       2.48449,   175.389E-06
C:/temp/dataset/9/20_9.odb,Step-1,Increment      1: Step Time =    1.000,"PART-1-1",           606,      -7.50325,       4.80693,            0.,NA,NA,"",       3.24042,       2.54802,       2.00197,   353.277E-06
C:/temp/dataset/9/20_9.odb,Step-1,Increment      1: Step Time =    1.000,"PART-1-1",           607,      -9.63824,       5.46172,            0.,NA,NA,"",       3.45778,       2.63507,       2.23889,   210.181E-06
C:/temp/dataset/9/20_9.odb,Step-1,Increment      1: Step Time =    1.000,"PART-1-1",           608,      -8.81234,       4.25317,            0.,NA,NA,"",       3.29473,       2.49351,       2.15352,   300.789E-06
C:/temp/dataset/9/20_9.odb,Step-1,Increment      1: Step Time =    1.000,"PART-1-1",           609,          -15.,      -1.71875,            0.,NA,NA,"",       3.43655,       1.85676,       2.89177,   53.8456E-06
C:/temp/dataset/9/20_9.odb,Step-1,Increment      1: Step Time =    1.000,"PART-1-1",           610,      -12.5835,      -1.75493,            0.,NA,NA,"",       3.19887,       1.83720,       2.61868,   123.020E-06
C:/temp/dataset/9/20_9.odb,Step-1,Increment      1: Step Time =    1.000,"PART-1-1",           611,        -11.25,           -5.,            0.,NA,NA,"",       2.88609,       1.46139,       2.48875,   64.4478E-06
C:/temp/dataset/9/20_9.odb,Step-1,Increment      1: Step Time =    1.000,"PART-1-1",           612,      -10.0144,      -3.91217,            0.,NA,NA,"",       2.82325,       1.57642,       2.34214,   122.667E-06
C:/temp/dataset/9/20_9.odb,Step-1,Increment      1: Step Time =    1.000,"PART-1-1",           613,      -11.2827,      -2.82422,            0.,NA,NA,"",       3.00992,       1.70778,       2.47853,   126.182E-06
C:/temp/dataset/9/20_9.odb,Step-1,Increment      1: Step Time =    1.000,"PART-1-1",           614,         -8.75,           -5.,            0.,NA,NA,"",       2.63729,       1.44511,       2.20612,   149.756E-06
C:/temp/dataset/9/20_9.odb,Step-1,Increment      1: Step Time =    1.000,"PART-1-1",           615,      -7.54904,      -4.01671,            0.,NA,NA,"",       2.58035,       1.54848,       2.06408,   194.756E-06
C:/temp/dataset/9/20_9.odb,Step-1,Increment      1: Step Time =    1.000,"PART-1-1",           616,      -8.81345,      -2.92887,            0.,NA,NA,"",       2.76814,       1.67989,       2.20013,   177.901E-06
C:/temp/dataset/9/20_9.odb,Step-1,Increment      1: Step Time =    1.000,"PART-1-1",           617,  -969.738E-03,       22.2544,            0.,NA,NA,"",       4.61607,       4.47139,       1.14661,   250.843E-06
C:/temp/dataset/9/20_9.odb,Step-1,Increment      1: Step Time =    1.000,"PART-1-1",           618,      -2.31964,       21.1016,            0.,NA,NA,"",       4.54171,       4.34934,       1.30783,   317.169E-06
C:/temp/dataset/9/20_9.odb,Step-1,Increment      1: Step Time =    1.000,"PART-1-1",           619,         -1.25,           20.,            0.,NA,NA,"",       4.38203,       4.21652,       1.19294,   336.972E-06
C:/temp/dataset/9/20_9.odb,Step-1,Increment      1: Step Time =    1.000,"PART-1-1",           620,         -1.25,           30.,            0.,NA,NA,"",       5.47177,       5.35420,       1.12818,   181.080E-06
C:/temp/dataset/9/20_9.odb,Step-1,Increment      1: Step Time =    1.000,"PART-1-1",           621,      -1.44357,       27.1449,            0.,NA,NA,"",       5.16464,       5.03062,       1.16892,   131.236E-06
C:/temp/dataset/9/20_9.odb,Step-1,Increment      1: Step Time =    1.000,"PART-1-1",           622,      -4.58492,       21.1383,            0.,NA,NA,"",       4.64101,       4.36890,       1.56577,   496.905E-06
C:/temp/dataset/9/20_9.odb,Step-1,Increment      1: Step Time =    1.000,"PART-1-1",           623,         -3.75,           20.,            0.,NA,NA,"",       4.48427,       4.23377,       1.47777,   620.500E-06
C:/temp/dataset/9/20_9.odb,Step-1,Increment      1: Step Time =    1.000,"PART-1-1",           624,      -3.15456,       22.2398,            0.,NA,NA,"",       4.69657,       4.48440,       1.39567,   254.098E-06
C:/temp/dataset/9/20_9.odb,Step-1,Increment      1: Step Time =    1.000,"PART-1-1",           625,      -11.2479,       22.4027,            0.,NA,NA,"",       5.10885,       4.55565,       2.31223,   118.854E-06
C:/temp/dataset/9/20_9.odb,Step-1,Increment      1: Step Time =    1.000,"PART-1-1",           626,      -10.3888,       20.8027,            0.,NA,NA,"",       4.90301,       4.36895,       2.22526,   92.9814E-06
C:/temp/dataset/9/20_9.odb,Step-1,Increment      1: Step Time =    1.000,"PART-1-1",           627,       9.41561,      -24.6142,            0.,NA,NA,"",   72.5641E-03,   64.2340E-03,   33.7572E-03,   7.92501E-03
C:/temp/dataset/9/20_9.odb,Step-1,Increment      1: Step Time =    1.000,"PART-1-1",           628,           15.,        -16.25,            0.,NA,NA,"",   485.096E-03,   420.986E-03,  -241.015E-03,   17.3773E-03
C:/temp/dataset/9/20_9.odb,Step-1,Increment      1: Step Time =    1.000,"PART-1-1",           629,       13.1096,      -16.2411,            0.,NA,NA,"",   433.557E-03,   413.529E-03,  -130.253E-03,   8.99946E-03
C:/temp/dataset/9/20_9.odb,Step-1,Increment      1: Step Time =    1.000,"PART-1-1",           630,           15.,          3.75,            0.,NA,NA,"",       2.33538,       2.27128,  -543.396E-03,   1.84776E-03
C:/temp/dataset/9/20_9.odb,Step-1,Increment      1: Step Time =    1.000,"PART-1-1",           631,       14.0093,       5.06690,            0.,NA,NA,"",       2.46560,       2.42568,  -441.862E-03,   1.07279E-03
C:/temp/dataset/9/20_9.odb,Step-1,Increment      1: Step Time =    1.000,"PART-1-1",           632,       12.9168,       3.88721,            0.,NA,NA,"",       2.31969,       2.29873,  -311.096E-03,   1.81530E-03
C:/temp/dataset/9/20_9.odb,Step-1,Increment      1: Step Time =    1.000,"PART-1-1",           633,       12.6026,       11.0965,            0.,NA,NA,"",       3.13171,       3.11479,  -325.152E-03,   364.236E-06
C:/temp/dataset/9/20_9.odb,Step-1,Increment      1: Step Time =    1.000,"PART-1-1",           634,           15.,         11.25,            0.,NA,NA,"",       3.17394,       3.11729,  -596.981E-03,   598.544E-06
C:/temp/dataset/9/20_9.odb,Step-1,Increment      1: Step Time =    1.000,"PART-1-1",           635,       12.4669,       18.7361,            0.,NA,NA,"",       3.99807,       3.98176,  -360.756E-03,   224.100E-06
C:/temp/dataset/9/20_9.odb,Step-1,Increment      1: Step Time =    1.000,"PART-1-1",           636,           15.,         18.75,            0.,NA,NA,"",       4.01990,       3.96722,  -648.677E-03,   347.337E-06
C:/temp/dataset/9/20_9.odb,Step-1,Increment      1: Step Time =    1.000,"PART-1-1",           637,           15.,         26.25,            0.,NA,NA,"",       4.87154,       4.82118,  -698.618E-03,   40.3116E-06
C:/temp/dataset/9/20_9.odb,Step-1,Increment      1: Step Time =    1.000,"PART-1-1",           638,          8.75,           30.,            0.,NA,NA,"",       5.28916,       5.28915,  -11.3284E-03,   68.5110E-06
C:/temp/dataset/9/20_9.odb,Step-1,Increment      1: Step Time =    1.000,"PART-1-1",           639,       8.74802,       27.8391,            0.,NA,NA,"",       5.04301,       5.04300,   2.89538E-03,   63.5026E-06
C:/temp/dataset/9/20_9.odb,Step-1,Increment      1: Step Time =    1.000,"PART-1-1",           640,       11.0691,       22.4572,            0.,NA,NA,"",       4.42031,       4.41451,  -226.377E-03,   164.327E-06
C:/temp/dataset/9/20_9.odb,Step-1,Increment      1: Step Time =    1.000,"PART-1-1",           641,       11.1947,       19.9658,            0.,NA,NA,"",       4.13598,       4.12989,  -224.391E-03,   194.615E-06
C:/temp/dataset/9/20_9.odb,Step-1,Increment      1: Step Time =    1.000,"PART-1-1",           642,          3.75,           30.,            0.,NA,NA,"",       5.35122,       5.32201,   558.366E-03,   13.8226E-06
C:/temp/dataset/9/20_9.odb,Step-1,Increment      1: Step Time =    1.000,"PART-1-1",           643,       6.12801,       21.9878,            0.,NA,NA,"",       4.40664,       4.39361,   338.721E-03,   284.018E-06
C:/temp/dataset/9/20_9.odb,Step-1,Increment      1: Step Time =    1.000,"PART-1-1",           644,       7.06684,       23.0702,            0.,NA,NA,"",       4.51631,       4.51071,   224.951E-03,   221.685E-06
C:/temp/dataset/9/20_9.odb,Step-1,Increment      1: Step Time =    1.000,"PART-1-1",           645,       4.97038,       22.7185,            0.,NA,NA,"",       4.50879,       4.48464,   466.104E-03,   253.418E-06
C:/temp/dataset/9/20_9.odb,Step-1,Increment      1: Step Time =    1.000,"PART-1-1",           646,          3.75,           20.,            0.,NA,NA,"",       4.22894,       4.18283,   622.823E-03,   184.121E-06
C:/temp/dataset/9/20_9.odb,Step-1,Increment      1: Step Time =    1.000,"PART-1-1",           647,       4.96897,       20.9583,            0.,NA,NA,"",       4.31056,       4.28405,   477.318E-03,   337.970E-06
C:/temp/dataset/9/20_9.odb,Step-1,Increment      1: Step Time =    1.000,"PART-1-1",           648,       3.78616,       22.0655,            0.,NA,NA,"",       4.45944,       4.41816,   605.365E-03,   228.607E-06
C:/temp/dataset/9/20_9.odb,Step-1,Increment      1: Step Time =    1.000,"PART-1-1",           649,           -5.,         13.75,            0.,NA,NA,"",       3.91015,       3.53921,       1.66230,   170.361E-06
C:/temp/dataset/9/20_9.odb,Step-1,Increment      1: Step Time =    1.000,"PART-1-1",           650,      -7.15256,       14.0792,            0.,NA,NA,"",       4.06300,       3.58987,       1.90285,   185.614E-06
C:/temp/dataset/9/20_9.odb,Step-1,Increment      1: Step Time =    1.000,"PART-1-1",           651,      -9.70164,       19.1500,            0.,NA,NA,"",       4.70217,       4.17769,       2.15808,   145.991E-06
C:/temp/dataset/9/20_9.odb,Step-1,Increment      1: Step Time =    1.000,"PART-1-1",           652,      -9.13060,       21.5024,            0.,NA,NA,"",       4.90237,       4.43995,       2.07847,   123.836E-06
C:/temp/dataset/9/20_9.odb,Step-1,Increment      1: Step Time =    1.000,"PART-1-1",           653,         -1.25,           -5.,            0.,NA,NA,"",       1.95016,       1.39772,       1.35997,   324.846E-06
C:/temp/dataset/9/20_9.odb,Step-1,Increment      1: Step Time =    1.000,"PART-1-1",           654,      -1.47244,      -2.77860,            0.,NA,NA,"",       2.14392,       1.64814,       1.37115,   2.11650E-03
C:/temp/dataset/9/20_9.odb,Step-1,Increment      1: Step Time =    1.000,"PART-1-1",           655,      -9.96758,      -1.61086,            0.,NA,NA,"",       2.96069,       1.83668,       2.32214,   196.578E-06
C:/temp/dataset/9/20_9.odb,Step-1,Increment      1: Step Time =    1.000,"PART-1-1",           656,      -6.37223,      -3.07632,            0.,NA,NA,"",       2.53357,       1.64714,       1.92507,   253.114E-06
C:/temp/dataset/9/20_9.odb,Step-1,Increment      1: Step Time =    1.000,"PART-1-1",           657,         -6.25,           -5.,            0.,NA,NA,"",       2.39595,       1.42870,       1.92337,   173.815E-06
C:/temp/dataset/9/20_9.odb,Step-1,Increment      1: Step Time =    1.000,"PART-1-1",           658,         -3.75,            5.,            0.,NA,NA,"",       2.99580,       2.54839,       1.57495,   1.32025E-03
C:/temp/dataset/9/20_9.odb,Step-1,Increment      1: Step Time =    1.000,"PART-1-1",           659,      -5.11170,       4.23117,            0.,NA,NA,"",       3.01771,       2.46876,       1.73545,   751.154E-06
C:/temp/dataset/9/20_9.odb,Step-1,Increment      1: Step Time =    1.000,"PART-1-1",           660,      -3.95473,       3.29190,            0.,NA,NA,"",       2.85287,       2.35510,       1.61008,   454.485E-06
C:/temp/dataset/9/20_9.odb,Step-1,Increment      1: Step Time =    1.000,"PART-1-1",           661,          3.75,           -5.,            0.,NA,NA,"",       1.56966,       1.36241,   779.543E-03,   12.0074E-03
C:/temp/dataset/9/20_9.odb,Step-1,Increment      1: Step Time =    1.000,"PART-1-1",           662,       4.69008,      -3.66648,            0.,NA,NA,"",       1.64371,       1.51796,   630.553E-03,   18.2527E-03
C:/temp/dataset/9/20_9.odb,Step-1,Increment      1: Step Time =    1.000,"PART-1-1",           663,       4.69636,       3.71818,            0.,NA,NA,"",       2.42096,       2.34408,   605.233E-03,   2.68136E-03
C:/temp/dataset/9/20_9.odb,Step-1,Increment      1: Step Time =    1.000,"PART-1-1",           664,          3.75,            5.,            0.,NA,NA,"",       2.59624,       2.49798,   707.526E-03,   3.24174E-03
C:/temp/dataset/9/20_9.odb,Step-1,Increment      1: Step Time =    1.000,"PART-1-1",           665,       8.42013,       25.7200,            0.,NA,NA,"",       4.80401,       4.80371,   53.9205E-03,   105.452E-06
C:/temp/dataset/9/20_9.odb,Step-1,Increment      1: Step Time =    1.000,"PART-1-1",           666,       7.55622,       27.1849,            0.,NA,NA,"",       4.97835,       4.97630,   142.856E-03,   81.7998E-06
C:/temp/dataset/9/20_9.odb,Step-1,Increment      1: Step Time =    1.000,"PART-1-1",           667,       6.61388,       26.0906,            0.,NA,NA,"",       4.86465,       4.85784,   257.259E-03,   110.034E-06
C:/temp/dataset/9/20_9.odb,Step-1,Increment      1: Step Time =    1.000,"PART-1-1",           668,       10.0237,       13.5556,            0.,NA,NA,"",       3.40958,       3.40921,  -50.1033E-03,   190.802E-06
C:/temp/dataset/9/20_9.odb,Step-1,Increment      1: Step Time =    1.000,"PART-1-1",           669,       8.80148,       12.2659,            0.,NA,NA,"",       3.27249,       3.27108,   96.0540E-03,   273.620E-06
C:/temp/dataset/9/20_9.odb,Step-1,Increment      1: Step Time =    1.000,"PART-1-1",           670,            5.,          6.25,            0.,NA,NA,"",       2.67911,       2.62052,   557.271E-03,   1.35857E-03
C:/temp/dataset/9/20_9.odb,Step-1,Increment      1: Step Time =    1.000,"PART-1-1",           671,       5.87545,       4.76801,            0.,NA,NA,"",       2.49583,       2.45171,   467.182E-03,   2.89365E-03
C:/temp/dataset/9/20_9.odb,Step-1,Increment      1: Step Time =    1.000,"PART-1-1",           672,       6.93940,       5.78737,            0.,NA,NA,"",       2.57888,       2.55594,   343.215E-03,   1.89135E-03
C:/temp/dataset/9/20_9.odb,Step-1,Increment      1: Step Time =    1.000,"PART-1-1",           673,       7.73520,       4.18036,            0.,NA,NA,"",       2.38396,       2.36957,   261.536E-03,   2.77204E-03
C:/temp/dataset/9/20_9.odb,Step-1,Increment      1: Step Time =    1.000,"PART-1-1",           674,       6.49581,       3.34316,            0.,NA,NA,"",       2.32162,       2.28627,   403.566E-03,   3.34037E-03
C:/temp/dataset/9/20_9.odb,Step-1,Increment      1: Step Time =    1.000,"PART-1-1",           675,       7.18979,       1.82766,            0.,NA,NA,"",       2.13488,       2.10900,   331.408E-03,   3.76434E-03
C:/temp/dataset/9/20_9.odb,Step-1,Increment      1: Step Time =    1.000,"PART-1-1",           676,       8.42918,       2.66485,            0.,NA,NA,"",       2.20093,       2.19264,   190.765E-03,   3.58530E-03
C:/temp/dataset/9/20_9.odb,Step-1,Increment      1: Step Time =    1.000,"PART-1-1",           677,  -530.051E-03,       1.39108,            0.,NA,NA,"",       2.44918,       2.11767,       1.23042,   1.62262E-03
C:/temp/dataset/9/20_9.odb,Step-1,Increment      1: Step Time =    1.000,"PART-1-1",           678,      -10.1792,       3.73358,            0.,NA,NA,"",       3.36329,       2.44326,       2.31132,   213.855E-06
C:/temp/dataset/9/20_9.odb,Step-1,Increment      1: Step Time =    1.000,"PART-1-1",           679,      -9.26781,       2.30942,            0.,NA,NA,"",       3.17813,       2.27643,       2.21774,   285.746E-06
C:/temp/dataset/9/20_9.odb,Step-1,Increment      1: Step Time =    1.000,"PART-1-1",           680,      -7.90097,       2.82902,            0.,NA,NA,"",       3.10762,       2.32677,       2.05997,   354.306E-06
C:/temp/dataset/9/20_9.odb,Step-1,Increment      1: Step Time =    1.000,"PART-1-1",           681,      -2.90861,       2.25641,            0.,NA,NA,"",       2.68683,       2.23071,       1.49766,   466.366E-06
C:/temp/dataset/9/20_9.odb,Step-1,Increment      1: Step Time =    1.000,"PART-1-1",           682,      -1.97153,   737.020E-03,            0.,NA,NA,"",       2.48455,       2.05182,       1.40107,   1.02240E-03
C:/temp/dataset/9/20_9.odb,Step-1,Increment      1: Step Time =    1.000,"PART-1-1",           683,      -12.0057,       8.33468,            0.,NA,NA,"",       3.87709,       2.97383,       2.48760,   184.198E-06
C:/temp/dataset/9/20_9.odb,Step-1,Increment      1: Step Time =    1.000,"PART-1-1",           684,   257.111E-03,       23.5381,            0.,NA,NA,"",       4.71620,       4.60929,   998.497E-03,   197.744E-06
C:/temp/dataset/9/20_9.odb,Step-1,Increment      1: Step Time =    1.000,"PART-1-1",           685,       2.92443,       23.5127,            0.,NA,NA,"",       4.64098,       4.58873,   694.446E-03,   200.037E-06
C:/temp/dataset/9/20_9.odb,Step-1,Increment      1: Step Time =    1.000,"PART-1-1",           686,  -872.814E-03,       24.6452,            0.,NA,NA,"",       4.87318,       4.74270,       1.12014,   188.267E-06
C:/temp/dataset/9/20_9.odb,Step-1,Increment      1: Step Time =    1.000,"PART-1-1",           687,      -2.49287,       25.7554,            0.,NA,NA,"",       5.04904,       4.87948,       1.29746,   132.708E-06
C:/temp/dataset/9/20_9.odb,Step-1,Increment      1: Step Time =    1.000,"PART-1-1",           688,      -6.57000,       23.0679,            0.,NA,NA,"",       4.93248,       4.60072,       1.77840,   155.326E-06
C:/temp/dataset/9/20_9.odb,Step-1,Increment      1: Step Time =    1.000,"PART-1-1",           689,      -7.77911,       22.2181,            0.,NA,NA,"",       4.90407,       4.51220,       1.92091,   136.633E-06
C:/temp/dataset/9/20_9.odb,Step-1,Increment      1: Step Time =    1.000,"PART-1-1",           690,      -6.08757,       21.5970,            0.,NA,NA,"",       4.75777,       4.43078,       1.73336,   234.033E-06
C:/temp/dataset/9/20_9.odb,Step-1,Increment      1: Step Time =    1.000,"PART-1-1",           691,      -10.6596,       24.7502,            0.,NA,NA,"",       5.30925,       4.81792,       2.23063,   143.234E-06
C:/temp/dataset/9/20_9.odb,Step-1,Increment      1: Step Time =    1.000,"PART-1-1",           692,      -8.94190,       25.0911,            0.,NA,NA,"",       5.25512,       4.84555,       2.03396,   140.343E-06
C:/temp/dataset/9/20_9.odb,Step-1,Increment      1: Step Time =    1.000,"PART-1-1",           693,      -9.30563,       26.3338,            0.,NA,NA,"",       5.40016,       4.98887,       2.06710,   141.710E-06
C:/temp/dataset/9/20_9.odb,Step-1,Increment      1: Step Time =    1.000,"PART-1-1",           694,      -11.0233,       25.9928,            0.,NA,NA,"",       5.45329,       4.96121,       2.26380,   140.087E-06
C:/temp/dataset/9/20_9.odb,Step-1,Increment      1: Step Time =    1.000,"PART-1-1",           695,      -9.11986,       17.2561,            0.,NA,NA,"",       4.48468,       3.96026,       2.10444,   209.240E-06
C:/temp/dataset/9/20_9.odb,Step-1,Increment      1: Step Time =    1.000,"PART-1-1",           696,      -11.0116,       7.65423,            0.,NA,NA,"",       3.74438,       2.89088,       2.37976,   190.019E-06
C:/temp/dataset/9/20_9.odb,Step-1,Increment      1: Step Time =    1.000,"PART-1-1",           697,      -11.6541,       6.30856,            0.,NA,NA,"",       3.68539,       2.74323,       2.46106,   177.634E-06
C:/temp/dataset/9/20_9.odb,Step-1,Increment      1: Step Time =    1.000,"PART-1-1",           698,      -3.46647,   792.949E-03,            0.,NA,NA,"",       2.59672,       2.06744,       1.57119,   332.908E-06
C:/temp/dataset/9/20_9.odb,Step-1,Increment      1: Step Time =    1.000,"PART-1-1",           699,      -4.27899,       1.61468,            0.,NA,NA,"",       2.72789,       2.16616,       1.65804,   270.487E-06
C:/temp/dataset/9/20_9.odb,Step-1,Increment      1: Step Time =    1.000,"PART-1-1",           700,      -5.41602,       1.03976,            0.,NA,NA,"",       2.76591,       2.10797,       1.79073,   344.828E-06
C:/temp/dataset/9/20_9.odb,Step-1,Increment      1: Step Time =    1.000,"PART-1-1",           701,      -4.60351,   218.037E-03,            0.,NA,NA,"",       2.63456,       2.00924,       1.70407,   323.347E-06
C:/temp/dataset/9/20_9.odb,Step-1,Increment      1: Step Time =    1.000,"PART-1-1",           702,      -1.96165,  -510.209E-03,            0.,NA,NA,"",       2.37327,       1.90962,       1.40917,   1.00620E-03
C:/temp/dataset/9/20_9.odb,Step-1,Increment      1: Step Time =    1.000,"PART-1-1",           703,      -2.89723,      -2.02996,            0.,NA,NA,"",       2.31601,       1.74241,       1.52575,   816.505E-06
C:/temp/dataset/9/20_9.odb,Step-1,Increment      1: Step Time =    1.000,"PART-1-1",           704,       6.46823,      -3.22891,            0.,NA,NA,"",       1.59925,       1.54447,   415.013E-03,   11.1114E-03
C:/temp/dataset/9/20_9.odb,Step-1,Increment      1: Step Time =    1.000,"PART-1-1",           705,       5.30305,      -2.18626,            0.,NA,NA,"",       1.76670,       1.67704,   555.677E-03,   10.6892E-03
C:/temp/dataset/9/20_9.odb,Step-1,Increment      1: Step Time =    1.000,"PART-1-1",           706,       8.11637,      -13.0290,            0.,NA,NA,"",   665.251E-03,   638.159E-03,   187.914E-03,   12.8796E-03
C:/temp/dataset/9/20_9.odb,Step-1,Increment      1: Step Time =    1.000,"PART-1-1",           707,       8.09759,      -10.8135,            0.,NA,NA,"",   833.070E-03,   806.568E-03,   208.455E-03,   12.6563E-03
C:/temp/dataset/9/20_9.odb,Step-1,Increment      1: Step Time =    1.000,"PART-1-1",           708,           15.,        -26.25,            0.,NA,NA,"",   79.9754E-03,   44.1466E-03,  -66.6869E-03,   19.9359E-03
C:/temp/dataset/9/20_9.odb,Step-1,Increment      1: Step Time =    1.000,"PART-1-1",           709,       13.6129,      -24.9005,            0.,NA,NA,"",   84.7708E-03,   60.8414E-03,  -59.0289E-03,   12.8322E-03
C:/temp/dataset/9/20_9.odb,Step-1,Increment      1: Step Time =    1.000,"PART-1-1",           710,       12.3352,      -26.1538,            0.,NA,NA,"",   37.7476E-03,   29.9616E-03,  -22.9605E-03,   6.87905E-03
C:/temp/dataset/9/20_9.odb,Step-1,Increment      1: Step Time =    1.000,"PART-1-1",           711,       11.5115,      -24.0900,            0.,NA,NA,"",   76.0197E-03,   74.5005E-03,  -15.1220E-03,   2.73820E-03
C:/temp/dataset/9/20_9.odb,Step-1,Increment      1: Step Time =    1.000,"PART-1-1",           712,       12.5793,      -23.4990,            0.,NA,NA,"",   103.862E-03,   92.9904E-03,  -46.2608E-03,   7.61956E-03
C:/temp/dataset/9/20_9.odb,Step-1,Increment      1: Step Time =    1.000,"PART-1-1",           713,       11.9958,      -21.9645,            0.,NA,NA,"",   146.442E-03,   141.649E-03,  -37.1577E-03,   4.64704E-03
C:/temp/dataset/9/20_9.odb,Step-1,Increment      1: Step Time =    1.000,"PART-1-1",           714,           15.,        -23.75,            0.,NA,NA,"",   149.070E-03,   99.4464E-03,  -111.051E-03,   19.1505E-03
C:/temp/dataset/9/20_9.odb,Step-1,Increment      1: Step Time =    1.000,"PART-1-1",           715,       11.0775,      -9.24199,            0.,NA,NA,"",   920.192E-03,   919.671E-03,  -30.9628E-03,   1.43612E-03
C:/temp/dataset/9/20_9.odb,Step-1,Increment      1: Step Time =    1.000,"PART-1-1",           716,       10.0590,      -8.23408,            0.,NA,NA,"",       1.01362,       1.01218,   54.1012E-03,   3.46271E-03
C:/temp/dataset/9/20_9.odb,Step-1,Increment      1: Step Time =    1.000,"PART-1-1",           717,       9.08966,      -9.54059,            0.,NA,NA,"",   913.784E-03,   903.640E-03,   135.783E-03,   7.75648E-03
C:/temp/dataset/9/20_9.odb,Step-1,Increment      1: Step Time =    1.000,"PART-1-1",           718,           15.,         -1.25,            0.,NA,NA,"",       1.78185,       1.71188,  -494.425E-03,   7.04393E-03
C:/temp/dataset/9/20_9.odb,Step-1,Increment      1: Step Time =    1.000,"PART-1-1",           719,       12.7047,      -1.36075,            0.,NA,NA,"",       1.72552,       1.70786,  -246.204E-03,   5.25375E-03
C:/temp/dataset/9/20_9.odb,Step-1,Increment      1: Step Time =    1.000,"PART-1-1",           720,       10.4122,      -1.52824,            0.,NA,NA,"",       1.70160,       1.70159,  -5.94332E-03,   5.43318E-03
C:/temp/dataset/9/20_9.odb,Step-1,Increment      1: Step Time =    1.000,"PART-1-1",           721,       11.7321,      -2.88547,            0.,NA,NA,"",       1.54973,       1.54401,  -133.115E-03,   5.45535E-03
C:/temp/dataset/9/20_9.odb,Step-1,Increment      1: Step Time =    1.000,"PART-1-1",           722,       13.0447,       6.32641,            0.,NA,NA,"",       2.59644,       2.57374,  -342.590E-03,   856.557E-06
C:/temp/dataset/9/20_9.odb,Step-1,Increment      1: Step Time =    1.000,"PART-1-1",           723,           15.,          6.25,            0.,NA,NA,"",       2.61444,       2.55331,  -562.070E-03,   939.634E-06
C:/temp/dataset/9/20_9.odb,Step-1,Increment      1: Step Time =    1.000,"PART-1-1",           724,       12.2773,       7.44357,            0.,NA,NA,"",       2.71745,       2.70459,  -264.058E-03,   482.889E-06
C:/temp/dataset/9/20_9.odb,Step-1,Increment      1: Step Time =    1.000,"PART-1-1",           725,       11.3989,       9.46443,            0.,NA,NA,"",       2.94353,       2.93811,  -178.652E-03,   240.386E-06
C:/temp/dataset/9/20_9.odb,Step-1,Increment      1: Step Time =    1.000,"PART-1-1",           726,       10.0696,       10.6576,            0.,NA,NA,"",       3.08141,       3.08119,  -36.7081E-03,   187.516E-06
C:/temp/dataset/9/20_9.odb,Step-1,Increment      1: Step Time =    1.000,"PART-1-1",           727,       11.2733,       12.2896,            0.,NA,NA,"",       3.26312,       3.25798,  -183.021E-03,   213.299E-06
C:/temp/dataset/9/20_9.odb,Step-1,Increment      1: Step Time =    1.000,"PART-1-1",           728,       11.2495,       14.9235,            0.,NA,NA,"",       3.56192,       3.55644,  -197.591E-03,   195.207E-06
C:/temp/dataset/9/20_9.odb,Step-1,Increment      1: Step Time =    1.000,"PART-1-1",           729,       11.2365,       17.4638,            0.,NA,NA,"",       3.85084,       3.84495,  -212.763E-03,   196.779E-06
C:/temp/dataset/9/20_9.odb,Step-1,Increment      1: Step Time =    1.000,"PART-1-1",           730,       9.96430,       18.6935,            0.,NA,NA,"",       3.99374,       3.99301,  -76.4492E-03,   214.745E-06
C:/temp/dataset/9/20_9.odb,Step-1,Increment      1: Step Time =    1.000,"PART-1-1",           731,       8.12949,      -15.2371,            0.,NA,NA,"",   516.286E-03,   488.713E-03,   166.466E-03,   12.9725E-03
C:/temp/dataset/9/20_9.odb,Step-1,Increment      1: Step Time =    1.000,"PART-1-1",           732,       10.9896,      -6.85237,            0.,NA,NA,"",       1.13764,       1.13713,  -34.2984E-03,   3.08942E-03
C:/temp/dataset/9/20_9.odb,Step-1,Increment      1: Step Time =    1.000,"PART-1-1",           733,       10.9332,      -25.1906,            0.,NA,NA,"",   47.3453E-03,   47.3405E-03,  -674.479E-06,   1.45826E-03
C:/temp/dataset/9/20_9.odb,Step-1,Increment      1: Step Time =    1.000,"PART-1-1",           734,       11.9281,      -5.46067,            0.,NA,NA,"",       1.27865,       1.27182,  -131.939E-03,   5.17806E-03
C:/temp/dataset/9/20_9.odb,Step-1,Increment      1: Step Time =    1.000,"PART-1-1",           735,      -11.5697,       3.18107,            0.,NA,NA,"",       3.43810,       2.38950,       2.47200,   200.383E-06
C:/temp/dataset/9/20_9.odb,Step-1,Increment      1: Step Time =    1.000,"PART-1-1",           736,      -10.7341,       2.09613,            0.,NA,NA,"",       3.28653,       2.26150,       2.38473,   226.017E-06
C:/temp/dataset/9/20_9.odb,Step-1,Increment      1: Step Time =    1.000,"PART-1-1",           737,      -6.76822,       1.80268,            0.,NA,NA,"",       2.93480,       2.20328,       1.93872,   381.684E-06
C:/temp/dataset/9/20_9.odb,Step-1,Increment      1: Step Time =    1.000,"PART-1-1",           738,      -5.32511,       2.65016,            0.,NA,NA,"",       2.89469,       2.29055,       1.76992,   394.653E-06
C:/temp/dataset/9/20_9.odb,Step-1,Increment      1: Step Time =    1.000,"PART-1-1",           739,      -6.45786,       3.67650,            0.,NA,NA,"",       3.06666,       2.41397,       1.89135,   467.147E-06
C:/temp/dataset/9/20_9.odb,Step-1,Increment      1: Step Time =    1.000,"PART-1-1",           740,      -10.1618,       27.4009,            0.,NA,NA,"",       5.55163,       5.11540,       2.15715,   133.164E-06
C:/temp/dataset/9/20_9.odb,Step-1,Increment      1: Step Time =    1.000,"PART-1-1",           741,      -8.15950,       27.0742,            0.,NA,NA,"",       5.42165,       5.06556,       1.93244,   134.312E-06
C:/temp/dataset/9/20_9.odb,Step-1,Increment      1: Step Time =    1.000,"PART-1-1",           742,      -8.41457,       23.7439,            0.,NA,NA,"",       5.09136,       4.68932,       1.98298,   140.885E-06
C:/temp/dataset/9/20_9.odb,Step-1,Increment      1: Step Time =    1.000,"PART-1-1",           743,      -9.76606,       23.0282,            0.,NA,NA,"",       5.08901,       4.61693,       2.14058,   125.921E-06
C:/temp/dataset/9/20_9.odb,Step-1,Increment      1: Step Time =    1.000,"PART-1-1",           744,      -10.1457,       6.57799,            0.,NA,NA,"",       3.58883,       2.76414,       2.28894,   202.403E-06
C:/temp/dataset/9/20_9.odb,Step-1,Increment      1: Step Time =    1.000,"PART-1-1",           745,      -11.1466,       5.19230,            0.,NA,NA,"",       3.55620,       2.61409,       2.41103,   187.966E-06
C:/temp/dataset/9/20_9.odb,Step-1,Increment      1: Step Time =    1.000,"PART-1-1",           746,       7.77017,   782.991E-03,            0.,NA,NA,"",       2.00358,       1.98532,   269.888E-03,   4.96001E-03
C:/temp/dataset/9/20_9.odb,Step-1,Increment      1: Step Time =    1.000,"PART-1-1",           747,       6.09501,       1.10589,            0.,NA,NA,"",       2.08848,       2.03781,   457.255E-03,   4.34505E-03
C:/temp/dataset/9/20_9.odb,Step-1,Increment      1: Step Time =    1.000,"PART-1-1",           748,       6.67539,   61.2235E-03,            0.,NA,NA,"",       1.95456,       1.91447,   393.868E-03,   5.27618E-03
C:/temp/dataset/9/20_9.odb,Step-1,Increment      1: Step Time =    1.000,"PART-1-1",           749,       5.31672,       2.29333,            0.,NA,NA,"",       2.24461,       2.17828,   541.637E-03,   2.73424E-03
C:/temp/dataset/9/20_9.odb,Step-1,Increment      1: Step Time =    1.000,"PART-1-1",           750,      -6.94695,       24.4689,            0.,NA,NA,"",       5.09520,       4.76212,       1.81198,   118.576E-06
C:/temp/dataset/9/20_9.odb,Step-1,Increment      1: Step Time =    1.000,"PART-1-1",           751,      -2.09966,       23.3616,            0.,NA,NA,"",       4.77630,       4.60485,       1.26823,   236.216E-06
C:/temp/dataset/9/20_9.odb,Step-1,Increment      1: Step Time =    1.000,"PART-1-1",           752,      -2.87591,       24.2478,            0.,NA,NA,"",       4.90053,       4.71066,       1.35089,   172.025E-06
C:/temp/dataset/9/20_9.odb,Step-1,Increment      1: Step Time =    1.000,"PART-1-1",           753,       9.53974,       23.7363,            0.,NA,NA,"",       4.57068,       4.57028,  -60.7274E-03,   161.677E-06
C:/temp/dataset/9/20_9.odb,Step-1,Increment      1: Step Time =    1.000,"PART-1-1",           754,      -5.22075,      -2.25347,            0.,NA,NA,"",       2.49097,       1.73264,       1.78967,   337.574E-06
C:/temp/dataset/9/20_9.odb,Step-1,Increment      1: Step Time =    1.000,"PART-1-1",           755,      -7.55915,      -2.11026,            0.,NA,NA,"",       2.70713,       1.76440,       2.05316,   246.783E-06
C:/temp/dataset/9/20_9.odb,Step-1,Increment      1: Step Time =    1.000,"PART-1-1",           756,      -4.20325,      -1.24540,            0.,NA,NA,"",       2.48380,       1.84018,       1.66824,   451.645E-06
C:/temp/dataset/9/20_9.odb,Step-1,Increment      1: Step Time =    1.000,"PART-1-1",           757,       12.0426,       5.30937,            0.,NA,NA,"",       2.47523,       2.46511,  -223.603E-03,   1.04150E-03
C:/temp/dataset/9/20_9.odb,Step-1,Increment      1: Step Time =    1.000,"PART-1-1",           758,      -8.17645,       12.8481,            0.,NA,NA,"",       4.00773,       3.45773,       2.02634,   174.056E-06
C:/temp/dataset/9/20_9.odb,Step-1,Increment      1: Step Time =    1.000,"PART-1-1",           759,      -8.09554,       10.3784,            0.,NA,NA,"",       3.77364,       3.17915,       2.03307,   159.712E-06
C:/temp/dataset/9/20_9.odb,Step-1,Increment      1: Step Time =    1.000,"PART-1-1",           760,      -8.33007,       15.6293,            0.,NA,NA,"",       4.28146,       3.77192,       2.02571,   212.215E-06
C:/temp/dataset/9/20_9.odb,Step-1,Increment      1: Step Time =    1.000,"PART-1-1",           761,       12.1122,      -19.7356,            0.,NA,NA,"",   237.488E-03,   231.527E-03,  -52.8744E-03,   4.92390E-03
C:/temp/dataset/9/20_9.odb,Step-1,Increment      1: Step Time =    1.000,"PART-1-1",           762,       12.1388,      -17.4254,            0.,NA,NA,"",   352.068E-03,   345.639E-03,  -66.9715E-03,   4.81621E-03
C:/temp/dataset/9/20_9.odb,Step-1,Increment      1: Step Time =    1.000,"PART-1-1",           763,       12.0361,      -7.90801,            0.,NA,NA,"",       1.04297,       1.03580,  -122.039E-03,   4.51255E-03
C:/temp/dataset/9/20_9.odb,Step-1,Increment      1: Step Time =    1.000,"PART-1-1",           764,       12.0837,      -10.3075,            0.,NA,NA,"",   835.183E-03,   828.156E-03,  -108.112E-03,   4.25024E-03
C:/temp/dataset/9/20_9.odb,Step-1,Increment      1: Step Time =    1.000,"PART-1-1",           765,       12.1118,      -12.6921,            0.,NA,NA,"",   651.406E-03,   644.578E-03,  -94.0726E-03,   4.34497E-03
C:/temp/dataset/9/20_9.odb,Step-1,Increment      1: Step Time =    1.000,"PART-1-1",           766,       12.1357,      -15.0700,            0.,NA,NA,"",   490.223E-03,   483.533E-03,  -80.7172E-03,   4.59890E-03
C:/temp/dataset/9/20_9.odb,Step-1,Increment      1: Step Time =    1.000,"PART-1-1",           767,      -8.71328,  -792.246E-03,            0.,NA,NA,"",       2.90222,       1.92132,       2.17519,   257.928E-06
C:/temp/dataset/9/20_9.odb,Step-1,Increment      1: Step Time =    1.000,"PART-1-1",           768,      -7.47429,       25.8162,            0.,NA,NA,"",       5.25941,       4.91841,       1.86297,   118.124E-06
C:/temp/dataset/9/20_9.odb,Step-1,Increment      1: Step Time =    1.000,"PART-1-1",           769,       9.13729,   756.201E-03,            0.,NA,NA,"",       1.97365,       1.96998,   120.296E-03,   4.44802E-03
C:/temp/dataset/9/20_9.odb,Step-1,Increment      1: Step Time =    1.000,"PART-1-1",           770,       7.76646,  -679.521E-03,            0.,NA,NA,"",       1.83996,       1.81957,   273.122E-03,   6.23653E-03
C:/temp/dataset/9/20_9.odb,Step-1,Increment      1: Step Time =    1.000,"PART-1-1",           771,       9.13358,  -706.311E-03,            0.,NA,NA,"",       1.80837,       1.80401,   125.539E-03,   5.75947E-03
C:/temp/dataset/9/20_9.odb,Step-1,Increment      1: Step Time =    1.000,"PART-1-1",           772,       7.17869,      -1.72980,            0.,NA,NA,"",       1.73983,       1.70659,   338.467E-03,   8.07255E-03
C:/temp/dataset/9/20_9.odb,Step-1,Increment      1: Step Time =    1.000,"PART-1-1",           773,       6.08762,  -989.051E-03,            0.,NA,NA,"",       1.86070,       1.80233,   462.401E-03,   7.63030E-03
C:/temp/dataset/9/20_9.odb,Step-1,Increment      1: Step Time =    1.000,"PART-1-1",           774,       8.06590,       24.5744,            0.,NA,NA,"",       4.67660,       4.67550,   101.613E-03,   143.934E-06
C:/temp/dataset/9/20_9.odb,Step-1,Increment      1: Step Time =    1.000,"PART-1-1",           775,       7.69641,      -4.07963,            0.,NA,NA,"",       1.46483,       1.43783,   279.935E-03,   8.63402E-03
C:/temp/dataset/9/20_9.odb,Step-1,Increment      1: Step Time =    1.000,"PART-1-1",           776,       8.40687,      -2.58051,            0.,NA,NA,"",       1.61175,       1.59850,   206.270E-03,   7.30611E-03
C:/temp/dataset/9/20_9.odb,Step-1,Increment      1: Step Time =    1.000,"PART-1-1",           777,      -9.00797,   684.990E-03,            0.,NA,NA,"",       3.03422,       2.09070,       2.19897,   285.179E-06
C:/temp/dataset/9/20_9.odb,Step-1,Increment      1: Step Time =    1.000,"PART-1-1",           778,       5.05143,   63.4436E-03,            0.,NA,NA,"",       2.01634,       1.93068,   581.450E-03,   4.95598E-03
C:/temp/dataset/9/20_9.odb,Step-1,Increment      1: Step Time =    1.000,"PART-1-1",           779,      -3.45659,  -454.281E-03,            0.,NA,NA,"",       2.48969,       1.92532,       1.57851,   519.675E-06
C:/temp/dataset/9/20_9.odb,Step-1,Increment      1: Step Time =    1.000,"PART-1-1",           780,      -7.58605,   993.377E-03,            0.,NA,NA,"",       2.93714,       2.11660,       2.03637,   338.081E-06
