ODB Name,Step,Frame,Part Instance Name,    êﬂì_ÉâÉxÉã,X,Y,Z,Section Name,Material Name,Section Point,   U-Magnitude,          U-U1,          U-U2,       S-Mises
C:/temp/dataset/9/21_9.odb,Step-1,Increment      1: Step Time =    1.000,"PART-1-1",             1,            5.,           20.,            0.,NA,NA,"",       6.59745,       6.59099,   292.013E-03,   69.5649E-06
C:/temp/dataset/9/21_9.odb,Step-1,Increment      1: Step Time =    1.000,"PART-1-1",             2,            0.,           20.,            0.,NA,NA,"",       6.72116,       6.64375,       1.01715,   31.9839E-06
C:/temp/dataset/9/21_9.odb,Step-1,Increment      1: Step Time =    1.000,"PART-1-1",             3,            5.,          12.5,            0.,NA,NA,"",       5.51512,       5.50256,   372.106E-03,   122.155E-06
C:/temp/dataset/9/21_9.odb,Step-1,Increment      1: Step Time =    1.000,"PART-1-1",             4,            5.,            5.,            0.,NA,NA,"",       4.43566,       4.41252,   452.531E-03,   297.532E-06
C:/temp/dataset/9/21_9.odb,Step-1,Increment      1: Step Time =    1.000,"PART-1-1",             5,            0.,            5.,            0.,NA,NA,"",       4.61727,       4.46480,       1.17677,   100.834E-06
C:/temp/dataset/9/21_9.odb,Step-1,Increment      1: Step Time =    1.000,"PART-1-1",             6,           -5.,            5.,            0.,NA,NA,"",       4.90198,       4.51823,       1.90133,   162.851E-06
C:/temp/dataset/9/21_9.odb,Step-1,Increment      1: Step Time =    1.000,"PART-1-1",             7,           -5.,          12.5,            0.,NA,NA,"",       5.89578,       5.60729,       1.82168,   2.34000E-06
C:/temp/dataset/9/21_9.odb,Step-1,Increment      1: Step Time =    1.000,"PART-1-1",             8,           -5.,           20.,            0.,NA,NA,"",       6.91934,       6.69637,       1.74238,   107.278E-06
C:/temp/dataset/9/21_9.odb,Step-1,Increment      1: Step Time =    1.000,"PART-1-1",             9,           15.,           30.,            0.,NA,NA,"",       8.03602,       7.93588,      -1.26467,   772.701E-09
C:/temp/dataset/9/21_9.odb,Step-1,Increment      1: Step Time =    1.000,"PART-1-1",            10,           7.5,           30.,            0.,NA,NA,"",       8.01713,       8.01518,  -176.614E-03,   15.9465E-06
C:/temp/dataset/9/21_9.odb,Step-1,Increment      1: Step Time =    1.000,"PART-1-1",            11,            0.,           30.,            0.,NA,NA,"",       8.14559,       8.09446,   911.319E-03,   10.3257E-06
C:/temp/dataset/9/21_9.odb,Step-1,Increment      1: Step Time =    1.000,"PART-1-1",            12,          -7.5,           30.,            0.,NA,NA,"",       8.41495,       8.17397,       1.99942,   24.4364E-06
C:/temp/dataset/9/21_9.odb,Step-1,Increment      1: Step Time =    1.000,"PART-1-1",            13,          -15.,           30.,            0.,NA,NA,"",       8.81216,       8.25343,       3.08787,   794.281E-09
C:/temp/dataset/9/21_9.odb,Step-1,Increment      1: Step Time =    1.000,"PART-1-1",            14,          -15.,         21.25,            0.,NA,NA,"",       7.67375,       6.98357,       3.18060,   25.0188E-06
C:/temp/dataset/9/21_9.odb,Step-1,Increment      1: Step Time =    1.000,"PART-1-1",            15,          -15.,          12.5,            0.,NA,NA,"",       6.58456,       5.71326,       3.27338,   15.9537E-06
C:/temp/dataset/9/21_9.odb,Step-1,Increment      1: Step Time =    1.000,"PART-1-1",            16,          -15.,          3.75,            0.,NA,NA,"",       5.57393,       4.44303,       3.36573,   52.7987E-06
C:/temp/dataset/9/21_9.odb,Step-1,Increment      1: Step Time =    1.000,"PART-1-1",            17,          -15.,           -5.,            0.,NA,NA,"",       4.69358,       3.17347,       3.45815,   1.59529E-06
C:/temp/dataset/9/21_9.odb,Step-1,Increment      1: Step Time =    1.000,"PART-1-1",            18,          -10.,           -5.,            0.,NA,NA,"",       4.14794,       3.12059,       2.73264,   25.9440E-06
C:/temp/dataset/9/21_9.odb,Step-1,Increment      1: Step Time =    1.000,"PART-1-1",            19,           -5.,           -5.,            0.,NA,NA,"",       3.66617,       3.06792,       2.00715,   77.8470E-06
C:/temp/dataset/9/21_9.odb,Step-1,Increment      1: Step Time =    1.000,"PART-1-1",            20,            0.,           -5.,            0.,NA,NA,"",       3.27674,       3.01561,       1.28184,   178.192E-06
C:/temp/dataset/9/21_9.odb,Step-1,Increment      1: Step Time =    1.000,"PART-1-1",            21,            5.,           -5.,            0.,NA,NA,"",       3.01934,       2.96778,   555.605E-03,   4.13433E-03
C:/temp/dataset/9/21_9.odb,Step-1,Increment      1: Step Time =    1.000,"PART-1-1",            22,            5.,        -11.25,            0.,NA,NA,"",       2.11127,       2.02240,   606.111E-03,   12.9898E-03
C:/temp/dataset/9/21_9.odb,Step-1,Increment      1: Step Time =    1.000,"PART-1-1",            23,            5.,         -17.5,            0.,NA,NA,"",       1.21875,       1.08867,   547.864E-03,   32.2624E-03
C:/temp/dataset/9/21_9.odb,Step-1,Increment      1: Step Time =    1.000,"PART-1-1",            24,            5.,        -23.75,            0.,NA,NA,"",   519.056E-03,   385.944E-03,   347.082E-03,   53.1867E-03
C:/temp/dataset/9/21_9.odb,Step-1,Increment      1: Step Time =    1.000,"PART-1-1",            25,            5.,          -30.,            0.,NA,NA,"",            0.,   24.3389E-39,   45.3300E-39,   88.3870E-03
C:/temp/dataset/9/21_9.odb,Step-1,Increment      1: Step Time =    1.000,"PART-1-1",            26,           15.,          -30.,            0.,NA,NA,"",            0.,   24.0944E-39,  -43.1227E-39,   84.0996E-03
C:/temp/dataset/9/21_9.odb,Step-1,Increment      1: Step Time =    1.000,"PART-1-1",            27,           15.,         -22.5,            0.,NA,NA,"",   627.302E-03,   462.309E-03,  -424.002E-03,   48.2206E-03
C:/temp/dataset/9/21_9.odb,Step-1,Increment      1: Step Time =    1.000,"PART-1-1",            28,           15.,          -15.,            0.,NA,NA,"",       1.53113,       1.35261,  -717.500E-03,   22.3479E-03
C:/temp/dataset/9/21_9.odb,Step-1,Increment      1: Step Time =    1.000,"PART-1-1",            29,           15.,          -7.5,            0.,NA,NA,"",       2.61756,       2.46797,  -872.192E-03,   1.42623E-03
C:/temp/dataset/9/21_9.odb,Step-1,Increment      1: Step Time =    1.000,"PART-1-1",            30,           15.,            0.,            0.,NA,NA,"",       3.70334,       3.57932,  -950.377E-03,   799.969E-06
C:/temp/dataset/9/21_9.odb,Step-1,Increment      1: Step Time =    1.000,"PART-1-1",            31,           15.,           7.5,            0.,NA,NA,"",       4.78209,       4.67038,      -1.02759,   143.200E-06
C:/temp/dataset/9/21_9.odb,Step-1,Increment      1: Step Time =    1.000,"PART-1-1",            32,           15.,           15.,            0.,NA,NA,"",       5.86485,       5.75955,      -1.10638,   81.1690E-06
C:/temp/dataset/9/21_9.odb,Step-1,Increment      1: Step Time =    1.000,"PART-1-1",            33,           15.,          22.5,            0.,NA,NA,"",       6.94971,       6.84787,      -1.18539,   27.4712E-06
C:/temp/dataset/9/21_9.odb,Step-1,Increment      1: Step Time =    1.000,"PART-1-1",            34,           2.5,           20.,            0.,NA,NA,"",       6.64967,       6.61738,   654.535E-03,   27.1091E-06
C:/temp/dataset/9/21_9.odb,Step-1,Increment      1: Step Time =    1.000,"PART-1-1",            35,            5.,           15.,            0.,NA,NA,"",       5.87562,       5.86546,   345.368E-03,   103.690E-06
C:/temp/dataset/9/21_9.odb,Step-1,Increment      1: Step Time =    1.000,"PART-1-1",            36,            5.,          17.5,            0.,NA,NA,"",       6.23641,       6.22827,   318.688E-03,   92.3018E-06
C:/temp/dataset/9/21_9.odb,Step-1,Increment      1: Step Time =    1.000,"PART-1-1",            37,            5.,           7.5,            0.,NA,NA,"",       4.79519,       4.77625,   425.780E-03,   142.650E-06
C:/temp/dataset/9/21_9.odb,Step-1,Increment      1: Step Time =    1.000,"PART-1-1",            38,            5.,           10.,            0.,NA,NA,"",       5.15497,       5.13951,   398.905E-03,   140.255E-06
C:/temp/dataset/9/21_9.odb,Step-1,Increment      1: Step Time =    1.000,"PART-1-1",            39,           2.5,            5.,            0.,NA,NA,"",       4.51249,       4.43833,   814.736E-03,   55.9857E-06
C:/temp/dataset/9/21_9.odb,Step-1,Increment      1: Step Time =    1.000,"PART-1-1",            40,          -2.5,            5.,            0.,NA,NA,"",       4.74779,       4.49144,       1.53899,   150.685E-06
C:/temp/dataset/9/21_9.odb,Step-1,Increment      1: Step Time =    1.000,"PART-1-1",            41,           -5.,           10.,            0.,NA,NA,"",       5.56044,       5.24431,       1.84818,   9.05943E-06
C:/temp/dataset/9/21_9.odb,Step-1,Increment      1: Step Time =    1.000,"PART-1-1",            42,           -5.,           7.5,            0.,NA,NA,"",       5.22894,       4.88132,       1.87470,   40.3740E-06
C:/temp/dataset/9/21_9.odb,Step-1,Increment      1: Step Time =    1.000,"PART-1-1",            43,           -5.,          17.5,            0.,NA,NA,"",       6.57565,       6.33330,       1.76875,   44.9882E-06
C:/temp/dataset/9/21_9.odb,Step-1,Increment      1: Step Time =    1.000,"PART-1-1",            44,           -5.,           15.,            0.,NA,NA,"",       6.23435,       5.97029,       1.79520,   16.2677E-06
C:/temp/dataset/9/21_9.odb,Step-1,Increment      1: Step Time =    1.000,"PART-1-1",            45,          -2.5,           20.,            0.,NA,NA,"",       6.81132,       6.67011,       1.37978,   49.5460E-06
C:/temp/dataset/9/21_9.odb,Step-1,Increment      1: Step Time =    1.000,"PART-1-1",            46,          12.5,           30.,            0.,NA,NA,"",       8.01325,       7.96233,  -901.991E-03,   1.88214E-06
C:/temp/dataset/9/21_9.odb,Step-1,Increment      1: Step Time =    1.000,"PART-1-1",            47,           10.,           30.,            0.,NA,NA,"",       8.00695,       7.98876,  -539.299E-03,   9.71613E-06
C:/temp/dataset/9/21_9.odb,Step-1,Increment      1: Step Time =    1.000,"PART-1-1",            48,            5.,           30.,            0.,NA,NA,"",       8.04374,       8.04159,   186.048E-03,   13.9181E-06
C:/temp/dataset/9/21_9.odb,Step-1,Increment      1: Step Time =    1.000,"PART-1-1",            49,           2.5,           30.,            0.,NA,NA,"",       8.08664,       8.06801,   548.686E-03,   3.77563E-06
C:/temp/dataset/9/21_9.odb,Step-1,Increment      1: Step Time =    1.000,"PART-1-1",            50,          -2.5,           30.,            0.,NA,NA,"",       8.22026,       8.12094,       1.27397,   21.7912E-06
C:/temp/dataset/9/21_9.odb,Step-1,Increment      1: Step Time =    1.000,"PART-1-1",            51,           -5.,           30.,            0.,NA,NA,"",       8.31021,       8.14745,       1.63667,   27.9921E-06
C:/temp/dataset/9/21_9.odb,Step-1,Increment      1: Step Time =    1.000,"PART-1-1",            52,          -10.,           30.,            0.,NA,NA,"",       8.53393,       8.20048,       2.36223,   13.9398E-06
C:/temp/dataset/9/21_9.odb,Step-1,Increment      1: Step Time =    1.000,"PART-1-1",            53,         -12.5,           30.,            0.,NA,NA,"",       8.66653,       8.22696,       2.72505,   3.09317E-06
C:/temp/dataset/9/21_9.odb,Step-1,Increment      1: Step Time =    1.000,"PART-1-1",            54,          -15.,       27.8125,            0.,NA,NA,"",       8.52397,       7.93597,       3.11103,   2.46305E-06
C:/temp/dataset/9/21_9.odb,Step-1,Increment      1: Step Time =    1.000,"PART-1-1",            55,          -15.,        25.625,            0.,NA,NA,"",       8.23802,       7.61852,       3.13420,   11.0828E-06
C:/temp/dataset/9/21_9.odb,Step-1,Increment      1: Step Time =    1.000,"PART-1-1",            56,          -15.,       23.4375,            0.,NA,NA,"",       7.95453,       7.30106,       3.15739,   20.1322E-06
C:/temp/dataset/9/21_9.odb,Step-1,Increment      1: Step Time =    1.000,"PART-1-1",            57,          -15.,       19.0625,            0.,NA,NA,"",       7.39598,       6.66604,       3.20382,   22.7861E-06
C:/temp/dataset/9/21_9.odb,Step-1,Increment      1: Step Time =    1.000,"PART-1-1",            58,          -15.,        16.875,            0.,NA,NA,"",       7.12157,       6.34847,       3.22703,   13.3582E-06
C:/temp/dataset/9/21_9.odb,Step-1,Increment      1: Step Time =    1.000,"PART-1-1",            59,          -15.,       14.6875,            0.,NA,NA,"",       6.85094,       6.03088,       3.25022,   817.854E-09
C:/temp/dataset/9/21_9.odb,Step-1,Increment      1: Step Time =    1.000,"PART-1-1",            60,          -15.,       10.3125,            0.,NA,NA,"",       6.32298,       5.39565,       3.29652,   31.8059E-06
C:/temp/dataset/9/21_9.odb,Step-1,Increment      1: Step Time =    1.000,"PART-1-1",            61,          -15.,         8.125,            0.,NA,NA,"",       6.06684,       5.07806,       3.31961,   46.3158E-06
C:/temp/dataset/9/21_9.odb,Step-1,Increment      1: Step Time =    1.000,"PART-1-1",            62,          -15.,        5.9375,            0.,NA,NA,"",       5.81687,       4.76052,       3.34268,   53.9411E-06
C:/temp/dataset/9/21_9.odb,Step-1,Increment      1: Step Time =    1.000,"PART-1-1",            63,          -15.,        1.5625,            0.,NA,NA,"",       5.33896,       4.12561,       3.38879,   39.4078E-06
C:/temp/dataset/9/21_9.odb,Step-1,Increment      1: Step Time =    1.000,"PART-1-1",            64,          -15.,     -625.E-03,            0.,NA,NA,"",       5.11307,       3.80823,       3.41188,   19.3678E-06
C:/temp/dataset/9/21_9.odb,Step-1,Increment      1: Step Time =    1.000,"PART-1-1",            65,          -15.,       -2.8125,            0.,NA,NA,"",       4.89748,       3.49086,       3.43500,   3.36434E-06
C:/temp/dataset/9/21_9.odb,Step-1,Increment      1: Step Time =    1.000,"PART-1-1",            66,         -12.5,           -5.,            0.,NA,NA,"",       4.41421,       3.14702,       3.09541,   4.49420E-06
C:/temp/dataset/9/21_9.odb,Step-1,Increment      1: Step Time =    1.000,"PART-1-1",            67,          -7.5,           -5.,            0.,NA,NA,"",       3.89750,       3.09422,       2.36988,   55.3195E-06
C:/temp/dataset/9/21_9.odb,Step-1,Increment      1: Step Time =    1.000,"PART-1-1",            68,          -2.5,           -5.,            0.,NA,NA,"",       3.45777,       3.04168,       1.64450,   118.262E-06
C:/temp/dataset/9/21_9.odb,Step-1,Increment      1: Step Time =    1.000,"PART-1-1",            69,           2.5,           -5.,            0.,NA,NA,"",       3.12739,       2.98934,   918.902E-03,   742.270E-06
C:/temp/dataset/9/21_9.odb,Step-1,Increment      1: Step Time =    1.000,"PART-1-1",            70,            5.,      -7.08333,            0.,NA,NA,"",       2.73353,       2.67242,   574.770E-03,   9.61055E-03
C:/temp/dataset/9/21_9.odb,Step-1,Increment      1: Step Time =    1.000,"PART-1-1",            71,            5.,      -9.16667,            0.,NA,NA,"",       2.42983,       2.35647,   592.560E-03,   10.1476E-03
C:/temp/dataset/9/21_9.odb,Step-1,Increment      1: Step Time =    1.000,"PART-1-1",            72,            5.,      -13.3333,            0.,NA,NA,"",       1.79336,       1.68956,   601.275E-03,   19.1122E-03
C:/temp/dataset/9/21_9.odb,Step-1,Increment      1: Step Time =    1.000,"PART-1-1",            73,            5.,      -15.4167,            0.,NA,NA,"",       1.49703,       1.37917,   582.227E-03,   25.5463E-03
C:/temp/dataset/9/21_9.odb,Step-1,Increment      1: Step Time =    1.000,"PART-1-1",            74,            5.,      -19.5833,            0.,NA,NA,"",   961.311E-03,   822.522E-03,   497.571E-03,   39.1839E-03
C:/temp/dataset/9/21_9.odb,Step-1,Increment      1: Step Time =    1.000,"PART-1-1",            75,            5.,      -21.6667,            0.,NA,NA,"",   727.417E-03,   586.215E-03,   430.682E-03,   46.1204E-03
C:/temp/dataset/9/21_9.odb,Step-1,Increment      1: Step Time =    1.000,"PART-1-1",            76,            5.,      -25.8333,            0.,NA,NA,"",   335.695E-03,   226.280E-03,   247.968E-03,   58.5524E-03
C:/temp/dataset/9/21_9.odb,Step-1,Increment      1: Step Time =    1.000,"PART-1-1",            77,            5.,      -27.9167,            0.,NA,NA,"",   174.999E-03,   110.062E-03,   136.055E-03,   69.2438E-03
C:/temp/dataset/9/21_9.odb,Step-1,Increment      1: Step Time =    1.000,"PART-1-1",            78,           7.5,          -30.,            0.,NA,NA,"",            0.,   14.5545E-39,   78.7951E-39,   23.9606E-03
C:/temp/dataset/9/21_9.odb,Step-1,Increment      1: Step Time =    1.000,"PART-1-1",            79,           10.,          -30.,            0.,NA,NA,"",            0.,  -4.40273E-39,   6.22703E-39,   1.71921E-03
C:/temp/dataset/9/21_9.odb,Step-1,Increment      1: Step Time =    1.000,"PART-1-1",            80,          12.5,          -30.,            0.,NA,NA,"",            0.,   38.2726E-39,  -82.8781E-39,   22.9306E-03
C:/temp/dataset/9/21_9.odb,Step-1,Increment      1: Step Time =    1.000,"PART-1-1",            81,           15.,         -27.5,            0.,NA,NA,"",   198.569E-03,   117.155E-03,  -160.325E-03,   68.2654E-03
C:/temp/dataset/9/21_9.odb,Step-1,Increment      1: Step Time =    1.000,"PART-1-1",            82,           15.,          -25.,            0.,NA,NA,"",   395.700E-03,   259.930E-03,  -298.354E-03,   55.6285E-03
C:/temp/dataset/9/21_9.odb,Step-1,Increment      1: Step Time =    1.000,"PART-1-1",            83,           15.,          -20.,            0.,NA,NA,"",   895.420E-03,   717.104E-03,  -536.226E-03,   39.6041E-03
C:/temp/dataset/9/21_9.odb,Step-1,Increment      1: Step Time =    1.000,"PART-1-1",            84,           15.,         -17.5,            0.,NA,NA,"",       1.19857,       1.01696,  -634.308E-03,   31.0997E-03
C:/temp/dataset/9/21_9.odb,Step-1,Increment      1: Step Time =    1.000,"PART-1-1",            85,           15.,         -12.5,            0.,NA,NA,"",       1.88488,       1.71384,  -784.541E-03,   13.7748E-03
C:/temp/dataset/9/21_9.odb,Step-1,Increment      1: Step Time =    1.000,"PART-1-1",            86,           15.,          -10.,            0.,NA,NA,"",       2.25000,       2.08923,  -835.246E-03,   6.37541E-03
C:/temp/dataset/9/21_9.odb,Step-1,Increment      1: Step Time =    1.000,"PART-1-1",            87,           15.,           -5.,            0.,NA,NA,"",       2.98239,       2.84317,  -900.592E-03,   769.867E-06
C:/temp/dataset/9/21_9.odb,Step-1,Increment      1: Step Time =    1.000,"PART-1-1",            88,           15.,          -2.5,            0.,NA,NA,"",       3.34380,       3.21313,  -925.654E-03,   1.11409E-03
C:/temp/dataset/9/21_9.odb,Step-1,Increment      1: Step Time =    1.000,"PART-1-1",            89,           15.,           2.5,            0.,NA,NA,"",       4.06250,       3.94360,  -975.656E-03,   448.525E-06
C:/temp/dataset/9/21_9.odb,Step-1,Increment      1: Step Time =    1.000,"PART-1-1",            90,           15.,            5.,            0.,NA,NA,"",       4.42201,       4.30712,      -1.00147,   236.796E-06
C:/temp/dataset/9/21_9.odb,Step-1,Increment      1: Step Time =    1.000,"PART-1-1",            91,           15.,           10.,            0.,NA,NA,"",       5.14267,       5.03354,      -1.05383,   110.758E-06
C:/temp/dataset/9/21_9.odb,Step-1,Increment      1: Step Time =    1.000,"PART-1-1",            92,           15.,          12.5,            0.,NA,NA,"",       5.50362,       5.39660,      -1.08010,   95.1649E-06
C:/temp/dataset/9/21_9.odb,Step-1,Increment      1: Step Time =    1.000,"PART-1-1",            93,           15.,          17.5,            0.,NA,NA,"",       6.22630,       6.12240,      -1.13269,   65.0748E-06
C:/temp/dataset/9/21_9.odb,Step-1,Increment      1: Step Time =    1.000,"PART-1-1",            94,           15.,           20.,            0.,NA,NA,"",       6.58792,       6.48517,      -1.15902,   46.2724E-06
C:/temp/dataset/9/21_9.odb,Step-1,Increment      1: Step Time =    1.000,"PART-1-1",            95,           15.,           25.,            0.,NA,NA,"",       7.31166,       7.21054,      -1.21179,   11.8949E-06
C:/temp/dataset/9/21_9.odb,Step-1,Increment      1: Step Time =    1.000,"PART-1-1",            96,           15.,          27.5,            0.,NA,NA,"",       7.67376,       7.57321,      -1.23823,   1.97731E-06
C:/temp/dataset/9/21_9.odb,Step-1,Increment      1: Step Time =    1.000,"PART-1-1",            97,       7.09255,      -21.6558,            0.,NA,NA,"",   592.992E-03,   544.022E-03,   235.965E-03,   29.0101E-03
C:/temp/dataset/9/21_9.odb,Step-1,Increment      1: Step Time =    1.000,"PART-1-1",            98,       7.09346,      -17.4368,            0.,NA,NA,"",       1.09711,       1.05753,   292.057E-03,   20.9600E-03
C:/temp/dataset/9/21_9.odb,Step-1,Increment      1: Step Time =    1.000,"PART-1-1",            99,       7.15828,      -23.7452,            0.,NA,NA,"",   387.407E-03,   339.961E-03,   185.771E-03,   32.4554E-03
C:/temp/dataset/9/21_9.odb,Step-1,Increment      1: Step Time =    1.000,"PART-1-1",           100,       7.44609,      -27.8729,            0.,NA,NA,"",   85.4010E-03,   61.9150E-03,   58.8206E-03,   37.9588E-03
C:/temp/dataset/9/21_9.odb,Step-1,Increment      1: Step Time =    1.000,"PART-1-1",           101,       7.30780,      -25.7939,            0.,NA,NA,"",   216.238E-03,   178.291E-03,   122.358E-03,   36.2426E-03
C:/temp/dataset/9/21_9.odb,Step-1,Increment      1: Step Time =    1.000,"PART-1-1",           102,       7.08258,      -10.9526,            0.,NA,NA,"",       2.05214,       2.03103,   293.565E-03,   15.5712E-03
C:/temp/dataset/9/21_9.odb,Step-1,Increment      1: Step Time =    1.000,"PART-1-1",           103,       7.09950,      -13.1236,            0.,NA,NA,"",       1.71262,       1.68601,   300.723E-03,   14.0923E-03
C:/temp/dataset/9/21_9.odb,Step-1,Increment      1: Step Time =    1.000,"PART-1-1",           104,       6.95448,      -6.62029,            0.,NA,NA,"",       2.72192,       2.70673,   287.211E-03,   8.54215E-03
C:/temp/dataset/9/21_9.odb,Step-1,Increment      1: Step Time =    1.000,"PART-1-1",           105,       7.04974,      -8.78764,            0.,NA,NA,"",       2.39231,       2.37506,   286.813E-03,   12.1471E-03
C:/temp/dataset/9/21_9.odb,Step-1,Increment      1: Step Time =    1.000,"PART-1-1",           106,       7.10540,      -15.2896,            0.,NA,NA,"",       1.39280,       1.35985,   301.172E-03,   17.1071E-03
C:/temp/dataset/9/21_9.odb,Step-1,Increment      1: Step Time =    1.000,"PART-1-1",           107,       7.08223,      -19.5608,            0.,NA,NA,"",   829.385E-03,   783.875E-03,   270.960E-03,   25.0095E-03
C:/temp/dataset/9/21_9.odb,Step-1,Increment      1: Step Time =    1.000,"PART-1-1",           108,      -11.8989,       25.3809,            0.,NA,NA,"",       8.01404,       7.55026,       2.68671,   15.1052E-06
C:/temp/dataset/9/21_9.odb,Step-1,Increment      1: Step Time =    1.000,"PART-1-1",           109,      -12.7134,       3.51066,            0.,NA,NA,"",       5.33290,       4.38405,       3.03643,   34.6806E-06
C:/temp/dataset/9/21_9.odb,Step-1,Increment      1: Step Time =    1.000,"PART-1-1",           110,      -13.0834,       10.3867,            0.,NA,NA,"",       6.17376,       5.38609,       3.01750,   28.5317E-06
C:/temp/dataset/9/21_9.odb,Step-1,Increment      1: Step Time =    1.000,"PART-1-1",           111,      -12.9355,       8.20912,            0.,NA,NA,"",       5.89941,       5.06837,       3.01905,   32.9333E-06
C:/temp/dataset/9/21_9.odb,Step-1,Increment      1: Step Time =    1.000,"PART-1-1",           112,      -13.1801,       12.5484,            0.,NA,NA,"",       6.44619,       5.70099,       3.00866,   22.6689E-06
C:/temp/dataset/9/21_9.odb,Step-1,Increment      1: Step Time =    1.000,"PART-1-1",           113,      -12.7454,       20.6010,            0.,NA,NA,"",       7.43748,       6.86551,       2.86022,   11.3478E-06
C:/temp/dataset/9/21_9.odb,Step-1,Increment      1: Step Time =    1.000,"PART-1-1",           114,      -13.1621,       18.5389,            0.,NA,NA,"",       7.19939,       6.57058,       2.94257,   13.6739E-06
C:/temp/dataset/9/21_9.odb,Step-1,Increment      1: Step Time =    1.000,"PART-1-1",           115,      -12.3840,       22.8683,            0.,NA,NA,"",       7.71079,       7.19077,       2.78373,   12.6637E-06
C:/temp/dataset/9/21_9.odb,Step-1,Increment      1: Step Time =    1.000,"PART-1-1",           116,      -13.4658,       16.5948,            0.,NA,NA,"",       6.97332,       6.29154,       3.00727,   13.7830E-06
C:/temp/dataset/9/21_9.odb,Step-1,Increment      1: Step Time =    1.000,"PART-1-1",           117,      -13.3466,       14.6489,            0.,NA,NA,"",       6.71987,       6.00775,       3.01058,   16.7797E-06
C:/temp/dataset/9/21_9.odb,Step-1,Increment      1: Step Time =    1.000,"PART-1-1",           118,      -12.3609,       5.76892,            0.,NA,NA,"",       5.56199,       4.70805,       2.96143,   31.8024E-06
C:/temp/dataset/9/21_9.odb,Step-1,Increment      1: Step Time =    1.000,"PART-1-1",           119,      -12.8583,       1.39410,            0.,NA,NA,"",       5.11069,       4.07847,       3.07980,   35.0581E-06
C:/temp/dataset/9/21_9.odb,Step-1,Increment      1: Step Time =    1.000,"PART-1-1",           120,      -12.6304,  -685.754E-03,            0.,NA,NA,"",       4.86440,       3.77432,       3.06869,   31.4228E-06
C:/temp/dataset/9/21_9.odb,Step-1,Increment      1: Step Time =    1.000,"PART-1-1",           121,   38.5673E-03,       27.2989,            0.,NA,NA,"",       7.75865,       7.70220,   934.292E-03,   18.9540E-06
C:/temp/dataset/9/21_9.odb,Step-1,Increment      1: Step Time =    1.000,"PART-1-1",           122,      -4.16985,       22.2766,            0.,NA,NA,"",       7.19760,       7.01799,       1.59790,   31.6172E-06
C:/temp/dataset/9/21_9.odb,Step-1,Increment      1: Step Time =    1.000,"PART-1-1",           123,      -7.85548,       28.0855,            0.,NA,NA,"",       8.16694,       7.89992,       2.07126,   14.6604E-06
C:/temp/dataset/9/21_9.odb,Step-1,Increment      1: Step Time =    1.000,"PART-1-1",           124,       9.92813,      -27.7267,            0.,NA,NA,"",   46.6268E-03,   46.5307E-03,   2.99309E-03,   15.1504E-03
C:/temp/dataset/9/21_9.odb,Step-1,Increment      1: Step Time =    1.000,"PART-1-1",           125,       13.1106,      -17.4438,            0.,NA,NA,"",       1.09247,       1.01769,  -397.236E-03,   21.5259E-03
C:/temp/dataset/9/21_9.odb,Step-1,Increment      1: Step Time =    1.000,"PART-1-1",           126,       12.8150,       2.64061,            0.,NA,NA,"",       4.04169,       3.98761,  -658.944E-03,   300.441E-06
C:/temp/dataset/9/21_9.odb,Step-1,Increment      1: Step Time =    1.000,"PART-1-1",           127,       7.56819,       12.3225,            0.,NA,NA,"",       5.44966,       5.44966,   1.03648E-03,   64.9452E-06
C:/temp/dataset/9/21_9.odb,Step-1,Increment      1: Step Time =    1.000,"PART-1-1",           128,       7.47113,       19.8748,            0.,NA,NA,"",       6.54704,       6.54672,  -65.1601E-03,   42.2206E-06
C:/temp/dataset/9/21_9.odb,Step-1,Increment      1: Step Time =    1.000,"PART-1-1",           129,       12.4223,       27.5153,            0.,NA,NA,"",       7.65168,       7.60270,  -864.433E-03,   9.61091E-06
C:/temp/dataset/9/21_9.odb,Step-1,Increment      1: Step Time =    1.000,"PART-1-1",           130,       12.3750,       22.5091,            0.,NA,NA,"",       6.92389,       6.87698,  -804.641E-03,   26.4753E-06
C:/temp/dataset/9/21_9.odb,Step-1,Increment      1: Step Time =    1.000,"PART-1-1",           131,       7.58839,       27.9970,            0.,NA,NA,"",       7.72552,       7.72368,  -168.236E-03,   12.5614E-06
C:/temp/dataset/9/21_9.odb,Step-1,Increment      1: Step Time =    1.000,"PART-1-1",           132,   199.805E-03,       22.3057,            0.,NA,NA,"",       7.04235,       6.97609,   963.752E-03,   27.3173E-06
C:/temp/dataset/9/21_9.odb,Step-1,Increment      1: Step Time =    1.000,"PART-1-1",           133,       12.6934,       9.82310,            0.,NA,NA,"",       5.08320,       5.03239,  -716.932E-03,   66.6993E-06
C:/temp/dataset/9/21_9.odb,Step-1,Increment      1: Step Time =    1.000,"PART-1-1",           134,      -7.14717,       12.7802,            0.,NA,NA,"",       6.05771,       5.67072,       2.13044,   18.2752E-06
C:/temp/dataset/9/21_9.odb,Step-1,Increment      1: Step Time =    1.000,"PART-1-1",           135,      -6.86178,       17.9412,            0.,NA,NA,"",       6.73186,       6.41710,       2.03438,   46.3686E-06
C:/temp/dataset/9/21_9.odb,Step-1,Increment      1: Step Time =    1.000,"PART-1-1",           136,      -2.68307,      -2.95682,            0.,NA,NA,"",       3.72493,       3.33985,       1.64939,   77.7596E-06
C:/temp/dataset/9/21_9.odb,Step-1,Increment      1: Step Time =    1.000,"PART-1-1",           137,      -7.59808,      -3.03341,            0.,NA,NA,"",       4.12469,       3.38054,       2.36326,   46.6133E-06
C:/temp/dataset/9/21_9.odb,Step-1,Increment      1: Step Time =    1.000,"PART-1-1",           138,  -248.196E-03,       2.69947,            0.,NA,NA,"",       4.31509,       4.13401,       1.23692,   115.260E-06
C:/temp/dataset/9/21_9.odb,Step-1,Increment      1: Step Time =    1.000,"PART-1-1",           139,       2.16631,      -2.47375,            0.,NA,NA,"",       3.48771,       3.35835,   941.083E-03,   821.048E-06
C:/temp/dataset/9/21_9.odb,Step-1,Increment      1: Step Time =    1.000,"PART-1-1",           140,       4.39271,       2.43636,            0.,NA,NA,"",       4.08623,       4.04659,   567.743E-03,   265.896E-06
C:/temp/dataset/9/21_9.odb,Step-1,Increment      1: Step Time =    1.000,"PART-1-1",           141,       12.9283,      -5.27800,            0.,NA,NA,"",       2.88608,       2.82489,  -591.146E-03,   1.71709E-03
C:/temp/dataset/9/21_9.odb,Step-1,Increment      1: Step Time =    1.000,"PART-1-1",           142,       13.0847,      -12.6172,            0.,NA,NA,"",       1.77962,       1.70641,  -505.169E-03,   12.9923E-03
C:/temp/dataset/9/21_9.odb,Step-1,Increment      1: Step Time =    1.000,"PART-1-1",           143,       12.4838,       17.4790,            0.,NA,NA,"",       6.19376,       6.14605,  -767.304E-03,   38.3503E-06
C:/temp/dataset/9/21_9.odb,Step-1,Increment      1: Step Time =    1.000,"PART-1-1",           144,       2.63438,       22.2143,            0.,NA,NA,"",       6.96404,       6.93713,   611.601E-03,   25.7561E-06
C:/temp/dataset/9/21_9.odb,Step-1,Increment      1: Step Time =    1.000,"PART-1-1",           145,       7.54366,       14.9275,            0.,NA,NA,"",       5.82812,       5.82808,  -23.1320E-03,   58.1582E-06
C:/temp/dataset/9/21_9.odb,Step-1,Increment      1: Step Time =    1.000,"PART-1-1",           146,       7.50510,       17.4443,            0.,NA,NA,"",       6.19389,       6.19373,  -44.2867E-03,   46.6575E-06
C:/temp/dataset/9/21_9.odb,Step-1,Increment      1: Step Time =    1.000,"PART-1-1",           147,       7.12790,       7.03873,            0.,NA,NA,"",       4.68834,       4.68676,   121.433E-03,   133.729E-06
C:/temp/dataset/9/21_9.odb,Step-1,Increment      1: Step Time =    1.000,"PART-1-1",           148,       7.48952,       9.64170,            0.,NA,NA,"",       5.06135,       5.06118,   41.0435E-03,   72.7707E-06
C:/temp/dataset/9/21_9.odb,Step-1,Increment      1: Step Time =    1.000,"PART-1-1",           149,       2.16717,       2.56251,            0.,NA,NA,"",       4.18392,       4.08847,   888.621E-03,   249.527E-06
C:/temp/dataset/9/21_9.odb,Step-1,Increment      1: Step Time =    1.000,"PART-1-1",           150,      -2.68606,       3.12146,            0.,NA,NA,"",       4.50912,       4.22109,       1.58572,   90.5640E-06
C:/temp/dataset/9/21_9.odb,Step-1,Increment      1: Step Time =    1.000,"PART-1-1",           151,      -7.08307,       10.2840,            0.,NA,NA,"",       5.72563,       5.30761,       2.14759,   19.0775E-06
C:/temp/dataset/9/21_9.odb,Step-1,Increment      1: Step Time =    1.000,"PART-1-1",           152,      -2.13928,       22.2031,            0.,NA,NA,"",       7.10659,       6.98590,       1.30413,   40.5927E-06
C:/temp/dataset/9/21_9.odb,Step-1,Increment      1: Step Time =    1.000,"PART-1-1",           153,       9.90766,       27.6812,            0.,NA,NA,"",       7.66976,       7.65336,  -501.364E-03,   12.9023E-06
C:/temp/dataset/9/21_9.odb,Step-1,Increment      1: Step Time =    1.000,"PART-1-1",           154,       5.18317,       27.8350,            0.,NA,NA,"",       7.72774,       7.72559,   182.391E-03,   13.4710E-06
C:/temp/dataset/9/21_9.odb,Step-1,Increment      1: Step Time =    1.000,"PART-1-1",           155,       2.70091,       27.4744,            0.,NA,NA,"",       7.71886,       7.69951,   546.266E-03,   17.6584E-06
C:/temp/dataset/9/21_9.odb,Step-1,Increment      1: Step Time =    1.000,"PART-1-1",           156,      -2.92570,       26.9909,            0.,NA,NA,"",       7.80954,       7.68887,       1.36755,   14.6792E-06
C:/temp/dataset/9/21_9.odb,Step-1,Increment      1: Step Time =    1.000,"PART-1-1",           157,      -5.52449,       27.7330,            0.,NA,NA,"",       8.01450,       7.82406,       1.73674,   12.1370E-06
C:/temp/dataset/9/21_9.odb,Step-1,Increment      1: Step Time =    1.000,"PART-1-1",           158,      -10.1759,       28.1970,            0.,NA,NA,"",       8.29743,       7.94069,       2.40683,   13.6204E-06
C:/temp/dataset/9/21_9.odb,Step-1,Increment      1: Step Time =    1.000,"PART-1-1",           159,      -7.15795,       15.3782,            0.,NA,NA,"",       6.40377,       6.04809,       2.10450,   25.7857E-06
C:/temp/dataset/9/21_9.odb,Step-1,Increment      1: Step Time =    1.000,"PART-1-1",           160,      -7.10855,       7.92361,            0.,NA,NA,"",       5.42118,       4.96516,       2.17631,   37.0986E-06
C:/temp/dataset/9/21_9.odb,Step-1,Increment      1: Step Time =    1.000,"PART-1-1",           161,      -7.31416,       5.72319,            0.,NA,NA,"",       5.15492,       4.64786,       2.22948,   49.4685E-06
C:/temp/dataset/9/21_9.odb,Step-1,Increment      1: Step Time =    1.000,"PART-1-1",           162,      -10.0288,      -2.82434,            0.,NA,NA,"",       4.37887,       3.43655,       2.71378,   36.0175E-06
C:/temp/dataset/9/21_9.odb,Step-1,Increment      1: Step Time =    1.000,"PART-1-1",           163,      -5.14639,      -3.11924,            0.,NA,NA,"",       3.89929,       3.34225,       2.00845,   61.8762E-06
C:/temp/dataset/9/21_9.odb,Step-1,Increment      1: Step Time =    1.000,"PART-1-1",           164,  -261.821E-03,      -2.60038,            0.,NA,NA,"",       3.60640,       3.36610,       1.29442,   210.763E-06
C:/temp/dataset/9/21_9.odb,Step-1,Increment      1: Step Time =    1.000,"PART-1-1",           165,       4.38015,      -2.33295,            0.,NA,NA,"",       3.41181,       3.35510,   619.465E-03,   1.23728E-03
C:/temp/dataset/9/21_9.odb,Step-1,Increment      1: Step Time =    1.000,"PART-1-1",           166,       13.0639,      -10.1924,            0.,NA,NA,"",       2.14686,       2.07637,  -545.644E-03,   8.72071E-03
C:/temp/dataset/9/21_9.odb,Step-1,Increment      1: Step Time =    1.000,"PART-1-1",           167,       13.0843,      -19.8267,            0.,NA,NA,"",   792.600E-03,   720.989E-03,  -329.227E-03,   25.8381E-03
C:/temp/dataset/9/21_9.odb,Step-1,Increment      1: Step Time =    1.000,"PART-1-1",           168,       12.4446,      -27.5067,            0.,NA,NA,"",   94.3350E-03,   69.3914E-03,  -63.9056E-03,   34.5245E-03
C:/temp/dataset/9/21_9.odb,Step-1,Increment      1: Step Time =    1.000,"PART-1-1",           169,       12.9329,      -22.1971,            0.,NA,NA,"",   525.488E-03,   464.270E-03,  -246.153E-03,   29.0589E-03
C:/temp/dataset/9/21_9.odb,Step-1,Increment      1: Step Time =    1.000,"PART-1-1",           170,       13.1086,      -15.0383,            0.,NA,NA,"",       1.42441,       1.34932,  -456.354E-03,   17.2404E-03
C:/temp/dataset/9/21_9.odb,Step-1,Increment      1: Step Time =    1.000,"PART-1-1",           171,       13.0208,      -7.75462,            0.,NA,NA,"",       2.51661,       2.45010,  -574.769E-03,   4.70249E-03
C:/temp/dataset/9/21_9.odb,Step-1,Increment      1: Step Time =    1.000,"PART-1-1",           172,       12.7756,      -2.70708,            0.,NA,NA,"",       3.26256,       3.20751,  -596.805E-03,   285.515E-06
C:/temp/dataset/9/21_9.odb,Step-1,Increment      1: Step Time =    1.000,"PART-1-1",           173,       12.6338,  -14.4220E-03,            0.,NA,NA,"",       3.65346,       3.60310,  -604.557E-03,   366.905E-06
C:/temp/dataset/9/21_9.odb,Step-1,Increment      1: Step Time =    1.000,"PART-1-1",           174,       13.0186,       5.13380,            0.,NA,NA,"",       4.40613,       4.34776,  -714.782E-03,   175.792E-06
C:/temp/dataset/9/21_9.odb,Step-1,Increment      1: Step Time =    1.000,"PART-1-1",           175,       13.0709,       7.51902,            0.,NA,NA,"",       4.75286,       4.69371,  -747.499E-03,   102.672E-06
C:/temp/dataset/9/21_9.odb,Step-1,Increment      1: Step Time =    1.000,"PART-1-1",           176,       12.5119,       12.3699,            0.,NA,NA,"",       5.45157,       5.40415,  -717.449E-03,   51.1038E-06
C:/temp/dataset/9/21_9.odb,Step-1,Increment      1: Step Time =    1.000,"PART-1-1",           177,       12.4863,       14.9454,            0.,NA,NA,"",       5.82562,       5.77831,  -740.912E-03,   43.9080E-06
C:/temp/dataset/9/21_9.odb,Step-1,Increment      1: Step Time =    1.000,"PART-1-1",           178,       12.4500,       19.9932,            0.,NA,NA,"",       6.55882,       6.51120,  -788.943E-03,   33.2945E-06
C:/temp/dataset/9/21_9.odb,Step-1,Increment      1: Step Time =    1.000,"PART-1-1",           179,       9.19048,      -23.6482,            0.,NA,NA,"",   327.925E-03,   323.985E-03,   50.6773E-03,   17.6647E-03
C:/temp/dataset/9/21_9.odb,Step-1,Increment      1: Step Time =    1.000,"PART-1-1",           180,       9.11932,      -19.5624,            0.,NA,NA,"",   761.660E-03,   758.897E-03,   64.8224E-03,   16.2038E-03
C:/temp/dataset/9/21_9.odb,Step-1,Increment      1: Step Time =    1.000,"PART-1-1",           181,       9.13323,      -12.9344,            0.,NA,NA,"",       1.69005,       1.68983,   27.2519E-03,   15.2369E-03
C:/temp/dataset/9/21_9.odb,Step-1,Increment      1: Step Time =    1.000,"PART-1-1",           182,       9.14303,      -17.4019,            0.,NA,NA,"",       1.03898,       1.03743,   56.8456E-03,   15.4866E-03
C:/temp/dataset/9/21_9.odb,Step-1,Increment      1: Step Time =    1.000,"PART-1-1",           183,       9.11260,      -10.6744,            0.,NA,NA,"",       2.04387,       2.04384,   9.71566E-03,   14.0087E-03
C:/temp/dataset/9/21_9.odb,Step-1,Increment      1: Step Time =    1.000,"PART-1-1",           184,       9.06671,      -8.40676,            0.,NA,NA,"",       2.39934,       2.39934,  -2.77591E-03,   10.2782E-03
C:/temp/dataset/9/21_9.odb,Step-1,Increment      1: Step Time =    1.000,"PART-1-1",           185,       9.15359,      -15.1846,            0.,NA,NA,"",       1.35111,       1.35043,   42.9818E-03,   15.1110E-03
C:/temp/dataset/9/21_9.odb,Step-1,Increment      1: Step Time =    1.000,"PART-1-1",           186,       9.09437,      -21.6308,            0.,NA,NA,"",   526.295E-03,   522.234E-03,   65.2536E-03,   17.0921E-03
C:/temp/dataset/9/21_9.odb,Step-1,Increment      1: Step Time =    1.000,"PART-1-1",           187,       8.94944,      -6.10597,            0.,NA,NA,"",       2.75078,       2.75077,  -4.83999E-03,   5.21567E-03
C:/temp/dataset/9/21_9.odb,Step-1,Increment      1: Step Time =    1.000,"PART-1-1",           188,      -11.3189,       17.6054,            0.,NA,NA,"",       6.95471,       6.41554,       2.68491,   21.5375E-06
C:/temp/dataset/9/21_9.odb,Step-1,Increment      1: Step Time =    1.000,"PART-1-1",           189,      -10.4260,       2.85148,            0.,NA,NA,"",       5.05319,       4.26413,       2.71143,   38.7258E-06
C:/temp/dataset/9/21_9.odb,Step-1,Increment      1: Step Time =    1.000,"PART-1-1",           190,      -12.4413,       27.8959,            0.,NA,NA,"",       8.38112,       7.92099,       2.73880,   10.1654E-06
C:/temp/dataset/9/21_9.odb,Step-1,Increment      1: Step Time =    1.000,"PART-1-1",           191,      -10.6658,       19.6683,            0.,NA,NA,"",       7.18294,       6.70812,       2.56824,   15.4600E-06
C:/temp/dataset/9/21_9.odb,Step-1,Increment      1: Step Time =    1.000,"PART-1-1",           192,      -12.1118,       16.4066,            0.,NA,NA,"",       6.85363,       6.24988,       2.81270,   20.6520E-06
C:/temp/dataset/9/21_9.odb,Step-1,Increment      1: Step Time =    1.000,"PART-1-1",           193,      -11.5166,       14.9043,            0.,NA,NA,"",       6.62012,       6.02546,       2.74223,   26.1832E-06
C:/temp/dataset/9/21_9.odb,Step-1,Increment      1: Step Time =    1.000,"PART-1-1",           194,      -11.2054,       12.7278,            0.,NA,NA,"",       6.32129,       5.70611,       2.72011,   29.3368E-06
C:/temp/dataset/9/21_9.odb,Step-1,Increment      1: Step Time =    1.000,"PART-1-1",           195,      -11.1139,       10.5020,            0.,NA,NA,"",       6.03494,       5.38196,       2.73039,   30.1591E-06
C:/temp/dataset/9/21_9.odb,Step-1,Increment      1: Step Time =    1.000,"PART-1-1",           196,      -9.42029,       24.1195,            0.,NA,NA,"",       7.70500,       7.34097,       2.34032,   14.4572E-06
C:/temp/dataset/9/21_9.odb,Step-1,Increment      1: Step Time =    1.000,"PART-1-1",           197,      -11.0759,       8.46025,            0.,NA,NA,"",       5.77941,       5.08512,       2.74648,   30.0906E-06
C:/temp/dataset/9/21_9.odb,Step-1,Increment      1: Step Time =    1.000,"PART-1-1",           198,      -10.9473,       6.84821,            0.,NA,NA,"",       5.57262,       4.84972,       2.74486,   29.6954E-06
C:/temp/dataset/9/21_9.odb,Step-1,Increment      1: Step Time =    1.000,"PART-1-1",           199,       9.64075,      -25.5803,            0.,NA,NA,"",   168.910E-03,   167.980E-03,   17.6995E-03,   16.0982E-03
C:/temp/dataset/9/21_9.odb,Step-1,Increment      1: Step Time =    1.000,"PART-1-1",           200,       6.22595,      -2.03957,            0.,NA,NA,"",       3.39536,       3.37725,   350.149E-03,   768.170E-06
C:/temp/dataset/9/21_9.odb,Step-1,Increment      1: Step Time =    1.000,"PART-1-1",           201,       6.24072,       2.15031,            0.,NA,NA,"",       3.99706,       3.98556,   302.959E-03,   221.785E-06
C:/temp/dataset/9/21_9.odb,Step-1,Increment      1: Step Time =    1.000,"PART-1-1",           202,      -7.69234,       3.89067,            0.,NA,NA,"",       4.95412,       4.38590,       2.30374,   58.2290E-06
C:/temp/dataset/9/21_9.odb,Step-1,Increment      1: Step Time =    1.000,"PART-1-1",           203,       7.31807,       22.0589,            0.,NA,NA,"",       6.86548,       6.86517,  -66.1158E-03,   40.7257E-06
C:/temp/dataset/9/21_9.odb,Step-1,Increment      1: Step Time =    1.000,"PART-1-1",           204,      -6.44398,       20.4265,            0.,NA,NA,"",       7.04792,       6.77353,       1.94744,   38.0458E-06
C:/temp/dataset/9/21_9.odb,Step-1,Increment      1: Step Time =    1.000,"PART-1-1",           205,       12.2962,       25.0128,            0.,NA,NA,"",       7.28726,       7.24101,  -819.671E-03,   18.6426E-06
C:/temp/dataset/9/21_9.odb,Step-1,Increment      1: Step Time =    1.000,"PART-1-1",           206,       12.2257,      -24.8009,            0.,NA,NA,"",   261.066E-03,   230.356E-03,  -122.848E-03,   28.1053E-03
C:/temp/dataset/9/21_9.odb,Step-1,Increment      1: Step Time =    1.000,"PART-1-1",           207,      -2.06005,       24.5200,            0.,NA,NA,"",       7.43023,       7.32122,       1.26811,   24.3577E-06
C:/temp/dataset/9/21_9.odb,Step-1,Increment      1: Step Time =    1.000,"PART-1-1",           208,       9.31619,       25.0673,            0.,NA,NA,"",       7.29076,       7.28043,  -387.889E-03,   21.4929E-06
C:/temp/dataset/9/21_9.odb,Step-1,Increment      1: Step Time =    1.000,"PART-1-1",           209,       3.21447,       24.8112,            0.,NA,NA,"",       7.32481,       7.30773,   499.969E-03,   27.1143E-06
C:/temp/dataset/9/21_9.odb,Step-1,Increment      1: Step Time =    1.000,"PART-1-1",           210,      -7.52022,      -1.18711,            0.,NA,NA,"",       4.32950,       3.64751,       2.33242,   49.6806E-06
C:/temp/dataset/9/21_9.odb,Step-1,Increment      1: Step Time =    1.000,"PART-1-1",           211,       10.0127,       14.9017,            0.,NA,NA,"",       5.81073,       5.79821,  -381.332E-03,   29.2608E-06
C:/temp/dataset/9/21_9.odb,Step-1,Increment      1: Step Time =    1.000,"PART-1-1",           212,       10.7293,       3.02357,            0.,NA,NA,"",       4.08127,       4.06544,  -359.108E-03,   270.834E-06
C:/temp/dataset/9/21_9.odb,Step-1,Increment      1: Step Time =    1.000,"PART-1-1",           213,       11.4837,       7.36813,            0.,NA,NA,"",       4.71688,       4.68866,  -515.187E-03,   74.4033E-06
C:/temp/dataset/9/21_9.odb,Step-1,Increment      1: Step Time =    1.000,"PART-1-1",           214,      -9.20573,       12.9161,            0.,NA,NA,"",       6.20681,       5.71227,       2.42784,   27.9510E-06
C:/temp/dataset/9/21_9.odb,Step-1,Increment      1: Step Time =    1.000,"PART-1-1",           215,   314.418E-03,       24.7704,            0.,NA,NA,"",       7.39007,       7.33245,   921.036E-03,   24.9031E-06
C:/temp/dataset/9/21_9.odb,Step-1,Increment      1: Step Time =    1.000,"PART-1-1",           216,       7.52406,       26.3727,            0.,NA,NA,"",       7.49008,       7.48874,  -141.709E-03,   16.2845E-06
C:/temp/dataset/9/21_9.odb,Step-1,Increment      1: Step Time =    1.000,"PART-1-1",           217,  -811.906E-03,   82.6841E-03,            0.,NA,NA,"",       3.99429,       3.76066,       1.34602,   110.088E-06
C:/temp/dataset/9/21_9.odb,Step-1,Increment      1: Step Time =    1.000,"PART-1-1",           218,       11.1400,      -19.6444,            0.,NA,NA,"",   751.115E-03,   738.976E-03,  -134.494E-03,   16.7388E-03
C:/temp/dataset/9/21_9.odb,Step-1,Increment      1: Step Time =    1.000,"PART-1-1",           219,       11.1036,      -10.4226,            0.,NA,NA,"",       2.07651,       2.05934,  -266.497E-03,   11.5609E-03
C:/temp/dataset/9/21_9.odb,Step-1,Increment      1: Step Time =    1.000,"PART-1-1",           220,       10.9280,      -5.64335,            0.,NA,NA,"",       2.80913,       2.79356,  -295.326E-03,   3.36825E-03
C:/temp/dataset/9/21_9.odb,Step-1,Increment      1: Step Time =    1.000,"PART-1-1",           221,       11.0667,       5.48495,            0.,NA,NA,"",       4.44081,       4.41950,  -434.536E-03,   145.910E-06
C:/temp/dataset/9/21_9.odb,Step-1,Increment      1: Step Time =    1.000,"PART-1-1",           222,       11.1390,      -12.7671,            0.,NA,NA,"",       1.71344,       1.69670,  -238.950E-03,   14.2773E-03
C:/temp/dataset/9/21_9.odb,Step-1,Increment      1: Step Time =    1.000,"PART-1-1",           223,       11.1627,      -15.1016,            0.,NA,NA,"",       1.36329,       1.34755,  -206.600E-03,   15.4933E-03
C:/temp/dataset/9/21_9.odb,Step-1,Increment      1: Step Time =    1.000,"PART-1-1",           224,      -9.10801,       10.4728,            0.,NA,NA,"",       5.88584,       5.35647,       2.43953,   26.7049E-06
C:/temp/dataset/9/21_9.odb,Step-1,Increment      1: Step Time =    1.000,"PART-1-1",           225,      -9.12162,       8.28854,            0.,NA,NA,"",       5.60988,       5.03947,       2.46465,   32.1359E-06
C:/temp/dataset/9/21_9.odb,Step-1,Increment      1: Step Time =    1.000,"PART-1-1",           226,      -8.73753,       18.6317,            0.,NA,NA,"",       6.92981,       6.53722,       2.29935,   30.2688E-06
C:/temp/dataset/9/21_9.odb,Step-1,Increment      1: Step Time =    1.000,"PART-1-1",           227,      -9.90634,  -397.381E-03,            0.,NA,NA,"",       4.63405,       3.78731,       2.67034,   45.5682E-06
C:/temp/dataset/9/21_9.odb,Step-1,Increment      1: Step Time =    1.000,"PART-1-1",           228,       9.93939,       19.9385,            0.,NA,NA,"",       6.54361,       6.52986,  -424.024E-03,   33.9799E-06
C:/temp/dataset/9/21_9.odb,Step-1,Increment      1: Step Time =    1.000,"PART-1-1",           229,       5.70370,       25.8085,            0.,NA,NA,"",       7.42722,       7.42612,   128.340E-03,   19.4089E-06
C:/temp/dataset/9/21_9.odb,Step-1,Increment      1: Step Time =    1.000,"PART-1-1",           230,       10.0348,       12.2094,            0.,NA,NA,"",       5.41884,       5.40714,  -356.001E-03,   28.5854E-06
C:/temp/dataset/9/21_9.odb,Step-1,Increment      1: Step Time =    1.000,"PART-1-1",           231,       9.98921,       17.4486,            0.,NA,NA,"",       6.18135,       6.16807,  -404.896E-03,   30.4260E-06
C:/temp/dataset/9/21_9.odb,Step-1,Increment      1: Step Time =    1.000,"PART-1-1",           232,       10.1044,       9.10575,            0.,NA,NA,"",       4.96686,       4.95567,  -333.182E-03,   41.2655E-06
C:/temp/dataset/9/21_9.odb,Step-1,Increment      1: Step Time =    1.000,"PART-1-1",           233,      -3.11139,      -1.10310,            0.,NA,NA,"",       3.98963,       3.61310,       1.69192,   55.3338E-06
C:/temp/dataset/9/21_9.odb,Step-1,Increment      1: Step Time =    1.000,"PART-1-1",           234,      -6.48507,       25.5695,            0.,NA,NA,"",       7.75637,       7.52031,       1.89900,   10.0863E-06
C:/temp/dataset/9/21_9.odb,Step-1,Increment      1: Step Time =    1.000,"PART-1-1",           235,      -4.76537,       24.8732,            0.,NA,NA,"",       7.58427,       7.40108,       1.65684,   13.3846E-06
C:/temp/dataset/9/21_9.odb,Step-1,Increment      1: Step Time =    1.000,"PART-1-1",           236,      -8.46351,       26.0628,            0.,NA,NA,"",       7.91907,       7.61284,       2.18090,   13.9997E-06
C:/temp/dataset/9/21_9.odb,Step-1,Increment      1: Step Time =    1.000,"PART-1-1",           237,      -9.50218,       15.8804,            0.,NA,NA,"",       6.61230,       6.14585,       2.43948,   29.7415E-06
C:/temp/dataset/9/21_9.odb,Step-1,Increment      1: Step Time =    1.000,"PART-1-1",           238,      -5.29510,      -1.38770,            0.,NA,NA,"",       4.11951,       3.59492,       2.01169,   49.4006E-06
C:/temp/dataset/9/21_9.odb,Step-1,Increment      1: Step Time =    1.000,"PART-1-1",           239,       11.0587,      -21.7318,            0.,NA,NA,"",   513.075E-03,   503.744E-03,  -97.4037E-03,   17.2272E-03
C:/temp/dataset/9/21_9.odb,Step-1,Increment      1: Step Time =    1.000,"PART-1-1",           240,       11.1670,      -17.4071,            0.,NA,NA,"",       1.03860,       1.02438,  -171.291E-03,   16.1744E-03
C:/temp/dataset/9/21_9.odb,Step-1,Increment      1: Step Time =    1.000,"PART-1-1",           241,       11.0513,      -8.06140,            0.,NA,NA,"",       2.44229,       2.42534,  -287.293E-03,   7.46508E-03
C:/temp/dataset/9/21_9.odb,Step-1,Increment      1: Step Time =    1.000,"PART-1-1",           242,       10.1357,   7.39639E-03,            0.,NA,NA,"",       3.64100,       3.63309,  -239.991E-03,   354.166E-06
C:/temp/dataset/9/21_9.odb,Step-1,Increment      1: Step Time =    1.000,"PART-1-1",           243,       10.6886,      -3.06387,            0.,NA,NA,"",       3.19144,       3.17846,  -287.554E-03,   808.603E-06
C:/temp/dataset/9/21_9.odb,Step-1,Increment      1: Step Time =    1.000,"PART-1-1",           244,       9.76329,       22.4053,            0.,NA,NA,"",       6.90263,       6.88956,  -424.579E-03,   30.7909E-06
C:/temp/dataset/9/21_9.odb,Step-1,Increment      1: Step Time =    1.000,"PART-1-1",           245,       8.68231,      -3.74099,            0.,NA,NA,"",       3.10287,       3.10285,   11.8949E-03,   1.62521E-03
C:/temp/dataset/9/21_9.odb,Step-1,Increment      1: Step Time =    1.000,"PART-1-1",           246,      -9.34414,       6.30777,            0.,NA,NA,"",       5.37986,       4.75426,       2.51791,   31.3414E-06
C:/temp/dataset/9/21_9.odb,Step-1,Increment      1: Step Time =    1.000,"PART-1-1",           247,      -9.93235,       4.61568,            0.,NA,NA,"",       5.22061,       4.51490,       2.62116,   33.2426E-06
C:/temp/dataset/9/21_9.odb,Step-1,Increment      1: Step Time =    1.000,"PART-1-1",           248,      -8.14937,       21.0679,            0.,NA,NA,"",       7.22402,       6.88465,       2.18817,   20.0573E-06
C:/temp/dataset/9/21_9.odb,Step-1,Increment      1: Step Time =    1.000,"PART-1-1",           249,       10.7972,      -23.3791,            0.,NA,NA,"",   347.378E-03,   342.604E-03,  -57.3982E-03,   16.4422E-03
C:/temp/dataset/9/21_9.odb,Step-1,Increment      1: Step Time =    1.000,"PART-1-1",           250,       4.15357,   65.4176E-03,            0.,NA,NA,"",       3.75775,       3.70502,   627.296E-03,   431.538E-06
C:/temp/dataset/9/21_9.odb,Step-1,Increment      1: Step Time =    1.000,"PART-1-1",           251,       8.71950,       3.82470,            0.,NA,NA,"",       4.20362,       4.20294,  -75.2573E-03,   270.715E-06
C:/temp/dataset/9/21_9.odb,Step-1,Increment      1: Step Time =    1.000,"PART-1-1",           252,       5.00281,       23.5204,            0.,NA,NA,"",       7.10614,       7.10159,   254.252E-03,   30.2118E-06
C:/temp/dataset/9/21_9.odb,Step-1,Increment      1: Step Time =    1.000,"PART-1-1",           253,       7.40149,   60.9774E-03,            0.,NA,NA,"",       3.67319,       3.66983,   157.204E-03,   382.410E-06
C:/temp/dataset/9/21_9.odb,Step-1,Increment      1: Step Time =    1.000,"PART-1-1",           254,      -5.73116,       22.7675,            0.,NA,NA,"",       7.33492,       7.10574,       1.81924,   22.3807E-06
C:/temp/dataset/9/21_9.odb,Step-1,Increment      1: Step Time =    1.000,"PART-1-1",           255,      -5.42683,       1.83799,            0.,NA,NA,"",       4.52808,       4.06407,       1.99669,   44.5990E-06
C:/temp/dataset/9/21_9.odb,Step-1,Increment      1: Step Time =    1.000,"PART-1-1",           256,       6.81561,       24.0815,            0.,NA,NA,"",       7.16387,       7.16385,  -14.6618E-03,   27.3639E-06
C:/temp/dataset/9/21_9.odb,Step-1,Increment      1: Step Time =    1.000,"PART-1-1",           257,      -7.40884,       23.3683,            0.,NA,NA,"",       7.49816,       7.21067,       2.05634,   15.5272E-06
C:/temp/dataset/9/21_9.odb,Step-1,Increment      1: Step Time =    1.000,"PART-1-1",           258,      -3.69176,       23.9755,            0.,NA,NA,"",       7.41496,       7.25946,       1.51057,   21.8314E-06
C:/temp/dataset/9/21_9.odb,Step-1,Increment      1: Step Time =    1.000,"PART-1-1",           259,      -8.10961,       1.76736,            0.,NA,NA,"",       4.72878,       4.08228,       2.38671,   51.7755E-06
C:/temp/dataset/9/21_9.odb,Step-1,Increment      1: Step Time =    1.000,"PART-1-1",           260,       5.94930,   61.4696E-03,            0.,NA,NA,"",       3.70350,       3.68521,   367.607E-03,   374.440E-06
C:/temp/dataset/9/21_9.odb,Step-1,Increment      1: Step Time =    1.000,"PART-1-1",           261,       1.93878,   62.7924E-03,            0.,NA,NA,"",       3.84694,       3.72837,   947.728E-03,   342.376E-06
C:/temp/dataset/9/21_9.odb,Step-1,Increment      1: Step Time =    1.000,"PART-1-1",           262,       6.71051,      -4.41826,            0.,NA,NA,"",       3.04448,       3.02916,   305.014E-03,   2.72207E-03
C:/temp/dataset/9/21_9.odb,Step-1,Increment      1: Step Time =    1.000,"PART-1-1",           263,      -12.5366,      -2.82410,            0.,NA,NA,"",       4.63307,       3.46310,       3.07770,   19.8921E-06
C:/temp/dataset/9/21_9.odb,Step-1,Increment      1: Step Time =    1.000,"PART-1-1",           264,       6.75090,       4.53602,            0.,NA,NA,"",       4.33161,       4.32684,   203.166E-03,   289.396E-06
C:/temp/dataset/9/21_9.odb,Step-1,Increment      1: Step Time =    1.000,"PART-1-1",           265,      -5.22339,       3.46233,            0.,NA,NA,"",       4.71922,       4.29750,       1.95001,   58.7057E-06
C:/temp/dataset/9/21_9.odb,Step-1,Increment      1: Step Time =    1.000,"PART-1-1",           266,       4.93795,       21.9167,            0.,NA,NA,"",       6.87537,       6.86964,   280.664E-03,   43.3699E-06
C:/temp/dataset/9/21_9.odb,Step-1,Increment      1: Step Time =    1.000,"PART-1-1",           267,       8.13144,      -1.42002,            0.,NA,NA,"",       3.44745,       3.44679,   67.3434E-03,   540.432E-06
C:/temp/dataset/9/21_9.odb,Step-1,Increment      1: Step Time =    1.000,"PART-1-1",           268,      -3.13115,       1.39136,            0.,NA,NA,"",       4.31094,       3.97497,       1.66846,   35.9655E-06
C:/temp/dataset/9/21_9.odb,Step-1,Increment      1: Step Time =    1.000,"PART-1-1",           269,       9.17709,       6.32873,            0.,NA,NA,"",       4.56513,       4.56200,  -168.772E-03,   152.231E-06
C:/temp/dataset/9/21_9.odb,Step-1,Increment      1: Step Time =    1.000,"PART-1-1",           270,      -11.0423,       1.34077,            0.,NA,NA,"",       4.93447,       4.05149,       2.81682,   41.1604E-06
C:/temp/dataset/9/21_9.odb,Step-1,Increment      1: Step Time =    1.000,"PART-1-1",           271,      -10.1478,       26.6048,            0.,NA,NA,"",       8.08012,       7.70933,       2.41960,   15.0384E-06
C:/temp/dataset/9/21_9.odb,Step-1,Increment      1: Step Time =    1.000,"PART-1-1",           272,      -10.1118,       21.9370,            0.,NA,NA,"",       7.45072,       7.03156,       2.46380,   11.5726E-06
C:/temp/dataset/9/21_9.odb,Step-1,Increment      1: Step Time =    1.000,"PART-1-1",           273,       8.13886,       1.50501,            0.,NA,NA,"",       3.87208,       3.87193,   34.3714E-03,   324.195E-06
C:/temp/dataset/9/21_9.odb,Step-1,Increment      1: Step Time =    1.000,"PART-1-1",           274,      -7.06249,   219.393E-03,            0.,NA,NA,"",       4.45694,       3.84666,       2.25112,   50.9705E-06
C:/temp/dataset/9/21_9.odb,Step-1,Increment      1: Step Time =    1.000,"PART-1-1",           275,      -5.40522,   241.534E-03,            0.,NA,NA,"",       4.32766,       3.83233,       2.01043,   41.7681E-06
C:/temp/dataset/9/21_9.odb,Step-1,Increment      1: Step Time =    1.000,"PART-1-1",           276,      -3.80180,   194.541E-03,            0.,NA,NA,"",       4.20329,       3.80856,       1.77835,   30.9237E-06
C:/temp/dataset/9/21_9.odb,Step-1,Increment      1: Step Time =    1.000,"PART-1-1",           277,      -2.71285,       28.4954,            0.,NA,NA,"",       8.01449,       7.90491,       1.32076,   15.3649E-06
C:/temp/dataset/9/21_9.odb,Step-1,Increment      1: Step Time =    1.000,"PART-1-1",           278,         -3.75,           30.,            0.,NA,NA,"",       8.26335,       8.13419,       1.45531,   25.0769E-06
C:/temp/dataset/9/21_9.odb,Step-1,Increment      1: Step Time =    1.000,"PART-1-1",           279,      -5.26224,       28.8665,            0.,NA,NA,"",       8.16194,       7.98576,       1.68670,   19.6881E-06
C:/temp/dataset/9/21_9.odb,Step-1,Increment      1: Step Time =    1.000,"PART-1-1",           280,      -4.22509,       27.3619,            0.,NA,NA,"",       7.91024,       7.75646,       1.55213,   11.1655E-06
C:/temp/dataset/9/21_9.odb,Step-1,Increment      1: Step Time =    1.000,"PART-1-1",           281,      -3.84553,       25.9321,            0.,NA,NA,"",       7.69502,       7.54498,       1.51219,   13.0422E-06
C:/temp/dataset/9/21_9.odb,Step-1,Increment      1: Step Time =    1.000,"PART-1-1",           282,      -6.00478,       26.6512,            0.,NA,NA,"",       7.88462,       7.67219,       1.81787,   10.0945E-06
C:/temp/dataset/9/21_9.odb,Step-1,Increment      1: Step Time =    1.000,"PART-1-1",           283,      -5.62522,       25.2214,            0.,NA,NA,"",       7.66961,       7.46070,       1.77792,   9.87367E-06
C:/temp/dataset/9/21_9.odb,Step-1,Increment      1: Step Time =    1.000,"PART-1-1",           284,      -10.0879,       29.0985,            0.,NA,NA,"",       8.41547,       8.07058,       2.38453,   12.3760E-06
C:/temp/dataset/9/21_9.odb,Step-1,Increment      1: Step Time =    1.000,"PART-1-1",           285,        -11.25,           30.,            0.,NA,NA,"",       8.59857,       8.21372,       2.54364,   8.54398E-06
C:/temp/dataset/9/21_9.odb,Step-1,Increment      1: Step Time =    1.000,"PART-1-1",           286,      -12.4706,       28.9480,            0.,NA,NA,"",       8.52364,       8.07397,       2.73192,   5.79130E-06
C:/temp/dataset/9/21_9.odb,Step-1,Increment      1: Step Time =    1.000,"PART-1-1",           287,      -11.3086,       28.0465,            0.,NA,NA,"",       8.33772,       7.93084,       2.57281,   11.6474E-06
C:/temp/dataset/9/21_9.odb,Step-1,Increment      1: Step Time =    1.000,"PART-1-1",           288,      -13.4495,       25.5029,            0.,NA,NA,"",       8.12366,       7.58439,       2.91046,   11.3836E-06
C:/temp/dataset/9/21_9.odb,Step-1,Increment      1: Step Time =    1.000,"PART-1-1",           289,          -15.,       24.5313,            0.,NA,NA,"",       8.09595,       7.45979,       3.14579,   15.6926E-06
C:/temp/dataset/9/21_9.odb,Step-1,Increment      1: Step Time =    1.000,"PART-1-1",           290,      -13.6920,       23.1529,            0.,NA,NA,"",       7.83119,       7.24591,       2.97057,   15.2827E-06
C:/temp/dataset/9/21_9.odb,Step-1,Increment      1: Step Time =    1.000,"PART-1-1",           291,      -12.1415,       24.1246,            0.,NA,NA,"",       7.86168,       7.37052,       2.73522,   13.4899E-06
C:/temp/dataset/9/21_9.odb,Step-1,Increment      1: Step Time =    1.000,"PART-1-1",           292,          8.75,          -30.,            0.,NA,NA,"",            0.,  -754.721E-42,   25.9877E-39,   13.0503E-03
C:/temp/dataset/9/21_9.odb,Step-1,Increment      1: Step Time =    1.000,"PART-1-1",           293,       9.96407,      -28.8633,            0.,NA,NA,"",   10.6677E-03,   10.6355E-03,   828.350E-06,   6.69875E-03
C:/temp/dataset/9/21_9.odb,Step-1,Increment      1: Step Time =    1.000,"PART-1-1",           294,       8.68711,      -27.7998,            0.,NA,NA,"",   58.2553E-03,   50.2632E-03,   29.4497E-03,   23.0876E-03
C:/temp/dataset/9/21_9.odb,Step-1,Increment      1: Step Time =    1.000,"PART-1-1",           295,       7.47304,      -28.9365,            0.,NA,NA,"",   31.6792E-03,   18.0765E-03,   26.0156E-03,   31.0299E-03
C:/temp/dataset/9/21_9.odb,Step-1,Increment      1: Step Time =    1.000,"PART-1-1",           296,       10.9279,      -22.5555,            0.,NA,NA,"",   427.213E-03,   420.351E-03,  -76.2614E-03,   16.7943E-03
C:/temp/dataset/9/21_9.odb,Step-1,Increment      1: Step Time =    1.000,"PART-1-1",           297,       10.0765,      -21.6813,            0.,NA,NA,"",   511.199E-03,   510.942E-03,  -16.1840E-03,   14.5494E-03
C:/temp/dataset/9/21_9.odb,Step-1,Increment      1: Step Time =    1.000,"PART-1-1",           298,       9.14242,      -22.6395,            0.,NA,NA,"",   422.737E-03,   418.692E-03,   58.3384E-03,   17.3295E-03
C:/temp/dataset/9/21_9.odb,Step-1,Increment      1: Step Time =    1.000,"PART-1-1",           299,       9.99384,      -23.5137,            0.,NA,NA,"",   331.808E-03,   331.799E-03,  -2.46697E-03,   14.8656E-03
C:/temp/dataset/9/21_9.odb,Step-1,Increment      1: Step Time =    1.000,"PART-1-1",           300,       7.08785,      -18.4988,            0.,NA,NA,"",   959.872E-03,   917.190E-03,   283.048E-03,   22.9536E-03
C:/temp/dataset/9/21_9.odb,Step-1,Increment      1: Step Time =    1.000,"PART-1-1",           301,       6.04673,      -17.4684,            0.,NA,NA,"",       1.14962,       1.07121,   417.311E-03,   25.9325E-03
C:/temp/dataset/9/21_9.odb,Step-1,Increment      1: Step Time =    1.000,"PART-1-1",           302,            5.,      -18.5417,            0.,NA,NA,"",       1.08725,   952.226E-03,   524.768E-03,   35.7187E-03
C:/temp/dataset/9/21_9.odb,Step-1,Increment      1: Step Time =    1.000,"PART-1-1",           303,       6.04112,      -19.5721,            0.,NA,NA,"",   887.304E-03,   801.107E-03,   381.493E-03,   31.5381E-03
C:/temp/dataset/9/21_9.odb,Step-1,Increment      1: Step Time =    1.000,"PART-1-1",           304,       7.10245,      -14.2066,            0.,NA,NA,"",       1.55033,       1.52055,   302.406E-03,   15.4120E-03
C:/temp/dataset/9/21_9.odb,Step-1,Increment      1: Step Time =    1.000,"PART-1-1",           305,       6.04975,      -13.2285,            0.,NA,NA,"",       1.74491,       1.68630,   448.471E-03,   14.8954E-03
C:/temp/dataset/9/21_9.odb,Step-1,Increment      1: Step Time =    1.000,"PART-1-1",           306,            5.,       -14.375,            0.,NA,NA,"",       1.64298,       1.53199,   593.620E-03,   22.3326E-03
C:/temp/dataset/9/21_9.odb,Step-1,Increment      1: Step Time =    1.000,"PART-1-1",           307,       6.05270,      -15.3531,            0.,NA,NA,"",       1.43651,       1.36778,   439.045E-03,   20.4556E-03
C:/temp/dataset/9/21_9.odb,Step-1,Increment      1: Step Time =    1.000,"PART-1-1",           308,            5.,      -6.04167,            0.,NA,NA,"",       2.88128,       2.82534,   565.023E-03,   6.85411E-03
C:/temp/dataset/9/21_9.odb,Step-1,Increment      1: Step Time =    1.000,"PART-1-1",           309,       5.97724,      -6.85181,            0.,NA,NA,"",       2.72368,       2.68949,   430.244E-03,   8.87176E-03
C:/temp/dataset/9/21_9.odb,Step-1,Increment      1: Step Time =    1.000,"PART-1-1",           310,       6.83249,      -5.51927,            0.,NA,NA,"",       2.88438,       2.86903,   297.214E-03,   5.51644E-03
C:/temp/dataset/9/21_9.odb,Step-1,Increment      1: Step Time =    1.000,"PART-1-1",           311,       5.85525,      -4.70913,            0.,NA,NA,"",       3.02898,       2.99803,   431.875E-03,   3.36615E-03
C:/temp/dataset/9/21_9.odb,Step-1,Increment      1: Step Time =    1.000,"PART-1-1",           312,       4.27314,       1.25089,            0.,NA,NA,"",       3.92154,       3.87574,   597.568E-03,   313.346E-06
C:/temp/dataset/9/21_9.odb,Step-1,Increment      1: Step Time =    1.000,"PART-1-1",           313,       3.27994,       2.49943,            0.,NA,NA,"",       4.13222,       4.06755,   728.202E-03,   255.839E-06
C:/temp/dataset/9/21_9.odb,Step-1,Increment      1: Step Time =    1.000,"PART-1-1",           314,       2.05297,       1.31265,            0.,NA,NA,"",       4.01482,       3.90841,   918.220E-03,   260.432E-06
C:/temp/dataset/9/21_9.odb,Step-1,Increment      1: Step Time =    1.000,"PART-1-1",           315,       3.04617,   64.1050E-03,            0.,NA,NA,"",       3.79915,       3.71663,   787.507E-03,   364.009E-06
C:/temp/dataset/9/21_9.odb,Step-1,Increment      1: Step Time =    1.000,"PART-1-1",           316,       6.28410,       12.4112,            0.,NA,NA,"",       5.47930,       5.47612,   186.580E-03,   92.1201E-06
C:/temp/dataset/9/21_9.odb,Step-1,Increment      1: Step Time =    1.000,"PART-1-1",           317,            5.,         11.25,            0.,NA,NA,"",       5.33500,       5.32106,   385.497E-03,   131.559E-06
C:/temp/dataset/9/21_9.odb,Step-1,Increment      1: Step Time =    1.000,"PART-1-1",           318,       6.24476,       9.82085,            0.,NA,NA,"",       5.10510,       5.10036,   219.985E-03,   104.126E-06
C:/temp/dataset/9/21_9.odb,Step-1,Increment      1: Step Time =    1.000,"PART-1-1",           319,       7.52885,       10.9821,            0.,NA,NA,"",       5.25549,       5.25544,   21.0324E-03,   68.2923E-06
C:/temp/dataset/9/21_9.odb,Step-1,Increment      1: Step Time =    1.000,"PART-1-1",           320,       6.23557,       19.9374,            0.,NA,NA,"",       6.56984,       6.56886,   113.455E-03,   51.5173E-06
C:/temp/dataset/9/21_9.odb,Step-1,Increment      1: Step Time =    1.000,"PART-1-1",           321,            5.,         18.75,            0.,NA,NA,"",       6.41691,       6.40964,   305.347E-03,   90.8373E-06
C:/temp/dataset/9/21_9.odb,Step-1,Increment      1: Step Time =    1.000,"PART-1-1",           322,       6.25255,       17.4722,            0.,NA,NA,"",       6.21252,       6.21101,   137.201E-03,   67.6224E-06
C:/temp/dataset/9/21_9.odb,Step-1,Increment      1: Step Time =    1.000,"PART-1-1",           323,       7.48812,       18.6595,            0.,NA,NA,"",       6.37047,       6.37024,  -54.7301E-03,   41.4412E-06
C:/temp/dataset/9/21_9.odb,Step-1,Increment      1: Step Time =    1.000,"PART-1-1",           324,       12.4612,       28.7577,            0.,NA,NA,"",       7.83246,       7.78251,  -883.211E-03,   5.17187E-06
C:/temp/dataset/9/21_9.odb,Step-1,Increment      1: Step Time =    1.000,"PART-1-1",           325,         11.25,           30.,            0.,NA,NA,"",       8.00804,       7.97555,  -720.646E-03,   5.72469E-06
C:/temp/dataset/9/21_9.odb,Step-1,Increment      1: Step Time =    1.000,"PART-1-1",           326,       9.95383,       28.8406,            0.,NA,NA,"",       7.83835,       7.82106,  -520.331E-03,   10.3673E-06
C:/temp/dataset/9/21_9.odb,Step-1,Increment      1: Step Time =    1.000,"PART-1-1",           327,       11.1650,       27.5983,            0.,NA,NA,"",       7.65854,       7.62803,  -682.899E-03,   11.0981E-06
C:/temp/dataset/9/21_9.odb,Step-1,Increment      1: Step Time =    1.000,"PART-1-1",           328,       9.61193,       26.3742,            0.,NA,NA,"",       7.48012,       7.46689,  -444.628E-03,   16.7786E-06
C:/temp/dataset/9/21_9.odb,Step-1,Increment      1: Step Time =    1.000,"PART-1-1",           329,       10.8062,       25.0400,            0.,NA,NA,"",       7.28579,       7.26073,  -603.780E-03,   18.7348E-06
C:/temp/dataset/9/21_9.odb,Step-1,Increment      1: Step Time =    1.000,"PART-1-1",           330,       12.3592,       26.2641,            0.,NA,NA,"",       7.46947,       7.42185,  -842.051E-03,   13.9379E-06
C:/temp/dataset/9/21_9.odb,Step-1,Increment      1: Step Time =    1.000,"PART-1-1",           331,       7.54419,       28.9985,            0.,NA,NA,"",       7.87132,       7.86943,  -172.425E-03,   13.9383E-06
C:/temp/dataset/9/21_9.odb,Step-1,Increment      1: Step Time =    1.000,"PART-1-1",           332,          6.25,           30.,            0.,NA,NA,"",       8.02839,       8.02838,   4.72024E-03,   15.0572E-06
C:/temp/dataset/9/21_9.odb,Step-1,Increment      1: Step Time =    1.000,"PART-1-1",           333,       5.09159,       28.9175,            0.,NA,NA,"",       7.88574,       7.88359,   184.219E-03,   13.0420E-06
C:/temp/dataset/9/21_9.odb,Step-1,Increment      1: Step Time =    1.000,"PART-1-1",           334,       6.38578,       27.9160,            0.,NA,NA,"",       7.72464,       7.72464,   7.08124E-03,   12.0351E-06
C:/temp/dataset/9/21_9.odb,Step-1,Increment      1: Step Time =    1.000,"PART-1-1",           335,       2.95769,       26.1428,            0.,NA,NA,"",       7.52183,       7.50362,   523.115E-03,   21.8684E-06
C:/temp/dataset/9/21_9.odb,Step-1,Increment      1: Step Time =    1.000,"PART-1-1",           336,       4.45909,       25.3098,            0.,NA,NA,"",       7.37362,       7.36692,   314.160E-03,   22.0578E-06
C:/temp/dataset/9/21_9.odb,Step-1,Increment      1: Step Time =    1.000,"PART-1-1",           337,       5.44343,       26.8217,            0.,NA,NA,"",       7.57745,       7.57585,   155.364E-03,   16.2365E-06
C:/temp/dataset/9/21_9.odb,Step-1,Increment      1: Step Time =    1.000,"PART-1-1",           338,       3.94204,       27.6547,            0.,NA,NA,"",       7.72115,       7.71255,   364.331E-03,   14.9347E-06
C:/temp/dataset/9/21_9.odb,Step-1,Increment      1: Step Time =    1.000,"PART-1-1",           339,       6.06395,       7.26936,            0.,NA,NA,"",       4.73940,       4.73149,   273.574E-03,   110.147E-06
C:/temp/dataset/9/21_9.odb,Step-1,Increment      1: Step Time =    1.000,"PART-1-1",           340,       7.30871,       8.34021,            0.,NA,NA,"",       4.87468,       4.87400,   81.2254E-03,   91.2815E-06
C:/temp/dataset/9/21_9.odb,Step-1,Increment      1: Step Time =    1.000,"PART-1-1",           341,            5.,          8.75,            0.,NA,NA,"",       4.97505,       4.95793,   412.336E-03,   135.700E-06
C:/temp/dataset/9/21_9.odb,Step-1,Increment      1: Step Time =    1.000,"PART-1-1",           342,      -13.9291,       1.47830,            0.,NA,NA,"",       5.22374,       4.10204,       3.23430,   34.5853E-06
C:/temp/dataset/9/21_9.odb,Step-1,Increment      1: Step Time =    1.000,"PART-1-1",           343,          -15.,    468.75E-03,            0.,NA,NA,"",       5.22481,       3.96691,       3.40033,   29.4209E-06
C:/temp/dataset/9/21_9.odb,Step-1,Increment      1: Step Time =    1.000,"PART-1-1",           344,      -13.8152,  -655.377E-03,            0.,NA,NA,"",       4.98731,       3.79127,       3.24030,   22.4448E-06
C:/temp/dataset/9/21_9.odb,Step-1,Increment      1: Step Time =    1.000,"PART-1-1",           345,      -12.7443,   354.171E-03,            0.,NA,NA,"",       4.98673,       3.92639,       3.07424,   32.7616E-06
C:/temp/dataset/9/21_9.odb,Step-1,Increment      1: Step Time =    1.000,"PART-1-1",           346,      -13.9678,       8.16706,            0.,NA,NA,"",       5.98182,       5.07321,       3.16933,   38.1880E-06
C:/temp/dataset/9/21_9.odb,Step-1,Increment      1: Step Time =    1.000,"PART-1-1",           347,          -15.,       7.03125,            0.,NA,NA,"",       5.94104,       4.91928,       3.33115,   50.2043E-06
C:/temp/dataset/9/21_9.odb,Step-1,Increment      1: Step Time =    1.000,"PART-1-1",           348,      -13.6804,       5.85321,            0.,NA,NA,"",       5.68760,       4.73428,       3.15205,   42.3971E-06
C:/temp/dataset/9/21_9.odb,Step-1,Increment      1: Step Time =    1.000,"PART-1-1",           349,      -12.6482,       6.98902,            0.,NA,NA,"",       5.73028,       4.88820,       2.99024,   32.0988E-06
C:/temp/dataset/9/21_9.odb,Step-1,Increment      1: Step Time =    1.000,"PART-1-1",           350,      -5.93089,       17.7206,            0.,NA,NA,"",       6.65276,       6.37521,       1.90158,   35.2559E-06
C:/temp/dataset/9/21_9.odb,Step-1,Increment      1: Step Time =    1.000,"PART-1-1",           351,      -7.00986,       16.6597,            0.,NA,NA,"",       6.56718,       6.23260,       2.06944,   31.6852E-06
C:/temp/dataset/9/21_9.odb,Step-1,Increment      1: Step Time =    1.000,"PART-1-1",           352,      -6.07897,       15.1891,            0.,NA,NA,"",       6.31762,       6.00919,       1.94986,   18.7937E-06
C:/temp/dataset/9/21_9.odb,Step-1,Increment      1: Step Time =    1.000,"PART-1-1",           353,           -5.,         16.25,            0.,NA,NA,"",       6.40468,       6.15178,       1.78198,   24.5081E-06
C:/temp/dataset/9/21_9.odb,Step-1,Increment      1: Step Time =    1.000,"PART-1-1",           354,      -7.79966,       18.2865,            0.,NA,NA,"",       6.83001,       6.47717,       2.16687,   35.3464E-06
C:/temp/dataset/9/21_9.odb,Step-1,Increment      1: Step Time =    1.000,"PART-1-1",           355,      -6.65288,       19.1839,            0.,NA,NA,"",       6.88928,       6.59533,       1.99092,   38.8044E-06
C:/temp/dataset/9/21_9.odb,Step-1,Increment      1: Step Time =    1.000,"PART-1-1",           356,      -7.29668,       20.7472,            0.,NA,NA,"",       7.13528,       6.82909,       2.06780,   27.2143E-06
C:/temp/dataset/9/21_9.odb,Step-1,Increment      1: Step Time =    1.000,"PART-1-1",           357,      -8.44345,       19.8498,            0.,NA,NA,"",       7.07610,       6.71095,       2.24376,   22.4813E-06
C:/temp/dataset/9/21_9.odb,Step-1,Increment      1: Step Time =    1.000,"PART-1-1",           358,      -2.59303,       4.06073,            0.,NA,NA,"",       4.62797,       4.35629,       1.56234,   113.435E-06
C:/temp/dataset/9/21_9.odb,Step-1,Increment      1: Step Time =    1.000,"PART-1-1",           359,      -1.46713,       2.91047,            0.,NA,NA,"",       4.40949,       4.17755,       1.41128,   97.8613E-06
C:/temp/dataset/9/21_9.odb,Step-1,Increment      1: Step Time =    1.000,"PART-1-1",           360,  -124.098E-03,       3.84974,            0.,NA,NA,"",       4.46559,       4.29942,       1.20685,   96.8178E-06
C:/temp/dataset/9/21_9.odb,Step-1,Increment      1: Step Time =    1.000,"PART-1-1",           361,         -1.25,            5.,            0.,NA,NA,"",       4.67945,       4.47810,       1.35787,   119.845E-06
C:/temp/dataset/9/21_9.odb,Step-1,Increment      1: Step Time =    1.000,"PART-1-1",           362,      -11.2683,  -541.568E-03,            0.,NA,NA,"",       4.74644,       3.78081,       2.86952,   37.7121E-06
C:/temp/dataset/9/21_9.odb,Step-1,Increment      1: Step Time =    1.000,"PART-1-1",           363,      -10.4743,   471.696E-03,            0.,NA,NA,"",       4.78423,       3.91939,       2.74358,   42.1104E-06
C:/temp/dataset/9/21_9.odb,Step-1,Increment      1: Step Time =    1.000,"PART-1-1",           364,      -11.9503,       1.36743,            0.,NA,NA,"",       5.02161,       4.06498,       2.94831,   37.3535E-06
C:/temp/dataset/9/21_9.odb,Step-1,Increment      1: Step Time =    1.000,"PART-1-1",           365,      -13.0095,       9.29789,            0.,NA,NA,"",       6.03605,       5.22723,       3.01828,   30.5162E-06
C:/temp/dataset/9/21_9.odb,Step-1,Increment      1: Step Time =    1.000,"PART-1-1",           366,      -14.0417,       10.3496,            0.,NA,NA,"",       6.24725,       5.39087,       3.15700,   28.3452E-06
C:/temp/dataset/9/21_9.odb,Step-1,Increment      1: Step Time =    1.000,"PART-1-1",           367,          -15.,       9.21875,            0.,NA,NA,"",       6.19419,       5.23685,       3.30807,   38.9042E-06
C:/temp/dataset/9/21_9.odb,Step-1,Increment      1: Step Time =    1.000,"PART-1-1",           368,      -6.40766,      -1.28741,            0.,NA,NA,"",       4.22267,       3.62121,       2.17205,   48.3846E-06
C:/temp/dataset/9/21_9.odb,Step-1,Increment      1: Step Time =    1.000,"PART-1-1",           369,      -5.35016,  -573.084E-03,            0.,NA,NA,"",       4.22319,       3.71362,       2.01106,   46.0522E-06
C:/temp/dataset/9/21_9.odb,Step-1,Increment      1: Step Time =    1.000,"PART-1-1",           370,      -6.23385,   230.463E-03,            0.,NA,NA,"",       4.39112,       3.83950,       2.13077,   46.1194E-06
C:/temp/dataset/9/21_9.odb,Step-1,Increment      1: Step Time =    1.000,"PART-1-1",           371,      -7.29135,  -483.859E-03,            0.,NA,NA,"",       4.39237,       3.74709,       2.29177,   48.9166E-06
C:/temp/dataset/9/21_9.odb,Step-1,Increment      1: Step Time =    1.000,"PART-1-1",           372,   952.242E-03,      -2.53706,            0.,NA,NA,"",       3.54320,       3.36231,       1.11763,   381.701E-06
C:/temp/dataset/9/21_9.odb,Step-1,Increment      1: Step Time =    1.000,"PART-1-1",           373,  -130.910E-03,      -3.80019,            0.,NA,NA,"",       3.44100,       3.19079,       1.28816,   149.648E-06
C:/temp/dataset/9/21_9.odb,Step-1,Increment      1: Step Time =    1.000,"PART-1-1",           374,          1.25,           -5.,            0.,NA,NA,"",       3.19778,       3.00239,       1.10065,   373.042E-06
C:/temp/dataset/9/21_9.odb,Step-1,Increment      1: Step Time =    1.000,"PART-1-1",           375,       2.33315,      -3.73687,            0.,NA,NA,"",       3.30786,       3.17454,   929.637E-03,   374.175E-06
C:/temp/dataset/9/21_9.odb,Step-1,Increment      1: Step Time =    1.000,"PART-1-1",           376,       4.26686,      -1.13377,            0.,NA,NA,"",       3.58443,       3.52979,   623.488E-03,   465.317E-06
C:/temp/dataset/9/21_9.odb,Step-1,Increment      1: Step Time =    1.000,"PART-1-1",           377,       2.05254,      -1.20548,            0.,NA,NA,"",       3.66707,       3.54338,   944.407E-03,   304.259E-06
C:/temp/dataset/9/21_9.odb,Step-1,Increment      1: Step Time =    1.000,"PART-1-1",           378,       3.27323,      -2.40335,            0.,NA,NA,"",       3.44635,       3.35695,   779.875E-03,   798.024E-06
C:/temp/dataset/9/21_9.odb,Step-1,Increment      1: Step Time =    1.000,"PART-1-1",           379,       10.4325,       1.51548,            0.,NA,NA,"",       3.86099,       3.84935,  -299.619E-03,   285.190E-06
C:/temp/dataset/9/21_9.odb,Step-1,Increment      1: Step Time =    1.000,"PART-1-1",           380,       11.3847,  -3.51279E-03,            0.,NA,NA,"",       3.64271,       3.61816,  -422.168E-03,   281.611E-06
C:/temp/dataset/9/21_9.odb,Step-1,Increment      1: Step Time =    1.000,"PART-1-1",           381,       12.7244,       1.31309,            0.,NA,NA,"",       3.84772,       3.79550,  -631.783E-03,   326.265E-06
C:/temp/dataset/9/21_9.odb,Step-1,Increment      1: Step Time =    1.000,"PART-1-1",           382,       11.7722,       2.83209,            0.,NA,NA,"",       4.05861,       4.02657,  -509.000E-03,   245.789E-06
C:/temp/dataset/9/21_9.odb,Step-1,Increment      1: Step Time =    1.000,"PART-1-1",           383,       9.00808,      -7.25637,            0.,NA,NA,"",       2.57671,       2.57671,  -3.69359E-03,   7.60662E-03
C:/temp/dataset/9/21_9.odb,Step-1,Increment      1: Step Time =    1.000,"PART-1-1",           384,       7.95196,      -6.36313,            0.,NA,NA,"",       2.73151,       2.72785,   141.308E-03,   6.64428E-03
C:/temp/dataset/9/21_9.odb,Step-1,Increment      1: Step Time =    1.000,"PART-1-1",           385,       7.00211,      -7.70397,            0.,NA,NA,"",       2.55884,       2.54266,   287.254E-03,   9.96264E-03
C:/temp/dataset/9/21_9.odb,Step-1,Increment      1: Step Time =    1.000,"PART-1-1",           386,       8.05823,      -8.59720,            0.,NA,NA,"",       2.39058,       2.38639,   141.404E-03,   11.0451E-03
C:/temp/dataset/9/21_9.odb,Step-1,Increment      1: Step Time =    1.000,"PART-1-1",           387,       7.09104,      -12.0381,            0.,NA,NA,"",       1.88093,       1.85725,   297.544E-03,   14.6552E-03
C:/temp/dataset/9/21_9.odb,Step-1,Increment      1: Step Time =    1.000,"PART-1-1",           388,       6.04129,      -11.1013,            0.,NA,NA,"",       2.07384,       2.02575,   444.021E-03,   13.7927E-03
C:/temp/dataset/9/21_9.odb,Step-1,Increment      1: Step Time =    1.000,"PART-1-1",           389,            5.,      -12.2917,            0.,NA,NA,"",       1.94797,       1.85128,   606.096E-03,   15.4728E-03
C:/temp/dataset/9/21_9.odb,Step-1,Increment      1: Step Time =    1.000,"PART-1-1",           390,       9.13117,      -18.4822,            0.,NA,NA,"",   896.661E-03,   894.530E-03,   61.7843E-03,   15.8156E-03
C:/temp/dataset/9/21_9.odb,Step-1,Increment      1: Step Time =    1.000,"PART-1-1",           391,       10.1297,      -19.6034,            0.,NA,NA,"",   747.958E-03,   747.146E-03,  -34.8349E-03,   14.5017E-03
C:/temp/dataset/9/21_9.odb,Step-1,Increment      1: Step Time =    1.000,"PART-1-1",           392,       11.1535,      -18.5257,            0.,NA,NA,"",   890.953E-03,   877.781E-03,  -152.636E-03,   16.4460E-03
C:/temp/dataset/9/21_9.odb,Step-1,Increment      1: Step Time =    1.000,"PART-1-1",           393,       10.1550,      -17.4045,            0.,NA,NA,"",       1.03106,       1.02948,  -56.9760E-03,   14.5254E-03
C:/temp/dataset/9/21_9.odb,Step-1,Increment      1: Step Time =    1.000,"PART-1-1",           394,       6.27183,       14.9637,            0.,NA,NA,"",       5.84900,       5.84678,   161.128E-03,   80.0249E-06
C:/temp/dataset/9/21_9.odb,Step-1,Increment      1: Step Time =    1.000,"PART-1-1",           395,       7.52438,       16.1859,            0.,NA,NA,"",       6.01101,       6.01092,  -33.7141E-03,   52.5479E-06
C:/temp/dataset/9/21_9.odb,Step-1,Increment      1: Step Time =    1.000,"PART-1-1",           396,            5.,         16.25,            0.,NA,NA,"",       6.05598,       6.04687,   332.023E-03,   97.3163E-06
C:/temp/dataset/9/21_9.odb,Step-1,Increment      1: Step Time =    1.000,"PART-1-1",           397,       2.56719,       21.1071,            0.,NA,NA,"",       6.80675,       6.77724,   633.071E-03,   19.2567E-06
C:/temp/dataset/9/21_9.odb,Step-1,Increment      1: Step Time =    1.000,"PART-1-1",           398,       1.41709,       22.2600,            0.,NA,NA,"",       7.00106,       6.95661,   787.674E-03,   24.6290E-06
C:/temp/dataset/9/21_9.odb,Step-1,Increment      1: Step Time =    1.000,"PART-1-1",           399,   99.9026E-03,       21.1528,            0.,NA,NA,"",       6.88157,       6.80992,   990.449E-03,   27.9824E-06
C:/temp/dataset/9/21_9.odb,Step-1,Increment      1: Step Time =    1.000,"PART-1-1",           400,          1.25,           20.,            0.,NA,NA,"",       6.68304,       6.63056,   835.834E-03,   27.6110E-06
C:/temp/dataset/9/21_9.odb,Step-1,Increment      1: Step Time =    1.000,"PART-1-1",           401,       7.55593,       13.6250,            0.,NA,NA,"",       5.63890,       5.63889,  -11.0523E-03,   61.5277E-06
C:/temp/dataset/9/21_9.odb,Step-1,Increment      1: Step Time =    1.000,"PART-1-1",           402,            5.,         13.75,            0.,NA,NA,"",       5.69533,       5.68402,   358.730E-03,   112.753E-06
C:/temp/dataset/9/21_9.odb,Step-1,Increment      1: Step Time =    1.000,"PART-1-1",           403,       8.77818,       14.9146,            0.,NA,NA,"",       5.81667,       5.81315,  -202.230E-03,   38.3046E-06
C:/temp/dataset/9/21_9.odb,Step-1,Increment      1: Step Time =    1.000,"PART-1-1",           404,       10.0010,       16.1752,            0.,NA,NA,"",       5.99605,       5.98315,  -393.116E-03,   29.7140E-06
C:/temp/dataset/9/21_9.odb,Step-1,Increment      1: Step Time =    1.000,"PART-1-1",           405,       8.74716,       17.4465,            0.,NA,NA,"",       6.18499,       6.18091,  -224.590E-03,   34.8381E-06
C:/temp/dataset/9/21_9.odb,Step-1,Increment      1: Step Time =    1.000,"PART-1-1",           406,       10.1219,       5.90684,            0.,NA,NA,"",       4.50088,       4.49076,  -301.625E-03,   135.143E-06
C:/temp/dataset/9/21_9.odb,Step-1,Increment      1: Step Time =    1.000,"PART-1-1",           407,       8.94830,       5.07672,            0.,NA,NA,"",       4.38417,       4.38248,  -122.046E-03,   210.005E-06
C:/temp/dataset/9/21_9.odb,Step-1,Increment      1: Step Time =    1.000,"PART-1-1",           408,       9.72441,       3.42413,            0.,NA,NA,"",       4.13991,       4.13421,  -217.117E-03,   253.339E-06
C:/temp/dataset/9/21_9.odb,Step-1,Increment      1: Step Time =    1.000,"PART-1-1",           409,       10.8980,       4.25426,            0.,NA,NA,"",       4.26101,       4.24249,  -396.859E-03,   204.585E-06
C:/temp/dataset/9/21_9.odb,Step-1,Increment      1: Step Time =    1.000,"PART-1-1",           410,       8.15250,       6.68373,            0.,NA,NA,"",       4.62443,       4.62437,  -23.6584E-03,   134.509E-06
C:/temp/dataset/9/21_9.odb,Step-1,Increment      1: Step Time =    1.000,"PART-1-1",           411,       9.64075,       7.71724,            0.,NA,NA,"",       4.76548,       4.75887,  -251.020E-03,   87.2263E-06
C:/temp/dataset/9/21_9.odb,Step-1,Increment      1: Step Time =    1.000,"PART-1-1",           412,       8.79696,       9.37373,            0.,NA,NA,"",       5.01056,       5.00843,  -146.059E-03,   52.0488E-06
C:/temp/dataset/9/21_9.odb,Step-1,Increment      1: Step Time =    1.000,"PART-1-1",           413,   959.485E-03,       2.63099,            0.,NA,NA,"",       4.24637,       4.11124,       1.06273,   174.657E-06
C:/temp/dataset/9/21_9.odb,Step-1,Increment      1: Step Time =    1.000,"PART-1-1",           414,       2.33358,       3.78125,            0.,NA,NA,"",       4.34775,       4.26351,   851.698E-03,   130.416E-06
C:/temp/dataset/9/21_9.odb,Step-1,Increment      1: Step Time =    1.000,"PART-1-1",           415,          1.25,            5.,            0.,NA,NA,"",       4.56152,       4.45151,   995.734E-03,   31.0043E-06
C:/temp/dataset/9/21_9.odb,Step-1,Increment      1: Step Time =    1.000,"PART-1-1",           416,      -9.23288,       7.29816,            0.,NA,NA,"",       5.49415,       4.89686,       2.49128,   30.7875E-06
C:/temp/dataset/9/21_9.odb,Step-1,Increment      1: Step Time =    1.000,"PART-1-1",           417,      -8.32915,       6.01548,            0.,NA,NA,"",       5.26635,       4.70107,       2.37369,   37.9634E-06
C:/temp/dataset/9/21_9.odb,Step-1,Increment      1: Step Time =    1.000,"PART-1-1",           418,      -7.21136,       6.82340,            0.,NA,NA,"",       5.28727,       4.80650,       2.20291,   34.3269E-06
C:/temp/dataset/9/21_9.odb,Step-1,Increment      1: Step Time =    1.000,"PART-1-1",           419,      -8.11509,       8.10607,            0.,NA,NA,"",       5.51433,       5.00232,       2.32048,   30.1783E-06
C:/temp/dataset/9/21_9.odb,Step-1,Increment      1: Step Time =    1.000,"PART-1-1",           420,      -13.1318,       11.4675,            0.,NA,NA,"",       6.30948,       5.54354,       3.01308,   25.3470E-06
C:/temp/dataset/9/21_9.odb,Step-1,Increment      1: Step Time =    1.000,"PART-1-1",           421,      -14.0901,       12.5242,            0.,NA,NA,"",       6.51439,       5.70713,       3.14102,   17.3974E-06
C:/temp/dataset/9/21_9.odb,Step-1,Increment      1: Step Time =    1.000,"PART-1-1",           422,          -15.,       11.4063,            0.,NA,NA,"",       6.45313,       5.55446,       3.28495,   23.8456E-06
C:/temp/dataset/9/21_9.odb,Step-1,Increment      1: Step Time =    1.000,"PART-1-1",           423,      -9.35396,       14.3983,            0.,NA,NA,"",       6.40909,       5.92906,       2.43366,   29.0132E-06
C:/temp/dataset/9/21_9.odb,Step-1,Increment      1: Step Time =    1.000,"PART-1-1",           424,      -10.5094,       15.3924,            0.,NA,NA,"",       6.61420,       6.08565,       2.59085,   27.9044E-06
C:/temp/dataset/9/21_9.odb,Step-1,Increment      1: Step Time =    1.000,"PART-1-1",           425,      -11.3610,       13.8160,            0.,NA,NA,"",       6.47045,       5.86579,       2.73117,   27.6135E-06
C:/temp/dataset/9/21_9.odb,Step-1,Increment      1: Step Time =    1.000,"PART-1-1",           426,      -10.2056,       12.8219,            0.,NA,NA,"",       6.26261,       5.70919,       2.57397,   28.4802E-06
C:/temp/dataset/9/21_9.odb,Step-1,Increment      1: Step Time =    1.000,"PART-1-1",           427,      -14.0810,       18.8007,            0.,NA,NA,"",       7.29702,       6.61831,       3.07319,   16.6958E-06
C:/temp/dataset/9/21_9.odb,Step-1,Increment      1: Step Time =    1.000,"PART-1-1",           428,          -15.,       17.9688,            0.,NA,NA,"",       7.25833,       6.50726,       3.21542,   18.0527E-06
C:/temp/dataset/9/21_9.odb,Step-1,Increment      1: Step Time =    1.000,"PART-1-1",           429,      -14.2329,       16.7349,            0.,NA,NA,"",       7.04692,       6.32001,       3.11715,   11.0696E-06
C:/temp/dataset/9/21_9.odb,Step-1,Increment      1: Step Time =    1.000,"PART-1-1",           430,      -13.3139,       17.5668,            0.,NA,NA,"",       7.08581,       6.43106,       2.97492,   13.4870E-06
C:/temp/dataset/9/21_9.odb,Step-1,Increment      1: Step Time =    1.000,"PART-1-1",           431,      -12.9537,       19.5700,            0.,NA,NA,"",       7.31781,       6.71805,       2.90139,   11.9130E-06
C:/temp/dataset/9/21_9.odb,Step-1,Increment      1: Step Time =    1.000,"PART-1-1",           432,      -13.8727,       20.9255,            0.,NA,NA,"",       7.55461,       6.92454,       3.02041,   17.7668E-06
C:/temp/dataset/9/21_9.odb,Step-1,Increment      1: Step Time =    1.000,"PART-1-1",           433,          -15.,       20.1563,            0.,NA,NA,"",       7.53447,       6.82481,       3.19221,   23.9682E-06
C:/temp/dataset/9/21_9.odb,Step-1,Increment      1: Step Time =    1.000,"PART-1-1",           434,       1.76445,       24.7908,            0.,NA,NA,"",       7.35449,       7.32009,   710.501E-03,   25.8992E-06
C:/temp/dataset/9/21_9.odb,Step-1,Increment      1: Step Time =    1.000,"PART-1-1",           435,       1.36974,       27.3866,            0.,NA,NA,"",       7.73635,       7.70085,   740.278E-03,   17.8426E-06
C:/temp/dataset/9/21_9.odb,Step-1,Increment      1: Step Time =    1.000,"PART-1-1",           436,   176.493E-03,       26.0346,            0.,NA,NA,"",       7.57435,       7.51732,   927.663E-03,   21.6968E-06
C:/temp/dataset/9/21_9.odb,Step-1,Increment      1: Step Time =    1.000,"PART-1-1",           437,       7.39460,       20.9669,            0.,NA,NA,"",       6.70627,       6.70595,  -65.6386E-03,   42.1279E-06
C:/temp/dataset/9/21_9.odb,Step-1,Increment      1: Step Time =    1.000,"PART-1-1",           438,       8.70526,       19.9066,            0.,NA,NA,"",       6.54286,       6.53829,  -244.587E-03,   34.1482E-06
C:/temp/dataset/9/21_9.odb,Step-1,Increment      1: Step Time =    1.000,"PART-1-1",           439,       9.85134,       21.1719,            0.,NA,NA,"",       6.72312,       6.70971,  -424.301E-03,   32.4734E-06
C:/temp/dataset/9/21_9.odb,Step-1,Increment      1: Step Time =    1.000,"PART-1-1",           440,       8.54068,       22.2321,            0.,NA,NA,"",       6.88174,       6.87737,  -245.344E-03,   33.1735E-06
C:/temp/dataset/9/21_9.odb,Step-1,Increment      1: Step Time =    1.000,"PART-1-1",           441,       4.10864,       24.1658,            0.,NA,NA,"",       7.21452,       7.20466,   377.110E-03,   27.7547E-06
C:/temp/dataset/9/21_9.odb,Step-1,Increment      1: Step Time =    1.000,"PART-1-1",           442,       5.90921,       23.8009,            0.,NA,NA,"",       7.13373,       7.13272,   119.800E-03,   28.3132E-06
C:/temp/dataset/9/21_9.odb,Step-1,Increment      1: Step Time =    1.000,"PART-1-1",           443,       6.25965,       24.9450,            0.,NA,NA,"",       7.29520,       7.29498,   56.8394E-03,   22.8086E-06
C:/temp/dataset/9/21_9.odb,Step-1,Increment      1: Step Time =    1.000,"PART-1-1",           444,   19.2837E-03,       28.6494,            0.,NA,NA,"",       7.95206,       7.89833,   922.803E-03,   11.3898E-06
C:/temp/dataset/9/21_9.odb,Step-1,Increment      1: Step Time =    1.000,"PART-1-1",           445,       2.60045,       28.7372,            0.,NA,NA,"",       7.90275,       7.88376,   547.474E-03,   10.1816E-06
C:/temp/dataset/9/21_9.odb,Step-1,Increment      1: Step Time =    1.000,"PART-1-1",           446,          1.25,           30.,            0.,NA,NA,"",       8.11413,       8.08123,   730.001E-03,   3.44069E-06
C:/temp/dataset/9/21_9.odb,Step-1,Increment      1: Step Time =    1.000,"PART-1-1",           447,      -7.67774,       29.0428,            0.,NA,NA,"",       8.29066,       8.03694,       2.03534,   18.5926E-06
C:/temp/dataset/9/21_9.odb,Step-1,Increment      1: Step Time =    1.000,"PART-1-1",           448,      -6.68998,       27.9093,            0.,NA,NA,"",       8.08926,       7.86199,       1.90399,   12.8466E-06
C:/temp/dataset/9/21_9.odb,Step-1,Increment      1: Step Time =    1.000,"PART-1-1",           449,         -6.25,           30.,            0.,NA,NA,"",       8.36077,       8.16071,       1.81804,   26.2461E-06
C:/temp/dataset/9/21_9.odb,Step-1,Increment      1: Step Time =    1.000,"PART-1-1",           450,      -12.1701,       26.6384,            0.,NA,NA,"",       8.19750,       7.73563,       2.71276,   12.5911E-06
C:/temp/dataset/9/21_9.odb,Step-1,Increment      1: Step Time =    1.000,"PART-1-1",           451,      -13.7206,       27.8542,            0.,NA,NA,"",       8.45080,       7.92848,       2.92492,   5.58190E-06
C:/temp/dataset/9/21_9.odb,Step-1,Increment      1: Step Time =    1.000,"PART-1-1",           452,          -15.,       26.7188,            0.,NA,NA,"",       8.38070,       7.77724,       3.12261,   6.74886E-06
C:/temp/dataset/9/21_9.odb,Step-1,Increment      1: Step Time =    1.000,"PART-1-1",           453,        -13.75,           30.,            0.,NA,NA,"",       8.73776,       8.24020,       2.90646,   1.13113E-06
C:/temp/dataset/9/21_9.odb,Step-1,Increment      1: Step Time =    1.000,"PART-1-1",           454,          -15.,       28.9063,            0.,NA,NA,"",       8.66780,       8.09470,       3.09945,   1.01056E-06
C:/temp/dataset/9/21_9.odb,Step-1,Increment      1: Step Time =    1.000,"PART-1-1",           455,      -9.01567,       28.1413,            0.,NA,NA,"",       8.23071,       7.92030,       2.23904,   13.8989E-06
C:/temp/dataset/9/21_9.odb,Step-1,Increment      1: Step Time =    1.000,"PART-1-1",           456,         -8.75,           30.,            0.,NA,NA,"",       8.47270,       8.18722,       2.18082,   19.1991E-06
C:/temp/dataset/9/21_9.odb,Step-1,Increment      1: Step Time =    1.000,"PART-1-1",           457,      -10.9923,       18.6369,            0.,NA,NA,"",       7.06800,       6.56184,       2.62658,   18.1470E-06
C:/temp/dataset/9/21_9.odb,Step-1,Increment      1: Step Time =    1.000,"PART-1-1",           458,      -11.7056,       20.1347,            0.,NA,NA,"",       7.30944,       6.78682,       2.71423,   11.8997E-06
C:/temp/dataset/9/21_9.odb,Step-1,Increment      1: Step Time =    1.000,"PART-1-1",           459,      -12.2405,       18.0722,            0.,NA,NA,"",       7.07651,       6.49306,       2.81374,   16.4179E-06
C:/temp/dataset/9/21_9.odb,Step-1,Increment      1: Step Time =    1.000,"PART-1-1",           460,      -11.7153,       17.0060,            0.,NA,NA,"",       6.90356,       6.33271,       2.74881,   20.6725E-06
C:/temp/dataset/9/21_9.odb,Step-1,Increment      1: Step Time =    1.000,"PART-1-1",           461,      -12.7888,       16.5007,            0.,NA,NA,"",       6.91302,       6.27071,       2.90999,   16.9045E-06
C:/temp/dataset/9/21_9.odb,Step-1,Increment      1: Step Time =    1.000,"PART-1-1",           462,      -13.2634,       13.5986,            0.,NA,NA,"",       6.58267,       5.85437,       3.00963,   19.3906E-06
C:/temp/dataset/9/21_9.odb,Step-1,Increment      1: Step Time =    1.000,"PART-1-1",           463,      -14.1733,       14.6682,            0.,NA,NA,"",       6.78465,       6.01931,       3.13040,   8.80361E-06
C:/temp/dataset/9/21_9.odb,Step-1,Increment      1: Step Time =    1.000,"PART-1-1",           464,          -15.,       13.5938,            0.,NA,NA,"",       6.71719,       5.87207,       3.26180,   8.23796E-06
C:/temp/dataset/9/21_9.odb,Step-1,Increment      1: Step Time =    1.000,"PART-1-1",           465,      -6.04154,       10.1420,            0.,NA,NA,"",       5.64157,       5.27596,       1.99789,   10.6739E-06
C:/temp/dataset/9/21_9.odb,Step-1,Increment      1: Step Time =    1.000,"PART-1-1",           466,      -7.09581,       9.10381,            0.,NA,NA,"",       5.57283,       5.13638,       2.16195,   22.9632E-06
C:/temp/dataset/9/21_9.odb,Step-1,Increment      1: Step Time =    1.000,"PART-1-1",           467,      -6.05428,       7.71180,            0.,NA,NA,"",       5.32363,       4.92324,       2.02552,   24.9894E-06
C:/temp/dataset/9/21_9.odb,Step-1,Increment      1: Step Time =    1.000,"PART-1-1",           468,           -5.,          8.75,            0.,NA,NA,"",       5.39417,       5.06282,       1.86143,   18.8652E-06
C:/temp/dataset/9/21_9.odb,Step-1,Increment      1: Step Time =    1.000,"PART-1-1",           469,      -6.15708,       5.36159,            0.,NA,NA,"",       5.02696,       4.58306,       2.06540,   84.3360E-06
C:/temp/dataset/9/21_9.odb,Step-1,Increment      1: Step Time =    1.000,"PART-1-1",           470,           -5.,          6.25,            0.,NA,NA,"",       5.06487,       4.69983,       1.88799,   64.4047E-06
C:/temp/dataset/9/21_9.odb,Step-1,Increment      1: Step Time =    1.000,"PART-1-1",           471,      -13.8567,       3.63033,            0.,NA,NA,"",       5.45218,       4.41354,       3.20109,   42.5871E-06
C:/temp/dataset/9/21_9.odb,Step-1,Increment      1: Step Time =    1.000,"PART-1-1",           472,      -12.5372,       4.63979,            0.,NA,NA,"",       5.44610,       4.54604,       2.99893,   31.9990E-06
C:/temp/dataset/9/21_9.odb,Step-1,Increment      1: Step Time =    1.000,"PART-1-1",           473,          -15.,       4.84375,            0.,NA,NA,"",       5.69447,       4.60176,       3.35421,   53.6646E-06
C:/temp/dataset/9/21_9.odb,Step-1,Increment      1: Step Time =    1.000,"PART-1-1",           474,      -12.7859,       2.45238,            0.,NA,NA,"",       5.22069,       4.23125,       3.05812,   34.2383E-06
C:/temp/dataset/9/21_9.odb,Step-1,Increment      1: Step Time =    1.000,"PART-1-1",           475,          -15.,       2.65625,            0.,NA,NA,"",       5.45538,       4.28431,       3.37726,   46.1510E-06
C:/temp/dataset/9/21_9.odb,Step-1,Increment      1: Step Time =    1.000,"PART-1-1",           476,      -13.7683,      -2.81830,            0.,NA,NA,"",       4.76374,       3.47698,       3.25636,   10.3135E-06
C:/temp/dataset/9/21_9.odb,Step-1,Increment      1: Step Time =    1.000,"PART-1-1",           477,          -15.,      -3.90625,            0.,NA,NA,"",       4.79398,       3.33217,       3.44658,   1.53863E-06
C:/temp/dataset/9/21_9.odb,Step-1,Increment      1: Step Time =    1.000,"PART-1-1",           478,        -13.75,           -5.,            0.,NA,NA,"",       4.55241,       3.16024,       3.27678,   1.62956E-06
C:/temp/dataset/9/21_9.odb,Step-1,Increment      1: Step Time =    1.000,"PART-1-1",           479,      -12.5183,      -3.91205,            0.,NA,NA,"",       4.52220,       3.30507,       3.08655,   10.8088E-06
C:/temp/dataset/9/21_9.odb,Step-1,Increment      1: Step Time =    1.000,"PART-1-1",           480,      -3.91473,      -3.03803,            0.,NA,NA,"",       3.80887,       3.34105,       1.82891,   67.7697E-06
C:/temp/dataset/9/21_9.odb,Step-1,Increment      1: Step Time =    1.000,"PART-1-1",           481,      -5.07319,      -4.05962,            0.,NA,NA,"",       3.78204,       3.20509,       2.00780,   66.9985E-06
C:/temp/dataset/9/21_9.odb,Step-1,Increment      1: Step Time =    1.000,"PART-1-1",           482,         -3.75,           -5.,            0.,NA,NA,"",       3.55884,       3.05479,       1.82582,   98.8023E-06
C:/temp/dataset/9/21_9.odb,Step-1,Increment      1: Step Time =    1.000,"PART-1-1",           483,      -2.59153,      -3.97841,            0.,NA,NA,"",       3.59076,       3.19080,       1.64692,   93.3355E-06
C:/temp/dataset/9/21_9.odb,Step-1,Increment      1: Step Time =    1.000,"PART-1-1",           484,   563.435E-03,   72.7383E-03,            0.,NA,NA,"",       3.91623,       3.74454,       1.14685,   181.567E-06
C:/temp/dataset/9/21_9.odb,Step-1,Increment      1: Step Time =    1.000,"PART-1-1",           485,  -536.863E-03,      -1.25885,            0.,NA,NA,"",       3.80000,       3.56329,       1.32023,   120.359E-06
C:/temp/dataset/9/21_9.odb,Step-1,Increment      1: Step Time =    1.000,"PART-1-1",           486,       7.06616,      -9.87010,            0.,NA,NA,"",       2.22315,       2.20411,   290.323E-03,   13.9993E-03
C:/temp/dataset/9/21_9.odb,Step-1,Increment      1: Step Time =    1.000,"PART-1-1",           487,       6.02487,      -8.97716,            0.,NA,NA,"",       2.40556,       2.36542,   437.646E-03,   10.7526E-03
C:/temp/dataset/9/21_9.odb,Step-1,Increment      1: Step Time =    1.000,"PART-1-1",           488,            5.,      -10.2083,            0.,NA,NA,"",       2.27433,       2.19369,   600.256E-03,   11.1624E-03
C:/temp/dataset/9/21_9.odb,Step-1,Increment      1: Step Time =    1.000,"PART-1-1",           489,       13.0743,      -11.4048,            0.,NA,NA,"",       1.96252,       1.89058,  -526.492E-03,   10.8187E-03
C:/temp/dataset/9/21_9.odb,Step-1,Increment      1: Step Time =    1.000,"PART-1-1",           490,       14.0423,      -12.5586,            0.,NA,NA,"",       1.82657,       1.71005,  -641.945E-03,   12.4541E-03
C:/temp/dataset/9/21_9.odb,Step-1,Increment      1: Step Time =    1.000,"PART-1-1",           491,           15.,        -11.25,            0.,NA,NA,"",       2.06663,       1.90051,  -811.804E-03,   10.0685E-03
C:/temp/dataset/9/21_9.odb,Step-1,Increment      1: Step Time =    1.000,"PART-1-1",           492,       14.0319,      -10.0962,            0.,NA,NA,"",       2.19367,       2.08292,  -688.192E-03,   6.76691E-03
C:/temp/dataset/9/21_9.odb,Step-1,Increment      1: Step Time =    1.000,"PART-1-1",           493,       7.09943,      -16.3632,            0.,NA,NA,"",       1.24211,       1.20580,   298.129E-03,   18.9938E-03
C:/temp/dataset/9/21_9.odb,Step-1,Increment      1: Step Time =    1.000,"PART-1-1",           494,            5.,      -16.4583,            0.,NA,NA,"",       1.35547,       1.23118,   567.005E-03,   28.9051E-03
C:/temp/dataset/9/21_9.odb,Step-1,Increment      1: Step Time =    1.000,"PART-1-1",           495,       13.0966,      -13.8278,            0.,NA,NA,"",       1.59990,       1.52563,  -481.810E-03,   15.0713E-03
C:/temp/dataset/9/21_9.odb,Step-1,Increment      1: Step Time =    1.000,"PART-1-1",           496,       14.0543,      -15.0192,            0.,NA,NA,"",       1.47130,       1.35050,  -583.849E-03,   18.9636E-03
C:/temp/dataset/9/21_9.odb,Step-1,Increment      1: Step Time =    1.000,"PART-1-1",           497,           15.,        -13.75,            0.,NA,NA,"",       1.70594,       1.53073,  -753.053E-03,   18.0756E-03
C:/temp/dataset/9/21_9.odb,Step-1,Increment      1: Step Time =    1.000,"PART-1-1",           498,       13.0974,      -18.6352,            0.,NA,NA,"",   938.289E-03,   864.863E-03,  -363.866E-03,   23.6656E-03
C:/temp/dataset/9/21_9.odb,Step-1,Increment      1: Step Time =    1.000,"PART-1-1",           499,       14.0421,      -19.9133,            0.,NA,NA,"",   836.515E-03,   717.469E-03,  -430.111E-03,   32.1435E-03
C:/temp/dataset/9/21_9.odb,Step-1,Increment      1: Step Time =    1.000,"PART-1-1",           500,           15.,        -18.75,            0.,NA,NA,"",       1.04290,   861.990E-03,  -587.030E-03,   35.3532E-03
C:/temp/dataset/9/21_9.odb,Step-1,Increment      1: Step Time =    1.000,"PART-1-1",           501,       14.0553,      -17.4719,            0.,NA,NA,"",       1.13839,       1.01634,  -512.822E-03,   25.6312E-03
C:/temp/dataset/9/21_9.odb,Step-1,Increment      1: Step Time =    1.000,"PART-1-1",           502,       7.12541,      -22.7005,            0.,NA,NA,"",   485.816E-03,   437.095E-03,   212.051E-03,   30.7317E-03
C:/temp/dataset/9/21_9.odb,Step-1,Increment      1: Step Time =    1.000,"PART-1-1",           503,       6.04628,      -21.6612,            0.,NA,NA,"",   652.742E-03,   562.865E-03,   330.536E-03,   37.0702E-03
C:/temp/dataset/9/21_9.odb,Step-1,Increment      1: Step Time =    1.000,"PART-1-1",           504,            5.,      -22.7083,            0.,NA,NA,"",   620.038E-03,   481.234E-03,   390.975E-03,   49.6333E-03
C:/temp/dataset/9/21_9.odb,Step-1,Increment      1: Step Time =    1.000,"PART-1-1",           505,       6.07914,      -23.7476,            0.,NA,NA,"",   446.203E-03,   360.170E-03,   263.391E-03,   42.4016E-03
C:/temp/dataset/9/21_9.odb,Step-1,Increment      1: Step Time =    1.000,"PART-1-1",           506,       6.22304,      -27.8948,            0.,NA,NA,"",   119.220E-03,   78.6842E-03,   89.5666E-03,   52.1456E-03
C:/temp/dataset/9/21_9.odb,Step-1,Increment      1: Step Time =    1.000,"PART-1-1",           507,            5.,      -28.9583,            0.,NA,NA,"",   93.1318E-03,   63.1501E-03,   68.4515E-03,   73.3357E-03
C:/temp/dataset/9/21_9.odb,Step-1,Increment      1: Step Time =    1.000,"PART-1-1",           508,          6.25,          -30.,            0.,NA,NA,"",            0.,   812.764E-42,   80.5399E-39,   53.6468E-03
C:/temp/dataset/9/21_9.odb,Step-1,Increment      1: Step Time =    1.000,"PART-1-1",           509,       9.78444,      -26.6535,            0.,NA,NA,"",   100.990E-03,   100.576E-03,   9.13058E-03,   15.6570E-03
C:/temp/dataset/9/21_9.odb,Step-1,Increment      1: Step Time =    1.000,"PART-1-1",           510,       8.47427,      -25.6871,            0.,NA,NA,"",   183.607E-03,   169.660E-03,   70.1928E-03,   24.0188E-03
C:/temp/dataset/9/21_9.odb,Step-1,Increment      1: Step Time =    1.000,"PART-1-1",           511,       7.37694,      -26.8334,            0.,NA,NA,"",   144.642E-03,   113.070E-03,   90.2038E-03,   35.8860E-03
C:/temp/dataset/9/21_9.odb,Step-1,Increment      1: Step Time =    1.000,"PART-1-1",           512,       13.7223,      -27.5034,            0.,NA,NA,"",   133.274E-03,   84.7277E-03,  -102.875E-03,   49.1495E-03
C:/temp/dataset/9/21_9.odb,Step-1,Increment      1: Step Time =    1.000,"PART-1-1",           513,       12.4723,      -28.7534,            0.,NA,NA,"",   33.7209E-03,   17.7455E-03,  -28.6739E-03,   28.7737E-03
C:/temp/dataset/9/21_9.odb,Step-1,Increment      1: Step Time =    1.000,"PART-1-1",           514,         13.75,          -30.,            0.,NA,NA,"",            0.,  -4.11971E-39,  -79.4149E-39,   50.9136E-03
C:/temp/dataset/9/21_9.odb,Step-1,Increment      1: Step Time =    1.000,"PART-1-1",           515,           15.,        -28.75,            0.,NA,NA,"",   104.148E-03,   66.6648E-03,  -80.0161E-03,   70.0735E-03
C:/temp/dataset/9/21_9.odb,Step-1,Increment      1: Step Time =    1.000,"PART-1-1",           516,         11.25,          -30.,            0.,NA,NA,"",            0.,  -1.96925E-39,  -26.5994E-39,   12.3137E-03
C:/temp/dataset/9/21_9.odb,Step-1,Increment      1: Step Time =    1.000,"PART-1-1",           517,       11.1864,      -27.6167,            0.,NA,NA,"",   59.0686E-03,   53.0595E-03,  -25.9576E-03,   19.7985E-03
C:/temp/dataset/9/21_9.odb,Step-1,Increment      1: Step Time =    1.000,"PART-1-1",           518,       9.10684,      -20.5966,            0.,NA,NA,"",   639.959E-03,   636.548E-03,   65.9820E-03,   16.6237E-03
C:/temp/dataset/9/21_9.odb,Step-1,Increment      1: Step Time =    1.000,"PART-1-1",           519,       11.0993,      -20.6881,            0.,NA,NA,"",   627.984E-03,   617.278E-03,  -115.462E-03,   16.9350E-03
C:/temp/dataset/9/21_9.odb,Step-1,Increment      1: Step Time =    1.000,"PART-1-1",           520,       7.08739,      -20.6083,            0.,NA,NA,"",   707.332E-03,   659.798E-03,   254.921E-03,   26.9811E-03
C:/temp/dataset/9/21_9.odb,Step-1,Increment      1: Step Time =    1.000,"PART-1-1",           521,            5.,       -20.625,            0.,NA,NA,"",   841.258E-03,   700.265E-03,   466.203E-03,   42.6409E-03
C:/temp/dataset/9/21_9.odb,Step-1,Increment      1: Step Time =    1.000,"PART-1-1",           522,       9.14341,      -14.0595,            0.,NA,NA,"",       1.51826,       1.51784,   35.5903E-03,   15.1221E-03
C:/temp/dataset/9/21_9.odb,Step-1,Increment      1: Step Time =    1.000,"PART-1-1",           523,       10.1582,      -15.1431,            0.,NA,NA,"",       1.35043,       1.34797,  -81.4675E-03,   14.5777E-03
C:/temp/dataset/9/21_9.odb,Step-1,Increment      1: Step Time =    1.000,"PART-1-1",           524,       11.1509,      -13.9343,            0.,NA,NA,"",       1.53626,       1.51998,  -223.046E-03,   14.8659E-03
C:/temp/dataset/9/21_9.odb,Step-1,Increment      1: Step Time =    1.000,"PART-1-1",           525,       10.1361,      -12.8507,            0.,NA,NA,"",       1.69583,       1.69255,  -105.484E-03,   14.3658E-03
C:/temp/dataset/9/21_9.odb,Step-1,Increment      1: Step Time =    1.000,"PART-1-1",           526,       9.12292,      -11.8044,            0.,NA,NA,"",       1.86608,       1.86599,   18.4104E-03,   14.5979E-03
C:/temp/dataset/9/21_9.odb,Step-1,Increment      1: Step Time =    1.000,"PART-1-1",           527,       11.1213,      -11.5948,            0.,NA,NA,"",       1.89427,       1.87726,  -253.266E-03,   12.9123E-03
C:/temp/dataset/9/21_9.odb,Step-1,Increment      1: Step Time =    1.000,"PART-1-1",           528,       10.1081,      -10.5485,            0.,NA,NA,"",       2.05488,       2.05090,  -127.942E-03,   12.5348E-03
C:/temp/dataset/9/21_9.odb,Step-1,Increment      1: Step Time =    1.000,"PART-1-1",           529,       13.8169,  -7.21098E-03,            0.,NA,NA,"",       3.67449,       3.59128,  -777.576E-03,   514.944E-06
C:/temp/dataset/9/21_9.odb,Step-1,Increment      1: Step Time =    1.000,"PART-1-1",           530,           15.,          1.25,            0.,NA,NA,"",       3.88290,       3.76161,  -962.943E-03,   616.927E-06
C:/temp/dataset/9/21_9.odb,Step-1,Increment      1: Step Time =    1.000,"PART-1-1",           531,       13.9075,       2.57030,            0.,NA,NA,"",       4.04900,       3.96564,  -817.383E-03,   332.200E-06
C:/temp/dataset/9/21_9.odb,Step-1,Increment      1: Step Time =    1.000,"PART-1-1",           532,       10.8083,      -4.35361,            0.,NA,NA,"",       3.00114,       2.98696,  -291.407E-03,   2.00181E-03
C:/temp/dataset/9/21_9.odb,Step-1,Increment      1: Step Time =    1.000,"PART-1-1",           533,       9.68548,      -3.40243,            0.,NA,NA,"",       3.14341,       3.14039,  -137.665E-03,   1.17573E-03
C:/temp/dataset/9/21_9.odb,Step-1,Increment      1: Step Time =    1.000,"PART-1-1",           534,       8.81587,      -4.92348,            0.,NA,NA,"",       2.92790,       2.92790,   3.92908E-03,   3.30753E-03
C:/temp/dataset/9/21_9.odb,Step-1,Increment      1: Step Time =    1.000,"PART-1-1",           535,       9.93870,      -5.87466,            0.,NA,NA,"",       2.77563,       2.77158,  -149.783E-03,   4.19920E-03
C:/temp/dataset/9/21_9.odb,Step-1,Increment      1: Step Time =    1.000,"PART-1-1",           536,       10.7940,       8.23694,            0.,NA,NA,"",       4.84079,       4.82217,  -424.168E-03,   56.2361E-06
C:/temp/dataset/9/21_9.odb,Step-1,Increment      1: Step Time =    1.000,"PART-1-1",           537,       11.2752,       6.42654,            0.,NA,NA,"",       4.57878,       4.55408,  -474.881E-03,   104.591E-06
C:/temp/dataset/9/21_9.odb,Step-1,Increment      1: Step Time =    1.000,"PART-1-1",           538,       12.8821,       8.67106,            0.,NA,NA,"",       4.91787,       4.86306,  -732.207E-03,   83.8431E-06
C:/temp/dataset/9/21_9.odb,Step-1,Increment      1: Step Time =    1.000,"PART-1-1",           539,       14.0355,       7.50951,            0.,NA,NA,"",       4.76544,       4.68205,  -887.564E-03,   118.760E-06
C:/temp/dataset/9/21_9.odb,Step-1,Increment      1: Step Time =    1.000,"PART-1-1",           540,           15.,          8.75,            0.,NA,NA,"",       4.96233,       4.85197,      -1.04070,   128.093E-06
C:/temp/dataset/9/21_9.odb,Step-1,Increment      1: Step Time =    1.000,"PART-1-1",           541,       13.8467,       9.91155,            0.,NA,NA,"",       5.11025,       5.03297,  -885.393E-03,   86.6157E-06
C:/temp/dataset/9/21_9.odb,Step-1,Increment      1: Step Time =    1.000,"PART-1-1",           542,       12.4850,       16.2122,            0.,NA,NA,"",       6.00970,       5.96219,  -754.107E-03,   41.0336E-06
C:/temp/dataset/9/21_9.odb,Step-1,Increment      1: Step Time =    1.000,"PART-1-1",           543,       13.7431,       14.9727,            0.,NA,NA,"",       5.84241,       5.76894,  -923.657E-03,   60.7321E-06
C:/temp/dataset/9/21_9.odb,Step-1,Increment      1: Step Time =    1.000,"PART-1-1",           544,           15.,         16.25,            0.,NA,NA,"",       6.04555,       5.94099,      -1.11953,   73.2045E-06
C:/temp/dataset/9/21_9.odb,Step-1,Increment      1: Step Time =    1.000,"PART-1-1",           545,       13.7419,       17.4895,            0.,NA,NA,"",       6.20736,       6.13423,  -950.007E-03,   49.0473E-06
C:/temp/dataset/9/21_9.odb,Step-1,Increment      1: Step Time =    1.000,"PART-1-1",           546,       12.4991,       13.6576,            0.,NA,NA,"",       5.63859,       5.59125,  -729.180E-03,   47.6397E-06
C:/temp/dataset/9/21_9.odb,Step-1,Increment      1: Step Time =    1.000,"PART-1-1",           547,       13.7559,       12.4349,            0.,NA,NA,"",       5.47466,       5.40038,  -898.784E-03,   71.7448E-06
C:/temp/dataset/9/21_9.odb,Step-1,Increment      1: Step Time =    1.000,"PART-1-1",           548,           15.,         13.75,            0.,NA,NA,"",       5.68421,       5.57809,      -1.09324,   88.3554E-06
C:/temp/dataset/9/21_9.odb,Step-1,Increment      1: Step Time =    1.000,"PART-1-1",           549,           15.,         21.25,            0.,NA,NA,"",       6.76880,       6.66652,      -1.17220,   36.8834E-06
C:/temp/dataset/9/21_9.odb,Step-1,Increment      1: Step Time =    1.000,"PART-1-1",           550,       13.6875,       22.5045,            0.,NA,NA,"",       6.93419,       6.86243,  -995.025E-03,   23.3267E-06
C:/temp/dataset/9/21_9.odb,Step-1,Increment      1: Step Time =    1.000,"PART-1-1",           551,       12.4125,       21.2511,            0.,NA,NA,"",       6.74135,       6.69410,  -796.790E-03,   29.6964E-06
C:/temp/dataset/9/21_9.odb,Step-1,Increment      1: Step Time =    1.000,"PART-1-1",           552,       13.7250,       19.9966,            0.,NA,NA,"",       6.57078,       6.49819,  -973.993E-03,   36.2292E-06
C:/temp/dataset/9/21_9.odb,Step-1,Increment      1: Step Time =    1.000,"PART-1-1",           553,       13.6481,       25.0064,            0.,NA,NA,"",       7.29682,       7.22578,      -1.01574,   12.7889E-06
C:/temp/dataset/9/21_9.odb,Step-1,Increment      1: Step Time =    1.000,"PART-1-1",           554,       12.3356,       23.7609,            0.,NA,NA,"",       7.10556,       7.05900,  -812.154E-03,   22.4355E-06
C:/temp/dataset/9/21_9.odb,Step-1,Increment      1: Step Time =    1.000,"PART-1-1",           555,           15.,         23.75,            0.,NA,NA,"",       7.13066,       7.02921,      -1.19859,   19.6830E-06
C:/temp/dataset/9/21_9.odb,Step-1,Increment      1: Step Time =    1.000,"PART-1-1",           556,       13.7112,       27.5077,            0.,NA,NA,"",       7.66044,       7.58795,      -1.05133,   5.02976E-06
C:/temp/dataset/9/21_9.odb,Step-1,Increment      1: Step Time =    1.000,"PART-1-1",           557,           15.,         28.75,            0.,NA,NA,"",       7.85487,       7.75454,      -1.25145,   791.795E-09
C:/temp/dataset/9/21_9.odb,Step-1,Increment      1: Step Time =    1.000,"PART-1-1",           558,         13.75,           30.,            0.,NA,NA,"",       8.02258,       7.94910,      -1.08333,   762.463E-09
C:/temp/dataset/9/21_9.odb,Step-1,Increment      1: Step Time =    1.000,"PART-1-1",           559,            5.,      -24.7917,            0.,NA,NA,"",   424.241E-03,   300.819E-03,   299.146E-03,   55.8849E-03
C:/temp/dataset/9/21_9.odb,Step-1,Increment      1: Step Time =    1.000,"PART-1-1",           560,       6.15390,      -25.8136,            0.,NA,NA,"",   270.713E-03,   200.007E-03,   182.435E-03,   46.9430E-03
C:/temp/dataset/9/21_9.odb,Step-1,Increment      1: Step Time =    1.000,"PART-1-1",           561,       7.23304,      -24.7696,            0.,NA,NA,"",   297.304E-03,   253.776E-03,   154.878E-03,   34.1398E-03
C:/temp/dataset/9/21_9.odb,Step-1,Increment      1: Step Time =    1.000,"PART-1-1",           562,       13.0086,      -21.0119,            0.,NA,NA,"",   653.968E-03,   587.351E-03,  -287.565E-03,   27.4251E-03
C:/temp/dataset/9/21_9.odb,Step-1,Increment      1: Step Time =    1.000,"PART-1-1",           563,       13.9664,      -22.3485,            0.,NA,NA,"",   568.152E-03,   460.565E-03,  -332.680E-03,   38.0942E-03
C:/temp/dataset/9/21_9.odb,Step-1,Increment      1: Step Time =    1.000,"PART-1-1",           564,           15.,        -21.25,            0.,NA,NA,"",   756.735E-03,   583.491E-03,  -481.857E-03,   43.8931E-03
C:/temp/dataset/9/21_9.odb,Step-1,Increment      1: Step Time =    1.000,"PART-1-1",           565,            5.,       -26.875,            0.,NA,NA,"",   254.828E-03,   164.749E-03,   194.409E-03,   63.1648E-03
C:/temp/dataset/9/21_9.odb,Step-1,Increment      1: Step Time =    1.000,"PART-1-1",           566,       12.9745,      -6.51631,            0.,NA,NA,"",       2.70212,       2.63836,  -583.531E-03,   3.16549E-03
C:/temp/dataset/9/21_9.odb,Step-1,Increment      1: Step Time =    1.000,"PART-1-1",           567,       14.0104,      -7.62731,            0.,NA,NA,"",       2.56303,       2.45918,  -722.183E-03,   2.73161E-03
C:/temp/dataset/9/21_9.odb,Step-1,Increment      1: Step Time =    1.000,"PART-1-1",           568,           15.,         -6.25,            0.,NA,NA,"",       2.80045,       2.65622,  -887.121E-03,   324.998E-06
C:/temp/dataset/9/21_9.odb,Step-1,Increment      1: Step Time =    1.000,"PART-1-1",           569,       13.9641,      -5.13900,            0.,NA,NA,"",       2.93051,       2.83413,  -745.410E-03,   854.972E-06
C:/temp/dataset/9/21_9.odb,Step-1,Increment      1: Step Time =    1.000,"PART-1-1",           570,       11.1649,      -16.2543,            0.,NA,NA,"",       1.19776,       1.18276,  -188.931E-03,   15.8079E-03
C:/temp/dataset/9/21_9.odb,Step-1,Increment      1: Step Time =    1.000,"PART-1-1",           571,       9.14831,      -16.2933,            0.,NA,NA,"",       1.19197,       1.19089,   50.7655E-03,   15.2666E-03
C:/temp/dataset/9/21_9.odb,Step-1,Increment      1: Step Time =    1.000,"PART-1-1",           572,            5.,        -8.125,            0.,NA,NA,"",       2.58349,       2.51656,   584.256E-03,   8.84819E-03
C:/temp/dataset/9/21_9.odb,Step-1,Increment      1: Step Time =    1.000,"PART-1-1",           573,       12.8519,      -3.99254,            0.,NA,NA,"",       3.07494,       3.01698,  -594.209E-03,   911.479E-06
C:/temp/dataset/9/21_9.odb,Step-1,Increment      1: Step Time =    1.000,"PART-1-1",           574,           15.,         -3.75,            0.,NA,NA,"",       3.16345,       3.02873,  -913.327E-03,   937.391E-06
C:/temp/dataset/9/21_9.odb,Step-1,Increment      1: Step Time =    1.000,"PART-1-1",           575,       13.8878,      -2.60354,            0.,NA,NA,"",       3.29941,       3.21039,  -761.224E-03,   643.431E-06
C:/temp/dataset/9/21_9.odb,Step-1,Increment      1: Step Time =    1.000,"PART-1-1",           576,       13.0423,      -8.97351,            0.,NA,NA,"",       2.33210,       2.26358,  -561.134E-03,   6.67612E-03
C:/temp/dataset/9/21_9.odb,Step-1,Increment      1: Step Time =    1.000,"PART-1-1",           577,           15.,         -8.75,            0.,NA,NA,"",       2.43391,       2.27875,  -855.133E-03,   3.87290E-03
C:/temp/dataset/9/21_9.odb,Step-1,Increment      1: Step Time =    1.000,"PART-1-1",           578,       8.09346,      -21.6433,            0.,NA,NA,"",   551.713E-03,   531.057E-03,   149.552E-03,   21.8724E-03
C:/temp/dataset/9/21_9.odb,Step-1,Increment      1: Step Time =    1.000,"PART-1-1",           579,       8.17438,      -23.6967,            0.,NA,NA,"",   349.757E-03,   329.531E-03,   117.215E-03,   23.8662E-03
C:/temp/dataset/9/21_9.odb,Step-1,Increment      1: Step Time =    1.000,"PART-1-1",           580,       8.10077,      -19.5616,            0.,NA,NA,"",   787.316E-03,   769.486E-03,   166.610E-03,   19.3986E-03
C:/temp/dataset/9/21_9.odb,Step-1,Increment      1: Step Time =    1.000,"PART-1-1",           581,       8.11824,      -17.4194,            0.,NA,NA,"",       1.06009,       1.04584,   173.259E-03,   17.0628E-03
C:/temp/dataset/9/21_9.odb,Step-1,Increment      1: Step Time =    1.000,"PART-1-1",           582,          -15.,       22.3438,            0.,NA,NA,"",       7.81378,       7.14232,       3.16899,   22.6583E-06
C:/temp/dataset/9/21_9.odb,Step-1,Increment      1: Step Time =    1.000,"PART-1-1",           583,      -12.5647,       21.7347,            0.,NA,NA,"",       7.57353,       7.02815,       2.82197,   10.8686E-06
C:/temp/dataset/9/21_9.odb,Step-1,Increment      1: Step Time =    1.000,"PART-1-1",           584,      -4.95050,       22.5220,            0.,NA,NA,"",       7.26561,       7.06186,       1.70856,   26.8362E-06
C:/temp/dataset/9/21_9.odb,Step-1,Increment      1: Step Time =    1.000,"PART-1-1",           585,      -3.93081,       23.1260,            0.,NA,NA,"",       7.30597,       7.13873,       1.55424,   26.2345E-06
C:/temp/dataset/9/21_9.odb,Step-1,Increment      1: Step Time =    1.000,"PART-1-1",           586,      -4.22857,       24.4244,            0.,NA,NA,"",       7.49940,       7.33027,       1.58370,   17.5176E-06
C:/temp/dataset/9/21_9.odb,Step-1,Increment      1: Step Time =    1.000,"PART-1-1",           587,      -5.24826,       23.8204,            0.,NA,NA,"",       7.45874,       7.25341,       1.73804,   17.1434E-06
C:/temp/dataset/9/21_9.odb,Step-1,Increment      1: Step Time =    1.000,"PART-1-1",           588,      -10.1110,       10.4874,            0.,NA,NA,"",       5.95907,       5.36921,       2.58496,   28.5622E-06
C:/temp/dataset/9/21_9.odb,Step-1,Increment      1: Step Time =    1.000,"PART-1-1",           589,      -9.15687,       11.6944,            0.,NA,NA,"",       6.04583,       5.53437,       2.43369,   27.5553E-06
C:/temp/dataset/9/21_9.odb,Step-1,Increment      1: Step Time =    1.000,"PART-1-1",           590,      -11.1597,       11.6149,            0.,NA,NA,"",       6.17765,       5.54403,       2.72525,   29.5821E-06
C:/temp/dataset/9/21_9.odb,Step-1,Increment      1: Step Time =    1.000,"PART-1-1",           591,      -6.07359,       12.6401,            0.,NA,NA,"",       5.97522,       5.63901,       1.97607,   9.68083E-06
C:/temp/dataset/9/21_9.odb,Step-1,Increment      1: Step Time =    1.000,"PART-1-1",           592,      -7.11512,       11.5321,            0.,NA,NA,"",       5.89121,       5.48916,       2.13901,   17.0325E-06
C:/temp/dataset/9/21_9.odb,Step-1,Increment      1: Step Time =    1.000,"PART-1-1",           593,           -5.,         11.25,            0.,NA,NA,"",       5.72767,       5.42580,       1.83492,   3.76125E-06
C:/temp/dataset/9/21_9.odb,Step-1,Increment      1: Step Time =    1.000,"PART-1-1",           594,      -10.0988,       8.37440,            0.,NA,NA,"",       5.69348,       5.06229,       2.60556,   29.7944E-06
C:/temp/dataset/9/21_9.odb,Step-1,Increment      1: Step Time =    1.000,"PART-1-1",           595,      -9.11481,       9.38066,            0.,NA,NA,"",       5.74731,       5.19797,       2.45209,   28.9804E-06
C:/temp/dataset/9/21_9.odb,Step-1,Increment      1: Step Time =    1.000,"PART-1-1",           596,      -11.0949,       9.48111,            0.,NA,NA,"",       5.90668,       5.23353,       2.73844,   29.9631E-06
C:/temp/dataset/9/21_9.odb,Step-1,Increment      1: Step Time =    1.000,"PART-1-1",           597,      -11.8142,       15.6555,            0.,NA,NA,"",       6.73686,       6.13767,       2.77747,   23.4575E-06
C:/temp/dataset/9/21_9.odb,Step-1,Increment      1: Step Time =    1.000,"PART-1-1",           598,      -13.4062,       15.6218,            0.,NA,NA,"",       6.84630,       6.14965,       3.00893,   14.6494E-06
C:/temp/dataset/9/21_9.odb,Step-1,Increment      1: Step Time =    1.000,"PART-1-1",           599,      -12.4316,       14.7766,            0.,NA,NA,"",       6.66882,       6.01660,       2.87640,   21.5081E-06
C:/temp/dataset/9/21_9.odb,Step-1,Increment      1: Step Time =    1.000,"PART-1-1",           600,      -5.72199,       20.2132,            0.,NA,NA,"",       6.98307,       6.73496,       1.84491,   63.3401E-06
C:/temp/dataset/9/21_9.odb,Step-1,Increment      1: Step Time =    1.000,"PART-1-1",           601,           -5.,         18.75,            0.,NA,NA,"",       6.74720,       6.51480,       1.75556,   67.2075E-06
C:/temp/dataset/9/21_9.odb,Step-1,Increment      1: Step Time =    1.000,"PART-1-1",           602,          -15.,       15.7813,            0.,NA,NA,"",       6.98576,       6.18968,       3.23863,   6.42998E-06
C:/temp/dataset/9/21_9.odb,Step-1,Increment      1: Step Time =    1.000,"PART-1-1",           603,      -10.4105,       16.7429,            0.,NA,NA,"",       6.78322,       6.28070,       2.56220,   25.2981E-06
C:/temp/dataset/9/21_9.odb,Step-1,Increment      1: Step Time =    1.000,"PART-1-1",           604,      -12.1928,       12.6381,            0.,NA,NA,"",       6.38241,       5.70355,       2.86438,   25.6763E-06
C:/temp/dataset/9/21_9.odb,Step-1,Increment      1: Step Time =    1.000,"PART-1-1",           605,      -12.0987,       10.4443,            0.,NA,NA,"",       6.10305,       5.38403,       2.87394,   28.6534E-06
C:/temp/dataset/9/21_9.odb,Step-1,Increment      1: Step Time =    1.000,"PART-1-1",           606,      -7.50325,       4.80693,            0.,NA,NA,"",       5.05367,       4.51686,       2.26662,   48.2587E-06
C:/temp/dataset/9/21_9.odb,Step-1,Increment      1: Step Time =    1.000,"PART-1-1",           607,      -9.63824,       5.46172,            0.,NA,NA,"",       5.29923,       4.63457,       2.56954,   30.9247E-06
C:/temp/dataset/9/21_9.odb,Step-1,Increment      1: Step Time =    1.000,"PART-1-1",           608,      -8.81234,       4.25317,            0.,NA,NA,"",       5.08623,       4.45040,       2.46244,   43.1253E-06
C:/temp/dataset/9/21_9.odb,Step-1,Increment      1: Step Time =    1.000,"PART-1-1",           609,          -15.,      -1.71875,            0.,NA,NA,"",       5.00391,       3.64954,       3.42344,   11.2843E-06
C:/temp/dataset/9/21_9.odb,Step-1,Increment      1: Step Time =    1.000,"PART-1-1",           610,      -12.5835,      -1.75493,            0.,NA,NA,"",       4.74759,       3.61871,       3.07319,   25.2735E-06
C:/temp/dataset/9/21_9.odb,Step-1,Increment      1: Step Time =    1.000,"PART-1-1",           611,        -11.25,           -5.,            0.,NA,NA,"",       4.27928,       3.13380,       2.91403,   15.2098E-06
C:/temp/dataset/9/21_9.odb,Step-1,Increment      1: Step Time =    1.000,"PART-1-1",           612,      -10.0144,      -3.91217,            0.,NA,NA,"",       4.26203,       3.27858,       2.72321,   27.2724E-06
C:/temp/dataset/9/21_9.odb,Step-1,Increment      1: Step Time =    1.000,"PART-1-1",           613,      -11.2827,      -2.82422,            0.,NA,NA,"",       4.50407,       3.44982,       2.89574,   27.6636E-06
C:/temp/dataset/9/21_9.odb,Step-1,Increment      1: Step Time =    1.000,"PART-1-1",           614,         -8.75,           -5.,            0.,NA,NA,"",       4.02055,       3.10739,       2.55126,   40.6922E-06
C:/temp/dataset/9/21_9.odb,Step-1,Increment      1: Step Time =    1.000,"PART-1-1",           615,      -7.54904,      -4.01671,            0.,NA,NA,"",       4.01015,       3.23739,       2.36656,   47.5090E-06
C:/temp/dataset/9/21_9.odb,Step-1,Increment      1: Step Time =    1.000,"PART-1-1",           616,      -8.81345,      -2.92887,            0.,NA,NA,"",       4.24997,       3.40854,       2.53852,   41.0577E-06
C:/temp/dataset/9/21_9.odb,Step-1,Increment      1: Step Time =    1.000,"PART-1-1",           617,  -969.738E-03,       22.2544,            0.,NA,NA,"",       7.07249,       6.98100,       1.13393,   31.0416E-06
C:/temp/dataset/9/21_9.odb,Step-1,Increment      1: Step Time =    1.000,"PART-1-1",           618,      -2.31964,       21.1016,            0.,NA,NA,"",       6.95861,       6.82799,       1.34195,   38.3066E-06
C:/temp/dataset/9/21_9.odb,Step-1,Increment      1: Step Time =    1.000,"PART-1-1",           619,         -1.25,           20.,            0.,NA,NA,"",       6.76395,       6.65693,       1.19847,   39.9331E-06
C:/temp/dataset/9/21_9.odb,Step-1,Increment      1: Step Time =    1.000,"PART-1-1",           620,         -1.25,           30.,            0.,NA,NA,"",       8.18099,       8.10769,       1.09264,   16.1817E-06
C:/temp/dataset/9/21_9.odb,Step-1,Increment      1: Step Time =    1.000,"PART-1-1",           621,      -1.44357,       27.1449,            0.,NA,NA,"",       7.78112,       7.69553,       1.15091,   16.5823E-06
C:/temp/dataset/9/21_9.odb,Step-1,Increment      1: Step Time =    1.000,"PART-1-1",           622,      -4.58492,       21.1383,            0.,NA,NA,"",       7.05766,       6.85720,       1.67014,   59.8917E-06
C:/temp/dataset/9/21_9.odb,Step-1,Increment      1: Step Time =    1.000,"PART-1-1",           623,         -3.75,           20.,            0.,NA,NA,"",       6.86316,       6.68326,       1.56111,   75.1871E-06
C:/temp/dataset/9/21_9.odb,Step-1,Increment      1: Step Time =    1.000,"PART-1-1",           624,      -3.15456,       22.2398,            0.,NA,NA,"",       7.15070,       7.00194,       1.45100,   31.7954E-06
C:/temp/dataset/9/21_9.odb,Step-1,Increment      1: Step Time =    1.000,"PART-1-1",           625,      -11.2479,       22.4027,            0.,NA,NA,"",       7.57976,       7.11117,       2.62377,   11.3248E-06
C:/temp/dataset/9/21_9.odb,Step-1,Increment      1: Step Time =    1.000,"PART-1-1",           626,      -10.3888,       20.8027,            0.,NA,NA,"",       7.31609,       6.86985,       2.51602,   11.4966E-06
C:/temp/dataset/9/21_9.odb,Step-1,Increment      1: Step Time =    1.000,"PART-1-1",           627,       9.41561,      -24.6142,            0.,NA,NA,"",   243.463E-03,   241.310E-03,   32.3050E-03,   16.9694E-03
C:/temp/dataset/9/21_9.odb,Step-1,Increment      1: Step Time =    1.000,"PART-1-1",           628,           15.,        -16.25,            0.,NA,NA,"",       1.36162,       1.18092,  -677.829E-03,   26.7347E-03
C:/temp/dataset/9/21_9.odb,Step-1,Increment      1: Step Time =    1.000,"PART-1-1",           629,       13.1096,      -16.2411,            0.,NA,NA,"",       1.25513,       1.18003,  -427.646E-03,   19.3531E-03
C:/temp/dataset/9/21_9.odb,Step-1,Increment      1: Step Time =    1.000,"PART-1-1",           630,           15.,          3.75,            0.,NA,NA,"",       4.24219,       4.12541,  -988.512E-03,   340.099E-06
C:/temp/dataset/9/21_9.odb,Step-1,Increment      1: Step Time =    1.000,"PART-1-1",           631,       14.0093,       5.06690,            0.,NA,NA,"",       4.41172,       4.32745,  -858.168E-03,   189.940E-06
C:/temp/dataset/9/21_9.odb,Step-1,Increment      1: Step Time =    1.000,"PART-1-1",           632,       12.9168,       3.88721,            0.,NA,NA,"",       4.22394,       4.16772,  -686.870E-03,   231.760E-06
C:/temp/dataset/9/21_9.odb,Step-1,Increment      1: Step Time =    1.000,"PART-1-1",           633,       12.6026,       11.0965,            0.,NA,NA,"",       5.26734,       5.21828,  -717.187E-03,   59.1358E-06
C:/temp/dataset/9/21_9.odb,Step-1,Increment      1: Step Time =    1.000,"PART-1-1",           634,           15.,         11.25,            0.,NA,NA,"",       5.32311,       5.21508,      -1.06696,   102.973E-06
C:/temp/dataset/9/21_9.odb,Step-1,Increment      1: Step Time =    1.000,"PART-1-1",           635,       12.4669,       18.7361,            0.,NA,NA,"",       6.37629,       6.32864,  -778.122E-03,   35.6128E-06
C:/temp/dataset/9/21_9.odb,Step-1,Increment      1: Step Time =    1.000,"PART-1-1",           636,           15.,         18.75,            0.,NA,NA,"",       6.40709,       6.30379,      -1.14585,   55.7380E-06
C:/temp/dataset/9/21_9.odb,Step-1,Increment      1: Step Time =    1.000,"PART-1-1",           637,           15.,         26.25,            0.,NA,NA,"",       7.49269,       7.39187,      -1.22501,   6.87714E-06
C:/temp/dataset/9/21_9.odb,Step-1,Increment      1: Step Time =    1.000,"PART-1-1",           638,          8.75,           30.,            0.,NA,NA,"",       8.00998,       8.00197,  -357.955E-03,   12.8810E-06
C:/temp/dataset/9/21_9.odb,Step-1,Increment      1: Step Time =    1.000,"PART-1-1",           639,       8.74802,       27.8391,            0.,NA,NA,"",       7.69581,       7.68852,  -334.798E-03,   12.1488E-06
C:/temp/dataset/9/21_9.odb,Step-1,Increment      1: Step Time =    1.000,"PART-1-1",           640,       11.0691,       22.4572,            0.,NA,NA,"",       6.91066,       6.88328,  -614.612E-03,   26.5331E-06
C:/temp/dataset/9/21_9.odb,Step-1,Increment      1: Step Time =    1.000,"PART-1-1",           641,       11.1947,       19.9658,            0.,NA,NA,"",       6.54868,       6.52053,  -606.486E-03,   30.2981E-06
C:/temp/dataset/9/21_9.odb,Step-1,Increment      1: Step Time =    1.000,"PART-1-1",           642,          3.75,           30.,            0.,NA,NA,"",       8.06317,       8.05480,   367.369E-03,   8.85700E-06
C:/temp/dataset/9/21_9.odb,Step-1,Increment      1: Step Time =    1.000,"PART-1-1",           643,       6.12801,       21.9878,            0.,NA,NA,"",       6.86825,       6.86741,   107.288E-03,   40.4762E-06
C:/temp/dataset/9/21_9.odb,Step-1,Increment      1: Step Time =    1.000,"PART-1-1",           644,       7.06684,       23.0702,            0.,NA,NA,"",       7.01462,       7.01451,  -40.3899E-03,   32.8502E-06
C:/temp/dataset/9/21_9.odb,Step-1,Increment      1: Step Time =    1.000,"PART-1-1",           645,       4.97038,       22.7185,            0.,NA,NA,"",       6.99074,       6.98562,   267.456E-03,   35.4830E-06
C:/temp/dataset/9/21_9.odb,Step-1,Increment      1: Step Time =    1.000,"PART-1-1",           646,          3.75,           20.,            0.,NA,NA,"",       6.62111,       6.60418,   473.241E-03,   22.7407E-06
C:/temp/dataset/9/21_9.odb,Step-1,Increment      1: Step Time =    1.000,"PART-1-1",           647,       4.96897,       20.9583,            0.,NA,NA,"",       6.73639,       6.73030,   286.338E-03,   49.4507E-06
C:/temp/dataset/9/21_9.odb,Step-1,Increment      1: Step Time =    1.000,"PART-1-1",           648,       3.78616,       22.0655,            0.,NA,NA,"",       6.91778,       6.90338,   446.137E-03,   31.0519E-06
C:/temp/dataset/9/21_9.odb,Step-1,Increment      1: Step Time =    1.000,"PART-1-1",           649,           -5.,         13.75,            0.,NA,NA,"",       6.06469,       5.78879,       1.80844,   8.86552E-06
C:/temp/dataset/9/21_9.odb,Step-1,Increment      1: Step Time =    1.000,"PART-1-1",           650,      -7.15256,       14.0792,            0.,NA,NA,"",       6.23027,       5.85940,       2.11747,   20.9412E-06
C:/temp/dataset/9/21_9.odb,Step-1,Increment      1: Step Time =    1.000,"PART-1-1",           651,      -9.70164,       19.1500,            0.,NA,NA,"",       7.05572,       6.62267,       2.43379,   21.7432E-06
C:/temp/dataset/9/21_9.odb,Step-1,Increment      1: Step Time =    1.000,"PART-1-1",           652,      -9.13060,       21.5024,            0.,NA,NA,"",       7.33658,       6.95810,       2.32599,   14.8795E-06
C:/temp/dataset/9/21_9.odb,Step-1,Increment      1: Step Time =    1.000,"PART-1-1",           653,         -1.25,           -5.,            0.,NA,NA,"",       3.36355,       3.02863,       1.46316,   154.555E-06
C:/temp/dataset/9/21_9.odb,Step-1,Increment      1: Step Time =    1.000,"PART-1-1",           654,      -1.47244,      -2.77860,            0.,NA,NA,"",       3.66183,       3.35298,       1.47190,   92.5254E-06
C:/temp/dataset/9/21_9.odb,Step-1,Increment      1: Step Time =    1.000,"PART-1-1",           655,      -9.96758,      -1.61086,            0.,NA,NA,"",       4.50480,       3.61193,       2.69206,   39.6084E-06
C:/temp/dataset/9/21_9.odb,Step-1,Increment      1: Step Time =    1.000,"PART-1-1",           656,      -6.37223,      -3.07632,            0.,NA,NA,"",       4.00960,       3.36139,       2.18585,   52.9190E-06
C:/temp/dataset/9/21_9.odb,Step-1,Increment      1: Step Time =    1.000,"PART-1-1",           657,         -6.25,           -5.,            0.,NA,NA,"",       3.77922,       3.08106,       2.18850,   67.1629E-06
C:/temp/dataset/9/21_9.odb,Step-1,Increment      1: Step Time =    1.000,"PART-1-1",           658,         -3.75,            5.,            0.,NA,NA,"",       4.82208,       4.50483,       1.72017,   166.841E-06
C:/temp/dataset/9/21_9.odb,Step-1,Increment      1: Step Time =    1.000,"PART-1-1",           659,      -5.11170,       4.23117,            0.,NA,NA,"",       4.81012,       4.40785,       1.92567,   103.970E-06
C:/temp/dataset/9/21_9.odb,Step-1,Increment      1: Step Time =    1.000,"PART-1-1",           660,      -3.95473,       3.29190,            0.,NA,NA,"",       4.61160,       4.25930,       1.76782,   66.4392E-06
C:/temp/dataset/9/21_9.odb,Step-1,Increment      1: Step Time =    1.000,"PART-1-1",           661,          3.75,           -5.,            0.,NA,NA,"",       3.06812,       2.97824,   737.206E-03,   2.06160E-03
C:/temp/dataset/9/21_9.odb,Step-1,Increment      1: Step Time =    1.000,"PART-1-1",           662,       4.69008,      -3.66648,            0.,NA,NA,"",       3.21316,       3.15897,   587.620E-03,   1.21736E-03
C:/temp/dataset/9/21_9.odb,Step-1,Increment      1: Step Time =    1.000,"PART-1-1",           663,       4.69636,       3.71818,            0.,NA,NA,"",       4.26015,       4.22949,   510.206E-03,   186.854E-06
C:/temp/dataset/9/21_9.odb,Step-1,Increment      1: Step Time =    1.000,"PART-1-1",           664,          3.75,            5.,            0.,NA,NA,"",       4.47049,       4.42535,   633.690E-03,   230.826E-06
C:/temp/dataset/9/21_9.odb,Step-1,Increment      1: Step Time =    1.000,"PART-1-1",           665,       8.42013,       25.7200,            0.,NA,NA,"",       7.38933,       7.38459,  -264.795E-03,   17.8384E-06
C:/temp/dataset/9/21_9.odb,Step-1,Increment      1: Step Time =    1.000,"PART-1-1",           666,       7.55622,       27.1849,            0.,NA,NA,"",       7.60779,       7.60621,  -154.973E-03,   14.3103E-06
C:/temp/dataset/9/21_9.odb,Step-1,Increment      1: Step Time =    1.000,"PART-1-1",           667,       6.61388,       26.0906,            0.,NA,NA,"",       7.45743,       7.45743,  -6.68176E-03,   16.8242E-06
C:/temp/dataset/9/21_9.odb,Step-1,Increment      1: Step Time =    1.000,"PART-1-1",           668,       10.0237,       13.5556,            0.,NA,NA,"",       5.61480,       5.60269,  -368.669E-03,   28.8739E-06
C:/temp/dataset/9/21_9.odb,Step-1,Increment      1: Step Time =    1.000,"PART-1-1",           669,       8.80148,       12.2659,            0.,NA,NA,"",       5.43131,       5.42841,  -177.482E-03,   41.9284E-06
C:/temp/dataset/9/21_9.odb,Step-1,Increment      1: Step Time =    1.000,"PART-1-1",           670,            5.,          6.25,            0.,NA,NA,"",       4.61546,       4.59452,   439.160E-03,   128.246E-06
C:/temp/dataset/9/21_9.odb,Step-1,Increment      1: Step Time =    1.000,"PART-1-1",           671,       5.87545,       4.76801,            0.,NA,NA,"",       4.38193,       4.36965,   327.830E-03,   245.153E-06
C:/temp/dataset/9/21_9.odb,Step-1,Increment      1: Step Time =    1.000,"PART-1-1",           672,       6.93940,       5.78737,            0.,NA,NA,"",       4.50970,       4.50678,   162.265E-03,   208.738E-06
C:/temp/dataset/9/21_9.odb,Step-1,Increment      1: Step Time =    1.000,"PART-1-1",           673,       7.73520,       4.18036,            0.,NA,NA,"",       4.26538,       4.26490,   63.9919E-03,   268.021E-06
C:/temp/dataset/9/21_9.odb,Step-1,Increment      1: Step Time =    1.000,"PART-1-1",           674,       6.49581,       3.34316,            0.,NA,NA,"",       4.16387,       4.15617,   253.100E-03,   245.772E-06
C:/temp/dataset/9/21_9.odb,Step-1,Increment      1: Step Time =    1.000,"PART-1-1",           675,       7.18979,       1.82766,            0.,NA,NA,"",       3.93237,       3.92875,   168.724E-03,   258.353E-06
C:/temp/dataset/9/21_9.odb,Step-1,Increment      1: Step Time =    1.000,"PART-1-1",           676,       8.42918,       2.66485,            0.,NA,NA,"",       4.03748,       4.03743,  -20.4561E-03,   299.335E-06
C:/temp/dataset/9/21_9.odb,Step-1,Increment      1: Step Time =    1.000,"PART-1-1",           677,  -530.051E-03,       1.39108,            0.,NA,NA,"",       4.15321,       3.94731,       1.29147,   108.687E-06
C:/temp/dataset/9/21_9.odb,Step-1,Increment      1: Step Time =    1.000,"PART-1-1",           678,      -10.1792,       3.73358,            0.,NA,NA,"",       5.13585,       4.38951,       2.66630,   34.5938E-06
C:/temp/dataset/9/21_9.odb,Step-1,Increment      1: Step Time =    1.000,"PART-1-1",           679,      -9.26781,       2.30942,            0.,NA,NA,"",       4.89013,       4.17320,       2.54907,   44.8570E-06
C:/temp/dataset/9/21_9.odb,Step-1,Increment      1: Step Time =    1.000,"PART-1-1",           680,      -7.90097,       2.82902,            0.,NA,NA,"",       4.84019,       4.23407,       2.34522,   50.4644E-06
C:/temp/dataset/9/21_9.odb,Step-1,Increment      1: Step Time =    1.000,"PART-1-1",           681,      -2.90861,       2.25641,            0.,NA,NA,"",       4.40923,       4.09804,       1.62708,   63.6395E-06
C:/temp/dataset/9/21_9.odb,Step-1,Increment      1: Step Time =    1.000,"PART-1-1",           682,      -1.97153,   737.020E-03,            0.,NA,NA,"",       4.15112,       3.86782,       1.50724,   60.9802E-06
C:/temp/dataset/9/21_9.odb,Step-1,Increment      1: Step Time =    1.000,"PART-1-1",           683,      -12.0057,       8.33468,            0.,NA,NA,"",       5.83812,       5.07674,       2.88277,   30.7253E-06
C:/temp/dataset/9/21_9.odb,Step-1,Increment      1: Step Time =    1.000,"PART-1-1",           684,   257.111E-03,       23.5381,            0.,NA,NA,"",       7.21607,       7.15427,   942.393E-03,   25.6087E-06
C:/temp/dataset/9/21_9.odb,Step-1,Increment      1: Step Time =    1.000,"PART-1-1",           685,       2.92443,       23.5127,            0.,NA,NA,"",       7.14408,       7.12243,   555.787E-03,   26.8188E-06
C:/temp/dataset/9/21_9.odb,Step-1,Increment      1: Step Time =    1.000,"PART-1-1",           686,  -872.814E-03,       24.6452,            0.,NA,NA,"",       7.40814,       7.32683,       1.09457,   24.9940E-06
C:/temp/dataset/9/21_9.odb,Step-1,Increment      1: Step Time =    1.000,"PART-1-1",           687,      -2.49287,       25.7554,            0.,NA,NA,"",       7.61986,       7.50504,       1.31782,   17.6848E-06
C:/temp/dataset/9/21_9.odb,Step-1,Increment      1: Step Time =    1.000,"PART-1-1",           688,      -6.57000,       23.0679,            0.,NA,NA,"",       7.41585,       7.15820,       1.93778,   17.5888E-06
C:/temp/dataset/9/21_9.odb,Step-1,Increment      1: Step Time =    1.000,"PART-1-1",           689,      -7.77911,       22.2181,            0.,NA,NA,"",       7.36027,       7.04767,       2.12225,   15.5503E-06
C:/temp/dataset/9/21_9.odb,Step-1,Increment      1: Step Time =    1.000,"PART-1-1",           690,      -6.08757,       21.5970,            0.,NA,NA,"",       7.19066,       6.93964,       1.88333,   28.4257E-06
C:/temp/dataset/9/21_9.odb,Step-1,Increment      1: Step Time =    1.000,"PART-1-1",           691,      -10.6596,       24.7502,            0.,NA,NA,"",       7.85843,       7.44562,       2.51352,   14.2941E-06
C:/temp/dataset/9/21_9.odb,Step-1,Increment      1: Step Time =    1.000,"PART-1-1",           692,      -8.94190,       25.0911,            0.,NA,NA,"",       7.81118,       7.47691,       2.26061,   13.7213E-06
C:/temp/dataset/9/21_9.odb,Step-1,Increment      1: Step Time =    1.000,"PART-1-1",           693,      -9.30563,       26.3338,            0.,NA,NA,"",       7.99896,       7.66109,       2.30025,   14.3041E-06
C:/temp/dataset/9/21_9.odb,Step-1,Increment      1: Step Time =    1.000,"PART-1-1",           694,      -11.0233,       25.9928,            0.,NA,NA,"",       8.04565,       7.62980,       2.55315,   14.4190E-06
C:/temp/dataset/9/21_9.odb,Step-1,Increment      1: Step Time =    1.000,"PART-1-1",           695,      -9.11986,       17.2561,            0.,NA,NA,"",       6.76973,       6.34154,       2.36941,   29.7813E-06
C:/temp/dataset/9/21_9.odb,Step-1,Increment      1: Step Time =    1.000,"PART-1-1",           696,      -11.0116,       7.65423,            0.,NA,NA,"",       5.67573,       4.96742,       2.74567,   29.4363E-06
C:/temp/dataset/9/21_9.odb,Step-1,Increment      1: Step Time =    1.000,"PART-1-1",           697,      -11.6541,       6.30856,            0.,NA,NA,"",       5.56580,       4.77888,       2.85315,   29.8949E-06
C:/temp/dataset/9/21_9.odb,Step-1,Increment      1: Step Time =    1.000,"PART-1-1",           698,      -3.46647,   792.949E-03,            0.,NA,NA,"",       4.25628,       3.89176,       1.72340,   30.4227E-06
C:/temp/dataset/9/21_9.odb,Step-1,Increment      1: Step Time =    1.000,"PART-1-1",           699,      -4.27899,       1.61468,            0.,NA,NA,"",       4.41756,       4.01952,       1.83256,   35.0212E-06
C:/temp/dataset/9/21_9.odb,Step-1,Increment      1: Step Time =    1.000,"PART-1-1",           700,      -5.41602,       1.03976,            0.,NA,NA,"",       4.42748,       3.94820,       2.00356,   40.8590E-06
C:/temp/dataset/9/21_9.odb,Step-1,Increment      1: Step Time =    1.000,"PART-1-1",           701,      -4.60351,   218.037E-03,            0.,NA,NA,"",       4.26433,       3.82044,       1.89438,   35.6589E-06
C:/temp/dataset/9/21_9.odb,Step-1,Increment      1: Step Time =    1.000,"PART-1-1",           702,      -1.96165,  -510.209E-03,            0.,NA,NA,"",       3.98753,       3.68690,       1.51893,   51.9214E-06
C:/temp/dataset/9/21_9.odb,Step-1,Increment      1: Step Time =    1.000,"PART-1-1",           703,      -2.89723,      -2.02996,            0.,NA,NA,"",       3.85708,       3.47650,       1.67064,   53.8733E-06
C:/temp/dataset/9/21_9.odb,Step-1,Increment      1: Step Time =    1.000,"PART-1-1",           704,       6.46823,      -3.22891,            0.,NA,NA,"",       3.21972,       3.20299,   327.825E-03,   1.02635E-03
C:/temp/dataset/9/21_9.odb,Step-1,Increment      1: Step Time =    1.000,"PART-1-1",           705,       5.30305,      -2.18626,            0.,NA,NA,"",       3.40089,       3.36618,   484.606E-03,   781.244E-06
C:/temp/dataset/9/21_9.odb,Step-1,Increment      1: Step Time =    1.000,"PART-1-1",           706,       8.11637,      -13.0290,            0.,NA,NA,"",       1.69498,       1.68716,   162.676E-03,   14.4623E-03
C:/temp/dataset/9/21_9.odb,Step-1,Increment      1: Step Time =    1.000,"PART-1-1",           707,       8.09759,      -10.8135,            0.,NA,NA,"",       2.04216,       2.03660,   150.568E-03,   14.2255E-03
C:/temp/dataset/9/21_9.odb,Step-1,Increment      1: Step Time =    1.000,"PART-1-1",           708,           15.,        -26.25,            0.,NA,NA,"",   295.419E-03,   183.077E-03,  -231.852E-03,   60.9414E-03
C:/temp/dataset/9/21_9.odb,Step-1,Increment      1: Step Time =    1.000,"PART-1-1",           709,       13.6129,      -24.9005,            0.,NA,NA,"",   317.171E-03,   240.829E-03,  -206.394E-03,   40.8781E-03
C:/temp/dataset/9/21_9.odb,Step-1,Increment      1: Step Time =    1.000,"PART-1-1",           710,       12.3352,      -26.1538,            0.,NA,NA,"",   168.131E-03,   138.866E-03,  -94.7842E-03,   30.0190E-03
C:/temp/dataset/9/21_9.odb,Step-1,Increment      1: Step Time =    1.000,"PART-1-1",           711,       11.5115,      -24.0900,            0.,NA,NA,"",   297.896E-03,   282.354E-03,  -94.9641E-03,   20.9639E-03
C:/temp/dataset/9/21_9.odb,Step-1,Increment      1: Step Time =    1.000,"PART-1-1",           712,       12.5793,      -23.4990,            0.,NA,NA,"",   385.143E-03,   340.052E-03,  -180.831E-03,   28.4948E-03
C:/temp/dataset/9/21_9.odb,Step-1,Increment      1: Step Time =    1.000,"PART-1-1",           713,       11.9958,      -21.9645,            0.,NA,NA,"",   511.580E-03,   481.815E-03,  -171.955E-03,   21.9400E-03
C:/temp/dataset/9/21_9.odb,Step-1,Increment      1: Step Time =    1.000,"PART-1-1",           714,           15.,        -23.75,            0.,NA,NA,"",   506.990E-03,   354.276E-03,  -362.667E-03,   51.8363E-03
C:/temp/dataset/9/21_9.odb,Step-1,Increment      1: Step Time =    1.000,"PART-1-1",           715,       11.0775,      -9.24199,            0.,NA,NA,"",       2.25995,       2.24286,  -277.412E-03,   9.48471E-03
C:/temp/dataset/9/21_9.odb,Step-1,Increment      1: Step Time =    1.000,"PART-1-1",           716,       10.0590,      -8.23408,            0.,NA,NA,"",       2.41592,       2.41158,  -144.641E-03,   8.64588E-03
C:/temp/dataset/9/21_9.odb,Step-1,Increment      1: Step Time =    1.000,"PART-1-1",           717,       9.08966,      -9.54059,            0.,NA,NA,"",       2.22244,       2.22244,   3.22268E-03,   12.0377E-03
C:/temp/dataset/9/21_9.odb,Step-1,Increment      1: Step Time =    1.000,"PART-1-1",           718,           15.,         -1.25,            0.,NA,NA,"",       3.52370,       3.39656,  -937.989E-03,   946.086E-06
C:/temp/dataset/9/21_9.odb,Step-1,Increment      1: Step Time =    1.000,"PART-1-1",           719,       12.7047,      -1.36075,            0.,NA,NA,"",       3.45831,       3.40573,  -600.734E-03,   217.005E-06
C:/temp/dataset/9/21_9.odb,Step-1,Increment      1: Step Time =    1.000,"PART-1-1",           720,       10.4122,      -1.52824,            0.,NA,NA,"",       3.41649,       3.40630,  -263.685E-03,   372.266E-06
C:/temp/dataset/9/21_9.odb,Step-1,Increment      1: Step Time =    1.000,"PART-1-1",           721,       11.7321,      -2.88547,            0.,NA,NA,"",       3.22335,       3.19290,  -442.023E-03,   534.950E-06
C:/temp/dataset/9/21_9.odb,Step-1,Increment      1: Step Time =    1.000,"PART-1-1",           722,       13.0447,       6.32641,            0.,NA,NA,"",       4.57949,       4.52074,  -731.137E-03,   136.144E-06
C:/temp/dataset/9/21_9.odb,Step-1,Increment      1: Step Time =    1.000,"PART-1-1",           723,           15.,          6.25,            0.,NA,NA,"",       4.60198,       4.48877,      -1.01451,   189.932E-06
C:/temp/dataset/9/21_9.odb,Step-1,Increment      1: Step Time =    1.000,"PART-1-1",           724,       12.2773,       7.44357,            0.,NA,NA,"",       4.73349,       4.69119,  -631.352E-03,   79.5615E-06
C:/temp/dataset/9/21_9.odb,Step-1,Increment      1: Step Time =    1.000,"PART-1-1",           725,       11.3989,       9.46443,            0.,NA,NA,"",       5.02157,       4.99405,  -525.075E-03,   38.9063E-06
C:/temp/dataset/9/21_9.odb,Step-1,Increment      1: Step Time =    1.000,"PART-1-1",           726,       10.0696,       10.6576,            0.,NA,NA,"",       5.19287,       5.18143,  -344.600E-03,   33.1002E-06
C:/temp/dataset/9/21_9.odb,Step-1,Increment      1: Step Time =    1.000,"PART-1-1",           727,       11.2733,       12.2896,            0.,NA,NA,"",       5.43223,       5.40565,  -536.732E-03,   32.4140E-06
C:/temp/dataset/9/21_9.odb,Step-1,Increment      1: Step Time =    1.000,"PART-1-1",           728,       11.2495,       14.9235,            0.,NA,NA,"",       5.81540,       5.78827,  -561.126E-03,   30.0871E-06
C:/temp/dataset/9/21_9.odb,Step-1,Increment      1: Step Time =    1.000,"PART-1-1",           729,       11.2365,       17.4638,            0.,NA,NA,"",       6.18490,       6.15706,  -586.104E-03,   30.2517E-06
C:/temp/dataset/9/21_9.odb,Step-1,Increment      1: Step Time =    1.000,"PART-1-1",           730,       9.96430,       18.6935,            0.,NA,NA,"",       6.36249,       6.34897,  -414.461E-03,   32.1690E-06
C:/temp/dataset/9/21_9.odb,Step-1,Increment      1: Step Time =    1.000,"PART-1-1",           731,       8.12949,      -15.2371,            0.,NA,NA,"",       1.36451,       1.35377,   170.864E-03,   15.0928E-03
C:/temp/dataset/9/21_9.odb,Step-1,Increment      1: Step Time =    1.000,"PART-1-1",           732,       10.9896,      -6.85237,            0.,NA,NA,"",       2.62679,       2.61056,  -291.558E-03,   5.35442E-03
C:/temp/dataset/9/21_9.odb,Step-1,Increment      1: Step Time =    1.000,"PART-1-1",           733,       10.9332,      -25.1906,            0.,NA,NA,"",   200.123E-03,   194.675E-03,  -46.3807E-03,   17.1988E-03
C:/temp/dataset/9/21_9.odb,Step-1,Increment      1: Step Time =    1.000,"PART-1-1",           734,       11.9281,      -5.46067,            0.,NA,NA,"",       2.84362,       2.80893,  -442.770E-03,   2.49876E-03
C:/temp/dataset/9/21_9.odb,Step-1,Increment      1: Step Time =    1.000,"PART-1-1",           735,      -11.5697,       3.18107,            0.,NA,NA,"",       5.19204,       4.32409,       2.87393,   35.5431E-06
C:/temp/dataset/9/21_9.odb,Step-1,Increment      1: Step Time =    1.000,"PART-1-1",           736,      -10.7341,       2.09613,            0.,NA,NA,"",       4.99277,       4.15781,       2.76413,   39.3045E-06
C:/temp/dataset/9/21_9.odb,Step-1,Increment      1: Step Time =    1.000,"PART-1-1",           737,      -6.76822,       1.80268,            0.,NA,NA,"",       4.62539,       4.07318,       2.19169,   49.2590E-06
C:/temp/dataset/9/21_9.odb,Step-1,Increment      1: Step Time =    1.000,"PART-1-1",           738,      -5.32511,       2.65016,            0.,NA,NA,"",       4.62310,       4.18078,       1.97336,   47.4385E-06
C:/temp/dataset/9/21_9.odb,Step-1,Increment      1: Step Time =    1.000,"PART-1-1",           739,      -6.45786,       3.67650,            0.,NA,NA,"",       4.83465,       4.34169,       2.12686,   59.1771E-06
C:/temp/dataset/9/21_9.odb,Step-1,Increment      1: Step Time =    1.000,"PART-1-1",           740,      -10.1618,       27.4009,            0.,NA,NA,"",       8.18867,       7.82501,       2.41321,   13.9003E-06
C:/temp/dataset/9/21_9.odb,Step-1,Increment      1: Step Time =    1.000,"PART-1-1",           741,      -8.15950,       27.0742,            0.,NA,NA,"",       8.04249,       7.75638,       2.12608,   13.4065E-06
C:/temp/dataset/9/21_9.odb,Step-1,Increment      1: Step Time =    1.000,"PART-1-1",           742,      -8.41457,       23.7439,            0.,NA,NA,"",       7.60067,       7.27582,       2.19833,   14.1833E-06
C:/temp/dataset/9/21_9.odb,Step-1,Increment      1: Step Time =    1.000,"PART-1-1",           743,      -9.76606,       23.0282,            0.,NA,NA,"",       7.57710,       7.18627,       2.40206,   12.0912E-06
C:/temp/dataset/9/21_9.odb,Step-1,Increment      1: Step Time =    1.000,"PART-1-1",           744,      -10.1457,       6.57799,            0.,NA,NA,"",       5.47570,       4.80199,       2.63138,   29.9647E-06
C:/temp/dataset/9/21_9.odb,Step-1,Increment      1: Step Time =    1.000,"PART-1-1",           745,      -11.1466,       5.19230,            0.,NA,NA,"",       5.39045,       4.61147,       2.79129,   31.2486E-06
C:/temp/dataset/9/21_9.odb,Step-1,Increment      1: Step Time =    1.000,"PART-1-1",           746,       7.77017,   782.991E-03,            0.,NA,NA,"",       3.77208,       3.77086,   95.8009E-03,   343.097E-06
C:/temp/dataset/9/21_9.odb,Step-1,Increment      1: Step Time =    1.000,"PART-1-1",           747,       6.09501,       1.10589,            0.,NA,NA,"",       3.85003,       3.83540,   335.311E-03,   284.597E-06
C:/temp/dataset/9/21_9.odb,Step-1,Increment      1: Step Time =    1.000,"PART-1-1",           748,       6.67539,   61.2235E-03,            0.,NA,NA,"",       3.68685,       3.67750,   262.467E-03,   384.508E-06
C:/temp/dataset/9/21_9.odb,Step-1,Increment      1: Step Time =    1.000,"PART-1-1",           749,       5.31672,       2.29333,            0.,NA,NA,"",       4.03960,       4.01607,   435.409E-03,   203.783E-06
C:/temp/dataset/9/21_9.odb,Step-1,Increment      1: Step Time =    1.000,"PART-1-1",           750,      -6.94695,       24.4689,            0.,NA,NA,"",       7.62638,       7.36550,       1.97767,   11.9181E-06
C:/temp/dataset/9/21_9.odb,Step-1,Increment      1: Step Time =    1.000,"PART-1-1",           751,      -2.09966,       23.3616,            0.,NA,NA,"",       7.26825,       7.15355,       1.28611,   30.1327E-06
C:/temp/dataset/9/21_9.odb,Step-1,Increment      1: Step Time =    1.000,"PART-1-1",           752,      -2.87591,       24.2478,            0.,NA,NA,"",       7.42155,       7.29034,       1.38934,   22.6517E-06
C:/temp/dataset/9/21_9.odb,Step-1,Increment      1: Step Time =    1.000,"PART-1-1",           753,       9.53974,       23.7363,            0.,NA,NA,"",       7.09663,       7.08500,  -406.233E-03,   26.1657E-06
C:/temp/dataset/9/21_9.odb,Step-1,Increment      1: Step Time =    1.000,"PART-1-1",           754,      -5.22075,      -2.25347,            0.,NA,NA,"",       4.00892,       3.46858,       2.01007,   54.3052E-06
C:/temp/dataset/9/21_9.odb,Step-1,Increment      1: Step Time =    1.000,"PART-1-1",           755,      -7.55915,      -2.11026,            0.,NA,NA,"",       4.22620,       3.51403,       2.34784,   46.1010E-06
C:/temp/dataset/9/21_9.odb,Step-1,Increment      1: Step Time =    1.000,"PART-1-1",           756,      -4.20325,      -1.24540,            0.,NA,NA,"",       4.05192,       3.60402,       1.85179,   49.5919E-06
C:/temp/dataset/9/21_9.odb,Step-1,Increment      1: Step Time =    1.000,"PART-1-1",           757,       12.0426,       5.30937,            0.,NA,NA,"",       4.42116,       4.38366,  -574.656E-03,   140.460E-06
C:/temp/dataset/9/21_9.odb,Step-1,Increment      1: Step Time =    1.000,"PART-1-1",           758,      -8.17645,       12.8481,            0.,NA,NA,"",       6.13088,       5.69150,       2.27914,   23.0244E-06
C:/temp/dataset/9/21_9.odb,Step-1,Increment      1: Step Time =    1.000,"PART-1-1",           759,      -8.09554,       10.3784,            0.,NA,NA,"",       5.80440,       5.33204,       2.29356,   22.9672E-06
C:/temp/dataset/9/21_9.odb,Step-1,Increment      1: Step Time =    1.000,"PART-1-1",           760,      -8.33007,       15.6293,            0.,NA,NA,"",       6.50653,       6.09697,       2.27199,   27.8448E-06
C:/temp/dataset/9/21_9.odb,Step-1,Increment      1: Step Time =    1.000,"PART-1-1",           761,       12.1122,      -19.7356,            0.,NA,NA,"",   763.948E-03,   728.279E-03,  -230.709E-03,   20.1834E-03
C:/temp/dataset/9/21_9.odb,Step-1,Increment      1: Step Time =    1.000,"PART-1-1",           762,       12.1388,      -17.4254,            0.,NA,NA,"",       1.05831,       1.01988,  -282.618E-03,   17.8895E-03
C:/temp/dataset/9/21_9.odb,Step-1,Increment      1: Step Time =    1.000,"PART-1-1",           763,       12.0361,      -7.90801,            0.,NA,NA,"",       2.47498,       2.43732,  -430.074E-03,   5.90649E-03
C:/temp/dataset/9/21_9.odb,Step-1,Increment      1: Step Time =    1.000,"PART-1-1",           764,       12.0837,      -10.3075,            0.,NA,NA,"",       2.10667,       2.06744,  -404.648E-03,   9.79301E-03
C:/temp/dataset/9/21_9.odb,Step-1,Increment      1: Step Time =    1.000,"PART-1-1",           765,       12.1118,      -12.6921,            0.,NA,NA,"",       1.74094,       1.70108,  -370.383E-03,   13.0796E-03
C:/temp/dataset/9/21_9.odb,Step-1,Increment      1: Step Time =    1.000,"PART-1-1",           766,       12.1357,      -15.0700,            0.,NA,NA,"",       1.38743,       1.34769,  -329.715E-03,   15.5987E-03
C:/temp/dataset/9/21_9.odb,Step-1,Increment      1: Step Time =    1.000,"PART-1-1",           767,      -8.71328,  -792.246E-03,            0.,NA,NA,"",       4.48062,       3.71740,       2.50137,   47.1638E-06
C:/temp/dataset/9/21_9.odb,Step-1,Increment      1: Step Time =    1.000,"PART-1-1",           768,      -7.47429,       25.8162,            0.,NA,NA,"",       7.83674,       7.56658,       2.03995,   11.3373E-06
C:/temp/dataset/9/21_9.odb,Step-1,Increment      1: Step Time =    1.000,"PART-1-1",           769,       9.13729,   756.201E-03,            0.,NA,NA,"",       3.75400,       3.75259,  -102.688E-03,   315.614E-06
C:/temp/dataset/9/21_9.odb,Step-1,Increment      1: Step Time =    1.000,"PART-1-1",           770,       7.76646,  -679.521E-03,            0.,NA,NA,"",       3.56012,       3.55835,   112.280E-03,   410.362E-06
C:/temp/dataset/9/21_9.odb,Step-1,Increment      1: Step Time =    1.000,"PART-1-1",           771,       9.13358,  -706.311E-03,            0.,NA,NA,"",       3.54095,       3.53990,  -86.1931E-03,   395.165E-06
C:/temp/dataset/9/21_9.odb,Step-1,Increment      1: Step Time =    1.000,"PART-1-1",           772,       7.17869,      -1.72980,            0.,NA,NA,"",       3.41843,       3.41203,   208.989E-03,   477.890E-06
C:/temp/dataset/9/21_9.odb,Step-1,Increment      1: Step Time =    1.000,"PART-1-1",           773,       6.08762,  -989.051E-03,            0.,NA,NA,"",       3.54940,       3.53121,   358.885E-03,   563.133E-06
C:/temp/dataset/9/21_9.odb,Step-1,Increment      1: Step Time =    1.000,"PART-1-1",           774,       8.06590,       24.5744,            0.,NA,NA,"",       7.22495,       7.22215,  -201.272E-03,   22.5388E-06
C:/temp/dataset/9/21_9.odb,Step-1,Increment      1: Step Time =    1.000,"PART-1-1",           775,       7.69641,      -4.07963,            0.,NA,NA,"",       3.06984,       3.06574,   158.600E-03,   1.98023E-03
C:/temp/dataset/9/21_9.odb,Step-1,Increment      1: Step Time =    1.000,"PART-1-1",           776,       8.40687,      -2.58051,            0.,NA,NA,"",       3.27535,       3.27511,   39.9099E-03,   844.915E-06
C:/temp/dataset/9/21_9.odb,Step-1,Increment      1: Step Time =    1.000,"PART-1-1",           777,      -9.00797,   684.990E-03,            0.,NA,NA,"",       4.67718,       3.93480,       2.52852,   47.3558E-06
C:/temp/dataset/9/21_9.odb,Step-1,Increment      1: Step Time =    1.000,"PART-1-1",           778,       5.05143,   63.4436E-03,            0.,NA,NA,"",       3.72842,       3.69508,   497.520E-03,   393.634E-06
C:/temp/dataset/9/21_9.odb,Step-1,Increment      1: Step Time =    1.000,"PART-1-1",           779,      -3.45659,  -454.281E-03,            0.,NA,NA,"",       4.09646,       3.71083,       1.73514,   29.9448E-06
C:/temp/dataset/9/21_9.odb,Step-1,Increment      1: Step Time =    1.000,"PART-1-1",           780,      -7.58605,   993.377E-03,            0.,NA,NA,"",       4.59286,       3.96446,       2.31892,   49.6205E-06
