ODB Name,Step,Frame,Part Instance Name,    êﬂì_ÉâÉxÉã,X,Y,Z,Section Name,Material Name,Section Point,   U-Magnitude,          U-U1,          U-U2,       S-Mises
C:/temp/dataset/9/22_9.odb,Step-1,Increment      1: Step Time =    1.000,"PART-1-1",             1,            5.,           20.,            0.,NA,NA,"",       3.65573,       3.64639,   261.026E-03,   1.55382E-06
C:/temp/dataset/9/22_9.odb,Step-1,Increment      1: Step Time =    1.000,"PART-1-1",             2,            0.,           20.,            0.,NA,NA,"",       3.71659,       3.66087,   641.165E-03,   544.869E-09
C:/temp/dataset/9/22_9.odb,Step-1,Increment      1: Step Time =    1.000,"PART-1-1",             3,            5.,          12.5,            0.,NA,NA,"",       3.08917,       3.07621,   282.717E-03,   2.51853E-06
C:/temp/dataset/9/22_9.odb,Step-1,Increment      1: Step Time =    1.000,"PART-1-1",             4,            5.,            5.,            0.,NA,NA,"",       2.52445,       2.50603,   304.404E-03,   5.39668E-06
C:/temp/dataset/9/22_9.odb,Step-1,Increment      1: Step Time =    1.000,"PART-1-1",             5,            0.,            5.,            0.,NA,NA,"",       2.61180,       2.52050,   684.537E-03,   513.802E-09
C:/temp/dataset/9/22_9.odb,Step-1,Increment      1: Step Time =    1.000,"PART-1-1",             6,           -5.,            5.,            0.,NA,NA,"",       2.74948,       2.53496,       1.06471,   4.69932E-06
C:/temp/dataset/9/22_9.odb,Step-1,Increment      1: Step Time =    1.000,"PART-1-1",             7,           -5.,          12.5,            0.,NA,NA,"",       3.27565,       3.10515,       1.04301,   632.799E-09
C:/temp/dataset/9/22_9.odb,Step-1,Increment      1: Step Time =    1.000,"PART-1-1",             8,           -5.,           20.,            0.,NA,NA,"",       3.81461,       3.67534,       1.02130,   1.61049E-06
C:/temp/dataset/9/22_9.odb,Step-1,Increment      1: Step Time =    1.000,"PART-1-1",             9,           15.,           30.,            0.,NA,NA,"",       4.40947,       4.37772,  -528.179E-03,   21.3844E-09
C:/temp/dataset/9/22_9.odb,Step-1,Increment      1: Step Time =    1.000,"PART-1-1",            10,           7.5,           30.,            0.,NA,NA,"",       4.39963,       4.39943,   42.0208E-03,   425.573E-09
C:/temp/dataset/9/22_9.odb,Step-1,Increment      1: Step Time =    1.000,"PART-1-1",            11,            0.,           30.,            0.,NA,NA,"",       4.46333,       4.42114,   612.224E-03,   41.4508E-09
C:/temp/dataset/9/22_9.odb,Step-1,Increment      1: Step Time =    1.000,"PART-1-1",            12,          -7.5,           30.,            0.,NA,NA,"",       4.59750,       4.44284,       1.18243,   281.863E-09
C:/temp/dataset/9/22_9.odb,Step-1,Increment      1: Step Time =    1.000,"PART-1-1",            13,          -15.,           30.,            0.,NA,NA,"",       4.79624,       4.46455,       1.75262,   7.16778E-09
C:/temp/dataset/9/22_9.odb,Step-1,Increment      1: Step Time =    1.000,"PART-1-1",            14,          -15.,         21.25,            0.,NA,NA,"",       4.19475,       3.79932,       1.77795,   181.510E-09
C:/temp/dataset/9/22_9.odb,Step-1,Increment      1: Step Time =    1.000,"PART-1-1",            15,          -15.,          12.5,            0.,NA,NA,"",       3.61585,       3.13410,       1.80327,   981.566E-09
C:/temp/dataset/9/22_9.odb,Step-1,Increment      1: Step Time =    1.000,"PART-1-1",            16,          -15.,          3.75,            0.,NA,NA,"",       3.07231,       2.46886,       1.82861,   1.72339E-06
C:/temp/dataset/9/22_9.odb,Step-1,Increment      1: Step Time =    1.000,"PART-1-1",            17,          -15.,           -5.,            0.,NA,NA,"",       2.58652,       1.80360,       1.85394,   54.3731E-09
C:/temp/dataset/9/22_9.odb,Step-1,Increment      1: Step Time =    1.000,"PART-1-1",            18,          -10.,           -5.,            0.,NA,NA,"",       2.31798,       1.78913,       1.47379,   838.132E-09
C:/temp/dataset/9/22_9.odb,Step-1,Increment      1: Step Time =    1.000,"PART-1-1",            19,           -5.,           -5.,            0.,NA,NA,"",       2.08457,       1.77465,       1.09365,   3.04061E-06
C:/temp/dataset/9/22_9.odb,Step-1,Increment      1: Step Time =    1.000,"PART-1-1",            20,            0.,           -5.,            0.,NA,NA,"",       1.89926,       1.76015,   713.485E-03,   11.8108E-06
C:/temp/dataset/9/22_9.odb,Step-1,Increment      1: Step Time =    1.000,"PART-1-1",            21,            5.,           -5.,            0.,NA,NA,"",       1.77704,       1.74555,   333.059E-03,   212.173E-06
C:/temp/dataset/9/22_9.odb,Step-1,Increment      1: Step Time =    1.000,"PART-1-1",            22,            5.,        -11.25,            0.,NA,NA,"",       1.32987,       1.28505,   342.365E-03,   4.65201E-03
C:/temp/dataset/9/22_9.odb,Step-1,Increment      1: Step Time =    1.000,"PART-1-1",            23,            5.,         -17.5,            0.,NA,NA,"",   849.432E-03,   776.845E-03,   343.580E-03,   12.9051E-03
C:/temp/dataset/9/22_9.odb,Step-1,Increment      1: Step Time =    1.000,"PART-1-1",            24,            5.,        -23.75,            0.,NA,NA,"",   373.703E-03,   290.113E-03,   235.560E-03,   32.1485E-03
C:/temp/dataset/9/22_9.odb,Step-1,Increment      1: Step Time =    1.000,"PART-1-1",            25,            5.,          -30.,            0.,NA,NA,"",            0.,   17.9438E-39,   33.2756E-39,   64.8655E-03
C:/temp/dataset/9/22_9.odb,Step-1,Increment      1: Step Time =    1.000,"PART-1-1",            26,           15.,          -30.,            0.,NA,NA,"",            0.,   18.4157E-39,  -32.3323E-39,   62.5929E-03
C:/temp/dataset/9/22_9.odb,Step-1,Increment      1: Step Time =    1.000,"PART-1-1",            27,           15.,         -22.5,            0.,NA,NA,"",   451.994E-03,   355.432E-03,  -279.224E-03,   26.7317E-03
C:/temp/dataset/9/22_9.odb,Step-1,Increment      1: Step Time =    1.000,"PART-1-1",            28,           15.,          -15.,            0.,NA,NA,"",       1.01513,   934.160E-03,  -397.286E-03,   3.51725E-03
C:/temp/dataset/9/22_9.odb,Step-1,Increment      1: Step Time =    1.000,"PART-1-1",            29,           15.,          -7.5,            0.,NA,NA,"",       1.58342,       1.52641,  -421.065E-03,   642.225E-06
C:/temp/dataset/9/22_9.odb,Step-1,Increment      1: Step Time =    1.000,"PART-1-1",            30,           15.,            0.,            0.,NA,NA,"",       2.14303,       2.09710,  -441.325E-03,   18.3597E-06
C:/temp/dataset/9/22_9.odb,Step-1,Increment      1: Step Time =    1.000,"PART-1-1",            31,           15.,           7.5,            0.,NA,NA,"",       2.70705,       2.66715,  -463.030E-03,   4.68184E-06
C:/temp/dataset/9/22_9.odb,Step-1,Increment      1: Step Time =    1.000,"PART-1-1",            32,           15.,           15.,            0.,NA,NA,"",       3.27342,       3.23732,  -484.756E-03,   2.09520E-06
C:/temp/dataset/9/22_9.odb,Step-1,Increment      1: Step Time =    1.000,"PART-1-1",            33,           15.,          22.5,            0.,NA,NA,"",       3.84106,       3.80752,  -506.471E-03,   672.581E-09
C:/temp/dataset/9/22_9.odb,Step-1,Increment      1: Step Time =    1.000,"PART-1-1",            34,           2.5,           20.,            0.,NA,NA,"",       3.68137,       3.65363,   451.097E-03,   501.598E-09
C:/temp/dataset/9/22_9.odb,Step-1,Increment      1: Step Time =    1.000,"PART-1-1",            35,            5.,           15.,            0.,NA,NA,"",       3.27786,       3.26627,   275.487E-03,   2.29328E-06
C:/temp/dataset/9/22_9.odb,Step-1,Increment      1: Step Time =    1.000,"PART-1-1",            36,            5.,          17.5,            0.,NA,NA,"",       3.46672,       3.45633,   268.257E-03,   2.09581E-06
C:/temp/dataset/9/22_9.odb,Step-1,Increment      1: Step Time =    1.000,"PART-1-1",            37,            5.,           7.5,            0.,NA,NA,"",       2.71242,       2.69609,   297.176E-03,   2.63307E-06
C:/temp/dataset/9/22_9.odb,Step-1,Increment      1: Step Time =    1.000,"PART-1-1",            38,            5.,           10.,            0.,NA,NA,"",       2.90067,       2.88615,   289.946E-03,   2.38813E-06
C:/temp/dataset/9/22_9.odb,Step-1,Increment      1: Step Time =    1.000,"PART-1-1",            39,           2.5,            5.,            0.,NA,NA,"",       2.56144,       2.51326,   494.460E-03,   1.83547E-06
C:/temp/dataset/9/22_9.odb,Step-1,Increment      1: Step Time =    1.000,"PART-1-1",            40,          -2.5,            5.,            0.,NA,NA,"",       2.67477,       2.52773,   874.620E-03,   2.76558E-06
C:/temp/dataset/9/22_9.odb,Step-1,Increment      1: Step Time =    1.000,"PART-1-1",            41,           -5.,           10.,            0.,NA,NA,"",       3.09851,       2.91509,       1.05024,   890.078E-09
C:/temp/dataset/9/22_9.odb,Step-1,Increment      1: Step Time =    1.000,"PART-1-1",            42,           -5.,           7.5,            0.,NA,NA,"",       2.92301,       2.72502,       1.05747,   1.62253E-06
C:/temp/dataset/9/22_9.odb,Step-1,Increment      1: Step Time =    1.000,"PART-1-1",            43,           -5.,          17.5,            0.,NA,NA,"",       3.63388,       3.48528,       1.02854,   385.729E-09
C:/temp/dataset/9/22_9.odb,Step-1,Increment      1: Step Time =    1.000,"PART-1-1",            44,           -5.,           15.,            0.,NA,NA,"",       3.45417,       3.29522,       1.03577,   289.064E-09
C:/temp/dataset/9/22_9.odb,Step-1,Increment      1: Step Time =    1.000,"PART-1-1",            45,          -2.5,           20.,            0.,NA,NA,"",       3.76111,       3.66811,   831.234E-03,   826.408E-09
C:/temp/dataset/9/22_9.odb,Step-1,Increment      1: Step Time =    1.000,"PART-1-1",            46,          12.5,           30.,            0.,NA,NA,"",       4.39797,       4.38496,  -338.113E-03,   43.2623E-09
C:/temp/dataset/9/22_9.odb,Step-1,Increment      1: Step Time =    1.000,"PART-1-1",            47,           10.,           30.,            0.,NA,NA,"",       4.39469,       4.39219,  -148.046E-03,   242.438E-09
C:/temp/dataset/9/22_9.odb,Step-1,Increment      1: Step Time =    1.000,"PART-1-1",            48,            5.,           30.,            0.,NA,NA,"",       4.41277,       4.40667,   232.088E-03,   437.071E-09
C:/temp/dataset/9/22_9.odb,Step-1,Increment      1: Step Time =    1.000,"PART-1-1",            49,           2.5,           30.,            0.,NA,NA,"",       4.43404,       4.41390,   422.156E-03,   272.723E-09
C:/temp/dataset/9/22_9.odb,Step-1,Increment      1: Step Time =    1.000,"PART-1-1",            50,          -2.5,           30.,            0.,NA,NA,"",       4.50046,       4.42837,   802.292E-03,   175.840E-09
C:/temp/dataset/9/22_9.odb,Step-1,Increment      1: Step Time =    1.000,"PART-1-1",            51,           -5.,           30.,            0.,NA,NA,"",       4.54526,       4.43561,   992.359E-03,   298.688E-09
C:/temp/dataset/9/22_9.odb,Step-1,Increment      1: Step Time =    1.000,"PART-1-1",            52,          -10.,           30.,            0.,NA,NA,"",       4.65692,       4.45008,       1.37249,   172.044E-09
C:/temp/dataset/9/22_9.odb,Step-1,Increment      1: Step Time =    1.000,"PART-1-1",            53,         -12.5,           30.,            0.,NA,NA,"",       4.72326,       4.45731,       1.56256,   44.7914E-09
C:/temp/dataset/9/22_9.odb,Step-1,Increment      1: Step Time =    1.000,"PART-1-1",            54,          -15.,       27.8125,            0.,NA,NA,"",       4.64422,       4.29824,       1.75895,   37.0237E-09
C:/temp/dataset/9/22_9.odb,Step-1,Increment      1: Step Time =    1.000,"PART-1-1",            55,          -15.,        25.625,            0.,NA,NA,"",       4.49323,       4.13193,       1.76528,   130.865E-09
C:/temp/dataset/9/22_9.odb,Step-1,Increment      1: Step Time =    1.000,"PART-1-1",            56,          -15.,       23.4375,            0.,NA,NA,"",       4.34336,       3.96563,       1.77162,   202.826E-09
C:/temp/dataset/9/22_9.odb,Step-1,Increment      1: Step Time =    1.000,"PART-1-1",            57,          -15.,       19.0625,            0.,NA,NA,"",       4.04752,       3.63301,       1.78428,   29.1586E-09
C:/temp/dataset/9/22_9.odb,Step-1,Increment      1: Step Time =    1.000,"PART-1-1",            58,          -15.,        16.875,            0.,NA,NA,"",       3.90184,       3.46671,       1.79061,   248.849E-09
C:/temp/dataset/9/22_9.odb,Step-1,Increment      1: Step Time =    1.000,"PART-1-1",            59,          -15.,       14.6875,            0.,NA,NA,"",       3.75788,       3.30040,       1.79694,   600.169E-09
C:/temp/dataset/9/22_9.odb,Step-1,Increment      1: Step Time =    1.000,"PART-1-1",            60,          -15.,       10.3125,            0.,NA,NA,"",       3.47598,       2.96779,       1.80961,   1.36839E-06
C:/temp/dataset/9/22_9.odb,Step-1,Increment      1: Step Time =    1.000,"PART-1-1",            61,          -15.,         8.125,            0.,NA,NA,"",       3.33855,       2.80148,       1.81594,   1.71056E-06
C:/temp/dataset/9/22_9.odb,Step-1,Increment      1: Step Time =    1.000,"PART-1-1",            62,          -15.,        5.9375,            0.,NA,NA,"",       3.20387,       2.63517,       1.82227,   1.84412E-06
C:/temp/dataset/9/22_9.odb,Step-1,Increment      1: Step Time =    1.000,"PART-1-1",            63,          -15.,        1.5625,            0.,NA,NA,"",       2.94427,       2.30255,       1.83494,   1.25859E-06
C:/temp/dataset/9/22_9.odb,Step-1,Increment      1: Step Time =    1.000,"PART-1-1",            64,          -15.,     -625.E-03,            0.,NA,NA,"",       2.82025,       2.13623,       1.84128,   613.115E-09
C:/temp/dataset/9/22_9.odb,Step-1,Increment      1: Step Time =    1.000,"PART-1-1",            65,          -15.,       -2.8125,            0.,NA,NA,"",       2.70078,       1.96992,       1.84761,   105.003E-09
C:/temp/dataset/9/22_9.odb,Step-1,Increment      1: Step Time =    1.000,"PART-1-1",            66,         -12.5,           -5.,            0.,NA,NA,"",       2.44855,       1.79637,       1.66387,   136.054E-09
C:/temp/dataset/9/22_9.odb,Step-1,Increment      1: Step Time =    1.000,"PART-1-1",            67,          -7.5,           -5.,            0.,NA,NA,"",       2.19615,       1.78189,       1.28372,   1.74576E-06
C:/temp/dataset/9/22_9.odb,Step-1,Increment      1: Step Time =    1.000,"PART-1-1",            68,          -2.5,           -5.,            0.,NA,NA,"",       1.98498,       1.76740,   903.571E-03,   4.25786E-06
C:/temp/dataset/9/22_9.odb,Step-1,Increment      1: Step Time =    1.000,"PART-1-1",            69,           2.5,           -5.,            0.,NA,NA,"",       1.82936,       1.75289,   523.386E-03,   36.2473E-06
C:/temp/dataset/9/22_9.odb,Step-1,Increment      1: Step Time =    1.000,"PART-1-1",            70,            5.,      -7.08333,            0.,NA,NA,"",       1.62308,       1.58752,   337.931E-03,   808.471E-06
C:/temp/dataset/9/22_9.odb,Step-1,Increment      1: Step Time =    1.000,"PART-1-1",            71,            5.,      -9.16667,            0.,NA,NA,"",       1.47148,       1.43118,   342.000E-03,   1.95014E-03
C:/temp/dataset/9/22_9.odb,Step-1,Increment      1: Step Time =    1.000,"PART-1-1",            72,            5.,      -13.3333,            0.,NA,NA,"",       1.18657,       1.13443,   347.892E-03,   8.91867E-03
C:/temp/dataset/9/22_9.odb,Step-1,Increment      1: Step Time =    1.000,"PART-1-1",            73,            5.,      -15.4167,            0.,NA,NA,"",       1.02524,   964.217E-03,   348.434E-03,   10.2603E-03
C:/temp/dataset/9/22_9.odb,Step-1,Increment      1: Step Time =    1.000,"PART-1-1",            74,            5.,      -19.5833,            0.,NA,NA,"",   673.098E-03,   591.933E-03,   320.432E-03,   19.1863E-03
C:/temp/dataset/9/22_9.odb,Step-1,Increment      1: Step Time =    1.000,"PART-1-1",            75,            5.,      -21.6667,            0.,NA,NA,"",   516.277E-03,   430.554E-03,   284.895E-03,   25.4785E-03
C:/temp/dataset/9/22_9.odb,Step-1,Increment      1: Step Time =    1.000,"PART-1-1",            76,            5.,      -25.8333,            0.,NA,NA,"",   245.237E-03,   173.883E-03,   172.933E-03,   37.8264E-03
C:/temp/dataset/9/22_9.odb,Step-1,Increment      1: Step Time =    1.000,"PART-1-1",            77,            5.,      -27.9167,            0.,NA,NA,"",   129.761E-03,   85.1430E-03,   97.9215E-03,   48.0196E-03
C:/temp/dataset/9/22_9.odb,Step-1,Increment      1: Step Time =    1.000,"PART-1-1",            78,           7.5,          -30.,            0.,NA,NA,"",            0.,   12.6843E-39,   36.7493E-39,   16.2514E-03
C:/temp/dataset/9/22_9.odb,Step-1,Increment      1: Step Time =    1.000,"PART-1-1",            79,           10.,          -30.,            0.,NA,NA,"",            0.,   1.89945E-39,   5.14069E-39,   2.86475E-03
C:/temp/dataset/9/22_9.odb,Step-1,Increment      1: Step Time =    1.000,"PART-1-1",            80,          12.5,          -30.,            0.,NA,NA,"",            0.,   22.2498E-39,  -42.2309E-39,   15.5937E-03
C:/temp/dataset/9/22_9.odb,Step-1,Increment      1: Step Time =    1.000,"PART-1-1",            81,           15.,         -27.5,            0.,NA,NA,"",   149.141E-03,   94.6129E-03,  -115.288E-03,   46.7707E-03
C:/temp/dataset/9/22_9.odb,Step-1,Increment      1: Step Time =    1.000,"PART-1-1",            82,           15.,          -25.,            0.,NA,NA,"",   290.894E-03,   206.305E-03,  -205.080E-03,   34.6885E-03
C:/temp/dataset/9/22_9.odb,Step-1,Increment      1: Step Time =    1.000,"PART-1-1",            83,           15.,          -20.,            0.,NA,NA,"",   630.325E-03,   533.403E-03,  -335.845E-03,   17.8865E-03
C:/temp/dataset/9/22_9.odb,Step-1,Increment      1: Step Time =    1.000,"PART-1-1",            84,           15.,         -17.5,            0.,NA,NA,"",   820.617E-03,   730.152E-03,  -374.554E-03,   9.79102E-03
C:/temp/dataset/9/22_9.odb,Step-1,Increment      1: Step Time =    1.000,"PART-1-1",            85,           15.,         -12.5,            0.,NA,NA,"",       1.20785,       1.13654,  -408.879E-03,   144.892E-06
C:/temp/dataset/9/22_9.odb,Step-1,Increment      1: Step Time =    1.000,"PART-1-1",            86,           15.,          -10.,            0.,NA,NA,"",       1.39685,       1.33365,  -415.397E-03,   851.679E-06
C:/temp/dataset/9/22_9.odb,Step-1,Increment      1: Step Time =    1.000,"PART-1-1",            87,           15.,           -5.,            0.,NA,NA,"",       1.76946,       1.71708,  -427.345E-03,   286.663E-06
C:/temp/dataset/9/22_9.odb,Step-1,Increment      1: Step Time =    1.000,"PART-1-1",            88,           15.,          -2.5,            0.,NA,NA,"",       1.95593,       1.90713,  -434.199E-03,   90.7463E-06
C:/temp/dataset/9/22_9.odb,Step-1,Increment      1: Step Time =    1.000,"PART-1-1",            89,           15.,           2.5,            0.,NA,NA,"",       2.33066,       2.28709,  -448.543E-03,   2.94757E-06
C:/temp/dataset/9/22_9.odb,Step-1,Increment      1: Step Time =    1.000,"PART-1-1",            90,           15.,            5.,            0.,NA,NA,"",       2.51869,       2.47711,  -455.785E-03,   5.48562E-06
C:/temp/dataset/9/22_9.odb,Step-1,Increment      1: Step Time =    1.000,"PART-1-1",            91,           15.,           10.,            0.,NA,NA,"",       2.89565,       2.85721,  -470.274E-03,   3.51515E-06
C:/temp/dataset/9/22_9.odb,Step-1,Increment      1: Step Time =    1.000,"PART-1-1",            92,           15.,          12.5,            0.,NA,NA,"",       3.08445,       3.04726,  -477.515E-03,   2.67914E-06
C:/temp/dataset/9/22_9.odb,Step-1,Increment      1: Step Time =    1.000,"PART-1-1",            93,           15.,          17.5,            0.,NA,NA,"",       3.46252,       3.42739,  -491.995E-03,   1.61000E-06
C:/temp/dataset/9/22_9.odb,Step-1,Increment      1: Step Time =    1.000,"PART-1-1",            94,           15.,           20.,            0.,NA,NA,"",       3.65174,       3.61745,  -499.234E-03,   1.13272E-06
C:/temp/dataset/9/22_9.odb,Step-1,Increment      1: Step Time =    1.000,"PART-1-1",            95,           15.,           25.,            0.,NA,NA,"",       4.03046,       3.99759,  -513.708E-03,   290.007E-09
C:/temp/dataset/9/22_9.odb,Step-1,Increment      1: Step Time =    1.000,"PART-1-1",            96,           15.,          27.5,            0.,NA,NA,"",       4.21993,       4.18765,  -520.944E-03,   46.1740E-09
C:/temp/dataset/9/22_9.odb,Step-1,Increment      1: Step Time =    1.000,"PART-1-1",            97,       7.09255,      -21.6558,            0.,NA,NA,"",   435.248E-03,   408.343E-03,   150.656E-03,   17.3390E-03
C:/temp/dataset/9/22_9.odb,Step-1,Increment      1: Step Time =    1.000,"PART-1-1",            98,       7.09346,      -17.4368,            0.,NA,NA,"",   780.333E-03,   760.047E-03,   176.771E-03,   15.5738E-03
C:/temp/dataset/9/22_9.odb,Step-1,Increment      1: Step Time =    1.000,"PART-1-1",            99,       7.15828,      -23.7452,            0.,NA,NA,"",   289.723E-03,   263.120E-03,   121.273E-03,   20.7366E-03
C:/temp/dataset/9/22_9.odb,Step-1,Increment      1: Step Time =    1.000,"PART-1-1",           100,       7.44609,      -27.8729,            0.,NA,NA,"",   66.2168E-03,   53.0611E-03,   39.6128E-03,   26.9152E-03
C:/temp/dataset/9/22_9.odb,Step-1,Increment      1: Step Time =    1.000,"PART-1-1",           101,       7.30780,      -25.7939,            0.,NA,NA,"",   164.915E-03,   143.648E-03,   81.0068E-03,   24.6423E-03
C:/temp/dataset/9/22_9.odb,Step-1,Increment      1: Step Time =    1.000,"PART-1-1",           102,       7.08258,      -10.9526,            0.,NA,NA,"",       1.30738,       1.29334,   191.065E-03,   4.19489E-03
C:/temp/dataset/9/22_9.odb,Step-1,Increment      1: Step Time =    1.000,"PART-1-1",           103,       7.09950,      -13.1236,            0.,NA,NA,"",       1.14528,       1.12959,   188.935E-03,   9.44353E-03
C:/temp/dataset/9/22_9.odb,Step-1,Increment      1: Step Time =    1.000,"PART-1-1",           104,       6.95448,      -6.62029,            0.,NA,NA,"",       1.62779,       1.61672,   189.512E-03,   373.564E-06
C:/temp/dataset/9/22_9.odb,Step-1,Increment      1: Step Time =    1.000,"PART-1-1",           105,       7.04974,      -8.78764,            0.,NA,NA,"",       1.46507,       1.45286,   188.754E-03,   786.380E-06
C:/temp/dataset/9/22_9.odb,Step-1,Increment      1: Step Time =    1.000,"PART-1-1",           106,       7.10540,      -15.2896,            0.,NA,NA,"",   967.870E-03,   950.369E-03,   183.226E-03,   12.7565E-03
C:/temp/dataset/9/22_9.odb,Step-1,Increment      1: Step Time =    1.000,"PART-1-1",           107,       7.08223,      -19.5608,            0.,NA,NA,"",   598.117E-03,   574.034E-03,   168.013E-03,   14.1676E-03
C:/temp/dataset/9/22_9.odb,Step-1,Increment      1: Step Time =    1.000,"PART-1-1",           108,      -11.8989,       25.3809,            0.,NA,NA,"",       4.38037,       4.10440,       1.53023,   128.326E-09
C:/temp/dataset/9/22_9.odb,Step-1,Increment      1: Step Time =    1.000,"PART-1-1",           109,      -12.7134,       3.51066,            0.,NA,NA,"",       2.95193,       2.44405,       1.65546,   1.12724E-06
C:/temp/dataset/9/22_9.odb,Step-1,Increment      1: Step Time =    1.000,"PART-1-1",           110,      -13.0834,       10.3867,            0.,NA,NA,"",       3.40237,       2.96788,       1.66368,   971.613E-09
C:/temp/dataset/9/22_9.odb,Step-1,Increment      1: Step Time =    1.000,"PART-1-1",           111,      -12.9355,       8.20912,            0.,NA,NA,"",       3.25608,       2.80190,       1.65874,   1.07635E-06
C:/temp/dataset/9/22_9.odb,Step-1,Increment      1: Step Time =    1.000,"PART-1-1",           112,      -13.1801,       12.5484,            0.,NA,NA,"",       3.54741,       3.13251,       1.66478,   804.476E-09
C:/temp/dataset/9/22_9.odb,Step-1,Increment      1: Step Time =    1.000,"PART-1-1",           113,      -12.7454,       20.6010,            0.,NA,NA,"",       4.07437,       3.74346,       1.60841,   202.155E-09
C:/temp/dataset/9/22_9.odb,Step-1,Increment      1: Step Time =    1.000,"PART-1-1",           114,      -13.1621,       18.5389,            0.,NA,NA,"",       3.94746,       3.58789,       1.64606,   322.865E-09
C:/temp/dataset/9/22_9.odb,Step-1,Increment      1: Step Time =    1.000,"PART-1-1",           115,      -12.3840,       22.8683,            0.,NA,NA,"",       4.21950,       3.91478,       1.57438,   81.9990E-09
C:/temp/dataset/9/22_9.odb,Step-1,Increment      1: Step Time =    1.000,"PART-1-1",           116,      -13.4658,       16.5948,            0.,NA,NA,"",       3.82689,       3.44096,       1.67478,   436.846E-09
C:/temp/dataset/9/22_9.odb,Step-1,Increment      1: Step Time =    1.000,"PART-1-1",           117,      -13.3466,       14.6489,            0.,NA,NA,"",       3.69258,       3.29268,       1.67135,   617.490E-09
C:/temp/dataset/9/22_9.odb,Step-1,Increment      1: Step Time =    1.000,"PART-1-1",           118,      -12.3609,       5.76892,            0.,NA,NA,"",       3.07701,       2.61472,       1.62212,   1.00568E-06
C:/temp/dataset/9/22_9.odb,Step-1,Increment      1: Step Time =    1.000,"PART-1-1",           119,      -12.8583,       1.39410,            0.,NA,NA,"",       2.83058,       2.28354,       1.67260,   1.12494E-06
C:/temp/dataset/9/22_9.odb,Step-1,Increment      1: Step Time =    1.000,"PART-1-1",           120,      -12.6304,  -685.754E-03,            0.,NA,NA,"",       2.69712,       2.12475,       1.66129,   999.358E-09
C:/temp/dataset/9/22_9.odb,Step-1,Increment      1: Step Time =    1.000,"PART-1-1",           121,   38.5673E-03,       27.2989,            0.,NA,NA,"",       4.26060,       4.21567,   617.110E-03,   359.503E-09
C:/temp/dataset/9/22_9.odb,Step-1,Increment      1: Step Time =    1.000,"PART-1-1",           122,      -4.16985,       22.2766,            0.,NA,NA,"",       3.96199,       3.84602,   951.599E-03,   524.247E-09
C:/temp/dataset/9/22_9.odb,Step-1,Increment      1: Step Time =    1.000,"PART-1-1",           123,      -7.85548,       28.0855,            0.,NA,NA,"",       4.46674,       4.29832,       1.21499,   128.967E-09
C:/temp/dataset/9/22_9.odb,Step-1,Increment      1: Step Time =    1.000,"PART-1-1",           124,       9.92813,      -27.7267,            0.,NA,NA,"",   44.8498E-03,   44.8249E-03,   1.49436E-03,   14.5642E-03
C:/temp/dataset/9/22_9.odb,Step-1,Increment      1: Step Time =    1.000,"PART-1-1",           125,       13.1106,      -17.4438,            0.,NA,NA,"",   768.811E-03,   733.401E-03,  -230.636E-03,   10.4172E-03
C:/temp/dataset/9/22_9.odb,Step-1,Increment      1: Step Time =    1.000,"PART-1-1",           126,       12.8150,       2.64061,            0.,NA,NA,"",       2.32139,       2.30410,  -282.863E-03,   9.56222E-06
C:/temp/dataset/9/22_9.odb,Step-1,Increment      1: Step Time =    1.000,"PART-1-1",           127,       7.56819,       12.3225,            0.,NA,NA,"",       3.05654,       3.05527,   87.9873E-03,   1.52004E-06
C:/temp/dataset/9/22_9.odb,Step-1,Increment      1: Step Time =    1.000,"PART-1-1",           128,       7.47113,       19.8748,            0.,NA,NA,"",       3.63047,       3.62972,   73.5168E-03,   967.028E-09
C:/temp/dataset/9/22_9.odb,Step-1,Increment      1: Step Time =    1.000,"PART-1-1",           129,       12.4223,       27.5153,            0.,NA,NA,"",       4.20885,       4.19628,  -325.014E-03,   240.877E-09
C:/temp/dataset/9/22_9.odb,Step-1,Increment      1: Step Time =    1.000,"PART-1-1",           130,       12.3750,       22.5091,            0.,NA,NA,"",       3.82813,       3.81581,  -306.928E-03,   661.451E-09
C:/temp/dataset/9/22_9.odb,Step-1,Increment      1: Step Time =    1.000,"PART-1-1",           131,       7.58839,       27.9970,            0.,NA,NA,"",       4.24709,       4.24689,   41.0977E-03,   347.446E-09
C:/temp/dataset/9/22_9.odb,Step-1,Increment      1: Step Time =    1.000,"PART-1-1",           132,   199.805E-03,       22.3057,            0.,NA,NA,"",       3.88526,       3.83558,   619.302E-03,   480.575E-09
C:/temp/dataset/9/22_9.odb,Step-1,Increment      1: Step Time =    1.000,"PART-1-1",           133,       12.6934,       9.82310,            0.,NA,NA,"",       2.86559,       2.85043,  -294.407E-03,   1.69961E-06
C:/temp/dataset/9/22_9.odb,Step-1,Increment      1: Step Time =    1.000,"PART-1-1",           134,      -7.14717,       12.7802,            0.,NA,NA,"",       3.35659,       3.13267,       1.20544,   518.190E-09
C:/temp/dataset/9/22_9.odb,Step-1,Increment      1: Step Time =    1.000,"PART-1-1",           135,      -6.86178,       17.9412,            0.,NA,NA,"",       3.71298,       3.52422,       1.16880,   759.115E-09
C:/temp/dataset/9/22_9.odb,Step-1,Increment      1: Step Time =    1.000,"PART-1-1",           136,      -2.68307,      -2.95682,            0.,NA,NA,"",       2.12838,       1.92328,   911.578E-03,   3.08812E-06
C:/temp/dataset/9/22_9.odb,Step-1,Increment      1: Step Time =    1.000,"PART-1-1",           137,      -7.59808,      -3.03341,            0.,NA,NA,"",       2.32033,       1.93169,       1.28549,   1.55222E-06
C:/temp/dataset/9/22_9.odb,Step-1,Increment      1: Step Time =    1.000,"PART-1-1",           138,  -248.196E-03,       2.69947,            0.,NA,NA,"",       2.45140,       2.34631,   710.069E-03,   3.42812E-06
C:/temp/dataset/9/22_9.odb,Step-1,Increment      1: Step Time =    1.000,"PART-1-1",           139,       2.16631,      -2.47375,            0.,NA,NA,"",       2.01990,       1.94597,   541.461E-03,   17.2986E-06
C:/temp/dataset/9/22_9.odb,Step-1,Increment      1: Step Time =    1.000,"PART-1-1",           140,       4.39271,       2.43636,            0.,NA,NA,"",       2.34041,       2.31287,   357.985E-03,   7.31416E-06
C:/temp/dataset/9/22_9.odb,Step-1,Increment      1: Step Time =    1.000,"PART-1-1",           141,       12.9283,      -5.27800,            0.,NA,NA,"",       1.72317,       1.70210,  -268.618E-03,   253.911E-06
C:/temp/dataset/9/22_9.odb,Step-1,Increment      1: Step Time =    1.000,"PART-1-1",           142,       13.0847,      -12.6172,            0.,NA,NA,"",       1.16190,       1.13280,  -258.388E-03,   2.63039E-03
C:/temp/dataset/9/22_9.odb,Step-1,Increment      1: Step Time =    1.000,"PART-1-1",           143,       12.4838,       17.4790,            0.,NA,NA,"",       3.44621,       3.43307,  -300.641E-03,   978.778E-09
C:/temp/dataset/9/22_9.odb,Step-1,Increment      1: Step Time =    1.000,"PART-1-1",           144,       2.63438,       22.2143,            0.,NA,NA,"",       3.84621,       3.82159,   434.472E-03,   488.457E-09
C:/temp/dataset/9/22_9.odb,Step-1,Increment      1: Step Time =    1.000,"PART-1-1",           145,       7.54366,       14.9275,            0.,NA,NA,"",       3.25443,       3.25339,   82.3164E-03,   1.33208E-06
C:/temp/dataset/9/22_9.odb,Step-1,Increment      1: Step Time =    1.000,"PART-1-1",           146,       7.50510,       17.4443,            0.,NA,NA,"",       3.44573,       3.44484,   77.9664E-03,   1.05967E-06
C:/temp/dataset/9/22_9.odb,Step-1,Increment      1: Step Time =    1.000,"PART-1-1",           147,       7.12790,       7.03873,            0.,NA,NA,"",       2.65838,       2.65486,   136.742E-03,   2.40209E-06
C:/temp/dataset/9/22_9.odb,Step-1,Increment      1: Step Time =    1.000,"PART-1-1",           148,       7.48952,       9.64170,            0.,NA,NA,"",       2.85351,       2.85170,   101.722E-03,   1.89801E-06
C:/temp/dataset/9/22_9.odb,Step-1,Increment      1: Step Time =    1.000,"PART-1-1",           149,       2.16717,       2.56251,            0.,NA,NA,"",       2.38775,       2.32890,   526.820E-03,   2.19813E-06
C:/temp/dataset/9/22_9.odb,Step-1,Increment      1: Step Time =    1.000,"PART-1-1",           150,      -2.68606,       3.12146,            0.,NA,NA,"",       2.54754,       2.38544,   894.206E-03,   2.83631E-06
C:/temp/dataset/9/22_9.odb,Step-1,Increment      1: Step Time =    1.000,"PART-1-1",           151,      -7.08307,       10.2840,            0.,NA,NA,"",       3.18093,       2.94271,       1.20779,   747.904E-09
C:/temp/dataset/9/22_9.odb,Step-1,Increment      1: Step Time =    1.000,"PART-1-1",           152,      -2.13928,       22.2031,            0.,NA,NA,"",       3.91660,       3.83456,   797.433E-03,   691.364E-09
C:/temp/dataset/9/22_9.odb,Step-1,Increment      1: Step Time =    1.000,"PART-1-1",           153,       9.90766,       27.6812,            0.,NA,NA,"",       4.21831,       4.21617,  -134.315E-03,   341.975E-09
C:/temp/dataset/9/22_9.odb,Step-1,Increment      1: Step Time =    1.000,"PART-1-1",           154,       5.18317,       27.8350,            0.,NA,NA,"",       4.24747,       4.24154,   224.428E-03,   346.466E-09
C:/temp/dataset/9/22_9.odb,Step-1,Increment      1: Step Time =    1.000,"PART-1-1",           155,       2.70091,       27.4744,            0.,NA,NA,"",       4.24157,       4.22130,   414.191E-03,   372.647E-09
C:/temp/dataset/9/22_9.odb,Step-1,Increment      1: Step Time =    1.000,"PART-1-1",           156,      -2.92570,       26.9909,            0.,NA,NA,"",       4.28465,       4.20083,   843.366E-03,   251.308E-09
C:/temp/dataset/9/22_9.odb,Step-1,Increment      1: Step Time =    1.000,"PART-1-1",           157,      -5.52449,       27.7330,            0.,NA,NA,"",       4.38946,       4.26477,       1.03880,   93.2099E-09
C:/temp/dataset/9/22_9.odb,Step-1,Increment      1: Step Time =    1.000,"PART-1-1",           158,      -10.1759,       28.1970,            0.,NA,NA,"",       4.53227,       4.31351,       1.39108,   138.836E-09
C:/temp/dataset/9/22_9.odb,Step-1,Increment      1: Step Time =    1.000,"PART-1-1",           159,      -7.15795,       15.3782,            0.,NA,NA,"",       3.53940,       3.33022,       1.19874,   483.252E-09
C:/temp/dataset/9/22_9.odb,Step-1,Increment      1: Step Time =    1.000,"PART-1-1",           160,      -7.10855,       7.92361,            0.,NA,NA,"",       3.01927,       2.76333,       1.21656,   1.26687E-06
C:/temp/dataset/9/22_9.odb,Step-1,Increment      1: Step Time =    1.000,"PART-1-1",           161,      -7.31416,       5.72319,            0.,NA,NA,"",       2.87690,       2.59664,       1.23856,   1.30486E-06
C:/temp/dataset/9/22_9.odb,Step-1,Increment      1: Step Time =    1.000,"PART-1-1",           162,      -10.0288,      -2.82434,            0.,NA,NA,"",       2.44552,       1.95463,       1.46969,   1.14437E-06
C:/temp/dataset/9/22_9.odb,Step-1,Increment      1: Step Time =    1.000,"PART-1-1",           163,      -5.14639,      -3.11924,            0.,NA,NA,"",       2.21078,       1.91807,       1.09934,   1.92326E-06
C:/temp/dataset/9/22_9.odb,Step-1,Increment      1: Step Time =    1.000,"PART-1-1",           164,  -261.821E-03,      -2.60038,            0.,NA,NA,"",       2.07472,       1.94338,   726.452E-03,   4.37999E-06
C:/temp/dataset/9/22_9.odb,Step-1,Increment      1: Step Time =    1.000,"PART-1-1",           165,       4.38015,      -2.33295,            0.,NA,NA,"",       1.98555,       1.95026,   372.698E-03,   30.6332E-06
C:/temp/dataset/9/22_9.odb,Step-1,Increment      1: Step Time =    1.000,"PART-1-1",           166,       13.0639,      -10.1924,            0.,NA,NA,"",       1.35113,       1.32492,  -264.849E-03,   521.316E-06
C:/temp/dataset/9/22_9.odb,Step-1,Increment      1: Step Time =    1.000,"PART-1-1",           167,       13.0843,      -19.8267,            0.,NA,NA,"",   575.752E-03,   539.119E-03,  -202.092E-03,   14.6769E-03
C:/temp/dataset/9/22_9.odb,Step-1,Increment      1: Step Time =    1.000,"PART-1-1",           168,       12.4446,      -27.5067,            0.,NA,NA,"",   76.2526E-03,   62.4856E-03,  -43.7036E-03,   25.4267E-03
C:/temp/dataset/9/22_9.odb,Step-1,Increment      1: Step Time =    1.000,"PART-1-1",           169,       12.9329,      -22.1971,            0.,NA,NA,"",   393.533E-03,   360.393E-03,  -158.065E-03,   18.4585E-03
C:/temp/dataset/9/22_9.odb,Step-1,Increment      1: Step Time =    1.000,"PART-1-1",           170,       13.1086,      -15.0383,            0.,NA,NA,"",   966.777E-03,   934.252E-03,  -248.659E-03,   6.18707E-03
C:/temp/dataset/9/22_9.odb,Step-1,Increment      1: Step Time =    1.000,"PART-1-1",           171,       13.0208,      -7.75462,            0.,NA,NA,"",       1.53673,       1.51307,  -268.604E-03,   263.778E-06
C:/temp/dataset/9/22_9.odb,Step-1,Increment      1: Step Time =    1.000,"PART-1-1",           172,       12.7756,      -2.70708,            0.,NA,NA,"",       1.91621,       1.89788,  -264.398E-03,   122.635E-06
C:/temp/dataset/9/22_9.odb,Step-1,Increment      1: Step Time =    1.000,"PART-1-1",           173,       12.6338,  -14.4220E-03,            0.,NA,NA,"",       2.11904,       2.10285,  -261.401E-03,   41.1731E-06
C:/temp/dataset/9/22_9.odb,Step-1,Increment      1: Step Time =    1.000,"PART-1-1",           174,       13.0186,       5.13380,            0.,NA,NA,"",       2.51167,       2.49301,  -305.552E-03,   2.02826E-06
C:/temp/dataset/9/22_9.odb,Step-1,Increment      1: Step Time =    1.000,"PART-1-1",           175,       13.0709,       7.51902,            0.,NA,NA,"",       2.69284,       2.67418,  -316.438E-03,   2.11118E-06
C:/temp/dataset/9/22_9.odb,Step-1,Increment      1: Step Time =    1.000,"PART-1-1",           176,       12.5119,       12.3699,            0.,NA,NA,"",       3.05816,       3.04457,  -287.984E-03,   1.37174E-06
C:/temp/dataset/9/22_9.odb,Step-1,Increment      1: Step Time =    1.000,"PART-1-1",           177,       12.4863,       14.9454,            0.,NA,NA,"",       3.25371,       3.24044,  -293.491E-03,   1.14334E-06
C:/temp/dataset/9/22_9.odb,Step-1,Increment      1: Step Time =    1.000,"PART-1-1",           178,       12.4500,       19.9932,            0.,NA,NA,"",       3.63715,       3.62431,  -305.347E-03,   833.756E-09
C:/temp/dataset/9/22_9.odb,Step-1,Increment      1: Step Time =    1.000,"PART-1-1",           179,       9.19048,      -23.6482,            0.,NA,NA,"",   258.111E-03,   256.190E-03,   31.4333E-03,   15.5187E-03
C:/temp/dataset/9/22_9.odb,Step-1,Increment      1: Step Time =    1.000,"PART-1-1",           180,       9.11932,      -19.5624,            0.,NA,NA,"",   564.060E-03,   562.697E-03,   39.1952E-03,   15.2102E-03
C:/temp/dataset/9/22_9.odb,Step-1,Increment      1: Step Time =    1.000,"PART-1-1",           181,       9.13323,      -12.9344,            0.,NA,NA,"",       1.12712,       1.12648,   37.9676E-03,   6.53063E-03
C:/temp/dataset/9/22_9.odb,Step-1,Increment      1: Step Time =    1.000,"PART-1-1",           182,       9.14303,      -17.4019,            0.,NA,NA,"",   748.451E-03,   747.552E-03,   36.6695E-03,   14.4781E-03
C:/temp/dataset/9/22_9.odb,Step-1,Increment      1: Step Time =    1.000,"PART-1-1",           183,       9.11260,      -10.6744,            0.,NA,NA,"",       1.30373,       1.30319,   37.5395E-03,   2.34409E-03
C:/temp/dataset/9/22_9.odb,Step-1,Increment      1: Step Time =    1.000,"PART-1-1",           184,       9.06671,      -8.40676,            0.,NA,NA,"",       1.47589,       1.47546,   35.3778E-03,   466.593E-06
C:/temp/dataset/9/22_9.odb,Step-1,Increment      1: Step Time =    1.000,"PART-1-1",           185,       9.15359,      -15.1846,            0.,NA,NA,"",   940.405E-03,   939.715E-03,   36.0158E-03,   11.2935E-03
C:/temp/dataset/9/22_9.odb,Step-1,Increment      1: Step Time =    1.000,"PART-1-1",           186,       9.09437,      -21.6308,            0.,NA,NA,"",   400.484E-03,   398.497E-03,   39.8468E-03,   15.1427E-03
C:/temp/dataset/9/22_9.odb,Step-1,Increment      1: Step Time =    1.000,"PART-1-1",           187,       8.94944,      -6.10597,            0.,NA,NA,"",       1.65071,       1.65029,   37.1032E-03,   363.589E-06
C:/temp/dataset/9/22_9.odb,Step-1,Increment      1: Step Time =    1.000,"PART-1-1",           188,      -11.3189,       17.6054,            0.,NA,NA,"",       3.82194,       3.51159,       1.50864,   586.520E-09
C:/temp/dataset/9/22_9.odb,Step-1,Increment      1: Step Time =    1.000,"PART-1-1",           189,      -10.4260,       2.85148,            0.,NA,NA,"",       2.81068,       2.38731,       1.48346,   1.17014E-06
C:/temp/dataset/9/22_9.odb,Step-1,Increment      1: Step Time =    1.000,"PART-1-1",           190,      -12.4413,       27.8959,            0.,NA,NA,"",       4.57301,       4.29718,       1.56418,   117.200E-09
C:/temp/dataset/9/22_9.odb,Step-1,Increment      1: Step Time =    1.000,"PART-1-1",           191,      -10.6658,       19.6683,            0.,NA,NA,"",       3.94394,       3.66653,       1.45301,   449.272E-09
C:/temp/dataset/9/22_9.odb,Step-1,Increment      1: Step Time =    1.000,"PART-1-1",           192,      -12.1118,       16.4066,            0.,NA,NA,"",       3.76663,       3.42274,       1.57238,   580.486E-09
C:/temp/dataset/9/22_9.odb,Step-1,Increment      1: Step Time =    1.000,"PART-1-1",           193,      -11.5166,       14.9043,            0.,NA,NA,"",       3.64423,       3.30681,       1.53149,   693.442E-09
C:/temp/dataset/9/22_9.odb,Step-1,Increment      1: Step Time =    1.000,"PART-1-1",           194,      -11.2054,       12.7278,            0.,NA,NA,"",       3.48639,       3.14043,       1.51413,   756.338E-09
C:/temp/dataset/9/22_9.odb,Step-1,Increment      1: Step Time =    1.000,"PART-1-1",           195,      -11.1139,       10.5020,            0.,NA,NA,"",       3.33430,       2.97095,       1.51361,   775.665E-09
C:/temp/dataset/9/22_9.odb,Step-1,Increment      1: Step Time =    1.000,"PART-1-1",           196,      -9.42029,       24.1195,            0.,NA,NA,"",       4.22147,       4.00132,       1.34544,   137.245E-09
C:/temp/dataset/9/22_9.odb,Step-1,Increment      1: Step Time =    1.000,"PART-1-1",           197,      -11.0759,       8.46025,            0.,NA,NA,"",       3.19810,       2.81561,       1.51663,   781.667E-09
C:/temp/dataset/9/22_9.odb,Step-1,Increment      1: Step Time =    1.000,"PART-1-1",           198,      -10.9473,       6.84821,            0.,NA,NA,"",       3.08792,       2.69268,       1.51152,   800.381E-09
C:/temp/dataset/9/22_9.odb,Step-1,Increment      1: Step Time =    1.000,"PART-1-1",           199,       9.64075,      -25.5803,            0.,NA,NA,"",   140.709E-03,   140.314E-03,   10.5438E-03,   15.2295E-03
C:/temp/dataset/9/22_9.odb,Step-1,Increment      1: Step Time =    1.000,"PART-1-1",           200,       6.22595,      -2.03957,            0.,NA,NA,"",       1.98078,       1.96720,   231.563E-03,   65.7305E-06
C:/temp/dataset/9/22_9.odb,Step-1,Increment      1: Step Time =    1.000,"PART-1-1",           201,       6.24072,       2.15031,            0.,NA,NA,"",       2.29619,       2.28578,   218.331E-03,   11.9206E-06
C:/temp/dataset/9/22_9.odb,Step-1,Increment      1: Step Time =    1.000,"PART-1-1",           202,      -7.69234,       3.89067,            0.,NA,NA,"",       2.76827,       2.45841,       1.27261,   1.48709E-06
C:/temp/dataset/9/22_9.odb,Step-1,Increment      1: Step Time =    1.000,"PART-1-1",           203,       7.31807,       22.0589,            0.,NA,NA,"",       3.79704,       3.79622,   78.8328E-03,   930.332E-09
C:/temp/dataset/9/22_9.odb,Step-1,Increment      1: Step Time =    1.000,"PART-1-1",           204,      -6.44398,       20.4265,            0.,NA,NA,"",       3.88009,       3.71195,       1.12985,   741.640E-09
C:/temp/dataset/9/22_9.odb,Step-1,Increment      1: Step Time =    1.000,"PART-1-1",           205,       12.2962,       25.0128,            0.,NA,NA,"",       4.01822,       4.00638,  -308.183E-03,   469.205E-09
C:/temp/dataset/9/22_9.odb,Step-1,Increment      1: Step Time =    1.000,"PART-1-1",           206,       12.2257,      -24.8009,            0.,NA,NA,"",   205.705E-03,   188.830E-03,  -81.5962E-03,   20.6138E-03
C:/temp/dataset/9/22_9.odb,Step-1,Increment      1: Step Time =    1.000,"PART-1-1",           207,      -2.06005,       24.5200,            0.,NA,NA,"",       4.08652,       4.01047,   784.704E-03,   442.020E-09
C:/temp/dataset/9/22_9.odb,Step-1,Increment      1: Step Time =    1.000,"PART-1-1",           208,       9.31619,       25.0673,            0.,NA,NA,"",       4.01999,       4.01915,  -81.7828E-03,   547.928E-09
C:/temp/dataset/9/22_9.odb,Step-1,Increment      1: Step Time =    1.000,"PART-1-1",           209,       3.21447,       24.8112,            0.,NA,NA,"",       4.03554,       4.01734,   382.853E-03,   529.955E-09
C:/temp/dataset/9/22_9.odb,Step-1,Increment      1: Step Time =    1.000,"PART-1-1",           210,      -7.52022,      -1.18711,            0.,NA,NA,"",       2.43232,       2.07184,       1.27422,   1.50403E-06
C:/temp/dataset/9/22_9.odb,Step-1,Increment      1: Step Time =    1.000,"PART-1-1",           211,       10.0127,       14.9017,            0.,NA,NA,"",       3.24599,       3.24428,  -105.315E-03,   750.152E-09
C:/temp/dataset/9/22_9.odb,Step-1,Increment      1: Step Time =    1.000,"PART-1-1",           212,       10.7293,       3.02357,            0.,NA,NA,"",       2.34258,       2.33922,  -125.413E-03,   10.6699E-06
C:/temp/dataset/9/22_9.odb,Step-1,Increment      1: Step Time =    1.000,"PART-1-1",           213,       11.4837,       7.36813,            0.,NA,NA,"",       2.67444,       2.66730,  -195.338E-03,   761.561E-09
C:/temp/dataset/9/22_9.odb,Step-1,Increment      1: Step Time =    1.000,"PART-1-1",           214,      -9.20573,       12.9161,            0.,NA,NA,"",       3.43071,       3.14896,       1.36155,   667.079E-09
C:/temp/dataset/9/22_9.odb,Step-1,Increment      1: Step Time =    1.000,"PART-1-1",           215,   314.418E-03,       24.7704,            0.,NA,NA,"",       4.06765,       4.02264,   603.455E-03,   464.611E-09
C:/temp/dataset/9/22_9.odb,Step-1,Increment      1: Step Time =    1.000,"PART-1-1",           216,       7.52406,       26.3727,            0.,NA,NA,"",       4.12390,       4.12359,   50.6891E-03,   419.894E-09
C:/temp/dataset/9/22_9.odb,Step-1,Increment      1: Step Time =    1.000,"PART-1-1",           217,  -811.906E-03,   82.6841E-03,            0.,NA,NA,"",       2.27958,       2.14898,   760.507E-03,   2.80023E-06
C:/temp/dataset/9/22_9.odb,Step-1,Increment      1: Step Time =    1.000,"PART-1-1",           218,       11.1400,      -19.6444,            0.,NA,NA,"",   557.493E-03,   551.450E-03,  -81.8628E-03,   14.7045E-03
C:/temp/dataset/9/22_9.odb,Step-1,Increment      1: Step Time =    1.000,"PART-1-1",           219,       11.1036,      -10.4226,            0.,NA,NA,"",       1.31876,       1.31382,  -114.035E-03,   1.38443E-03
C:/temp/dataset/9/22_9.odb,Step-1,Increment      1: Step Time =    1.000,"PART-1-1",           220,       10.9280,      -5.64335,            0.,NA,NA,"",       1.68393,       1.68001,  -114.849E-03,   300.263E-06
C:/temp/dataset/9/22_9.odb,Step-1,Increment      1: Step Time =    1.000,"PART-1-1",           221,       11.0667,       5.48495,            0.,NA,NA,"",       2.53030,       2.52535,  -158.188E-03,   2.61651E-06
C:/temp/dataset/9/22_9.odb,Step-1,Increment      1: Step Time =    1.000,"PART-1-1",           222,       11.1390,      -12.7671,            0.,NA,NA,"",       1.13349,       1.12805,  -110.873E-03,   4.49211E-03
C:/temp/dataset/9/22_9.odb,Step-1,Increment      1: Step Time =    1.000,"PART-1-1",           223,       11.1627,      -15.1016,            0.,NA,NA,"",   940.874E-03,   934.864E-03,  -106.175E-03,   8.78218E-03
C:/temp/dataset/9/22_9.odb,Step-1,Increment      1: Step Time =    1.000,"PART-1-1",           224,      -9.10801,       10.4728,            0.,NA,NA,"",       3.26064,       2.96292,       1.36119,   655.949E-09
C:/temp/dataset/9/22_9.odb,Step-1,Increment      1: Step Time =    1.000,"PART-1-1",           225,      -9.12162,       8.28854,            0.,NA,NA,"",       3.11378,       2.79690,       1.36855,   805.859E-09
C:/temp/dataset/9/22_9.odb,Step-1,Increment      1: Step Time =    1.000,"PART-1-1",           226,      -8.73753,       18.6317,            0.,NA,NA,"",       3.81396,       3.58214,       1.30941,   704.814E-09
C:/temp/dataset/9/22_9.odb,Step-1,Increment      1: Step Time =    1.000,"PART-1-1",           227,      -9.90634,  -397.381E-03,            0.,NA,NA,"",       2.58586,       2.13880,       1.45335,   1.42654E-06
C:/temp/dataset/9/22_9.odb,Step-1,Increment      1: Step Time =    1.000,"PART-1-1",           228,       9.93939,       19.9385,            0.,NA,NA,"",       3.62922,       3.62742,  -114.319E-03,   824.807E-09
C:/temp/dataset/9/22_9.odb,Step-1,Increment      1: Step Time =    1.000,"PART-1-1",           229,       5.70370,       25.8085,            0.,NA,NA,"",       4.09041,       4.08596,   190.718E-03,   437.288E-09
C:/temp/dataset/9/22_9.odb,Step-1,Increment      1: Step Time =    1.000,"PART-1-1",           230,       10.0348,       12.2094,            0.,NA,NA,"",       3.04116,       3.03954,  -99.2016E-03,   845.505E-09
C:/temp/dataset/9/22_9.odb,Step-1,Increment      1: Step Time =    1.000,"PART-1-1",           231,       9.98921,       17.4486,            0.,NA,NA,"",       3.43977,       3.43798,  -110.900E-03,   745.246E-09
C:/temp/dataset/9/22_9.odb,Step-1,Increment      1: Step Time =    1.000,"PART-1-1",           232,       10.1044,       9.10575,            0.,NA,NA,"",       2.80501,       2.80339,  -95.5159E-03,   930.396E-09
C:/temp/dataset/9/22_9.odb,Step-1,Increment      1: Step Time =    1.000,"PART-1-1",           233,      -3.11139,      -1.10310,            0.,NA,NA,"",       2.26880,       2.06547,   938.778E-03,   1.50758E-06
C:/temp/dataset/9/22_9.odb,Step-1,Increment      1: Step Time =    1.000,"PART-1-1",           234,      -6.48507,       25.5695,            0.,NA,NA,"",       4.25268,       4.10307,       1.11809,   104.520E-09
C:/temp/dataset/9/22_9.odb,Step-1,Increment      1: Step Time =    1.000,"PART-1-1",           235,      -4.76537,       24.8732,            0.,NA,NA,"",       4.16439,       4.04516,   989.359E-03,   244.314E-09
C:/temp/dataset/9/22_9.odb,Step-1,Increment      1: Step Time =    1.000,"PART-1-1",           236,      -8.46351,       26.0628,            0.,NA,NA,"",       4.33558,       4.14630,       1.26707,   110.794E-09
C:/temp/dataset/9/22_9.odb,Step-1,Increment      1: Step Time =    1.000,"PART-1-1",           237,      -9.50218,       15.8804,            0.,NA,NA,"",       3.64471,       3.37519,       1.37551,   705.254E-09
C:/temp/dataset/9/22_9.odb,Step-1,Increment      1: Step Time =    1.000,"PART-1-1",           238,      -5.29510,      -1.38770,            0.,NA,NA,"",       2.32928,       2.05015,       1.10563,   1.48998E-06
C:/temp/dataset/9/22_9.odb,Step-1,Increment      1: Step Time =    1.000,"PART-1-1",           239,       11.0587,      -21.7318,            0.,NA,NA,"",   393.345E-03,   388.369E-03,  -62.3717E-03,   15.6285E-03
C:/temp/dataset/9/22_9.odb,Step-1,Increment      1: Step Time =    1.000,"PART-1-1",           240,       11.1670,      -17.4071,            0.,NA,NA,"",   745.023E-03,   738.690E-03,  -96.9361E-03,   12.5351E-03
C:/temp/dataset/9/22_9.odb,Step-1,Increment      1: Step Time =    1.000,"PART-1-1",           241,       11.0513,      -8.06140,            0.,NA,NA,"",       1.50013,       1.49557,  -116.818E-03,   298.462E-06
C:/temp/dataset/9/22_9.odb,Step-1,Increment      1: Step Time =    1.000,"PART-1-1",           242,       10.1357,   7.39639E-03,            0.,NA,NA,"",       2.11288,       2.11167,  -71.5104E-03,   46.2118E-06
C:/temp/dataset/9/22_9.odb,Step-1,Increment      1: Step Time =    1.000,"PART-1-1",           243,       10.6886,      -3.06387,            0.,NA,NA,"",       1.87960,       1.87669,  -104.479E-03,   157.056E-06
C:/temp/dataset/9/22_9.odb,Step-1,Increment      1: Step Time =    1.000,"PART-1-1",           244,       9.76329,       22.4053,            0.,NA,NA,"",       3.81700,       3.81547,  -108.069E-03,   755.204E-09
C:/temp/dataset/9/22_9.odb,Step-1,Increment      1: Step Time =    1.000,"PART-1-1",           245,       8.68231,      -3.74099,            0.,NA,NA,"",       1.83147,       1.83079,   50.0767E-03,   203.368E-06
C:/temp/dataset/9/22_9.odb,Step-1,Increment      1: Step Time =    1.000,"PART-1-1",           246,      -9.34414,       6.30777,            0.,NA,NA,"",       2.99029,       2.64696,       1.39120,   764.865E-09
C:/temp/dataset/9/22_9.odb,Step-1,Increment      1: Step Time =    1.000,"PART-1-1",           247,      -9.93235,       4.61568,            0.,NA,NA,"",       2.90283,       2.52001,       1.44082,   919.622E-09
C:/temp/dataset/9/22_9.odb,Step-1,Increment      1: Step Time =    1.000,"PART-1-1",           248,      -8.14937,       21.0679,            0.,NA,NA,"",       3.97011,       3.76564,       1.25765,   457.701E-09
C:/temp/dataset/9/22_9.odb,Step-1,Increment      1: Step Time =    1.000,"PART-1-1",           249,       10.7972,      -23.3791,            0.,NA,NA,"",   274.727E-03,   272.069E-03,  -38.1223E-03,   15.5793E-03
C:/temp/dataset/9/22_9.odb,Step-1,Increment      1: Step Time =    1.000,"PART-1-1",           250,       4.15357,   65.4176E-03,            0.,NA,NA,"",       2.16741,       2.13329,   383.016E-03,   13.5080E-06
C:/temp/dataset/9/22_9.odb,Step-1,Increment      1: Step Time =    1.000,"PART-1-1",           251,       8.71950,       3.82470,            0.,NA,NA,"",       2.40605,       2.40592,   25.0504E-03,   7.44192E-06
C:/temp/dataset/9/22_9.odb,Step-1,Increment      1: Step Time =    1.000,"PART-1-1",           252,       5.00281,       23.5204,            0.,NA,NA,"",       3.92205,       3.91403,   250.626E-03,   625.115E-09
C:/temp/dataset/9/22_9.odb,Step-1,Increment      1: Step Time =    1.000,"PART-1-1",           253,       7.40149,   60.9774E-03,            0.,NA,NA,"",       2.12793,       2.12357,   136.162E-03,   33.7837E-06
C:/temp/dataset/9/22_9.odb,Step-1,Increment      1: Step Time =    1.000,"PART-1-1",           254,      -5.73116,       22.7675,            0.,NA,NA,"",       4.03212,       3.88786,       1.06888,   333.998E-09
C:/temp/dataset/9/22_9.odb,Step-1,Increment      1: Step Time =    1.000,"PART-1-1",           255,      -5.42683,       1.83799,            0.,NA,NA,"",       2.54844,       2.29579,       1.10631,   1.00716E-06
C:/temp/dataset/9/22_9.odb,Step-1,Increment      1: Step Time =    1.000,"PART-1-1",           256,       6.81561,       24.0815,            0.,NA,NA,"",       3.95301,       3.95144,   111.181E-03,   626.324E-09
C:/temp/dataset/9/22_9.odb,Step-1,Increment      1: Step Time =    1.000,"PART-1-1",           257,      -7.40884,       23.3683,            0.,NA,NA,"",       4.11561,       3.93839,       1.19469,   226.476E-09
C:/temp/dataset/9/22_9.odb,Step-1,Increment      1: Step Time =    1.000,"PART-1-1",           258,      -3.69176,       23.9755,            0.,NA,NA,"",       4.07674,       3.97380,   910.335E-03,   396.337E-09
C:/temp/dataset/9/22_9.odb,Step-1,Increment      1: Step Time =    1.000,"PART-1-1",           259,      -8.10961,       1.76736,            0.,NA,NA,"",       2.64556,       2.29818,       1.31048,   1.43357E-06
C:/temp/dataset/9/22_9.odb,Step-1,Increment      1: Step Time =    1.000,"PART-1-1",           260,       5.94930,   61.4696E-03,            0.,NA,NA,"",       2.14203,       2.12779,   246.528E-03,   22.9315E-06
C:/temp/dataset/9/22_9.odb,Step-1,Increment      1: Step Time =    1.000,"PART-1-1",           261,       1.93878,   62.7924E-03,            0.,NA,NA,"",       2.20942,       2.13951,   551.416E-03,   5.00582E-06
C:/temp/dataset/9/22_9.odb,Step-1,Increment      1: Step Time =    1.000,"PART-1-1",           262,       6.71051,      -4.41826,            0.,NA,NA,"",       1.79615,       1.78480,   201.621E-03,   256.985E-06
C:/temp/dataset/9/22_9.odb,Step-1,Increment      1: Step Time =    1.000,"PART-1-1",           263,      -12.5366,      -2.82410,            0.,NA,NA,"",       2.57018,       1.96190,       1.66035,   631.424E-09
C:/temp/dataset/9/22_9.odb,Step-1,Increment      1: Step Time =    1.000,"PART-1-1",           264,       6.75090,       4.53602,            0.,NA,NA,"",       2.47172,       2.46569,   172.642E-03,   4.45819E-06
C:/temp/dataset/9/22_9.odb,Step-1,Increment      1: Step Time =    1.000,"PART-1-1",           265,      -5.22339,       3.46233,            0.,NA,NA,"",       2.65138,       2.41870,       1.08614,   1.37293E-06
C:/temp/dataset/9/22_9.odb,Step-1,Increment      1: Step Time =    1.000,"PART-1-1",           266,       4.93795,       21.9167,            0.,NA,NA,"",       3.80121,       3.79229,   260.198E-03,   905.598E-09
C:/temp/dataset/9/22_9.odb,Step-1,Increment      1: Step Time =    1.000,"PART-1-1",           267,       8.13144,      -1.42002,            0.,NA,NA,"",       2.01066,       2.00886,   85.0198E-03,   74.0575E-06
C:/temp/dataset/9/22_9.odb,Step-1,Increment      1: Step Time =    1.000,"PART-1-1",           268,      -3.13115,       1.39136,            0.,NA,NA,"",       2.44059,       2.25519,   933.057E-03,   1.75264E-06
C:/temp/dataset/9/22_9.odb,Step-1,Increment      1: Step Time =    1.000,"PART-1-1",           269,       9.17709,       6.32873,            0.,NA,NA,"",       2.59501,       2.59496,  -16.9857E-03,   1.59704E-06
C:/temp/dataset/9/22_9.odb,Step-1,Increment      1: Step Time =    1.000,"PART-1-1",           270,      -11.0423,       1.34077,            0.,NA,NA,"",       2.74361,       2.27424,       1.53468,   1.27891E-06
C:/temp/dataset/9/22_9.odb,Step-1,Increment      1: Step Time =    1.000,"PART-1-1",           271,      -10.1478,       26.6048,            0.,NA,NA,"",       4.41792,       4.19238,       1.39355,   133.474E-09
C:/temp/dataset/9/22_9.odb,Step-1,Increment      1: Step Time =    1.000,"PART-1-1",           272,      -10.1118,       21.9370,            0.,NA,NA,"",       4.08630,       3.83741,       1.40433,   240.983E-09
C:/temp/dataset/9/22_9.odb,Step-1,Increment      1: Step Time =    1.000,"PART-1-1",           273,       8.13886,       1.50501,            0.,NA,NA,"",       2.23254,       2.23125,   75.9185E-03,   21.5133E-06
C:/temp/dataset/9/22_9.odb,Step-1,Increment      1: Step Time =    1.000,"PART-1-1",           274,      -7.06249,   219.393E-03,            0.,NA,NA,"",       2.50348,       2.17746,       1.23535,   1.37394E-06
C:/temp/dataset/9/22_9.odb,Step-1,Increment      1: Step Time =    1.000,"PART-1-1",           275,      -5.40522,   241.534E-03,            0.,NA,NA,"",       2.44096,       2.17435,       1.10929,   1.14240E-06
C:/temp/dataset/9/22_9.odb,Step-1,Increment      1: Step Time =    1.000,"PART-1-1",           276,      -3.80180,   194.541E-03,            0.,NA,NA,"",       2.38061,       2.16613,   987.513E-03,   1.22744E-06
C:/temp/dataset/9/22_9.odb,Step-1,Increment      1: Step Time =    1.000,"PART-1-1",           277,      -2.71285,       28.4954,            0.,NA,NA,"",       4.39236,       4.31460,   822.829E-03,   153.743E-09
C:/temp/dataset/9/22_9.odb,Step-1,Increment      1: Step Time =    1.000,"PART-1-1",           278,         -3.75,           30.,            0.,NA,NA,"",       4.52192,       4.43199,   897.326E-03,   239.770E-09
C:/temp/dataset/9/22_9.odb,Step-1,Increment      1: Step Time =    1.000,"PART-1-1",           279,      -5.26224,       28.8665,            0.,NA,NA,"",       4.46716,       4.35019,       1.01558,   186.033E-09
C:/temp/dataset/9/22_9.odb,Step-1,Increment      1: Step Time =    1.000,"PART-1-1",           280,      -4.22509,       27.3619,            0.,NA,NA,"",       4.33615,       4.23280,   941.081E-03,   150.683E-09
C:/temp/dataset/9/22_9.odb,Step-1,Increment      1: Step Time =    1.000,"PART-1-1",           281,      -3.84553,       25.9321,            0.,NA,NA,"",       4.22360,       4.12299,   916.363E-03,   236.130E-09
C:/temp/dataset/9/22_9.odb,Step-1,Increment      1: Step Time =    1.000,"PART-1-1",           282,      -6.00478,       26.6512,            0.,NA,NA,"",       4.32068,       4.18392,       1.07844,   78.2352E-09
C:/temp/dataset/9/22_9.odb,Step-1,Increment      1: Step Time =    1.000,"PART-1-1",           283,      -5.62522,       25.2214,            0.,NA,NA,"",       4.20818,       4.07412,       1.05372,   162.194E-09
C:/temp/dataset/9/22_9.odb,Step-1,Increment      1: Step Time =    1.000,"PART-1-1",           284,      -10.0879,       29.0985,            0.,NA,NA,"",       4.59450,       4.38180,       1.38179,   138.047E-09
C:/temp/dataset/9/22_9.odb,Step-1,Increment      1: Step Time =    1.000,"PART-1-1",           285,        -11.25,           30.,            0.,NA,NA,"",       4.68925,       4.45370,       1.46752,   109.548E-09
C:/temp/dataset/9/22_9.odb,Step-1,Increment      1: Step Time =    1.000,"PART-1-1",           286,      -12.4706,       28.9480,            0.,NA,NA,"",       4.64806,       4.37725,       1.56337,   69.9516E-09
C:/temp/dataset/9/22_9.odb,Step-1,Increment      1: Step Time =    1.000,"PART-1-1",           287,      -11.3086,       28.0465,            0.,NA,NA,"",       4.55186,       4.30535,       1.47763,   124.298E-09
C:/temp/dataset/9/22_9.odb,Step-1,Increment      1: Step Time =    1.000,"PART-1-1",           288,      -13.4495,       25.5029,            0.,NA,NA,"",       4.43558,       4.11817,       1.64776,   113.561E-09
C:/temp/dataset/9/22_9.odb,Step-1,Increment      1: Step Time =    1.000,"PART-1-1",           289,          -15.,       24.5313,            0.,NA,NA,"",       4.41815,       4.04878,       1.76845,   168.513E-09
C:/temp/dataset/9/22_9.odb,Step-1,Increment      1: Step Time =    1.000,"PART-1-1",           290,      -13.6920,       23.1529,            0.,NA,NA,"",       4.28067,       3.94021,       1.67300,   131.509E-09
C:/temp/dataset/9/22_9.odb,Step-1,Increment      1: Step Time =    1.000,"PART-1-1",           291,      -12.1415,       24.1246,            0.,NA,NA,"",       4.29959,       4.00959,       1.55230,   83.7225E-09
C:/temp/dataset/9/22_9.odb,Step-1,Increment      1: Step Time =    1.000,"PART-1-1",           292,          8.75,          -30.,            0.,NA,NA,"",            0.,   2.77092E-39,   17.7423E-39,   9.50665E-03
C:/temp/dataset/9/22_9.odb,Step-1,Increment      1: Step Time =    1.000,"PART-1-1",           293,       9.96407,      -28.8633,            0.,NA,NA,"",   13.7944E-03,   13.7890E-03,   383.283E-06,   8.44124E-03
C:/temp/dataset/9/22_9.odb,Step-1,Increment      1: Step Time =    1.000,"PART-1-1",           294,       8.68711,      -27.7998,            0.,NA,NA,"",   50.1245E-03,   46.3225E-03,   19.1491E-03,   17.8643E-03
C:/temp/dataset/9/22_9.odb,Step-1,Increment      1: Step Time =    1.000,"PART-1-1",           295,       7.47304,      -28.9365,            0.,NA,NA,"",   24.5921E-03,   17.2121E-03,   17.5646E-03,   21.8770E-03
C:/temp/dataset/9/22_9.odb,Step-1,Increment      1: Step Time =    1.000,"PART-1-1",           296,       10.9279,      -22.5555,            0.,NA,NA,"",   332.395E-03,   328.654E-03,  -49.7265E-03,   15.5603E-03
C:/temp/dataset/9/22_9.odb,Step-1,Increment      1: Step Time =    1.000,"PART-1-1",           297,       10.0765,      -21.6813,            0.,NA,NA,"",   392.493E-03,   392.327E-03,  -11.4237E-03,   14.5904E-03
C:/temp/dataset/9/22_9.odb,Step-1,Increment      1: Step Time =    1.000,"PART-1-1",           298,       9.14242,      -22.6395,            0.,NA,NA,"",   326.795E-03,   324.817E-03,   35.8981E-03,   15.2941E-03
C:/temp/dataset/9/22_9.odb,Step-1,Increment      1: Step Time =    1.000,"PART-1-1",           299,       9.99384,      -23.5137,            0.,NA,NA,"",   263.242E-03,   263.225E-03,  -2.96638E-03,   14.7584E-03
C:/temp/dataset/9/22_9.odb,Step-1,Increment      1: Step Time =    1.000,"PART-1-1",           300,       7.08785,      -18.4988,            0.,NA,NA,"",   687.675E-03,   665.598E-03,   172.850E-03,   14.5537E-03
C:/temp/dataset/9/22_9.odb,Step-1,Increment      1: Step Time =    1.000,"PART-1-1",           301,       6.04673,      -17.4684,            0.,NA,NA,"",   808.518E-03,   767.561E-03,   254.070E-03,   13.7081E-03
C:/temp/dataset/9/22_9.odb,Step-1,Increment      1: Step Time =    1.000,"PART-1-1",           302,            5.,      -18.5417,            0.,NA,NA,"",   757.226E-03,   679.526E-03,   334.119E-03,   15.5819E-03
C:/temp/dataset/9/22_9.odb,Step-1,Increment      1: Step Time =    1.000,"PART-1-1",           303,       6.04112,      -19.5721,            0.,NA,NA,"",   629.861E-03,   581.814E-03,   241.283E-03,   15.1144E-03
C:/temp/dataset/9/22_9.odb,Step-1,Increment      1: Step Time =    1.000,"PART-1-1",           304,       7.10245,      -14.2066,            0.,NA,NA,"",       1.05828,       1.04173,   186.413E-03,   10.6569E-03
C:/temp/dataset/9/22_9.odb,Step-1,Increment      1: Step Time =    1.000,"PART-1-1",           305,       6.04975,      -13.2285,            0.,NA,NA,"",       1.16323,       1.13215,   267.092E-03,   9.00741E-03
C:/temp/dataset/9/22_9.odb,Step-1,Increment      1: Step Time =    1.000,"PART-1-1",           306,            5.,       -14.375,            0.,NA,NA,"",       1.10751,       1.05112,   348.903E-03,   8.68281E-03
C:/temp/dataset/9/22_9.odb,Step-1,Increment      1: Step Time =    1.000,"PART-1-1",           307,       6.05270,      -15.3531,            0.,NA,NA,"",   992.763E-03,   957.093E-03,   263.726E-03,   10.9479E-03
C:/temp/dataset/9/22_9.odb,Step-1,Increment      1: Step Time =    1.000,"PART-1-1",           308,            5.,      -6.04167,            0.,NA,NA,"",       1.69985,       1.66639,   335.612E-03,   542.121E-06
C:/temp/dataset/9/22_9.odb,Step-1,Increment      1: Step Time =    1.000,"PART-1-1",           309,       5.97724,      -6.85181,            0.,NA,NA,"",       1.62355,       1.60198,   263.789E-03,   444.413E-06
C:/temp/dataset/9/22_9.odb,Step-1,Increment      1: Step Time =    1.000,"PART-1-1",           310,       6.83249,      -5.51927,            0.,NA,NA,"",       1.71189,       1.70068,   195.536E-03,   307.680E-06
C:/temp/dataset/9/22_9.odb,Step-1,Increment      1: Step Time =    1.000,"PART-1-1",           311,       5.85525,      -4.70913,            0.,NA,NA,"",       1.78527,       1.76515,   267.252E-03,   198.713E-06
C:/temp/dataset/9/22_9.odb,Step-1,Increment      1: Step Time =    1.000,"PART-1-1",           312,       4.27314,       1.25089,            0.,NA,NA,"",       2.25375,       2.22309,   370.502E-03,   9.48574E-06
C:/temp/dataset/9/22_9.odb,Step-1,Increment      1: Step Time =    1.000,"PART-1-1",           313,       3.27994,       2.49943,            0.,NA,NA,"",       2.36268,       2.32089,   442.400E-03,   4.07942E-06
C:/temp/dataset/9/22_9.odb,Step-1,Increment      1: Step Time =    1.000,"PART-1-1",           314,       2.05297,       1.31265,            0.,NA,NA,"",       2.29833,       2.23421,   539.118E-03,   2.91302E-06
C:/temp/dataset/9/22_9.odb,Step-1,Increment      1: Step Time =    1.000,"PART-1-1",           315,       3.04617,   64.1050E-03,            0.,NA,NA,"",       2.18689,       2.13640,   467.215E-03,   7.43483E-06
C:/temp/dataset/9/22_9.odb,Step-1,Increment      1: Step Time =    1.000,"PART-1-1",           316,       6.28410,       12.4112,            0.,NA,NA,"",       3.07134,       3.06574,   185.352E-03,   1.99395E-06
C:/temp/dataset/9/22_9.odb,Step-1,Increment      1: Step Time =    1.000,"PART-1-1",           317,            5.,         11.25,            0.,NA,NA,"",       2.99489,       2.98118,   286.331E-03,   2.46335E-06
C:/temp/dataset/9/22_9.odb,Step-1,Increment      1: Step Time =    1.000,"PART-1-1",           318,       6.24476,       9.82085,            0.,NA,NA,"",       2.87560,       2.86892,   195.834E-03,   2.15559E-06
C:/temp/dataset/9/22_9.odb,Step-1,Increment      1: Step Time =    1.000,"PART-1-1",           319,       7.52885,       10.9821,            0.,NA,NA,"",       2.95501,       2.95349,   94.8550E-03,   1.68868E-06
C:/temp/dataset/9/22_9.odb,Step-1,Increment      1: Step Time =    1.000,"PART-1-1",           320,       6.23557,       19.9374,            0.,NA,NA,"",       3.64190,       3.63806,   167.271E-03,   1.14467E-06
C:/temp/dataset/9/22_9.odb,Step-1,Increment      1: Step Time =    1.000,"PART-1-1",           321,            5.,         18.75,            0.,NA,NA,"",       3.56121,       3.55136,   264.641E-03,   2.04570E-06
C:/temp/dataset/9/22_9.odb,Step-1,Increment      1: Step Time =    1.000,"PART-1-1",           322,       6.25255,       17.4722,            0.,NA,NA,"",       3.45493,       3.45059,   173.111E-03,   1.53369E-06
C:/temp/dataset/9/22_9.odb,Step-1,Increment      1: Step Time =    1.000,"PART-1-1",           323,       7.48812,       18.6595,            0.,NA,NA,"",       3.53809,       3.53728,   75.7417E-03,   944.032E-09
C:/temp/dataset/9/22_9.odb,Step-1,Increment      1: Step Time =    1.000,"PART-1-1",           324,       12.4612,       28.7577,            0.,NA,NA,"",       4.30341,       4.29062,  -331.563E-03,   127.728E-09
C:/temp/dataset/9/22_9.odb,Step-1,Increment      1: Step Time =    1.000,"PART-1-1",           325,         11.25,           30.,            0.,NA,NA,"",       4.39530,       4.38858,  -243.079E-03,   140.863E-09
C:/temp/dataset/9/22_9.odb,Step-1,Increment      1: Step Time =    1.000,"PART-1-1",           326,       9.95383,       28.8406,            0.,NA,NA,"",       4.30650,       4.30418,  -141.180E-03,   266.663E-09
C:/temp/dataset/9/22_9.odb,Step-1,Increment      1: Step Time =    1.000,"PART-1-1",           327,       11.1650,       27.5983,            0.,NA,NA,"",       4.21249,       4.20622,  -229.664E-03,   287.958E-09
C:/temp/dataset/9/22_9.odb,Step-1,Increment      1: Step Time =    1.000,"PART-1-1",           328,       9.61193,       26.3742,            0.,NA,NA,"",       4.11908,       4.11766,  -108.049E-03,   435.728E-09
C:/temp/dataset/9/22_9.odb,Step-1,Increment      1: Step Time =    1.000,"PART-1-1",           329,       10.8062,       25.0400,            0.,NA,NA,"",       4.01750,       4.01277,  -194.983E-03,   480.652E-09
C:/temp/dataset/9/22_9.odb,Step-1,Increment      1: Step Time =    1.000,"PART-1-1",           330,       12.3592,       26.2641,            0.,NA,NA,"",       4.11353,       4.10133,  -316.599E-03,   350.778E-09
C:/temp/dataset/9/22_9.odb,Step-1,Increment      1: Step Time =    1.000,"PART-1-1",           331,       7.54419,       28.9985,            0.,NA,NA,"",       4.32336,       4.32316,   41.5592E-03,   375.928E-09
C:/temp/dataset/9/22_9.odb,Step-1,Increment      1: Step Time =    1.000,"PART-1-1",           332,          6.25,           30.,            0.,NA,NA,"",       4.40518,       4.40305,   137.054E-03,   434.244E-09
C:/temp/dataset/9/22_9.odb,Step-1,Increment      1: Step Time =    1.000,"PART-1-1",           333,       5.09159,       28.9175,            0.,NA,NA,"",       4.33012,       4.32410,   228.258E-03,   384.914E-09
C:/temp/dataset/9/22_9.odb,Step-1,Increment      1: Step Time =    1.000,"PART-1-1",           334,       6.38578,       27.9160,            0.,NA,NA,"",       4.24629,       4.24421,   132.763E-03,   331.449E-09
C:/temp/dataset/9/22_9.odb,Step-1,Increment      1: Step Time =    1.000,"PART-1-1",           335,       2.95769,       26.1428,            0.,NA,NA,"",       4.13856,       4.11932,   398.522E-03,   442.000E-09
C:/temp/dataset/9/22_9.odb,Step-1,Increment      1: Step Time =    1.000,"PART-1-1",           336,       4.45909,       25.3098,            0.,NA,NA,"",       4.06179,       4.05165,   286.786E-03,   452.779E-09
C:/temp/dataset/9/22_9.odb,Step-1,Increment      1: Step Time =    1.000,"PART-1-1",           337,       5.44343,       26.8217,            0.,NA,NA,"",       4.16892,       4.16375,   207.573E-03,   387.962E-09
C:/temp/dataset/9/22_9.odb,Step-1,Increment      1: Step Time =    1.000,"PART-1-1",           338,       3.94204,       27.6547,            0.,NA,NA,"",       4.24345,       4.23142,   319.309E-03,   347.009E-09
C:/temp/dataset/9/22_9.odb,Step-1,Increment      1: Step Time =    1.000,"PART-1-1",           339,       6.06395,       7.26936,            0.,NA,NA,"",       2.68426,       2.67548,   216.958E-03,   2.21343E-06
C:/temp/dataset/9/22_9.odb,Step-1,Increment      1: Step Time =    1.000,"PART-1-1",           340,       7.30871,       8.34021,            0.,NA,NA,"",       2.75586,       2.75328,   119.232E-03,   1.99453E-06
C:/temp/dataset/9/22_9.odb,Step-1,Increment      1: Step Time =    1.000,"PART-1-1",           341,            5.,          8.75,            0.,NA,NA,"",       2.80651,       2.79112,   293.561E-03,   2.34779E-06
C:/temp/dataset/9/22_9.odb,Step-1,Increment      1: Step Time =    1.000,"PART-1-1",           342,      -13.9291,       1.47830,            0.,NA,NA,"",       2.88683,       2.29305,       1.75377,   1.10481E-06
C:/temp/dataset/9/22_9.odb,Step-1,Increment      1: Step Time =    1.000,"PART-1-1",           343,          -15.,    468.75E-03,            0.,NA,NA,"",       2.88172,       2.21939,       1.83811,   936.765E-09
C:/temp/dataset/9/22_9.odb,Step-1,Increment      1: Step Time =    1.000,"PART-1-1",           344,      -13.8152,  -655.377E-03,            0.,NA,NA,"",       2.75790,       2.13049,       1.75128,   711.986E-09
C:/temp/dataset/9/22_9.odb,Step-1,Increment      1: Step Time =    1.000,"PART-1-1",           345,      -12.7443,   354.171E-03,            0.,NA,NA,"",       2.76351,       2.20415,       1.66695,   1.04975E-06
C:/temp/dataset/9/22_9.odb,Step-1,Increment      1: Step Time =    1.000,"PART-1-1",           346,      -13.9678,       8.16706,            0.,NA,NA,"",       3.29664,       2.80169,       1.73734,   1.36721E-06
C:/temp/dataset/9/22_9.odb,Step-1,Increment      1: Step Time =    1.000,"PART-1-1",           347,          -15.,       7.03125,            0.,NA,NA,"",       3.27085,       2.71833,       1.81911,   1.77960E-06
C:/temp/dataset/9/22_9.odb,Step-1,Increment      1: Step Time =    1.000,"PART-1-1",           348,      -13.6804,       5.85321,            0.,NA,NA,"",       3.13947,       2.62495,       1.72220,   1.41462E-06
C:/temp/dataset/9/22_9.odb,Step-1,Increment      1: Step Time =    1.000,"PART-1-1",           349,      -12.6482,       6.98902,            0.,NA,NA,"",       3.16638,       2.70831,       1.64043,   1.03225E-06
C:/temp/dataset/9/22_9.odb,Step-1,Increment      1: Step Time =    1.000,"PART-1-1",           350,      -5.93089,       17.7206,            0.,NA,NA,"",       3.67292,       3.50475,       1.09867,   358.138E-09
C:/temp/dataset/9/22_9.odb,Step-1,Increment      1: Step Time =    1.000,"PART-1-1",           351,      -7.00986,       16.6597,            0.,NA,NA,"",       3.62590,       3.42722,       1.18377,   539.318E-09
C:/temp/dataset/9/22_9.odb,Step-1,Increment      1: Step Time =    1.000,"PART-1-1",           352,      -6.07897,       15.1891,            0.,NA,NA,"",       3.49605,       3.31272,       1.11726,   279.370E-09
C:/temp/dataset/9/22_9.odb,Step-1,Increment      1: Step Time =    1.000,"PART-1-1",           353,           -5.,         16.25,            0.,NA,NA,"",       3.54389,       3.39025,       1.03216,   98.2252E-09
C:/temp/dataset/9/22_9.odb,Step-1,Increment      1: Step Time =    1.000,"PART-1-1",           354,      -7.79966,       18.2865,            0.,NA,NA,"",       3.76304,       3.55318,       1.23911,   707.383E-09
C:/temp/dataset/9/22_9.odb,Step-1,Increment      1: Step Time =    1.000,"PART-1-1",           355,      -6.65288,       19.1839,            0.,NA,NA,"",       3.79624,       3.61808,       1.14933,   722.278E-09
C:/temp/dataset/9/22_9.odb,Step-1,Increment      1: Step Time =    1.000,"PART-1-1",           356,      -7.29668,       20.7472,            0.,NA,NA,"",       3.92475,       3.73880,       1.19375,   567.843E-09
C:/temp/dataset/9/22_9.odb,Step-1,Increment      1: Step Time =    1.000,"PART-1-1",           357,      -8.44345,       19.8498,            0.,NA,NA,"",       3.89165,       3.67389,       1.28353,   557.981E-09
C:/temp/dataset/9/22_9.odb,Step-1,Increment      1: Step Time =    1.000,"PART-1-1",           358,      -2.59303,       4.06073,            0.,NA,NA,"",       2.61094,       2.45659,   884.414E-03,   2.42468E-06
C:/temp/dataset/9/22_9.odb,Step-1,Increment      1: Step Time =    1.000,"PART-1-1",           359,      -1.46713,       2.91047,            0.,NA,NA,"",       2.49816,       2.36587,   802.137E-03,   2.71743E-06
C:/temp/dataset/9/22_9.odb,Step-1,Increment      1: Step Time =    1.000,"PART-1-1",           360,  -124.098E-03,       3.84974,            0.,NA,NA,"",       2.53134,       2.43340,   697.302E-03,   1.94456E-06
C:/temp/dataset/9/22_9.odb,Step-1,Increment      1: Step Time =    1.000,"PART-1-1",           361,         -1.25,            5.,            0.,NA,NA,"",       2.64176,       2.52412,   779.578E-03,   1.41867E-06
C:/temp/dataset/9/22_9.odb,Step-1,Increment      1: Step Time =    1.000,"PART-1-1",           362,      -11.2683,  -541.568E-03,            0.,NA,NA,"",       2.64002,       2.13177,       1.55732,   1.19237E-06
C:/temp/dataset/9/22_9.odb,Step-1,Increment      1: Step Time =    1.000,"PART-1-1",           363,      -10.4743,   471.696E-03,            0.,NA,NA,"",       2.66473,       2.20652,       1.49402,   1.31505E-06
C:/temp/dataset/9/22_9.odb,Step-1,Increment      1: Step Time =    1.000,"PART-1-1",           364,      -11.9503,       1.36743,            0.,NA,NA,"",       2.78658,       2.27889,       1.60364,   1.17784E-06
C:/temp/dataset/9/22_9.odb,Step-1,Increment      1: Step Time =    1.000,"PART-1-1",           365,      -13.0095,       9.29789,            0.,NA,NA,"",       3.32900,       2.88489,       1.66121,   1.02051E-06
C:/temp/dataset/9/22_9.odb,Step-1,Increment      1: Step Time =    1.000,"PART-1-1",           366,      -14.0417,       10.3496,            0.,NA,NA,"",       3.43860,       2.96784,       1.73664,   1.13757E-06
C:/temp/dataset/9/22_9.odb,Step-1,Increment      1: Step Time =    1.000,"PART-1-1",           367,          -15.,       9.21875,            0.,NA,NA,"",       3.40694,       2.88464,       1.81277,   1.53504E-06
C:/temp/dataset/9/22_9.odb,Step-1,Increment      1: Step Time =    1.000,"PART-1-1",           368,      -6.40766,      -1.28741,            0.,NA,NA,"",       2.37984,       2.06100,       1.18993,   1.48328E-06
C:/temp/dataset/9/22_9.odb,Step-1,Increment      1: Step Time =    1.000,"PART-1-1",           369,      -5.35016,  -573.084E-03,            0.,NA,NA,"",       2.38497,       2.11225,       1.10746,   1.21958E-06
C:/temp/dataset/9/22_9.odb,Step-1,Increment      1: Step Time =    1.000,"PART-1-1",           370,      -6.23385,   230.463E-03,            0.,NA,NA,"",       2.47162,       2.17590,       1.17232,   1.23458E-06
C:/temp/dataset/9/22_9.odb,Step-1,Increment      1: Step Time =    1.000,"PART-1-1",           371,      -7.29135,  -483.859E-03,            0.,NA,NA,"",       2.46752,       2.12465,       1.25479,   1.42844E-06
C:/temp/dataset/9/22_9.odb,Step-1,Increment      1: Step Time =    1.000,"PART-1-1",           372,   952.242E-03,      -2.53706,            0.,NA,NA,"",       2.04540,       1.94468,   633.957E-03,   5.93512E-06
C:/temp/dataset/9/22_9.odb,Step-1,Increment      1: Step Time =    1.000,"PART-1-1",           373,  -130.910E-03,      -3.80019,            0.,NA,NA,"",       1.98680,       1.85176,   719.972E-03,   5.70118E-06
C:/temp/dataset/9/22_9.odb,Step-1,Increment      1: Step Time =    1.000,"PART-1-1",           374,          1.25,           -5.,            0.,NA,NA,"",       1.86221,       1.75652,   618.441E-03,   11.0061E-06
C:/temp/dataset/9/22_9.odb,Step-1,Increment      1: Step Time =    1.000,"PART-1-1",           375,       2.33315,      -3.73687,            0.,NA,NA,"",       1.92454,       1.84943,   532.416E-03,   15.8867E-06
C:/temp/dataset/9/22_9.odb,Step-1,Increment      1: Step Time =    1.000,"PART-1-1",           376,       4.26686,      -1.13377,            0.,NA,NA,"",       2.07645,       2.04178,   377.863E-03,   22.5824E-06
C:/temp/dataset/9/22_9.odb,Step-1,Increment      1: Step Time =    1.000,"PART-1-1",           377,       2.05254,      -1.20548,            0.,NA,NA,"",       2.11457,       2.04275,   546.438E-03,   6.49404E-06
C:/temp/dataset/9/22_9.odb,Step-1,Increment      1: Step Time =    1.000,"PART-1-1",           378,       3.27323,      -2.40335,            0.,NA,NA,"",       2.00102,       1.94812,   457.062E-03,   12.4358E-06
C:/temp/dataset/9/22_9.odb,Step-1,Increment      1: Step Time =    1.000,"PART-1-1",           379,       10.4325,       1.51548,            0.,NA,NA,"",       2.22763,       2.22545,  -98.4729E-03,   26.7744E-06
C:/temp/dataset/9/22_9.odb,Step-1,Increment      1: Step Time =    1.000,"PART-1-1",           380,       11.3847,  -3.51279E-03,            0.,NA,NA,"",       2.11383,       2.10727,  -166.451E-03,   38.5467E-06
C:/temp/dataset/9/22_9.odb,Step-1,Increment      1: Step Time =    1.000,"PART-1-1",           381,       12.7244,       1.31309,            0.,NA,NA,"",       2.22021,       2.20346,  -272.133E-03,   24.9867E-06
C:/temp/dataset/9/22_9.odb,Step-1,Increment      1: Step Time =    1.000,"PART-1-1",           382,       11.7722,       2.83209,            0.,NA,NA,"",       2.33062,       2.32166,  -204.139E-03,   10.0521E-06
C:/temp/dataset/9/22_9.odb,Step-1,Increment      1: Step Time =    1.000,"PART-1-1",           383,       9.00808,      -7.25637,            0.,NA,NA,"",       1.56323,       1.56281,   36.2828E-03,   317.258E-06
C:/temp/dataset/9/22_9.odb,Step-1,Increment      1: Step Time =    1.000,"PART-1-1",           384,       7.95196,      -6.36313,            0.,NA,NA,"",       1.63741,       1.63347,   113.445E-03,   329.364E-06
C:/temp/dataset/9/22_9.odb,Step-1,Increment      1: Step Time =    1.000,"PART-1-1",           385,       7.00211,      -7.70397,            0.,NA,NA,"",       1.54615,       1.53454,   189.133E-03,   355.484E-06
C:/temp/dataset/9/22_9.odb,Step-1,Increment      1: Step Time =    1.000,"PART-1-1",           386,       8.05823,      -8.59720,            0.,NA,NA,"",       1.46850,       1.46420,   112.313E-03,   444.743E-06
C:/temp/dataset/9/22_9.odb,Step-1,Increment      1: Step Time =    1.000,"PART-1-1",           387,       7.09104,      -12.0381,            0.,NA,NA,"",       1.22779,       1.21287,   190.879E-03,   6.67537E-03
C:/temp/dataset/9/22_9.odb,Step-1,Increment      1: Step Time =    1.000,"PART-1-1",           388,       6.04129,      -11.1013,            0.,NA,NA,"",       1.31683,       1.28892,   269.682E-03,   4.59342E-03
C:/temp/dataset/9/22_9.odb,Step-1,Increment      1: Step Time =    1.000,"PART-1-1",           389,            5.,      -12.2917,            0.,NA,NA,"",       1.26257,       1.21450,   345.043E-03,   7.56405E-03
C:/temp/dataset/9/22_9.odb,Step-1,Increment      1: Step Time =    1.000,"PART-1-1",           390,       9.13117,      -18.4822,            0.,NA,NA,"",   655.162E-03,   654.063E-03,   37.9378E-03,   14.8201E-03
C:/temp/dataset/9/22_9.odb,Step-1,Increment      1: Step Time =    1.000,"PART-1-1",           391,       10.1297,      -19.6034,            0.,NA,NA,"",   556.608E-03,   556.196E-03,  -21.4274E-03,   14.4945E-03
C:/temp/dataset/9/22_9.odb,Step-1,Increment      1: Step Time =    1.000,"PART-1-1",           392,       11.1535,      -18.5257,            0.,NA,NA,"",   650.298E-03,   644.065E-03,  -89.8203E-03,   13.6166E-03
C:/temp/dataset/9/22_9.odb,Step-1,Increment      1: Step Time =    1.000,"PART-1-1",           393,       10.1550,      -17.4045,            0.,NA,NA,"",   742.880E-03,   742.274E-03,  -29.9846E-03,   13.1954E-03
C:/temp/dataset/9/22_9.odb,Step-1,Increment      1: Step Time =    1.000,"PART-1-1",           394,       6.27183,       14.9637,            0.,NA,NA,"",       3.26473,       3.25983,   178.902E-03,   1.79424E-06
C:/temp/dataset/9/22_9.odb,Step-1,Increment      1: Step Time =    1.000,"PART-1-1",           395,       7.52438,       16.1859,            0.,NA,NA,"",       3.35007,       3.34912,   80.1415E-03,   1.19800E-06
C:/temp/dataset/9/22_9.odb,Step-1,Increment      1: Step Time =    1.000,"PART-1-1",           396,            5.,         16.25,            0.,NA,NA,"",       3.37227,       3.36130,   271.872E-03,   2.17922E-06
C:/temp/dataset/9/22_9.odb,Step-1,Increment      1: Step Time =    1.000,"PART-1-1",           397,       2.56719,       21.1071,            0.,NA,NA,"",       3.76375,       3.73761,   442.784E-03,   334.975E-09
C:/temp/dataset/9/22_9.odb,Step-1,Increment      1: Step Time =    1.000,"PART-1-1",           398,       1.41709,       22.2600,            0.,NA,NA,"",       3.86467,       3.82859,   526.887E-03,   442.743E-09
C:/temp/dataset/9/22_9.odb,Step-1,Increment      1: Step Time =    1.000,"PART-1-1",           399,   99.9026E-03,       21.1528,            0.,NA,NA,"",       3.80084,       3.74823,   630.234E-03,   482.257E-09
C:/temp/dataset/9/22_9.odb,Step-1,Increment      1: Step Time =    1.000,"PART-1-1",           400,          1.25,           20.,            0.,NA,NA,"",       3.69780,       3.65725,   546.131E-03,   463.695E-09
C:/temp/dataset/9/22_9.odb,Step-1,Increment      1: Step Time =    1.000,"PART-1-1",           401,       7.55593,       13.6250,            0.,NA,NA,"",       3.15548,       3.15433,   85.1520E-03,   1.42129E-06
C:/temp/dataset/9/22_9.odb,Step-1,Increment      1: Step Time =    1.000,"PART-1-1",           402,            5.,         13.75,            0.,NA,NA,"",       3.18349,       3.17124,   279.102E-03,   2.40792E-06
C:/temp/dataset/9/22_9.odb,Step-1,Increment      1: Step Time =    1.000,"PART-1-1",           403,       8.77818,       14.9146,            0.,NA,NA,"",       3.24886,       3.24884,  -11.4995E-03,   923.079E-09
C:/temp/dataset/9/22_9.odb,Step-1,Increment      1: Step Time =    1.000,"PART-1-1",           404,       10.0010,       16.1752,            0.,NA,NA,"",       3.34288,       3.34113,  -108.108E-03,   740.681E-09
C:/temp/dataset/9/22_9.odb,Step-1,Increment      1: Step Time =    1.000,"PART-1-1",           405,       8.74716,       17.4465,            0.,NA,NA,"",       3.44145,       3.44141,  -16.4670E-03,   812.055E-09
C:/temp/dataset/9/22_9.odb,Step-1,Increment      1: Step Time =    1.000,"PART-1-1",           406,       10.1219,       5.90684,            0.,NA,NA,"",       2.56165,       2.56015,  -87.5871E-03,   1.93025E-06
C:/temp/dataset/9/22_9.odb,Step-1,Increment      1: Step Time =    1.000,"PART-1-1",           407,       8.94830,       5.07672,            0.,NA,NA,"",       2.50044,       2.50044,   4.03138E-03,   4.37257E-06
C:/temp/dataset/9/22_9.odb,Step-1,Increment      1: Step Time =    1.000,"PART-1-1",           408,       9.72441,       3.42413,            0.,NA,NA,"",       2.37310,       2.37257,  -50.1808E-03,   8.27801E-06
C:/temp/dataset/9/22_9.odb,Step-1,Increment      1: Step Time =    1.000,"PART-1-1",           409,       10.8980,       4.25426,            0.,NA,NA,"",       2.43642,       2.43229,  -141.802E-03,   6.54114E-06
C:/temp/dataset/9/22_9.odb,Step-1,Increment      1: Step Time =    1.000,"PART-1-1",           410,       8.15250,       6.68373,            0.,NA,NA,"",       2.62559,       2.62491,   59.8775E-03,   1.75585E-06
C:/temp/dataset/9/22_9.odb,Step-1,Increment      1: Step Time =    1.000,"PART-1-1",           411,       9.64075,       7.71724,            0.,NA,NA,"",       2.69976,       2.69917,  -56.2509E-03,   1.07544E-06
C:/temp/dataset/9/22_9.odb,Step-1,Increment      1: Step Time =    1.000,"PART-1-1",           412,       8.79696,       9.37373,            0.,NA,NA,"",       2.82755,       2.82754,   3.10277E-03,   1.32875E-06
C:/temp/dataset/9/22_9.odb,Step-1,Increment      1: Step Time =    1.000,"PART-1-1",           413,   959.485E-03,       2.63099,            0.,NA,NA,"",       2.41803,       2.33760,   618.443E-03,   2.40140E-06
C:/temp/dataset/9/22_9.odb,Step-1,Increment      1: Step Time =    1.000,"PART-1-1",           414,       2.33358,       3.78125,            0.,NA,NA,"",       2.47435,       2.42108,   510.640E-03,   617.587E-09
C:/temp/dataset/9/22_9.odb,Step-1,Increment      1: Step Time =    1.000,"PART-1-1",           415,          1.25,            5.,            0.,NA,NA,"",       2.58499,       2.51688,   589.497E-03,   851.422E-09
C:/temp/dataset/9/22_9.odb,Step-1,Increment      1: Step Time =    1.000,"PART-1-1",           416,      -9.23288,       7.29816,            0.,NA,NA,"",       3.05171,       2.72193,       1.37987,   742.856E-09
C:/temp/dataset/9/22_9.odb,Step-1,Increment      1: Step Time =    1.000,"PART-1-1",           417,      -8.32915,       6.01548,            0.,NA,NA,"",       2.93304,       2.62180,       1.31488,   964.427E-09
C:/temp/dataset/9/22_9.odb,Step-1,Increment      1: Step Time =    1.000,"PART-1-1",           418,      -7.21136,       6.82340,            0.,NA,NA,"",       2.94775,       2.67999,       1.22756,   1.01163E-06
C:/temp/dataset/9/22_9.odb,Step-1,Increment      1: Step Time =    1.000,"PART-1-1",           419,      -8.11509,       8.10607,            0.,NA,NA,"",       3.06590,       2.78012,       1.29255,   880.554E-09
C:/temp/dataset/9/22_9.odb,Step-1,Increment      1: Step Time =    1.000,"PART-1-1",           420,      -13.1318,       11.4675,            0.,NA,NA,"",       3.47467,       3.05020,       1.66423,   884.763E-09
C:/temp/dataset/9/22_9.odb,Step-1,Increment      1: Step Time =    1.000,"PART-1-1",           421,      -14.0901,       12.5242,            0.,NA,NA,"",       3.58112,       3.13330,       1.73402,   855.990E-09
C:/temp/dataset/9/22_9.odb,Step-1,Increment      1: Step Time =    1.000,"PART-1-1",           422,          -15.,       11.4063,            0.,NA,NA,"",       3.54563,       3.05094,       1.80644,   1.17380E-06
C:/temp/dataset/9/22_9.odb,Step-1,Increment      1: Step Time =    1.000,"PART-1-1",           423,      -9.35396,       14.3983,            0.,NA,NA,"",       3.53751,       3.26207,       1.36853,   687.788E-09
C:/temp/dataset/9/22_9.odb,Step-1,Increment      1: Step Time =    1.000,"PART-1-1",           424,      -10.5094,       15.3924,            0.,NA,NA,"",       3.64348,       3.34100,       1.45350,   693.619E-09
C:/temp/dataset/9/22_9.odb,Step-1,Increment      1: Step Time =    1.000,"PART-1-1",           425,      -11.3610,       13.8160,            0.,NA,NA,"",       3.56520,       3.22362,       1.52281,   722.645E-09
C:/temp/dataset/9/22_9.odb,Step-1,Increment      1: Step Time =    1.000,"PART-1-1",           426,      -10.2056,       12.8219,            0.,NA,NA,"",       3.45782,       3.14470,       1.43784,   692.863E-09
C:/temp/dataset/9/22_9.odb,Step-1,Increment      1: Step Time =    1.000,"PART-1-1",           427,      -14.0810,       18.8007,            0.,NA,NA,"",       3.99714,       3.61045,       1.71517,   161.851E-09
C:/temp/dataset/9/22_9.odb,Step-1,Increment      1: Step Time =    1.000,"PART-1-1",           428,          -15.,       17.9688,            0.,NA,NA,"",       3.97448,       3.54986,       1.78744,   111.131E-09
C:/temp/dataset/9/22_9.odb,Step-1,Increment      1: Step Time =    1.000,"PART-1-1",           429,      -14.2329,       16.7349,            0.,NA,NA,"",       3.86409,       3.45384,       1.73269,   315.270E-09
C:/temp/dataset/9/22_9.odb,Step-1,Increment      1: Step Time =    1.000,"PART-1-1",           430,      -13.3139,       17.5668,            0.,NA,NA,"",       3.88693,       3.51443,       1.66042,   374.412E-09
C:/temp/dataset/9/22_9.odb,Step-1,Increment      1: Step Time =    1.000,"PART-1-1",           431,      -12.9537,       19.5700,            0.,NA,NA,"",       4.01062,       3.66567,       1.62724,   257.944E-09
C:/temp/dataset/9/22_9.odb,Step-1,Increment      1: Step Time =    1.000,"PART-1-1",           432,      -13.8727,       20.9255,            0.,NA,NA,"",       4.13403,       3.77139,       1.69318,   137.699E-09
C:/temp/dataset/9/22_9.odb,Step-1,Increment      1: Step Time =    1.000,"PART-1-1",           433,          -15.,       20.1563,            0.,NA,NA,"",       4.12095,       3.71617,       1.78111,   105.969E-09
C:/temp/dataset/9/22_9.odb,Step-1,Increment      1: Step Time =    1.000,"PART-1-1",           434,       1.76445,       24.7908,            0.,NA,NA,"",       4.05013,       4.01999,   493.154E-03,   491.220E-09
C:/temp/dataset/9/22_9.odb,Step-1,Increment      1: Step Time =    1.000,"PART-1-1",           435,       1.36974,       27.3866,            0.,NA,NA,"",       4.24988,       4.21849,   515.650E-03,   357.254E-09
C:/temp/dataset/9/22_9.odb,Step-1,Increment      1: Step Time =    1.000,"PART-1-1",           436,   176.493E-03,       26.0346,            0.,NA,NA,"",       4.16412,       4.11915,   610.282E-03,   413.706E-09
C:/temp/dataset/9/22_9.odb,Step-1,Increment      1: Step Time =    1.000,"PART-1-1",           437,       7.39460,       20.9669,            0.,NA,NA,"",       3.71375,       3.71297,   76.1748E-03,   961.952E-09
C:/temp/dataset/9/22_9.odb,Step-1,Increment      1: Step Time =    1.000,"PART-1-1",           438,       8.70526,       19.9066,            0.,NA,NA,"",       3.62863,       3.62857,  -20.4011E-03,   802.757E-09
C:/temp/dataset/9/22_9.odb,Step-1,Increment      1: Step Time =    1.000,"PART-1-1",           439,       9.85134,       21.1719,            0.,NA,NA,"",       3.72311,       3.72145,  -111.194E-03,   792.960E-09
C:/temp/dataset/9/22_9.odb,Step-1,Increment      1: Step Time =    1.000,"PART-1-1",           440,       8.54068,       22.2321,            0.,NA,NA,"",       3.80588,       3.80585,  -14.6184E-03,   785.911E-09
C:/temp/dataset/9/22_9.odb,Step-1,Increment      1: Step Time =    1.000,"PART-1-1",           441,       4.10864,       24.1658,            0.,NA,NA,"",       3.97832,       3.96569,   316.740E-03,   559.396E-09
C:/temp/dataset/9/22_9.odb,Step-1,Increment      1: Step Time =    1.000,"PART-1-1",           442,       5.90921,       23.8009,            0.,NA,NA,"",       3.93689,       3.93274,   180.904E-03,   611.073E-09
C:/temp/dataset/9/22_9.odb,Step-1,Increment      1: Step Time =    1.000,"PART-1-1",           443,       6.25965,       24.9450,            0.,NA,NA,"",       4.02153,       4.01870,   150.950E-03,   522.244E-09
C:/temp/dataset/9/22_9.odb,Step-1,Increment      1: Step Time =    1.000,"PART-1-1",           444,   19.2837E-03,       28.6494,            0.,NA,NA,"",       4.36193,       4.31840,   614.667E-03,   200.701E-09
C:/temp/dataset/9/22_9.odb,Step-1,Increment      1: Step Time =    1.000,"PART-1-1",           445,       2.60045,       28.7372,            0.,NA,NA,"",       4.33781,       4.31760,   418.173E-03,   299.996E-09
C:/temp/dataset/9/22_9.odb,Step-1,Increment      1: Step Time =    1.000,"PART-1-1",           446,          1.25,           30.,            0.,NA,NA,"",       4.44769,       4.41752,   517.190E-03,   156.210E-09
C:/temp/dataset/9/22_9.odb,Step-1,Increment      1: Step Time =    1.000,"PART-1-1",           447,      -7.67774,       29.0428,            0.,NA,NA,"",       4.53199,       4.37058,       1.19871,   195.176E-09
C:/temp/dataset/9/22_9.odb,Step-1,Increment      1: Step Time =    1.000,"PART-1-1",           448,      -6.68998,       27.9093,            0.,NA,NA,"",       4.42736,       4.28155,       1.12689,   95.7364E-09
C:/temp/dataset/9/22_9.odb,Step-1,Increment      1: Step Time =    1.000,"PART-1-1",           449,         -6.25,           30.,            0.,NA,NA,"",       4.57047,       4.43923,       1.08739,   290.332E-09
C:/temp/dataset/9/22_9.odb,Step-1,Increment      1: Step Time =    1.000,"PART-1-1",           450,      -12.1701,       26.6384,            0.,NA,NA,"",       4.47666,       4.20079,       1.54720,   121.994E-09
C:/temp/dataset/9/22_9.odb,Step-1,Increment      1: Step Time =    1.000,"PART-1-1",           451,      -13.7206,       27.8542,            0.,NA,NA,"",       4.60772,       4.29771,       1.66157,   67.9592E-09
C:/temp/dataset/9/22_9.odb,Step-1,Increment      1: Step Time =    1.000,"PART-1-1",           452,          -15.,       26.7188,            0.,NA,NA,"",       4.56859,       4.21509,       1.76212,   84.0843E-09
C:/temp/dataset/9/22_9.odb,Step-1,Increment      1: Step Time =    1.000,"PART-1-1",           453,        -13.75,           30.,            0.,NA,NA,"",       4.75894,       4.46093,       1.65759,   16.8845E-09
C:/temp/dataset/9/22_9.odb,Step-1,Increment      1: Step Time =    1.000,"PART-1-1",           454,          -15.,       28.9063,            0.,NA,NA,"",       4.72011,       4.38140,       1.75579,   14.9270E-09
C:/temp/dataset/9/22_9.odb,Step-1,Increment      1: Step Time =    1.000,"PART-1-1",           455,      -9.01567,       28.1413,            0.,NA,NA,"",       4.49876,       4.30592,       1.30304,   131.111E-09
C:/temp/dataset/9/22_9.odb,Step-1,Increment      1: Step Time =    1.000,"PART-1-1",           456,         -8.75,           30.,            0.,NA,NA,"",       4.62633,       4.44646,       1.27746,   226.653E-09
C:/temp/dataset/9/22_9.odb,Step-1,Increment      1: Step Time =    1.000,"PART-1-1",           457,      -10.9923,       18.6369,            0.,NA,NA,"",       3.88255,       3.58906,       1.48082,   515.866E-09
C:/temp/dataset/9/22_9.odb,Step-1,Increment      1: Step Time =    1.000,"PART-1-1",           458,      -11.7056,       20.1347,            0.,NA,NA,"",       4.00875,       3.70499,       1.53071,   321.253E-09
C:/temp/dataset/9/22_9.odb,Step-1,Increment      1: Step Time =    1.000,"PART-1-1",           459,      -12.2405,       18.0722,            0.,NA,NA,"",       3.88441,       3.54974,       1.57735,   451.726E-09
C:/temp/dataset/9/22_9.odb,Step-1,Increment      1: Step Time =    1.000,"PART-1-1",           460,      -11.7153,       17.0060,            0.,NA,NA,"",       3.79399,       3.46716,       1.54051,   574.918E-09
C:/temp/dataset/9/22_9.odb,Step-1,Increment      1: Step Time =    1.000,"PART-1-1",           461,      -12.7888,       16.5007,            0.,NA,NA,"",       3.79653,       3.43185,       1.62358,   502.231E-09
C:/temp/dataset/9/22_9.odb,Step-1,Increment      1: Step Time =    1.000,"PART-1-1",           462,      -13.2634,       13.5986,            0.,NA,NA,"",       3.61983,       3.21260,       1.66806,   708.839E-09
C:/temp/dataset/9/22_9.odb,Step-1,Increment      1: Step Time =    1.000,"PART-1-1",           463,      -14.1733,       14.6682,            0.,NA,NA,"",       3.72484,       3.29654,       1.73414,   573.961E-09
C:/temp/dataset/9/22_9.odb,Step-1,Increment      1: Step Time =    1.000,"PART-1-1",           464,          -15.,       13.5938,            0.,NA,NA,"",       3.68661,       3.21725,       1.80011,   790.758E-09
C:/temp/dataset/9/22_9.odb,Step-1,Increment      1: Step Time =    1.000,"PART-1-1",           465,      -6.04154,       10.1420,            0.,NA,NA,"",       3.13897,       2.92890,       1.12901,   770.032E-09
C:/temp/dataset/9/22_9.odb,Step-1,Increment      1: Step Time =    1.000,"PART-1-1",           466,      -7.09581,       9.10381,            0.,NA,NA,"",       3.09985,       2.85302,       1.21217,   848.748E-09
C:/temp/dataset/9/22_9.odb,Step-1,Increment      1: Step Time =    1.000,"PART-1-1",           467,      -6.05428,       7.71180,            0.,NA,NA,"",       2.97041,       2.74418,       1.13701,   1.14754E-06
C:/temp/dataset/9/22_9.odb,Step-1,Increment      1: Step Time =    1.000,"PART-1-1",           468,           -5.,          8.75,            0.,NA,NA,"",       3.01054,       2.82006,       1.05386,   1.16785E-06
C:/temp/dataset/9/22_9.odb,Step-1,Increment      1: Step Time =    1.000,"PART-1-1",           469,      -6.15708,       5.36159,            0.,NA,NA,"",       2.81240,       2.56580,       1.15163,   2.43245E-06
C:/temp/dataset/9/22_9.odb,Step-1,Increment      1: Step Time =    1.000,"PART-1-1",           470,           -5.,          6.25,            0.,NA,NA,"",       2.83598,       2.62999,       1.06109,   2.46789E-06
C:/temp/dataset/9/22_9.odb,Step-1,Increment      1: Step Time =    1.000,"PART-1-1",           471,      -13.8567,       3.63033,            0.,NA,NA,"",       3.01145,       2.45645,       1.74203,   1.38343E-06
C:/temp/dataset/9/22_9.odb,Step-1,Increment      1: Step Time =    1.000,"PART-1-1",           472,      -12.5372,       4.63979,            0.,NA,NA,"",       3.01387,       2.52938,       1.63879,   1.03668E-06
C:/temp/dataset/9/22_9.odb,Step-1,Increment      1: Step Time =    1.000,"PART-1-1",           473,          -15.,       4.84375,            0.,NA,NA,"",       3.13768,       2.55202,       1.82544,   1.79220E-06
C:/temp/dataset/9/22_9.odb,Step-1,Increment      1: Step Time =    1.000,"PART-1-1",           474,      -12.7859,       2.45238,            0.,NA,NA,"",       2.89076,       2.36380,       1.66403,   1.10956E-06
C:/temp/dataset/9/22_9.odb,Step-1,Increment      1: Step Time =    1.000,"PART-1-1",           475,          -15.,       2.65625,            0.,NA,NA,"",       3.00782,       2.38570,       1.83178,   1.49267E-06
C:/temp/dataset/9/22_9.odb,Step-1,Increment      1: Step Time =    1.000,"PART-1-1",           476,      -13.7683,      -2.81830,            0.,NA,NA,"",       2.63463,       1.96591,       1.75398,   326.424E-09
C:/temp/dataset/9/22_9.odb,Step-1,Increment      1: Step Time =    1.000,"PART-1-1",           477,          -15.,      -3.90625,            0.,NA,NA,"",       2.64296,       1.88676,       1.85078,   48.3996E-09
C:/temp/dataset/9/22_9.odb,Step-1,Increment      1: Step Time =    1.000,"PART-1-1",           478,        -13.75,           -5.,            0.,NA,NA,"",       2.51668,       1.79998,       1.75890,   49.3262E-09
C:/temp/dataset/9/22_9.odb,Step-1,Increment      1: Step Time =    1.000,"PART-1-1",           479,      -12.5183,      -3.91205,            0.,NA,NA,"",       2.50874,       1.87914,       1.66211,   340.698E-09
C:/temp/dataset/9/22_9.odb,Step-1,Increment      1: Step Time =    1.000,"PART-1-1",           480,      -3.91473,      -3.03803,            0.,NA,NA,"",       2.16794,       1.92068,       1.00546,   2.49571E-06
C:/temp/dataset/9/22_9.odb,Step-1,Increment      1: Step Time =    1.000,"PART-1-1",           481,      -5.07319,      -4.05962,            0.,NA,NA,"",       2.14740,       1.84636,       1.09649,   2.40531E-06
C:/temp/dataset/9/22_9.odb,Step-1,Increment      1: Step Time =    1.000,"PART-1-1",           482,         -3.75,           -5.,            0.,NA,NA,"",       2.03316,       1.77103,   998.610E-03,   3.53690E-06
C:/temp/dataset/9/22_9.odb,Step-1,Increment      1: Step Time =    1.000,"PART-1-1",           483,      -2.59153,      -3.97841,            0.,NA,NA,"",       2.05645,       1.84534,   907.575E-03,   3.26492E-06
C:/temp/dataset/9/22_9.odb,Step-1,Increment      1: Step Time =    1.000,"PART-1-1",           484,   563.435E-03,   72.7383E-03,            0.,NA,NA,"",       2.24233,       2.14424,   655.963E-03,   3.55995E-06
C:/temp/dataset/9/22_9.odb,Step-1,Increment      1: Step Time =    1.000,"PART-1-1",           485,  -536.863E-03,      -1.25885,            0.,NA,NA,"",       2.17706,       2.04618,   743.480E-03,   2.45857E-06
C:/temp/dataset/9/22_9.odb,Step-1,Increment      1: Step Time =    1.000,"PART-1-1",           486,       7.06616,      -9.87010,            0.,NA,NA,"",       1.38606,       1.37292,   190.425E-03,   1.72821E-03
C:/temp/dataset/9/22_9.odb,Step-1,Increment      1: Step Time =    1.000,"PART-1-1",           487,       6.02487,      -8.97716,            0.,NA,NA,"",       1.46615,       1.44194,   265.339E-03,   896.785E-06
C:/temp/dataset/9/22_9.odb,Step-1,Increment      1: Step Time =    1.000,"PART-1-1",           488,            5.,      -10.2083,            0.,NA,NA,"",       1.39709,       1.35450,   342.309E-03,   1.58440E-03
C:/temp/dataset/9/22_9.odb,Step-1,Increment      1: Step Time =    1.000,"PART-1-1",           489,       13.0743,      -11.4048,            0.,NA,NA,"",       1.25724,       1.22966,  -261.892E-03,   1.53403E-03
C:/temp/dataset/9/22_9.odb,Step-1,Increment      1: Step Time =    1.000,"PART-1-1",           490,       14.0423,      -12.5586,            0.,NA,NA,"",       1.18253,       1.13471,  -332.910E-03,   1.33056E-03
C:/temp/dataset/9/22_9.odb,Step-1,Increment      1: Step Time =    1.000,"PART-1-1",           491,           15.,        -11.25,            0.,NA,NA,"",       1.30279,       1.23576,  -412.486E-03,   384.702E-06
C:/temp/dataset/9/22_9.odb,Step-1,Increment      1: Step Time =    1.000,"PART-1-1",           492,       14.0319,      -10.0962,            0.,NA,NA,"",       1.37214,       1.32934,  -340.021E-03,   462.913E-06
C:/temp/dataset/9/22_9.odb,Step-1,Increment      1: Step Time =    1.000,"PART-1-1",           493,       7.09943,      -16.3632,            0.,NA,NA,"",   874.780E-03,   856.027E-03,   180.159E-03,   14.3906E-03
C:/temp/dataset/9/22_9.odb,Step-1,Increment      1: Step Time =    1.000,"PART-1-1",           494,            5.,      -16.4583,            0.,NA,NA,"",   941.054E-03,   874.691E-03,   347.128E-03,   11.2959E-03
C:/temp/dataset/9/22_9.odb,Step-1,Increment      1: Step Time =    1.000,"PART-1-1",           495,       13.0966,      -13.8278,            0.,NA,NA,"",       1.06507,       1.03430,  -254.176E-03,   4.37575E-03
C:/temp/dataset/9/22_9.odb,Step-1,Increment      1: Step Time =    1.000,"PART-1-1",           496,       14.0543,      -15.0192,            0.,NA,NA,"",   987.896E-03,   934.171E-03,  -321.347E-03,   4.28929E-03
C:/temp/dataset/9/22_9.odb,Step-1,Increment      1: Step Time =    1.000,"PART-1-1",           497,           15.,        -13.75,            0.,NA,NA,"",       1.11195,       1.03592,  -404.093E-03,   1.78425E-03
C:/temp/dataset/9/22_9.odb,Step-1,Increment      1: Step Time =    1.000,"PART-1-1",           498,       13.0974,      -18.6352,            0.,NA,NA,"",   671.233E-03,   635.034E-03,  -217.452E-03,   12.5088E-03
C:/temp/dataset/9/22_9.odb,Step-1,Increment      1: Step Time =    1.000,"PART-1-1",           499,       14.0421,      -19.9133,            0.,NA,NA,"",   598.191E-03,   535.654E-03,  -266.285E-03,   15.3448E-03
C:/temp/dataset/9/22_9.odb,Step-1,Increment      1: Step Time =    1.000,"PART-1-1",           500,           15.,        -18.75,            0.,NA,NA,"",   724.436E-03,   630.185E-03,  -357.317E-03,   13.8457E-03
C:/temp/dataset/9/22_9.odb,Step-1,Increment      1: Step Time =    1.000,"PART-1-1",           501,       14.0553,      -17.4719,            0.,NA,NA,"",   790.735E-03,   731.534E-03,  -300.199E-03,   9.21787E-03
C:/temp/dataset/9/22_9.odb,Step-1,Increment      1: Step Time =    1.000,"PART-1-1",           502,       7.12541,      -22.7005,            0.,NA,NA,"",   359.971E-03,   332.888E-03,   136.984E-03,   19.0195E-03
C:/temp/dataset/9/22_9.odb,Step-1,Increment      1: Step Time =    1.000,"PART-1-1",           503,       6.04628,      -21.6612,            0.,NA,NA,"",   469.961E-03,   418.017E-03,   214.767E-03,   20.5680E-03
C:/temp/dataset/9/22_9.odb,Step-1,Increment      1: Step Time =    1.000,"PART-1-1",           504,            5.,      -22.7083,            0.,NA,NA,"",   443.197E-03,   357.485E-03,   261.970E-03,   28.8064E-03
C:/temp/dataset/9/22_9.odb,Step-1,Increment      1: Step Time =    1.000,"PART-1-1",           505,       6.07914,      -23.7476,            0.,NA,NA,"",   325.896E-03,   274.757E-03,   175.263E-03,   25.7706E-03
C:/temp/dataset/9/22_9.odb,Step-1,Increment      1: Step Time =    1.000,"PART-1-1",           506,       6.22304,      -27.8948,            0.,NA,NA,"",   88.4837E-03,   63.5247E-03,   61.5952E-03,   35.8083E-03
C:/temp/dataset/9/22_9.odb,Step-1,Increment      1: Step Time =    1.000,"PART-1-1",           507,            5.,      -28.9583,            0.,NA,NA,"",   69.1506E-03,   47.9811E-03,   49.7958E-03,   52.3754E-03
C:/temp/dataset/9/22_9.odb,Step-1,Increment      1: Step Time =    1.000,"PART-1-1",           508,          6.25,          -30.,            0.,NA,NA,"",            0.,   1.80493E-39,   56.7657E-39,   39.0027E-03
C:/temp/dataset/9/22_9.odb,Step-1,Increment      1: Step Time =    1.000,"PART-1-1",           509,       9.78444,      -26.6535,            0.,NA,NA,"",   88.3329E-03,   88.1753E-03,   5.27411E-03,   14.9819E-03
C:/temp/dataset/9/22_9.odb,Step-1,Increment      1: Step Time =    1.000,"PART-1-1",           510,       8.47427,      -25.6871,            0.,NA,NA,"",   146.830E-03,   139.643E-03,   45.3760E-03,   18.1208E-03
C:/temp/dataset/9/22_9.odb,Step-1,Increment      1: Step Time =    1.000,"PART-1-1",           511,       7.37694,      -26.8334,            0.,NA,NA,"",   111.234E-03,   93.5883E-03,   60.1180E-03,   24.8564E-03
C:/temp/dataset/9/22_9.odb,Step-1,Increment      1: Step Time =    1.000,"PART-1-1",           512,       13.7223,      -27.5034,            0.,NA,NA,"",   101.617E-03,   72.5466E-03,  -71.1543E-03,   33.7321E-03
C:/temp/dataset/9/22_9.odb,Step-1,Increment      1: Step Time =    1.000,"PART-1-1",           513,       12.4723,      -28.7534,            0.,NA,NA,"",   27.4519E-03,   19.1827E-03,  -19.6375E-03,   20.8159E-03
C:/temp/dataset/9/22_9.odb,Step-1,Increment      1: Step Time =    1.000,"PART-1-1",           514,         13.75,          -30.,            0.,NA,NA,"",            0.,  -1.54168E-39,  -56.4975E-39,   37.5372E-03
C:/temp/dataset/9/22_9.odb,Step-1,Increment      1: Step Time =    1.000,"PART-1-1",           515,           15.,        -28.75,            0.,NA,NA,"",   78.7111E-03,   52.6017E-03,  -58.5533E-03,   50.1949E-03
C:/temp/dataset/9/22_9.odb,Step-1,Increment      1: Step Time =    1.000,"PART-1-1",           516,         11.25,          -30.,            0.,NA,NA,"",            0.,   2.23219E-39,  -18.3135E-39,   8.95497E-03
C:/temp/dataset/9/22_9.odb,Step-1,Increment      1: Step Time =    1.000,"PART-1-1",           517,       11.1864,      -27.6167,            0.,NA,NA,"",   53.4797E-03,   50.4767E-03,  -17.6689E-03,   16.6911E-03
C:/temp/dataset/9/22_9.odb,Step-1,Increment      1: Step Time =    1.000,"PART-1-1",           518,       9.10684,      -20.5966,            0.,NA,NA,"",   480.207E-03,   478.544E-03,   39.9362E-03,   15.1326E-03
C:/temp/dataset/9/22_9.odb,Step-1,Increment      1: Step Time =    1.000,"PART-1-1",           519,       11.0993,      -20.6881,            0.,NA,NA,"",   473.573E-03,   468.035E-03,  -72.2092E-03,   15.1262E-03
C:/temp/dataset/9/22_9.odb,Step-1,Increment      1: Step Time =    1.000,"PART-1-1",           520,       7.08739,      -20.6083,            0.,NA,NA,"",   514.535E-03,   488.854E-03,   160.525E-03,   15.6416E-03
C:/temp/dataset/9/22_9.odb,Step-1,Increment      1: Step Time =    1.000,"PART-1-1",           521,            5.,       -20.625,            0.,NA,NA,"",   592.850E-03,   508.766E-03,   304.350E-03,   22.2725E-03
C:/temp/dataset/9/22_9.odb,Step-1,Increment      1: Step Time =    1.000,"PART-1-1",           522,       9.14341,      -14.0595,            0.,NA,NA,"",       1.03523,       1.03457,   37.1140E-03,   8.78245E-03
C:/temp/dataset/9/22_9.odb,Step-1,Increment      1: Step Time =    1.000,"PART-1-1",           523,       10.1582,      -15.1431,            0.,NA,NA,"",   937.073E-03,   936.424E-03,  -34.8629E-03,   9.78967E-03
C:/temp/dataset/9/22_9.odb,Step-1,Increment      1: Step Time =    1.000,"PART-1-1",           524,       11.1509,      -13.9343,            0.,NA,NA,"",       1.03817,       1.03246,  -108.779E-03,   6.58469E-03
C:/temp/dataset/9/22_9.odb,Step-1,Increment      1: Step Time =    1.000,"PART-1-1",           525,       10.1361,      -12.8507,            0.,NA,NA,"",       1.12716,       1.12658,  -36.2325E-03,   5.34431E-03
C:/temp/dataset/9/22_9.odb,Step-1,Increment      1: Step Time =    1.000,"PART-1-1",           526,       9.12292,      -11.8044,            0.,NA,NA,"",       1.21653,       1.21593,   38.2377E-03,   4.32063E-03
C:/temp/dataset/9/22_9.odb,Step-1,Increment      1: Step Time =    1.000,"PART-1-1",           527,       11.1213,      -11.5948,            0.,NA,NA,"",       1.22701,       1.22185,  -112.410E-03,   2.86473E-03
C:/temp/dataset/9/22_9.odb,Step-1,Increment      1: Step Time =    1.000,"PART-1-1",           528,       10.1081,      -10.5485,            0.,NA,NA,"",       1.30875,       1.30820,  -38.1044E-03,   1.78712E-03
C:/temp/dataset/9/22_9.odb,Step-1,Increment      1: Step Time =    1.000,"PART-1-1",           529,       13.8169,  -7.21098E-03,            0.,NA,NA,"",       2.12917,       2.09998,  -351.377E-03,   23.5260E-06
C:/temp/dataset/9/22_9.odb,Step-1,Increment      1: Step Time =    1.000,"PART-1-1",           530,           15.,          1.25,            0.,NA,NA,"",       2.23678,       2.19209,  -444.926E-03,   8.40850E-06
C:/temp/dataset/9/22_9.odb,Step-1,Increment      1: Step Time =    1.000,"PART-1-1",           531,       13.9075,       2.57030,            0.,NA,NA,"",       2.32454,       2.29559,  -365.707E-03,   4.63710E-06
C:/temp/dataset/9/22_9.odb,Step-1,Increment      1: Step Time =    1.000,"PART-1-1",           532,       10.8083,      -4.35361,            0.,NA,NA,"",       1.78174,       1.77836,  -109.687E-03,   217.785E-06
C:/temp/dataset/9/22_9.odb,Step-1,Increment      1: Step Time =    1.000,"PART-1-1",           533,       9.68548,      -3.40243,            0.,NA,NA,"",       1.85395,       1.85375,  -27.1619E-03,   160.429E-06
C:/temp/dataset/9/22_9.odb,Step-1,Increment      1: Step Time =    1.000,"PART-1-1",           534,       8.81587,      -4.92348,            0.,NA,NA,"",       1.74105,       1.74050,   43.5464E-03,   270.299E-06
C:/temp/dataset/9/22_9.odb,Step-1,Increment      1: Step Time =    1.000,"PART-1-1",           535,       9.93870,      -5.87466,            0.,NA,NA,"",       1.66562,       1.66516,  -38.7848E-03,   300.541E-06
C:/temp/dataset/9/22_9.odb,Step-1,Increment      1: Step Time =    1.000,"PART-1-1",           536,       10.7940,       8.23694,            0.,NA,NA,"",       2.73921,       2.73534,  -145.428E-03,   639.090E-09
C:/temp/dataset/9/22_9.odb,Step-1,Increment      1: Step Time =    1.000,"PART-1-1",           537,       11.2752,       6.42654,            0.,NA,NA,"",       2.60233,       2.59632,  -176.763E-03,   1.55870E-06
C:/temp/dataset/9/22_9.odb,Step-1,Increment      1: Step Time =    1.000,"PART-1-1",           538,       12.8821,       8.67106,            0.,NA,NA,"",       2.77914,       2.76230,  -305.423E-03,   1.84010E-06
C:/temp/dataset/9/22_9.odb,Step-1,Increment      1: Step Time =    1.000,"PART-1-1",           539,       14.0355,       7.50951,            0.,NA,NA,"",       2.69895,       2.67067,  -389.734E-03,   3.33041E-06
C:/temp/dataset/9/22_9.odb,Step-1,Increment      1: Step Time =    1.000,"PART-1-1",           540,           15.,          8.75,            0.,NA,NA,"",       2.80132,       2.76218,  -466.652E-03,   4.04962E-06
C:/temp/dataset/9/22_9.odb,Step-1,Increment      1: Step Time =    1.000,"PART-1-1",           541,       13.8467,       9.91155,            0.,NA,NA,"",       2.87932,       2.85382,  -382.340E-03,   2.51816E-06
C:/temp/dataset/9/22_9.odb,Step-1,Increment      1: Step Time =    1.000,"PART-1-1",           542,       12.4850,       16.2122,            0.,NA,NA,"",       3.34996,       3.33676,  -297.066E-03,   1.06005E-06
C:/temp/dataset/9/22_9.odb,Step-1,Increment      1: Step Time =    1.000,"PART-1-1",           543,       13.7431,       14.9727,            0.,NA,NA,"",       3.26218,       3.23888,  -389.123E-03,   1.55936E-06
C:/temp/dataset/9/22_9.odb,Step-1,Increment      1: Step Time =    1.000,"PART-1-1",           544,           15.,         16.25,            0.,NA,NA,"",       3.36795,       3.33236,  -488.376E-03,   1.85434E-06
C:/temp/dataset/9/22_9.odb,Step-1,Increment      1: Step Time =    1.000,"PART-1-1",           545,       13.7419,       17.4895,            0.,NA,NA,"",       3.45305,       3.43023,  -396.318E-03,   1.22610E-06
C:/temp/dataset/9/22_9.odb,Step-1,Increment      1: Step Time =    1.000,"PART-1-1",           546,       12.4991,       13.6576,            0.,NA,NA,"",       3.15593,       3.14251,  -290.738E-03,   1.25566E-06
C:/temp/dataset/9/22_9.odb,Step-1,Increment      1: Step Time =    1.000,"PART-1-1",           547,       13.7559,       12.4349,            0.,NA,NA,"",       3.06987,       3.04592,  -382.749E-03,   1.95514E-06
C:/temp/dataset/9/22_9.odb,Step-1,Increment      1: Step Time =    1.000,"PART-1-1",           548,           15.,         13.75,            0.,NA,NA,"",       3.17892,       3.14229,  -481.136E-03,   2.38443E-06
C:/temp/dataset/9/22_9.odb,Step-1,Increment      1: Step Time =    1.000,"PART-1-1",           549,           15.,         21.25,            0.,NA,NA,"",       3.74639,       3.71249,  -502.853E-03,   903.576E-09
C:/temp/dataset/9/22_9.odb,Step-1,Increment      1: Step Time =    1.000,"PART-1-1",           550,       13.6875,       22.5045,            0.,NA,NA,"",       3.83330,       3.81166,  -406.699E-03,   581.146E-09
C:/temp/dataset/9/22_9.odb,Step-1,Increment      1: Step Time =    1.000,"PART-1-1",           551,       12.4125,       21.2511,            0.,NA,NA,"",       3.73263,       3.72006,  -306.138E-03,   743.470E-09
C:/temp/dataset/9/22_9.odb,Step-1,Increment      1: Step Time =    1.000,"PART-1-1",           552,       13.7250,       19.9966,            0.,NA,NA,"",       3.64316,       3.62088,  -402.290E-03,   898.904E-09
C:/temp/dataset/9/22_9.odb,Step-1,Increment      1: Step Time =    1.000,"PART-1-1",           553,       13.6481,       25.0064,            0.,NA,NA,"",       4.02303,       4.00199,  -410.945E-03,   320.645E-09
C:/temp/dataset/9/22_9.odb,Step-1,Increment      1: Step Time =    1.000,"PART-1-1",           554,       12.3356,       23.7609,            0.,NA,NA,"",       3.92317,       3.91110,  -307.556E-03,   562.616E-09
C:/temp/dataset/9/22_9.odb,Step-1,Increment      1: Step Time =    1.000,"PART-1-1",           555,           15.,         23.75,            0.,NA,NA,"",       3.93575,       3.90255,  -510.090E-03,   481.545E-09
C:/temp/dataset/9/22_9.odb,Step-1,Increment      1: Step Time =    1.000,"PART-1-1",           556,       13.7112,       27.5077,            0.,NA,NA,"",       4.21325,       4.19197,  -422.979E-03,   124.615E-09
C:/temp/dataset/9/22_9.odb,Step-1,Increment      1: Step Time =    1.000,"PART-1-1",           557,           15.,         28.75,            0.,NA,NA,"",       4.31469,       4.28269,  -524.562E-03,   19.0185E-09
C:/temp/dataset/9/22_9.odb,Step-1,Increment      1: Step Time =    1.000,"PART-1-1",           558,         13.75,           30.,            0.,NA,NA,"",       4.40270,       4.38134,  -433.146E-03,   18.0104E-09
C:/temp/dataset/9/22_9.odb,Step-1,Increment      1: Step Time =    1.000,"PART-1-1",           559,            5.,      -24.7917,            0.,NA,NA,"",   307.681E-03,   228.780E-03,   205.736E-03,   34.9985E-03
C:/temp/dataset/9/22_9.odb,Step-1,Increment      1: Step Time =    1.000,"PART-1-1",           560,       6.15390,      -25.8136,            0.,NA,NA,"",   200.161E-03,   157.215E-03,   123.886E-03,   30.5287E-03
C:/temp/dataset/9/22_9.odb,Step-1,Increment      1: Step Time =    1.000,"PART-1-1",           561,       7.23304,      -24.7696,            0.,NA,NA,"",   224.553E-03,   200.092E-03,   101.917E-03,   22.4980E-03
C:/temp/dataset/9/22_9.odb,Step-1,Increment      1: Step Time =    1.000,"PART-1-1",           562,       13.0086,      -21.0119,            0.,NA,NA,"",   482.450E-03,   447.312E-03,  -180.749E-03,   16.5296E-03
C:/temp/dataset/9/22_9.odb,Step-1,Increment      1: Step Time =    1.000,"PART-1-1",           563,       13.9664,      -22.3485,            0.,NA,NA,"",   416.726E-03,   356.496E-03,  -215.803E-03,   21.6948E-03
C:/temp/dataset/9/22_9.odb,Step-1,Increment      1: Step Time =    1.000,"PART-1-1",           564,           15.,        -21.25,            0.,NA,NA,"",   539.195E-03,   441.333E-03,  -309.769E-03,   22.3167E-03
C:/temp/dataset/9/22_9.odb,Step-1,Increment      1: Step Time =    1.000,"PART-1-1",           565,            5.,       -26.875,            0.,NA,NA,"",   187.633E-03,   127.482E-03,   137.675E-03,   42.3588E-03
C:/temp/dataset/9/22_9.odb,Step-1,Increment      1: Step Time =    1.000,"PART-1-1",           566,       12.9745,      -6.51631,            0.,NA,NA,"",       1.63002,       1.60774,  -268.608E-03,   247.276E-06
C:/temp/dataset/9/22_9.odb,Step-1,Increment      1: Step Time =    1.000,"PART-1-1",           567,       14.0104,      -7.62731,            0.,NA,NA,"",       1.55844,       1.51979,  -344.934E-03,   393.913E-06
C:/temp/dataset/9/22_9.odb,Step-1,Increment      1: Step Time =    1.000,"PART-1-1",           568,           15.,         -6.25,            0.,NA,NA,"",       1.67642,       1.62188,  -424.125E-03,   451.944E-06
C:/temp/dataset/9/22_9.odb,Step-1,Increment      1: Step Time =    1.000,"PART-1-1",           569,       13.9641,      -5.13900,            0.,NA,NA,"",       1.74469,       1.70962,  -348.070E-03,   214.133E-06
C:/temp/dataset/9/22_9.odb,Step-1,Increment      1: Step Time =    1.000,"PART-1-1",           570,       11.1649,      -16.2543,            0.,NA,NA,"",   843.197E-03,   836.997E-03,  -102.061E-03,   10.6379E-03
C:/temp/dataset/9/22_9.odb,Step-1,Increment      1: Step Time =    1.000,"PART-1-1",           571,       9.14831,      -16.2933,            0.,NA,NA,"",   844.915E-03,   844.141E-03,   36.1532E-03,   12.8218E-03
C:/temp/dataset/9/22_9.odb,Step-1,Increment      1: Step Time =    1.000,"PART-1-1",           572,            5.,        -8.125,            0.,NA,NA,"",       1.54679,       1.50893,   340.091E-03,   989.249E-06
C:/temp/dataset/9/22_9.odb,Step-1,Increment      1: Step Time =    1.000,"PART-1-1",           573,       12.8519,      -3.99254,            0.,NA,NA,"",       1.81963,       1.80001,  -266.499E-03,   181.659E-06
C:/temp/dataset/9/22_9.odb,Step-1,Increment      1: Step Time =    1.000,"PART-1-1",           574,           15.,         -3.75,            0.,NA,NA,"",       1.86262,       1.81213,  -430.720E-03,   185.057E-06
C:/temp/dataset/9/22_9.odb,Step-1,Increment      1: Step Time =    1.000,"PART-1-1",           575,       13.8878,      -2.60354,            0.,NA,NA,"",       1.93433,       1.90252,  -349.341E-03,   82.1587E-06
C:/temp/dataset/9/22_9.odb,Step-1,Increment      1: Step Time =    1.000,"PART-1-1",           576,       13.0423,      -8.97351,            0.,NA,NA,"",       1.44430,       1.41945,  -266.788E-03,   168.281E-06
C:/temp/dataset/9/22_9.odb,Step-1,Increment      1: Step Time =    1.000,"PART-1-1",           577,           15.,         -8.75,            0.,NA,NA,"",       1.49031,       1.43042,  -418.226E-03,   732.817E-06
C:/temp/dataset/9/22_9.odb,Step-1,Increment      1: Step Time =    1.000,"PART-1-1",           578,       8.09346,      -21.6433,            0.,NA,NA,"",   413.010E-03,   402.207E-03,   93.8411E-03,   15.2599E-03
C:/temp/dataset/9/22_9.odb,Step-1,Increment      1: Step Time =    1.000,"PART-1-1",           579,       8.17438,      -23.6967,            0.,NA,NA,"",   268.783E-03,   258.094E-03,   75.0467E-03,   17.0326E-03
C:/temp/dataset/9/22_9.odb,Step-1,Increment      1: Step Time =    1.000,"PART-1-1",           580,       8.10077,      -19.5616,            0.,NA,NA,"",   576.680E-03,   567.604E-03,   101.911E-03,   14.4072E-03
C:/temp/dataset/9/22_9.odb,Step-1,Increment      1: Step Time =    1.000,"PART-1-1",           581,       8.11824,      -17.4194,            0.,NA,NA,"",   760.269E-03,   752.945E-03,   105.272E-03,   14.4225E-03
C:/temp/dataset/9/22_9.odb,Step-1,Increment      1: Step Time =    1.000,"PART-1-1",           582,          -15.,       22.3438,            0.,NA,NA,"",       4.26889,       3.88247,       1.77478,   193.479E-09
C:/temp/dataset/9/22_9.odb,Step-1,Increment      1: Step Time =    1.000,"PART-1-1",           583,      -12.5647,       21.7347,            0.,NA,NA,"",       4.14665,       3.82912,       1.59140,   123.432E-09
C:/temp/dataset/9/22_9.odb,Step-1,Increment      1: Step Time =    1.000,"PART-1-1",           584,      -4.95050,       22.5220,            0.,NA,NA,"",       3.99672,       3.86694,       1.01024,   448.410E-09
C:/temp/dataset/9/22_9.odb,Step-1,Increment      1: Step Time =    1.000,"PART-1-1",           585,      -3.93081,       23.1260,            0.,NA,NA,"",       4.01922,       3.90991,   930.967E-03,   461.067E-09
C:/temp/dataset/9/22_9.odb,Step-1,Increment      1: Step Time =    1.000,"PART-1-1",           586,      -4.22857,       24.4244,            0.,NA,NA,"",       4.12045,       4.00948,   949.847E-03,   324.866E-09
C:/temp/dataset/9/22_9.odb,Step-1,Increment      1: Step Time =    1.000,"PART-1-1",           587,      -5.24826,       23.8204,            0.,NA,NA,"",       4.09784,       3.96651,       1.02912,   284.462E-09
C:/temp/dataset/9/22_9.odb,Step-1,Increment      1: Step Time =    1.000,"PART-1-1",           588,      -10.1110,       10.4874,            0.,NA,NA,"",       3.29679,       2.96694,       1.43740,   692.796E-09
C:/temp/dataset/9/22_9.odb,Step-1,Increment      1: Step Time =    1.000,"PART-1-1",           589,      -9.15687,       11.6944,            0.,NA,NA,"",       3.34546,       3.05594,       1.36137,   669.465E-09
C:/temp/dataset/9/22_9.odb,Step-1,Increment      1: Step Time =    1.000,"PART-1-1",           590,      -11.1597,       11.6149,            0.,NA,NA,"",       3.41014,       3.05569,       1.51387,   762.596E-09
C:/temp/dataset/9/22_9.odb,Step-1,Increment      1: Step Time =    1.000,"PART-1-1",           591,      -6.07359,       12.6401,            0.,NA,NA,"",       3.31534,       3.11891,       1.12422,   507.531E-09
C:/temp/dataset/9/22_9.odb,Step-1,Increment      1: Step Time =    1.000,"PART-1-1",           592,      -7.11512,       11.5321,            0.,NA,NA,"",       3.26856,       3.03769,       1.20661,   596.075E-09
C:/temp/dataset/9/22_9.odb,Step-1,Increment      1: Step Time =    1.000,"PART-1-1",           593,           -5.,         11.25,            0.,NA,NA,"",       3.18689,       3.01012,       1.04663,   769.683E-09
C:/temp/dataset/9/22_9.odb,Step-1,Increment      1: Step Time =    1.000,"PART-1-1",           594,      -10.0988,       8.37440,            0.,NA,NA,"",       3.15534,       2.80626,       1.44259,   728.005E-09
C:/temp/dataset/9/22_9.odb,Step-1,Increment      1: Step Time =    1.000,"PART-1-1",           595,      -9.11481,       9.38066,            0.,NA,NA,"",       3.18697,       2.87991,       1.36487,   725.209E-09
C:/temp/dataset/9/22_9.odb,Step-1,Increment      1: Step Time =    1.000,"PART-1-1",           596,      -11.0949,       9.48111,            0.,NA,NA,"",       3.26599,       2.89328,       1.51512,   773.750E-09
C:/temp/dataset/9/22_9.odb,Step-1,Increment      1: Step Time =    1.000,"PART-1-1",           597,      -11.8142,       15.6555,            0.,NA,NA,"",       3.70543,       3.36477,       1.55193,   639.006E-09
C:/temp/dataset/9/22_9.odb,Step-1,Increment      1: Step Time =    1.000,"PART-1-1",           598,      -13.4062,       15.6218,            0.,NA,NA,"",       3.75961,       3.36682,       1.67307,   524.770E-09
C:/temp/dataset/9/22_9.odb,Step-1,Increment      1: Step Time =    1.000,"PART-1-1",           599,      -12.4316,       14.7766,            0.,NA,NA,"",       3.66781,       3.29975,       1.60142,   638.971E-09
C:/temp/dataset/9/22_9.odb,Step-1,Increment      1: Step Time =    1.000,"PART-1-1",           600,      -5.72199,       20.2132,            0.,NA,NA,"",       3.84706,       3.69365,       1.07558,   1.00383E-06
C:/temp/dataset/9/22_9.odb,Step-1,Increment      1: Step Time =    1.000,"PART-1-1",           601,           -5.,         18.75,            0.,NA,NA,"",       3.72413,       3.58031,       1.02492,   769.730E-09
C:/temp/dataset/9/22_9.odb,Step-1,Increment      1: Step Time =    1.000,"PART-1-1",           602,          -15.,       15.7813,            0.,NA,NA,"",       3.82963,       3.38356,       1.79377,   425.067E-09
C:/temp/dataset/9/22_9.odb,Step-1,Increment      1: Step Time =    1.000,"PART-1-1",           603,      -10.4105,       16.7429,            0.,NA,NA,"",       3.73316,       3.44339,       1.44207,   646.196E-09
C:/temp/dataset/9/22_9.odb,Step-1,Increment      1: Step Time =    1.000,"PART-1-1",           604,      -12.1928,       12.6381,            0.,NA,NA,"",       3.51622,       3.13647,       1.58945,   751.400E-09
C:/temp/dataset/9/22_9.odb,Step-1,Increment      1: Step Time =    1.000,"PART-1-1",           605,      -12.0987,       10.4443,            0.,NA,NA,"",       3.36767,       2.96942,       1.58865,   838.785E-09
C:/temp/dataset/9/22_9.odb,Step-1,Increment      1: Step Time =    1.000,"PART-1-1",           606,      -7.50325,       4.80693,            0.,NA,NA,"",       2.82221,       2.52752,       1.25558,   1.21550E-06
C:/temp/dataset/9/22_9.odb,Step-1,Increment      1: Step Time =    1.000,"PART-1-1",           607,      -9.63824,       5.46172,            0.,NA,NA,"",       2.94609,       2.58348,       1.41601,   793.194E-09
C:/temp/dataset/9/22_9.odb,Step-1,Increment      1: Step Time =    1.000,"PART-1-1",           608,      -8.81234,       4.25317,            0.,NA,NA,"",       2.83493,       2.48921,       1.35671,   1.13218E-06
C:/temp/dataset/9/22_9.odb,Step-1,Increment      1: Step Time =    1.000,"PART-1-1",           609,          -15.,      -1.71875,            0.,NA,NA,"",       2.75991,       2.05307,       1.84444,   355.796E-09
C:/temp/dataset/9/22_9.odb,Step-1,Increment      1: Step Time =    1.000,"PART-1-1",           610,      -12.5835,      -1.75493,            0.,NA,NA,"",       2.63316,       2.04333,       1.66082,   803.884E-09
C:/temp/dataset/9/22_9.odb,Step-1,Increment      1: Step Time =    1.000,"PART-1-1",           611,        -11.25,           -5.,            0.,NA,NA,"",       2.38226,       1.79275,       1.56883,   487.790E-09
C:/temp/dataset/9/22_9.odb,Step-1,Increment      1: Step Time =    1.000,"PART-1-1",           612,      -10.0144,      -3.91217,            0.,NA,NA,"",       2.38117,       1.87188,       1.47174,   875.122E-09
C:/temp/dataset/9/22_9.odb,Step-1,Increment      1: Step Time =    1.000,"PART-1-1",           613,      -11.2827,      -2.82422,            0.,NA,NA,"",       2.50681,       1.95827,       1.56502,   880.995E-09
C:/temp/dataset/9/22_9.odb,Step-1,Increment      1: Step Time =    1.000,"PART-1-1",           614,         -8.75,           -5.,            0.,NA,NA,"",       2.25589,       1.78551,       1.37876,   1.29998E-06
C:/temp/dataset/9/22_9.odb,Step-1,Increment      1: Step Time =    1.000,"PART-1-1",           615,      -7.54904,      -4.01671,            0.,NA,NA,"",       2.25785,       1.85679,       1.28461,   1.51854E-06
C:/temp/dataset/9/22_9.odb,Step-1,Increment      1: Step Time =    1.000,"PART-1-1",           616,      -8.81345,      -2.92887,            0.,NA,NA,"",       2.38194,       1.94316,       1.37759,   1.34343E-06
C:/temp/dataset/9/22_9.odb,Step-1,Increment      1: Step Time =    1.000,"PART-1-1",           617,  -969.738E-03,       22.2544,            0.,NA,NA,"",       3.89994,       3.83507,   708.368E-03,   545.315E-09
C:/temp/dataset/9/22_9.odb,Step-1,Increment      1: Step Time =    1.000,"PART-1-1",           618,      -2.31964,       21.1016,            0.,NA,NA,"",       3.83870,       3.75133,   814.334E-03,   658.890E-09
C:/temp/dataset/9/22_9.odb,Step-1,Increment      1: Step Time =    1.000,"PART-1-1",           619,         -1.25,           20.,            0.,NA,NA,"",       3.73771,       3.66449,   736.200E-03,   677.668E-09
C:/temp/dataset/9/22_9.odb,Step-1,Increment      1: Step Time =    1.000,"PART-1-1",           620,         -1.25,           30.,            0.,NA,NA,"",       4.48092,       4.42476,   707.258E-03,   77.4125E-09
C:/temp/dataset/9/22_9.odb,Step-1,Increment      1: Step Time =    1.000,"PART-1-1",           621,      -1.44357,       27.1449,            0.,NA,NA,"",       4.27114,       4.20825,   730.238E-03,   303.847E-09
C:/temp/dataset/9/22_9.odb,Step-1,Increment      1: Step Time =    1.000,"PART-1-1",           622,      -4.58492,       21.1383,            0.,NA,NA,"",       3.88791,       3.76068,   986.451E-03,   943.361E-09
C:/temp/dataset/9/22_9.odb,Step-1,Increment      1: Step Time =    1.000,"PART-1-1",           623,         -3.75,           20.,            0.,NA,NA,"",       3.78676,       3.67172,   926.268E-03,   1.25485E-06
C:/temp/dataset/9/22_9.odb,Step-1,Increment      1: Step Time =    1.000,"PART-1-1",           624,      -3.15456,       22.2398,            0.,NA,NA,"",       3.93860,       3.84029,   874.516E-03,   549.765E-09
C:/temp/dataset/9/22_9.odb,Step-1,Increment      1: Step Time =    1.000,"PART-1-1",           625,      -11.2479,       22.4027,            0.,NA,NA,"",       4.15238,       3.87609,       1.48935,   158.610E-09
C:/temp/dataset/9/22_9.odb,Step-1,Increment      1: Step Time =    1.000,"PART-1-1",           626,      -10.3888,       20.8027,            0.,NA,NA,"",       4.01477,       3.75197,       1.42867,   335.505E-09
C:/temp/dataset/9/22_9.odb,Step-1,Increment      1: Step Time =    1.000,"PART-1-1",           627,       9.41561,      -24.6142,            0.,NA,NA,"",   196.388E-03,   195.390E-03,   19.7763E-03,   15.4945E-03
C:/temp/dataset/9/22_9.odb,Step-1,Increment      1: Step Time =    1.000,"PART-1-1",           628,           15.,        -16.25,            0.,NA,NA,"",   917.798E-03,   831.917E-03,  -387.643E-03,   6.63302E-03
C:/temp/dataset/9/22_9.odb,Step-1,Increment      1: Step Time =    1.000,"PART-1-1",           629,       13.1096,      -16.2411,            0.,NA,NA,"",   867.874E-03,   833.847E-03,  -240.635E-03,   8.27451E-03
C:/temp/dataset/9/22_9.odb,Step-1,Increment      1: Step Time =    1.000,"PART-1-1",           630,           15.,          3.75,            0.,NA,NA,"",       2.42463,       2.38210,  -452.162E-03,   3.58997E-06
C:/temp/dataset/9/22_9.odb,Step-1,Increment      1: Step Time =    1.000,"PART-1-1",           631,       14.0093,       5.06690,            0.,NA,NA,"",       2.51405,       2.48506,  -380.669E-03,   3.43561E-06
C:/temp/dataset/9/22_9.odb,Step-1,Increment      1: Step Time =    1.000,"PART-1-1",           632,       12.9168,       3.88721,            0.,NA,NA,"",       2.41653,       2.39855,  -294.207E-03,   5.50073E-06
C:/temp/dataset/9/22_9.odb,Step-1,Increment      1: Step Time =    1.000,"PART-1-1",           633,       12.6026,       11.0965,            0.,NA,NA,"",       2.96185,       2.94750,  -291.196E-03,   1.52728E-06
C:/temp/dataset/9/22_9.odb,Step-1,Increment      1: Step Time =    1.000,"PART-1-1",           634,           15.,         11.25,            0.,NA,NA,"",       2.99003,       2.95223,  -473.895E-03,   3.08722E-06
C:/temp/dataset/9/22_9.odb,Step-1,Increment      1: Step Time =    1.000,"PART-1-1",           635,       12.4669,       18.7361,            0.,NA,NA,"",       3.54168,       3.52869,  -302.994E-03,   902.357E-09
C:/temp/dataset/9/22_9.odb,Step-1,Increment      1: Step Time =    1.000,"PART-1-1",           636,           15.,         18.75,            0.,NA,NA,"",       3.55712,       3.52242,  -495.615E-03,   1.37397E-06
C:/temp/dataset/9/22_9.odb,Step-1,Increment      1: Step Time =    1.000,"PART-1-1",           637,           15.,         26.25,            0.,NA,NA,"",       4.12519,       4.09262,  -517.326E-03,   166.493E-09
C:/temp/dataset/9/22_9.odb,Step-1,Increment      1: Step Time =    1.000,"PART-1-1",           638,          8.75,           30.,            0.,NA,NA,"",       4.39613,       4.39581,  -53.0126E-03,   335.316E-09
C:/temp/dataset/9/22_9.odb,Step-1,Increment      1: Step Time =    1.000,"PART-1-1",           639,       8.74802,       27.8391,            0.,NA,NA,"",       4.23179,       4.23153,  -46.6086E-03,   333.256E-09
C:/temp/dataset/9/22_9.odb,Step-1,Increment      1: Step Time =    1.000,"PART-1-1",           640,       11.0691,       22.4572,            0.,NA,NA,"",       3.82128,       3.81564,  -207.499E-03,   662.248E-09
C:/temp/dataset/9/22_9.odb,Step-1,Increment      1: Step Time =    1.000,"PART-1-1",           641,       11.1947,       19.9658,            0.,NA,NA,"",       3.63193,       3.62587,  -209.833E-03,   753.714E-09
C:/temp/dataset/9/22_9.odb,Step-1,Increment      1: Step Time =    1.000,"PART-1-1",           642,          3.75,           30.,            0.,NA,NA,"",       4.42240,       4.41028,   327.122E-03,   355.852E-09
C:/temp/dataset/9/22_9.odb,Step-1,Increment      1: Step Time =    1.000,"PART-1-1",           643,       6.12801,       21.9878,            0.,NA,NA,"",       3.79804,       3.79426,   169.515E-03,   877.035E-09
C:/temp/dataset/9/22_9.odb,Step-1,Increment      1: Step Time =    1.000,"PART-1-1",           644,       7.06684,       23.0702,            0.,NA,NA,"",       3.87500,       3.87383,   95.0070E-03,   754.135E-09
C:/temp/dataset/9/22_9.odb,Step-1,Increment      1: Step Time =    1.000,"PART-1-1",           645,       4.97038,       22.7185,            0.,NA,NA,"",       3.86162,       3.85316,   255.412E-03,   738.034E-09
C:/temp/dataset/9/22_9.odb,Step-1,Increment      1: Step Time =    1.000,"PART-1-1",           646,          3.75,           20.,            0.,NA,NA,"",       3.66734,       3.65001,   356.062E-03,   455.413E-09
C:/temp/dataset/9/22_9.odb,Step-1,Increment      1: Step Time =    1.000,"PART-1-1",           647,       4.96897,       20.9583,            0.,NA,NA,"",       3.72846,       3.71934,   260.612E-03,   1.06496E-06
C:/temp/dataset/9/22_9.odb,Step-1,Increment      1: Step Time =    1.000,"PART-1-1",           648,       3.78616,       22.0655,            0.,NA,NA,"",       3.82275,       3.80694,   347.335E-03,   611.597E-09
C:/temp/dataset/9/22_9.odb,Step-1,Increment      1: Step Time =    1.000,"PART-1-1",           649,           -5.,         13.75,            0.,NA,NA,"",       3.36475,       3.20019,       1.03939,   464.291E-09
C:/temp/dataset/9/22_9.odb,Step-1,Increment      1: Step Time =    1.000,"PART-1-1",           650,      -7.15256,       14.0792,            0.,NA,NA,"",       3.44779,       3.23144,       1.20209,   473.685E-09
C:/temp/dataset/9/22_9.odb,Step-1,Increment      1: Step Time =    1.000,"PART-1-1",           651,      -9.70164,       19.1500,            0.,NA,NA,"",       3.87860,       3.62433,       1.38121,   567.650E-09
C:/temp/dataset/9/22_9.odb,Step-1,Increment      1: Step Time =    1.000,"PART-1-1",           652,      -9.13060,       21.5024,            0.,NA,NA,"",       4.02779,       3.80153,       1.33099,   352.101E-09
C:/temp/dataset/9/22_9.odb,Step-1,Increment      1: Step Time =    1.000,"PART-1-1",           653,         -1.25,           -5.,            0.,NA,NA,"",       1.94027,       1.76378,   808.531E-03,   7.68993E-06
C:/temp/dataset/9/22_9.odb,Step-1,Increment      1: Step Time =    1.000,"PART-1-1",           654,      -1.47244,      -2.77860,            0.,NA,NA,"",       2.09965,       1.93333,   819.016E-03,   3.06356E-06
C:/temp/dataset/9/22_9.odb,Step-1,Increment      1: Step Time =    1.000,"PART-1-1",           655,      -9.96758,      -1.61086,            0.,NA,NA,"",       2.51497,       2.04671,       1.46152,   1.24625E-06
C:/temp/dataset/9/22_9.odb,Step-1,Increment      1: Step Time =    1.000,"PART-1-1",           656,      -6.37223,      -3.07632,            0.,NA,NA,"",       2.26429,       1.92488,       1.19241,   1.71568E-06
C:/temp/dataset/9/22_9.odb,Step-1,Increment      1: Step Time =    1.000,"PART-1-1",           657,         -6.25,           -5.,            0.,NA,NA,"",       2.13898,       1.77827,       1.18869,   2.41031E-06
C:/temp/dataset/9/22_9.odb,Step-1,Increment      1: Step Time =    1.000,"PART-1-1",           658,         -3.75,            5.,            0.,NA,NA,"",       2.71071,       2.53135,   969.662E-03,   3.85257E-06
C:/temp/dataset/9/22_9.odb,Step-1,Increment      1: Step Time =    1.000,"PART-1-1",           659,      -5.11170,       4.23117,            0.,NA,NA,"",       2.70023,       2.47683,       1.07542,   2.86228E-06
C:/temp/dataset/9/22_9.odb,Step-1,Increment      1: Step Time =    1.000,"PART-1-1",           660,      -3.95473,       3.29190,            0.,NA,NA,"",       2.59815,       2.40207,   990.174E-03,   1.94678E-06
C:/temp/dataset/9/22_9.odb,Step-1,Increment      1: Step Time =    1.000,"PART-1-1",           661,          3.75,           -5.,            0.,NA,NA,"",       1.80091,       1.74923,   428.306E-03,   46.2318E-06
C:/temp/dataset/9/22_9.odb,Step-1,Increment      1: Step Time =    1.000,"PART-1-1",           662,       4.69008,      -3.66648,            0.,NA,NA,"",       1.88135,       1.84795,   352.923E-03,   88.0218E-06
C:/temp/dataset/9/22_9.odb,Step-1,Increment      1: Step Time =    1.000,"PART-1-1",           663,       4.69636,       3.71818,            0.,NA,NA,"",       2.43211,       2.40945,   331.195E-03,   5.90538E-06
C:/temp/dataset/9/22_9.odb,Step-1,Increment      1: Step Time =    1.000,"PART-1-1",           664,          3.75,            5.,            0.,NA,NA,"",       2.54123,       2.50964,   399.428E-03,   1.94474E-06
C:/temp/dataset/9/22_9.odb,Step-1,Increment      1: Step Time =    1.000,"PART-1-1",           665,       8.42013,       25.7200,            0.,NA,NA,"",       4.07140,       4.07137,  -15.5469E-03,   462.492E-09
C:/temp/dataset/9/22_9.odb,Step-1,Increment      1: Step Time =    1.000,"PART-1-1",           666,       7.55622,       27.1849,            0.,NA,NA,"",       4.18549,       4.18524,   45.8934E-03,   380.413E-09
C:/temp/dataset/9/22_9.odb,Step-1,Increment      1: Step Time =    1.000,"PART-1-1",           667,       6.61388,       26.0906,            0.,NA,NA,"",       4.10655,       4.10477,   120.704E-03,   409.476E-09
C:/temp/dataset/9/22_9.odb,Step-1,Increment      1: Step Time =    1.000,"PART-1-1",           668,       10.0237,       13.5556,            0.,NA,NA,"",       3.14358,       3.14191,  -102.258E-03,   782.580E-09
C:/temp/dataset/9/22_9.odb,Step-1,Increment      1: Step Time =    1.000,"PART-1-1",           669,       8.80148,       12.2659,            0.,NA,NA,"",       3.04741,       3.04741,  -5.60728E-03,   1.09673E-06
C:/temp/dataset/9/22_9.odb,Step-1,Increment      1: Step Time =    1.000,"PART-1-1",           670,            5.,          6.25,            0.,NA,NA,"",       2.61839,       2.60106,   300.791E-03,   3.67925E-06
C:/temp/dataset/9/22_9.odb,Step-1,Increment      1: Step Time =    1.000,"PART-1-1",           671,       5.87545,       4.76801,            0.,NA,NA,"",       2.49727,       2.48586,   238.523E-03,   4.41998E-06
C:/temp/dataset/9/22_9.odb,Step-1,Increment      1: Step Time =    1.000,"PART-1-1",           672,       6.93940,       5.78737,            0.,NA,NA,"",       2.56494,       2.56027,   154.691E-03,   3.02181E-06
C:/temp/dataset/9/22_9.odb,Step-1,Increment      1: Step Time =    1.000,"PART-1-1",           673,       7.73520,       4.18036,            0.,NA,NA,"",       2.43781,       2.43580,   98.8460E-03,   5.34188E-06
C:/temp/dataset/9/22_9.odb,Step-1,Increment      1: Step Time =    1.000,"PART-1-1",           674,       6.49581,       3.34316,            0.,NA,NA,"",       2.38377,       2.37574,   195.487E-03,   8.18115E-06
C:/temp/dataset/9/22_9.odb,Step-1,Increment      1: Step Time =    1.000,"PART-1-1",           675,       7.18979,       1.82766,            0.,NA,NA,"",       2.26330,       2.25851,   147.124E-03,   15.3535E-06
C:/temp/dataset/9/22_9.odb,Step-1,Increment      1: Step Time =    1.000,"PART-1-1",           676,       8.42918,       2.66485,            0.,NA,NA,"",       2.31914,       2.31859,   50.4833E-03,   13.6563E-06
C:/temp/dataset/9/22_9.odb,Step-1,Increment      1: Step Time =    1.000,"PART-1-1",           677,  -530.051E-03,       1.39108,            0.,NA,NA,"",       2.36486,       2.24764,   735.287E-03,   2.67432E-06
C:/temp/dataset/9/22_9.odb,Step-1,Increment      1: Step Time =    1.000,"PART-1-1",           678,      -10.1792,       3.73358,            0.,NA,NA,"",       2.85627,       2.45366,       1.46214,   1.01639E-06
C:/temp/dataset/9/22_9.odb,Step-1,Increment      1: Step Time =    1.000,"PART-1-1",           679,      -9.26781,       2.30942,            0.,NA,NA,"",       2.72763,       2.34275,       1.39697,   1.29798E-06
C:/temp/dataset/9/22_9.odb,Step-1,Increment      1: Step Time =    1.000,"PART-1-1",           680,      -7.90097,       2.82902,            0.,NA,NA,"",       2.70636,       2.37830,       1.29155,   1.33717E-06
C:/temp/dataset/9/22_9.odb,Step-1,Increment      1: Step Time =    1.000,"PART-1-1",           681,      -2.90861,       2.25641,            0.,NA,NA,"",       2.49371,       2.32031,   913.632E-03,   2.29351E-06
C:/temp/dataset/9/22_9.odb,Step-1,Increment      1: Step Time =    1.000,"PART-1-1",           682,      -1.97153,   737.020E-03,            0.,NA,NA,"",       2.35928,       2.20208,   846.782E-03,   2.38807E-06
C:/temp/dataset/9/22_9.odb,Step-1,Increment      1: Step Time =    1.000,"PART-1-1",           683,      -12.0057,       8.33468,            0.,NA,NA,"",       3.22643,       2.80876,       1.58768,   903.654E-09
C:/temp/dataset/9/22_9.odb,Step-1,Increment      1: Step Time =    1.000,"PART-1-1",           684,   257.111E-03,       23.5381,            0.,NA,NA,"",       3.97639,       3.92911,   611.379E-03,   469.016E-09
C:/temp/dataset/9/22_9.odb,Step-1,Increment      1: Step Time =    1.000,"PART-1-1",           685,       2.92443,       23.5127,            0.,NA,NA,"",       3.94071,       3.91947,   408.662E-03,   512.048E-09
C:/temp/dataset/9/22_9.odb,Step-1,Increment      1: Step Time =    1.000,"PART-1-1",           686,  -872.814E-03,       24.6452,            0.,NA,NA,"",       4.07609,       4.01656,   694.080E-03,   461.101E-09
C:/temp/dataset/9/22_9.odb,Step-1,Increment      1: Step Time =    1.000,"PART-1-1",           687,      -2.49287,       25.7554,            0.,NA,NA,"",       4.18557,       4.10565,   814.035E-03,   330.849E-09
C:/temp/dataset/9/22_9.odb,Step-1,Increment      1: Step Time =    1.000,"PART-1-1",           688,      -6.57000,       23.0679,            0.,NA,NA,"",       4.07351,       3.91313,       1.13178,   281.672E-09
C:/temp/dataset/9/22_9.odb,Step-1,Increment      1: Step Time =    1.000,"PART-1-1",           689,      -7.77911,       22.2181,            0.,NA,NA,"",       4.04247,       3.85202,       1.22617,   315.912E-09
C:/temp/dataset/9/22_9.odb,Step-1,Increment      1: Step Time =    1.000,"PART-1-1",           690,      -6.08757,       21.5970,            0.,NA,NA,"",       3.95574,       3.79990,       1.09936,   510.931E-09
C:/temp/dataset/9/22_9.odb,Step-1,Increment      1: Step Time =    1.000,"PART-1-1",           691,      -10.6596,       24.7502,            0.,NA,NA,"",       4.30035,       4.05286,       1.43783,   115.802E-09
C:/temp/dataset/9/22_9.odb,Step-1,Increment      1: Step Time =    1.000,"PART-1-1",           692,      -8.94190,       25.0911,            0.,NA,NA,"",       4.27811,       4.07381,       1.30626,   109.491E-09
C:/temp/dataset/9/22_9.odb,Step-1,Increment      1: Step Time =    1.000,"PART-1-1",           693,      -9.30563,       26.3338,            0.,NA,NA,"",       4.37643,       4.16934,       1.33031,   117.374E-09
C:/temp/dataset/9/22_9.odb,Step-1,Increment      1: Step Time =    1.000,"PART-1-1",           694,      -11.0233,       25.9928,            0.,NA,NA,"",       4.39844,       4.14839,       1.46189,   124.476E-09
C:/temp/dataset/9/22_9.odb,Step-1,Increment      1: Step Time =    1.000,"PART-1-1",           695,      -9.11986,       17.2561,            0.,NA,NA,"",       3.72871,       3.47866,       1.34246,   699.296E-09
C:/temp/dataset/9/22_9.odb,Step-1,Increment      1: Step Time =    1.000,"PART-1-1",           696,      -11.0116,       7.65423,            0.,NA,NA,"",       3.14289,       2.75415,       1.51407,   775.823E-09
C:/temp/dataset/9/22_9.odb,Step-1,Increment      1: Step Time =    1.000,"PART-1-1",           697,      -11.6541,       6.30856,            0.,NA,NA,"",       3.08173,       2.65370,       1.56682,   879.338E-09
C:/temp/dataset/9/22_9.odb,Step-1,Increment      1: Step Time =    1.000,"PART-1-1",           698,      -3.46647,   792.949E-03,            0.,NA,NA,"",       2.41022,       2.21066,   960.285E-03,   1.31233E-06
C:/temp/dataset/9/22_9.odb,Step-1,Increment      1: Step Time =    1.000,"PART-1-1",           699,      -4.27899,       1.61468,            0.,NA,NA,"",       2.49351,       2.27549,       1.01968,   1.13583E-06
C:/temp/dataset/9/22_9.odb,Step-1,Increment      1: Step Time =    1.000,"PART-1-1",           700,      -5.41602,       1.03976,            0.,NA,NA,"",       2.49454,       2.23507,       1.10780,   980.168E-09
C:/temp/dataset/9/22_9.odb,Step-1,Increment      1: Step Time =    1.000,"PART-1-1",           701,      -4.60351,   218.037E-03,            0.,NA,NA,"",       2.41020,       2.17024,       1.04840,   1.07569E-06
C:/temp/dataset/9/22_9.odb,Step-1,Increment      1: Step Time =    1.000,"PART-1-1",           702,      -1.96165,  -510.209E-03,            0.,NA,NA,"",       2.27207,       2.10722,   849.643E-03,   1.93477E-06
C:/temp/dataset/9/22_9.odb,Step-1,Increment      1: Step Time =    1.000,"PART-1-1",           703,      -2.89723,      -2.02996,            0.,NA,NA,"",       2.19852,       1.99438,   925.178E-03,   1.90732E-06
C:/temp/dataset/9/22_9.odb,Step-1,Increment      1: Step Time =    1.000,"PART-1-1",           704,       6.46823,      -3.22891,            0.,NA,NA,"",       1.88847,       1.87601,   216.582E-03,   152.202E-06
C:/temp/dataset/9/22_9.odb,Step-1,Increment      1: Step Time =    1.000,"PART-1-1",           705,       5.30305,      -2.18626,            0.,NA,NA,"",       1.98189,       1.95873,   302.122E-03,   42.1444E-06
C:/temp/dataset/9/22_9.odb,Step-1,Increment      1: Step Time =    1.000,"PART-1-1",           706,       8.11637,      -13.0290,            0.,NA,NA,"",       1.13291,       1.12723,   113.287E-03,   7.64568E-03
C:/temp/dataset/9/22_9.odb,Step-1,Increment      1: Step Time =    1.000,"PART-1-1",           707,       8.09759,      -10.8135,            0.,NA,NA,"",       1.30300,       1.29796,   114.503E-03,   2.90086E-03
C:/temp/dataset/9/22_9.odb,Step-1,Increment      1: Step Time =    1.000,"PART-1-1",           708,           15.,        -26.25,            0.,NA,NA,"",   219.538E-03,   147.132E-03,  -162.940E-03,   40.0033E-03
C:/temp/dataset/9/22_9.odb,Step-1,Increment      1: Step Time =    1.000,"PART-1-1",           709,       13.6129,      -24.9005,            0.,NA,NA,"",   239.547E-03,   195.205E-03,  -138.845E-03,   26.2619E-03
C:/temp/dataset/9/22_9.odb,Step-1,Increment      1: Step Time =    1.000,"PART-1-1",           710,       12.3352,      -26.1538,            0.,NA,NA,"",   134.495E-03,   118.352E-03,  -63.8895E-03,   22.0010E-03
C:/temp/dataset/9/22_9.odb,Step-1,Increment      1: Step Time =    1.000,"PART-1-1",           711,       11.5115,      -24.0900,            0.,NA,NA,"",   236.428E-03,   227.945E-03,  -62.7649E-03,   17.1297E-03
C:/temp/dataset/9/22_9.odb,Step-1,Increment      1: Step Time =    1.000,"PART-1-1",           712,       12.5793,      -23.4990,            0.,NA,NA,"",   295.215E-03,   270.468E-03,  -118.316E-03,   19.4642E-03
C:/temp/dataset/9/22_9.odb,Step-1,Increment      1: Step Time =    1.000,"PART-1-1",           713,       11.9958,      -21.9645,            0.,NA,NA,"",   388.996E-03,   373.202E-03,  -109.719E-03,   16.1591E-03
C:/temp/dataset/9/22_9.odb,Step-1,Increment      1: Step Time =    1.000,"PART-1-1",           714,           15.,        -23.75,            0.,NA,NA,"",   369.074E-03,   276.786E-03,  -244.142E-03,   30.6835E-03
C:/temp/dataset/9/22_9.odb,Step-1,Increment      1: Step Time =    1.000,"PART-1-1",           715,       11.0775,      -9.24199,            0.,NA,NA,"",       1.40985,       1.40513,  -115.326E-03,   688.575E-06
C:/temp/dataset/9/22_9.odb,Step-1,Increment      1: Step Time =    1.000,"PART-1-1",           716,       10.0590,      -8.23408,            0.,NA,NA,"",       1.48605,       1.48549,  -40.5815E-03,   370.870E-06
C:/temp/dataset/9/22_9.odb,Step-1,Increment      1: Step Time =    1.000,"PART-1-1",           717,       9.08966,      -9.54059,            0.,NA,NA,"",       1.39003,       1.38954,   36.8212E-03,   1.19338E-03
C:/temp/dataset/9/22_9.odb,Step-1,Increment      1: Step Time =    1.000,"PART-1-1",           718,           15.,         -1.25,            0.,NA,NA,"",       2.04941,       2.00211,  -437.740E-03,   54.4791E-06
C:/temp/dataset/9/22_9.odb,Step-1,Increment      1: Step Time =    1.000,"PART-1-1",           719,       12.7047,      -1.36075,            0.,NA,NA,"",       2.01756,       2.00036,  -262.895E-03,   79.5536E-06
C:/temp/dataset/9/22_9.odb,Step-1,Increment      1: Step Time =    1.000,"PART-1-1",           720,       10.4122,      -1.52824,            0.,NA,NA,"",       1.99611,       1.99417,  -88.0184E-03,   96.5824E-06
C:/temp/dataset/9/22_9.odb,Step-1,Increment      1: Step Time =    1.000,"PART-1-1",           721,       11.7321,      -2.88547,            0.,NA,NA,"",       1.89630,       1.88731,  -184.431E-03,   123.101E-06
C:/temp/dataset/9/22_9.odb,Step-1,Increment      1: Step Time =    1.000,"PART-1-1",           722,       13.0447,       6.32641,            0.,NA,NA,"",       2.60225,       2.58360,  -310.995E-03,   1.83075E-06
C:/temp/dataset/9/22_9.odb,Step-1,Increment      1: Step Time =    1.000,"PART-1-1",           723,           15.,          6.25,            0.,NA,NA,"",       2.61284,       2.57213,  -459.408E-03,   4.87520E-06
C:/temp/dataset/9/22_9.odb,Step-1,Increment      1: Step Time =    1.000,"PART-1-1",           724,       12.2773,       7.44357,            0.,NA,NA,"",       2.68297,       2.67074,  -255.888E-03,   1.36210E-06
C:/temp/dataset/9/22_9.odb,Step-1,Increment      1: Step Time =    1.000,"PART-1-1",           725,       11.3989,       9.46443,            0.,NA,NA,"",       2.83362,       2.82691,  -194.961E-03,   929.475E-09
C:/temp/dataset/9/22_9.odb,Step-1,Increment      1: Step Time =    1.000,"PART-1-1",           726,       10.0696,       10.6576,            0.,NA,NA,"",       2.92309,       2.92146,  -97.3587E-03,   880.315E-09
C:/temp/dataset/9/22_9.odb,Step-1,Increment      1: Step Time =    1.000,"PART-1-1",           727,       11.2733,       12.2896,            0.,NA,NA,"",       3.04821,       3.04205,  -193.593E-03,   843.140E-09
C:/temp/dataset/9/22_9.odb,Step-1,Increment      1: Step Time =    1.000,"PART-1-1",           728,       11.2495,       14.9235,            0.,NA,NA,"",       3.24849,       3.24236,  -199.403E-03,   778.403E-09
C:/temp/dataset/9/22_9.odb,Step-1,Increment      1: Step Time =    1.000,"PART-1-1",           729,       11.2365,       17.4638,            0.,NA,NA,"",       3.44168,       3.43553,  -205.770E-03,   764.600E-09
C:/temp/dataset/9/22_9.odb,Step-1,Increment      1: Step Time =    1.000,"PART-1-1",           730,       9.96430,       18.6935,            0.,NA,NA,"",       3.53450,       3.53270,  -112.609E-03,   785.280E-09
C:/temp/dataset/9/22_9.odb,Step-1,Increment      1: Step Time =    1.000,"PART-1-1",           731,       8.12949,      -15.2371,            0.,NA,NA,"",   950.388E-03,   944.145E-03,   108.754E-03,   11.8565E-03
C:/temp/dataset/9/22_9.odb,Step-1,Increment      1: Step Time =    1.000,"PART-1-1",           732,       10.9896,      -6.85237,            0.,NA,NA,"",       1.59212,       1.58790,  -115.813E-03,   258.230E-06
C:/temp/dataset/9/22_9.odb,Step-1,Increment      1: Step Time =    1.000,"PART-1-1",           733,       10.9332,      -25.1906,            0.,NA,NA,"",   164.821E-03,   161.798E-03,  -31.4253E-03,   15.5733E-03
C:/temp/dataset/9/22_9.odb,Step-1,Increment      1: Step Time =    1.000,"PART-1-1",           734,       11.9281,      -5.46067,            0.,NA,NA,"",       1.70192,       1.69109,  -191.717E-03,   240.419E-06
C:/temp/dataset/9/22_9.odb,Step-1,Increment      1: Step Time =    1.000,"PART-1-1",           735,      -11.5697,       3.18107,            0.,NA,NA,"",       2.88075,       2.41568,       1.56946,   1.11076E-06
C:/temp/dataset/9/22_9.odb,Step-1,Increment      1: Step Time =    1.000,"PART-1-1",           736,      -10.7341,       2.09613,            0.,NA,NA,"",       2.77665,       2.33077,       1.50907,   1.21422E-06
C:/temp/dataset/9/22_9.odb,Step-1,Increment      1: Step Time =    1.000,"PART-1-1",           737,      -6.76822,       1.80268,            0.,NA,NA,"",       2.59545,       2.29699,       1.20840,   1.18261E-06
C:/temp/dataset/9/22_9.odb,Step-1,Increment      1: Step Time =    1.000,"PART-1-1",           738,      -5.32511,       2.65016,            0.,NA,NA,"",       2.59967,       2.35724,       1.09622,   1.08105E-06
C:/temp/dataset/9/22_9.odb,Step-1,Increment      1: Step Time =    1.000,"PART-1-1",           739,      -6.45786,       3.67650,            0.,NA,NA,"",       2.70878,       2.43856,       1.17938,   1.39500E-06
C:/temp/dataset/9/22_9.odb,Step-1,Increment      1: Step Time =    1.000,"PART-1-1",           740,      -10.1618,       27.4009,            0.,NA,NA,"",       4.47505,       4.25295,       1.39232,   129.808E-09
C:/temp/dataset/9/22_9.odb,Step-1,Increment      1: Step Time =    1.000,"PART-1-1",           741,      -8.15950,       27.0742,            0.,NA,NA,"",       4.40092,       4.22231,       1.24103,   100.779E-09
C:/temp/dataset/9/22_9.odb,Step-1,Increment      1: Step Time =    1.000,"PART-1-1",           742,      -8.41457,       23.7439,            0.,NA,NA,"",       4.16807,       3.96986,       1.27006,   179.145E-09
C:/temp/dataset/9/22_9.odb,Step-1,Increment      1: Step Time =    1.000,"PART-1-1",           743,      -9.76606,       23.0282,            0.,NA,NA,"",       4.15352,       3.91936,       1.37488,   167.433E-09
C:/temp/dataset/9/22_9.odb,Step-1,Increment      1: Step Time =    1.000,"PART-1-1",           744,      -10.1457,       6.57799,            0.,NA,NA,"",       3.03881,       2.66982,       1.45136,   751.520E-09
C:/temp/dataset/9/22_9.odb,Step-1,Increment      1: Step Time =    1.000,"PART-1-1",           745,      -11.1466,       5.19230,            0.,NA,NA,"",       2.98944,       2.56737,       1.53147,   918.950E-09
C:/temp/dataset/9/22_9.odb,Step-1,Increment      1: Step Time =    1.000,"PART-1-1",           746,       7.77017,   782.991E-03,            0.,NA,NA,"",       2.17999,       2.17741,   106.041E-03,   27.1144E-06
C:/temp/dataset/9/22_9.odb,Step-1,Increment      1: Step Time =    1.000,"PART-1-1",           747,       6.09501,       1.10589,            0.,NA,NA,"",       2.21900,       2.20679,   232.430E-03,   18.5518E-06
C:/temp/dataset/9/22_9.odb,Step-1,Increment      1: Step Time =    1.000,"PART-1-1",           748,       6.67539,   61.2235E-03,            0.,NA,NA,"",       2.13428,       2.12568,   191.343E-03,   27.6273E-06
C:/temp/dataset/9/22_9.odb,Step-1,Increment      1: Step Time =    1.000,"PART-1-1",           749,       5.31672,       2.29333,            0.,NA,NA,"",       2.31731,       2.29933,   288.156E-03,   9.48102E-06
C:/temp/dataset/9/22_9.odb,Step-1,Increment      1: Step Time =    1.000,"PART-1-1",           750,      -6.94695,       24.4689,            0.,NA,NA,"",       4.18372,       4.02073,       1.15639,   154.065E-09
C:/temp/dataset/9/22_9.odb,Step-1,Increment      1: Step Time =    1.000,"PART-1-1",           751,      -2.09966,       23.3616,            0.,NA,NA,"",       4.00149,       3.92252,   791.069E-03,   536.632E-09
C:/temp/dataset/9/22_9.odb,Step-1,Increment      1: Step Time =    1.000,"PART-1-1",           752,      -2.87591,       24.2478,            0.,NA,NA,"",       4.08111,       3.99214,   847.519E-03,   413.408E-09
C:/temp/dataset/9/22_9.odb,Step-1,Increment      1: Step Time =    1.000,"PART-1-1",           753,       9.53974,       23.7363,            0.,NA,NA,"",       3.91846,       3.91731,  -94.9261E-03,   652.250E-09
C:/temp/dataset/9/22_9.odb,Step-1,Increment      1: Step Time =    1.000,"PART-1-1",           754,      -5.22075,      -2.25347,            0.,NA,NA,"",       2.26984,       1.98411,       1.10248,   1.62284E-06
C:/temp/dataset/9/22_9.odb,Step-1,Increment      1: Step Time =    1.000,"PART-1-1",           755,      -7.55915,      -2.11026,            0.,NA,NA,"",       2.37594,       2.00177,       1.27986,   1.47188E-06
C:/temp/dataset/9/22_9.odb,Step-1,Increment      1: Step Time =    1.000,"PART-1-1",           756,      -4.20325,      -1.24540,            0.,NA,NA,"",       2.29771,       2.05781,       1.02220,   1.39737E-06
C:/temp/dataset/9/22_9.odb,Step-1,Increment      1: Step Time =    1.000,"PART-1-1",           757,       12.0426,       5.30937,            0.,NA,NA,"",       2.51987,       2.50918,  -231.870E-03,   2.03695E-06
C:/temp/dataset/9/22_9.odb,Step-1,Increment      1: Step Time =    1.000,"PART-1-1",           758,      -8.17645,       12.8481,            0.,NA,NA,"",       3.39294,       3.14081,       1.28349,   562.716E-09
C:/temp/dataset/9/22_9.odb,Step-1,Increment      1: Step Time =    1.000,"PART-1-1",           759,      -8.09554,       10.3784,            0.,NA,NA,"",       3.22010,       2.95282,       1.28449,   661.394E-09
C:/temp/dataset/9/22_9.odb,Step-1,Increment      1: Step Time =    1.000,"PART-1-1",           760,      -8.33007,       15.6293,            0.,NA,NA,"",       3.59128,       3.35270,       1.28712,   601.497E-09
C:/temp/dataset/9/22_9.odb,Step-1,Increment      1: Step Time =    1.000,"PART-1-1",           761,       12.1122,      -19.7356,            0.,NA,NA,"",   562.356E-03,   544.452E-03,  -140.770E-03,   14.0192E-03
C:/temp/dataset/9/22_9.odb,Step-1,Increment      1: Step Time =    1.000,"PART-1-1",           762,       12.1388,      -17.4254,            0.,NA,NA,"",   753.163E-03,   735.425E-03,  -162.497E-03,   11.0254E-03
C:/temp/dataset/9/22_9.odb,Step-1,Increment      1: Step Time =    1.000,"PART-1-1",           763,       12.0361,      -7.90801,            0.,NA,NA,"",       1.51661,       1.50432,  -192.643E-03,   218.958E-06
C:/temp/dataset/9/22_9.odb,Step-1,Increment      1: Step Time =    1.000,"PART-1-1",           764,       12.0837,      -10.3075,            0.,NA,NA,"",       1.33271,       1.31921,  -189.220E-03,   941.032E-06
C:/temp/dataset/9/22_9.odb,Step-1,Increment      1: Step Time =    1.000,"PART-1-1",           765,       12.1118,      -12.6921,            0.,NA,NA,"",       1.14493,       1.13004,  -184.067E-03,   3.45438E-03
C:/temp/dataset/9/22_9.odb,Step-1,Increment      1: Step Time =    1.000,"PART-1-1",           766,       12.1357,      -15.0700,            0.,NA,NA,"",   950.534E-03,   934.017E-03,  -176.428E-03,   7.21931E-03
C:/temp/dataset/9/22_9.odb,Step-1,Increment      1: Step Time =    1.000,"PART-1-1",           767,      -8.71328,  -792.246E-03,            0.,NA,NA,"",       2.50844,       2.10532,       1.36379,   1.45639E-06
C:/temp/dataset/9/22_9.odb,Step-1,Increment      1: Step Time =    1.000,"PART-1-1",           768,      -7.47429,       25.8162,            0.,NA,NA,"",       4.29363,       4.12469,       1.19258,   87.2584E-09
C:/temp/dataset/9/22_9.odb,Step-1,Increment      1: Step Time =    1.000,"PART-1-1",           769,       9.13729,   756.201E-03,            0.,NA,NA,"",       2.17145,       2.17145,   2.20453E-03,   32.0754E-06
C:/temp/dataset/9/22_9.odb,Step-1,Increment      1: Step Time =    1.000,"PART-1-1",           770,       7.76646,  -679.521E-03,            0.,NA,NA,"",       2.06917,       2.06621,   110.581E-03,   54.1229E-06
C:/temp/dataset/9/22_9.odb,Step-1,Increment      1: Step Time =    1.000,"PART-1-1",           771,       9.13358,  -706.311E-03,            0.,NA,NA,"",       2.06029,       2.06028,   6.76387E-03,   54.6342E-06
C:/temp/dataset/9/22_9.odb,Step-1,Increment      1: Step Time =    1.000,"PART-1-1",           772,       7.17869,      -1.72980,            0.,NA,NA,"",       1.99431,       1.98802,   158.296E-03,   66.3535E-06
C:/temp/dataset/9/22_9.odb,Step-1,Increment      1: Step Time =    1.000,"PART-1-1",           773,       6.08762,  -989.051E-03,            0.,NA,NA,"",       2.06142,       2.04751,   239.049E-03,   42.5425E-06
C:/temp/dataset/9/22_9.odb,Step-1,Increment      1: Step Time =    1.000,"PART-1-1",           774,       8.06590,       24.5744,            0.,NA,NA,"",       3.98532,       3.98530,   14.6991E-03,   550.148E-09
C:/temp/dataset/9/22_9.odb,Step-1,Increment      1: Step Time =    1.000,"PART-1-1",           775,       7.69641,      -4.07963,            0.,NA,NA,"",       1.81215,       1.80777,   125.886E-03,   189.505E-06
C:/temp/dataset/9/22_9.odb,Step-1,Increment      1: Step Time =    1.000,"PART-1-1",           776,       8.40687,      -2.58051,            0.,NA,NA,"",       1.92100,       1.91982,   67.5135E-03,   130.569E-06
C:/temp/dataset/9/22_9.odb,Step-1,Increment      1: Step Time =    1.000,"PART-1-1",           777,      -9.00797,   684.990E-03,            0.,NA,NA,"",       2.61369,       2.21849,       1.38192,   1.38888E-06
C:/temp/dataset/9/22_9.odb,Step-1,Increment      1: Step Time =    1.000,"PART-1-1",           778,       5.05143,   63.4436E-03,            0.,NA,NA,"",       2.15367,       2.13054,   314.768E-03,   18.2990E-06
C:/temp/dataset/9/22_9.odb,Step-1,Increment      1: Step Time =    1.000,"PART-1-1",           779,      -3.45659,  -454.281E-03,            0.,NA,NA,"",       2.32471,       2.11580,   963.146E-03,   1.31774E-06
C:/temp/dataset/9/22_9.odb,Step-1,Increment      1: Step Time =    1.000,"PART-1-1",           780,      -7.58605,   993.377E-03,            0.,NA,NA,"",       2.57452,       2.23782,       1.27292,   1.37451E-06
