ODB Name,Step,Frame,Part Instance Name,    êﬂì_ÉâÉxÉã,X,Y,Z,Section Name,Material Name,Section Point,   U-Magnitude,          U-U1,          U-U2,       S-Mises
C:/temp/dataset/9/25_5.odb,Step-1,Increment      1: Step Time =    1.000,"PART-1-1",             1,            5.,           20.,            0.,NA,NA,"",       3.81796,       3.78918,   467.896E-03,   3.97051E-03
C:/temp/dataset/9/25_5.odb,Step-1,Increment      1: Step Time =    1.000,"PART-1-1",             2,            0.,           20.,            0.,NA,NA,"",       3.97380,       3.83281,       1.04912,   4.81940E-03
C:/temp/dataset/9/25_5.odb,Step-1,Increment      1: Step Time =    1.000,"PART-1-1",             3,            5.,          12.5,            0.,NA,NA,"",       3.00033,       2.96123,   482.827E-03,   4.63795E-03
C:/temp/dataset/9/25_5.odb,Step-1,Increment      1: Step Time =    1.000,"PART-1-1",             4,            5.,            5.,            0.,NA,NA,"",       2.22964,       2.17623,   485.136E-03,   7.59716E-03
C:/temp/dataset/9/25_5.odb,Step-1,Increment      1: Step Time =    1.000,"PART-1-1",             5,            0.,            5.,            0.,NA,NA,"",       2.45964,       2.24008,       1.01582,   5.50482E-03
C:/temp/dataset/9/25_5.odb,Step-1,Increment      1: Step Time =    1.000,"PART-1-1",             6,           -5.,            5.,            0.,NA,NA,"",       2.78881,       2.28615,       1.59718,   6.35570E-03
C:/temp/dataset/9/25_5.odb,Step-1,Increment      1: Step Time =    1.000,"PART-1-1",             7,           -5.,          12.5,            0.,NA,NA,"",       3.48157,       3.09805,       1.58852,   4.14610E-03
C:/temp/dataset/9/25_5.odb,Step-1,Increment      1: Step Time =    1.000,"PART-1-1",             8,           -5.,           20.,            0.,NA,NA,"",       4.19234,       3.88399,       1.57808,   5.62506E-03
C:/temp/dataset/9/25_5.odb,Step-1,Increment      1: Step Time =    1.000,"PART-1-1",             9,           15.,           30.,            0.,NA,NA,"",       4.90153,       4.84887,  -716.518E-03,   16.2542E-06
C:/temp/dataset/9/25_5.odb,Step-1,Increment      1: Step Time =    1.000,"PART-1-1",            10,           7.5,           30.,            0.,NA,NA,"",       4.89910,       4.89737,   130.218E-03,   114.056E-06
C:/temp/dataset/9/25_5.odb,Step-1,Increment      1: Step Time =    1.000,"PART-1-1",            11,            0.,           30.,            0.,NA,NA,"",       5.02919,       4.93317,   978.066E-03,   3.72555E-03
C:/temp/dataset/9/25_5.odb,Step-1,Increment      1: Step Time =    1.000,"PART-1-1",            12,          -7.5,           30.,            0.,NA,NA,"",       5.26315,       4.95258,       1.78119,   1.84307E-03
C:/temp/dataset/9/25_5.odb,Step-1,Increment      1: Step Time =    1.000,"PART-1-1",            13,          -15.,           30.,            0.,NA,NA,"",       5.60791,       4.98963,       2.55974,   30.9187E-06
C:/temp/dataset/9/25_5.odb,Step-1,Increment      1: Step Time =    1.000,"PART-1-1",            14,          -15.,         21.25,            0.,NA,NA,"",       4.83845,       4.07747,       2.60477,   533.938E-06
C:/temp/dataset/9/25_5.odb,Step-1,Increment      1: Step Time =    1.000,"PART-1-1",            15,          -15.,          12.5,            0.,NA,NA,"",       4.12866,       3.16147,       2.65537,   1.14534E-03
C:/temp/dataset/9/25_5.odb,Step-1,Increment      1: Step Time =    1.000,"PART-1-1",            16,          -15.,          3.75,            0.,NA,NA,"",       3.50417,       2.21100,       2.71858,   1.24242E-03
C:/temp/dataset/9/25_5.odb,Step-1,Increment      1: Step Time =    1.000,"PART-1-1",            17,          -15.,           -5.,            0.,NA,NA,"",       3.03761,       1.22925,       2.77778,   27.4929E-06
C:/temp/dataset/9/25_5.odb,Step-1,Increment      1: Step Time =    1.000,"PART-1-1",            18,          -10.,           -5.,            0.,NA,NA,"",       2.51811,       1.19673,       2.21556,   441.685E-06
C:/temp/dataset/9/25_5.odb,Step-1,Increment      1: Step Time =    1.000,"PART-1-1",            19,           -5.,           -5.,            0.,NA,NA,"",       2.01740,       1.16352,       1.64806,   564.831E-06
C:/temp/dataset/9/25_5.odb,Step-1,Increment      1: Step Time =    1.000,"PART-1-1",            20,            0.,           -5.,            0.,NA,NA,"",       1.56710,       1.14019,       1.07507,   3.50651E-03
C:/temp/dataset/9/25_5.odb,Step-1,Increment      1: Step Time =    1.000,"PART-1-1",            21,            5.,           -5.,            0.,NA,NA,"",       1.23544,       1.13993,   476.306E-03,   28.1483E-03
C:/temp/dataset/9/25_5.odb,Step-1,Increment      1: Step Time =    1.000,"PART-1-1",            22,            5.,        -11.25,            0.,NA,NA,"",   762.117E-03,   671.695E-03,   360.067E-03,   21.4967E-03
C:/temp/dataset/9/25_5.odb,Step-1,Increment      1: Step Time =    1.000,"PART-1-1",            23,            5.,         -17.5,            0.,NA,NA,"",   401.248E-03,   315.355E-03,   248.095E-03,   22.0833E-03
C:/temp/dataset/9/25_5.odb,Step-1,Increment      1: Step Time =    1.000,"PART-1-1",            24,            5.,        -23.75,            0.,NA,NA,"",   159.518E-03,   97.3948E-03,   126.334E-03,   22.6394E-03
C:/temp/dataset/9/25_5.odb,Step-1,Increment      1: Step Time =    1.000,"PART-1-1",            25,            5.,          -30.,            0.,NA,NA,"",            0.,   7.36386E-39,   14.1975E-39,   26.9043E-03
C:/temp/dataset/9/25_5.odb,Step-1,Increment      1: Step Time =    1.000,"PART-1-1",            26,           15.,          -30.,            0.,NA,NA,"",            0.,   5.09635E-39,  -9.49243E-39,   18.8118E-03
C:/temp/dataset/9/25_5.odb,Step-1,Increment      1: Step Time =    1.000,"PART-1-1",            27,           15.,         -22.5,            0.,NA,NA,"",   164.831E-03,   113.513E-03,  -119.516E-03,   17.5423E-03
C:/temp/dataset/9/25_5.odb,Step-1,Increment      1: Step Time =    1.000,"PART-1-1",            28,           15.,          -15.,            0.,NA,NA,"",   479.807E-03,   414.914E-03,  -240.958E-03,   16.7688E-03
C:/temp/dataset/9/25_5.odb,Step-1,Increment      1: Step Time =    1.000,"PART-1-1",            29,           15.,          -7.5,            0.,NA,NA,"",   983.048E-03,   911.010E-03,  -369.384E-03,   15.9231E-03
C:/temp/dataset/9/25_5.odb,Step-1,Increment      1: Step Time =    1.000,"PART-1-1",            30,           15.,            0.,            0.,NA,NA,"",       1.66840,       1.59681,  -483.483E-03,   7.25120E-03
C:/temp/dataset/9/25_5.odb,Step-1,Increment      1: Step Time =    1.000,"PART-1-1",            31,           15.,           7.5,            0.,NA,NA,"",       2.43186,       2.36861,  -551.046E-03,   2.70361E-03
C:/temp/dataset/9/25_5.odb,Step-1,Increment      1: Step Time =    1.000,"PART-1-1",            32,           15.,           15.,            0.,NA,NA,"",       3.22858,       3.17025,  -610.908E-03,   2.15207E-03
C:/temp/dataset/9/25_5.odb,Step-1,Increment      1: Step Time =    1.000,"PART-1-1",            33,           15.,          22.5,            0.,NA,NA,"",       4.05858,       4.00336,  -667.244E-03,   690.251E-06
C:/temp/dataset/9/25_5.odb,Step-1,Increment      1: Step Time =    1.000,"PART-1-1",            34,           2.5,           20.,            0.,NA,NA,"",       3.88490,       3.80996,   759.337E-03,   2.49163E-03
C:/temp/dataset/9/25_5.odb,Step-1,Increment      1: Step Time =    1.000,"PART-1-1",            35,            5.,           15.,            0.,NA,NA,"",       3.26896,       3.23382,   478.001E-03,   4.26739E-03
C:/temp/dataset/9/25_5.odb,Step-1,Increment      1: Step Time =    1.000,"PART-1-1",            36,            5.,          17.5,            0.,NA,NA,"",       3.54124,       3.50963,   472.030E-03,   4.33519E-03
C:/temp/dataset/9/25_5.odb,Step-1,Increment      1: Step Time =    1.000,"PART-1-1",            37,            5.,           7.5,            0.,NA,NA,"",       2.47740,       2.42887,   487.975E-03,   5.93070E-03
C:/temp/dataset/9/25_5.odb,Step-1,Increment      1: Step Time =    1.000,"PART-1-1",            38,            5.,           10.,            0.,NA,NA,"",       2.73610,       2.69253,   486.289E-03,   5.06852E-03
C:/temp/dataset/9/25_5.odb,Step-1,Increment      1: Step Time =    1.000,"PART-1-1",            39,           2.5,            5.,            0.,NA,NA,"",       2.33087,       2.20993,   741.060E-03,   7.81373E-03
C:/temp/dataset/9/25_5.odb,Step-1,Increment      1: Step Time =    1.000,"PART-1-1",            40,          -2.5,            5.,            0.,NA,NA,"",       2.61318,       2.26638,       1.30085,   3.40684E-03
C:/temp/dataset/9/25_5.odb,Step-1,Increment      1: Step Time =    1.000,"PART-1-1",            41,           -5.,           10.,            0.,NA,NA,"",       3.24761,       2.82993,       1.59325,   4.36145E-03
C:/temp/dataset/9/25_5.odb,Step-1,Increment      1: Step Time =    1.000,"PART-1-1",            42,           -5.,           7.5,            0.,NA,NA,"",       3.01711,       2.55929,       1.59780,   5.08029E-03
C:/temp/dataset/9/25_5.odb,Step-1,Increment      1: Step Time =    1.000,"PART-1-1",            43,           -5.,          17.5,            0.,NA,NA,"",       3.95487,       3.62623,       1.57844,   4.31904E-03
C:/temp/dataset/9/25_5.odb,Step-1,Increment      1: Step Time =    1.000,"PART-1-1",            44,           -5.,           15.,            0.,NA,NA,"",       3.71756,       3.36343,       1.58354,   3.87678E-03
C:/temp/dataset/9/25_5.odb,Step-1,Increment      1: Step Time =    1.000,"PART-1-1",            45,          -2.5,           20.,            0.,NA,NA,"",       4.08259,       3.86047,       1.32827,   7.68527E-03
C:/temp/dataset/9/25_5.odb,Step-1,Increment      1: Step Time =    1.000,"PART-1-1",            46,          12.5,           30.,            0.,NA,NA,"",       4.88423,       4.86485,  -434.635E-03,   68.5797E-06
C:/temp/dataset/9/25_5.odb,Step-1,Increment      1: Step Time =    1.000,"PART-1-1",            47,           10.,           30.,            0.,NA,NA,"",       4.88351,       4.88112,  -152.634E-03,   161.060E-06
C:/temp/dataset/9/25_5.odb,Step-1,Increment      1: Step Time =    1.000,"PART-1-1",            48,            5.,           30.,            0.,NA,NA,"",       4.92982,       4.91240,   414.091E-03,   1.04786E-03
C:/temp/dataset/9/25_5.odb,Step-1,Increment      1: Step Time =    1.000,"PART-1-1",            49,           2.5,           30.,            0.,NA,NA,"",       4.97376,       4.92459,   697.635E-03,   2.48537E-03
C:/temp/dataset/9/25_5.odb,Step-1,Increment      1: Step Time =    1.000,"PART-1-1",            50,          -2.5,           30.,            0.,NA,NA,"",       5.09521,       4.93891,       1.25233,   3.99545E-03
C:/temp/dataset/9/25_5.odb,Step-1,Increment      1: Step Time =    1.000,"PART-1-1",            51,           -5.,           30.,            0.,NA,NA,"",       5.17282,       4.94463,       1.51945,   3.26640E-03
C:/temp/dataset/9/25_5.odb,Step-1,Increment      1: Step Time =    1.000,"PART-1-1",            52,          -10.,           30.,            0.,NA,NA,"",       5.36642,       4.96332,       2.04056,   672.043E-06
C:/temp/dataset/9/25_5.odb,Step-1,Increment      1: Step Time =    1.000,"PART-1-1",            53,         -12.5,           30.,            0.,NA,NA,"",       5.48182,       4.97607,       2.29980,   78.6860E-06
C:/temp/dataset/9/25_5.odb,Step-1,Increment      1: Step Time =    1.000,"PART-1-1",            54,          -15.,       27.8125,            0.,NA,NA,"",       5.41192,       4.76189,       2.57164,   72.7845E-06
C:/temp/dataset/9/25_5.odb,Step-1,Increment      1: Step Time =    1.000,"PART-1-1",            55,          -15.,        25.625,            0.,NA,NA,"",       5.21794,       4.53363,       2.58323,   340.406E-06
C:/temp/dataset/9/25_5.odb,Step-1,Increment      1: Step Time =    1.000,"PART-1-1",            56,          -15.,       23.4375,            0.,NA,NA,"",       5.02645,       4.30532,       2.59412,   585.736E-06
C:/temp/dataset/9/25_5.odb,Step-1,Increment      1: Step Time =    1.000,"PART-1-1",            57,          -15.,       19.0625,            0.,NA,NA,"",       4.65455,       3.84993,       2.61588,   153.255E-06
C:/temp/dataset/9/25_5.odb,Step-1,Increment      1: Step Time =    1.000,"PART-1-1",            58,          -15.,        16.875,            0.,NA,NA,"",       4.47491,       3.62195,       2.62798,   353.883E-06
C:/temp/dataset/9/25_5.odb,Step-1,Increment      1: Step Time =    1.000,"PART-1-1",            59,          -15.,       14.6875,            0.,NA,NA,"",       4.29954,       3.39267,       2.64118,   795.695E-06
C:/temp/dataset/9/25_5.odb,Step-1,Increment      1: Step Time =    1.000,"PART-1-1",            60,          -15.,       10.3125,            0.,NA,NA,"",       3.96283,       2.92795,       2.67042,   1.41541E-03
C:/temp/dataset/9/25_5.odb,Step-1,Increment      1: Step Time =    1.000,"PART-1-1",            61,          -15.,         8.125,            0.,NA,NA,"",       3.80280,       2.69179,       2.68618,   1.56875E-03
C:/temp/dataset/9/25_5.odb,Step-1,Increment      1: Step Time =    1.000,"PART-1-1",            62,          -15.,        5.9375,            0.,NA,NA,"",       3.64951,       2.45277,       2.70238,   1.49785E-03
C:/temp/dataset/9/25_5.odb,Step-1,Increment      1: Step Time =    1.000,"PART-1-1",            63,          -15.,        1.5625,            0.,NA,NA,"",       3.36832,       1.96699,       2.73433,   853.842E-06
C:/temp/dataset/9/25_5.odb,Step-1,Increment      1: Step Time =    1.000,"PART-1-1",            64,          -15.,     -625.E-03,            0.,NA,NA,"",       3.24391,       1.72153,       2.74941,   450.406E-06
C:/temp/dataset/9/25_5.odb,Step-1,Increment      1: Step Time =    1.000,"PART-1-1",            65,          -15.,       -2.8125,            0.,NA,NA,"",       3.13298,       1.47539,       2.76384,   125.100E-06
C:/temp/dataset/9/25_5.odb,Step-1,Increment      1: Step Time =    1.000,"PART-1-1",            66,         -12.5,           -5.,            0.,NA,NA,"",       2.77594,       1.21332,       2.49673,   153.019E-06
C:/temp/dataset/9/25_5.odb,Step-1,Increment      1: Step Time =    1.000,"PART-1-1",            67,          -7.5,           -5.,            0.,NA,NA,"",       2.26448,       1.17968,       1.93293,   309.762E-06
C:/temp/dataset/9/25_5.odb,Step-1,Increment      1: Step Time =    1.000,"PART-1-1",            68,          -2.5,           -5.,            0.,NA,NA,"",       1.78241,       1.15005,       1.36175,   2.18801E-03
C:/temp/dataset/9/25_5.odb,Step-1,Increment      1: Step Time =    1.000,"PART-1-1",            69,           2.5,           -5.,            0.,NA,NA,"",       1.37992,       1.13307,   787.610E-03,   8.40177E-03
C:/temp/dataset/9/25_5.odb,Step-1,Increment      1: Step Time =    1.000,"PART-1-1",            70,            5.,      -7.08333,            0.,NA,NA,"",       1.06703,   977.525E-03,   427.774E-03,   25.2133E-03
C:/temp/dataset/9/25_5.odb,Step-1,Increment      1: Step Time =    1.000,"PART-1-1",            71,            5.,      -9.16667,            0.,NA,NA,"",   909.406E-03,   819.196E-03,   394.889E-03,   21.0031E-03
C:/temp/dataset/9/25_5.odb,Step-1,Increment      1: Step Time =    1.000,"PART-1-1",            72,            5.,      -13.3333,            0.,NA,NA,"",   628.034E-03,   537.969E-03,   324.062E-03,   21.5975E-03
C:/temp/dataset/9/25_5.odb,Step-1,Increment      1: Step Time =    1.000,"PART-1-1",            73,            5.,      -15.4167,            0.,NA,NA,"",   507.762E-03,   419.083E-03,   286.692E-03,   21.8721E-03
C:/temp/dataset/9/25_5.odb,Step-1,Increment      1: Step Time =    1.000,"PART-1-1",            74,            5.,      -19.5833,            0.,NA,NA,"",   308.195E-03,   227.053E-03,   208.401E-03,   22.2939E-03
C:/temp/dataset/9/25_5.odb,Step-1,Increment      1: Step Time =    1.000,"PART-1-1",            75,            5.,      -21.6667,            0.,NA,NA,"",   227.956E-03,   154.335E-03,   167.764E-03,   22.4601E-03
C:/temp/dataset/9/25_5.odb,Step-1,Increment      1: Step Time =    1.000,"PART-1-1",            76,            5.,      -25.8333,            0.,NA,NA,"",   101.357E-03,   55.7725E-03,   84.6326E-03,   22.2832E-03
C:/temp/dataset/9/25_5.odb,Step-1,Increment      1: Step Time =    1.000,"PART-1-1",            77,            5.,      -27.9167,            0.,NA,NA,"",   51.8125E-03,   28.2610E-03,   43.4264E-03,   23.4999E-03
C:/temp/dataset/9/25_5.odb,Step-1,Increment      1: Step Time =    1.000,"PART-1-1",            78,           7.5,          -30.,            0.,NA,NA,"",            0.,  -2.10533E-39,   44.6233E-39,   9.61180E-03
C:/temp/dataset/9/25_5.odb,Step-1,Increment      1: Step Time =    1.000,"PART-1-1",            79,           10.,          -30.,            0.,NA,NA,"",            0.,  -5.15760E-39,   5.42695E-39,   4.03150E-03
C:/temp/dataset/9/25_5.odb,Step-1,Increment      1: Step Time =    1.000,"PART-1-1",            80,          12.5,          -30.,            0.,NA,NA,"",            0.,   6.05564E-39,  -22.2772E-39,   6.44431E-03
C:/temp/dataset/9/25_5.odb,Step-1,Increment      1: Step Time =    1.000,"PART-1-1",            81,           15.,         -27.5,            0.,NA,NA,"",   45.1642E-03,   22.4749E-03,  -39.1750E-03,   18.5220E-03
C:/temp/dataset/9/25_5.odb,Step-1,Increment      1: Step Time =    1.000,"PART-1-1",            82,           15.,          -25.,            0.,NA,NA,"",   97.5264E-03,   56.7720E-03,  -79.2990E-03,   17.7160E-03
C:/temp/dataset/9/25_5.odb,Step-1,Increment      1: Step Time =    1.000,"PART-1-1",            83,           15.,          -20.,            0.,NA,NA,"",   249.978E-03,   192.278E-03,  -159.743E-03,   17.1687E-03
C:/temp/dataset/9/25_5.odb,Step-1,Increment      1: Step Time =    1.000,"PART-1-1",            84,           15.,         -17.5,            0.,NA,NA,"",   354.680E-03,   292.850E-03,  -200.092E-03,   16.9384E-03
C:/temp/dataset/9/25_5.odb,Step-1,Increment      1: Step Time =    1.000,"PART-1-1",            85,           15.,         -12.5,            0.,NA,NA,"",   625.872E-03,   558.388E-03,  -282.698E-03,   16.6827E-03
C:/temp/dataset/9/25_5.odb,Step-1,Increment      1: Step Time =    1.000,"PART-1-1",            86,           15.,          -10.,            0.,NA,NA,"",   793.420E-03,   723.533E-03,  -325.599E-03,   16.5540E-03
C:/temp/dataset/9/25_5.odb,Step-1,Increment      1: Step Time =    1.000,"PART-1-1",            87,           15.,           -5.,            0.,NA,NA,"",       1.19448,       1.12107,  -412.315E-03,   14.0395E-03
C:/temp/dataset/9/25_5.odb,Step-1,Increment      1: Step Time =    1.000,"PART-1-1",            88,           15.,          -2.5,            0.,NA,NA,"",       1.42484,       1.35151,  -451.208E-03,   10.8158E-03
C:/temp/dataset/9/25_5.odb,Step-1,Increment      1: Step Time =    1.000,"PART-1-1",            89,           15.,           2.5,            0.,NA,NA,"",       1.91934,       1.85053,  -509.327E-03,   4.52105E-03
C:/temp/dataset/9/25_5.odb,Step-1,Increment      1: Step Time =    1.000,"PART-1-1",            90,           15.,            5.,            0.,NA,NA,"",       2.17411,       2.10827,  -530.985E-03,   3.12431E-03
C:/temp/dataset/9/25_5.odb,Step-1,Increment      1: Step Time =    1.000,"PART-1-1",            91,           15.,           10.,            0.,NA,NA,"",       2.69323,       2.63202,  -570.948E-03,   2.59792E-03
C:/temp/dataset/9/25_5.odb,Step-1,Increment      1: Step Time =    1.000,"PART-1-1",            92,           15.,          12.5,            0.,NA,NA,"",       2.95879,       2.89917,  -590.963E-03,   2.43327E-03
C:/temp/dataset/9/25_5.odb,Step-1,Increment      1: Step Time =    1.000,"PART-1-1",            93,           15.,          17.5,            0.,NA,NA,"",       3.50228,       3.44506,  -630.497E-03,   1.74338E-03
C:/temp/dataset/9/25_5.odb,Step-1,Increment      1: Step Time =    1.000,"PART-1-1",            94,           15.,           20.,            0.,NA,NA,"",       3.77927,       3.72307,  -649.366E-03,   1.21452E-03
C:/temp/dataset/9/25_5.odb,Step-1,Increment      1: Step Time =    1.000,"PART-1-1",            95,           15.,           25.,            0.,NA,NA,"",       4.33916,       4.28488,  -684.183E-03,   306.924E-06
C:/temp/dataset/9/25_5.odb,Step-1,Increment      1: Step Time =    1.000,"PART-1-1",            96,           15.,          27.5,            0.,NA,NA,"",       4.62028,       4.56686,  -700.522E-03,   75.2828E-06
C:/temp/dataset/9/25_5.odb,Step-1,Increment      1: Step Time =    1.000,"PART-1-1",            97,       7.09255,      -21.6558,            0.,NA,NA,"",   172.189E-03,   136.550E-03,   104.897E-03,   14.2994E-03
C:/temp/dataset/9/25_5.odb,Step-1,Increment      1: Step Time =    1.000,"PART-1-1",            98,       7.09346,      -17.4368,            0.,NA,NA,"",   337.203E-03,   299.283E-03,   155.357E-03,   14.0242E-03
C:/temp/dataset/9/25_5.odb,Step-1,Increment      1: Step Time =    1.000,"PART-1-1",            99,       7.15828,      -23.7452,            0.,NA,NA,"",   110.612E-03,   79.1944E-03,   77.2227E-03,   14.1942E-03
C:/temp/dataset/9/25_5.odb,Step-1,Increment      1: Step Time =    1.000,"PART-1-1",           100,       7.44609,      -27.8729,            0.,NA,NA,"",   24.9510E-03,   10.7980E-03,   22.4934E-03,   13.7084E-03
C:/temp/dataset/9/25_5.odb,Step-1,Increment      1: Step Time =    1.000,"PART-1-1",           101,       7.30780,      -25.7939,            0.,NA,NA,"",   61.4270E-03,   37.4957E-03,   48.6555E-03,   14.1973E-03
C:/temp/dataset/9/25_5.odb,Step-1,Increment      1: Step Time =    1.000,"PART-1-1",           102,       7.08258,      -10.9526,            0.,NA,NA,"",   708.031E-03,   670.958E-03,   226.105E-03,   13.7364E-03
C:/temp/dataset/9/25_5.odb,Step-1,Increment      1: Step Time =    1.000,"PART-1-1",           103,       7.09950,      -13.1236,            0.,NA,NA,"",   567.861E-03,   530.424E-03,   202.770E-03,   13.8184E-03
C:/temp/dataset/9/25_5.odb,Step-1,Increment      1: Step Time =    1.000,"PART-1-1",           104,       6.95448,      -6.62029,            0.,NA,NA,"",       1.03340,   995.946E-03,   275.697E-03,   13.8541E-03
C:/temp/dataset/9/25_5.odb,Step-1,Increment      1: Step Time =    1.000,"PART-1-1",           105,       7.04974,      -8.78764,            0.,NA,NA,"",   863.155E-03,   826.069E-03,   250.291E-03,   14.3266E-03
C:/temp/dataset/9/25_5.odb,Step-1,Increment      1: Step Time =    1.000,"PART-1-1",           106,       7.10540,      -15.2896,            0.,NA,NA,"",   443.917E-03,   406.218E-03,   179.023E-03,   13.8650E-03
C:/temp/dataset/9/25_5.odb,Step-1,Increment      1: Step Time =    1.000,"PART-1-1",           107,       7.08223,      -19.5608,            0.,NA,NA,"",   246.974E-03,   209.496E-03,   130.795E-03,   14.1888E-03
C:/temp/dataset/9/25_5.odb,Step-1,Increment      1: Step Time =    1.000,"PART-1-1",           108,      -11.8989,       25.3809,            0.,NA,NA,"",       5.02824,       4.49065,       2.26214,   873.869E-06
C:/temp/dataset/9/25_5.odb,Step-1,Increment      1: Step Time =    1.000,"PART-1-1",           109,      -12.7134,       3.51066,            0.,NA,NA,"",       3.28577,       2.17100,       2.46638,   481.326E-06
C:/temp/dataset/9/25_5.odb,Step-1,Increment      1: Step Time =    1.000,"PART-1-1",           110,      -13.0834,       10.3867,            0.,NA,NA,"",       3.82462,       2.92551,       2.46355,   408.619E-06
C:/temp/dataset/9/25_5.odb,Step-1,Increment      1: Step Time =    1.000,"PART-1-1",           111,      -12.9355,       8.20912,            0.,NA,NA,"",       3.64551,       2.68956,       2.46089,   361.190E-06
C:/temp/dataset/9/25_5.odb,Step-1,Increment      1: Step Time =    1.000,"PART-1-1",           112,      -13.1801,       12.5484,            0.,NA,NA,"",       4.00280,       3.15679,       2.46112,   412.287E-06
C:/temp/dataset/9/25_5.odb,Step-1,Increment      1: Step Time =    1.000,"PART-1-1",           113,      -12.7454,       20.6010,            0.,NA,NA,"",       4.64841,       3.99707,       2.37301,   812.798E-06
C:/temp/dataset/9/25_5.odb,Step-1,Increment      1: Step Time =    1.000,"PART-1-1",           114,      -13.1621,       18.5389,            0.,NA,NA,"",       4.49627,       3.78520,       2.42667,   693.896E-06
C:/temp/dataset/9/25_5.odb,Step-1,Increment      1: Step Time =    1.000,"PART-1-1",           115,      -12.3840,       22.8683,            0.,NA,NA,"",       4.82745,       4.23087,       2.32465,   805.436E-06
C:/temp/dataset/9/25_5.odb,Step-1,Increment      1: Step Time =    1.000,"PART-1-1",           116,      -13.4658,       16.5948,            0.,NA,NA,"",       4.35220,       3.58432,       2.46867,   485.785E-06
C:/temp/dataset/9/25_5.odb,Step-1,Increment      1: Step Time =    1.000,"PART-1-1",           117,      -13.3466,       14.6489,            0.,NA,NA,"",       4.18419,       3.37969,       2.46680,   428.727E-06
C:/temp/dataset/9/25_5.odb,Step-1,Increment      1: Step Time =    1.000,"PART-1-1",           118,      -12.3609,       5.76892,            0.,NA,NA,"",       3.41701,       2.41920,       2.41317,   239.474E-06
C:/temp/dataset/9/25_5.odb,Step-1,Increment      1: Step Time =    1.000,"PART-1-1",           119,      -12.8583,       1.39410,            0.,NA,NA,"",       3.15842,       1.93519,       2.49613,   487.660E-06
C:/temp/dataset/9/25_5.odb,Step-1,Increment      1: Step Time =    1.000,"PART-1-1",           120,      -12.6304,  -685.754E-03,            0.,NA,NA,"",       3.01001,       1.69999,       2.48398,   440.020E-06
C:/temp/dataset/9/25_5.odb,Step-1,Increment      1: Step Time =    1.000,"PART-1-1",           121,   38.5673E-03,       27.2989,            0.,NA,NA,"",       4.74170,       4.63643,   993.583E-03,   2.16523E-03
C:/temp/dataset/9/25_5.odb,Step-1,Increment      1: Step Time =    1.000,"PART-1-1",           122,      -4.16985,       22.2766,            0.,NA,NA,"",       4.37398,       4.11421,       1.48491,   4.39968E-03
C:/temp/dataset/9/25_5.odb,Step-1,Increment      1: Step Time =    1.000,"PART-1-1",           123,      -7.85548,       28.0855,            0.,NA,NA,"",       5.09366,       4.75367,       1.82975,   1.67848E-03
C:/temp/dataset/9/25_5.odb,Step-1,Increment      1: Step Time =    1.000,"PART-1-1",           124,       9.92813,      -27.7267,            0.,NA,NA,"",   6.10815E-03,   3.72554E-03,   4.84044E-03,   3.01956E-03
C:/temp/dataset/9/25_5.odb,Step-1,Increment      1: Step Time =    1.000,"PART-1-1",           125,       13.1106,      -17.4438,            0.,NA,NA,"",   308.294E-03,   286.054E-03,  -114.971E-03,   9.50205E-03
C:/temp/dataset/9/25_5.odb,Step-1,Increment      1: Step Time =    1.000,"PART-1-1",           126,       12.8150,       2.64061,            0.,NA,NA,"",       1.89528,       1.87314,  -288.874E-03,   3.22529E-03
C:/temp/dataset/9/25_5.odb,Step-1,Increment      1: Step Time =    1.000,"PART-1-1",           127,       7.56819,       12.3225,            0.,NA,NA,"",       2.93034,       2.92296,   207.780E-03,   2.74135E-03
C:/temp/dataset/9/25_5.odb,Step-1,Increment      1: Step Time =    1.000,"PART-1-1",           128,       7.47113,       19.8748,            0.,NA,NA,"",       3.76150,       3.75677,   188.696E-03,   1.93003E-03
C:/temp/dataset/9/25_5.odb,Step-1,Increment      1: Step Time =    1.000,"PART-1-1",           129,       12.4223,       27.5153,            0.,NA,NA,"",       4.60330,       4.58499,  -410.079E-03,   167.533E-06
C:/temp/dataset/9/25_5.odb,Step-1,Increment      1: Step Time =    1.000,"PART-1-1",           130,       12.3750,       22.5091,            0.,NA,NA,"",       4.03783,       4.02056,  -373.026E-03,   583.152E-06
C:/temp/dataset/9/25_5.odb,Step-1,Increment      1: Step Time =    1.000,"PART-1-1",           131,       7.58839,       27.9970,            0.,NA,NA,"",       4.67254,       4.67065,   133.022E-03,   650.673E-06
C:/temp/dataset/9/25_5.odb,Step-1,Increment      1: Step Time =    1.000,"PART-1-1",           132,   199.805E-03,       22.3057,            0.,NA,NA,"",       4.21317,       4.09018,       1.01055,   3.82732E-03
C:/temp/dataset/9/25_5.odb,Step-1,Increment      1: Step Time =    1.000,"PART-1-1",           133,       12.6934,       9.82310,            0.,NA,NA,"",       2.64438,       2.62437,  -324.659E-03,   1.09079E-03
C:/temp/dataset/9/25_5.odb,Step-1,Increment      1: Step Time =    1.000,"PART-1-1",           134,      -7.14717,       12.7802,            0.,NA,NA,"",       3.63033,       3.14348,       1.81599,   2.96751E-03
C:/temp/dataset/9/25_5.odb,Step-1,Increment      1: Step Time =    1.000,"PART-1-1",           135,      -6.86178,       17.9412,            0.,NA,NA,"",       4.08816,       3.68503,       1.77021,   2.41634E-03
C:/temp/dataset/9/25_5.odb,Step-1,Increment      1: Step Time =    1.000,"PART-1-1",           136,      -2.68307,      -2.95682,            0.,NA,NA,"",       1.94433,       1.38169,       1.36798,   2.57365E-03
C:/temp/dataset/9/25_5.odb,Step-1,Increment      1: Step Time =    1.000,"PART-1-1",           137,      -7.59808,      -3.03341,            0.,NA,NA,"",       2.38727,       1.40278,       1.93165,   617.601E-06
C:/temp/dataset/9/25_5.odb,Step-1,Increment      1: Step Time =    1.000,"PART-1-1",           138,  -248.196E-03,       2.69947,            0.,NA,NA,"",       2.24943,       1.98715,       1.05411,   3.77320E-03
C:/temp/dataset/9/25_5.odb,Step-1,Increment      1: Step Time =    1.000,"PART-1-1",           139,       2.16631,      -2.47375,            0.,NA,NA,"",       1.62806,       1.41319,   808.371E-03,   7.17492E-03
C:/temp/dataset/9/25_5.odb,Step-1,Increment      1: Step Time =    1.000,"PART-1-1",           140,       4.39271,       2.43636,            0.,NA,NA,"",       1.99524,       1.91810,   549.400E-03,   5.01600E-03
C:/temp/dataset/9/25_5.odb,Step-1,Increment      1: Step Time =    1.000,"PART-1-1",           141,       12.9283,      -5.27800,            0.,NA,NA,"",       1.11749,       1.09416,  -227.185E-03,   8.03902E-03
C:/temp/dataset/9/25_5.odb,Step-1,Increment      1: Step Time =    1.000,"PART-1-1",           142,       13.0847,      -12.6172,            0.,NA,NA,"",   567.093E-03,   543.747E-03,  -161.041E-03,   9.17239E-03
C:/temp/dataset/9/25_5.odb,Step-1,Increment      1: Step Time =    1.000,"PART-1-1",           143,       12.4838,       17.4790,            0.,NA,NA,"",       3.47479,       3.45687,  -352.522E-03,   753.589E-06
C:/temp/dataset/9/25_5.odb,Step-1,Increment      1: Step Time =    1.000,"PART-1-1",           144,       2.63438,       22.2143,            0.,NA,NA,"",       4.12595,       4.06055,   731.704E-03,   2.95369E-03
C:/temp/dataset/9/25_5.odb,Step-1,Increment      1: Step Time =    1.000,"PART-1-1",           145,       7.54366,       14.9275,            0.,NA,NA,"",       3.21313,       3.20683,   201.185E-03,   2.63116E-03
C:/temp/dataset/9/25_5.odb,Step-1,Increment      1: Step Time =    1.000,"PART-1-1",           146,       7.50510,       17.4443,            0.,NA,NA,"",       3.49024,       3.48476,   195.416E-03,   2.28447E-03
C:/temp/dataset/9/25_5.odb,Step-1,Increment      1: Step Time =    1.000,"PART-1-1",           147,       7.12790,       7.03873,            0.,NA,NA,"",       2.38011,       2.36478,   269.707E-03,   3.03090E-03
C:/temp/dataset/9/25_5.odb,Step-1,Increment      1: Step Time =    1.000,"PART-1-1",           148,       7.48952,       9.64170,            0.,NA,NA,"",       2.64558,       2.63602,   224.784E-03,   2.95825E-03
C:/temp/dataset/9/25_5.odb,Step-1,Increment      1: Step Time =    1.000,"PART-1-1",           149,       2.16717,       2.56251,            0.,NA,NA,"",       2.10367,       1.95166,   785.149E-03,   3.49677E-03
C:/temp/dataset/9/25_5.odb,Step-1,Increment      1: Step Time =    1.000,"PART-1-1",           150,      -2.68606,       3.12146,            0.,NA,NA,"",       2.44811,       2.05410,       1.33189,   3.75213E-03
C:/temp/dataset/9/25_5.odb,Step-1,Increment      1: Step Time =    1.000,"PART-1-1",           151,      -7.08307,       10.2840,            0.,NA,NA,"",       3.40169,       2.87608,       1.81648,   3.27199E-03
C:/temp/dataset/9/25_5.odb,Step-1,Increment      1: Step Time =    1.000,"PART-1-1",           152,      -2.13928,       22.2031,            0.,NA,NA,"",       4.28801,       4.09482,       1.27261,   3.82303E-03
C:/temp/dataset/9/25_5.odb,Step-1,Increment      1: Step Time =    1.000,"PART-1-1",           153,       9.90766,       27.6812,            0.,NA,NA,"",       4.62173,       4.61997,  -127.566E-03,   176.416E-06
C:/temp/dataset/9/25_5.odb,Step-1,Increment      1: Step Time =    1.000,"PART-1-1",           154,       5.18317,       27.8350,            0.,NA,NA,"",       4.68542,       4.66765,   407.655E-03,   1.47445E-03
C:/temp/dataset/9/25_5.odb,Step-1,Increment      1: Step Time =    1.000,"PART-1-1",           155,       2.70091,       27.4744,            0.,NA,NA,"",       4.69347,       4.64209,   692.586E-03,   2.18018E-03
C:/temp/dataset/9/25_5.odb,Step-1,Increment      1: Step Time =    1.000,"PART-1-1",           156,      -2.92570,       26.9909,            0.,NA,NA,"",       4.80090,       4.61587,       1.32000,   1.96993E-03
C:/temp/dataset/9/25_5.odb,Step-1,Increment      1: Step Time =    1.000,"PART-1-1",           157,      -5.52449,       27.7330,            0.,NA,NA,"",       4.96745,       4.70619,       1.58975,   2.20955E-03
C:/temp/dataset/9/25_5.odb,Step-1,Increment      1: Step Time =    1.000,"PART-1-1",           158,      -10.1759,       28.1970,            0.,NA,NA,"",       5.20528,       4.77642,       2.06899,   970.670E-06
C:/temp/dataset/9/25_5.odb,Step-1,Increment      1: Step Time =    1.000,"PART-1-1",           159,      -7.15795,       15.3782,            0.,NA,NA,"",       3.86783,       3.41854,       1.80933,   2.82447E-03
C:/temp/dataset/9/25_5.odb,Step-1,Increment      1: Step Time =    1.000,"PART-1-1",           160,      -7.10855,       7.92361,            0.,NA,NA,"",       3.19481,       2.62121,       1.82649,   3.53577E-03
C:/temp/dataset/9/25_5.odb,Step-1,Increment      1: Step Time =    1.000,"PART-1-1",           161,      -7.31416,       5.72319,            0.,NA,NA,"",       3.02009,       2.38213,       1.85645,   2.24877E-03
C:/temp/dataset/9/25_5.odb,Step-1,Increment      1: Step Time =    1.000,"PART-1-1",           162,      -10.0288,      -2.82434,            0.,NA,NA,"",       2.63505,       1.44231,       2.20527,   218.624E-06
C:/temp/dataset/9/25_5.odb,Step-1,Increment      1: Step Time =    1.000,"PART-1-1",           163,      -5.14639,      -3.11924,            0.,NA,NA,"",       2.15120,       1.37756,       1.65227,   1.52500E-03
C:/temp/dataset/9/25_5.odb,Step-1,Increment      1: Step Time =    1.000,"PART-1-1",           164,  -261.821E-03,      -2.60038,            0.,NA,NA,"",       1.78045,       1.41029,       1.08678,   4.21632E-03
C:/temp/dataset/9/25_5.odb,Step-1,Increment      1: Step Time =    1.000,"PART-1-1",           165,       4.38015,      -2.33295,            0.,NA,NA,"",       1.52290,       1.41742,   556.926E-03,   7.74318E-03
C:/temp/dataset/9/25_5.odb,Step-1,Increment      1: Step Time =    1.000,"PART-1-1",           166,       13.0639,      -10.1924,            0.,NA,NA,"",   727.575E-03,   703.717E-03,  -184.791E-03,   9.00095E-03
C:/temp/dataset/9/25_5.odb,Step-1,Increment      1: Step Time =    1.000,"PART-1-1",           167,       13.0843,      -19.8267,            0.,NA,NA,"",   209.377E-03,   188.336E-03,  -91.4802E-03,   9.55631E-03
C:/temp/dataset/9/25_5.odb,Step-1,Increment      1: Step Time =    1.000,"PART-1-1",           168,       12.4446,      -27.5067,            0.,NA,NA,"",   17.9569E-03,   8.86549E-03,  -15.6158E-03,   8.07866E-03
C:/temp/dataset/9/25_5.odb,Step-1,Increment      1: Step Time =    1.000,"PART-1-1",           169,       12.9329,      -22.1971,            0.,NA,NA,"",   128.265E-03,   110.315E-03,  -65.4415E-03,   9.07430E-03
C:/temp/dataset/9/25_5.odb,Step-1,Increment      1: Step Time =    1.000,"PART-1-1",           170,       13.1086,      -15.0383,            0.,NA,NA,"",   427.445E-03,   404.484E-03,  -138.210E-03,   9.37308E-03
C:/temp/dataset/9/25_5.odb,Step-1,Increment      1: Step Time =    1.000,"PART-1-1",           171,       13.0208,      -7.75462,            0.,NA,NA,"",   910.074E-03,   886.031E-03,  -207.809E-03,   8.67467E-03
C:/temp/dataset/9/25_5.odb,Step-1,Increment      1: Step Time =    1.000,"PART-1-1",           172,       12.7756,      -2.70708,            0.,NA,NA,"",       1.35457,       1.33312,  -240.097E-03,   6.95198E-03
C:/temp/dataset/9/25_5.odb,Step-1,Increment      1: Step Time =    1.000,"PART-1-1",           173,       12.6338,  -14.4220E-03,            0.,NA,NA,"",       1.62081,       1.60130,  -250.725E-03,   5.27802E-03
C:/temp/dataset/9/25_5.odb,Step-1,Increment      1: Step Time =    1.000,"PART-1-1",           174,       13.0186,       5.13380,            0.,NA,NA,"",       2.15565,       2.13068,  -327.155E-03,   1.92815E-03
C:/temp/dataset/9/25_5.odb,Step-1,Increment      1: Step Time =    1.000,"PART-1-1",           175,       13.0709,       7.51902,            0.,NA,NA,"",       2.40486,       2.37941,  -348.943E-03,   1.50214E-03
C:/temp/dataset/9/25_5.odb,Step-1,Increment      1: Step Time =    1.000,"PART-1-1",           176,       12.5119,       12.3699,            0.,NA,NA,"",       2.91564,       2.89780,  -322.050E-03,   854.728E-06
C:/temp/dataset/9/25_5.odb,Step-1,Increment      1: Step Time =    1.000,"PART-1-1",           177,       12.4863,       14.9454,            0.,NA,NA,"",       3.19545,       3.17772,  -336.142E-03,   763.185E-06
C:/temp/dataset/9/25_5.odb,Step-1,Increment      1: Step Time =    1.000,"PART-1-1",           178,       12.4500,       19.9932,            0.,NA,NA,"",       3.75515,       3.73735,  -365.220E-03,   742.241E-06
C:/temp/dataset/9/25_5.odb,Step-1,Increment      1: Step Time =    1.000,"PART-1-1",           179,       9.19048,      -23.6482,            0.,NA,NA,"",   78.2638E-03,   71.4080E-03,   32.0332E-03,   6.17678E-03
C:/temp/dataset/9/25_5.odb,Step-1,Increment      1: Step Time =    1.000,"PART-1-1",           180,       9.11932,      -19.5624,            0.,NA,NA,"",   205.896E-03,   198.496E-03,   54.7044E-03,   6.22925E-03
C:/temp/dataset/9/25_5.odb,Step-1,Increment      1: Step Time =    1.000,"PART-1-1",           181,       9.13323,      -12.9344,            0.,NA,NA,"",   535.485E-03,   529.140E-03,   82.1946E-03,   6.08686E-03
C:/temp/dataset/9/25_5.odb,Step-1,Increment      1: Step Time =    1.000,"PART-1-1",           182,       9.14303,      -17.4019,            0.,NA,NA,"",   296.326E-03,   289.391E-03,   63.7360E-03,   6.09322E-03
C:/temp/dataset/9/25_5.odb,Step-1,Increment      1: Step Time =    1.000,"PART-1-1",           183,       9.11260,      -10.6744,            0.,NA,NA,"",   682.596E-03,   676.516E-03,   90.9008E-03,   6.03884E-03
C:/temp/dataset/9/25_5.odb,Step-1,Increment      1: Step Time =    1.000,"PART-1-1",           184,       9.06671,      -8.40676,            0.,NA,NA,"",   847.414E-03,   841.497E-03,   99.9641E-03,   5.29325E-03
C:/temp/dataset/9/25_5.odb,Step-1,Increment      1: Step Time =    1.000,"PART-1-1",           185,       9.15359,      -15.1846,            0.,NA,NA,"",   406.229E-03,   399.705E-03,   72.5144E-03,   6.03805E-03
C:/temp/dataset/9/25_5.odb,Step-1,Increment      1: Step Time =    1.000,"PART-1-1",           186,       9.09437,      -21.6308,            0.,NA,NA,"",   134.695E-03,   126.930E-03,   45.0728E-03,   6.40451E-03
C:/temp/dataset/9/25_5.odb,Step-1,Increment      1: Step Time =    1.000,"PART-1-1",           187,       8.94944,      -6.10597,            0.,NA,NA,"",       1.03387,       1.02790,   110.908E-03,   4.14183E-03
C:/temp/dataset/9/25_5.odb,Step-1,Increment      1: Step Time =    1.000,"PART-1-1",           188,      -11.3189,       17.6054,            0.,NA,NA,"",       4.30473,       3.67737,       2.23778,   1.10423E-03
C:/temp/dataset/9/25_5.odb,Step-1,Increment      1: Step Time =    1.000,"PART-1-1",           189,      -10.4260,       2.85148,            0.,NA,NA,"",       3.04168,       2.08308,       2.21644,   858.926E-06
C:/temp/dataset/9/25_5.odb,Step-1,Increment      1: Step Time =    1.000,"PART-1-1",           190,      -12.4413,       27.8959,            0.,NA,NA,"",       5.28585,       4.75671,       2.30518,   480.960E-06
C:/temp/dataset/9/25_5.odb,Step-1,Increment      1: Step Time =    1.000,"PART-1-1",           191,      -10.6658,       19.6683,            0.,NA,NA,"",       4.44749,       3.88774,       2.16002,   1.40602E-03
C:/temp/dataset/9/25_5.odb,Step-1,Increment      1: Step Time =    1.000,"PART-1-1",           192,      -12.1118,       16.4066,            0.,NA,NA,"",       4.25056,       3.55697,       2.32706,   822.848E-06
C:/temp/dataset/9/25_5.odb,Step-1,Increment      1: Step Time =    1.000,"PART-1-1",           193,      -11.5166,       14.9043,            0.,NA,NA,"",       4.08576,       3.39605,       2.27163,   942.537E-06
C:/temp/dataset/9/25_5.odb,Step-1,Increment      1: Step Time =    1.000,"PART-1-1",           194,      -11.2054,       12.7278,            0.,NA,NA,"",       3.88226,       3.16431,       2.24923,   974.821E-06
C:/temp/dataset/9/25_5.odb,Step-1,Increment      1: Step Time =    1.000,"PART-1-1",           195,      -11.1139,       10.5020,            0.,NA,NA,"",       3.69158,       2.92626,       2.25051,   917.644E-06
C:/temp/dataset/9/25_5.odb,Step-1,Increment      1: Step Time =    1.000,"PART-1-1",           196,      -9.42029,       24.1195,            0.,NA,NA,"",       4.78700,       4.34365,       2.01197,   1.72900E-03
C:/temp/dataset/9/25_5.odb,Step-1,Increment      1: Step Time =    1.000,"PART-1-1",           197,      -11.0759,       8.46025,            0.,NA,NA,"",       3.52353,       2.70579,       2.25698,   743.973E-06
C:/temp/dataset/9/25_5.odb,Step-1,Increment      1: Step Time =    1.000,"PART-1-1",           198,      -10.9473,       6.84821,            0.,NA,NA,"",       3.38633,       2.52930,       2.25163,   585.529E-06
C:/temp/dataset/9/25_5.odb,Step-1,Increment      1: Step Time =    1.000,"PART-1-1",           199,       9.64075,      -25.5803,            0.,NA,NA,"",   34.3632E-03,   31.0135E-03,   14.7983E-03,   4.31846E-03
C:/temp/dataset/9/25_5.odb,Step-1,Increment      1: Step Time =    1.000,"PART-1-1",           200,       6.22595,      -2.03957,            0.,NA,NA,"",       1.47713,       1.43204,   362.184E-03,   9.20164E-03
C:/temp/dataset/9/25_5.odb,Step-1,Increment      1: Step Time =    1.000,"PART-1-1",           201,       6.24072,       2.15031,            0.,NA,NA,"",       1.90540,       1.87057,   362.631E-03,   7.36467E-03
C:/temp/dataset/9/25_5.odb,Step-1,Increment      1: Step Time =    1.000,"PART-1-1",           202,      -7.69234,       3.89067,            0.,NA,NA,"",       2.89657,       2.18079,       1.90639,   2.13374E-03
C:/temp/dataset/9/25_5.odb,Step-1,Increment      1: Step Time =    1.000,"PART-1-1",           203,       7.31807,       22.0589,            0.,NA,NA,"",       4.00953,       4.00475,   195.741E-03,   2.25153E-03
C:/temp/dataset/9/25_5.odb,Step-1,Increment      1: Step Time =    1.000,"PART-1-1",           204,      -6.44398,       20.4265,            0.,NA,NA,"",       4.29689,       3.93765,       1.71994,   3.45039E-03
C:/temp/dataset/9/25_5.odb,Step-1,Increment      1: Step Time =    1.000,"PART-1-1",           205,       12.2962,       25.0128,            0.,NA,NA,"",       4.32013,       4.30339,  -380.004E-03,   349.487E-06
C:/temp/dataset/9/25_5.odb,Step-1,Increment      1: Step Time =    1.000,"PART-1-1",           206,       12.2257,      -24.8009,            0.,NA,NA,"",   54.6961E-03,   45.8972E-03,  -29.7508E-03,   6.59325E-03
C:/temp/dataset/9/25_5.odb,Step-1,Increment      1: Step Time =    1.000,"PART-1-1",           207,      -2.06005,       24.5200,            0.,NA,NA,"",       4.51946,       4.34464,       1.24483,   2.09814E-03
C:/temp/dataset/9/25_5.odb,Step-1,Increment      1: Step Time =    1.000,"PART-1-1",           208,       9.31619,       25.0673,            0.,NA,NA,"",       4.32955,       4.32932,  -45.0914E-03,   768.391E-06
C:/temp/dataset/9/25_5.odb,Step-1,Increment      1: Step Time =    1.000,"PART-1-1",           209,       3.21447,       24.8112,            0.,NA,NA,"",       4.39304,       4.34461,   650.546E-03,   2.80934E-03
C:/temp/dataset/9/25_5.odb,Step-1,Increment      1: Step Time =    1.000,"PART-1-1",           210,      -7.52022,      -1.18711,            0.,NA,NA,"",       2.49933,       1.60994,       1.91173,   1.20483E-03
C:/temp/dataset/9/25_5.odb,Step-1,Increment      1: Step Time =    1.000,"PART-1-1",           211,       10.0127,       14.9017,            0.,NA,NA,"",       3.18832,       3.18761,  -67.0020E-03,   1.05238E-03
C:/temp/dataset/9/25_5.odb,Step-1,Increment      1: Step Time =    1.000,"PART-1-1",           212,       10.7293,       3.02357,            0.,NA,NA,"",       1.92558,       1.92377,  -83.4621E-03,   3.26830E-03
C:/temp/dataset/9/25_5.odb,Step-1,Increment      1: Step Time =    1.000,"PART-1-1",           213,       11.4837,       7.36813,            0.,NA,NA,"",       2.37878,       2.37178,  -182.451E-03,   558.302E-06
C:/temp/dataset/9/25_5.odb,Step-1,Increment      1: Step Time =    1.000,"PART-1-1",           214,      -9.20573,       12.9161,            0.,NA,NA,"",       3.76840,       3.17177,       2.03488,   1.90870E-03
C:/temp/dataset/9/25_5.odb,Step-1,Increment      1: Step Time =    1.000,"PART-1-1",           215,   314.418E-03,       24.7704,            0.,NA,NA,"",       4.46796,       4.35906,   980.415E-03,   2.55120E-03
C:/temp/dataset/9/25_5.odb,Step-1,Increment      1: Step Time =    1.000,"PART-1-1",           216,       7.52406,       26.3727,            0.,NA,NA,"",       4.49102,       4.48851,   150.165E-03,   1.05300E-03
C:/temp/dataset/9/25_5.odb,Step-1,Increment      1: Step Time =    1.000,"PART-1-1",           217,  -811.906E-03,   82.6841E-03,            0.,NA,NA,"",       2.04799,       1.70633,       1.13257,   3.98359E-03
C:/temp/dataset/9/25_5.odb,Step-1,Increment      1: Step Time =    1.000,"PART-1-1",           218,       11.1400,      -19.6444,            0.,NA,NA,"",   192.801E-03,   191.693E-03,  -20.6377E-03,   1.83889E-03
C:/temp/dataset/9/25_5.odb,Step-1,Increment      1: Step Time =    1.000,"PART-1-1",           219,       11.1036,      -10.4226,            0.,NA,NA,"",   689.119E-03,   687.580E-03,  -46.0282E-03,   1.66216E-03
C:/temp/dataset/9/25_5.odb,Step-1,Increment      1: Step Time =    1.000,"PART-1-1",           220,       10.9280,      -5.64335,            0.,NA,NA,"",       1.06509,       1.06364,  -55.4801E-03,   4.08634E-03
C:/temp/dataset/9/25_5.odb,Step-1,Increment      1: Step Time =    1.000,"PART-1-1",           221,       11.0667,       5.48495,            0.,NA,NA,"",       2.18134,       2.17751,  -129.230E-03,   1.30349E-03
C:/temp/dataset/9/25_5.odb,Step-1,Increment      1: Step Time =    1.000,"PART-1-1",           222,       11.1390,      -12.7671,            0.,NA,NA,"",   535.069E-03,   533.585E-03,  -39.8269E-03,   1.65485E-03
C:/temp/dataset/9/25_5.odb,Step-1,Increment      1: Step Time =    1.000,"PART-1-1",           223,       11.1627,      -15.1016,            0.,NA,NA,"",   400.599E-03,   399.176E-03,  -33.7310E-03,   1.79634E-03
C:/temp/dataset/9/25_5.odb,Step-1,Increment      1: Step Time =    1.000,"PART-1-1",           224,      -9.10801,       10.4728,            0.,NA,NA,"",       3.55080,       2.91038,       2.03418,   1.98167E-03
C:/temp/dataset/9/25_5.odb,Step-1,Increment      1: Step Time =    1.000,"PART-1-1",           225,      -9.12162,       8.28854,            0.,NA,NA,"",       3.36687,       2.67485,       2.04476,   1.79570E-03
C:/temp/dataset/9/25_5.odb,Step-1,Increment      1: Step Time =    1.000,"PART-1-1",           226,      -8.73753,       18.6317,            0.,NA,NA,"",       4.24898,       3.76842,       1.96287,   1.69145E-03
C:/temp/dataset/9/25_5.odb,Step-1,Increment      1: Step Time =    1.000,"PART-1-1",           227,      -9.90634,  -397.381E-03,            0.,NA,NA,"",       2.77115,       1.71486,       2.17682,   561.907E-06
C:/temp/dataset/9/25_5.odb,Step-1,Increment      1: Step Time =    1.000,"PART-1-1",           228,       9.93939,       19.9385,            0.,NA,NA,"",       3.74805,       3.74705,  -86.2874E-03,   1.17972E-03
C:/temp/dataset/9/25_5.odb,Step-1,Increment      1: Step Time =    1.000,"PART-1-1",           229,       5.70370,       25.8085,            0.,NA,NA,"",       4.45250,       4.43789,   360.496E-03,   1.85736E-03
C:/temp/dataset/9/25_5.odb,Step-1,Increment      1: Step Time =    1.000,"PART-1-1",           230,       10.0348,       12.2094,            0.,NA,NA,"",       2.89526,       2.89472,  -55.6058E-03,   1.03036E-03
C:/temp/dataset/9/25_5.odb,Step-1,Increment      1: Step Time =    1.000,"PART-1-1",           231,       9.98921,       17.4486,            0.,NA,NA,"",       3.46951,       3.46863,  -78.0130E-03,   1.00048E-03
C:/temp/dataset/9/25_5.odb,Step-1,Increment      1: Step Time =    1.000,"PART-1-1",           232,       10.1044,       9.10575,            0.,NA,NA,"",       2.56308,       2.56264,  -47.5072E-03,   868.006E-06
C:/temp/dataset/9/25_5.odb,Step-1,Increment      1: Step Time =    1.000,"PART-1-1",           233,      -3.11139,      -1.10310,            0.,NA,NA,"",       2.12204,       1.59011,       1.40520,   3.35549E-03
C:/temp/dataset/9/25_5.odb,Step-1,Increment      1: Step Time =    1.000,"PART-1-1",           234,      -6.48507,       25.5695,            0.,NA,NA,"",       4.79251,       4.47985,       1.70267,   2.47400E-03
C:/temp/dataset/9/25_5.odb,Step-1,Increment      1: Step Time =    1.000,"PART-1-1",           235,      -4.76537,       24.8732,            0.,NA,NA,"",       4.65442,       4.39613,       1.52892,   2.61004E-03
C:/temp/dataset/9/25_5.odb,Step-1,Increment      1: Step Time =    1.000,"PART-1-1",           236,      -8.46351,       26.0628,            0.,NA,NA,"",       4.92584,       4.54302,       1.90391,   1.84728E-03
C:/temp/dataset/9/25_5.odb,Step-1,Increment      1: Step Time =    1.000,"PART-1-1",           237,      -9.50218,       15.8804,            0.,NA,NA,"",       4.04652,       3.48633,       2.05422,   1.56218E-03
C:/temp/dataset/9/25_5.odb,Step-1,Increment      1: Step Time =    1.000,"PART-1-1",           238,      -5.29510,      -1.38770,            0.,NA,NA,"",       2.28553,       1.57250,       1.65858,   2.21315E-03
C:/temp/dataset/9/25_5.odb,Step-1,Increment      1: Step Time =    1.000,"PART-1-1",           239,       11.0587,      -21.7318,            0.,NA,NA,"",   121.285E-03,   120.520E-03,  -13.5988E-03,   1.61989E-03
C:/temp/dataset/9/25_5.odb,Step-1,Increment      1: Step Time =    1.000,"PART-1-1",           240,       11.1670,      -17.4071,            0.,NA,NA,"",   286.229E-03,   284.919E-03,  -27.3461E-03,   1.88876E-03
C:/temp/dataset/9/25_5.odb,Step-1,Increment      1: Step Time =    1.000,"PART-1-1",           241,       11.0513,      -8.06140,            0.,NA,NA,"",   864.103E-03,   862.507E-03,  -52.4903E-03,   2.39145E-03
C:/temp/dataset/9/25_5.odb,Step-1,Increment      1: Step Time =    1.000,"PART-1-1",           242,       10.1357,   7.39639E-03,            0.,NA,NA,"",       1.61504,       1.61499,  -13.2608E-03,   5.84402E-03
C:/temp/dataset/9/25_5.odb,Step-1,Increment      1: Step Time =    1.000,"PART-1-1",           243,       10.6886,      -3.06387,            0.,NA,NA,"",       1.30435,       1.30340,  -49.7063E-03,   5.83570E-03
C:/temp/dataset/9/25_5.odb,Step-1,Increment      1: Step Time =    1.000,"PART-1-1",           244,       9.76329,       22.4053,            0.,NA,NA,"",       4.02683,       4.02603,  -80.4103E-03,   1.10063E-03
C:/temp/dataset/9/25_5.odb,Step-1,Increment      1: Step Time =    1.000,"PART-1-1",           245,       8.68231,      -3.74099,            0.,NA,NA,"",       1.25209,       1.24522,   131.023E-03,   6.55018E-03
C:/temp/dataset/9/25_5.odb,Step-1,Increment      1: Step Time =    1.000,"PART-1-1",           246,      -9.34414,       6.30777,            0.,NA,NA,"",       3.22036,       2.45999,       2.07826,   1.41884E-03
C:/temp/dataset/9/25_5.odb,Step-1,Increment      1: Step Time =    1.000,"PART-1-1",           247,      -9.93235,       4.61568,            0.,NA,NA,"",       3.13276,       2.27670,       2.15193,   946.298E-06
C:/temp/dataset/9/25_5.odb,Step-1,Increment      1: Step Time =    1.000,"PART-1-1",           248,      -8.14937,       21.0679,            0.,NA,NA,"",       4.43990,       4.01616,       1.89292,   2.51114E-03
C:/temp/dataset/9/25_5.odb,Step-1,Increment      1: Step Time =    1.000,"PART-1-1",           249,       10.7972,      -23.3791,            0.,NA,NA,"",   75.3672E-03,   75.2313E-03,  -4.52417E-03,   784.771E-06
C:/temp/dataset/9/25_5.odb,Step-1,Increment      1: Step Time =    1.000,"PART-1-1",           250,       4.15357,   65.4176E-03,            0.,NA,NA,"",       1.76757,       1.67026,   578.396E-03,   4.77964E-03
C:/temp/dataset/9/25_5.odb,Step-1,Increment      1: Step Time =    1.000,"PART-1-1",           251,       8.71950,       3.82470,            0.,NA,NA,"",       2.02471,       2.02148,   114.356E-03,   4.60393E-03
C:/temp/dataset/9/25_5.odb,Step-1,Increment      1: Step Time =    1.000,"PART-1-1",           252,       5.00281,       23.5204,            0.,NA,NA,"",       4.21204,       4.18766,   452.557E-03,   2.67129E-03
C:/temp/dataset/9/25_5.odb,Step-1,Increment      1: Step Time =    1.000,"PART-1-1",           253,       7.40149,   60.9774E-03,            0.,NA,NA,"",       1.65932,       1.64064,   248.273E-03,   7.47541E-03
C:/temp/dataset/9/25_5.odb,Step-1,Increment      1: Step Time =    1.000,"PART-1-1",           254,      -5.73116,       22.7675,            0.,NA,NA,"",       4.48669,       4.17617,       1.64013,   4.14800E-03
C:/temp/dataset/9/25_5.odb,Step-1,Increment      1: Step Time =    1.000,"PART-1-1",           255,      -5.42683,       1.83799,            0.,NA,NA,"",       2.54609,       1.93288,       1.65726,   3.48948E-03
C:/temp/dataset/9/25_5.odb,Step-1,Increment      1: Step Time =    1.000,"PART-1-1",           256,       6.81561,       24.0815,            0.,NA,NA,"",       4.24339,       4.23642,   243.029E-03,   1.94418E-03
C:/temp/dataset/9/25_5.odb,Step-1,Increment      1: Step Time =    1.000,"PART-1-1",           257,      -7.40884,       23.3683,            0.,NA,NA,"",       4.62007,       4.25140,       1.80849,   2.79824E-03
C:/temp/dataset/9/25_5.odb,Step-1,Increment      1: Step Time =    1.000,"PART-1-1",           258,      -3.69176,       23.9755,            0.,NA,NA,"",       4.52357,       4.29393,       1.42297,   2.72392E-03
C:/temp/dataset/9/25_5.odb,Step-1,Increment      1: Step Time =    1.000,"PART-1-1",           259,      -8.10961,       1.76736,            0.,NA,NA,"",       2.76392,       1.94571,       1.96302,   1.78391E-03
C:/temp/dataset/9/25_5.odb,Step-1,Increment      1: Step Time =    1.000,"PART-1-1",           260,       5.94930,   61.4696E-03,            0.,NA,NA,"",       1.69956,       1.65370,   392.153E-03,   6.76771E-03
C:/temp/dataset/9/25_5.odb,Step-1,Increment      1: Step Time =    1.000,"PART-1-1",           261,       1.93878,   62.7924E-03,            0.,NA,NA,"",       1.87547,       1.68656,   820.316E-03,   4.13889E-03
C:/temp/dataset/9/25_5.odb,Step-1,Increment      1: Step Time =    1.000,"PART-1-1",           262,       6.71051,      -4.41826,            0.,NA,NA,"",       1.22831,       1.18865,   309.622E-03,   9.13744E-03
C:/temp/dataset/9/25_5.odb,Step-1,Increment      1: Step Time =    1.000,"PART-1-1",           263,      -12.5366,      -2.82410,            0.,NA,NA,"",       2.88323,       1.45852,       2.48711,   333.538E-06
C:/temp/dataset/9/25_5.odb,Step-1,Increment      1: Step Time =    1.000,"PART-1-1",           264,       6.75090,       4.53602,            0.,NA,NA,"",       2.13507,       2.11222,   311.524E-03,   6.44609E-03
C:/temp/dataset/9/25_5.odb,Step-1,Increment      1: Step Time =    1.000,"PART-1-1",           265,      -5.22339,       3.46233,            0.,NA,NA,"",       2.66720,       2.11313,       1.62747,   4.67539E-03
C:/temp/dataset/9/25_5.odb,Step-1,Increment      1: Step Time =    1.000,"PART-1-1",           266,       4.93795,       21.9167,            0.,NA,NA,"",       4.03530,       4.00813,   467.473E-03,   3.27846E-03
C:/temp/dataset/9/25_5.odb,Step-1,Increment      1: Step Time =    1.000,"PART-1-1",           267,       8.13144,      -1.42002,            0.,NA,NA,"",       1.49173,       1.48098,   178.765E-03,   7.59394E-03
C:/temp/dataset/9/25_5.odb,Step-1,Increment      1: Step Time =    1.000,"PART-1-1",           268,      -3.13115,       1.39136,            0.,NA,NA,"",       2.32835,       1.86552,       1.39322,   4.20088E-03
C:/temp/dataset/9/25_5.odb,Step-1,Increment      1: Step Time =    1.000,"PART-1-1",           269,       9.17709,       6.32873,            0.,NA,NA,"",       2.27802,       2.27721,   60.8452E-03,   2.12843E-03
C:/temp/dataset/9/25_5.odb,Step-1,Increment      1: Step Time =    1.000,"PART-1-1",           270,      -11.0423,       1.34077,            0.,NA,NA,"",       2.98991,       1.91776,       2.29385,   599.990E-06
C:/temp/dataset/9/25_5.odb,Step-1,Increment      1: Step Time =    1.000,"PART-1-1",           271,      -10.1478,       26.6048,            0.,NA,NA,"",       5.05473,       4.60930,       2.07477,   1.22308E-03
C:/temp/dataset/9/25_5.odb,Step-1,Increment      1: Step Time =    1.000,"PART-1-1",           272,      -10.1118,       21.9370,            0.,NA,NA,"",       4.62086,       4.11979,       2.09276,   1.56619E-03
C:/temp/dataset/9/25_5.odb,Step-1,Increment      1: Step Time =    1.000,"PART-1-1",           273,       8.13886,       1.50501,            0.,NA,NA,"",       1.79378,       1.78519,   175.260E-03,   6.72682E-03
C:/temp/dataset/9/25_5.odb,Step-1,Increment      1: Step Time =    1.000,"PART-1-1",           274,      -7.06249,   219.393E-03,            0.,NA,NA,"",       2.55799,       1.76443,       1.85206,   1.91066E-03
C:/temp/dataset/9/25_5.odb,Step-1,Increment      1: Step Time =    1.000,"PART-1-1",           275,      -5.40522,   241.534E-03,            0.,NA,NA,"",       2.41716,       1.75483,       1.66229,   2.80869E-03
C:/temp/dataset/9/25_5.odb,Step-1,Increment      1: Step Time =    1.000,"PART-1-1",           276,      -3.80180,   194.541E-03,            0.,NA,NA,"",       2.28125,       1.73818,       1.47744,   3.56290E-03
C:/temp/dataset/9/25_5.odb,Step-1,Increment      1: Step Time =    1.000,"PART-1-1",           277,      -2.71285,       28.4954,            0.,NA,NA,"",       4.94761,       4.77744,       1.28642,   2.84993E-03
C:/temp/dataset/9/25_5.odb,Step-1,Increment      1: Step Time =    1.000,"PART-1-1",           278,         -3.75,           30.,            0.,NA,NA,"",       5.13259,       4.94170,       1.38675,   3.63998E-03
C:/temp/dataset/9/25_5.odb,Step-1,Increment      1: Step Time =    1.000,"PART-1-1",           279,      -5.26224,       28.8665,            0.,NA,NA,"",       5.07009,       4.82580,       1.55484,   2.50420E-03
C:/temp/dataset/9/25_5.odb,Step-1,Increment      1: Step Time =    1.000,"PART-1-1",           280,      -4.22509,       27.3619,            0.,NA,NA,"",       4.88320,       4.66118,       1.45569,   2.05597E-03
C:/temp/dataset/9/25_5.odb,Step-1,Increment      1: Step Time =    1.000,"PART-1-1",           281,      -3.84553,       25.9321,            0.,NA,NA,"",       4.72572,       4.50565,       1.42533,   2.03953E-03
C:/temp/dataset/9/25_5.odb,Step-1,Increment      1: Step Time =    1.000,"PART-1-1",           282,      -6.00478,       26.6512,            0.,NA,NA,"",       4.87914,       4.59292,       1.64656,   2.14645E-03
C:/temp/dataset/9/25_5.odb,Step-1,Increment      1: Step Time =    1.000,"PART-1-1",           283,      -5.62522,       25.2214,            0.,NA,NA,"",       4.72298,       4.43796,       1.61588,   2.53550E-03
C:/temp/dataset/9/25_5.odb,Step-1,Increment      1: Step Time =    1.000,"PART-1-1",           284,      -10.0879,       29.0985,            0.,NA,NA,"",       5.28586,       4.87012,       2.05479,   722.545E-06
C:/temp/dataset/9/25_5.odb,Step-1,Increment      1: Step Time =    1.000,"PART-1-1",           285,        -11.25,           30.,            0.,NA,NA,"",       5.42269,       4.96952,       2.17011,   375.703E-06
C:/temp/dataset/9/25_5.odb,Step-1,Increment      1: Step Time =    1.000,"PART-1-1",           286,      -12.4706,       28.9480,            0.,NA,NA,"",       5.38374,       4.86653,       2.30250,   245.211E-06
C:/temp/dataset/9/25_5.odb,Step-1,Increment      1: Step Time =    1.000,"PART-1-1",           287,      -11.3086,       28.0465,            0.,NA,NA,"",       5.24425,       4.76647,       2.18700,   716.340E-06
C:/temp/dataset/9/25_5.odb,Step-1,Increment      1: Step Time =    1.000,"PART-1-1",           288,      -13.4495,       25.5029,            0.,NA,NA,"",       5.12129,       4.51217,       2.42238,   566.003E-06
C:/temp/dataset/9/25_5.odb,Step-1,Increment      1: Step Time =    1.000,"PART-1-1",           289,          -15.,       24.5313,            0.,NA,NA,"",       5.12182,       4.41944,       2.58874,   473.288E-06
C:/temp/dataset/9/25_5.odb,Step-1,Increment      1: Step Time =    1.000,"PART-1-1",           290,      -13.6920,       23.1529,            0.,NA,NA,"",       4.92600,       4.26816,       2.45933,   678.672E-06
C:/temp/dataset/9/25_5.odb,Step-1,Increment      1: Step Time =    1.000,"PART-1-1",           291,      -12.1415,       24.1246,            0.,NA,NA,"",       4.92696,       4.36062,       2.29346,   784.003E-06
C:/temp/dataset/9/25_5.odb,Step-1,Increment      1: Step Time =    1.000,"PART-1-1",           292,          8.75,          -30.,            0.,NA,NA,"",            0.,  -2.93668E-39,   12.0708E-39,   6.50133E-03
C:/temp/dataset/9/25_5.odb,Step-1,Increment      1: Step Time =    1.000,"PART-1-1",           293,       9.96407,      -28.8633,            0.,NA,NA,"",   2.92842E-03,  -2.04754E-03,   2.09361E-03,   2.66348E-03
C:/temp/dataset/9/25_5.odb,Step-1,Increment      1: Step Time =    1.000,"PART-1-1",           294,       8.68711,      -27.7998,            0.,NA,NA,"",   14.6307E-03,   5.83864E-03,   13.4152E-03,   8.24453E-03
C:/temp/dataset/9/25_5.odb,Step-1,Increment      1: Step Time =    1.000,"PART-1-1",           295,       7.47304,      -28.9365,            0.,NA,NA,"",   10.0329E-03,   1.63183E-03,   9.89926E-03,   11.5554E-03
C:/temp/dataset/9/25_5.odb,Step-1,Increment      1: Step Time =    1.000,"PART-1-1",           296,       10.9279,      -22.5555,            0.,NA,NA,"",   97.0852E-03,   96.6998E-03,  -8.64277E-03,   1.15193E-03
C:/temp/dataset/9/25_5.odb,Step-1,Increment      1: Step Time =    1.000,"PART-1-1",           297,       10.0765,      -21.6813,            0.,NA,NA,"",   123.833E-03,   122.849E-03,   15.5826E-03,   2.51362E-03
C:/temp/dataset/9/25_5.odb,Step-1,Increment      1: Step Time =    1.000,"PART-1-1",           298,       9.14242,      -22.6395,            0.,NA,NA,"",   104.682E-03,   97.3574E-03,   38.4675E-03,   6.27350E-03
C:/temp/dataset/9/25_5.odb,Step-1,Increment      1: Step Time =    1.000,"PART-1-1",           299,       9.99384,      -23.5137,            0.,NA,NA,"",   74.0763E-03,   72.7220E-03,   14.0998E-03,   2.87435E-03
C:/temp/dataset/9/25_5.odb,Step-1,Increment      1: Step Time =    1.000,"PART-1-1",           300,       7.08785,      -18.4988,            0.,NA,NA,"",   290.188E-03,   252.389E-03,   143.209E-03,   14.1055E-03
C:/temp/dataset/9/25_5.odb,Step-1,Increment      1: Step Time =    1.000,"PART-1-1",           301,       6.04673,      -17.4684,            0.,NA,NA,"",   366.893E-03,   306.418E-03,   201.788E-03,   18.0513E-03
C:/temp/dataset/9/25_5.odb,Step-1,Increment      1: Step Time =    1.000,"PART-1-1",           302,            5.,      -18.5417,            0.,NA,NA,"",   353.071E-03,   269.263E-03,   228.378E-03,   22.1879E-03
C:/temp/dataset/9/25_5.odb,Step-1,Increment      1: Step Time =    1.000,"PART-1-1",           303,       6.04112,      -19.5721,            0.,NA,NA,"",   275.694E-03,   217.368E-03,   169.583E-03,   18.2395E-03
C:/temp/dataset/9/25_5.odb,Step-1,Increment      1: Step Time =    1.000,"PART-1-1",           304,       7.10245,      -14.2066,            0.,NA,NA,"",   503.915E-03,   466.308E-03,   191.017E-03,   13.8402E-03
C:/temp/dataset/9/25_5.odb,Step-1,Increment      1: Step Time =    1.000,"PART-1-1",           305,       6.04975,      -13.2285,            0.,NA,NA,"",   594.982E-03,   533.338E-03,   263.730E-03,   17.7063E-03
C:/temp/dataset/9/25_5.odb,Step-1,Increment      1: Step Time =    1.000,"PART-1-1",           306,            5.,       -14.375,            0.,NA,NA,"",   566.171E-03,   476.646E-03,   305.546E-03,   21.7366E-03
C:/temp/dataset/9/25_5.odb,Step-1,Increment      1: Step Time =    1.000,"PART-1-1",           307,       6.05270,      -15.3531,            0.,NA,NA,"",   473.121E-03,   411.744E-03,   233.046E-03,   17.8664E-03
C:/temp/dataset/9/25_5.odb,Step-1,Increment      1: Step Time =    1.000,"PART-1-1",           308,            5.,      -6.04167,            0.,NA,NA,"",       1.15248,       1.06027,   451.715E-03,   28.5331E-03
C:/temp/dataset/9/25_5.odb,Step-1,Increment      1: Step Time =    1.000,"PART-1-1",           309,       5.97724,      -6.85181,            0.,NA,NA,"",       1.04678,   984.178E-03,   356.565E-03,   18.4761E-03
C:/temp/dataset/9/25_5.odb,Step-1,Increment      1: Step Time =    1.000,"PART-1-1",           310,       6.83249,      -5.51927,            0.,NA,NA,"",       1.12586,       1.08663,   294.606E-03,   9.46711E-03
C:/temp/dataset/9/25_5.odb,Step-1,Increment      1: Step Time =    1.000,"PART-1-1",           311,       5.85525,      -4.70913,            0.,NA,NA,"",       1.22641,       1.16288,   389.591E-03,   16.4419E-03
C:/temp/dataset/9/25_5.odb,Step-1,Increment      1: Step Time =    1.000,"PART-1-1",           312,       4.27314,       1.25089,            0.,NA,NA,"",       1.88071,       1.79417,   563.952E-03,   4.61107E-03
C:/temp/dataset/9/25_5.odb,Step-1,Increment      1: Step Time =    1.000,"PART-1-1",           313,       3.27994,       2.49943,            0.,NA,NA,"",       2.04635,       1.93504,   665.701E-03,   3.39887E-03
C:/temp/dataset/9/25_5.odb,Step-1,Increment      1: Step Time =    1.000,"PART-1-1",           314,       2.05297,       1.31265,            0.,NA,NA,"",       1.98824,       1.81908,   802.521E-03,   3.31254E-03
C:/temp/dataset/9/25_5.odb,Step-1,Increment      1: Step Time =    1.000,"PART-1-1",           315,       3.04617,   64.1050E-03,            0.,NA,NA,"",       1.81805,       1.67865,   698.161E-03,   4.03309E-03
C:/temp/dataset/9/25_5.odb,Step-1,Increment      1: Step Time =    1.000,"PART-1-1",           316,       6.28410,       12.4112,            0.,NA,NA,"",       2.96194,       2.94177,   345.068E-03,   3.68118E-03
C:/temp/dataset/9/25_5.odb,Step-1,Increment      1: Step Time =    1.000,"PART-1-1",           317,            5.,         11.25,            0.,NA,NA,"",       2.86759,       2.82632,   484.752E-03,   4.87265E-03
C:/temp/dataset/9/25_5.odb,Step-1,Increment      1: Step Time =    1.000,"PART-1-1",           318,       6.24476,       9.82085,            0.,NA,NA,"",       2.68752,       2.66394,   355.251E-03,   4.02032E-03
C:/temp/dataset/9/25_5.odb,Step-1,Increment      1: Step Time =    1.000,"PART-1-1",           319,       7.52885,       10.9821,            0.,NA,NA,"",       2.78730,       2.77889,   216.428E-03,   2.84380E-03
C:/temp/dataset/9/25_5.odb,Step-1,Increment      1: Step Time =    1.000,"PART-1-1",           320,       6.23557,       19.9374,            0.,NA,NA,"",       3.78664,       3.77250,   326.880E-03,   2.88810E-03
C:/temp/dataset/9/25_5.odb,Step-1,Increment      1: Step Time =    1.000,"PART-1-1",           321,            5.,         18.75,            0.,NA,NA,"",       3.67899,       3.64886,   469.901E-03,   4.69902E-03
C:/temp/dataset/9/25_5.odb,Step-1,Increment      1: Step Time =    1.000,"PART-1-1",           322,       6.25255,       17.4722,            0.,NA,NA,"",       3.51275,       3.49683,   334.070E-03,   3.25024E-03
C:/temp/dataset/9/25_5.odb,Step-1,Increment      1: Step Time =    1.000,"PART-1-1",           323,       7.48812,       18.6595,            0.,NA,NA,"",       3.62525,       3.62015,   192.334E-03,   1.91202E-03
C:/temp/dataset/9/25_5.odb,Step-1,Increment      1: Step Time =    1.000,"PART-1-1",           324,       12.4612,       28.7577,            0.,NA,NA,"",       4.74381,       4.72497,  -422.363E-03,   110.152E-06
C:/temp/dataset/9/25_5.odb,Step-1,Increment      1: Step Time =    1.000,"PART-1-1",           325,         11.25,           30.,            0.,NA,NA,"",       4.88180,       4.87296,  -293.697E-03,   114.209E-06
C:/temp/dataset/9/25_5.odb,Step-1,Increment      1: Step Time =    1.000,"PART-1-1",           326,       9.95383,       28.8406,            0.,NA,NA,"",       4.75257,       4.75051,  -140.077E-03,   135.043E-06
C:/temp/dataset/9/25_5.odb,Step-1,Increment      1: Step Time =    1.000,"PART-1-1",           327,       11.1650,       27.5983,            0.,NA,NA,"",       4.61032,       4.60247,  -268.912E-03,   99.0090E-06
C:/temp/dataset/9/25_5.odb,Step-1,Increment      1: Step Time =    1.000,"PART-1-1",           328,       9.61193,       26.3742,            0.,NA,NA,"",       4.47541,       4.47458,  -86.1498E-03,   457.539E-06
C:/temp/dataset/9/25_5.odb,Step-1,Increment      1: Step Time =    1.000,"PART-1-1",           329,       10.8062,       25.0400,            0.,NA,NA,"",       4.32142,       4.31618,  -212.706E-03,   440.245E-06
C:/temp/dataset/9/25_5.odb,Step-1,Increment      1: Step Time =    1.000,"PART-1-1",           330,       12.3592,       26.2641,            0.,NA,NA,"",       4.46171,       4.44419,  -395.026E-03,   246.245E-06
C:/temp/dataset/9/25_5.odb,Step-1,Increment      1: Step Time =    1.000,"PART-1-1",           331,       7.54419,       28.9985,            0.,NA,NA,"",       4.78562,       4.78381,   131.680E-03,   349.577E-06
C:/temp/dataset/9/25_5.odb,Step-1,Increment      1: Step Time =    1.000,"PART-1-1",           332,          6.25,           30.,            0.,NA,NA,"",       4.91268,       4.90514,   272.063E-03,   566.777E-06
C:/temp/dataset/9/25_5.odb,Step-1,Increment      1: Step Time =    1.000,"PART-1-1",           333,       5.09159,       28.9175,            0.,NA,NA,"",       4.80720,       4.78959,   411.031E-03,   1.06727E-03
C:/temp/dataset/9/25_5.odb,Step-1,Increment      1: Step Time =    1.000,"PART-1-1",           334,       6.38578,       27.9160,            0.,NA,NA,"",       4.67703,       4.66922,   270.208E-03,   1.04288E-03
C:/temp/dataset/9/25_5.odb,Step-1,Increment      1: Step Time =    1.000,"PART-1-1",           335,       2.95769,       26.1428,            0.,NA,NA,"",       4.54338,       4.49342,   671.923E-03,   2.33452E-03
C:/temp/dataset/9/25_5.odb,Step-1,Increment      1: Step Time =    1.000,"PART-1-1",           336,       4.45909,       25.3098,            0.,NA,NA,"",       4.42007,       4.39109,   505.380E-03,   2.27856E-03
C:/temp/dataset/9/25_5.odb,Step-1,Increment      1: Step Time =    1.000,"PART-1-1",           337,       5.44343,       26.8217,            0.,NA,NA,"",       4.56893,       4.55275,   384.256E-03,   1.57549E-03
C:/temp/dataset/9/25_5.odb,Step-1,Increment      1: Step Time =    1.000,"PART-1-1",           338,       3.94204,       27.6547,            0.,NA,NA,"",       4.68739,       4.65498,   550.259E-03,   1.82092E-03
C:/temp/dataset/9/25_5.odb,Step-1,Increment      1: Step Time =    1.000,"PART-1-1",           339,       6.06395,       7.26936,            0.,NA,NA,"",       2.42609,       2.39642,   378.284E-03,   4.36271E-03
C:/temp/dataset/9/25_5.odb,Step-1,Increment      1: Step Time =    1.000,"PART-1-1",           340,       7.30871,       8.34021,            0.,NA,NA,"",       2.51184,       2.49962,   247.504E-03,   3.08461E-03
C:/temp/dataset/9/25_5.odb,Step-1,Increment      1: Step Time =    1.000,"PART-1-1",           341,            5.,          8.75,            0.,NA,NA,"",       2.60590,       2.55989,   487.495E-03,   5.52428E-03
C:/temp/dataset/9/25_5.odb,Step-1,Increment      1: Step Time =    1.000,"PART-1-1",           342,      -13.9291,       1.47830,            0.,NA,NA,"",       3.26279,       1.95117,       2.61509,   562.295E-06
C:/temp/dataset/9/25_5.odb,Step-1,Increment      1: Step Time =    1.000,"PART-1-1",           343,          -15.,    468.75E-03,            0.,NA,NA,"",       3.30456,       1.84440,       2.74195,   655.498E-06
C:/temp/dataset/9/25_5.odb,Step-1,Increment      1: Step Time =    1.000,"PART-1-1",           344,      -13.8152,  -655.377E-03,            0.,NA,NA,"",       3.12622,       1.71081,       2.61656,   348.808E-06
C:/temp/dataset/9/25_5.odb,Step-1,Increment      1: Step Time =    1.000,"PART-1-1",           345,      -12.7443,   354.171E-03,            0.,NA,NA,"",       3.08294,       1.81770,       2.49008,   456.933E-06
C:/temp/dataset/9/25_5.odb,Step-1,Increment      1: Step Time =    1.000,"PART-1-1",           346,      -13.9678,       8.16706,            0.,NA,NA,"",       3.72338,       2.69081,       2.57354,   944.796E-06
C:/temp/dataset/9/25_5.odb,Step-1,Increment      1: Step Time =    1.000,"PART-1-1",           347,          -15.,       7.03125,            0.,NA,NA,"",       3.72526,       2.57264,       2.69426,   1.53609E-03
C:/temp/dataset/9/25_5.odb,Step-1,Increment      1: Step Time =    1.000,"PART-1-1",           348,      -13.6804,       5.85321,            0.,NA,NA,"",       3.53228,       2.43617,       2.55775,   801.902E-06
C:/temp/dataset/9/25_5.odb,Step-1,Increment      1: Step Time =    1.000,"PART-1-1",           349,      -12.6482,       6.98902,            0.,NA,NA,"",       3.53085,       2.55487,       2.43712,   236.126E-06
C:/temp/dataset/9/25_5.odb,Step-1,Increment      1: Step Time =    1.000,"PART-1-1",           350,      -5.93089,       17.7206,            0.,NA,NA,"",       4.02153,       3.65610,       1.67499,   3.26048E-03
C:/temp/dataset/9/25_5.odb,Step-1,Increment      1: Step Time =    1.000,"PART-1-1",           351,      -7.00986,       16.6597,            0.,NA,NA,"",       3.97763,       3.55221,       1.78979,   2.63524E-03
C:/temp/dataset/9/25_5.odb,Step-1,Increment      1: Step Time =    1.000,"PART-1-1",           352,      -6.07897,       15.1891,            0.,NA,NA,"",       3.79170,       3.39107,       1.69635,   3.38617E-03
C:/temp/dataset/9/25_5.odb,Step-1,Increment      1: Step Time =    1.000,"PART-1-1",           353,           -5.,         16.25,            0.,NA,NA,"",       3.83590,       3.49502,       1.58082,   4.13453E-03
C:/temp/dataset/9/25_5.odb,Step-1,Increment      1: Step Time =    1.000,"PART-1-1",           354,      -7.79966,       18.2865,            0.,NA,NA,"",       4.16803,       3.72676,       1.86647,   1.99781E-03
C:/temp/dataset/9/25_5.odb,Step-1,Increment      1: Step Time =    1.000,"PART-1-1",           355,      -6.65288,       19.1839,            0.,NA,NA,"",       4.19253,       3.81217,       1.74490,   2.24999E-03
C:/temp/dataset/9/25_5.odb,Step-1,Increment      1: Step Time =    1.000,"PART-1-1",           356,      -7.29668,       20.7472,            0.,NA,NA,"",       4.36775,       3.97685,       1.80607,   2.88793E-03
C:/temp/dataset/9/25_5.odb,Step-1,Increment      1: Step Time =    1.000,"PART-1-1",           357,      -8.44345,       19.8498,            0.,NA,NA,"",       4.34345,       3.89229,       1.92761,   1.99220E-03
C:/temp/dataset/9/25_5.odb,Step-1,Increment      1: Step Time =    1.000,"PART-1-1",           358,      -2.59303,       4.06073,            0.,NA,NA,"",       2.52878,       2.15908,       1.31648,   2.47197E-03
C:/temp/dataset/9/25_5.odb,Step-1,Increment      1: Step Time =    1.000,"PART-1-1",           359,      -1.46713,       2.91047,            0.,NA,NA,"",       2.34619,       2.02061,       1.19236,   3.51553E-03
C:/temp/dataset/9/25_5.odb,Step-1,Increment      1: Step Time =    1.000,"PART-1-1",           360,  -124.098E-03,       3.84974,            0.,NA,NA,"",       2.35247,       2.11277,       1.03456,   4.08926E-03
C:/temp/dataset/9/25_5.odb,Step-1,Increment      1: Step Time =    1.000,"PART-1-1",           361,         -1.25,            5.,            0.,NA,NA,"",       2.53333,       2.25372,       1.15695,   4.20044E-03
C:/temp/dataset/9/25_5.odb,Step-1,Increment      1: Step Time =    1.000,"PART-1-1",           362,      -11.2683,  -541.568E-03,            0.,NA,NA,"",       2.88912,       1.70755,       2.33051,   371.304E-06
C:/temp/dataset/9/25_5.odb,Step-1,Increment      1: Step Time =    1.000,"PART-1-1",           363,      -10.4743,   471.696E-03,            0.,NA,NA,"",       2.88035,       1.81638,       2.23545,   576.590E-06
C:/temp/dataset/9/25_5.odb,Step-1,Increment      1: Step Time =    1.000,"PART-1-1",           364,      -11.9503,       1.36743,            0.,NA,NA,"",       3.07370,       1.92654,       2.39501,   448.645E-06
C:/temp/dataset/9/25_5.odb,Step-1,Increment      1: Step Time =    1.000,"PART-1-1",           365,      -13.0095,       9.29789,            0.,NA,NA,"",       3.73453,       2.80789,       2.46220,   377.889E-06
C:/temp/dataset/9/25_5.odb,Step-1,Increment      1: Step Time =    1.000,"PART-1-1",           366,      -14.0417,       10.3496,            0.,NA,NA,"",       3.89309,       2.92685,       2.56704,   862.343E-06
C:/temp/dataset/9/25_5.odb,Step-1,Increment      1: Step Time =    1.000,"PART-1-1",           367,          -15.,       9.21875,            0.,NA,NA,"",       3.88204,       2.81022,       2.67822,   1.48936E-03
C:/temp/dataset/9/25_5.odb,Step-1,Increment      1: Step Time =    1.000,"PART-1-1",           368,      -6.40766,      -1.28741,            0.,NA,NA,"",       2.39160,       1.59114,       1.78550,   1.66644E-03
C:/temp/dataset/9/25_5.odb,Step-1,Increment      1: Step Time =    1.000,"PART-1-1",           369,      -5.35016,  -573.084E-03,            0.,NA,NA,"",       2.35042,       1.66371,       1.66028,   2.49607E-03
C:/temp/dataset/9/25_5.odb,Step-1,Increment      1: Step Time =    1.000,"PART-1-1",           370,      -6.23385,   230.463E-03,            0.,NA,NA,"",       2.48691,       1.75964,       1.75738,   2.34117E-03
C:/temp/dataset/9/25_5.odb,Step-1,Increment      1: Step Time =    1.000,"PART-1-1",           371,      -7.29135,  -483.859E-03,            0.,NA,NA,"",       2.52747,       1.68727,       1.88181,   1.53940E-03
C:/temp/dataset/9/25_5.odb,Step-1,Increment      1: Step Time =    1.000,"PART-1-1",           372,   952.242E-03,      -2.53706,            0.,NA,NA,"",       1.70007,       1.41190,   946.971E-03,   4.84163E-03
C:/temp/dataset/9/25_5.odb,Step-1,Increment      1: Step Time =    1.000,"PART-1-1",           373,  -130.910E-03,      -3.80019,            0.,NA,NA,"",       1.67232,       1.27594,       1.08103,   3.51142E-03
C:/temp/dataset/9/25_5.odb,Step-1,Increment      1: Step Time =    1.000,"PART-1-1",           374,          1.25,           -5.,            0.,NA,NA,"",       1.46969,       1.13575,   932.777E-03,   5.20482E-03
C:/temp/dataset/9/25_5.odb,Step-1,Increment      1: Step Time =    1.000,"PART-1-1",           375,       2.33315,      -3.73687,            0.,NA,NA,"",       1.50454,       1.27691,   795.702E-03,   5.65661E-03
C:/temp/dataset/9/25_5.odb,Step-1,Increment      1: Step Time =    1.000,"PART-1-1",           376,       4.26686,      -1.13377,            0.,NA,NA,"",       1.64428,       1.54299,   568.183E-03,   5.92252E-03
C:/temp/dataset/9/25_5.odb,Step-1,Increment      1: Step Time =    1.000,"PART-1-1",           377,       2.05254,      -1.20548,            0.,NA,NA,"",       1.75125,       1.55072,   813.718E-03,   4.82612E-03
C:/temp/dataset/9/25_5.odb,Step-1,Increment      1: Step Time =    1.000,"PART-1-1",           378,       3.27323,      -2.40335,            0.,NA,NA,"",       1.57142,       1.41704,   679.241E-03,   5.77631E-03
C:/temp/dataset/9/25_5.odb,Step-1,Increment      1: Step Time =    1.000,"PART-1-1",           379,       10.4325,       1.51548,            0.,NA,NA,"",       1.76978,       1.76914,  -47.7816E-03,   4.53627E-03
C:/temp/dataset/9/25_5.odb,Step-1,Increment      1: Step Time =    1.000,"PART-1-1",           380,       11.3847,  -3.51279E-03,            0.,NA,NA,"",       1.61271,       1.60734,  -131.569E-03,   4.92619E-03
C:/temp/dataset/9/25_5.odb,Step-1,Increment      1: Step Time =    1.000,"PART-1-1",           381,       12.7244,       1.31309,            0.,NA,NA,"",       1.75750,       1.73664,  -269.989E-03,   4.23863E-03
C:/temp/dataset/9/25_5.odb,Step-1,Increment      1: Step Time =    1.000,"PART-1-1",           382,       11.7722,       2.83209,            0.,NA,NA,"",       1.90703,       1.89793,  -186.090E-03,   2.78223E-03
C:/temp/dataset/9/25_5.odb,Step-1,Increment      1: Step Time =    1.000,"PART-1-1",           383,       9.00808,      -7.25637,            0.,NA,NA,"",   938.449E-03,   932.446E-03,   105.982E-03,   4.72311E-03
C:/temp/dataset/9/25_5.odb,Step-1,Increment      1: Step Time =    1.000,"PART-1-1",           384,       7.95196,      -6.36313,            0.,NA,NA,"",       1.02898,       1.01049,   194.205E-03,   8.17559E-03
C:/temp/dataset/9/25_5.odb,Step-1,Increment      1: Step Time =    1.000,"PART-1-1",           385,       7.00211,      -7.70397,            0.,NA,NA,"",   946.114E-03,   908.653E-03,   263.596E-03,   13.5771E-03
C:/temp/dataset/9/25_5.odb,Step-1,Increment      1: Step Time =    1.000,"PART-1-1",           386,       8.05823,      -8.59720,            0.,NA,NA,"",   851.055E-03,   832.739E-03,   175.613E-03,   9.62010E-03
C:/temp/dataset/9/25_5.odb,Step-1,Increment      1: Step Time =    1.000,"PART-1-1",           387,       7.09104,      -12.0381,            0.,NA,NA,"",   636.026E-03,   598.741E-03,   214.564E-03,   13.7820E-03
C:/temp/dataset/9/25_5.odb,Step-1,Increment      1: Step Time =    1.000,"PART-1-1",           388,       6.04129,      -11.1013,            0.,NA,NA,"",   731.887E-03,   670.357E-03,   293.735E-03,   17.6132E-03
C:/temp/dataset/9/25_5.odb,Step-1,Increment      1: Step Time =    1.000,"PART-1-1",           389,            5.,      -12.2917,            0.,NA,NA,"",   693.363E-03,   603.036E-03,   342.198E-03,   21.5503E-03
C:/temp/dataset/9/25_5.odb,Step-1,Increment      1: Step Time =    1.000,"PART-1-1",           390,       9.13117,      -18.4822,            0.,NA,NA,"",   249.069E-03,   241.892E-03,   59.3616E-03,   6.16174E-03
C:/temp/dataset/9/25_5.odb,Step-1,Increment      1: Step Time =    1.000,"PART-1-1",           391,       10.1297,      -19.6034,            0.,NA,NA,"",   194.914E-03,   194.178E-03,   16.9217E-03,   2.26838E-03
C:/temp/dataset/9/25_5.odb,Step-1,Increment      1: Step Time =    1.000,"PART-1-1",           392,       11.1535,      -18.5257,            0.,NA,NA,"",   237.327E-03,   236.125E-03,  -23.8567E-03,   1.86448E-03
C:/temp/dataset/9/25_5.odb,Step-1,Increment      1: Step Time =    1.000,"PART-1-1",           393,       10.1550,      -17.4045,            0.,NA,NA,"",   286.838E-03,   286.258E-03,   18.2339E-03,   2.15923E-03
C:/temp/dataset/9/25_5.odb,Step-1,Increment      1: Step Time =    1.000,"PART-1-1",           394,       6.27183,       14.9637,            0.,NA,NA,"",       3.23792,       3.22008,   339.389E-03,   3.46540E-03
C:/temp/dataset/9/25_5.odb,Step-1,Increment      1: Step Time =    1.000,"PART-1-1",           395,       7.52438,       16.1859,            0.,NA,NA,"",       3.35120,       3.34532,   198.451E-03,   2.45206E-03
C:/temp/dataset/9/25_5.odb,Step-1,Increment      1: Step Time =    1.000,"PART-1-1",           396,            5.,         16.25,            0.,NA,NA,"",       3.40478,       3.37148,   475.038E-03,   4.26952E-03
C:/temp/dataset/9/25_5.odb,Step-1,Increment      1: Step Time =    1.000,"PART-1-1",           397,       2.56719,       21.1071,            0.,NA,NA,"",       4.00595,       3.93598,   745.437E-03,   2.21160E-03
C:/temp/dataset/9/25_5.odb,Step-1,Increment      1: Step Time =    1.000,"PART-1-1",           398,       1.41709,       22.2600,            0.,NA,NA,"",       4.16779,       4.07565,   871.541E-03,   3.28159E-03
C:/temp/dataset/9/25_5.odb,Step-1,Increment      1: Step Time =    1.000,"PART-1-1",           399,   99.9026E-03,       21.1528,            0.,NA,NA,"",       4.09538,       3.96378,       1.02984,   4.12659E-03
C:/temp/dataset/9/25_5.odb,Step-1,Increment      1: Step Time =    1.000,"PART-1-1",           400,          1.25,           20.,            0.,NA,NA,"",       3.92594,       3.82072,   902.817E-03,   3.10088E-03
C:/temp/dataset/9/25_5.odb,Step-1,Increment      1: Step Time =    1.000,"PART-1-1",           401,       7.55593,       13.6250,            0.,NA,NA,"",       3.07122,       3.06440,   204.563E-03,   2.67984E-03
C:/temp/dataset/9/25_5.odb,Step-1,Increment      1: Step Time =    1.000,"PART-1-1",           402,            5.,         13.75,            0.,NA,NA,"",       3.13414,       3.09707,   480.567E-03,   4.45873E-03
C:/temp/dataset/9/25_5.odb,Step-1,Increment      1: Step Time =    1.000,"PART-1-1",           403,       8.77818,       14.9146,            0.,NA,NA,"",       3.19768,       3.19698,   67.0112E-03,   1.77806E-03
C:/temp/dataset/9/25_5.odb,Step-1,Increment      1: Step Time =    1.000,"PART-1-1",           404,       10.0010,       16.1752,            0.,NA,NA,"",       3.32847,       3.32768,  -72.4453E-03,   1.03794E-03
C:/temp/dataset/9/25_5.odb,Step-1,Increment      1: Step Time =    1.000,"PART-1-1",           405,       8.74716,       17.4465,            0.,NA,NA,"",       3.47698,       3.47648,   58.6359E-03,   1.60828E-03
C:/temp/dataset/9/25_5.odb,Step-1,Increment      1: Step Time =    1.000,"PART-1-1",           406,       10.1219,       5.90684,            0.,NA,NA,"",       2.22750,       2.22724,  -34.4598E-03,   1.54904E-03
C:/temp/dataset/9/25_5.odb,Step-1,Increment      1: Step Time =    1.000,"PART-1-1",           407,       8.94830,       5.07672,            0.,NA,NA,"",       2.15103,       2.14922,   88.2455E-03,   3.29789E-03
C:/temp/dataset/9/25_5.odb,Step-1,Increment      1: Step Time =    1.000,"PART-1-1",           408,       9.72441,       3.42413,            0.,NA,NA,"",       1.97226,       1.97220,   14.9977E-03,   3.71949E-03
C:/temp/dataset/9/25_5.odb,Step-1,Increment      1: Step Time =    1.000,"PART-1-1",           409,       10.8980,       4.25426,            0.,NA,NA,"",       2.05331,       2.05057,  -106.034E-03,   2.25236E-03
C:/temp/dataset/9/25_5.odb,Step-1,Increment      1: Step Time =    1.000,"PART-1-1",           410,       8.15250,       6.68373,            0.,NA,NA,"",       2.32691,       2.32104,   165.150E-03,   2.61492E-03
C:/temp/dataset/9/25_5.odb,Step-1,Increment      1: Step Time =    1.000,"PART-1-1",           411,       9.64075,       7.71724,            0.,NA,NA,"",       2.41916,       2.41915,   7.37145E-03,   1.42495E-03
C:/temp/dataset/9/25_5.odb,Step-1,Increment      1: Step Time =    1.000,"PART-1-1",           412,       8.79696,       9.37373,            0.,NA,NA,"",       2.60047,       2.59896,   88.5058E-03,   1.85653E-03
C:/temp/dataset/9/25_5.odb,Step-1,Increment      1: Step Time =    1.000,"PART-1-1",           413,   959.485E-03,       2.63099,            0.,NA,NA,"",       2.17300,       1.96948,   918.200E-03,   3.64743E-03
C:/temp/dataset/9/25_5.odb,Step-1,Increment      1: Step Time =    1.000,"PART-1-1",           414,       2.33358,       3.78125,            0.,NA,NA,"",       2.21554,       2.08016,   762.601E-03,   5.32243E-03
C:/temp/dataset/9/25_5.odb,Step-1,Increment      1: Step Time =    1.000,"PART-1-1",           415,          1.25,            5.,            0.,NA,NA,"",       2.39194,       2.22537,   876.984E-03,   6.56930E-03
C:/temp/dataset/9/25_5.odb,Step-1,Increment      1: Step Time =    1.000,"PART-1-1",           416,      -9.23288,       7.29816,            0.,NA,NA,"",       3.29284,       2.56774,       2.06143,   1.57175E-03
C:/temp/dataset/9/25_5.odb,Step-1,Increment      1: Step Time =    1.000,"PART-1-1",           417,      -8.32915,       6.01548,            0.,NA,NA,"",       3.11993,       2.42116,       1.96773,   1.87153E-03
C:/temp/dataset/9/25_5.odb,Step-1,Increment      1: Step Time =    1.000,"PART-1-1",           418,      -7.21136,       6.82340,            0.,NA,NA,"",       3.10658,       2.50241,       1.84087,   2.71430E-03
C:/temp/dataset/9/25_5.odb,Step-1,Increment      1: Step Time =    1.000,"PART-1-1",           419,      -8.11509,       8.10607,            0.,NA,NA,"",       3.28020,       2.64822,       1.93563,   2.64969E-03
C:/temp/dataset/9/25_5.odb,Step-1,Increment      1: Step Time =    1.000,"PART-1-1",           420,      -13.1318,       11.4675,            0.,NA,NA,"",       3.91323,       3.04146,       2.46229,   404.150E-06
C:/temp/dataset/9/25_5.odb,Step-1,Increment      1: Step Time =    1.000,"PART-1-1",           421,      -14.0901,       12.5242,            0.,NA,NA,"",       4.06519,       3.15924,       2.55832,   688.266E-06
C:/temp/dataset/9/25_5.odb,Step-1,Increment      1: Step Time =    1.000,"PART-1-1",           422,          -15.,       11.4063,            0.,NA,NA,"",       4.04507,       3.04502,       2.66279,   1.27922E-03
C:/temp/dataset/9/25_5.odb,Step-1,Increment      1: Step Time =    1.000,"PART-1-1",           423,      -9.35396,       14.3983,            0.,NA,NA,"",       3.90727,       3.32957,       2.04467,   1.73344E-03
C:/temp/dataset/9/25_5.odb,Step-1,Increment      1: Step Time =    1.000,"PART-1-1",           424,      -10.5094,       15.3924,            0.,NA,NA,"",       4.06445,       3.44129,       2.16271,   1.23600E-03
C:/temp/dataset/9/25_5.odb,Step-1,Increment      1: Step Time =    1.000,"PART-1-1",           425,      -11.3610,       13.8160,            0.,NA,NA,"",       3.98385,       3.28046,       2.26046,   949.716E-06
C:/temp/dataset/9/25_5.odb,Step-1,Increment      1: Step Time =    1.000,"PART-1-1",           426,      -10.2056,       12.8219,            0.,NA,NA,"",       3.82430,       3.16815,       2.14198,   1.42773E-03
C:/temp/dataset/9/25_5.odb,Step-1,Increment      1: Step Time =    1.000,"PART-1-1",           427,      -14.0810,       18.8007,            0.,NA,NA,"",       4.57514,       3.81761,       2.52146,   411.288E-06
C:/temp/dataset/9/25_5.odb,Step-1,Increment      1: Step Time =    1.000,"PART-1-1",           428,          -15.,       17.9688,            0.,NA,NA,"",       4.56420,       3.73606,       2.62179,   108.252E-06
C:/temp/dataset/9/25_5.odb,Step-1,Increment      1: Step Time =    1.000,"PART-1-1",           429,      -14.2329,       16.7349,            0.,NA,NA,"",       4.41335,       3.60319,       2.54847,   282.152E-06
C:/temp/dataset/9/25_5.odb,Step-1,Increment      1: Step Time =    1.000,"PART-1-1",           430,      -13.3139,       17.5668,            0.,NA,NA,"",       4.42368,       3.68487,       2.44758,   573.149E-06
C:/temp/dataset/9/25_5.odb,Step-1,Increment      1: Step Time =    1.000,"PART-1-1",           431,      -12.9537,       19.5700,            0.,NA,NA,"",       4.57165,       3.89116,       2.39976,   740.111E-06
C:/temp/dataset/9/25_5.odb,Step-1,Increment      1: Step Time =    1.000,"PART-1-1",           432,      -13.8727,       20.9255,            0.,NA,NA,"",       4.74291,       4.03731,       2.48903,   641.736E-06
C:/temp/dataset/9/25_5.odb,Step-1,Increment      1: Step Time =    1.000,"PART-1-1",           433,          -15.,       20.1563,            0.,NA,NA,"",       4.74597,       3.96370,       2.61024,   343.556E-06
C:/temp/dataset/9/25_5.odb,Step-1,Increment      1: Step Time =    1.000,"PART-1-1",           434,       1.76445,       24.7908,            0.,NA,NA,"",       4.42814,       4.35226,   816.224E-03,   2.57040E-03
C:/temp/dataset/9/25_5.odb,Step-1,Increment      1: Step Time =    1.000,"PART-1-1",           435,       1.36974,       27.3866,            0.,NA,NA,"",       4.71561,       4.63950,   843.811E-03,   2.12642E-03
C:/temp/dataset/9/25_5.odb,Step-1,Increment      1: Step Time =    1.000,"PART-1-1",           436,   176.493E-03,       26.0346,            0.,NA,NA,"",       4.60477,       4.49774,   987.072E-03,   2.18285E-03
C:/temp/dataset/9/25_5.odb,Step-1,Increment      1: Step Time =    1.000,"PART-1-1",           437,       7.39460,       20.9669,            0.,NA,NA,"",       3.88529,       3.88053,   192.181E-03,   2.13871E-03
C:/temp/dataset/9/25_5.odb,Step-1,Increment      1: Step Time =    1.000,"PART-1-1",           438,       8.70526,       19.9066,            0.,NA,NA,"",       3.75211,       3.75176,   50.9359E-03,   1.46139E-03
C:/temp/dataset/9/25_5.odb,Step-1,Increment      1: Step Time =    1.000,"PART-1-1",           439,       9.85134,       21.1719,            0.,NA,NA,"",       3.88728,       3.88639,  -83.3736E-03,   1.12745E-03
C:/temp/dataset/9/25_5.odb,Step-1,Increment      1: Step Time =    1.000,"PART-1-1",           440,       8.54068,       22.2321,            0.,NA,NA,"",       4.01555,       4.01514,   57.4632E-03,   1.59451E-03
C:/temp/dataset/9/25_5.odb,Step-1,Increment      1: Step Time =    1.000,"PART-1-1",           441,       4.10864,       24.1658,            0.,NA,NA,"",       4.30204,       4.26652,   551.717E-03,   2.63558E-03
C:/temp/dataset/9/25_5.odb,Step-1,Increment      1: Step Time =    1.000,"PART-1-1",           442,       5.90921,       23.8009,            0.,NA,NA,"",       4.22628,       4.21196,   347.582E-03,   2.32893E-03
C:/temp/dataset/9/25_5.odb,Step-1,Increment      1: Step Time =    1.000,"PART-1-1",           443,       6.25965,       24.9450,            0.,NA,NA,"",       4.34787,       4.33738,   301.820E-03,   1.82964E-03
C:/temp/dataset/9/25_5.odb,Step-1,Increment      1: Step Time =    1.000,"PART-1-1",           444,   19.2837E-03,       28.6494,            0.,NA,NA,"",       4.88489,       4.78432,   986.082E-03,   2.76965E-03
C:/temp/dataset/9/25_5.odb,Step-1,Increment      1: Step Time =    1.000,"PART-1-1",           445,       2.60045,       28.7372,            0.,NA,NA,"",       4.83302,       4.78273,   695.408E-03,   2.02802E-03
C:/temp/dataset/9/25_5.odb,Step-1,Increment      1: Step Time =    1.000,"PART-1-1",           446,          1.25,           30.,            0.,NA,NA,"",       5.00007,       4.92927,   838.449E-03,   3.10238E-03
C:/temp/dataset/9/25_5.odb,Step-1,Increment      1: Step Time =    1.000,"PART-1-1",           447,      -7.67774,       29.0428,            0.,NA,NA,"",       5.17845,       4.85348,       1.80556,   1.57533E-03
C:/temp/dataset/9/25_5.odb,Step-1,Increment      1: Step Time =    1.000,"PART-1-1",           448,      -6.68998,       27.9093,            0.,NA,NA,"",       5.02952,       4.72989,       1.71003,   1.93250E-03
C:/temp/dataset/9/25_5.odb,Step-1,Increment      1: Step Time =    1.000,"PART-1-1",           449,         -6.25,           30.,            0.,NA,NA,"",       5.21638,       4.94828,       1.65080,   2.54023E-03
C:/temp/dataset/9/25_5.odb,Step-1,Increment      1: Step Time =    1.000,"PART-1-1",           450,      -12.1701,       26.6384,            0.,NA,NA,"",       5.15705,       4.62381,       2.28377,   667.238E-06
C:/temp/dataset/9/25_5.odb,Step-1,Increment      1: Step Time =    1.000,"PART-1-1",           451,      -13.7206,       27.8542,            0.,NA,NA,"",       5.34747,       4.75924,       2.43825,   239.435E-06
C:/temp/dataset/9/25_5.odb,Step-1,Increment      1: Step Time =    1.000,"PART-1-1",           452,          -15.,       26.7188,            0.,NA,NA,"",       5.31465,       4.64779,       2.57749,   197.951E-06
C:/temp/dataset/9/25_5.odb,Step-1,Increment      1: Step Time =    1.000,"PART-1-1",           453,        -13.75,           30.,            0.,NA,NA,"",       5.54364,       4.98282,       2.42970,   33.6443E-06
C:/temp/dataset/9/25_5.odb,Step-1,Increment      1: Step Time =    1.000,"PART-1-1",           454,          -15.,       28.9063,            0.,NA,NA,"",       5.50965,       4.87580,       2.56570,   37.8276E-06
C:/temp/dataset/9/25_5.odb,Step-1,Increment      1: Step Time =    1.000,"PART-1-1",           455,      -9.01567,       28.1413,            0.,NA,NA,"",       5.14827,       4.76494,       1.94939,   1.31243E-03
C:/temp/dataset/9/25_5.odb,Step-1,Increment      1: Step Time =    1.000,"PART-1-1",           456,         -8.75,           30.,            0.,NA,NA,"",       5.31320,       4.95764,       1.91100,   1.24460E-03
C:/temp/dataset/9/25_5.odb,Step-1,Increment      1: Step Time =    1.000,"PART-1-1",           457,      -10.9923,       18.6369,            0.,NA,NA,"",       4.37529,       3.78268,       2.19876,   1.22264E-03
C:/temp/dataset/9/25_5.odb,Step-1,Increment      1: Step Time =    1.000,"PART-1-1",           458,      -11.7056,       20.1347,            0.,NA,NA,"",       4.54757,       3.94245,       2.26660,   1.10311E-03
C:/temp/dataset/9/25_5.odb,Step-1,Increment      1: Step Time =    1.000,"PART-1-1",           459,      -12.2405,       18.0722,            0.,NA,NA,"",       4.40033,       3.73135,       2.33237,   901.354E-06
C:/temp/dataset/9/25_5.odb,Step-1,Increment      1: Step Time =    1.000,"PART-1-1",           460,      -11.7153,       17.0060,            0.,NA,NA,"",       4.27710,       3.61724,       2.28235,   966.488E-06
C:/temp/dataset/9/25_5.odb,Step-1,Increment      1: Step Time =    1.000,"PART-1-1",           461,      -12.7888,       16.5007,            0.,NA,NA,"",       4.30113,       3.57067,       2.39792,   637.724E-06
C:/temp/dataset/9/25_5.odb,Step-1,Increment      1: Step Time =    1.000,"PART-1-1",           462,      -13.2634,       13.5986,            0.,NA,NA,"",       4.09317,       3.26850,       2.46392,   414.915E-06
C:/temp/dataset/9/25_5.odb,Step-1,Increment      1: Step Time =    1.000,"PART-1-1",           463,      -14.1733,       14.6682,            0.,NA,NA,"",       4.24148,       3.38626,       2.55410,   485.459E-06
C:/temp/dataset/9/25_5.odb,Step-1,Increment      1: Step Time =    1.000,"PART-1-1",           464,          -15.,       13.5938,            0.,NA,NA,"",       4.21351,       3.27734,       2.64816,   970.302E-06
C:/temp/dataset/9/25_5.odb,Step-1,Increment      1: Step Time =    1.000,"PART-1-1",           465,      -6.04154,       10.1420,            0.,NA,NA,"",       3.32369,       2.85312,       1.70488,   3.83064E-03
C:/temp/dataset/9/25_5.odb,Step-1,Increment      1: Step Time =    1.000,"PART-1-1",           466,      -7.09581,       9.10381,            0.,NA,NA,"",       3.29770,       2.74906,       1.82140,   3.28970E-03
C:/temp/dataset/9/25_5.odb,Step-1,Increment      1: Step Time =    1.000,"PART-1-1",           467,      -6.05428,       7.71180,            0.,NA,NA,"",       3.10482,       2.59054,       1.71144,   4.14768E-03
C:/temp/dataset/9/25_5.odb,Step-1,Increment      1: Step Time =    1.000,"PART-1-1",           468,           -5.,          8.75,            0.,NA,NA,"",       3.13172,       2.69469,       1.59573,   4.71183E-03
C:/temp/dataset/9/25_5.odb,Step-1,Increment      1: Step Time =    1.000,"PART-1-1",           469,      -6.15708,       5.36159,            0.,NA,NA,"",       2.90500,       2.33481,       1.72849,   4.14092E-03
C:/temp/dataset/9/25_5.odb,Step-1,Increment      1: Step Time =    1.000,"PART-1-1",           470,           -5.,          6.25,            0.,NA,NA,"",       2.90224,       2.42255,       1.59819,   6.50697E-03
C:/temp/dataset/9/25_5.odb,Step-1,Increment      1: Step Time =    1.000,"PART-1-1",           471,      -13.8567,       3.63033,            0.,NA,NA,"",       3.39433,       2.19112,       2.59238,   759.991E-06
C:/temp/dataset/9/25_5.odb,Step-1,Increment      1: Step Time =    1.000,"PART-1-1",           472,      -12.5372,       4.63979,            0.,NA,NA,"",       3.34978,       2.29544,       2.43967,   358.715E-06
C:/temp/dataset/9/25_5.odb,Step-1,Increment      1: Step Time =    1.000,"PART-1-1",           473,          -15.,       4.84375,            0.,NA,NA,"",       3.57576,       2.33221,       2.71051,   1.37375E-03
C:/temp/dataset/9/25_5.odb,Step-1,Increment      1: Step Time =    1.000,"PART-1-1",           474,      -12.7859,       2.45238,            0.,NA,NA,"",       3.22064,       2.05329,       2.48123,   484.593E-06
C:/temp/dataset/9/25_5.odb,Step-1,Increment      1: Step Time =    1.000,"PART-1-1",           475,          -15.,       2.65625,            0.,NA,NA,"",       3.43494,       2.08923,       2.72652,   1.04492E-03
C:/temp/dataset/9/25_5.odb,Step-1,Increment      1: Step Time =    1.000,"PART-1-1",           476,      -13.7683,      -2.81830,            0.,NA,NA,"",       3.00742,       1.46697,       2.62537,   193.457E-06
C:/temp/dataset/9/25_5.odb,Step-1,Increment      1: Step Time =    1.000,"PART-1-1",           477,          -15.,      -3.90625,            0.,NA,NA,"",       3.08322,       1.35229,       2.77084,   50.0745E-06
C:/temp/dataset/9/25_5.odb,Step-1,Increment      1: Step Time =    1.000,"PART-1-1",           478,        -13.75,           -5.,            0.,NA,NA,"",       2.90629,       1.22132,       2.63722,   55.8091E-06
C:/temp/dataset/9/25_5.odb,Step-1,Increment      1: Step Time =    1.000,"PART-1-1",           479,      -12.5183,      -3.91205,            0.,NA,NA,"",       2.82741,       1.33583,       2.49195,   216.790E-06
C:/temp/dataset/9/25_5.odb,Step-1,Increment      1: Step Time =    1.000,"PART-1-1",           480,      -3.91473,      -3.03803,            0.,NA,NA,"",       2.04538,       1.37938,       1.51026,   2.04125E-03
C:/temp/dataset/9/25_5.odb,Step-1,Increment      1: Step Time =    1.000,"PART-1-1",           481,      -5.07319,      -4.05962,            0.,NA,NA,"",       2.08282,       1.27094,       1.65010,   927.487E-06
C:/temp/dataset/9/25_5.odb,Step-1,Increment      1: Step Time =    1.000,"PART-1-1",           482,         -3.75,           -5.,            0.,NA,NA,"",       1.89791,       1.15634,       1.50498,   1.38182E-03
C:/temp/dataset/9/25_5.odb,Step-1,Increment      1: Step Time =    1.000,"PART-1-1",           483,      -2.59153,      -3.97841,            0.,NA,NA,"",       1.86180,       1.26654,       1.36462,   2.17683E-03
C:/temp/dataset/9/25_5.odb,Step-1,Increment      1: Step Time =    1.000,"PART-1-1",           484,   563.435E-03,   72.7383E-03,            0.,NA,NA,"",       1.95706,       1.69657,   975.577E-03,   4.04616E-03
C:/temp/dataset/9/25_5.odb,Step-1,Increment      1: Step Time =    1.000,"PART-1-1",           485,  -536.863E-03,      -1.25885,            0.,NA,NA,"",       1.91293,       1.55840,       1.10936,   3.96293E-03
C:/temp/dataset/9/25_5.odb,Step-1,Increment      1: Step Time =    1.000,"PART-1-1",           486,       7.06616,      -9.87010,            0.,NA,NA,"",   783.846E-03,   746.780E-03,   238.192E-03,   13.9305E-03
C:/temp/dataset/9/25_5.odb,Step-1,Increment      1: Step Time =    1.000,"PART-1-1",           487,       6.02487,      -8.97716,            0.,NA,NA,"",   883.311E-03,   822.155E-03,   322.955E-03,   17.8153E-03
C:/temp/dataset/9/25_5.odb,Step-1,Increment      1: Step Time =    1.000,"PART-1-1",           488,            5.,      -10.2083,            0.,NA,NA,"",   834.137E-03,   743.711E-03,   377.729E-03,   21.2124E-03
C:/temp/dataset/9/25_5.odb,Step-1,Increment      1: Step Time =    1.000,"PART-1-1",           489,       13.0743,      -11.4048,            0.,NA,NA,"",   644.725E-03,   621.131E-03,  -172.818E-03,   9.07763E-03
C:/temp/dataset/9/25_5.odb,Step-1,Increment      1: Step Time =    1.000,"PART-1-1",           490,       14.0423,      -12.5586,            0.,NA,NA,"",   593.180E-03,   550.243E-03,  -221.575E-03,   12.9254E-03
C:/temp/dataset/9/25_5.odb,Step-1,Increment      1: Step Time =    1.000,"PART-1-1",           491,           15.,        -11.25,            0.,NA,NA,"",   706.918E-03,   638.209E-03,  -304.010E-03,   16.6114E-03
C:/temp/dataset/9/25_5.odb,Step-1,Increment      1: Step Time =    1.000,"PART-1-1",           492,       14.0319,      -10.0962,            0.,NA,NA,"",   756.944E-03,   712.806E-03,  -254.697E-03,   12.7638E-03
C:/temp/dataset/9/25_5.odb,Step-1,Increment      1: Step Time =    1.000,"PART-1-1",           493,       7.09943,      -16.3632,            0.,NA,NA,"",   388.607E-03,   350.732E-03,   167.339E-03,   13.9451E-03
C:/temp/dataset/9/25_5.odb,Step-1,Increment      1: Step Time =    1.000,"PART-1-1",           494,            5.,      -16.4583,            0.,NA,NA,"",   452.795E-03,   365.305E-03,   267.536E-03,   21.9774E-03
C:/temp/dataset/9/25_5.odb,Step-1,Increment      1: Step Time =    1.000,"PART-1-1",           495,       13.0966,      -13.8278,            0.,NA,NA,"",   494.730E-03,   471.583E-03,  -149.558E-03,   9.27260E-03
C:/temp/dataset/9/25_5.odb,Step-1,Increment      1: Step Time =    1.000,"PART-1-1",           496,       14.0543,      -15.0192,            0.,NA,NA,"",   450.638E-03,   408.891E-03,  -189.426E-03,   13.0715E-03
C:/temp/dataset/9/25_5.odb,Step-1,Increment      1: Step Time =    1.000,"PART-1-1",           497,           15.,        -13.75,            0.,NA,NA,"",   550.194E-03,   483.970E-03,  -261.700E-03,   16.7210E-03
C:/temp/dataset/9/25_5.odb,Step-1,Increment      1: Step Time =    1.000,"PART-1-1",           498,       13.0974,      -18.6352,            0.,NA,NA,"",   256.383E-03,   234.735E-03,  -103.110E-03,   9.52891E-03
C:/temp/dataset/9/25_5.odb,Step-1,Increment      1: Step Time =    1.000,"PART-1-1",           499,       14.0421,      -19.9133,            0.,NA,NA,"",   227.394E-03,   189.440E-03,  -125.779E-03,   13.3615E-03
C:/temp/dataset/9/25_5.odb,Step-1,Increment      1: Step Time =    1.000,"PART-1-1",           500,           15.,        -18.75,            0.,NA,NA,"",   299.816E-03,   239.867E-03,  -179.871E-03,   17.0536E-03
C:/temp/dataset/9/25_5.odb,Step-1,Increment      1: Step Time =    1.000,"PART-1-1",           501,       14.0553,      -17.4719,            0.,NA,NA,"",   328.814E-03,   288.630E-03,  -157.516E-03,   13.2209E-03
C:/temp/dataset/9/25_5.odb,Step-1,Increment      1: Step Time =    1.000,"PART-1-1",           502,       7.12541,      -22.7005,            0.,NA,NA,"",   139.642E-03,   105.893E-03,   91.0305E-03,   14.2518E-03
C:/temp/dataset/9/25_5.odb,Step-1,Increment      1: Step Time =    1.000,"PART-1-1",           503,       6.04628,      -21.6612,            0.,NA,NA,"",   198.667E-03,   144.541E-03,   136.295E-03,   18.3742E-03
C:/temp/dataset/9/25_5.odb,Step-1,Increment      1: Step Time =    1.000,"PART-1-1",           504,            5.,      -22.7083,            0.,NA,NA,"",   192.354E-03,   123.894E-03,   147.140E-03,   22.5461E-03
C:/temp/dataset/9/25_5.odb,Step-1,Increment      1: Step Time =    1.000,"PART-1-1",           505,       6.07914,      -23.7476,            0.,NA,NA,"",   134.028E-03,   87.2793E-03,   101.715E-03,   18.4149E-03
C:/temp/dataset/9/25_5.odb,Step-1,Increment      1: Step Time =    1.000,"PART-1-1",           506,       6.22304,      -27.8948,            0.,NA,NA,"",   35.9606E-03,   17.3387E-03,   31.5045E-03,   18.4317E-03
C:/temp/dataset/9/25_5.odb,Step-1,Increment      1: Step Time =    1.000,"PART-1-1",           507,            5.,      -28.9583,            0.,NA,NA,"",   27.5817E-03,   17.5218E-03,   21.3011E-03,   23.3616E-03
C:/temp/dataset/9/25_5.odb,Step-1,Increment      1: Step Time =    1.000,"PART-1-1",           508,          6.25,          -30.,            0.,NA,NA,"",            0.,  -933.666E-42,   27.9174E-39,   17.0737E-03
C:/temp/dataset/9/25_5.odb,Step-1,Increment      1: Step Time =    1.000,"PART-1-1",           509,       9.78444,      -26.6535,            0.,NA,NA,"",   17.7601E-03,   15.1855E-03,   9.21003E-03,   3.69351E-03
C:/temp/dataset/9/25_5.odb,Step-1,Increment      1: Step Time =    1.000,"PART-1-1",           510,       8.47427,      -25.6871,            0.,NA,NA,"",   46.0577E-03,   33.0243E-03,   32.1046E-03,   9.23036E-03
C:/temp/dataset/9/25_5.odb,Step-1,Increment      1: Step Time =    1.000,"PART-1-1",           511,       7.37694,      -26.8334,            0.,NA,NA,"",   41.4944E-03,   22.0156E-03,   35.1725E-03,   13.6268E-03
C:/temp/dataset/9/25_5.odb,Step-1,Increment      1: Step Time =    1.000,"PART-1-1",           512,       13.7223,      -27.5034,            0.,NA,NA,"",   29.9706E-03,   13.6100E-03,  -26.7021E-03,   13.1726E-03
C:/temp/dataset/9/25_5.odb,Step-1,Increment      1: Step Time =    1.000,"PART-1-1",           513,       12.4723,      -28.7534,            0.,NA,NA,"",   7.02522E-03,  -219.622E-06,  -7.02179E-03,   7.03303E-03
C:/temp/dataset/9/25_5.odb,Step-1,Increment      1: Step Time =    1.000,"PART-1-1",           514,         13.75,          -30.,            0.,NA,NA,"",            0.,  -2.16354E-39,  -18.6957E-39,   11.5608E-03
C:/temp/dataset/9/25_5.odb,Step-1,Increment      1: Step Time =    1.000,"PART-1-1",           515,           15.,        -28.75,            0.,NA,NA,"",   22.8864E-03,   13.0220E-03,  -18.8206E-03,   17.5109E-03
C:/temp/dataset/9/25_5.odb,Step-1,Increment      1: Step Time =    1.000,"PART-1-1",           516,         11.25,          -30.,            0.,NA,NA,"",            0.,  -3.58804E-39,  -4.20812E-39,   3.63238E-03
C:/temp/dataset/9/25_5.odb,Step-1,Increment      1: Step Time =    1.000,"PART-1-1",           517,       11.1864,      -27.6167,            0.,NA,NA,"",   6.51769E-03,   4.74299E-03,  -4.47039E-03,   2.71781E-03
C:/temp/dataset/9/25_5.odb,Step-1,Increment      1: Step Time =    1.000,"PART-1-1",           518,       9.10684,      -20.5966,            0.,NA,NA,"",   168.410E-03,   160.810E-03,   50.0209E-03,   6.32265E-03
C:/temp/dataset/9/25_5.odb,Step-1,Increment      1: Step Time =    1.000,"PART-1-1",           519,       11.0993,      -20.6881,            0.,NA,NA,"",   155.118E-03,   154.193E-03,  -16.9183E-03,   1.71994E-03
C:/temp/dataset/9/25_5.odb,Step-1,Increment      1: Step Time =    1.000,"PART-1-1",           520,       7.08739,      -20.6083,            0.,NA,NA,"",   207.767E-03,   171.055E-03,   117.929E-03,   14.2435E-03
C:/temp/dataset/9/25_5.odb,Step-1,Increment      1: Step Time =    1.000,"PART-1-1",           521,            5.,       -20.625,            0.,NA,NA,"",   266.525E-03,   188.736E-03,   188.187E-03,   22.3741E-03
C:/temp/dataset/9/25_5.odb,Step-1,Increment      1: Step Time =    1.000,"PART-1-1",           522,       9.14341,      -14.0595,            0.,NA,NA,"",   468.698E-03,   462.255E-03,   77.4489E-03,   6.06020E-03
C:/temp/dataset/9/25_5.odb,Step-1,Increment      1: Step Time =    1.000,"PART-1-1",           523,       10.1582,      -15.1431,            0.,NA,NA,"",   399.049E-03,   398.567E-03,   19.6117E-03,   2.16336E-03
C:/temp/dataset/9/25_5.odb,Step-1,Increment      1: Step Time =    1.000,"PART-1-1",           524,       11.1509,      -13.9343,            0.,NA,NA,"",   465.477E-03,   464.028E-03,  -36.6981E-03,   1.73070E-03
C:/temp/dataset/9/25_5.odb,Step-1,Increment      1: Step Time =    1.000,"PART-1-1",           525,       10.1361,      -12.8507,            0.,NA,NA,"",   530.946E-03,   530.509E-03,   21.5454E-03,   2.23923E-03
C:/temp/dataset/9/25_5.odb,Step-1,Increment      1: Step Time =    1.000,"PART-1-1",           526,       9.12292,      -11.8044,            0.,NA,NA,"",   606.908E-03,   600.684E-03,   86.6952E-03,   6.03468E-03
C:/temp/dataset/9/25_5.odb,Step-1,Increment      1: Step Time =    1.000,"PART-1-1",           527,       11.1213,      -11.5948,            0.,NA,NA,"",   609.687E-03,   608.183E-03,  -42.8016E-03,   1.65239E-03
C:/temp/dataset/9/25_5.odb,Step-1,Increment      1: Step Time =    1.000,"PART-1-1",           528,       10.1081,      -10.5485,            0.,NA,NA,"",   681.570E-03,   681.182E-03,   22.9914E-03,   2.21353E-03
C:/temp/dataset/9/25_5.odb,Step-1,Increment      1: Step Time =    1.000,"PART-1-1",           529,       13.8169,  -7.21098E-03,            0.,NA,NA,"",       1.63989,       1.59862,  -365.597E-03,   5.73080E-03
C:/temp/dataset/9/25_5.odb,Step-1,Increment      1: Step Time =    1.000,"PART-1-1",           530,           15.,          1.25,            0.,NA,NA,"",       1.79326,       1.72298,  -497.106E-03,   5.86540E-03
C:/temp/dataset/9/25_5.odb,Step-1,Increment      1: Step Time =    1.000,"PART-1-1",           531,       13.9075,       2.57030,            0.,NA,NA,"",       1.90368,       1.86154,  -398.339E-03,   3.59914E-03
C:/temp/dataset/9/25_5.odb,Step-1,Increment      1: Step Time =    1.000,"PART-1-1",           532,       10.8083,      -4.35361,            0.,NA,NA,"",       1.18170,       1.18052,  -52.8021E-03,   4.83815E-03
C:/temp/dataset/9/25_5.odb,Step-1,Increment      1: Step Time =    1.000,"PART-1-1",           533,       9.68548,      -3.40243,            0.,NA,NA,"",       1.27465,       1.27399,   40.9959E-03,   5.61697E-03
C:/temp/dataset/9/25_5.odb,Step-1,Increment      1: Step Time =    1.000,"PART-1-1",           534,       8.81587,      -4.92348,            0.,NA,NA,"",       1.13988,       1.13346,   120.796E-03,   5.01383E-03
C:/temp/dataset/9/25_5.odb,Step-1,Increment      1: Step Time =    1.000,"PART-1-1",           535,       9.93870,      -5.87466,            0.,NA,NA,"",       1.04567,       1.04529,   28.0462E-03,   3.00567E-03
C:/temp/dataset/9/25_5.odb,Step-1,Increment      1: Step Time =    1.000,"PART-1-1",           536,       10.7940,       8.23694,            0.,NA,NA,"",       2.46962,       2.46692,  -115.335E-03,   551.922E-06
C:/temp/dataset/9/25_5.odb,Step-1,Increment      1: Step Time =    1.000,"PART-1-1",           537,       11.2752,       6.42654,            0.,NA,NA,"",       2.27980,       2.27449,  -155.602E-03,   850.509E-06
C:/temp/dataset/9/25_5.odb,Step-1,Increment      1: Step Time =    1.000,"PART-1-1",           538,       12.8821,       8.67106,            0.,NA,NA,"",       2.52410,       2.50151,  -336.941E-03,   1.29705E-03
C:/temp/dataset/9/25_5.odb,Step-1,Increment      1: Step Time =    1.000,"PART-1-1",           539,       14.0355,       7.50951,            0.,NA,NA,"",       2.41613,       2.37387,  -449.888E-03,   2.10173E-03
C:/temp/dataset/9/25_5.odb,Step-1,Increment      1: Step Time =    1.000,"PART-1-1",           540,           15.,          8.75,            0.,NA,NA,"",       2.56204,       2.49987,  -560.989E-03,   2.66226E-03
C:/temp/dataset/9/25_5.odb,Step-1,Increment      1: Step Time =    1.000,"PART-1-1",           541,       13.8467,       9.91155,            0.,NA,NA,"",       2.66586,       2.62801,  -447.631E-03,   1.82887E-03
C:/temp/dataset/9/25_5.odb,Step-1,Increment      1: Step Time =    1.000,"PART-1-1",           542,       12.4850,       16.2122,            0.,NA,NA,"",       3.33465,       3.31682,  -344.325E-03,   751.514E-06
C:/temp/dataset/9/25_5.odb,Step-1,Increment      1: Step Time =    1.000,"PART-1-1",           543,       13.7431,       14.9727,            0.,NA,NA,"",       3.20890,       3.17380,  -473.309E-03,   1.39670E-03
C:/temp/dataset/9/25_5.odb,Step-1,Increment      1: Step Time =    1.000,"PART-1-1",           544,           15.,         16.25,            0.,NA,NA,"",       3.36497,       3.30722,  -620.771E-03,   1.94888E-03
C:/temp/dataset/9/25_5.odb,Step-1,Increment      1: Step Time =    1.000,"PART-1-1",           545,       13.7419,       17.4895,            0.,NA,NA,"",       3.48561,       3.45081,  -491.255E-03,   1.13593E-03
C:/temp/dataset/9/25_5.odb,Step-1,Increment      1: Step Time =    1.000,"PART-1-1",           546,       12.4991,       13.6576,            0.,NA,NA,"",       3.05501,       3.03723,  -329.093E-03,   804.371E-06
C:/temp/dataset/9/25_5.odb,Step-1,Increment      1: Step Time =    1.000,"PART-1-1",           547,       13.7559,       12.4349,            0.,NA,NA,"",       2.93398,       2.89828,  -456.300E-03,   1.61331E-03
C:/temp/dataset/9/25_5.odb,Step-1,Increment      1: Step Time =    1.000,"PART-1-1",           548,           15.,         13.75,            0.,NA,NA,"",       3.09317,       3.03423,  -600.965E-03,   2.29351E-03
C:/temp/dataset/9/25_5.odb,Step-1,Increment      1: Step Time =    1.000,"PART-1-1",           549,           15.,         21.25,            0.,NA,NA,"",       3.91871,       3.86300,  -658.427E-03,   951.752E-06
C:/temp/dataset/9/25_5.odb,Step-1,Increment      1: Step Time =    1.000,"PART-1-1",           550,       13.6875,       22.5045,            0.,NA,NA,"",       4.04541,       4.01186,  -519.896E-03,   473.555E-06
C:/temp/dataset/9/25_5.odb,Step-1,Increment      1: Step Time =    1.000,"PART-1-1",           551,       12.4125,       21.2511,            0.,NA,NA,"",       3.89628,       3.87875,  -369.167E-03,   659.036E-06
C:/temp/dataset/9/25_5.odb,Step-1,Increment      1: Step Time =    1.000,"PART-1-1",           552,       13.7250,       19.9966,            0.,NA,NA,"",       3.76440,       3.73010,  -507.015E-03,   815.582E-06
C:/temp/dataset/9/25_5.odb,Step-1,Increment      1: Step Time =    1.000,"PART-1-1",           553,       13.6481,       25.0064,            0.,NA,NA,"",       4.32690,       4.29407,  -531.970E-03,   222.364E-06
C:/temp/dataset/9/25_5.odb,Step-1,Increment      1: Step Time =    1.000,"PART-1-1",           554,       12.3356,       23.7609,            0.,NA,NA,"",       4.17890,       4.16190,  -376.534E-03,   461.557E-06
C:/temp/dataset/9/25_5.odb,Step-1,Increment      1: Step Time =    1.000,"PART-1-1",           555,           15.,         23.75,            0.,NA,NA,"",       4.19877,       4.14402,  -675.809E-03,   498.004E-06
C:/temp/dataset/9/25_5.odb,Step-1,Increment      1: Step Time =    1.000,"PART-1-1",           556,       13.7112,       27.5077,            0.,NA,NA,"",       4.60948,       4.57592,  -555.245E-03,   96.8221E-06
C:/temp/dataset/9/25_5.odb,Step-1,Increment      1: Step Time =    1.000,"PART-1-1",           557,           15.,         28.75,            0.,NA,NA,"",       4.76090,       4.70788,  -708.545E-03,   31.4007E-06
C:/temp/dataset/9/25_5.odb,Step-1,Increment      1: Step Time =    1.000,"PART-1-1",           558,         13.75,           30.,            0.,NA,NA,"",       4.89083,       4.85685,  -575.563E-03,   26.4000E-06
C:/temp/dataset/9/25_5.odb,Step-1,Increment      1: Step Time =    1.000,"PART-1-1",           559,            5.,      -24.7917,            0.,NA,NA,"",   129.225E-03,   74.7237E-03,   105.430E-03,   22.4623E-03
C:/temp/dataset/9/25_5.odb,Step-1,Increment      1: Step Time =    1.000,"PART-1-1",           560,       6.15390,      -25.8136,            0.,NA,NA,"",   80.9536E-03,   45.8262E-03,   66.7341E-03,   18.2571E-03
C:/temp/dataset/9/25_5.odb,Step-1,Increment      1: Step Time =    1.000,"PART-1-1",           561,       7.23304,      -24.7696,            0.,NA,NA,"",   84.4683E-03,   56.4621E-03,   62.8245E-03,   14.1598E-03
C:/temp/dataset/9/25_5.odb,Step-1,Increment      1: Step Time =    1.000,"PART-1-1",           562,       13.0086,      -21.0119,            0.,NA,NA,"",   166.337E-03,   146.868E-03,  -78.0875E-03,   9.31524E-03
C:/temp/dataset/9/25_5.odb,Step-1,Increment      1: Step Time =    1.000,"PART-1-1",           563,       13.9664,      -22.3485,            0.,NA,NA,"",   144.599E-03,   110.821E-03,  -92.8849E-03,   13.3088E-03
C:/temp/dataset/9/25_5.odb,Step-1,Increment      1: Step Time =    1.000,"PART-1-1",           564,           15.,        -21.25,            0.,NA,NA,"",   205.031E-03,   150.128E-03,  -139.640E-03,   17.3503E-03
C:/temp/dataset/9/25_5.odb,Step-1,Increment      1: Step Time =    1.000,"PART-1-1",           565,            5.,       -26.875,            0.,NA,NA,"",   76.1965E-03,   41.0028E-03,   64.2236E-03,   22.6464E-03
C:/temp/dataset/9/25_5.odb,Step-1,Increment      1: Step Time =    1.000,"PART-1-1",           566,       12.9745,      -6.51631,            0.,NA,NA,"",       1.01093,   987.229E-03,  -217.639E-03,   8.32396E-03
C:/temp/dataset/9/25_5.odb,Step-1,Increment      1: Step Time =    1.000,"PART-1-1",           567,       14.0104,      -7.62731,            0.,NA,NA,"",   942.746E-03,   897.765E-03,  -287.728E-03,   12.2490E-03
C:/temp/dataset/9/25_5.odb,Step-1,Increment      1: Step Time =    1.000,"PART-1-1",           568,           15.,         -6.25,            0.,NA,NA,"",       1.08613,       1.01325,  -391.147E-03,   15.0026E-03
C:/temp/dataset/9/25_5.odb,Step-1,Increment      1: Step Time =    1.000,"PART-1-1",           569,       13.9641,      -5.13900,            0.,NA,NA,"",       1.15188,       1.10701,  -318.368E-03,   10.8640E-03
C:/temp/dataset/9/25_5.odb,Step-1,Increment      1: Step Time =    1.000,"PART-1-1",           570,       11.1649,      -16.2543,            0.,NA,NA,"",   341.111E-03,   339.750E-03,  -30.4480E-03,   1.84356E-03
C:/temp/dataset/9/25_5.odb,Step-1,Increment      1: Step Time =    1.000,"PART-1-1",           571,       9.14831,      -16.2933,            0.,NA,NA,"",   349.149E-03,   342.412E-03,   68.2558E-03,   6.06336E-03
C:/temp/dataset/9/25_5.odb,Step-1,Increment      1: Step Time =    1.000,"PART-1-1",           572,            5.,        -8.125,            0.,NA,NA,"",   988.006E-03,   898.574E-03,   410.756E-03,   22.3031E-03
C:/temp/dataset/9/25_5.odb,Step-1,Increment      1: Step Time =    1.000,"PART-1-1",           573,       12.8519,      -3.99254,            0.,NA,NA,"",       1.23346,       1.21104,  -234.088E-03,   7.44445E-03
C:/temp/dataset/9/25_5.odb,Step-1,Increment      1: Step Time =    1.000,"PART-1-1",           574,           15.,         -3.75,            0.,NA,NA,"",       1.30760,       1.23402,  -432.443E-03,   12.4457E-03
C:/temp/dataset/9/25_5.odb,Step-1,Increment      1: Step Time =    1.000,"PART-1-1",           575,       13.8878,      -2.60354,            0.,NA,NA,"",       1.38522,       1.34185,  -343.912E-03,   8.45856E-03
C:/temp/dataset/9/25_5.odb,Step-1,Increment      1: Step Time =    1.000,"PART-1-1",           576,       13.0423,      -8.97351,            0.,NA,NA,"",   816.074E-03,   792.124E-03,  -196.258E-03,   8.82218E-03
C:/temp/dataset/9/25_5.odb,Step-1,Increment      1: Step Time =    1.000,"PART-1-1",           577,           15.,         -8.75,            0.,NA,NA,"",   885.441E-03,   814.416E-03,  -347.466E-03,   16.2389E-03
C:/temp/dataset/9/25_5.odb,Step-1,Increment      1: Step Time =    1.000,"PART-1-1",           578,       8.09346,      -21.6433,            0.,NA,NA,"",   150.847E-03,   130.875E-03,   75.0105E-03,   10.3483E-03
C:/temp/dataset/9/25_5.odb,Step-1,Increment      1: Step Time =    1.000,"PART-1-1",           579,       8.17438,      -23.6967,            0.,NA,NA,"",   92.3142E-03,   74.3799E-03,   54.6766E-03,   10.1989E-03
C:/temp/dataset/9/25_5.odb,Step-1,Increment      1: Step Time =    1.000,"PART-1-1",           580,       8.10077,      -19.5616,            0.,NA,NA,"",   223.272E-03,   203.105E-03,   92.7298E-03,   10.2065E-03
C:/temp/dataset/9/25_5.odb,Step-1,Increment      1: Step Time =    1.000,"PART-1-1",           581,       8.11824,      -17.4194,            0.,NA,NA,"",   313.251E-03,   293.447E-03,   109.611E-03,   10.0579E-03
C:/temp/dataset/9/25_5.odb,Step-1,Increment      1: Step Time =    1.000,"PART-1-1",           582,          -15.,       22.3438,            0.,NA,NA,"",       4.93197,       4.19133,       2.59945,   566.079E-06
C:/temp/dataset/9/25_5.odb,Step-1,Increment      1: Step Time =    1.000,"PART-1-1",           583,      -12.5647,       21.7347,            0.,NA,NA,"",       4.73717,       4.11386,       2.34881,   767.160E-06
C:/temp/dataset/9/25_5.odb,Step-1,Increment      1: Step Time =    1.000,"PART-1-1",           584,      -4.95050,       22.5220,            0.,NA,NA,"",       4.42979,       4.14505,       1.56257,   4.31325E-03
C:/temp/dataset/9/25_5.odb,Step-1,Increment      1: Step Time =    1.000,"PART-1-1",           585,      -3.93081,       23.1260,            0.,NA,NA,"",       4.44821,       4.20380,       1.45418,   3.12994E-03
C:/temp/dataset/9/25_5.odb,Step-1,Increment      1: Step Time =    1.000,"PART-1-1",           586,      -4.22857,       24.4244,            0.,NA,NA,"",       4.58888,       4.34504,       1.47596,   2.59676E-03
C:/temp/dataset/9/25_5.odb,Step-1,Increment      1: Step Time =    1.000,"PART-1-1",           587,      -5.24826,       23.8204,            0.,NA,NA,"",       4.56949,       4.28566,       1.58534,   3.07966E-03
C:/temp/dataset/9/25_5.odb,Step-1,Increment      1: Step Time =    1.000,"PART-1-1",           588,      -10.1110,       10.4874,            0.,NA,NA,"",       3.62036,       2.91845,       2.14235,   1.43331E-03
C:/temp/dataset/9/25_5.odb,Step-1,Increment      1: Step Time =    1.000,"PART-1-1",           589,      -9.15687,       11.6944,            0.,NA,NA,"",       3.65918,       3.04143,       2.03453,   1.94869E-03
C:/temp/dataset/9/25_5.odb,Step-1,Increment      1: Step Time =    1.000,"PART-1-1",           590,      -11.1597,       11.6149,            0.,NA,NA,"",       3.78649,       3.04561,       2.24984,   943.719E-06
C:/temp/dataset/9/25_5.odb,Step-1,Increment      1: Step Time =    1.000,"PART-1-1",           591,      -6.07359,       12.6401,            0.,NA,NA,"",       3.55497,       3.12094,       1.70221,   3.55121E-03
C:/temp/dataset/9/25_5.odb,Step-1,Increment      1: Step Time =    1.000,"PART-1-1",           592,      -7.11512,       11.5321,            0.,NA,NA,"",       3.51565,       3.01014,       1.81628,   3.09298E-03
C:/temp/dataset/9/25_5.odb,Step-1,Increment      1: Step Time =    1.000,"PART-1-1",           593,           -5.,         11.25,            0.,NA,NA,"",       3.36427,       2.96434,       1.59091,   4.27142E-03
C:/temp/dataset/9/25_5.odb,Step-1,Increment      1: Step Time =    1.000,"PART-1-1",           594,      -10.0988,       8.37440,            0.,NA,NA,"",       3.44455,       2.69041,       2.15095,   1.25892E-03
C:/temp/dataset/9/25_5.odb,Step-1,Increment      1: Step Time =    1.000,"PART-1-1",           595,      -9.11481,       9.38066,            0.,NA,NA,"",       3.45824,       2.79288,       2.03941,   1.94935E-03
C:/temp/dataset/9/25_5.odb,Step-1,Increment      1: Step Time =    1.000,"PART-1-1",           596,      -11.0949,       9.48111,            0.,NA,NA,"",       3.60706,       2.81634,       2.25368,   820.883E-06
C:/temp/dataset/9/25_5.odb,Step-1,Increment      1: Step Time =    1.000,"PART-1-1",           597,      -11.8142,       15.6555,            0.,NA,NA,"",       4.16824,       3.47663,       2.29941,   875.272E-06
C:/temp/dataset/9/25_5.odb,Step-1,Increment      1: Step Time =    1.000,"PART-1-1",           598,      -13.4062,       15.6218,            0.,NA,NA,"",       4.26791,       3.48218,       2.46769,   447.608E-06
C:/temp/dataset/9/25_5.odb,Step-1,Increment      1: Step Time =    1.000,"PART-1-1",           599,      -12.4316,       14.7766,            0.,NA,NA,"",       4.13418,       3.38795,       2.36922,   610.794E-06
C:/temp/dataset/9/25_5.odb,Step-1,Increment      1: Step Time =    1.000,"PART-1-1",           600,      -5.72199,       20.2132,            0.,NA,NA,"",       4.24354,       3.91064,       1.64757,   4.21105E-03
C:/temp/dataset/9/25_5.odb,Step-1,Increment      1: Step Time =    1.000,"PART-1-1",           601,           -5.,         18.75,            0.,NA,NA,"",       4.07469,       3.75694,       1.57750,   5.21569E-03
C:/temp/dataset/9/25_5.odb,Step-1,Increment      1: Step Time =    1.000,"PART-1-1",           602,          -15.,       15.7813,            0.,NA,NA,"",       4.38669,       3.50752,       2.63445,   577.542E-06
C:/temp/dataset/9/25_5.odb,Step-1,Increment      1: Step Time =    1.000,"PART-1-1",           603,      -10.4105,       16.7429,            0.,NA,NA,"",       4.17583,       3.58208,       2.14620,   1.29635E-03
C:/temp/dataset/9/25_5.odb,Step-1,Increment      1: Step Time =    1.000,"PART-1-1",           604,      -12.1928,       12.6381,            0.,NA,NA,"",       3.94165,       3.16066,       2.35517,   556.658E-06
C:/temp/dataset/9/25_5.odb,Step-1,Increment      1: Step Time =    1.000,"PART-1-1",           605,      -12.0987,       10.4443,            0.,NA,NA,"",       3.75727,       2.92600,       2.35704,   455.981E-06
C:/temp/dataset/9/25_5.odb,Step-1,Increment      1: Step Time =    1.000,"PART-1-1",           606,      -7.50325,       4.80693,            0.,NA,NA,"",       2.95751,       2.28208,       1.88121,   2.26116E-03
C:/temp/dataset/9/25_5.odb,Step-1,Increment      1: Step Time =    1.000,"PART-1-1",           607,      -9.63824,       5.46172,            0.,NA,NA,"",       3.17537,       2.36853,       2.11495,   1.11502E-03
C:/temp/dataset/9/25_5.odb,Step-1,Increment      1: Step Time =    1.000,"PART-1-1",           608,      -8.81234,       4.25317,            0.,NA,NA,"",       3.01464,       2.22906,       2.02961,   1.49222E-03
C:/temp/dataset/9/25_5.odb,Step-1,Increment      1: Step Time =    1.000,"PART-1-1",           609,          -15.,      -1.71875,            0.,NA,NA,"",       3.18662,       1.59850,       2.75670,   290.671E-06
C:/temp/dataset/9/25_5.odb,Step-1,Increment      1: Step Time =    1.000,"PART-1-1",           610,      -12.5835,      -1.75493,            0.,NA,NA,"",       2.94485,       1.57928,       2.48556,   376.795E-06
C:/temp/dataset/9/25_5.odb,Step-1,Increment      1: Step Time =    1.000,"PART-1-1",           611,        -11.25,           -5.,            0.,NA,NA,"",       2.64654,       1.20511,       2.35625,   302.004E-06
C:/temp/dataset/9/25_5.odb,Step-1,Increment      1: Step Time =    1.000,"PART-1-1",           612,      -10.0144,      -3.91217,            0.,NA,NA,"",       2.57431,       1.31950,       2.21043,   307.173E-06
C:/temp/dataset/9/25_5.odb,Step-1,Increment      1: Step Time =    1.000,"PART-1-1",           613,      -11.2827,      -2.82422,            0.,NA,NA,"",       2.75844,       1.45045,       2.34632,   245.488E-06
C:/temp/dataset/9/25_5.odb,Step-1,Increment      1: Step Time =    1.000,"PART-1-1",           614,         -8.75,           -5.,            0.,NA,NA,"",       2.39069,       1.18820,       2.07451,   380.392E-06
C:/temp/dataset/9/25_5.odb,Step-1,Increment      1: Step Time =    1.000,"PART-1-1",           615,      -7.54904,      -4.01671,            0.,NA,NA,"",       2.32410,       1.29144,       1.93226,   353.247E-06
C:/temp/dataset/9/25_5.odb,Step-1,Increment      1: Step Time =    1.000,"PART-1-1",           616,      -8.81345,      -2.92887,            0.,NA,NA,"",       2.51065,       1.42254,       2.06875,   306.701E-06
C:/temp/dataset/9/25_5.odb,Step-1,Increment      1: Step Time =    1.000,"PART-1-1",           617,  -969.738E-03,       22.2544,            0.,NA,NA,"",       4.24954,       4.09294,       1.14302,   3.33719E-03
C:/temp/dataset/9/25_5.odb,Step-1,Increment      1: Step Time =    1.000,"PART-1-1",           618,      -2.31964,       21.1016,            0.,NA,NA,"",       4.18430,       3.97695,       1.30085,   5.04659E-03
C:/temp/dataset/9/25_5.odb,Step-1,Increment      1: Step Time =    1.000,"PART-1-1",           619,         -1.25,           20.,            0.,NA,NA,"",       4.02768,       3.84697,       1.19292,   6.19967E-03
C:/temp/dataset/9/25_5.odb,Step-1,Increment      1: Step Time =    1.000,"PART-1-1",           620,         -1.25,           30.,            0.,NA,NA,"",       5.06081,       4.93620,       1.11611,   3.89833E-03
C:/temp/dataset/9/25_5.odb,Step-1,Increment      1: Step Time =    1.000,"PART-1-1",           621,      -1.44357,       27.1449,            0.,NA,NA,"",       4.76907,       4.62627,       1.15829,   1.81313E-03
C:/temp/dataset/9/25_5.odb,Step-1,Increment      1: Step Time =    1.000,"PART-1-1",           622,      -4.58492,       21.1383,            0.,NA,NA,"",       4.27997,       3.99582,       1.53350,   4.67290E-03
C:/temp/dataset/9/25_5.odb,Step-1,Increment      1: Step Time =    1.000,"PART-1-1",           623,         -3.75,           20.,            0.,NA,NA,"",       4.13904,       3.87348,       1.45870,   5.65528E-03
C:/temp/dataset/9/25_5.odb,Step-1,Increment      1: Step Time =    1.000,"PART-1-1",           624,      -3.15456,       22.2398,            0.,NA,NA,"",       4.33002,       4.10430,       1.37979,   3.70977E-03
C:/temp/dataset/9/25_5.odb,Step-1,Increment      1: Step Time =    1.000,"PART-1-1",           625,      -11.2479,       22.4027,            0.,NA,NA,"",       4.72367,       4.17547,       2.20873,   1.18530E-03
C:/temp/dataset/9/25_5.odb,Step-1,Increment      1: Step Time =    1.000,"PART-1-1",           626,      -10.3888,       20.8027,            0.,NA,NA,"",       4.53325,       4.00365,       2.12630,   1.42089E-03
C:/temp/dataset/9/25_5.odb,Step-1,Increment      1: Step Time =    1.000,"PART-1-1",           627,       9.41561,      -24.6142,            0.,NA,NA,"",   54.4242E-03,   49.5161E-03,   22.5864E-03,   5.25160E-03
C:/temp/dataset/9/25_5.odb,Step-1,Increment      1: Step Time =    1.000,"PART-1-1",           628,           15.,        -16.25,            0.,NA,NA,"",   414.656E-03,   351.207E-03,  -220.440E-03,   16.8514E-03
C:/temp/dataset/9/25_5.odb,Step-1,Increment      1: Step Time =    1.000,"PART-1-1",           629,       13.1096,      -16.2411,            0.,NA,NA,"",   365.379E-03,   342.781E-03,  -126.503E-03,   9.43681E-03
C:/temp/dataset/9/25_5.odb,Step-1,Increment      1: Step Time =    1.000,"PART-1-1",           630,           15.,          3.75,            0.,NA,NA,"",       2.04638,       1.97907,  -520.533E-03,   3.80592E-03
C:/temp/dataset/9/25_5.odb,Step-1,Increment      1: Step Time =    1.000,"PART-1-1",           631,       14.0093,       5.06690,            0.,NA,NA,"",       2.16225,       2.11930,  -428.800E-03,   2.46795E-03
C:/temp/dataset/9/25_5.odb,Step-1,Increment      1: Step Time =    1.000,"PART-1-1",           632,       12.9168,       3.88721,            0.,NA,NA,"",       2.02527,       2.00170,  -308.059E-03,   2.52899E-03
C:/temp/dataset/9/25_5.odb,Step-1,Increment      1: Step Time =    1.000,"PART-1-1",           633,       12.6026,       11.0965,            0.,NA,NA,"",       2.77945,       2.76057,  -323.413E-03,   973.000E-06
C:/temp/dataset/9/25_5.odb,Step-1,Increment      1: Step Time =    1.000,"PART-1-1",           634,           15.,         11.25,            0.,NA,NA,"",       2.82547,       2.76510,  -580.952E-03,   2.51454E-03
C:/temp/dataset/9/25_5.odb,Step-1,Increment      1: Step Time =    1.000,"PART-1-1",           635,       12.4669,       18.7361,            0.,NA,NA,"",       3.61461,       3.59675,  -358.888E-03,   738.615E-06
C:/temp/dataset/9/25_5.odb,Step-1,Increment      1: Step Time =    1.000,"PART-1-1",           636,           15.,         18.75,            0.,NA,NA,"",       3.64042,       3.58371,  -640.041E-03,   1.48173E-03
C:/temp/dataset/9/25_5.odb,Step-1,Increment      1: Step Time =    1.000,"PART-1-1",           637,           15.,         26.25,            0.,NA,NA,"",       4.47968,       4.42584,  -692.414E-03,   190.124E-06
C:/temp/dataset/9/25_5.odb,Step-1,Increment      1: Step Time =    1.000,"PART-1-1",           638,          8.75,           30.,            0.,NA,NA,"",       4.88932,       4.88931,  -11.3480E-03,   35.4475E-06
C:/temp/dataset/9/25_5.odb,Step-1,Increment      1: Step Time =    1.000,"PART-1-1",           639,       8.74802,       27.8391,            0.,NA,NA,"",       4.64534,       4.64534,   2.57020E-03,   389.226E-06
C:/temp/dataset/9/25_5.odb,Step-1,Increment      1: Step Time =    1.000,"PART-1-1",           640,       11.0691,       22.4572,            0.,NA,NA,"",       4.02949,       4.02310,  -226.720E-03,   740.128E-06
C:/temp/dataset/9/25_5.odb,Step-1,Increment      1: Step Time =    1.000,"PART-1-1",           641,       11.1947,       19.9658,            0.,NA,NA,"",       3.74886,       3.74206,  -225.728E-03,   813.045E-06
C:/temp/dataset/9/25_5.odb,Step-1,Increment      1: Step Time =    1.000,"PART-1-1",           642,          3.75,           30.,            0.,NA,NA,"",       4.95024,       4.91891,   556.053E-03,   1.75504E-03
C:/temp/dataset/9/25_5.odb,Step-1,Increment      1: Step Time =    1.000,"PART-1-1",           643,       6.12801,       21.9878,            0.,NA,NA,"",       4.01983,       4.00619,   330.911E-03,   2.77124E-03
C:/temp/dataset/9/25_5.odb,Step-1,Increment      1: Step Time =    1.000,"PART-1-1",           644,       7.06684,       23.0702,            0.,NA,NA,"",       4.12664,       4.12080,   219.463E-03,   2.00274E-03
C:/temp/dataset/9/25_5.odb,Step-1,Increment      1: Step Time =    1.000,"PART-1-1",           645,       4.97038,       22.7185,            0.,NA,NA,"",       4.12382,       4.09807,   460.132E-03,   2.85857E-03
C:/temp/dataset/9/25_5.odb,Step-1,Increment      1: Step Time =    1.000,"PART-1-1",           646,          3.75,           20.,            0.,NA,NA,"",       3.84891,       3.79938,   615.474E-03,   1.89582E-03
C:/temp/dataset/9/25_5.odb,Step-1,Increment      1: Step Time =    1.000,"PART-1-1",           647,       4.96897,       20.9583,            0.,NA,NA,"",       3.92743,       3.89949,   467.643E-03,   3.24848E-03
C:/temp/dataset/9/25_5.odb,Step-1,Increment      1: Step Time =    1.000,"PART-1-1",           648,       3.78616,       22.0655,            0.,NA,NA,"",       4.07881,       4.03452,   599.453E-03,   2.80571E-03
C:/temp/dataset/9/25_5.odb,Step-1,Increment      1: Step Time =    1.000,"PART-1-1",           649,           -5.,         13.75,            0.,NA,NA,"",       3.59939,       3.23111,       1.58605,   4.02743E-03
C:/temp/dataset/9/25_5.odb,Step-1,Increment      1: Step Time =    1.000,"PART-1-1",           650,      -7.15256,       14.0792,            0.,NA,NA,"",       3.74873,       3.28134,       1.81268,   2.88352E-03
C:/temp/dataset/9/25_5.odb,Step-1,Increment      1: Step Time =    1.000,"PART-1-1",           651,      -9.70164,       19.1500,            0.,NA,NA,"",       4.34779,       3.82802,       2.06143,   1.56788E-03
C:/temp/dataset/9/25_5.odb,Step-1,Increment      1: Step Time =    1.000,"PART-1-1",           652,      -9.13060,       21.5024,            0.,NA,NA,"",       4.52995,       4.06807,       1.99280,   2.02858E-03
C:/temp/dataset/9/25_5.odb,Step-1,Increment      1: Step Time =    1.000,"PART-1-1",           653,         -1.25,           -5.,            0.,NA,NA,"",       1.67181,       1.14474,       1.21841,   2.88516E-03
C:/temp/dataset/9/25_5.odb,Step-1,Increment      1: Step Time =    1.000,"PART-1-1",           654,      -1.47244,      -2.77860,            0.,NA,NA,"",       1.85859,       1.39572,       1.22732,   3.23563E-03
C:/temp/dataset/9/25_5.odb,Step-1,Increment      1: Step Time =    1.000,"PART-1-1",           655,      -9.96758,      -1.61086,            0.,NA,NA,"",       2.70043,       1.57865,       2.19093,   386.028E-06
C:/temp/dataset/9/25_5.odb,Step-1,Increment      1: Step Time =    1.000,"PART-1-1",           656,      -6.37223,      -3.07632,            0.,NA,NA,"",       2.26814,       1.39004,       1.79227,   1.04631E-03
C:/temp/dataset/9/25_5.odb,Step-1,Increment      1: Step Time =    1.000,"PART-1-1",           657,         -6.25,           -5.,            0.,NA,NA,"",       2.13987,       1.17139,       1.79077,   123.732E-06
C:/temp/dataset/9/25_5.odb,Step-1,Increment      1: Step Time =    1.000,"PART-1-1",           658,         -3.75,            5.,            0.,NA,NA,"",       2.69706,       2.27686,       1.44569,   2.11047E-03
C:/temp/dataset/9/25_5.odb,Step-1,Increment      1: Step Time =    1.000,"PART-1-1",           659,      -5.11170,       4.23117,            0.,NA,NA,"",       2.72690,       2.19894,       1.61266,   4.76773E-03
C:/temp/dataset/9/25_5.odb,Step-1,Increment      1: Step Time =    1.000,"PART-1-1",           660,      -3.95473,       3.29190,            0.,NA,NA,"",       2.55542,       2.08316,       1.48007,   4.01791E-03
C:/temp/dataset/9/25_5.odb,Step-1,Increment      1: Step Time =    1.000,"PART-1-1",           661,          3.75,           -5.,            0.,NA,NA,"",       1.30400,       1.13560,   640.962E-03,   13.5442E-03
C:/temp/dataset/9/25_5.odb,Step-1,Increment      1: Step Time =    1.000,"PART-1-1",           662,       4.69008,      -3.66648,            0.,NA,NA,"",       1.37832,       1.27711,   518.424E-03,   14.2202E-03
C:/temp/dataset/9/25_5.odb,Step-1,Increment      1: Step Time =    1.000,"PART-1-1",           663,       4.69636,       3.71818,            0.,NA,NA,"",       2.11419,       2.05026,   515.977E-03,   6.20391E-03
C:/temp/dataset/9/25_5.odb,Step-1,Increment      1: Step Time =    1.000,"PART-1-1",           664,          3.75,            5.,            0.,NA,NA,"",       2.27577,       2.19269,   609.308E-03,   8.11302E-03
C:/temp/dataset/9/25_5.odb,Step-1,Increment      1: Step Time =    1.000,"PART-1-1",           665,       8.42013,       25.7200,            0.,NA,NA,"",       4.40930,       4.40898,   52.3665E-03,   848.745E-06
C:/temp/dataset/9/25_5.odb,Step-1,Increment      1: Step Time =    1.000,"PART-1-1",           666,       7.55622,       27.1849,            0.,NA,NA,"",       4.58170,       4.57951,   141.678E-03,   827.551E-06
C:/temp/dataset/9/25_5.odb,Step-1,Increment      1: Step Time =    1.000,"PART-1-1",           667,       6.61388,       26.0906,            0.,NA,NA,"",       4.47040,       4.46311,   255.205E-03,   1.42938E-03
C:/temp/dataset/9/25_5.odb,Step-1,Increment      1: Step Time =    1.000,"PART-1-1",           668,       10.0237,       13.5556,            0.,NA,NA,"",       3.04123,       3.04061,  -61.2493E-03,   1.03896E-03
C:/temp/dataset/9/25_5.odb,Step-1,Increment      1: Step Time =    1.000,"PART-1-1",           669,       8.80148,       12.2659,            0.,NA,NA,"",       2.90958,       2.90859,   76.0565E-03,   1.85352E-03
C:/temp/dataset/9/25_5.odb,Step-1,Increment      1: Step Time =    1.000,"PART-1-1",           670,            5.,          6.25,            0.,NA,NA,"",       2.35022,       2.29913,   487.377E-03,   6.28444E-03
C:/temp/dataset/9/25_5.odb,Step-1,Increment      1: Step Time =    1.000,"PART-1-1",           671,       5.87545,       4.76801,            0.,NA,NA,"",       2.18145,       2.14452,   399.694E-03,   6.89865E-03
C:/temp/dataset/9/25_5.odb,Step-1,Increment      1: Step Time =    1.000,"PART-1-1",           672,       6.93940,       5.78737,            0.,NA,NA,"",       2.25688,       2.23799,   291.410E-03,   4.21776E-03
C:/temp/dataset/9/25_5.odb,Step-1,Increment      1: Step Time =    1.000,"PART-1-1",           673,       7.73520,       4.18036,            0.,NA,NA,"",       2.07757,       2.06665,   212.688E-03,   5.35765E-03
C:/temp/dataset/9/25_5.odb,Step-1,Increment      1: Step Time =    1.000,"PART-1-1",           674,       6.49581,       3.34316,            0.,NA,NA,"",       2.02051,       1.99219,   337.085E-03,   7.22430E-03
C:/temp/dataset/9/25_5.odb,Step-1,Increment      1: Step Time =    1.000,"PART-1-1",           675,       7.18979,       1.82766,            0.,NA,NA,"",       1.84711,       1.82751,   268.398E-03,   6.95417E-03
C:/temp/dataset/9/25_5.odb,Step-1,Increment      1: Step Time =    1.000,"PART-1-1",           676,       8.42918,       2.66485,            0.,NA,NA,"",       1.90911,       1.90357,   145.313E-03,   5.72718E-03
C:/temp/dataset/9/25_5.odb,Step-1,Increment      1: Step Time =    1.000,"PART-1-1",           677,  -530.051E-03,       1.39108,            0.,NA,NA,"",       2.14584,       1.84668,       1.09289,   3.73185E-03
C:/temp/dataset/9/25_5.odb,Step-1,Increment      1: Step Time =    1.000,"PART-1-1",           678,      -10.1792,       3.73358,            0.,NA,NA,"",       3.08593,       2.18007,       2.18410,   904.935E-06
C:/temp/dataset/9/25_5.odb,Step-1,Increment      1: Step Time =    1.000,"PART-1-1",           679,      -9.26781,       2.30942,            0.,NA,NA,"",       2.90306,       2.01464,       2.09022,   1.17273E-03
C:/temp/dataset/9/25_5.odb,Step-1,Increment      1: Step Time =    1.000,"PART-1-1",           680,      -7.90097,       2.82902,            0.,NA,NA,"",       2.82836,       2.06329,       1.93454,   1.98529E-03
C:/temp/dataset/9/25_5.odb,Step-1,Increment      1: Step Time =    1.000,"PART-1-1",           681,      -2.90861,       2.25641,            0.,NA,NA,"",       2.38672,       1.95943,       1.36274,   3.94413E-03
C:/temp/dataset/9/25_5.odb,Step-1,Increment      1: Step Time =    1.000,"PART-1-1",           682,      -1.97153,   737.020E-03,            0.,NA,NA,"",       2.18658,       1.78533,       1.26244,   4.06591E-03
C:/temp/dataset/9/25_5.odb,Step-1,Increment      1: Step Time =    1.000,"PART-1-1",           683,      -12.0057,       8.33468,            0.,NA,NA,"",       3.58362,       2.69776,       2.35890,   289.832E-06
C:/temp/dataset/9/25_5.odb,Step-1,Increment      1: Step Time =    1.000,"PART-1-1",           684,   257.111E-03,       23.5381,            0.,NA,NA,"",       4.34063,       4.22493,   995.532E-03,   2.84347E-03
C:/temp/dataset/9/25_5.odb,Step-1,Increment      1: Step Time =    1.000,"PART-1-1",           685,       2.92443,       23.5127,            0.,NA,NA,"",       4.25943,       4.20298,   691.135E-03,   2.90900E-03
C:/temp/dataset/9/25_5.odb,Step-1,Increment      1: Step Time =    1.000,"PART-1-1",           686,  -872.814E-03,       24.6452,            0.,NA,NA,"",       4.49241,       4.35214,       1.11384,   2.00128E-03
C:/temp/dataset/9/25_5.odb,Step-1,Increment      1: Step Time =    1.000,"PART-1-1",           687,      -2.49287,       25.7554,            0.,NA,NA,"",       4.66030,       4.48041,       1.28234,   1.90906E-03
C:/temp/dataset/9/25_5.odb,Step-1,Increment      1: Step Time =    1.000,"PART-1-1",           688,      -6.57000,       23.0679,            0.,NA,NA,"",       4.55295,       4.21391,       1.72402,   3.34293E-03
C:/temp/dataset/9/25_5.odb,Step-1,Increment      1: Step Time =    1.000,"PART-1-1",           689,      -7.77911,       22.2181,            0.,NA,NA,"",       4.52868,       4.13321,       1.85081,   2.55073E-03
C:/temp/dataset/9/25_5.odb,Step-1,Increment      1: Step Time =    1.000,"PART-1-1",           690,      -6.08757,       21.5970,            0.,NA,NA,"",       4.39005,       4.05561,       1.68065,   3.64443E-03
C:/temp/dataset/9/25_5.odb,Step-1,Increment      1: Step Time =    1.000,"PART-1-1",           691,      -10.6596,       24.7502,            0.,NA,NA,"",       4.90714,       4.41739,       2.13697,   1.28239E-03
C:/temp/dataset/9/25_5.odb,Step-1,Increment      1: Step Time =    1.000,"PART-1-1",           692,      -8.94190,       25.0911,            0.,NA,NA,"",       4.85543,       4.44310,       1.95809,   1.71662E-03
C:/temp/dataset/9/25_5.odb,Step-1,Increment      1: Step Time =    1.000,"PART-1-1",           693,      -9.30563,       26.3338,            0.,NA,NA,"",       4.98990,       4.57623,       1.98928,   1.51506E-03
C:/temp/dataset/9/25_5.odb,Step-1,Increment      1: Step Time =    1.000,"PART-1-1",           694,      -11.0233,       25.9928,            0.,NA,NA,"",       5.04016,       4.54986,       2.16841,   1.02178E-03
C:/temp/dataset/9/25_5.odb,Step-1,Increment      1: Step Time =    1.000,"PART-1-1",           695,      -9.11986,       17.2561,            0.,NA,NA,"",       4.14660,       3.62777,       2.00837,   1.61179E-03
C:/temp/dataset/9/25_5.odb,Step-1,Increment      1: Step Time =    1.000,"PART-1-1",           696,      -11.0116,       7.65423,            0.,NA,NA,"",       3.45461,       2.61775,       2.25426,   668.185E-06
C:/temp/dataset/9/25_5.odb,Step-1,Increment      1: Step Time =    1.000,"PART-1-1",           697,      -11.6541,       6.30856,            0.,NA,NA,"",       3.40027,       2.47437,       2.33225,   280.951E-06
C:/temp/dataset/9/25_5.odb,Step-1,Increment      1: Step Time =    1.000,"PART-1-1",           698,      -3.46647,   792.949E-03,            0.,NA,NA,"",       2.30374,       1.80192,       1.43537,   3.83154E-03
C:/temp/dataset/9/25_5.odb,Step-1,Increment      1: Step Time =    1.000,"PART-1-1",           699,      -4.27899,       1.61468,            0.,NA,NA,"",       2.43583,       1.89901,       1.52546,   3.81423E-03
C:/temp/dataset/9/25_5.odb,Step-1,Increment      1: Step Time =    1.000,"PART-1-1",           700,      -5.41602,       1.03976,            0.,NA,NA,"",       2.48070,       1.84381,       1.65959,   3.12720E-03
C:/temp/dataset/9/25_5.odb,Step-1,Increment      1: Step Time =    1.000,"PART-1-1",           701,      -4.60351,   218.037E-03,            0.,NA,NA,"",       2.34839,       1.74644,       1.57000,   3.14811E-03
C:/temp/dataset/9/25_5.odb,Step-1,Increment      1: Step Time =    1.000,"PART-1-1",           702,      -1.96165,  -510.209E-03,            0.,NA,NA,"",       2.08020,       1.64854,       1.26868,   3.66461E-03
C:/temp/dataset/9/25_5.odb,Step-1,Increment      1: Step Time =    1.000,"PART-1-1",           703,      -2.89723,      -2.02996,            0.,NA,NA,"",       2.03247,       1.48624,       1.38637,   2.87157E-03
C:/temp/dataset/9/25_5.odb,Step-1,Increment      1: Step Time =    1.000,"PART-1-1",           704,       6.46823,      -3.22891,            0.,NA,NA,"",       1.35018,       1.30786,   335.404E-03,   9.32764E-03
C:/temp/dataset/9/25_5.odb,Step-1,Increment      1: Step Time =    1.000,"PART-1-1",           705,       5.30305,      -2.18626,            0.,NA,NA,"",       1.49655,       1.42518,   456.647E-03,   8.13276E-03
C:/temp/dataset/9/25_5.odb,Step-1,Increment      1: Step Time =    1.000,"PART-1-1",           706,       8.11637,      -13.0290,            0.,NA,NA,"",   547.873E-03,   528.928E-03,   142.831E-03,   9.95740E-03
C:/temp/dataset/9/25_5.odb,Step-1,Increment      1: Step Time =    1.000,"PART-1-1",           707,       8.09759,      -10.8135,            0.,NA,NA,"",   691.396E-03,   672.817E-03,   159.205E-03,   9.88591E-03
C:/temp/dataset/9/25_5.odb,Step-1,Increment      1: Step Time =    1.000,"PART-1-1",           708,           15.,        -26.25,            0.,NA,NA,"",   70.0076E-03,   37.2667E-03,  -59.2643E-03,   17.9209E-03
C:/temp/dataset/9/25_5.odb,Step-1,Increment      1: Step Time =    1.000,"PART-1-1",           709,       13.6129,      -24.9005,            0.,NA,NA,"",   73.9841E-03,   49.6757E-03,  -54.8267E-03,   12.1510E-03
C:/temp/dataset/9/25_5.odb,Step-1,Increment      1: Step Time =    1.000,"PART-1-1",           710,       12.3352,      -26.1538,            0.,NA,NA,"",   33.1816E-03,   23.7158E-03,  -23.2072E-03,   7.07708E-03
C:/temp/dataset/9/25_5.odb,Step-1,Increment      1: Step Time =    1.000,"PART-1-1",           711,       11.5115,      -24.0900,            0.,NA,NA,"",   62.1577E-03,   59.1467E-03,  -19.1115E-03,   3.51615E-03
C:/temp/dataset/9/25_5.odb,Step-1,Increment      1: Step Time =    1.000,"PART-1-1",           712,       12.5793,      -23.4990,            0.,NA,NA,"",   88.0075E-03,   75.0432E-03,  -45.9764E-03,   7.83876E-03
C:/temp/dataset/9/25_5.odb,Step-1,Increment      1: Step Time =    1.000,"PART-1-1",           713,       11.9958,      -21.9645,            0.,NA,NA,"",   121.400E-03,   114.531E-03,  -40.2579E-03,   5.33018E-03
C:/temp/dataset/9/25_5.odb,Step-1,Increment      1: Step Time =    1.000,"PART-1-1",           714,           15.,        -23.75,            0.,NA,NA,"",   129.097E-03,   82.4019E-03,  -99.3781E-03,   17.5944E-03
C:/temp/dataset/9/25_5.odb,Step-1,Increment      1: Step Time =    1.000,"PART-1-1",           715,       11.0775,      -9.24199,            0.,NA,NA,"",   773.979E-03,   772.426E-03,  -49.0102E-03,   1.99549E-03
C:/temp/dataset/9/25_5.odb,Step-1,Increment      1: Step Time =    1.000,"PART-1-1",           716,       10.0590,      -8.23408,            0.,NA,NA,"",   851.485E-03,   851.141E-03,   24.2157E-03,   1.82962E-03
C:/temp/dataset/9/25_5.odb,Step-1,Increment      1: Step Time =    1.000,"PART-1-1",           717,       9.08966,      -9.54059,            0.,NA,NA,"",   762.935E-03,   756.901E-03,   95.7695E-03,   5.66357E-03
C:/temp/dataset/9/25_5.odb,Step-1,Increment      1: Step Time =    1.000,"PART-1-1",           718,           15.,         -1.25,            0.,NA,NA,"",       1.54537,       1.47274,  -468.187E-03,   9.02462E-03
C:/temp/dataset/9/25_5.odb,Step-1,Increment      1: Step Time =    1.000,"PART-1-1",           719,       12.7047,      -1.36075,            0.,NA,NA,"",       1.48604,       1.46554,  -245.976E-03,   6.09451E-03
C:/temp/dataset/9/25_5.odb,Step-1,Increment      1: Step Time =    1.000,"PART-1-1",           720,       10.4122,      -1.52824,            0.,NA,NA,"",       1.45719,       1.45683,  -32.5049E-03,   5.74863E-03
C:/temp/dataset/9/25_5.odb,Step-1,Increment      1: Step Time =    1.000,"PART-1-1",           721,       11.7321,      -2.88547,            0.,NA,NA,"",       1.32577,       1.31792,  -144.111E-03,   5.91427E-03
C:/temp/dataset/9/25_5.odb,Step-1,Increment      1: Step Time =    1.000,"PART-1-1",           722,       13.0447,       6.32641,            0.,NA,NA,"",       2.27999,       2.25479,  -338.065E-03,   1.68973E-03
C:/temp/dataset/9/25_5.odb,Step-1,Increment      1: Step Time =    1.000,"PART-1-1",           723,           15.,          6.25,            0.,NA,NA,"",       2.30258,       2.23810,  -541.117E-03,   2.91852E-03
C:/temp/dataset/9/25_5.odb,Step-1,Increment      1: Step Time =    1.000,"PART-1-1",           724,       12.2773,       7.44357,            0.,NA,NA,"",       2.39028,       2.37548,  -265.569E-03,   936.323E-06
C:/temp/dataset/9/25_5.odb,Step-1,Increment      1: Step Time =    1.000,"PART-1-1",           725,       11.3989,       9.46443,            0.,NA,NA,"",       2.59987,       2.59323,  -185.632E-03,   393.873E-06
C:/temp/dataset/9/25_5.odb,Step-1,Increment      1: Step Time =    1.000,"PART-1-1",           726,       10.0696,       10.6576,            0.,NA,NA,"",       2.72834,       2.72785,  -51.5340E-03,   950.595E-06
C:/temp/dataset/9/25_5.odb,Step-1,Increment      1: Step Time =    1.000,"PART-1-1",           727,       11.2733,       12.2896,            0.,NA,NA,"",       2.90219,       2.89606,  -188.662E-03,   439.776E-06
C:/temp/dataset/9/25_5.odb,Step-1,Increment      1: Step Time =    1.000,"PART-1-1",           728,       11.2495,       14.9235,            0.,NA,NA,"",       3.18884,       3.18247,  -201.494E-03,   527.265E-06
C:/temp/dataset/9/25_5.odb,Step-1,Increment      1: Step Time =    1.000,"PART-1-1",           729,       11.2365,       17.4638,            0.,NA,NA,"",       3.46929,       3.46260,  -215.219E-03,   662.028E-06
C:/temp/dataset/9/25_5.odb,Step-1,Increment      1: Step Time =    1.000,"PART-1-1",           730,       9.96430,       18.6935,            0.,NA,NA,"",       3.60841,       3.60747,  -82.1559E-03,   1.06758E-03
C:/temp/dataset/9/25_5.odb,Step-1,Increment      1: Step Time =    1.000,"PART-1-1",           731,       8.12949,      -15.2371,            0.,NA,NA,"",   421.359E-03,   402.083E-03,   125.987E-03,   9.95015E-03
C:/temp/dataset/9/25_5.odb,Step-1,Increment      1: Step Time =    1.000,"PART-1-1",           732,       10.9896,      -6.85237,            0.,NA,NA,"",   961.598E-03,   960.093E-03,  -53.7831E-03,   3.10644E-03
C:/temp/dataset/9/25_5.odb,Step-1,Increment      1: Step Time =    1.000,"PART-1-1",           733,       10.9332,      -25.1906,            0.,NA,NA,"",   37.1942E-03,   36.7616E-03,  -5.65671E-03,   1.36579E-03
C:/temp/dataset/9/25_5.odb,Step-1,Increment      1: Step Time =    1.000,"PART-1-1",           734,       11.9281,      -5.46067,            0.,NA,NA,"",       1.08759,       1.07846,  -140.610E-03,   5.75972E-03
C:/temp/dataset/9/25_5.odb,Step-1,Increment      1: Step Time =    1.000,"PART-1-1",           735,      -11.5697,       3.18107,            0.,NA,NA,"",       3.16354,       2.12721,       2.34157,   493.996E-06
C:/temp/dataset/9/25_5.odb,Step-1,Increment      1: Step Time =    1.000,"PART-1-1",           736,      -10.7341,       2.09613,            0.,NA,NA,"",       3.01449,       2.00048,       2.25504,   711.399E-06
C:/temp/dataset/9/25_5.odb,Step-1,Increment      1: Step Time =    1.000,"PART-1-1",           737,      -6.76822,       1.80268,            0.,NA,NA,"",       2.65353,       1.93948,       1.81097,   2.54898E-03
C:/temp/dataset/9/25_5.odb,Step-1,Increment      1: Step Time =    1.000,"PART-1-1",           738,      -5.32511,       2.65016,            0.,NA,NA,"",       2.60549,       2.02282,       1.64218,   3.92809E-03
C:/temp/dataset/9/25_5.odb,Step-1,Increment      1: Step Time =    1.000,"PART-1-1",           739,      -6.45786,       3.67650,            0.,NA,NA,"",       2.78195,       2.14764,       1.76830,   3.33233E-03
C:/temp/dataset/9/25_5.odb,Step-1,Increment      1: Step Time =    1.000,"PART-1-1",           740,      -10.1618,       27.4009,            0.,NA,NA,"",       5.13000,       4.69297,       2.07194,   1.05779E-03
C:/temp/dataset/9/25_5.odb,Step-1,Increment      1: Step Time =    1.000,"PART-1-1",           741,      -8.15950,       27.0742,            0.,NA,NA,"",       5.00932,       4.64839,       1.86701,   1.65389E-03
C:/temp/dataset/9/25_5.odb,Step-1,Increment      1: Step Time =    1.000,"PART-1-1",           742,      -8.41457,       23.7439,            0.,NA,NA,"",       4.70306,       4.29773,       1.91003,   2.25825E-03
C:/temp/dataset/9/25_5.odb,Step-1,Increment      1: Step Time =    1.000,"PART-1-1",           743,      -9.76606,       23.0282,            0.,NA,NA,"",       4.70292,       4.23144,       2.05242,   1.57459E-03
C:/temp/dataset/9/25_5.odb,Step-1,Increment      1: Step Time =    1.000,"PART-1-1",           744,      -10.1457,       6.57799,            0.,NA,NA,"",       3.30323,       2.49473,       2.16510,   1.02824E-03
C:/temp/dataset/9/25_5.odb,Step-1,Increment      1: Step Time =    1.000,"PART-1-1",           745,      -11.1466,       5.19230,            0.,NA,NA,"",       3.27500,       2.34820,       2.28289,   469.884E-06
C:/temp/dataset/9/25_5.odb,Step-1,Increment      1: Step Time =    1.000,"PART-1-1",           746,       7.77017,   782.991E-03,            0.,NA,NA,"",       1.72601,       1.71295,   211.930E-03,   7.02035E-03
C:/temp/dataset/9/25_5.odb,Step-1,Increment      1: Step Time =    1.000,"PART-1-1",           747,       6.09501,       1.10589,            0.,NA,NA,"",       1.80215,       1.76217,   377.484E-03,   6.91922E-03
C:/temp/dataset/9/25_5.odb,Step-1,Increment      1: Step Time =    1.000,"PART-1-1",           748,       6.67539,   61.2235E-03,            0.,NA,NA,"",       1.67785,       1.64714,   319.560E-03,   7.03789E-03
C:/temp/dataset/9/25_5.odb,Step-1,Increment      1: Step Time =    1.000,"PART-1-1",           749,       5.31672,       2.29333,            0.,NA,NA,"",       1.94829,       1.89437,   455.157E-03,   6.36910E-03
C:/temp/dataset/9/25_5.odb,Step-1,Increment      1: Step Time =    1.000,"PART-1-1",           750,      -6.94695,       24.4689,            0.,NA,NA,"",       4.70513,       4.36515,       1.75603,   2.46452E-03
C:/temp/dataset/9/25_5.odb,Step-1,Increment      1: Step Time =    1.000,"PART-1-1",           751,      -2.09966,       23.3616,            0.,NA,NA,"",       4.40319,       4.21953,       1.25841,   2.83436E-03
C:/temp/dataset/9/25_5.odb,Step-1,Increment      1: Step Time =    1.000,"PART-1-1",           752,      -2.87591,       24.2478,            0.,NA,NA,"",       4.52078,       4.31926,       1.33470,   2.18734E-03
C:/temp/dataset/9/25_5.odb,Step-1,Increment      1: Step Time =    1.000,"PART-1-1",           753,       9.53974,       23.7363,            0.,NA,NA,"",       4.17819,       4.17772,  -62.7414E-03,   910.384E-06
C:/temp/dataset/9/25_5.odb,Step-1,Increment      1: Step Time =    1.000,"PART-1-1",           754,      -5.22075,      -2.25347,            0.,NA,NA,"",       2.21725,       1.47519,       1.65530,   1.83240E-03
C:/temp/dataset/9/25_5.odb,Step-1,Increment      1: Step Time =    1.000,"PART-1-1",           755,      -7.55915,      -2.11026,            0.,NA,NA,"",       2.44170,       1.50648,       1.92157,   898.846E-06
C:/temp/dataset/9/25_5.odb,Step-1,Increment      1: Step Time =    1.000,"PART-1-1",           756,      -4.20325,      -1.24540,            0.,NA,NA,"",       2.20171,       1.58122,       1.53208,   2.75098E-03
C:/temp/dataset/9/25_5.odb,Step-1,Increment      1: Step Time =    1.000,"PART-1-1",           757,       12.0426,       5.30937,            0.,NA,NA,"",       2.16586,       2.15381,  -228.150E-03,   1.27032E-03
C:/temp/dataset/9/25_5.odb,Step-1,Increment      1: Step Time =    1.000,"PART-1-1",           758,      -8.17645,       12.8481,            0.,NA,NA,"",       3.69846,       3.15776,       1.92540,   2.42651E-03
C:/temp/dataset/9/25_5.odb,Step-1,Increment      1: Step Time =    1.000,"PART-1-1",           759,      -8.09554,       10.3784,            0.,NA,NA,"",       3.47543,       2.89338,       1.92535,   2.60645E-03
C:/temp/dataset/9/25_5.odb,Step-1,Increment      1: Step Time =    1.000,"PART-1-1",           760,      -8.33007,       15.6293,            0.,NA,NA,"",       3.95630,       3.45264,       1.93173,   2.11911E-03
C:/temp/dataset/9/25_5.odb,Step-1,Increment      1: Step Time =    1.000,"PART-1-1",           761,       12.1122,      -19.7356,            0.,NA,NA,"",   197.317E-03,   189.116E-03,  -56.2974E-03,   5.67750E-03
C:/temp/dataset/9/25_5.odb,Step-1,Increment      1: Step Time =    1.000,"PART-1-1",           762,       12.1388,      -17.4254,            0.,NA,NA,"",   293.391E-03,   284.636E-03,  -71.1383E-03,   5.68001E-03
C:/temp/dataset/9/25_5.odb,Step-1,Increment      1: Step Time =    1.000,"PART-1-1",           763,       12.0361,      -7.90801,            0.,NA,NA,"",   883.144E-03,   873.596E-03,  -129.514E-03,   5.44098E-03
C:/temp/dataset/9/25_5.odb,Step-1,Increment      1: Step Time =    1.000,"PART-1-1",           764,       12.0837,      -10.3075,            0.,NA,NA,"",   704.288E-03,   694.852E-03,  -114.898E-03,   5.32513E-03
C:/temp/dataset/9/25_5.odb,Step-1,Increment      1: Step Time =    1.000,"PART-1-1",           765,       12.1118,      -12.6921,            0.,NA,NA,"",   547.073E-03,   537.842E-03,  -100.078E-03,   5.40695E-03
C:/temp/dataset/9/25_5.odb,Step-1,Increment      1: Step Time =    1.000,"PART-1-1",           766,       12.1357,      -15.0700,            0.,NA,NA,"",   410.060E-03,   400.990E-03,  -85.7702E-03,   5.57301E-03
C:/temp/dataset/9/25_5.odb,Step-1,Increment      1: Step Time =    1.000,"PART-1-1",           767,      -8.71328,  -792.246E-03,            0.,NA,NA,"",       2.63522,       1.66243,       2.04468,   779.575E-06
C:/temp/dataset/9/25_5.odb,Step-1,Increment      1: Step Time =    1.000,"PART-1-1",           768,      -7.47429,       25.8162,            0.,NA,NA,"",       4.85852,       4.51147,       1.80329,   2.13444E-03
C:/temp/dataset/9/25_5.odb,Step-1,Increment      1: Step Time =    1.000,"PART-1-1",           769,       9.13729,   756.201E-03,            0.,NA,NA,"",       1.70104,       1.69917,   79.6700E-03,   5.98475E-03
C:/temp/dataset/9/25_5.odb,Step-1,Increment      1: Step Time =    1.000,"PART-1-1",           770,       7.76646,  -679.521E-03,            0.,NA,NA,"",       1.57485,       1.56038,   213.008E-03,   7.43859E-03
C:/temp/dataset/9/25_5.odb,Step-1,Increment      1: Step Time =    1.000,"PART-1-1",           771,       9.13358,  -706.311E-03,            0.,NA,NA,"",       1.54997,       1.54772,   83.4354E-03,   6.56444E-03
C:/temp/dataset/9/25_5.odb,Step-1,Increment      1: Step Time =    1.000,"PART-1-1",           772,       7.17869,      -1.72980,            0.,NA,NA,"",       1.48083,       1.45612,   269.384E-03,   8.01866E-03
C:/temp/dataset/9/25_5.odb,Step-1,Increment      1: Step Time =    1.000,"PART-1-1",           773,       6.08762,  -989.051E-03,            0.,NA,NA,"",       1.58811,       1.54252,   377.774E-03,   7.78313E-03
C:/temp/dataset/9/25_5.odb,Step-1,Increment      1: Step Time =    1.000,"PART-1-1",           774,       8.06590,       24.5744,            0.,NA,NA,"",       4.28375,       4.28261,   98.8047E-03,   1.30782E-03
C:/temp/dataset/9/25_5.odb,Step-1,Increment      1: Step Time =    1.000,"PART-1-1",           775,       7.69641,      -4.07963,            0.,NA,NA,"",       1.23656,       1.21696,   219.242E-03,   7.14316E-03
C:/temp/dataset/9/25_5.odb,Step-1,Increment      1: Step Time =    1.000,"PART-1-1",           776,       8.40687,      -2.58051,            0.,NA,NA,"",       1.36976,       1.36104,   154.344E-03,   7.03017E-03
C:/temp/dataset/9/25_5.odb,Step-1,Increment      1: Step Time =    1.000,"PART-1-1",           777,      -9.00797,   684.990E-03,            0.,NA,NA,"",       2.76302,       1.83047,       2.06971,   1.11234E-03
C:/temp/dataset/9/25_5.odb,Step-1,Increment      1: Step Time =    1.000,"PART-1-1",           778,       5.05143,   63.4436E-03,            0.,NA,NA,"",       1.73130,       1.66219,   484.275E-03,   5.69341E-03
C:/temp/dataset/9/25_5.odb,Step-1,Increment      1: Step Time =    1.000,"PART-1-1",           779,      -3.45659,  -454.281E-03,            0.,NA,NA,"",       2.20144,       1.66410,       1.44121,   3.37788E-03
C:/temp/dataset/9/25_5.odb,Step-1,Increment      1: Step Time =    1.000,"PART-1-1",           780,      -7.58605,   993.377E-03,            0.,NA,NA,"",       2.66080,       1.85496,       1.90760,   1.79920E-03
