ODB Name,Step,Frame,Part Instance Name,    êﬂì_ÉâÉxÉã,X,Y,Z,Section Name,Material Name,Section Point,   U-Magnitude,          U-U1,          U-U2,       S-Mises
C:/temp/dataset/9/26_4.odb,Step-1,Increment      1: Step Time =    1.000,"PART-1-1",             1,            5.,           20.,            0.,NA,NA,"",       1.86345,       1.83659,   315.261E-03,   4.78763E-03
C:/temp/dataset/9/26_4.odb,Step-1,Increment      1: Step Time =    1.000,"PART-1-1",             2,            0.,           20.,            0.,NA,NA,"",       1.95092,       1.85915,   591.330E-03,   3.52955E-03
C:/temp/dataset/9/26_4.odb,Step-1,Increment      1: Step Time =    1.000,"PART-1-1",             3,            5.,          12.5,            0.,NA,NA,"",       1.45917,       1.42856,   297.289E-03,   3.65032E-03
C:/temp/dataset/9/26_4.odb,Step-1,Increment      1: Step Time =    1.000,"PART-1-1",             4,            5.,            5.,            0.,NA,NA,"",       1.08439,       1.04786,   279.106E-03,   4.50822E-03
C:/temp/dataset/9/26_4.odb,Step-1,Increment      1: Step Time =    1.000,"PART-1-1",             5,            0.,            5.,            0.,NA,NA,"",       1.19868,       1.07305,   534.234E-03,   2.98061E-03
C:/temp/dataset/9/26_4.odb,Step-1,Increment      1: Step Time =    1.000,"PART-1-1",             6,           -5.,            5.,            0.,NA,NA,"",       1.36043,       1.08848,   816.069E-03,   2.71155E-03
C:/temp/dataset/9/26_4.odb,Step-1,Increment      1: Step Time =    1.000,"PART-1-1",             7,           -5.,          12.5,            0.,NA,NA,"",       1.69864,       1.48633,   822.306E-03,   2.12930E-03
C:/temp/dataset/9/26_4.odb,Step-1,Increment      1: Step Time =    1.000,"PART-1-1",             8,           -5.,           20.,            0.,NA,NA,"",       2.04607,       1.87099,   828.123E-03,   2.37124E-03
C:/temp/dataset/9/26_4.odb,Step-1,Increment      1: Step Time =    1.000,"PART-1-1",             9,           15.,           30.,            0.,NA,NA,"",       2.38569,       2.37158,  -259.100E-03,   19.6038E-06
C:/temp/dataset/9/26_4.odb,Step-1,Increment      1: Step Time =    1.000,"PART-1-1",            10,           7.5,           30.,            0.,NA,NA,"",       2.38710,       2.38166,   161.105E-03,   1.07889E-03
C:/temp/dataset/9/26_4.odb,Step-1,Increment      1: Step Time =    1.000,"PART-1-1",            11,            0.,           30.,            0.,NA,NA,"",       2.44391,       2.37668,   569.280E-03,   2.76627E-03
C:/temp/dataset/9/26_4.odb,Step-1,Increment      1: Step Time =    1.000,"PART-1-1",            12,          -7.5,           30.,            0.,NA,NA,"",       2.55654,       2.37594,   943.828E-03,   266.730E-06
C:/temp/dataset/9/26_4.odb,Step-1,Increment      1: Step Time =    1.000,"PART-1-1",            13,          -15.,           30.,            0.,NA,NA,"",       2.72409,       2.38510,       1.31604,   4.81373E-06
C:/temp/dataset/9/26_4.odb,Step-1,Increment      1: Step Time =    1.000,"PART-1-1",            14,          -15.,         21.25,            0.,NA,NA,"",       2.35814,       1.94887,       1.32767,   298.853E-06
C:/temp/dataset/9/26_4.odb,Step-1,Increment      1: Step Time =    1.000,"PART-1-1",            15,          -15.,          12.5,            0.,NA,NA,"",       2.01593,       1.50286,       1.34364,   769.897E-06
C:/temp/dataset/9/26_4.odb,Step-1,Increment      1: Step Time =    1.000,"PART-1-1",            16,          -15.,          3.75,            0.,NA,NA,"",       1.71163,       1.03688,       1.36183,   515.385E-06
C:/temp/dataset/9/26_4.odb,Step-1,Increment      1: Step Time =    1.000,"PART-1-1",            17,          -15.,           -5.,            0.,NA,NA,"",       1.48515,   557.595E-03,       1.37650,   9.74252E-06
C:/temp/dataset/9/26_4.odb,Step-1,Increment      1: Step Time =    1.000,"PART-1-1",            18,          -10.,           -5.,            0.,NA,NA,"",       1.23161,   549.760E-03,       1.10211,   151.753E-06
C:/temp/dataset/9/26_4.odb,Step-1,Increment      1: Step Time =    1.000,"PART-1-1",            19,           -5.,           -5.,            0.,NA,NA,"",   987.614E-03,   542.129E-03,   825.516E-03,   393.176E-06
C:/temp/dataset/9/26_4.odb,Step-1,Increment      1: Step Time =    1.000,"PART-1-1",            20,            0.,           -5.,            0.,NA,NA,"",   768.532E-03,   539.315E-03,   547.522E-03,   1.66050E-03
C:/temp/dataset/9/26_4.odb,Step-1,Increment      1: Step Time =    1.000,"PART-1-1",            21,            5.,           -5.,            0.,NA,NA,"",   604.100E-03,   547.123E-03,   256.111E-03,   14.3260E-03
C:/temp/dataset/9/26_4.odb,Step-1,Increment      1: Step Time =    1.000,"PART-1-1",            22,            5.,        -11.25,            0.,NA,NA,"",   374.923E-03,   322.856E-03,   190.607E-03,   11.2134E-03
C:/temp/dataset/9/26_4.odb,Step-1,Increment      1: Step Time =    1.000,"PART-1-1",            23,            5.,         -17.5,            0.,NA,NA,"",   199.692E-03,   152.107E-03,   129.385E-03,   11.4745E-03
C:/temp/dataset/9/26_4.odb,Step-1,Increment      1: Step Time =    1.000,"PART-1-1",            24,            5.,        -23.75,            0.,NA,NA,"",   80.9759E-03,   48.0042E-03,   65.2127E-03,   11.6724E-03
C:/temp/dataset/9/26_4.odb,Step-1,Increment      1: Step Time =    1.000,"PART-1-1",            25,            5.,          -30.,            0.,NA,NA,"",            0.,   3.80503E-39,   7.24382E-39,   14.0470E-03
C:/temp/dataset/9/26_4.odb,Step-1,Increment      1: Step Time =    1.000,"PART-1-1",            26,           15.,          -30.,            0.,NA,NA,"",            0.,   2.16050E-39,  -4.12580E-39,   7.93712E-03
C:/temp/dataset/9/26_4.odb,Step-1,Increment      1: Step Time =    1.000,"PART-1-1",            27,           15.,         -22.5,            0.,NA,NA,"",   74.7007E-03,   53.2083E-03,  -52.4317E-03,   7.74622E-03
C:/temp/dataset/9/26_4.odb,Step-1,Increment      1: Step Time =    1.000,"PART-1-1",            28,           15.,          -15.,            0.,NA,NA,"",   225.677E-03,   199.944E-03,  -104.653E-03,   7.38746E-03
C:/temp/dataset/9/26_4.odb,Step-1,Increment      1: Step Time =    1.000,"PART-1-1",            29,           15.,          -7.5,            0.,NA,NA,"",   469.498E-03,   442.208E-03,  -157.736E-03,   6.96500E-03
C:/temp/dataset/9/26_4.odb,Step-1,Increment      1: Step Time =    1.000,"PART-1-1",            30,           15.,            0.,            0.,NA,NA,"",   801.853E-03,   776.591E-03,  -199.690E-03,   2.69714E-03
C:/temp/dataset/9/26_4.odb,Step-1,Increment      1: Step Time =    1.000,"PART-1-1",            31,           15.,           7.5,            0.,NA,NA,"",       1.17110,       1.15066,  -217.872E-03,   832.385E-06
C:/temp/dataset/9/26_4.odb,Step-1,Increment      1: Step Time =    1.000,"PART-1-1",            32,           15.,           15.,            0.,NA,NA,"",       1.55980,       1.54214,  -234.073E-03,   814.663E-06
C:/temp/dataset/9/26_4.odb,Step-1,Increment      1: Step Time =    1.000,"PART-1-1",            33,           15.,          22.5,            0.,NA,NA,"",       1.96971,       1.95404,  -247.951E-03,   92.8683E-06
C:/temp/dataset/9/26_4.odb,Step-1,Increment      1: Step Time =    1.000,"PART-1-1",            34,           2.5,           20.,            0.,NA,NA,"",       1.90512,       1.84741,   465.380E-03,   5.93274E-03
C:/temp/dataset/9/26_4.odb,Step-1,Increment      1: Step Time =    1.000,"PART-1-1",            35,            5.,           15.,            0.,NA,NA,"",       1.59077,       1.56185,   301.951E-03,   3.58845E-03
C:/temp/dataset/9/26_4.odb,Step-1,Increment      1: Step Time =    1.000,"PART-1-1",            36,            5.,          17.5,            0.,NA,NA,"",       1.72462,       1.69721,   306.258E-03,   4.12174E-03
C:/temp/dataset/9/26_4.odb,Step-1,Increment      1: Step Time =    1.000,"PART-1-1",            37,            5.,           7.5,            0.,NA,NA,"",       1.20455,       1.16987,   286.928E-03,   4.14537E-03
C:/temp/dataset/9/26_4.odb,Step-1,Increment      1: Step Time =    1.000,"PART-1-1",            38,            5.,           10.,            0.,NA,NA,"",       1.33029,       1.29776,   292.379E-03,   3.74499E-03
C:/temp/dataset/9/26_4.odb,Step-1,Increment      1: Step Time =    1.000,"PART-1-1",            39,           2.5,            5.,            0.,NA,NA,"",       1.13481,       1.06152,   401.195E-03,   4.14669E-03
C:/temp/dataset/9/26_4.odb,Step-1,Increment      1: Step Time =    1.000,"PART-1-1",            40,          -2.5,            5.,            0.,NA,NA,"",       1.27427,       1.08234,   672.526E-03,   1.87235E-03
C:/temp/dataset/9/26_4.odb,Step-1,Increment      1: Step Time =    1.000,"PART-1-1",            41,           -5.,           10.,            0.,NA,NA,"",       1.58437,       1.35513,   820.894E-03,   2.15907E-03
C:/temp/dataset/9/26_4.odb,Step-1,Increment      1: Step Time =    1.000,"PART-1-1",            42,           -5.,           7.5,            0.,NA,NA,"",       1.47182,       1.22256,   819.520E-03,   2.38770E-03
C:/temp/dataset/9/26_4.odb,Step-1,Increment      1: Step Time =    1.000,"PART-1-1",            43,           -5.,          17.5,            0.,NA,NA,"",       1.92964,       1.74434,   825.088E-03,   2.29816E-03
C:/temp/dataset/9/26_4.odb,Step-1,Increment      1: Step Time =    1.000,"PART-1-1",            44,           -5.,           15.,            0.,NA,NA,"",       1.81384,       1.61603,   823.689E-03,   2.08566E-03
C:/temp/dataset/9/26_4.odb,Step-1,Increment      1: Step Time =    1.000,"PART-1-1",            45,          -2.5,           20.,            0.,NA,NA,"",       1.99622,       1.86578,   709.772E-03,   1.73839E-03
C:/temp/dataset/9/26_4.odb,Step-1,Increment      1: Step Time =    1.000,"PART-1-1",            46,          12.5,           30.,            0.,NA,NA,"",       2.37850,       2.37550,  -119.514E-03,   28.8059E-06
C:/temp/dataset/9/26_4.odb,Step-1,Increment      1: Step Time =    1.000,"PART-1-1",            47,           10.,           30.,            0.,NA,NA,"",       2.37924,       2.37915,   20.5817E-03,   329.319E-06
C:/temp/dataset/9/26_4.odb,Step-1,Increment      1: Step Time =    1.000,"PART-1-1",            48,            5.,           30.,            0.,NA,NA,"",       2.40090,       2.38198,   300.829E-03,   2.13098E-03
C:/temp/dataset/9/26_4.odb,Step-1,Increment      1: Step Time =    1.000,"PART-1-1",            49,           2.5,           30.,            0.,NA,NA,"",       2.41976,       2.37989,   437.497E-03,   2.86092E-03
C:/temp/dataset/9/26_4.odb,Step-1,Increment      1: Step Time =    1.000,"PART-1-1",            50,          -2.5,           30.,            0.,NA,NA,"",       2.47443,       2.37443,   696.336E-03,   1.95776E-03
C:/temp/dataset/9/26_4.odb,Step-1,Increment      1: Step Time =    1.000,"PART-1-1",            51,           -5.,           30.,            0.,NA,NA,"",       2.51198,       2.37420,   820.511E-03,   965.627E-06
C:/temp/dataset/9/26_4.odb,Step-1,Increment      1: Step Time =    1.000,"PART-1-1",            52,          -10.,           30.,            0.,NA,NA,"",       2.60732,       2.37879,       1.06747,   24.1339E-06
C:/temp/dataset/9/26_4.odb,Step-1,Increment      1: Step Time =    1.000,"PART-1-1",            53,         -12.5,           30.,            0.,NA,NA,"",       2.66342,       2.38197,       1.19164,   37.2862E-06
C:/temp/dataset/9/26_4.odb,Step-1,Increment      1: Step Time =    1.000,"PART-1-1",            54,          -15.,       27.8125,            0.,NA,NA,"",       2.63069,       2.27626,       1.31877,   28.2517E-06
C:/temp/dataset/9/26_4.odb,Step-1,Increment      1: Step Time =    1.000,"PART-1-1",            55,          -15.,        25.625,            0.,NA,NA,"",       2.53851,       2.16736,       1.32160,   89.9478E-06
C:/temp/dataset/9/26_4.odb,Step-1,Increment      1: Step Time =    1.000,"PART-1-1",            56,          -15.,       23.4375,            0.,NA,NA,"",       2.44761,       2.05827,       1.32451,   167.131E-06
C:/temp/dataset/9/26_4.odb,Step-1,Increment      1: Step Time =    1.000,"PART-1-1",            57,          -15.,       19.0625,            0.,NA,NA,"",       2.27016,       1.83891,       1.33118,   471.170E-06
C:/temp/dataset/9/26_4.odb,Step-1,Increment      1: Step Time =    1.000,"PART-1-1",            58,          -15.,        16.875,            0.,NA,NA,"",       2.18370,       1.72805,       1.33506,   617.865E-06
C:/temp/dataset/9/26_4.odb,Step-1,Increment      1: Step Time =    1.000,"PART-1-1",            59,          -15.,       14.6875,            0.,NA,NA,"",       2.09888,       1.61608,       1.33925,   713.183E-06
C:/temp/dataset/9/26_4.odb,Step-1,Increment      1: Step Time =    1.000,"PART-1-1",            60,          -15.,       10.3125,            0.,NA,NA,"",       1.93523,       1.38834,       1.34819,   797.437E-06
C:/temp/dataset/9/26_4.odb,Step-1,Increment      1: Step Time =    1.000,"PART-1-1",            61,          -15.,         8.125,            0.,NA,NA,"",       1.85724,       1.27247,       1.35283,   779.200E-06
C:/temp/dataset/9/26_4.odb,Step-1,Increment      1: Step Time =    1.000,"PART-1-1",            62,          -15.,        5.9375,            0.,NA,NA,"",       1.78248,       1.15527,       1.35742,   676.946E-06
C:/temp/dataset/9/26_4.odb,Step-1,Increment      1: Step Time =    1.000,"PART-1-1",            63,          -15.,        1.5625,            0.,NA,NA,"",       1.64551,   917.591E-03,       1.36592,   332.036E-06
C:/temp/dataset/9/26_4.odb,Step-1,Increment      1: Step Time =    1.000,"PART-1-1",            64,          -15.,     -625.E-03,            0.,NA,NA,"",       1.58507,   797.758E-03,       1.36968,   170.397E-06
C:/temp/dataset/9/26_4.odb,Step-1,Increment      1: Step Time =    1.000,"PART-1-1",            65,          -15.,       -2.8125,            0.,NA,NA,"",       1.53130,   677.678E-03,       1.37318,   49.1523E-06
C:/temp/dataset/9/26_4.odb,Step-1,Increment      1: Step Time =    1.000,"PART-1-1",            66,         -12.5,           -5.,            0.,NA,NA,"",       1.35746,   553.797E-03,       1.23936,   59.1542E-06
C:/temp/dataset/9/26_4.odb,Step-1,Increment      1: Step Time =    1.000,"PART-1-1",            67,          -7.5,           -5.,            0.,NA,NA,"",       1.10792,   545.660E-03,   964.232E-03,   45.0112E-06
C:/temp/dataset/9/26_4.odb,Step-1,Increment      1: Step Time =    1.000,"PART-1-1",            68,          -2.5,           -5.,            0.,NA,NA,"",   873.358E-03,   539.936E-03,   686.457E-03,   1.13995E-03
C:/temp/dataset/9/26_4.odb,Step-1,Increment      1: Step Time =    1.000,"PART-1-1",            69,           2.5,           -5.,            0.,NA,NA,"",   676.689E-03,   539.726E-03,   408.171E-03,   4.05525E-03
C:/temp/dataset/9/26_4.odb,Step-1,Increment      1: Step Time =    1.000,"PART-1-1",            70,            5.,      -7.08333,            0.,NA,NA,"",   522.511E-03,   469.563E-03,   229.191E-03,   13.1305E-03
C:/temp/dataset/9/26_4.odb,Step-1,Increment      1: Step Time =    1.000,"PART-1-1",            71,            5.,      -9.16667,            0.,NA,NA,"",   446.259E-03,   393.618E-03,   210.266E-03,   10.9713E-03
C:/temp/dataset/9/26_4.odb,Step-1,Increment      1: Step Time =    1.000,"PART-1-1",            72,            5.,      -13.3333,            0.,NA,NA,"",   309.915E-03,   258.726E-03,   170.612E-03,   11.2529E-03
C:/temp/dataset/9/26_4.odb,Step-1,Increment      1: Step Time =    1.000,"PART-1-1",            73,            5.,      -15.4167,            0.,NA,NA,"",   251.523E-03,   201.760E-03,   150.190E-03,   11.3811E-03
C:/temp/dataset/9/26_4.odb,Step-1,Increment      1: Step Time =    1.000,"PART-1-1",            74,            5.,      -19.5833,            0.,NA,NA,"",   154.248E-03,   109.887E-03,   108.246E-03,   11.5627E-03
C:/temp/dataset/9/26_4.odb,Step-1,Increment      1: Step Time =    1.000,"PART-1-1",            75,            5.,      -21.6667,            0.,NA,NA,"",   114.846E-03,   75.1637E-03,   86.8337E-03,   11.6196E-03
C:/temp/dataset/9/26_4.odb,Step-1,Increment      1: Step Time =    1.000,"PART-1-1",            76,            5.,      -25.8333,            0.,NA,NA,"",   51.9030E-03,   28.0984E-03,   43.6395E-03,   11.4401E-03
C:/temp/dataset/9/26_4.odb,Step-1,Increment      1: Step Time =    1.000,"PART-1-1",            77,            5.,      -27.9167,            0.,NA,NA,"",   26.8553E-03,   14.6994E-03,   22.4751E-03,   12.0804E-03
C:/temp/dataset/9/26_4.odb,Step-1,Increment      1: Step Time =    1.000,"PART-1-1",            78,           7.5,          -30.,            0.,NA,NA,"",            0.,  -595.524E-42,   19.1122E-39,   5.16146E-03
C:/temp/dataset/9/26_4.odb,Step-1,Increment      1: Step Time =    1.000,"PART-1-1",            79,           10.,          -30.,            0.,NA,NA,"",            0.,  -1.53178E-39,   4.05945E-39,   2.34140E-03
C:/temp/dataset/9/26_4.odb,Step-1,Increment      1: Step Time =    1.000,"PART-1-1",            80,          12.5,          -30.,            0.,NA,NA,"",            0.,   1.22718E-39,  -6.73529E-39,   2.69637E-03
C:/temp/dataset/9/26_4.odb,Step-1,Increment      1: Step Time =    1.000,"PART-1-1",            81,           15.,         -27.5,            0.,NA,NA,"",   19.4577E-03,   9.47543E-03,  -16.9947E-03,   8.17776E-03
C:/temp/dataset/9/26_4.odb,Step-1,Increment      1: Step Time =    1.000,"PART-1-1",            82,           15.,          -25.,            0.,NA,NA,"",   43.2700E-03,   25.7490E-03,  -34.7748E-03,   7.85790E-03
C:/temp/dataset/9/26_4.odb,Step-1,Increment      1: Step Time =    1.000,"PART-1-1",            83,           15.,          -20.,            0.,NA,NA,"",   115.151E-03,   91.4957E-03,  -69.9160E-03,   7.56729E-03
C:/temp/dataset/9/26_4.odb,Step-1,Increment      1: Step Time =    1.000,"PART-1-1",            84,           15.,         -17.5,            0.,NA,NA,"",   165.359E-03,   140.454E-03,  -87.2716E-03,   7.46135E-03
C:/temp/dataset/9/26_4.odb,Step-1,Increment      1: Step Time =    1.000,"PART-1-1",            85,           15.,         -12.5,            0.,NA,NA,"",   296.308E-03,   269.942E-03,  -122.188E-03,   7.35141E-03
C:/temp/dataset/9/26_4.odb,Step-1,Increment      1: Step Time =    1.000,"PART-1-1",            86,           15.,          -10.,            0.,NA,NA,"",   377.493E-03,   350.590E-03,  -139.956E-03,   7.28780E-03
C:/temp/dataset/9/26_4.odb,Step-1,Increment      1: Step Time =    1.000,"PART-1-1",            87,           15.,           -5.,            0.,NA,NA,"",   572.135E-03,   544.845E-03,  -174.590E-03,   6.01484E-03
C:/temp/dataset/9/26_4.odb,Step-1,Increment      1: Step Time =    1.000,"PART-1-1",            88,           15.,          -2.5,            0.,NA,NA,"",   683.883E-03,   657.264E-03,  -188.945E-03,   4.41693E-03
C:/temp/dataset/9/26_4.odb,Step-1,Increment      1: Step Time =    1.000,"PART-1-1",            89,           15.,           2.5,            0.,NA,NA,"",   923.202E-03,   899.652E-03,  -207.188E-03,   1.44746E-03
C:/temp/dataset/9/26_4.odb,Step-1,Increment      1: Step Time =    1.000,"PART-1-1",            90,           15.,            5.,            0.,NA,NA,"",       1.04634,       1.02447,  -212.792E-03,   897.986E-06
C:/temp/dataset/9/26_4.odb,Step-1,Increment      1: Step Time =    1.000,"PART-1-1",            91,           15.,           10.,            0.,NA,NA,"",       1.29803,       1.27871,  -223.109E-03,   899.840E-06
C:/temp/dataset/9/26_4.odb,Step-1,Increment      1: Step Time =    1.000,"PART-1-1",            92,           15.,          12.5,            0.,NA,NA,"",       1.42755,       1.40913,  -228.565E-03,   910.033E-06
C:/temp/dataset/9/26_4.odb,Step-1,Increment      1: Step Time =    1.000,"PART-1-1",            93,           15.,          17.5,            0.,NA,NA,"",       1.69466,       1.67767,  -239.356E-03,   574.589E-06
C:/temp/dataset/9/26_4.odb,Step-1,Increment      1: Step Time =    1.000,"PART-1-1",            94,           15.,           20.,            0.,NA,NA,"",       1.83162,       1.81529,  -244.037E-03,   208.622E-06
C:/temp/dataset/9/26_4.odb,Step-1,Increment      1: Step Time =    1.000,"PART-1-1",            95,           15.,           25.,            0.,NA,NA,"",       2.10811,       2.09306,  -251.474E-03,   124.753E-06
C:/temp/dataset/9/26_4.odb,Step-1,Increment      1: Step Time =    1.000,"PART-1-1",            96,           15.,          27.5,            0.,NA,NA,"",       2.24671,       2.23217,  -255.188E-03,   24.5226E-06
C:/temp/dataset/9/26_4.odb,Step-1,Increment      1: Step Time =    1.000,"PART-1-1",            97,       7.09255,      -21.6558,            0.,NA,NA,"",   86.8571E-03,   66.0666E-03,   56.3858E-03,   7.66828E-03
C:/temp/dataset/9/26_4.odb,Step-1,Increment      1: Step Time =    1.000,"PART-1-1",            98,       7.09346,      -17.4368,            0.,NA,NA,"",   167.026E-03,   144.093E-03,   84.4681E-03,   7.54914E-03
C:/temp/dataset/9/26_4.odb,Step-1,Increment      1: Step Time =    1.000,"PART-1-1",            99,       7.15828,      -23.7452,            0.,NA,NA,"",   56.6060E-03,   38.6053E-03,   41.3989E-03,   7.60956E-03
C:/temp/dataset/9/26_4.odb,Step-1,Increment      1: Step Time =    1.000,"PART-1-1",           100,       7.44609,      -27.8729,            0.,NA,NA,"",   13.3235E-03,   5.61007E-03,   12.0848E-03,   7.35275E-03
C:/temp/dataset/9/26_4.odb,Step-1,Increment      1: Step Time =    1.000,"PART-1-1",           101,       7.30780,      -25.7939,            0.,NA,NA,"",   32.0324E-03,   18.5805E-03,   26.0929E-03,   7.61988E-03
C:/temp/dataset/9/26_4.odb,Step-1,Increment      1: Step Time =    1.000,"PART-1-1",           102,       7.08258,      -10.9526,            0.,NA,NA,"",   346.490E-03,   322.818E-03,   125.874E-03,   7.42217E-03
C:/temp/dataset/9/26_4.odb,Step-1,Increment      1: Step Time =    1.000,"PART-1-1",           103,       7.09950,      -13.1236,            0.,NA,NA,"",   278.662E-03,   255.189E-03,   111.943E-03,   7.45997E-03
C:/temp/dataset/9/26_4.odb,Step-1,Increment      1: Step Time =    1.000,"PART-1-1",           104,       6.95448,      -6.62029,            0.,NA,NA,"",   504.017E-03,   479.310E-03,   155.867E-03,   7.40068E-03
C:/temp/dataset/9/26_4.odb,Step-1,Increment      1: Step Time =    1.000,"PART-1-1",           105,       7.04974,      -8.78764,            0.,NA,NA,"",   421.569E-03,   397.473E-03,   140.485E-03,   7.72505E-03
C:/temp/dataset/9/26_4.odb,Step-1,Increment      1: Step Time =    1.000,"PART-1-1",           106,       7.10540,      -15.2896,            0.,NA,NA,"",   218.683E-03,   195.463E-03,   98.0641E-03,   7.47731E-03
C:/temp/dataset/9/26_4.odb,Step-1,Increment      1: Step Time =    1.000,"PART-1-1",           107,       7.08223,      -19.5608,            0.,NA,NA,"",   123.274E-03,   101.017E-03,   70.6556E-03,   7.62213E-03
C:/temp/dataset/9/26_4.odb,Step-1,Increment      1: Step Time =    1.000,"PART-1-1",           108,      -11.8989,       25.3809,            0.,NA,NA,"",       2.44756,       2.15128,       1.16726,   133.536E-06
C:/temp/dataset/9/26_4.odb,Step-1,Increment      1: Step Time =    1.000,"PART-1-1",           109,      -12.7134,       3.51066,            0.,NA,NA,"",       1.60472,       1.02078,       1.23819,   237.372E-06
C:/temp/dataset/9/26_4.odb,Step-1,Increment      1: Step Time =    1.000,"PART-1-1",           110,      -13.0834,       10.3867,            0.,NA,NA,"",       1.86743,       1.39003,       1.24704,   228.806E-06
C:/temp/dataset/9/26_4.odb,Step-1,Increment      1: Step Time =    1.000,"PART-1-1",           111,      -12.9355,       8.20912,            0.,NA,NA,"",       1.78005,       1.27448,       1.24269,   201.306E-06
C:/temp/dataset/9/26_4.odb,Step-1,Increment      1: Step Time =    1.000,"PART-1-1",           112,      -13.1801,       12.5484,            0.,NA,NA,"",       1.95428,       1.50332,       1.24869,   240.625E-06
C:/temp/dataset/9/26_4.odb,Step-1,Increment      1: Step Time =    1.000,"PART-1-1",           113,      -12.7454,       20.6010,            0.,NA,NA,"",       2.26681,       1.91362,       1.21512,   217.272E-06
C:/temp/dataset/9/26_4.odb,Step-1,Increment      1: Step Time =    1.000,"PART-1-1",           114,      -13.1621,       18.5389,            0.,NA,NA,"",       2.19368,       1.81036,       1.23889,   211.735E-06
C:/temp/dataset/9/26_4.odb,Step-1,Increment      1: Step Time =    1.000,"PART-1-1",           115,      -12.3840,       22.8683,            0.,NA,NA,"",       2.35231,       2.02657,       1.19429,   196.745E-06
C:/temp/dataset/9/26_4.odb,Step-1,Increment      1: Step Time =    1.000,"PART-1-1",           116,      -13.4658,       16.5948,            0.,NA,NA,"",       2.12408,       1.71208,       1.25719,   265.699E-06
C:/temp/dataset/9/26_4.odb,Step-1,Increment      1: Step Time =    1.000,"PART-1-1",           117,      -13.3466,       14.6489,            0.,NA,NA,"",       2.04255,       1.61225,       1.25405,   264.552E-06
C:/temp/dataset/9/26_4.odb,Step-1,Increment      1: Step Time =    1.000,"PART-1-1",           118,      -12.3609,       5.76892,            0.,NA,NA,"",       1.66853,       1.14280,       1.21573,   185.782E-06
C:/temp/dataset/9/26_4.odb,Step-1,Increment      1: Step Time =    1.000,"PART-1-1",           119,      -12.8583,       1.39410,            0.,NA,NA,"",       1.54288,   905.356E-03,       1.24933,   200.983E-06
C:/temp/dataset/9/26_4.odb,Step-1,Increment      1: Step Time =    1.000,"PART-1-1",           120,      -12.6304,  -685.754E-03,            0.,NA,NA,"",       1.47081,   790.955E-03,       1.24003,   162.264E-06
C:/temp/dataset/9/26_4.odb,Step-1,Increment      1: Step Time =    1.000,"PART-1-1",           121,   38.5673E-03,       27.2989,            0.,NA,NA,"",       2.30870,       2.23631,   573.604E-03,   1.51251E-03
C:/temp/dataset/9/26_4.odb,Step-1,Increment      1: Step Time =    1.000,"PART-1-1",           122,      -4.16985,       22.2766,            0.,NA,NA,"",       2.13314,       1.98198,   788.708E-03,   1.91360E-03
C:/temp/dataset/9/26_4.odb,Step-1,Increment      1: Step Time =    1.000,"PART-1-1",           123,      -7.85548,       28.0855,            0.,NA,NA,"",       2.47646,       2.28118,   963.878E-03,   500.376E-06
C:/temp/dataset/9/26_4.odb,Step-1,Increment      1: Step Time =    1.000,"PART-1-1",           124,       9.92813,      -27.7267,            0.,NA,NA,"",   3.95374E-03,   1.69291E-03,   3.57297E-03,   2.10963E-03
C:/temp/dataset/9/26_4.odb,Step-1,Increment      1: Step Time =    1.000,"PART-1-1",           125,       13.1106,      -17.4438,            0.,NA,NA,"",   144.898E-03,   137.321E-03,  -46.2423E-03,   3.86367E-03
C:/temp/dataset/9/26_4.odb,Step-1,Increment      1: Step Time =    1.000,"PART-1-1",           126,       12.8150,       2.64061,            0.,NA,NA,"",   914.036E-03,   908.513E-03,  -100.332E-03,   1.07593E-03
C:/temp/dataset/9/26_4.odb,Step-1,Increment      1: Step Time =    1.000,"PART-1-1",           127,       7.56819,       12.3225,            0.,NA,NA,"",       1.42148,       1.41219,   162.234E-03,   2.39433E-03
C:/temp/dataset/9/26_4.odb,Step-1,Increment      1: Step Time =    1.000,"PART-1-1",           128,       7.47113,       19.8748,            0.,NA,NA,"",       1.83065,       1.82262,   171.293E-03,   1.87439E-03
C:/temp/dataset/9/26_4.odb,Step-1,Increment      1: Step Time =    1.000,"PART-1-1",           129,       12.4223,       27.5153,            0.,NA,NA,"",       2.23983,       2.23706,  -111.332E-03,   246.109E-06
C:/temp/dataset/9/26_4.odb,Step-1,Increment      1: Step Time =    1.000,"PART-1-1",           130,       12.3750,       22.5091,            0.,NA,NA,"",       1.96165,       1.95898,  -102.379E-03,   498.111E-06
C:/temp/dataset/9/26_4.odb,Step-1,Increment      1: Step Time =    1.000,"PART-1-1",           131,       7.58839,       27.9970,            0.,NA,NA,"",       2.27621,       2.27059,   159.906E-03,   1.18057E-03
C:/temp/dataset/9/26_4.odb,Step-1,Increment      1: Step Time =    1.000,"PART-1-1",           132,   199.805E-03,       22.3057,            0.,NA,NA,"",       2.05725,       1.97459,   577.285E-03,   2.86315E-03
C:/temp/dataset/9/26_4.odb,Step-1,Increment      1: Step Time =    1.000,"PART-1-1",           133,       12.6934,       9.82310,            0.,NA,NA,"",       1.27642,       1.27222,  -103.541E-03,   64.6038E-06
C:/temp/dataset/9/26_4.odb,Step-1,Increment      1: Step Time =    1.000,"PART-1-1",           134,      -7.14717,       12.7802,            0.,NA,NA,"",       1.77182,       1.50559,   934.106E-03,   1.49987E-03
C:/temp/dataset/9/26_4.odb,Step-1,Increment      1: Step Time =    1.000,"PART-1-1",           135,      -6.86178,       17.9412,            0.,NA,NA,"",       1.99515,       1.77061,   919.545E-03,   1.47561E-03
C:/temp/dataset/9/26_4.odb,Step-1,Increment      1: Step Time =    1.000,"PART-1-1",           136,      -2.68307,      -2.95682,            0.,NA,NA,"",   951.431E-03,   652.235E-03,   692.684E-03,   1.21247E-03
C:/temp/dataset/9/26_4.odb,Step-1,Increment      1: Step Time =    1.000,"PART-1-1",           137,      -7.59808,      -3.03341,            0.,NA,NA,"",       1.16724,   654.173E-03,   966.703E-03,   330.185E-06
C:/temp/dataset/9/26_4.odb,Step-1,Increment      1: Step Time =    1.000,"PART-1-1",           138,  -248.196E-03,       2.69947,            0.,NA,NA,"",       1.09756,   950.379E-03,   549.008E-03,   1.88180E-03
C:/temp/dataset/9/26_4.odb,Step-1,Increment      1: Step Time =    1.000,"PART-1-1",           139,       2.16631,      -2.47375,            0.,NA,NA,"",   796.732E-03,   675.625E-03,   422.270E-03,   3.46909E-03
C:/temp/dataset/9/26_4.odb,Step-1,Increment      1: Step Time =    1.000,"PART-1-1",           140,       4.39271,       2.43636,            0.,NA,NA,"",   972.332E-03,   923.303E-03,   304.862E-03,   2.90774E-03
C:/temp/dataset/9/26_4.odb,Step-1,Increment      1: Step Time =    1.000,"PART-1-1",           141,       12.9283,      -5.27800,            0.,NA,NA,"",   537.332E-03,   530.470E-03,  -85.6006E-03,   3.21748E-03
C:/temp/dataset/9/26_4.odb,Step-1,Increment      1: Step Time =    1.000,"PART-1-1",           142,       13.0847,      -12.6172,            0.,NA,NA,"",   270.129E-03,   262.529E-03,  -63.6286E-03,   3.71224E-03
C:/temp/dataset/9/26_4.odb,Step-1,Increment      1: Step Time =    1.000,"PART-1-1",           143,       12.4838,       17.4790,            0.,NA,NA,"",       1.68318,       1.68006,  -102.320E-03,   449.024E-06
C:/temp/dataset/9/26_4.odb,Step-1,Increment      1: Step Time =    1.000,"PART-1-1",           144,       2.63438,       22.2143,            0.,NA,NA,"",       2.01787,       1.96675,   451.322E-03,   3.32723E-03
C:/temp/dataset/9/26_4.odb,Step-1,Increment      1: Step Time =    1.000,"PART-1-1",           145,       7.54366,       14.9275,            0.,NA,NA,"",       1.55972,       1.55091,   165.501E-03,   2.41613E-03
C:/temp/dataset/9/26_4.odb,Step-1,Increment      1: Step Time =    1.000,"PART-1-1",           146,       7.50510,       17.4443,            0.,NA,NA,"",       1.69585,       1.68744,   168.672E-03,   2.17109E-03
C:/temp/dataset/9/26_4.odb,Step-1,Increment      1: Step Time =    1.000,"PART-1-1",           147,       7.12790,       7.03873,            0.,NA,NA,"",       1.15478,       1.14066,   179.983E-03,   2.43459E-03
C:/temp/dataset/9/26_4.odb,Step-1,Increment      1: Step Time =    1.000,"PART-1-1",           148,       7.48952,       9.64170,            0.,NA,NA,"",       1.28300,       1.27246,   164.104E-03,   2.47025E-03
C:/temp/dataset/9/26_4.odb,Step-1,Increment      1: Step Time =    1.000,"PART-1-1",           149,       2.16717,       2.56251,            0.,NA,NA,"",       1.02598,   936.690E-03,   418.614E-03,   1.70318E-03
C:/temp/dataset/9/26_4.odb,Step-1,Increment      1: Step Time =    1.000,"PART-1-1",           150,      -2.68606,       3.12146,            0.,NA,NA,"",       1.19460,   979.125E-03,   684.394E-03,   1.77635E-03
C:/temp/dataset/9/26_4.odb,Step-1,Increment      1: Step Time =    1.000,"PART-1-1",           151,      -7.08307,       10.2840,            0.,NA,NA,"",       1.66016,       1.37472,   930.733E-03,   1.57307E-03
C:/temp/dataset/9/26_4.odb,Step-1,Increment      1: Step Time =    1.000,"PART-1-1",           152,      -2.13928,       22.2031,            0.,NA,NA,"",       2.09132,       1.97388,   690.939E-03,   2.13990E-03
C:/temp/dataset/9/26_4.odb,Step-1,Increment      1: Step Time =    1.000,"PART-1-1",           153,       9.90766,       27.6812,            0.,NA,NA,"",       2.25032,       2.25013,   29.5804E-03,   693.139E-06
C:/temp/dataset/9/26_4.odb,Step-1,Increment      1: Step Time =    1.000,"PART-1-1",           154,       5.18317,       27.8350,            0.,NA,NA,"",       2.28300,       2.26381,   295.423E-03,   1.62460E-03
C:/temp/dataset/9/26_4.odb,Step-1,Increment      1: Step Time =    1.000,"PART-1-1",           155,       2.70091,       27.4744,            0.,NA,NA,"",       2.28674,       2.24539,   432.852E-03,   1.56077E-03
C:/temp/dataset/9/26_4.odb,Step-1,Increment      1: Step Time =    1.000,"PART-1-1",           156,      -2.92570,       26.9909,            0.,NA,NA,"",       2.33617,       2.22143,   723.157E-03,   1.58841E-03
C:/temp/dataset/9/26_4.odb,Step-1,Increment      1: Step Time =    1.000,"PART-1-1",           157,      -5.52449,       27.7330,            0.,NA,NA,"",       2.41561,       2.26119,   849.810E-03,   1.06723E-03
C:/temp/dataset/9/26_4.odb,Step-1,Increment      1: Step Time =    1.000,"PART-1-1",           158,      -10.1759,       28.1970,            0.,NA,NA,"",       2.53070,       2.28942,       1.07840,   140.142E-06
C:/temp/dataset/9/26_4.odb,Step-1,Increment      1: Step Time =    1.000,"PART-1-1",           159,      -7.15795,       15.3782,            0.,NA,NA,"",       1.88773,       1.64009,   934.676E-03,   1.48984E-03
C:/temp/dataset/9/26_4.odb,Step-1,Increment      1: Step Time =    1.000,"PART-1-1",           160,      -7.10855,       7.92361,            0.,NA,NA,"",       1.55915,       1.24975,   932.250E-03,   1.60172E-03
C:/temp/dataset/9/26_4.odb,Step-1,Increment      1: Step Time =    1.000,"PART-1-1",           161,      -7.31416,       5.72319,            0.,NA,NA,"",       1.47392,       1.13217,   943.740E-03,   1.05334E-03
C:/temp/dataset/9/26_4.odb,Step-1,Increment      1: Step Time =    1.000,"PART-1-1",           162,      -10.0288,      -2.82434,            0.,NA,NA,"",       1.28814,   669.452E-03,       1.10052,   76.0975E-06
C:/temp/dataset/9/26_4.odb,Step-1,Increment      1: Step Time =    1.000,"PART-1-1",           163,      -5.14639,      -3.11924,            0.,NA,NA,"",       1.05219,   646.025E-03,   830.517E-03,   751.127E-06
C:/temp/dataset/9/26_4.odb,Step-1,Increment      1: Step Time =    1.000,"PART-1-1",           164,  -261.821E-03,      -2.60038,            0.,NA,NA,"",   871.457E-03,   670.246E-03,   556.963E-03,   1.98576E-03
C:/temp/dataset/9/26_4.odb,Step-1,Increment      1: Step Time =    1.000,"PART-1-1",           165,       4.38015,      -2.33295,            0.,NA,NA,"",   744.281E-03,   681.026E-03,   300.262E-03,   4.10366E-03
C:/temp/dataset/9/26_4.odb,Step-1,Increment      1: Step Time =    1.000,"PART-1-1",           166,       13.0639,      -10.1924,            0.,NA,NA,"",   347.939E-03,   340.362E-03,  -72.2163E-03,   3.63209E-03
C:/temp/dataset/9/26_4.odb,Step-1,Increment      1: Step Time =    1.000,"PART-1-1",           167,       13.0843,      -19.8267,            0.,NA,NA,"",   97.2247E-03,   89.9246E-03,  -36.9624E-03,   3.88394E-03
C:/temp/dataset/9/26_4.odb,Step-1,Increment      1: Step Time =    1.000,"PART-1-1",           168,       12.4446,      -27.5067,            0.,NA,NA,"",   7.04608E-03,   3.60857E-03,  -6.05190E-03,   3.14189E-03
C:/temp/dataset/9/26_4.odb,Step-1,Increment      1: Step Time =    1.000,"PART-1-1",           169,       12.9329,      -22.1971,            0.,NA,NA,"",   58.4144E-03,   52.1689E-03,  -26.2801E-03,   3.64675E-03
C:/temp/dataset/9/26_4.odb,Step-1,Increment      1: Step Time =    1.000,"PART-1-1",           170,       13.1086,      -15.0383,            0.,NA,NA,"",   202.494E-03,   194.833E-03,  -55.1707E-03,   3.80576E-03
C:/temp/dataset/9/26_4.odb,Step-1,Increment      1: Step Time =    1.000,"PART-1-1",           171,       13.0208,      -7.75462,            0.,NA,NA,"",   436.534E-03,   429.131E-03,  -80.0539E-03,   3.48108E-03
C:/temp/dataset/9/26_4.odb,Step-1,Increment      1: Step Time =    1.000,"PART-1-1",           172,       12.7756,      -2.70708,            0.,NA,NA,"",   652.543E-03,   646.674E-03,  -87.3164E-03,   2.80605E-03
C:/temp/dataset/9/26_4.odb,Step-1,Increment      1: Step Time =    1.000,"PART-1-1",           173,       12.6338,  -14.4220E-03,            0.,NA,NA,"",   781.644E-03,   776.762E-03,  -87.2278E-03,   2.10656E-03
C:/temp/dataset/9/26_4.odb,Step-1,Increment      1: Step Time =    1.000,"PART-1-1",           174,       13.0186,       5.13380,            0.,NA,NA,"",       1.03950,       1.03324,  -113.896E-03,   335.988E-06
C:/temp/dataset/9/26_4.odb,Step-1,Increment      1: Step Time =    1.000,"PART-1-1",           175,       13.0709,       7.51902,            0.,NA,NA,"",       1.15991,       1.15371,  -119.814E-03,   115.504E-06
C:/temp/dataset/9/26_4.odb,Step-1,Increment      1: Step Time =    1.000,"PART-1-1",           176,       12.5119,       12.3699,            0.,NA,NA,"",       1.40866,       1.40530,  -97.3060E-03,   169.606E-06
C:/temp/dataset/9/26_4.odb,Step-1,Increment      1: Step Time =    1.000,"PART-1-1",           177,       12.4863,       14.9454,            0.,NA,NA,"",       1.54564,       1.54246,  -99.1901E-03,   272.486E-06
C:/temp/dataset/9/26_4.odb,Step-1,Increment      1: Step Time =    1.000,"PART-1-1",           178,       12.4500,       19.9932,            0.,NA,NA,"",       1.82183,       1.81888,  -103.617E-03,   565.937E-06
C:/temp/dataset/9/26_4.odb,Step-1,Increment      1: Step Time =    1.000,"PART-1-1",           179,       9.19048,      -23.6482,            0.,NA,NA,"",   39.5005E-03,   34.3117E-03,   19.5703E-03,   3.74438E-03
C:/temp/dataset/9/26_4.odb,Step-1,Increment      1: Step Time =    1.000,"PART-1-1",           180,       9.11932,      -19.5624,            0.,NA,NA,"",   101.210E-03,   95.3944E-03,   33.8128E-03,   3.76158E-03
C:/temp/dataset/9/26_4.odb,Step-1,Increment      1: Step Time =    1.000,"PART-1-1",           181,       9.13323,      -12.9344,            0.,NA,NA,"",   260.396E-03,   254.803E-03,   53.6801E-03,   3.69328E-03
C:/temp/dataset/9/26_4.odb,Step-1,Increment      1: Step Time =    1.000,"PART-1-1",           182,       9.14303,      -17.4019,            0.,NA,NA,"",   144.826E-03,   139.158E-03,   40.1205E-03,   3.69449E-03
C:/temp/dataset/9/26_4.odb,Step-1,Increment      1: Step Time =    1.000,"PART-1-1",           183,       9.11260,      -10.6744,            0.,NA,NA,"",   331.571E-03,   325.984E-03,   60.6089E-03,   3.66958E-03
C:/temp/dataset/9/26_4.odb,Step-1,Increment      1: Step Time =    1.000,"PART-1-1",           184,       9.06671,      -8.40676,            0.,NA,NA,"",   411.383E-03,   405.725E-03,   67.9959E-03,   3.28239E-03
C:/temp/dataset/9/26_4.odb,Step-1,Increment      1: Step Time =    1.000,"PART-1-1",           185,       9.15359,      -15.1846,            0.,NA,NA,"",   197.894E-03,   192.341E-03,   46.5492E-03,   3.66886E-03
C:/temp/dataset/9/26_4.odb,Step-1,Increment      1: Step Time =    1.000,"PART-1-1",           186,       9.09437,      -21.6308,            0.,NA,NA,"",   66.8781E-03,   60.9897E-03,   27.4396E-03,   3.84967E-03
C:/temp/dataset/9/26_4.odb,Step-1,Increment      1: Step Time =    1.000,"PART-1-1",           187,       8.94944,      -6.10597,            0.,NA,NA,"",   501.843E-03,   495.956E-03,   76.6404E-03,   2.57720E-03
C:/temp/dataset/9/26_4.odb,Step-1,Increment      1: Step Time =    1.000,"PART-1-1",           188,      -11.3189,       17.6054,            0.,NA,NA,"",       2.10090,       1.76068,       1.14620,   320.365E-06
C:/temp/dataset/9/26_4.odb,Step-1,Increment      1: Step Time =    1.000,"PART-1-1",           189,      -10.4260,       2.85148,            0.,NA,NA,"",       1.48533,   981.275E-03,       1.11504,   450.186E-06
C:/temp/dataset/9/26_4.odb,Step-1,Increment      1: Step Time =    1.000,"PART-1-1",           190,      -12.4413,       27.8959,            0.,NA,NA,"",       2.57003,       2.27725,       1.19130,   22.1760E-06
C:/temp/dataset/9/26_4.odb,Step-1,Increment      1: Step Time =    1.000,"PART-1-1",           191,      -10.6658,       19.6683,            0.,NA,NA,"",       2.16992,       1.86392,       1.11101,   482.222E-06
C:/temp/dataset/9/26_4.odb,Step-1,Increment      1: Step Time =    1.000,"PART-1-1",           192,      -12.1118,       16.4066,            0.,NA,NA,"",       2.07466,       1.70077,       1.18810,   167.162E-06
C:/temp/dataset/9/26_4.odb,Step-1,Increment      1: Step Time =    1.000,"PART-1-1",           193,      -11.5166,       14.9043,            0.,NA,NA,"",       1.99450,       1.62299,       1.15927,   261.031E-06
C:/temp/dataset/9/26_4.odb,Step-1,Increment      1: Step Time =    1.000,"PART-1-1",           194,      -11.2054,       12.7278,            0.,NA,NA,"",       1.89530,       1.50995,       1.14551,   330.146E-06
C:/temp/dataset/9/26_4.odb,Step-1,Increment      1: Step Time =    1.000,"PART-1-1",           195,      -11.1139,       10.5020,            0.,NA,NA,"",       1.80226,       1.39335,       1.14312,   329.711E-06
C:/temp/dataset/9/26_4.odb,Step-1,Increment      1: Step Time =    1.000,"PART-1-1",           196,      -9.42029,       24.1195,            0.,NA,NA,"",       2.33202,       2.08472,       1.04511,   586.714E-06
C:/temp/dataset/9/26_4.odb,Step-1,Increment      1: Step Time =    1.000,"PART-1-1",           197,      -11.0759,       8.46025,            0.,NA,NA,"",       1.72024,       1.28524,       1.14341,   294.426E-06
C:/temp/dataset/9/26_4.odb,Step-1,Increment      1: Step Time =    1.000,"PART-1-1",           198,      -10.9473,       6.84821,            0.,NA,NA,"",       1.65328,       1.19888,       1.13844,   286.933E-06
C:/temp/dataset/9/26_4.odb,Step-1,Increment      1: Step Time =    1.000,"PART-1-1",           199,       9.64075,      -25.5803,            0.,NA,NA,"",   17.7706E-03,   14.8163E-03,   9.81190E-03,   2.83062E-03
C:/temp/dataset/9/26_4.odb,Step-1,Increment      1: Step Time =    1.000,"PART-1-1",           200,       6.22595,      -2.03957,            0.,NA,NA,"",   720.201E-03,   690.151E-03,   205.866E-03,   5.14583E-03
C:/temp/dataset/9/26_4.odb,Step-1,Increment      1: Step Time =    1.000,"PART-1-1",           201,       6.24072,       2.15031,            0.,NA,NA,"",   927.213E-03,   902.080E-03,   214.420E-03,   4.34212E-03
C:/temp/dataset/9/26_4.odb,Step-1,Increment      1: Step Time =    1.000,"PART-1-1",           202,      -7.69234,       3.89067,            0.,NA,NA,"",       1.41385,       1.03306,   965.272E-03,   1.08489E-03
C:/temp/dataset/9/26_4.odb,Step-1,Increment      1: Step Time =    1.000,"PART-1-1",           203,       7.31807,       22.0589,            0.,NA,NA,"",       1.95446,       1.94613,   180.197E-03,   2.59748E-03
C:/temp/dataset/9/26_4.odb,Step-1,Increment      1: Step Time =    1.000,"PART-1-1",           204,      -6.44398,       20.4265,            0.,NA,NA,"",       2.09712,       1.89481,   898.677E-03,   1.42018E-03
C:/temp/dataset/9/26_4.odb,Step-1,Increment      1: Step Time =    1.000,"PART-1-1",           205,       12.2962,       25.0128,            0.,NA,NA,"",       2.10071,       2.09829,  -100.875E-03,   401.385E-06
C:/temp/dataset/9/26_4.odb,Step-1,Increment      1: Step Time =    1.000,"PART-1-1",           206,       12.2257,      -24.8009,            0.,NA,NA,"",   23.9749E-03,   21.2761E-03,  -11.0508E-03,   2.42138E-03
C:/temp/dataset/9/26_4.odb,Step-1,Increment      1: Step Time =    1.000,"PART-1-1",           207,      -2.06005,       24.5200,            0.,NA,NA,"",       2.20187,       2.09283,   684.319E-03,   1.95467E-03
C:/temp/dataset/9/26_4.odb,Step-1,Increment      1: Step Time =    1.000,"PART-1-1",           208,       9.31619,       25.0673,            0.,NA,NA,"",       2.10806,       2.10703,   66.1088E-03,   1.17603E-03
C:/temp/dataset/9/26_4.odb,Step-1,Increment      1: Step Time =    1.000,"PART-1-1",           209,       3.21447,       24.8112,            0.,NA,NA,"",       2.14371,       2.10392,   411.139E-03,   1.93744E-03
C:/temp/dataset/9/26_4.odb,Step-1,Increment      1: Step Time =    1.000,"PART-1-1",           210,      -7.52022,      -1.18711,            0.,NA,NA,"",       1.22134,   755.175E-03,   959.885E-03,   602.578E-06
C:/temp/dataset/9/26_4.odb,Step-1,Increment      1: Step Time =    1.000,"PART-1-1",           211,       10.0127,       14.9017,            0.,NA,NA,"",       1.54459,       1.54423,   33.1702E-03,   1.16203E-03
C:/temp/dataset/9/26_4.odb,Step-1,Increment      1: Step Time =    1.000,"PART-1-1",           212,       10.7293,       3.02357,            0.,NA,NA,"",   931.162E-03,   931.162E-03,   45.9998E-06,   1.87301E-03
C:/temp/dataset/9/26_4.odb,Step-1,Increment      1: Step Time =    1.000,"PART-1-1",           213,       11.4837,       7.36813,            0.,NA,NA,"",       1.14898,       1.14832,  -39.1641E-03,   582.655E-06
C:/temp/dataset/9/26_4.odb,Step-1,Increment      1: Step Time =    1.000,"PART-1-1",           214,      -9.20573,       12.9161,            0.,NA,NA,"",       1.83955,       1.51652,       1.04120,   899.669E-06
C:/temp/dataset/9/26_4.odb,Step-1,Increment      1: Step Time =    1.000,"PART-1-1",           215,   314.418E-03,       24.7704,            0.,NA,NA,"",       2.17824,       2.10363,   565.204E-03,   1.74746E-03
C:/temp/dataset/9/26_4.odb,Step-1,Increment      1: Step Time =    1.000,"PART-1-1",           216,       7.52406,       26.3727,            0.,NA,NA,"",       2.18819,       2.18189,   166.003E-03,   1.46632E-03
C:/temp/dataset/9/26_4.odb,Step-1,Increment      1: Step Time =    1.000,"PART-1-1",           217,  -811.906E-03,   82.6841E-03,            0.,NA,NA,"",       1.00070,   813.268E-03,   583.095E-03,   1.83621E-03
C:/temp/dataset/9/26_4.odb,Step-1,Increment      1: Step Time =    1.000,"PART-1-1",           218,       11.1400,      -19.6444,            0.,NA,NA,"",   91.8699E-03,   91.8312E-03,  -2.66457E-03,   235.000E-06
C:/temp/dataset/9/26_4.odb,Step-1,Increment      1: Step Time =    1.000,"PART-1-1",           219,       11.1036,      -10.4226,            0.,NA,NA,"",   331.966E-03,   331.922E-03,  -5.40578E-03,   191.165E-06
C:/temp/dataset/9/26_4.odb,Step-1,Increment      1: Step Time =    1.000,"PART-1-1",           220,       10.9280,      -5.64335,            0.,NA,NA,"",   514.486E-03,   514.476E-03,  -3.17334E-03,   1.76785E-03
C:/temp/dataset/9/26_4.odb,Step-1,Increment      1: Step Time =    1.000,"PART-1-1",           221,       11.0667,       5.48495,            0.,NA,NA,"",       1.05408,       1.05394,  -17.1106E-03,   1.02504E-03
C:/temp/dataset/9/26_4.odb,Step-1,Increment      1: Step Time =    1.000,"PART-1-1",           222,       11.1390,      -12.7671,            0.,NA,NA,"",   257.322E-03,   257.270E-03,  -5.21206E-03,   134.149E-06
C:/temp/dataset/9/26_4.odb,Step-1,Increment      1: Step Time =    1.000,"PART-1-1",           223,       11.1627,      -15.1016,            0.,NA,NA,"",   192.229E-03,   192.170E-03,  -4.77569E-03,   181.915E-06
C:/temp/dataset/9/26_4.odb,Step-1,Increment      1: Step Time =    1.000,"PART-1-1",           224,      -9.10801,       10.4728,            0.,NA,NA,"",       1.73330,       1.38855,       1.03744,   911.349E-06
C:/temp/dataset/9/26_4.odb,Step-1,Increment      1: Step Time =    1.000,"PART-1-1",           225,      -9.12162,       8.28854,            0.,NA,NA,"",       1.64350,       1.27300,       1.03950,   801.309E-06
C:/temp/dataset/9/26_4.odb,Step-1,Increment      1: Step Time =    1.000,"PART-1-1",           226,      -8.73753,       18.6317,            0.,NA,NA,"",       2.07373,       1.80881,       1.01418,   785.859E-06
C:/temp/dataset/9/26_4.odb,Step-1,Increment      1: Step Time =    1.000,"PART-1-1",           227,      -9.90634,  -397.381E-03,            0.,NA,NA,"",       1.35393,   802.466E-03,       1.09049,   276.421E-06
C:/temp/dataset/9/26_4.odb,Step-1,Increment      1: Step Time =    1.000,"PART-1-1",           228,       9.93939,       19.9385,            0.,NA,NA,"",       1.82086,       1.82054,   34.3821E-03,   1.21105E-03
C:/temp/dataset/9/26_4.odb,Step-1,Increment      1: Step Time =    1.000,"PART-1-1",           229,       5.70370,       25.8085,            0.,NA,NA,"",       2.17102,       2.15418,   269.824E-03,   1.93433E-03
C:/temp/dataset/9/26_4.odb,Step-1,Increment      1: Step Time =    1.000,"PART-1-1",           230,       10.0348,       12.2094,            0.,NA,NA,"",       1.40133,       1.40094,   32.8811E-03,   1.22771E-03
C:/temp/dataset/9/26_4.odb,Step-1,Increment      1: Step Time =    1.000,"PART-1-1",           231,       9.98921,       17.4486,            0.,NA,NA,"",       1.68288,       1.68255,   33.1700E-03,   992.130E-06
C:/temp/dataset/9/26_4.odb,Step-1,Increment      1: Step Time =    1.000,"PART-1-1",           232,       10.1044,       9.10575,            0.,NA,NA,"",       1.23976,       1.23940,   30.1525E-03,   1.14433E-03
C:/temp/dataset/9/26_4.odb,Step-1,Increment      1: Step Time =    1.000,"PART-1-1",           233,      -3.11139,      -1.10310,            0.,NA,NA,"",       1.03730,   752.895E-03,   713.548E-03,   1.55368E-03
C:/temp/dataset/9/26_4.odb,Step-1,Increment      1: Step Time =    1.000,"PART-1-1",           234,      -6.48507,       25.5695,            0.,NA,NA,"",       2.33320,       2.15293,   899.286E-03,   1.16633E-03
C:/temp/dataset/9/26_4.odb,Step-1,Increment      1: Step Time =    1.000,"PART-1-1",           235,      -4.76537,       24.8732,            0.,NA,NA,"",       2.26687,       2.11495,   815.901E-03,   1.62867E-03
C:/temp/dataset/9/26_4.odb,Step-1,Increment      1: Step Time =    1.000,"PART-1-1",           236,      -8.46351,       26.0628,            0.,NA,NA,"",       2.39736,       2.18062,   996.101E-03,   621.948E-06
C:/temp/dataset/9/26_4.odb,Step-1,Increment      1: Step Time =    1.000,"PART-1-1",           237,      -9.50218,       15.8804,            0.,NA,NA,"",       1.97525,       1.67005,       1.05476,   746.172E-06
C:/temp/dataset/9/26_4.odb,Step-1,Increment      1: Step Time =    1.000,"PART-1-1",           238,      -5.29510,      -1.38770,            0.,NA,NA,"",       1.11708,   740.640E-03,   836.258E-03,   1.05516E-03
C:/temp/dataset/9/26_4.odb,Step-1,Increment      1: Step Time =    1.000,"PART-1-1",           239,       11.0587,      -21.7318,            0.,NA,NA,"",   57.5033E-03,   57.4951E-03,  -974.127E-06,   248.472E-06
C:/temp/dataset/9/26_4.odb,Step-1,Increment      1: Step Time =    1.000,"PART-1-1",           240,       11.1670,      -17.4071,            0.,NA,NA,"",   136.941E-03,   136.885E-03,  -3.92696E-03,   229.650E-06
C:/temp/dataset/9/26_4.odb,Step-1,Increment      1: Step Time =    1.000,"PART-1-1",           241,       11.0513,      -8.06140,            0.,NA,NA,"",   416.839E-03,   416.804E-03,  -5.37683E-03,   715.838E-06
C:/temp/dataset/9/26_4.odb,Step-1,Increment      1: Step Time =    1.000,"PART-1-1",           242,       10.1357,   7.39639E-03,            0.,NA,NA,"",   782.030E-03,   781.535E-03,   27.8224E-03,   3.12696E-03
C:/temp/dataset/9/26_4.odb,Step-1,Increment      1: Step Time =    1.000,"PART-1-1",           243,       10.6886,      -3.06387,            0.,NA,NA,"",   630.864E-03,   630.850E-03,   4.10633E-03,   2.85482E-03
C:/temp/dataset/9/26_4.odb,Step-1,Increment      1: Step Time =    1.000,"PART-1-1",           244,       9.76329,       22.4053,            0.,NA,NA,"",       1.95907,       1.95861,   42.7819E-03,   1.23028E-03
C:/temp/dataset/9/26_4.odb,Step-1,Increment      1: Step Time =    1.000,"PART-1-1",           245,       8.68231,      -3.74099,            0.,NA,NA,"",   608.064E-03,   601.312E-03,   90.3677E-03,   3.69424E-03
C:/temp/dataset/9/26_4.odb,Step-1,Increment      1: Step Time =    1.000,"PART-1-1",           246,      -9.34414,       6.30777,            0.,NA,NA,"",       1.57204,       1.16730,       1.05296,   674.224E-06
C:/temp/dataset/9/26_4.odb,Step-1,Increment      1: Step Time =    1.000,"PART-1-1",           247,      -9.93235,       4.61568,            0.,NA,NA,"",       1.52948,       1.07666,       1.08633,   500.732E-06
C:/temp/dataset/9/26_4.odb,Step-1,Increment      1: Step Time =    1.000,"PART-1-1",           248,      -8.14937,       21.0679,            0.,NA,NA,"",       2.16611,       1.92998,   983.475E-03,   1.03589E-03
C:/temp/dataset/9/26_4.odb,Step-1,Increment      1: Step Time =    1.000,"PART-1-1",           249,       10.7972,      -23.3791,            0.,NA,NA,"",   35.8046E-03,   35.7416E-03,   2.12348E-03,   628.327E-06
C:/temp/dataset/9/26_4.odb,Step-1,Increment      1: Step Time =    1.000,"PART-1-1",           250,       4.15357,   65.4176E-03,            0.,NA,NA,"",   862.696E-03,   803.236E-03,   314.732E-03,   2.66252E-03
C:/temp/dataset/9/26_4.odb,Step-1,Increment      1: Step Time =    1.000,"PART-1-1",           251,       8.71950,       3.82470,            0.,NA,NA,"",   981.482E-03,   976.603E-03,   97.7478E-03,   2.93840E-03
C:/temp/dataset/9/26_4.odb,Step-1,Increment      1: Step Time =    1.000,"PART-1-1",           252,       5.00281,       23.5204,            0.,NA,NA,"",       2.05675,       2.03278,   313.117E-03,   2.67118E-03
C:/temp/dataset/9/26_4.odb,Step-1,Increment      1: Step Time =    1.000,"PART-1-1",           253,       7.40149,   60.9774E-03,            0.,NA,NA,"",   806.972E-03,   791.998E-03,   154.738E-03,   4.30338E-03
C:/temp/dataset/9/26_4.odb,Step-1,Increment      1: Step Time =    1.000,"PART-1-1",           254,      -5.73116,       22.7675,            0.,NA,NA,"",       2.18776,       2.00996,   863.927E-03,   1.82750E-03
C:/temp/dataset/9/26_4.odb,Step-1,Increment      1: Step Time =    1.000,"PART-1-1",           255,      -5.42683,       1.83799,            0.,NA,NA,"",       1.24301,   915.764E-03,   840.508E-03,   1.66325E-03
C:/temp/dataset/9/26_4.odb,Step-1,Increment      1: Step Time =    1.000,"PART-1-1",           256,       6.81561,       24.0815,            0.,NA,NA,"",       2.06924,       2.05871,   208.526E-03,   2.24450E-03
C:/temp/dataset/9/26_4.odb,Step-1,Increment      1: Step Time =    1.000,"PART-1-1",           257,      -7.40884,       23.3683,            0.,NA,NA,"",       2.25192,       2.04359,   945.972E-03,   1.17590E-03
C:/temp/dataset/9/26_4.odb,Step-1,Increment      1: Step Time =    1.000,"PART-1-1",           258,      -3.69176,       23.9755,            0.,NA,NA,"",       2.20410,       2.06728,   764.476E-03,   1.88009E-03
C:/temp/dataset/9/26_4.odb,Step-1,Increment      1: Step Time =    1.000,"PART-1-1",           259,      -8.10961,       1.76736,            0.,NA,NA,"",       1.34963,   917.764E-03,   989.548E-03,   884.969E-06
C:/temp/dataset/9/26_4.odb,Step-1,Increment      1: Step Time =    1.000,"PART-1-1",           260,       5.94930,   61.4696E-03,            0.,NA,NA,"",   828.126E-03,   797.118E-03,   224.490E-03,   3.90581E-03
C:/temp/dataset/9/26_4.odb,Step-1,Increment      1: Step Time =    1.000,"PART-1-1",           261,       1.93878,   62.7924E-03,            0.,NA,NA,"",   916.228E-03,   808.070E-03,   431.851E-03,   1.95708E-03
C:/temp/dataset/9/26_4.odb,Step-1,Increment      1: Step Time =    1.000,"PART-1-1",           262,       6.71051,      -4.41826,            0.,NA,NA,"",   598.834E-03,   572.445E-03,   175.806E-03,   5.02183E-03
C:/temp/dataset/9/26_4.odb,Step-1,Increment      1: Step Time =    1.000,"PART-1-1",           263,      -12.5366,      -2.82410,            0.,NA,NA,"",       1.40937,   673.349E-03,       1.23812,   118.553E-06
C:/temp/dataset/9/26_4.odb,Step-1,Increment      1: Step Time =    1.000,"PART-1-1",           264,       6.75090,       4.53602,            0.,NA,NA,"",       1.03708,       1.01862,   194.809E-03,   3.96917E-03
C:/temp/dataset/9/26_4.odb,Step-1,Increment      1: Step Time =    1.000,"PART-1-1",           265,      -5.22339,       3.46233,            0.,NA,NA,"",       1.30153,       1.00380,   828.472E-03,   2.21287E-03
C:/temp/dataset/9/26_4.odb,Step-1,Increment      1: Step Time =    1.000,"PART-1-1",           266,       4.93795,       21.9167,            0.,NA,NA,"",       1.97223,       1.94627,   318.942E-03,   4.09775E-03
C:/temp/dataset/9/26_4.odb,Step-1,Increment      1: Step Time =    1.000,"PART-1-1",           267,       8.13144,      -1.42002,            0.,NA,NA,"",   724.961E-03,   715.293E-03,   118.000E-03,   4.26652E-03
C:/temp/dataset/9/26_4.odb,Step-1,Increment      1: Step Time =    1.000,"PART-1-1",           268,      -3.13115,       1.39136,            0.,NA,NA,"",       1.13690,   886.788E-03,   711.438E-03,   1.95573E-03
C:/temp/dataset/9/26_4.odb,Step-1,Increment      1: Step Time =    1.000,"PART-1-1",           269,       9.17709,       6.32873,            0.,NA,NA,"",       1.10296,       1.10027,   77.0184E-03,   1.78808E-03
C:/temp/dataset/9/26_4.odb,Step-1,Increment      1: Step Time =    1.000,"PART-1-1",           270,      -11.0423,       1.34077,            0.,NA,NA,"",       1.46043,   899.638E-03,       1.15044,   290.543E-06
C:/temp/dataset/9/26_4.odb,Step-1,Increment      1: Step Time =    1.000,"PART-1-1",           271,      -10.1478,       26.6048,            0.,NA,NA,"",       2.45929,       2.21001,       1.07886,   261.169E-06
C:/temp/dataset/9/26_4.odb,Step-1,Increment      1: Step Time =    1.000,"PART-1-1",           272,      -10.1118,       21.9370,            0.,NA,NA,"",       2.25312,       1.97674,       1.08123,   572.721E-06
C:/temp/dataset/9/26_4.odb,Step-1,Increment      1: Step Time =    1.000,"PART-1-1",           273,       8.13886,       1.50501,            0.,NA,NA,"",   870.969E-03,   862.332E-03,   122.361E-03,   3.92460E-03
C:/temp/dataset/9/26_4.odb,Step-1,Increment      1: Step Time =    1.000,"PART-1-1",           274,      -7.06249,   219.393E-03,            0.,NA,NA,"",       1.24949,   831.130E-03,   932.973E-03,   933.883E-06
C:/temp/dataset/9/26_4.odb,Step-1,Increment      1: Step Time =    1.000,"PART-1-1",           275,      -5.40522,   241.534E-03,            0.,NA,NA,"",       1.18069,   829.173E-03,   840.537E-03,   1.33563E-03
C:/temp/dataset/9/26_4.odb,Step-1,Increment      1: Step Time =    1.000,"PART-1-1",           276,      -3.80180,   194.541E-03,            0.,NA,NA,"",       1.11441,   823.749E-03,   750.562E-03,   1.66371E-03
C:/temp/dataset/9/26_4.odb,Step-1,Increment      1: Step Time =    1.000,"PART-1-1",           277,      -2.71285,       28.4954,            0.,NA,NA,"",       2.40557,       2.29841,   709.978E-03,   1.51454E-03
C:/temp/dataset/9/26_4.odb,Step-1,Increment      1: Step Time =    1.000,"PART-1-1",           278,         -3.75,           30.,            0.,NA,NA,"",       2.49233,       2.37405,   758.660E-03,   1.45228E-03
C:/temp/dataset/9/26_4.odb,Step-1,Increment      1: Step Time =    1.000,"PART-1-1",           279,      -5.26224,       28.8665,            0.,NA,NA,"",       2.46389,       2.31800,   835.253E-03,   873.583E-06
C:/temp/dataset/9/26_4.odb,Step-1,Increment      1: Step Time =    1.000,"PART-1-1",           280,      -4.22509,       27.3619,            0.,NA,NA,"",       2.37536,       2.24135,   786.556E-03,   1.33353E-03
C:/temp/dataset/9/26_4.odb,Step-1,Increment      1: Step Time =    1.000,"PART-1-1",           281,      -3.84553,       25.9321,            0.,NA,NA,"",       2.30050,       2.16785,   769.883E-03,   1.49525E-03
C:/temp/dataset/9/26_4.odb,Step-1,Increment      1: Step Time =    1.000,"PART-1-1",           282,      -6.00478,       26.6512,            0.,NA,NA,"",       2.37404,       2.20704,   874.680E-03,   1.04867E-03
C:/temp/dataset/9/26_4.odb,Step-1,Increment      1: Step Time =    1.000,"PART-1-1",           283,      -5.62522,       25.2214,            0.,NA,NA,"",       2.29984,       2.13400,   857.518E-03,   1.40007E-03
C:/temp/dataset/9/26_4.odb,Step-1,Increment      1: Step Time =    1.000,"PART-1-1",           284,      -10.0879,       29.0985,            0.,NA,NA,"",       2.56894,       2.33415,       1.07294,   67.8482E-06
C:/temp/dataset/9/26_4.odb,Step-1,Increment      1: Step Time =    1.000,"PART-1-1",           285,        -11.25,           30.,            0.,NA,NA,"",       2.63476,       2.38037,       1.12950,   28.0123E-06
C:/temp/dataset/9/26_4.odb,Step-1,Increment      1: Step Time =    1.000,"PART-1-1",           286,      -12.4706,       28.9480,            0.,NA,NA,"",       2.61662,       2.32961,       1.19147,   24.4252E-06
C:/temp/dataset/9/26_4.odb,Step-1,Increment      1: Step Time =    1.000,"PART-1-1",           287,      -11.3086,       28.0465,            0.,NA,NA,"",       2.54978,       2.28333,       1.13480,   66.8784E-06
C:/temp/dataset/9/26_4.odb,Step-1,Increment      1: Step Time =    1.000,"PART-1-1",           288,      -13.4495,       25.5029,            0.,NA,NA,"",       2.49228,       2.15937,       1.24443,   30.2922E-06
C:/temp/dataset/9/26_4.odb,Step-1,Increment      1: Step Time =    1.000,"PART-1-1",           289,          -15.,       24.5313,            0.,NA,NA,"",       2.49289,       2.11284,       1.32303,   125.175E-06
C:/temp/dataset/9/26_4.odb,Step-1,Increment      1: Step Time =    1.000,"PART-1-1",           290,      -13.6920,       23.1529,            0.,NA,NA,"",       2.39959,       2.04248,       1.25949,   84.4025E-06
C:/temp/dataset/9/26_4.odb,Step-1,Increment      1: Step Time =    1.000,"PART-1-1",           291,      -12.1415,       24.1246,            0.,NA,NA,"",       2.39957,       2.08895,       1.18076,   155.074E-06
C:/temp/dataset/9/26_4.odb,Step-1,Increment      1: Step Time =    1.000,"PART-1-1",           292,          8.75,          -30.,            0.,NA,NA,"",            0.,  -1.33999E-39,   6.99630E-39,   3.69147E-03
C:/temp/dataset/9/26_4.odb,Step-1,Increment      1: Step Time =    1.000,"PART-1-1",           293,       9.96407,      -28.8633,            0.,NA,NA,"",   1.90622E-03,  -1.03952E-03,   1.59783E-03,   1.87978E-03
C:/temp/dataset/9/26_4.odb,Step-1,Increment      1: Step Time =    1.000,"PART-1-1",           294,       8.68711,      -27.7998,            0.,NA,NA,"",   8.22127E-03,   2.94805E-03,   7.67452E-03,   4.67787E-03
C:/temp/dataset/9/26_4.odb,Step-1,Increment      1: Step Time =    1.000,"PART-1-1",           295,       7.47304,      -28.9365,            0.,NA,NA,"",   5.41486E-03,   970.699E-06,   5.32715E-03,   6.22188E-03
C:/temp/dataset/9/26_4.odb,Step-1,Increment      1: Step Time =    1.000,"PART-1-1",           296,       10.9279,      -22.5555,            0.,NA,NA,"",   46.0525E-03,   46.0461E-03,   768.881E-06,   407.132E-06
C:/temp/dataset/9/26_4.odb,Step-1,Increment      1: Step Time =    1.000,"PART-1-1",           297,       10.0765,      -21.6813,            0.,NA,NA,"",   60.2713E-03,   58.8199E-03,   13.1470E-03,   1.95757E-03
C:/temp/dataset/9/26_4.odb,Step-1,Increment      1: Step Time =    1.000,"PART-1-1",           298,       9.14242,      -22.6395,            0.,NA,NA,"",   52.3259E-03,   46.7758E-03,   23.4525E-03,   3.78777E-03
C:/temp/dataset/9/26_4.odb,Step-1,Increment      1: Step Time =    1.000,"PART-1-1",           299,       9.99384,      -23.5137,            0.,NA,NA,"",   36.4357E-03,   34.7346E-03,   11.0031E-03,   2.13460E-03
C:/temp/dataset/9/26_4.odb,Step-1,Increment      1: Step Time =    1.000,"PART-1-1",           300,       7.08785,      -18.4988,            0.,NA,NA,"",   144.242E-03,   121.588E-03,   77.6038E-03,   7.58526E-03
C:/temp/dataset/9/26_4.odb,Step-1,Increment      1: Step Time =    1.000,"PART-1-1",           301,       6.04673,      -17.4684,            0.,NA,NA,"",   182.316E-03,   147.650E-03,   106.951E-03,   9.51061E-03
C:/temp/dataset/9/26_4.odb,Step-1,Increment      1: Step Time =    1.000,"PART-1-1",           302,            5.,      -18.5417,            0.,NA,NA,"",   176.189E-03,   130.062E-03,   118.855E-03,   11.5184E-03
C:/temp/dataset/9/26_4.odb,Step-1,Increment      1: Step Time =    1.000,"PART-1-1",           303,       6.04112,      -19.5721,            0.,NA,NA,"",   137.932E-03,   105.002E-03,   89.4419E-03,   9.59141E-03
C:/temp/dataset/9/26_4.odb,Step-1,Increment      1: Step Time =    1.000,"PART-1-1",           304,       7.10245,      -14.2066,            0.,NA,NA,"",   247.720E-03,   224.352E-03,   105.032E-03,   7.46793E-03
C:/temp/dataset/9/26_4.odb,Step-1,Increment      1: Step Time =    1.000,"PART-1-1",           305,       6.04975,      -13.2285,            0.,NA,NA,"",   292.925E-03,   256.525E-03,   141.420E-03,   9.35576E-03
C:/temp/dataset/9/26_4.odb,Step-1,Increment      1: Step Time =    1.000,"PART-1-1",           306,            5.,       -14.375,            0.,NA,NA,"",   279.894E-03,   229.336E-03,   160.455E-03,   11.3181E-03
C:/temp/dataset/9/26_4.odb,Step-1,Increment      1: Step Time =    1.000,"PART-1-1",           307,       6.05270,      -15.3531,            0.,NA,NA,"",   233.868E-03,   198.157E-03,   124.210E-03,   9.42827E-03
C:/temp/dataset/9/26_4.odb,Step-1,Increment      1: Step Time =    1.000,"PART-1-1",           308,            5.,      -6.04167,            0.,NA,NA,"",   563.900E-03,   509.071E-03,   242.549E-03,   14.7285E-03
C:/temp/dataset/9/26_4.odb,Step-1,Increment      1: Step Time =    1.000,"PART-1-1",           309,       5.97724,      -6.85181,            0.,NA,NA,"",   511.619E-03,   473.031E-03,   194.925E-03,   9.74696E-03
C:/temp/dataset/9/26_4.odb,Step-1,Increment      1: Step Time =    1.000,"PART-1-1",           310,       6.83249,      -5.51927,            0.,NA,NA,"",   548.912E-03,   522.997E-03,   166.671E-03,   5.20932E-03
C:/temp/dataset/9/26_4.odb,Step-1,Increment      1: Step Time =    1.000,"PART-1-1",           311,       5.85525,      -4.70913,            0.,NA,NA,"",   598.767E-03,   559.165E-03,   214.141E-03,   8.62870E-03
C:/temp/dataset/9/26_4.odb,Step-1,Increment      1: Step Time =    1.000,"PART-1-1",           312,       4.27314,       1.25089,            0.,NA,NA,"",   917.201E-03,   863.299E-03,   309.792E-03,   2.63439E-03
C:/temp/dataset/9/26_4.odb,Step-1,Increment      1: Step Time =    1.000,"PART-1-1",           313,       3.27994,       2.49943,            0.,NA,NA,"",   997.782E-03,   930.189E-03,   360.995E-03,   1.84042E-03
C:/temp/dataset/9/26_4.odb,Step-1,Increment      1: Step Time =    1.000,"PART-1-1",           314,       2.05297,       1.31265,            0.,NA,NA,"",   970.514E-03,   872.451E-03,   425.121E-03,   1.58141E-03
C:/temp/dataset/9/26_4.odb,Step-1,Increment      1: Step Time =    1.000,"PART-1-1",           315,       3.04617,   64.1050E-03,            0.,NA,NA,"",   887.857E-03,   805.837E-03,   372.714E-03,   2.09432E-03
C:/temp/dataset/9/26_4.odb,Step-1,Increment      1: Step Time =    1.000,"PART-1-1",           316,       6.28410,       12.4112,            0.,NA,NA,"",       1.43863,       1.42017,   229.708E-03,   3.02461E-03
C:/temp/dataset/9/26_4.odb,Step-1,Increment      1: Step Time =    1.000,"PART-1-1",           317,            5.,         11.25,            0.,NA,NA,"",       1.39436,       1.36283,   294.884E-03,   3.70797E-03
C:/temp/dataset/9/26_4.odb,Step-1,Increment      1: Step Time =    1.000,"PART-1-1",           318,       6.24476,       9.82085,            0.,NA,NA,"",       1.30503,       1.28493,   228.131E-03,   3.12302E-03
C:/temp/dataset/9/26_4.odb,Step-1,Increment      1: Step Time =    1.000,"PART-1-1",           319,       7.52885,       10.9821,            0.,NA,NA,"",       1.35185,       1.34196,   163.220E-03,   2.42790E-03
C:/temp/dataset/9/26_4.odb,Step-1,Increment      1: Step Time =    1.000,"PART-1-1",           320,       6.23557,       19.9374,            0.,NA,NA,"",       1.84481,       1.82901,   240.916E-03,   2.93150E-03
C:/temp/dataset/9/26_4.odb,Step-1,Increment      1: Step Time =    1.000,"PART-1-1",           321,            5.,         18.75,            0.,NA,NA,"",       1.79303,       1.76594,   310.459E-03,   5.04835E-03
C:/temp/dataset/9/26_4.odb,Step-1,Increment      1: Step Time =    1.000,"PART-1-1",           322,       6.25255,       17.4722,            0.,NA,NA,"",       1.70862,       1.69193,   238.236E-03,   3.01156E-03
C:/temp/dataset/9/26_4.odb,Step-1,Increment      1: Step Time =    1.000,"PART-1-1",           323,       7.48812,       18.6595,            0.,NA,NA,"",       1.76265,       1.75441,   170.258E-03,   1.55762E-03
C:/temp/dataset/9/26_4.odb,Step-1,Increment      1: Step Time =    1.000,"PART-1-1",           324,       12.4612,       28.7577,            0.,NA,NA,"",       2.30908,       2.30620,  -115.392E-03,   115.429E-06
C:/temp/dataset/9/26_4.odb,Step-1,Increment      1: Step Time =    1.000,"PART-1-1",           325,         11.25,           30.,            0.,NA,NA,"",       2.37792,       2.37740,  -49.5472E-03,   177.634E-06
C:/temp/dataset/9/26_4.odb,Step-1,Increment      1: Step Time =    1.000,"PART-1-1",           326,       9.95383,       28.8406,            0.,NA,NA,"",       2.31454,       2.31440,   25.1430E-03,   432.346E-06
C:/temp/dataset/9/26_4.odb,Step-1,Increment      1: Step Time =    1.000,"PART-1-1",           327,       11.1650,       27.5983,            0.,NA,NA,"",       2.24403,       2.24365,  -40.9820E-03,   458.148E-06
C:/temp/dataset/9/26_4.odb,Step-1,Increment      1: Step Time =    1.000,"PART-1-1",           328,       9.61193,       26.3742,            0.,NA,NA,"",       2.17897,       2.17844,   48.0401E-03,   862.166E-06
C:/temp/dataset/9/26_4.odb,Step-1,Increment      1: Step Time =    1.000,"PART-1-1",           329,       10.8062,       25.0400,            0.,NA,NA,"",       2.10261,       2.10254,  -17.6014E-03,   765.588E-06
C:/temp/dataset/9/26_4.odb,Step-1,Increment      1: Step Time =    1.000,"PART-1-1",           330,       12.3592,       26.2641,            0.,NA,NA,"",       2.17025,       2.16766,  -106.031E-03,   309.296E-06
C:/temp/dataset/9/26_4.odb,Step-1,Increment      1: Step Time =    1.000,"PART-1-1",           331,       7.54419,       28.9985,            0.,NA,NA,"",       2.33135,       2.32581,   160.602E-03,   989.306E-06
C:/temp/dataset/9/26_4.odb,Step-1,Increment      1: Step Time =    1.000,"PART-1-1",           332,          6.25,           30.,            0.,NA,NA,"",       2.39330,       2.38211,   231.190E-03,   1.59484E-03
C:/temp/dataset/9/26_4.odb,Step-1,Increment      1: Step Time =    1.000,"PART-1-1",           333,       5.09159,       28.9175,            0.,NA,NA,"",       2.34163,       2.32256,   298.274E-03,   1.72967E-03
C:/temp/dataset/9/26_4.odb,Step-1,Increment      1: Step Time =    1.000,"PART-1-1",           334,       6.38578,       27.9160,            0.,NA,NA,"",       2.27875,       2.26733,   227.849E-03,   1.38992E-03
C:/temp/dataset/9/26_4.odb,Step-1,Increment      1: Step Time =    1.000,"PART-1-1",           335,       2.95769,       26.1428,            0.,NA,NA,"",       2.21522,       2.17466,   421.988E-03,   1.62143E-03
C:/temp/dataset/9/26_4.odb,Step-1,Increment      1: Step Time =    1.000,"PART-1-1",           336,       4.45909,       25.3098,            0.,NA,NA,"",       2.15625,       2.12915,   340.801E-03,   1.84124E-03
C:/temp/dataset/9/26_4.odb,Step-1,Increment      1: Step Time =    1.000,"PART-1-1",           337,       5.44343,       26.8217,            0.,NA,NA,"",       2.22699,       2.20896,   282.798E-03,   1.65493E-03
C:/temp/dataset/9/26_4.odb,Step-1,Increment      1: Step Time =    1.000,"PART-1-1",           338,       3.94204,       27.6547,            0.,NA,NA,"",       2.28398,       2.25467,   364.700E-03,   1.55986E-03
C:/temp/dataset/9/26_4.odb,Step-1,Increment      1: Step Time =    1.000,"PART-1-1",           339,       6.06395,       7.26936,            0.,NA,NA,"",       1.17828,       1.15500,   233.080E-03,   3.23020E-03
C:/temp/dataset/9/26_4.odb,Step-1,Increment      1: Step Time =    1.000,"PART-1-1",           340,       7.30871,       8.34021,            0.,NA,NA,"",       1.21833,       1.20611,   172.141E-03,   2.49802E-03
C:/temp/dataset/9/26_4.odb,Step-1,Increment      1: Step Time =    1.000,"PART-1-1",           341,            5.,          8.75,            0.,NA,NA,"",       1.26699,       1.23340,   289.806E-03,   3.96671E-03
C:/temp/dataset/9/26_4.odb,Step-1,Increment      1: Step Time =    1.000,"PART-1-1",           342,      -13.9291,       1.47830,            0.,NA,NA,"",       1.59392,   911.510E-03,       1.30757,   214.302E-06
C:/temp/dataset/9/26_4.odb,Step-1,Increment      1: Step Time =    1.000,"PART-1-1",           343,          -15.,    468.75E-03,            0.,NA,NA,"",       1.61452,   857.724E-03,       1.36784,   252.762E-06
C:/temp/dataset/9/26_4.odb,Step-1,Increment      1: Step Time =    1.000,"PART-1-1",           344,      -13.8152,  -655.377E-03,            0.,NA,NA,"",       1.52760,   794.380E-03,       1.30481,   125.129E-06
C:/temp/dataset/9/26_4.odb,Step-1,Increment      1: Step Time =    1.000,"PART-1-1",           345,      -12.7443,   354.171E-03,            0.,NA,NA,"",       1.50622,   848.194E-03,       1.24469,   178.971E-06
C:/temp/dataset/9/26_4.odb,Step-1,Increment      1: Step Time =    1.000,"PART-1-1",           346,      -13.9678,       8.16706,            0.,NA,NA,"",       1.81824,       1.27354,       1.29773,   484.283E-06
C:/temp/dataset/9/26_4.odb,Step-1,Increment      1: Step Time =    1.000,"PART-1-1",           347,          -15.,       7.03125,            0.,NA,NA,"",       1.81942,       1.21403,       1.35514,   729.188E-06
C:/temp/dataset/9/26_4.odb,Step-1,Increment      1: Step Time =    1.000,"PART-1-1",           348,      -13.6804,       5.85321,            0.,NA,NA,"",       1.72500,       1.14912,       1.28653,   369.203E-06
C:/temp/dataset/9/26_4.odb,Step-1,Increment      1: Step Time =    1.000,"PART-1-1",           349,      -12.6482,       6.98902,            0.,NA,NA,"",       1.72408,       1.20886,       1.22927,   165.135E-06
C:/temp/dataset/9/26_4.odb,Step-1,Increment      1: Step Time =    1.000,"PART-1-1",           350,      -5.93089,       17.7206,            0.,NA,NA,"",       1.96235,       1.75766,   872.605E-03,   1.84579E-03
C:/temp/dataset/9/26_4.odb,Step-1,Increment      1: Step Time =    1.000,"PART-1-1",           351,      -7.00986,       16.6597,            0.,NA,NA,"",       1.94126,       1.70559,   927.081E-03,   1.47491E-03
C:/temp/dataset/9/26_4.odb,Step-1,Increment      1: Step Time =    1.000,"PART-1-1",           352,      -6.07897,       15.1891,            0.,NA,NA,"",       1.85035,       1.62813,   879.199E-03,   1.80005E-03
C:/temp/dataset/9/26_4.odb,Step-1,Increment      1: Step Time =    1.000,"PART-1-1",           353,           -5.,         16.25,            0.,NA,NA,"",       1.87159,       1.68028,   824.337E-03,   2.17953E-03
C:/temp/dataset/9/26_4.odb,Step-1,Increment      1: Step Time =    1.000,"PART-1-1",           354,      -7.79966,       18.2865,            0.,NA,NA,"",       2.03429,       1.78981,   966.903E-03,   1.11275E-03
C:/temp/dataset/9/26_4.odb,Step-1,Increment      1: Step Time =    1.000,"PART-1-1",           355,      -6.65288,       19.1839,            0.,NA,NA,"",       2.04622,       1.83318,   909.099E-03,   1.30545E-03
C:/temp/dataset/9/26_4.odb,Step-1,Increment      1: Step Time =    1.000,"PART-1-1",           356,      -7.29668,       20.7472,            0.,NA,NA,"",       2.13135,       1.91238,   940.983E-03,   1.22021E-03
C:/temp/dataset/9/26_4.odb,Step-1,Increment      1: Step Time =    1.000,"PART-1-1",           357,      -8.44345,       19.8498,            0.,NA,NA,"",       2.11959,       1.86956,   998.704E-03,   879.868E-06
C:/temp/dataset/9/26_4.odb,Step-1,Increment      1: Step Time =    1.000,"PART-1-1",           358,      -2.59303,       4.06073,            0.,NA,NA,"",       1.23356,       1.03023,   678.448E-03,   1.38665E-03
C:/temp/dataset/9/26_4.odb,Step-1,Increment      1: Step Time =    1.000,"PART-1-1",           359,      -1.46713,       2.91047,            0.,NA,NA,"",       1.14482,   964.738E-03,   616.353E-03,   1.74495E-03
C:/temp/dataset/9/26_4.odb,Step-1,Increment      1: Step Time =    1.000,"PART-1-1",           360,  -124.098E-03,       3.84974,            0.,NA,NA,"",       1.14711,       1.01132,   541.369E-03,   2.19155E-03
C:/temp/dataset/9/26_4.odb,Step-1,Increment      1: Step Time =    1.000,"PART-1-1",           361,         -1.25,            5.,            0.,NA,NA,"",       1.23503,       1.07798,   602.725E-03,   2.34315E-03
C:/temp/dataset/9/26_4.odb,Step-1,Increment      1: Step Time =    1.000,"PART-1-1",           362,      -11.2683,  -541.568E-03,            0.,NA,NA,"",       1.41167,   796.769E-03,       1.16532,   157.827E-06
C:/temp/dataset/9/26_4.odb,Step-1,Increment      1: Step Time =    1.000,"PART-1-1",           363,      -10.4743,   471.696E-03,            0.,NA,NA,"",       1.40708,   851.064E-03,       1.12052,   277.899E-06
C:/temp/dataset/9/26_4.odb,Step-1,Increment      1: Step Time =    1.000,"PART-1-1",           364,      -11.9503,       1.36743,            0.,NA,NA,"",       1.50143,   902.528E-03,       1.19989,   203.605E-06
C:/temp/dataset/9/26_4.odb,Step-1,Increment      1: Step Time =    1.000,"PART-1-1",           365,      -13.0095,       9.29789,            0.,NA,NA,"",       1.82348,       1.33243,       1.24487,   212.438E-06
C:/temp/dataset/9/26_4.odb,Step-1,Increment      1: Step Time =    1.000,"PART-1-1",           366,      -14.0417,       10.3496,            0.,NA,NA,"",       1.90100,       1.38924,       1.29761,   511.569E-06
C:/temp/dataset/9/26_4.odb,Step-1,Increment      1: Step Time =    1.000,"PART-1-1",           367,          -15.,       9.21875,            0.,NA,NA,"",       1.89586,       1.33058,       1.35051,   787.549E-06
C:/temp/dataset/9/26_4.odb,Step-1,Increment      1: Step Time =    1.000,"PART-1-1",           368,      -6.40766,      -1.28741,            0.,NA,NA,"",       1.16879,   747.855E-03,   898.205E-03,   810.620E-06
C:/temp/dataset/9/26_4.odb,Step-1,Increment      1: Step Time =    1.000,"PART-1-1",           369,      -5.35016,  -573.084E-03,            0.,NA,NA,"",       1.14843,   784.930E-03,   838.324E-03,   1.18536E-03
C:/temp/dataset/9/26_4.odb,Step-1,Increment      1: Step Time =    1.000,"PART-1-1",           370,      -6.23385,   230.463E-03,            0.,NA,NA,"",       1.21475,   830.146E-03,   886.836E-03,   1.12657E-03
C:/temp/dataset/9/26_4.odb,Step-1,Increment      1: Step Time =    1.000,"PART-1-1",           371,      -7.29135,  -483.859E-03,            0.,NA,NA,"",       1.23483,   793.197E-03,   946.391E-03,   757.950E-06
C:/temp/dataset/9/26_4.odb,Step-1,Increment      1: Step Time =    1.000,"PART-1-1",           372,   952.242E-03,      -2.53706,            0.,NA,NA,"",   832.136E-03,   673.046E-03,   489.346E-03,   2.27175E-03
C:/temp/dataset/9/26_4.odb,Step-1,Increment      1: Step Time =    1.000,"PART-1-1",           373,  -130.910E-03,      -3.80019,            0.,NA,NA,"",   819.262E-03,   605.074E-03,   552.336E-03,   1.66810E-03
C:/temp/dataset/9/26_4.odb,Step-1,Increment      1: Step Time =    1.000,"PART-1-1",           374,          1.25,           -5.,            0.,NA,NA,"",   720.872E-03,   539.085E-03,   478.584E-03,   2.43290E-03
C:/temp/dataset/9/26_4.odb,Step-1,Increment      1: Step Time =    1.000,"PART-1-1",           375,       2.33315,      -3.73687,            0.,NA,NA,"",   736.996E-03,   609.588E-03,   414.205E-03,   2.67651E-03
C:/temp/dataset/9/26_4.odb,Step-1,Increment      1: Step Time =    1.000,"PART-1-1",           376,       4.26686,      -1.13377,            0.,NA,NA,"",   803.042E-03,   741.739E-03,   307.733E-03,   3.19333E-03
C:/temp/dataset/9/26_4.odb,Step-1,Increment      1: Step Time =    1.000,"PART-1-1",           377,       2.05254,      -1.20548,            0.,NA,NA,"",   856.257E-03,   742.324E-03,   426.768E-03,   2.29229E-03
C:/temp/dataset/9/26_4.odb,Step-1,Increment      1: Step Time =    1.000,"PART-1-1",           378,       3.27323,      -2.40335,            0.,NA,NA,"",   768.651E-03,   679.329E-03,   359.634E-03,   2.88898E-03
C:/temp/dataset/9/26_4.odb,Step-1,Increment      1: Step Time =    1.000,"PART-1-1",           379,       10.4325,       1.51548,            0.,NA,NA,"",   856.385E-03,   856.267E-03,   14.2139E-03,   2.47223E-03
C:/temp/dataset/9/26_4.odb,Step-1,Increment      1: Step Time =    1.000,"PART-1-1",           380,       11.3847,  -3.51279E-03,            0.,NA,NA,"",   779.289E-03,   778.729E-03,  -29.5220E-03,   2.34151E-03
C:/temp/dataset/9/26_4.odb,Step-1,Increment      1: Step Time =    1.000,"PART-1-1",           381,       12.7244,       1.31309,            0.,NA,NA,"",   847.604E-03,   842.389E-03,  -93.8770E-03,   1.58506E-03
C:/temp/dataset/9/26_4.odb,Step-1,Increment      1: Step Time =    1.000,"PART-1-1",           382,       11.7722,       2.83209,            0.,NA,NA,"",   920.938E-03,   919.573E-03,  -50.1340E-03,   1.28209E-03
C:/temp/dataset/9/26_4.odb,Step-1,Increment      1: Step Time =    1.000,"PART-1-1",           383,       9.00808,      -7.25637,            0.,NA,NA,"",   455.542E-03,   449.729E-03,   72.5420E-03,   2.97416E-03
C:/temp/dataset/9/26_4.odb,Step-1,Increment      1: Step Time =    1.000,"PART-1-1",           384,       7.95196,      -6.36313,            0.,NA,NA,"",   500.695E-03,   486.915E-03,   116.655E-03,   4.63504E-03
C:/temp/dataset/9/26_4.odb,Step-1,Increment      1: Step Time =    1.000,"PART-1-1",           385,       7.00211,      -7.70397,            0.,NA,NA,"",   461.729E-03,   437.217E-03,   148.442E-03,   7.32551E-03
C:/temp/dataset/9/26_4.odb,Step-1,Increment      1: Step Time =    1.000,"PART-1-1",           386,       8.05823,      -8.59720,            0.,NA,NA,"",   414.448E-03,   401.071E-03,   104.448E-03,   5.40697E-03
C:/temp/dataset/9/26_4.odb,Step-1,Increment      1: Step Time =    1.000,"PART-1-1",           387,       7.09104,      -12.0381,            0.,NA,NA,"",   311.649E-03,   288.060E-03,   118.938E-03,   7.44322E-03
C:/temp/dataset/9/26_4.odb,Step-1,Increment      1: Step Time =    1.000,"PART-1-1",           388,       6.04129,      -11.1013,            0.,NA,NA,"",   359.222E-03,   322.341E-03,   158.545E-03,   9.31639E-03
C:/temp/dataset/9/26_4.odb,Step-1,Increment      1: Step Time =    1.000,"PART-1-1",           389,            5.,      -12.2917,            0.,NA,NA,"",   341.597E-03,   289.925E-03,   180.643E-03,   11.2351E-03
C:/temp/dataset/9/26_4.odb,Step-1,Increment      1: Step Time =    1.000,"PART-1-1",           390,       9.13117,      -18.4822,            0.,NA,NA,"",   122.030E-03,   116.281E-03,   37.0141E-03,   3.72826E-03
C:/temp/dataset/9/26_4.odb,Step-1,Increment      1: Step Time =    1.000,"PART-1-1",           391,       10.1297,      -19.6034,            0.,NA,NA,"",   94.4517E-03,   93.1696E-03,   15.5096E-03,   1.83243E-03
C:/temp/dataset/9/26_4.odb,Step-1,Increment      1: Step Time =    1.000,"PART-1-1",           392,       11.1535,      -18.5257,            0.,NA,NA,"",   113.343E-03,   113.296E-03,  -3.25165E-03,   231.399E-06
C:/temp/dataset/9/26_4.odb,Step-1,Increment      1: Step Time =    1.000,"PART-1-1",           393,       10.1550,      -17.4045,            0.,NA,NA,"",   138.772E-03,   137.586E-03,   18.1047E-03,   1.77792E-03
C:/temp/dataset/9/26_4.odb,Step-1,Increment      1: Step Time =    1.000,"PART-1-1",           394,       6.27183,       14.9637,            0.,NA,NA,"",       1.57366,       1.55623,   233.619E-03,   3.03221E-03
C:/temp/dataset/9/26_4.odb,Step-1,Increment      1: Step Time =    1.000,"PART-1-1",           395,       7.52438,       16.1859,            0.,NA,NA,"",       1.62740,       1.61878,   167.215E-03,   2.27143E-03
C:/temp/dataset/9/26_4.odb,Step-1,Increment      1: Step Time =    1.000,"PART-1-1",           396,            5.,         16.25,            0.,NA,NA,"",       1.65758,       1.62947,   303.976E-03,   3.80635E-03
C:/temp/dataset/9/26_4.odb,Step-1,Increment      1: Step Time =    1.000,"PART-1-1",           397,       2.56719,       21.1071,            0.,NA,NA,"",       1.96190,       1.90757,   458.483E-03,   3.92548E-03
C:/temp/dataset/9/26_4.odb,Step-1,Increment      1: Step Time =    1.000,"PART-1-1",           398,       1.41709,       22.2600,            0.,NA,NA,"",       2.03690,       1.97053,   515.743E-03,   2.58124E-03
C:/temp/dataset/9/26_4.odb,Step-1,Increment      1: Step Time =    1.000,"PART-1-1",           399,   99.9026E-03,       21.1528,            0.,NA,NA,"",       2.00230,       1.91497,   584.895E-03,   3.09652E-03
C:/temp/dataset/9/26_4.odb,Step-1,Increment      1: Step Time =    1.000,"PART-1-1",           400,          1.25,           20.,            0.,NA,NA,"",       1.92845,       1.85363,   531.965E-03,   4.60979E-03
C:/temp/dataset/9/26_4.odb,Step-1,Increment      1: Step Time =    1.000,"PART-1-1",           401,       7.55593,       13.6250,            0.,NA,NA,"",       1.49027,       1.48123,   163.884E-03,   2.38762E-03
C:/temp/dataset/9/26_4.odb,Step-1,Increment      1: Step Time =    1.000,"PART-1-1",           402,            5.,         13.75,            0.,NA,NA,"",       1.52463,       1.49490,   299.649E-03,   3.62956E-03
C:/temp/dataset/9/26_4.odb,Step-1,Increment      1: Step Time =    1.000,"PART-1-1",           403,       8.77818,       14.9146,            0.,NA,NA,"",       1.55058,       1.54740,   99.2377E-03,   1.74921E-03
C:/temp/dataset/9/26_4.odb,Step-1,Increment      1: Step Time =    1.000,"PART-1-1",           404,       10.0010,       16.1752,            0.,NA,NA,"",       1.61342,       1.61308,   33.2169E-03,   1.11169E-03
C:/temp/dataset/9/26_4.odb,Step-1,Increment      1: Step Time =    1.000,"PART-1-1",           405,       8.74716,       17.4465,            0.,NA,NA,"",       1.68787,       1.68485,   100.854E-03,   1.56365E-03
C:/temp/dataset/9/26_4.odb,Step-1,Increment      1: Step Time =    1.000,"PART-1-1",           406,       10.1219,       5.90684,            0.,NA,NA,"",       1.07746,       1.07705,   29.8169E-03,   1.39806E-03
C:/temp/dataset/9/26_4.odb,Step-1,Increment      1: Step Time =    1.000,"PART-1-1",           407,       8.94830,       5.07672,            0.,NA,NA,"",       1.04202,       1.03832,   87.7172E-03,   2.32057E-03
C:/temp/dataset/9/26_4.odb,Step-1,Increment      1: Step Time =    1.000,"PART-1-1",           408,       9.72441,       3.42413,            0.,NA,NA,"",   954.928E-03,   953.687E-03,   48.6741E-03,   2.35652E-03
C:/temp/dataset/9/26_4.odb,Step-1,Increment      1: Step Time =    1.000,"PART-1-1",           409,       10.8980,       4.25426,            0.,NA,NA,"",   992.537E-03,   992.502E-03,  -8.36722E-03,   1.41287E-03
C:/temp/dataset/9/26_4.odb,Step-1,Increment      1: Step Time =    1.000,"PART-1-1",           410,       8.15250,       6.68373,            0.,NA,NA,"",       1.12780,       1.12046,   128.448E-03,   2.14877E-03
C:/temp/dataset/9/26_4.odb,Step-1,Increment      1: Step Time =    1.000,"PART-1-1",           411,       9.64075,       7.71724,            0.,NA,NA,"",       1.17061,       1.16937,   53.9381E-03,   1.44654E-03
C:/temp/dataset/9/26_4.odb,Step-1,Increment      1: Step Time =    1.000,"PART-1-1",           412,       8.79696,       9.37373,            0.,NA,NA,"",       1.25946,       1.25572,   97.0553E-03,   1.78288E-03
C:/temp/dataset/9/26_4.odb,Step-1,Increment      1: Step Time =    1.000,"PART-1-1",           413,   959.485E-03,       2.63099,            0.,NA,NA,"",       1.06007,   943.602E-03,   483.074E-03,   1.82984E-03
C:/temp/dataset/9/26_4.odb,Step-1,Increment      1: Step Time =    1.000,"PART-1-1",           414,       2.33358,       3.78125,            0.,NA,NA,"",       1.07964,   998.905E-03,   409.651E-03,   2.77866E-03
C:/temp/dataset/9/26_4.odb,Step-1,Increment      1: Step Time =    1.000,"PART-1-1",           415,          1.25,            5.,            0.,NA,NA,"",       1.16514,       1.06750,   466.912E-03,   3.49440E-03
C:/temp/dataset/9/26_4.odb,Step-1,Increment      1: Step Time =    1.000,"PART-1-1",           416,      -9.23288,       7.29816,            0.,NA,NA,"",       1.60738,       1.22029,       1.04621,   720.838E-06
C:/temp/dataset/9/26_4.odb,Step-1,Increment      1: Step Time =    1.000,"PART-1-1",           417,      -8.32915,       6.01548,            0.,NA,NA,"",       1.52285,       1.14978,   998.530E-03,   871.301E-06
C:/temp/dataset/9/26_4.odb,Step-1,Increment      1: Step Time =    1.000,"PART-1-1",           418,      -7.21136,       6.82340,            0.,NA,NA,"",       1.51610,       1.19129,   937.760E-03,   1.24401E-03
C:/temp/dataset/9/26_4.odb,Step-1,Increment      1: Step Time =    1.000,"PART-1-1",           419,      -8.11509,       8.10607,            0.,NA,NA,"",       1.60103,       1.26146,   985.912E-03,   1.20546E-03
C:/temp/dataset/9/26_4.odb,Step-1,Increment      1: Step Time =    1.000,"PART-1-1",           420,      -13.1318,       11.4675,            0.,NA,NA,"",       1.91063,       1.44684,       1.24787,   233.682E-06
C:/temp/dataset/9/26_4.odb,Step-1,Increment      1: Step Time =    1.000,"PART-1-1",           421,      -14.0901,       12.5242,            0.,NA,NA,"",       1.98482,       1.50314,       1.29618,   502.645E-06
C:/temp/dataset/9/26_4.odb,Step-1,Increment      1: Step Time =    1.000,"PART-1-1",           422,          -15.,       11.4063,            0.,NA,NA,"",       1.97527,       1.44577,       1.34590,   783.153E-06
C:/temp/dataset/9/26_4.odb,Step-1,Increment      1: Step Time =    1.000,"PART-1-1",           423,      -9.35396,       14.3983,            0.,NA,NA,"",       1.90732,       1.59357,       1.04805,   824.178E-06
C:/temp/dataset/9/26_4.odb,Step-1,Increment      1: Step Time =    1.000,"PART-1-1",           424,      -10.5094,       15.3924,            0.,NA,NA,"",       1.98405,       1.64659,       1.10689,   496.906E-06
C:/temp/dataset/9/26_4.odb,Step-1,Increment      1: Step Time =    1.000,"PART-1-1",           425,      -11.3610,       13.8160,            0.,NA,NA,"",       1.94484,       1.56663,       1.15242,   292.492E-06
C:/temp/dataset/9/26_4.odb,Step-1,Increment      1: Step Time =    1.000,"PART-1-1",           426,      -10.2056,       12.8219,            0.,NA,NA,"",       1.86693,       1.51330,       1.09333,   613.630E-06
C:/temp/dataset/9/26_4.odb,Step-1,Increment      1: Step Time =    1.000,"PART-1-1",           427,      -14.0810,       18.8007,            0.,NA,NA,"",       2.23182,       1.82468,       1.28513,   306.117E-06
C:/temp/dataset/9/26_4.odb,Step-1,Increment      1: Step Time =    1.000,"PART-1-1",           428,          -15.,       17.9688,            0.,NA,NA,"",       2.22674,       1.78361,       1.33308,   545.608E-06
C:/temp/dataset/9/26_4.odb,Step-1,Increment      1: Step Time =    1.000,"PART-1-1",           429,      -14.2329,       16.7349,            0.,NA,NA,"",       2.15379,       1.72010,       1.29617,   433.118E-06
C:/temp/dataset/9/26_4.odb,Step-1,Increment      1: Step Time =    1.000,"PART-1-1",           430,      -13.3139,       17.5668,            0.,NA,NA,"",       2.15865,       1.76133,       1.24799,   228.301E-06
C:/temp/dataset/9/26_4.odb,Step-1,Increment      1: Step Time =    1.000,"PART-1-1",           431,      -12.9537,       19.5700,            0.,NA,NA,"",       2.22997,       1.86208,       1.22695,   202.250E-06
C:/temp/dataset/9/26_4.odb,Step-1,Increment      1: Step Time =    1.000,"PART-1-1",           432,      -13.8727,       20.9255,            0.,NA,NA,"",       2.31228,       1.93130,       1.27151,   176.870E-06
C:/temp/dataset/9/26_4.odb,Step-1,Increment      1: Step Time =    1.000,"PART-1-1",           433,          -15.,       20.1563,            0.,NA,NA,"",       2.31396,       1.89398,       1.32938,   385.419E-06
C:/temp/dataset/9/26_4.odb,Step-1,Increment      1: Step Time =    1.000,"PART-1-1",           434,       1.76445,       24.7908,            0.,NA,NA,"",       2.16007,       2.10383,   489.689E-03,   1.38277E-03
C:/temp/dataset/9/26_4.odb,Step-1,Increment      1: Step Time =    1.000,"PART-1-1",           435,       1.36974,       27.3866,            0.,NA,NA,"",       2.29684,       2.24084,   504.061E-03,   1.42539E-03
C:/temp/dataset/9/26_4.odb,Step-1,Increment      1: Step Time =    1.000,"PART-1-1",           436,   176.493E-03,       26.0346,            0.,NA,NA,"",       2.24349,       2.17006,   569.278E-03,   1.51838E-03
C:/temp/dataset/9/26_4.odb,Step-1,Increment      1: Step Time =    1.000,"PART-1-1",           437,       7.39460,       20.9669,            0.,NA,NA,"",       1.89250,       1.88433,   175.666E-03,   2.27571E-03
C:/temp/dataset/9/26_4.odb,Step-1,Increment      1: Step Time =    1.000,"PART-1-1",           438,       8.70526,       19.9066,            0.,NA,NA,"",       1.82437,       1.82149,   102.464E-03,   1.40924E-03
C:/temp/dataset/9/26_4.odb,Step-1,Increment      1: Step Time =    1.000,"PART-1-1",           439,       9.85134,       21.1719,            0.,NA,NA,"",       1.89000,       1.88961,   38.5482E-03,   1.17706E-03
C:/temp/dataset/9/26_4.odb,Step-1,Increment      1: Step Time =    1.000,"PART-1-1",           440,       8.54068,       22.2321,            0.,NA,NA,"",       1.95526,       1.95209,   111.202E-03,   1.80997E-03
C:/temp/dataset/9/26_4.odb,Step-1,Increment      1: Step Time =    1.000,"PART-1-1",           441,       4.10864,       24.1658,            0.,NA,NA,"",       2.10028,       2.06871,   362.814E-03,   2.17402E-03
C:/temp/dataset/9/26_4.odb,Step-1,Increment      1: Step Time =    1.000,"PART-1-1",           442,       5.90921,       23.8009,            0.,NA,NA,"",       2.06236,       2.04582,   260.672E-03,   2.45776E-03
C:/temp/dataset/9/26_4.odb,Step-1,Increment      1: Step Time =    1.000,"PART-1-1",           443,       6.25965,       24.9450,            0.,NA,NA,"",       2.12032,       2.10676,   239.434E-03,   2.00322E-03
C:/temp/dataset/9/26_4.odb,Step-1,Increment      1: Step Time =    1.000,"PART-1-1",           444,   19.2837E-03,       28.6494,            0.,NA,NA,"",       2.37655,       2.30680,   571.563E-03,   2.05364E-03
C:/temp/dataset/9/26_4.odb,Step-1,Increment      1: Step Time =    1.000,"PART-1-1",           445,       2.60045,       28.7372,            0.,NA,NA,"",       2.35311,       2.31249,   435.320E-03,   2.14626E-03
C:/temp/dataset/9/26_4.odb,Step-1,Increment      1: Step Time =    1.000,"PART-1-1",           446,          1.25,           30.,            0.,NA,NA,"",       2.43112,       2.37829,   504.054E-03,   2.82144E-03
C:/temp/dataset/9/26_4.odb,Step-1,Increment      1: Step Time =    1.000,"PART-1-1",           447,      -7.67774,       29.0428,            0.,NA,NA,"",       2.51649,       2.32870,   953.874E-03,   332.771E-06
C:/temp/dataset/9/26_4.odb,Step-1,Increment      1: Step Time =    1.000,"PART-1-1",           448,      -6.68998,       27.9093,            0.,NA,NA,"",       2.44548,       2.27115,   906.774E-03,   778.215E-06
C:/temp/dataset/9/26_4.odb,Step-1,Increment      1: Step Time =    1.000,"PART-1-1",           449,         -6.25,           30.,            0.,NA,NA,"",       2.53343,       2.37487,   882.178E-03,   609.248E-06
C:/temp/dataset/9/26_4.odb,Step-1,Increment      1: Step Time =    1.000,"PART-1-1",           450,      -12.1701,       26.6384,            0.,NA,NA,"",       2.50877,       2.21430,       1.17932,   72.2871E-06
C:/temp/dataset/9/26_4.odb,Step-1,Increment      1: Step Time =    1.000,"PART-1-1",           451,      -13.7206,       27.8542,            0.,NA,NA,"",       2.59976,       2.27676,       1.25503,   18.4071E-06
C:/temp/dataset/9/26_4.odb,Step-1,Increment      1: Step Time =    1.000,"PART-1-1",           452,          -15.,       26.7188,            0.,NA,NA,"",       2.58444,       2.22182,       1.32017,   60.3207E-06
C:/temp/dataset/9/26_4.odb,Step-1,Increment      1: Step Time =    1.000,"PART-1-1",           453,        -13.75,           30.,            0.,NA,NA,"",       2.69321,       2.38354,       1.25384,   13.6663E-06
C:/temp/dataset/9/26_4.odb,Step-1,Increment      1: Step Time =    1.000,"PART-1-1",           454,          -15.,       28.9063,            0.,NA,NA,"",       2.67724,       2.33068,       1.31740,   13.9800E-06
C:/temp/dataset/9/26_4.odb,Step-1,Increment      1: Step Time =    1.000,"PART-1-1",           455,      -9.01567,       28.1413,            0.,NA,NA,"",       2.50300,       2.28527,       1.02105,   316.232E-06
C:/temp/dataset/9/26_4.odb,Step-1,Increment      1: Step Time =    1.000,"PART-1-1",           456,         -8.75,           30.,            0.,NA,NA,"",       2.58121,       2.37727,       1.00558,   120.134E-06
C:/temp/dataset/9/26_4.odb,Step-1,Increment      1: Step Time =    1.000,"PART-1-1",           457,      -10.9923,       18.6369,            0.,NA,NA,"",       2.13506,       1.81243,       1.12853,   392.058E-06
C:/temp/dataset/9/26_4.odb,Step-1,Increment      1: Step Time =    1.000,"PART-1-1",           458,      -11.7056,       20.1347,            0.,NA,NA,"",       2.21823,       1.88882,       1.16314,   320.343E-06
C:/temp/dataset/9/26_4.odb,Step-1,Increment      1: Step Time =    1.000,"PART-1-1",           459,      -12.2405,       18.0722,            0.,NA,NA,"",       2.14725,       1.78558,       1.19264,   199.904E-06
C:/temp/dataset/9/26_4.odb,Step-1,Increment      1: Step Time =    1.000,"PART-1-1",           460,      -11.7153,       17.0060,            0.,NA,NA,"",       2.08751,       1.73077,       1.16710,   241.818E-06
C:/temp/dataset/9/26_4.odb,Step-1,Increment      1: Step Time =    1.000,"PART-1-1",           461,      -12.7888,       16.5007,            0.,NA,NA,"",       2.09925,       1.70644,       1.22267,   153.504E-06
C:/temp/dataset/9/26_4.odb,Step-1,Increment      1: Step Time =    1.000,"PART-1-1",           462,      -13.2634,       13.5986,            0.,NA,NA,"",       1.99828,       1.55794,       1.25138,   251.904E-06
C:/temp/dataset/9/26_4.odb,Step-1,Increment      1: Step Time =    1.000,"PART-1-1",           463,      -14.1733,       14.6682,            0.,NA,NA,"",       2.07051,       1.61421,       1.29667,   483.505E-06
C:/temp/dataset/9/26_4.odb,Step-1,Increment      1: Step Time =    1.000,"PART-1-1",           464,          -15.,       13.5938,            0.,NA,NA,"",       2.05715,       1.55963,       1.34142,   741.136E-06
C:/temp/dataset/9/26_4.odb,Step-1,Increment      1: Step Time =    1.000,"PART-1-1",           465,      -6.04154,       10.1420,            0.,NA,NA,"",       1.62183,       1.36499,   875.860E-03,   1.87521E-03
C:/temp/dataset/9/26_4.odb,Step-1,Increment      1: Step Time =    1.000,"PART-1-1",           466,      -7.09581,       9.10381,            0.,NA,NA,"",       1.60938,       1.31244,   931.451E-03,   1.55124E-03
C:/temp/dataset/9/26_4.odb,Step-1,Increment      1: Step Time =    1.000,"PART-1-1",           467,      -6.05428,       7.71180,            0.,NA,NA,"",       1.51498,       1.23630,   875.636E-03,   1.94157E-03
C:/temp/dataset/9/26_4.odb,Step-1,Increment      1: Step Time =    1.000,"PART-1-1",           468,           -5.,          8.75,            0.,NA,NA,"",       1.52779,       1.28891,   820.271E-03,   2.26759E-03
C:/temp/dataset/9/26_4.odb,Step-1,Increment      1: Step Time =    1.000,"PART-1-1",           469,      -6.15708,       5.36159,            0.,NA,NA,"",       1.41745,       1.11063,   880.729E-03,   1.84693E-03
C:/temp/dataset/9/26_4.odb,Step-1,Increment      1: Step Time =    1.000,"PART-1-1",           470,           -5.,          6.25,            0.,NA,NA,"",       1.41584,       1.15559,   818.047E-03,   2.93710E-03
C:/temp/dataset/9/26_4.odb,Step-1,Increment      1: Step Time =    1.000,"PART-1-1",           471,      -13.8567,       3.63033,            0.,NA,NA,"",       1.65786,       1.02889,       1.29996,   316.192E-06
C:/temp/dataset/9/26_4.odb,Step-1,Increment      1: Step Time =    1.000,"PART-1-1",           472,      -12.5372,       4.63979,            0.,NA,NA,"",       1.63582,       1.08193,       1.22693,   213.131E-06
C:/temp/dataset/9/26_4.odb,Step-1,Increment      1: Step Time =    1.000,"PART-1-1",           473,          -15.,       4.84375,            0.,NA,NA,"",       1.74652,       1.09621,       1.35966,   597.074E-06
C:/temp/dataset/9/26_4.odb,Step-1,Increment      1: Step Time =    1.000,"PART-1-1",           474,      -12.7859,       2.45238,            0.,NA,NA,"",       1.57308,   963.144E-03,       1.24376,   219.573E-06
C:/temp/dataset/9/26_4.odb,Step-1,Increment      1: Step Time =    1.000,"PART-1-1",           475,          -15.,       2.65625,            0.,NA,NA,"",       1.67792,   977.323E-03,       1.36391,   422.201E-06
C:/temp/dataset/9/26_4.odb,Step-1,Increment      1: Step Time =    1.000,"PART-1-1",           476,      -13.7683,      -2.81830,            0.,NA,NA,"",       1.47002,   675.523E-03,       1.30562,   69.4572E-06
C:/temp/dataset/9/26_4.odb,Step-1,Increment      1: Step Time =    1.000,"PART-1-1",           477,          -15.,      -3.90625,            0.,NA,NA,"",       1.50721,   617.626E-03,       1.37485,   19.7705E-06
C:/temp/dataset/9/26_4.odb,Step-1,Increment      1: Step Time =    1.000,"PART-1-1",           478,        -13.75,           -5.,            0.,NA,NA,"",       1.42108,   555.710E-03,       1.30792,   21.6395E-06
C:/temp/dataset/9/26_4.odb,Step-1,Increment      1: Step Time =    1.000,"PART-1-1",           479,      -12.5183,      -3.91205,            0.,NA,NA,"",       1.38236,   613.542E-03,       1.23874,   79.6294E-06
C:/temp/dataset/9/26_4.odb,Step-1,Increment      1: Step Time =    1.000,"PART-1-1",           480,      -3.91473,      -3.03803,            0.,NA,NA,"",       1.00064,   649.013E-03,   761.625E-03,   979.371E-06
C:/temp/dataset/9/26_4.odb,Step-1,Increment      1: Step Time =    1.000,"PART-1-1",           481,      -5.07319,      -4.05962,            0.,NA,NA,"",       1.01918,   594.267E-03,   827.995E-03,   503.286E-06
C:/temp/dataset/9/26_4.odb,Step-1,Increment      1: Step Time =    1.000,"PART-1-1",           482,         -3.75,           -5.,            0.,NA,NA,"",   929.509E-03,   540.823E-03,   755.974E-03,   769.547E-06
C:/temp/dataset/9/26_4.odb,Step-1,Increment      1: Step Time =    1.000,"PART-1-1",           483,      -2.59153,      -3.97841,            0.,NA,NA,"",   911.618E-03,   596.389E-03,   689.470E-03,   1.08505E-03
C:/temp/dataset/9/26_4.odb,Step-1,Increment      1: Step Time =    1.000,"PART-1-1",           484,   563.435E-03,   72.7383E-03,            0.,NA,NA,"",   956.253E-03,   810.763E-03,   507.035E-03,   1.86958E-03
C:/temp/dataset/9/26_4.odb,Step-1,Increment      1: Step Time =    1.000,"PART-1-1",           485,  -536.863E-03,      -1.25885,            0.,NA,NA,"",   935.446E-03,   741.820E-03,   569.879E-03,   1.82719E-03
C:/temp/dataset/9/26_4.odb,Step-1,Increment      1: Step Time =    1.000,"PART-1-1",           486,       7.06616,      -9.87010,            0.,NA,NA,"",   383.187E-03,   359.312E-03,   133.143E-03,   7.52240E-03
C:/temp/dataset/9/26_4.odb,Step-1,Increment      1: Step Time =    1.000,"PART-1-1",           487,       6.02487,      -8.97716,            0.,NA,NA,"",   432.532E-03,   395.308E-03,   175.544E-03,   9.42568E-03
C:/temp/dataset/9/26_4.odb,Step-1,Increment      1: Step Time =    1.000,"PART-1-1",           488,            5.,      -10.2083,            0.,NA,NA,"",   409.811E-03,   357.398E-03,   200.529E-03,   11.0723E-03
C:/temp/dataset/9/26_4.odb,Step-1,Increment      1: Step Time =    1.000,"PART-1-1",           489,       13.0743,      -11.4048,            0.,NA,NA,"",   307.759E-03,   300.172E-03,  -67.9174E-03,   3.66726E-03
C:/temp/dataset/9/26_4.odb,Step-1,Increment      1: Step Time =    1.000,"PART-1-1",           490,       14.0423,      -12.5586,            0.,NA,NA,"",   281.565E-03,   265.839E-03,  -92.7804E-03,   5.53071E-03
C:/temp/dataset/9/26_4.odb,Step-1,Increment      1: Step Time =    1.000,"PART-1-1",           491,           15.,        -11.25,            0.,NA,NA,"",   335.562E-03,   308.913E-03,  -131.051E-03,   7.31644E-03
C:/temp/dataset/9/26_4.odb,Step-1,Increment      1: Step Time =    1.000,"PART-1-1",           492,       14.0319,      -10.0962,            0.,NA,NA,"",   360.951E-03,   345.080E-03,  -105.858E-03,   5.45278E-03
C:/temp/dataset/9/26_4.odb,Step-1,Increment      1: Step Time =    1.000,"PART-1-1",           493,       7.09943,      -16.3632,            0.,NA,NA,"",   191.916E-03,   168.801E-03,   91.3119E-03,   7.51355E-03
C:/temp/dataset/9/26_4.odb,Step-1,Increment      1: Step Time =    1.000,"PART-1-1",           494,            5.,      -16.4583,            0.,NA,NA,"",   224.794E-03,   176.010E-03,   139.831E-03,   11.4278E-03
C:/temp/dataset/9/26_4.odb,Step-1,Increment      1: Step Time =    1.000,"PART-1-1",           495,       13.0966,      -13.8278,            0.,NA,NA,"",   235.071E-03,   227.442E-03,  -59.4028E-03,   3.75902E-03
C:/temp/dataset/9/26_4.odb,Step-1,Increment      1: Step Time =    1.000,"PART-1-1",           496,       14.0543,      -15.0192,            0.,NA,NA,"",   212.570E-03,   197.003E-03,  -79.8494E-03,   5.59690E-03
C:/temp/dataset/9/26_4.odb,Step-1,Increment      1: Step Time =    1.000,"PART-1-1",           497,           15.,        -13.75,            0.,NA,NA,"",   259.692E-03,   233.626E-03,  -113.396E-03,   7.36726E-03
C:/temp/dataset/9/26_4.odb,Step-1,Increment      1: Step Time =    1.000,"PART-1-1",           498,       13.0974,      -18.6352,            0.,NA,NA,"",   119.861E-03,   112.422E-03,  -41.5699E-03,   3.87376E-03
C:/temp/dataset/9/26_4.odb,Step-1,Increment      1: Step Time =    1.000,"PART-1-1",           499,       14.0421,      -19.9133,            0.,NA,NA,"",   104.974E-03,   90.2997E-03,  -53.5310E-03,   5.72537E-03
C:/temp/dataset/9/26_4.odb,Step-1,Increment      1: Step Time =    1.000,"PART-1-1",           500,           15.,        -18.75,            0.,NA,NA,"",   139.008E-03,   114.654E-03,  -78.5973E-03,   7.51462E-03
C:/temp/dataset/9/26_4.odb,Step-1,Increment      1: Step Time =    1.000,"PART-1-1",           501,       14.0553,      -17.4719,            0.,NA,NA,"",   153.749E-03,   138.498E-03,  -66.7624E-03,   5.66290E-03
C:/temp/dataset/9/26_4.odb,Step-1,Increment      1: Step Time =    1.000,"PART-1-1",           502,       7.12541,      -22.7005,            0.,NA,NA,"",   70.9104E-03,   51.3879E-03,   48.8628E-03,   7.64119E-03
C:/temp/dataset/9/26_4.odb,Step-1,Increment      1: Step Time =    1.000,"PART-1-1",           503,       6.04628,      -21.6612,            0.,NA,NA,"",   100.249E-03,   70.1699E-03,   71.5962E-03,   9.64081E-03
C:/temp/dataset/9/26_4.odb,Step-1,Increment      1: Step Time =    1.000,"PART-1-1",           504,            5.,      -22.7083,            0.,NA,NA,"",   97.2647E-03,   60.6413E-03,   76.0463E-03,   11.6453E-03
C:/temp/dataset/9/26_4.odb,Step-1,Increment      1: Step Time =    1.000,"PART-1-1",           505,       6.07914,      -23.7476,            0.,NA,NA,"",   68.3459E-03,   42.8037E-03,   53.2822E-03,   9.64022E-03
C:/temp/dataset/9/26_4.odb,Step-1,Increment      1: Step Time =    1.000,"PART-1-1",           506,       6.22304,      -27.8948,            0.,NA,NA,"",   18.7862E-03,   9.03616E-03,   16.4703E-03,   9.62177E-03
C:/temp/dataset/9/26_4.odb,Step-1,Increment      1: Step Time =    1.000,"PART-1-1",           507,            5.,      -28.9583,            0.,NA,NA,"",   14.3922E-03,   9.21917E-03,   11.0518E-03,   12.0757E-03
C:/temp/dataset/9/26_4.odb,Step-1,Increment      1: Step Time =    1.000,"PART-1-1",           508,          6.25,          -30.,            0.,NA,NA,"",            0.,  -260.117E-42,   14.5177E-39,   9.01187E-03
C:/temp/dataset/9/26_4.odb,Step-1,Increment      1: Step Time =    1.000,"PART-1-1",           509,       9.78444,      -26.6535,            0.,NA,NA,"",   9.61662E-03,   7.19909E-03,   6.37593E-03,   2.49607E-03
C:/temp/dataset/9/26_4.odb,Step-1,Increment      1: Step Time =    1.000,"PART-1-1",           510,       8.47427,      -25.6871,            0.,NA,NA,"",   24.2436E-03,   16.0982E-03,   18.1274E-03,   5.21039E-03
C:/temp/dataset/9/26_4.odb,Step-1,Increment      1: Step Time =    1.000,"PART-1-1",           511,       7.37694,      -26.8334,            0.,NA,NA,"",   21.8897E-03,   11.0933E-03,   18.8705E-03,   7.31762E-03
C:/temp/dataset/9/26_4.odb,Step-1,Increment      1: Step Time =    1.000,"PART-1-1",           512,       13.7223,      -27.5034,            0.,NA,NA,"",   12.6246E-03,   5.61097E-03,  -11.3092E-03,   5.61354E-03
C:/temp/dataset/9/26_4.odb,Step-1,Increment      1: Step Time =    1.000,"PART-1-1",           513,       12.4723,      -28.7534,            0.,NA,NA,"",   2.75772E-03,  -426.777E-06,  -2.72450E-03,   2.76250E-03
C:/temp/dataset/9/26_4.odb,Step-1,Increment      1: Step Time =    1.000,"PART-1-1",           514,         13.75,          -30.,            0.,NA,NA,"",            0.,  -1.24377E-39,  -7.90629E-39,   4.77533E-03
C:/temp/dataset/9/26_4.odb,Step-1,Increment      1: Step Time =    1.000,"PART-1-1",           515,           15.,        -28.75,            0.,NA,NA,"",   9.67339E-03,   5.30055E-03,  -8.09189E-03,   7.60908E-03
C:/temp/dataset/9/26_4.odb,Step-1,Increment      1: Step Time =    1.000,"PART-1-1",           516,         11.25,          -30.,            0.,NA,NA,"",            0.,  -1.85614E-39,  -835.108E-42,   1.59880E-03
C:/temp/dataset/9/26_4.odb,Step-1,Increment      1: Step Time =    1.000,"PART-1-1",           517,       11.1864,      -27.6167,            0.,NA,NA,"",   2.11038E-03,   1.93592E-03,  -840.180E-06,   657.696E-06
C:/temp/dataset/9/26_4.odb,Step-1,Increment      1: Step Time =    1.000,"PART-1-1",           518,       9.10684,      -20.5966,            0.,NA,NA,"",   83.1357E-03,   77.2697E-03,   30.6748E-03,   3.80875E-03
C:/temp/dataset/9/26_4.odb,Step-1,Increment      1: Step Time =    1.000,"PART-1-1",           519,       11.0993,      -20.6881,            0.,NA,NA,"",   73.7527E-03,   73.7323E-03,  -1.73660E-03,   222.340E-06
C:/temp/dataset/9/26_4.odb,Step-1,Increment      1: Step Time =    1.000,"PART-1-1",           520,       7.08739,      -20.6083,            0.,NA,NA,"",   104.207E-03,   82.5925E-03,   63.5424E-03,   7.64502E-03
C:/temp/dataset/9/26_4.odb,Step-1,Increment      1: Step Time =    1.000,"PART-1-1",           521,            5.,       -20.625,            0.,NA,NA,"",   133.818E-03,   91.5848E-03,   97.5682E-03,   11.5899E-03
C:/temp/dataset/9/26_4.odb,Step-1,Increment      1: Step Time =    1.000,"PART-1-1",           522,       9.14341,      -14.0595,            0.,NA,NA,"",   228.096E-03,   222.519E-03,   50.1295E-03,   3.68001E-03
C:/temp/dataset/9/26_4.odb,Step-1,Increment      1: Step Time =    1.000,"PART-1-1",           523,       10.1582,      -15.1431,            0.,NA,NA,"",   192.973E-03,   191.829E-03,   20.9820E-03,   1.78115E-03
C:/temp/dataset/9/26_4.odb,Step-1,Increment      1: Step Time =    1.000,"PART-1-1",           524,       11.1509,      -13.9343,            0.,NA,NA,"",   223.629E-03,   223.573E-03,  -4.98777E-03,   159.094E-06
C:/temp/dataset/9/26_4.odb,Step-1,Increment      1: Step Time =    1.000,"PART-1-1",           525,       10.1361,      -12.8507,            0.,NA,NA,"",   256.778E-03,   255.616E-03,   24.3959E-03,   1.81999E-03
C:/temp/dataset/9/26_4.odb,Step-1,Increment      1: Step Time =    1.000,"PART-1-1",           526,       9.12292,      -11.8044,            0.,NA,NA,"",   294.947E-03,   289.351E-03,   57.1823E-03,   3.66716E-03
C:/temp/dataset/9/26_4.odb,Step-1,Increment      1: Step Time =    1.000,"PART-1-1",           527,       11.1213,      -11.5948,            0.,NA,NA,"",   293.471E-03,   293.424E-03,  -5.28564E-03,   161.198E-06
C:/temp/dataset/9/26_4.odb,Step-1,Increment      1: Step Time =    1.000,"PART-1-1",           528,       10.1081,      -10.5485,            0.,NA,NA,"",   329.701E-03,   328.522E-03,   27.8559E-03,   1.80638E-03
C:/temp/dataset/9/26_4.odb,Step-1,Increment      1: Step Time =    1.000,"PART-1-1",           529,       13.8169,  -7.21098E-03,            0.,NA,NA,"",   789.442E-03,   776.427E-03,  -142.762E-03,   2.04696E-03
C:/temp/dataset/9/26_4.odb,Step-1,Increment      1: Step Time =    1.000,"PART-1-1",           530,           15.,          1.25,            0.,NA,NA,"",   862.250E-03,   837.825E-03,  -203.777E-03,   2.06137E-03
C:/temp/dataset/9/26_4.odb,Step-1,Increment      1: Step Time =    1.000,"PART-1-1",           531,       13.9075,       2.57030,            0.,NA,NA,"",   916.847E-03,   903.916E-03,  -153.443E-03,   1.04143E-03
C:/temp/dataset/9/26_4.odb,Step-1,Increment      1: Step Time =    1.000,"PART-1-1",           532,       10.8083,      -4.35361,            0.,NA,NA,"",   571.219E-03,   571.219E-03,   286.501E-06,   2.26150E-03
C:/temp/dataset/9/26_4.odb,Step-1,Increment      1: Step Time =    1.000,"PART-1-1",           533,       9.68548,      -3.40243,            0.,NA,NA,"",   617.746E-03,   615.926E-03,   47.3822E-03,   3.04419E-03
C:/temp/dataset/9/26_4.odb,Step-1,Increment      1: Step Time =    1.000,"PART-1-1",           534,       8.81587,      -4.92348,            0.,NA,NA,"",   553.440E-03,   547.130E-03,   83.3352E-03,   2.95213E-03
C:/temp/dataset/9/26_4.odb,Step-1,Increment      1: Step Time =    1.000,"PART-1-1",           535,       9.93870,      -5.87466,            0.,NA,NA,"",   506.332E-03,   504.987E-03,   36.8740E-03,   1.77058E-03
C:/temp/dataset/9/26_4.odb,Step-1,Increment      1: Step Time =    1.000,"PART-1-1",           536,       10.7940,       8.23694,            0.,NA,NA,"",       1.19370,       1.19369,  -4.72468E-03,   866.572E-06
C:/temp/dataset/9/26_4.odb,Step-1,Increment      1: Step Time =    1.000,"PART-1-1",           537,       11.2752,       6.42654,            0.,NA,NA,"",       1.10138,       1.10102,  -28.0122E-03,   783.335E-06
C:/temp/dataset/9/26_4.odb,Step-1,Increment      1: Step Time =    1.000,"PART-1-1",           538,       12.8821,       8.67106,            0.,NA,NA,"",       1.21787,       1.21273,  -111.756E-03,   30.3421E-06
C:/temp/dataset/9/26_4.odb,Step-1,Increment      1: Step Time =    1.000,"PART-1-1",           539,       14.0355,       7.50951,            0.,NA,NA,"",       1.16441,       1.15210,  -168.838E-03,   477.615E-06
C:/temp/dataset/9/26_4.odb,Step-1,Increment      1: Step Time =    1.000,"PART-1-1",           540,           15.,          8.75,            0.,NA,NA,"",       1.23426,       1.21441,  -220.463E-03,   871.332E-06
C:/temp/dataset/9/26_4.odb,Step-1,Increment      1: Step Time =    1.000,"PART-1-1",           541,       13.8467,       9.91155,            0.,NA,NA,"",       1.28575,       1.27534,  -163.284E-03,   416.470E-06
C:/temp/dataset/9/26_4.odb,Step-1,Increment      1: Step Time =    1.000,"PART-1-1",           542,       12.4850,       16.2122,            0.,NA,NA,"",       1.61407,       1.61093,  -100.748E-03,   352.286E-06
C:/temp/dataset/9/26_4.odb,Step-1,Increment      1: Step Time =    1.000,"PART-1-1",           543,       13.7431,       14.9727,            0.,NA,NA,"",       1.55114,       1.54217,  -166.542E-03,   320.969E-06
C:/temp/dataset/9/26_4.odb,Step-1,Increment      1: Step Time =    1.000,"PART-1-1",           544,           15.,         16.25,            0.,NA,NA,"",       1.62693,       1.60961,  -236.768E-03,   696.501E-06
C:/temp/dataset/9/26_4.odb,Step-1,Increment      1: Step Time =    1.000,"PART-1-1",           545,       13.7419,       17.4895,            0.,NA,NA,"",       1.68743,       1.67877,  -170.695E-03,   259.621E-06
C:/temp/dataset/9/26_4.odb,Step-1,Increment      1: Step Time =    1.000,"PART-1-1",           546,       12.4991,       13.6576,            0.,NA,NA,"",       1.47679,       1.47352,  -98.2409E-03,   216.624E-06
C:/temp/dataset/9/26_4.odb,Step-1,Increment      1: Step Time =    1.000,"PART-1-1",           547,       13.7559,       12.4349,            0.,NA,NA,"",       1.41647,       1.40707,  -162.870E-03,   371.906E-06
C:/temp/dataset/9/26_4.odb,Step-1,Increment      1: Step Time =    1.000,"PART-1-1",           548,           15.,         13.75,            0.,NA,NA,"",       1.49334,       1.47531,  -231.331E-03,   862.569E-06
C:/temp/dataset/9/26_4.odb,Step-1,Increment      1: Step Time =    1.000,"PART-1-1",           549,           15.,         21.25,            0.,NA,NA,"",       1.90059,       1.88459,  -246.068E-03,   69.6936E-06
C:/temp/dataset/9/26_4.odb,Step-1,Increment      1: Step Time =    1.000,"PART-1-1",           550,       13.6875,       22.5045,            0.,NA,NA,"",       1.96425,       1.95643,  -175.104E-03,   288.845E-06
C:/temp/dataset/9/26_4.odb,Step-1,Increment      1: Step Time =    1.000,"PART-1-1",           551,       12.4125,       21.2511,            0.,NA,NA,"",       1.89168,       1.88888,  -103.022E-03,   523.816E-06
C:/temp/dataset/9/26_4.odb,Step-1,Increment      1: Step Time =    1.000,"PART-1-1",           552,       13.7250,       19.9966,            0.,NA,NA,"",       1.82529,       1.81701,  -173.671E-03,   257.146E-06
C:/temp/dataset/9/26_4.odb,Step-1,Increment      1: Step Time =    1.000,"PART-1-1",           553,       13.6481,       25.0064,            0.,NA,NA,"",       2.10302,       2.09562,  -176.267E-03,   251.426E-06
C:/temp/dataset/9/26_4.odb,Step-1,Increment      1: Step Time =    1.000,"PART-1-1",           554,       12.3356,       23.7609,            0.,NA,NA,"",       2.03120,       2.02866,  -101.600E-03,   420.252E-06
C:/temp/dataset/9/26_4.odb,Step-1,Increment      1: Step Time =    1.000,"PART-1-1",           555,           15.,         23.75,            0.,NA,NA,"",       2.03890,       2.02355,  -249.724E-03,   112.212E-06
C:/temp/dataset/9/26_4.odb,Step-1,Increment      1: Step Time =    1.000,"PART-1-1",           556,       13.7112,       27.5077,            0.,NA,NA,"",       2.24213,       2.23462,  -183.341E-03,   120.541E-06
C:/temp/dataset/9/26_4.odb,Step-1,Increment      1: Step Time =    1.000,"PART-1-1",           557,           15.,         28.75,            0.,NA,NA,"",       2.31616,       2.30185,  -257.140E-03,   17.4482E-06
C:/temp/dataset/9/26_4.odb,Step-1,Increment      1: Step Time =    1.000,"PART-1-1",           558,         13.75,           30.,            0.,NA,NA,"",       2.38109,       2.37355,  -189.343E-03,   13.6748E-06
C:/temp/dataset/9/26_4.odb,Step-1,Increment      1: Step Time =    1.000,"PART-1-1",           559,            5.,      -24.7917,            0.,NA,NA,"",   65.8722E-03,   37.1773E-03,   54.3783E-03,   11.5579E-03
C:/temp/dataset/9/26_4.odb,Step-1,Increment      1: Step Time =    1.000,"PART-1-1",           560,       6.15390,      -25.8136,            0.,NA,NA,"",   41.7914E-03,   22.9556E-03,   34.9222E-03,   9.54171E-03
C:/temp/dataset/9/26_4.odb,Step-1,Increment      1: Step Time =    1.000,"PART-1-1",           561,       7.23304,      -24.7696,            0.,NA,NA,"",   43.6117E-03,   27.7039E-03,   33.6820E-03,   7.59497E-03
C:/temp/dataset/9/26_4.odb,Step-1,Increment      1: Step Time =    1.000,"PART-1-1",           562,       13.0086,      -21.0119,            0.,NA,NA,"",   76.6034E-03,   69.8456E-03,  -31.4592E-03,   3.76504E-03
C:/temp/dataset/9/26_4.odb,Step-1,Increment      1: Step Time =    1.000,"PART-1-1",           563,       13.9664,      -22.3485,            0.,NA,NA,"",   65.4776E-03,   52.1739E-03,  -39.5626E-03,   5.69625E-03
C:/temp/dataset/9/26_4.odb,Step-1,Increment      1: Step Time =    1.000,"PART-1-1",           564,           15.,        -21.25,            0.,NA,NA,"",   93.7351E-03,   70.9984E-03,  -61.2004E-03,   7.65398E-03
C:/temp/dataset/9/26_4.odb,Step-1,Increment      1: Step Time =    1.000,"PART-1-1",           565,            5.,       -26.875,            0.,NA,NA,"",   39.2434E-03,   20.9923E-03,   33.1567E-03,   11.6294E-03
C:/temp/dataset/9/26_4.odb,Step-1,Increment      1: Step Time =    1.000,"PART-1-1",           566,       12.9745,      -6.51631,            0.,NA,NA,"",   485.549E-03,   478.409E-03,  -82.9611E-03,   3.32433E-03
C:/temp/dataset/9/26_4.odb,Step-1,Increment      1: Step Time =    1.000,"PART-1-1",           567,       14.0104,      -7.62731,            0.,NA,NA,"",   451.134E-03,   435.297E-03,  -118.486E-03,   5.19451E-03
C:/temp/dataset/9/26_4.odb,Step-1,Increment      1: Step Time =    1.000,"PART-1-1",           568,           15.,         -6.25,            0.,NA,NA,"",   519.537E-03,   492.177E-03,  -166.376E-03,   6.50092E-03
C:/temp/dataset/9/26_4.odb,Step-1,Increment      1: Step Time =    1.000,"PART-1-1",           569,       13.9641,      -5.13900,            0.,NA,NA,"",   552.719E-03,   537.350E-03,  -129.434E-03,   4.50686E-03
C:/temp/dataset/9/26_4.odb,Step-1,Increment      1: Step Time =    1.000,"PART-1-1",           570,       11.1649,      -16.2543,            0.,NA,NA,"",   163.466E-03,   163.408E-03,  -4.33507E-03,   206.520E-06
C:/temp/dataset/9/26_4.odb,Step-1,Increment      1: Step Time =    1.000,"PART-1-1",           571,       9.14831,      -16.2933,            0.,NA,NA,"",   170.327E-03,   164.713E-03,   43.3716E-03,   3.68056E-03
C:/temp/dataset/9/26_4.odb,Step-1,Increment      1: Step Time =    1.000,"PART-1-1",           572,            5.,        -8.125,            0.,NA,NA,"",   484.320E-03,   431.758E-03,   219.434E-03,   11.6460E-03
C:/temp/dataset/9/26_4.odb,Step-1,Increment      1: Step Time =    1.000,"PART-1-1",           573,       12.8519,      -3.99254,            0.,NA,NA,"",   593.706E-03,   587.336E-03,  -86.7426E-03,   2.97275E-03
C:/temp/dataset/9/26_4.odb,Step-1,Increment      1: Step Time =    1.000,"PART-1-1",           574,           15.,         -3.75,            0.,NA,NA,"",   627.025E-03,   599.982E-03,  -182.160E-03,   5.22466E-03
C:/temp/dataset/9/26_4.odb,Step-1,Increment      1: Step Time =    1.000,"PART-1-1",           575,       13.8878,      -2.60354,            0.,NA,NA,"",   666.015E-03,   651.709E-03,  -137.300E-03,   3.33898E-03
C:/temp/dataset/9/26_4.odb,Step-1,Increment      1: Step Time =    1.000,"PART-1-1",           576,       13.0423,      -8.97351,            0.,NA,NA,"",   390.894E-03,   383.402E-03,  -76.1675E-03,   3.54639E-03
C:/temp/dataset/9/26_4.odb,Step-1,Increment      1: Step Time =    1.000,"PART-1-1",           577,           15.,         -8.75,            0.,NA,NA,"",   422.129E-03,   394.999E-03,  -148.892E-03,   7.12702E-03
C:/temp/dataset/9/26_4.odb,Step-1,Increment      1: Step Time =    1.000,"PART-1-1",           578,       8.09346,      -21.6433,            0.,NA,NA,"",   75.7604E-03,   63.1062E-03,   41.9196E-03,   5.75882E-03
C:/temp/dataset/9/26_4.odb,Step-1,Increment      1: Step Time =    1.000,"PART-1-1",           579,       8.17438,      -23.6967,            0.,NA,NA,"",   47.1866E-03,   36.0087E-03,   30.4952E-03,   5.68510E-03
C:/temp/dataset/9/26_4.odb,Step-1,Increment      1: Step Time =    1.000,"PART-1-1",           580,       8.10077,      -19.5616,            0.,NA,NA,"",   110.840E-03,   97.7696E-03,   52.2176E-03,   5.69155E-03
C:/temp/dataset/9/26_4.odb,Step-1,Increment      1: Step Time =    1.000,"PART-1-1",           581,       8.11824,      -17.4194,            0.,NA,NA,"",   154.330E-03,   141.189E-03,   62.3173E-03,   5.62216E-03
C:/temp/dataset/9/26_4.odb,Step-1,Increment      1: Step Time =    1.000,"PART-1-1",           582,          -15.,       22.3438,            0.,NA,NA,"",       2.40269,       2.00362,       1.32605,   231.720E-06
C:/temp/dataset/9/26_4.odb,Step-1,Increment      1: Step Time =    1.000,"PART-1-1",           583,      -12.5647,       21.7347,            0.,NA,NA,"",       2.30927,       1.97016,       1.20466,   200.048E-06
C:/temp/dataset/9/26_4.odb,Step-1,Increment      1: Step Time =    1.000,"PART-1-1",           584,      -4.95050,       22.5220,            0.,NA,NA,"",       2.16018,       1.99595,   826.173E-03,   1.91044E-03
C:/temp/dataset/9/26_4.odb,Step-1,Increment      1: Step Time =    1.000,"PART-1-1",           585,      -3.93081,       23.1260,            0.,NA,NA,"",       2.16831,       2.02443,   776.695E-03,   1.81806E-03
C:/temp/dataset/9/26_4.odb,Step-1,Increment      1: Step Time =    1.000,"PART-1-1",           586,      -4.22857,       24.4244,            0.,NA,NA,"",       2.23546,       2.09115,   790.166E-03,   1.75212E-03
C:/temp/dataset/9/26_4.odb,Step-1,Increment      1: Step Time =    1.000,"PART-1-1",           587,      -5.24826,       23.8204,            0.,NA,NA,"",       2.22677,       2.06221,   840.111E-03,   1.63745E-03
C:/temp/dataset/9/26_4.odb,Step-1,Increment      1: Step Time =    1.000,"PART-1-1",           588,      -10.1110,       10.4874,            0.,NA,NA,"",       1.76738,       1.39102,       1.09029,   617.909E-06
C:/temp/dataset/9/26_4.odb,Step-1,Increment      1: Step Time =    1.000,"PART-1-1",           589,      -9.15687,       11.6944,            0.,NA,NA,"",       1.78623,       1.45273,       1.03932,   905.637E-06
C:/temp/dataset/9/26_4.odb,Step-1,Increment      1: Step Time =    1.000,"PART-1-1",           590,      -11.1597,       11.6149,            0.,NA,NA,"",       1.84858,       1.45182,       1.14431,   328.758E-06
C:/temp/dataset/9/26_4.odb,Step-1,Increment      1: Step Time =    1.000,"PART-1-1",           591,      -6.07359,       12.6401,            0.,NA,NA,"",       1.73477,       1.49605,   878.221E-03,   1.81387E-03
C:/temp/dataset/9/26_4.odb,Step-1,Increment      1: Step Time =    1.000,"PART-1-1",           592,      -7.11512,       11.5321,            0.,NA,NA,"",       1.71581,       1.44035,   932.430E-03,   1.52672E-03
C:/temp/dataset/9/26_4.odb,Step-1,Increment      1: Step Time =    1.000,"PART-1-1",           593,           -5.,         11.25,            0.,NA,NA,"",       1.64135,       1.42092,   821.601E-03,   2.15081E-03
C:/temp/dataset/9/26_4.odb,Step-1,Increment      1: Step Time =    1.000,"PART-1-1",           594,      -10.0988,       8.37440,            0.,NA,NA,"",       1.68156,       1.27917,       1.09150,   545.878E-06
C:/temp/dataset/9/26_4.odb,Step-1,Increment      1: Step Time =    1.000,"PART-1-1",           595,      -9.11481,       9.38066,            0.,NA,NA,"",       1.68811,       1.33091,       1.03845,   881.846E-06
C:/temp/dataset/9/26_4.odb,Step-1,Increment      1: Step Time =    1.000,"PART-1-1",           596,      -11.0949,       9.48111,            0.,NA,NA,"",       1.76101,       1.33945,       1.14325,   306.672E-06
C:/temp/dataset/9/26_4.odb,Step-1,Increment      1: Step Time =    1.000,"PART-1-1",           597,      -11.8142,       15.6555,            0.,NA,NA,"",       2.03464,       1.66196,       1.17374,   201.019E-06
C:/temp/dataset/9/26_4.odb,Step-1,Increment      1: Step Time =    1.000,"PART-1-1",           598,      -13.4062,       15.6218,            0.,NA,NA,"",       2.08321,       1.66229,       1.25562,   264.714E-06
C:/temp/dataset/9/26_4.odb,Step-1,Increment      1: Step Time =    1.000,"PART-1-1",           599,      -12.4316,       14.7766,            0.,NA,NA,"",       2.01813,       1.61767,       1.20664,   97.5541E-06
C:/temp/dataset/9/26_4.odb,Step-1,Increment      1: Step Time =    1.000,"PART-1-1",           600,      -5.72199,       20.2132,            0.,NA,NA,"",       2.07131,       1.88293,   863.054E-03,   1.97702E-03
C:/temp/dataset/9/26_4.odb,Step-1,Increment      1: Step Time =    1.000,"PART-1-1",           601,           -5.,         18.75,            0.,NA,NA,"",       1.98791,       1.80799,   826.409E-03,   2.64900E-03
C:/temp/dataset/9/26_4.odb,Step-1,Increment      1: Step Time =    1.000,"PART-1-1",           602,          -15.,       15.7813,            0.,NA,NA,"",       2.14108,       1.67222,       1.33712,   666.010E-06
C:/temp/dataset/9/26_4.odb,Step-1,Increment      1: Step Time =    1.000,"PART-1-1",           603,      -10.4105,       16.7429,            0.,NA,NA,"",       2.03825,       1.71553,       1.10064,   510.189E-06
C:/temp/dataset/9/26_4.odb,Step-1,Increment      1: Step Time =    1.000,"PART-1-1",           604,      -12.1928,       12.6381,            0.,NA,NA,"",       1.92435,       1.50669,       1.19709,   79.3081E-06
C:/temp/dataset/9/26_4.odb,Step-1,Increment      1: Step Time =    1.000,"PART-1-1",           605,      -12.0987,       10.4443,            0.,NA,NA,"",       1.83443,       1.39175,       1.19507,   61.7967E-06
C:/temp/dataset/9/26_4.odb,Step-1,Increment      1: Step Time =    1.000,"PART-1-1",           606,      -7.50325,       4.80693,            0.,NA,NA,"",       1.44345,       1.08286,   954.438E-03,   1.10766E-03
C:/temp/dataset/9/26_4.odb,Step-1,Increment      1: Step Time =    1.000,"PART-1-1",           607,      -9.63824,       5.46172,            0.,NA,NA,"",       1.55017,       1.12205,       1.06959,   561.818E-06
C:/temp/dataset/9/26_4.odb,Step-1,Increment      1: Step Time =    1.000,"PART-1-1",           608,      -8.81234,       4.25317,            0.,NA,NA,"",       1.47166,       1.05501,       1.02602,   761.494E-06
C:/temp/dataset/9/26_4.odb,Step-1,Increment      1: Step Time =    1.000,"PART-1-1",           609,          -15.,      -1.71875,            0.,NA,NA,"",       1.55729,   737.733E-03,       1.37146,   111.000E-06
C:/temp/dataset/9/26_4.odb,Step-1,Increment      1: Step Time =    1.000,"PART-1-1",           610,      -12.5835,      -1.75493,            0.,NA,NA,"",       1.43923,   732.161E-03,       1.23908,   136.092E-06
C:/temp/dataset/9/26_4.odb,Step-1,Increment      1: Step Time =    1.000,"PART-1-1",           611,        -11.25,           -5.,            0.,NA,NA,"",       1.29430,   551.803E-03,       1.17078,   107.502E-06
C:/temp/dataset/9/26_4.odb,Step-1,Increment      1: Step Time =    1.000,"PART-1-1",           612,      -10.0144,      -3.91217,            0.,NA,NA,"",       1.25878,   609.615E-03,       1.10131,   101.863E-06
C:/temp/dataset/9/26_4.odb,Step-1,Increment      1: Step Time =    1.000,"PART-1-1",           613,      -11.2827,      -2.82422,            0.,NA,NA,"",       1.34842,   671.408E-03,       1.16938,   71.3775E-06
C:/temp/dataset/9/26_4.odb,Step-1,Increment      1: Step Time =    1.000,"PART-1-1",           614,         -8.75,           -5.,            0.,NA,NA,"",       1.16945,   547.685E-03,       1.03327,   99.4042E-06
C:/temp/dataset/9/26_4.odb,Step-1,Increment      1: Step Time =    1.000,"PART-1-1",           615,      -7.54904,      -4.01671,            0.,NA,NA,"",       1.13672,   600.024E-03,   965.452E-03,   169.219E-06
C:/temp/dataset/9/26_4.odb,Step-1,Increment      1: Step Time =    1.000,"PART-1-1",           616,      -8.81345,      -2.92887,            0.,NA,NA,"",       1.22743,   661.794E-03,       1.03373,   177.398E-06
C:/temp/dataset/9/26_4.odb,Step-1,Increment      1: Step Time =    1.000,"PART-1-1",           617,  -969.738E-03,       22.2544,            0.,NA,NA,"",       2.07346,       1.97395,   634.612E-03,   2.42207E-03
C:/temp/dataset/9/26_4.odb,Step-1,Increment      1: Step Time =    1.000,"PART-1-1",           618,      -2.31964,       21.1016,            0.,NA,NA,"",       2.04310,       1.91931,   700.340E-03,   1.62130E-03
C:/temp/dataset/9/26_4.odb,Step-1,Increment      1: Step Time =    1.000,"PART-1-1",           619,         -1.25,           20.,            0.,NA,NA,"",       1.97263,       1.86272,   649.264E-03,   2.11986E-03
C:/temp/dataset/9/26_4.odb,Step-1,Increment      1: Step Time =    1.000,"PART-1-1",           620,         -1.25,           30.,            0.,NA,NA,"",       2.45834,       2.37536,   633.308E-03,   2.36751E-03
C:/temp/dataset/9/26_4.odb,Step-1,Increment      1: Step Time =    1.000,"PART-1-1",           621,      -1.44357,       27.1449,            0.,NA,NA,"",       2.32127,       2.22866,   649.122E-03,   1.48045E-03
C:/temp/dataset/9/26_4.odb,Step-1,Increment      1: Step Time =    1.000,"PART-1-1",           622,      -4.58492,       21.1383,            0.,NA,NA,"",       2.08872,       1.92581,   808.725E-03,   1.86583E-03
C:/temp/dataset/9/26_4.odb,Step-1,Increment      1: Step Time =    1.000,"PART-1-1",           623,         -3.75,           20.,            0.,NA,NA,"",       2.02114,       1.86875,   769.925E-03,   1.17099E-03
C:/temp/dataset/9/26_4.odb,Step-1,Increment      1: Step Time =    1.000,"PART-1-1",           624,      -3.15456,       22.2398,            0.,NA,NA,"",       2.11172,       1.97791,   739.755E-03,   1.80637E-03
C:/temp/dataset/9/26_4.odb,Step-1,Increment      1: Step Time =    1.000,"PART-1-1",           625,      -11.2479,       22.4027,            0.,NA,NA,"",       2.30251,       2.00173,       1.13781,   372.516E-06
C:/temp/dataset/9/26_4.odb,Step-1,Increment      1: Step Time =    1.000,"PART-1-1",           626,      -10.3888,       20.8027,            0.,NA,NA,"",       2.21118,       1.92041,       1.09606,   518.275E-06
C:/temp/dataset/9/26_4.odb,Step-1,Increment      1: Step Time =    1.000,"PART-1-1",           627,       9.41561,      -24.6142,            0.,NA,NA,"",   27.7085E-03,   23.7462E-03,   14.2787E-03,   3.28886E-03
C:/temp/dataset/9/26_4.odb,Step-1,Increment      1: Step Time =    1.000,"PART-1-1",           628,           15.,        -16.25,            0.,NA,NA,"",   194.242E-03,   168.887E-03,  -95.9522E-03,   7.42356E-03
C:/temp/dataset/9/26_4.odb,Step-1,Increment      1: Step Time =    1.000,"PART-1-1",           629,       13.1096,      -16.2411,            0.,NA,NA,"",   172.479E-03,   164.861E-03,  -50.6939E-03,   3.83449E-03
C:/temp/dataset/9/26_4.odb,Step-1,Increment      1: Step Time =    1.000,"PART-1-1",           630,           15.,          3.75,            0.,NA,NA,"",   984.596E-03,   961.908E-03,  -210.146E-03,   1.16452E-03
C:/temp/dataset/9/26_4.odb,Step-1,Increment      1: Step Time =    1.000,"PART-1-1",           631,       14.0093,       5.06690,            0.,NA,NA,"",       1.04163,       1.02876,  -163.266E-03,   548.639E-06
C:/temp/dataset/9/26_4.odb,Step-1,Increment      1: Step Time =    1.000,"PART-1-1",           632,       12.9168,       3.88721,            0.,NA,NA,"",   976.666E-03,   970.774E-03,  -107.119E-03,   691.076E-06
C:/temp/dataset/9/26_4.odb,Step-1,Increment      1: Step Time =    1.000,"PART-1-1",           633,       12.6026,       11.0965,            0.,NA,NA,"",       1.34219,       1.33843,  -100.456E-03,   112.959E-06
C:/temp/dataset/9/26_4.odb,Step-1,Increment      1: Step Time =    1.000,"PART-1-1",           634,           15.,         11.25,            0.,NA,NA,"",       1.36245,       1.34360,  -225.820E-03,   903.215E-06
C:/temp/dataset/9/26_4.odb,Step-1,Increment      1: Step Time =    1.000,"PART-1-1",           635,       12.4669,       18.7361,            0.,NA,NA,"",       1.75228,       1.74925,  -102.979E-03,   503.725E-06
C:/temp/dataset/9/26_4.odb,Step-1,Increment      1: Step Time =    1.000,"PART-1-1",           636,           15.,         18.75,            0.,NA,NA,"",       1.76293,       1.74627,  -241.788E-03,   394.411E-06
C:/temp/dataset/9/26_4.odb,Step-1,Increment      1: Step Time =    1.000,"PART-1-1",           637,           15.,         26.25,            0.,NA,NA,"",       2.17737,       2.16259,  -253.305E-03,   73.5876E-06
C:/temp/dataset/9/26_4.odb,Step-1,Increment      1: Step Time =    1.000,"PART-1-1",           638,          8.75,           30.,            0.,NA,NA,"",       2.38234,       2.38061,   90.8348E-03,   695.537E-06
C:/temp/dataset/9/26_4.odb,Step-1,Increment      1: Step Time =    1.000,"PART-1-1",           639,       8.74802,       27.8391,            0.,NA,NA,"",       2.26245,       2.26047,   94.7159E-03,   922.144E-06
C:/temp/dataset/9/26_4.odb,Step-1,Increment      1: Step Time =    1.000,"PART-1-1",           640,       11.0691,       22.4572,            0.,NA,NA,"",       1.95883,       1.95861,  -29.8900E-03,   853.433E-06
C:/temp/dataset/9/26_4.odb,Step-1,Increment      1: Step Time =    1.000,"PART-1-1",           641,       11.1947,       19.9658,            0.,NA,NA,"",       1.81992,       1.81959,  -34.6740E-03,   857.444E-06
C:/temp/dataset/9/26_4.odb,Step-1,Increment      1: Step Time =    1.000,"PART-1-1",           642,          3.75,           30.,            0.,NA,NA,"",       2.40968,       2.38115,   369.708E-03,   2.51248E-03
C:/temp/dataset/9/26_4.odb,Step-1,Increment      1: Step Time =    1.000,"PART-1-1",           643,       6.12801,       21.9878,            0.,NA,NA,"",       1.96199,       1.94615,   248.829E-03,   3.27255E-03
C:/temp/dataset/9/26_4.odb,Step-1,Increment      1: Step Time =    1.000,"PART-1-1",           644,       7.06684,       23.0702,            0.,NA,NA,"",       2.01229,       2.00286,   194.621E-03,   2.26904E-03
C:/temp/dataset/9/26_4.odb,Step-1,Increment      1: Step Time =    1.000,"PART-1-1",           645,       4.97038,       22.7185,            0.,NA,NA,"",       2.01465,       1.98969,   316.160E-03,   3.08009E-03
C:/temp/dataset/9/26_4.odb,Step-1,Increment      1: Step Time =    1.000,"PART-1-1",           646,          3.75,           20.,            0.,NA,NA,"",       1.88387,       1.84189,   395.474E-03,   3.67816E-03
C:/temp/dataset/9/26_4.odb,Step-1,Increment      1: Step Time =    1.000,"PART-1-1",           647,       4.96897,       20.9583,            0.,NA,NA,"",       1.91979,       1.89340,   317.210E-03,   4.12230E-03
C:/temp/dataset/9/26_4.odb,Step-1,Increment      1: Step Time =    1.000,"PART-1-1",           648,       3.78616,       22.0655,            0.,NA,NA,"",       1.99492,       1.95721,   386.057E-03,   3.22438E-03
C:/temp/dataset/9/26_4.odb,Step-1,Increment      1: Step Time =    1.000,"PART-1-1",           649,           -5.,         13.75,            0.,NA,NA,"",       1.75616,       1.55137,   822.999E-03,   2.10804E-03
C:/temp/dataset/9/26_4.odb,Step-1,Increment      1: Step Time =    1.000,"PART-1-1",           650,      -7.15256,       14.0792,            0.,NA,NA,"",       1.82962,       1.57304,   934.386E-03,   1.49128E-03
C:/temp/dataset/9/26_4.odb,Step-1,Increment      1: Step Time =    1.000,"PART-1-1",           651,      -9.70164,       19.1500,            0.,NA,NA,"",       2.12170,       1.83642,       1.06264,   629.977E-06
C:/temp/dataset/9/26_4.odb,Step-1,Increment      1: Step Time =    1.000,"PART-1-1",           652,      -9.13060,       21.5024,            0.,NA,NA,"",       2.20943,       1.95340,       1.03236,   799.702E-06
C:/temp/dataset/9/26_4.odb,Step-1,Increment      1: Step Time =    1.000,"PART-1-1",           653,         -1.25,           -5.,            0.,NA,NA,"",   819.561E-03,   539.472E-03,   616.968E-03,   1.41781E-03
C:/temp/dataset/9/26_4.odb,Step-1,Increment      1: Step Time =    1.000,"PART-1-1",           654,      -1.47244,      -2.77860,            0.,NA,NA,"",   909.616E-03,   661.110E-03,   624.768E-03,   1.51806E-03
C:/temp/dataset/9/26_4.odb,Step-1,Increment      1: Step Time =    1.000,"PART-1-1",           655,      -9.96758,      -1.61086,            0.,NA,NA,"",       1.31974,   735.994E-03,       1.09545,   178.764E-06
C:/temp/dataset/9/26_4.odb,Step-1,Increment      1: Step Time =    1.000,"PART-1-1",           656,      -6.37223,      -3.07632,            0.,NA,NA,"",       1.10916,   650.021E-03,   898.723E-03,   531.498E-06
C:/temp/dataset/9/26_4.odb,Step-1,Increment      1: Step Time =    1.000,"PART-1-1",           657,         -6.25,           -5.,            0.,NA,NA,"",       1.04722,   543.781E-03,   894.969E-03,   172.025E-06
C:/temp/dataset/9/26_4.odb,Step-1,Increment      1: Step Time =    1.000,"PART-1-1",           658,         -3.75,            5.,            0.,NA,NA,"",       1.31553,       1.08575,   742.810E-03,   1.14203E-03
C:/temp/dataset/9/26_4.odb,Step-1,Increment      1: Step Time =    1.000,"PART-1-1",           659,      -5.11170,       4.23117,            0.,NA,NA,"",       1.33039,       1.04576,   822.389E-03,   2.16318E-03
C:/temp/dataset/9/26_4.odb,Step-1,Increment      1: Step Time =    1.000,"PART-1-1",           660,      -3.95473,       3.29190,            0.,NA,NA,"",       1.24696,   991.265E-03,   756.510E-03,   1.89891E-03
C:/temp/dataset/9/26_4.odb,Step-1,Increment      1: Step Time =    1.000,"PART-1-1",           661,          3.75,           -5.,            0.,NA,NA,"",   638.877E-03,   542.775E-03,   336.986E-03,   6.52795E-03
C:/temp/dataset/9/26_4.odb,Step-1,Increment      1: Step Time =    1.000,"PART-1-1",           662,       4.69008,      -3.66648,            0.,NA,NA,"",   674.043E-03,   613.528E-03,   279.137E-03,   7.32866E-03
C:/temp/dataset/9/26_4.odb,Step-1,Increment      1: Step Time =    1.000,"PART-1-1",           663,       4.69636,       3.71818,            0.,NA,NA,"",       1.02944,   987.371E-03,   291.273E-03,   3.58256E-03
C:/temp/dataset/9/26_4.odb,Step-1,Increment      1: Step Time =    1.000,"PART-1-1",           664,          3.75,            5.,            0.,NA,NA,"",       1.10729,       1.05453,   337.713E-03,   4.23058E-03
C:/temp/dataset/9/26_4.odb,Step-1,Increment      1: Step Time =    1.000,"PART-1-1",           665,       8.42013,       25.7200,            0.,NA,NA,"",       2.14778,       2.14465,   116.043E-03,   1.27206E-03
C:/temp/dataset/9/26_4.odb,Step-1,Increment      1: Step Time =    1.000,"PART-1-1",           666,       7.55622,       27.1849,            0.,NA,NA,"",       2.23210,       2.22614,   163.024E-03,   1.26702E-03
C:/temp/dataset/9/26_4.odb,Step-1,Increment      1: Step Time =    1.000,"PART-1-1",           667,       6.61388,       26.0906,            0.,NA,NA,"",       2.17895,       2.16802,   217.915E-03,   1.66796E-03
C:/temp/dataset/9/26_4.odb,Step-1,Increment      1: Step Time =    1.000,"PART-1-1",           668,       10.0237,       13.5556,            0.,NA,NA,"",       1.47259,       1.47222,   33.0649E-03,   1.19660E-03
C:/temp/dataset/9/26_4.odb,Step-1,Increment      1: Step Time =    1.000,"PART-1-1",           669,       8.80148,       12.2659,            0.,NA,NA,"",       1.40978,       1.40640,   97.5534E-03,   1.80399E-03
C:/temp/dataset/9/26_4.odb,Step-1,Increment      1: Step Time =    1.000,"PART-1-1",           670,            5.,          6.25,            0.,NA,NA,"",       1.14278,       1.10710,   283.357E-03,   4.38559E-03
C:/temp/dataset/9/26_4.odb,Step-1,Increment      1: Step Time =    1.000,"PART-1-1",           671,       5.87545,       4.76801,            0.,NA,NA,"",       1.06037,       1.03335,   237.857E-03,   4.26109E-03
C:/temp/dataset/9/26_4.odb,Step-1,Increment      1: Step Time =    1.000,"PART-1-1",           672,       6.93940,       5.78737,            0.,NA,NA,"",       1.09544,       1.07923,   187.739E-03,   2.90540E-03
C:/temp/dataset/9/26_4.odb,Step-1,Increment      1: Step Time =    1.000,"PART-1-1",           673,       7.73520,       4.18036,            0.,NA,NA,"",       1.00820,   997.539E-03,   146.215E-03,   3.38677E-03
C:/temp/dataset/9/26_4.odb,Step-1,Increment      1: Step Time =    1.000,"PART-1-1",           674,       6.49581,       3.34316,            0.,NA,NA,"",   982.336E-03,   960.791E-03,   204.609E-03,   4.33439E-03
C:/temp/dataset/9/26_4.odb,Step-1,Increment      1: Step Time =    1.000,"PART-1-1",           675,       7.18979,       1.82766,            0.,NA,NA,"",   897.923E-03,   882.034E-03,   168.172E-03,   4.09524E-03
C:/temp/dataset/9/26_4.odb,Step-1,Increment      1: Step Time =    1.000,"PART-1-1",           676,       8.42918,       2.66485,            0.,NA,NA,"",   926.187E-03,   919.595E-03,   110.307E-03,   3.45347E-03
C:/temp/dataset/9/26_4.odb,Step-1,Increment      1: Step Time =    1.000,"PART-1-1",           677,  -530.051E-03,       1.39108,            0.,NA,NA,"",       1.04776,   881.849E-03,   565.805E-03,   1.76091E-03
C:/temp/dataset/9/26_4.odb,Step-1,Increment      1: Step Time =    1.000,"PART-1-1",           678,      -10.1792,       3.73358,            0.,NA,NA,"",       1.50676,       1.02903,       1.10065,   481.892E-06
C:/temp/dataset/9/26_4.odb,Step-1,Increment      1: Step Time =    1.000,"PART-1-1",           679,      -9.26781,       2.30942,            0.,NA,NA,"",       1.41759,   949.607E-03,       1.05253,   595.016E-06
C:/temp/dataset/9/26_4.odb,Step-1,Increment      1: Step Time =    1.000,"PART-1-1",           680,      -7.90097,       2.82902,            0.,NA,NA,"",       1.38079,   975.407E-03,   977.326E-03,   989.921E-06
C:/temp/dataset/9/26_4.odb,Step-1,Increment      1: Step Time =    1.000,"PART-1-1",           681,      -2.90861,       2.25641,            0.,NA,NA,"",       1.16501,   932.791E-03,   697.968E-03,   1.85414E-03
C:/temp/dataset/9/26_4.odb,Step-1,Increment      1: Step Time =    1.000,"PART-1-1",           682,      -1.97153,   737.020E-03,            0.,NA,NA,"",       1.06802,   849.729E-03,   647.014E-03,   1.88100E-03
C:/temp/dataset/9/26_4.odb,Step-1,Increment      1: Step Time =    1.000,"PART-1-1",           683,      -12.0057,       8.33468,            0.,NA,NA,"",       1.74970,       1.27991,       1.19302,   67.3316E-06
C:/temp/dataset/9/26_4.odb,Step-1,Increment      1: Step Time =    1.000,"PART-1-1",           684,   257.111E-03,       23.5381,            0.,NA,NA,"",       2.11744,       2.03890,   571.317E-03,   2.01389E-03
C:/temp/dataset/9/26_4.odb,Step-1,Increment      1: Step Time =    1.000,"PART-1-1",           685,       2.92443,       23.5127,            0.,NA,NA,"",       2.08055,       2.03547,   430.770E-03,   2.48962E-03
C:/temp/dataset/9/26_4.odb,Step-1,Increment      1: Step Time =    1.000,"PART-1-1",           686,  -872.814E-03,       24.6452,            0.,NA,NA,"",       2.18925,       2.09801,   625.444E-03,   1.69598E-03
C:/temp/dataset/9/26_4.odb,Step-1,Increment      1: Step Time =    1.000,"PART-1-1",           687,      -2.49287,       25.7554,            0.,NA,NA,"",       2.26921,       2.15733,   703.755E-03,   1.69275E-03
C:/temp/dataset/9/26_4.odb,Step-1,Increment      1: Step Time =    1.000,"PART-1-1",           688,      -6.57000,       23.0679,            0.,NA,NA,"",       2.21965,       2.02686,   904.826E-03,   1.48314E-03
C:/temp/dataset/9/26_4.odb,Step-1,Increment      1: Step Time =    1.000,"PART-1-1",           689,      -7.77911,       22.2181,            0.,NA,NA,"",       2.20855,       1.98673,   964.666E-03,   1.07597E-03
C:/temp/dataset/9/26_4.odb,Step-1,Increment      1: Step Time =    1.000,"PART-1-1",           690,      -6.08757,       21.5970,            0.,NA,NA,"",       2.14189,       1.95219,   881.276E-03,   1.62531E-03
C:/temp/dataset/9/26_4.odb,Step-1,Increment      1: Step Time =    1.000,"PART-1-1",           691,      -10.6596,       24.7502,            0.,NA,NA,"",       2.38957,       2.11811,       1.10619,   353.287E-06
C:/temp/dataset/9/26_4.odb,Step-1,Increment      1: Step Time =    1.000,"PART-1-1",           692,      -8.94190,       25.0911,            0.,NA,NA,"",       2.36425,       2.13262,       1.02060,   576.612E-06
C:/temp/dataset/9/26_4.odb,Step-1,Increment      1: Step Time =    1.000,"PART-1-1",           693,      -9.30563,       26.3338,            0.,NA,NA,"",       2.42813,       2.19535,       1.03743,   433.599E-06
C:/temp/dataset/9/26_4.odb,Step-1,Increment      1: Step Time =    1.000,"PART-1-1",           694,      -11.0233,       25.9928,            0.,NA,NA,"",       2.45281,       2.18064,       1.12300,   184.077E-06
C:/temp/dataset/9/26_4.odb,Step-1,Increment      1: Step Time =    1.000,"PART-1-1",           695,      -9.11986,       17.2561,            0.,NA,NA,"",       2.02395,       1.73967,       1.03438,   778.902E-06
C:/temp/dataset/9/26_4.odb,Step-1,Increment      1: Step Time =    1.000,"PART-1-1",           696,      -11.0116,       7.65423,            0.,NA,NA,"",       1.68661,       1.24216,       1.14091,   289.313E-06
C:/temp/dataset/9/26_4.odb,Step-1,Increment      1: Step Time =    1.000,"PART-1-1",           697,      -11.6541,       6.30856,            0.,NA,NA,"",       1.66022,       1.17089,       1.17701,   185.068E-06
C:/temp/dataset/9/26_4.odb,Step-1,Increment      1: Step Time =    1.000,"PART-1-1",           698,      -3.46647,   792.949E-03,            0.,NA,NA,"",       1.12514,   855.308E-03,   731.017E-03,   1.78600E-03
C:/temp/dataset/9/26_4.odb,Step-1,Increment      1: Step Time =    1.000,"PART-1-1",           699,      -4.27899,       1.61468,            0.,NA,NA,"",       1.18925,   901.166E-03,   776.028E-03,   1.79543E-03
C:/temp/dataset/9/26_4.odb,Step-1,Increment      1: Step Time =    1.000,"PART-1-1",           700,      -5.41602,       1.03976,            0.,NA,NA,"",       1.21140,   872.445E-03,   840.430E-03,   1.48712E-03
C:/temp/dataset/9/26_4.odb,Step-1,Increment      1: Step Time =    1.000,"PART-1-1",           701,      -4.60351,   218.037E-03,            0.,NA,NA,"",       1.14715,   826.422E-03,   795.595E-03,   1.48199E-03
C:/temp/dataset/9/26_4.odb,Step-1,Increment      1: Step Time =    1.000,"PART-1-1",           702,      -1.96165,  -510.209E-03,            0.,NA,NA,"",       1.01669,   783.257E-03,   648.199E-03,   1.68979E-03
C:/temp/dataset/9/26_4.odb,Step-1,Increment      1: Step Time =    1.000,"PART-1-1",           703,      -2.89723,      -2.02996,            0.,NA,NA,"",   994.016E-03,   702.731E-03,   703.020E-03,   1.33518E-03
C:/temp/dataset/9/26_4.odb,Step-1,Increment      1: Step Time =    1.000,"PART-1-1",           704,       6.46823,      -3.22891,            0.,NA,NA,"",   658.323E-03,   630.149E-03,   190.528E-03,   5.19603E-03
C:/temp/dataset/9/26_4.odb,Step-1,Increment      1: Step Time =    1.000,"PART-1-1",           705,       5.30305,      -2.18626,            0.,NA,NA,"",   730.620E-03,   685.926E-03,   251.618E-03,   4.48162E-03
C:/temp/dataset/9/26_4.odb,Step-1,Increment      1: Step Time =    1.000,"PART-1-1",           706,       8.11637,      -13.0290,            0.,NA,NA,"",   267.750E-03,   254.570E-03,   82.9689E-03,   5.57949E-03
C:/temp/dataset/9/26_4.odb,Step-1,Increment      1: Step Time =    1.000,"PART-1-1",           707,       8.09759,      -10.8135,            0.,NA,NA,"",   337.179E-03,   323.935E-03,   93.5717E-03,   5.54432E-03
C:/temp/dataset/9/26_4.odb,Step-1,Increment      1: Step Time =    1.000,"PART-1-1",           708,           15.,        -26.25,            0.,NA,NA,"",   30.6366E-03,   16.3767E-03,  -25.8922E-03,   7.93479E-03
C:/temp/dataset/9/26_4.odb,Step-1,Increment      1: Step Time =    1.000,"PART-1-1",           709,       13.6129,      -24.9005,            0.,NA,NA,"",   32.3720E-03,   22.7085E-03,  -23.0709E-03,   5.13250E-03
C:/temp/dataset/9/26_4.odb,Step-1,Increment      1: Step Time =    1.000,"PART-1-1",           710,       12.3352,      -26.1538,            0.,NA,NA,"",   13.8247E-03,   10.6367E-03,  -8.83079E-03,   2.66508E-03
C:/temp/dataset/9/26_4.odb,Step-1,Increment      1: Step Time =    1.000,"PART-1-1",           711,       11.5115,      -24.0900,            0.,NA,NA,"",   28.3550E-03,   27.8302E-03,  -5.42979E-03,   950.130E-06
C:/temp/dataset/9/26_4.odb,Step-1,Increment      1: Step Time =    1.000,"PART-1-1",           712,       12.5793,      -23.4990,            0.,NA,NA,"",   39.4970E-03,   35.2128E-03,  -17.8906E-03,   3.03582E-03
C:/temp/dataset/9/26_4.odb,Step-1,Increment      1: Step Time =    1.000,"PART-1-1",           713,       11.9958,      -21.9645,            0.,NA,NA,"",   56.1835E-03,   54.4117E-03,  -13.9981E-03,   1.83175E-03
C:/temp/dataset/9/26_4.odb,Step-1,Increment      1: Step Time =    1.000,"PART-1-1",           714,           15.,        -23.75,            0.,NA,NA,"",   57.9265E-03,   38.1251E-03,  -43.6114E-03,   7.78402E-03
C:/temp/dataset/9/26_4.odb,Step-1,Increment      1: Step Time =    1.000,"PART-1-1",           715,       11.0775,      -9.24199,            0.,NA,NA,"",   373.117E-03,   373.079E-03,  -5.31660E-03,   454.664E-06
C:/temp/dataset/9/26_4.odb,Step-1,Increment      1: Step Time =    1.000,"PART-1-1",           716,       10.0590,      -8.23408,            0.,NA,NA,"",   412.046E-03,   410.839E-03,   31.5186E-03,   1.56283E-03
C:/temp/dataset/9/26_4.odb,Step-1,Increment      1: Step Time =    1.000,"PART-1-1",           717,       9.08966,      -9.54059,            0.,NA,NA,"",   370.471E-03,   364.825E-03,   64.4342E-03,   3.47700E-03
C:/temp/dataset/9/26_4.odb,Step-1,Increment      1: Step Time =    1.000,"PART-1-1",           718,           15.,         -1.25,            0.,NA,NA,"",   742.290E-03,   716.284E-03,  -194.758E-03,   3.55169E-03
C:/temp/dataset/9/26_4.odb,Step-1,Increment      1: Step Time =    1.000,"PART-1-1",           719,       12.7047,      -1.36075,            0.,NA,NA,"",   716.331E-03,   710.956E-03,  -87.5900E-03,   2.43467E-03
C:/temp/dataset/9/26_4.odb,Step-1,Increment      1: Step Time =    1.000,"PART-1-1",           720,       10.4122,      -1.52824,            0.,NA,NA,"",   705.293E-03,   705.125E-03,   15.3919E-03,   2.94987E-03
C:/temp/dataset/9/26_4.odb,Step-1,Increment      1: Step Time =    1.000,"PART-1-1",           721,       11.7321,      -2.88547,            0.,NA,NA,"",   639.910E-03,   638.580E-03,  -41.2323E-03,   2.56139E-03
C:/temp/dataset/9/26_4.odb,Step-1,Increment      1: Step Time =    1.000,"PART-1-1",           722,       13.0447,       6.32641,            0.,NA,NA,"",       1.09954,       1.09332,  -116.848E-03,   196.690E-06
C:/temp/dataset/9/26_4.odb,Step-1,Increment      1: Step Time =    1.000,"PART-1-1",           723,           15.,          6.25,            0.,NA,NA,"",       1.10849,       1.08737,  -215.350E-03,   868.305E-06
C:/temp/dataset/9/26_4.odb,Step-1,Increment      1: Step Time =    1.000,"PART-1-1",           724,       12.2773,       7.44357,            0.,NA,NA,"",       1.15368,       1.15095,  -79.4411E-03,   247.238E-06
C:/temp/dataset/9/26_4.odb,Step-1,Increment      1: Step Time =    1.000,"PART-1-1",           725,       11.3989,       9.46443,            0.,NA,NA,"",       1.25616,       1.25563,  -36.4651E-03,   606.772E-06
C:/temp/dataset/9/26_4.odb,Step-1,Increment      1: Step Time =    1.000,"PART-1-1",           726,       10.0696,       10.6576,            0.,NA,NA,"",       1.32004,       1.31966,   31.5071E-03,   1.18545E-03
C:/temp/dataset/9/26_4.odb,Step-1,Increment      1: Step Time =    1.000,"PART-1-1",           727,       11.2733,       12.2896,            0.,NA,NA,"",       1.40335,       1.40298,  -32.1395E-03,   694.983E-06
C:/temp/dataset/9/26_4.odb,Step-1,Increment      1: Step Time =    1.000,"PART-1-1",           728,       11.2495,       14.9235,            0.,NA,NA,"",       1.54357,       1.54322,  -33.0091E-03,   688.477E-06
C:/temp/dataset/9/26_4.odb,Step-1,Increment      1: Step Time =    1.000,"PART-1-1",           729,       11.2365,       17.4638,            0.,NA,NA,"",       1.68159,       1.68123,  -34.5992E-03,   695.171E-06
C:/temp/dataset/9/26_4.odb,Step-1,Increment      1: Step Time =    1.000,"PART-1-1",           730,       9.96430,       18.6935,            0.,NA,NA,"",       1.75162,       1.75130,   33.7135E-03,   1.05239E-03
C:/temp/dataset/9/26_4.odb,Step-1,Increment      1: Step Time =    1.000,"PART-1-1",           731,       8.12949,      -15.2371,            0.,NA,NA,"",   206.572E-03,   193.468E-03,   72.4027E-03,   5.57293E-03
C:/temp/dataset/9/26_4.odb,Step-1,Increment      1: Step Time =    1.000,"PART-1-1",           732,       10.9896,      -6.85237,            0.,NA,NA,"",   464.198E-03,   464.178E-03,  -4.23964E-03,   1.19003E-03
C:/temp/dataset/9/26_4.odb,Step-1,Increment      1: Step Time =    1.000,"PART-1-1",           733,       10.9332,      -25.1906,            0.,NA,NA,"",   17.2270E-03,   17.2253E-03,   242.261E-06,   391.132E-06
C:/temp/dataset/9/26_4.odb,Step-1,Increment      1: Step Time =    1.000,"PART-1-1",           734,       11.9281,      -5.46067,            0.,NA,NA,"",   524.107E-03,   522.253E-03,  -44.0483E-03,   2.23777E-03
C:/temp/dataset/9/26_4.odb,Step-1,Increment      1: Step Time =    1.000,"PART-1-1",           735,      -11.5697,       3.18107,            0.,NA,NA,"",       1.54494,       1.00111,       1.17669,   270.791E-06
C:/temp/dataset/9/26_4.odb,Step-1,Increment      1: Step Time =    1.000,"PART-1-1",           736,      -10.7341,       2.09613,            0.,NA,NA,"",       1.47224,   940.476E-03,       1.13269,   362.957E-06
C:/temp/dataset/9/26_4.odb,Step-1,Increment      1: Step Time =    1.000,"PART-1-1",           737,      -6.76822,       1.80268,            0.,NA,NA,"",       1.29557,   916.830E-03,   915.387E-03,   1.23871E-03
C:/temp/dataset/9/26_4.odb,Step-1,Increment      1: Step Time =    1.000,"PART-1-1",           738,      -5.32511,       2.65016,            0.,NA,NA,"",       1.27170,   959.690E-03,   834.398E-03,   1.86432E-03
C:/temp/dataset/9/26_4.odb,Step-1,Increment      1: Step Time =    1.000,"PART-1-1",           739,      -6.45786,       3.67650,            0.,NA,NA,"",       1.35767,       1.01870,   897.497E-03,   1.61526E-03
C:/temp/dataset/9/26_4.odb,Step-1,Increment      1: Step Time =    1.000,"PART-1-1",           740,      -10.1618,       27.4009,            0.,NA,NA,"",       2.49497,       2.24975,       1.07865,   196.444E-06
C:/temp/dataset/9/26_4.odb,Step-1,Increment      1: Step Time =    1.000,"PART-1-1",           741,      -8.15950,       27.0742,            0.,NA,NA,"",       2.43671,       2.23093,   980.052E-03,   530.737E-06
C:/temp/dataset/9/26_4.odb,Step-1,Increment      1: Step Time =    1.000,"PART-1-1",           742,      -8.41457,       23.7439,            0.,NA,NA,"",       2.29175,       2.06425,   995.469E-03,   878.161E-06
C:/temp/dataset/9/26_4.odb,Step-1,Increment      1: Step Time =    1.000,"PART-1-1",           743,      -9.76606,       23.0282,            0.,NA,NA,"",       2.29218,       2.03072,       1.06314,   563.365E-06
C:/temp/dataset/9/26_4.odb,Step-1,Increment      1: Step Time =    1.000,"PART-1-1",           744,      -10.1457,       6.57799,            0.,NA,NA,"",       1.61261,       1.18313,       1.09577,   486.531E-06
C:/temp/dataset/9/26_4.odb,Step-1,Increment      1: Step Time =    1.000,"PART-1-1",           745,      -11.1466,       5.19230,            0.,NA,NA,"",       1.59906,       1.10984,       1.15119,   280.615E-06
C:/temp/dataset/9/26_4.odb,Step-1,Increment      1: Step Time =    1.000,"PART-1-1",           746,       7.77017,   782.991E-03,            0.,NA,NA,"",   838.732E-03,   827.197E-03,   138.620E-03,   4.07187E-03
C:/temp/dataset/9/26_4.odb,Step-1,Increment      1: Step Time =    1.000,"PART-1-1",           747,       6.09501,       1.10589,            0.,NA,NA,"",   877.537E-03,   849.654E-03,   219.453E-03,   4.04656E-03
C:/temp/dataset/9/26_4.odb,Step-1,Increment      1: Step Time =    1.000,"PART-1-1",           748,       6.67539,   61.2235E-03,            0.,NA,NA,"",   816.816E-03,   794.577E-03,   189.303E-03,   4.06942E-03
C:/temp/dataset/9/26_4.odb,Step-1,Increment      1: Step Time =    1.000,"PART-1-1",           749,       5.31672,       2.29333,            0.,NA,NA,"",   948.889E-03,   912.778E-03,   259.283E-03,   3.74499E-03
C:/temp/dataset/9/26_4.odb,Step-1,Increment      1: Step Time =    1.000,"PART-1-1",           750,      -6.94695,       24.4689,            0.,NA,NA,"",       2.29205,       2.09811,   922.713E-03,   1.11096E-03
C:/temp/dataset/9/26_4.odb,Step-1,Increment      1: Step Time =    1.000,"PART-1-1",           751,      -2.09966,       23.3616,            0.,NA,NA,"",       2.14621,       2.03299,   687.845E-03,   2.02281E-03
C:/temp/dataset/9/26_4.odb,Step-1,Increment      1: Step Time =    1.000,"PART-1-1",           752,      -2.87591,       24.2478,            0.,NA,NA,"",       2.20251,       2.07991,   724.570E-03,   1.86819E-03
C:/temp/dataset/9/26_4.odb,Step-1,Increment      1: Step Time =    1.000,"PART-1-1",           753,       9.53974,       23.7363,            0.,NA,NA,"",       2.03377,       2.03304,   54.5226E-03,   1.13690E-03
C:/temp/dataset/9/26_4.odb,Step-1,Increment      1: Step Time =    1.000,"PART-1-1",           754,      -5.22075,      -2.25347,            0.,NA,NA,"",       1.08409,   693.409E-03,   833.331E-03,   880.818E-06
C:/temp/dataset/9/26_4.odb,Step-1,Increment      1: Step Time =    1.000,"PART-1-1",           755,      -7.55915,      -2.11026,            0.,NA,NA,"",       1.19352,   704.738E-03,   963.235E-03,   456.213E-06
C:/temp/dataset/9/26_4.odb,Step-1,Increment      1: Step Time =    1.000,"PART-1-1",           756,      -4.20325,      -1.24540,            0.,NA,NA,"",       1.07618,   746.723E-03,   774.958E-03,   1.28853E-03
C:/temp/dataset/9/26_4.odb,Step-1,Increment      1: Step Time =    1.000,"PART-1-1",           757,       12.0426,       5.30937,            0.,NA,NA,"",       1.04550,       1.04345,  -65.5117E-03,   535.949E-06
C:/temp/dataset/9/26_4.odb,Step-1,Increment      1: Step Time =    1.000,"PART-1-1",           758,      -8.17645,       12.8481,            0.,NA,NA,"",       1.80527,       1.51113,   987.660E-03,   1.19853E-03
C:/temp/dataset/9/26_4.odb,Step-1,Increment      1: Step Time =    1.000,"PART-1-1",           759,      -8.09554,       10.3784,            0.,NA,NA,"",       1.69635,       1.38171,   984.118E-03,   1.23349E-03
C:/temp/dataset/9/26_4.odb,Step-1,Increment      1: Step Time =    1.000,"PART-1-1",           760,      -8.33007,       15.6293,            0.,NA,NA,"",       1.93111,       1.65518,   994.759E-03,   1.10459E-03
C:/temp/dataset/9/26_4.odb,Step-1,Increment      1: Step Time =    1.000,"PART-1-1",           761,       12.1122,      -19.7356,            0.,NA,NA,"",   92.6205E-03,   90.4487E-03,  -19.9399E-03,   2.00498E-03
C:/temp/dataset/9/26_4.odb,Step-1,Increment      1: Step Time =    1.000,"PART-1-1",           762,       12.1388,      -17.4254,            0.,NA,NA,"",   138.977E-03,   136.694E-03,  -25.0868E-03,   2.01170E-03
C:/temp/dataset/9/26_4.odb,Step-1,Increment      1: Step Time =    1.000,"PART-1-1",           763,       12.0361,      -7.90801,            0.,NA,NA,"",   424.760E-03,   422.636E-03,  -42.4221E-03,   1.94444E-03
C:/temp/dataset/9/26_4.odb,Step-1,Increment      1: Step Time =    1.000,"PART-1-1",           764,       12.0837,      -10.3075,            0.,NA,NA,"",   337.961E-03,   335.752E-03,  -38.5777E-03,   1.85415E-03
C:/temp/dataset/9/26_4.odb,Step-1,Increment      1: Step Time =    1.000,"PART-1-1",           765,       12.1118,      -12.6921,            0.,NA,NA,"",   261.750E-03,   259.498E-03,  -34.2614E-03,   1.88639E-03
C:/temp/dataset/9/26_4.odb,Step-1,Increment      1: Step Time =    1.000,"PART-1-1",           766,       12.1357,      -15.0700,            0.,NA,NA,"",   195.395E-03,   193.096E-03,  -29.8889E-03,   1.96348E-03
C:/temp/dataset/9/26_4.odb,Step-1,Increment      1: Step Time =    1.000,"PART-1-1",           767,      -8.71328,  -792.246E-03,            0.,NA,NA,"",       1.28760,   778.813E-03,       1.02536,   401.815E-06
C:/temp/dataset/9/26_4.odb,Step-1,Increment      1: Step Time =    1.000,"PART-1-1",           768,      -7.47429,       25.8162,            0.,NA,NA,"",       2.36498,       2.16683,   947.604E-03,   884.804E-06
C:/temp/dataset/9/26_4.odb,Step-1,Increment      1: Step Time =    1.000,"PART-1-1",           769,       9.13729,   756.201E-03,            0.,NA,NA,"",   824.889E-03,   821.524E-03,   74.4330E-03,   3.41034E-03
C:/temp/dataset/9/26_4.odb,Step-1,Increment      1: Step Time =    1.000,"PART-1-1",           770,       7.76646,  -679.521E-03,            0.,NA,NA,"",   765.662E-03,   753.466E-03,   136.115E-03,   4.24474E-03
C:/temp/dataset/9/26_4.odb,Step-1,Increment      1: Step Time =    1.000,"PART-1-1",           771,       9.13358,  -706.311E-03,            0.,NA,NA,"",   751.864E-03,   748.289E-03,   73.2275E-03,   3.65368E-03
C:/temp/dataset/9/26_4.odb,Step-1,Increment      1: Step Time =    1.000,"PART-1-1",           772,       7.17869,      -1.72980,            0.,NA,NA,"",   720.860E-03,   702.568E-03,   161.361E-03,   4.55261E-03
C:/temp/dataset/9/26_4.odb,Step-1,Increment      1: Step Time =    1.000,"PART-1-1",           773,       6.08762,  -989.051E-03,            0.,NA,NA,"",   774.079E-03,   743.483E-03,   215.479E-03,   4.41983E-03
C:/temp/dataset/9/26_4.odb,Step-1,Increment      1: Step Time =    1.000,"PART-1-1",           774,       8.06590,       24.5744,            0.,NA,NA,"",       2.08718,       2.08267,   137.122E-03,   1.65325E-03
C:/temp/dataset/9/26_4.odb,Step-1,Increment      1: Step Time =    1.000,"PART-1-1",           775,       7.69641,      -4.07963,            0.,NA,NA,"",   601.713E-03,   586.940E-03,   132.516E-03,   4.05656E-03
C:/temp/dataset/9/26_4.odb,Step-1,Increment      1: Step Time =    1.000,"PART-1-1",           776,       8.40687,      -2.58051,            0.,NA,NA,"",   665.495E-03,   657.341E-03,   103.858E-03,   3.96208E-03
C:/temp/dataset/9/26_4.odb,Step-1,Increment      1: Step Time =    1.000,"PART-1-1",           777,      -9.00797,   684.990E-03,            0.,NA,NA,"",       1.34959,   860.212E-03,       1.03992,   557.357E-06
C:/temp/dataset/9/26_4.odb,Step-1,Increment      1: Step Time =    1.000,"PART-1-1",           778,       5.05143,   63.4436E-03,            0.,NA,NA,"",   844.383E-03,   800.343E-03,   269.136E-03,   3.26896E-03
C:/temp/dataset/9/26_4.odb,Step-1,Increment      1: Step Time =    1.000,"PART-1-1",           779,      -3.45659,  -454.281E-03,            0.,NA,NA,"",       1.07575,   788.304E-03,   732.000E-03,   1.56825E-03
C:/temp/dataset/9/26_4.odb,Step-1,Increment      1: Step Time =    1.000,"PART-1-1",           780,      -7.58605,   993.377E-03,            0.,NA,NA,"",       1.29946,   874.376E-03,   961.277E-03,   882.373E-06
