ODB Name,Step,Frame,Part Instance Name,    êﬂì_ÉâÉxÉã,X,Y,Z,Section Name,Material Name,Section Point,   U-Magnitude,          U-U1,          U-U2,       S-Mises
C:/temp/dataset/9/27_5.odb,Step-1,Increment      1: Step Time =    1.000,"PART-1-1",             1,            5.,           20.,            0.,NA,NA,"",       14.6737,       14.6633,  -551.839E-03,   6.16892E-03
C:/temp/dataset/9/27_5.odb,Step-1,Increment      1: Step Time =    1.000,"PART-1-1",             2,            0.,           20.,            0.,NA,NA,"",       15.0661,       15.0115,       1.28155,   739.606E-06
C:/temp/dataset/9/27_5.odb,Step-1,Increment      1: Step Time =    1.000,"PART-1-1",             3,            5.,          12.5,            0.,NA,NA,"",       11.8093,       11.8092,   45.3718E-03,   3.12738E-03
C:/temp/dataset/9/27_5.odb,Step-1,Increment      1: Step Time =    1.000,"PART-1-1",             4,            5.,            5.,            0.,NA,NA,"",       8.91607,       8.89888,   553.465E-03,   19.2828E-03
C:/temp/dataset/9/27_5.odb,Step-1,Increment      1: Step Time =    1.000,"PART-1-1",             5,            0.,            5.,            0.,NA,NA,"",       9.55818,       9.26629,       2.34407,   8.32713E-03
C:/temp/dataset/9/27_5.odb,Step-1,Increment      1: Step Time =    1.000,"PART-1-1",             6,           -5.,            5.,            0.,NA,NA,"",       10.5341,       9.65824,       4.20543,   4.28068E-03
C:/temp/dataset/9/27_5.odb,Step-1,Increment      1: Step Time =    1.000,"PART-1-1",             7,           -5.,          12.5,            0.,NA,NA,"",       13.0316,       12.5088,       3.65413,   2.29964E-03
C:/temp/dataset/9/27_5.odb,Step-1,Increment      1: Step Time =    1.000,"PART-1-1",             8,           -5.,           20.,            0.,NA,NA,"",       15.6648,       15.3508,       3.12112,   7.09515E-03
C:/temp/dataset/9/27_5.odb,Step-1,Increment      1: Step Time =    1.000,"PART-1-1",             9,           15.,           30.,            0.,NA,NA,"",       18.3510,       17.6548,      -5.00653,   102.523E-06
C:/temp/dataset/9/27_5.odb,Step-1,Increment      1: Step Time =    1.000,"PART-1-1",            10,           7.5,           30.,            0.,NA,NA,"",       18.3234,       18.1898,      -2.20808,   2.27561E-03
C:/temp/dataset/9/27_5.odb,Step-1,Increment      1: Step Time =    1.000,"PART-1-1",            11,            0.,           30.,            0.,NA,NA,"",       18.7197,       18.7110,   570.406E-03,   265.059E-06
C:/temp/dataset/9/27_5.odb,Step-1,Increment      1: Step Time =    1.000,"PART-1-1",            12,          -7.5,           30.,            0.,NA,NA,"",       19.5381,       19.2501,       3.34245,   1.53474E-03
C:/temp/dataset/9/27_5.odb,Step-1,Increment      1: Step Time =    1.000,"PART-1-1",            13,          -15.,           30.,            0.,NA,NA,"",       20.7224,       19.7936,       6.13449,   54.7851E-06
C:/temp/dataset/9/27_5.odb,Step-1,Increment      1: Step Time =    1.000,"PART-1-1",            14,          -15.,         21.25,            0.,NA,NA,"",       17.8688,       16.5366,       6.77021,   1.98679E-03
C:/temp/dataset/9/27_5.odb,Step-1,Increment      1: Step Time =    1.000,"PART-1-1",            15,          -15.,          12.5,            0.,NA,NA,"",       15.1894,       13.2506,       7.42551,   833.875E-06
C:/temp/dataset/9/27_5.odb,Step-1,Increment      1: Step Time =    1.000,"PART-1-1",            16,          -15.,          3.75,            0.,NA,NA,"",       12.8047,       9.93851,       8.07377,   1.09476E-03
C:/temp/dataset/9/27_5.odb,Step-1,Increment      1: Step Time =    1.000,"PART-1-1",            17,          -15.,           -5.,            0.,NA,NA,"",       10.9549,       6.63469,       8.71721,   42.8545E-06
C:/temp/dataset/9/27_5.odb,Step-1,Increment      1: Step Time =    1.000,"PART-1-1",            18,          -10.,           -5.,            0.,NA,NA,"",       9.26683,       6.26498,       6.82819,   708.577E-06
C:/temp/dataset/9/27_5.odb,Step-1,Increment      1: Step Time =    1.000,"PART-1-1",            19,           -5.,           -5.,            0.,NA,NA,"",       7.69487,       5.90180,       4.93759,   2.63697E-03
C:/temp/dataset/9/27_5.odb,Step-1,Increment      1: Step Time =    1.000,"PART-1-1",            20,            0.,           -5.,            0.,NA,NA,"",       6.33356,       5.54888,       3.05352,   3.11449E-03
C:/temp/dataset/9/27_5.odb,Step-1,Increment      1: Step Time =    1.000,"PART-1-1",            21,            5.,           -5.,            0.,NA,NA,"",       5.30904,       5.19199,       1.10868,   53.0680E-03
C:/temp/dataset/9/27_5.odb,Step-1,Increment      1: Step Time =    1.000,"PART-1-1",            22,            5.,        -11.25,            0.,NA,NA,"",       3.36360,       3.18381,       1.08498,   62.2396E-03
C:/temp/dataset/9/27_5.odb,Step-1,Increment      1: Step Time =    1.000,"PART-1-1",            23,            5.,         -17.5,            0.,NA,NA,"",       1.81006,       1.57249,   896.435E-03,   76.4770E-03
C:/temp/dataset/9/27_5.odb,Step-1,Increment      1: Step Time =    1.000,"PART-1-1",            24,            5.,        -23.75,            0.,NA,NA,"",   719.768E-03,   500.464E-03,   517.303E-03,   90.1581E-03
C:/temp/dataset/9/27_5.odb,Step-1,Increment      1: Step Time =    1.000,"PART-1-1",            25,            5.,          -30.,            0.,NA,NA,"",            0.,   32.4130E-39,   60.7008E-39,   118.297E-03
C:/temp/dataset/9/27_5.odb,Step-1,Increment      1: Step Time =    1.000,"PART-1-1",            26,           15.,          -30.,            0.,NA,NA,"",            0.,   29.8361E-39,  -55.0270E-39,   109.552E-03
C:/temp/dataset/9/27_5.odb,Step-1,Increment      1: Step Time =    1.000,"PART-1-1",            27,           15.,         -22.5,            0.,NA,NA,"",   857.803E-03,   568.898E-03,  -642.013E-03,   85.5320E-03
C:/temp/dataset/9/27_5.odb,Step-1,Increment      1: Step Time =    1.000,"PART-1-1",            28,           15.,          -15.,            0.,NA,NA,"",       2.28164,       1.88245,      -1.28929,   69.1315E-03
C:/temp/dataset/9/27_5.odb,Step-1,Increment      1: Step Time =    1.000,"PART-1-1",            29,           15.,          -7.5,            0.,NA,NA,"",       4.34929,       3.87012,      -1.98457,   51.5362E-03
C:/temp/dataset/9/27_5.odb,Step-1,Increment      1: Step Time =    1.000,"PART-1-1",            30,           15.,            0.,            0.,NA,NA,"",       6.92289,       6.37823,      -2.69157,   25.2170E-03
C:/temp/dataset/9/27_5.odb,Step-1,Increment      1: Step Time =    1.000,"PART-1-1",            31,           15.,           7.5,            0.,NA,NA,"",       9.73397,       9.14183,      -3.34321,   10.6722E-03
C:/temp/dataset/9/27_5.odb,Step-1,Increment      1: Step Time =    1.000,"PART-1-1",            32,           15.,           15.,            0.,NA,NA,"",       12.6438,       12.0134,      -3.94278,   2.30179E-03
C:/temp/dataset/9/27_5.odb,Step-1,Increment      1: Step Time =    1.000,"PART-1-1",            33,           15.,          22.5,            0.,NA,NA,"",       15.5179,       14.8590,      -4.47395,   3.22616E-03
C:/temp/dataset/9/27_5.odb,Step-1,Increment      1: Step Time =    1.000,"PART-1-1",            34,           2.5,           20.,            0.,NA,NA,"",       14.8414,       14.8370,   361.450E-03,   1.19035E-03
C:/temp/dataset/9/27_5.odb,Step-1,Increment      1: Step Time =    1.000,"PART-1-1",            35,            5.,           15.,            0.,NA,NA,"",       12.7792,       12.7783,  -154.446E-03,   5.63577E-03
C:/temp/dataset/9/27_5.odb,Step-1,Increment      1: Step Time =    1.000,"PART-1-1",            36,            5.,          17.5,            0.,NA,NA,"",       13.7347,       13.7302,  -352.863E-03,   7.07255E-03
C:/temp/dataset/9/27_5.odb,Step-1,Increment      1: Step Time =    1.000,"PART-1-1",            37,            5.,           7.5,            0.,NA,NA,"",       9.87209,       9.86367,   407.554E-03,   13.2470E-03
C:/temp/dataset/9/27_5.odb,Step-1,Increment      1: Step Time =    1.000,"PART-1-1",            38,            5.,           10.,            0.,NA,NA,"",       10.8350,       10.8325,   232.921E-03,   6.40522E-03
C:/temp/dataset/9/27_5.odb,Step-1,Increment      1: Step Time =    1.000,"PART-1-1",            39,           2.5,            5.,            0.,NA,NA,"",       9.18475,       9.07231,       1.43278,   9.28862E-03
C:/temp/dataset/9/27_5.odb,Step-1,Increment      1: Step Time =    1.000,"PART-1-1",            40,          -2.5,            5.,            0.,NA,NA,"",       10.0109,       9.46157,       3.27067,   6.39173E-03
C:/temp/dataset/9/27_5.odb,Step-1,Increment      1: Step Time =    1.000,"PART-1-1",            41,           -5.,           10.,            0.,NA,NA,"",       12.1806,       11.5609,       3.83579,   1.86313E-03
C:/temp/dataset/9/27_5.odb,Step-1,Increment      1: Step Time =    1.000,"PART-1-1",            42,           -5.,           7.5,            0.,NA,NA,"",       11.3475,       10.6119,       4.01903,   1.62500E-03
C:/temp/dataset/9/27_5.odb,Step-1,Increment      1: Step Time =    1.000,"PART-1-1",            43,           -5.,          17.5,            0.,NA,NA,"",       14.7738,       14.4016,       3.29537,   4.18722E-03
C:/temp/dataset/9/27_5.odb,Step-1,Increment      1: Step Time =    1.000,"PART-1-1",            44,           -5.,           15.,            0.,NA,NA,"",       13.8969,       13.4556,       3.47411,   2.81869E-03
C:/temp/dataset/9/27_5.odb,Step-1,Increment      1: Step Time =    1.000,"PART-1-1",            45,          -2.5,           20.,            0.,NA,NA,"",       15.3435,       15.1846,       2.20245,   2.20084E-03
C:/temp/dataset/9/27_5.odb,Step-1,Increment      1: Step Time =    1.000,"PART-1-1",            46,          12.5,           30.,            0.,NA,NA,"",       18.2945,       17.8350,      -4.07445,   314.384E-06
C:/temp/dataset/9/27_5.odb,Step-1,Increment      1: Step Time =    1.000,"PART-1-1",            47,           10.,           30.,            0.,NA,NA,"",       18.2857,       18.0139,      -3.14095,   1.39082E-03
C:/temp/dataset/9/27_5.odb,Step-1,Increment      1: Step Time =    1.000,"PART-1-1",            48,            5.,           30.,            0.,NA,NA,"",       18.4078,       18.3634,      -1.27833,   2.27879E-03
C:/temp/dataset/9/27_5.odb,Step-1,Increment      1: Step Time =    1.000,"PART-1-1",            49,           2.5,           30.,            0.,NA,NA,"",       18.5398,       18.5365,  -352.535E-03,   1.44107E-03
C:/temp/dataset/9/27_5.odb,Step-1,Increment      1: Step Time =    1.000,"PART-1-1",            50,          -2.5,           30.,            0.,NA,NA,"",       18.9471,       18.8882,       1.49256,   871.283E-06
C:/temp/dataset/9/27_5.odb,Step-1,Increment      1: Step Time =    1.000,"PART-1-1",            51,           -5.,           30.,            0.,NA,NA,"",       19.2206,       19.0682,       2.41606,   1.57301E-03
C:/temp/dataset/9/27_5.odb,Step-1,Increment      1: Step Time =    1.000,"PART-1-1",            52,          -10.,           30.,            0.,NA,NA,"",       19.8964,       19.4323,       4.27191,   917.413E-06
C:/temp/dataset/9/27_5.odb,Step-1,Increment      1: Step Time =    1.000,"PART-1-1",            53,         -12.5,           30.,            0.,NA,NA,"",       20.2920,       19.6136,       5.20319,   203.610E-06
C:/temp/dataset/9/27_5.odb,Step-1,Increment      1: Step Time =    1.000,"PART-1-1",            54,          -15.,       27.8125,            0.,NA,NA,"",       19.9948,       18.9791,       6.29181,   159.219E-06
C:/temp/dataset/9/27_5.odb,Step-1,Increment      1: Step Time =    1.000,"PART-1-1",            55,          -15.,        25.625,            0.,NA,NA,"",       19.2764,       18.1653,       6.44970,   766.982E-06
C:/temp/dataset/9/27_5.odb,Step-1,Increment      1: Step Time =    1.000,"PART-1-1",            56,          -15.,       23.4375,            0.,NA,NA,"",       18.5676,       17.3516,       6.60900,   1.46067E-03
C:/temp/dataset/9/27_5.odb,Step-1,Increment      1: Step Time =    1.000,"PART-1-1",            57,          -15.,       19.0625,            0.,NA,NA,"",       17.1804,       15.7193,       6.93310,   2.15630E-03
C:/temp/dataset/9/27_5.odb,Step-1,Increment      1: Step Time =    1.000,"PART-1-1",            58,          -15.,        16.875,            0.,NA,NA,"",       16.5031,       14.8991,       7.09708,   1.92221E-03
C:/temp/dataset/9/27_5.odb,Step-1,Increment      1: Step Time =    1.000,"PART-1-1",            59,          -15.,       14.6875,            0.,NA,NA,"",       15.8387,       14.0761,       7.26140,   1.42849E-03
C:/temp/dataset/9/27_5.odb,Step-1,Increment      1: Step Time =    1.000,"PART-1-1",            60,          -15.,       10.3125,            0.,NA,NA,"",       14.5580,       12.4234,       7.58904,   209.164E-06
C:/temp/dataset/9/27_5.odb,Step-1,Increment      1: Step Time =    1.000,"PART-1-1",            61,          -15.,         8.125,            0.,NA,NA,"",       13.9476,       11.5952,       7.75169,   411.686E-06
C:/temp/dataset/9/27_5.odb,Step-1,Increment      1: Step Time =    1.000,"PART-1-1",            62,          -15.,        5.9375,            0.,NA,NA,"",       13.3618,       10.7666,       7.91322,   874.106E-06
C:/temp/dataset/9/27_5.odb,Step-1,Increment      1: Step Time =    1.000,"PART-1-1",            63,          -15.,        1.5625,            0.,NA,NA,"",       12.2808,       9.11159,       8.23383,   917.883E-06
C:/temp/dataset/9/27_5.odb,Step-1,Increment      1: Step Time =    1.000,"PART-1-1",            64,          -15.,     -625.E-03,            0.,NA,NA,"",       11.7948,       8.28577,       8.39419,   472.072E-06
C:/temp/dataset/9/27_5.odb,Step-1,Increment      1: Step Time =    1.000,"PART-1-1",            65,          -15.,       -2.8125,            0.,NA,NA,"",       11.3513,       7.46037,       8.55538,   78.0169E-06
C:/temp/dataset/9/27_5.odb,Step-1,Increment      1: Step Time =    1.000,"PART-1-1",            66,         -12.5,           -5.,            0.,NA,NA,"",       10.1005,       6.44960,       7.77319,   106.903E-06
C:/temp/dataset/9/27_5.odb,Step-1,Increment      1: Step Time =    1.000,"PART-1-1",            67,          -7.5,           -5.,            0.,NA,NA,"",       8.46146,       6.08205,       5.88260,   1.66677E-03
C:/temp/dataset/9/27_5.odb,Step-1,Increment      1: Step Time =    1.000,"PART-1-1",            68,          -2.5,           -5.,            0.,NA,NA,"",       6.98072,       5.72471,       3.99476,   3.51618E-03
C:/temp/dataset/9/27_5.odb,Step-1,Increment      1: Step Time =    1.000,"PART-1-1",            69,           2.5,           -5.,            0.,NA,NA,"",       5.76990,       5.37057,       2.10921,   11.0899E-03
C:/temp/dataset/9/27_5.odb,Step-1,Increment      1: Step Time =    1.000,"PART-1-1",            70,            5.,      -7.08333,            0.,NA,NA,"",       4.62060,       4.48769,       1.10027,   59.6235E-03
C:/temp/dataset/9/27_5.odb,Step-1,Increment      1: Step Time =    1.000,"PART-1-1",            71,            5.,      -9.16667,            0.,NA,NA,"",       3.97394,       3.81763,       1.10357,   57.0049E-03
C:/temp/dataset/9/27_5.odb,Step-1,Increment      1: Step Time =    1.000,"PART-1-1",            72,            5.,      -13.3333,            0.,NA,NA,"",       2.79717,       2.59477,       1.04468,   66.8069E-03
C:/temp/dataset/9/27_5.odb,Step-1,Increment      1: Step Time =    1.000,"PART-1-1",            73,            5.,      -15.4167,            0.,NA,NA,"",       2.27838,       2.05605,   981.687E-03,   71.7124E-03
C:/temp/dataset/9/27_5.odb,Step-1,Increment      1: Step Time =    1.000,"PART-1-1",            74,            5.,      -19.5833,            0.,NA,NA,"",       1.39415,       1.14893,   789.682E-03,   81.1936E-03
C:/temp/dataset/9/27_5.odb,Step-1,Increment      1: Step Time =    1.000,"PART-1-1",            75,            5.,      -21.6667,            0.,NA,NA,"",       1.03116,   790.002E-03,   662.714E-03,   85.6796E-03
C:/temp/dataset/9/27_5.odb,Step-1,Increment      1: Step Time =    1.000,"PART-1-1",            76,            5.,      -25.8333,            0.,NA,NA,"",   455.350E-03,   282.674E-03,   356.986E-03,   92.2215E-03
C:/temp/dataset/9/27_5.odb,Step-1,Increment      1: Step Time =    1.000,"PART-1-1",            77,            5.,      -27.9167,            0.,NA,NA,"",   231.575E-03,   135.642E-03,   187.691E-03,   100.252E-03
C:/temp/dataset/9/27_5.odb,Step-1,Increment      1: Step Time =    1.000,"PART-1-1",            78,           7.5,          -30.,            0.,NA,NA,"",            0.,   3.97084E-39,   141.509E-39,   36.6927E-03
C:/temp/dataset/9/27_5.odb,Step-1,Increment      1: Step Time =    1.000,"PART-1-1",            79,           10.,          -30.,            0.,NA,NA,"",            0.,  -24.2906E-39,  -2.23760E-39,   11.8586E-03
C:/temp/dataset/9/27_5.odb,Step-1,Increment      1: Step Time =    1.000,"PART-1-1",            80,          12.5,          -30.,            0.,NA,NA,"",            0.,   47.1875E-39,  -127.838E-39,   35.7148E-03
C:/temp/dataset/9/27_5.odb,Step-1,Increment      1: Step Time =    1.000,"PART-1-1",            81,           15.,         -27.5,            0.,NA,NA,"",   255.764E-03,   133.278E-03,  -218.294E-03,   99.1824E-03
C:/temp/dataset/9/27_5.odb,Step-1,Increment      1: Step Time =    1.000,"PART-1-1",            82,           15.,          -25.,            0.,NA,NA,"",   526.988E-03,   304.197E-03,  -430.327E-03,   89.5679E-03
C:/temp/dataset/9/27_5.odb,Step-1,Increment      1: Step Time =    1.000,"PART-1-1",            83,           15.,          -20.,            0.,NA,NA,"",       1.25800,   923.057E-03,  -854.717E-03,   79.8534E-03
C:/temp/dataset/9/27_5.odb,Step-1,Increment      1: Step Time =    1.000,"PART-1-1",            84,           15.,         -17.5,            0.,NA,NA,"",       1.73253,       1.36282,      -1.06975,   74.5300E-03
C:/temp/dataset/9/27_5.odb,Step-1,Increment      1: Step Time =    1.000,"PART-1-1",            85,           15.,         -12.5,            0.,NA,NA,"",       2.90316,       2.47672,      -1.51466,   63.7559E-03
C:/temp/dataset/9/27_5.odb,Step-1,Increment      1: Step Time =    1.000,"PART-1-1",            86,           15.,          -10.,            0.,NA,NA,"",       3.59377,       3.14076,      -1.74664,   58.1258E-03
C:/temp/dataset/9/27_5.odb,Step-1,Increment      1: Step Time =    1.000,"PART-1-1",            87,           15.,           -5.,            0.,NA,NA,"",       5.16347,       4.65947,      -2.22503,   43.1906E-03
C:/temp/dataset/9/27_5.odb,Step-1,Increment      1: Step Time =    1.000,"PART-1-1",            88,           15.,          -2.5,            0.,NA,NA,"",       6.02587,       5.49986,      -2.46224,   33.7396E-03
C:/temp/dataset/9/27_5.odb,Step-1,Increment      1: Step Time =    1.000,"PART-1-1",            89,           15.,           2.5,            0.,NA,NA,"",       7.84328,       7.28216,      -2.91328,   18.9725E-03
C:/temp/dataset/9/27_5.odb,Step-1,Increment      1: Step Time =    1.000,"PART-1-1",            90,           15.,            5.,            0.,NA,NA,"",       8.78108,       8.20431,      -3.12996,   14.6253E-03
C:/temp/dataset/9/27_5.odb,Step-1,Increment      1: Step Time =    1.000,"PART-1-1",            91,           15.,           10.,            0.,NA,NA,"",       10.6992,       10.0926,      -3.55153,   6.15412E-03
C:/temp/dataset/9/27_5.odb,Step-1,Increment      1: Step Time =    1.000,"PART-1-1",            92,           15.,          12.5,            0.,NA,NA,"",       11.6714,       11.0519,      -3.75202,   1.55391E-03
C:/temp/dataset/9/27_5.odb,Step-1,Increment      1: Step Time =    1.000,"PART-1-1",            93,           15.,          17.5,            0.,NA,NA,"",       13.6104,       12.9704,      -4.12444,   4.33282E-03
C:/temp/dataset/9/27_5.odb,Step-1,Increment      1: Step Time =    1.000,"PART-1-1",            94,           15.,           20.,            0.,NA,NA,"",       14.5682,       13.9191,      -4.30014,   4.43445E-03
C:/temp/dataset/9/27_5.odb,Step-1,Increment      1: Step Time =    1.000,"PART-1-1",            95,           15.,           25.,            0.,NA,NA,"",       16.4628,       15.7927,      -4.64904,   1.61214E-03
C:/temp/dataset/9/27_5.odb,Step-1,Increment      1: Step Time =    1.000,"PART-1-1",            96,           15.,          27.5,            0.,NA,NA,"",       17.4063,       16.7237,      -4.82672,   328.433E-06
C:/temp/dataset/9/27_5.odb,Step-1,Increment      1: Step Time =    1.000,"PART-1-1",            97,       7.09255,      -21.6558,            0.,NA,NA,"",   802.399E-03,   708.325E-03,   376.987E-03,   51.8793E-03
C:/temp/dataset/9/27_5.odb,Step-1,Increment      1: Step Time =    1.000,"PART-1-1",            98,       7.09346,      -17.4368,            0.,NA,NA,"",       1.56724,       1.48857,   490.304E-03,   46.0565E-03
C:/temp/dataset/9/27_5.odb,Step-1,Increment      1: Step Time =    1.000,"PART-1-1",            99,       7.15828,      -23.7452,            0.,NA,NA,"",   510.848E-03,   420.646E-03,   289.867E-03,   53.5844E-03
C:/temp/dataset/9/27_5.odb,Step-1,Increment      1: Step Time =    1.000,"PART-1-1",           100,       7.44609,      -27.8729,            0.,NA,NA,"",   108.387E-03,   62.9463E-03,   88.2361E-03,   55.0228E-03
C:/temp/dataset/9/27_5.odb,Step-1,Increment      1: Step Time =    1.000,"PART-1-1",           101,       7.30780,      -25.7939,            0.,NA,NA,"",   278.296E-03,   205.497E-03,   187.670E-03,   55.4615E-03
C:/temp/dataset/9/27_5.odb,Step-1,Increment      1: Step Time =    1.000,"PART-1-1",           102,       7.08258,      -10.9526,            0.,NA,NA,"",       3.18964,       3.14644,   523.188E-03,   37.1750E-03
C:/temp/dataset/9/27_5.odb,Step-1,Increment      1: Step Time =    1.000,"PART-1-1",           103,       7.09950,      -13.1236,            0.,NA,NA,"",       2.59017,       2.53554,   529.178E-03,   40.1138E-03
C:/temp/dataset/9/27_5.odb,Step-1,Increment      1: Step Time =    1.000,"PART-1-1",           104,       6.95448,      -6.62029,            0.,NA,NA,"",       4.53433,       4.50889,   479.599E-03,   29.2425E-03
C:/temp/dataset/9/27_5.odb,Step-1,Increment      1: Step Time =    1.000,"PART-1-1",           105,       7.04974,      -8.78764,            0.,NA,NA,"",       3.83775,       3.80456,   503.658E-03,   35.0726E-03
C:/temp/dataset/9/27_5.odb,Step-1,Increment      1: Step Time =    1.000,"PART-1-1",           106,       7.10540,      -15.2896,            0.,NA,NA,"",       2.04684,       1.98029,   517.691E-03,   42.9536E-03
C:/temp/dataset/9/27_5.odb,Step-1,Increment      1: Step Time =    1.000,"PART-1-1",           107,       7.08223,      -19.5608,            0.,NA,NA,"",       1.15251,       1.06366,   443.735E-03,   49.1198E-03
C:/temp/dataset/9/27_5.odb,Step-1,Increment      1: Step Time =    1.000,"PART-1-1",           108,      -11.8989,       25.3809,            0.,NA,NA,"",       18.6247,       17.8515,       5.31075,   1.08679E-03
C:/temp/dataset/9/27_5.odb,Step-1,Increment      1: Step Time =    1.000,"PART-1-1",           109,      -12.7134,       3.51066,            0.,NA,NA,"",       12.0785,       9.67745,       7.22760,   847.654E-06
C:/temp/dataset/9/27_5.odb,Step-1,Increment      1: Step Time =    1.000,"PART-1-1",           110,      -13.0834,       10.3867,            0.,NA,NA,"",       14.0913,       12.3093,       6.85897,   775.916E-06
C:/temp/dataset/9/27_5.odb,Step-1,Increment      1: Step Time =    1.000,"PART-1-1",           111,      -12.9355,       8.20912,            0.,NA,NA,"",       13.4219,       11.4733,       6.96486,   878.045E-06
C:/temp/dataset/9/27_5.odb,Step-1,Increment      1: Step Time =    1.000,"PART-1-1",           112,      -13.1801,       12.5484,            0.,NA,NA,"",       14.7605,       13.1346,       6.73453,   775.237E-06
C:/temp/dataset/9/27_5.odb,Step-1,Increment      1: Step Time =    1.000,"PART-1-1",           113,      -12.7454,       20.6010,            0.,NA,NA,"",       17.2026,       16.1320,       5.97401,   963.454E-06
C:/temp/dataset/9/27_5.odb,Step-1,Increment      1: Step Time =    1.000,"PART-1-1",           114,      -13.1621,       18.5389,            0.,NA,NA,"",       16.6230,       15.3902,       6.28219,   1.07980E-03
C:/temp/dataset/9/27_5.odb,Step-1,Increment      1: Step Time =    1.000,"PART-1-1",           115,      -12.3840,       22.8683,            0.,NA,NA,"",       17.8759,       16.9517,       5.67338,   1.05066E-03
C:/temp/dataset/9/27_5.odb,Step-1,Increment      1: Step Time =    1.000,"PART-1-1",           116,      -13.4658,       16.5948,            0.,NA,NA,"",       16.0731,       14.6821,       6.54064,   1.09825E-03
C:/temp/dataset/9/27_5.odb,Step-1,Increment      1: Step Time =    1.000,"PART-1-1",           117,      -13.3466,       14.6489,            0.,NA,NA,"",       15.4412,       13.9403,       6.64073,   900.789E-06
C:/temp/dataset/9/27_5.odb,Step-1,Increment      1: Step Time =    1.000,"PART-1-1",           118,      -12.3609,       5.76892,            0.,NA,NA,"",       12.5847,       10.5059,       6.92831,   942.835E-06
C:/temp/dataset/9/27_5.odb,Step-1,Increment      1: Step Time =    1.000,"PART-1-1",           119,      -12.8583,       1.39410,            0.,NA,NA,"",       11.5898,       8.88861,       7.43755,   859.720E-06
C:/temp/dataset/9/27_5.odb,Step-1,Increment      1: Step Time =    1.000,"PART-1-1",           120,      -12.6304,  -685.754E-03,            0.,NA,NA,"",       11.0322,       8.08698,       7.50400,   805.435E-06
C:/temp/dataset/9/27_5.odb,Step-1,Increment      1: Step Time =    1.000,"PART-1-1",           121,   38.5673E-03,       27.2989,            0.,NA,NA,"",       17.7252,       17.7094,   748.003E-03,   1.70592E-03
C:/temp/dataset/9/27_5.odb,Step-1,Increment      1: Step Time =    1.000,"PART-1-1",           122,      -4.16985,       22.2766,            0.,NA,NA,"",       16.3583,       16.1412,       2.65601,   2.32910E-03
C:/temp/dataset/9/27_5.odb,Step-1,Increment      1: Step Time =    1.000,"PART-1-1",           123,      -7.85548,       28.0855,            0.,NA,NA,"",       18.9120,       18.5642,       3.61061,   912.201E-06
C:/temp/dataset/9/27_5.odb,Step-1,Increment      1: Step Time =    1.000,"PART-1-1",           124,       9.92813,      -27.7267,            0.,NA,NA,"",   34.7572E-03,   34.2097E-03,   6.14482E-03,   12.0046E-03
C:/temp/dataset/9/27_5.odb,Step-1,Increment      1: Step Time =    1.000,"PART-1-1",           125,       13.1106,      -17.4438,            0.,NA,NA,"",       1.52328,       1.36223,  -681.682E-03,   45.4189E-03
C:/temp/dataset/9/27_5.odb,Step-1,Increment      1: Step Time =    1.000,"PART-1-1",           126,       12.8150,       2.64061,            0.,NA,NA,"",       7.76706,       7.47328,      -2.11596,   13.1372E-03
C:/temp/dataset/9/27_5.odb,Step-1,Increment      1: Step Time =    1.000,"PART-1-1",           127,       7.56819,       12.3225,            0.,NA,NA,"",       11.5752,       11.5382,  -924.290E-03,   8.25043E-03
C:/temp/dataset/9/27_5.odb,Step-1,Increment      1: Step Time =    1.000,"PART-1-1",           128,       7.47113,       19.8748,            0.,NA,NA,"",       14.5095,       14.4357,      -1.46146,   3.64784E-03
C:/temp/dataset/9/27_5.odb,Step-1,Increment      1: Step Time =    1.000,"PART-1-1",           129,       12.4223,       27.5153,            0.,NA,NA,"",       17.3517,       16.9154,      -3.86654,   1.26722E-03
C:/temp/dataset/9/27_5.odb,Step-1,Increment      1: Step Time =    1.000,"PART-1-1",           130,       12.3750,       22.5091,            0.,NA,NA,"",       15.4557,       15.0560,      -3.49225,   2.26043E-03
C:/temp/dataset/9/27_5.odb,Step-1,Increment      1: Step Time =    1.000,"PART-1-1",           131,       7.58839,       27.9970,            0.,NA,NA,"",       17.5655,       17.4400,      -2.09601,   1.53194E-03
C:/temp/dataset/9/27_5.odb,Step-1,Increment      1: Step Time =    1.000,"PART-1-1",           132,   199.805E-03,       22.3057,            0.,NA,NA,"",       15.8823,       15.8479,       1.04476,   1.46210E-03
C:/temp/dataset/9/27_5.odb,Step-1,Increment      1: Step Time =    1.000,"PART-1-1",           133,       12.6934,       9.82310,            0.,NA,NA,"",       10.5339,       10.1933,      -2.65698,   7.46656E-03
C:/temp/dataset/9/27_5.odb,Step-1,Increment      1: Step Time =    1.000,"PART-1-1",           134,      -7.14717,       12.7802,            0.,NA,NA,"",       13.5266,       12.7757,       4.44403,   1.79766E-03
C:/temp/dataset/9/27_5.odb,Step-1,Increment      1: Step Time =    1.000,"PART-1-1",           135,      -6.86178,       17.9412,            0.,NA,NA,"",       15.2314,       14.7066,       3.96354,   3.28567E-03
C:/temp/dataset/9/27_5.odb,Step-1,Increment      1: Step Time =    1.000,"PART-1-1",           136,      -2.68307,      -2.95682,            0.,NA,NA,"",       7.58889,       6.50284,       3.91207,   2.42549E-03
C:/temp/dataset/9/27_5.odb,Step-1,Increment      1: Step Time =    1.000,"PART-1-1",           137,      -7.59808,      -3.03341,            0.,NA,NA,"",       8.94338,       6.83009,       5.77354,   1.51890E-03
C:/temp/dataset/9/27_5.odb,Step-1,Increment      1: Step Time =    1.000,"PART-1-1",           138,  -248.196E-03,       2.69947,            0.,NA,NA,"",       8.82115,       8.43117,       2.59384,   3.57883E-03
C:/temp/dataset/9/27_5.odb,Step-1,Increment      1: Step Time =    1.000,"PART-1-1",           139,       2.16631,      -2.47375,            0.,NA,NA,"",       6.66254,       6.33796,       2.05419,   8.91118E-03
C:/temp/dataset/9/27_5.odb,Step-1,Increment      1: Step Time =    1.000,"PART-1-1",           140,       4.39271,       2.43636,            0.,NA,NA,"",       8.04522,       7.99237,   920.661E-03,   13.3989E-03
C:/temp/dataset/9/27_5.odb,Step-1,Increment      1: Step Time =    1.000,"PART-1-1",           141,       12.9283,      -5.27800,            0.,NA,NA,"",       4.89071,       4.65441,      -1.50186,   28.1408E-03
C:/temp/dataset/9/27_5.odb,Step-1,Increment      1: Step Time =    1.000,"PART-1-1",           142,       13.0847,      -12.6172,            0.,NA,NA,"",       2.66218,       2.47080,  -991.154E-03,   38.9679E-03
C:/temp/dataset/9/27_5.odb,Step-1,Increment      1: Step Time =    1.000,"PART-1-1",           143,       12.4838,       17.4790,            0.,NA,NA,"",       13.5302,       13.1534,      -3.17112,   2.35647E-03
C:/temp/dataset/9/27_5.odb,Step-1,Increment      1: Step Time =    1.000,"PART-1-1",           144,       2.63438,       22.2143,            0.,NA,NA,"",       15.6447,       15.6439,   155.468E-03,   1.92504E-03
C:/temp/dataset/9/27_5.odb,Step-1,Increment      1: Step Time =    1.000,"PART-1-1",           145,       7.54366,       14.9275,            0.,NA,NA,"",       12.6011,       12.5515,      -1.11721,   6.12475E-03
C:/temp/dataset/9/27_5.odb,Step-1,Increment      1: Step Time =    1.000,"PART-1-1",           146,       7.50510,       17.4443,            0.,NA,NA,"",       13.5800,       13.5182,      -1.29371,   4.69471E-03
C:/temp/dataset/9/27_5.odb,Step-1,Increment      1: Step Time =    1.000,"PART-1-1",           147,       7.12790,       7.03873,            0.,NA,NA,"",       9.52951,       9.52273,  -359.468E-03,   10.0357E-03
C:/temp/dataset/9/27_5.odb,Step-1,Increment      1: Step Time =    1.000,"PART-1-1",           148,       7.48952,       9.64170,            0.,NA,NA,"",       10.5231,       10.5006,  -687.795E-03,   7.79117E-03
C:/temp/dataset/9/27_5.odb,Step-1,Increment      1: Step Time =    1.000,"PART-1-1",           149,       2.16717,       2.56251,            0.,NA,NA,"",       8.37834,       8.20113,       1.71410,   4.89903E-03
C:/temp/dataset/9/27_5.odb,Step-1,Increment      1: Step Time =    1.000,"PART-1-1",           150,      -2.68606,       3.12146,            0.,NA,NA,"",       9.43439,       8.77185,       3.47307,   3.66866E-03
C:/temp/dataset/9/27_5.odb,Step-1,Increment      1: Step Time =    1.000,"PART-1-1",           151,      -7.08307,       10.2840,            0.,NA,NA,"",       12.6890,       11.8249,       4.60251,   1.44309E-03
C:/temp/dataset/9/27_5.odb,Step-1,Increment      1: Step Time =    1.000,"PART-1-1",           152,      -2.13928,       22.2031,            0.,NA,NA,"",       16.0871,       15.9729,       1.91325,   2.36899E-03
C:/temp/dataset/9/27_5.odb,Step-1,Increment      1: Step Time =    1.000,"PART-1-1",           153,       9.90766,       27.6812,            0.,NA,NA,"",       17.4077,       17.1579,      -2.93873,   1.59972E-03
C:/temp/dataset/9/27_5.odb,Step-1,Increment      1: Step Time =    1.000,"PART-1-1",           154,       5.18317,       27.8350,            0.,NA,NA,"",       17.5891,       17.5488,      -1.19030,   1.47704E-03
C:/temp/dataset/9/27_5.odb,Step-1,Increment      1: Step Time =    1.000,"PART-1-1",           155,       2.70091,       27.4744,            0.,NA,NA,"",       17.5901,       17.5884,  -246.168E-03,   1.64363E-03
C:/temp/dataset/9/27_5.odb,Step-1,Increment      1: Step Time =    1.000,"PART-1-1",           156,      -2.92570,       26.9909,            0.,NA,NA,"",       17.9012,       17.8041,       1.86259,   1.37028E-03
C:/temp/dataset/9/27_5.odb,Step-1,Increment      1: Step Time =    1.000,"PART-1-1",           157,      -5.52449,       27.7330,            0.,NA,NA,"",       18.4739,       18.2650,       2.77065,   805.414E-06
C:/temp/dataset/9/27_5.odb,Step-1,Increment      1: Step Time =    1.000,"PART-1-1",           158,      -10.1759,       28.1970,            0.,NA,NA,"",       19.2979,       18.7739,       4.46636,   898.820E-06
C:/temp/dataset/9/27_5.odb,Step-1,Increment      1: Step Time =    1.000,"PART-1-1",           159,      -7.15795,       15.3782,            0.,NA,NA,"",       14.4042,       13.7600,       4.25951,   2.26059E-03
C:/temp/dataset/9/27_5.odb,Step-1,Increment      1: Step Time =    1.000,"PART-1-1",           160,      -7.10855,       7.92361,            0.,NA,NA,"",       11.9330,       10.9312,       4.78589,   1.24139E-03
C:/temp/dataset/9/27_5.odb,Step-1,Increment      1: Step Time =    1.000,"PART-1-1",           161,      -7.31416,       5.72319,            0.,NA,NA,"",       11.2911,       10.1106,       5.02647,   1.98359E-03
C:/temp/dataset/9/27_5.odb,Step-1,Increment      1: Step Time =    1.000,"PART-1-1",           162,      -10.0288,      -2.82434,            0.,NA,NA,"",       9.73810,       7.08789,       6.67775,   1.05848E-03
C:/temp/dataset/9/27_5.odb,Step-1,Increment      1: Step Time =    1.000,"PART-1-1",           163,      -5.14639,      -3.11924,            0.,NA,NA,"",       8.20760,       6.61914,       4.85301,   2.05005E-03
C:/temp/dataset/9/27_5.odb,Step-1,Increment      1: Step Time =    1.000,"PART-1-1",           164,  -261.821E-03,      -2.60038,            0.,NA,NA,"",       7.11635,       6.46480,       2.97469,   4.02305E-03
C:/temp/dataset/9/27_5.odb,Step-1,Increment      1: Step Time =    1.000,"PART-1-1",           165,       4.38015,      -2.33295,            0.,NA,NA,"",       6.34320,       6.22617,       1.21284,   15.9316E-03
C:/temp/dataset/9/27_5.odb,Step-1,Increment      1: Step Time =    1.000,"PART-1-1",           166,       13.0639,      -10.1924,            0.,NA,NA,"",       3.33752,       3.12956,      -1.15970,   35.7039E-03
C:/temp/dataset/9/27_5.odb,Step-1,Increment      1: Step Time =    1.000,"PART-1-1",           167,       13.0843,      -19.8267,            0.,NA,NA,"",       1.06750,   923.662E-03,  -535.173E-03,   48.0638E-03
C:/temp/dataset/9/27_5.odb,Step-1,Increment      1: Step Time =    1.000,"PART-1-1",           168,       12.4446,      -27.5067,            0.,NA,NA,"",   111.644E-03,   61.9571E-03,  -92.8742E-03,   47.4817E-03
C:/temp/dataset/9/27_5.odb,Step-1,Increment      1: Step Time =    1.000,"PART-1-1",           169,       12.9329,      -22.1971,            0.,NA,NA,"",   680.849E-03,   563.481E-03,  -382.157E-03,   48.2497E-03
C:/temp/dataset/9/27_5.odb,Step-1,Increment      1: Step Time =    1.000,"PART-1-1",           170,       13.1086,      -15.0383,            0.,NA,NA,"",       2.05596,       1.87935,  -833.674E-03,   42.3575E-03
C:/temp/dataset/9/27_5.odb,Step-1,Increment      1: Step Time =    1.000,"PART-1-1",           171,       13.0208,      -7.75462,            0.,NA,NA,"",       4.07927,       3.85535,      -1.33292,   32.2331E-03
C:/temp/dataset/9/27_5.odb,Step-1,Increment      1: Step Time =    1.000,"PART-1-1",           172,       12.7756,      -2.70708,            0.,NA,NA,"",       5.78503,       5.54120,      -1.66181,   22.9693E-03
C:/temp/dataset/9/27_5.odb,Step-1,Increment      1: Step Time =    1.000,"PART-1-1",           173,       12.6338,  -14.4220E-03,            0.,NA,NA,"",       6.76465,       6.51151,      -1.83322,   17.2544E-03
C:/temp/dataset/9/27_5.odb,Step-1,Increment      1: Step Time =    1.000,"PART-1-1",           174,       13.0186,       5.13380,            0.,NA,NA,"",       8.72359,       8.38812,      -2.39592,   10.7065E-03
C:/temp/dataset/9/27_5.odb,Step-1,Increment      1: Step Time =    1.000,"PART-1-1",           175,       13.0709,       7.51902,            0.,NA,NA,"",       9.64560,       9.28527,      -2.61177,   8.71089E-03
C:/temp/dataset/9/27_5.odb,Step-1,Increment      1: Step Time =    1.000,"PART-1-1",           176,       12.5119,       12.3699,            0.,NA,NA,"",       11.5315,       11.1884,      -2.79206,   6.17234E-03
C:/temp/dataset/9/27_5.odb,Step-1,Increment      1: Step Time =    1.000,"PART-1-1",           177,       12.4863,       14.9454,            0.,NA,NA,"",       12.5431,       12.1834,      -2.98234,   4.21504E-03
C:/temp/dataset/9/27_5.odb,Step-1,Increment      1: Step Time =    1.000,"PART-1-1",           178,       12.4500,       19.9932,            0.,NA,NA,"",       14.4979,       14.1077,      -3.34089,   1.98344E-03
C:/temp/dataset/9/27_5.odb,Step-1,Increment      1: Step Time =    1.000,"PART-1-1",           179,       9.19048,      -23.6482,            0.,NA,NA,"",   394.401E-03,   385.231E-03,   84.5563E-03,   20.5758E-03
C:/temp/dataset/9/27_5.odb,Step-1,Increment      1: Step Time =    1.000,"PART-1-1",           180,       9.11932,      -19.5624,            0.,NA,NA,"",       1.00909,       1.00302,   110.545E-03,   19.2954E-03
C:/temp/dataset/9/27_5.odb,Step-1,Increment      1: Step Time =    1.000,"PART-1-1",           181,       9.13323,      -12.9344,            0.,NA,NA,"",       2.49721,       2.49708,   25.6617E-03,   16.2447E-03
C:/temp/dataset/9/27_5.odb,Step-1,Increment      1: Step Time =    1.000,"PART-1-1",           182,       9.14303,      -17.4019,            0.,NA,NA,"",       1.43000,       1.42679,   95.6713E-03,   18.0346E-03
C:/temp/dataset/9/27_5.odb,Step-1,Increment      1: Step Time =    1.000,"PART-1-1",           183,       9.11260,      -10.6744,            0.,NA,NA,"",       3.12798,       3.12782,  -32.3243E-03,   15.1621E-03
C:/temp/dataset/9/27_5.odb,Step-1,Increment      1: Step Time =    1.000,"PART-1-1",           184,       9.06671,      -8.40676,            0.,NA,NA,"",       3.81579,       3.81444,  -101.477E-03,   13.4916E-03
C:/temp/dataset/9/27_5.odb,Step-1,Increment      1: Step Time =    1.000,"PART-1-1",           185,       9.15359,      -15.1846,            0.,NA,NA,"",       1.92781,       1.92668,   66.0079E-03,   17.0011E-03
C:/temp/dataset/9/27_5.odb,Step-1,Increment      1: Step Time =    1.000,"PART-1-1",           186,       9.09437,      -21.6308,            0.,NA,NA,"",   668.796E-03,   659.665E-03,   110.134E-03,   20.6804E-03
C:/temp/dataset/9/27_5.odb,Step-1,Increment      1: Step Time =    1.000,"PART-1-1",           187,       8.94944,      -6.10597,            0.,NA,NA,"",       4.56837,       4.56515,  -171.451E-03,   13.0298E-03
C:/temp/dataset/9/27_5.odb,Step-1,Increment      1: Step Time =    1.000,"PART-1-1",           188,      -11.3189,       17.6054,            0.,NA,NA,"",       15.9440,       14.9058,       5.65931,   743.310E-06
C:/temp/dataset/9/27_5.odb,Step-1,Increment      1: Step Time =    1.000,"PART-1-1",           189,      -10.4260,       2.85148,            0.,NA,NA,"",       11.2609,       9.25718,       6.41184,   1.25714E-03
C:/temp/dataset/9/27_5.odb,Step-1,Increment      1: Step Time =    1.000,"PART-1-1",           190,      -12.4413,       27.8959,            0.,NA,NA,"",       19.5666,       18.8259,       5.33243,   682.385E-06
C:/temp/dataset/9/27_5.odb,Step-1,Increment      1: Step Time =    1.000,"PART-1-1",           191,      -10.6658,       19.6683,            0.,NA,NA,"",       16.4949,       15.6327,       5.26311,   556.576E-06
C:/temp/dataset/9/27_5.odb,Step-1,Increment      1: Step Time =    1.000,"PART-1-1",           192,      -12.1118,       16.4066,            0.,NA,NA,"",       15.7213,       14.5124,       6.04552,   812.670E-06
C:/temp/dataset/9/27_5.odb,Step-1,Increment      1: Step Time =    1.000,"PART-1-1",           193,      -11.5166,       14.9043,            0.,NA,NA,"",       15.1154,       13.9024,       5.93290,   966.034E-06
C:/temp/dataset/9/27_5.odb,Step-1,Increment      1: Step Time =    1.000,"PART-1-1",           194,      -11.2054,       12.7278,            0.,NA,NA,"",       14.3597,       13.0568,       5.97680,   1.12964E-03
C:/temp/dataset/9/27_5.odb,Step-1,Increment      1: Step Time =    1.000,"PART-1-1",           195,      -11.1139,       10.5020,            0.,NA,NA,"",       13.6496,       12.2071,       6.10721,   1.18664E-03
C:/temp/dataset/9/27_5.odb,Step-1,Increment      1: Step Time =    1.000,"PART-1-1",           196,      -9.42029,       24.1195,            0.,NA,NA,"",       17.7760,       17.2033,       4.47589,   1.06476E-03
C:/temp/dataset/9/27_5.odb,Step-1,Increment      1: Step Time =    1.000,"PART-1-1",           197,      -11.0759,       8.46025,            0.,NA,NA,"",       13.0247,       11.4303,       6.24417,   1.21297E-03
C:/temp/dataset/9/27_5.odb,Step-1,Increment      1: Step Time =    1.000,"PART-1-1",           198,      -10.9473,       6.84821,            0.,NA,NA,"",       12.5189,       10.8095,       6.31491,   1.19823E-03
C:/temp/dataset/9/27_5.odb,Step-1,Increment      1: Step Time =    1.000,"PART-1-1",           199,       9.64075,      -25.5803,            0.,NA,NA,"",   182.549E-03,   179.871E-03,   31.1515E-03,   14.6950E-03
C:/temp/dataset/9/27_5.odb,Step-1,Increment      1: Step Time =    1.000,"PART-1-1",           200,       6.22595,      -2.03957,            0.,NA,NA,"",       6.21229,       6.18986,   527.492E-03,   21.6717E-03
C:/temp/dataset/9/27_5.odb,Step-1,Increment      1: Step Time =    1.000,"PART-1-1",           201,       6.24072,       2.15031,            0.,NA,NA,"",       7.75329,       7.74821,   280.632E-03,   15.8042E-03
C:/temp/dataset/9/27_5.odb,Step-1,Increment      1: Step Time =    1.000,"PART-1-1",           202,      -7.69234,       3.89067,            0.,NA,NA,"",       10.8312,       9.44385,       5.30359,   2.40843E-03
C:/temp/dataset/9/27_5.odb,Step-1,Increment      1: Step Time =    1.000,"PART-1-1",           203,       7.31807,       22.0589,            0.,NA,NA,"",       15.3381,       15.2581,      -1.56368,   3.14942E-03
C:/temp/dataset/9/27_5.odb,Step-1,Increment      1: Step Time =    1.000,"PART-1-1",           204,      -6.44398,       20.4265,            0.,NA,NA,"",       16.0288,       15.6127,       3.62868,   2.11790E-03
C:/temp/dataset/9/27_5.odb,Step-1,Increment      1: Step Time =    1.000,"PART-1-1",           205,       12.2962,       25.0128,            0.,NA,NA,"",       16.4033,       15.9942,      -3.64077,   2.05765E-03
C:/temp/dataset/9/27_5.odb,Step-1,Increment      1: Step Time =    1.000,"PART-1-1",           206,       12.2257,      -24.8009,            0.,NA,NA,"",   313.815E-03,   254.300E-03,  -183.879E-03,   39.7322E-03
C:/temp/dataset/9/27_5.odb,Step-1,Increment      1: Step Time =    1.000,"PART-1-1",           207,      -2.06005,       24.5200,            0.,NA,NA,"",       16.9136,       16.8261,       1.71900,   2.01141E-03
C:/temp/dataset/9/27_5.odb,Step-1,Increment      1: Step Time =    1.000,"PART-1-1",           208,       9.31619,       25.0673,            0.,NA,NA,"",       16.4261,       16.2302,      -2.52936,   2.12103E-03
C:/temp/dataset/9/27_5.odb,Step-1,Increment      1: Step Time =    1.000,"PART-1-1",           209,       3.21447,       24.8112,            0.,NA,NA,"",       16.5672,       16.5654,  -244.103E-03,   2.13242E-03
C:/temp/dataset/9/27_5.odb,Step-1,Increment      1: Step Time =    1.000,"PART-1-1",           210,      -7.52022,      -1.18711,            0.,NA,NA,"",       9.37971,       7.51848,       5.60815,   1.72983E-03
C:/temp/dataset/9/27_5.odb,Step-1,Increment      1: Step Time =    1.000,"PART-1-1",           211,       10.0127,       14.9017,            0.,NA,NA,"",       12.5210,       12.3528,      -2.04576,   6.13228E-03
C:/temp/dataset/9/27_5.odb,Step-1,Increment      1: Step Time =    1.000,"PART-1-1",           212,       10.7293,       3.02357,            0.,NA,NA,"",       7.87577,       7.75266,      -1.38707,   9.08156E-03
C:/temp/dataset/9/27_5.odb,Step-1,Increment      1: Step Time =    1.000,"PART-1-1",           213,       11.4837,       7.36813,            0.,NA,NA,"",       9.55156,       9.33896,      -2.00404,   8.58971E-03
C:/temp/dataset/9/27_5.odb,Step-1,Increment      1: Step Time =    1.000,"PART-1-1",           214,      -9.20573,       12.9161,            0.,NA,NA,"",       13.9867,       12.9802,       5.20972,   1.44552E-03
C:/temp/dataset/9/27_5.odb,Step-1,Increment      1: Step Time =    1.000,"PART-1-1",           215,   314.418E-03,       24.7704,            0.,NA,NA,"",       16.7731,       16.7527,   826.921E-03,   2.00962E-03
C:/temp/dataset/9/27_5.odb,Step-1,Increment      1: Step Time =    1.000,"PART-1-1",           216,       7.52406,       26.3727,            0.,NA,NA,"",       16.9551,       16.8421,      -1.95467,   1.59334E-03
C:/temp/dataset/9/27_5.odb,Step-1,Increment      1: Step Time =    1.000,"PART-1-1",           217,  -811.906E-03,   82.6841E-03,            0.,NA,NA,"",       8.07471,       7.50168,       2.98761,   1.99674E-03
C:/temp/dataset/9/27_5.odb,Step-1,Increment      1: Step Time =    1.000,"PART-1-1",           218,       11.1400,      -19.6444,            0.,NA,NA,"",   981.511E-03,   956.758E-03,  -219.038E-03,   18.3691E-03
C:/temp/dataset/9/27_5.odb,Step-1,Increment      1: Step Time =    1.000,"PART-1-1",           219,       11.1036,      -10.4226,            0.,NA,NA,"",       3.17823,       3.12287,  -590.638E-03,   15.5575E-03
C:/temp/dataset/9/27_5.odb,Step-1,Increment      1: Step Time =    1.000,"PART-1-1",           220,       10.9280,      -5.64335,            0.,NA,NA,"",       4.69597,       4.62257,  -827.066E-03,   17.5253E-03
C:/temp/dataset/9/27_5.odb,Step-1,Increment      1: Step Time =    1.000,"PART-1-1",           221,       11.0667,       5.48495,            0.,NA,NA,"",       8.81857,       8.65321,      -1.69977,   8.38227E-03
C:/temp/dataset/9/27_5.odb,Step-1,Increment      1: Step Time =    1.000,"PART-1-1",           222,       11.1390,      -12.7671,            0.,NA,NA,"",       2.52189,       2.47545,  -481.749E-03,   16.2401E-03
C:/temp/dataset/9/27_5.odb,Step-1,Increment      1: Step Time =    1.000,"PART-1-1",           223,       11.1627,      -15.1016,            0.,NA,NA,"",       1.93172,       1.89313,  -384.191E-03,   17.1905E-03
C:/temp/dataset/9/27_5.odb,Step-1,Increment      1: Step Time =    1.000,"PART-1-1",           224,      -9.10801,       10.4728,            0.,NA,NA,"",       13.1829,       12.0473,       5.35285,   1.34814E-03
C:/temp/dataset/9/27_5.odb,Step-1,Increment      1: Step Time =    1.000,"PART-1-1",           225,      -9.12162,       8.28854,            0.,NA,NA,"",       12.5039,       11.2198,       5.51941,   1.40856E-03
C:/temp/dataset/9/27_5.odb,Step-1,Increment      1: Step Time =    1.000,"PART-1-1",           226,      -8.73753,       18.6317,            0.,NA,NA,"",       15.7938,       15.1041,       4.61622,   1.41226E-03
C:/temp/dataset/9/27_5.odb,Step-1,Increment      1: Step Time =    1.000,"PART-1-1",           227,      -9.90634,  -397.381E-03,            0.,NA,NA,"",       10.2727,       7.99296,       6.45293,   1.36100E-03
C:/temp/dataset/9/27_5.odb,Step-1,Increment      1: Step Time =    1.000,"PART-1-1",           228,       9.93939,       19.9385,            0.,NA,NA,"",       14.4741,       14.2750,      -2.39259,   1.94802E-03
C:/temp/dataset/9/27_5.odb,Step-1,Increment      1: Step Time =    1.000,"PART-1-1",           229,       5.70370,       25.8085,            0.,NA,NA,"",       16.8067,       16.7611,      -1.23690,   1.58232E-03
C:/temp/dataset/9/27_5.odb,Step-1,Increment      1: Step Time =    1.000,"PART-1-1",           230,       10.0348,       12.2094,            0.,NA,NA,"",       11.4588,       11.3093,      -1.84508,   8.49052E-03
C:/temp/dataset/9/27_5.odb,Step-1,Increment      1: Step Time =    1.000,"PART-1-1",           231,       9.98921,       17.4486,            0.,NA,NA,"",       13.5154,       13.3303,      -2.22879,   3.37198E-03
C:/temp/dataset/9/27_5.odb,Step-1,Increment      1: Step Time =    1.000,"PART-1-1",           232,       10.1044,       9.10575,            0.,NA,NA,"",       10.2329,       10.1028,      -1.62646,   9.02541E-03
C:/temp/dataset/9/27_5.odb,Step-1,Increment      1: Step Time =    1.000,"PART-1-1",           233,      -3.11139,      -1.10310,            0.,NA,NA,"",       8.22944,       7.22645,       3.93726,   2.20271E-03
C:/temp/dataset/9/27_5.odb,Step-1,Increment      1: Step Time =    1.000,"PART-1-1",           234,      -6.48507,       25.5695,            0.,NA,NA,"",       17.8347,       17.5305,       3.28017,   857.357E-06
C:/temp/dataset/9/27_5.odb,Step-1,Increment      1: Step Time =    1.000,"PART-1-1",           235,      -4.76537,       24.8732,            0.,NA,NA,"",       17.3586,       17.1485,       2.69222,   1.31702E-03
C:/temp/dataset/9/27_5.odb,Step-1,Increment      1: Step Time =    1.000,"PART-1-1",           236,      -8.46351,       26.0628,            0.,NA,NA,"",       18.2949,       17.8566,       3.98072,   930.292E-06
C:/temp/dataset/9/27_5.odb,Step-1,Increment      1: Step Time =    1.000,"PART-1-1",           237,      -9.50218,       15.8804,            0.,NA,NA,"",       15.0170,       14.1230,       5.10385,   1.41906E-03
C:/temp/dataset/9/27_5.odb,Step-1,Increment      1: Step Time =    1.000,"PART-1-1",           238,      -5.29510,      -1.38770,            0.,NA,NA,"",       8.70932,       7.27928,       4.78166,   1.98382E-03
C:/temp/dataset/9/27_5.odb,Step-1,Increment      1: Step Time =    1.000,"PART-1-1",           239,       11.0587,      -21.7318,            0.,NA,NA,"",   639.490E-03,   621.539E-03,  -150.456E-03,   18.0672E-03
C:/temp/dataset/9/27_5.odb,Step-1,Increment      1: Step Time =    1.000,"PART-1-1",           240,       11.1670,      -17.4071,            0.,NA,NA,"",       1.41539,       1.38392,  -296.788E-03,   18.0310E-03
C:/temp/dataset/9/27_5.odb,Step-1,Increment      1: Step Time =    1.000,"PART-1-1",           241,       11.0513,      -8.06140,            0.,NA,NA,"",       3.89942,       3.83414,  -710.518E-03,   16.0633E-03
C:/temp/dataset/9/27_5.odb,Step-1,Increment      1: Step Time =    1.000,"PART-1-1",           242,       10.1357,   7.39639E-03,            0.,NA,NA,"",       6.74207,       6.67401,  -955.555E-03,   13.5365E-03
C:/temp/dataset/9/27_5.odb,Step-1,Increment      1: Step Time =    1.000,"PART-1-1",           243,       10.6886,      -3.06387,            0.,NA,NA,"",       5.60379,       5.52652,  -927.408E-03,   17.5126E-03
C:/temp/dataset/9/27_5.odb,Step-1,Increment      1: Step Time =    1.000,"PART-1-1",           244,       9.76329,       22.4053,            0.,NA,NA,"",       15.4142,       15.2093,      -2.50475,   2.37433E-03
C:/temp/dataset/9/27_5.odb,Step-1,Increment      1: Step Time =    1.000,"PART-1-1",           245,       8.68231,      -3.74099,            0.,NA,NA,"",       5.40520,       5.40088,  -216.192E-03,   18.2004E-03
C:/temp/dataset/9/27_5.odb,Step-1,Increment      1: Step Time =    1.000,"PART-1-1",           246,      -9.34414,       6.30777,            0.,NA,NA,"",       11.9579,       10.4848,       5.74979,   1.45467E-03
C:/temp/dataset/9/27_5.odb,Step-1,Increment      1: Step Time =    1.000,"PART-1-1",           247,      -9.93235,       4.61568,            0.,NA,NA,"",       11.6158,       9.88746,       6.09623,   1.34321E-03
C:/temp/dataset/9/27_5.odb,Step-1,Increment      1: Step Time =    1.000,"PART-1-1",           248,      -8.14937,       21.0679,            0.,NA,NA,"",       16.5227,       15.9747,       4.21980,   1.14098E-03
C:/temp/dataset/9/27_5.odb,Step-1,Increment      1: Step Time =    1.000,"PART-1-1",           249,       10.7972,      -23.3791,            0.,NA,NA,"",   411.364E-03,   402.572E-03,  -84.5927E-03,   14.6603E-03
C:/temp/dataset/9/27_5.odb,Step-1,Increment      1: Step Time =    1.000,"PART-1-1",           250,       4.15357,   65.4176E-03,            0.,NA,NA,"",       7.22229,       7.12971,       1.15271,   11.6495E-03
C:/temp/dataset/9/27_5.odb,Step-1,Increment      1: Step Time =    1.000,"PART-1-1",           251,       8.71950,       3.82470,            0.,NA,NA,"",       8.22297,       8.19164,  -717.172E-03,   7.81815E-03
C:/temp/dataset/9/27_5.odb,Step-1,Increment      1: Step Time =    1.000,"PART-1-1",           252,       5.00281,       23.5204,            0.,NA,NA,"",       15.9828,       15.9622,  -810.812E-03,   2.19443E-03
C:/temp/dataset/9/27_5.odb,Step-1,Increment      1: Step Time =    1.000,"PART-1-1",           253,       7.40149,   60.9774E-03,            0.,NA,NA,"",       6.88256,       6.88255,  -3.90388E-03,   16.6156E-03
C:/temp/dataset/9/27_5.odb,Step-1,Increment      1: Step Time =    1.000,"PART-1-1",           254,      -5.73116,       22.7675,            0.,NA,NA,"",       16.7428,       16.4344,       3.19836,   1.89260E-03
C:/temp/dataset/9/27_5.odb,Step-1,Increment      1: Step Time =    1.000,"PART-1-1",           255,      -5.42683,       1.83799,            0.,NA,NA,"",       9.66150,       8.49804,       4.59651,   2.55063E-03
C:/temp/dataset/9/27_5.odb,Step-1,Increment      1: Step Time =    1.000,"PART-1-1",           256,       6.81561,       24.0815,            0.,NA,NA,"",       16.1153,       16.0430,      -1.52439,   2.12120E-03
C:/temp/dataset/9/27_5.odb,Step-1,Increment      1: Step Time =    1.000,"PART-1-1",           257,      -7.40884,       23.3683,            0.,NA,NA,"",       17.1990,       16.7787,       3.77938,   1.16514E-03
C:/temp/dataset/9/27_5.odb,Step-1,Increment      1: Step Time =    1.000,"PART-1-1",           258,      -3.69176,       23.9755,            0.,NA,NA,"",       16.9041,       16.7387,       2.35923,   1.80005E-03
C:/temp/dataset/9/27_5.odb,Step-1,Increment      1: Step Time =    1.000,"PART-1-1",           259,      -8.10961,       1.76736,            0.,NA,NA,"",       10.3329,       8.67379,       5.61548,   1.96096E-03
C:/temp/dataset/9/27_5.odb,Step-1,Increment      1: Step Time =    1.000,"PART-1-1",           260,       5.94930,   61.4696E-03,            0.,NA,NA,"",       7.00951,       6.99104,   508.534E-03,   16.1269E-03
C:/temp/dataset/9/27_5.odb,Step-1,Increment      1: Step Time =    1.000,"PART-1-1",           261,       1.93878,   62.7924E-03,            0.,NA,NA,"",       7.55385,       7.29385,       1.96478,   5.12948E-03
C:/temp/dataset/9/27_5.odb,Step-1,Increment      1: Step Time =    1.000,"PART-1-1",           262,       6.71051,      -4.41826,            0.,NA,NA,"",       5.30357,       5.28191,   478.811E-03,   23.8098E-03
C:/temp/dataset/9/27_5.odb,Step-1,Increment      1: Step Time =    1.000,"PART-1-1",           263,      -12.5366,      -2.82410,            0.,NA,NA,"",       10.5386,       7.27360,       7.62602,   521.089E-06
C:/temp/dataset/9/27_5.odb,Step-1,Increment      1: Step Time =    1.000,"PART-1-1",           264,       6.75090,       4.53602,            0.,NA,NA,"",       8.60033,       8.60018,  -49.7418E-03,   8.22373E-03
C:/temp/dataset/9/27_5.odb,Step-1,Increment      1: Step Time =    1.000,"PART-1-1",           265,      -5.22339,       3.46233,            0.,NA,NA,"",       10.1028,       9.09327,       4.40218,   3.10854E-03
C:/temp/dataset/9/27_5.odb,Step-1,Increment      1: Step Time =    1.000,"PART-1-1",           266,       4.93795,       21.9167,            0.,NA,NA,"",       15.3877,       15.3731,  -669.738E-03,   3.28752E-03
C:/temp/dataset/9/27_5.odb,Step-1,Increment      1: Step Time =    1.000,"PART-1-1",           267,       8.13144,      -1.42002,            0.,NA,NA,"",       6.28368,       6.28142,  -168.471E-03,   17.9510E-03
C:/temp/dataset/9/27_5.odb,Step-1,Increment      1: Step Time =    1.000,"PART-1-1",           268,      -3.13115,       1.39136,            0.,NA,NA,"",       8.98519,       8.15897,       3.76363,   2.35049E-03
C:/temp/dataset/9/27_5.odb,Step-1,Increment      1: Step Time =    1.000,"PART-1-1",           269,       9.17709,       6.32873,            0.,NA,NA,"",       9.16630,       9.10406,      -1.06641,   7.82075E-03
C:/temp/dataset/9/27_5.odb,Step-1,Increment      1: Step Time =    1.000,"PART-1-1",           270,      -11.0423,       1.34077,            0.,NA,NA,"",       11.0407,       8.73298,       6.75519,   1.15731E-03
C:/temp/dataset/9/27_5.odb,Step-1,Increment      1: Step Time =    1.000,"PART-1-1",           271,      -10.1478,       26.6048,            0.,NA,NA,"",       18.7454,       18.1799,       4.56967,   1.02083E-03
C:/temp/dataset/9/27_5.odb,Step-1,Increment      1: Step Time =    1.000,"PART-1-1",           272,      -10.1118,       21.9370,            0.,NA,NA,"",       17.1527,       16.4406,       4.89097,   846.420E-06
C:/temp/dataset/9/27_5.odb,Step-1,Increment      1: Step Time =    1.000,"PART-1-1",           273,       8.13886,       1.50501,            0.,NA,NA,"",       7.37525,       7.36676,  -353.766E-03,   12.9737E-03
C:/temp/dataset/9/27_5.odb,Step-1,Increment      1: Step Time =    1.000,"PART-1-1",           274,      -7.06249,   219.393E-03,            0.,NA,NA,"",       9.62492,       8.01290,       5.33222,   2.01093E-03
C:/temp/dataset/9/27_5.odb,Step-1,Increment      1: Step Time =    1.000,"PART-1-1",           275,      -5.40522,   241.534E-03,            0.,NA,NA,"",       9.19268,       7.89782,       4.70424,   2.17330E-03
C:/temp/dataset/9/27_5.odb,Step-1,Increment      1: Step Time =    1.000,"PART-1-1",           276,      -3.80180,   194.541E-03,            0.,NA,NA,"",       8.77928,       7.76166,       4.10273,   2.21820E-03
C:/temp/dataset/9/27_5.odb,Step-1,Increment      1: Step Time =    1.000,"PART-1-1",           277,      -2.71285,       28.4954,            0.,NA,NA,"",       18.4232,       18.3467,       1.67733,   933.223E-06
C:/temp/dataset/9/27_5.odb,Step-1,Increment      1: Step Time =    1.000,"PART-1-1",           278,         -3.75,           30.,            0.,NA,NA,"",       19.0782,       18.9778,       1.95403,   1.23391E-03
C:/temp/dataset/9/27_5.odb,Step-1,Increment      1: Step Time =    1.000,"PART-1-1",           279,      -5.26224,       28.8665,            0.,NA,NA,"",       18.8460,       18.6667,       2.59320,   1.14755E-03
C:/temp/dataset/9/27_5.odb,Step-1,Increment      1: Step Time =    1.000,"PART-1-1",           280,      -4.22509,       27.3619,            0.,NA,NA,"",       18.1823,       18.0342,       2.31614,   971.040E-06
C:/temp/dataset/9/27_5.odb,Step-1,Increment      1: Step Time =    1.000,"PART-1-1",           281,      -3.84553,       25.9321,            0.,NA,NA,"",       17.6241,       17.4763,       2.27729,   1.28839E-03
C:/temp/dataset/9/27_5.odb,Step-1,Increment      1: Step Time =    1.000,"PART-1-1",           282,      -6.00478,       26.6512,            0.,NA,NA,"",       18.1517,       17.8978,       3.02533,   795.317E-06
C:/temp/dataset/9/27_5.odb,Step-1,Increment      1: Step Time =    1.000,"PART-1-1",           283,      -5.62522,       25.2214,            0.,NA,NA,"",       17.5946,       17.3394,       2.98592,   991.287E-06
C:/temp/dataset/9/27_5.odb,Step-1,Increment      1: Step Time =    1.000,"PART-1-1",           284,      -10.0879,       29.0985,            0.,NA,NA,"",       19.5962,       19.1029,       4.36917,   821.226E-06
C:/temp/dataset/9/27_5.odb,Step-1,Increment      1: Step Time =    1.000,"PART-1-1",           285,        -11.25,           30.,            0.,NA,NA,"",       20.0897,       19.5231,       4.73744,   559.971E-06
C:/temp/dataset/9/27_5.odb,Step-1,Increment      1: Step Time =    1.000,"PART-1-1",           286,      -12.4706,       28.9480,            0.,NA,NA,"",       19.9284,       19.2196,       5.26785,   388.534E-06
C:/temp/dataset/9/27_5.odb,Step-1,Increment      1: Step Time =    1.000,"PART-1-1",           287,      -11.3086,       28.0465,            0.,NA,NA,"",       19.4279,       18.8000,       4.89933,   774.342E-06
C:/temp/dataset/9/27_5.odb,Step-1,Increment      1: Step Time =    1.000,"PART-1-1",           288,      -13.4495,       25.5029,            0.,NA,NA,"",       18.9445,       18.0087,       5.88062,   794.087E-06
C:/temp/dataset/9/27_5.odb,Step-1,Increment      1: Step Time =    1.000,"PART-1-1",           289,          -15.,       24.5313,            0.,NA,NA,"",       18.9207,       17.7585,       6.52915,   1.11716E-03
C:/temp/dataset/9/27_5.odb,Step-1,Increment      1: Step Time =    1.000,"PART-1-1",           290,      -13.6920,       23.1529,            0.,NA,NA,"",       18.2183,       17.1519,       6.14157,   1.13776E-03
C:/temp/dataset/9/27_5.odb,Step-1,Increment      1: Step Time =    1.000,"PART-1-1",           291,      -12.1415,       24.1246,            0.,NA,NA,"",       18.2478,       17.4018,       5.49184,   1.05365E-03
C:/temp/dataset/9/27_5.odb,Step-1,Increment      1: Step Time =    1.000,"PART-1-1",           292,          8.75,          -30.,            0.,NA,NA,"",            0.,  -9.79053E-39,   38.4714E-39,   20.8977E-03
C:/temp/dataset/9/27_5.odb,Step-1,Increment      1: Step Time =    1.000,"PART-1-1",           293,       9.96407,      -28.8633,            0.,NA,NA,"",   2.28000E-03,  -1.44300E-03,   1.76525E-03,   3.11211E-03
C:/temp/dataset/9/27_5.odb,Step-1,Increment      1: Step Time =    1.000,"PART-1-1",           294,       8.68711,      -27.7998,            0.,NA,NA,"",   62.7377E-03,   42.5966E-03,   46.0604E-03,   30.9211E-03
C:/temp/dataset/9/27_5.odb,Step-1,Increment      1: Step Time =    1.000,"PART-1-1",           295,       7.47304,      -28.9365,            0.,NA,NA,"",   41.2467E-03,   13.8449E-03,   38.8538E-03,   45.3434E-03
C:/temp/dataset/9/27_5.odb,Step-1,Increment      1: Step Time =    1.000,"PART-1-1",           296,       10.9279,      -22.5555,            0.,NA,NA,"",   520.059E-03,   507.140E-03,  -115.199E-03,   16.2989E-03
C:/temp/dataset/9/27_5.odb,Step-1,Increment      1: Step Time =    1.000,"PART-1-1",           297,       10.0765,      -21.6813,            0.,NA,NA,"",   637.186E-03,   636.862E-03,  -20.3083E-03,   9.95590E-03
C:/temp/dataset/9/27_5.odb,Step-1,Increment      1: Step Time =    1.000,"PART-1-1",           298,       9.14242,      -22.6395,            0.,NA,NA,"",   523.773E-03,   514.526E-03,   97.9872E-03,   20.5553E-03
C:/temp/dataset/9/27_5.odb,Step-1,Increment      1: Step Time =    1.000,"PART-1-1",           299,       9.99384,      -23.5137,            0.,NA,NA,"",   391.482E-03,   391.479E-03,   1.75798E-03,   10.6468E-03
C:/temp/dataset/9/27_5.odb,Step-1,Increment      1: Step Time =    1.000,"PART-1-1",           300,       7.08785,      -18.4988,            0.,NA,NA,"",       1.35225,       1.26817,   469.371E-03,   47.5614E-03
C:/temp/dataset/9/27_5.odb,Step-1,Increment      1: Step Time =    1.000,"PART-1-1",           301,       6.04673,      -17.4684,            0.,NA,NA,"",       1.67687,       1.52720,   692.492E-03,   61.1248E-03
C:/temp/dataset/9/27_5.odb,Step-1,Increment      1: Step Time =    1.000,"PART-1-1",           302,            5.,      -18.5417,            0.,NA,NA,"",       1.59548,       1.35292,   845.687E-03,   78.8087E-03
C:/temp/dataset/9/27_5.odb,Step-1,Increment      1: Step Time =    1.000,"PART-1-1",           303,       6.04112,      -19.5721,            0.,NA,NA,"",       1.26301,       1.10286,   615.532E-03,   65.0302E-03
C:/temp/dataset/9/27_5.odb,Step-1,Increment      1: Step Time =    1.000,"PART-1-1",           304,       7.10245,      -14.2066,            0.,NA,NA,"",       2.31152,       2.25089,   525.931E-03,   41.5136E-03
C:/temp/dataset/9/27_5.odb,Step-1,Increment      1: Step Time =    1.000,"PART-1-1",           305,       6.04975,      -13.2285,            0.,NA,NA,"",       2.68030,       2.56219,   786.892E-03,   53.2998E-03
C:/temp/dataset/9/27_5.odb,Step-1,Increment      1: Step Time =    1.000,"PART-1-1",           306,            5.,       -14.375,            0.,NA,NA,"",       2.53163,       2.31881,       1.01602,   69.2477E-03
C:/temp/dataset/9/27_5.odb,Step-1,Increment      1: Step Time =    1.000,"PART-1-1",           307,       6.05270,      -15.3531,            0.,NA,NA,"",       2.14975,       2.01496,   749.238E-03,   57.1769E-03
C:/temp/dataset/9/27_5.odb,Step-1,Increment      1: Step Time =    1.000,"PART-1-1",           308,            5.,      -6.04167,            0.,NA,NA,"",       4.96294,       4.83827,       1.10540,   62.9723E-03
C:/temp/dataset/9/27_5.odb,Step-1,Increment      1: Step Time =    1.000,"PART-1-1",           309,       5.97724,      -6.85181,            0.,NA,NA,"",       4.56533,       4.49492,   798.699E-03,   43.3773E-03
C:/temp/dataset/9/27_5.odb,Step-1,Increment      1: Step Time =    1.000,"PART-1-1",           310,       6.83249,      -5.51927,            0.,NA,NA,"",       4.90939,       4.88534,   485.352E-03,   22.6966E-03
C:/temp/dataset/9/27_5.odb,Step-1,Increment      1: Step Time =    1.000,"PART-1-1",           311,       5.85525,      -4.70913,            0.,NA,NA,"",       5.29090,       5.23221,   785.864E-03,   34.2011E-03
C:/temp/dataset/9/27_5.odb,Step-1,Increment      1: Step Time =    1.000,"PART-1-1",           312,       4.27314,       1.25089,            0.,NA,NA,"",       7.63123,       7.56044,       1.03704,   11.8756E-03
C:/temp/dataset/9/27_5.odb,Step-1,Increment      1: Step Time =    1.000,"PART-1-1",           313,       3.27994,       2.49943,            0.,NA,NA,"",       8.20434,       8.09809,       1.31614,   8.45725E-03
C:/temp/dataset/9/27_5.odb,Step-1,Increment      1: Step Time =    1.000,"PART-1-1",           314,       2.05297,       1.31265,            0.,NA,NA,"",       7.96337,       7.74806,       1.83921,   4.42829E-03
C:/temp/dataset/9/27_5.odb,Step-1,Increment      1: Step Time =    1.000,"PART-1-1",           315,       3.04617,   64.1050E-03,            0.,NA,NA,"",       7.37825,       7.21205,       1.55724,   8.33466E-03
C:/temp/dataset/9/27_5.odb,Step-1,Increment      1: Step Time =    1.000,"PART-1-1",           316,       6.28410,       12.4112,            0.,NA,NA,"",       11.6800,       11.6716,  -443.744E-03,   5.65802E-03
C:/temp/dataset/9/27_5.odb,Step-1,Increment      1: Step Time =    1.000,"PART-1-1",           317,            5.,         11.25,            0.,NA,NA,"",       11.3196,       11.3187,   141.630E-03,   3.99188E-03
C:/temp/dataset/9/27_5.odb,Step-1,Increment      1: Step Time =    1.000,"PART-1-1",           318,       6.24476,       9.82085,            0.,NA,NA,"",       10.6678,       10.6653,  -229.680E-03,   5.68038E-03
C:/temp/dataset/9/27_5.odb,Step-1,Increment      1: Step Time =    1.000,"PART-1-1",           319,       7.52885,       10.9821,            0.,NA,NA,"",       11.0484,       11.0190,  -805.385E-03,   7.78285E-03
C:/temp/dataset/9/27_5.odb,Step-1,Increment      1: Step Time =    1.000,"PART-1-1",           320,       6.23557,       19.9374,            0.,NA,NA,"",       14.5859,       14.5513,      -1.00376,   4.61629E-03
C:/temp/dataset/9/27_5.odb,Step-1,Increment      1: Step Time =    1.000,"PART-1-1",           321,            5.,         18.75,            0.,NA,NA,"",       14.2071,       14.1998,  -453.250E-03,   7.95844E-03
C:/temp/dataset/9/27_5.odb,Step-1,Increment      1: Step Time =    1.000,"PART-1-1",           322,       6.25255,       17.4722,            0.,NA,NA,"",       13.6494,       13.6244,  -824.849E-03,   5.21577E-03
C:/temp/dataset/9/27_5.odb,Step-1,Increment      1: Step Time =    1.000,"PART-1-1",           323,       7.48812,       18.6595,            0.,NA,NA,"",       14.0468,       13.9790,      -1.37835,   3.58567E-03
C:/temp/dataset/9/27_5.odb,Step-1,Increment      1: Step Time =    1.000,"PART-1-1",           324,       12.4612,       28.7577,            0.,NA,NA,"",       17.8227,       17.3749,      -3.97029,   702.729E-06
C:/temp/dataset/9/27_5.odb,Step-1,Increment      1: Step Time =    1.000,"PART-1-1",           325,         11.25,           30.,            0.,NA,NA,"",       18.2842,       17.9247,      -3.60779,   853.394E-06
C:/temp/dataset/9/27_5.odb,Step-1,Increment      1: Step Time =    1.000,"PART-1-1",           326,       9.95383,       28.8406,            0.,NA,NA,"",       17.8462,       17.5855,      -3.03963,   1.34815E-03
C:/temp/dataset/9/27_5.odb,Step-1,Increment      1: Step Time =    1.000,"PART-1-1",           327,       11.1650,       27.5983,            0.,NA,NA,"",       17.3733,       17.0368,      -3.40266,   1.40898E-03
C:/temp/dataset/9/27_5.odb,Step-1,Increment      1: Step Time =    1.000,"PART-1-1",           328,       9.61193,       26.3742,            0.,NA,NA,"",       16.9163,       16.6939,      -2.73410,   1.80741E-03
C:/temp/dataset/9/27_5.odb,Step-1,Increment      1: Step Time =    1.000,"PART-1-1",           329,       10.8062,       25.0400,            0.,NA,NA,"",       16.4052,       16.1125,      -3.08499,   1.97025E-03
C:/temp/dataset/9/27_5.odb,Step-1,Increment      1: Step Time =    1.000,"PART-1-1",           330,       12.3592,       26.2641,            0.,NA,NA,"",       16.8775,       16.4548,      -3.75352,   1.63737E-03
C:/temp/dataset/9/27_5.odb,Step-1,Increment      1: Step Time =    1.000,"PART-1-1",           331,       7.54419,       28.9985,            0.,NA,NA,"",       17.9443,       17.8148,      -2.15193,   1.85240E-03
C:/temp/dataset/9/27_5.odb,Step-1,Increment      1: Step Time =    1.000,"PART-1-1",           332,          6.25,           30.,            0.,NA,NA,"",       18.3597,       18.2768,      -1.74271,   2.28842E-03
C:/temp/dataset/9/27_5.odb,Step-1,Increment      1: Step Time =    1.000,"PART-1-1",           333,       5.09159,       28.9175,            0.,NA,NA,"",       17.9987,       17.9563,      -1.23433,   1.83312E-03
C:/temp/dataset/9/27_5.odb,Step-1,Increment      1: Step Time =    1.000,"PART-1-1",           334,       6.38578,       27.9160,            0.,NA,NA,"",       17.5715,       17.4946,      -1.64262,   1.42144E-03
C:/temp/dataset/9/27_5.odb,Step-1,Increment      1: Step Time =    1.000,"PART-1-1",           335,       2.95769,       26.1428,            0.,NA,NA,"",       17.0787,       17.0770,  -245.287E-03,   1.84038E-03
C:/temp/dataset/9/27_5.odb,Step-1,Increment      1: Step Time =    1.000,"PART-1-1",           336,       4.45909,       25.3098,            0.,NA,NA,"",       16.6798,       16.6634,  -739.740E-03,   1.69115E-03
C:/temp/dataset/9/27_5.odb,Step-1,Increment      1: Step Time =    1.000,"PART-1-1",           337,       5.44343,       26.8217,            0.,NA,NA,"",       17.1979,       17.1550,      -1.21369,   1.50359E-03
C:/temp/dataset/9/27_5.odb,Step-1,Increment      1: Step Time =    1.000,"PART-1-1",           338,       3.94204,       27.6547,            0.,NA,NA,"",       17.5833,       17.5686,  -717.727E-03,   1.48665E-03
C:/temp/dataset/9/27_5.odb,Step-1,Increment      1: Step Time =    1.000,"PART-1-1",           339,       6.06395,       7.26936,            0.,NA,NA,"",       9.68972,       9.68970,   20.0378E-03,   9.87032E-03
C:/temp/dataset/9/27_5.odb,Step-1,Increment      1: Step Time =    1.000,"PART-1-1",           340,       7.30871,       8.34021,            0.,NA,NA,"",       10.0237,       10.0101,  -521.961E-03,   8.57541E-03
C:/temp/dataset/9/27_5.odb,Step-1,Increment      1: Step Time =    1.000,"PART-1-1",           341,            5.,          8.75,            0.,NA,NA,"",       10.3533,       10.3483,   322.116E-03,   9.56028E-03
C:/temp/dataset/9/27_5.odb,Step-1,Increment      1: Step Time =    1.000,"PART-1-1",           342,      -13.9291,       1.47830,            0.,NA,NA,"",       11.9333,       9.00015,       7.83584,   841.639E-06
C:/temp/dataset/9/27_5.odb,Step-1,Increment      1: Step Time =    1.000,"PART-1-1",           343,          -15.,    468.75E-03,            0.,NA,NA,"",       12.0327,       8.69858,       8.31394,   694.776E-06
C:/temp/dataset/9/27_5.odb,Step-1,Increment      1: Step Time =    1.000,"PART-1-1",           344,      -13.8152,  -655.377E-03,            0.,NA,NA,"",       11.4110,       8.18645,       7.94933,   574.566E-06
C:/temp/dataset/9/27_5.odb,Step-1,Increment      1: Step Time =    1.000,"PART-1-1",           345,      -12.7443,   354.171E-03,            0.,NA,NA,"",       11.3072,       8.48770,       7.47074,   817.296E-06
C:/temp/dataset/9/27_5.odb,Step-1,Increment      1: Step Time =    1.000,"PART-1-1",           346,      -13.9678,       8.16706,            0.,NA,NA,"",       13.6813,       11.5342,       7.35805,   586.106E-06
C:/temp/dataset/9/27_5.odb,Step-1,Increment      1: Step Time =    1.000,"PART-1-1",           347,          -15.,       7.03125,            0.,NA,NA,"",       13.6514,       11.1808,       7.83258,   644.363E-06
C:/temp/dataset/9/27_5.odb,Step-1,Increment      1: Step Time =    1.000,"PART-1-1",           348,      -13.6804,       5.85321,            0.,NA,NA,"",       12.9689,       10.6362,       7.42056,   869.825E-06
C:/temp/dataset/9/27_5.odb,Step-1,Increment      1: Step Time =    1.000,"PART-1-1",           349,      -12.6482,       6.98902,            0.,NA,NA,"",       13.0010,       10.9896,       6.94669,   899.099E-06
C:/temp/dataset/9/27_5.odb,Step-1,Increment      1: Step Time =    1.000,"PART-1-1",           350,      -5.93089,       17.7206,            0.,NA,NA,"",       15.0007,       14.5549,       3.63024,   3.29329E-03
C:/temp/dataset/9/27_5.odb,Step-1,Increment      1: Step Time =    1.000,"PART-1-1",           351,      -7.00986,       16.6597,            0.,NA,NA,"",       14.8155,       14.2336,       4.11123,   2.54635E-03
C:/temp/dataset/9/27_5.odb,Step-1,Increment      1: Step Time =    1.000,"PART-1-1",           352,      -6.07897,       15.1891,            0.,NA,NA,"",       14.1467,       13.6079,       3.86702,   2.50696E-03
C:/temp/dataset/9/27_5.odb,Step-1,Increment      1: Step Time =    1.000,"PART-1-1",           353,           -5.,         16.25,            0.,NA,NA,"",       14.3336,       13.9283,       3.38467,   3.23073E-03
C:/temp/dataset/9/27_5.odb,Step-1,Increment      1: Step Time =    1.000,"PART-1-1",           354,      -7.79966,       18.2865,            0.,NA,NA,"",       15.5110,       14.9059,       4.29004,   2.17623E-03
C:/temp/dataset/9/27_5.odb,Step-1,Increment      1: Step Time =    1.000,"PART-1-1",           355,      -6.65288,       19.1839,            0.,NA,NA,"",       15.6291,       15.1611,       3.79601,   2.49097E-03
C:/temp/dataset/9/27_5.odb,Step-1,Increment      1: Step Time =    1.000,"PART-1-1",           356,      -7.29668,       20.7472,            0.,NA,NA,"",       16.2738,       15.7936,       3.92411,   1.52665E-03
C:/temp/dataset/9/27_5.odb,Step-1,Increment      1: Step Time =    1.000,"PART-1-1",           357,      -8.44345,       19.8498,            0.,NA,NA,"",       16.1558,       15.5401,       4.41762,   1.06553E-03
C:/temp/dataset/9/27_5.odb,Step-1,Increment      1: Step Time =    1.000,"PART-1-1",           358,      -2.59303,       4.06073,            0.,NA,NA,"",       9.72000,       9.11654,       3.37151,   4.91016E-03
C:/temp/dataset/9/27_5.odb,Step-1,Increment      1: Step Time =    1.000,"PART-1-1",           359,      -1.46713,       2.91047,            0.,NA,NA,"",       9.11976,       8.60084,       3.03239,   3.70781E-03
C:/temp/dataset/9/27_5.odb,Step-1,Increment      1: Step Time =    1.000,"PART-1-1",           360,  -124.098E-03,       3.84974,            0.,NA,NA,"",       9.18587,       8.84801,       2.46838,   5.79603E-03
C:/temp/dataset/9/27_5.odb,Step-1,Increment      1: Step Time =    1.000,"PART-1-1",           361,         -1.25,            5.,            0.,NA,NA,"",       9.77542,       9.36399,       2.80619,   7.23104E-03
C:/temp/dataset/9/27_5.odb,Step-1,Increment      1: Step Time =    1.000,"PART-1-1",           362,      -11.2683,  -541.568E-03,            0.,NA,NA,"",       10.6463,       8.04004,       6.97858,   1.06307E-03
C:/temp/dataset/9/27_5.odb,Step-1,Increment      1: Step Time =    1.000,"PART-1-1",           363,      -10.4743,   471.696E-03,            0.,NA,NA,"",       10.6560,       8.36277,       6.60408,   1.20777E-03
C:/temp/dataset/9/27_5.odb,Step-1,Increment      1: Step Time =    1.000,"PART-1-1",           364,      -11.9503,       1.36743,            0.,NA,NA,"",       11.3133,       8.81085,       7.09642,   995.145E-06
C:/temp/dataset/9/27_5.odb,Step-1,Increment      1: Step Time =    1.000,"PART-1-1",           365,      -13.0095,       9.29789,            0.,NA,NA,"",       13.7543,       11.8914,       6.91198,   806.465E-06
C:/temp/dataset/9/27_5.odb,Step-1,Increment      1: Step Time =    1.000,"PART-1-1",           366,      -14.0417,       10.3496,            0.,NA,NA,"",       14.3216,       12.3663,       7.22378,   407.038E-06
C:/temp/dataset/9/27_5.odb,Step-1,Increment      1: Step Time =    1.000,"PART-1-1",           367,          -15.,       9.21875,            0.,NA,NA,"",       14.2500,       12.0094,       7.67049,   103.893E-06
C:/temp/dataset/9/27_5.odb,Step-1,Increment      1: Step Time =    1.000,"PART-1-1",           368,      -6.40766,      -1.28741,            0.,NA,NA,"",       9.04021,       7.39865,       5.19476,   1.83143E-03
C:/temp/dataset/9/27_5.odb,Step-1,Increment      1: Step Time =    1.000,"PART-1-1",           369,      -5.35016,  -573.084E-03,            0.,NA,NA,"",       8.94877,       7.58853,       4.74286,   2.02465E-03
C:/temp/dataset/9/27_5.odb,Step-1,Increment      1: Step Time =    1.000,"PART-1-1",           370,      -6.23385,   230.463E-03,            0.,NA,NA,"",       9.40575,       7.95528,       5.01813,   2.07746E-03
C:/temp/dataset/9/27_5.odb,Step-1,Increment      1: Step Time =    1.000,"PART-1-1",           371,      -7.29135,  -483.859E-03,            0.,NA,NA,"",       9.49890,       7.76577,       5.47010,   1.83091E-03
C:/temp/dataset/9/27_5.odb,Step-1,Increment      1: Step Time =    1.000,"PART-1-1",           372,   952.242E-03,      -2.53706,            0.,NA,NA,"",       6.87782,       6.40195,       2.51384,   4.50330E-03
C:/temp/dataset/9/27_5.odb,Step-1,Increment      1: Step Time =    1.000,"PART-1-1",           373,  -130.910E-03,      -3.80019,            0.,NA,NA,"",       6.72110,       6.00709,       3.01463,   3.32869E-03
C:/temp/dataset/9/27_5.odb,Step-1,Increment      1: Step Time =    1.000,"PART-1-1",           374,          1.25,           -5.,            0.,NA,NA,"",       6.04062,       5.45979,       2.58453,   4.85202E-03
C:/temp/dataset/9/27_5.odb,Step-1,Increment      1: Step Time =    1.000,"PART-1-1",           375,       2.33315,      -3.73687,            0.,NA,NA,"",       6.21570,       5.85851,       2.07674,   5.87990E-03
C:/temp/dataset/9/27_5.odb,Step-1,Increment      1: Step Time =    1.000,"PART-1-1",           376,       4.26686,      -1.13377,            0.,NA,NA,"",       6.78071,       6.67648,       1.18434,   12.9022E-03
C:/temp/dataset/9/27_5.odb,Step-1,Increment      1: Step Time =    1.000,"PART-1-1",           377,       2.05254,      -1.20548,            0.,NA,NA,"",       7.10652,       6.81687,       2.00820,   5.14445E-03
C:/temp/dataset/9/27_5.odb,Step-1,Increment      1: Step Time =    1.000,"PART-1-1",           378,       3.27323,      -2.40335,            0.,NA,NA,"",       6.49123,       6.28392,       1.62740,   9.06777E-03
C:/temp/dataset/9/27_5.odb,Step-1,Increment      1: Step Time =    1.000,"PART-1-1",           379,       10.4325,       1.51548,            0.,NA,NA,"",       7.30596,       7.21190,      -1.16861,   11.0547E-03
C:/temp/dataset/9/27_5.odb,Step-1,Increment      1: Step Time =    1.000,"PART-1-1",           380,       11.3847,  -3.51279E-03,            0.,NA,NA,"",       6.73644,       6.59097,      -1.39237,   13.7366E-03
C:/temp/dataset/9/27_5.odb,Step-1,Increment      1: Step Time =    1.000,"PART-1-1",           381,       12.7244,       1.31309,            0.,NA,NA,"",       7.26369,       6.99022,      -1.97435,   15.1400E-03
C:/temp/dataset/9/27_5.odb,Step-1,Increment      1: Step Time =    1.000,"PART-1-1",           382,       11.7722,       2.83209,            0.,NA,NA,"",       7.81080,       7.61205,      -1.75080,   10.4913E-03
C:/temp/dataset/9/27_5.odb,Step-1,Increment      1: Step Time =    1.000,"PART-1-1",           383,       9.00808,      -7.25637,            0.,NA,NA,"",       4.18605,       4.18391,  -133.944E-03,   12.9070E-03
C:/temp/dataset/9/27_5.odb,Step-1,Increment      1: Step Time =    1.000,"PART-1-1",           384,       7.95196,      -6.36313,            0.,NA,NA,"",       4.53699,       4.53430,   156.122E-03,   18.6274E-03
C:/temp/dataset/9/27_5.odb,Step-1,Increment      1: Step Time =    1.000,"PART-1-1",           385,       7.00211,      -7.70397,            0.,NA,NA,"",       4.18017,       4.15077,   494.947E-03,   31.8785E-03
C:/temp/dataset/9/27_5.odb,Step-1,Increment      1: Step Time =    1.000,"PART-1-1",           386,       8.05823,      -8.59720,            0.,NA,NA,"",       3.81219,       3.80681,   202.436E-03,   22.7608E-03
C:/temp/dataset/9/27_5.odb,Step-1,Increment      1: Step Time =    1.000,"PART-1-1",           387,       7.09104,      -12.0381,            0.,NA,NA,"",       2.88348,       2.83460,   528.677E-03,   38.6364E-03
C:/temp/dataset/9/27_5.odb,Step-1,Increment      1: Step Time =    1.000,"PART-1-1",           388,       6.04129,      -11.1013,            0.,NA,NA,"",       3.26307,       3.16224,   804.893E-03,   49.5327E-03
C:/temp/dataset/9/27_5.odb,Step-1,Increment      1: Step Time =    1.000,"PART-1-1",           389,            5.,      -12.2917,            0.,NA,NA,"",       3.07464,       2.88334,       1.06758,   64.5136E-03
C:/temp/dataset/9/27_5.odb,Step-1,Increment      1: Step Time =    1.000,"PART-1-1",           390,       9.13117,      -18.4822,            0.,NA,NA,"",       1.21143,       1.20686,   105.159E-03,   18.6407E-03
C:/temp/dataset/9/27_5.odb,Step-1,Increment      1: Step Time =    1.000,"PART-1-1",           391,       10.1297,      -19.6034,            0.,NA,NA,"",   977.685E-03,   976.187E-03,  -54.1060E-03,   9.73589E-03
C:/temp/dataset/9/27_5.odb,Step-1,Increment      1: Step Time =    1.000,"PART-1-1",           392,       11.1535,      -18.5257,            0.,NA,NA,"",       1.18979,       1.16187,  -256.216E-03,   18.2007E-03
C:/temp/dataset/9/27_5.odb,Step-1,Increment      1: Step Time =    1.000,"PART-1-1",           393,       10.1550,      -17.4045,            0.,NA,NA,"",       1.40553,       1.40199,  -99.7661E-03,   9.69157E-03
C:/temp/dataset/9/27_5.odb,Step-1,Increment      1: Step Time =    1.000,"PART-1-1",           394,       6.27183,       14.9637,            0.,NA,NA,"",       12.6806,       12.6646,  -637.320E-03,   4.87946E-03
C:/temp/dataset/9/27_5.odb,Step-1,Increment      1: Step Time =    1.000,"PART-1-1",           395,       7.52438,       16.1859,            0.,NA,NA,"",       13.0924,       13.0367,      -1.20598,   5.10877E-03
C:/temp/dataset/9/27_5.odb,Step-1,Increment      1: Step Time =    1.000,"PART-1-1",           396,            5.,         16.25,            0.,NA,NA,"",       13.2584,       13.2560,  -253.601E-03,   5.91276E-03
C:/temp/dataset/9/27_5.odb,Step-1,Increment      1: Step Time =    1.000,"PART-1-1",           397,       2.56719,       21.1071,            0.,NA,NA,"",       15.2421,       15.2399,   258.853E-03,   874.853E-06
C:/temp/dataset/9/27_5.odb,Step-1,Increment      1: Step Time =    1.000,"PART-1-1",           398,       1.41709,       22.2600,            0.,NA,NA,"",       15.7575,       15.7460,   600.056E-03,   1.41785E-03
C:/temp/dataset/9/27_5.odb,Step-1,Increment      1: Step Time =    1.000,"PART-1-1",           399,   99.9026E-03,       21.1528,            0.,NA,NA,"",       15.4731,       15.4293,       1.16329,   856.943E-06
C:/temp/dataset/9/27_5.odb,Step-1,Increment      1: Step Time =    1.000,"PART-1-1",           400,          1.25,           20.,            0.,NA,NA,"",       14.9469,       14.9243,   821.106E-03,   396.720E-06
C:/temp/dataset/9/27_5.odb,Step-1,Increment      1: Step Time =    1.000,"PART-1-1",           401,       7.55593,       13.6250,            0.,NA,NA,"",       12.0891,       12.0459,      -1.02111,   7.22779E-03
C:/temp/dataset/9/27_5.odb,Step-1,Increment      1: Step Time =    1.000,"PART-1-1",           402,            5.,         13.75,            0.,NA,NA,"",       12.2974,       12.2973,  -54.7733E-03,   4.33763E-03
C:/temp/dataset/9/27_5.odb,Step-1,Increment      1: Step Time =    1.000,"PART-1-1",           403,       8.77818,       14.9146,            0.,NA,NA,"",       12.5516,       12.4516,      -1.58181,   6.16386E-03
C:/temp/dataset/9/27_5.odb,Step-1,Increment      1: Step Time =    1.000,"PART-1-1",           404,       10.0010,       16.1752,            0.,NA,NA,"",       13.0198,       12.8431,      -2.13799,   4.61718E-03
C:/temp/dataset/9/27_5.odb,Step-1,Increment      1: Step Time =    1.000,"PART-1-1",           405,       8.74716,       17.4465,            0.,NA,NA,"",       13.5391,       13.4240,      -1.76135,   3.74366E-03
C:/temp/dataset/9/27_5.odb,Step-1,Increment      1: Step Time =    1.000,"PART-1-1",           406,       10.1219,       5.90684,            0.,NA,NA,"",       8.98519,       8.87804,      -1.38346,   7.74067E-03
C:/temp/dataset/9/27_5.odb,Step-1,Increment      1: Step Time =    1.000,"PART-1-1",           407,       8.94830,       5.07672,            0.,NA,NA,"",       8.69192,       8.64629,  -889.490E-03,   7.15941E-03
C:/temp/dataset/9/27_5.odb,Step-1,Increment      1: Step Time =    1.000,"PART-1-1",           408,       9.72441,       3.42413,            0.,NA,NA,"",       8.04035,       7.97113,      -1.05274,   7.83982E-03
C:/temp/dataset/9/27_5.odb,Step-1,Increment      1: Step Time =    1.000,"PART-1-1",           409,       10.8980,       4.25426,            0.,NA,NA,"",       8.34536,       8.20162,      -1.54223,   8.63424E-03
C:/temp/dataset/9/27_5.odb,Step-1,Increment      1: Step Time =    1.000,"PART-1-1",           410,       8.15250,       6.68373,            0.,NA,NA,"",       9.33941,       9.31208,  -713.987E-03,   8.01003E-03
C:/temp/dataset/9/27_5.odb,Step-1,Increment      1: Step Time =    1.000,"PART-1-1",           411,       9.64075,       7.71724,            0.,NA,NA,"",       9.69565,       9.60194,      -1.34478,   8.54957E-03
C:/temp/dataset/9/27_5.odb,Step-1,Increment      1: Step Time =    1.000,"PART-1-1",           412,       8.79696,       9.37373,            0.,NA,NA,"",       10.3655,       10.3006,      -1.15800,   8.39640E-03
C:/temp/dataset/9/27_5.odb,Step-1,Increment      1: Step Time =    1.000,"PART-1-1",           413,   959.485E-03,       2.63099,            0.,NA,NA,"",       8.58974,       8.31579,       2.15202,   3.89501E-03
C:/temp/dataset/9/27_5.odb,Step-1,Increment      1: Step Time =    1.000,"PART-1-1",           414,       2.33358,       3.78125,            0.,NA,NA,"",       8.78101,       8.63901,       1.57281,   6.07335E-03
C:/temp/dataset/9/27_5.odb,Step-1,Increment      1: Step Time =    1.000,"PART-1-1",           415,          1.25,            5.,            0.,NA,NA,"",       9.35993,       9.16803,       1.88561,   8.34972E-03
C:/temp/dataset/9/27_5.odb,Step-1,Increment      1: Step Time =    1.000,"PART-1-1",           416,      -9.23288,       7.29816,            0.,NA,NA,"",       12.2279,       10.8523,       5.63461,   1.42794E-03
C:/temp/dataset/9/27_5.odb,Step-1,Increment      1: Step Time =    1.000,"PART-1-1",           417,      -8.32915,       6.01548,            0.,NA,NA,"",       11.6223,       10.2979,       5.38816,   1.65245E-03
C:/temp/dataset/9/27_5.odb,Step-1,Increment      1: Step Time =    1.000,"PART-1-1",           418,      -7.21136,       6.82340,            0.,NA,NA,"",       11.6086,       10.5207,       4.90646,   1.41829E-03
C:/temp/dataset/9/27_5.odb,Step-1,Increment      1: Step Time =    1.000,"PART-1-1",           419,      -8.11509,       8.10607,            0.,NA,NA,"",       12.2156,       11.0756,       5.15286,   1.31788E-03
C:/temp/dataset/9/27_5.odb,Step-1,Increment      1: Step Time =    1.000,"PART-1-1",           420,      -13.1318,       11.4675,            0.,NA,NA,"",       14.4239,       12.7221,       6.79678,   750.999E-06
C:/temp/dataset/9/27_5.odb,Step-1,Increment      1: Step Time =    1.000,"PART-1-1",           421,      -14.0901,       12.5242,            0.,NA,NA,"",       14.9722,       13.1926,       7.07981,   665.113E-06
C:/temp/dataset/9/27_5.odb,Step-1,Increment      1: Step Time =    1.000,"PART-1-1",           422,          -15.,       11.4063,            0.,NA,NA,"",       14.8713,       12.8372,       7.50737,   520.946E-06
C:/temp/dataset/9/27_5.odb,Step-1,Increment      1: Step Time =    1.000,"PART-1-1",           423,      -9.35396,       14.3983,            0.,NA,NA,"",       14.4999,       13.5520,       5.15672,   1.44062E-03
C:/temp/dataset/9/27_5.odb,Step-1,Increment      1: Step Time =    1.000,"PART-1-1",           424,      -10.5094,       15.3924,            0.,NA,NA,"",       15.0601,       14.0127,       5.51815,   1.13501E-03
C:/temp/dataset/9/27_5.odb,Step-1,Increment      1: Step Time =    1.000,"PART-1-1",           425,      -11.3610,       13.8160,            0.,NA,NA,"",       14.7366,       13.4798,       5.95485,   1.03665E-03
C:/temp/dataset/9/27_5.odb,Step-1,Increment      1: Step Time =    1.000,"PART-1-1",           426,      -10.2056,       12.8219,            0.,NA,NA,"",       14.1692,       13.0186,       5.59323,   1.24770E-03
C:/temp/dataset/9/27_5.odb,Step-1,Increment      1: Step Time =    1.000,"PART-1-1",           427,      -14.0810,       18.8007,            0.,NA,NA,"",       16.9002,       15.5549,       6.60767,   1.59890E-03
C:/temp/dataset/9/27_5.odb,Step-1,Increment      1: Step Time =    1.000,"PART-1-1",           428,          -15.,       17.9688,            0.,NA,NA,"",       16.8402,       15.3096,       7.01499,   2.03925E-03
C:/temp/dataset/9/27_5.odb,Step-1,Increment      1: Step Time =    1.000,"PART-1-1",           429,      -14.2329,       16.7349,            0.,NA,NA,"",       16.2868,       14.7906,       6.81878,   1.47840E-03
C:/temp/dataset/9/27_5.odb,Step-1,Increment      1: Step Time =    1.000,"PART-1-1",           430,      -13.3139,       17.5668,            0.,NA,NA,"",       16.3462,       15.0364,       6.41128,   1.08437E-03
C:/temp/dataset/9/27_5.odb,Step-1,Increment      1: Step Time =    1.000,"PART-1-1",           431,      -12.9537,       19.5700,            0.,NA,NA,"",       16.9108,       15.7614,       6.12788,   990.575E-06
C:/temp/dataset/9/27_5.odb,Step-1,Increment      1: Step Time =    1.000,"PART-1-1",           432,      -13.8727,       20.9255,            0.,NA,NA,"",       17.5335,       16.3345,       6.37231,   1.44688E-03
C:/temp/dataset/9/27_5.odb,Step-1,Increment      1: Step Time =    1.000,"PART-1-1",           433,          -15.,       20.1563,            0.,NA,NA,"",       17.5233,       16.1283,       6.85146,   2.07574E-03
C:/temp/dataset/9/27_5.odb,Step-1,Increment      1: Step Time =    1.000,"PART-1-1",           434,       1.76445,       24.7908,            0.,NA,NA,"",       16.6615,       16.6590,   291.605E-03,   2.06354E-03
C:/temp/dataset/9/27_5.odb,Step-1,Increment      1: Step Time =    1.000,"PART-1-1",           435,       1.36974,       27.3866,            0.,NA,NA,"",       17.6506,       17.6488,   251.152E-03,   1.62743E-03
C:/temp/dataset/9/27_5.odb,Step-1,Increment      1: Step Time =    1.000,"PART-1-1",           436,   176.493E-03,       26.0346,            0.,NA,NA,"",       17.2491,       17.2311,   787.421E-03,   1.86860E-03
C:/temp/dataset/9/27_5.odb,Step-1,Increment      1: Step Time =    1.000,"PART-1-1",           437,       7.39460,       20.9669,            0.,NA,NA,"",       14.9248,       14.8480,      -1.51254,   3.12350E-03
C:/temp/dataset/9/27_5.odb,Step-1,Increment      1: Step Time =    1.000,"PART-1-1",           438,       8.70526,       19.9066,            0.,NA,NA,"",       14.4841,       14.3554,      -1.92651,   2.45032E-03
C:/temp/dataset/9/27_5.odb,Step-1,Increment      1: Step Time =    1.000,"PART-1-1",           439,       9.85134,       21.1719,            0.,NA,NA,"",       14.9452,       14.7432,      -2.44879,   1.96855E-03
C:/temp/dataset/9/27_5.odb,Step-1,Increment      1: Step Time =    1.000,"PART-1-1",           440,       8.54068,       22.2321,            0.,NA,NA,"",       15.3693,       15.2341,      -2.03381,   2.53152E-03
C:/temp/dataset/9/27_5.odb,Step-1,Increment      1: Step Time =    1.000,"PART-1-1",           441,       4.10864,       24.1658,            0.,NA,NA,"",       16.2723,       16.2638,  -527.375E-03,   2.06691E-03
C:/temp/dataset/9/27_5.odb,Step-1,Increment      1: Step Time =    1.000,"PART-1-1",           442,       5.90921,       23.8009,            0.,NA,NA,"",       16.0452,       16.0027,      -1.16704,   2.06586E-03
C:/temp/dataset/9/27_5.odb,Step-1,Increment      1: Step Time =    1.000,"PART-1-1",           443,       6.25965,       24.9450,            0.,NA,NA,"",       16.4601,       16.4021,      -1.38057,   1.78616E-03
C:/temp/dataset/9/27_5.odb,Step-1,Increment      1: Step Time =    1.000,"PART-1-1",           444,   19.2837E-03,       28.6494,            0.,NA,NA,"",       18.2227,       18.2108,   658.960E-03,   956.249E-06
C:/temp/dataset/9/27_5.odb,Step-1,Increment      1: Step Time =    1.000,"PART-1-1",           445,       2.60045,       28.7372,            0.,NA,NA,"",       18.0654,       18.0629,  -299.515E-03,   1.37453E-03
C:/temp/dataset/9/27_5.odb,Step-1,Increment      1: Step Time =    1.000,"PART-1-1",           446,          1.25,           30.,            0.,NA,NA,"",       18.6238,       18.6235,   109.179E-03,   852.005E-06
C:/temp/dataset/9/27_5.odb,Step-1,Increment      1: Step Time =    1.000,"PART-1-1",           447,      -7.67774,       29.0428,            0.,NA,NA,"",       19.2240,       18.9070,       3.47649,   1.17717E-03
C:/temp/dataset/9/27_5.odb,Step-1,Increment      1: Step Time =    1.000,"PART-1-1",           448,      -6.68998,       27.9093,            0.,NA,NA,"",       18.6887,       18.4144,       3.19025,   789.219E-06
C:/temp/dataset/9/27_5.odb,Step-1,Increment      1: Step Time =    1.000,"PART-1-1",           449,         -6.25,           30.,            0.,NA,NA,"",       19.3740,       19.1590,       2.87885,   1.55729E-03
C:/temp/dataset/9/27_5.odb,Step-1,Increment      1: Step Time =    1.000,"PART-1-1",           450,      -12.1701,       26.6384,            0.,NA,NA,"",       19.0952,       18.3387,       5.32159,   880.598E-06
C:/temp/dataset/9/27_5.odb,Step-1,Increment      1: Step Time =    1.000,"PART-1-1",           451,      -13.7206,       27.8542,            0.,NA,NA,"",       19.7761,       18.9026,       5.81230,   372.285E-06
C:/temp/dataset/9/27_5.odb,Step-1,Increment      1: Step Time =    1.000,"PART-1-1",           452,          -15.,       26.7188,            0.,NA,NA,"",       19.6344,       18.5722,       6.37062,   461.813E-06
C:/temp/dataset/9/27_5.odb,Step-1,Increment      1: Step Time =    1.000,"PART-1-1",           453,        -13.75,           30.,            0.,NA,NA,"",       20.5029,       19.7037,       5.66890,   73.8082E-06
C:/temp/dataset/9/27_5.odb,Step-1,Increment      1: Step Time =    1.000,"PART-1-1",           454,          -15.,       28.9063,            0.,NA,NA,"",       20.3576,       19.3863,       6.21314,   66.0505E-06
C:/temp/dataset/9/27_5.odb,Step-1,Increment      1: Step Time =    1.000,"PART-1-1",           455,      -9.01567,       28.1413,            0.,NA,NA,"",       19.1008,       18.6690,       4.03824,   883.183E-06
C:/temp/dataset/9/27_5.odb,Step-1,Increment      1: Step Time =    1.000,"PART-1-1",           456,         -8.75,           30.,            0.,NA,NA,"",       19.7123,       19.3412,       3.80685,   1.22810E-03
C:/temp/dataset/9/27_5.odb,Step-1,Increment      1: Step Time =    1.000,"PART-1-1",           457,      -10.9923,       18.6369,            0.,NA,NA,"",       16.2168,       15.2696,       5.46101,   588.648E-06
C:/temp/dataset/9/27_5.odb,Step-1,Increment      1: Step Time =    1.000,"PART-1-1",           458,      -11.7056,       20.1347,            0.,NA,NA,"",       16.8470,       15.8825,       5.61863,   663.936E-06
C:/temp/dataset/9/27_5.odb,Step-1,Increment      1: Step Time =    1.000,"PART-1-1",           459,      -12.2405,       18.0722,            0.,NA,NA,"",       16.2824,       15.1482,       5.97079,   776.437E-06
C:/temp/dataset/9/27_5.odb,Step-1,Increment      1: Step Time =    1.000,"PART-1-1",           460,      -11.7153,       17.0060,            0.,NA,NA,"",       15.8306,       14.7092,       5.85230,   744.947E-06
C:/temp/dataset/9/27_5.odb,Step-1,Increment      1: Step Time =    1.000,"PART-1-1",           461,      -12.7888,       16.5007,            0.,NA,NA,"",       15.8960,       14.5973,       6.29305,   897.733E-06
C:/temp/dataset/9/27_5.odb,Step-1,Increment      1: Step Time =    1.000,"PART-1-1",           462,      -13.2634,       13.5986,            0.,NA,NA,"",       15.0994,       13.5377,       6.68765,   815.146E-06
C:/temp/dataset/9/27_5.odb,Step-1,Increment      1: Step Time =    1.000,"PART-1-1",           463,      -14.1733,       14.6682,            0.,NA,NA,"",       15.6379,       14.0082,       6.95090,   1.08889E-03
C:/temp/dataset/9/27_5.odb,Step-1,Increment      1: Step Time =    1.000,"PART-1-1",           464,          -15.,       13.5938,            0.,NA,NA,"",       15.5120,       13.6636,       7.34351,   1.12975E-03
C:/temp/dataset/9/27_5.odb,Step-1,Increment      1: Step Time =    1.000,"PART-1-1",           465,      -6.04154,       10.1420,            0.,NA,NA,"",       12.4310,       11.6931,       4.21933,   1.59851E-03
C:/temp/dataset/9/27_5.odb,Step-1,Increment      1: Step Time =    1.000,"PART-1-1",           466,      -7.09581,       9.10381,            0.,NA,NA,"",       12.3084,       11.3781,       4.69411,   1.34719E-03
C:/temp/dataset/9/27_5.odb,Step-1,Increment      1: Step Time =    1.000,"PART-1-1",           467,      -6.05428,       7.71180,            0.,NA,NA,"",       11.6367,       10.7716,       4.40286,   1.16538E-03
C:/temp/dataset/9/27_5.odb,Step-1,Increment      1: Step Time =    1.000,"PART-1-1",           468,           -5.,          8.75,            0.,NA,NA,"",       11.7616,       11.0866,       3.92713,   1.56341E-03
C:/temp/dataset/9/27_5.odb,Step-1,Increment      1: Step Time =    1.000,"PART-1-1",           469,      -6.15708,       5.36159,            0.,NA,NA,"",       10.9101,       9.88525,       4.61647,   2.58202E-03
C:/temp/dataset/9/27_5.odb,Step-1,Increment      1: Step Time =    1.000,"PART-1-1",           470,           -5.,          6.25,            0.,NA,NA,"",       10.9387,       10.1368,       4.11120,   1.32152E-03
C:/temp/dataset/9/27_5.odb,Step-1,Increment      1: Step Time =    1.000,"PART-1-1",           471,      -13.8567,       3.63033,            0.,NA,NA,"",       12.4390,       9.80798,       7.65069,   953.610E-06
C:/temp/dataset/9/27_5.odb,Step-1,Increment      1: Step Time =    1.000,"PART-1-1",           472,      -12.5372,       4.63979,            0.,NA,NA,"",       12.3262,       10.0915,       7.07804,   848.986E-06
C:/temp/dataset/9/27_5.odb,Step-1,Increment      1: Step Time =    1.000,"PART-1-1",           473,          -15.,       4.84375,            0.,NA,NA,"",       13.0794,       10.3524,       7.99361,   992.849E-06
C:/temp/dataset/9/27_5.odb,Step-1,Increment      1: Step Time =    1.000,"PART-1-1",           474,      -12.7859,       2.45238,            0.,NA,NA,"",       11.8296,       9.28287,       7.33261,   823.880E-06
C:/temp/dataset/9/27_5.odb,Step-1,Increment      1: Step Time =    1.000,"PART-1-1",           475,          -15.,       2.65625,            0.,NA,NA,"",       12.5383,       9.52490,       8.15382,   1.00837E-03
C:/temp/dataset/9/27_5.odb,Step-1,Increment      1: Step Time =    1.000,"PART-1-1",           476,      -13.7683,      -2.81830,            0.,NA,NA,"",       10.9424,       7.36702,       8.09088,   267.983E-06
C:/temp/dataset/9/27_5.odb,Step-1,Increment      1: Step Time =    1.000,"PART-1-1",           477,          -15.,      -3.90625,            0.,NA,NA,"",       11.1469,       7.04756,       8.63626,   38.2212E-06
C:/temp/dataset/9/27_5.odb,Step-1,Increment      1: Step Time =    1.000,"PART-1-1",           478,        -13.75,           -5.,            0.,NA,NA,"",       10.5254,       6.54214,       8.24528,   39.3179E-06
C:/temp/dataset/9/27_5.odb,Step-1,Increment      1: Step Time =    1.000,"PART-1-1",           479,      -12.5183,      -3.91205,            0.,NA,NA,"",       10.3134,       6.86173,       7.69952,   275.997E-06
C:/temp/dataset/9/27_5.odb,Step-1,Increment      1: Step Time =    1.000,"PART-1-1",           480,      -3.91473,      -3.03803,            0.,NA,NA,"",       7.88965,       6.56071,       4.38219,   2.22051E-03
C:/temp/dataset/9/27_5.odb,Step-1,Increment      1: Step Time =    1.000,"PART-1-1",           481,      -5.07319,      -4.05962,            0.,NA,NA,"",       7.94725,       6.26070,       4.89514,   2.23872E-03
C:/temp/dataset/9/27_5.odb,Step-1,Increment      1: Step Time =    1.000,"PART-1-1",           482,         -3.75,           -5.,            0.,NA,NA,"",       7.33026,       5.81285,       4.46582,   3.09394E-03
C:/temp/dataset/9/27_5.odb,Step-1,Increment      1: Step Time =    1.000,"PART-1-1",           483,      -2.59153,      -3.97841,            0.,NA,NA,"",       7.28059,       6.11395,       3.95306,   2.93216E-03
C:/temp/dataset/9/27_5.odb,Step-1,Increment      1: Step Time =    1.000,"PART-1-1",           484,   563.435E-03,   72.7383E-03,            0.,NA,NA,"",       7.80103,       7.39799,       2.47503,   2.84288E-03
C:/temp/dataset/9/27_5.odb,Step-1,Increment      1: Step Time =    1.000,"PART-1-1",           485,  -536.863E-03,      -1.25885,            0.,NA,NA,"",       7.59274,       6.98310,       2.98094,   2.61043E-03
C:/temp/dataset/9/27_5.odb,Step-1,Increment      1: Step Time =    1.000,"PART-1-1",           486,       7.06616,      -9.87010,            0.,NA,NA,"",       3.50803,       3.46994,   515.564E-03,   36.0403E-03
C:/temp/dataset/9/27_5.odb,Step-1,Increment      1: Step Time =    1.000,"PART-1-1",           487,       6.02487,      -8.97716,            0.,NA,NA,"",       3.89288,       3.80901,   803.716E-03,   46.3175E-03
C:/temp/dataset/9/27_5.odb,Step-1,Increment      1: Step Time =    1.000,"PART-1-1",           488,            5.,      -10.2083,            0.,NA,NA,"",       3.66350,       3.49535,       1.09718,   59.5860E-03
C:/temp/dataset/9/27_5.odb,Step-1,Increment      1: Step Time =    1.000,"PART-1-1",           489,       13.0743,      -11.4048,            0.,NA,NA,"",       2.99162,       2.79214,      -1.07412,   37.3198E-03
C:/temp/dataset/9/27_5.odb,Step-1,Increment      1: Step Time =    1.000,"PART-1-1",           490,       14.0423,      -12.5586,            0.,NA,NA,"",       2.76938,       2.47148,      -1.24949,   51.1757E-03
C:/temp/dataset/9/27_5.odb,Step-1,Increment      1: Step Time =    1.000,"PART-1-1",           491,           15.,        -11.25,            0.,NA,NA,"",       3.24005,       2.80029,      -1.62983,   60.9190E-03
C:/temp/dataset/9/27_5.odb,Step-1,Increment      1: Step Time =    1.000,"PART-1-1",           492,       14.0319,      -10.0962,            0.,NA,NA,"",       3.45233,       3.13340,      -1.44926,   46.6657E-03
C:/temp/dataset/9/27_5.odb,Step-1,Increment      1: Step Time =    1.000,"PART-1-1",           493,       7.09943,      -16.3632,            0.,NA,NA,"",       1.79967,       1.72692,   506.518E-03,   44.4840E-03
C:/temp/dataset/9/27_5.odb,Step-1,Increment      1: Step Time =    1.000,"PART-1-1",           494,            5.,      -16.4583,            0.,NA,NA,"",       2.03777,       1.80707,   941.807E-03,   74.0737E-03
C:/temp/dataset/9/27_5.odb,Step-1,Increment      1: Step Time =    1.000,"PART-1-1",           495,       13.0966,      -13.8278,            0.,NA,NA,"",       2.35031,       2.16649,  -911.220E-03,   40.6569E-03
C:/temp/dataset/9/27_5.odb,Step-1,Increment      1: Step Time =    1.000,"PART-1-1",           496,       14.0543,      -15.0192,            0.,NA,NA,"",       2.15595,       1.87818,      -1.05856,   55.5855E-03
C:/temp/dataset/9/27_5.odb,Step-1,Increment      1: Step Time =    1.000,"PART-1-1",           497,           15.,        -13.75,            0.,NA,NA,"",       2.58354,       2.17057,      -1.40118,   66.4147E-03
C:/temp/dataset/9/27_5.odb,Step-1,Increment      1: Step Time =    1.000,"PART-1-1",           498,       13.0974,      -18.6352,            0.,NA,NA,"",       1.28586,       1.13348,  -607.172E-03,   46.7245E-03
C:/temp/dataset/9/27_5.odb,Step-1,Increment      1: Step Time =    1.000,"PART-1-1",           499,       14.0421,      -19.9133,            0.,NA,NA,"",       1.15162,   919.442E-03,  -693.428E-03,   63.8143E-03
C:/temp/dataset/9/27_5.odb,Step-1,Increment      1: Step Time =    1.000,"PART-1-1",           500,           15.,        -18.75,            0.,NA,NA,"",       1.48588,       1.13264,  -961.753E-03,   77.1543E-03
C:/temp/dataset/9/27_5.odb,Step-1,Increment      1: Step Time =    1.000,"PART-1-1",           501,       14.0553,      -17.4719,            0.,NA,NA,"",       1.61567,       1.35926,  -873.391E-03,   59.8299E-03
C:/temp/dataset/9/27_5.odb,Step-1,Increment      1: Step Time =    1.000,"PART-1-1",           502,       7.12541,      -22.7005,            0.,NA,NA,"",   648.672E-03,   555.618E-03,   334.761E-03,   52.7337E-03
C:/temp/dataset/9/27_5.odb,Step-1,Increment      1: Step Time =    1.000,"PART-1-1",           503,       6.04628,      -21.6612,            0.,NA,NA,"",   908.284E-03,   745.691E-03,   518.580E-03,   68.6486E-03
C:/temp/dataset/9/27_5.odb,Step-1,Increment      1: Step Time =    1.000,"PART-1-1",           504,            5.,      -22.7083,            0.,NA,NA,"",   869.266E-03,   636.342E-03,   592.192E-03,   87.8551E-03
C:/temp/dataset/9/27_5.odb,Step-1,Increment      1: Step Time =    1.000,"PART-1-1",           505,       6.07914,      -23.7476,            0.,NA,NA,"",   608.362E-03,   456.558E-03,   402.069E-03,   71.7620E-03
C:/temp/dataset/9/27_5.odb,Step-1,Increment      1: Step Time =    1.000,"PART-1-1",           506,       6.22304,      -27.8948,            0.,NA,NA,"",   158.935E-03,   90.1360E-03,   130.904E-03,   76.7206E-03
C:/temp/dataset/9/27_5.odb,Step-1,Increment      1: Step Time =    1.000,"PART-1-1",           507,            5.,      -28.9583,            0.,NA,NA,"",   122.636E-03,   79.9891E-03,   92.9590E-03,   102.062E-03
C:/temp/dataset/9/27_5.odb,Step-1,Increment      1: Step Time =    1.000,"PART-1-1",           508,          6.25,          -30.,            0.,NA,NA,"",            0.,  -2.36068E-39,   114.490E-39,   72.9177E-03
C:/temp/dataset/9/27_5.odb,Step-1,Increment      1: Step Time =    1.000,"PART-1-1",           509,       9.78444,      -26.6535,            0.,NA,NA,"",   98.1632E-03,   96.7452E-03,   16.6243E-03,   13.1814E-03
C:/temp/dataset/9/27_5.odb,Step-1,Increment      1: Step Time =    1.000,"PART-1-1",           510,       8.47427,      -25.6871,            0.,NA,NA,"",   217.887E-03,   187.557E-03,   110.893E-03,   33.8772E-03
C:/temp/dataset/9/27_5.odb,Step-1,Increment      1: Step Time =    1.000,"PART-1-1",           511,       7.37694,      -26.8334,            0.,NA,NA,"",   184.688E-03,   123.726E-03,   137.119E-03,   53.7113E-03
C:/temp/dataset/9/27_5.odb,Step-1,Increment      1: Step Time =    1.000,"PART-1-1",           512,       13.7223,      -27.5034,            0.,NA,NA,"",   170.625E-03,   85.4349E-03,  -147.695E-03,   71.7633E-03
C:/temp/dataset/9/27_5.odb,Step-1,Increment      1: Step Time =    1.000,"PART-1-1",           513,       12.4723,      -28.7534,            0.,NA,NA,"",   42.3825E-03,   7.49708E-03,  -41.7141E-03,   41.1379E-03
C:/temp/dataset/9/27_5.odb,Step-1,Increment      1: Step Time =    1.000,"PART-1-1",           514,         13.75,          -30.,            0.,NA,NA,"",            0.,  -8.66407E-39,  -109.195E-39,   67.8383E-03
C:/temp/dataset/9/27_5.odb,Step-1,Increment      1: Step Time =    1.000,"PART-1-1",           515,           15.,        -28.75,            0.,NA,NA,"",   132.722E-03,   79.2670E-03,  -106.451E-03,   96.3733E-03
C:/temp/dataset/9/27_5.odb,Step-1,Increment      1: Step Time =    1.000,"PART-1-1",           516,         11.25,          -30.,            0.,NA,NA,"",            0.,  -12.1131E-39,  -38.2480E-39,   20.6300E-03
C:/temp/dataset/9/27_5.odb,Step-1,Increment      1: Step Time =    1.000,"PART-1-1",           517,       11.1864,      -27.6167,            0.,NA,NA,"",   55.3589E-03,   40.4375E-03,  -37.8076E-03,   22.6461E-03
C:/temp/dataset/9/27_5.odb,Step-1,Increment      1: Step Time =    1.000,"PART-1-1",           518,       9.10684,      -20.5966,            0.,NA,NA,"",   831.064E-03,   823.464E-03,   112.131E-03,   19.9812E-03
C:/temp/dataset/9/27_5.odb,Step-1,Increment      1: Step Time =    1.000,"PART-1-1",           519,       11.0993,      -20.6881,            0.,NA,NA,"",   802.496E-03,   781.347E-03,  -183.019E-03,   18.1472E-03
C:/temp/dataset/9/27_5.odb,Step-1,Increment      1: Step Time =    1.000,"PART-1-1",           520,       7.08739,      -20.6083,            0.,NA,NA,"",   969.725E-03,   877.688E-03,   412.349E-03,   50.4711E-03
C:/temp/dataset/9/27_5.odb,Step-1,Increment      1: Step Time =    1.000,"PART-1-1",           521,            5.,       -20.625,            0.,NA,NA,"",       1.20606,   961.099E-03,   728.609E-03,   83.3947E-03
C:/temp/dataset/9/27_5.odb,Step-1,Increment      1: Step Time =    1.000,"PART-1-1",           522,       9.14341,      -14.0595,            0.,NA,NA,"",       2.20489,       2.20437,   47.9464E-03,   16.6031E-03
C:/temp/dataset/9/27_5.odb,Step-1,Increment      1: Step Time =    1.000,"PART-1-1",           523,       10.1582,      -15.1431,            0.,NA,NA,"",       1.91345,       1.90695,  -157.682E-03,   9.66718E-03
C:/temp/dataset/9/27_5.odb,Step-1,Increment      1: Step Time =    1.000,"PART-1-1",           524,       11.1509,      -13.9343,            0.,NA,NA,"",       2.21857,       2.17625,  -431.274E-03,   16.7213E-03
C:/temp/dataset/9/27_5.odb,Step-1,Increment      1: Step Time =    1.000,"PART-1-1",           525,       10.1361,      -12.8507,            0.,NA,NA,"",       2.49394,       2.48366,  -226.211E-03,   9.63285E-03
C:/temp/dataset/9/27_5.odb,Step-1,Increment      1: Step Time =    1.000,"PART-1-1",           526,       9.12292,      -11.8044,            0.,NA,NA,"",       2.80555,       2.80555,  -1.09520E-03,   15.6611E-03
C:/temp/dataset/9/27_5.odb,Step-1,Increment      1: Step Time =    1.000,"PART-1-1",           527,       11.1213,      -11.5948,            0.,NA,NA,"",       2.84234,       2.79165,  -534.403E-03,   15.9013E-03
C:/temp/dataset/9/27_5.odb,Step-1,Increment      1: Step Time =    1.000,"PART-1-1",           528,       10.1081,      -10.5485,            0.,NA,NA,"",       3.13833,       3.12306,  -309.249E-03,   9.63892E-03
C:/temp/dataset/9/27_5.odb,Step-1,Increment      1: Step Time =    1.000,"PART-1-1",           529,       13.8169,  -7.21098E-03,            0.,NA,NA,"",       6.82886,       6.44459,      -2.25845,   20.3991E-03
C:/temp/dataset/9/27_5.odb,Step-1,Increment      1: Step Time =    1.000,"PART-1-1",           530,           15.,          1.25,            0.,NA,NA,"",       7.38071,       6.82761,      -2.80332,   22.0463E-03
C:/temp/dataset/9/27_5.odb,Step-1,Increment      1: Step Time =    1.000,"PART-1-1",           531,       13.9075,       2.57030,            0.,NA,NA,"",       7.79353,       7.37747,      -2.51239,   15.6262E-03
C:/temp/dataset/9/27_5.odb,Step-1,Increment      1: Step Time =    1.000,"PART-1-1",           532,       10.8083,      -4.35361,            0.,NA,NA,"",       5.14315,       5.06791,  -876.494E-03,   17.4081E-03
C:/temp/dataset/9/27_5.odb,Step-1,Increment      1: Step Time =    1.000,"PART-1-1",           533,       9.68548,      -3.40243,            0.,NA,NA,"",       5.49241,       5.46276,  -569.916E-03,   16.2064E-03
C:/temp/dataset/9/27_5.odb,Step-1,Increment      1: Step Time =    1.000,"PART-1-1",           534,       8.81587,      -4.92348,            0.,NA,NA,"",       4.98013,       4.97640,  -192.762E-03,   15.7919E-03
C:/temp/dataset/9/27_5.odb,Step-1,Increment      1: Step Time =    1.000,"PART-1-1",           535,       9.93870,      -5.87466,            0.,NA,NA,"",       4.61948,       4.59260,  -497.547E-03,   13.3191E-03
C:/temp/dataset/9/27_5.odb,Step-1,Increment      1: Step Time =    1.000,"PART-1-1",           536,       10.7940,       8.23694,            0.,NA,NA,"",       9.88777,       9.71965,      -1.81559,   8.58974E-03
C:/temp/dataset/9/27_5.odb,Step-1,Increment      1: Step Time =    1.000,"PART-1-1",           537,       11.2752,       6.42654,            0.,NA,NA,"",       9.18377,       8.99525,      -1.85126,   8.50418E-03
C:/temp/dataset/9/27_5.odb,Step-1,Increment      1: Step Time =    1.000,"PART-1-1",           538,       12.8821,       8.67106,            0.,NA,NA,"",       10.0882,       9.73803,      -2.63475,   7.94666E-03
C:/temp/dataset/9/27_5.odb,Step-1,Increment      1: Step Time =    1.000,"PART-1-1",           539,       14.0355,       7.50951,            0.,NA,NA,"",       9.68246,       9.21377,      -2.97596,   9.27088E-03
C:/temp/dataset/9/27_5.odb,Step-1,Increment      1: Step Time =    1.000,"PART-1-1",           540,           15.,          8.75,            0.,NA,NA,"",       10.2153,       9.61574,      -3.44815,   8.45245E-03
C:/temp/dataset/9/27_5.odb,Step-1,Increment      1: Step Time =    1.000,"PART-1-1",           541,       13.8467,       9.91155,            0.,NA,NA,"",       10.6073,       10.1436,      -3.10210,   6.09445E-03
C:/temp/dataset/9/27_5.odb,Step-1,Increment      1: Step Time =    1.000,"PART-1-1",           542,       12.4850,       16.2122,            0.,NA,NA,"",       13.0380,       12.6696,      -3.07757,   3.11071E-03
C:/temp/dataset/9/27_5.odb,Step-1,Increment      1: Step Time =    1.000,"PART-1-1",           543,       13.7431,       14.9727,            0.,NA,NA,"",       12.5844,       12.0991,      -3.46118,   2.60308E-03
C:/temp/dataset/9/27_5.odb,Step-1,Increment      1: Step Time =    1.000,"PART-1-1",           544,           15.,         16.25,            0.,NA,NA,"",       13.1281,       12.4928,      -4.03459,   3.33077E-03
C:/temp/dataset/9/27_5.odb,Step-1,Increment      1: Step Time =    1.000,"PART-1-1",           545,       13.7419,       17.4895,            0.,NA,NA,"",       13.5620,       13.0623,      -3.64733,   3.06414E-03
C:/temp/dataset/9/27_5.odb,Step-1,Increment      1: Step Time =    1.000,"PART-1-1",           546,       12.4991,       13.6576,            0.,NA,NA,"",       12.0380,       11.6864,      -2.88805,   5.11858E-03
C:/temp/dataset/9/27_5.odb,Step-1,Increment      1: Step Time =    1.000,"PART-1-1",           547,       13.7559,       12.4349,            0.,NA,NA,"",       11.5917,       11.1210,      -3.26996,   3.51288E-03
C:/temp/dataset/9/27_5.odb,Step-1,Increment      1: Step Time =    1.000,"PART-1-1",           548,           15.,         13.75,            0.,NA,NA,"",       12.1580,       11.5328,      -3.84862,   492.057E-06
C:/temp/dataset/9/27_5.odb,Step-1,Increment      1: Step Time =    1.000,"PART-1-1",           549,           15.,         21.25,            0.,NA,NA,"",       15.0439,       14.3900,      -4.38709,   3.83237E-03
C:/temp/dataset/9/27_5.odb,Step-1,Increment      1: Step Time =    1.000,"PART-1-1",           550,       13.6875,       22.5045,            0.,NA,NA,"",       15.4789,       14.9575,      -3.98387,   2.43621E-03
C:/temp/dataset/9/27_5.odb,Step-1,Increment      1: Step Time =    1.000,"PART-1-1",           551,       12.4125,       21.2511,            0.,NA,NA,"",       14.9778,       14.5828,      -3.41680,   2.02120E-03
C:/temp/dataset/9/27_5.odb,Step-1,Increment      1: Step Time =    1.000,"PART-1-1",           552,       13.7250,       19.9966,            0.,NA,NA,"",       14.5251,       14.0135,      -3.82085,   3.10166E-03
C:/temp/dataset/9/27_5.odb,Step-1,Increment      1: Step Time =    1.000,"PART-1-1",           553,       13.6481,       25.0064,            0.,NA,NA,"",       16.4251,       15.8933,      -4.14566,   1.54110E-03
C:/temp/dataset/9/27_5.odb,Step-1,Increment      1: Step Time =    1.000,"PART-1-1",           554,       12.3356,       23.7609,            0.,NA,NA,"",       15.9299,       15.5255,      -3.56650,   2.13153E-03
C:/temp/dataset/9/27_5.odb,Step-1,Increment      1: Step Time =    1.000,"PART-1-1",           555,           15.,         23.75,            0.,NA,NA,"",       15.9907,       15.3264,      -4.56125,   2.41577E-03
C:/temp/dataset/9/27_5.odb,Step-1,Increment      1: Step Time =    1.000,"PART-1-1",           556,       13.7112,       27.5077,            0.,NA,NA,"",       17.3722,       16.8195,      -4.34707,   698.493E-06
C:/temp/dataset/9/27_5.odb,Step-1,Increment      1: Step Time =    1.000,"PART-1-1",           557,           15.,         28.75,            0.,NA,NA,"",       17.8785,       17.1892,      -4.91648,   126.755E-06
C:/temp/dataset/9/27_5.odb,Step-1,Increment      1: Step Time =    1.000,"PART-1-1",           558,         13.75,           30.,            0.,NA,NA,"",       18.3167,       17.7450,      -4.54065,   121.099E-06
C:/temp/dataset/9/27_5.odb,Step-1,Increment      1: Step Time =    1.000,"PART-1-1",           559,            5.,      -24.7917,            0.,NA,NA,"",   581.900E-03,   382.569E-03,   438.461E-03,   91.1900E-03
C:/temp/dataset/9/27_5.odb,Step-1,Increment      1: Step Time =    1.000,"PART-1-1",           560,       6.15390,      -25.8136,            0.,NA,NA,"",   362.911E-03,   240.886E-03,   271.438E-03,   73.7471E-03
C:/temp/dataset/9/27_5.odb,Step-1,Increment      1: Step Time =    1.000,"PART-1-1",           561,       7.23304,      -24.7696,            0.,NA,NA,"",   387.052E-03,   304.133E-03,   239.399E-03,   54.3099E-03
C:/temp/dataset/9/27_5.odb,Step-1,Increment      1: Step Time =    1.000,"PART-1-1",           562,       13.0086,      -21.0119,            0.,NA,NA,"",   864.123E-03,   733.763E-03,  -456.400E-03,   48.1217E-03
C:/temp/dataset/9/27_5.odb,Step-1,Increment      1: Step Time =    1.000,"PART-1-1",           563,       13.9664,      -22.3485,            0.,NA,NA,"",   758.949E-03,   560.714E-03,  -511.472E-03,   66.7536E-03
C:/temp/dataset/9/27_5.odb,Step-1,Increment      1: Step Time =    1.000,"PART-1-1",           564,           15.,        -21.25,            0.,NA,NA,"",       1.04872,   734.850E-03,  -748.204E-03,   82.6288E-03
C:/temp/dataset/9/27_5.odb,Step-1,Increment      1: Step Time =    1.000,"PART-1-1",           565,            5.,       -26.875,            0.,NA,NA,"",   341.333E-03,   203.233E-03,   274.234E-03,   95.3044E-03
C:/temp/dataset/9/27_5.odb,Step-1,Increment      1: Step Time =    1.000,"PART-1-1",           566,       12.9745,      -6.51631,            0.,NA,NA,"",       4.47777,       4.24777,      -1.41665,   30.1822E-03
C:/temp/dataset/9/27_5.odb,Step-1,Increment      1: Step Time =    1.000,"PART-1-1",           567,       14.0104,      -7.62731,            0.,NA,NA,"",       4.20102,       3.86161,      -1.65424,   41.4938E-03
C:/temp/dataset/9/27_5.odb,Step-1,Increment      1: Step Time =    1.000,"PART-1-1",           568,           15.,         -6.25,            0.,NA,NA,"",       4.74956,       4.25772,      -2.10479,   47.3933E-03
C:/temp/dataset/9/27_5.odb,Step-1,Increment      1: Step Time =    1.000,"PART-1-1",           569,       13.9641,      -5.13900,            0.,NA,NA,"",       5.01366,       4.65652,      -1.85839,   35.0149E-03
C:/temp/dataset/9/27_5.odb,Step-1,Increment      1: Step Time =    1.000,"PART-1-1",           570,       11.1649,      -16.2543,            0.,NA,NA,"",       1.66494,       1.63010,  -338.822E-03,   17.6093E-03
C:/temp/dataset/9/27_5.odb,Step-1,Increment      1: Step Time =    1.000,"PART-1-1",           571,       9.14831,      -16.2933,            0.,NA,NA,"",       1.67092,       1.66885,   83.0065E-03,   17.4917E-03
C:/temp/dataset/9/27_5.odb,Step-1,Increment      1: Step Time =    1.000,"PART-1-1",           572,            5.,        -8.125,            0.,NA,NA,"",       4.29440,       4.15044,       1.10259,   57.2360E-03
C:/temp/dataset/9/27_5.odb,Step-1,Increment      1: Step Time =    1.000,"PART-1-1",           573,       12.8519,      -3.99254,            0.,NA,NA,"",       5.33177,       5.09172,      -1.58181,   25.5617E-03
C:/temp/dataset/9/27_5.odb,Step-1,Increment      1: Step Time =    1.000,"PART-1-1",           574,           15.,         -3.75,            0.,NA,NA,"",       5.58948,       5.07409,      -2.34434,   38.4735E-03
C:/temp/dataset/9/27_5.odb,Step-1,Increment      1: Step Time =    1.000,"PART-1-1",           575,       13.8878,      -2.60354,            0.,NA,NA,"",       5.89120,       5.52044,      -2.05694,   27.4315E-03
C:/temp/dataset/9/27_5.odb,Step-1,Increment      1: Step Time =    1.000,"PART-1-1",           576,       13.0423,      -8.97351,            0.,NA,NA,"",       3.70061,       3.48485,      -1.24513,   33.9500E-03
C:/temp/dataset/9/27_5.odb,Step-1,Increment      1: Step Time =    1.000,"PART-1-1",           577,           15.,         -8.75,            0.,NA,NA,"",       3.96369,       3.49752,      -1.86499,   54.8325E-03
C:/temp/dataset/9/27_5.odb,Step-1,Increment      1: Step Time =    1.000,"PART-1-1",           578,       8.09346,      -21.6433,            0.,NA,NA,"",   722.766E-03,   680.549E-03,   243.402E-03,   35.7903E-03
C:/temp/dataset/9/27_5.odb,Step-1,Increment      1: Step Time =    1.000,"PART-1-1",           579,       8.17438,      -23.6967,            0.,NA,NA,"",   440.883E-03,   399.172E-03,   187.189E-03,   36.6304E-03
C:/temp/dataset/9/27_5.odb,Step-1,Increment      1: Step Time =    1.000,"PART-1-1",           580,       8.10077,      -19.5616,            0.,NA,NA,"",       1.06643,       1.02988,   276.796E-03,   33.6760E-03
C:/temp/dataset/9/27_5.odb,Step-1,Increment      1: Step Time =    1.000,"PART-1-1",           581,       8.11824,      -17.4194,            0.,NA,NA,"",       1.48360,       1.45438,   292.993E-03,   31.4683E-03
C:/temp/dataset/9/27_5.odb,Step-1,Increment      1: Step Time =    1.000,"PART-1-1",           582,          -15.,       22.3438,            0.,NA,NA,"",       18.2169,       16.9443,       6.68937,   1.72804E-03
C:/temp/dataset/9/27_5.odb,Step-1,Increment      1: Step Time =    1.000,"PART-1-1",           583,      -12.5647,       21.7347,            0.,NA,NA,"",       17.5373,       16.5422,       5.82345,   965.111E-06
C:/temp/dataset/9/27_5.odb,Step-1,Increment      1: Step Time =    1.000,"PART-1-1",           584,      -4.95050,       22.5220,            0.,NA,NA,"",       16.5482,       16.2874,       2.92661,   2.08500E-03
C:/temp/dataset/9/27_5.odb,Step-1,Increment      1: Step Time =    1.000,"PART-1-1",           585,      -3.93081,       23.1260,            0.,NA,NA,"",       16.6302,       16.4401,       2.50765,   1.99679E-03
C:/temp/dataset/9/27_5.odb,Step-1,Increment      1: Step Time =    1.000,"PART-1-1",           586,      -4.22857,       24.4244,            0.,NA,NA,"",       17.1307,       16.9435,       2.52562,   1.56691E-03
C:/temp/dataset/9/27_5.odb,Step-1,Increment      1: Step Time =    1.000,"PART-1-1",           587,      -5.24826,       23.8204,            0.,NA,NA,"",       17.0479,       16.7916,       2.94531,   1.52669E-03
C:/temp/dataset/9/27_5.odb,Step-1,Increment      1: Step Time =    1.000,"PART-1-1",           588,      -10.1110,       10.4874,            0.,NA,NA,"",       13.4128,       12.1272,       5.73003,   1.26052E-03
C:/temp/dataset/9/27_5.odb,Step-1,Increment      1: Step Time =    1.000,"PART-1-1",           589,      -9.15687,       11.6944,            0.,NA,NA,"",       13.5827,       12.5139,       5.28119,   1.39646E-03
C:/temp/dataset/9/27_5.odb,Step-1,Increment      1: Step Time =    1.000,"PART-1-1",           590,      -11.1597,       11.6149,            0.,NA,NA,"",       14.0027,       12.6321,       6.04199,   1.15203E-03
C:/temp/dataset/9/27_5.odb,Step-1,Increment      1: Step Time =    1.000,"PART-1-1",           591,      -6.07359,       12.6401,            0.,NA,NA,"",       13.2751,       12.6425,       4.04931,   2.01188E-03
C:/temp/dataset/9/27_5.odb,Step-1,Increment      1: Step Time =    1.000,"PART-1-1",           592,      -7.11512,       11.5321,            0.,NA,NA,"",       13.1057,       12.3004,       4.52311,   1.62223E-03
C:/temp/dataset/9/27_5.odb,Step-1,Increment      1: Step Time =    1.000,"PART-1-1",           593,           -5.,         11.25,            0.,NA,NA,"",       12.6042,       12.0350,       3.74476,   2.07499E-03
C:/temp/dataset/9/27_5.odb,Step-1,Increment      1: Step Time =    1.000,"PART-1-1",           594,      -10.0988,       8.37440,            0.,NA,NA,"",       12.7614,       11.3251,       5.88181,   1.29760E-03
C:/temp/dataset/9/27_5.odb,Step-1,Increment      1: Step Time =    1.000,"PART-1-1",           595,      -9.11481,       9.38066,            0.,NA,NA,"",       12.8410,       11.6336,       5.43605,   1.35652E-03
C:/temp/dataset/9/27_5.odb,Step-1,Increment      1: Step Time =    1.000,"PART-1-1",           596,      -11.0949,       9.48111,            0.,NA,NA,"",       13.3350,       11.8188,       6.17571,   1.19678E-03
C:/temp/dataset/9/27_5.odb,Step-1,Increment      1: Step Time =    1.000,"PART-1-1",           597,      -11.8142,       15.6555,            0.,NA,NA,"",       15.4184,       14.2076,       5.98925,   868.761E-06
C:/temp/dataset/9/27_5.odb,Step-1,Increment      1: Step Time =    1.000,"PART-1-1",           598,      -13.4062,       15.6218,            0.,NA,NA,"",       15.7561,       14.3114,       6.59067,   983.830E-06
C:/temp/dataset/9/27_5.odb,Step-1,Increment      1: Step Time =    1.000,"PART-1-1",           599,      -12.4316,       14.7766,            0.,NA,NA,"",       15.2750,       13.9213,       6.28666,   848.331E-06
C:/temp/dataset/9/27_5.odb,Step-1,Increment      1: Step Time =    1.000,"PART-1-1",           600,      -5.72199,       20.2132,            0.,NA,NA,"",       15.8455,       15.4820,       3.37451,   4.22435E-03
C:/temp/dataset/9/27_5.odb,Step-1,Increment      1: Step Time =    1.000,"PART-1-1",           601,           -5.,         18.75,            0.,NA,NA,"",       15.2168,       14.8747,       3.20825,   5.54334E-03
C:/temp/dataset/9/27_5.odb,Step-1,Increment      1: Step Time =    1.000,"PART-1-1",           602,          -15.,       15.7813,            0.,NA,NA,"",       16.1691,       14.4879,       7.17923,   1.67358E-03
C:/temp/dataset/9/27_5.odb,Step-1,Increment      1: Step Time =    1.000,"PART-1-1",           603,      -10.4105,       16.7429,            0.,NA,NA,"",       15.4805,       14.5149,       5.38173,   973.496E-06
C:/temp/dataset/9/27_5.odb,Step-1,Increment      1: Step Time =    1.000,"PART-1-1",           604,      -12.1928,       12.6381,            0.,NA,NA,"",       14.5564,       13.0957,       6.35552,   902.241E-06
C:/temp/dataset/9/27_5.odb,Step-1,Increment      1: Step Time =    1.000,"PART-1-1",           605,      -12.0987,       10.4443,            0.,NA,NA,"",       13.8670,       12.2582,       6.48297,   973.818E-06
C:/temp/dataset/9/27_5.odb,Step-1,Increment      1: Step Time =    1.000,"PART-1-1",           606,      -7.50325,       4.80693,            0.,NA,NA,"",       11.0574,       9.77683,       5.16530,   2.14719E-03
C:/temp/dataset/9/27_5.odb,Step-1,Increment      1: Step Time =    1.000,"PART-1-1",           607,      -9.63824,       5.46172,            0.,NA,NA,"",       11.7829,       10.1860,       5.92307,   1.38535E-03
C:/temp/dataset/9/27_5.odb,Step-1,Increment      1: Step Time =    1.000,"PART-1-1",           608,      -8.81234,       4.25317,            0.,NA,NA,"",       11.2214,       9.66592,       5.69996,   1.78380E-03
C:/temp/dataset/9/27_5.odb,Step-1,Increment      1: Step Time =    1.000,"PART-1-1",           609,          -15.,      -1.71875,            0.,NA,NA,"",       11.5674,       7.87308,       8.47468,   271.891E-06
C:/temp/dataset/9/27_5.odb,Step-1,Increment      1: Step Time =    1.000,"PART-1-1",           610,      -12.5835,      -1.75493,            0.,NA,NA,"",       10.7803,       7.68031,       7.56493,   653.553E-06
C:/temp/dataset/9/27_5.odb,Step-1,Increment      1: Step Time =    1.000,"PART-1-1",           611,        -11.25,           -5.,            0.,NA,NA,"",       9.68067,       6.35716,       7.30082,   404.978E-06
C:/temp/dataset/9/27_5.odb,Step-1,Increment      1: Step Time =    1.000,"PART-1-1",           612,      -10.0144,      -3.91217,            0.,NA,NA,"",       9.49625,       6.67671,       6.75281,   768.972E-06
C:/temp/dataset/9/27_5.odb,Step-1,Increment      1: Step Time =    1.000,"PART-1-1",           613,      -11.2827,      -2.82422,            0.,NA,NA,"",       10.1348,       7.18069,       7.15202,   780.441E-06
C:/temp/dataset/9/27_5.odb,Step-1,Increment      1: Step Time =    1.000,"PART-1-1",           614,         -8.75,           -5.,            0.,NA,NA,"",       8.86002,       6.17324,       6.35540,   1.18586E-03
C:/temp/dataset/9/27_5.odb,Step-1,Increment      1: Step Time =    1.000,"PART-1-1",           615,      -7.54904,      -4.01671,            0.,NA,NA,"",       8.69761,       6.45635,       5.82786,   1.46071E-03
C:/temp/dataset/9/27_5.odb,Step-1,Increment      1: Step Time =    1.000,"PART-1-1",           616,      -8.81345,      -2.92887,            0.,NA,NA,"",       9.33722,       6.95882,       6.22564,   1.27542E-03
C:/temp/dataset/9/27_5.odb,Step-1,Increment      1: Step Time =    1.000,"PART-1-1",           617,  -969.738E-03,       22.2544,            0.,NA,NA,"",       15.9790,       15.9105,       1.47888,   1.71276E-03
C:/temp/dataset/9/27_5.odb,Step-1,Increment      1: Step Time =    1.000,"PART-1-1",           618,      -2.31964,       21.1016,            0.,NA,NA,"",       15.7130,       15.5776,       2.05790,   1.63720E-03
C:/temp/dataset/9/27_5.odb,Step-1,Increment      1: Step Time =    1.000,"PART-1-1",           619,         -1.25,           20.,            0.,NA,NA,"",       15.1986,       15.0984,       1.74216,   1.34401E-03
C:/temp/dataset/9/27_5.odb,Step-1,Increment      1: Step Time =    1.000,"PART-1-1",           620,         -1.25,           30.,            0.,NA,NA,"",       18.8275,       18.7993,       1.03142,   352.272E-06
C:/temp/dataset/9/27_5.odb,Step-1,Increment      1: Step Time =    1.000,"PART-1-1",           621,      -1.44357,       27.1449,            0.,NA,NA,"",       17.8044,       17.7565,       1.30509,   1.51752E-03
C:/temp/dataset/9/27_5.odb,Step-1,Increment      1: Step Time =    1.000,"PART-1-1",           622,      -4.58492,       21.1383,            0.,NA,NA,"",       16.0093,       15.7465,       2.88862,   3.93122E-03
C:/temp/dataset/9/27_5.odb,Step-1,Increment      1: Step Time =    1.000,"PART-1-1",           623,         -3.75,           20.,            0.,NA,NA,"",       15.4998,       15.2693,       2.66341,   3.88302E-03
C:/temp/dataset/9/27_5.odb,Step-1,Increment      1: Step Time =    1.000,"PART-1-1",           624,      -3.15456,       22.2398,            0.,NA,NA,"",       16.2181,       16.0564,       2.28420,   2.06389E-03
C:/temp/dataset/9/27_5.odb,Step-1,Increment      1: Step Time =    1.000,"PART-1-1",           625,      -11.2479,       22.4027,            0.,NA,NA,"",       17.5119,       16.6962,       5.28227,   892.790E-06
C:/temp/dataset/9/27_5.odb,Step-1,Increment      1: Step Time =    1.000,"PART-1-1",           626,      -10.3888,       20.8027,            0.,NA,NA,"",       16.8215,       16.0371,       5.07678,   607.694E-06
C:/temp/dataset/9/27_5.odb,Step-1,Increment      1: Step Time =    1.000,"PART-1-1",           627,       9.41561,      -24.6142,            0.,NA,NA,"",   280.170E-03,   274.733E-03,   54.9288E-03,   17.6553E-03
C:/temp/dataset/9/27_5.odb,Step-1,Increment      1: Step Time =    1.000,"PART-1-1",           628,           15.,        -16.25,            0.,NA,NA,"",       1.99785,       1.61298,      -1.17886,   71.7974E-03
C:/temp/dataset/9/27_5.odb,Step-1,Increment      1: Step Time =    1.000,"PART-1-1",           629,       13.1096,      -16.2411,            0.,NA,NA,"",       1.78044,       1.61175,  -756.457E-03,   43.8770E-03
C:/temp/dataset/9/27_5.odb,Step-1,Increment      1: Step Time =    1.000,"PART-1-1",           630,           15.,          3.75,            0.,NA,NA,"",       8.31022,       7.74121,      -3.02217,   16.7863E-03
C:/temp/dataset/9/27_5.odb,Step-1,Increment      1: Step Time =    1.000,"PART-1-1",           631,       14.0093,       5.06690,            0.,NA,NA,"",       8.74370,       8.29618,      -2.76147,   12.3611E-03
C:/temp/dataset/9/27_5.odb,Step-1,Increment      1: Step Time =    1.000,"PART-1-1",           632,       12.9168,       3.88721,            0.,NA,NA,"",       8.24370,       7.92910,      -2.25566,   11.9148E-03
C:/temp/dataset/9/27_5.odb,Step-1,Increment      1: Step Time =    1.000,"PART-1-1",           633,       12.6026,       11.0965,            0.,NA,NA,"",       11.0322,       10.6903,      -2.72516,   6.72782E-03
C:/temp/dataset/9/27_5.odb,Step-1,Increment      1: Step Time =    1.000,"PART-1-1",           634,           15.,         11.25,            0.,NA,NA,"",       11.1848,       10.5715,      -3.65287,   3.85488E-03
C:/temp/dataset/9/27_5.odb,Step-1,Increment      1: Step Time =    1.000,"PART-1-1",           635,       12.4669,       18.7361,            0.,NA,NA,"",       14.0155,       13.6319,      -3.25660,   1.85444E-03
C:/temp/dataset/9/27_5.odb,Step-1,Increment      1: Step Time =    1.000,"PART-1-1",           636,           15.,         18.75,            0.,NA,NA,"",       14.0904,       13.4459,      -4.21280,   4.39853E-03
C:/temp/dataset/9/27_5.odb,Step-1,Increment      1: Step Time =    1.000,"PART-1-1",           637,           15.,         26.25,            0.,NA,NA,"",       16.9345,       16.2583,      -4.73755,   964.991E-06
C:/temp/dataset/9/27_5.odb,Step-1,Increment      1: Step Time =    1.000,"PART-1-1",           638,          8.75,           30.,            0.,NA,NA,"",       18.2987,       18.1022,      -2.67425,   1.84247E-03
C:/temp/dataset/9/27_5.odb,Step-1,Increment      1: Step Time =    1.000,"PART-1-1",           639,       8.74802,       27.8391,            0.,NA,NA,"",       17.4814,       17.2992,      -2.51706,   1.50082E-03
C:/temp/dataset/9/27_5.odb,Step-1,Increment      1: Step Time =    1.000,"PART-1-1",           640,       11.0691,       22.4572,            0.,NA,NA,"",       15.4270,       15.1328,      -2.99856,   2.14227E-03
C:/temp/dataset/9/27_5.odb,Step-1,Increment      1: Step Time =    1.000,"PART-1-1",           641,       11.1947,       19.9658,            0.,NA,NA,"",       14.4779,       14.1913,      -2.86663,   1.75922E-03
C:/temp/dataset/9/27_5.odb,Step-1,Increment      1: Step Time =    1.000,"PART-1-1",           642,          3.75,           30.,            0.,NA,NA,"",       18.4678,       18.4499,  -814.971E-03,   1.86295E-03
C:/temp/dataset/9/27_5.odb,Step-1,Increment      1: Step Time =    1.000,"PART-1-1",           643,       6.12801,       21.9878,            0.,NA,NA,"",       15.3569,       15.3164,      -1.11529,   2.92579E-03
C:/temp/dataset/9/27_5.odb,Step-1,Increment      1: Step Time =    1.000,"PART-1-1",           644,       7.06684,       23.0702,            0.,NA,NA,"",       15.7266,       15.6506,      -1.54405,   2.45678E-03
C:/temp/dataset/9/27_5.odb,Step-1,Increment      1: Step Time =    1.000,"PART-1-1",           645,       4.97038,       22.7185,            0.,NA,NA,"",       15.6851,       15.6676,  -740.395E-03,   2.54461E-03
C:/temp/dataset/9/27_5.odb,Step-1,Increment      1: Step Time =    1.000,"PART-1-1",           646,          3.75,           20.,            0.,NA,NA,"",       14.7496,       14.7493,  -98.0152E-03,   1.52761E-03
C:/temp/dataset/9/27_5.odb,Step-1,Increment      1: Step Time =    1.000,"PART-1-1",           647,       4.96897,       20.9583,            0.,NA,NA,"",       15.0294,       15.0170,  -610.402E-03,   3.98304E-03
C:/temp/dataset/9/27_5.odb,Step-1,Increment      1: Step Time =    1.000,"PART-1-1",           648,       3.78616,       22.0655,            0.,NA,NA,"",       15.5105,       15.5084,  -256.584E-03,   2.32126E-03
C:/temp/dataset/9/27_5.odb,Step-1,Increment      1: Step Time =    1.000,"PART-1-1",           649,           -5.,         13.75,            0.,NA,NA,"",       13.4626,       12.9823,       3.56392,   2.53825E-03
C:/temp/dataset/9/27_5.odb,Step-1,Increment      1: Step Time =    1.000,"PART-1-1",           650,      -7.15256,       14.0792,            0.,NA,NA,"",       13.9634,       13.2681,       4.35157,   2.00276E-03
C:/temp/dataset/9/27_5.odb,Step-1,Increment      1: Step Time =    1.000,"PART-1-1",           651,      -9.70164,       19.1500,            0.,NA,NA,"",       16.1430,       15.3686,       4.93969,   840.035E-06
C:/temp/dataset/9/27_5.odb,Step-1,Increment      1: Step Time =    1.000,"PART-1-1",           652,      -9.13060,       21.5024,            0.,NA,NA,"",       16.8356,       16.2076,       4.55536,   870.608E-06
C:/temp/dataset/9/27_5.odb,Step-1,Increment      1: Step Time =    1.000,"PART-1-1",           653,         -1.25,           -5.,            0.,NA,NA,"",       6.64785,       5.63690,       3.52409,   3.30497E-03
C:/temp/dataset/9/27_5.odb,Step-1,Increment      1: Step Time =    1.000,"PART-1-1",           654,      -1.47244,      -2.77860,            0.,NA,NA,"",       7.34115,       6.48357,       3.44322,   2.94895E-03
C:/temp/dataset/9/27_5.odb,Step-1,Increment      1: Step Time =    1.000,"PART-1-1",           655,      -9.96758,      -1.61086,            0.,NA,NA,"",       9.99802,       7.54049,       6.56516,   1.15975E-03
C:/temp/dataset/9/27_5.odb,Step-1,Increment      1: Step Time =    1.000,"PART-1-1",           656,      -6.37223,      -3.07632,            0.,NA,NA,"",       8.57003,       6.72431,       5.31309,   1.76769E-03
C:/temp/dataset/9/27_5.odb,Step-1,Increment      1: Step Time =    1.000,"PART-1-1",           657,         -6.25,           -5.,            0.,NA,NA,"",       8.07256,       5.99157,       5.40992,   2.14991E-03
C:/temp/dataset/9/27_5.odb,Step-1,Increment      1: Step Time =    1.000,"PART-1-1",           658,         -3.75,            5.,            0.,NA,NA,"",       10.2644,       9.55981,       3.73730,   6.04595E-03
C:/temp/dataset/9/27_5.odb,Step-1,Increment      1: Step Time =    1.000,"PART-1-1",           659,      -5.11170,       4.23117,            0.,NA,NA,"",       10.3156,       9.37480,       4.30402,   3.65222E-03
C:/temp/dataset/9/27_5.odb,Step-1,Increment      1: Step Time =    1.000,"PART-1-1",           660,      -3.95473,       3.29190,            0.,NA,NA,"",       9.76125,       8.93230,       3.93649,   3.17381E-03
C:/temp/dataset/9/27_5.odb,Step-1,Increment      1: Step Time =    1.000,"PART-1-1",           661,          3.75,           -5.,            0.,NA,NA,"",       5.53068,       5.28582,       1.62746,   19.2195E-03
C:/temp/dataset/9/27_5.odb,Step-1,Increment      1: Step Time =    1.000,"PART-1-1",           662,       4.69008,      -3.66648,            0.,NA,NA,"",       5.82749,       5.70981,       1.16523,   26.8804E-03
C:/temp/dataset/9/27_5.odb,Step-1,Increment      1: Step Time =    1.000,"PART-1-1",           663,       4.69636,       3.71818,            0.,NA,NA,"",       8.48001,       8.44811,   734.866E-03,   14.3920E-03
C:/temp/dataset/9/27_5.odb,Step-1,Increment      1: Step Time =    1.000,"PART-1-1",           664,          3.75,            5.,            0.,NA,NA,"",       9.03417,       8.98032,   984.844E-03,   7.96558E-03
C:/temp/dataset/9/27_5.odb,Step-1,Increment      1: Step Time =    1.000,"PART-1-1",           665,       8.42013,       25.7200,            0.,NA,NA,"",       16.6876,       16.5364,      -2.24162,   1.74318E-03
C:/temp/dataset/9/27_5.odb,Step-1,Increment      1: Step Time =    1.000,"PART-1-1",           666,       7.55622,       27.1849,            0.,NA,NA,"",       17.2602,       17.1410,      -2.02535,   1.54699E-03
C:/temp/dataset/9/27_5.odb,Step-1,Increment      1: Step Time =    1.000,"PART-1-1",           667,       6.61388,       26.0906,            0.,NA,NA,"",       16.8773,       16.8017,      -1.59542,   1.47017E-03
C:/temp/dataset/9/27_5.odb,Step-1,Increment      1: Step Time =    1.000,"PART-1-1",           668,       10.0237,       13.5556,            0.,NA,NA,"",       11.9908,       11.8318,      -1.94611,   7.25019E-03
C:/temp/dataset/9/27_5.odb,Step-1,Increment      1: Step Time =    1.000,"PART-1-1",           669,       8.80148,       12.2659,            0.,NA,NA,"",       11.5068,       11.4230,      -1.38545,   8.06423E-03
C:/temp/dataset/9/27_5.odb,Step-1,Increment      1: Step Time =    1.000,"PART-1-1",           670,            5.,          6.25,            0.,NA,NA,"",       9.39203,       9.37956,   483.933E-03,   18.5047E-03
C:/temp/dataset/9/27_5.odb,Step-1,Increment      1: Step Time =    1.000,"PART-1-1",           671,       5.87545,       4.76801,            0.,NA,NA,"",       8.75351,       8.74981,   254.284E-03,   14.0230E-03
C:/temp/dataset/9/27_5.odb,Step-1,Increment      1: Step Time =    1.000,"PART-1-1",           672,       6.93940,       5.78737,            0.,NA,NA,"",       9.05966,       9.05740,  -202.242E-03,   7.93316E-03
C:/temp/dataset/9/27_5.odb,Step-1,Increment      1: Step Time =    1.000,"PART-1-1",           673,       7.73520,       4.18036,            0.,NA,NA,"",       8.40448,       8.39571,  -383.962E-03,   7.73670E-03
C:/temp/dataset/9/27_5.odb,Step-1,Increment      1: Step Time =    1.000,"PART-1-1",           674,       6.49581,       3.34316,            0.,NA,NA,"",       8.17458,       8.17373,   117.507E-03,   12.8016E-03
C:/temp/dataset/9/27_5.odb,Step-1,Increment      1: Step Time =    1.000,"PART-1-1",           675,       7.18979,       1.82766,            0.,NA,NA,"",       7.55665,       7.55656,  -37.1595E-03,   14.0782E-03
C:/temp/dataset/9/27_5.odb,Step-1,Increment      1: Step Time =    1.000,"PART-1-1",           676,       8.42918,       2.66485,            0.,NA,NA,"",       7.79680,       7.77854,  -533.274E-03,   10.3066E-03
C:/temp/dataset/9/27_5.odb,Step-1,Increment      1: Step Time =    1.000,"PART-1-1",           677,  -530.051E-03,       1.39108,            0.,NA,NA,"",       8.44096,       7.96657,       2.78992,   2.36611E-03
C:/temp/dataset/9/27_5.odb,Step-1,Increment      1: Step Time =    1.000,"PART-1-1",           678,      -10.1792,       3.73358,            0.,NA,NA,"",       11.4341,       9.57214,       6.25408,   1.25544E-03
C:/temp/dataset/9/27_5.odb,Step-1,Increment      1: Step Time =    1.000,"PART-1-1",           679,      -9.26781,       2.30942,            0.,NA,NA,"",       10.7956,       8.96540,       6.01380,   1.56679E-03
C:/temp/dataset/9/27_5.odb,Step-1,Increment      1: Step Time =    1.000,"PART-1-1",           680,      -7.90097,       2.82902,            0.,NA,NA,"",       10.5764,       9.05839,       5.45950,   2.04396E-03
C:/temp/dataset/9/27_5.odb,Step-1,Increment      1: Step Time =    1.000,"PART-1-1",           681,      -2.90861,       2.25641,            0.,NA,NA,"",       9.20617,       8.46542,       3.61805,   2.84743E-03
C:/temp/dataset/9/27_5.odb,Step-1,Increment      1: Step Time =    1.000,"PART-1-1",           682,      -1.97153,   737.020E-03,            0.,NA,NA,"",       8.52612,       7.82953,       3.37537,   2.16664E-03
C:/temp/dataset/9/27_5.odb,Step-1,Increment      1: Step Time =    1.000,"PART-1-1",           683,      -12.0057,       8.33468,            0.,NA,NA,"",       13.2198,       11.4518,       6.60443,   1.03977E-03
C:/temp/dataset/9/27_5.odb,Step-1,Increment      1: Step Time =    1.000,"PART-1-1",           684,   257.111E-03,       23.5381,            0.,NA,NA,"",       16.3269,       16.3000,   935.896E-03,   1.76250E-03
C:/temp/dataset/9/27_5.odb,Step-1,Increment      1: Step Time =    1.000,"PART-1-1",           685,       2.92443,       23.5127,            0.,NA,NA,"",       16.1044,       16.1043,  -43.8344E-03,   2.01181E-03
C:/temp/dataset/9/27_5.odb,Step-1,Increment      1: Step Time =    1.000,"PART-1-1",           686,  -872.814E-03,       24.6452,            0.,NA,NA,"",       16.8375,       16.7893,       1.27293,   2.01562E-03
C:/temp/dataset/9/27_5.odb,Step-1,Increment      1: Step Time =    1.000,"PART-1-1",           687,      -2.49287,       25.7554,            0.,NA,NA,"",       17.4073,       17.3150,       1.79069,   1.61570E-03
C:/temp/dataset/9/27_5.odb,Step-1,Increment      1: Step Time =    1.000,"PART-1-1",           688,      -6.57000,       23.0679,            0.,NA,NA,"",       16.9689,       16.6065,       3.48854,   1.41024E-03
C:/temp/dataset/9/27_5.odb,Step-1,Increment      1: Step Time =    1.000,"PART-1-1",           689,      -7.77911,       22.2181,            0.,NA,NA,"",       16.8584,       16.3771,       3.99918,   1.07112E-03
C:/temp/dataset/9/27_5.odb,Step-1,Increment      1: Step Time =    1.000,"PART-1-1",           690,      -6.08757,       21.5970,            0.,NA,NA,"",       16.3835,       16.0241,       3.41286,   1.93811E-03
C:/temp/dataset/9/27_5.odb,Step-1,Increment      1: Step Time =    1.000,"PART-1-1",           691,      -10.6596,       24.7502,            0.,NA,NA,"",       18.1977,       17.5275,       4.89336,   1.03366E-03
C:/temp/dataset/9/27_5.odb,Step-1,Increment      1: Step Time =    1.000,"PART-1-1",           692,      -8.94190,       25.0911,            0.,NA,NA,"",       18.0327,       17.5300,       4.22811,   977.199E-06
C:/temp/dataset/9/27_5.odb,Step-1,Increment      1: Step Time =    1.000,"PART-1-1",           693,      -9.30563,       26.3338,            0.,NA,NA,"",       18.5184,       18.0182,       4.27509,   955.136E-06
C:/temp/dataset/9/27_5.odb,Step-1,Increment      1: Step Time =    1.000,"PART-1-1",           694,      -11.0233,       25.9928,            0.,NA,NA,"",       18.6808,       18.0158,       4.94004,   1.00591E-03
C:/temp/dataset/9/27_5.odb,Step-1,Increment      1: Step Time =    1.000,"PART-1-1",           695,      -9.11986,       17.2561,            0.,NA,NA,"",       15.4008,       14.6139,       4.85984,   1.43397E-03
C:/temp/dataset/9/27_5.odb,Step-1,Increment      1: Step Time =    1.000,"PART-1-1",           696,      -11.0116,       7.65423,            0.,NA,NA,"",       12.7705,       11.1199,       6.27959,   1.19590E-03
C:/temp/dataset/9/27_5.odb,Step-1,Increment      1: Step Time =    1.000,"PART-1-1",           697,      -11.6541,       6.30856,            0.,NA,NA,"",       12.5471,       10.6576,       6.62159,   1.05889E-03
C:/temp/dataset/9/27_5.odb,Step-1,Increment      1: Step Time =    1.000,"PART-1-1",           698,      -3.46647,   792.949E-03,            0.,NA,NA,"",       8.87905,       7.96045,       3.93304,   2.24925E-03
C:/temp/dataset/9/27_5.odb,Step-1,Increment      1: Step Time =    1.000,"PART-1-1",           699,      -4.27899,       1.61468,            0.,NA,NA,"",       9.31810,       8.32811,       4.17968,   2.44693E-03
C:/temp/dataset/9/27_5.odb,Step-1,Increment      1: Step Time =    1.000,"PART-1-1",           700,      -5.41602,       1.03976,            0.,NA,NA,"",       9.42492,       8.19779,       4.65030,   2.28851E-03
C:/temp/dataset/9/27_5.odb,Step-1,Increment      1: Step Time =    1.000,"PART-1-1",           701,      -4.60351,   218.037E-03,            0.,NA,NA,"",       8.98287,       7.82961,       4.40331,   2.17667E-03
C:/temp/dataset/9/27_5.odb,Step-1,Increment      1: Step Time =    1.000,"PART-1-1",           702,      -1.96165,  -510.209E-03,            0.,NA,NA,"",       8.13737,       7.36441,       3.46153,   2.00645E-03
C:/temp/dataset/9/27_5.odb,Step-1,Increment      1: Step Time =    1.000,"PART-1-1",           703,      -2.89723,      -2.02996,            0.,NA,NA,"",       7.90743,       6.86488,       3.92440,   2.20333E-03
C:/temp/dataset/9/27_5.odb,Step-1,Increment      1: Step Time =    1.000,"PART-1-1",           704,       6.46823,      -3.22891,            0.,NA,NA,"",       5.75413,       5.73202,   503.925E-03,   23.1574E-03
C:/temp/dataset/9/27_5.odb,Step-1,Increment      1: Step Time =    1.000,"PART-1-1",           705,       5.30305,      -2.18626,            0.,NA,NA,"",       6.26761,       6.20759,   865.302E-03,   18.3219E-03
C:/temp/dataset/9/27_5.odb,Step-1,Increment      1: Step Time =    1.000,"PART-1-1",           706,       8.11637,      -13.0290,            0.,NA,NA,"",       2.52892,       2.51355,   278.354E-03,   27.5345E-03
C:/temp/dataset/9/27_5.odb,Step-1,Increment      1: Step Time =    1.000,"PART-1-1",           707,       8.09759,      -10.8135,            0.,NA,NA,"",       3.14430,       3.13458,   247.112E-03,   25.5188E-03
C:/temp/dataset/9/27_5.odb,Step-1,Increment      1: Step Time =    1.000,"PART-1-1",           708,           15.,        -26.25,            0.,NA,NA,"",   387.119E-03,   209.779E-03,  -325.352E-03,   93.0229E-03
C:/temp/dataset/9/27_5.odb,Step-1,Increment      1: Step Time =    1.000,"PART-1-1",           709,       13.6129,      -24.9005,            0.,NA,NA,"",   408.121E-03,   271.031E-03,  -305.131E-03,   64.3720E-03
C:/temp/dataset/9/27_5.odb,Step-1,Increment      1: Step Time =    1.000,"PART-1-1",           710,       12.3352,      -26.1538,            0.,NA,NA,"",   198.901E-03,   141.467E-03,  -139.816E-03,   42.0926E-03
C:/temp/dataset/9/27_5.odb,Step-1,Increment      1: Step Time =    1.000,"PART-1-1",           711,       11.5115,      -24.0900,            0.,NA,NA,"",   351.529E-03,   321.431E-03,  -142.319E-03,   26.2483E-03
C:/temp/dataset/9/27_5.odb,Step-1,Increment      1: Step Time =    1.000,"PART-1-1",           712,       12.5793,      -23.4990,            0.,NA,NA,"",   482.649E-03,   396.561E-03,  -275.117E-03,   43.9456E-03
C:/temp/dataset/9/27_5.odb,Step-1,Increment      1: Step Time =    1.000,"PART-1-1",           713,       11.9958,      -21.9645,            0.,NA,NA,"",   646.482E-03,   588.222E-03,  -268.206E-03,   32.5628E-03
C:/temp/dataset/9/27_5.odb,Step-1,Increment      1: Step Time =    1.000,"PART-1-1",           714,           15.,        -23.75,            0.,NA,NA,"",   684.224E-03,   425.356E-03,  -535.943E-03,   87.3424E-03
C:/temp/dataset/9/27_5.odb,Step-1,Increment      1: Step Time =    1.000,"PART-1-1",           715,       11.0775,      -9.24199,            0.,NA,NA,"",       3.53137,       3.47130,  -648.594E-03,   15.8142E-03
C:/temp/dataset/9/27_5.odb,Step-1,Increment      1: Step Time =    1.000,"PART-1-1",           716,       10.0590,      -8.23408,            0.,NA,NA,"",       3.84353,       3.82225,  -403.894E-03,   10.2437E-03
C:/temp/dataset/9/27_5.odb,Step-1,Increment      1: Step Time =    1.000,"PART-1-1",           717,       9.08966,      -9.54059,            0.,NA,NA,"",       3.46551,       3.46491,  -64.4406E-03,   14.2128E-03
C:/temp/dataset/9/27_5.odb,Step-1,Increment      1: Step Time =    1.000,"PART-1-1",           718,           15.,         -1.25,            0.,NA,NA,"",       6.47090,       5.93522,      -2.57794,   29.4494E-03
C:/temp/dataset/9/27_5.odb,Step-1,Increment      1: Step Time =    1.000,"PART-1-1",           719,       12.7047,      -1.36075,            0.,NA,NA,"",       6.27069,       6.02215,      -1.74793,   20.0929E-03
C:/temp/dataset/9/27_5.odb,Step-1,Increment      1: Step Time =    1.000,"PART-1-1",           720,       10.4122,      -1.52824,            0.,NA,NA,"",       6.16717,       6.09471,  -942.541E-03,   15.4399E-03
C:/temp/dataset/9/27_5.odb,Step-1,Increment      1: Step Time =    1.000,"PART-1-1",           721,       11.7321,      -2.88547,            0.,NA,NA,"",       5.68191,       5.53314,      -1.29170,   18.9749E-03
C:/temp/dataset/9/27_5.odb,Step-1,Increment      1: Step Time =    1.000,"PART-1-1",           722,       13.0447,       6.32641,            0.,NA,NA,"",       9.18314,       8.83521,      -2.50386,   9.70241E-03
C:/temp/dataset/9/27_5.odb,Step-1,Increment      1: Step Time =    1.000,"PART-1-1",           723,           15.,          6.25,            0.,NA,NA,"",       9.25576,       8.67124,      -3.23706,   12.6682E-03
C:/temp/dataset/9/27_5.odb,Step-1,Increment      1: Step Time =    1.000,"PART-1-1",           724,       12.2773,       7.44357,            0.,NA,NA,"",       9.59376,       9.31222,      -2.30711,   8.48424E-03
C:/temp/dataset/9/27_5.odb,Step-1,Increment      1: Step Time =    1.000,"PART-1-1",           725,       11.3989,       9.46443,            0.,NA,NA,"",       10.3716,       10.1484,      -2.14024,   8.10678E-03
C:/temp/dataset/9/27_5.odb,Step-1,Increment      1: Step Time =    1.000,"PART-1-1",           726,       10.0696,       10.6576,            0.,NA,NA,"",       10.8450,       10.7051,      -1.73596,   8.78785E-03
C:/temp/dataset/9/27_5.odb,Step-1,Increment      1: Step Time =    1.000,"PART-1-1",           727,       11.2733,       12.2896,            0.,NA,NA,"",       11.4852,       11.2489,      -2.31784,   7.23681E-03
C:/temp/dataset/9/27_5.odb,Step-1,Increment      1: Step Time =    1.000,"PART-1-1",           728,       11.2495,       14.9235,            0.,NA,NA,"",       12.5228,       12.2680,      -2.51346,   5.14535E-03
C:/temp/dataset/9/27_5.odb,Step-1,Increment      1: Step Time =    1.000,"PART-1-1",           729,       11.2365,       17.4638,            0.,NA,NA,"",       13.5141,       13.2417,      -2.69960,   2.75024E-03
C:/temp/dataset/9/27_5.odb,Step-1,Increment      1: Step Time =    1.000,"PART-1-1",           730,       9.96430,       18.6935,            0.,NA,NA,"",       13.9964,       13.8043,      -2.31112,   2.19524E-03
C:/temp/dataset/9/27_5.odb,Step-1,Increment      1: Step Time =    1.000,"PART-1-1",           731,       8.12949,      -15.2371,            0.,NA,NA,"",       1.97223,       1.95044,   292.365E-03,   29.3540E-03
C:/temp/dataset/9/27_5.odb,Step-1,Increment      1: Step Time =    1.000,"PART-1-1",           732,       10.9896,      -6.85237,            0.,NA,NA,"",       4.29030,       4.22117,  -767.037E-03,   16.6843E-03
C:/temp/dataset/9/27_5.odb,Step-1,Increment      1: Step Time =    1.000,"PART-1-1",           733,       10.9332,      -25.1906,            0.,NA,NA,"",   220.307E-03,   209.833E-03,  -67.1222E-03,   17.1811E-03
C:/temp/dataset/9/27_5.odb,Step-1,Increment      1: Step Time =    1.000,"PART-1-1",           734,       11.9281,      -5.46067,            0.,NA,NA,"",       4.78088,       4.63766,      -1.16140,   21.8930E-03
C:/temp/dataset/9/27_5.odb,Step-1,Increment      1: Step Time =    1.000,"PART-1-1",           735,      -11.5697,       3.18107,            0.,NA,NA,"",       11.6679,       9.46740,       6.81975,   1.02755E-03
C:/temp/dataset/9/27_5.odb,Step-1,Increment      1: Step Time =    1.000,"PART-1-1",           736,      -10.7341,       2.09613,            0.,NA,NA,"",       11.1468,       8.99496,       6.58350,   1.16836E-03
C:/temp/dataset/9/27_5.odb,Step-1,Increment      1: Step Time =    1.000,"PART-1-1",           737,      -6.76822,       1.80268,            0.,NA,NA,"",       9.98937,       8.58592,       5.10584,   2.27141E-03
C:/temp/dataset/9/27_5.odb,Step-1,Increment      1: Step Time =    1.000,"PART-1-1",           738,      -5.32511,       2.65016,            0.,NA,NA,"",       9.87939,       8.79534,       4.49937,   2.67541E-03
C:/temp/dataset/9/27_5.odb,Step-1,Increment      1: Step Time =    1.000,"PART-1-1",           739,      -6.45786,       3.67650,            0.,NA,NA,"",       10.4622,       9.26862,       4.85286,   2.79496E-03
C:/temp/dataset/9/27_5.odb,Step-1,Increment      1: Step Time =    1.000,"PART-1-1",           740,      -10.1618,       27.4009,            0.,NA,NA,"",       19.0212,       18.4768,       4.51802,   934.350E-06
C:/temp/dataset/9/27_5.odb,Step-1,Increment      1: Step Time =    1.000,"PART-1-1",           741,      -8.15950,       27.0742,            0.,NA,NA,"",       18.6017,       18.2104,       3.79562,   875.972E-06
C:/temp/dataset/9/27_5.odb,Step-1,Increment      1: Step Time =    1.000,"PART-1-1",           742,      -8.41457,       23.7439,            0.,NA,NA,"",       17.4851,       16.9909,       4.12748,   1.03039E-03
C:/temp/dataset/9/27_5.odb,Step-1,Increment      1: Step Time =    1.000,"PART-1-1",           743,      -9.76606,       23.0282,            0.,NA,NA,"",       17.4619,       16.8222,       4.68318,   939.195E-06
C:/temp/dataset/9/27_5.odb,Step-1,Increment      1: Step Time =    1.000,"PART-1-1",           744,      -10.1457,       6.57799,            0.,NA,NA,"",       12.2373,       10.6472,       6.03234,   1.32409E-03
C:/temp/dataset/9/27_5.odb,Step-1,Increment      1: Step Time =    1.000,"PART-1-1",           745,      -11.1466,       5.19230,            0.,NA,NA,"",       12.0990,       10.1968,       6.51229,   1.11370E-03
C:/temp/dataset/9/27_5.odb,Step-1,Increment      1: Step Time =    1.000,"PART-1-1",           746,       7.77017,   782.991E-03,            0.,NA,NA,"",       7.12671,       7.12450,  -177.803E-03,   14.7691E-03
C:/temp/dataset/9/27_5.odb,Step-1,Increment      1: Step Time =    1.000,"PART-1-1",           747,       6.09501,       1.10589,            0.,NA,NA,"",       7.37984,       7.36925,   395.214E-03,   15.8073E-03
C:/temp/dataset/9/27_5.odb,Step-1,Increment      1: Step Time =    1.000,"PART-1-1",           748,       6.67539,   61.2235E-03,            0.,NA,NA,"",       6.94098,       6.93643,   251.447E-03,   16.1421E-03
C:/temp/dataset/9/27_5.odb,Step-1,Increment      1: Step Time =    1.000,"PART-1-1",           749,       5.31672,       2.29333,            0.,NA,NA,"",       7.89364,       7.87075,   600.742E-03,   15.0379E-03
C:/temp/dataset/9/27_5.odb,Step-1,Increment      1: Step Time =    1.000,"PART-1-1",           750,      -6.94695,       24.4689,            0.,NA,NA,"",       17.5140,       17.1547,       3.52961,   972.767E-06
C:/temp/dataset/9/27_5.odb,Step-1,Increment      1: Step Time =    1.000,"PART-1-1",           751,      -2.09966,       23.3616,            0.,NA,NA,"",       16.4994,       16.3991,       1.81611,   2.04297E-03
C:/temp/dataset/9/27_5.odb,Step-1,Increment      1: Step Time =    1.000,"PART-1-1",           752,      -2.87591,       24.2478,            0.,NA,NA,"",       16.9058,       16.7824,       2.03901,   1.88042E-03
C:/temp/dataset/9/27_5.odb,Step-1,Increment      1: Step Time =    1.000,"PART-1-1",           753,       9.53974,       23.7363,            0.,NA,NA,"",       15.9204,       15.7202,      -2.51698,   2.21737E-03
C:/temp/dataset/9/27_5.odb,Step-1,Increment      1: Step Time =    1.000,"PART-1-1",           754,      -5.22075,      -2.25347,            0.,NA,NA,"",       8.45566,       6.94927,       4.81723,   1.93910E-03
C:/temp/dataset/9/27_5.odb,Step-1,Increment      1: Step Time =    1.000,"PART-1-1",           755,      -7.55915,      -2.11026,            0.,NA,NA,"",       9.15731,       7.17442,       5.69069,   1.56089E-03
C:/temp/dataset/9/27_5.odb,Step-1,Increment      1: Step Time =    1.000,"PART-1-1",           756,      -4.20325,      -1.24540,            0.,NA,NA,"",       8.46189,       7.25270,       4.35912,   2.05124E-03
C:/temp/dataset/9/27_5.odb,Step-1,Increment      1: Step Time =    1.000,"PART-1-1",           757,       12.0426,       5.30937,            0.,NA,NA,"",       8.76280,       8.52032,      -2.04715,   9.21687E-03
C:/temp/dataset/9/27_5.odb,Step-1,Increment      1: Step Time =    1.000,"PART-1-1",           758,      -8.17645,       12.8481,            0.,NA,NA,"",       13.7530,       12.8781,       4.82699,   1.58662E-03
C:/temp/dataset/9/27_5.odb,Step-1,Increment      1: Step Time =    1.000,"PART-1-1",           759,      -8.09554,       10.3784,            0.,NA,NA,"",       12.9325,       11.9362,       4.97778,   1.37461E-03
C:/temp/dataset/9/27_5.odb,Step-1,Increment      1: Step Time =    1.000,"PART-1-1",           760,      -8.33007,       15.6293,            0.,NA,NA,"",       14.7069,       13.9418,       4.68185,   1.79625E-03
C:/temp/dataset/9/27_5.odb,Step-1,Increment      1: Step Time =    1.000,"PART-1-1",           761,       12.1122,      -19.7356,            0.,NA,NA,"",       1.00926,   936.337E-03,  -376.677E-03,   32.6331E-03
C:/temp/dataset/9/27_5.odb,Step-1,Increment      1: Step Time =    1.000,"PART-1-1",           762,       12.1388,      -17.4254,            0.,NA,NA,"",       1.45404,       1.36981,  -487.685E-03,   31.1384E-03
C:/temp/dataset/9/27_5.odb,Step-1,Increment      1: Step Time =    1.000,"PART-1-1",           763,       12.0361,      -7.90801,            0.,NA,NA,"",       3.97603,       3.84335,      -1.01858,   23.4394E-03
C:/temp/dataset/9/27_5.odb,Step-1,Increment      1: Step Time =    1.000,"PART-1-1",           764,       12.0837,      -10.3075,            0.,NA,NA,"",       3.24372,       3.12427,  -872.154E-03,   24.9854E-03
C:/temp/dataset/9/27_5.odb,Step-1,Increment      1: Step Time =    1.000,"PART-1-1",           765,       12.1118,      -12.6921,            0.,NA,NA,"",       2.57741,       2.47075,  -733.778E-03,   26.9630E-03
C:/temp/dataset/9/27_5.odb,Step-1,Increment      1: Step Time =    1.000,"PART-1-1",           766,       12.1357,      -15.0700,            0.,NA,NA,"",       1.97874,       1.88343,  -606.717E-03,   29.1699E-03
C:/temp/dataset/9/27_5.odb,Step-1,Increment      1: Step Time =    1.000,"PART-1-1",           767,      -8.71328,  -792.246E-03,            0.,NA,NA,"",       9.82422,       7.75551,       6.03054,   1.53678E-03
C:/temp/dataset/9/27_5.odb,Step-1,Increment      1: Step Time =    1.000,"PART-1-1",           768,      -7.47429,       25.8162,            0.,NA,NA,"",       18.0620,       17.6934,       3.63016,   800.178E-06
C:/temp/dataset/9/27_5.odb,Step-1,Increment      1: Step Time =    1.000,"PART-1-1",           769,       9.13729,   756.201E-03,            0.,NA,NA,"",       7.04852,       7.01781,  -657.255E-03,   12.3622E-03
C:/temp/dataset/9/27_5.odb,Step-1,Increment      1: Step Time =    1.000,"PART-1-1",           770,       7.76646,  -679.521E-03,            0.,NA,NA,"",       6.58156,       6.58099,  -87.0873E-03,   17.0523E-03
C:/temp/dataset/9/27_5.odb,Step-1,Increment      1: Step Time =    1.000,"PART-1-1",           771,       9.13358,  -706.311E-03,            0.,NA,NA,"",       6.50102,       6.47696,  -558.851E-03,   14.9300E-03
C:/temp/dataset/9/27_5.odb,Step-1,Increment      1: Step Time =    1.000,"PART-1-1",           772,       7.17869,      -1.72980,            0.,NA,NA,"",       6.23649,       6.23395,   178.174E-03,   18.9719E-03
C:/temp/dataset/9/27_5.odb,Step-1,Increment      1: Step Time =    1.000,"PART-1-1",           773,       6.08762,  -989.051E-03,            0.,NA,NA,"",       6.61063,       6.59019,   519.540E-03,   18.4880E-03
C:/temp/dataset/9/27_5.odb,Step-1,Increment      1: Step Time =    1.000,"PART-1-1",           774,       8.06590,       24.5744,            0.,NA,NA,"",       16.2637,       16.1369,      -2.02642,   1.92655E-03
C:/temp/dataset/9/27_5.odb,Step-1,Increment      1: Step Time =    1.000,"PART-1-1",           775,       7.69641,      -4.07963,            0.,NA,NA,"",       5.34173,       5.34016,   129.556E-03,   19.1100E-03
C:/temp/dataset/9/27_5.odb,Step-1,Increment      1: Step Time =    1.000,"PART-1-1",           776,       8.40687,      -2.58051,            0.,NA,NA,"",       5.84024,       5.83706,  -192.670E-03,   18.0538E-03
C:/temp/dataset/9/27_5.odb,Step-1,Increment      1: Step Time =    1.000,"PART-1-1",           777,      -9.00797,   684.990E-03,            0.,NA,NA,"",       10.2887,       8.33351,       6.03401,   1.59413E-03
C:/temp/dataset/9/27_5.odb,Step-1,Increment      1: Step Time =    1.000,"PART-1-1",           778,       5.05143,   63.4436E-03,            0.,NA,NA,"",       7.10901,       7.06049,   829.179E-03,   14.0607E-03
C:/temp/dataset/9/27_5.odb,Step-1,Increment      1: Step Time =    1.000,"PART-1-1",           779,      -3.45659,  -454.281E-03,            0.,NA,NA,"",       8.50408,       7.49398,       4.01990,   2.06515E-03
C:/temp/dataset/9/27_5.odb,Step-1,Increment      1: Step Time =    1.000,"PART-1-1",           780,      -7.58605,   993.377E-03,            0.,NA,NA,"",       9.97840,       8.34301,       5.47381,   1.90743E-03
