ODB Name,Step,Frame,Part Instance Name,    êﬂì_ÉâÉxÉã,X,Y,Z,Section Name,Material Name,Section Point,   U-Magnitude,          U-U1,          U-U2,       S-Mises
C:/temp/dataset/9/29_5.odb,Step-1,Increment      1: Step Time =    1.000,"PART-1-1",             1,            5.,           20.,            0.,NA,NA,"",       14.6711,      -14.0148,      -4.33897,   13.8298E-03
C:/temp/dataset/9/29_5.odb,Step-1,Increment      1: Step Time =    1.000,"PART-1-1",             2,            0.,           20.,            0.,NA,NA,"",       15.0441,      -13.6938,      -6.22931,   7.47096E-03
C:/temp/dataset/9/29_5.odb,Step-1,Increment      1: Step Time =    1.000,"PART-1-1",             3,            5.,          12.5,            0.,NA,NA,"",       11.6785,      -11.0666,      -3.73063,   6.02452E-03
C:/temp/dataset/9/29_5.odb,Step-1,Increment      1: Step Time =    1.000,"PART-1-1",             4,            5.,            5.,            0.,NA,NA,"",       8.79285,      -8.23523,      -3.08144,   18.1561E-03
C:/temp/dataset/9/29_5.odb,Step-1,Increment      1: Step Time =    1.000,"PART-1-1",             5,            0.,            5.,            0.,NA,NA,"",       9.35058,      -7.94333,      -4.93324,   12.8675E-03
C:/temp/dataset/9/29_5.odb,Step-1,Increment      1: Step Time =    1.000,"PART-1-1",             6,           -5.,            5.,            0.,NA,NA,"",       10.2507,      -7.61510,      -6.86201,   9.92110E-03
C:/temp/dataset/9/29_5.odb,Step-1,Increment      1: Step Time =    1.000,"PART-1-1",             7,           -5.,          12.5,            0.,NA,NA,"",       12.9435,      -10.5568,      -7.48924,   7.52289E-03
C:/temp/dataset/9/29_5.odb,Step-1,Increment      1: Step Time =    1.000,"PART-1-1",             8,           -5.,           20.,            0.,NA,NA,"",       15.6318,      -13.3695,      -8.09991,   7.34110E-03
C:/temp/dataset/9/29_5.odb,Step-1,Increment      1: Step Time =    1.000,"PART-1-1",             9,           15.,           30.,            0.,NA,NA,"",       18.6612,      -18.6191,      -1.25356,   106.519E-06
C:/temp/dataset/9/29_5.odb,Step-1,Increment      1: Step Time =    1.000,"PART-1-1",            10,           7.5,           30.,            0.,NA,NA,"",       18.5025,      -18.0342,      -4.13661,   3.15999E-03
C:/temp/dataset/9/29_5.odb,Step-1,Increment      1: Step Time =    1.000,"PART-1-1",            11,            0.,           30.,            0.,NA,NA,"",       18.7914,      -17.4508,      -6.97045,   2.99069E-03
C:/temp/dataset/9/29_5.odb,Step-1,Increment      1: Step Time =    1.000,"PART-1-1",            12,          -7.5,           30.,            0.,NA,NA,"",       19.5210,      -16.9042,      -9.76317,   593.737E-06
C:/temp/dataset/9/29_5.odb,Step-1,Increment      1: Step Time =    1.000,"PART-1-1",            13,          -15.,           30.,            0.,NA,NA,"",       20.6286,      -16.3670,      -12.5563,   51.3479E-06
C:/temp/dataset/9/29_5.odb,Step-1,Increment      1: Step Time =    1.000,"PART-1-1",            14,          -15.,         21.25,            0.,NA,NA,"",       17.7308,      -13.1109,      -11.9366,   3.75945E-03
C:/temp/dataset/9/29_5.odb,Step-1,Increment      1: Step Time =    1.000,"PART-1-1",            15,          -15.,          12.5,            0.,NA,NA,"",       14.9686,      -9.77936,      -11.3324,   6.30117E-03
C:/temp/dataset/9/29_5.odb,Step-1,Increment      1: Step Time =    1.000,"PART-1-1",            16,          -15.,          3.75,            0.,NA,NA,"",       12.4124,      -6.36422,      -10.6567,   1.23258E-03
C:/temp/dataset/9/29_5.odb,Step-1,Increment      1: Step Time =    1.000,"PART-1-1",            17,          -15.,           -5.,            0.,NA,NA,"",       10.3979,      -2.96996,      -9.96476,   73.9509E-06
C:/temp/dataset/9/29_5.odb,Step-1,Increment      1: Step Time =    1.000,"PART-1-1",            18,          -10.,           -5.,            0.,NA,NA,"",       8.70015,      -3.36395,      -8.02350,   1.27977E-03
C:/temp/dataset/9/29_5.odb,Step-1,Increment      1: Step Time =    1.000,"PART-1-1",            19,           -5.,           -5.,            0.,NA,NA,"",       7.16100,      -3.76623,      -6.09060,   4.31524E-03
C:/temp/dataset/9/29_5.odb,Step-1,Increment      1: Step Time =    1.000,"PART-1-1",            20,            0.,           -5.,            0.,NA,NA,"",       5.90594,      -4.16987,      -4.18238,   5.00783E-03
C:/temp/dataset/9/29_5.odb,Step-1,Increment      1: Step Time =    1.000,"PART-1-1",            21,            5.,           -5.,            0.,NA,NA,"",       5.11917,      -4.60458,      -2.23690,   52.7798E-03
C:/temp/dataset/9/29_5.odb,Step-1,Increment      1: Step Time =    1.000,"PART-1-1",            22,            5.,        -11.25,            0.,NA,NA,"",       3.23689,      -2.79812,      -1.62725,   60.6887E-03
C:/temp/dataset/9/29_5.odb,Step-1,Increment      1: Step Time =    1.000,"PART-1-1",            23,            5.,         -17.5,            0.,NA,NA,"",       1.73188,      -1.36236,      -1.06929,   74.3943E-03
C:/temp/dataset/9/29_5.odb,Step-1,Increment      1: Step Time =    1.000,"PART-1-1",            24,            5.,        -23.75,            0.,NA,NA,"",   684.183E-03,  -425.487E-03,  -535.787E-03,   88.1509E-03
C:/temp/dataset/9/29_5.odb,Step-1,Increment      1: Step Time =    1.000,"PART-1-1",            25,            5.,          -30.,            0.,NA,NA,"",            0.,  -26.5236E-39,  -49.8845E-39,   110.882E-03
C:/temp/dataset/9/29_5.odb,Step-1,Increment      1: Step Time =    1.000,"PART-1-1",            26,           15.,          -30.,            0.,NA,NA,"",            0.,  -36.0635E-39,   64.7611E-39,   116.340E-03
C:/temp/dataset/9/29_5.odb,Step-1,Increment      1: Step Time =    1.000,"PART-1-1",            27,           15.,         -22.5,            0.,NA,NA,"",   900.205E-03,  -665.468E-03,   606.235E-03,   87.6856E-03
C:/temp/dataset/9/29_5.odb,Step-1,Increment      1: Step Time =    1.000,"PART-1-1",            28,           15.,          -15.,            0.,NA,NA,"",       2.37770,      -2.15883,   996.442E-03,   71.0318E-03
C:/temp/dataset/9/29_5.odb,Step-1,Increment      1: Step Time =    1.000,"PART-1-1",            29,           15.,          -7.5,            0.,NA,NA,"",       4.50134,      -4.36453,       1.10132,   53.0993E-03
C:/temp/dataset/9/29_5.odb,Step-1,Increment      1: Step Time =    1.000,"PART-1-1",            30,           15.,            0.,            0.,NA,NA,"",       7.10385,      -7.04820,   887.464E-03,   25.4551E-03
C:/temp/dataset/9/29_5.odb,Step-1,Increment      1: Step Time =    1.000,"PART-1-1",            31,           15.,           7.5,            0.,NA,NA,"",       9.90606,      -9.89567,   453.556E-03,   12.6988E-03
C:/temp/dataset/9/29_5.odb,Step-1,Increment      1: Step Time =    1.000,"PART-1-1",            32,           15.,           15.,            0.,NA,NA,"",       12.8166,      -12.8163,  -76.5307E-03,   3.77007E-03
C:/temp/dataset/9/29_5.odb,Step-1,Increment      1: Step Time =    1.000,"PART-1-1",            33,           15.,          22.5,            0.,NA,NA,"",       15.7495,      -15.7352,  -669.375E-03,   2.23194E-03
C:/temp/dataset/9/29_5.odb,Step-1,Increment      1: Step Time =    1.000,"PART-1-1",            34,           2.5,           20.,            0.,NA,NA,"",       14.8335,      -13.8597,      -5.28608,   9.68611E-03
C:/temp/dataset/9/29_5.odb,Step-1,Increment      1: Step Time =    1.000,"PART-1-1",            35,            5.,           15.,            0.,NA,NA,"",       12.6658,      -12.0381,      -3.93790,   3.05766E-03
C:/temp/dataset/9/29_5.odb,Step-1,Increment      1: Step Time =    1.000,"PART-1-1",            36,            5.,          17.5,            0.,NA,NA,"",       13.6607,      -13.0176,      -4.14182,   2.57937E-03
C:/temp/dataset/9/29_5.odb,Step-1,Increment      1: Step Time =    1.000,"PART-1-1",            37,            5.,           7.5,            0.,NA,NA,"",       9.73475,      -9.15639,      -3.30542,   14.6143E-03
C:/temp/dataset/9/29_5.odb,Step-1,Increment      1: Step Time =    1.000,"PART-1-1",            38,            5.,           10.,            0.,NA,NA,"",       10.7004,      -10.1051,      -3.51946,   9.36722E-03
C:/temp/dataset/9/29_5.odb,Step-1,Increment      1: Step Time =    1.000,"PART-1-1",            39,           2.5,            5.,            0.,NA,NA,"",       9.02462,      -8.09553,      -3.98826,   14.2328E-03
C:/temp/dataset/9/29_5.odb,Step-1,Increment      1: Step Time =    1.000,"PART-1-1",            40,          -2.5,            5.,            0.,NA,NA,"",       9.75976,      -7.78022,      -5.89246,   11.3778E-03
C:/temp/dataset/9/29_5.odb,Step-1,Increment      1: Step Time =    1.000,"PART-1-1",            41,           -5.,           10.,            0.,NA,NA,"",       12.0328,      -9.58189,      -7.27837,   4.96139E-03
C:/temp/dataset/9/29_5.odb,Step-1,Increment      1: Step Time =    1.000,"PART-1-1",            42,           -5.,           7.5,            0.,NA,NA,"",       11.1373,      -8.60556,      -7.06997,   3.69653E-03
C:/temp/dataset/9/29_5.odb,Step-1,Increment      1: Step Time =    1.000,"PART-1-1",            43,           -5.,          17.5,            0.,NA,NA,"",       14.7547,      -12.4571,      -7.90710,   10.4275E-03
C:/temp/dataset/9/29_5.odb,Step-1,Increment      1: Step Time =    1.000,"PART-1-1",            44,           -5.,           15.,            0.,NA,NA,"",       13.8564,      -11.5182,      -7.70266,   9.88914E-03
C:/temp/dataset/9/29_5.odb,Step-1,Increment      1: Step Time =    1.000,"PART-1-1",            45,          -2.5,           20.,            0.,NA,NA,"",       15.3098,      -13.5278,      -7.16855,   7.27917E-03
C:/temp/dataset/9/29_5.odb,Step-1,Increment      1: Step Time =    1.000,"PART-1-1",            46,          12.5,           30.,            0.,NA,NA,"",       18.5590,      -18.4263,      -2.21593,   425.254E-06
C:/temp/dataset/9/29_5.odb,Step-1,Increment      1: Step Time =    1.000,"PART-1-1",            47,           10.,           30.,            0.,NA,NA,"",       18.5062,      -18.2313,      -3.17801,   1.73111E-03
C:/temp/dataset/9/29_5.odb,Step-1,Increment      1: Step Time =    1.000,"PART-1-1",            48,            5.,           30.,            0.,NA,NA,"",       18.5485,      -17.8368,      -5.08877,   4.00904E-03
C:/temp/dataset/9/29_5.odb,Step-1,Increment      1: Step Time =    1.000,"PART-1-1",            49,           2.5,           30.,            0.,NA,NA,"",       18.6448,      -17.6417,      -6.03312,   3.90078E-03
C:/temp/dataset/9/29_5.odb,Step-1,Increment      1: Step Time =    1.000,"PART-1-1",            50,          -2.5,           30.,            0.,NA,NA,"",       18.9875,      -17.2647,      -7.90290,   1.62870E-03
C:/temp/dataset/9/29_5.odb,Step-1,Increment      1: Step Time =    1.000,"PART-1-1",            51,           -5.,           30.,            0.,NA,NA,"",       19.2315,      -17.0830,      -8.83298,   253.709E-06
C:/temp/dataset/9/29_5.odb,Step-1,Increment      1: Step Time =    1.000,"PART-1-1",            52,          -10.,           30.,            0.,NA,NA,"",       19.8525,      -16.7258,      -10.6944,   551.833E-06
C:/temp/dataset/9/29_5.odb,Step-1,Increment      1: Step Time =    1.000,"PART-1-1",            53,         -12.5,           30.,            0.,NA,NA,"",       20.2225,      -16.5466,      -11.6258,   104.672E-06
C:/temp/dataset/9/29_5.odb,Step-1,Increment      1: Step Time =    1.000,"PART-1-1",            54,          -15.,       27.8125,            0.,NA,NA,"",       19.8907,      -15.5531,      -12.3993,   73.5017E-06
C:/temp/dataset/9/29_5.odb,Step-1,Increment      1: Step Time =    1.000,"PART-1-1",            55,          -15.,        25.625,            0.,NA,NA,"",       19.1613,      -14.7398,      -12.2430,   757.068E-06
C:/temp/dataset/9/29_5.odb,Step-1,Increment      1: Step Time =    1.000,"PART-1-1",            56,          -15.,       23.4375,            0.,NA,NA,"",       18.4411,      -13.9263,      -12.0885,   1.96112E-03
C:/temp/dataset/9/29_5.odb,Step-1,Increment      1: Step Time =    1.000,"PART-1-1",            57,          -15.,       19.0625,            0.,NA,NA,"",       17.0293,      -12.2907,      -11.7871,   5.81586E-03
C:/temp/dataset/9/29_5.odb,Step-1,Increment      1: Step Time =    1.000,"PART-1-1",            58,          -15.,        16.875,            0.,NA,NA,"",       16.3355,      -11.4628,      -11.6384,   7.29508E-03
C:/temp/dataset/9/29_5.odb,Step-1,Increment      1: Step Time =    1.000,"PART-1-1",            59,          -15.,       14.6875,            0.,NA,NA,"",       15.6483,      -10.6254,      -11.4878,   7.46589E-03
C:/temp/dataset/9/29_5.odb,Step-1,Increment      1: Step Time =    1.000,"PART-1-1",            60,          -15.,       10.3125,            0.,NA,NA,"",       14.2998,      -8.92714,      -11.1710,   4.27376E-03
C:/temp/dataset/9/29_5.odb,Step-1,Increment      1: Step Time =    1.000,"PART-1-1",            61,          -15.,         8.125,            0.,NA,NA,"",       13.6468,      -8.07197,      -11.0036,   1.97090E-03
C:/temp/dataset/9/29_5.odb,Step-1,Increment      1: Step Time =    1.000,"PART-1-1",            62,          -15.,        5.9375,            0.,NA,NA,"",       13.0155,      -7.21700,      -10.8314,   215.893E-06
C:/temp/dataset/9/29_5.odb,Step-1,Increment      1: Step Time =    1.000,"PART-1-1",            63,          -15.,        1.5625,            0.,NA,NA,"",       11.8437,      -5.51434,      -10.4817,   1.42738E-03
C:/temp/dataset/9/29_5.odb,Step-1,Increment      1: Step Time =    1.000,"PART-1-1",            64,          -15.,     -625.E-03,            0.,NA,NA,"",       11.3151,      -4.66639,      -10.3081,   859.011E-06
C:/temp/dataset/9/29_5.odb,Step-1,Increment      1: Step Time =    1.000,"PART-1-1",            65,          -15.,       -2.8125,            0.,NA,NA,"",       10.8316,      -3.81863,      -10.1361,   179.847E-06
C:/temp/dataset/9/29_5.odb,Step-1,Increment      1: Step Time =    1.000,"PART-1-1",            66,         -12.5,           -5.,            0.,NA,NA,"",       9.53522,      -3.16610,      -8.99424,   242.745E-06
C:/temp/dataset/9/29_5.odb,Step-1,Increment      1: Step Time =    1.000,"PART-1-1",            67,          -7.5,           -5.,            0.,NA,NA,"",       7.90394,      -3.56414,      -7.05472,   2.80027E-03
C:/temp/dataset/9/29_5.odb,Step-1,Increment      1: Step Time =    1.000,"PART-1-1",            68,          -2.5,           -5.,            0.,NA,NA,"",       6.48884,      -3.96876,      -5.13362,   5.53242E-03
C:/temp/dataset/9/29_5.odb,Step-1,Increment      1: Step Time =    1.000,"PART-1-1",            69,           2.5,           -5.,            0.,NA,NA,"",       5.43417,      -4.36948,      -3.23076,   12.5793E-03
C:/temp/dataset/9/29_5.odb,Step-1,Increment      1: Step Time =    1.000,"PART-1-1",            70,            5.,      -7.08333,            0.,NA,NA,"",       4.46134,      -3.97980,      -2.01611,   59.1830E-03
C:/temp/dataset/9/29_5.odb,Step-1,Increment      1: Step Time =    1.000,"PART-1-1",            71,            5.,      -9.16667,            0.,NA,NA,"",       3.83095,      -3.37050,      -1.82096,   55.4853E-03
C:/temp/dataset/9/29_5.odb,Step-1,Increment      1: Step Time =    1.000,"PART-1-1",            72,            5.,      -13.3333,            0.,NA,NA,"",       2.68654,      -2.26966,      -1.43741,   65.0707E-03
C:/temp/dataset/9/29_5.odb,Step-1,Increment      1: Step Time =    1.000,"PART-1-1",            73,            5.,      -15.4167,            0.,NA,NA,"",       2.18411,      -1.78995,      -1.25157,   69.8007E-03
C:/temp/dataset/9/29_5.odb,Step-1,Increment      1: Step Time =    1.000,"PART-1-1",            74,            5.,      -19.5833,            0.,NA,NA,"",       1.33140,  -990.254E-03,  -889.951E-03,   78.9862E-03
C:/temp/dataset/9/29_5.odb,Step-1,Increment      1: Step Time =    1.000,"PART-1-1",            75,            5.,      -21.6667,            0.,NA,NA,"",   982.736E-03,  -676.724E-03,  -712.610E-03,   83.4722E-03
C:/temp/dataset/9/29_5.odb,Step-1,Increment      1: Step Time =    1.000,"PART-1-1",            76,            5.,      -25.8333,            0.,NA,NA,"",   431.035E-03,  -237.662E-03,  -359.595E-03,   90.5473E-03
C:/temp/dataset/9/29_5.odb,Step-1,Increment      1: Step Time =    1.000,"PART-1-1",            77,            5.,      -27.9167,            0.,NA,NA,"",   216.277E-03,  -114.380E-03,  -183.556E-03,   99.6886E-03
C:/temp/dataset/9/29_5.odb,Step-1,Increment      1: Step Time =    1.000,"PART-1-1",            78,           7.5,          -30.,            0.,NA,NA,"",            0.,   9.36927E-39,  -218.113E-39,   35.4054E-03
C:/temp/dataset/9/29_5.odb,Step-1,Increment      1: Step Time =    1.000,"PART-1-1",            79,           10.,          -30.,            0.,NA,NA,"",            0.,   38.6463E-39,   17.0827E-39,   11.8308E-03
C:/temp/dataset/9/29_5.odb,Step-1,Increment      1: Step Time =    1.000,"PART-1-1",            80,          12.5,          -30.,            0.,NA,NA,"",            0.,  -84.9059E-39,   202.820E-39,   37.2607E-03
C:/temp/dataset/9/29_5.odb,Step-1,Increment      1: Step Time =    1.000,"PART-1-1",            81,           15.,         -27.5,            0.,NA,NA,"",   273.187E-03,  -158.929E-03,   222.199E-03,   99.2619E-03
C:/temp/dataset/9/29_5.odb,Step-1,Increment      1: Step Time =    1.000,"PART-1-1",            82,           15.,          -25.,            0.,NA,NA,"",   555.247E-03,  -360.396E-03,   422.391E-03,   91.4800E-03
C:/temp/dataset/9/29_5.odb,Step-1,Increment      1: Step Time =    1.000,"PART-1-1",            83,           15.,          -20.,            0.,NA,NA,"",       1.31683,      -1.07137,   765.636E-03,   82.0463E-03
C:/temp/dataset/9/29_5.odb,Step-1,Increment      1: Step Time =    1.000,"PART-1-1",            84,           15.,         -17.5,            0.,NA,NA,"",       1.80945,      -1.57182,   896.365E-03,   76.6153E-03
C:/temp/dataset/9/29_5.odb,Step-1,Increment      1: Step Time =    1.000,"PART-1-1",            85,           15.,         -12.5,            0.,NA,NA,"",       3.01868,      -2.82473,       1.06460,   65.4942E-03
C:/temp/dataset/9/29_5.odb,Step-1,Increment      1: Step Time =    1.000,"PART-1-1",            86,           15.,          -10.,            0.,NA,NA,"",       3.72828,      -3.56232,       1.10000,   59.7610E-03
C:/temp/dataset/9/29_5.odb,Step-1,Increment      1: Step Time =    1.000,"PART-1-1",            87,           15.,           -5.,            0.,NA,NA,"",       5.33007,      -5.22234,       1.06622,   44.5374E-03
C:/temp/dataset/9/29_5.odb,Step-1,Increment      1: Step Time =    1.000,"PART-1-1",            88,           15.,          -2.5,            0.,NA,NA,"",       6.20237,      -6.12227,   993.600E-03,   34.5837E-03
C:/temp/dataset/9/29_5.odb,Step-1,Increment      1: Step Time =    1.000,"PART-1-1",            89,           15.,           2.5,            0.,NA,NA,"",       8.02398,      -7.98820,   756.912E-03,   18.9715E-03
C:/temp/dataset/9/29_5.odb,Step-1,Increment      1: Step Time =    1.000,"PART-1-1",            90,           15.,            5.,            0.,NA,NA,"",       8.95823,      -8.93739,   610.667E-03,   15.1962E-03
C:/temp/dataset/9/29_5.odb,Step-1,Increment      1: Step Time =    1.000,"PART-1-1",            91,           15.,           10.,            0.,NA,NA,"",       10.8669,      -10.8632,   286.584E-03,   10.0926E-03
C:/temp/dataset/9/29_5.odb,Step-1,Increment      1: Step Time =    1.000,"PART-1-1",            92,           15.,          12.5,            0.,NA,NA,"",       11.8384,      -11.8379,   109.702E-03,   7.05864E-03
C:/temp/dataset/9/29_5.odb,Step-1,Increment      1: Step Time =    1.000,"PART-1-1",            93,           15.,          17.5,            0.,NA,NA,"",       13.7970,      -13.7943,  -270.538E-03,   699.860E-06
C:/temp/dataset/9/29_5.odb,Step-1,Increment      1: Step Time =    1.000,"PART-1-1",            94,           15.,           20.,            0.,NA,NA,"",       14.7754,      -14.7679,  -469.453E-03,   1.52262E-03
C:/temp/dataset/9/29_5.odb,Step-1,Increment      1: Step Time =    1.000,"PART-1-1",            95,           15.,           25.,            0.,NA,NA,"",       16.7198,      -16.6973,  -866.938E-03,   1.56046E-03
C:/temp/dataset/9/29_5.odb,Step-1,Increment      1: Step Time =    1.000,"PART-1-1",            96,           15.,          27.5,            0.,NA,NA,"",       17.6895,      -17.6576,      -1.06113,   420.279E-06
C:/temp/dataset/9/29_5.odb,Step-1,Increment      1: Step Time =    1.000,"PART-1-1",            97,       7.09255,      -21.6558,            0.,NA,NA,"",   756.655E-03,  -637.919E-03,  -406.922E-03,   47.3185E-03
C:/temp/dataset/9/29_5.odb,Step-1,Increment      1: Step Time =    1.000,"PART-1-1",            98,       7.09346,      -17.4368,            0.,NA,NA,"",       1.50643,      -1.36343,  -640.622E-03,   42.3829E-03
C:/temp/dataset/9/29_5.odb,Step-1,Increment      1: Step Time =    1.000,"PART-1-1",            99,       7.15828,      -23.7452,            0.,NA,NA,"",   473.263E-03,  -372.293E-03,  -292.191E-03,   48.4961E-03
C:/temp/dataset/9/29_5.odb,Step-1,Increment      1: Step Time =    1.000,"PART-1-1",           100,       7.44609,      -27.8729,            0.,NA,NA,"",   93.9485E-03,  -46.2240E-03,  -81.7904E-03,   49.0120E-03
C:/temp/dataset/9/29_5.odb,Step-1,Increment      1: Step Time =    1.000,"PART-1-1",           101,       7.30780,      -25.7939,            0.,NA,NA,"",   250.403E-03,  -174.857E-03,  -179.239E-03,   49.8338E-03
C:/temp/dataset/9/29_5.odb,Step-1,Increment      1: Step Time =    1.000,"PART-1-1",           102,       7.08258,      -10.9526,            0.,NA,NA,"",       3.10425,      -2.91694,      -1.06198,   34.7934E-03
C:/temp/dataset/9/29_5.odb,Step-1,Increment      1: Step Time =    1.000,"PART-1-1",           103,       7.09950,      -13.1236,            0.,NA,NA,"",       2.51328,      -2.34326,  -908.674E-03,   37.2963E-03
C:/temp/dataset/9/29_5.odb,Step-1,Increment      1: Step Time =    1.000,"PART-1-1",           104,       6.95448,      -6.62029,            0.,NA,NA,"",       4.43065,      -4.19611,      -1.42244,   27.4797E-03
C:/temp/dataset/9/29_5.odb,Step-1,Increment      1: Step Time =    1.000,"PART-1-1",           105,       7.04974,      -8.78764,            0.,NA,NA,"",       3.74287,      -3.53491,      -1.23023,   33.1288E-03
C:/temp/dataset/9/29_5.odb,Step-1,Increment      1: Step Time =    1.000,"PART-1-1",           106,       7.10540,      -15.2896,            0.,NA,NA,"",       1.97826,      -1.82319,  -767.800E-03,   39.7104E-03
C:/temp/dataset/9/29_5.odb,Step-1,Increment      1: Step Time =    1.000,"PART-1-1",           107,       7.08223,      -19.5608,            0.,NA,NA,"",       1.09923,  -967.565E-03,  -521.658E-03,   45.0189E-03
C:/temp/dataset/9/29_5.odb,Step-1,Increment      1: Step Time =    1.000,"PART-1-1",           108,      -11.8989,       25.3809,            0.,NA,NA,"",       18.5404,      -14.8726,      -11.0704,   1.56181E-03
C:/temp/dataset/9/29_5.odb,Step-1,Increment      1: Step Time =    1.000,"PART-1-1",           109,      -12.7134,       3.51066,            0.,NA,NA,"",       11.6884,      -6.44997,      -9.74766,   1.30939E-03
C:/temp/dataset/9/29_5.odb,Step-1,Increment      1: Step Time =    1.000,"PART-1-1",           110,      -13.0834,       10.3867,            0.,NA,NA,"",       13.8513,      -9.10830,      -10.4354,   3.53973E-03
C:/temp/dataset/9/29_5.odb,Step-1,Increment      1: Step Time =    1.000,"PART-1-1",           111,      -12.9355,       8.20912,            0.,NA,NA,"",       13.1368,      -8.26840,      -10.2083,   3.02480E-03
C:/temp/dataset/9/29_5.odb,Step-1,Increment      1: Step Time =    1.000,"PART-1-1",           112,      -13.1801,       12.5484,            0.,NA,NA,"",       14.5599,      -9.94217,      -10.6369,   4.00828E-03
C:/temp/dataset/9/29_5.odb,Step-1,Increment      1: Step Time =    1.000,"PART-1-1",           113,      -12.7454,       20.6010,            0.,NA,NA,"",       17.0878,      -13.0354,      -11.0486,   3.45462E-03
C:/temp/dataset/9/29_5.odb,Step-1,Increment      1: Step Time =    1.000,"PART-1-1",           114,      -13.1621,       18.5389,            0.,NA,NA,"",       16.4918,      -12.2324,      -11.0610,   4.02969E-03
C:/temp/dataset/9/29_5.odb,Step-1,Increment      1: Step Time =    1.000,"PART-1-1",           115,      -12.3840,       22.8683,            0.,NA,NA,"",       17.7752,      -13.9051,      -11.0729,   2.63471E-03
C:/temp/dataset/9/29_5.odb,Step-1,Increment      1: Step Time =    1.000,"PART-1-1",           116,      -13.4658,       16.5948,            0.,NA,NA,"",       15.9225,      -11.4744,      -11.0393,   4.66269E-03
C:/temp/dataset/9/29_5.odb,Step-1,Increment      1: Step Time =    1.000,"PART-1-1",           117,      -13.3466,       14.6489,            0.,NA,NA,"",       15.2703,      -10.7401,      -10.8550,   4.46427E-03
C:/temp/dataset/9/29_5.odb,Step-1,Increment      1: Step Time =    1.000,"PART-1-1",           118,      -12.3609,       5.76892,            0.,NA,NA,"",       12.2482,      -7.35841,      -9.79141,   2.52468E-03
C:/temp/dataset/9/29_5.odb,Step-1,Increment      1: Step Time =    1.000,"PART-1-1",           119,      -12.8583,       1.39410,            0.,NA,NA,"",       11.1528,      -5.61621,      -9.63555,   1.04599E-03
C:/temp/dataset/9/29_5.odb,Step-1,Increment      1: Step Time =    1.000,"PART-1-1",           120,      -12.6304,  -685.754E-03,            0.,NA,NA,"",       10.5521,      -4.82812,      -9.38275,   1.15899E-03
C:/temp/dataset/9/29_5.odb,Step-1,Increment      1: Step Time =    1.000,"PART-1-1",           121,   38.5673E-03,       27.2989,            0.,NA,NA,"",       17.7734,      -16.4376,      -6.75993,   1.67075E-03
C:/temp/dataset/9/29_5.odb,Step-1,Increment      1: Step Time =    1.000,"PART-1-1",           122,      -4.16985,       22.2766,            0.,NA,NA,"",       16.3314,      -14.2606,      -7.95921,   4.10507E-03
C:/temp/dataset/9/29_5.odb,Step-1,Increment      1: Step Time =    1.000,"PART-1-1",           123,      -7.85548,       28.0855,            0.,NA,NA,"",       18.8826,      -16.1663,      -9.75729,   840.859E-06
C:/temp/dataset/9/29_5.odb,Step-1,Increment      1: Step Time =    1.000,"PART-1-1",           124,       9.92813,      -27.7267,            0.,NA,NA,"",   33.7264E-03,  -33.6917E-03,   1.53030E-03,   10.8022E-03
C:/temp/dataset/9/29_5.odb,Step-1,Increment      1: Step Time =    1.000,"PART-1-1",           125,       13.1106,      -17.4438,            0.,NA,NA,"",       1.58572,      -1.49467,   529.598E-03,   48.9893E-03
C:/temp/dataset/9/29_5.odb,Step-1,Increment      1: Step Time =    1.000,"PART-1-1",           126,       12.8150,       2.64061,            0.,NA,NA,"",       7.87458,      -7.87442,  -50.0476E-03,   12.9981E-03
C:/temp/dataset/9/29_5.odb,Step-1,Increment      1: Step Time =    1.000,"PART-1-1",           127,       7.56819,       12.3225,            0.,NA,NA,"",       11.5186,      -11.1921,      -2.72329,   5.17518E-03
C:/temp/dataset/9/29_5.odb,Step-1,Increment      1: Step Time =    1.000,"PART-1-1",           128,       7.47113,       19.8748,            0.,NA,NA,"",       14.5411,      -14.1450,      -3.37069,   6.18443E-03
C:/temp/dataset/9/29_5.odb,Step-1,Increment      1: Step Time =    1.000,"PART-1-1",           129,       12.4223,       27.5153,            0.,NA,NA,"",       17.5854,      -17.4649,      -2.05511,   1.33187E-03
C:/temp/dataset/9/29_5.odb,Step-1,Increment      1: Step Time =    1.000,"PART-1-1",           130,       12.3750,       22.5091,            0.,NA,NA,"",       15.6279,      -15.5368,      -1.68534,   1.06738E-03
C:/temp/dataset/9/29_5.odb,Step-1,Increment      1: Step Time =    1.000,"PART-1-1",           131,       7.58839,       27.9970,            0.,NA,NA,"",       17.7203,      -17.2739,      -3.95224,   1.84797E-03
C:/temp/dataset/9/29_5.odb,Step-1,Increment      1: Step Time =    1.000,"PART-1-1",           132,   199.805E-03,       22.3057,            0.,NA,NA,"",       15.8845,      -14.5695,      -6.32834,   5.40671E-03
C:/temp/dataset/9/29_5.odb,Step-1,Increment      1: Step Time =    1.000,"PART-1-1",           133,       12.6934,       9.82310,            0.,NA,NA,"",       10.6269,      -10.6110,  -580.410E-03,   7.25100E-03
C:/temp/dataset/9/29_5.odb,Step-1,Increment      1: Step Time =    1.000,"PART-1-1",           134,      -7.14717,       12.7802,            0.,NA,NA,"",       13.4116,      -10.4991,      -8.34494,   5.56066E-03
C:/temp/dataset/9/29_5.odb,Step-1,Increment      1: Step Time =    1.000,"PART-1-1",           135,      -6.86178,       17.9412,            0.,NA,NA,"",       15.1827,      -12.4851,      -8.63931,   5.34064E-03
C:/temp/dataset/9/29_5.odb,Step-1,Increment      1: Step Time =    1.000,"PART-1-1",           136,      -2.68307,      -2.95682,            0.,NA,NA,"",       7.15004,      -4.73747,      -5.35531,   3.19503E-03
C:/temp/dataset/9/29_5.odb,Step-1,Increment      1: Step Time =    1.000,"PART-1-1",           137,      -7.59808,      -3.03341,            0.,NA,NA,"",       8.43298,      -4.31743,      -7.24396,   2.23565E-03
C:/temp/dataset/9/29_5.odb,Step-1,Increment      1: Step Time =    1.000,"PART-1-1",           138,  -248.196E-03,       2.69947,            0.,NA,NA,"",       8.56860,      -7.06424,      -4.84948,   6.50667E-03
C:/temp/dataset/9/29_5.odb,Step-1,Increment      1: Step Time =    1.000,"PART-1-1",           139,       2.16631,      -2.47375,            0.,NA,NA,"",       6.37660,      -5.29961,      -3.54615,   9.05160E-03
C:/temp/dataset/9/29_5.odb,Step-1,Increment      1: Step Time =    1.000,"PART-1-1",           140,       4.39271,       2.43636,            0.,NA,NA,"",       7.89976,      -7.26822,      -3.09503,   14.3638E-03
C:/temp/dataset/9/29_5.odb,Step-1,Increment      1: Step Time =    1.000,"PART-1-1",           141,       12.9283,      -5.27800,            0.,NA,NA,"",       4.99227,      -4.97633,   398.641E-03,   29.6016E-03
C:/temp/dataset/9/29_5.odb,Step-1,Increment      1: Step Time =    1.000,"PART-1-1",           142,       13.0847,      -12.6172,            0.,NA,NA,"",       2.74312,      -2.68215,   575.131E-03,   41.7304E-03
C:/temp/dataset/9/29_5.odb,Step-1,Increment      1: Step Time =    1.000,"PART-1-1",           143,       12.4838,       17.4790,            0.,NA,NA,"",       13.6452,      -13.5883,      -1.24490,   3.88706E-03
C:/temp/dataset/9/29_5.odb,Step-1,Increment      1: Step Time =    1.000,"PART-1-1",           144,       2.63438,       22.2143,            0.,NA,NA,"",       15.6644,      -14.7027,      -5.40417,   6.55575E-03
C:/temp/dataset/9/29_5.odb,Step-1,Increment      1: Step Time =    1.000,"PART-1-1",           145,       7.54366,       14.9275,            0.,NA,NA,"",       12.5571,      -12.2072,      -2.94330,   4.66822E-03
C:/temp/dataset/9/29_5.odb,Step-1,Increment      1: Step Time =    1.000,"PART-1-1",           146,       7.50510,       17.4443,            0.,NA,NA,"",       13.5656,      -13.1921,      -3.16140,   6.25768E-03
C:/temp/dataset/9/29_5.odb,Step-1,Increment      1: Step Time =    1.000,"PART-1-1",           147,       7.12790,       7.03873,            0.,NA,NA,"",       9.45677,      -9.13035,      -2.46316,   8.11875E-03
C:/temp/dataset/9/29_5.odb,Step-1,Increment      1: Step Time =    1.000,"PART-1-1",           148,       7.48952,       9.64170,            0.,NA,NA,"",       10.4614,      -10.1494,      -2.53585,   6.64421E-03
C:/temp/dataset/9/29_5.odb,Step-1,Increment      1: Step Time =    1.000,"PART-1-1",           149,       2.16717,       2.56251,            0.,NA,NA,"",       8.17986,      -7.17569,      -3.92679,   6.73957E-03
C:/temp/dataset/9/29_5.odb,Step-1,Increment      1: Step Time =    1.000,"PART-1-1",           150,      -2.68606,       3.12146,            0.,NA,NA,"",       9.14149,      -7.05283,      -5.81588,   6.75840E-03
C:/temp/dataset/9/29_5.odb,Step-1,Increment      1: Step Time =    1.000,"PART-1-1",           151,      -7.08307,       10.2840,            0.,NA,NA,"",       12.5179,      -9.53153,      -8.11463,   4.69255E-03
C:/temp/dataset/9/29_5.odb,Step-1,Increment      1: Step Time =    1.000,"PART-1-1",           152,      -2.13928,       22.2031,            0.,NA,NA,"",       16.0729,      -14.3713,      -7.19738,   4.35483E-03
C:/temp/dataset/9/29_5.odb,Step-1,Increment      1: Step Time =    1.000,"PART-1-1",           153,       9.90766,       27.6812,            0.,NA,NA,"",       17.5974,      -17.3333,      -3.03703,   1.77919E-03
C:/temp/dataset/9/29_5.odb,Step-1,Increment      1: Step Time =    1.000,"PART-1-1",           154,       5.18317,       27.8350,            0.,NA,NA,"",       17.7059,      -17.0261,      -4.85886,   1.62193E-03
C:/temp/dataset/9/29_5.odb,Step-1,Increment      1: Step Time =    1.000,"PART-1-1",           155,       2.70091,       27.4744,            0.,NA,NA,"",       17.6703,      -16.7008,      -5.77257,   1.27209E-03
C:/temp/dataset/9/29_5.odb,Step-1,Increment      1: Step Time =    1.000,"PART-1-1",           156,      -2.92570,       26.9909,            0.,NA,NA,"",       17.9163,      -16.1081,      -7.84358,   2.06651E-03
C:/temp/dataset/9/29_5.odb,Step-1,Increment      1: Step Time =    1.000,"PART-1-1",           157,      -5.52449,       27.7330,            0.,NA,NA,"",       18.4671,      -16.2006,      -8.86435,   1.39359E-03
C:/temp/dataset/9/29_5.odb,Step-1,Increment      1: Step Time =    1.000,"PART-1-1",           158,      -10.1759,       28.1970,            0.,NA,NA,"",       19.2445,      -16.0423,      -10.6299,   737.597E-06
C:/temp/dataset/9/29_5.odb,Step-1,Increment      1: Step Time =    1.000,"PART-1-1",           159,      -7.15795,       15.3782,            0.,NA,NA,"",       14.3317,      -11.4975,      -8.55594,   4.64261E-03
C:/temp/dataset/9/29_5.odb,Step-1,Increment      1: Step Time =    1.000,"PART-1-1",           160,      -7.10855,       7.92361,            0.,NA,NA,"",       11.7032,      -8.60711,      -7.92984,   3.76122E-03
C:/temp/dataset/9/29_5.odb,Step-1,Increment      1: Step Time =    1.000,"PART-1-1",           161,      -7.31416,       5.72319,            0.,NA,NA,"",       10.9998,      -7.72707,      -7.82870,   5.33737E-03
C:/temp/dataset/9/29_5.odb,Step-1,Increment      1: Step Time =    1.000,"PART-1-1",           162,      -10.0288,      -2.82434,            0.,NA,NA,"",       9.21895,      -4.20527,      -8.20395,   1.62128E-03
C:/temp/dataset/9/29_5.odb,Step-1,Increment      1: Step Time =    1.000,"PART-1-1",           163,      -5.14639,      -3.11924,            0.,NA,NA,"",       7.72159,      -4.47969,      -6.28930,   2.88522E-03
C:/temp/dataset/9/29_5.odb,Step-1,Increment      1: Step Time =    1.000,"PART-1-1",           164,  -261.821E-03,      -2.60038,            0.,NA,NA,"",       6.74773,      -5.06479,      -4.45868,   4.58742E-03
C:/temp/dataset/9/29_5.odb,Step-1,Increment      1: Step Time =    1.000,"PART-1-1",           165,       4.38015,      -2.33295,            0.,NA,NA,"",       6.14920,      -5.51767,      -2.71440,   15.8446E-03
C:/temp/dataset/9/29_5.odb,Step-1,Increment      1: Step Time =    1.000,"PART-1-1",           166,       13.0639,      -10.1924,            0.,NA,NA,"",       3.42717,      -3.38185,   555.520E-03,   38.1005E-03
C:/temp/dataset/9/29_5.odb,Step-1,Increment      1: Step Time =    1.000,"PART-1-1",           167,       13.0843,      -19.8267,            0.,NA,NA,"",       1.12063,      -1.02052,   462.972E-03,   52.1079E-03
C:/temp/dataset/9/29_5.odb,Step-1,Increment      1: Step Time =    1.000,"PART-1-1",           168,       12.4446,      -27.5067,            0.,NA,NA,"",   128.478E-03,  -80.3639E-03,   100.241E-03,   53.8591E-03
C:/temp/dataset/9/29_5.odb,Step-1,Increment      1: Step Time =    1.000,"PART-1-1",           169,       12.9329,      -22.1971,            0.,NA,NA,"",   724.302E-03,  -628.048E-03,   360.790E-03,   52.8164E-03
C:/temp/dataset/9/29_5.odb,Step-1,Increment      1: Step Time =    1.000,"PART-1-1",           170,       13.1086,      -15.0383,            0.,NA,NA,"",       2.12783,      -2.05065,   567.881E-03,   45.5065E-03
C:/temp/dataset/9/29_5.odb,Step-1,Increment      1: Step Time =    1.000,"PART-1-1",           171,       13.0208,      -7.75462,            0.,NA,NA,"",       4.17625,      -4.14611,   500.776E-03,   34.2172E-03
C:/temp/dataset/9/29_5.odb,Step-1,Increment      1: Step Time =    1.000,"PART-1-1",           172,       12.7756,      -2.70708,            0.,NA,NA,"",       5.88743,      -5.88257,   239.274E-03,   23.8789E-03
C:/temp/dataset/9/29_5.odb,Step-1,Increment      1: Step Time =    1.000,"PART-1-1",           173,       12.6338,  -14.4220E-03,            0.,NA,NA,"",       6.86578,      -6.86562,   45.8011E-03,   17.6406E-03
C:/temp/dataset/9/29_5.odb,Step-1,Increment      1: Step Time =    1.000,"PART-1-1",           174,       13.0186,       5.13380,            0.,NA,NA,"",       8.83513,      -8.83410,  -135.104E-03,   10.6318E-03
C:/temp/dataset/9/29_5.odb,Step-1,Increment      1: Step Time =    1.000,"PART-1-1",           175,       13.0709,       7.51902,            0.,NA,NA,"",       9.75443,      -9.75054,  -275.424E-03,   8.99659E-03
C:/temp/dataset/9/29_5.odb,Step-1,Increment      1: Step Time =    1.000,"PART-1-1",           176,       12.5119,       12.3699,            0.,NA,NA,"",       11.6189,      -11.5887,  -837.821E-03,   6.03441E-03
C:/temp/dataset/9/29_5.odb,Step-1,Increment      1: Step Time =    1.000,"PART-1-1",           177,       12.4863,       14.9454,            0.,NA,NA,"",       12.6385,      -12.5953,      -1.04507,   5.05402E-03
C:/temp/dataset/9/29_5.odb,Step-1,Increment      1: Step Time =    1.000,"PART-1-1",           178,       12.4500,       19.9932,            0.,NA,NA,"",       14.6402,      -14.5674,      -1.45749,   2.27099E-03
C:/temp/dataset/9/29_5.odb,Step-1,Increment      1: Step Time =    1.000,"PART-1-1",           179,       9.19048,      -23.6482,            0.,NA,NA,"",   379.395E-03,  -370.507E-03,  -81.6426E-03,   15.2657E-03
C:/temp/dataset/9/29_5.odb,Step-1,Increment      1: Step Time =    1.000,"PART-1-1",           180,       9.11932,      -19.5624,            0.,NA,NA,"",   989.510E-03,  -973.279E-03,  -178.486E-03,   15.1431E-03
C:/temp/dataset/9/29_5.odb,Step-1,Increment      1: Step Time =    1.000,"PART-1-1",           181,       9.13323,      -12.9344,            0.,NA,NA,"",       2.47143,      -2.43788,  -405.852E-03,   13.6874E-03
C:/temp/dataset/9/29_5.odb,Step-1,Increment      1: Step Time =    1.000,"PART-1-1",           182,       9.14303,      -17.4019,            0.,NA,NA,"",       1.40900,      -1.38903,  -236.374E-03,   14.4794E-03
C:/temp/dataset/9/29_5.odb,Step-1,Increment      1: Step Time =    1.000,"PART-1-1",           183,       9.11260,      -10.6744,            0.,NA,NA,"",       3.09941,      -3.05597,  -517.100E-03,   13.0877E-03
C:/temp/dataset/9/29_5.odb,Step-1,Increment      1: Step Time =    1.000,"PART-1-1",           184,       9.06671,      -8.40676,            0.,NA,NA,"",       3.78410,      -3.72778,  -650.433E-03,   12.1252E-03
C:/temp/dataset/9/29_5.odb,Step-1,Increment      1: Step Time =    1.000,"PART-1-1",           185,       9.15359,      -15.1846,            0.,NA,NA,"",       1.90492,      -1.87952,  -310.047E-03,   13.9785E-03
C:/temp/dataset/9/29_5.odb,Step-1,Increment      1: Step Time =    1.000,"PART-1-1",           186,       9.09437,      -21.6308,            0.,NA,NA,"",   650.457E-03,  -636.883E-03,  -132.190E-03,   15.8625E-03
C:/temp/dataset/9/29_5.odb,Step-1,Increment      1: Step Time =    1.000,"PART-1-1",           187,       8.94944,      -6.10597,            0.,NA,NA,"",       4.53414,      -4.45928,  -820.558E-03,   13.2652E-03
C:/temp/dataset/9/29_5.odb,Step-1,Increment      1: Step Time =    1.000,"PART-1-1",           188,      -11.3189,       17.6054,            0.,NA,NA,"",       15.8293,      -12.0210,      -10.2986,   3.21968E-03
C:/temp/dataset/9/29_5.odb,Step-1,Increment      1: Step Time =    1.000,"PART-1-1",           189,      -10.4260,       2.85148,            0.,NA,NA,"",       10.8683,      -6.37063,      -8.80539,   2.29446E-03
C:/temp/dataset/9/29_5.odb,Step-1,Increment      1: Step Time =    1.000,"PART-1-1",           190,      -12.4413,       27.8959,            0.,NA,NA,"",       19.4883,      -15.7680,      -11.4527,   550.921E-06
C:/temp/dataset/9/29_5.odb,Step-1,Increment      1: Step Time =    1.000,"PART-1-1",           191,      -10.6658,       19.6683,            0.,NA,NA,"",       16.3999,      -12.8425,      -10.1994,   3.93664E-03
C:/temp/dataset/9/29_5.odb,Step-1,Increment      1: Step Time =    1.000,"PART-1-1",           192,      -12.1118,       16.4066,            0.,NA,NA,"",       15.5861,      -11.5069,      -10.5128,   3.15761E-03
C:/temp/dataset/9/29_5.odb,Step-1,Increment      1: Step Time =    1.000,"PART-1-1",           193,      -11.5166,       14.9043,            0.,NA,NA,"",       14.9710,      -10.9799,      -10.1771,   2.67106E-03
C:/temp/dataset/9/29_5.odb,Step-1,Increment      1: Step Time =    1.000,"PART-1-1",           194,      -11.2054,       12.7278,            0.,NA,NA,"",       14.1858,      -10.1654,      -9.89460,   3.33525E-03
C:/temp/dataset/9/29_5.odb,Step-1,Increment      1: Step Time =    1.000,"PART-1-1",           195,      -11.1139,       10.5020,            0.,NA,NA,"",       13.4328,      -9.30670,      -9.68639,   3.99502E-03
C:/temp/dataset/9/29_5.odb,Step-1,Increment      1: Step Time =    1.000,"PART-1-1",           196,      -9.42029,       24.1195,            0.,NA,NA,"",       17.7114,      -14.5820,      -10.0528,   2.78866E-03
C:/temp/dataset/9/29_5.odb,Step-1,Increment      1: Step Time =    1.000,"PART-1-1",           197,      -11.0759,       8.46025,            0.,NA,NA,"",       12.7622,      -8.51133,      -9.50954,   4.01749E-03
C:/temp/dataset/9/29_5.odb,Step-1,Increment      1: Step Time =    1.000,"PART-1-1",           198,      -10.9473,       6.84821,            0.,NA,NA,"",       12.2191,      -7.89004,      -9.33028,   3.68830E-03
C:/temp/dataset/9/29_5.odb,Step-1,Increment      1: Step Time =    1.000,"PART-1-1",           199,       9.64075,      -25.5803,            0.,NA,NA,"",   176.325E-03,  -175.217E-03,  -19.7364E-03,   10.9062E-03
C:/temp/dataset/9/29_5.odb,Step-1,Increment      1: Step Time =    1.000,"PART-1-1",           200,       6.22595,      -2.03957,            0.,NA,NA,"",       6.09397,      -5.73805,      -2.05214,   22.5466E-03
C:/temp/dataset/9/29_5.odb,Step-1,Increment      1: Step Time =    1.000,"PART-1-1",           201,       6.24072,       2.15031,            0.,NA,NA,"",       7.65546,      -7.27041,      -2.39734,   17.3932E-03
C:/temp/dataset/9/29_5.odb,Step-1,Increment      1: Step Time =    1.000,"PART-1-1",           202,      -7.69234,       3.89067,            0.,NA,NA,"",       10.4870,      -6.98206,      -7.82481,   5.15468E-03
C:/temp/dataset/9/29_5.odb,Step-1,Increment      1: Step Time =    1.000,"PART-1-1",           203,       7.31807,       22.0589,            0.,NA,NA,"",       15.4082,      -14.9807,      -3.60411,   3.73409E-03
C:/temp/dataset/9/29_5.odb,Step-1,Increment      1: Step Time =    1.000,"PART-1-1",           204,      -6.44398,       20.4265,            0.,NA,NA,"",       15.9815,      -13.4281,      -8.66559,   7.91134E-03
C:/temp/dataset/9/29_5.odb,Step-1,Increment      1: Step Time =    1.000,"PART-1-1",           205,       12.2962,       25.0128,            0.,NA,NA,"",       16.6049,      -16.4945,      -1.91100,   1.50342E-03
C:/temp/dataset/9/29_5.odb,Step-1,Increment      1: Step Time =    1.000,"PART-1-1",           206,       12.2257,      -24.8009,            0.,NA,NA,"",   343.720E-03,  -286.025E-03,   190.612E-03,   45.5885E-03
C:/temp/dataset/9/29_5.odb,Step-1,Increment      1: Step Time =    1.000,"PART-1-1",           207,      -2.06005,       24.5200,            0.,NA,NA,"",       16.9181,      -15.2433,      -7.33932,   2.96696E-03
C:/temp/dataset/9/29_5.odb,Step-1,Increment      1: Step Time =    1.000,"PART-1-1",           208,       9.31619,       25.0673,            0.,NA,NA,"",       16.5723,      -16.2863,      -3.06556,   1.82569E-03
C:/temp/dataset/9/29_5.odb,Step-1,Increment      1: Step Time =    1.000,"PART-1-1",           209,       3.21447,       24.8112,            0.,NA,NA,"",       16.6237,      -15.7287,      -5.38093,   1.93688E-03
C:/temp/dataset/9/29_5.odb,Step-1,Increment      1: Step Time =    1.000,"PART-1-1",           210,      -7.52022,      -1.18711,            0.,NA,NA,"",       8.91429,      -5.03540,      -7.35591,   2.41502E-03
C:/temp/dataset/9/29_5.odb,Step-1,Increment      1: Step Time =    1.000,"PART-1-1",           211,       10.0127,       14.9017,            0.,NA,NA,"",       12.5459,      -12.3868,      -1.99176,   5.83089E-03
C:/temp/dataset/9/29_5.odb,Step-1,Increment      1: Step Time =    1.000,"PART-1-1",           212,       10.7293,       3.02357,            0.,NA,NA,"",       7.91509,      -7.87120,  -832.333E-03,   8.30734E-03
C:/temp/dataset/9/29_5.odb,Step-1,Increment      1: Step Time =    1.000,"PART-1-1",           213,       11.4837,       7.36813,            0.,NA,NA,"",       9.61010,      -9.57153,  -860.093E-03,   6.78447E-03
C:/temp/dataset/9/29_5.odb,Step-1,Increment      1: Step Time =    1.000,"PART-1-1",           214,      -9.20573,       12.9161,            0.,NA,NA,"",       13.8432,      -10.3929,      -9.14460,   3.83396E-03
C:/temp/dataset/9/29_5.odb,Step-1,Increment      1: Step Time =    1.000,"PART-1-1",           215,   314.418E-03,       24.7704,            0.,NA,NA,"",       16.8004,      -15.5047,      -6.46980,   2.81130E-03
C:/temp/dataset/9/29_5.odb,Step-1,Increment      1: Step Time =    1.000,"PART-1-1",           216,       7.52406,       26.3727,            0.,NA,NA,"",       17.0885,      -16.6482,      -3.85451,   1.56869E-03
C:/temp/dataset/9/29_5.odb,Step-1,Increment      1: Step Time =    1.000,"PART-1-1",           217,  -811.906E-03,   82.6841E-03,            0.,NA,NA,"",       7.75550,      -6.03863,      -4.86649,   2.17367E-03
C:/temp/dataset/9/29_5.odb,Step-1,Increment      1: Step Time =    1.000,"PART-1-1",           218,       11.1400,      -19.6444,            0.,NA,NA,"",       1.00546,  -993.815E-03,   152.602E-03,   22.7999E-03
C:/temp/dataset/9/29_5.odb,Step-1,Increment      1: Step Time =    1.000,"PART-1-1",           219,       11.1036,      -10.4226,            0.,NA,NA,"",       3.21127,      -3.21121,   19.1591E-03,   17.8016E-03
C:/temp/dataset/9/29_5.odb,Step-1,Increment      1: Step Time =    1.000,"PART-1-1",           220,       10.9280,      -5.64335,            0.,NA,NA,"",       4.73095,      -4.72575,  -221.771E-03,   18.9278E-03
C:/temp/dataset/9/29_5.odb,Step-1,Increment      1: Step Time =    1.000,"PART-1-1",           221,       11.0667,       5.48495,            0.,NA,NA,"",       8.86670,      -8.82275,  -881.683E-03,   6.50899E-03
C:/temp/dataset/9/29_5.odb,Step-1,Increment      1: Step Time =    1.000,"PART-1-1",           222,       11.1390,      -12.7671,            0.,NA,NA,"",       2.55317,      -2.55161,   89.2141E-03,   18.9575E-03
C:/temp/dataset/9/29_5.odb,Step-1,Increment      1: Step Time =    1.000,"PART-1-1",           223,       11.1627,      -15.1016,            0.,NA,NA,"",       1.96095,      -1.95632,   134.709E-03,   20.4569E-03
C:/temp/dataset/9/29_5.odb,Step-1,Increment      1: Step Time =    1.000,"PART-1-1",           224,      -9.10801,       10.4728,            0.,NA,NA,"",       12.9897,      -9.44986,      -8.91243,   4.44570E-03
C:/temp/dataset/9/29_5.odb,Step-1,Increment      1: Step Time =    1.000,"PART-1-1",           225,      -9.12162,       8.28854,            0.,NA,NA,"",       12.2583,      -8.59448,      -8.74069,   4.55467E-03
C:/temp/dataset/9/29_5.odb,Step-1,Increment      1: Step Time =    1.000,"PART-1-1",           226,      -8.73753,       18.6317,            0.,NA,NA,"",       15.7187,      -12.6007,      -9.39671,   4.66433E-03
C:/temp/dataset/9/29_5.odb,Step-1,Increment      1: Step Time =    1.000,"PART-1-1",           227,      -9.90634,  -397.381E-03,            0.,NA,NA,"",       9.80823,      -5.15305,      -8.34551,   1.91930E-03
C:/temp/dataset/9/29_5.odb,Step-1,Increment      1: Step Time =    1.000,"PART-1-1",           228,       9.93939,       19.9385,            0.,NA,NA,"",       14.5577,      -14.3547,      -2.42271,   3.95126E-03
C:/temp/dataset/9/29_5.odb,Step-1,Increment      1: Step Time =    1.000,"PART-1-1",           229,       5.70370,       25.8085,            0.,NA,NA,"",       16.9063,      -16.2938,      -4.50915,   1.01353E-03
C:/temp/dataset/9/29_5.odb,Step-1,Increment      1: Step Time =    1.000,"PART-1-1",           230,       10.0348,       12.2094,            0.,NA,NA,"",       11.4725,      -11.3349,      -1.77131,   5.95831E-03
C:/temp/dataset/9/29_5.odb,Step-1,Increment      1: Step Time =    1.000,"PART-1-1",           231,       9.98921,       17.4486,            0.,NA,NA,"",       13.5649,      -13.3846,      -2.20394,   5.71422E-03
C:/temp/dataset/9/29_5.odb,Step-1,Increment      1: Step Time =    1.000,"PART-1-1",           232,       10.1044,       9.10575,            0.,NA,NA,"",       10.2473,      -10.1361,      -1.50584,   5.85493E-03
C:/temp/dataset/9/29_5.odb,Step-1,Increment      1: Step Time =    1.000,"PART-1-1",           233,      -3.11139,      -1.10310,            0.,NA,NA,"",       7.82980,      -5.41232,      -5.65796,   2.37559E-03
C:/temp/dataset/9/29_5.odb,Step-1,Increment      1: Step Time =    1.000,"PART-1-1",           234,      -6.48507,       25.5695,            0.,NA,NA,"",       17.8058,      -15.3264,      -9.06356,   2.46074E-03
C:/temp/dataset/9/29_5.odb,Step-1,Increment      1: Step Time =    1.000,"PART-1-1",           235,      -4.76537,       24.8732,            0.,NA,NA,"",       17.3417,      -15.1867,      -8.37250,   2.96798E-03
C:/temp/dataset/9/29_5.odb,Step-1,Increment      1: Step Time =    1.000,"PART-1-1",           236,      -8.46351,       26.0628,            0.,NA,NA,"",       18.2490,      -15.3708,      -9.83696,   1.71082E-03
C:/temp/dataset/9/29_5.odb,Step-1,Increment      1: Step Time =    1.000,"PART-1-1",           237,      -9.50218,       15.8804,            0.,NA,NA,"",       14.9122,      -11.5077,      -9.48405,   2.66376E-03
C:/temp/dataset/9/29_5.odb,Step-1,Increment      1: Step Time =    1.000,"PART-1-1",           238,      -5.29510,      -1.38770,            0.,NA,NA,"",       8.26518,      -5.13306,      -6.47803,   2.53465E-03
C:/temp/dataset/9/29_5.odb,Step-1,Increment      1: Step Time =    1.000,"PART-1-1",           239,       11.0587,      -21.7318,            0.,NA,NA,"",   660.056E-03,  -647.189E-03,   129.692E-03,   23.1309E-03
C:/temp/dataset/9/29_5.odb,Step-1,Increment      1: Step Time =    1.000,"PART-1-1",           240,       11.1670,      -17.4071,            0.,NA,NA,"",       1.44215,      -1.43376,   155.339E-03,   21.8723E-03
C:/temp/dataset/9/29_5.odb,Step-1,Increment      1: Step Time =    1.000,"PART-1-1",           241,       11.0513,      -8.06140,            0.,NA,NA,"",       3.93409,      -3.93332,  -77.7865E-03,   17.9043E-03
C:/temp/dataset/9/29_5.odb,Step-1,Increment      1: Step Time =    1.000,"PART-1-1",           242,       10.1357,   7.39639E-03,            0.,NA,NA,"",       6.76078,      -6.70936,  -832.295E-03,   14.1717E-03
C:/temp/dataset/9/29_5.odb,Step-1,Increment      1: Step Time =    1.000,"PART-1-1",           243,       10.6886,      -3.06387,            0.,NA,NA,"",       5.63602,      -5.61879,  -440.315E-03,   18.5684E-03
C:/temp/dataset/9/29_5.odb,Step-1,Increment      1: Step Time =    1.000,"PART-1-1",           244,       9.76329,       22.4053,            0.,NA,NA,"",       15.5317,      -15.2975,      -2.68668,   2.21241E-03
C:/temp/dataset/9/29_5.odb,Step-1,Increment      1: Step Time =    1.000,"PART-1-1",           245,       8.68231,      -3.74099,            0.,NA,NA,"",       5.36723,      -5.26075,      -1.06384,   18.9284E-03
C:/temp/dataset/9/29_5.odb,Step-1,Increment      1: Step Time =    1.000,"PART-1-1",           246,      -9.34414,       6.30777,            0.,NA,NA,"",       11.6597,      -7.80132,      -8.66540,   4.25175E-03
C:/temp/dataset/9/29_5.odb,Step-1,Increment      1: Step Time =    1.000,"PART-1-1",           247,      -9.93235,       4.61568,            0.,NA,NA,"",       11.2696,      -7.09505,      -8.75581,   3.41839E-03
C:/temp/dataset/9/29_5.odb,Step-1,Increment      1: Step Time =    1.000,"PART-1-1",           248,      -8.14937,       21.0679,            0.,NA,NA,"",       16.4595,      -13.5442,      -9.35251,   5.49114E-03
C:/temp/dataset/9/29_5.odb,Step-1,Increment      1: Step Time =    1.000,"PART-1-1",           249,       10.7972,      -23.3791,            0.,NA,NA,"",   426.099E-03,  -417.496E-03,   85.1892E-03,   19.9053E-03
C:/temp/dataset/9/29_5.odb,Step-1,Increment      1: Step Time =    1.000,"PART-1-1",           250,       4.15357,   65.4176E-03,            0.,NA,NA,"",       7.04797,      -6.38120,      -2.99236,   12.0541E-03
C:/temp/dataset/9/29_5.odb,Step-1,Increment      1: Step Time =    1.000,"PART-1-1",           251,       8.71950,       3.82470,            0.,NA,NA,"",       8.19962,      -8.03713,      -1.62426,   7.93091E-03
C:/temp/dataset/9/29_5.odb,Step-1,Increment      1: Step Time =    1.000,"PART-1-1",           252,       5.00281,       23.5204,            0.,NA,NA,"",       16.0437,      -15.3687,      -4.60482,   2.54904E-03
C:/temp/dataset/9/29_5.odb,Step-1,Increment      1: Step Time =    1.000,"PART-1-1",           253,       7.40149,   60.9774E-03,            0.,NA,NA,"",       6.81271,      -6.56923,      -1.80508,   17.6106E-03
C:/temp/dataset/9/29_5.odb,Step-1,Increment      1: Step Time =    1.000,"PART-1-1",           254,      -5.73116,       22.7675,            0.,NA,NA,"",       16.7057,      -14.3369,      -8.57511,   4.99989E-03
C:/temp/dataset/9/29_5.odb,Step-1,Increment      1: Step Time =    1.000,"PART-1-1",           255,      -5.42683,       1.83799,            0.,NA,NA,"",       9.29374,      -6.35998,      -6.77674,   3.93200E-03
C:/temp/dataset/9/29_5.odb,Step-1,Increment      1: Step Time =    1.000,"PART-1-1",           256,       6.81561,       24.0815,            0.,NA,NA,"",       16.2081,      -15.7186,      -3.95319,   1.87257E-03
C:/temp/dataset/9/29_5.odb,Step-1,Increment      1: Step Time =    1.000,"PART-1-1",           257,      -7.40884,       23.3683,            0.,NA,NA,"",       17.1501,      -14.4447,      -9.24533,   4.07549E-03
C:/temp/dataset/9/29_5.odb,Step-1,Increment      1: Step Time =    1.000,"PART-1-1",           258,      -3.69176,       23.9755,            0.,NA,NA,"",       16.8911,      -14.9261,      -7.90693,   3.41349E-03
C:/temp/dataset/9/29_5.odb,Step-1,Increment      1: Step Time =    1.000,"PART-1-1",           259,      -8.10961,       1.76736,            0.,NA,NA,"",       9.93234,      -6.12830,      -7.81635,   3.20166E-03
C:/temp/dataset/9/29_5.odb,Step-1,Increment      1: Step Time =    1.000,"PART-1-1",           260,       5.94930,   61.4696E-03,            0.,NA,NA,"",       6.89300,      -6.48716,      -2.33028,   16.9912E-03
C:/temp/dataset/9/29_5.odb,Step-1,Increment      1: Step Time =    1.000,"PART-1-1",           261,       1.93878,   62.7924E-03,            0.,NA,NA,"",       7.31018,      -6.23163,      -3.82172,   5.43256E-03
C:/temp/dataset/9/29_5.odb,Step-1,Increment      1: Step Time =    1.000,"PART-1-1",           262,       6.71051,      -4.41826,            0.,NA,NA,"",       5.19179,      -4.91323,      -1.67774,   24.1469E-03
C:/temp/dataset/9/29_5.odb,Step-1,Increment      1: Step Time =    1.000,"PART-1-1",           263,      -12.5366,      -2.82410,            0.,NA,NA,"",       10.0154,      -4.00734,      -9.17874,   881.336E-06
C:/temp/dataset/9/29_5.odb,Step-1,Increment      1: Step Time =    1.000,"PART-1-1",           264,       6.75090,       4.53602,            0.,NA,NA,"",       8.52008,      -8.17385,      -2.40415,   10.5608E-03
C:/temp/dataset/9/29_5.odb,Step-1,Increment      1: Step Time =    1.000,"PART-1-1",           265,      -5.22339,       3.46233,            0.,NA,NA,"",       9.77684,      -7.00019,      -6.82524,   5.30412E-03
C:/temp/dataset/9/29_5.odb,Step-1,Increment      1: Step Time =    1.000,"PART-1-1",           266,       4.93795,       21.9167,            0.,NA,NA,"",       15.4245,      -14.7509,      -4.50844,   4.09734E-03
C:/temp/dataset/9/29_5.odb,Step-1,Increment      1: Step Time =    1.000,"PART-1-1",           267,       8.13144,      -1.42002,            0.,NA,NA,"",       6.23344,      -6.06788,      -1.42710,   18.8687E-03
C:/temp/dataset/9/29_5.odb,Step-1,Increment      1: Step Time =    1.000,"PART-1-1",           268,      -3.13115,       1.39136,            0.,NA,NA,"",       8.64524,      -6.36199,      -5.85366,   3.27339E-03
C:/temp/dataset/9/29_5.odb,Step-1,Increment      1: Step Time =    1.000,"PART-1-1",           269,       9.17709,       6.32873,            0.,NA,NA,"",       9.15541,      -9.00663,      -1.64380,   4.82563E-03
C:/temp/dataset/9/29_5.odb,Step-1,Increment      1: Step Time =    1.000,"PART-1-1",           270,      -11.0423,       1.34077,            0.,NA,NA,"",       10.6096,      -5.73702,      -8.92475,   1.58325E-03
C:/temp/dataset/9/29_5.odb,Step-1,Increment      1: Step Time =    1.000,"PART-1-1",           271,      -10.1478,       26.6048,            0.,NA,NA,"",       18.6849,      -15.4525,      -10.5047,   1.26909E-03
C:/temp/dataset/9/29_5.odb,Step-1,Increment      1: Step Time =    1.000,"PART-1-1",           272,      -10.1118,       21.9370,            0.,NA,NA,"",       17.0723,      -13.7247,      -10.1537,   3.82089E-03
C:/temp/dataset/9/29_5.odb,Step-1,Increment      1: Step Time =    1.000,"PART-1-1",           273,       8.13886,       1.50501,            0.,NA,NA,"",       7.33221,      -7.14283,      -1.65568,   14.1891E-03
C:/temp/dataset/9/29_5.odb,Step-1,Increment      1: Step Time =    1.000,"PART-1-1",           274,      -7.06249,   219.393E-03,            0.,NA,NA,"",       9.19778,      -5.61245,      -7.28695,   2.88077E-03
C:/temp/dataset/9/29_5.odb,Step-1,Increment      1: Step Time =    1.000,"PART-1-1",           275,      -5.40522,   241.534E-03,            0.,NA,NA,"",       8.78690,      -5.74922,      -6.64500,   2.91541E-03
C:/temp/dataset/9/29_5.odb,Step-1,Increment      1: Step Time =    1.000,"PART-1-1",           276,      -3.80180,   194.541E-03,            0.,NA,NA,"",       8.39842,      -5.85459,      -6.02140,   2.68164E-03
C:/temp/dataset/9/29_5.odb,Step-1,Increment      1: Step Time =    1.000,"PART-1-1",           277,      -2.71285,       28.4954,            0.,NA,NA,"",       18.4512,      -16.6868,      -7.87386,   1.24204E-03
C:/temp/dataset/9/29_5.odb,Step-1,Increment      1: Step Time =    1.000,"PART-1-1",           278,         -3.75,           30.,            0.,NA,NA,"",       19.1037,      -17.1734,      -8.36807,   928.099E-06
C:/temp/dataset/9/29_5.odb,Step-1,Increment      1: Step Time =    1.000,"PART-1-1",           279,      -5.26224,       28.8665,            0.,NA,NA,"",       18.8484,      -16.6420,      -8.84895,   706.851E-06
C:/temp/dataset/9/29_5.odb,Step-1,Increment      1: Step Time =    1.000,"PART-1-1",           280,      -4.22509,       27.3619,            0.,NA,NA,"",       18.1867,      -16.1544,      -8.35414,   1.72874E-03
C:/temp/dataset/9/29_5.odb,Step-1,Increment      1: Step Time =    1.000,"PART-1-1",           281,      -3.84553,       25.9321,            0.,NA,NA,"",       17.6227,      -15.6466,      -8.10829,   2.39612E-03
C:/temp/dataset/9/29_5.odb,Step-1,Increment      1: Step Time =    1.000,"PART-1-1",           282,      -6.00478,       26.6512,            0.,NA,NA,"",       18.1337,      -15.7631,      -8.96413,   1.82410E-03
C:/temp/dataset/9/29_5.odb,Step-1,Increment      1: Step Time =    1.000,"PART-1-1",           283,      -5.62522,       25.2214,            0.,NA,NA,"",       17.5718,      -15.2567,      -8.71792,   2.71529E-03
C:/temp/dataset/9/29_5.odb,Step-1,Increment      1: Step Time =    1.000,"PART-1-1",           284,      -10.0879,       29.0985,            0.,NA,NA,"",       19.5478,      -16.3839,      -10.6621,   612.278E-06
C:/temp/dataset/9/29_5.odb,Step-1,Increment      1: Step Time =    1.000,"PART-1-1",           285,        -11.25,           30.,            0.,NA,NA,"",       20.0329,      -16.6363,      -11.1602,   312.771E-06
C:/temp/dataset/9/29_5.odb,Step-1,Increment      1: Step Time =    1.000,"PART-1-1",           286,      -12.4706,       28.9480,            0.,NA,NA,"",       19.8546,      -16.1571,      -11.5392,   297.014E-06
C:/temp/dataset/9/29_5.odb,Step-1,Increment      1: Step Time =    1.000,"PART-1-1",           287,      -11.3086,       28.0465,            0.,NA,NA,"",       19.3620,      -15.9052,      -11.0414,   633.018E-06
C:/temp/dataset/9/29_5.odb,Step-1,Increment      1: Step Time =    1.000,"PART-1-1",           288,      -13.4495,       25.5029,            0.,NA,NA,"",       18.8446,      -14.8061,      -11.6574,   935.818E-06
C:/temp/dataset/9/29_5.odb,Step-1,Increment      1: Step Time =    1.000,"PART-1-1",           289,          -15.,       24.5313,            0.,NA,NA,"",       18.8000,      -14.3332,      -12.1655,   1.34190E-03
C:/temp/dataset/9/29_5.odb,Step-1,Increment      1: Step Time =    1.000,"PART-1-1",           290,      -13.6920,       23.1529,            0.,NA,NA,"",       18.1047,      -13.9155,      -11.5818,   1.92018E-03
C:/temp/dataset/9/29_5.odb,Step-1,Increment      1: Step Time =    1.000,"PART-1-1",           291,      -12.1415,       24.1246,            0.,NA,NA,"",       18.1553,      -14.3889,      -11.0714,   2.08245E-03
C:/temp/dataset/9/29_5.odb,Step-1,Increment      1: Step Time =    1.000,"PART-1-1",           292,          8.75,          -30.,            0.,NA,NA,"",            0.,   11.0642E-39,  -37.2882E-39,   20.7740E-03
C:/temp/dataset/9/29_5.odb,Step-1,Increment      1: Step Time =    1.000,"PART-1-1",           293,       9.96407,      -28.8633,            0.,NA,NA,"",   1.91318E-03,   1.56514E-03,   1.10027E-03,   2.13968E-03
C:/temp/dataset/9/29_5.odb,Step-1,Increment      1: Step Time =    1.000,"PART-1-1",           294,       8.68711,      -27.7998,            0.,NA,NA,"",   51.1147E-03,  -33.2007E-03,  -38.8642E-03,   24.6085E-03
C:/temp/dataset/9/29_5.odb,Step-1,Increment      1: Step Time =    1.000,"PART-1-1",           295,       7.47304,      -28.9365,            0.,NA,NA,"",   36.0852E-03,  -4.09335E-03,  -35.8523E-03,   41.4245E-03
C:/temp/dataset/9/29_5.odb,Step-1,Increment      1: Step Time =    1.000,"PART-1-1",           296,       10.9279,      -22.5555,            0.,NA,NA,"",   537.694E-03,  -527.013E-03,   106.641E-03,   21.4824E-03
C:/temp/dataset/9/29_5.odb,Step-1,Increment      1: Step Time =    1.000,"PART-1-1",           297,       10.0765,      -21.6813,            0.,NA,NA,"",   638.493E-03,  -638.493E-03,  -105.716E-06,   10.6230E-03
C:/temp/dataset/9/29_5.odb,Step-1,Increment      1: Step Time =    1.000,"PART-1-1",           298,       9.14242,      -22.6395,            0.,NA,NA,"",   507.072E-03,  -496.019E-03,  -105.296E-03,   15.4711E-03
C:/temp/dataset/9/29_5.odb,Step-1,Increment      1: Step Time =    1.000,"PART-1-1",           299,       9.99384,      -23.5137,            0.,NA,NA,"",   391.193E-03,  -391.192E-03,   613.712E-06,   10.6039E-03
C:/temp/dataset/9/29_5.odb,Step-1,Increment      1: Step Time =    1.000,"PART-1-1",           300,       7.08785,      -18.4988,            0.,NA,NA,"",       1.29523,      -1.15795,  -580.335E-03,   43.6880E-03
C:/temp/dataset/9/29_5.odb,Step-1,Increment      1: Step Time =    1.000,"PART-1-1",           301,       6.04673,      -17.4684,            0.,NA,NA,"",       1.60402,      -1.35893,  -852.178E-03,   58.1951E-03
C:/temp/dataset/9/29_5.odb,Step-1,Increment      1: Step Time =    1.000,"PART-1-1",           302,            5.,      -18.5417,            0.,NA,NA,"",       1.52513,      -1.16917,  -979.314E-03,   76.6672E-03
C:/temp/dataset/9/29_5.odb,Step-1,Increment      1: Step Time =    1.000,"PART-1-1",           303,       6.04112,      -19.5721,            0.,NA,NA,"",       1.20161,  -974.633E-03,  -702.829E-03,   61.8220E-03
C:/temp/dataset/9/29_5.odb,Step-1,Increment      1: Step Time =    1.000,"PART-1-1",           304,       7.10245,      -14.2066,            0.,NA,NA,"",       2.23880,      -2.07642,  -837.082E-03,   38.4949E-03
C:/temp/dataset/9/29_5.odb,Step-1,Increment      1: Step Time =    1.000,"PART-1-1",           305,       6.04975,      -13.2285,            0.,NA,NA,"",       2.58362,      -2.30299,      -1.17103,   50.9825E-03
C:/temp/dataset/9/29_5.odb,Step-1,Increment      1: Step Time =    1.000,"PART-1-1",           306,            5.,       -14.375,            0.,NA,NA,"",       2.42919,      -2.02349,      -1.34403,   67.4232E-03
C:/temp/dataset/9/29_5.odb,Step-1,Increment      1: Step Time =    1.000,"PART-1-1",           307,       6.05270,      -15.3531,            0.,NA,NA,"",       2.06510,      -1.80281,      -1.00724,   54.5537E-03
C:/temp/dataset/9/29_5.odb,Step-1,Increment      1: Step Time =    1.000,"PART-1-1",           308,            5.,      -6.04167,            0.,NA,NA,"",       4.78925,      -4.29073,      -2.12758,   60.3831E-03
C:/temp/dataset/9/29_5.odb,Step-1,Increment      1: Step Time =    1.000,"PART-1-1",           309,       5.97724,      -6.85181,            0.,NA,NA,"",       4.42817,      -4.07876,      -1.72406,   41.8087E-03
C:/temp/dataset/9/29_5.odb,Step-1,Increment      1: Step Time =    1.000,"PART-1-1",           310,       6.83249,      -5.51927,            0.,NA,NA,"",       4.79890,      -4.54240,      -1.54791,   21.6890E-03
C:/temp/dataset/9/29_5.odb,Step-1,Increment      1: Step Time =    1.000,"PART-1-1",           311,       5.85525,      -4.70913,            0.,NA,NA,"",       5.14320,      -4.75998,      -1.94809,   33.5709E-03
C:/temp/dataset/9/29_5.odb,Step-1,Increment      1: Step Time =    1.000,"PART-1-1",           312,       4.27314,       1.25089,            0.,NA,NA,"",       7.47246,      -6.82450,      -3.04364,   12.6279E-03
C:/temp/dataset/9/29_5.odb,Step-1,Increment      1: Step Time =    1.000,"PART-1-1",           313,       3.27994,       2.49943,            0.,NA,NA,"",       8.03132,      -7.22375,      -3.50991,   9.66638E-03
C:/temp/dataset/9/29_5.odb,Step-1,Increment      1: Step Time =    1.000,"PART-1-1",           314,       2.05297,       1.31265,            0.,NA,NA,"",       7.74337,      -6.70446,      -3.87427,   5.76254E-03
C:/temp/dataset/9/29_5.odb,Step-1,Increment      1: Step Time =    1.000,"PART-1-1",           315,       3.04617,   64.1050E-03,            0.,NA,NA,"",       7.16852,      -6.30781,      -3.40575,   8.64977E-03
C:/temp/dataset/9/29_5.odb,Step-1,Increment      1: Step Time =    1.000,"PART-1-1",           316,       6.28410,       12.4112,            0.,NA,NA,"",       11.5874,      -11.1296,      -3.22485,   4.87213E-03
C:/temp/dataset/9/29_5.odb,Step-1,Increment      1: Step Time =    1.000,"PART-1-1",           317,            5.,         11.25,            0.,NA,NA,"",       11.1880,      -10.5843,      -3.62547,   7.72164E-03
C:/temp/dataset/9/29_5.odb,Step-1,Increment      1: Step Time =    1.000,"PART-1-1",           318,       6.24476,       9.82085,            0.,NA,NA,"",       10.5697,      -10.1274,      -3.02560,   7.41124E-03
C:/temp/dataset/9/29_5.odb,Step-1,Increment      1: Step Time =    1.000,"PART-1-1",           319,       7.52885,       10.9821,            0.,NA,NA,"",       10.9886,      -10.6693,      -2.62962,   5.79729E-03
C:/temp/dataset/9/29_5.odb,Step-1,Increment      1: Step Time =    1.000,"PART-1-1",           320,       6.23557,       19.9374,            0.,NA,NA,"",       14.5981,      -14.0801,      -3.85429,   8.18932E-03
C:/temp/dataset/9/29_5.odb,Step-1,Increment      1: Step Time =    1.000,"PART-1-1",           321,            5.,         18.75,            0.,NA,NA,"",       14.1610,      -13.5114,      -4.23974,   5.97789E-03
C:/temp/dataset/9/29_5.odb,Step-1,Increment      1: Step Time =    1.000,"PART-1-1",           322,       6.25255,       17.4722,            0.,NA,NA,"",       13.6053,      -13.1068,      -3.64888,   2.85050E-03
C:/temp/dataset/9/29_5.odb,Step-1,Increment      1: Step Time =    1.000,"PART-1-1",           323,       7.48812,       18.6595,            0.,NA,NA,"",       14.0553,      -13.6706,      -3.26584,   5.77237E-03
C:/temp/dataset/9/29_5.odb,Step-1,Increment      1: Step Time =    1.000,"PART-1-1",           324,       12.4612,       28.7577,            0.,NA,NA,"",       18.0718,      -17.9452,      -2.13544,   759.517E-06
C:/temp/dataset/9/29_5.odb,Step-1,Increment      1: Step Time =    1.000,"PART-1-1",           325,         11.25,           30.,            0.,NA,NA,"",       18.5264,      -18.3290,      -2.69719,   1.08736E-03
C:/temp/dataset/9/29_5.odb,Step-1,Increment      1: Step Time =    1.000,"PART-1-1",           326,       9.95383,       28.8406,            0.,NA,NA,"",       18.0512,      -17.7817,      -3.10742,   1.50177E-03
C:/temp/dataset/9/29_5.odb,Step-1,Increment      1: Step Time =    1.000,"PART-1-1",           327,       11.1650,       27.5983,            0.,NA,NA,"",       17.5846,      -17.3992,      -2.54621,   1.52499E-03
C:/temp/dataset/9/29_5.odb,Step-1,Increment      1: Step Time =    1.000,"PART-1-1",           328,       9.61193,       26.3742,            0.,NA,NA,"",       17.0844,      -16.8097,      -3.05143,   1.64197E-03
C:/temp/dataset/9/29_5.odb,Step-1,Increment      1: Step Time =    1.000,"PART-1-1",           329,       10.8062,       25.0400,            0.,NA,NA,"",       16.5781,      -16.3903,      -2.48848,   1.61544E-03
C:/temp/dataset/9/29_5.odb,Step-1,Increment      1: Step Time =    1.000,"PART-1-1",           330,       12.3592,       26.2641,            0.,NA,NA,"",       17.0952,      -16.9798,      -1.98323,   1.38450E-03
C:/temp/dataset/9/29_5.odb,Step-1,Increment      1: Step Time =    1.000,"PART-1-1",           331,       7.54419,       28.9985,            0.,NA,NA,"",       18.1110,      -17.6537,      -4.04447,   2.34018E-03
C:/temp/dataset/9/29_5.odb,Step-1,Increment      1: Step Time =    1.000,"PART-1-1",           332,          6.25,           30.,            0.,NA,NA,"",       18.5193,      -17.9354,      -4.61361,   3.58637E-03
C:/temp/dataset/9/29_5.odb,Step-1,Increment      1: Step Time =    1.000,"PART-1-1",           333,       5.09159,       28.9175,            0.,NA,NA,"",       18.1271,      -17.4314,      -4.97403,   2.76635E-03
C:/temp/dataset/9/29_5.odb,Step-1,Increment      1: Step Time =    1.000,"PART-1-1",           334,       6.38578,       27.9160,            0.,NA,NA,"",       17.7067,      -17.1497,      -4.40636,   1.70038E-03
C:/temp/dataset/9/29_5.odb,Step-1,Increment      1: Step Time =    1.000,"PART-1-1",           335,       2.95769,       26.1428,            0.,NA,NA,"",       17.1475,      -16.2152,      -5.57710,   1.17291E-03
C:/temp/dataset/9/29_5.odb,Step-1,Increment      1: Step Time =    1.000,"PART-1-1",           336,       4.45909,       25.3098,            0.,NA,NA,"",       16.7569,      -16.0103,      -4.94609,   1.06195E-03
C:/temp/dataset/9/29_5.odb,Step-1,Increment      1: Step Time =    1.000,"PART-1-1",           337,       5.44343,       26.8217,            0.,NA,NA,"",       17.3061,      -16.6602,      -4.68421,   1.07715E-03
C:/temp/dataset/9/29_5.odb,Step-1,Increment      1: Step Time =    1.000,"PART-1-1",           338,       3.94204,       27.6547,            0.,NA,NA,"",       17.6811,      -16.8628,      -5.31670,   1.32069E-03
C:/temp/dataset/9/29_5.odb,Step-1,Increment      1: Step Time =    1.000,"PART-1-1",           339,       6.06395,       7.26936,            0.,NA,NA,"",       9.58618,      -9.14334,      -2.87997,   10.3947E-03
C:/temp/dataset/9/29_5.odb,Step-1,Increment      1: Step Time =    1.000,"PART-1-1",           340,       7.30871,       8.34021,            0.,NA,NA,"",       9.95628,      -9.63748,      -2.49933,   7.42583E-03
C:/temp/dataset/9/29_5.odb,Step-1,Increment      1: Step Time =    1.000,"PART-1-1",           341,            5.,          8.75,            0.,NA,NA,"",       10.2162,      -9.62912,      -3.41333,   11.9540E-03
C:/temp/dataset/9/29_5.odb,Step-1,Increment      1: Step Time =    1.000,"PART-1-1",           342,      -13.9291,       1.47830,            0.,NA,NA,"",       11.4956,      -5.56523,      -10.0587,   1.18507E-03
C:/temp/dataset/9/29_5.odb,Step-1,Increment      1: Step Time =    1.000,"PART-1-1",           343,          -15.,    468.75E-03,            0.,NA,NA,"",       11.5741,      -5.09022,      -10.3947,   1.14102E-03
C:/temp/dataset/9/29_5.odb,Step-1,Increment      1: Step Time =    1.000,"PART-1-1",           344,      -13.8152,  -655.377E-03,            0.,NA,NA,"",       10.9304,      -4.74710,      -9.84573,   904.218E-06
C:/temp/dataset/9/29_5.odb,Step-1,Increment      1: Step Time =    1.000,"PART-1-1",           345,      -12.7443,   354.171E-03,            0.,NA,NA,"",       10.8485,      -5.22199,      -9.50899,   1.04926E-03
C:/temp/dataset/9/29_5.odb,Step-1,Increment      1: Step Time =    1.000,"PART-1-1",           346,      -13.9678,       8.16706,            0.,NA,NA,"",       13.3876,      -8.17067,      -10.6052,   2.11176E-03
C:/temp/dataset/9/29_5.odb,Step-1,Increment      1: Step Time =    1.000,"PART-1-1",           347,          -15.,       7.03125,            0.,NA,NA,"",       13.3280,      -7.64430,      -10.9179,   1.00492E-03
C:/temp/dataset/9/29_5.odb,Step-1,Increment      1: Step Time =    1.000,"PART-1-1",           348,      -13.6804,       5.85321,            0.,NA,NA,"",       12.6265,      -7.28825,      -10.3106,   1.37801E-03
C:/temp/dataset/9/29_5.odb,Step-1,Increment      1: Step Time =    1.000,"PART-1-1",           349,      -12.6482,       6.98902,            0.,NA,NA,"",       12.6907,      -7.81329,      -10.0003,   2.70386E-03
C:/temp/dataset/9/29_5.odb,Step-1,Increment      1: Step Time =    1.000,"PART-1-1",           350,      -5.93089,       17.7206,            0.,NA,NA,"",       14.9665,      -12.4717,      -8.27364,   7.18686E-03
C:/temp/dataset/9/29_5.odb,Step-1,Increment      1: Step Time =    1.000,"PART-1-1",           351,      -7.00986,       16.6597,            0.,NA,NA,"",       14.7576,      -11.9938,      -8.59852,   4.74663E-03
C:/temp/dataset/9/29_5.odb,Step-1,Increment      1: Step Time =    1.000,"PART-1-1",           352,      -6.07897,       15.1891,            0.,NA,NA,"",       14.0903,      -11.5082,      -8.12999,   7.01781E-03
C:/temp/dataset/9/29_5.odb,Step-1,Increment      1: Step Time =    1.000,"PART-1-1",           353,           -5.,         16.25,            0.,NA,NA,"",       14.3074,      -11.9905,      -7.80581,   9.66900E-03
C:/temp/dataset/9/29_5.odb,Step-1,Increment      1: Step Time =    1.000,"PART-1-1",           354,      -7.79966,       18.2865,            0.,NA,NA,"",       15.4479,      -12.5428,      -9.01764,   4.87344E-03
C:/temp/dataset/9/29_5.odb,Step-1,Increment      1: Step Time =    1.000,"PART-1-1",           355,      -6.65288,       19.1839,            0.,NA,NA,"",       15.5819,      -12.9590,      -8.65218,   5.74436E-03
C:/temp/dataset/9/29_5.odb,Step-1,Increment      1: Step Time =    1.000,"PART-1-1",           356,      -7.29668,       20.7472,            0.,NA,NA,"",       16.2184,      -13.4864,      -9.00856,   6.31412E-03
C:/temp/dataset/9/29_5.odb,Step-1,Increment      1: Step Time =    1.000,"PART-1-1",           357,      -8.44345,       19.8498,            0.,NA,NA,"",       16.0873,      -13.0738,      -9.37420,   4.89672E-03
C:/temp/dataset/9/29_5.odb,Step-1,Increment      1: Step Time =    1.000,"PART-1-1",           358,      -2.59303,       4.06073,            0.,NA,NA,"",       9.44900,      -7.41739,      -5.85372,   8.93034E-03
C:/temp/dataset/9/29_5.odb,Step-1,Increment      1: Step Time =    1.000,"PART-1-1",           359,      -1.46713,       2.91047,            0.,NA,NA,"",       8.84571,      -7.05885,      -5.33098,   6.62072E-03
C:/temp/dataset/9/29_5.odb,Step-1,Increment      1: Step Time =    1.000,"PART-1-1",           360,  -124.098E-03,       3.84974,            0.,NA,NA,"",       8.95668,      -7.50376,      -4.89038,   9.64118E-03
C:/temp/dataset/9/29_5.odb,Step-1,Increment      1: Step Time =    1.000,"PART-1-1",           361,         -1.25,            5.,            0.,NA,NA,"",       9.54515,      -7.86261,      -5.41195,   11.9527E-03
C:/temp/dataset/9/29_5.odb,Step-1,Increment      1: Step Time =    1.000,"PART-1-1",           362,      -11.2683,  -541.568E-03,            0.,NA,NA,"",       10.1726,      -4.99066,      -8.86427,   1.50868E-03
C:/temp/dataset/9/29_5.odb,Step-1,Increment      1: Step Time =    1.000,"PART-1-1",           363,      -10.4743,   471.696E-03,            0.,NA,NA,"",       10.2082,      -5.44470,      -8.63491,   1.62904E-03
C:/temp/dataset/9/29_5.odb,Step-1,Increment      1: Step Time =    1.000,"PART-1-1",           364,      -11.9503,       1.36743,            0.,NA,NA,"",       10.8788,      -5.67670,      -9.28021,   1.30580E-03
C:/temp/dataset/9/29_5.odb,Step-1,Increment      1: Step Time =    1.000,"PART-1-1",           365,      -13.0095,       9.29789,            0.,NA,NA,"",       13.4924,      -8.68864,      -10.3224,   3.20951E-03
C:/temp/dataset/9/29_5.odb,Step-1,Increment      1: Step Time =    1.000,"PART-1-1",           366,      -14.0417,       10.3496,            0.,NA,NA,"",       14.0721,      -9.01822,      -10.8026,   3.57006E-03
C:/temp/dataset/9/29_5.odb,Step-1,Increment      1: Step Time =    1.000,"PART-1-1",           367,          -15.,       9.21875,            0.,NA,NA,"",       13.9710,      -8.49973,      -11.0880,   3.12408E-03
C:/temp/dataset/9/29_5.odb,Step-1,Increment      1: Step Time =    1.000,"PART-1-1",           368,      -6.40766,      -1.28741,            0.,NA,NA,"",       8.58407,      -5.08421,      -6.91643,   2.43596E-03
C:/temp/dataset/9/29_5.odb,Step-1,Increment      1: Step Time =    1.000,"PART-1-1",           369,      -5.35016,  -573.084E-03,            0.,NA,NA,"",       8.52395,      -5.44117,      -6.56136,   2.59732E-03
C:/temp/dataset/9/29_5.odb,Step-1,Increment      1: Step Time =    1.000,"PART-1-1",           370,      -6.23385,   230.463E-03,            0.,NA,NA,"",       8.98854,      -5.68091,      -6.96570,   2.88519E-03
C:/temp/dataset/9/29_5.odb,Step-1,Increment      1: Step Time =    1.000,"PART-1-1",           371,      -7.29135,  -483.859E-03,            0.,NA,NA,"",       9.05255,      -5.32408,      -7.32139,   2.56614E-03
C:/temp/dataset/9/29_5.odb,Step-1,Increment      1: Step Time =    1.000,"PART-1-1",           372,   952.242E-03,      -2.53706,            0.,NA,NA,"",       6.54835,      -5.18324,      -4.00186,   4.68799E-03
C:/temp/dataset/9/29_5.odb,Step-1,Increment      1: Step Time =    1.000,"PART-1-1",           373,  -130.910E-03,      -3.80019,            0.,NA,NA,"",       6.32359,      -4.61709,      -4.32090,   4.61625E-03
C:/temp/dataset/9/29_5.odb,Step-1,Increment      1: Step Time =    1.000,"PART-1-1",           374,          1.25,           -5.,            0.,NA,NA,"",       5.65396,      -4.26779,      -3.70853,   6.56940E-03
C:/temp/dataset/9/29_5.odb,Step-1,Increment      1: Step Time =    1.000,"PART-1-1",           375,       2.33315,      -3.73687,            0.,NA,NA,"",       5.90840,      -4.84081,      -3.38760,   6.90862E-03
C:/temp/dataset/9/29_5.odb,Step-1,Increment      1: Step Time =    1.000,"PART-1-1",           376,       4.26686,      -1.13377,            0.,NA,NA,"",       6.59669,      -5.94755,      -2.85358,   12.9564E-03
C:/temp/dataset/9/29_5.odb,Step-1,Increment      1: Step Time =    1.000,"PART-1-1",           377,       2.05254,      -1.20548,            0.,NA,NA,"",       6.84328,      -5.76735,      -3.68351,   4.94571E-03
C:/temp/dataset/9/29_5.odb,Step-1,Increment      1: Step Time =    1.000,"PART-1-1",           378,       3.27323,      -2.40335,            0.,NA,NA,"",       6.25255,      -5.41473,      -3.12650,   8.57182E-03
C:/temp/dataset/9/29_5.odb,Step-1,Increment      1: Step Time =    1.000,"PART-1-1",           379,       10.4325,       1.51548,            0.,NA,NA,"",       7.33554,      -7.28805,  -833.353E-03,   11.0464E-03
C:/temp/dataset/9/29_5.odb,Step-1,Increment      1: Step Time =    1.000,"PART-1-1",           380,       11.3847,  -3.51279E-03,            0.,NA,NA,"",       6.79618,      -6.78479,  -393.446E-03,   14.1924E-03
C:/temp/dataset/9/29_5.odb,Step-1,Increment      1: Step Time =    1.000,"PART-1-1",           381,       12.7244,       1.31309,            0.,NA,NA,"",       7.36845,      -7.36845,  -788.582E-06,   15.2478E-03
C:/temp/dataset/9/29_5.odb,Step-1,Increment      1: Step Time =    1.000,"PART-1-1",           382,       11.7722,       2.83209,            0.,NA,NA,"",       7.88391,      -7.87157,  -440.860E-03,   9.94284E-03
C:/temp/dataset/9/29_5.odb,Step-1,Increment      1: Step Time =    1.000,"PART-1-1",           383,       9.00808,      -7.25637,            0.,NA,NA,"",       4.15269,      -4.08735,  -733.768E-03,   12.3337E-03
C:/temp/dataset/9/29_5.odb,Step-1,Increment      1: Step Time =    1.000,"PART-1-1",           384,       7.95196,      -6.36313,            0.,NA,NA,"",       4.46721,      -4.32416,      -1.12146,   17.2578E-03
C:/temp/dataset/9/29_5.odb,Step-1,Increment      1: Step Time =    1.000,"PART-1-1",           385,       7.00211,      -7.70397,            0.,NA,NA,"",       4.08011,      -3.85879,      -1.32555,   29.9235E-03
C:/temp/dataset/9/29_5.odb,Step-1,Increment      1: Step Time =    1.000,"PART-1-1",           386,       8.05823,      -8.59720,            0.,NA,NA,"",       3.74785,      -3.62813,  -939.704E-03,   20.7409E-03
C:/temp/dataset/9/29_5.odb,Step-1,Increment      1: Step Time =    1.000,"PART-1-1",           387,       7.09104,      -12.0381,            0.,NA,NA,"",       2.80234,      -2.62385,  -984.135E-03,   36.0330E-03
C:/temp/dataset/9/29_5.odb,Step-1,Increment      1: Step Time =    1.000,"PART-1-1",           388,       6.04129,      -11.1013,            0.,NA,NA,"",       3.15420,      -2.85390,      -1.34323,   47.5353E-03
C:/temp/dataset/9/29_5.odb,Step-1,Increment      1: Step Time =    1.000,"PART-1-1",           389,            5.,      -12.2917,            0.,NA,NA,"",       2.95594,      -2.52810,      -1.53177,   62.8764E-03
C:/temp/dataset/9/29_5.odb,Step-1,Increment      1: Step Time =    1.000,"PART-1-1",           390,       9.13117,      -18.4822,            0.,NA,NA,"",       1.19116,      -1.17318,  -206.153E-03,   14.8069E-03
C:/temp/dataset/9/29_5.odb,Step-1,Increment      1: Step Time =    1.000,"PART-1-1",           391,       10.1297,      -19.6034,            0.,NA,NA,"",   980.119E-03,  -980.049E-03,  -11.7857E-03,   10.7149E-03
C:/temp/dataset/9/29_5.odb,Step-1,Increment      1: Step Time =    1.000,"PART-1-1",           392,       11.1535,      -18.5257,            0.,NA,NA,"",       1.21510,      -1.20507,   155.834E-03,   22.3240E-03
C:/temp/dataset/9/29_5.odb,Step-1,Increment      1: Step Time =    1.000,"PART-1-1",           393,       10.1550,      -17.4045,            0.,NA,NA,"",       1.40862,      -1.40805,  -39.8556E-03,   10.6575E-03
C:/temp/dataset/9/29_5.odb,Step-1,Increment      1: Step Time =    1.000,"PART-1-1",           394,       6.27183,       14.9637,            0.,NA,NA,"",       12.6012,      -12.1229,      -3.43891,   2.87379E-03
C:/temp/dataset/9/29_5.odb,Step-1,Increment      1: Step Time =    1.000,"PART-1-1",           395,       7.52438,       16.1859,            0.,NA,NA,"",       13.0611,      -12.6994,      -3.05246,   5.00468E-03
C:/temp/dataset/9/29_5.odb,Step-1,Increment      1: Step Time =    1.000,"PART-1-1",           396,            5.,         16.25,            0.,NA,NA,"",       13.1616,      -12.5261,      -4.04031,   1.21469E-03
C:/temp/dataset/9/29_5.odb,Step-1,Increment      1: Step Time =    1.000,"PART-1-1",           397,       2.56719,       21.1071,            0.,NA,NA,"",       15.2465,      -14.2788,      -5.34530,   7.43621E-03
C:/temp/dataset/9/29_5.odb,Step-1,Increment      1: Step Time =    1.000,"PART-1-1",           398,       1.41709,       22.2600,            0.,NA,NA,"",       15.7680,      -14.6358,      -5.86704,   5.64865E-03
C:/temp/dataset/9/29_5.odb,Step-1,Increment      1: Step Time =    1.000,"PART-1-1",           399,   99.9026E-03,       21.1528,            0.,NA,NA,"",       15.4632,      -14.1311,      -6.27881,   6.46263E-03
C:/temp/dataset/9/29_5.odb,Step-1,Increment      1: Step Time =    1.000,"PART-1-1",           400,          1.25,           20.,            0.,NA,NA,"",       14.9319,      -13.7772,      -5.75766,   8.32152E-03
C:/temp/dataset/9/29_5.odb,Step-1,Increment      1: Step Time =    1.000,"PART-1-1",           401,       7.55593,       13.6250,            0.,NA,NA,"",       12.0370,      -11.6987,      -2.83341,   4.80129E-03
C:/temp/dataset/9/29_5.odb,Step-1,Increment      1: Step Time =    1.000,"PART-1-1",           402,            5.,         13.75,            0.,NA,NA,"",       12.1711,      -11.5513,      -3.83474,   4.52675E-03
C:/temp/dataset/9/29_5.odb,Step-1,Increment      1: Step Time =    1.000,"PART-1-1",           403,       8.77818,       14.9146,            0.,NA,NA,"",       12.5420,      -12.2970,      -2.46698,   5.27553E-03
C:/temp/dataset/9/29_5.odb,Step-1,Increment      1: Step Time =    1.000,"PART-1-1",           404,       10.0010,       16.1752,            0.,NA,NA,"",       13.0551,      -12.8855,      -2.09756,   5.79968E-03
C:/temp/dataset/9/29_5.odb,Step-1,Increment      1: Step Time =    1.000,"PART-1-1",           405,       8.74716,       17.4465,            0.,NA,NA,"",       13.5567,      -13.2888,      -2.68199,   5.72217E-03
C:/temp/dataset/9/29_5.odb,Step-1,Increment      1: Step Time =    1.000,"PART-1-1",           406,       10.1219,       5.90684,            0.,NA,NA,"",       9.00343,      -8.91455,      -1.26192,   5.16638E-03
C:/temp/dataset/9/29_5.odb,Step-1,Increment      1: Step Time =    1.000,"PART-1-1",           407,       8.94830,       5.07672,            0.,NA,NA,"",       8.67498,      -8.51954,      -1.63487,   5.71367E-03
C:/temp/dataset/9/29_5.odb,Step-1,Increment      1: Step Time =    1.000,"PART-1-1",           408,       9.72441,       3.42413,            0.,NA,NA,"",       8.04782,      -7.95374,      -1.22691,   7.20680E-03
C:/temp/dataset/9/29_5.odb,Step-1,Increment      1: Step Time =    1.000,"PART-1-1",           409,       10.8980,       4.25426,            0.,NA,NA,"",       8.38943,      -8.34552,  -857.187E-03,   7.23246E-03
C:/temp/dataset/9/29_5.odb,Step-1,Increment      1: Step Time =    1.000,"PART-1-1",           410,       8.15250,       6.68373,            0.,NA,NA,"",       9.29767,      -9.06835,      -2.05225,   5.66374E-03
C:/temp/dataset/9/29_5.odb,Step-1,Increment      1: Step Time =    1.000,"PART-1-1",           411,       9.64075,       7.71724,            0.,NA,NA,"",       9.69737,      -9.56858,      -1.57519,   5.40642E-03
C:/temp/dataset/9/29_5.odb,Step-1,Increment      1: Step Time =    1.000,"PART-1-1",           412,       8.79696,       9.37373,            0.,NA,NA,"",       10.3414,      -10.1422,      -2.01965,   5.57475E-03
C:/temp/dataset/9/29_5.odb,Step-1,Increment      1: Step Time =    1.000,"PART-1-1",           413,   959.485E-03,       2.63099,            0.,NA,NA,"",       8.36341,      -7.12109,      -4.38596,   6.72719E-03
C:/temp/dataset/9/29_5.odb,Step-1,Increment      1: Step Time =    1.000,"PART-1-1",           414,       2.33358,       3.78125,            0.,NA,NA,"",       8.60188,      -7.63724,      -3.95788,   9.99820E-03
C:/temp/dataset/9/29_5.odb,Step-1,Increment      1: Step Time =    1.000,"PART-1-1",           415,          1.25,            5.,            0.,NA,NA,"",       9.17623,      -8.02067,      -4.45781,   13.1879E-03
C:/temp/dataset/9/29_5.odb,Step-1,Increment      1: Step Time =    1.000,"PART-1-1",           416,      -9.23288,       7.29816,            0.,NA,NA,"",       11.9561,      -8.19796,      -8.70304,   4.40082E-03
C:/temp/dataset/9/29_5.odb,Step-1,Increment      1: Step Time =    1.000,"PART-1-1",           417,      -8.32915,       6.01548,            0.,NA,NA,"",       11.3273,      -7.76440,      -8.24750,   4.60389E-03
C:/temp/dataset/9/29_5.odb,Step-1,Increment      1: Step Time =    1.000,"PART-1-1",           418,      -7.21136,       6.82340,            0.,NA,NA,"",       11.3480,      -8.16641,      -7.87949,   4.16567E-03
C:/temp/dataset/9/29_5.odb,Step-1,Increment      1: Step Time =    1.000,"PART-1-1",           419,      -8.11509,       8.10607,            0.,NA,NA,"",       11.9774,      -8.60051,      -8.33602,   4.07108E-03
C:/temp/dataset/9/29_5.odb,Step-1,Increment      1: Step Time =    1.000,"PART-1-1",           420,      -13.1318,       11.4675,            0.,NA,NA,"",       14.2045,      -9.52594,      -10.5368,   3.71349E-03
C:/temp/dataset/9/29_5.odb,Step-1,Increment      1: Step Time =    1.000,"PART-1-1",           421,      -14.0901,       12.5242,            0.,NA,NA,"",       14.7613,      -9.86120,      -10.9843,   5.00504E-03
C:/temp/dataset/9/29_5.odb,Step-1,Increment      1: Step Time =    1.000,"PART-1-1",           422,          -15.,       11.4063,            0.,NA,NA,"",       14.6326,      -9.35383,      -11.2525,   5.29183E-03
C:/temp/dataset/9/29_5.odb,Step-1,Increment      1: Step Time =    1.000,"PART-1-1",           423,      -9.35396,       14.3983,            0.,NA,NA,"",       14.3789,      -10.9529,      -9.31596,   2.69594E-03
C:/temp/dataset/9/29_5.odb,Step-1,Increment      1: Step Time =    1.000,"PART-1-1",           424,      -10.5094,       15.3924,            0.,NA,NA,"",       14.9354,      -11.2441,      -9.83027,   2.30834E-03
C:/temp/dataset/9/29_5.odb,Step-1,Increment      1: Step Time =    1.000,"PART-1-1",           425,      -11.3610,       13.8160,            0.,NA,NA,"",       14.5787,      -10.5738,      -10.0366,   2.84089E-03
C:/temp/dataset/9/29_5.odb,Step-1,Increment      1: Step Time =    1.000,"PART-1-1",           426,      -10.2056,       12.8219,            0.,NA,NA,"",       14.0101,      -10.2791,      -9.51953,   3.40252E-03
C:/temp/dataset/9/29_5.odb,Step-1,Increment      1: Step Time =    1.000,"PART-1-1",           427,      -14.0810,       18.8007,            0.,NA,NA,"",       16.7593,      -12.2614,      -11.4250,   4.76901E-03
C:/temp/dataset/9/29_5.odb,Step-1,Increment      1: Step Time =    1.000,"PART-1-1",           428,          -15.,       17.9688,            0.,NA,NA,"",       16.6816,      -11.8779,      -11.7128,   6.56223E-03
C:/temp/dataset/9/29_5.odb,Step-1,Increment      1: Step Time =    1.000,"PART-1-1",           429,      -14.2329,       16.7349,            0.,NA,NA,"",       16.1279,      -11.4686,      -11.3393,   5.94383E-03
C:/temp/dataset/9/29_5.odb,Step-1,Increment      1: Step Time =    1.000,"PART-1-1",           430,      -13.3139,       17.5668,            0.,NA,NA,"",       16.2060,      -11.8544,      -11.0502,   4.28144E-03
C:/temp/dataset/9/29_5.odb,Step-1,Increment      1: Step Time =    1.000,"PART-1-1",           431,      -12.9537,       19.5700,            0.,NA,NA,"",       16.7882,      -12.6348,      -11.0548,   3.65923E-03
C:/temp/dataset/9/29_5.odb,Step-1,Increment      1: Step Time =    1.000,"PART-1-1",           432,      -13.8727,       20.9255,            0.,NA,NA,"",       17.4072,      -13.0729,      -11.4938,   3.26385E-03
C:/temp/dataset/9/29_5.odb,Step-1,Increment      1: Step Time =    1.000,"PART-1-1",           433,          -15.,       20.1563,            0.,NA,NA,"",       17.3790,      -12.7016,      -11.8616,   4.78738E-03
C:/temp/dataset/9/29_5.odb,Step-1,Increment      1: Step Time =    1.000,"PART-1-1",           434,       1.76445,       24.7908,            0.,NA,NA,"",       16.7027,      -15.6160,      -5.92642,   2.50159E-03
C:/temp/dataset/9/29_5.odb,Step-1,Increment      1: Step Time =    1.000,"PART-1-1",           435,       1.36974,       27.3866,            0.,NA,NA,"",       17.7143,      -16.5686,      -6.26725,   1.36433E-03
C:/temp/dataset/9/29_5.odb,Step-1,Increment      1: Step Time =    1.000,"PART-1-1",           436,   176.493E-03,       26.0346,            0.,NA,NA,"",       17.2871,      -15.9713,      -6.61524,   1.97951E-03
C:/temp/dataset/9/29_5.odb,Step-1,Increment      1: Step Time =    1.000,"PART-1-1",           437,       7.39460,       20.9669,            0.,NA,NA,"",       14.9766,      -14.5647,      -3.48839,   4.89743E-03
C:/temp/dataset/9/29_5.odb,Step-1,Increment      1: Step Time =    1.000,"PART-1-1",           438,       8.70526,       19.9066,            0.,NA,NA,"",       14.5408,      -14.2493,      -2.89663,   4.88291E-03
C:/temp/dataset/9/29_5.odb,Step-1,Increment      1: Step Time =    1.000,"PART-1-1",           439,       9.85134,       21.1719,            0.,NA,NA,"",       15.0458,      -14.8273,      -2.55507,   2.80541E-03
C:/temp/dataset/9/29_5.odb,Step-1,Increment      1: Step Time =    1.000,"PART-1-1",           440,       8.54068,       22.2321,            0.,NA,NA,"",       15.4620,      -15.1386,      -3.14544,   2.93367E-03
C:/temp/dataset/9/29_5.odb,Step-1,Increment      1: Step Time =    1.000,"PART-1-1",           441,       4.10864,       24.1658,            0.,NA,NA,"",       16.3313,      -15.5491,      -4.99371,   2.08427E-03
C:/temp/dataset/9/29_5.odb,Step-1,Increment      1: Step Time =    1.000,"PART-1-1",           442,       5.90921,       23.8009,            0.,NA,NA,"",       16.1215,      -15.5431,      -4.27956,   1.99955E-03
C:/temp/dataset/9/29_5.odb,Step-1,Increment      1: Step Time =    1.000,"PART-1-1",           443,       6.25965,       24.9450,            0.,NA,NA,"",       16.5564,      -16.0065,      -4.23171,   1.34370E-03
C:/temp/dataset/9/29_5.odb,Step-1,Increment      1: Step Time =    1.000,"PART-1-1",           444,   19.2837E-03,       28.6494,            0.,NA,NA,"",       18.2828,      -16.9447,      -6.86578,   1.86764E-03
C:/temp/dataset/9/29_5.odb,Step-1,Increment      1: Step Time =    1.000,"PART-1-1",           445,       2.60045,       28.7372,            0.,NA,NA,"",       18.1579,      -17.1715,      -5.90333,   2.46875E-03
C:/temp/dataset/9/29_5.odb,Step-1,Increment      1: Step Time =    1.000,"PART-1-1",           446,          1.25,           30.,            0.,NA,NA,"",       18.7118,      -17.5456,      -6.50256,   3.45686E-03
C:/temp/dataset/9/29_5.odb,Step-1,Increment      1: Step Time =    1.000,"PART-1-1",           447,      -7.67774,       29.0428,            0.,NA,NA,"",       19.2010,      -16.5353,      -9.76030,   691.554E-06
C:/temp/dataset/9/29_5.odb,Step-1,Increment      1: Step Time =    1.000,"PART-1-1",           448,      -6.68998,       27.9093,            0.,NA,NA,"",       18.6707,      -16.1835,      -9.31069,   1.04487E-03
C:/temp/dataset/9/29_5.odb,Step-1,Increment      1: Step Time =    1.000,"PART-1-1",           449,         -6.25,           30.,            0.,NA,NA,"",       19.3708,      -16.9934,      -9.29795,   213.789E-06
C:/temp/dataset/9/29_5.odb,Step-1,Increment      1: Step Time =    1.000,"PART-1-1",           450,      -12.1701,       26.6384,            0.,NA,NA,"",       19.0139,      -15.3201,      -11.2615,   1.02826E-03
C:/temp/dataset/9/29_5.odb,Step-1,Increment      1: Step Time =    1.000,"PART-1-1",           451,      -13.7206,       27.8542,            0.,NA,NA,"",       19.6847,      -15.6605,      -11.9262,   273.303E-06
C:/temp/dataset/9/29_5.odb,Step-1,Increment      1: Step Time =    1.000,"PART-1-1",           452,          -15.,       26.7188,            0.,NA,NA,"",       19.5248,      -15.1464,      -12.3209,   409.508E-06
C:/temp/dataset/9/29_5.odb,Step-1,Increment      1: Step Time =    1.000,"PART-1-1",           453,        -13.75,           30.,            0.,NA,NA,"",       20.4211,      -16.4568,      -12.0911,   39.1512E-06
C:/temp/dataset/9/29_5.odb,Step-1,Increment      1: Step Time =    1.000,"PART-1-1",           454,          -15.,       28.9063,            0.,NA,NA,"",       20.2587,      -15.9600,      -12.4777,   34.2494E-06
C:/temp/dataset/9/29_5.odb,Step-1,Increment      1: Step Time =    1.000,"PART-1-1",           455,      -9.01567,       28.1413,            0.,NA,NA,"",       19.0594,      -16.1044,      -10.1935,   708.050E-06
C:/temp/dataset/9/29_5.odb,Step-1,Increment      1: Step Time =    1.000,"PART-1-1",           456,         -8.75,           30.,            0.,NA,NA,"",       19.6817,      -16.8150,      -10.2287,   585.379E-06
C:/temp/dataset/9/29_5.odb,Step-1,Increment      1: Step Time =    1.000,"PART-1-1",           457,      -10.9923,       18.6369,            0.,NA,NA,"",       16.1127,      -12.4329,      -10.2490,   3.44048E-03
C:/temp/dataset/9/29_5.odb,Step-1,Increment      1: Step Time =    1.000,"PART-1-1",           458,      -11.7056,       20.1347,            0.,NA,NA,"",       16.7421,      -12.9388,      -10.6247,   3.51554E-03
C:/temp/dataset/9/29_5.odb,Step-1,Increment      1: Step Time =    1.000,"PART-1-1",           459,      -12.2405,       18.0722,            0.,NA,NA,"",       16.1594,      -12.1266,      -10.6804,   3.52849E-03
C:/temp/dataset/9/29_5.odb,Step-1,Increment      1: Step Time =    1.000,"PART-1-1",           460,      -11.7153,       17.0060,            0.,NA,NA,"",       15.7061,      -11.7645,      -10.4057,   3.02487E-03
C:/temp/dataset/9/29_5.odb,Step-1,Increment      1: Step Time =    1.000,"PART-1-1",           461,      -12.7888,       16.5007,            0.,NA,NA,"",       15.7531,      -11.4906,      -10.7762,   3.88406E-03
C:/temp/dataset/9/29_5.odb,Step-1,Increment      1: Step Time =    1.000,"PART-1-1",           462,      -13.2634,       13.5986,            0.,NA,NA,"",       14.9148,      -10.3421,      -10.7467,   4.16294E-03
C:/temp/dataset/9/29_5.odb,Step-1,Increment      1: Step Time =    1.000,"PART-1-1",           463,      -14.1733,       14.6682,            0.,NA,NA,"",       15.4573,      -10.6830,      -11.1714,   5.93298E-03
C:/temp/dataset/9/29_5.odb,Step-1,Increment      1: Step Time =    1.000,"PART-1-1",           464,          -15.,       13.5938,            0.,NA,NA,"",       15.3073,      -10.2033,      -11.4108,   6.89051E-03
C:/temp/dataset/9/29_5.odb,Step-1,Increment      1: Step Time =    1.000,"PART-1-1",           465,      -6.04154,       10.1420,            0.,NA,NA,"",       12.2710,      -9.55662,      -7.69728,   4.49390E-03
C:/temp/dataset/9/29_5.odb,Step-1,Increment      1: Step Time =    1.000,"PART-1-1",           466,      -7.09581,       9.10381,            0.,NA,NA,"",       12.1084,      -9.06973,      -8.02209,   3.95240E-03
C:/temp/dataset/9/29_5.odb,Step-1,Increment      1: Step Time =    1.000,"PART-1-1",           467,      -6.05428,       7.71180,            0.,NA,NA,"",       11.4159,      -8.60553,      -7.50120,   2.76163E-03
C:/temp/dataset/9/29_5.odb,Step-1,Increment      1: Step Time =    1.000,"PART-1-1",           468,           -5.,          8.75,            0.,NA,NA,"",       11.5836,      -9.09470,      -7.17398,   3.85137E-03
C:/temp/dataset/9/29_5.odb,Step-1,Increment      1: Step Time =    1.000,"PART-1-1",           469,      -6.15708,       5.36159,            0.,NA,NA,"",       10.6223,      -7.67137,      -7.34728,   6.28345E-03
C:/temp/dataset/9/29_5.odb,Step-1,Increment      1: Step Time =    1.000,"PART-1-1",           470,           -5.,          6.25,            0.,NA,NA,"",       10.6951,      -8.11483,      -6.96668,   2.77658E-03
C:/temp/dataset/9/29_5.odb,Step-1,Increment      1: Step Time =    1.000,"PART-1-1",           471,      -13.8567,       3.63033,            0.,NA,NA,"",       12.0471,      -6.40726,      -10.2019,   1.14384E-03
C:/temp/dataset/9/29_5.odb,Step-1,Increment      1: Step Time =    1.000,"PART-1-1",           472,      -12.5372,       4.63979,            0.,NA,NA,"",       11.9626,      -6.90375,      -9.76942,   1.84182E-03
C:/temp/dataset/9/29_5.odb,Step-1,Increment      1: Step Time =    1.000,"PART-1-1",           473,          -15.,       4.84375,            0.,NA,NA,"",       12.7101,      -6.79024,      -10.7442,   640.553E-06
C:/temp/dataset/9/29_5.odb,Step-1,Increment      1: Step Time =    1.000,"PART-1-1",           474,      -12.7859,       2.45238,            0.,NA,NA,"",       11.4157,      -6.03271,      -9.69145,   1.01970E-03
C:/temp/dataset/9/29_5.odb,Step-1,Increment      1: Step Time =    1.000,"PART-1-1",           475,          -15.,       2.65625,            0.,NA,NA,"",       12.1234,      -5.93894,      -10.5691,   1.33154E-03
C:/temp/dataset/9/29_5.odb,Step-1,Increment      1: Step Time =    1.000,"PART-1-1",           476,      -13.7683,      -2.81830,            0.,NA,NA,"",       10.4202,      -3.91282,      -9.65767,   477.505E-06
C:/temp/dataset/9/29_5.odb,Step-1,Increment      1: Step Time =    1.000,"PART-1-1",           477,          -15.,      -3.90625,            0.,NA,NA,"",       10.6082,      -3.39438,      -10.0504,   76.4471E-06
C:/temp/dataset/9/29_5.odb,Step-1,Increment      1: Step Time =    1.000,"PART-1-1",           478,        -13.75,           -5.,            0.,NA,NA,"",       9.96366,      -3.06791,      -9.47958,   88.0760E-06
C:/temp/dataset/9/29_5.odb,Step-1,Increment      1: Step Time =    1.000,"PART-1-1",           479,      -12.5183,      -3.91205,            0.,NA,NA,"",       9.76891,      -3.58698,      -9.08654,   488.406E-06
C:/temp/dataset/9/29_5.odb,Step-1,Increment      1: Step Time =    1.000,"PART-1-1",           480,      -3.91473,      -3.03803,            0.,NA,NA,"",       7.42497,      -4.60882,      -5.82143,   3.01918E-03
C:/temp/dataset/9/29_5.odb,Step-1,Increment      1: Step Time =    1.000,"PART-1-1",           481,      -5.07319,      -4.05962,            0.,NA,NA,"",       7.43758,      -4.12338,      -6.18994,   3.44316E-03
C:/temp/dataset/9/29_5.odb,Step-1,Increment      1: Step Time =    1.000,"PART-1-1",           482,         -3.75,           -5.,            0.,NA,NA,"",       6.81487,      -3.86755,      -5.61111,   4.94426E-03
C:/temp/dataset/9/29_5.odb,Step-1,Increment      1: Step Time =    1.000,"PART-1-1",           483,      -2.59153,      -3.97841,            0.,NA,NA,"",       6.81579,      -4.35355,      -5.24420,   4.31169E-03
C:/temp/dataset/9/29_5.odb,Step-1,Increment      1: Step Time =    1.000,"PART-1-1",           484,   563.435E-03,   72.7383E-03,            0.,NA,NA,"",       7.51762,      -6.13625,      -4.34293,   3.09768E-03
C:/temp/dataset/9/29_5.odb,Step-1,Increment      1: Step Time =    1.000,"PART-1-1",           485,  -536.863E-03,      -1.25885,            0.,NA,NA,"",       7.24955,      -5.55169,      -4.66205,   2.49161E-03
C:/temp/dataset/9/29_5.odb,Step-1,Increment      1: Step Time =    1.000,"PART-1-1",           486,       7.06616,      -9.87010,            0.,NA,NA,"",       3.41798,      -3.22058,      -1.14475,   33.8718E-03
C:/temp/dataset/9/29_5.odb,Step-1,Increment      1: Step Time =    1.000,"PART-1-1",           487,       6.02487,      -8.97716,            0.,NA,NA,"",       3.77217,      -3.45048,      -1.52428,   44.5977E-03
C:/temp/dataset/9/29_5.odb,Step-1,Increment      1: Step Time =    1.000,"PART-1-1",           488,            5.,      -10.2083,            0.,NA,NA,"",       3.52861,      -3.07891,      -1.72377,   57.9690E-03
C:/temp/dataset/9/29_5.odb,Step-1,Increment      1: Step Time =    1.000,"PART-1-1",           489,       13.0743,      -11.4048,            0.,NA,NA,"",       3.07700,      -3.02397,   568.806E-03,   39.8689E-03
C:/temp/dataset/9/29_5.odb,Step-1,Increment      1: Step Time =    1.000,"PART-1-1",           490,       14.0423,      -12.5586,            0.,NA,NA,"",       2.86977,      -2.75066,   818.176E-03,   53.4860E-03
C:/temp/dataset/9/29_5.odb,Step-1,Increment      1: Step Time =    1.000,"PART-1-1",           491,           15.,        -11.25,            0.,NA,NA,"",       3.36519,      -3.18498,       1.08647,   62.6001E-03
C:/temp/dataset/9/29_5.odb,Step-1,Increment      1: Step Time =    1.000,"PART-1-1",           492,       14.0319,      -10.0962,            0.,NA,NA,"",       3.56614,      -3.46925,   825.628E-03,   48.7578E-03
C:/temp/dataset/9/29_5.odb,Step-1,Increment      1: Step Time =    1.000,"PART-1-1",           493,       7.09943,      -16.3632,            0.,NA,NA,"",       1.73500,      -1.58607,  -703.275E-03,   41.0401E-03
C:/temp/dataset/9/29_5.odb,Step-1,Increment      1: Step Time =    1.000,"PART-1-1",           494,            5.,      -16.4583,            0.,NA,NA,"",       1.95160,      -1.56943,      -1.16001,   72.0789E-03
C:/temp/dataset/9/29_5.odb,Step-1,Increment      1: Step Time =    1.000,"PART-1-1",           495,       13.0966,      -13.8278,            0.,NA,NA,"",       2.42676,      -2.35767,   574.940E-03,   43.5928E-03
C:/temp/dataset/9/29_5.odb,Step-1,Increment      1: Step Time =    1.000,"PART-1-1",           496,       14.0543,      -15.0192,            0.,NA,NA,"",       2.24240,      -2.10204,   780.887E-03,   58.1599E-03
C:/temp/dataset/9/29_5.odb,Step-1,Increment      1: Step Time =    1.000,"PART-1-1",           497,           15.,        -13.75,            0.,NA,NA,"",       2.68934,      -2.48239,       1.03456,   68.2319E-03
C:/temp/dataset/9/29_5.odb,Step-1,Increment      1: Step Time =    1.000,"PART-1-1",           498,       13.0974,      -18.6352,            0.,NA,NA,"",       1.34360,      -1.24751,   498.977E-03,   50.5205E-03
C:/temp/dataset/9/29_5.odb,Step-1,Increment      1: Step Time =    1.000,"PART-1-1",           499,       14.0421,      -19.9133,            0.,NA,NA,"",       1.21061,      -1.04316,   614.323E-03,   66.9677E-03
C:/temp/dataset/9/29_5.odb,Step-1,Increment      1: Step Time =    1.000,"PART-1-1",           500,           15.,        -18.75,            0.,NA,NA,"",       1.55357,      -1.31029,   834.694E-03,   79.2996E-03
C:/temp/dataset/9/29_5.odb,Step-1,Increment      1: Step Time =    1.000,"PART-1-1",           501,       14.0553,      -17.4719,            0.,NA,NA,"",       1.68813,      -1.53053,   712.229E-03,   62.6986E-03
C:/temp/dataset/9/29_5.odb,Step-1,Increment      1: Step Time =    1.000,"PART-1-1",           502,       7.12541,      -22.7005,            0.,NA,NA,"",   606.934E-03,  -496.925E-03,  -348.475E-03,   47.9140E-03
C:/temp/dataset/9/29_5.odb,Step-1,Increment      1: Step Time =    1.000,"PART-1-1",           503,       6.04628,      -21.6612,            0.,NA,NA,"",   857.885E-03,  -652.680E-03,  -556.755E-03,   65.1998E-03
C:/temp/dataset/9/29_5.odb,Step-1,Increment      1: Step Time =    1.000,"PART-1-1",           504,            5.,      -22.7083,            0.,NA,NA,"",   827.416E-03,  -543.110E-03,  -624.218E-03,   85.7625E-03
C:/temp/dataset/9/29_5.odb,Step-1,Increment      1: Step Time =    1.000,"PART-1-1",           505,       6.07914,      -23.7476,            0.,NA,NA,"",   568.785E-03,  -393.249E-03,  -410.940E-03,   68.1610E-03
C:/temp/dataset/9/29_5.odb,Step-1,Increment      1: Step Time =    1.000,"PART-1-1",           506,       6.22304,      -27.8948,            0.,NA,NA,"",   142.268E-03,  -68.4143E-03,  -124.738E-03,   72.9528E-03
C:/temp/dataset/9/29_5.odb,Step-1,Increment      1: Step Time =    1.000,"PART-1-1",           507,            5.,      -28.9583,            0.,NA,NA,"",   113.003E-03,  -69.3018E-03,  -89.2576E-03,   97.0574E-03
C:/temp/dataset/9/29_5.odb,Step-1,Increment      1: Step Time =    1.000,"PART-1-1",           508,          6.25,          -30.,            0.,NA,NA,"",            0.,   3.12908E-39,  -105.814E-39,   67.6431E-03
C:/temp/dataset/9/29_5.odb,Step-1,Increment      1: Step Time =    1.000,"PART-1-1",           509,       9.78444,      -26.6535,            0.,NA,NA,"",   94.7642E-03,  -94.5682E-03,  -6.09038E-03,   10.5084E-03
C:/temp/dataset/9/29_5.odb,Step-1,Increment      1: Step Time =    1.000,"PART-1-1",           510,       8.47427,      -25.6871,            0.,NA,NA,"",   196.250E-03,  -168.697E-03,  -100.275E-03,   27.7171E-03
C:/temp/dataset/9/29_5.odb,Step-1,Increment      1: Step Time =    1.000,"PART-1-1",           511,       7.37694,      -26.8334,            0.,NA,NA,"",   162.656E-03,  -100.146E-03,  -128.170E-03,   47.9564E-03
C:/temp/dataset/9/29_5.odb,Step-1,Increment      1: Step Time =    1.000,"PART-1-1",           512,       13.7223,      -27.5034,            0.,NA,NA,"",   189.706E-03,  -110.491E-03,   154.208E-03,   75.4496E-03
C:/temp/dataset/9/29_5.odb,Step-1,Increment      1: Step Time =    1.000,"PART-1-1",           513,       12.4723,      -28.7534,            0.,NA,NA,"",   48.8443E-03,  -18.4401E-03,   45.2297E-03,   45.2599E-03
C:/temp/dataset/9/29_5.odb,Step-1,Increment      1: Step Time =    1.000,"PART-1-1",           514,         13.75,          -30.,            0.,NA,NA,"",            0.,   8.17170E-39,   115.450E-39,   72.8543E-03
C:/temp/dataset/9/29_5.odb,Step-1,Increment      1: Step Time =    1.000,"PART-1-1",           515,           15.,        -28.75,            0.,NA,NA,"",   143.649E-03,  -91.8189E-03,   110.473E-03,   100.921E-03
C:/temp/dataset/9/29_5.odb,Step-1,Increment      1: Step Time =    1.000,"PART-1-1",           516,         11.25,          -30.,            0.,NA,NA,"",            0.,   10.9383E-39,   38.7458E-39,   20.9537E-03
C:/temp/dataset/9/29_5.odb,Step-1,Increment      1: Step Time =    1.000,"PART-1-1",           517,       11.1864,      -27.6167,            0.,NA,NA,"",   67.4230E-03,  -49.6341E-03,   45.6324E-03,   29.1080E-03
C:/temp/dataset/9/29_5.odb,Step-1,Increment      1: Step Time =    1.000,"PART-1-1",           518,       9.10684,      -20.5966,            0.,NA,NA,"",   812.089E-03,  -797.284E-03,  -154.361E-03,   15.5207E-03
C:/temp/dataset/9/29_5.odb,Step-1,Increment      1: Step Time =    1.000,"PART-1-1",           519,       11.0993,      -20.6881,            0.,NA,NA,"",   824.730E-03,  -812.373E-03,   142.228E-03,   22.9138E-03
C:/temp/dataset/9/29_5.odb,Step-1,Increment      1: Step Time =    1.000,"PART-1-1",           520,       7.08739,      -20.6083,            0.,NA,NA,"",   920.219E-03,  -794.966E-03,  -463.500E-03,   46.1536E-03
C:/temp/dataset/9/29_5.odb,Step-1,Increment      1: Step Time =    1.000,"PART-1-1",           521,            5.,       -20.625,            0.,NA,NA,"",       1.15065,  -825.981E-03,  -801.094E-03,   81.1867E-03
C:/temp/dataset/9/29_5.odb,Step-1,Increment      1: Step Time =    1.000,"PART-1-1",           522,       9.14341,      -14.0595,            0.,NA,NA,"",       2.18058,      -2.15132,  -356.061E-03,   13.8292E-03
C:/temp/dataset/9/29_5.odb,Step-1,Increment      1: Step Time =    1.000,"PART-1-1",           523,       10.1582,      -15.1431,            0.,NA,NA,"",       1.91672,      -1.91472,  -87.5416E-03,   10.4537E-03
C:/temp/dataset/9/29_5.odb,Step-1,Increment      1: Step Time =    1.000,"PART-1-1",           524,       11.1509,      -13.9343,            0.,NA,NA,"",       2.24883,      -2.24591,   114.601E-03,   19.6922E-03
C:/temp/dataset/9/29_5.odb,Step-1,Increment      1: Step Time =    1.000,"PART-1-1",           525,       10.1361,      -12.8507,            0.,NA,NA,"",       2.49670,      -2.49166,  -158.562E-03,   10.1884E-03
C:/temp/dataset/9/29_5.odb,Step-1,Increment      1: Step Time =    1.000,"PART-1-1",           526,       9.12292,      -11.8044,            0.,NA,NA,"",       2.77835,      -2.74007,  -459.625E-03,   13.3671E-03
C:/temp/dataset/9/29_5.odb,Step-1,Increment      1: Step Time =    1.000,"PART-1-1",           527,       11.1213,      -11.5948,            0.,NA,NA,"",       2.87448,      -2.87392,   56.8835E-03,   18.3568E-03
C:/temp/dataset/9/29_5.odb,Step-1,Increment      1: Step Time =    1.000,"PART-1-1",           528,       10.1081,      -10.5485,            0.,NA,NA,"",       3.14047,      -3.13053,  -249.589E-03,   10.1006E-03
C:/temp/dataset/9/29_5.odb,Step-1,Increment      1: Step Time =    1.000,"PART-1-1",           529,       13.8169,  -7.21098E-03,            0.,NA,NA,"",       6.96962,      -6.95416,   463.917E-03,   20.7368E-03
C:/temp/dataset/9/29_5.odb,Step-1,Increment      1: Step Time =    1.000,"PART-1-1",           530,           15.,          1.25,            0.,NA,NA,"",       7.56205,      -7.51695,   824.670E-03,   22.1618E-03
C:/temp/dataset/9/29_5.odb,Step-1,Increment      1: Step Time =    1.000,"PART-1-1",           531,       13.9075,       2.57030,            0.,NA,NA,"",       7.93751,      -7.92969,   352.176E-03,   15.6415E-03
C:/temp/dataset/9/29_5.odb,Step-1,Increment      1: Step Time =    1.000,"PART-1-1",           532,       10.8083,      -4.35361,            0.,NA,NA,"",       5.17676,      -5.16643,  -326.946E-03,   18.4883E-03
C:/temp/dataset/9/29_5.odb,Step-1,Increment      1: Step Time =    1.000,"PART-1-1",           533,       9.68548,      -3.40243,            0.,NA,NA,"",       5.48989,      -5.43802,  -752.949E-03,   17.1780E-03
C:/temp/dataset/9/29_5.odb,Step-1,Increment      1: Step Time =    1.000,"PART-1-1",           534,       8.81587,      -4.92348,            0.,NA,NA,"",       4.94394,      -4.85406,  -938.427E-03,   16.2225E-03
C:/temp/dataset/9/29_5.odb,Step-1,Increment      1: Step Time =    1.000,"PART-1-1",           535,       9.93870,      -5.87466,            0.,NA,NA,"",       4.62019,      -4.59063,  -521.783E-03,   14.4317E-03
C:/temp/dataset/9/29_5.odb,Step-1,Increment      1: Step Time =    1.000,"PART-1-1",           536,       10.7940,       8.23694,            0.,NA,NA,"",       9.92384,      -9.85325,      -1.18157,   6.06339E-03
C:/temp/dataset/9/29_5.odb,Step-1,Increment      1: Step Time =    1.000,"PART-1-1",           537,       11.2752,       6.42654,            0.,NA,NA,"",       9.23723,      -9.19608,  -870.927E-03,   6.64989E-03
C:/temp/dataset/9/29_5.odb,Step-1,Increment      1: Step Time =    1.000,"PART-1-1",           538,       12.8821,       8.67106,            0.,NA,NA,"",       10.1888,      -10.1799,  -426.698E-03,   8.06842E-03
C:/temp/dataset/9/29_5.odb,Step-1,Increment      1: Step Time =    1.000,"PART-1-1",           539,       14.0355,       7.50951,            0.,NA,NA,"",       9.82277,      -9.82237,   88.4212E-03,   10.7098E-03
C:/temp/dataset/9/29_5.odb,Step-1,Increment      1: Step Time =    1.000,"PART-1-1",           540,           15.,          8.75,            0.,NA,NA,"",       10.3850,      -10.3783,   371.342E-03,   11.4253E-03
C:/temp/dataset/9/29_5.odb,Step-1,Increment      1: Step Time =    1.000,"PART-1-1",           541,       13.8467,       9.91155,            0.,NA,NA,"",       10.7371,      -10.7361,  -148.107E-03,   8.34932E-03
C:/temp/dataset/9/29_5.odb,Step-1,Increment      1: Step Time =    1.000,"PART-1-1",           542,       12.4850,       16.2122,            0.,NA,NA,"",       13.1420,      -13.0920,      -1.14456,   4.42528E-03
C:/temp/dataset/9/29_5.odb,Step-1,Increment      1: Step Time =    1.000,"PART-1-1",           543,       13.7431,       14.9727,            0.,NA,NA,"",       12.7174,      -12.7050,  -562.283E-03,   3.90270E-03
C:/temp/dataset/9/29_5.odb,Step-1,Increment      1: Step Time =    1.000,"PART-1-1",           544,           15.,         16.25,            0.,NA,NA,"",       13.3067,      -13.3056,  -172.742E-03,   2.22889E-03
C:/temp/dataset/9/29_5.odb,Step-1,Increment      1: Step Time =    1.000,"PART-1-1",           545,       13.7419,       17.4895,            0.,NA,NA,"",       13.7117,      -13.6907,  -759.030E-03,   2.16466E-03
C:/temp/dataset/9/29_5.odb,Step-1,Increment      1: Step Time =    1.000,"PART-1-1",           546,       12.4991,       13.6576,            0.,NA,NA,"",       12.1281,      -12.0916,  -940.709E-03,   5.48005E-03
C:/temp/dataset/9/29_5.odb,Step-1,Increment      1: Step Time =    1.000,"PART-1-1",           547,       13.7559,       12.4349,            0.,NA,NA,"",       11.7180,      -11.7123,  -365.503E-03,   6.05016E-03
C:/temp/dataset/9/29_5.odb,Step-1,Increment      1: Step Time =    1.000,"PART-1-1",           548,           15.,         13.75,            0.,NA,NA,"",       12.3269,      -12.3269,   17.6710E-03,   5.42306E-03
C:/temp/dataset/9/29_5.odb,Step-1,Increment      1: Step Time =    1.000,"PART-1-1",           549,           15.,         21.25,            0.,NA,NA,"",       15.2630,      -15.2524,  -569.535E-03,   1.89807E-03
C:/temp/dataset/9/29_5.odb,Step-1,Increment      1: Step Time =    1.000,"PART-1-1",           550,       13.6875,       22.5045,            0.,NA,NA,"",       15.6803,      -15.6360,      -1.17745,   1.56036E-03
C:/temp/dataset/9/29_5.odb,Step-1,Increment      1: Step Time =    1.000,"PART-1-1",           551,       12.4125,       21.2511,            0.,NA,NA,"",       15.1348,      -15.0530,      -1.57169,   1.44016E-03
C:/temp/dataset/9/29_5.odb,Step-1,Increment      1: Step Time =    1.000,"PART-1-1",           552,       13.7250,       19.9966,            0.,NA,NA,"",       14.6990,      -14.6674,  -964.265E-03,   1.52459E-03
C:/temp/dataset/9/29_5.odb,Step-1,Increment      1: Step Time =    1.000,"PART-1-1",           553,       13.6481,       25.0064,            0.,NA,NA,"",       16.6542,      -16.5962,      -1.38856,   1.34226E-03
C:/temp/dataset/9/29_5.odb,Step-1,Increment      1: Step Time =    1.000,"PART-1-1",           554,       12.3356,       23.7609,            0.,NA,NA,"",       16.1169,      -16.0163,      -1.79851,   1.10706E-03
C:/temp/dataset/9/29_5.odb,Step-1,Increment      1: Step Time =    1.000,"PART-1-1",           555,           15.,         23.75,            0.,NA,NA,"",       16.2350,      -16.2168,  -768.543E-03,   1.90690E-03
C:/temp/dataset/9/29_5.odb,Step-1,Increment      1: Step Time =    1.000,"PART-1-1",           556,       13.7112,       27.5077,            0.,NA,NA,"",       17.6305,      -17.5615,      -1.55775,   777.356E-06
C:/temp/dataset/9/29_5.odb,Step-1,Increment      1: Step Time =    1.000,"PART-1-1",           557,           15.,         28.75,            0.,NA,NA,"",       18.1751,      -18.1382,      -1.15739,   157.153E-06
C:/temp/dataset/9/29_5.odb,Step-1,Increment      1: Step Time =    1.000,"PART-1-1",           558,         13.75,           30.,            0.,NA,NA,"",       18.6039,      -18.5228,      -1.73466,   160.827E-06
C:/temp/dataset/9/29_5.odb,Step-1,Increment      1: Step Time =    1.000,"PART-1-1",           559,            5.,      -24.7917,            0.,NA,NA,"",   552.234E-03,  -323.715E-03,  -447.405E-03,   89.2255E-03
C:/temp/dataset/9/29_5.odb,Step-1,Increment      1: Step Time =    1.000,"PART-1-1",           560,       6.15390,      -25.8136,            0.,NA,NA,"",   334.210E-03,  -201.001E-03,  -267.011E-03,   70.0010E-03
C:/temp/dataset/9/29_5.odb,Step-1,Increment      1: Step Time =    1.000,"PART-1-1",           561,       7.23304,      -24.7696,            0.,NA,NA,"",   354.010E-03,  -265.237E-03,  -234.463E-03,   48.9926E-03
C:/temp/dataset/9/29_5.odb,Step-1,Increment      1: Step Time =    1.000,"PART-1-1",           562,       13.0086,      -21.0119,            0.,NA,NA,"",   912.333E-03,  -813.446E-03,   413.106E-03,   52.4437E-03
C:/temp/dataset/9/29_5.odb,Step-1,Increment      1: Step Time =    1.000,"PART-1-1",           563,       13.9664,      -22.3485,            0.,NA,NA,"",   805.190E-03,  -643.141E-03,   484.460E-03,   70.1570E-03
C:/temp/dataset/9/29_5.odb,Step-1,Increment      1: Step Time =    1.000,"PART-1-1",           564,           15.,        -21.25,            0.,NA,NA,"",       1.09912,  -856.034E-03,   689.407E-03,   84.8063E-03
C:/temp/dataset/9/29_5.odb,Step-1,Increment      1: Step Time =    1.000,"PART-1-1",           565,            5.,       -26.875,            0.,NA,NA,"",   321.720E-03,  -170.636E-03,  -272.740E-03,   93.8926E-03
C:/temp/dataset/9/29_5.odb,Step-1,Increment      1: Step Time =    1.000,"PART-1-1",           566,       12.9745,      -6.51631,            0.,NA,NA,"",       4.57726,      -4.55470,   453.859E-03,   31.8409E-03
C:/temp/dataset/9/29_5.odb,Step-1,Increment      1: Step Time =    1.000,"PART-1-1",           567,       14.0104,      -7.62731,            0.,NA,NA,"",       4.32668,      -4.25240,   798.288E-03,   43.3693E-03
C:/temp/dataset/9/29_5.odb,Step-1,Increment      1: Step Time =    1.000,"PART-1-1",           568,           15.,         -6.25,            0.,NA,NA,"",       4.90939,      -4.78720,       1.08847,   48.8473E-03
C:/temp/dataset/9/29_5.odb,Step-1,Increment      1: Step Time =    1.000,"PART-1-1",           569,       13.9641,      -5.13900,            0.,NA,NA,"",       5.14819,      -5.09632,   728.940E-03,   36.5400E-03
C:/temp/dataset/9/29_5.odb,Step-1,Increment      1: Step Time =    1.000,"PART-1-1",           570,       11.1649,      -16.2543,            0.,NA,NA,"",       1.69292,      -1.68650,   147.403E-03,   21.1462E-03
C:/temp/dataset/9/29_5.odb,Step-1,Increment      1: Step Time =    1.000,"PART-1-1",           571,       9.14831,      -16.2933,            0.,NA,NA,"",       1.64899,      -1.62647,  -271.635E-03,   14.2209E-03
C:/temp/dataset/9/29_5.odb,Step-1,Increment      1: Step Time =    1.000,"PART-1-1",           572,            5.,        -8.125,            0.,NA,NA,"",       4.14462,      -3.67406,      -1.91811,   55.9270E-03
C:/temp/dataset/9/29_5.odb,Step-1,Increment      1: Step Time =    1.000,"PART-1-1",           573,       12.8519,      -3.99254,            0.,NA,NA,"",       5.43403,      -5.42440,   323.278E-03,   26.6783E-03
C:/temp/dataset/9/29_5.odb,Step-1,Increment      1: Step Time =    1.000,"PART-1-1",           574,           15.,         -3.75,            0.,NA,NA,"",       5.76166,      -5.66804,       1.03443,   39.5750E-03
C:/temp/dataset/9/29_5.odb,Step-1,Increment      1: Step Time =    1.000,"PART-1-1",           575,       13.8878,      -2.60354,            0.,NA,NA,"",       6.03052,      -5.99931,   612.723E-03,   28.3861E-03
C:/temp/dataset/9/29_5.odb,Step-1,Increment      1: Step Time =    1.000,"PART-1-1",           576,       13.0423,      -8.97351,            0.,NA,NA,"",       3.79408,      -3.75661,   531.888E-03,   36.0952E-03
C:/temp/dataset/9/29_5.odb,Step-1,Increment      1: Step Time =    1.000,"PART-1-1",           577,           15.,         -8.75,            0.,NA,NA,"",       4.10727,      -3.95581,       1.10508,   56.4239E-03
C:/temp/dataset/9/29_5.odb,Step-1,Increment      1: Step Time =    1.000,"PART-1-1",           578,       8.09346,      -21.6433,            0.,NA,NA,"",   687.820E-03,  -633.368E-03,  -268.218E-03,   30.7383E-03
C:/temp/dataset/9/29_5.odb,Step-1,Increment      1: Step Time =    1.000,"PART-1-1",           579,       8.17438,      -23.6967,            0.,NA,NA,"",   411.281E-03,  -366.846E-03,  -185.947E-03,   30.9728E-03
C:/temp/dataset/9/29_5.odb,Step-1,Increment      1: Step Time =    1.000,"PART-1-1",           580,       8.10077,      -19.5616,            0.,NA,NA,"",       1.02744,  -966.599E-03,  -348.316E-03,   29.1924E-03
C:/temp/dataset/9/29_5.odb,Step-1,Increment      1: Step Time =    1.000,"PART-1-1",           581,       8.11824,      -17.4194,            0.,NA,NA,"",       1.44049,      -1.37262,  -436.941E-03,   27.5174E-03
C:/temp/dataset/9/29_5.odb,Step-1,Increment      1: Step Time =    1.000,"PART-1-1",           582,          -15.,       22.3438,            0.,NA,NA,"",       18.0848,      -13.5190,      -12.0123,   2.85278E-03
C:/temp/dataset/9/29_5.odb,Step-1,Increment      1: Step Time =    1.000,"PART-1-1",           583,      -12.5647,       21.7347,            0.,NA,NA,"",       17.4297,      -13.4707,      -11.0605,   3.00419E-03
C:/temp/dataset/9/29_5.odb,Step-1,Increment      1: Step Time =    1.000,"PART-1-1",           584,      -4.95050,       22.5220,            0.,NA,NA,"",       16.5168,      -14.2988,      -8.26735,   4.73624E-03
C:/temp/dataset/9/29_5.odb,Step-1,Increment      1: Step Time =    1.000,"PART-1-1",           585,      -3.93081,       23.1260,            0.,NA,NA,"",       16.6098,      -14.5929,      -7.93302,   3.58853E-03
C:/temp/dataset/9/29_5.odb,Step-1,Increment      1: Step Time =    1.000,"PART-1-1",           586,      -4.22857,       24.4244,            0.,NA,NA,"",       17.1158,      -15.0565,      -8.13968,   3.15807E-03
C:/temp/dataset/9/29_5.odb,Step-1,Increment      1: Step Time =    1.000,"PART-1-1",           587,      -5.24826,       23.8204,            0.,NA,NA,"",       17.0205,      -14.7609,      -8.47410,   3.69519E-03
C:/temp/dataset/9/29_5.odb,Step-1,Increment      1: Step Time =    1.000,"PART-1-1",           588,      -10.1110,       10.4874,            0.,NA,NA,"",       13.2075,      -9.37843,      -9.29960,   4.11706E-03
C:/temp/dataset/9/29_5.odb,Step-1,Increment      1: Step Time =    1.000,"PART-1-1",           589,      -9.15687,       11.6944,            0.,NA,NA,"",       13.4157,      -9.92237,      -9.02925,   4.08432E-03
C:/temp/dataset/9/29_5.odb,Step-1,Increment      1: Step Time =    1.000,"PART-1-1",           590,      -11.1597,       11.6149,            0.,NA,NA,"",       13.8084,      -9.73685,      -9.79109,   3.60074E-03
C:/temp/dataset/9/29_5.odb,Step-1,Increment      1: Step Time =    1.000,"PART-1-1",           591,      -6.07359,       12.6401,            0.,NA,NA,"",       13.1740,      -10.5275,      -7.91994,   6.29733E-03
C:/temp/dataset/9/29_5.odb,Step-1,Increment      1: Step Time =    1.000,"PART-1-1",           592,      -7.11512,       11.5321,            0.,NA,NA,"",       12.9638,      -10.0161,      -8.23029,   5.26334E-03
C:/temp/dataset/9/29_5.odb,Step-1,Increment      1: Step Time =    1.000,"PART-1-1",           593,           -5.,         11.25,            0.,NA,NA,"",       12.4850,      -10.0682,      -7.38272,   5.89284E-03
C:/temp/dataset/9/29_5.odb,Step-1,Increment      1: Step Time =    1.000,"PART-1-1",           594,      -10.0988,       8.37440,            0.,NA,NA,"",       12.5070,      -8.55301,      -9.12532,   4.19426E-03
C:/temp/dataset/9/29_5.odb,Step-1,Increment      1: Step Time =    1.000,"PART-1-1",           595,      -9.11481,       9.38066,            0.,NA,NA,"",       12.6222,      -9.02261,      -8.82675,   4.41886E-03
C:/temp/dataset/9/29_5.odb,Step-1,Increment      1: Step Time =    1.000,"PART-1-1",           596,      -11.0949,       9.48111,            0.,NA,NA,"",       13.0959,      -8.90930,      -9.59830,   3.98207E-03
C:/temp/dataset/9/29_5.odb,Step-1,Increment      1: Step Time =    1.000,"PART-1-1",           597,      -11.8142,       15.6555,            0.,NA,NA,"",       15.2792,      -11.2439,      -10.3454,   2.79571E-03
C:/temp/dataset/9/29_5.odb,Step-1,Increment      1: Step Time =    1.000,"PART-1-1",           598,      -13.4062,       15.6218,            0.,NA,NA,"",       15.5963,      -11.1082,      -10.9477,   4.51955E-03
C:/temp/dataset/9/29_5.odb,Step-1,Increment      1: Step Time =    1.000,"PART-1-1",           599,      -12.4316,       14.7766,            0.,NA,NA,"",       15.1171,      -10.8601,      -10.5159,   3.51800E-03
C:/temp/dataset/9/29_5.odb,Step-1,Increment      1: Step Time =    1.000,"PART-1-1",           600,      -5.72199,       20.2132,            0.,NA,NA,"",       15.8041,      -13.3992,      -8.38027,   7.37682E-03
C:/temp/dataset/9/29_5.odb,Step-1,Increment      1: Step Time =    1.000,"PART-1-1",           601,           -5.,         18.75,            0.,NA,NA,"",       15.1997,      -12.9201,      -8.00646,   8.36192E-03
C:/temp/dataset/9/29_5.odb,Step-1,Increment      1: Step Time =    1.000,"PART-1-1",           602,          -15.,       15.7813,            0.,NA,NA,"",       15.9910,      -11.0453,      -11.5635,   7.39237E-03
C:/temp/dataset/9/29_5.odb,Step-1,Increment      1: Step Time =    1.000,"PART-1-1",           603,      -10.4105,       16.7429,            0.,NA,NA,"",       15.3710,      -11.7649,      -9.89217,   2.58905E-03
C:/temp/dataset/9/29_5.odb,Step-1,Increment      1: Step Time =    1.000,"PART-1-1",           604,      -12.1928,       12.6381,            0.,NA,NA,"",       14.3688,      -10.0540,      -10.2655,   3.49249E-03
C:/temp/dataset/9/29_5.odb,Step-1,Increment      1: Step Time =    1.000,"PART-1-1",           605,      -12.0987,       10.4443,            0.,NA,NA,"",       13.6382,      -9.20778,      -10.0606,   3.60941E-03
C:/temp/dataset/9/29_5.odb,Step-1,Increment      1: Step Time =    1.000,"PART-1-1",           606,      -7.50325,       4.80693,            0.,NA,NA,"",       10.7391,      -7.35352,      -7.82651,   5.23532E-03
C:/temp/dataset/9/29_5.odb,Step-1,Increment      1: Step Time =    1.000,"PART-1-1",           607,      -9.63824,       5.46172,            0.,NA,NA,"",       11.4606,      -7.44794,      -8.71049,   3.82483E-03
C:/temp/dataset/9/29_5.odb,Step-1,Increment      1: Step Time =    1.000,"PART-1-1",           608,      -8.81234,       4.25317,            0.,NA,NA,"",       10.8758,      -7.03888,      -8.29082,   4.03960E-03
C:/temp/dataset/9/29_5.odb,Step-1,Increment      1: Step Time =    1.000,"PART-1-1",           609,          -15.,      -1.71875,            0.,NA,NA,"",       11.0674,      -4.24258,      -10.2220,   518.107E-06
C:/temp/dataset/9/29_5.odb,Step-1,Increment      1: Step Time =    1.000,"PART-1-1",           610,      -12.5835,      -1.75493,            0.,NA,NA,"",       10.2785,      -4.41778,      -9.28065,   999.370E-06
C:/temp/dataset/9/29_5.odb,Step-1,Increment      1: Step Time =    1.000,"PART-1-1",           611,        -11.25,           -5.,            0.,NA,NA,"",       9.11362,      -3.26475,      -8.50879,   761.295E-06
C:/temp/dataset/9/29_5.odb,Step-1,Increment      1: Step Time =    1.000,"PART-1-1",           612,      -10.0144,      -3.91217,            0.,NA,NA,"",       8.95326,      -3.78510,      -8.11381,   1.24071E-03
C:/temp/dataset/9/29_5.odb,Step-1,Increment      1: Step Time =    1.000,"PART-1-1",           613,      -11.2827,      -2.82422,            0.,NA,NA,"",       9.61250,      -4.10615,      -8.69136,   1.23280E-03
C:/temp/dataset/9/29_5.odb,Step-1,Increment      1: Step Time =    1.000,"PART-1-1",           614,         -8.75,           -5.,            0.,NA,NA,"",       8.29636,      -3.46377,      -7.53870,   2.03882E-03
C:/temp/dataset/9/29_5.odb,Step-1,Increment      1: Step Time =    1.000,"PART-1-1",           615,      -7.54904,      -4.01671,            0.,NA,NA,"",       8.16379,      -3.94132,      -7.14937,   2.29171E-03
C:/temp/dataset/9/29_5.odb,Step-1,Increment      1: Step Time =    1.000,"PART-1-1",           616,      -8.81345,      -2.92887,            0.,NA,NA,"",       8.82115,      -4.26122,      -7.72365,   1.90433E-03
C:/temp/dataset/9/29_5.odb,Step-1,Increment      1: Step Time =    1.000,"PART-1-1",           617,  -969.738E-03,       22.2544,            0.,NA,NA,"",       15.9729,      -14.4703,      -6.76346,   4.87034E-03
C:/temp/dataset/9/29_5.odb,Step-1,Increment      1: Step Time =    1.000,"PART-1-1",           618,      -2.31964,       21.1016,            0.,NA,NA,"",       15.6904,      -13.9495,      -7.18331,   5.65935E-03
C:/temp/dataset/9/29_5.odb,Step-1,Increment      1: Step Time =    1.000,"PART-1-1",           619,         -1.25,           20.,            0.,NA,NA,"",       15.1701,      -13.6107,      -6.69940,   7.28054E-03
C:/temp/dataset/9/29_5.odb,Step-1,Increment      1: Step Time =    1.000,"PART-1-1",           620,         -1.25,           30.,            0.,NA,NA,"",       18.8834,      -17.3572,      -7.43712,   2.30851E-03
C:/temp/dataset/9/29_5.odb,Step-1,Increment      1: Step Time =    1.000,"PART-1-1",           621,      -1.44357,       27.1449,            0.,NA,NA,"",       17.8357,      -16.2722,      -7.30250,   1.81883E-03
C:/temp/dataset/9/29_5.odb,Step-1,Increment      1: Step Time =    1.000,"PART-1-1",           622,      -4.58492,       21.1383,            0.,NA,NA,"",       15.9754,      -13.8109,      -8.02943,   5.22563E-03
C:/temp/dataset/9/29_5.odb,Step-1,Increment      1: Step Time =    1.000,"PART-1-1",           623,         -3.75,           20.,            0.,NA,NA,"",       15.4645,      -13.4475,      -7.63649,   8.05387E-03
C:/temp/dataset/9/29_5.odb,Step-1,Increment      1: Step Time =    1.000,"PART-1-1",           624,      -3.15456,       22.2398,            0.,NA,NA,"",       16.1984,      -14.3161,      -7.57886,   3.73211E-03
C:/temp/dataset/9/29_5.odb,Step-1,Increment      1: Step Time =    1.000,"PART-1-1",           625,      -11.2479,       22.4027,            0.,NA,NA,"",       17.4215,      -13.8149,      -10.6139,   3.07238E-03
C:/temp/dataset/9/29_5.odb,Step-1,Increment      1: Step Time =    1.000,"PART-1-1",           626,      -10.3888,       20.8027,            0.,NA,NA,"",       16.7341,      -13.2843,      -10.1763,   3.81322E-03
C:/temp/dataset/9/29_5.odb,Step-1,Increment      1: Step Time =    1.000,"PART-1-1",           627,       9.41561,      -24.6142,            0.,NA,NA,"",   269.638E-03,  -265.681E-03,  -46.0246E-03,   12.6520E-03
C:/temp/dataset/9/29_5.odb,Step-1,Increment      1: Step Time =    1.000,"PART-1-1",           628,           15.,        -16.25,            0.,NA,NA,"",       2.08427,      -1.85500,   950.335E-03,   73.7870E-03
C:/temp/dataset/9/29_5.odb,Step-1,Increment      1: Step Time =    1.000,"PART-1-1",           629,       13.1096,      -16.2411,            0.,NA,NA,"",       1.84757,      -1.76323,   551.863E-03,   47.2235E-03
C:/temp/dataset/9/29_5.odb,Step-1,Increment      1: Step Time =    1.000,"PART-1-1",           630,           15.,          3.75,            0.,NA,NA,"",       8.48949,      -8.46177,   685.400E-03,   17.0613E-03
C:/temp/dataset/9/29_5.odb,Step-1,Increment      1: Step Time =    1.000,"PART-1-1",           631,       14.0093,       5.06690,            0.,NA,NA,"",       8.88801,      -8.88484,   237.153E-03,   12.7775E-03
C:/temp/dataset/9/29_5.odb,Step-1,Increment      1: Step Time =    1.000,"PART-1-1",           632,       12.9168,       3.88721,            0.,NA,NA,"",       8.35357,      -8.35307,  -91.8396E-03,   11.7859E-03
C:/temp/dataset/9/29_5.odb,Step-1,Increment      1: Step Time =    1.000,"PART-1-1",           633,       12.6026,       11.0965,            0.,NA,NA,"",       11.1215,      -11.0990,  -708.029E-03,   6.57943E-03
C:/temp/dataset/9/29_5.odb,Step-1,Increment      1: Step Time =    1.000,"PART-1-1",           634,           15.,         11.25,            0.,NA,NA,"",       11.3515,      -11.3498,   199.369E-03,   8.58811E-03
C:/temp/dataset/9/29_5.odb,Step-1,Increment      1: Step Time =    1.000,"PART-1-1",           635,       12.4669,       18.7361,            0.,NA,NA,"",       14.1433,      -14.0787,      -1.35111,   3.03661E-03
C:/temp/dataset/9/29_5.odb,Step-1,Increment      1: Step Time =    1.000,"PART-1-1",           636,           15.,         18.75,            0.,NA,NA,"",       14.2866,      -14.2819,  -369.658E-03,   479.311E-06
C:/temp/dataset/9/29_5.odb,Step-1,Increment      1: Step Time =    1.000,"PART-1-1",           637,           15.,         26.25,            0.,NA,NA,"",       17.2045,      -17.1775,  -964.351E-03,   994.226E-06
C:/temp/dataset/9/29_5.odb,Step-1,Increment      1: Step Time =    1.000,"PART-1-1",           638,          8.75,           30.,            0.,NA,NA,"",       18.4982,      -18.1329,      -3.65796,   2.44998E-03
C:/temp/dataset/9/29_5.odb,Step-1,Increment      1: Step Time =    1.000,"PART-1-1",           639,       8.74802,       27.8391,            0.,NA,NA,"",       17.6531,      -17.3036,      -3.49516,   1.76929E-03
C:/temp/dataset/9/29_5.odb,Step-1,Increment      1: Step Time =    1.000,"PART-1-1",           640,       11.0691,       22.4572,            0.,NA,NA,"",       15.5709,      -15.4167,      -2.18601,   1.62239E-03
C:/temp/dataset/9/29_5.odb,Step-1,Increment      1: Step Time =    1.000,"PART-1-1",           641,       11.1947,       19.9658,            0.,NA,NA,"",       14.5902,      -14.4606,      -1.94035,   3.11450E-03
C:/temp/dataset/9/29_5.odb,Step-1,Increment      1: Step Time =    1.000,"PART-1-1",           642,          3.75,           30.,            0.,NA,NA,"",       18.5903,      -17.7388,      -5.56190,   3.96242E-03
C:/temp/dataset/9/29_5.odb,Step-1,Increment      1: Step Time =    1.000,"PART-1-1",           643,       6.12801,       21.9878,            0.,NA,NA,"",       15.4091,      -14.8652,      -4.05785,   3.97635E-03
C:/temp/dataset/9/29_5.odb,Step-1,Increment      1: Step Time =    1.000,"PART-1-1",           644,       7.06684,       23.0702,            0.,NA,NA,"",       15.8087,      -15.3503,      -3.77939,   2.62972E-03
C:/temp/dataset/9/29_5.odb,Step-1,Increment      1: Step Time =    1.000,"PART-1-1",           645,       4.97038,       22.7185,            0.,NA,NA,"",       15.7345,      -15.0602,      -4.55668,   3.19621E-03
C:/temp/dataset/9/29_5.odb,Step-1,Increment      1: Step Time =    1.000,"PART-1-1",           646,          3.75,           20.,            0.,NA,NA,"",       14.7461,      -13.9392,      -4.81111,   12.7308E-03
C:/temp/dataset/9/29_5.odb,Step-1,Increment      1: Step Time =    1.000,"PART-1-1",           647,       4.96897,       20.9583,            0.,NA,NA,"",       15.0498,      -14.3846,      -4.42500,   8.48485E-03
C:/temp/dataset/9/29_5.odb,Step-1,Increment      1: Step Time =    1.000,"PART-1-1",           648,       3.78616,       22.0655,            0.,NA,NA,"",       15.5376,      -14.7253,      -4.95793,   4.89063E-03
C:/temp/dataset/9/29_5.odb,Step-1,Increment      1: Step Time =    1.000,"PART-1-1",           649,           -5.,         13.75,            0.,NA,NA,"",       13.4029,      -11.0418,      -7.59720,   9.01041E-03
C:/temp/dataset/9/29_5.odb,Step-1,Increment      1: Step Time =    1.000,"PART-1-1",           650,      -7.15256,       14.0792,            0.,NA,NA,"",       13.8724,      -11.0007,      -8.45158,   4.65082E-03
C:/temp/dataset/9/29_5.odb,Step-1,Increment      1: Step Time =    1.000,"PART-1-1",           651,      -9.70164,       19.1500,            0.,NA,NA,"",       16.0573,      -12.7213,      -9.79819,   4.20293E-03
C:/temp/dataset/9/29_5.odb,Step-1,Increment      1: Step Time =    1.000,"PART-1-1",           652,      -9.13060,       21.5024,            0.,NA,NA,"",       16.7639,      -13.6345,      -9.75329,   4.55329E-03
C:/temp/dataset/9/29_5.odb,Step-1,Increment      1: Step Time =    1.000,"PART-1-1",           653,         -1.25,           -5.,            0.,NA,NA,"",       6.18507,      -4.06963,      -4.65759,   5.29082E-03
C:/temp/dataset/9/29_5.odb,Step-1,Increment      1: Step Time =    1.000,"PART-1-1",           654,      -1.47244,      -2.77860,            0.,NA,NA,"",       6.93501,      -4.90133,      -4.90626,   3.62297E-03
C:/temp/dataset/9/29_5.odb,Step-1,Increment      1: Step Time =    1.000,"PART-1-1",           655,      -9.96758,      -1.61086,            0.,NA,NA,"",       9.50601,      -4.67935,      -8.27454,   1.66016E-03
C:/temp/dataset/9/29_5.odb,Step-1,Increment      1: Step Time =    1.000,"PART-1-1",           656,      -6.37223,      -3.07632,            0.,NA,NA,"",       8.07002,      -4.39853,      -6.76595,   2.53316E-03
C:/temp/dataset/9/29_5.odb,Step-1,Increment      1: Step Time =    1.000,"PART-1-1",           657,         -6.25,           -5.,            0.,NA,NA,"",       7.52481,      -3.66505,      -6.57193,   3.55555E-03
C:/temp/dataset/9/29_5.odb,Step-1,Increment      1: Step Time =    1.000,"PART-1-1",           658,         -3.75,            5.,            0.,NA,NA,"",       9.99568,      -7.69761,      -6.37656,   12.0511E-03
C:/temp/dataset/9/29_5.odb,Step-1,Increment      1: Step Time =    1.000,"PART-1-1",           659,      -5.11170,       4.23117,            0.,NA,NA,"",       10.0101,      -7.30620,      -6.84260,   7.64933E-03
C:/temp/dataset/9/29_5.odb,Step-1,Increment      1: Step Time =    1.000,"PART-1-1",           660,      -3.95473,       3.29190,            0.,NA,NA,"",       9.45070,      -7.02785,      -6.31863,   5.59497E-03
C:/temp/dataset/9/29_5.odb,Step-1,Increment      1: Step Time =    1.000,"PART-1-1",           661,          3.75,           -5.,            0.,NA,NA,"",       5.25525,      -4.47720,      -2.75180,   19.1726E-03
C:/temp/dataset/9/29_5.odb,Step-1,Increment      1: Step Time =    1.000,"PART-1-1",           662,       4.69008,      -3.66648,            0.,NA,NA,"",       5.63504,      -5.05977,      -2.48041,   27.0622E-03
C:/temp/dataset/9/29_5.odb,Step-1,Increment      1: Step Time =    1.000,"PART-1-1",           663,       4.69636,       3.71818,            0.,NA,NA,"",       8.34944,      -7.75717,      -3.08860,   15.2082E-03
C:/temp/dataset/9/29_5.odb,Step-1,Increment      1: Step Time =    1.000,"PART-1-1",           664,          3.75,            5.,            0.,NA,NA,"",       8.89585,      -8.16753,      -3.52527,   12.3541E-03
C:/temp/dataset/9/29_5.odb,Step-1,Increment      1: Step Time =    1.000,"PART-1-1",           665,       8.42013,       25.7200,            0.,NA,NA,"",       16.8271,      -16.4674,      -3.46064,   1.60716E-03
C:/temp/dataset/9/29_5.odb,Step-1,Increment      1: Step Time =    1.000,"PART-1-1",           666,       7.55622,       27.1849,            0.,NA,NA,"",       17.4043,      -16.9609,      -3.90340,   1.60406E-03
C:/temp/dataset/9/29_5.odb,Step-1,Increment      1: Step Time =    1.000,"PART-1-1",           667,       6.61388,       26.0906,            0.,NA,NA,"",       16.9934,      -16.4707,      -4.18227,   1.21975E-03
C:/temp/dataset/9/29_5.odb,Step-1,Increment      1: Step Time =    1.000,"PART-1-1",           668,       10.0237,       13.5556,            0.,NA,NA,"",       12.0084,      -11.8601,      -1.88110,   5.90268E-03
C:/temp/dataset/9/29_5.odb,Step-1,Increment      1: Step Time =    1.000,"PART-1-1",           669,       8.80148,       12.2659,            0.,NA,NA,"",       11.4852,      -11.2634,      -2.24646,   5.23776E-03
C:/temp/dataset/9/29_5.odb,Step-1,Increment      1: Step Time =    1.000,"PART-1-1",           670,            5.,          6.25,            0.,NA,NA,"",       9.25805,      -8.68993,      -3.19323,   18.1599E-03
C:/temp/dataset/9/29_5.odb,Step-1,Increment      1: Step Time =    1.000,"PART-1-1",           671,       5.87545,       4.76801,            0.,NA,NA,"",       8.65033,      -8.20307,      -2.74551,   14.7319E-03
C:/temp/dataset/9/29_5.odb,Step-1,Increment      1: Step Time =    1.000,"PART-1-1",           672,       6.93940,       5.78737,            0.,NA,NA,"",       8.98384,      -8.64804,      -2.43327,   7.54736E-03
C:/temp/dataset/9/29_5.odb,Step-1,Increment      1: Step Time =    1.000,"PART-1-1",           673,       7.73520,       4.18036,            0.,NA,NA,"",       8.35186,      -8.10549,      -2.01359,   8.82925E-03
C:/temp/dataset/9/29_5.odb,Step-1,Increment      1: Step Time =    1.000,"PART-1-1",           674,       6.49581,       3.34316,            0.,NA,NA,"",       8.08656,      -7.72159,      -2.40196,   14.8140E-03
C:/temp/dataset/9/29_5.odb,Step-1,Increment      1: Step Time =    1.000,"PART-1-1",           675,       7.18979,       1.82766,            0.,NA,NA,"",       7.48538,      -7.20621,      -2.02522,   15.4678E-03
C:/temp/dataset/9/29_5.odb,Step-1,Increment      1: Step Time =    1.000,"PART-1-1",           676,       8.42918,       2.66485,            0.,NA,NA,"",       7.76413,      -7.58867,      -1.64129,   11.1737E-03
C:/temp/dataset/9/29_5.odb,Step-1,Increment      1: Step Time =    1.000,"PART-1-1",           677,  -530.051E-03,       1.39108,            0.,NA,NA,"",       8.15649,      -6.55247,      -4.85731,   3.99590E-03
C:/temp/dataset/9/29_5.odb,Step-1,Increment      1: Step Time =    1.000,"PART-1-1",           678,      -10.1792,       3.73358,            0.,NA,NA,"",       11.0644,      -6.73250,      -8.78037,   2.75864E-03
C:/temp/dataset/9/29_5.odb,Step-1,Increment      1: Step Time =    1.000,"PART-1-1",           679,      -9.26781,       2.30942,            0.,NA,NA,"",       10.3983,      -6.24919,      -8.31096,   2.62211E-03
C:/temp/dataset/9/29_5.odb,Step-1,Increment      1: Step Time =    1.000,"PART-1-1",           680,      -7.90097,       2.82902,            0.,NA,NA,"",       10.2036,      -6.55457,      -7.81990,   3.90497E-03
C:/temp/dataset/9/29_5.odb,Step-1,Increment      1: Step Time =    1.000,"PART-1-1",           681,      -2.90861,       2.25641,            0.,NA,NA,"",       8.89015,      -6.70782,      -5.83437,   4.85246E-03
C:/temp/dataset/9/29_5.odb,Step-1,Increment      1: Step Time =    1.000,"PART-1-1",           682,      -1.97153,   737.020E-03,            0.,NA,NA,"",       8.19469,      -6.19965,      -5.35884,   2.70872E-03
C:/temp/dataset/9/29_5.odb,Step-1,Increment      1: Step Time =    1.000,"PART-1-1",           683,      -12.0057,       8.33468,            0.,NA,NA,"",       12.9455,      -8.39011,      -9.85865,   3.44963E-03
C:/temp/dataset/9/29_5.odb,Step-1,Increment      1: Step Time =    1.000,"PART-1-1",           684,   257.111E-03,       23.5381,            0.,NA,NA,"",       16.3417,      -15.0366,      -6.39931,   3.92162E-03
C:/temp/dataset/9/29_5.odb,Step-1,Increment      1: Step Time =    1.000,"PART-1-1",           685,       2.92443,       23.5127,            0.,NA,NA,"",       16.1425,      -15.2150,      -5.39317,   4.01780E-03
C:/temp/dataset/9/29_5.odb,Step-1,Increment      1: Step Time =    1.000,"PART-1-1",           686,  -872.814E-03,       24.6452,            0.,NA,NA,"",       16.8531,      -15.3736,      -6.90513,   2.91985E-03
C:/temp/dataset/9/29_5.odb,Step-1,Increment      1: Step Time =    1.000,"PART-1-1",           687,      -2.49287,       25.7554,            0.,NA,NA,"",       17.4175,      -15.6759,      -7.59177,   2.41177E-03
C:/temp/dataset/9/29_5.odb,Step-1,Increment      1: Step Time =    1.000,"PART-1-1",           688,      -6.57000,       23.0679,            0.,NA,NA,"",       16.9261,      -14.3912,      -8.90992,   4.46077E-03
C:/temp/dataset/9/29_5.odb,Step-1,Increment      1: Step Time =    1.000,"PART-1-1",           689,      -7.77911,       22.2181,            0.,NA,NA,"",       16.8017,      -13.9942,      -9.29846,   4.61196E-03
C:/temp/dataset/9/29_5.odb,Step-1,Increment      1: Step Time =    1.000,"PART-1-1",           690,      -6.08757,       21.5970,            0.,NA,NA,"",       16.3397,      -13.8809,      -8.62017,   6.19810E-03
C:/temp/dataset/9/29_5.odb,Step-1,Increment      1: Step Time =    1.000,"PART-1-1",           691,      -10.6596,       24.7502,            0.,NA,NA,"",       18.1234,      -14.7275,      -10.5620,   2.04317E-03
C:/temp/dataset/9/29_5.odb,Step-1,Increment      1: Step Time =    1.000,"PART-1-1",           692,      -8.94190,       25.0911,            0.,NA,NA,"",       17.9773,      -14.9762,      -9.94465,   2.16836E-03
C:/temp/dataset/9/29_5.odb,Step-1,Increment      1: Step Time =    1.000,"PART-1-1",           693,      -9.30563,       26.3338,            0.,NA,NA,"",       18.4653,      -15.4118,      -10.1708,   1.42044E-03
C:/temp/dataset/9/29_5.odb,Step-1,Increment      1: Step Time =    1.000,"PART-1-1",           694,      -11.0233,       25.9928,            0.,NA,NA,"",       18.6084,      -15.1626,      -10.7873,   1.33189E-03
C:/temp/dataset/9/29_5.odb,Step-1,Increment      1: Step Time =    1.000,"PART-1-1",           695,      -9.11986,       17.2561,            0.,NA,NA,"",       15.3136,      -12.0572,      -9.44083,   3.06912E-03
C:/temp/dataset/9/29_5.odb,Step-1,Increment      1: Step Time =    1.000,"PART-1-1",           696,      -11.0116,       7.65423,            0.,NA,NA,"",       12.4895,      -8.20068,      -9.42007,   3.82257E-03
C:/temp/dataset/9/29_5.odb,Step-1,Increment      1: Step Time =    1.000,"PART-1-1",           697,      -11.6541,       6.30856,            0.,NA,NA,"",       12.2284,      -7.62428,      -9.56061,   3.08460E-03
C:/temp/dataset/9/29_5.odb,Step-1,Increment      1: Step Time =    1.000,"PART-1-1",           698,      -3.46647,   792.949E-03,            0.,NA,NA,"",       8.51870,      -6.10856,      -5.93749,   2.88720E-03
C:/temp/dataset/9/29_5.odb,Step-1,Increment      1: Step Time =    1.000,"PART-1-1",           699,      -4.27899,       1.61468,            0.,NA,NA,"",       8.96276,      -6.36105,      -6.31412,   3.53958E-03
C:/temp/dataset/9/29_5.odb,Step-1,Increment      1: Step Time =    1.000,"PART-1-1",           700,      -5.41602,       1.03976,            0.,NA,NA,"",       9.03821,      -6.05448,      -6.71063,   3.31680E-03
C:/temp/dataset/9/29_5.odb,Step-1,Increment      1: Step Time =    1.000,"PART-1-1",           701,      -4.60351,   218.037E-03,            0.,NA,NA,"",       8.58882,      -5.80202,      -6.33280,   2.78214E-03
C:/temp/dataset/9/29_5.odb,Step-1,Increment      1: Step Time =    1.000,"PART-1-1",           702,      -1.96165,  -510.209E-03,            0.,NA,NA,"",       7.77695,      -5.72688,      -5.26154,   2.04793E-03
C:/temp/dataset/9/29_5.odb,Step-1,Increment      1: Step Time =    1.000,"PART-1-1",           703,      -2.89723,      -2.02996,            0.,NA,NA,"",       7.48861,      -5.07520,      -5.50650,   2.59351E-03
C:/temp/dataset/9/29_5.odb,Step-1,Increment      1: Step Time =    1.000,"PART-1-1",           704,       6.46823,      -3.22891,            0.,NA,NA,"",       5.63858,      -5.32229,      -1.86196,   23.4466E-03
C:/temp/dataset/9/29_5.odb,Step-1,Increment      1: Step Time =    1.000,"PART-1-1",           705,       5.30305,      -2.18626,            0.,NA,NA,"",       6.11307,      -5.63128,      -2.37871,   18.2720E-03
C:/temp/dataset/9/29_5.odb,Step-1,Increment      1: Step Time =    1.000,"PART-1-1",           706,       8.11637,      -13.0290,            0.,NA,NA,"",       2.47596,      -2.38733,  -656.514E-03,   24.5894E-03
C:/temp/dataset/9/29_5.odb,Step-1,Increment      1: Step Time =    1.000,"PART-1-1",           707,       8.09759,      -10.8135,            0.,NA,NA,"",       3.08577,      -2.98307,  -789.447E-03,   23.0411E-03
C:/temp/dataset/9/29_5.odb,Step-1,Increment      1: Step Time =    1.000,"PART-1-1",           708,           15.,        -26.25,            0.,NA,NA,"",   409.531E-03,  -249.768E-03,   324.549E-03,   94.4399E-03
C:/temp/dataset/9/29_5.odb,Step-1,Increment      1: Step Time =    1.000,"PART-1-1",           709,       13.6129,      -24.9005,            0.,NA,NA,"",   441.837E-03,  -317.934E-03,   306.820E-03,   68.3952E-03
C:/temp/dataset/9/29_5.odb,Step-1,Increment      1: Step Time =    1.000,"PART-1-1",           710,       12.3352,      -26.1538,            0.,NA,NA,"",   223.845E-03,  -166.688E-03,   149.405E-03,   48.0499E-03
C:/temp/dataset/9/29_5.odb,Step-1,Increment      1: Step Time =    1.000,"PART-1-1",           711,       11.5115,      -24.0900,            0.,NA,NA,"",   376.431E-03,  -346.523E-03,   147.046E-03,   32.0033E-03
C:/temp/dataset/9/29_5.odb,Step-1,Increment      1: Step Time =    1.000,"PART-1-1",           712,       12.5793,      -23.4990,            0.,NA,NA,"",   519.363E-03,  -442.660E-03,   271.643E-03,   49.1774E-03
C:/temp/dataset/9/29_5.odb,Step-1,Increment      1: Step Time =    1.000,"PART-1-1",           713,       11.9958,      -21.9645,            0.,NA,NA,"",   681.470E-03,  -634.702E-03,   248.101E-03,   37.6071E-03
C:/temp/dataset/9/29_5.odb,Step-1,Increment      1: Step Time =    1.000,"PART-1-1",           714,           15.,        -23.75,            0.,NA,NA,"",   719.147E-03,  -500.055E-03,   516.834E-03,   89.4731E-03
C:/temp/dataset/9/29_5.odb,Step-1,Increment      1: Step Time =    1.000,"PART-1-1",           715,       11.0775,      -9.24199,            0.,NA,NA,"",       3.56512,      -3.56502,  -26.5719E-03,   17.8190E-03
C:/temp/dataset/9/29_5.odb,Step-1,Increment      1: Step Time =    1.000,"PART-1-1",           716,       10.0590,      -8.23408,            0.,NA,NA,"",       3.84512,      -3.82779,  -364.612E-03,   11.0436E-03
C:/temp/dataset/9/29_5.odb,Step-1,Increment      1: Step Time =    1.000,"PART-1-1",           717,       9.08966,      -9.54059,            0.,NA,NA,"",       3.43516,      -3.38547,  -582.172E-03,   12.5041E-03
C:/temp/dataset/9/29_5.odb,Step-1,Increment      1: Step Time =    1.000,"PART-1-1",           718,           15.,         -1.25,            0.,NA,NA,"",       6.65024,      -6.58288,   944.145E-03,   29.9912E-03
C:/temp/dataset/9/29_5.odb,Step-1,Increment      1: Step Time =    1.000,"PART-1-1",           719,       12.7047,      -1.36075,            0.,NA,NA,"",       6.37279,      -6.37111,   145.945E-03,   20.7183E-03
C:/temp/dataset/9/29_5.odb,Step-1,Increment      1: Step Time =    1.000,"PART-1-1",           720,       10.4122,      -1.52824,            0.,NA,NA,"",       6.19285,      -6.16059,  -631.237E-03,   16.1193E-03
C:/temp/dataset/9/29_5.odb,Step-1,Increment      1: Step Time =    1.000,"PART-1-1",           721,       11.7321,      -2.88547,            0.,NA,NA,"",       5.74937,      -5.74846,  -102.294E-03,   20.0721E-03
C:/temp/dataset/9/29_5.odb,Step-1,Increment      1: Step Time =    1.000,"PART-1-1",           722,       13.0447,       6.32641,            0.,NA,NA,"",       9.29344,      -9.29119,  -204.407E-03,   9.82454E-03
C:/temp/dataset/9/29_5.odb,Step-1,Increment      1: Step Time =    1.000,"PART-1-1",           723,           15.,          6.25,            0.,NA,NA,"",       9.43047,      -9.41537,   533.390E-03,   13.9639E-03
C:/temp/dataset/9/29_5.odb,Step-1,Increment      1: Step Time =    1.000,"PART-1-1",           724,       12.2773,       7.44357,            0.,NA,NA,"",       9.67725,      -9.66055,  -568.188E-03,   7.73881E-03
C:/temp/dataset/9/29_5.odb,Step-1,Increment      1: Step Time =    1.000,"PART-1-1",           725,       11.3989,       9.46443,            0.,NA,NA,"",       10.4248,      -10.3724,      -1.04428,   6.16135E-03
C:/temp/dataset/9/29_5.odb,Step-1,Increment      1: Step Time =    1.000,"PART-1-1",           726,       10.0696,       10.6576,            0.,NA,NA,"",       10.8580,      -10.7338,      -1.63755,   5.92289E-03
C:/temp/dataset/9/29_5.odb,Step-1,Increment      1: Step Time =    1.000,"PART-1-1",           727,       11.2733,       12.2896,            0.,NA,NA,"",       11.5353,      -11.4612,      -1.30497,   5.73960E-03
C:/temp/dataset/9/29_5.odb,Step-1,Increment      1: Step Time =    1.000,"PART-1-1",           728,       11.2495,       14.9235,            0.,NA,NA,"",       12.5826,      -12.4906,      -1.51880,   5.37233E-03
C:/temp/dataset/9/29_5.odb,Step-1,Increment      1: Step Time =    1.000,"PART-1-1",           729,       11.2365,       17.4638,            0.,NA,NA,"",       13.5959,      -13.4861,      -1.72477,   4.67162E-03
C:/temp/dataset/9/29_5.odb,Step-1,Increment      1: Step Time =    1.000,"PART-1-1",           730,       9.96430,       18.6935,            0.,NA,NA,"",       14.0620,      -13.8703,      -2.31341,   4.74891E-03
C:/temp/dataset/9/29_5.odb,Step-1,Increment      1: Step Time =    1.000,"PART-1-1",           731,       8.12949,      -15.2371,            0.,NA,NA,"",       1.92459,      -1.84793,  -537.789E-03,   25.9136E-03
C:/temp/dataset/9/29_5.odb,Step-1,Increment      1: Step Time =    1.000,"PART-1-1",           732,       10.9896,      -6.85237,            0.,NA,NA,"",       4.32498,      -4.32250,  -146.501E-03,   18.2036E-03
C:/temp/dataset/9/29_5.odb,Step-1,Increment      1: Step Time =    1.000,"PART-1-1",           733,       10.9332,      -25.1906,            0.,NA,NA,"",   235.850E-03,  -222.745E-03,   77.5214E-03,   23.1828E-03
C:/temp/dataset/9/29_5.odb,Step-1,Increment      1: Step Time =    1.000,"PART-1-1",           734,       11.9281,      -5.46067,            0.,NA,NA,"",       4.84956,      -4.84879,   86.5523E-03,   23.4790E-03
C:/temp/dataset/9/29_5.odb,Step-1,Increment      1: Step Time =    1.000,"PART-1-1",           735,      -11.5697,       3.18107,            0.,NA,NA,"",       11.2761,      -6.41049,      -9.27662,   1.74398E-03
C:/temp/dataset/9/29_5.odb,Step-1,Increment      1: Step Time =    1.000,"PART-1-1",           736,      -10.7341,       2.09613,            0.,NA,NA,"",       10.7346,      -6.05366,      -8.86485,   1.80594E-03
C:/temp/dataset/9/29_5.odb,Step-1,Increment      1: Step Time =    1.000,"PART-1-1",           737,      -6.76822,       1.80268,            0.,NA,NA,"",       9.60351,      -6.24441,      -7.29622,   3.58523E-03
C:/temp/dataset/9/29_5.odb,Step-1,Increment      1: Step Time =    1.000,"PART-1-1",           738,      -5.32511,       2.65016,            0.,NA,NA,"",       9.53242,      -6.67964,      -6.80069,   4.40772E-03
C:/temp/dataset/9/29_5.odb,Step-1,Increment      1: Step Time =    1.000,"PART-1-1",           739,      -6.45786,       3.67650,            0.,NA,NA,"",       10.1257,      -6.99115,      -7.32485,   5.32712E-03
C:/temp/dataset/9/29_5.odb,Step-1,Increment      1: Step Time =    1.000,"PART-1-1",           740,      -10.1618,       27.4009,            0.,NA,NA,"",       18.9643,      -15.7473,      -10.5673,   984.042E-06
C:/temp/dataset/9/29_5.odb,Step-1,Increment      1: Step Time =    1.000,"PART-1-1",           741,      -8.15950,       27.0742,            0.,NA,NA,"",       18.5641,      -15.7684,      -9.79719,   1.23411E-03
C:/temp/dataset/9/29_5.odb,Step-1,Increment      1: Step Time =    1.000,"PART-1-1",           742,      -8.41457,       23.7439,            0.,NA,NA,"",       17.4285,      -14.5138,      -9.64895,   3.32364E-03
C:/temp/dataset/9/29_5.odb,Step-1,Increment      1: Step Time =    1.000,"PART-1-1",           743,      -9.76606,       23.0282,            0.,NA,NA,"",       17.3893,      -14.1534,      -10.1029,   3.21746E-03
C:/temp/dataset/9/29_5.odb,Step-1,Increment      1: Step Time =    1.000,"PART-1-1",           744,      -10.1457,       6.57799,            0.,NA,NA,"",       11.9382,      -7.84583,      -8.99803,   3.95425E-03
C:/temp/dataset/9/29_5.odb,Step-1,Increment      1: Step Time =    1.000,"PART-1-1",           745,      -11.1466,       5.19230,            0.,NA,NA,"",       11.7574,      -7.22706,      -9.27394,   2.83331E-03
C:/temp/dataset/9/29_5.odb,Step-1,Increment      1: Step Time =    1.000,"PART-1-1",           746,       7.77017,   782.991E-03,            0.,NA,NA,"",       7.07064,      -6.85547,      -1.73103,   15.8516E-03
C:/temp/dataset/9/29_5.odb,Step-1,Increment      1: Step Time =    1.000,"PART-1-1",           747,       6.09501,       1.10589,            0.,NA,NA,"",       7.27337,      -6.87847,      -2.36403,   16.9604E-03
C:/temp/dataset/9/29_5.odb,Step-1,Increment      1: Step Time =    1.000,"PART-1-1",           748,       6.67539,   61.2235E-03,            0.,NA,NA,"",       6.84785,      -6.52855,      -2.06665,   17.1005E-03
C:/temp/dataset/9/29_5.odb,Step-1,Increment      1: Step Time =    1.000,"PART-1-1",           749,       5.31672,       2.29333,            0.,NA,NA,"",       7.77103,      -7.26971,      -2.74593,   16.3552E-03
C:/temp/dataset/9/29_5.odb,Step-1,Increment      1: Step Time =    1.000,"PART-1-1",           750,      -6.94695,       24.4689,            0.,NA,NA,"",       17.4747,      -14.8849,      -9.15446,   3.04477E-03
C:/temp/dataset/9/29_5.odb,Step-1,Increment      1: Step Time =    1.000,"PART-1-1",           751,      -2.09966,       23.3616,            0.,NA,NA,"",       16.4945,      -14.8067,      -7.26843,   3.68453E-03
C:/temp/dataset/9/29_5.odb,Step-1,Increment      1: Step Time =    1.000,"PART-1-1",           752,      -2.87591,       24.2478,            0.,NA,NA,"",       16.9013,      -15.0843,      -7.62333,   3.17803E-03
C:/temp/dataset/9/29_5.odb,Step-1,Increment      1: Step Time =    1.000,"PART-1-1",           753,       9.53974,       23.7363,            0.,NA,NA,"",       16.0526,      -15.7928,      -2.87677,   1.63569E-03
C:/temp/dataset/9/29_5.odb,Step-1,Increment      1: Step Time =    1.000,"PART-1-1",           754,      -5.22075,      -2.25347,            0.,NA,NA,"",       7.99079,      -4.80653,      -6.38357,   2.54854E-03
C:/temp/dataset/9/29_5.odb,Step-1,Increment      1: Step Time =    1.000,"PART-1-1",           755,      -7.55915,      -2.11026,            0.,NA,NA,"",       8.66945,      -4.67668,      -7.29986,   2.19329E-03
C:/temp/dataset/9/29_5.odb,Step-1,Increment      1: Step Time =    1.000,"PART-1-1",           756,      -4.20325,      -1.24540,            0.,NA,NA,"",       8.03846,      -5.27300,      -6.06732,   2.41907E-03
C:/temp/dataset/9/29_5.odb,Step-1,Increment      1: Step Time =    1.000,"PART-1-1",           757,       12.0426,       5.30937,            0.,NA,NA,"",       8.84231,      -8.82769,  -508.367E-03,   8.30706E-03
C:/temp/dataset/9/29_5.odb,Step-1,Increment      1: Step Time =    1.000,"PART-1-1",           758,      -8.17645,       12.8481,            0.,NA,NA,"",       13.6235,      -10.4460,      -8.74538,   4.33147E-03
C:/temp/dataset/9/29_5.odb,Step-1,Increment      1: Step Time =    1.000,"PART-1-1",           759,      -8.09554,       10.3784,            0.,NA,NA,"",       12.7502,      -9.49080,      -8.51428,   4.45901E-03
C:/temp/dataset/9/29_5.odb,Step-1,Increment      1: Step Time =    1.000,"PART-1-1",           760,      -8.33007,       15.6293,            0.,NA,NA,"",       14.6178,      -11.5027,      -9.02040,   3.36006E-03
C:/temp/dataset/9/29_5.odb,Step-1,Increment      1: Step Time =    1.000,"PART-1-1",           761,       12.1122,      -19.7356,            0.,NA,NA,"",       1.05047,      -1.00409,   308.674E-03,   37.0759E-03
C:/temp/dataset/9/29_5.odb,Step-1,Increment      1: Step Time =    1.000,"PART-1-1",           762,       12.1388,      -17.4254,            0.,NA,NA,"",       1.50084,      -1.46127,   342.351E-03,   35.0453E-03
C:/temp/dataset/9/29_5.odb,Step-1,Increment      1: Step Time =    1.000,"PART-1-1",           763,       12.0361,      -7.90801,            0.,NA,NA,"",       4.04255,      -4.03710,   209.807E-03,   25.5148E-03
C:/temp/dataset/9/29_5.odb,Step-1,Increment      1: Step Time =    1.000,"PART-1-1",           764,       12.0837,      -10.3075,            0.,NA,NA,"",       3.30608,      -3.29369,   285.911E-03,   27.5037E-03
C:/temp/dataset/9/29_5.odb,Step-1,Increment      1: Step Time =    1.000,"PART-1-1",           765,       12.1118,      -12.6921,            0.,NA,NA,"",       2.63488,      -2.61399,   331.082E-03,   29.9128E-03
C:/temp/dataset/9/29_5.odb,Step-1,Increment      1: Step Time =    1.000,"PART-1-1",           766,       12.1357,      -15.0700,            0.,NA,NA,"",       2.03105,      -2.00055,   350.615E-03,   32.5808E-03
C:/temp/dataset/9/29_5.odb,Step-1,Increment      1: Step Time =    1.000,"PART-1-1",           767,      -8.71328,  -792.246E-03,            0.,NA,NA,"",       9.35829,      -5.09401,      -7.85039,   2.16138E-03
C:/temp/dataset/9/29_5.odb,Step-1,Increment      1: Step Time =    1.000,"PART-1-1",           768,      -7.47429,       25.8162,            0.,NA,NA,"",       18.0247,      -15.3488,      -9.45014,   1.99965E-03
C:/temp/dataset/9/29_5.odb,Step-1,Increment      1: Step Time =    1.000,"PART-1-1",           769,       9.13729,   756.201E-03,            0.,NA,NA,"",       7.03584,      -6.92572,      -1.23992,   13.1063E-03
C:/temp/dataset/9/29_5.odb,Step-1,Increment      1: Step Time =    1.000,"PART-1-1",           770,       7.76646,  -679.521E-03,            0.,NA,NA,"",       6.52149,      -6.31846,      -1.61459,   17.9445E-03
C:/temp/dataset/9/29_5.odb,Step-1,Increment      1: Step Time =    1.000,"PART-1-1",           771,       9.13358,  -706.311E-03,            0.,NA,NA,"",       6.48576,      -6.38629,      -1.13158,   15.8202E-03
C:/temp/dataset/9/29_5.odb,Step-1,Increment      1: Step Time =    1.000,"PART-1-1",           772,       7.17869,      -1.72980,            0.,NA,NA,"",       6.15300,      -5.90265,      -1.73726,   19.7616E-03
C:/temp/dataset/9/29_5.odb,Step-1,Increment      1: Step Time =    1.000,"PART-1-1",           773,       6.08762,  -989.051E-03,            0.,NA,NA,"",       6.49265,      -6.11142,      -2.19205,   19.1427E-03
C:/temp/dataset/9/29_5.odb,Step-1,Increment      1: Step Time =    1.000,"PART-1-1",           774,       8.06590,       24.5744,            0.,NA,NA,"",       16.3824,      -16.0020,      -3.50977,   1.79339E-03
C:/temp/dataset/9/29_5.odb,Step-1,Increment      1: Step Time =    1.000,"PART-1-1",           775,       7.69641,      -4.07963,            0.,NA,NA,"",       5.26823,      -5.08735,      -1.36864,   19.4888E-03
C:/temp/dataset/9/29_5.odb,Step-1,Increment      1: Step Time =    1.000,"PART-1-1",           776,       8.40687,      -2.58051,            0.,NA,NA,"",       5.79607,      -5.66140,      -1.24216,   18.7176E-03
C:/temp/dataset/9/29_5.odb,Step-1,Increment      1: Step Time =    1.000,"PART-1-1",           777,      -9.00797,   684.990E-03,            0.,NA,NA,"",       9.85496,      -5.64107,      -8.08076,   2.39705E-03
C:/temp/dataset/9/29_5.odb,Step-1,Increment      1: Step Time =    1.000,"PART-1-1",           778,       5.05143,   63.4436E-03,            0.,NA,NA,"",       6.96348,      -6.43536,      -2.66011,   14.7188E-03
C:/temp/dataset/9/29_5.odb,Step-1,Increment      1: Step Time =    1.000,"PART-1-1",           779,      -3.45659,  -454.281E-03,            0.,NA,NA,"",       8.11383,      -5.63338,      -5.83945,   2.31065E-03
C:/temp/dataset/9/29_5.odb,Step-1,Increment      1: Step Time =    1.000,"PART-1-1",           780,      -7.58605,   993.377E-03,            0.,NA,NA,"",       9.56430,      -5.86993,      -7.55115,   2.87118E-03
