ODB Name,Step,Frame,Part Instance Name,    êﬂì_ÉâÉxÉã,X,Y,Z,Section Name,Material Name,Section Point,   U-Magnitude,          U-U1,          U-U2,       S-Mises
C:/temp/dataset/9/2_2.odb,Step-1,Increment      1: Step Time =    1.000,"PART-1-1",             1,            5.,           20.,            0.,NA,NA,"",       2.30909,      -2.26400,  -454.043E-03,   2.25881E-03
C:/temp/dataset/9/2_2.odb,Step-1,Increment      1: Step Time =    1.000,"PART-1-1",             2,            0.,           20.,            0.,NA,NA,"",       2.40029,      -2.26003,  -808.477E-03,   2.67831E-03
C:/temp/dataset/9/2_2.odb,Step-1,Increment      1: Step Time =    1.000,"PART-1-1",             3,            5.,          12.5,            0.,NA,NA,"",       1.80164,      -1.75242,  -418.249E-03,   2.88463E-03
C:/temp/dataset/9/2_2.odb,Step-1,Increment      1: Step Time =    1.000,"PART-1-1",             4,            5.,            5.,            0.,NA,NA,"",       1.32518,      -1.27016,  -377.894E-03,   4.94080E-03
C:/temp/dataset/9/2_2.odb,Step-1,Increment      1: Step Time =    1.000,"PART-1-1",             5,            0.,            5.,            0.,NA,NA,"",       1.46587,      -1.28216,  -710.522E-03,   3.59461E-03
C:/temp/dataset/9/2_2.odb,Step-1,Increment      1: Step Time =    1.000,"PART-1-1",             6,           -5.,            5.,            0.,NA,NA,"",       1.66834,      -1.27689,      -1.07374,   4.03112E-03
C:/temp/dataset/9/2_2.odb,Step-1,Increment      1: Step Time =    1.000,"PART-1-1",             7,           -5.,          12.5,            0.,NA,NA,"",       2.09677,      -1.77752,      -1.11215,   2.44165E-03
C:/temp/dataset/9/2_2.odb,Step-1,Increment      1: Step Time =    1.000,"PART-1-1",             8,           -5.,           20.,            0.,NA,NA,"",       2.53565,      -2.26327,      -1.14331,   2.68416E-03
C:/temp/dataset/9/2_2.odb,Step-1,Increment      1: Step Time =    1.000,"PART-1-1",             9,           15.,           30.,            0.,NA,NA,"",       2.99231,      -2.98443,   217.003E-03,   11.1535E-06
C:/temp/dataset/9/2_2.odb,Step-1,Increment      1: Step Time =    1.000,"PART-1-1",            10,           7.5,           30.,            0.,NA,NA,"",       2.98246,      -2.96653,  -307.796E-03,   57.5377E-06
C:/temp/dataset/9/2_2.odb,Step-1,Increment      1: Step Time =    1.000,"PART-1-1",            11,            0.,           30.,            0.,NA,NA,"",       3.06106,      -2.94434,  -837.252E-03,   1.92488E-03
C:/temp/dataset/9/2_2.odb,Step-1,Increment      1: Step Time =    1.000,"PART-1-1",            12,          -7.5,           30.,            0.,NA,NA,"",       3.20660,      -2.91488,      -1.33633,   1.30263E-03
C:/temp/dataset/9/2_2.odb,Step-1,Increment      1: Step Time =    1.000,"PART-1-1",            13,          -15.,           30.,            0.,NA,NA,"",       3.42092,      -2.89928,      -1.81573,   12.0526E-06
C:/temp/dataset/9/2_2.odb,Step-1,Increment      1: Step Time =    1.000,"PART-1-1",            14,          -15.,         21.25,            0.,NA,NA,"",       2.94339,      -2.33165,      -1.79636,   368.369E-06
C:/temp/dataset/9/2_2.odb,Step-1,Increment      1: Step Time =    1.000,"PART-1-1",            15,          -15.,          12.5,            0.,NA,NA,"",       2.50110,      -1.75952,      -1.77753,   495.587E-06
C:/temp/dataset/9/2_2.odb,Step-1,Increment      1: Step Time =    1.000,"PART-1-1",            16,          -15.,          3.75,            0.,NA,NA,"",       2.11505,      -1.16749,      -1.76364,   736.169E-06
C:/temp/dataset/9/2_2.odb,Step-1,Increment      1: Step Time =    1.000,"PART-1-1",            17,          -15.,           -5.,            0.,NA,NA,"",       1.83135,  -556.709E-03,      -1.74468,   16.6927E-06
C:/temp/dataset/9/2_2.odb,Step-1,Increment      1: Step Time =    1.000,"PART-1-1",            18,          -10.,           -5.,            0.,NA,NA,"",       1.50632,  -568.450E-03,      -1.39494,   270.022E-06
C:/temp/dataset/9/2_2.odb,Step-1,Increment      1: Step Time =    1.000,"PART-1-1",            19,           -5.,           -5.,            0.,NA,NA,"",       1.19258,  -580.496E-03,      -1.04176,   405.931E-06
C:/temp/dataset/9/2_2.odb,Step-1,Increment      1: Step Time =    1.000,"PART-1-1",            20,            0.,           -5.,            0.,NA,NA,"",   911.310E-03,  -599.503E-03,  -686.354E-03,   2.29547E-03
C:/temp/dataset/9/2_2.odb,Step-1,Increment      1: Step Time =    1.000,"PART-1-1",            21,            5.,           -5.,            0.,NA,NA,"",   710.154E-03,  -635.778E-03,  -316.392E-03,   18.2749E-03
C:/temp/dataset/9/2_2.odb,Step-1,Increment      1: Step Time =    1.000,"PART-1-1",            22,            5.,        -11.25,            0.,NA,NA,"",   431.227E-03,  -367.346E-03,  -225.862E-03,   13.5493E-03
C:/temp/dataset/9/2_2.odb,Step-1,Increment      1: Step Time =    1.000,"PART-1-1",            23,            5.,         -17.5,            0.,NA,NA,"",   222.039E-03,  -166.519E-03,  -146.876E-03,   13.4367E-03
C:/temp/dataset/9/2_2.odb,Step-1,Increment      1: Step Time =    1.000,"PART-1-1",            24,            5.,        -23.75,            0.,NA,NA,"",   86.1831E-03,  -48.7825E-03,  -71.0478E-03,   13.1119E-03
C:/temp/dataset/9/2_2.odb,Step-1,Increment      1: Step Time =    1.000,"PART-1-1",            25,            5.,          -30.,            0.,NA,NA,"",            0.,  -3.76970E-39,  -7.32071E-39,   14.2682E-03
C:/temp/dataset/9/2_2.odb,Step-1,Increment      1: Step Time =    1.000,"PART-1-1",            26,           15.,          -30.,            0.,NA,NA,"",            0.,  -2.74559E-39,   5.19312E-39,   9.87670E-03
C:/temp/dataset/9/2_2.odb,Step-1,Increment      1: Step Time =    1.000,"PART-1-1",            27,           15.,         -22.5,            0.,NA,NA,"",   89.9352E-03,  -60.5389E-03,   66.5085E-03,   10.4066E-03
C:/temp/dataset/9/2_2.odb,Step-1,Increment      1: Step Time =    1.000,"PART-1-1",            28,           15.,          -15.,            0.,NA,NA,"",   271.575E-03,  -235.449E-03,   135.341E-03,   10.6893E-03
C:/temp/dataset/9/2_2.odb,Step-1,Increment      1: Step Time =    1.000,"PART-1-1",            29,           15.,          -7.5,            0.,NA,NA,"",   573.031E-03,  -536.176E-03,   202.188E-03,   10.6359E-03
C:/temp/dataset/9/2_2.odb,Step-1,Increment      1: Step Time =    1.000,"PART-1-1",            30,           15.,            0.,            0.,NA,NA,"",   992.936E-03,  -961.959E-03,   246.081E-03,   5.08762E-03
C:/temp/dataset/9/2_2.odb,Step-1,Increment      1: Step Time =    1.000,"PART-1-1",            31,           15.,           7.5,            0.,NA,NA,"",       1.46362,      -1.44199,   250.702E-03,   1.97632E-03
C:/temp/dataset/9/2_2.odb,Step-1,Increment      1: Step Time =    1.000,"PART-1-1",            32,           15.,           15.,            0.,NA,NA,"",       1.95695,      -1.94144,   245.930E-03,   1.45678E-03
C:/temp/dataset/9/2_2.odb,Step-1,Increment      1: Step Time =    1.000,"PART-1-1",            33,           15.,          22.5,            0.,NA,NA,"",       2.47103,      -2.45989,   234.456E-03,   439.237E-06
C:/temp/dataset/9/2_2.odb,Step-1,Increment      1: Step Time =    1.000,"PART-1-1",            34,           2.5,           20.,            0.,NA,NA,"",       2.34794,      -2.26082,  -633.632E-03,   1.95044E-03
C:/temp/dataset/9/2_2.odb,Step-1,Increment      1: Step Time =    1.000,"PART-1-1",            35,            5.,           15.,            0.,NA,NA,"",       1.96826,      -1.92070,  -430.096E-03,   2.59702E-03
C:/temp/dataset/9/2_2.odb,Step-1,Increment      1: Step Time =    1.000,"PART-1-1",            36,            5.,          17.5,            0.,NA,NA,"",       2.13725,      -2.09116,  -441.476E-03,   2.53696E-03
C:/temp/dataset/9/2_2.odb,Step-1,Increment      1: Step Time =    1.000,"PART-1-1",            37,            5.,           7.5,            0.,NA,NA,"",       1.47781,      -1.42466,  -392.776E-03,   3.82134E-03
C:/temp/dataset/9/2_2.odb,Step-1,Increment      1: Step Time =    1.000,"PART-1-1",            38,            5.,           10.,            0.,NA,NA,"",       1.63789,      -1.58681,  -405.855E-03,   3.21579E-03
C:/temp/dataset/9/2_2.odb,Step-1,Increment      1: Step Time =    1.000,"PART-1-1",            39,           2.5,            5.,            0.,NA,NA,"",       1.38707,      -1.27835,  -538.320E-03,   5.09983E-03
C:/temp/dataset/9/2_2.odb,Step-1,Increment      1: Step Time =    1.000,"PART-1-1",            40,          -2.5,            5.,            0.,NA,NA,"",       1.56027,      -1.28229,  -888.918E-03,   2.21592E-03
C:/temp/dataset/9/2_2.odb,Step-1,Increment      1: Step Time =    1.000,"PART-1-1",            41,           -5.,           10.,            0.,NA,NA,"",       1.95191,      -1.61184,      -1.10087,   2.64049E-03
C:/temp/dataset/9/2_2.odb,Step-1,Increment      1: Step Time =    1.000,"PART-1-1",            42,           -5.,           7.5,            0.,NA,NA,"",       1.80930,      -1.44479,      -1.08911,   3.14885E-03
C:/temp/dataset/9/2_2.odb,Step-1,Increment      1: Step Time =    1.000,"PART-1-1",            43,           -5.,          17.5,            0.,NA,NA,"",       2.38987,      -2.10419,      -1.13308,   2.20377E-03
C:/temp/dataset/9/2_2.odb,Step-1,Increment      1: Step Time =    1.000,"PART-1-1",            44,           -5.,           15.,            0.,NA,NA,"",       2.24295,      -1.94167,      -1.12282,   2.22738E-03
C:/temp/dataset/9/2_2.odb,Step-1,Increment      1: Step Time =    1.000,"PART-1-1",            45,          -2.5,           20.,            0.,NA,NA,"",       2.46372,      -2.26079,  -979.162E-03,   3.17177E-03
C:/temp/dataset/9/2_2.odb,Step-1,Increment      1: Step Time =    1.000,"PART-1-1",            46,          12.5,           30.,            0.,NA,NA,"",       2.97863,      -2.97833,   42.2411E-03,   39.9258E-06
C:/temp/dataset/9/2_2.odb,Step-1,Increment      1: Step Time =    1.000,"PART-1-1",            47,           10.,           30.,            0.,NA,NA,"",       2.97538,      -2.97242,  -132.563E-03,   123.890E-06
C:/temp/dataset/9/2_2.odb,Step-1,Increment      1: Step Time =    1.000,"PART-1-1",            48,            5.,           30.,            0.,NA,NA,"",       2.99942,      -2.96017,  -483.611E-03,   279.627E-06
C:/temp/dataset/9/2_2.odb,Step-1,Increment      1: Step Time =    1.000,"PART-1-1",            49,           2.5,           30.,            0.,NA,NA,"",       3.02551,      -2.95271,  -659.702E-03,   879.367E-06
C:/temp/dataset/9/2_2.odb,Step-1,Increment      1: Step Time =    1.000,"PART-1-1",            50,          -2.5,           30.,            0.,NA,NA,"",       3.10271,      -2.93332,      -1.01117,   2.72395E-03
C:/temp/dataset/9/2_2.odb,Step-1,Increment      1: Step Time =    1.000,"PART-1-1",            51,           -5.,           30.,            0.,NA,NA,"",       3.15160,      -2.92347,      -1.17726,   2.59753E-03
C:/temp/dataset/9/2_2.odb,Step-1,Increment      1: Step Time =    1.000,"PART-1-1",            52,          -10.,           30.,            0.,NA,NA,"",       3.27060,      -2.90955,      -1.49378,   318.409E-06
C:/temp/dataset/9/2_2.odb,Step-1,Increment      1: Step Time =    1.000,"PART-1-1",            53,         -12.5,           30.,            0.,NA,NA,"",       3.34248,      -2.90438,      -1.65433,   90.0693E-06
C:/temp/dataset/9/2_2.odb,Step-1,Increment      1: Step Time =    1.000,"PART-1-1",            54,          -15.,       27.8125,            0.,NA,NA,"",       3.29950,      -2.75795,      -1.81120,   49.0993E-06
C:/temp/dataset/9/2_2.odb,Step-1,Increment      1: Step Time =    1.000,"PART-1-1",            55,          -15.,        25.625,            0.,NA,NA,"",       3.17937,      -2.61617,      -1.80666,   61.5727E-06
C:/temp/dataset/9/2_2.odb,Step-1,Increment      1: Step Time =    1.000,"PART-1-1",            56,          -15.,       23.4375,            0.,NA,NA,"",       3.06048,      -2.47396,      -1.80168,   252.338E-06
C:/temp/dataset/9/2_2.odb,Step-1,Increment      1: Step Time =    1.000,"PART-1-1",            57,          -15.,       19.0625,            0.,NA,NA,"",       2.82862,      -2.18936,      -1.79104,   277.253E-06
C:/temp/dataset/9/2_2.odb,Step-1,Increment      1: Step Time =    1.000,"PART-1-1",            58,          -15.,        16.875,            0.,NA,NA,"",       2.71654,      -2.04684,      -1.78606,   43.2402E-06
C:/temp/dataset/9/2_2.odb,Step-1,Increment      1: Step Time =    1.000,"PART-1-1",            59,          -15.,       14.6875,            0.,NA,NA,"",       2.60730,      -1.90369,      -1.78156,   236.195E-06
C:/temp/dataset/9/2_2.odb,Step-1,Increment      1: Step Time =    1.000,"PART-1-1",            60,          -15.,       10.3125,            0.,NA,NA,"",       2.39827,      -1.61400,      -1.77389,   717.494E-06
C:/temp/dataset/9/2_2.odb,Step-1,Increment      1: Step Time =    1.000,"PART-1-1",            61,          -15.,         8.125,            0.,NA,NA,"",       2.29924,      -1.46689,      -1.77052,   863.358E-06
C:/temp/dataset/9/2_2.odb,Step-1,Increment      1: Step Time =    1.000,"PART-1-1",            62,          -15.,        5.9375,            0.,NA,NA,"",       2.20458,      -1.31803,      -1.76720,   861.722E-06
C:/temp/dataset/9/2_2.odb,Step-1,Increment      1: Step Time =    1.000,"PART-1-1",            63,          -15.,        1.5625,            0.,NA,NA,"",       2.03167,      -1.01561,      -1.75961,   516.580E-06
C:/temp/dataset/9/2_2.odb,Step-1,Increment      1: Step Time =    1.000,"PART-1-1",            64,          -15.,     -625.E-03,            0.,NA,NA,"",       1.95570,  -862.877E-03,      -1.75505,   278.230E-06
C:/temp/dataset/9/2_2.odb,Step-1,Increment      1: Step Time =    1.000,"PART-1-1",            65,          -15.,       -2.8125,            0.,NA,NA,"",       1.88847,  -709.775E-03,      -1.75001,   79.8823E-06
C:/temp/dataset/9/2_2.odb,Step-1,Increment      1: Step Time =    1.000,"PART-1-1",            66,         -12.5,           -5.,            0.,NA,NA,"",       1.66773,  -562.772E-03,      -1.56991,   97.3647E-06
C:/temp/dataset/9/2_2.odb,Step-1,Increment      1: Step Time =    1.000,"PART-1-1",            67,          -7.5,           -5.,            0.,NA,NA,"",       1.34740,  -574.048E-03,      -1.21900,   168.507E-06
C:/temp/dataset/9/2_2.odb,Step-1,Increment      1: Step Time =    1.000,"PART-1-1",            68,          -2.5,           -5.,            0.,NA,NA,"",       1.04555,  -588.848E-03,  -863.959E-03,   1.45850E-03
C:/temp/dataset/9/2_2.odb,Step-1,Increment      1: Step Time =    1.000,"PART-1-1",            69,           2.5,           -5.,            0.,NA,NA,"",   795.670E-03,  -611.964E-03,  -508.518E-03,   5.53002E-03
C:/temp/dataset/9/2_2.odb,Step-1,Increment      1: Step Time =    1.000,"PART-1-1",            70,            5.,      -7.08333,            0.,NA,NA,"",   611.195E-03,  -543.514E-03,  -279.558E-03,   16.3157E-03
C:/temp/dataset/9/2_2.odb,Step-1,Increment      1: Step Time =    1.000,"PART-1-1",            71,            5.,      -9.16667,            0.,NA,NA,"",   517.972E-03,  -452.067E-03,  -252.843E-03,   13.3258E-03
C:/temp/dataset/9/2_2.odb,Step-1,Increment      1: Step Time =    1.000,"PART-1-1",            72,            5.,      -13.3333,            0.,NA,NA,"",   352.819E-03,  -291.189E-03,  -199.224E-03,   13.4725E-03
C:/temp/dataset/9/2_2.odb,Step-1,Increment      1: Step Time =    1.000,"PART-1-1",            73,            5.,      -15.4167,            0.,NA,NA,"",   283.139E-03,  -224.227E-03,  -172.887E-03,   13.4874E-03
C:/temp/dataset/9/2_2.odb,Step-1,Increment      1: Step Time =    1.000,"PART-1-1",            74,            5.,      -19.5833,            0.,NA,NA,"",   169.227E-03,  -118.085E-03,  -121.218E-03,   13.3634E-03
C:/temp/dataset/9/2_2.odb,Step-1,Increment      1: Step Time =    1.000,"PART-1-1",            75,            5.,      -21.6667,            0.,NA,NA,"",   124.188E-03,  -78.8574E-03,  -95.9378E-03,   13.2453E-03
C:/temp/dataset/9/2_2.odb,Step-1,Increment      1: Step Time =    1.000,"PART-1-1",            76,            5.,      -25.8333,            0.,NA,NA,"",   54.2326E-03,  -27.4333E-03,  -46.7823E-03,   12.6657E-03
C:/temp/dataset/9/2_2.odb,Step-1,Increment      1: Step Time =    1.000,"PART-1-1",            77,            5.,      -27.9167,            0.,NA,NA,"",   27.3310E-03,  -13.9790E-03,  -23.4856E-03,   13.0049E-03
C:/temp/dataset/9/2_2.odb,Step-1,Increment      1: Step Time =    1.000,"PART-1-1",            78,           7.5,          -30.,            0.,NA,NA,"",            0.,   715.272E-42,  -13.2896E-39,   5.49612E-03
C:/temp/dataset/9/2_2.odb,Step-1,Increment      1: Step Time =    1.000,"PART-1-1",            79,           10.,          -30.,            0.,NA,NA,"",            0.,   2.11063E-39,  -1.77824E-39,   2.68781E-03
C:/temp/dataset/9/2_2.odb,Step-1,Increment      1: Step Time =    1.000,"PART-1-1",            80,          12.5,          -30.,            0.,NA,NA,"",            0.,  -860.745E-42,   6.25795E-39,   3.75728E-03
C:/temp/dataset/9/2_2.odb,Step-1,Increment      1: Step Time =    1.000,"PART-1-1",            81,           15.,         -27.5,            0.,NA,NA,"",   23.8362E-03,  -11.1318E-03,   21.0771E-03,   10.2346E-03
C:/temp/dataset/9/2_2.odb,Step-1,Increment      1: Step Time =    1.000,"PART-1-1",            82,           15.,          -25.,            0.,NA,NA,"",   52.4718E-03,  -29.2153E-03,   43.5862E-03,   10.2099E-03
C:/temp/dataset/9/2_2.odb,Step-1,Increment      1: Step Time =    1.000,"PART-1-1",            83,           15.,          -20.,            0.,NA,NA,"",   138.188E-03,  -105.253E-03,   89.5427E-03,   10.4652E-03
C:/temp/dataset/9/2_2.odb,Step-1,Increment      1: Step Time =    1.000,"PART-1-1",            84,           15.,         -17.5,            0.,NA,NA,"",   198.480E-03,  -163.523E-03,   112.493E-03,   10.5736E-03
C:/temp/dataset/9/2_2.odb,Step-1,Increment      1: Step Time =    1.000,"PART-1-1",            85,           15.,         -12.5,            0.,NA,NA,"",   358.010E-03,  -321.238E-03,   158.043E-03,   10.8281E-03
C:/temp/dataset/9/2_2.odb,Step-1,Increment      1: Step Time =    1.000,"PART-1-1",            86,           15.,          -10.,            0.,NA,NA,"",   458.322E-03,  -421.284E-03,   180.497E-03,   10.9113E-03
C:/temp/dataset/9/2_2.odb,Step-1,Increment      1: Step Time =    1.000,"PART-1-1",            87,           15.,           -5.,            0.,NA,NA,"",   701.981E-03,  -666.064E-03,   221.666E-03,   9.49856E-03
C:/temp/dataset/9/2_2.odb,Step-1,Increment      1: Step Time =    1.000,"PART-1-1",            88,           15.,          -2.5,            0.,NA,NA,"",   843.209E-03,  -809.288E-03,   236.758E-03,   7.42945E-03
C:/temp/dataset/9/2_2.odb,Step-1,Increment      1: Step Time =    1.000,"PART-1-1",            89,           15.,           2.5,            0.,NA,NA,"",       1.14742,      -1.11979,   250.275E-03,   3.26454E-03
C:/temp/dataset/9/2_2.odb,Step-1,Increment      1: Step Time =    1.000,"PART-1-1",            90,           15.,            5.,            0.,NA,NA,"",       1.30446,      -1.28005,   251.210E-03,   2.30206E-03
C:/temp/dataset/9/2_2.odb,Step-1,Increment      1: Step Time =    1.000,"PART-1-1",            91,           15.,           10.,            0.,NA,NA,"",       1.62529,      -1.60600,   249.628E-03,   1.85523E-03
C:/temp/dataset/9/2_2.odb,Step-1,Increment      1: Step Time =    1.000,"PART-1-1",            92,           15.,          12.5,            0.,NA,NA,"",       1.78975,      -1.77248,   248.084E-03,   1.69397E-03
C:/temp/dataset/9/2_2.odb,Step-1,Increment      1: Step Time =    1.000,"PART-1-1",            93,           15.,          17.5,            0.,NA,NA,"",       2.12658,      -2.11265,   243.009E-03,   1.14646E-03
C:/temp/dataset/9/2_2.odb,Step-1,Increment      1: Step Time =    1.000,"PART-1-1",            94,           15.,           20.,            0.,NA,NA,"",       2.29816,      -2.28568,   239.188E-03,   781.205E-06
C:/temp/dataset/9/2_2.odb,Step-1,Increment      1: Step Time =    1.000,"PART-1-1",            95,           15.,           25.,            0.,NA,NA,"",       2.64459,      -2.63465,   228.999E-03,   193.130E-06
C:/temp/dataset/9/2_2.odb,Step-1,Increment      1: Step Time =    1.000,"PART-1-1",            96,           15.,          27.5,            0.,NA,NA,"",       2.81842,      -2.80958,   223.107E-03,   42.9818E-06
C:/temp/dataset/9/2_2.odb,Step-1,Increment      1: Step Time =    1.000,"PART-1-1",            97,       7.09255,      -21.6558,            0.,NA,NA,"",   91.8089E-03,  -69.1676E-03,  -60.3714E-03,   8.31457E-03
C:/temp/dataset/9/2_2.odb,Step-1,Increment      1: Step Time =    1.000,"PART-1-1",            98,       7.09346,      -17.4368,            0.,NA,NA,"",   183.797E-03,  -158.533E-03,  -92.9997E-03,   8.40140E-03
C:/temp/dataset/9/2_2.odb,Step-1,Increment      1: Step Time =    1.000,"PART-1-1",            99,       7.15828,      -23.7452,            0.,NA,NA,"",   58.4010E-03,  -38.6791E-03,  -43.7563E-03,   8.11592E-03
C:/temp/dataset/9/2_2.odb,Step-1,Increment      1: Step Time =    1.000,"PART-1-1",           100,       7.44609,      -27.8729,            0.,NA,NA,"",   13.1636E-03,  -4.17479E-03,  -12.4840E-03,   7.58241E-03
C:/temp/dataset/9/2_2.odb,Step-1,Increment      1: Step Time =    1.000,"PART-1-1",           101,       7.30780,      -25.7939,            0.,NA,NA,"",   32.2215E-03,  -17.1871E-03,  -27.2548E-03,   7.96604E-03
C:/temp/dataset/9/2_2.odb,Step-1,Increment      1: Step Time =    1.000,"PART-1-1",           102,       7.08258,      -10.9526,            0.,NA,NA,"",   398.098E-03,  -370.271E-03,  -146.223E-03,   8.52656E-03
C:/temp/dataset/9/2_2.odb,Step-1,Increment      1: Step Time =    1.000,"PART-1-1",           103,       7.09950,      -13.1236,            0.,NA,NA,"",   316.216E-03,  -289.353E-03,  -127.544E-03,   8.48617E-03
C:/temp/dataset/9/2_2.odb,Step-1,Increment      1: Step Time =    1.000,"PART-1-1",           104,       6.95448,      -6.62029,            0.,NA,NA,"",   590.749E-03,  -559.807E-03,  -188.684E-03,   8.84534E-03
C:/temp/dataset/9/2_2.odb,Step-1,Increment      1: Step Time =    1.000,"PART-1-1",           105,       7.04974,      -8.78764,            0.,NA,NA,"",   489.532E-03,  -460.314E-03,  -166.591E-03,   9.03060E-03
C:/temp/dataset/9/2_2.odb,Step-1,Increment      1: Step Time =    1.000,"PART-1-1",           106,       7.10540,      -15.2896,            0.,NA,NA,"",   244.629E-03,  -218.638E-03,  -109.730E-03,   8.41347E-03
C:/temp/dataset/9/2_2.odb,Step-1,Increment      1: Step Time =    1.000,"PART-1-1",           107,       7.08223,      -19.5608,            0.,NA,NA,"",   133.121E-03,  -108.828E-03,  -76.6656E-03,   8.38040E-03
C:/temp/dataset/9/2_2.odb,Step-1,Increment      1: Step Time =    1.000,"PART-1-1",           108,      -11.8989,       25.3809,            0.,NA,NA,"",       3.06134,      -2.60654,      -1.60553,   596.199E-06
C:/temp/dataset/9/2_2.odb,Step-1,Increment      1: Step Time =    1.000,"PART-1-1",           109,      -12.7134,       3.51066,            0.,NA,NA,"",       1.97879,      -1.15681,      -1.60543,   250.624E-06
C:/temp/dataset/9/2_2.odb,Step-1,Increment      1: Step Time =    1.000,"PART-1-1",           110,      -13.0834,       10.3867,            0.,NA,NA,"",       2.31179,      -1.62360,      -1.64569,   254.275E-06
C:/temp/dataset/9/2_2.odb,Step-1,Increment      1: Step Time =    1.000,"PART-1-1",           111,      -12.9355,       8.20912,            0.,NA,NA,"",       2.20092,      -1.47778,      -1.63102,   196.716E-06
C:/temp/dataset/9/2_2.odb,Step-1,Increment      1: Step Time =    1.000,"PART-1-1",           112,      -13.1801,       12.5484,            0.,NA,NA,"",       2.42225,      -1.76692,      -1.65689,   292.739E-06
C:/temp/dataset/9/2_2.odb,Step-1,Increment      1: Step Time =    1.000,"PART-1-1",           113,      -12.7454,       20.6010,            0.,NA,NA,"",       2.82434,      -2.29373,      -1.64794,   571.072E-06
C:/temp/dataset/9/2_2.odb,Step-1,Increment      1: Step Time =    1.000,"PART-1-1",           114,      -13.1621,       18.5389,            0.,NA,NA,"",       2.72933,      -2.15892,      -1.66983,   496.797E-06
C:/temp/dataset/9/2_2.odb,Step-1,Increment      1: Step Time =    1.000,"PART-1-1",           115,      -12.3840,       22.8683,            0.,NA,NA,"",       2.93621,      -2.44191,      -1.63046,   631.566E-06
C:/temp/dataset/9/2_2.odb,Step-1,Increment      1: Step Time =    1.000,"PART-1-1",           116,      -13.4658,       16.5948,            0.,NA,NA,"",       2.63954,      -2.03175,      -1.68499,   375.067E-06
C:/temp/dataset/9/2_2.odb,Step-1,Increment      1: Step Time =    1.000,"PART-1-1",           117,      -13.3466,       14.6489,            0.,NA,NA,"",       2.53494,      -1.90479,      -1.67263,   323.311E-06
C:/temp/dataset/9/2_2.odb,Step-1,Increment      1: Step Time =    1.000,"PART-1-1",           118,      -12.3609,       5.76892,            0.,NA,NA,"",       2.05945,      -1.31322,      -1.58644,   93.0611E-06
C:/temp/dataset/9/2_2.odb,Step-1,Increment      1: Step Time =    1.000,"PART-1-1",           119,      -12.8583,       1.39410,            0.,NA,NA,"",       1.90065,      -1.00933,      -1.61050,   273.116E-06
C:/temp/dataset/9/2_2.odb,Step-1,Increment      1: Step Time =    1.000,"PART-1-1",           120,      -12.6304,  -685.754E-03,            0.,NA,NA,"",       1.80953,  -864.551E-03,      -1.58964,   256.283E-06
C:/temp/dataset/9/2_2.odb,Step-1,Increment      1: Step Time =    1.000,"PART-1-1",           121,   38.5673E-03,       27.2989,            0.,NA,NA,"",       2.87859,      -2.75709,  -827.471E-03,   1.68517E-03
C:/temp/dataset/9/2_2.odb,Step-1,Increment      1: Step Time =    1.000,"PART-1-1",           122,      -4.16985,       22.2766,            0.,NA,NA,"",       2.64969,      -2.41177,      -1.09736,   1.75841E-03
C:/temp/dataset/9/2_2.odb,Step-1,Increment      1: Step Time =    1.000,"PART-1-1",           123,      -7.85548,       28.0855,            0.,NA,NA,"",       3.10246,      -2.79142,      -1.35396,   1.78186E-03
C:/temp/dataset/9/2_2.odb,Step-1,Increment      1: Step Time =    1.000,"PART-1-1",           124,       9.92813,      -27.7267,            0.,NA,NA,"",   2.66360E-03,  -328.781E-06,  -2.64323E-03,   1.52535E-03
C:/temp/dataset/9/2_2.odb,Step-1,Increment      1: Step Time =    1.000,"PART-1-1",           125,       13.1106,      -17.4438,            0.,NA,NA,"",   169.879E-03,  -157.322E-03,   64.0983E-03,   6.03406E-03
C:/temp/dataset/9/2_2.odb,Step-1,Increment      1: Step Time =    1.000,"PART-1-1",           126,       12.8150,       2.64061,            0.,NA,NA,"",       1.12799,      -1.12222,   113.958E-03,   2.29197E-03
C:/temp/dataset/9/2_2.odb,Step-1,Increment      1: Step Time =    1.000,"PART-1-1",           127,       7.56819,       12.3225,            0.,NA,NA,"",       1.76096,      -1.74368,  -246.098E-03,   1.66980E-03
C:/temp/dataset/9/2_2.odb,Step-1,Increment      1: Step Time =    1.000,"PART-1-1",           128,       7.47113,       19.8748,            0.,NA,NA,"",       2.27690,      -2.25962,  -279.961E-03,   1.20375E-03
C:/temp/dataset/9/2_2.odb,Step-1,Increment      1: Step Time =    1.000,"PART-1-1",           129,       12.4223,       27.5153,            0.,NA,NA,"",       2.80466,      -2.80433,   42.9361E-03,   119.248E-06
C:/temp/dataset/9/2_2.odb,Step-1,Increment      1: Step Time =    1.000,"PART-1-1",           130,       12.3750,       22.5091,            0.,NA,NA,"",       2.45445,      -2.45391,   51.9136E-03,   383.870E-06
C:/temp/dataset/9/2_2.odb,Step-1,Increment      1: Step Time =    1.000,"PART-1-1",           131,       7.58839,       27.9970,            0.,NA,NA,"",       2.84198,      -2.82646,  -296.617E-03,   247.594E-06
C:/temp/dataset/9/2_2.odb,Step-1,Increment      1: Step Time =    1.000,"PART-1-1",           132,   199.805E-03,       22.3057,            0.,NA,NA,"",       2.54759,      -2.41801,  -802.127E-03,   1.48115E-03
C:/temp/dataset/9/2_2.odb,Step-1,Increment      1: Step Time =    1.000,"PART-1-1",           133,       12.6934,       9.82310,            0.,NA,NA,"",       1.59095,      -1.58792,   98.1310E-03,   871.158E-06
C:/temp/dataset/9/2_2.odb,Step-1,Increment      1: Step Time =    1.000,"PART-1-1",           134,      -7.14717,       12.7802,            0.,NA,NA,"",       2.18922,      -1.79329,      -1.25570,   1.79243E-03
C:/temp/dataset/9/2_2.odb,Step-1,Increment      1: Step Time =    1.000,"PART-1-1",           135,      -6.86178,       17.9412,            0.,NA,NA,"",       2.47297,      -2.13052,      -1.25557,   1.43389E-03
C:/temp/dataset/9/2_2.odb,Step-1,Increment      1: Step Time =    1.000,"PART-1-1",           136,      -2.68307,      -2.95682,            0.,NA,NA,"",       1.14526,  -731.864E-03,  -880.912E-03,   1.68970E-03
C:/temp/dataset/9/2_2.odb,Step-1,Increment      1: Step Time =    1.000,"PART-1-1",           137,      -7.59808,      -3.03341,            0.,NA,NA,"",       1.42208,  -712.149E-03,      -1.23091,   413.928E-06
C:/temp/dataset/9/2_2.odb,Step-1,Increment      1: Step Time =    1.000,"PART-1-1",           138,  -248.196E-03,       2.69947,            0.,NA,NA,"",       1.33486,      -1.12401,  -720.035E-03,   2.45298E-03
C:/temp/dataset/9/2_2.odb,Step-1,Increment      1: Step Time =    1.000,"PART-1-1",           139,       2.16631,      -2.47375,            0.,NA,NA,"",   950.231E-03,  -784.044E-03,  -536.857E-03,   4.74846E-03
C:/temp/dataset/9/2_2.odb,Step-1,Increment      1: Step Time =    1.000,"PART-1-1",           140,       4.39271,       2.43636,            0.,NA,NA,"",       1.18002,      -1.10871,  -403.993E-03,   3.29115E-03
C:/temp/dataset/9/2_2.odb,Step-1,Increment      1: Step Time =    1.000,"PART-1-1",           141,       12.9283,      -5.27800,            0.,NA,NA,"",   650.607E-03,  -641.052E-03,   111.091E-03,   5.50472E-03
C:/temp/dataset/9/2_2.odb,Step-1,Increment      1: Step Time =    1.000,"PART-1-1",           142,       13.0847,      -12.6172,            0.,NA,NA,"",   320.458E-03,  -308.372E-03,   87.1781E-03,   6.07562E-03
C:/temp/dataset/9/2_2.odb,Step-1,Increment      1: Step Time =    1.000,"PART-1-1",           143,       12.4838,       17.4790,            0.,NA,NA,"",       2.10564,      -2.10445,   70.7342E-03,   568.584E-06
C:/temp/dataset/9/2_2.odb,Step-1,Increment      1: Step Time =    1.000,"PART-1-1",           144,       2.63438,       22.2143,            0.,NA,NA,"",       2.49639,      -2.41529,  -631.138E-03,   1.51453E-03
C:/temp/dataset/9/2_2.odb,Step-1,Increment      1: Step Time =    1.000,"PART-1-1",           145,       7.54366,       14.9275,            0.,NA,NA,"",       1.93646,      -1.91928,  -257.373E-03,   1.56344E-03
C:/temp/dataset/9/2_2.odb,Step-1,Increment      1: Step Time =    1.000,"PART-1-1",           146,       7.50510,       17.4443,            0.,NA,NA,"",       2.10849,      -2.09126,  -269.021E-03,   1.31614E-03
C:/temp/dataset/9/2_2.odb,Step-1,Increment      1: Step Time =    1.000,"PART-1-1",           147,       7.12790,       7.03873,            0.,NA,NA,"",       1.41945,      -1.39641,  -254.699E-03,   1.90013E-03
C:/temp/dataset/9/2_2.odb,Step-1,Increment      1: Step Time =    1.000,"PART-1-1",           148,       7.48952,       9.64170,            0.,NA,NA,"",       1.58427,      -1.56579,  -241.255E-03,   1.83585E-03
C:/temp/dataset/9/2_2.odb,Step-1,Increment      1: Step Time =    1.000,"PART-1-1",           149,       2.16717,       2.56251,            0.,NA,NA,"",       1.24580,      -1.11705,  -551.543E-03,   2.29306E-03
C:/temp/dataset/9/2_2.odb,Step-1,Increment      1: Step Time =    1.000,"PART-1-1",           150,      -2.68606,       3.12146,            0.,NA,NA,"",       1.45730,      -1.14936,  -895.924E-03,   2.42789E-03
C:/temp/dataset/9/2_2.odb,Step-1,Increment      1: Step Time =    1.000,"PART-1-1",           151,      -7.08307,       10.2840,            0.,NA,NA,"",       2.04765,      -1.62818,      -1.24174,   2.00789E-03
C:/temp/dataset/9/2_2.odb,Step-1,Increment      1: Step Time =    1.000,"PART-1-1",           152,      -2.13928,       22.2031,            0.,NA,NA,"",       2.59359,      -2.40853,  -962.122E-03,   1.45744E-03
C:/temp/dataset/9/2_2.odb,Step-1,Increment      1: Step Time =    1.000,"PART-1-1",           153,       9.90766,       27.6812,            0.,NA,NA,"",       2.81309,      -2.80994,  -133.217E-03,   83.9965E-06
C:/temp/dataset/9/2_2.odb,Step-1,Increment      1: Step Time =    1.000,"PART-1-1",           154,       5.18317,       27.8350,            0.,NA,NA,"",       2.84737,      -2.80905,  -465.587E-03,   630.130E-06
C:/temp/dataset/9/2_2.odb,Step-1,Increment      1: Step Time =    1.000,"PART-1-1",           155,       2.70091,       27.4744,            0.,NA,NA,"",       2.84976,      -2.77696,  -640.010E-03,   1.20976E-03
C:/temp/dataset/9/2_2.odb,Step-1,Increment      1: Step Time =    1.000,"PART-1-1",           156,      -2.92570,       26.9909,            0.,NA,NA,"",       2.91707,      -2.72901,      -1.03045,   1.45483E-03
C:/temp/dataset/9/2_2.odb,Step-1,Increment      1: Step Time =    1.000,"PART-1-1",           157,      -5.52449,       27.7330,            0.,NA,NA,"",       3.02342,      -2.77318,      -1.20439,   1.92412E-03
C:/temp/dataset/9/2_2.odb,Step-1,Increment      1: Step Time =    1.000,"PART-1-1",           158,      -10.1759,       28.1970,            0.,NA,NA,"",       3.17110,      -2.79320,      -1.50131,   614.216E-06
C:/temp/dataset/9/2_2.odb,Step-1,Increment      1: Step Time =    1.000,"PART-1-1",           159,      -7.15795,       15.3782,            0.,NA,NA,"",       2.33634,      -1.96362,      -1.26597,   1.64413E-03
C:/temp/dataset/9/2_2.odb,Step-1,Increment      1: Step Time =    1.000,"PART-1-1",           160,      -7.10855,       7.92361,            0.,NA,NA,"",       1.91970,      -1.47040,      -1.23417,   2.21997E-03
C:/temp/dataset/9/2_2.odb,Step-1,Increment      1: Step Time =    1.000,"PART-1-1",           161,      -7.31416,       5.72319,            0.,NA,NA,"",       1.81174,      -1.32128,      -1.23961,   1.41546E-03
C:/temp/dataset/9/2_2.odb,Step-1,Increment      1: Step Time =    1.000,"PART-1-1",           162,      -10.0288,      -2.82434,            0.,NA,NA,"",       1.57698,  -720.959E-03,      -1.40253,   122.024E-06
C:/temp/dataset/9/2_2.odb,Step-1,Increment      1: Step Time =    1.000,"PART-1-1",           163,      -5.14639,      -3.11924,            0.,NA,NA,"",       1.27446,  -712.710E-03,      -1.05655,   1.00736E-03
C:/temp/dataset/9/2_2.odb,Step-1,Increment      1: Step Time =    1.000,"PART-1-1",           164,  -261.821E-03,      -2.60038,            0.,NA,NA,"",       1.04361,  -766.051E-03,  -708.724E-03,   2.77369E-03
C:/temp/dataset/9/2_2.odb,Step-1,Increment      1: Step Time =    1.000,"PART-1-1",           165,       4.38015,      -2.33295,            0.,NA,NA,"",   887.295E-03,  -801.005E-03,  -381.685E-03,   5.15188E-03
C:/temp/dataset/9/2_2.odb,Step-1,Increment      1: Step Time =    1.000,"PART-1-1",           166,       13.0639,      -10.1924,            0.,NA,NA,"",   415.623E-03,  -403.975E-03,   97.7077E-03,   6.06266E-03
C:/temp/dataset/9/2_2.odb,Step-1,Increment      1: Step Time =    1.000,"PART-1-1",           167,       13.0843,      -19.8267,            0.,NA,NA,"",   113.659E-03,  -101.402E-03,   51.3428E-03,   5.92082E-03
C:/temp/dataset/9/2_2.odb,Step-1,Increment      1: Step Time =    1.000,"PART-1-1",           168,       12.4446,      -27.5067,            0.,NA,NA,"",   9.38222E-03,  -3.38960E-03,   8.74852E-03,   4.60063E-03
C:/temp/dataset/9/2_2.odb,Step-1,Increment      1: Step Time =    1.000,"PART-1-1",           169,       12.9329,      -22.1971,            0.,NA,NA,"",   68.3587E-03,  -57.5923E-03,   36.8244E-03,   5.47827E-03
C:/temp/dataset/9/2_2.odb,Step-1,Increment      1: Step Time =    1.000,"PART-1-1",           170,       13.1086,      -15.0383,            0.,NA,NA,"",   238.690E-03,  -226.216E-03,   76.1528E-03,   6.08580E-03
C:/temp/dataset/9/2_2.odb,Step-1,Increment      1: Step Time =    1.000,"PART-1-1",           171,       13.0208,      -7.75462,            0.,NA,NA,"",   525.053E-03,  -514.153E-03,   106.430E-03,   5.91431E-03
C:/temp/dataset/9/2_2.odb,Step-1,Increment      1: Step Time =    1.000,"PART-1-1",           172,       12.7756,      -2.70708,            0.,NA,NA,"",   795.187E-03,  -787.630E-03,   109.367E-03,   4.74852E-03
C:/temp/dataset/9/2_2.odb,Step-1,Increment      1: Step Time =    1.000,"PART-1-1",           173,       12.6338,  -14.4220E-03,            0.,NA,NA,"",   958.495E-03,  -952.867E-03,   103.714E-03,   3.62104E-03
C:/temp/dataset/9/2_2.odb,Step-1,Increment      1: Step Time =    1.000,"PART-1-1",           174,       13.0186,       5.13380,            0.,NA,NA,"",       1.28912,      -1.28307,   124.736E-03,   1.46148E-03
C:/temp/dataset/9/2_2.odb,Step-1,Increment      1: Step Time =    1.000,"PART-1-1",           175,       13.0709,       7.51902,            0.,NA,NA,"",       1.44330,      -1.43782,   125.648E-03,   1.16441E-03
C:/temp/dataset/9/2_2.odb,Step-1,Increment      1: Step Time =    1.000,"PART-1-1",           176,       12.5119,       12.3699,            0.,NA,NA,"",       1.75881,      -1.75688,   82.1925E-03,   696.854E-06
C:/temp/dataset/9/2_2.odb,Step-1,Increment      1: Step Time =    1.000,"PART-1-1",           177,       12.4863,       14.9454,            0.,NA,NA,"",       1.93234,      -1.93085,   75.8862E-03,   612.658E-06
C:/temp/dataset/9/2_2.odb,Step-1,Increment      1: Step Time =    1.000,"PART-1-1",           178,       12.4500,       19.9932,            0.,NA,NA,"",       2.27942,      -2.27855,   62.9874E-03,   514.104E-06
C:/temp/dataset/9/2_2.odb,Step-1,Increment      1: Step Time =    1.000,"PART-1-1",           179,       9.19048,      -23.6482,            0.,NA,NA,"",   39.2318E-03,  -34.7743E-03,  -18.1627E-03,   3.41762E-03
C:/temp/dataset/9/2_2.odb,Step-1,Increment      1: Step Time =    1.000,"PART-1-1",           180,       9.11932,      -19.5624,            0.,NA,NA,"",   108.867E-03,  -103.851E-03,  -32.6652E-03,   3.54067E-03
C:/temp/dataset/9/2_2.odb,Step-1,Increment      1: Step Time =    1.000,"PART-1-1",           181,       9.13323,      -12.9344,            0.,NA,NA,"",   297.231E-03,  -291.879E-03,  -56.1511E-03,   3.57225E-03
C:/temp/dataset/9/2_2.odb,Step-1,Increment      1: Step Time =    1.000,"PART-1-1",           182,       9.14303,      -17.4019,            0.,NA,NA,"",   159.664E-03,  -154.693E-03,  -39.5278E-03,   3.49967E-03
C:/temp/dataset/9/2_2.odb,Step-1,Increment      1: Step Time =    1.000,"PART-1-1",           183,       9.11260,      -10.6744,            0.,NA,NA,"",   383.437E-03,  -377.758E-03,  -65.7473E-03,   3.58975E-03
C:/temp/dataset/9/2_2.odb,Step-1,Increment      1: Step Time =    1.000,"PART-1-1",           184,       9.06671,      -8.40676,            0.,NA,NA,"",   481.050E-03,  -474.887E-03,  -76.7598E-03,   3.13739E-03
C:/temp/dataset/9/2_2.odb,Step-1,Increment      1: Step Time =    1.000,"PART-1-1",           185,       9.15359,      -15.1846,            0.,NA,NA,"",   222.410E-03,  -217.371E-03,  -47.0773E-03,   3.50422E-03
C:/temp/dataset/9/2_2.odb,Step-1,Increment      1: Step Time =    1.000,"PART-1-1",           186,       9.09437,      -21.6308,            0.,NA,NA,"",   69.6415E-03,  -64.5513E-03,  -26.1355E-03,   3.60029E-03
C:/temp/dataset/9/2_2.odb,Step-1,Increment      1: Step Time =    1.000,"PART-1-1",           187,       8.94944,      -6.10597,            0.,NA,NA,"",   592.800E-03,  -585.878E-03,  -90.3294E-03,   2.59067E-03
C:/temp/dataset/9/2_2.odb,Step-1,Increment      1: Step Time =    1.000,"PART-1-1",           188,      -11.3189,       17.6054,            0.,NA,NA,"",       2.60939,      -2.10167,      -1.54656,   817.583E-06
C:/temp/dataset/9/2_2.odb,Step-1,Increment      1: Step Time =    1.000,"PART-1-1",           189,      -10.4260,       2.85148,            0.,NA,NA,"",       1.82665,      -1.11643,      -1.44577,   526.594E-06
C:/temp/dataset/9/2_2.odb,Step-1,Increment      1: Step Time =    1.000,"PART-1-1",           190,      -12.4413,       27.8959,            0.,NA,NA,"",       3.22112,      -2.76873,      -1.64612,   189.520E-06
C:/temp/dataset/9/2_2.odb,Step-1,Increment      1: Step Time =    1.000,"PART-1-1",           191,      -10.6658,       19.6683,            0.,NA,NA,"",       2.69847,      -2.23665,      -1.50968,   1.02528E-03
C:/temp/dataset/9/2_2.odb,Step-1,Increment      1: Step Time =    1.000,"PART-1-1",           192,      -12.1118,       16.4066,            0.,NA,NA,"",       2.57581,      -2.02217,      -1.59551,   634.623E-06
C:/temp/dataset/9/2_2.odb,Step-1,Increment      1: Step Time =    1.000,"PART-1-1",           193,      -11.5166,       14.9043,            0.,NA,NA,"",       2.47309,      -1.92523,      -1.55231,   722.927E-06
C:/temp/dataset/9/2_2.odb,Step-1,Increment      1: Step Time =    1.000,"PART-1-1",           194,      -11.2054,       12.7278,            0.,NA,NA,"",       2.34667,      -1.78289,      -1.52583,   731.724E-06
C:/temp/dataset/9/2_2.odb,Step-1,Increment      1: Step Time =    1.000,"PART-1-1",           195,      -11.1139,       10.5020,            0.,NA,NA,"",       2.22852,      -1.63557,      -1.51368,   675.141E-06
C:/temp/dataset/9/2_2.odb,Step-1,Increment      1: Step Time =    1.000,"PART-1-1",           196,      -9.42029,       24.1195,            0.,NA,NA,"",       2.91106,      -2.52841,      -1.44271,   1.36719E-03
C:/temp/dataset/9/2_2.odb,Step-1,Increment      1: Step Time =    1.000,"PART-1-1",           197,      -11.0759,       8.46025,            0.,NA,NA,"",       2.12455,      -1.49895,      -1.50561,   547.926E-06
C:/temp/dataset/9/2_2.odb,Step-1,Increment      1: Step Time =    1.000,"PART-1-1",           198,      -10.9473,       6.84821,            0.,NA,NA,"",       2.03969,      -1.39019,      -1.49255,   419.249E-06
C:/temp/dataset/9/2_2.odb,Step-1,Increment      1: Step Time =    1.000,"PART-1-1",           199,       9.64075,      -25.5803,            0.,NA,NA,"",   16.0466E-03,  -13.7813E-03,  -8.22004E-03,   2.30967E-03
C:/temp/dataset/9/2_2.odb,Step-1,Increment      1: Step Time =    1.000,"PART-1-1",           200,       6.22595,      -2.03957,            0.,NA,NA,"",   861.019E-03,  -820.072E-03,  -262.366E-03,   6.09779E-03
C:/temp/dataset/9/2_2.odb,Step-1,Increment      1: Step Time =    1.000,"PART-1-1",           201,       6.24072,       2.15031,            0.,NA,NA,"",       1.12570,      -1.08870,  -286.236E-03,   4.80610E-03
C:/temp/dataset/9/2_2.odb,Step-1,Increment      1: Step Time =    1.000,"PART-1-1",           202,      -7.69234,       3.89067,            0.,NA,NA,"",       1.73547,      -1.19420,      -1.25926,   1.33630E-03
C:/temp/dataset/9/2_2.odb,Step-1,Increment      1: Step Time =    1.000,"PART-1-1",           203,       7.31807,       22.0589,            0.,NA,NA,"",       2.43042,      -2.41205,  -298.234E-03,   1.30627E-03
C:/temp/dataset/9/2_2.odb,Step-1,Increment      1: Step Time =    1.000,"PART-1-1",           204,      -6.44398,       20.4265,            0.,NA,NA,"",       2.60307,      -2.29016,      -1.23740,   2.46890E-03
C:/temp/dataset/9/2_2.odb,Step-1,Increment      1: Step Time =    1.000,"PART-1-1",           205,       12.2962,       25.0128,            0.,NA,NA,"",       2.62918,      -2.62887,   40.2922E-03,   233.953E-06
C:/temp/dataset/9/2_2.odb,Step-1,Increment      1: Step Time =    1.000,"PART-1-1",           206,       12.2257,      -24.8009,            0.,NA,NA,"",   27.9411E-03,  -22.3002E-03,   16.8347E-03,   3.87786E-03
C:/temp/dataset/9/2_2.odb,Step-1,Increment      1: Step Time =    1.000,"PART-1-1",           207,      -2.06005,       24.5200,            0.,NA,NA,"",       2.73956,      -2.56441,  -963.852E-03,   1.01137E-03
C:/temp/dataset/9/2_2.odb,Step-1,Increment      1: Step Time =    1.000,"PART-1-1",           208,       9.31619,       25.0673,            0.,NA,NA,"",       2.63122,      -2.62587,  -167.728E-03,   389.200E-06
C:/temp/dataset/9/2_2.odb,Step-1,Increment      1: Step Time =    1.000,"PART-1-1",           209,       3.21447,       24.8112,            0.,NA,NA,"",       2.66279,      -2.59496,  -597.221E-03,   1.49121E-03
C:/temp/dataset/9/2_2.odb,Step-1,Increment      1: Step Time =    1.000,"PART-1-1",           210,      -7.52022,      -1.18711,            0.,NA,NA,"",       1.49049,  -841.377E-03,      -1.23031,   790.113E-06
C:/temp/dataset/9/2_2.odb,Step-1,Increment      1: Step Time =    1.000,"PART-1-1",           211,       10.0127,       14.9017,            0.,NA,NA,"",       1.92429,      -1.92215,  -90.7357E-03,   652.579E-06
C:/temp/dataset/9/2_2.odb,Step-1,Increment      1: Step Time =    1.000,"PART-1-1",           212,       10.7293,       3.02357,            0.,NA,NA,"",       1.14314,      -1.14305,  -14.5868E-03,   2.14504E-03
C:/temp/dataset/9/2_2.odb,Step-1,Increment      1: Step Time =    1.000,"PART-1-1",           213,       11.4837,       7.36813,            0.,NA,NA,"",       1.42446,      -1.42427,   23.5118E-03,   505.239E-06
C:/temp/dataset/9/2_2.odb,Step-1,Increment      1: Step Time =    1.000,"PART-1-1",           214,      -9.20573,       12.9161,            0.,NA,NA,"",       2.27535,      -1.79900,      -1.39314,   1.22989E-03
C:/temp/dataset/9/2_2.odb,Step-1,Increment      1: Step Time =    1.000,"PART-1-1",           215,   314.418E-03,       24.7704,            0.,NA,NA,"",       2.70703,      -2.58574,  -801.207E-03,   1.29736E-03
C:/temp/dataset/9/2_2.odb,Step-1,Increment      1: Step Time =    1.000,"PART-1-1",           216,       7.52406,       26.3727,            0.,NA,NA,"",       2.72917,      -2.71296,  -296.959E-03,   478.601E-06
C:/temp/dataset/9/2_2.odb,Step-1,Increment      1: Step Time =    1.000,"PART-1-1",           217,  -811.906E-03,   82.6841E-03,            0.,NA,NA,"",       1.20944,  -946.254E-03,  -753.218E-03,   2.59760E-03
C:/temp/dataset/9/2_2.odb,Step-1,Increment      1: Step Time =    1.000,"PART-1-1",           218,       11.1400,      -19.6444,            0.,NA,NA,"",   102.191E-03,  -101.613E-03,   10.8520E-03,   1.28366E-03
C:/temp/dataset/9/2_2.odb,Step-1,Increment      1: Step Time =    1.000,"PART-1-1",           219,       11.1036,      -10.4226,            0.,NA,NA,"",   389.460E-03,  -389.147E-03,   15.6122E-03,   1.36206E-03
C:/temp/dataset/9/2_2.odb,Step-1,Increment      1: Step Time =    1.000,"PART-1-1",           220,       10.9280,      -5.64335,            0.,NA,NA,"",   614.894E-03,  -614.833E-03,   8.68264E-03,   2.79505E-03
C:/temp/dataset/9/2_2.odb,Step-1,Increment      1: Step Time =    1.000,"PART-1-1",           221,       11.0667,       5.48495,            0.,NA,NA,"",       1.30165,      -1.30165,   658.668E-06,   880.145E-06
C:/temp/dataset/9/2_2.odb,Step-1,Increment      1: Step Time =    1.000,"PART-1-1",           222,       11.1390,      -12.7671,            0.,NA,NA,"",   298.734E-03,  -298.308E-03,   15.9552E-03,   1.31564E-03
C:/temp/dataset/9/2_2.odb,Step-1,Increment      1: Step Time =    1.000,"PART-1-1",           223,       11.1627,      -15.1016,            0.,NA,NA,"",   220.531E-03,  -220.001E-03,   15.2748E-03,   1.36325E-03
C:/temp/dataset/9/2_2.odb,Step-1,Increment      1: Step Time =    1.000,"PART-1-1",           224,      -9.10801,       10.4728,            0.,NA,NA,"",       2.14057,      -1.63751,      -1.37863,   1.27070E-03
C:/temp/dataset/9/2_2.odb,Step-1,Increment      1: Step Time =    1.000,"PART-1-1",           225,      -9.12162,       8.28854,            0.,NA,NA,"",       2.02681,      -1.49149,      -1.37239,   1.16445E-03
C:/temp/dataset/9/2_2.odb,Step-1,Increment      1: Step Time =    1.000,"PART-1-1",           226,      -8.73753,       18.6317,            0.,NA,NA,"",       2.57385,      -2.17237,      -1.38039,   1.37505E-03
C:/temp/dataset/9/2_2.odb,Step-1,Increment      1: Step Time =    1.000,"PART-1-1",           227,      -9.90634,  -397.381E-03,            0.,NA,NA,"",       1.65986,  -891.104E-03,      -1.40038,   351.898E-06
C:/temp/dataset/9/2_2.odb,Step-1,Increment      1: Step Time =    1.000,"PART-1-1",           228,       9.93939,       19.9385,            0.,NA,NA,"",       2.27162,      -2.26897,  -109.700E-03,   740.014E-06
C:/temp/dataset/9/2_2.odb,Step-1,Increment      1: Step Time =    1.000,"PART-1-1",           229,       5.70370,       25.8085,            0.,NA,NA,"",       2.70295,      -2.66954,  -423.716E-03,   908.916E-06
C:/temp/dataset/9/2_2.odb,Step-1,Increment      1: Step Time =    1.000,"PART-1-1",           230,       10.0348,       12.2094,            0.,NA,NA,"",       1.74242,      -1.74049,  -82.0094E-03,   628.903E-06
C:/temp/dataset/9/2_2.odb,Step-1,Increment      1: Step Time =    1.000,"PART-1-1",           231,       9.98921,       17.4486,            0.,NA,NA,"",       2.09885,      -2.09649,  -99.3212E-03,   652.438E-06
C:/temp/dataset/9/2_2.odb,Step-1,Increment      1: Step Time =    1.000,"PART-1-1",           232,       10.1044,       9.10575,            0.,NA,NA,"",       1.53651,      -1.53494,  -69.4844E-03,   523.724E-06
C:/temp/dataset/9/2_2.odb,Step-1,Increment      1: Step Time =    1.000,"PART-1-1",           233,      -3.11139,      -1.10310,            0.,NA,NA,"",       1.25512,  -858.538E-03,  -915.549E-03,   2.18784E-03
C:/temp/dataset/9/2_2.odb,Step-1,Increment      1: Step Time =    1.000,"PART-1-1",           234,      -6.48507,       25.5695,            0.,NA,NA,"",       2.91417,      -2.62817,      -1.25900,   1.95318E-03
C:/temp/dataset/9/2_2.odb,Step-1,Increment      1: Step Time =    1.000,"PART-1-1",           235,      -4.76537,       24.8732,            0.,NA,NA,"",       2.82651,      -2.58417,      -1.14507,   1.70315E-03
C:/temp/dataset/9/2_2.odb,Step-1,Increment      1: Step Time =    1.000,"PART-1-1",           236,      -8.46351,       26.0628,            0.,NA,NA,"",       2.99783,      -2.65760,      -1.38715,   1.56858E-03
C:/temp/dataset/9/2_2.odb,Step-1,Increment      1: Step Time =    1.000,"PART-1-1",           237,      -9.50218,       15.8804,            0.,NA,NA,"",       2.44800,      -1.99263,      -1.42202,   1.10027E-03
C:/temp/dataset/9/2_2.odb,Step-1,Increment      1: Step Time =    1.000,"PART-1-1",           238,      -5.29510,      -1.38770,            0.,NA,NA,"",       1.35708,  -832.873E-03,      -1.07144,   1.44628E-03
C:/temp/dataset/9/2_2.odb,Step-1,Increment      1: Step Time =    1.000,"PART-1-1",           239,       11.0587,      -21.7318,            0.,NA,NA,"",   62.5218E-03,  -62.0743E-03,   7.46702E-03,   1.09002E-03
C:/temp/dataset/9/2_2.odb,Step-1,Increment      1: Step Time =    1.000,"PART-1-1",           240,       11.1670,      -17.4071,            0.,NA,NA,"",   154.936E-03,  -154.345E-03,   13.5168E-03,   1.36942E-03
C:/temp/dataset/9/2_2.odb,Step-1,Increment      1: Step Time =    1.000,"PART-1-1",           241,       11.0513,      -8.06140,            0.,NA,NA,"",   493.754E-03,  -493.553E-03,   14.0964E-03,   1.79926E-03
C:/temp/dataset/9/2_2.odb,Step-1,Increment      1: Step Time =    1.000,"PART-1-1",           242,       10.1357,   7.39639E-03,            0.,NA,NA,"",   950.735E-03,  -949.806E-03,  -42.0057E-03,   3.81630E-03
C:/temp/dataset/9/2_2.odb,Step-1,Increment      1: Step Time =    1.000,"PART-1-1",           243,       10.6886,      -3.06387,            0.,NA,NA,"",   760.541E-03,  -760.525E-03,  -4.86417E-03,   3.85680E-03
C:/temp/dataset/9/2_2.odb,Step-1,Increment      1: Step Time =    1.000,"PART-1-1",           244,       9.76329,       22.4053,            0.,NA,NA,"",       2.44420,      -2.44080,  -128.971E-03,   639.726E-06
C:/temp/dataset/9/2_2.odb,Step-1,Increment      1: Step Time =    1.000,"PART-1-1",           245,       8.68231,      -3.74099,            0.,NA,NA,"",   725.400E-03,  -716.721E-03,  -111.875E-03,   4.23574E-03
C:/temp/dataset/9/2_2.odb,Step-1,Increment      1: Step Time =    1.000,"PART-1-1",           246,      -9.34414,       6.30777,            0.,NA,NA,"",       1.93634,      -1.35697,      -1.38132,   915.442E-06
C:/temp/dataset/9/2_2.odb,Step-1,Increment      1: Step Time =    1.000,"PART-1-1",           247,      -9.93235,       4.61568,            0.,NA,NA,"",       1.88252,      -1.23966,      -1.41673,   596.513E-06
C:/temp/dataset/9/2_2.odb,Step-1,Increment      1: Step Time =    1.000,"PART-1-1",           248,      -8.14937,       21.0679,            0.,NA,NA,"",       2.69345,      -2.33050,      -1.35036,   1.82571E-03
C:/temp/dataset/9/2_2.odb,Step-1,Increment      1: Step Time =    1.000,"PART-1-1",           249,       10.7972,      -23.3791,            0.,NA,NA,"",   37.4425E-03,  -37.3535E-03,   2.58096E-03,   440.716E-06
C:/temp/dataset/9/2_2.odb,Step-1,Increment      1: Step Time =    1.000,"PART-1-1",           250,       4.15357,   65.4176E-03,            0.,NA,NA,"",       1.03874,  -955.038E-03,  -408.519E-03,   3.14402E-03
C:/temp/dataset/9/2_2.odb,Step-1,Increment      1: Step Time =    1.000,"PART-1-1",           251,       8.71950,       3.82470,            0.,NA,NA,"",       1.20163,      -1.19331,  -141.220E-03,   2.94586E-03
C:/temp/dataset/9/2_2.odb,Step-1,Increment      1: Step Time =    1.000,"PART-1-1",           252,       5.00281,       23.5204,            0.,NA,NA,"",       2.55277,      -2.50975,  -466.708E-03,   1.44608E-03
C:/temp/dataset/9/2_2.odb,Step-1,Increment      1: Step Time =    1.000,"PART-1-1",           253,       7.40149,   60.9774E-03,            0.,NA,NA,"",   974.691E-03,  -953.202E-03,  -203.540E-03,   4.86647E-03
C:/temp/dataset/9/2_2.odb,Step-1,Increment      1: Step Time =    1.000,"PART-1-1",           254,      -5.73116,       22.7675,            0.,NA,NA,"",       2.72210,      -2.44311,      -1.20045,   2.28540E-03
C:/temp/dataset/9/2_2.odb,Step-1,Increment      1: Step Time =    1.000,"PART-1-1",           255,      -5.42683,       1.83799,            0.,NA,NA,"",       1.51788,      -1.05549,      -1.09083,   2.24997E-03
C:/temp/dataset/9/2_2.odb,Step-1,Increment      1: Step Time =    1.000,"PART-1-1",           256,       6.81561,       24.0815,            0.,NA,NA,"",       2.57460,      -2.55202,  -340.242E-03,   1.02231E-03
C:/temp/dataset/9/2_2.odb,Step-1,Increment      1: Step Time =    1.000,"PART-1-1",           257,      -7.40884,       23.3683,            0.,NA,NA,"",       2.80641,      -2.48145,      -1.31087,   2.01711E-03
C:/temp/dataset/9/2_2.odb,Step-1,Increment      1: Step Time =    1.000,"PART-1-1",           258,      -3.69176,       23.9755,            0.,NA,NA,"",       2.74341,      -2.52555,      -1.07139,   1.40008E-03
C:/temp/dataset/9/2_2.odb,Step-1,Increment      1: Step Time =    1.000,"PART-1-1",           259,      -8.10961,       1.76736,            0.,NA,NA,"",       1.65377,      -1.04586,      -1.28107,   1.13617E-03
C:/temp/dataset/9/2_2.odb,Step-1,Increment      1: Step Time =    1.000,"PART-1-1",           260,       5.94930,   61.4696E-03,            0.,NA,NA,"",   998.181E-03,  -954.296E-03,  -292.716E-03,   4.44810E-03
C:/temp/dataset/9/2_2.odb,Step-1,Increment      1: Step Time =    1.000,"PART-1-1",           261,       1.93878,   62.7924E-03,            0.,NA,NA,"",       1.10389,  -951.924E-03,  -558.944E-03,   2.72077E-03
C:/temp/dataset/9/2_2.odb,Step-1,Increment      1: Step Time =    1.000,"PART-1-1",           262,       6.71051,      -4.41826,            0.,NA,NA,"",   708.212E-03,  -673.942E-03,  -217.638E-03,   5.95168E-03
C:/temp/dataset/9/2_2.odb,Step-1,Increment      1: Step Time =    1.000,"PART-1-1",           263,      -12.5366,      -2.82410,            0.,NA,NA,"",       1.73231,  -715.008E-03,      -1.57786,   201.743E-06
C:/temp/dataset/9/2_2.odb,Step-1,Increment      1: Step Time =    1.000,"PART-1-1",           264,       6.75090,       4.53602,            0.,NA,NA,"",       1.26781,      -1.23928,  -267.466E-03,   4.15685E-03
C:/temp/dataset/9/2_2.odb,Step-1,Increment      1: Step Time =    1.000,"PART-1-1",           265,      -5.22339,       3.46233,            0.,NA,NA,"",       1.59283,      -1.16841,      -1.08255,   2.99595E-03
C:/temp/dataset/9/2_2.odb,Step-1,Increment      1: Step Time =    1.000,"PART-1-1",           266,       4.93795,       21.9167,            0.,NA,NA,"",       2.44336,      -2.39851,  -466.028E-03,   1.92643E-03
C:/temp/dataset/9/2_2.odb,Step-1,Increment      1: Step Time =    1.000,"PART-1-1",           267,       8.13144,      -1.42002,            0.,NA,NA,"",   872.080E-03,  -858.632E-03,  -152.562E-03,   4.95826E-03
C:/temp/dataset/9/2_2.odb,Step-1,Increment      1: Step Time =    1.000,"PART-1-1",           268,      -3.13115,       1.39136,            0.,NA,NA,"",       1.38281,      -1.02933,  -923.392E-03,   2.72375E-03
C:/temp/dataset/9/2_2.odb,Step-1,Increment      1: Step Time =    1.000,"PART-1-1",           269,       9.17709,       6.32873,            0.,NA,NA,"",       1.35872,      -1.35328,  -121.453E-03,   1.29909E-03
C:/temp/dataset/9/2_2.odb,Step-1,Increment      1: Step Time =    1.000,"PART-1-1",           270,      -11.0423,       1.34077,            0.,NA,NA,"",       1.79533,      -1.00991,      -1.48434,   359.544E-06
C:/temp/dataset/9/2_2.odb,Step-1,Increment      1: Step Time =    1.000,"PART-1-1",           271,      -10.1478,       26.6048,            0.,NA,NA,"",       3.07787,      -2.68981,      -1.49606,   941.985E-06
C:/temp/dataset/9/2_2.odb,Step-1,Increment      1: Step Time =    1.000,"PART-1-1",           272,      -10.1118,       21.9370,            0.,NA,NA,"",       2.80705,      -2.38484,      -1.48055,   1.19943E-03
C:/temp/dataset/9/2_2.odb,Step-1,Increment      1: Step Time =    1.000,"PART-1-1",           273,       8.13886,       1.50501,            0.,NA,NA,"",       1.05846,      -1.04531,  -166.337E-03,   4.36805E-03
C:/temp/dataset/9/2_2.odb,Step-1,Increment      1: Step Time =    1.000,"PART-1-1",           274,      -7.06249,   219.393E-03,            0.,NA,NA,"",       1.52612,  -940.254E-03,      -1.20207,   1.24012E-03
C:/temp/dataset/9/2_2.odb,Step-1,Increment      1: Step Time =    1.000,"PART-1-1",           275,      -5.40522,   241.534E-03,            0.,NA,NA,"",       1.43824,  -945.292E-03,      -1.08395,   1.82383E-03
C:/temp/dataset/9/2_2.odb,Step-1,Increment      1: Step Time =    1.000,"PART-1-1",           276,      -3.80180,   194.541E-03,            0.,NA,NA,"",       1.35370,  -945.785E-03,  -968.500E-03,   2.31577E-03
C:/temp/dataset/9/2_2.odb,Step-1,Increment      1: Step Time =    1.000,"PART-1-1",           277,      -2.71285,       28.4954,            0.,NA,NA,"",       3.00949,      -2.83098,      -1.02107,   1.85528E-03
C:/temp/dataset/9/2_2.odb,Step-1,Increment      1: Step Time =    1.000,"PART-1-1",           278,         -3.75,           30.,            0.,NA,NA,"",       3.12638,      -2.92833,      -1.09503,   2.53567E-03
C:/temp/dataset/9/2_2.odb,Step-1,Increment      1: Step Time =    1.000,"PART-1-1",           279,      -5.26224,       28.8665,            0.,NA,NA,"",       3.08739,      -2.84838,      -1.19110,   1.95399E-03
C:/temp/dataset/9/2_2.odb,Step-1,Increment      1: Step Time =    1.000,"PART-1-1",           280,      -4.22509,       27.3619,            0.,NA,NA,"",       2.96975,      -2.75119,      -1.11821,   1.58920E-03
C:/temp/dataset/9/2_2.odb,Step-1,Increment      1: Step Time =    1.000,"PART-1-1",           281,      -3.84553,       25.9321,            0.,NA,NA,"",       2.87055,      -2.65630,      -1.08818,   1.46365E-03
C:/temp/dataset/9/2_2.odb,Step-1,Increment      1: Step Time =    1.000,"PART-1-1",           282,      -6.00478,       26.6512,            0.,NA,NA,"",       2.96828,      -2.70068,      -1.23168,   1.88645E-03
C:/temp/dataset/9/2_2.odb,Step-1,Increment      1: Step Time =    1.000,"PART-1-1",           283,      -5.62522,       25.2214,            0.,NA,NA,"",       2.87015,      -2.60622,      -1.20225,   1.83481E-03
C:/temp/dataset/9/2_2.odb,Step-1,Increment      1: Step Time =    1.000,"PART-1-1",           284,      -10.0879,       29.0985,            0.,NA,NA,"",       3.22079,      -2.85146,      -1.49756,   326.244E-06
C:/temp/dataset/9/2_2.odb,Step-1,Increment      1: Step Time =    1.000,"PART-1-1",           285,        -11.25,           30.,            0.,NA,NA,"",       3.30565,      -2.90693,      -1.57386,   37.0745E-06
C:/temp/dataset/9/2_2.odb,Step-1,Increment      1: Step Time =    1.000,"PART-1-1",           286,      -12.4706,       28.9480,            0.,NA,NA,"",       3.28172,      -2.83663,      -1.65022,   49.6313E-06
C:/temp/dataset/9/2_2.odb,Step-1,Increment      1: Step Time =    1.000,"PART-1-1",           287,      -11.3086,       28.0465,            0.,NA,NA,"",       3.19526,      -2.78092,      -1.57359,   354.774E-06
C:/temp/dataset/9/2_2.odb,Step-1,Increment      1: Step Time =    1.000,"PART-1-1",           288,      -13.4495,       25.5029,            0.,NA,NA,"",       3.11922,      -2.61142,      -1.70589,   315.375E-06
C:/temp/dataset/9/2_2.odb,Step-1,Increment      1: Step Time =    1.000,"PART-1-1",           289,          -15.,       24.5313,            0.,NA,NA,"",       3.11974,      -2.54511,      -1.80421,   158.460E-06
C:/temp/dataset/9/2_2.odb,Step-1,Increment      1: Step Time =    1.000,"PART-1-1",           290,      -13.6920,       23.1529,            0.,NA,NA,"",       2.99775,      -2.45802,      -1.71600,   430.520E-06
C:/temp/dataset/9/2_2.odb,Step-1,Increment      1: Step Time =    1.000,"PART-1-1",           291,      -12.1415,       24.1246,            0.,NA,NA,"",       2.99829,      -2.52422,      -1.61803,   601.762E-06
C:/temp/dataset/9/2_2.odb,Step-1,Increment      1: Step Time =    1.000,"PART-1-1",           292,          8.75,          -30.,            0.,NA,NA,"",            0.,   2.06536E-39,  -6.72900E-39,   3.85708E-03
C:/temp/dataset/9/2_2.odb,Step-1,Increment      1: Step Time =    1.000,"PART-1-1",           293,       9.96407,      -28.8633,            0.,NA,NA,"",   2.32366E-03,   2.01376E-03,  -1.15938E-03,   1.78009E-03
C:/temp/dataset/9/2_2.odb,Step-1,Increment      1: Step Time =    1.000,"PART-1-1",           294,       8.68711,      -27.7998,            0.,NA,NA,"",   7.59923E-03,  -1.42109E-03,  -7.46517E-03,   4.51360E-03
C:/temp/dataset/9/2_2.odb,Step-1,Increment      1: Step Time =    1.000,"PART-1-1",           295,       7.47304,      -28.9365,            0.,NA,NA,"",   5.48788E-03,  -19.7534E-06,  -5.48784E-03,   6.45952E-03
C:/temp/dataset/9/2_2.odb,Step-1,Increment      1: Step Time =    1.000,"PART-1-1",           296,       10.9279,      -22.5555,            0.,NA,NA,"",   49.2398E-03,  -49.0048E-03,   4.80458E-03,   748.487E-06
C:/temp/dataset/9/2_2.odb,Step-1,Increment      1: Step Time =    1.000,"PART-1-1",           297,       10.0765,      -21.6813,            0.,NA,NA,"",   63.4728E-03,  -62.7998E-03,  -9.21808E-03,   1.28904E-03
C:/temp/dataset/9/2_2.odb,Step-1,Increment      1: Step Time =    1.000,"PART-1-1",           298,       9.14242,      -22.6395,            0.,NA,NA,"",   53.3648E-03,  -48.5979E-03,  -22.0463E-03,   3.50058E-03
C:/temp/dataset/9/2_2.odb,Step-1,Increment      1: Step Time =    1.000,"PART-1-1",           299,       9.99384,      -23.5137,            0.,NA,NA,"",   36.5871E-03,  -35.7051E-03,  -7.98494E-03,   1.48028E-03
C:/temp/dataset/9/2_2.odb,Step-1,Increment      1: Step Time =    1.000,"PART-1-1",           300,       7.08785,      -18.4988,            0.,NA,NA,"",   157.291E-03,  -132.471E-03,  -84.8052E-03,   8.39054E-03
C:/temp/dataset/9/2_2.odb,Step-1,Increment      1: Step Time =    1.000,"PART-1-1",           301,       6.04673,      -17.4684,            0.,NA,NA,"",   201.551E-03,  -161.916E-03,  -120.025E-03,   10.9174E-03
C:/temp/dataset/9/2_2.odb,Step-1,Increment      1: Step Time =    1.000,"PART-1-1",           302,            5.,      -18.5417,            0.,NA,NA,"",   194.624E-03,  -141.145E-03,  -134.003E-03,   13.3998E-03
C:/temp/dataset/9/2_2.odb,Step-1,Increment      1: Step Time =    1.000,"PART-1-1",           303,       6.04112,      -19.5721,            0.,NA,NA,"",   150.123E-03,  -112.856E-03,  -98.9968E-03,   10.8706E-03
C:/temp/dataset/9/2_2.odb,Step-1,Increment      1: Step Time =    1.000,"PART-1-1",           304,       7.10245,      -14.2066,            0.,NA,NA,"",   279.174E-03,  -252.742E-03,  -118.574E-03,   8.44900E-03
C:/temp/dataset/9/2_2.odb,Step-1,Increment      1: Step Time =    1.000,"PART-1-1",           305,       6.04975,      -13.2285,            0.,NA,NA,"",   332.670E-03,  -289.662E-03,  -163.601E-03,   10.9777E-03
C:/temp/dataset/9/2_2.odb,Step-1,Increment      1: Step Time =    1.000,"PART-1-1",           306,            5.,       -14.375,            0.,NA,NA,"",   316.895E-03,  -256.552E-03,  -186.021E-03,   13.4811E-03
C:/temp/dataset/9/2_2.odb,Step-1,Increment      1: Step Time =    1.000,"PART-1-1",           307,       6.05270,      -15.3531,            0.,NA,NA,"",   262.231E-03,  -220.805E-03,  -141.458E-03,   10.9491E-03
C:/temp/dataset/9/2_2.odb,Step-1,Increment      1: Step Time =    1.000,"PART-1-1",           308,            5.,      -6.04167,            0.,NA,NA,"",   661.717E-03,  -590.773E-03,  -298.089E-03,   18.1966E-03
C:/temp/dataset/9/2_2.odb,Step-1,Increment      1: Step Time =    1.000,"PART-1-1",           309,       5.97724,      -6.85181,            0.,NA,NA,"",   598.464E-03,  -549.481E-03,  -237.129E-03,   11.7860E-03
C:/temp/dataset/9/2_2.odb,Step-1,Increment      1: Step Time =    1.000,"PART-1-1",           310,       6.83249,      -5.51927,            0.,NA,NA,"",   645.894E-03,  -612.881E-03,  -203.851E-03,   5.98843E-03
C:/temp/dataset/9/2_2.odb,Step-1,Increment      1: Step Time =    1.000,"PART-1-1",           311,       5.85525,      -4.70913,            0.,NA,NA,"",   705.748E-03,  -654.195E-03,  -264.783E-03,   10.6399E-03
C:/temp/dataset/9/2_2.odb,Step-1,Increment      1: Step Time =    1.000,"PART-1-1",           312,       4.27314,       1.25089,            0.,NA,NA,"",       1.10896,      -1.03185,  -406.292E-03,   3.02861E-03
C:/temp/dataset/9/2_2.odb,Step-1,Increment      1: Step Time =    1.000,"PART-1-1",           313,       3.27994,       2.49943,            0.,NA,NA,"",       1.21097,      -1.11316,  -476.763E-03,   2.23451E-03
C:/temp/dataset/9/2_2.odb,Step-1,Increment      1: Step Time =    1.000,"PART-1-1",           314,       2.05297,       1.31265,            0.,NA,NA,"",       1.17402,      -1.03450,  -555.101E-03,   2.17338E-03
C:/temp/dataset/9/2_2.odb,Step-1,Increment      1: Step Time =    1.000,"PART-1-1",           315,       3.04617,   64.1050E-03,            0.,NA,NA,"",       1.06909,  -953.772E-03,  -482.985E-03,   2.64861E-03
C:/temp/dataset/9/2_2.odb,Step-1,Increment      1: Step Time =    1.000,"PART-1-1",           316,       6.28410,       12.4112,            0.,NA,NA,"",       1.77912,      -1.74787,  -331.954E-03,   2.26604E-03
C:/temp/dataset/9/2_2.odb,Step-1,Increment      1: Step Time =    1.000,"PART-1-1",           317,            5.,         11.25,            0.,NA,NA,"",       1.71936,      -1.66923,  -412.128E-03,   3.06265E-03
C:/temp/dataset/9/2_2.odb,Step-1,Increment      1: Step Time =    1.000,"PART-1-1",           318,       6.24476,       9.82085,            0.,NA,NA,"",       1.60893,      -1.57611,  -323.306E-03,   2.52518E-03
C:/temp/dataset/9/2_2.odb,Step-1,Increment      1: Step Time =    1.000,"PART-1-1",           319,       7.52885,       10.9821,            0.,NA,NA,"",       1.67218,      -1.65433,  -243.710E-03,   1.74907E-03
C:/temp/dataset/9/2_2.odb,Step-1,Increment      1: Step Time =    1.000,"PART-1-1",           320,       6.23557,       19.9374,            0.,NA,NA,"",       2.29111,      -2.26167,  -366.113E-03,   1.70308E-03
C:/temp/dataset/9/2_2.odb,Step-1,Increment      1: Step Time =    1.000,"PART-1-1",           321,            5.,         18.75,            0.,NA,NA,"",       2.22269,      -2.17714,  -447.683E-03,   2.67839E-03
C:/temp/dataset/9/2_2.odb,Step-1,Increment      1: Step Time =    1.000,"PART-1-1",           322,       6.25255,       17.4722,            0.,NA,NA,"",       2.12096,      -2.09098,  -355.335E-03,   1.89218E-03
C:/temp/dataset/9/2_2.odb,Step-1,Increment      1: Step Time =    1.000,"PART-1-1",           323,       7.48812,       18.6595,            0.,NA,NA,"",       2.19236,      -2.17510,  -274.567E-03,   1.15271E-03
C:/temp/dataset/9/2_2.odb,Step-1,Increment      1: Step Time =    1.000,"PART-1-1",           324,       12.4612,       28.7577,            0.,NA,NA,"",       2.89168,      -2.89137,   42.5885E-03,   73.7703E-06
C:/temp/dataset/9/2_2.odb,Step-1,Increment      1: Step Time =    1.000,"PART-1-1",           325,         11.25,           30.,            0.,NA,NA,"",       2.97570,      -2.97536,  -45.1308E-03,   81.5648E-06
C:/temp/dataset/9/2_2.odb,Step-1,Increment      1: Step Time =    1.000,"PART-1-1",           326,       9.95383,       28.8406,            0.,NA,NA,"",       2.89423,      -2.89118,  -132.895E-03,   97.3400E-06
C:/temp/dataset/9/2_2.odb,Step-1,Increment      1: Step Time =    1.000,"PART-1-1",           327,       11.1650,       27.5983,            0.,NA,NA,"",       2.80749,      -2.80713,  -45.1001E-03,   84.6976E-06
C:/temp/dataset/9/2_2.odb,Step-1,Increment      1: Step Time =    1.000,"PART-1-1",           328,       9.61193,       26.3742,            0.,NA,NA,"",       2.72202,      -2.71786,  -150.554E-03,   227.905E-06
C:/temp/dataset/9/2_2.odb,Step-1,Increment      1: Step Time =    1.000,"PART-1-1",           329,       10.8062,       25.0400,            0.,NA,NA,"",       2.62806,      -2.62729,  -63.6222E-03,   241.081E-06
C:/temp/dataset/9/2_2.odb,Step-1,Increment      1: Step Time =    1.000,"PART-1-1",           330,       12.3592,       26.2641,            0.,NA,NA,"",       2.71692,      -2.71661,   41.6104E-03,   170.348E-06
C:/temp/dataset/9/2_2.odb,Step-1,Increment      1: Step Time =    1.000,"PART-1-1",           331,       7.54419,       28.9985,            0.,NA,NA,"",       2.91214,      -2.89642,  -302.211E-03,   129.273E-06
C:/temp/dataset/9/2_2.odb,Step-1,Increment      1: Step Time =    1.000,"PART-1-1",           332,          6.25,           30.,            0.,NA,NA,"",       2.98975,      -2.96345,  -395.635E-03,   109.414E-06
C:/temp/dataset/9/2_2.odb,Step-1,Increment      1: Step Time =    1.000,"PART-1-1",           333,       5.09159,       28.9175,            0.,NA,NA,"",       2.92318,      -2.88440,  -474.605E-03,   389.815E-06
C:/temp/dataset/9/2_2.odb,Step-1,Increment      1: Step Time =    1.000,"PART-1-1",           334,       6.38578,       27.9160,            0.,NA,NA,"",       2.84346,      -2.81781,  -381.015E-03,   429.250E-06
C:/temp/dataset/9/2_2.odb,Step-1,Increment      1: Step Time =    1.000,"PART-1-1",           335,       2.95769,       26.1428,            0.,NA,NA,"",       2.75621,      -2.68585,  -618.787E-03,   1.28804E-03
C:/temp/dataset/9/2_2.odb,Step-1,Increment      1: Step Time =    1.000,"PART-1-1",           336,       4.45909,       25.3098,            0.,NA,NA,"",       2.68118,      -2.63215,  -510.404E-03,   1.18529E-03
C:/temp/dataset/9/2_2.odb,Step-1,Increment      1: Step Time =    1.000,"PART-1-1",           337,       5.44343,       26.8217,            0.,NA,NA,"",       2.77509,      -2.73922,  -444.727E-03,   729.857E-06
C:/temp/dataset/9/2_2.odb,Step-1,Increment      1: Step Time =    1.000,"PART-1-1",           338,       3.94204,       27.6547,            0.,NA,NA,"",       2.84725,      -2.79308,  -552.776E-03,   858.021E-06
C:/temp/dataset/9/2_2.odb,Step-1,Increment      1: Step Time =    1.000,"PART-1-1",           339,       6.06395,       7.26936,            0.,NA,NA,"",       1.44691,      -1.41033,  -323.313E-03,   2.78394E-03
C:/temp/dataset/9/2_2.odb,Step-1,Increment      1: Step Time =    1.000,"PART-1-1",           340,       7.30871,       8.34021,            0.,NA,NA,"",       1.50120,      -1.48056,  -248.065E-03,   1.92872E-03
C:/temp/dataset/9/2_2.odb,Step-1,Increment      1: Step Time =    1.000,"PART-1-1",           341,            5.,          8.75,            0.,NA,NA,"",       1.55728,      -1.50517,  -399.472E-03,   3.53578E-03
C:/temp/dataset/9/2_2.odb,Step-1,Increment      1: Step Time =    1.000,"PART-1-1",           342,      -13.9291,       1.47830,            0.,NA,NA,"",       1.96581,      -1.01253,      -1.68499,   328.422E-06
C:/temp/dataset/9/2_2.odb,Step-1,Increment      1: Step Time =    1.000,"PART-1-1",           343,          -15.,    468.75E-03,            0.,NA,NA,"",       1.99267,  -939.321E-03,      -1.75739,   399.445E-06
C:/temp/dataset/9/2_2.odb,Step-1,Increment      1: Step Time =    1.000,"PART-1-1",           344,      -13.8152,  -655.377E-03,            0.,NA,NA,"",       1.88217,  -863.758E-03,      -1.67227,   207.103E-06
C:/temp/dataset/9/2_2.odb,Step-1,Increment      1: Step Time =    1.000,"PART-1-1",           345,      -12.7443,   354.171E-03,            0.,NA,NA,"",       1.85426,  -937.007E-03,      -1.60010,   260.496E-06
C:/temp/dataset/9/2_2.odb,Step-1,Increment      1: Step Time =    1.000,"PART-1-1",           346,      -13.9678,       8.16706,            0.,NA,NA,"",       2.24961,      -1.47241,      -1.70081,   495.735E-06
C:/temp/dataset/9/2_2.odb,Step-1,Increment      1: Step Time =    1.000,"PART-1-1",           347,          -15.,       7.03125,            0.,NA,NA,"",       2.25133,      -1.39268,      -1.76888,   864.454E-06
C:/temp/dataset/9/2_2.odb,Step-1,Increment      1: Step Time =    1.000,"PART-1-1",           348,      -13.6804,       5.85321,            0.,NA,NA,"",       2.13142,      -1.31573,      -1.67684,   437.276E-06
C:/temp/dataset/9/2_2.odb,Step-1,Increment      1: Step Time =    1.000,"PART-1-1",           349,      -12.6482,       6.98902,            0.,NA,NA,"",       2.12991,      -1.39579,      -1.60882,   103.876E-06
C:/temp/dataset/9/2_2.odb,Step-1,Increment      1: Step Time =    1.000,"PART-1-1",           350,      -5.93089,       17.7206,            0.,NA,NA,"",       2.43107,      -2.11744,      -1.19437,   1.75612E-03
C:/temp/dataset/9/2_2.odb,Step-1,Increment      1: Step Time =    1.000,"PART-1-1",           351,      -7.00986,       16.6597,            0.,NA,NA,"",       2.40435,      -2.04726,      -1.26081,   1.55613E-03
C:/temp/dataset/9/2_2.odb,Step-1,Increment      1: Step Time =    1.000,"PART-1-1",           352,      -6.07897,       15.1891,            0.,NA,NA,"",       2.28902,      -1.95273,      -1.19436,   1.93654E-03
C:/temp/dataset/9/2_2.odb,Step-1,Increment      1: Step Time =    1.000,"PART-1-1",           353,           -5.,         16.25,            0.,NA,NA,"",       2.31639,      -2.02321,      -1.12795,   2.22682E-03
C:/temp/dataset/9/2_2.odb,Step-1,Increment      1: Step Time =    1.000,"PART-1-1",           354,      -7.79966,       18.2865,            0.,NA,NA,"",       2.52298,      -2.15140,      -1.31792,   1.42966E-03
C:/temp/dataset/9/2_2.odb,Step-1,Increment      1: Step Time =    1.000,"PART-1-1",           355,      -6.65288,       19.1839,            0.,NA,NA,"",       2.53758,      -2.21045,      -1.24629,   1.77029E-03
C:/temp/dataset/9/2_2.odb,Step-1,Increment      1: Step Time =    1.000,"PART-1-1",           356,      -7.29668,       20.7472,            0.,NA,NA,"",       2.64799,      -2.31037,      -1.29385,   2.10315E-03
C:/temp/dataset/9/2_2.odb,Step-1,Increment      1: Step Time =    1.000,"PART-1-1",           357,      -8.44345,       19.8498,            0.,NA,NA,"",       2.63297,      -2.25138,      -1.36522,   1.56088E-03
C:/temp/dataset/9/2_2.odb,Step-1,Increment      1: Step Time =    1.000,"PART-1-1",           358,      -2.59303,       4.06073,            0.,NA,NA,"",       1.50755,      -1.21508,  -892.347E-03,   1.60940E-03
C:/temp/dataset/9/2_2.odb,Step-1,Increment      1: Step Time =    1.000,"PART-1-1",           359,      -1.46713,       2.91047,            0.,NA,NA,"",       1.39441,      -1.13676,  -807.561E-03,   2.28000E-03
C:/temp/dataset/9/2_2.odb,Step-1,Increment      1: Step Time =    1.000,"PART-1-1",           360,  -124.098E-03,       3.84974,            0.,NA,NA,"",       1.39906,      -1.20260,  -714.920E-03,   2.66797E-03
C:/temp/dataset/9/2_2.odb,Step-1,Increment      1: Step Time =    1.000,"PART-1-1",           361,         -1.25,            5.,            0.,NA,NA,"",       1.51114,      -1.28271,  -798.889E-03,   2.74252E-03
C:/temp/dataset/9/2_2.odb,Step-1,Increment      1: Step Time =    1.000,"PART-1-1",           362,      -11.2683,  -541.568E-03,            0.,NA,NA,"",       1.73379,  -877.890E-03,      -1.49510,   217.002E-06
C:/temp/dataset/9/2_2.odb,Step-1,Increment      1: Step Time =    1.000,"PART-1-1",           363,      -10.4743,   471.696E-03,            0.,NA,NA,"",       1.72747,  -950.537E-03,      -1.44244,   353.283E-06
C:/temp/dataset/9/2_2.odb,Step-1,Increment      1: Step Time =    1.000,"PART-1-1",           364,      -11.9503,       1.36743,            0.,NA,NA,"",       1.84770,      -1.00965,      -1.54744,   253.912E-06
C:/temp/dataset/9/2_2.odb,Step-1,Increment      1: Step Time =    1.000,"PART-1-1",           365,      -13.0095,       9.29789,            0.,NA,NA,"",       2.25600,      -1.55090,      -1.63837,   219.992E-06
C:/temp/dataset/9/2_2.odb,Step-1,Increment      1: Step Time =    1.000,"PART-1-1",           366,      -14.0417,       10.3496,            0.,NA,NA,"",       2.35464,      -1.61886,      -1.70986,   410.741E-06
C:/temp/dataset/9/2_2.odb,Step-1,Increment      1: Step Time =    1.000,"PART-1-1",           367,          -15.,       9.21875,            0.,NA,NA,"",       2.34825,      -1.54066,      -1.77219,   788.745E-06
C:/temp/dataset/9/2_2.odb,Step-1,Increment      1: Step Time =    1.000,"PART-1-1",           368,      -6.40766,      -1.28741,            0.,NA,NA,"",       1.42324,  -837.035E-03,      -1.15108,   1.09317E-03
C:/temp/dataset/9/2_2.odb,Step-1,Increment      1: Step Time =    1.000,"PART-1-1",           369,      -5.35016,  -573.084E-03,            0.,NA,NA,"",       1.39706,  -889.132E-03,      -1.07760,   1.62512E-03
C:/temp/dataset/9/2_2.odb,Step-1,Increment      1: Step Time =    1.000,"PART-1-1",           370,      -6.23385,   230.463E-03,            0.,NA,NA,"",       1.48174,  -942.752E-03,      -1.14314,   1.52080E-03
C:/temp/dataset/9/2_2.odb,Step-1,Increment      1: Step Time =    1.000,"PART-1-1",           371,      -7.29135,  -483.859E-03,            0.,NA,NA,"",       1.50754,  -890.880E-03,      -1.21614,   1.00289E-03
C:/temp/dataset/9/2_2.odb,Step-1,Increment      1: Step Time =    1.000,"PART-1-1",           372,   952.242E-03,      -2.53706,            0.,NA,NA,"",   994.171E-03,  -775.226E-03,  -622.415E-03,   3.17423E-03
C:/temp/dataset/9/2_2.odb,Step-1,Increment      1: Step Time =    1.000,"PART-1-1",           373,  -130.910E-03,      -3.80019,            0.,NA,NA,"",   976.507E-03,  -683.214E-03,  -697.699E-03,   2.30577E-03
C:/temp/dataset/9/2_2.odb,Step-1,Increment      1: Step Time =    1.000,"PART-1-1",           374,          1.25,           -5.,            0.,NA,NA,"",   850.861E-03,  -605.002E-03,  -598.278E-03,   3.39644E-03
C:/temp/dataset/9/2_2.odb,Step-1,Increment      1: Step Time =    1.000,"PART-1-1",           375,       2.33315,      -3.73687,            0.,NA,NA,"",   873.574E-03,  -700.715E-03,  -521.661E-03,   3.71291E-03
C:/temp/dataset/9/2_2.odb,Step-1,Increment      1: Step Time =    1.000,"PART-1-1",           376,       4.26686,      -1.13377,            0.,NA,NA,"",   962.397E-03,  -877.442E-03,  -395.354E-03,   3.90526E-03
C:/temp/dataset/9/2_2.odb,Step-1,Increment      1: Step Time =    1.000,"PART-1-1",           377,       2.05254,      -1.20548,            0.,NA,NA,"",       1.02681,  -868.610E-03,  -547.588E-03,   3.18405E-03
C:/temp/dataset/9/2_2.odb,Step-1,Increment      1: Step Time =    1.000,"PART-1-1",           378,       3.27323,      -2.40335,            0.,NA,NA,"",   916.292E-03,  -794.074E-03,  -457.206E-03,   3.80934E-03
C:/temp/dataset/9/2_2.odb,Step-1,Increment      1: Step Time =    1.000,"PART-1-1",           379,       10.4325,       1.51548,            0.,NA,NA,"",       1.04656,      -1.04617,  -28.6391E-03,   2.96635E-03
C:/temp/dataset/9/2_2.odb,Step-1,Increment      1: Step Time =    1.000,"PART-1-1",           380,       11.3847,  -3.51279E-03,            0.,NA,NA,"",   951.255E-03,  -950.761E-03,   30.6672E-03,   3.28859E-03
C:/temp/dataset/9/2_2.odb,Step-1,Increment      1: Step Time =    1.000,"PART-1-1",           381,       12.7244,       1.31309,            0.,NA,NA,"",       1.04286,      -1.03715,   109.032E-03,   2.94607E-03
C:/temp/dataset/9/2_2.odb,Step-1,Increment      1: Step Time =    1.000,"PART-1-1",           382,       11.7722,       2.83209,            0.,NA,NA,"",       1.13337,      -1.13228,   49.6948E-03,   1.91230E-03
C:/temp/dataset/9/2_2.odb,Step-1,Increment      1: Step Time =    1.000,"PART-1-1",           383,       9.00808,      -7.25637,            0.,NA,NA,"",   535.445E-03,  -528.863E-03,  -83.7014E-03,   2.84161E-03
C:/temp/dataset/9/2_2.odb,Step-1,Increment      1: Step Time =    1.000,"PART-1-1",           384,       7.95196,      -6.36313,            0.,NA,NA,"",   588.705E-03,  -571.816E-03,  -139.998E-03,   5.09296E-03
C:/temp/dataset/9/2_2.odb,Step-1,Increment      1: Step Time =    1.000,"PART-1-1",           385,       7.00211,      -7.70397,            0.,NA,NA,"",   538.674E-03,  -508.470E-03,  -177.843E-03,   8.56496E-03
C:/temp/dataset/9/2_2.odb,Step-1,Increment      1: Step Time =    1.000,"PART-1-1",           386,       8.05823,      -8.59720,            0.,NA,NA,"",   482.522E-03,  -466.864E-03,  -121.926E-03,   5.96381E-03
C:/temp/dataset/9/2_2.odb,Step-1,Increment      1: Step Time =    1.000,"PART-1-1",           387,       7.09104,      -12.0381,            0.,NA,NA,"",   355.931E-03,  -328.584E-03,  -136.817E-03,   8.50850E-03
C:/temp/dataset/9/2_2.odb,Step-1,Increment      1: Step Time =    1.000,"PART-1-1",           388,       6.04129,      -11.1013,            0.,NA,NA,"",   412.620E-03,  -368.094E-03,  -186.445E-03,   11.0356E-03
C:/temp/dataset/9/2_2.odb,Step-1,Increment      1: Step Time =    1.000,"PART-1-1",           389,            5.,      -12.2917,            0.,NA,NA,"",   390.936E-03,  -328.150E-03,  -212.481E-03,   13.5137E-03
C:/temp/dataset/9/2_2.odb,Step-1,Increment      1: Step Time =    1.000,"PART-1-1",           390,       9.13117,      -18.4822,            0.,NA,NA,"",   133.006E-03,  -128.016E-03,  -36.0905E-03,   3.52077E-03
C:/temp/dataset/9/2_2.odb,Step-1,Increment      1: Step Time =    1.000,"PART-1-1",           391,       10.1297,      -19.6034,            0.,NA,NA,"",   102.754E-03,  -102.184E-03,  -10.8051E-03,   1.14624E-03
C:/temp/dataset/9/2_2.odb,Step-1,Increment      1: Step Time =    1.000,"PART-1-1",           392,       11.1535,      -18.5257,            0.,NA,NA,"",   127.213E-03,  -126.629E-03,   12.1784E-03,   1.32724E-03
C:/temp/dataset/9/2_2.odb,Step-1,Increment      1: Step Time =    1.000,"PART-1-1",           393,       10.1550,      -17.4045,            0.,NA,NA,"",   154.516E-03,  -153.969E-03,  -12.9866E-03,   1.08093E-03
C:/temp/dataset/9/2_2.odb,Step-1,Increment      1: Step Time =    1.000,"PART-1-1",           394,       6.27183,       14.9637,            0.,NA,NA,"",       1.95035,      -1.91985,  -343.550E-03,   2.08334E-03
C:/temp/dataset/9/2_2.odb,Step-1,Increment      1: Step Time =    1.000,"PART-1-1",           395,       7.52438,       16.1859,            0.,NA,NA,"",       2.02218,      -2.00497,  -263.238E-03,   1.44468E-03
C:/temp/dataset/9/2_2.odb,Step-1,Increment      1: Step Time =    1.000,"PART-1-1",           396,            5.,         16.25,            0.,NA,NA,"",       2.05254,      -2.00574,  -435.797E-03,   2.55190E-03
C:/temp/dataset/9/2_2.odb,Step-1,Increment      1: Step Time =    1.000,"PART-1-1",           397,       2.56719,       21.1071,            0.,NA,NA,"",       2.42249,      -2.33847,  -632.473E-03,   1.45379E-03
C:/temp/dataset/9/2_2.odb,Step-1,Increment      1: Step Time =    1.000,"PART-1-1",           398,       1.41709,       22.2600,            0.,NA,NA,"",       2.52068,      -2.41655,  -717.031E-03,   1.44412E-03
C:/temp/dataset/9/2_2.odb,Step-1,Increment      1: Step Time =    1.000,"PART-1-1",           399,   99.9026E-03,       21.1528,            0.,NA,NA,"",       2.47400,      -2.33920,  -805.505E-03,   1.99730E-03
C:/temp/dataset/9/2_2.odb,Step-1,Increment      1: Step Time =    1.000,"PART-1-1",           400,          1.25,           20.,            0.,NA,NA,"",       2.37258,      -2.26018,  -721.593E-03,   2.29705E-03
C:/temp/dataset/9/2_2.odb,Step-1,Increment      1: Step Time =    1.000,"PART-1-1",           401,       7.55593,       13.6250,            0.,NA,NA,"",       1.84838,      -1.83116,  -251.740E-03,   1.61446E-03
C:/temp/dataset/9/2_2.odb,Step-1,Increment      1: Step Time =    1.000,"PART-1-1",           402,            5.,         13.75,            0.,NA,NA,"",       1.88462,      -1.83626,  -424.233E-03,   2.74411E-03
C:/temp/dataset/9/2_2.odb,Step-1,Increment      1: Step Time =    1.000,"PART-1-1",           403,       8.77818,       14.9146,            0.,NA,NA,"",       1.92844,      -1.92057,  -173.972E-03,   1.05175E-03
C:/temp/dataset/9/2_2.odb,Step-1,Increment      1: Step Time =    1.000,"PART-1-1",           404,       10.0010,       16.1752,            0.,NA,NA,"",       2.01129,      -2.00905,  -95.0130E-03,   654.609E-06
C:/temp/dataset/9/2_2.odb,Step-1,Increment      1: Step Time =    1.000,"PART-1-1",           405,       8.74716,       17.4465,            0.,NA,NA,"",       2.10184,      -2.09376,  -184.093E-03,   955.877E-06
C:/temp/dataset/9/2_2.odb,Step-1,Increment      1: Step Time =    1.000,"PART-1-1",           406,       10.1219,       5.90684,            0.,NA,NA,"",       1.32877,      -1.32741,  -60.2021E-03,   951.020E-06
C:/temp/dataset/9/2_2.odb,Step-1,Increment      1: Step Time =    1.000,"PART-1-1",           407,       8.94830,       5.07672,            0.,NA,NA,"",       1.27992,      -1.27312,  -131.743E-03,   2.07980E-03
C:/temp/dataset/9/2_2.odb,Step-1,Increment      1: Step Time =    1.000,"PART-1-1",           408,       9.72441,       3.42413,            0.,NA,NA,"",       1.17052,      -1.16794,  -77.5547E-03,   2.38565E-03
C:/temp/dataset/9/2_2.odb,Step-1,Increment      1: Step Time =    1.000,"PART-1-1",           409,       10.8980,       4.25426,            0.,NA,NA,"",       1.22227,      -1.22225,  -7.15675E-03,   1.48777E-03
C:/temp/dataset/9/2_2.odb,Step-1,Increment      1: Step Time =    1.000,"PART-1-1",           410,       8.15250,       6.68373,            0.,NA,NA,"",       1.38767,      -1.37488,  -187.984E-03,   1.61463E-03
C:/temp/dataset/9/2_2.odb,Step-1,Increment      1: Step Time =    1.000,"PART-1-1",           411,       9.64075,       7.71724,            0.,NA,NA,"",       1.44670,      -1.44352,  -95.8437E-03,   849.686E-06
C:/temp/dataset/9/2_2.odb,Step-1,Increment      1: Step Time =    1.000,"PART-1-1",           412,       8.79696,       9.37373,            0.,NA,NA,"",       1.55790,      -1.55014,  -155.233E-03,   1.12298E-03
C:/temp/dataset/9/2_2.odb,Step-1,Increment      1: Step Time =    1.000,"PART-1-1",           413,   959.485E-03,       2.63099,            0.,NA,NA,"",       1.28808,      -1.12075,  -634.873E-03,   2.37638E-03
C:/temp/dataset/9/2_2.odb,Step-1,Increment      1: Step Time =    1.000,"PART-1-1",           414,       2.33358,       3.78125,            0.,NA,NA,"",       1.31537,      -1.19736,  -544.550E-03,   3.48150E-03
C:/temp/dataset/9/2_2.odb,Step-1,Increment      1: Step Time =    1.000,"PART-1-1",           415,          1.25,            5.,            0.,NA,NA,"",       1.42438,      -1.28066,  -623.518E-03,   4.28651E-03
C:/temp/dataset/9/2_2.odb,Step-1,Increment      1: Step Time =    1.000,"PART-1-1",           416,      -9.23288,       7.29816,            0.,NA,NA,"",       1.98109,      -1.42443,      -1.37684,   1.01860E-03
C:/temp/dataset/9/2_2.odb,Step-1,Increment      1: Step Time =    1.000,"PART-1-1",           417,      -8.32915,       6.01548,            0.,NA,NA,"",       1.87383,      -1.33914,      -1.31070,   1.19428E-03
C:/temp/dataset/9/2_2.odb,Step-1,Increment      1: Step Time =    1.000,"PART-1-1",           418,      -7.21136,       6.82340,            0.,NA,NA,"",       1.86521,      -1.39636,      -1.23659,   1.70629E-03
C:/temp/dataset/9/2_2.odb,Step-1,Increment      1: Step Time =    1.000,"PART-1-1",           419,      -8.11509,       8.10607,            0.,NA,NA,"",       1.97284,      -1.48106,      -1.30329,   1.67460E-03
C:/temp/dataset/9/2_2.odb,Step-1,Increment      1: Step Time =    1.000,"PART-1-1",           420,      -13.1318,       11.4675,            0.,NA,NA,"",       2.36670,      -1.69544,      -1.65129,   268.341E-06
C:/temp/dataset/9/2_2.odb,Step-1,Increment      1: Step Time =    1.000,"PART-1-1",           421,      -14.0901,       12.5242,            0.,NA,NA,"",       2.46134,      -1.76326,      -1.71729,   274.918E-06
C:/temp/dataset/9/2_2.odb,Step-1,Increment      1: Step Time =    1.000,"PART-1-1",           422,          -15.,       11.4063,            0.,NA,NA,"",       2.44924,      -1.68694,      -1.77567,   606.072E-06
C:/temp/dataset/9/2_2.odb,Step-1,Increment      1: Step Time =    1.000,"PART-1-1",           423,      -9.35396,       14.3983,            0.,NA,NA,"",       2.36149,      -1.89608,      -1.40767,   1.16356E-03
C:/temp/dataset/9/2_2.odb,Step-1,Increment      1: Step Time =    1.000,"PART-1-1",           424,      -10.5094,       15.3924,            0.,NA,NA,"",       2.45950,      -1.95902,      -1.48707,   912.046E-06
C:/temp/dataset/9/2_2.odb,Step-1,Increment      1: Step Time =    1.000,"PART-1-1",           425,      -11.3610,       13.8160,            0.,NA,NA,"",       2.40975,      -1.85420,      -1.53910,   723.106E-06
C:/temp/dataset/9/2_2.odb,Step-1,Increment      1: Step Time =    1.000,"PART-1-1",           426,      -10.2056,       12.8219,            0.,NA,NA,"",       2.31035,      -1.79101,      -1.45945,   972.696E-06
C:/temp/dataset/9/2_2.odb,Step-1,Increment      1: Step Time =    1.000,"PART-1-1",           427,      -14.0810,       18.8007,            0.,NA,NA,"",       2.77878,      -2.17415,      -1.73052,   375.020E-06
C:/temp/dataset/9/2_2.odb,Step-1,Increment      1: Step Time =    1.000,"PART-1-1",           428,          -15.,       17.9688,            0.,NA,NA,"",       2.77224,      -2.11815,      -1.78850,   158.338E-06
C:/temp/dataset/9/2_2.odb,Step-1,Increment      1: Step Time =    1.000,"PART-1-1",           429,      -14.2329,       16.7349,            0.,NA,NA,"",       2.67789,      -2.03931,      -1.73561,   206.217E-06
C:/temp/dataset/9/2_2.odb,Step-1,Increment      1: Step Time =    1.000,"PART-1-1",           430,      -13.3139,       17.5668,            0.,NA,NA,"",       2.68406,      -2.09539,      -1.67736,   430.693E-06
C:/temp/dataset/9/2_2.odb,Step-1,Increment      1: Step Time =    1.000,"PART-1-1",           431,      -12.9537,       19.5700,            0.,NA,NA,"",       2.77638,      -2.22633,      -1.65884,   522.388E-06
C:/temp/dataset/9/2_2.odb,Step-1,Increment      1: Step Time =    1.000,"PART-1-1",           432,      -13.8727,       20.9255,            0.,NA,NA,"",       2.88351,      -2.31272,      -1.72219,   461.340E-06
C:/temp/dataset/9/2_2.odb,Step-1,Increment      1: Step Time =    1.000,"PART-1-1",           433,          -15.,       20.1563,            0.,NA,NA,"",       2.88569,      -2.26051,      -1.79368,   324.919E-06
C:/temp/dataset/9/2_2.odb,Step-1,Increment      1: Step Time =    1.000,"PART-1-1",           434,       1.76445,       24.7908,            0.,NA,NA,"",       2.68310,      -2.59028,  -699.628E-03,   1.40953E-03
C:/temp/dataset/9/2_2.odb,Step-1,Increment      1: Step Time =    1.000,"PART-1-1",           435,       1.36974,       27.3866,            0.,NA,NA,"",       2.86260,      -2.76691,  -733.980E-03,   1.46542E-03
C:/temp/dataset/9/2_2.odb,Step-1,Increment      1: Step Time =    1.000,"PART-1-1",           436,   176.493E-03,       26.0346,            0.,NA,NA,"",       2.79267,      -2.67131,  -814.318E-03,   1.34108E-03
C:/temp/dataset/9/2_2.odb,Step-1,Increment      1: Step Time =    1.000,"PART-1-1",           437,       7.39460,       20.9669,            0.,NA,NA,"",       2.35357,      -2.33575,  -289.068E-03,   1.28556E-03
C:/temp/dataset/9/2_2.odb,Step-1,Increment      1: Step Time =    1.000,"PART-1-1",           438,       8.70526,       19.9066,            0.,NA,NA,"",       2.27258,      -2.26422,  -194.662E-03,   904.619E-06
C:/temp/dataset/9/2_2.odb,Step-1,Increment      1: Step Time =    1.000,"PART-1-1",           439,       9.85134,       21.1719,            0.,NA,NA,"",       2.35783,      -2.35481,  -119.308E-03,   684.289E-06
C:/temp/dataset/9/2_2.odb,Step-1,Increment      1: Step Time =    1.000,"PART-1-1",           440,       8.54068,       22.2321,            0.,NA,NA,"",       2.43566,      -2.42629,  -213.457E-03,   913.538E-06
C:/temp/dataset/9/2_2.odb,Step-1,Increment      1: Step Time =    1.000,"PART-1-1",           441,       4.10864,       24.1658,            0.,NA,NA,"",       2.60738,      -2.55252,  -532.066E-03,   1.42240E-03
C:/temp/dataset/9/2_2.odb,Step-1,Increment      1: Step Time =    1.000,"PART-1-1",           442,       5.90921,       23.8009,            0.,NA,NA,"",       2.56280,      -2.53086,  -403.364E-03,   1.24883E-03
C:/temp/dataset/9/2_2.odb,Step-1,Increment      1: Step Time =    1.000,"PART-1-1",           443,       6.25965,       24.9450,            0.,NA,NA,"",       2.63868,      -2.61088,  -382.039E-03,   925.032E-06
C:/temp/dataset/9/2_2.odb,Step-1,Increment      1: Step Time =    1.000,"PART-1-1",           444,   19.2837E-03,       28.6494,            0.,NA,NA,"",       2.96854,      -2.84944,  -832.408E-03,   1.71569E-03
C:/temp/dataset/9/2_2.odb,Step-1,Increment      1: Step Time =    1.000,"PART-1-1",           445,       2.60045,       28.7372,            0.,NA,NA,"",       2.93733,      -2.86452,  -649.906E-03,   881.357E-06
C:/temp/dataset/9/2_2.odb,Step-1,Increment      1: Step Time =    1.000,"PART-1-1",           446,          1.25,           30.,            0.,NA,NA,"",       3.04213,      -2.94880,  -747.751E-03,   1.17613E-03
C:/temp/dataset/9/2_2.odb,Step-1,Increment      1: Step Time =    1.000,"PART-1-1",           447,      -7.67774,       29.0428,            0.,NA,NA,"",       3.15512,      -2.85401,      -1.34515,   1.50302E-03
C:/temp/dataset/9/2_2.odb,Step-1,Increment      1: Step Time =    1.000,"PART-1-1",           448,      -6.68998,       27.9093,            0.,NA,NA,"",       3.06258,      -2.78243,      -1.27963,   1.83814E-03
C:/temp/dataset/9/2_2.odb,Step-1,Increment      1: Step Time =    1.000,"PART-1-1",           449,         -6.25,           30.,            0.,NA,NA,"",       3.17851,      -2.91889,      -1.25818,   2.09702E-03
C:/temp/dataset/9/2_2.odb,Step-1,Increment      1: Step Time =    1.000,"PART-1-1",           450,      -12.1701,       26.6384,            0.,NA,NA,"",       3.14131,      -2.68779,      -1.62592,   382.578E-06
C:/temp/dataset/9/2_2.odb,Step-1,Increment      1: Step Time =    1.000,"PART-1-1",           451,      -13.7206,       27.8542,            0.,NA,NA,"",       3.25944,      -2.76332,      -1.72859,   68.7755E-06
C:/temp/dataset/9/2_2.odb,Step-1,Increment      1: Step Time =    1.000,"PART-1-1",           452,          -15.,       26.7188,            0.,NA,NA,"",       3.23928,      -2.68712,      -1.80895,   16.2267E-06
C:/temp/dataset/9/2_2.odb,Step-1,Increment      1: Step Time =    1.000,"PART-1-1",           453,        -13.75,           30.,            0.,NA,NA,"",       3.38096,      -2.90185,      -1.73498,   40.8803E-06
C:/temp/dataset/9/2_2.odb,Step-1,Increment      1: Step Time =    1.000,"PART-1-1",           454,          -15.,       28.9063,            0.,NA,NA,"",       3.36001,      -2.82861,      -1.81346,   32.7789E-06
C:/temp/dataset/9/2_2.odb,Step-1,Increment      1: Step Time =    1.000,"PART-1-1",           455,      -9.01567,       28.1413,            0.,NA,NA,"",       3.13605,      -2.79233,      -1.42748,   1.16894E-03
C:/temp/dataset/9/2_2.odb,Step-1,Increment      1: Step Time =    1.000,"PART-1-1",           456,         -8.75,           30.,            0.,NA,NA,"",       3.23721,      -2.91204,      -1.41406,   386.134E-06
C:/temp/dataset/9/2_2.odb,Step-1,Increment      1: Step Time =    1.000,"PART-1-1",           457,      -10.9923,       18.6369,            0.,NA,NA,"",       2.65336,      -2.16920,      -1.52803,   903.740E-06
C:/temp/dataset/9/2_2.odb,Step-1,Increment      1: Step Time =    1.000,"PART-1-1",           458,      -11.7056,       20.1347,            0.,NA,NA,"",       2.76120,      -2.26524,      -1.57889,   794.268E-06
C:/temp/dataset/9/2_2.odb,Step-1,Increment      1: Step Time =    1.000,"PART-1-1",           459,      -12.2405,       18.0722,            0.,NA,NA,"",       2.66924,      -2.13032,      -1.60829,   659.571E-06
C:/temp/dataset/9/2_2.odb,Step-1,Increment      1: Step Time =    1.000,"PART-1-1",           460,      -11.7153,       17.0060,            0.,NA,NA,"",       2.59224,      -2.06196,      -1.57100,   721.993E-06
C:/temp/dataset/9/2_2.odb,Step-1,Increment      1: Step Time =    1.000,"PART-1-1",           461,      -12.7888,       16.5007,            0.,NA,NA,"",       2.60752,      -2.02698,      -1.64029,   504.055E-06
C:/temp/dataset/9/2_2.odb,Step-1,Increment      1: Step Time =    1.000,"PART-1-1",           462,      -13.2634,       13.5986,            0.,NA,NA,"",       2.47836,      -1.83598,      -1.66476,   304.190E-06
C:/temp/dataset/9/2_2.odb,Step-1,Increment      1: Step Time =    1.000,"PART-1-1",           463,      -14.1733,       14.6682,            0.,NA,NA,"",       2.57087,      -1.90427,      -1.72718,   161.358E-06
C:/temp/dataset/9/2_2.odb,Step-1,Increment      1: Step Time =    1.000,"PART-1-1",           464,          -15.,       13.5938,            0.,NA,NA,"",       2.55381,      -1.83175,      -1.77949,   365.975E-06
C:/temp/dataset/9/2_2.odb,Step-1,Increment      1: Step Time =    1.000,"PART-1-1",           465,      -6.04154,       10.1420,            0.,NA,NA,"",       1.99916,      -1.62008,      -1.17131,   2.32944E-03
C:/temp/dataset/9/2_2.odb,Step-1,Increment      1: Step Time =    1.000,"PART-1-1",           466,      -7.09581,       9.10381,            0.,NA,NA,"",       1.98333,      -1.54954,      -1.23795,   2.03958E-03
C:/temp/dataset/9/2_2.odb,Step-1,Increment      1: Step Time =    1.000,"PART-1-1",           467,      -6.05428,       7.71180,            0.,NA,NA,"",       1.86379,      -1.45785,      -1.16120,   2.57294E-03
C:/temp/dataset/9/2_2.odb,Step-1,Increment      1: Step Time =    1.000,"PART-1-1",           468,           -5.,          8.75,            0.,NA,NA,"",       1.88018,      -1.52832,      -1.09514,   2.88638E-03
C:/temp/dataset/9/2_2.odb,Step-1,Increment      1: Step Time =    1.000,"PART-1-1",           469,      -6.15708,       5.36159,            0.,NA,NA,"",       1.74031,      -1.29932,      -1.15777,   2.61668E-03
C:/temp/dataset/9/2_2.odb,Step-1,Increment      1: Step Time =    1.000,"PART-1-1",           470,           -5.,          6.25,            0.,NA,NA,"",       1.73831,      -1.36063,      -1.08186,   4.07445E-03
C:/temp/dataset/9/2_2.odb,Step-1,Increment      1: Step Time =    1.000,"PART-1-1",           471,      -13.8567,       3.63033,            0.,NA,NA,"",       2.04654,      -1.16223,      -1.68450,   433.174E-06
C:/temp/dataset/9/2_2.odb,Step-1,Increment      1: Step Time =    1.000,"PART-1-1",           472,      -12.5372,       4.63979,            0.,NA,NA,"",       2.01810,      -1.23524,      -1.59590,   164.492E-06
C:/temp/dataset/9/2_2.odb,Step-1,Increment      1: Step Time =    1.000,"PART-1-1",           473,          -15.,       4.84375,            0.,NA,NA,"",       2.15912,      -1.24296,      -1.76546,   801.331E-06
C:/temp/dataset/9/2_2.odb,Step-1,Increment      1: Step Time =    1.000,"PART-1-1",           474,      -12.7859,       2.45238,            0.,NA,NA,"",       1.93878,      -1.08320,      -1.60797,   262.115E-06
C:/temp/dataset/9/2_2.odb,Step-1,Increment      1: Step Time =    1.000,"PART-1-1",           475,          -15.,       2.65625,            0.,NA,NA,"",       2.07252,      -1.09169,      -1.76169,   624.240E-06
C:/temp/dataset/9/2_2.odb,Step-1,Increment      1: Step Time =    1.000,"PART-1-1",           476,      -13.7683,      -2.81830,            0.,NA,NA,"",       1.80998,  -712.414E-03,      -1.66388,   118.520E-06
C:/temp/dataset/9/2_2.odb,Step-1,Increment      1: Step Time =    1.000,"PART-1-1",           477,          -15.,      -3.90625,            0.,NA,NA,"",       1.85856,  -633.222E-03,      -1.74737,   32.0462E-06
C:/temp/dataset/9/2_2.odb,Step-1,Increment      1: Step Time =    1.000,"PART-1-1",           478,        -13.75,           -5.,            0.,NA,NA,"",       1.74926,  -559.767E-03,      -1.65728,   35.7322E-06
C:/temp/dataset/9/2_2.odb,Step-1,Increment      1: Step Time =    1.000,"PART-1-1",           479,      -12.5183,      -3.91205,            0.,NA,NA,"",       1.69860,  -638.836E-03,      -1.57389,   133.050E-06
C:/temp/dataset/9/2_2.odb,Step-1,Increment      1: Step Time =    1.000,"PART-1-1",           480,      -3.91473,      -3.03803,            0.,NA,NA,"",       1.20831,  -722.116E-03,  -968.791E-03,   1.34383E-03
C:/temp/dataset/9/2_2.odb,Step-1,Increment      1: Step Time =    1.000,"PART-1-1",           481,      -5.07319,      -4.05962,            0.,NA,NA,"",       1.23255,  -646.868E-03,      -1.04917,   626.605E-06
C:/temp/dataset/9/2_2.odb,Step-1,Increment      1: Step Time =    1.000,"PART-1-1",           482,         -3.75,           -5.,            0.,NA,NA,"",       1.11778,  -584.377E-03,  -952.852E-03,   935.879E-06
C:/temp/dataset/9/2_2.odb,Step-1,Increment      1: Step Time =    1.000,"PART-1-1",           483,      -2.59153,      -3.97841,            0.,NA,NA,"",       1.09439,  -660.809E-03,  -872.360E-03,   1.44311E-03
C:/temp/dataset/9/2_2.odb,Step-1,Increment      1: Step Time =    1.000,"PART-1-1",           484,   563.435E-03,   72.7383E-03,            0.,NA,NA,"",       1.15363,  -949.275E-03,  -655.544E-03,   2.64753E-03
C:/temp/dataset/9/2_2.odb,Step-1,Increment      1: Step Time =    1.000,"PART-1-1",           485,  -536.863E-03,      -1.25885,            0.,NA,NA,"",       1.12570,  -856.253E-03,  -730.775E-03,   2.59359E-03
C:/temp/dataset/9/2_2.odb,Step-1,Increment      1: Step Time =    1.000,"PART-1-1",           486,       7.06616,      -9.87010,            0.,NA,NA,"",   442.699E-03,  -414.206E-03,  -156.255E-03,   8.70433E-03
C:/temp/dataset/9/2_2.odb,Step-1,Increment      1: Step Time =    1.000,"PART-1-1",           487,       6.02487,      -8.97716,            0.,NA,NA,"",   501.876E-03,  -455.838E-03,  -209.979E-03,   11.2675E-03
C:/temp/dataset/9/2_2.odb,Step-1,Increment      1: Step Time =    1.000,"PART-1-1",           488,            5.,      -10.2083,            0.,NA,NA,"",   473.570E-03,  -408.618E-03,  -239.373E-03,   13.4034E-03
C:/temp/dataset/9/2_2.odb,Step-1,Increment      1: Step Time =    1.000,"PART-1-1",           489,       13.0743,      -11.4048,            0.,NA,NA,"",   366.351E-03,  -354.473E-03,   92.5309E-03,   6.06168E-03
C:/temp/dataset/9/2_2.odb,Step-1,Increment      1: Step Time =    1.000,"PART-1-1",           490,       14.0423,      -12.5586,            0.,NA,NA,"",   337.341E-03,  -314.299E-03,   122.536E-03,   8.45026E-03
C:/temp/dataset/9/2_2.odb,Step-1,Increment      1: Step Time =    1.000,"PART-1-1",           491,           15.,        -11.25,            0.,NA,NA,"",   406.395E-03,  -369.440E-03,   169.325E-03,   10.8651E-03
C:/temp/dataset/9/2_2.odb,Step-1,Increment      1: Step Time =    1.000,"PART-1-1",           492,       14.0319,      -10.0962,            0.,NA,NA,"",   434.881E-03,  -412.104E-03,   138.895E-03,   8.47919E-03
C:/temp/dataset/9/2_2.odb,Step-1,Increment      1: Step Time =    1.000,"PART-1-1",           493,       7.09943,      -16.3632,            0.,NA,NA,"",   212.994E-03,  -187.345E-03,  -101.333E-03,   8.40793E-03
C:/temp/dataset/9/2_2.odb,Step-1,Increment      1: Step Time =    1.000,"PART-1-1",           494,            5.,      -16.4583,            0.,NA,NA,"",   251.528E-03,  -194.213E-03,  -159.837E-03,   13.4621E-03
C:/temp/dataset/9/2_2.odb,Step-1,Increment      1: Step Time =    1.000,"PART-1-1",           495,       13.0966,      -13.8278,            0.,NA,NA,"",   277.952E-03,  -265.661E-03,   81.7398E-03,   6.08052E-03
C:/temp/dataset/9/2_2.odb,Step-1,Increment      1: Step Time =    1.000,"PART-1-1",           496,       14.0543,      -15.0192,            0.,NA,NA,"",   253.471E-03,  -230.354E-03,   105.758E-03,   8.38756E-03
C:/temp/dataset/9/2_2.odb,Step-1,Increment      1: Step Time =    1.000,"PART-1-1",           497,           15.,        -13.75,            0.,NA,NA,"",   313.095E-03,  -276.592E-03,   146.715E-03,   10.7557E-03
C:/temp/dataset/9/2_2.odb,Step-1,Increment      1: Step Time =    1.000,"PART-1-1",           498,       13.0974,      -18.6352,            0.,NA,NA,"",   140.249E-03,  -127.825E-03,   57.7095E-03,   5.97778E-03
C:/temp/dataset/9/2_2.odb,Step-1,Increment      1: Step Time =    1.000,"PART-1-1",           499,       14.0421,      -19.9133,            0.,NA,NA,"",   124.783E-03,  -102.849E-03,   70.6606E-03,   8.19250E-03
C:/temp/dataset/9/2_2.odb,Step-1,Increment      1: Step Time =    1.000,"PART-1-1",           500,           15.,        -18.75,            0.,NA,NA,"",   166.773E-03,  -132.691E-03,   101.026E-03,   10.5197E-03
C:/temp/dataset/9/2_2.odb,Step-1,Increment      1: Step Time =    1.000,"PART-1-1",           501,       14.0553,      -17.4719,            0.,NA,NA,"",   182.755E-03,  -159.953E-03,   88.3987E-03,   8.30413E-03
C:/temp/dataset/9/2_2.odb,Step-1,Increment      1: Step Time =    1.000,"PART-1-1",           502,       7.12541,      -22.7005,            0.,NA,NA,"",   74.0639E-03,  -52.7737E-03,  -51.9653E-03,   8.21812E-03
C:/temp/dataset/9/2_2.odb,Step-1,Increment      1: Step Time =    1.000,"PART-1-1",           503,       6.04628,      -21.6612,            0.,NA,NA,"",   107.276E-03,  -73.4237E-03,  -78.2125E-03,   10.7763E-03
C:/temp/dataset/9/2_2.odb,Step-1,Increment      1: Step Time =    1.000,"PART-1-1",           504,            5.,      -22.7083,            0.,NA,NA,"",   104.366E-03,  -62.6856E-03,  -83.4428E-03,   13.1769E-03
C:/temp/dataset/9/2_2.odb,Step-1,Increment      1: Step Time =    1.000,"PART-1-1",           505,       6.07914,      -23.7476,            0.,NA,NA,"",   71.8287E-03,  -43.0871E-03,  -57.4706E-03,   10.6108E-03
C:/temp/dataset/9/2_2.odb,Step-1,Increment      1: Step Time =    1.000,"PART-1-1",           506,       6.22304,      -27.8948,            0.,NA,NA,"",   19.0741E-03,  -7.85092E-03,  -17.3835E-03,   10.2217E-03
C:/temp/dataset/9/2_2.odb,Step-1,Increment      1: Step Time =    1.000,"PART-1-1",           507,            5.,      -28.9583,            0.,NA,NA,"",   14.4827E-03,  -8.92319E-03,  -11.4072E-03,   12.6284E-03
C:/temp/dataset/9/2_2.odb,Step-1,Increment      1: Step Time =    1.000,"PART-1-1",           508,          6.25,          -30.,            0.,NA,NA,"",            0.,   648.330E-42,  -15.0154E-39,   9.15424E-03
C:/temp/dataset/9/2_2.odb,Step-1,Increment      1: Step Time =    1.000,"PART-1-1",           509,       9.78444,      -26.6535,            0.,NA,NA,"",   7.72248E-03,  -5.82829E-03,  -5.06634E-03,   1.94136E-03
C:/temp/dataset/9/2_2.odb,Step-1,Increment      1: Step Time =    1.000,"PART-1-1",           510,       8.47427,      -25.6871,            0.,NA,NA,"",   23.2620E-03,  -14.7524E-03,  -17.9858E-03,   5.12904E-03
C:/temp/dataset/9/2_2.odb,Step-1,Increment      1: Step Time =    1.000,"PART-1-1",           511,       7.37694,      -26.8334,            0.,NA,NA,"",   21.7865E-03,  -9.49685E-03,  -19.6076E-03,   7.60863E-03
C:/temp/dataset/9/2_2.odb,Step-1,Increment      1: Step Time =    1.000,"PART-1-1",           512,       13.7223,      -27.5034,            0.,NA,NA,"",   16.0269E-03,  -6.21922E-03,   14.7711E-03,   7.38051E-03
C:/temp/dataset/9/2_2.odb,Step-1,Increment      1: Step Time =    1.000,"PART-1-1",           513,       12.4723,      -28.7534,            0.,NA,NA,"",   4.00495E-03,   809.284E-06,   3.92233E-03,   4.03042E-03
C:/temp/dataset/9/2_2.odb,Step-1,Increment      1: Step Time =    1.000,"PART-1-1",           514,         13.75,          -30.,            0.,NA,NA,"",            0.,   1.46831E-39,   10.2926E-39,   6.16913E-03
C:/temp/dataset/9/2_2.odb,Step-1,Increment      1: Step Time =    1.000,"PART-1-1",           515,           15.,        -28.75,            0.,NA,NA,"",   11.9645E-03,  -6.53933E-03,   10.0192E-03,   9.48474E-03
C:/temp/dataset/9/2_2.odb,Step-1,Increment      1: Step Time =    1.000,"PART-1-1",           516,         11.25,          -30.,            0.,NA,NA,"",            0.,   2.45017E-39,   2.25321E-39,   2.36412E-03
C:/temp/dataset/9/2_2.odb,Step-1,Increment      1: Step Time =    1.000,"PART-1-1",           517,       11.1864,      -27.6167,            0.,NA,NA,"",   2.77457E-03,  -987.364E-06,   2.59295E-03,   1.56709E-03
C:/temp/dataset/9/2_2.odb,Step-1,Increment      1: Step Time =    1.000,"PART-1-1",           518,       9.10684,      -20.5966,            0.,NA,NA,"",   88.1092E-03,  -83.0565E-03,  -29.4084E-03,   3.57468E-03
C:/temp/dataset/9/2_2.odb,Step-1,Increment      1: Step Time =    1.000,"PART-1-1",           519,       11.0993,      -20.6881,            0.,NA,NA,"",   81.1894E-03,  -80.6787E-03,   9.09142E-03,   1.18626E-03
C:/temp/dataset/9/2_2.odb,Step-1,Increment      1: Step Time =    1.000,"PART-1-1",           520,       7.08739,      -20.6083,            0.,NA,NA,"",   111.369E-03,  -87.8309E-03,  -68.4746E-03,   8.34733E-03
C:/temp/dataset/9/2_2.odb,Step-1,Increment      1: Step Time =    1.000,"PART-1-1",           521,            5.,       -20.625,            0.,NA,NA,"",   145.775E-03,  -97.3250E-03,  -108.528E-03,   13.3028E-03
C:/temp/dataset/9/2_2.odb,Step-1,Increment      1: Step Time =    1.000,"PART-1-1",           522,       9.14341,      -14.0595,            0.,NA,NA,"",   258.450E-03,  -253.259E-03,  -51.5413E-03,   3.53689E-03
C:/temp/dataset/9/2_2.odb,Step-1,Increment      1: Step Time =    1.000,"PART-1-1",           523,       10.1582,      -15.1431,            0.,NA,NA,"",   218.716E-03,  -218.131E-03,  -15.9900E-03,   1.08464E-03
C:/temp/dataset/9/2_2.odb,Step-1,Increment      1: Step Time =    1.000,"PART-1-1",           524,       11.1509,      -13.9343,            0.,NA,NA,"",   258.131E-03,  -257.654E-03,   15.6898E-03,   1.34193E-03
C:/temp/dataset/9/2_2.odb,Step-1,Increment      1: Step Time =    1.000,"PART-1-1",           525,       10.1361,      -12.8507,            0.,NA,NA,"",   295.230E-03,  -294.534E-03,  -20.2716E-03,   1.13806E-03
C:/temp/dataset/9/2_2.odb,Step-1,Increment      1: Step Time =    1.000,"PART-1-1",           526,       9.12292,      -11.8044,            0.,NA,NA,"",   338.961E-03,  -333.447E-03,  -60.8943E-03,   3.56074E-03
C:/temp/dataset/9/2_2.odb,Step-1,Increment      1: Step Time =    1.000,"PART-1-1",           527,       11.1213,      -11.5948,            0.,NA,NA,"",   342.539E-03,  -342.172E-03,   15.8553E-03,   1.33005E-03
C:/temp/dataset/9/2_2.odb,Step-1,Increment      1: Step Time =    1.000,"PART-1-1",           528,       10.1081,      -10.5485,            0.,NA,NA,"",   383.698E-03,  -382.859E-03,  -25.3630E-03,   1.13673E-03
C:/temp/dataset/9/2_2.odb,Step-1,Increment      1: Step Time =    1.000,"PART-1-1",           529,       13.8169,  -7.21098E-03,            0.,NA,NA,"",   972.653E-03,  -956.967E-03,   173.975E-03,   4.02786E-03
C:/temp/dataset/9/2_2.odb,Step-1,Increment      1: Step Time =    1.000,"PART-1-1",           530,           15.,          1.25,            0.,NA,NA,"",       1.06977,      -1.04046,   248.718E-03,   4.16262E-03
C:/temp/dataset/9/2_2.odb,Step-1,Increment      1: Step Time =    1.000,"PART-1-1",           531,       13.9075,       2.57030,            0.,NA,NA,"",       1.13535,      -1.12073,   181.648E-03,   2.61047E-03
C:/temp/dataset/9/2_2.odb,Step-1,Increment      1: Step Time =    1.000,"PART-1-1",           532,       10.8083,      -4.35361,            0.,NA,NA,"",   685.700E-03,  -685.696E-03,   2.35011E-03,   3.21950E-03
C:/temp/dataset/9/2_2.odb,Step-1,Increment      1: Step Time =    1.000,"PART-1-1",           533,       9.68548,      -3.40243,            0.,NA,NA,"",   740.711E-03,  -738.392E-03,  -58.5718E-03,   3.65926E-03
C:/temp/dataset/9/2_2.odb,Step-1,Increment      1: Step Time =    1.000,"PART-1-1",           534,       8.81587,      -4.92348,            0.,NA,NA,"",   657.017E-03,  -649.259E-03,  -100.669E-03,   3.16868E-03
C:/temp/dataset/9/2_2.odb,Step-1,Increment      1: Step Time =    1.000,"PART-1-1",           535,       9.93870,      -5.87466,            0.,NA,NA,"",   601.428E-03,  -600.028E-03,  -41.0012E-03,   1.96293E-03
C:/temp/dataset/9/2_2.odb,Step-1,Increment      1: Step Time =    1.000,"PART-1-1",           536,       10.7940,       8.23694,            0.,NA,NA,"",       1.47963,      -1.47945,  -22.7193E-03,   398.679E-06
C:/temp/dataset/9/2_2.odb,Step-1,Increment      1: Step Time =    1.000,"PART-1-1",           537,       11.2752,       6.42654,            0.,NA,NA,"",       1.36288,      -1.36283,   11.9480E-03,   630.427E-06
C:/temp/dataset/9/2_2.odb,Step-1,Increment      1: Step Time =    1.000,"PART-1-1",           538,       12.8821,       8.67106,            0.,NA,NA,"",       1.51677,      -1.51263,   112.031E-03,   1.01754E-03
C:/temp/dataset/9/2_2.odb,Step-1,Increment      1: Step Time =    1.000,"PART-1-1",           539,       14.0355,       7.50951,            0.,NA,NA,"",       1.45204,      -1.43980,   188.105E-03,   1.56732E-03
C:/temp/dataset/9/2_2.odb,Step-1,Increment      1: Step Time =    1.000,"PART-1-1",           540,           15.,          8.75,            0.,NA,NA,"",       1.54411,      -1.52370,   250.225E-03,   1.92351E-03
C:/temp/dataset/9/2_2.odb,Step-1,Increment      1: Step Time =    1.000,"PART-1-1",           541,       13.8467,       9.91155,            0.,NA,NA,"",       1.60625,      -1.59682,   173.765E-03,   1.34917E-03
C:/temp/dataset/9/2_2.odb,Step-1,Increment      1: Step Time =    1.000,"PART-1-1",           542,       12.4850,       16.2122,            0.,NA,NA,"",       2.01870,      -2.01737,   73.3676E-03,   586.741E-06
C:/temp/dataset/9/2_2.odb,Step-1,Increment      1: Step Time =    1.000,"PART-1-1",           543,       13.7431,       14.9727,            0.,NA,NA,"",       1.94267,      -1.93600,   160.765E-03,   989.313E-06
C:/temp/dataset/9/2_2.odb,Step-1,Increment      1: Step Time =    1.000,"PART-1-1",           544,           15.,         16.25,            0.,NA,NA,"",       2.04149,      -2.02679,   244.575E-03,   1.30228E-03
C:/temp/dataset/9/2_2.odb,Step-1,Increment      1: Step Time =    1.000,"PART-1-1",           545,       13.7419,       17.4895,            0.,NA,NA,"",       2.11425,      -2.10843,   156.707E-03,   783.766E-06
C:/temp/dataset/9/2_2.odb,Step-1,Increment      1: Step Time =    1.000,"PART-1-1",           546,       12.4991,       13.6576,            0.,NA,NA,"",       1.84523,      -1.84354,   79.1055E-03,   651.391E-06
C:/temp/dataset/9/2_2.odb,Step-1,Increment      1: Step Time =    1.000,"PART-1-1",           547,       13.7559,       12.4349,            0.,NA,NA,"",       1.77223,      -1.76453,   165.002E-03,   1.16945E-03
C:/temp/dataset/9/2_2.odb,Step-1,Increment      1: Step Time =    1.000,"PART-1-1",           548,           15.,         13.75,            0.,NA,NA,"",       1.87303,      -1.85666,   247.095E-03,   1.57619E-03
C:/temp/dataset/9/2_2.odb,Step-1,Increment      1: Step Time =    1.000,"PART-1-1",           549,           15.,         21.25,            0.,NA,NA,"",       2.38448,      -2.37268,   236.925E-03,   609.732E-06
C:/temp/dataset/9/2_2.odb,Step-1,Increment      1: Step Time =    1.000,"PART-1-1",           550,       13.6875,       22.5045,            0.,NA,NA,"",       2.46098,      -2.45681,   143.042E-03,   320.152E-06
C:/temp/dataset/9/2_2.odb,Step-1,Increment      1: Step Time =    1.000,"PART-1-1",           551,       12.4125,       21.2511,            0.,NA,NA,"",       2.36682,      -2.36613,   57.5016E-03,   446.596E-06
C:/temp/dataset/9/2_2.odb,Step-1,Increment      1: Step Time =    1.000,"PART-1-1",           552,       13.7250,       19.9966,            0.,NA,NA,"",       2.28700,      -2.28202,   150.915E-03,   550.486E-06
C:/temp/dataset/9/2_2.odb,Step-1,Increment      1: Step Time =    1.000,"PART-1-1",           553,       13.6481,       25.0064,            0.,NA,NA,"",       2.63515,      -2.63171,   134.566E-03,   156.258E-06
C:/temp/dataset/9/2_2.odb,Step-1,Increment      1: Step Time =    1.000,"PART-1-1",           554,       12.3356,       23.7609,            0.,NA,NA,"",       2.54177,      -2.54135,   46.1252E-03,   305.807E-06
C:/temp/dataset/9/2_2.odb,Step-1,Increment      1: Step Time =    1.000,"PART-1-1",           555,           15.,         23.75,            0.,NA,NA,"",       2.55776,      -2.54723,   231.798E-03,   315.951E-06
C:/temp/dataset/9/2_2.odb,Step-1,Increment      1: Step Time =    1.000,"PART-1-1",           556,       13.7112,       27.5077,            0.,NA,NA,"",       2.81009,      -2.80694,   132.982E-03,   67.3501E-06
C:/temp/dataset/9/2_2.odb,Step-1,Increment      1: Step Time =    1.000,"PART-1-1",           557,           15.,         28.75,            0.,NA,NA,"",       2.90536,      -2.89702,   220.068E-03,   17.5796E-06
C:/temp/dataset/9/2_2.odb,Step-1,Increment      1: Step Time =    1.000,"PART-1-1",           558,         13.75,           30.,            0.,NA,NA,"",       2.98419,      -2.98137,   129.613E-03,   15.4355E-06
C:/temp/dataset/9/2_2.odb,Step-1,Increment      1: Step Time =    1.000,"PART-1-1",           559,            5.,      -24.7917,            0.,NA,NA,"",   69.4997E-03,  -37.0582E-03,  -58.7954E-03,   12.8870E-03
C:/temp/dataset/9/2_2.odb,Step-1,Increment      1: Step Time =    1.000,"PART-1-1",           560,       6.15390,      -25.8136,            0.,NA,NA,"",   43.1087E-03,  -21.7874E-03,  -37.1978E-03,   10.3256E-03
C:/temp/dataset/9/2_2.odb,Step-1,Increment      1: Step Time =    1.000,"PART-1-1",           561,       7.23304,      -24.7696,            0.,NA,NA,"",   44.4155E-03,  -26.8587E-03,  -35.3744E-03,   8.02573E-03
C:/temp/dataset/9/2_2.odb,Step-1,Increment      1: Step Time =    1.000,"PART-1-1",           562,       13.0086,      -21.0119,            0.,NA,NA,"",   89.4918E-03,  -77.9851E-03,   43.8988E-03,   5.70073E-03
C:/temp/dataset/9/2_2.odb,Step-1,Increment      1: Step Time =    1.000,"PART-1-1",           563,       13.9664,      -22.3485,            0.,NA,NA,"",   78.2848E-03,  -58.4801E-03,   52.0441E-03,   7.94247E-03
C:/temp/dataset/9/2_2.odb,Step-1,Increment      1: Step Time =    1.000,"PART-1-1",           564,           15.,        -21.25,            0.,NA,NA,"",   112.616E-03,  -81.1958E-03,   78.0361E-03,   10.4330E-03
C:/temp/dataset/9/2_2.odb,Step-1,Increment      1: Step Time =    1.000,"PART-1-1",           565,            5.,       -26.875,            0.,NA,NA,"",   40.5056E-03,  -20.1307E-03,  -35.1491E-03,   12.6992E-03
C:/temp/dataset/9/2_2.odb,Step-1,Increment      1: Step Time =    1.000,"PART-1-1",           566,       12.9745,      -6.51631,            0.,NA,NA,"",   585.959E-03,  -575.714E-03,   109.098E-03,   5.68359E-03
C:/temp/dataset/9/2_2.odb,Step-1,Increment      1: Step Time =    1.000,"PART-1-1",           567,       14.0104,      -7.62731,            0.,NA,NA,"",   546.735E-03,  -524.639E-03,   153.859E-03,   8.24874E-03
C:/temp/dataset/9/2_2.odb,Step-1,Increment      1: Step Time =    1.000,"PART-1-1",           568,           15.,         -6.25,            0.,NA,NA,"",   635.792E-03,  -599.284E-03,   212.345E-03,   10.0808E-03
C:/temp/dataset/9/2_2.odb,Step-1,Increment      1: Step Time =    1.000,"PART-1-1",           569,       13.9641,      -5.13900,            0.,NA,NA,"",   673.735E-03,  -653.070E-03,   165.582E-03,   7.40494E-03
C:/temp/dataset/9/2_2.odb,Step-1,Increment      1: Step Time =    1.000,"PART-1-1",           570,       11.1649,      -16.2543,            0.,NA,NA,"",   186.289E-03,  -185.728E-03,   14.4405E-03,   1.36718E-03
C:/temp/dataset/9/2_2.odb,Step-1,Increment      1: Step Time =    1.000,"PART-1-1",           571,       9.14831,      -16.2933,            0.,NA,NA,"",   189.704E-03,  -184.703E-03,  -43.2705E-03,   3.50055E-03
C:/temp/dataset/9/2_2.odb,Step-1,Increment      1: Step Time =    1.000,"PART-1-1",           572,            5.,        -8.125,            0.,NA,NA,"",   564.591E-03,  -498.093E-03,  -265.831E-03,   14.2385E-03
C:/temp/dataset/9/2_2.odb,Step-1,Increment      1: Step Time =    1.000,"PART-1-1",           573,       12.8519,      -3.99254,            0.,NA,NA,"",   721.199E-03,  -712.641E-03,   110.779E-03,   5.08752E-03
C:/temp/dataset/9/2_2.odb,Step-1,Increment      1: Step Time =    1.000,"PART-1-1",           574,           15.,         -3.75,            0.,NA,NA,"",   771.263E-03,  -736.211E-03,   229.868E-03,   8.47574E-03
C:/temp/dataset/9/2_2.odb,Step-1,Increment      1: Step Time =    1.000,"PART-1-1",           575,       13.8878,      -2.60354,            0.,NA,NA,"",   816.321E-03,  -797.993E-03,   172.010E-03,   5.83806E-03
C:/temp/dataset/9/2_2.odb,Step-1,Increment      1: Step Time =    1.000,"PART-1-1",           576,       13.0423,      -8.97351,            0.,NA,NA,"",   468.542E-03,  -457.252E-03,   102.237E-03,   5.97494E-03
C:/temp/dataset/9/2_2.odb,Step-1,Increment      1: Step Time =    1.000,"PART-1-1",           577,           15.,         -8.75,            0.,NA,NA,"",   513.855E-03,  -476.832E-03,   191.516E-03,   10.7734E-03
C:/temp/dataset/9/2_2.odb,Step-1,Increment      1: Step Time =    1.000,"PART-1-1",           578,       8.09346,      -21.6433,            0.,NA,NA,"",   79.2019E-03,  -66.3235E-03,  -43.2913E-03,   5.95728E-03
C:/temp/dataset/9/2_2.odb,Step-1,Increment      1: Step Time =    1.000,"PART-1-1",           579,       8.17438,      -23.6967,            0.,NA,NA,"",   47.6514E-03,  -36.1673E-03,  -31.0255E-03,   5.77778E-03
C:/temp/dataset/9/2_2.odb,Step-1,Increment      1: Step Time =    1.000,"PART-1-1",           580,       8.10077,      -19.5616,            0.,NA,NA,"",   119.070E-03,  -105.779E-03,  -54.6671E-03,   5.96053E-03
C:/temp/dataset/9/2_2.odb,Step-1,Increment      1: Step Time =    1.000,"PART-1-1",           581,       8.11824,      -17.4194,            0.,NA,NA,"",   169.544E-03,  -156.041E-03,  -66.3046E-03,   5.95108E-03
C:/temp/dataset/9/2_2.odb,Step-1,Increment      1: Step Time =    1.000,"PART-1-1",           582,          -15.,       22.3438,            0.,NA,NA,"",       3.00168,      -2.40281,      -1.79905,   314.484E-06
C:/temp/dataset/9/2_2.odb,Step-1,Increment      1: Step Time =    1.000,"PART-1-1",           583,      -12.5647,       21.7347,            0.,NA,NA,"",       2.87981,      -2.36778,      -1.63918,   579.876E-06
C:/temp/dataset/9/2_2.odb,Step-1,Increment      1: Step Time =    1.000,"PART-1-1",           584,      -4.95050,       22.5220,            0.,NA,NA,"",       2.68571,      -2.42746,      -1.14911,   2.07417E-03
C:/temp/dataset/9/2_2.odb,Step-1,Increment      1: Step Time =    1.000,"PART-1-1",           585,      -3.93081,       23.1260,            0.,NA,NA,"",       2.69619,      -2.46850,      -1.08440,   1.52966E-03
C:/temp/dataset/9/2_2.odb,Step-1,Increment      1: Step Time =    1.000,"PART-1-1",           586,      -4.22857,       24.4244,            0.,NA,NA,"",       2.78493,      -2.55489,      -1.10833,   1.52308E-03
C:/temp/dataset/9/2_2.odb,Step-1,Increment      1: Step Time =    1.000,"PART-1-1",           587,      -5.24826,       23.8204,            0.,NA,NA,"",       2.77362,      -2.51341,      -1.17292,   1.91616E-03
C:/temp/dataset/9/2_2.odb,Step-1,Increment      1: Step Time =    1.000,"PART-1-1",           588,      -10.1110,       10.4874,            0.,NA,NA,"",       2.18401,      -1.63662,      -1.44617,   962.951E-06
C:/temp/dataset/9/2_2.odb,Step-1,Increment      1: Step Time =    1.000,"PART-1-1",           589,      -9.15687,       11.6944,            0.,NA,NA,"",       2.20768,      -1.71845,      -1.38592,   1.25472E-03
C:/temp/dataset/9/2_2.odb,Step-1,Increment      1: Step Time =    1.000,"PART-1-1",           590,      -11.1597,       11.6149,            0.,NA,NA,"",       2.28731,      -1.70942,      -1.51976,   700.723E-06
C:/temp/dataset/9/2_2.odb,Step-1,Increment      1: Step Time =    1.000,"PART-1-1",           591,      -6.07359,       12.6401,            0.,NA,NA,"",       2.14233,      -1.78551,      -1.18387,   2.11080E-03
C:/temp/dataset/9/2_2.odb,Step-1,Increment      1: Step Time =    1.000,"PART-1-1",           592,      -7.11512,       11.5321,            0.,NA,NA,"",       2.11820,      -1.71094,      -1.24879,   1.88213E-03
C:/temp/dataset/9/2_2.odb,Step-1,Increment      1: Step Time =    1.000,"PART-1-1",           593,           -5.,         11.25,            0.,NA,NA,"",       2.02414,      -1.69488,      -1.10659,   2.55208E-03
C:/temp/dataset/9/2_2.odb,Step-1,Increment      1: Step Time =    1.000,"PART-1-1",           594,      -10.0988,       8.37440,            0.,NA,NA,"",       2.07526,      -1.49527,      -1.43906,   846.523E-06
C:/temp/dataset/9/2_2.odb,Step-1,Increment      1: Step Time =    1.000,"PART-1-1",           595,      -9.11481,       9.38066,            0.,NA,NA,"",       2.08331,      -1.56466,      -1.37550,   1.25546E-03
C:/temp/dataset/9/2_2.odb,Step-1,Increment      1: Step Time =    1.000,"PART-1-1",           596,      -11.0949,       9.48111,            0.,NA,NA,"",       2.17622,      -1.56746,      -1.50963,   606.109E-06
C:/temp/dataset/9/2_2.odb,Step-1,Increment      1: Step Time =    1.000,"PART-1-1",           597,      -11.8142,       15.6555,            0.,NA,NA,"",       2.52448,      -1.97374,      -1.57395,   678.269E-06
C:/temp/dataset/9/2_2.odb,Step-1,Increment      1: Step Time =    1.000,"PART-1-1",           598,      -13.4062,       15.6218,            0.,NA,NA,"",       2.58704,      -1.96835,      -1.67880,   343.873E-06
C:/temp/dataset/9/2_2.odb,Step-1,Increment      1: Step Time =    1.000,"PART-1-1",           599,      -12.4316,       14.7766,            0.,NA,NA,"",       2.50351,      -1.91505,      -1.61250,   509.554E-06
C:/temp/dataset/9/2_2.odb,Step-1,Increment      1: Step Time =    1.000,"PART-1-1",           600,      -5.72199,       20.2132,            0.,NA,NA,"",       2.56885,      -2.27665,      -1.18991,   2.47765E-03
C:/temp/dataset/9/2_2.odb,Step-1,Increment      1: Step Time =    1.000,"PART-1-1",           601,           -5.,         18.75,            0.,NA,NA,"",       2.46362,      -2.18493,      -1.13820,   2.12552E-03
C:/temp/dataset/9/2_2.odb,Step-1,Increment      1: Step Time =    1.000,"PART-1-1",           602,          -15.,       15.7813,            0.,NA,NA,"",       2.66155,      -1.97537,      -1.78375,   99.3463E-06
C:/temp/dataset/9/2_2.odb,Step-1,Increment      1: Step Time =    1.000,"PART-1-1",           603,      -10.4105,       16.7429,            0.,NA,NA,"",       2.52875,      -2.04722,      -1.48442,   959.972E-06
C:/temp/dataset/9/2_2.odb,Step-1,Increment      1: Step Time =    1.000,"PART-1-1",           604,      -12.1928,       12.6381,            0.,NA,NA,"",       2.38390,      -1.77496,      -1.59139,   477.987E-06
C:/temp/dataset/9/2_2.odb,Step-1,Increment      1: Step Time =    1.000,"PART-1-1",           605,      -12.0987,       10.4443,            0.,NA,NA,"",       2.26964,      -1.62965,      -1.57971,   399.945E-06
C:/temp/dataset/9/2_2.odb,Step-1,Increment      1: Step Time =    1.000,"PART-1-1",           606,      -7.50325,       4.80693,            0.,NA,NA,"",       1.77311,      -1.25816,      -1.24938,   1.41848E-03
C:/temp/dataset/9/2_2.odb,Step-1,Increment      1: Step Time =    1.000,"PART-1-1",           607,      -9.63824,       5.46172,            0.,NA,NA,"",       1.90868,      -1.29845,      -1.39896,   715.256E-06
C:/temp/dataset/9/2_2.odb,Step-1,Increment      1: Step Time =    1.000,"PART-1-1",           608,      -8.81234,       4.25317,            0.,NA,NA,"",       1.80896,      -1.21708,      -1.33831,   939.959E-06
C:/temp/dataset/9/2_2.odb,Step-1,Increment      1: Step Time =    1.000,"PART-1-1",           609,          -15.,      -1.71875,            0.,NA,NA,"",       1.92090,  -786.345E-03,      -1.75258,   180.964E-06
C:/temp/dataset/9/2_2.odb,Step-1,Increment      1: Step Time =    1.000,"PART-1-1",           610,      -12.5835,      -1.75493,            0.,NA,NA,"",       1.76977,  -789.796E-03,      -1.58377,   222.783E-06
C:/temp/dataset/9/2_2.odb,Step-1,Increment      1: Step Time =    1.000,"PART-1-1",           611,        -11.25,           -5.,            0.,NA,NA,"",       1.58675,  -565.648E-03,      -1.48250,   186.788E-06
C:/temp/dataset/9/2_2.odb,Step-1,Increment      1: Step Time =    1.000,"PART-1-1",           612,      -10.0144,      -3.91217,            0.,NA,NA,"",       1.54017,  -644.701E-03,      -1.39874,   181.293E-06
C:/temp/dataset/9/2_2.odb,Step-1,Increment      1: Step Time =    1.000,"PART-1-1",           613,      -11.2827,      -2.82422,            0.,NA,NA,"",       1.65422,  -717.988E-03,      -1.49028,   139.132E-06
C:/temp/dataset/9/2_2.odb,Step-1,Increment      1: Step Time =    1.000,"PART-1-1",           614,         -8.75,           -5.,            0.,NA,NA,"",       1.42649,  -571.208E-03,      -1.30714,   222.091E-06
C:/temp/dataset/9/2_2.odb,Step-1,Increment      1: Step Time =    1.000,"PART-1-1",           615,      -7.54904,      -4.01671,            0.,NA,NA,"",       1.38358,  -643.238E-03,      -1.22496,   224.102E-06
C:/temp/dataset/9/2_2.odb,Step-1,Increment      1: Step Time =    1.000,"PART-1-1",           616,      -8.81345,      -2.92887,            0.,NA,NA,"",       1.49921,  -716.513E-03,      -1.31690,   207.797E-06
C:/temp/dataset/9/2_2.odb,Step-1,Increment      1: Step Time =    1.000,"PART-1-1",           617,  -969.738E-03,       22.2544,            0.,NA,NA,"",       2.56953,      -2.41316,  -882.681E-03,   1.46930E-03
C:/temp/dataset/9/2_2.odb,Step-1,Increment      1: Step Time =    1.000,"PART-1-1",           618,      -2.31964,       21.1016,            0.,NA,NA,"",       2.52846,      -2.33466,  -970.811E-03,   2.26105E-03
C:/temp/dataset/9/2_2.odb,Step-1,Increment      1: Step Time =    1.000,"PART-1-1",           619,         -1.25,           20.,            0.,NA,NA,"",       2.43078,      -2.26025,  -894.392E-03,   2.89670E-03
C:/temp/dataset/9/2_2.odb,Step-1,Increment      1: Step Time =    1.000,"PART-1-1",           620,         -1.25,           30.,            0.,NA,NA,"",       3.08120,      -2.93881,  -925.843E-03,   2.43671E-03
C:/temp/dataset/9/2_2.odb,Step-1,Increment      1: Step Time =    1.000,"PART-1-1",           621,      -1.44357,       27.1449,            0.,NA,NA,"",       2.89613,      -2.74276,  -929.976E-03,   1.36216E-03
C:/temp/dataset/9/2_2.odb,Step-1,Increment      1: Step Time =    1.000,"PART-1-1",           622,      -4.58492,       21.1383,            0.,NA,NA,"",       2.59113,      -2.33624,      -1.12068,   2.19598E-03
C:/temp/dataset/9/2_2.odb,Step-1,Increment      1: Step Time =    1.000,"PART-1-1",           623,         -3.75,           20.,            0.,NA,NA,"",       2.49907,      -2.26197,      -1.06247,   3.19624E-03
C:/temp/dataset/9/2_2.odb,Step-1,Increment      1: Step Time =    1.000,"PART-1-1",           624,      -3.15456,       22.2398,            0.,NA,NA,"",       2.62109,      -2.41014,      -1.03021,   1.39883E-03
C:/temp/dataset/9/2_2.odb,Step-1,Increment      1: Step Time =    1.000,"PART-1-1",           625,      -11.2479,       22.4027,            0.,NA,NA,"",       2.87137,      -2.41349,      -1.55557,   906.309E-06
C:/temp/dataset/9/2_2.odb,Step-1,Increment      1: Step Time =    1.000,"PART-1-1",           626,      -10.3888,       20.8027,            0.,NA,NA,"",       2.75216,      -2.31068,      -1.49505,   1.08115E-03
C:/temp/dataset/9/2_2.odb,Step-1,Increment      1: Step Time =    1.000,"PART-1-1",           627,       9.41561,      -24.6142,            0.,NA,NA,"",   26.5391E-03,  -23.3120E-03,  -12.6838E-03,   2.86091E-03
C:/temp/dataset/9/2_2.odb,Step-1,Increment      1: Step Time =    1.000,"PART-1-1",           628,           15.,        -16.25,            0.,NA,NA,"",   233.393E-03,  -197.769E-03,   123.934E-03,   10.6302E-03
C:/temp/dataset/9/2_2.odb,Step-1,Increment      1: Step Time =    1.000,"PART-1-1",           629,       13.1096,      -16.2411,            0.,NA,NA,"",   202.716E-03,  -190.188E-03,   70.1582E-03,   6.05971E-03
C:/temp/dataset/9/2_2.odb,Step-1,Increment      1: Step Time =    1.000,"PART-1-1",           630,           15.,          3.75,            0.,NA,NA,"",       1.22570,      -1.19972,   251.037E-03,   2.77207E-03
C:/temp/dataset/9/2_2.odb,Step-1,Increment      1: Step Time =    1.000,"PART-1-1",           631,       14.0093,       5.06690,            0.,NA,NA,"",       1.29510,      -1.28141,   187.804E-03,   1.84453E-03
C:/temp/dataset/9/2_2.odb,Step-1,Increment      1: Step Time =    1.000,"PART-1-1",           632,       12.9168,       3.88721,            0.,NA,NA,"",       1.20841,      -1.20249,   119.405E-03,   1.84754E-03
C:/temp/dataset/9/2_2.odb,Step-1,Increment      1: Step Time =    1.000,"PART-1-1",           633,       12.6026,       11.0965,            0.,NA,NA,"",       1.67451,      -1.67207,   90.2658E-03,   783.664E-06
C:/temp/dataset/9/2_2.odb,Step-1,Increment      1: Step Time =    1.000,"PART-1-1",           634,           15.,         11.25,            0.,NA,NA,"",       1.70717,      -1.68892,   248.924E-03,   1.77425E-03
C:/temp/dataset/9/2_2.odb,Step-1,Increment      1: Step Time =    1.000,"PART-1-1",           635,       12.4669,       18.7361,            0.,NA,NA,"",       2.19232,      -2.19130,   66.9184E-03,   536.491E-06
C:/temp/dataset/9/2_2.odb,Step-1,Increment      1: Step Time =    1.000,"PART-1-1",           636,           15.,         18.75,            0.,NA,NA,"",       2.21217,      -2.19898,   241.214E-03,   964.928E-06
C:/temp/dataset/9/2_2.odb,Step-1,Increment      1: Step Time =    1.000,"PART-1-1",           637,           15.,         26.25,            0.,NA,NA,"",       2.73149,      -2.72211,   226.095E-03,   117.478E-06
C:/temp/dataset/9/2_2.odb,Step-1,Increment      1: Step Time =    1.000,"PART-1-1",           638,          8.75,           30.,            0.,NA,NA,"",       2.97765,      -2.96950,  -220.109E-03,   90.6342E-06
C:/temp/dataset/9/2_2.odb,Step-1,Increment      1: Step Time =    1.000,"PART-1-1",           639,       8.74802,       27.8391,            0.,NA,NA,"",       2.82640,      -2.81822,  -214.836E-03,   138.228E-06
C:/temp/dataset/9/2_2.odb,Step-1,Increment      1: Step Time =    1.000,"PART-1-1",           640,       11.0691,       22.4572,            0.,NA,NA,"",       2.44754,      -2.44724,  -38.5132E-03,   445.743E-06
C:/temp/dataset/9/2_2.odb,Step-1,Increment      1: Step Time =    1.000,"PART-1-1",           641,       11.1947,       19.9658,            0.,NA,NA,"",       2.27378,      -2.27366,  -23.3662E-03,   535.893E-06
C:/temp/dataset/9/2_2.odb,Step-1,Increment      1: Step Time =    1.000,"PART-1-1",           642,          3.75,           30.,            0.,NA,NA,"",       3.01135,      -2.95660,  -571.627E-03,   563.758E-06
C:/temp/dataset/9/2_2.odb,Step-1,Increment      1: Step Time =    1.000,"PART-1-1",           643,       6.12801,       21.9878,            0.,NA,NA,"",       2.43531,      -2.40520,  -381.742E-03,   1.61652E-03
C:/temp/dataset/9/2_2.odb,Step-1,Increment      1: Step Time =    1.000,"PART-1-1",           644,       7.06684,       23.0702,            0.,NA,NA,"",       2.50260,      -2.48214,  -319.326E-03,   1.10447E-03
C:/temp/dataset/9/2_2.odb,Step-1,Increment      1: Step Time =    1.000,"PART-1-1",           645,       4.97038,       22.7185,            0.,NA,NA,"",       2.49812,      -2.45419,  -466.457E-03,   1.61408E-03
C:/temp/dataset/9/2_2.odb,Step-1,Increment      1: Step Time =    1.000,"PART-1-1",           646,          3.75,           20.,            0.,NA,NA,"",       2.32680,      -2.26207,  -545.018E-03,   1.46732E-03
C:/temp/dataset/9/2_2.odb,Step-1,Increment      1: Step Time =    1.000,"PART-1-1",           647,       4.96897,       20.9583,            0.,NA,NA,"",       2.37677,      -2.33181,  -460.142E-03,   1.92821E-03
C:/temp/dataset/9/2_2.odb,Step-1,Increment      1: Step Time =    1.000,"PART-1-1",           648,       3.78616,       22.0655,            0.,NA,NA,"",       2.46876,      -2.40702,  -548.656E-03,   1.64432E-03
C:/temp/dataset/9/2_2.odb,Step-1,Increment      1: Step Time =    1.000,"PART-1-1",           649,           -5.,         13.75,            0.,NA,NA,"",       2.16974,      -1.85979,      -1.11755,   2.34469E-03
C:/temp/dataset/9/2_2.odb,Step-1,Increment      1: Step Time =    1.000,"PART-1-1",           650,      -7.15256,       14.0792,            0.,NA,NA,"",       2.26256,      -1.87865,      -1.26090,   1.71476E-03
C:/temp/dataset/9/2_2.odb,Step-1,Increment      1: Step Time =    1.000,"PART-1-1",           651,      -9.70164,       19.1500,            0.,NA,NA,"",       2.63592,      -2.20449,      -1.44508,   1.19955E-03
C:/temp/dataset/9/2_2.odb,Step-1,Increment      1: Step Time =    1.000,"PART-1-1",           652,      -9.13060,       21.5024,            0.,NA,NA,"",       2.75005,      -2.35776,      -1.41554,   1.50511E-03
C:/temp/dataset/9/2_2.odb,Step-1,Increment      1: Step Time =    1.000,"PART-1-1",           653,         -1.25,           -5.,            0.,NA,NA,"",   976.507E-03,  -593.935E-03,  -775.117E-03,   1.89944E-03
C:/temp/dataset/9/2_2.odb,Step-1,Increment      1: Step Time =    1.000,"PART-1-1",           654,      -1.47244,      -2.77860,            0.,NA,NA,"",       1.09193,  -748.789E-03,  -794.747E-03,   2.12512E-03
C:/temp/dataset/9/2_2.odb,Step-1,Increment      1: Step Time =    1.000,"PART-1-1",           655,      -9.96758,      -1.61086,            0.,NA,NA,"",       1.61669,  -806.094E-03,      -1.40139,   235.919E-06
C:/temp/dataset/9/2_2.odb,Step-1,Increment      1: Step Time =    1.000,"PART-1-1",           656,      -6.37223,      -3.07632,            0.,NA,NA,"",       1.34756,  -712.306E-03,      -1.14391,   696.338E-06
C:/temp/dataset/9/2_2.odb,Step-1,Increment      1: Step Time =    1.000,"PART-1-1",           657,         -6.25,           -5.,            0.,NA,NA,"",       1.26931,  -577.104E-03,      -1.13053,   115.228E-06
C:/temp/dataset/9/2_2.odb,Step-1,Increment      1: Step Time =    1.000,"PART-1-1",           658,         -3.75,            5.,            0.,NA,NA,"",       1.61195,      -1.28037,  -979.299E-03,   1.35329E-03
C:/temp/dataset/9/2_2.odb,Step-1,Increment      1: Step Time =    1.000,"PART-1-1",           659,      -5.11170,       4.23117,            0.,NA,NA,"",       1.62983,      -1.22216,      -1.07827,   3.03930E-03
C:/temp/dataset/9/2_2.odb,Step-1,Increment      1: Step Time =    1.000,"PART-1-1",           660,      -3.95473,       3.29190,            0.,NA,NA,"",       1.52355,      -1.15856,  -989.419E-03,   2.59271E-03
C:/temp/dataset/9/2_2.odb,Step-1,Increment      1: Step Time =    1.000,"PART-1-1",           661,          3.75,           -5.,            0.,NA,NA,"",   749.869E-03,  -622.288E-03,  -418.404E-03,   8.71813E-03
C:/temp/dataset/9/2_2.odb,Step-1,Increment      1: Step Time =    1.000,"PART-1-1",           662,       4.69008,      -3.66648,            0.,NA,NA,"",   798.314E-03,  -717.450E-03,  -350.101E-03,   9.33837E-03
C:/temp/dataset/9/2_2.odb,Step-1,Increment      1: Step Time =    1.000,"PART-1-1",           663,       4.69636,       3.71818,            0.,NA,NA,"",       1.25388,      -1.19153,  -390.461E-03,   4.05814E-03
C:/temp/dataset/9/2_2.odb,Step-1,Increment      1: Step Time =    1.000,"PART-1-1",           664,          3.75,            5.,            0.,NA,NA,"",       1.35342,      -1.27441,  -455.637E-03,   5.29154E-03
C:/temp/dataset/9/2_2.odb,Step-1,Increment      1: Step Time =    1.000,"PART-1-1",           665,       8.42013,       25.7200,            0.,NA,NA,"",       2.67955,      -2.66947,  -232.259E-03,   394.819E-06
C:/temp/dataset/9/2_2.odb,Step-1,Increment      1: Step Time =    1.000,"PART-1-1",           666,       7.55622,       27.1849,            0.,NA,NA,"",       2.78553,      -2.76967,  -296.817E-03,   357.800E-06
C:/temp/dataset/9/2_2.odb,Step-1,Increment      1: Step Time =    1.000,"PART-1-1",           667,       6.61388,       26.0906,            0.,NA,NA,"",       2.71523,      -2.69123,  -360.259E-03,   677.647E-06
C:/temp/dataset/9/2_2.odb,Step-1,Increment      1: Step Time =    1.000,"PART-1-1",           668,       10.0237,       13.5556,            0.,NA,NA,"",       1.83300,      -1.83096,  -86.3419E-03,   638.316E-06
C:/temp/dataset/9/2_2.odb,Step-1,Increment      1: Step Time =    1.000,"PART-1-1",           669,       8.80148,       12.2659,            0.,NA,NA,"",       1.74963,      -1.74193,  -163.994E-03,   1.11069E-03
C:/temp/dataset/9/2_2.odb,Step-1,Increment      1: Step Time =    1.000,"PART-1-1",           670,            5.,          6.25,            0.,NA,NA,"",       1.39926,      -1.34511,  -385.507E-03,   4.06703E-03
C:/temp/dataset/9/2_2.odb,Step-1,Increment      1: Step Time =    1.000,"PART-1-1",           671,       5.87545,       4.76801,            0.,NA,NA,"",       1.29581,      -1.25476,  -323.581E-03,   4.46404E-03
C:/temp/dataset/9/2_2.odb,Step-1,Increment      1: Step Time =    1.000,"PART-1-1",           672,       6.93940,       5.78737,            0.,NA,NA,"",       1.34312,      -1.31741,  -261.547E-03,   2.68413E-03
C:/temp/dataset/9/2_2.odb,Step-1,Increment      1: Step Time =    1.000,"PART-1-1",           673,       7.73520,       4.18036,            0.,NA,NA,"",       1.23320,      -1.21618,  -204.143E-03,   3.43578E-03
C:/temp/dataset/9/2_2.odb,Step-1,Increment      1: Step Time =    1.000,"PART-1-1",           674,       6.49581,       3.34316,            0.,NA,NA,"",       1.19696,      -1.16448,  -276.952E-03,   4.69004E-03
C:/temp/dataset/9/2_2.odb,Step-1,Increment      1: Step Time =    1.000,"PART-1-1",           675,       7.18979,       1.82766,            0.,NA,NA,"",       1.09046,      -1.06681,  -225.870E-03,   4.52128E-03
C:/temp/dataset/9/2_2.odb,Step-1,Increment      1: Step Time =    1.000,"PART-1-1",           676,       8.42918,       2.66485,            0.,NA,NA,"",       1.12995,      -1.11939,  -154.138E-03,   3.69889E-03
C:/temp/dataset/9/2_2.odb,Step-1,Increment      1: Step Time =    1.000,"PART-1-1",           677,  -530.051E-03,       1.39108,            0.,NA,NA,"",       1.27032,      -1.03515,  -736.324E-03,   2.42676E-03
C:/temp/dataset/9/2_2.odb,Step-1,Increment      1: Step Time =    1.000,"PART-1-1",           678,      -10.1792,       3.73358,            0.,NA,NA,"",       1.85377,      -1.17817,      -1.43122,   560.515E-06
C:/temp/dataset/9/2_2.odb,Step-1,Increment      1: Step Time =    1.000,"PART-1-1",           679,      -9.26781,       2.30942,            0.,NA,NA,"",       1.74037,      -1.08124,      -1.36375,   743.746E-06
C:/temp/dataset/9/2_2.odb,Step-1,Increment      1: Step Time =    1.000,"PART-1-1",           680,      -7.90097,       2.82902,            0.,NA,NA,"",       1.69342,      -1.12008,      -1.27007,   1.25339E-03
C:/temp/dataset/9/2_2.odb,Step-1,Increment      1: Step Time =    1.000,"PART-1-1",           681,      -2.90861,       2.25641,            0.,NA,NA,"",       1.41905,      -1.08908,  -909.727E-03,   2.55598E-03
C:/temp/dataset/9/2_2.odb,Step-1,Increment      1: Step Time =    1.000,"PART-1-1",           682,      -1.97153,   737.020E-03,            0.,NA,NA,"",       1.29508,  -987.463E-03,  -837.946E-03,   2.64565E-03
C:/temp/dataset/9/2_2.odb,Step-1,Increment      1: Step Time =    1.000,"PART-1-1",           683,      -12.0057,       8.33468,            0.,NA,NA,"",       2.16217,      -1.48842,      -1.56831,   276.806E-06
C:/temp/dataset/9/2_2.odb,Step-1,Increment      1: Step Time =    1.000,"PART-1-1",           684,   257.111E-03,       23.5381,            0.,NA,NA,"",       2.62724,      -2.50192,  -801.753E-03,   1.29713E-03
C:/temp/dataset/9/2_2.odb,Step-1,Increment      1: Step Time =    1.000,"PART-1-1",           685,       2.92443,       23.5127,            0.,NA,NA,"",       2.57941,      -2.50521,  -614.237E-03,   1.49478E-03
C:/temp/dataset/9/2_2.odb,Step-1,Increment      1: Step Time =    1.000,"PART-1-1",           686,  -872.814E-03,       24.6452,            0.,NA,NA,"",       2.72215,      -2.57492,  -883.100E-03,   1.05284E-03
C:/temp/dataset/9/2_2.odb,Step-1,Increment      1: Step Time =    1.000,"PART-1-1",           687,      -2.49287,       25.7554,            0.,NA,NA,"",       2.82837,      -2.64679,  -997.088E-03,   1.14428E-03
C:/temp/dataset/9/2_2.odb,Step-1,Increment      1: Step Time =    1.000,"PART-1-1",           688,      -6.57000,       23.0679,            0.,NA,NA,"",       2.76407,      -2.46237,      -1.25571,   2.14189E-03
C:/temp/dataset/9/2_2.odb,Step-1,Increment      1: Step Time =    1.000,"PART-1-1",           689,      -7.77911,       22.2181,            0.,NA,NA,"",       2.74915,      -2.40570,      -1.33056,   1.89982E-03
C:/temp/dataset/9/2_2.odb,Step-1,Increment      1: Step Time =    1.000,"PART-1-1",           690,      -6.08757,       21.5970,            0.,NA,NA,"",       2.66162,      -2.36604,      -1.21904,   2.41494E-03
C:/temp/dataset/9/2_2.odb,Step-1,Increment      1: Step Time =    1.000,"PART-1-1",           691,      -10.6596,       24.7502,            0.,NA,NA,"",       2.98599,      -2.56770,      -1.52416,   965.294E-06
C:/temp/dataset/9/2_2.odb,Step-1,Increment      1: Step Time =    1.000,"PART-1-1",           692,      -8.94190,       25.0911,            0.,NA,NA,"",       2.95385,      -2.59292,      -1.41491,   1.43969E-03
C:/temp/dataset/9/2_2.odb,Step-1,Increment      1: Step Time =    1.000,"PART-1-1",           693,      -9.30563,       26.3338,            0.,NA,NA,"",       3.03769,      -2.67381,      -1.44162,   1.22030E-03
C:/temp/dataset/9/2_2.odb,Step-1,Increment      1: Step Time =    1.000,"PART-1-1",           694,      -11.0233,       25.9928,            0.,NA,NA,"",       3.06876,      -2.64814,      -1.55069,   749.372E-06
C:/temp/dataset/9/2_2.odb,Step-1,Increment      1: Step Time =    1.000,"PART-1-1",           695,      -9.11986,       17.2561,            0.,NA,NA,"",       2.51014,      -2.08272,      -1.40109,   1.21239E-03
C:/temp/dataset/9/2_2.odb,Step-1,Increment      1: Step Time =    1.000,"PART-1-1",           696,      -11.0116,       7.65423,            0.,NA,NA,"",       2.08192,      -1.44470,      -1.49907,   487.884E-06
C:/temp/dataset/9/2_2.odb,Step-1,Increment      1: Step Time =    1.000,"PART-1-1",           697,      -11.6541,       6.30856,            0.,NA,NA,"",       2.04870,      -1.35179,      -1.53942,   213.790E-06
C:/temp/dataset/9/2_2.odb,Step-1,Increment      1: Step Time =    1.000,"PART-1-1",           698,      -3.46647,   792.949E-03,            0.,NA,NA,"",       1.36756,  -987.597E-03,  -945.981E-03,   2.48690E-03
C:/temp/dataset/9/2_2.odb,Step-1,Increment      1: Step Time =    1.000,"PART-1-1",           699,      -4.27899,       1.61468,            0.,NA,NA,"",       1.44942,      -1.04226,      -1.00722,   2.46991E-03
C:/temp/dataset/9/2_2.odb,Step-1,Increment      1: Step Time =    1.000,"PART-1-1",           700,      -5.41602,       1.03976,            0.,NA,NA,"",       1.47747,      -1.00038,      -1.08727,   2.02262E-03
C:/temp/dataset/9/2_2.odb,Step-1,Increment      1: Step Time =    1.000,"PART-1-1",           701,      -4.60351,   218.037E-03,            0.,NA,NA,"",       1.39543,  -945.476E-03,      -1.02630,   2.04626E-03
C:/temp/dataset/9/2_2.odb,Step-1,Increment      1: Step Time =    1.000,"PART-1-1",           702,      -1.96165,  -510.209E-03,            0.,NA,NA,"",       1.22914,  -902.631E-03,  -834.287E-03,   2.38984E-03
C:/temp/dataset/9/2_2.odb,Step-1,Increment      1: Step Time =    1.000,"PART-1-1",           703,      -2.89723,      -2.02996,            0.,NA,NA,"",       1.19974,  -795.449E-03,  -898.131E-03,   1.87781E-03
C:/temp/dataset/9/2_2.odb,Step-1,Increment      1: Step Time =    1.000,"PART-1-1",           704,       6.46823,      -3.22891,            0.,NA,NA,"",   782.859E-03,  -745.396E-03,  -239.278E-03,   6.08026E-03
C:/temp/dataset/9/2_2.odb,Step-1,Increment      1: Step Time =    1.000,"PART-1-1",           705,       5.30305,      -2.18626,            0.,NA,NA,"",   872.026E-03,  -811.150E-03,  -320.102E-03,   5.33748E-03
C:/temp/dataset/9/2_2.odb,Step-1,Increment      1: Step Time =    1.000,"PART-1-1",           706,       8.11637,      -13.0290,            0.,NA,NA,"",   304.291E-03,  -290.035E-03,  -92.0469E-03,   6.03364E-03
C:/temp/dataset/9/2_2.odb,Step-1,Increment      1: Step Time =    1.000,"PART-1-1",           707,       8.09759,      -10.8135,            0.,NA,NA,"",   388.221E-03,  -373.355E-03,  -106.405E-03,   6.05232E-03
C:/temp/dataset/9/2_2.odb,Step-1,Increment      1: Step Time =    1.000,"PART-1-1",           708,           15.,        -26.25,            0.,NA,NA,"",   37.3256E-03,  -18.7721E-03,   32.2616E-03,   10.1246E-03
C:/temp/dataset/9/2_2.odb,Step-1,Increment      1: Step Time =    1.000,"PART-1-1",           709,       13.6129,      -24.9005,            0.,NA,NA,"",   39.4299E-03,  -24.8673E-03,   30.5996E-03,   7.04522E-03
C:/temp/dataset/9/2_2.odb,Step-1,Increment      1: Step Time =    1.000,"PART-1-1",           710,       12.3352,      -26.1538,            0.,NA,NA,"",   16.9596E-03,  -10.7707E-03,   13.1004E-03,   4.11059E-03
C:/temp/dataset/9/2_2.odb,Step-1,Increment      1: Step Time =    1.000,"PART-1-1",           711,       11.5115,      -24.0900,            0.,NA,NA,"",   31.0223E-03,  -29.0543E-03,   10.8735E-03,   2.13397E-03
C:/temp/dataset/9/2_2.odb,Step-1,Increment      1: Step Time =    1.000,"PART-1-1",           712,       12.5793,      -23.4990,            0.,NA,NA,"",   46.0699E-03,  -38.0845E-03,   25.9230E-03,   4.68118E-03
C:/temp/dataset/9/2_2.odb,Step-1,Increment      1: Step Time =    1.000,"PART-1-1",           713,       11.9958,      -21.9645,            0.,NA,NA,"",   63.5275E-03,  -59.3529E-03,   22.6490E-03,   3.29208E-03
C:/temp/dataset/9/2_2.odb,Step-1,Increment      1: Step Time =    1.000,"PART-1-1",           714,           15.,        -23.75,            0.,NA,NA,"",   69.9572E-03,  -43.2288E-03,   55.0026E-03,   10.2888E-03
C:/temp/dataset/9/2_2.odb,Step-1,Increment      1: Step Time =    1.000,"PART-1-1",           715,       11.0775,      -9.24199,            0.,NA,NA,"",   439.872E-03,  -439.620E-03,   14.8882E-03,   1.54758E-03
C:/temp/dataset/9/2_2.odb,Step-1,Increment      1: Step Time =    1.000,"PART-1-1",           716,       10.0590,      -8.23408,            0.,NA,NA,"",   484.659E-03,  -483.629E-03,  -31.5689E-03,   966.438E-06
C:/temp/dataset/9/2_2.odb,Step-1,Increment      1: Step Time =    1.000,"PART-1-1",           717,       9.08966,      -9.54059,            0.,NA,NA,"",   430.885E-03,  -424.942E-03,  -71.3123E-03,   3.36491E-03
C:/temp/dataset/9/2_2.odb,Step-1,Increment      1: Step Time =    1.000,"PART-1-1",           718,           15.,         -1.25,            0.,NA,NA,"",   917.265E-03,  -884.734E-03,   242.118E-03,   6.25303E-03
C:/temp/dataset/9/2_2.odb,Step-1,Increment      1: Step Time =    1.000,"PART-1-1",           719,       12.7047,      -1.36075,            0.,NA,NA,"",   875.736E-03,  -869.163E-03,   107.096E-03,   4.16680E-03
C:/temp/dataset/9/2_2.odb,Step-1,Increment      1: Step Time =    1.000,"PART-1-1",           720,       10.4122,      -1.52824,            0.,NA,NA,"",   853.966E-03,  -853.670E-03,  -22.4834E-03,   3.75569E-03
C:/temp/dataset/9/2_2.odb,Step-1,Increment      1: Step Time =    1.000,"PART-1-1",           721,       11.7321,      -2.88547,            0.,NA,NA,"",   775.517E-03,  -773.787E-03,   51.7727E-03,   4.00431E-03
C:/temp/dataset/9/2_2.odb,Step-1,Increment      1: Step Time =    1.000,"PART-1-1",           722,       13.0447,       6.32641,            0.,NA,NA,"",       1.36602,      -1.36027,   125.238E-03,   1.29937E-03
C:/temp/dataset/9/2_2.odb,Step-1,Increment      1: Step Time =    1.000,"PART-1-1",           723,           15.,          6.25,            0.,NA,NA,"",       1.38376,      -1.36079,   251.074E-03,   2.14188E-03
C:/temp/dataset/9/2_2.odb,Step-1,Increment      1: Step Time =    1.000,"PART-1-1",           724,       12.2773,       7.44357,            0.,NA,NA,"",       1.43289,      -1.43096,   74.5030E-03,   786.383E-06
C:/temp/dataset/9/2_2.odb,Step-1,Increment      1: Step Time =    1.000,"PART-1-1",           725,       11.3989,       9.46443,            0.,NA,NA,"",       1.56126,      -1.56120,   14.0515E-03,   395.559E-06
C:/temp/dataset/9/2_2.odb,Step-1,Increment      1: Step Time =    1.000,"PART-1-1",           726,       10.0696,       10.6576,            0.,NA,NA,"",       1.63892,      -1.63717,  -75.6676E-03,   577.951E-06
C:/temp/dataset/9/2_2.odb,Step-1,Increment      1: Step Time =    1.000,"PART-1-1",           727,       11.2733,       12.2896,            0.,NA,NA,"",       1.74854,      -1.74854,   1.72143E-06,   382.490E-06
C:/temp/dataset/9/2_2.odb,Step-1,Increment      1: Step Time =    1.000,"PART-1-1",           728,       11.2495,       14.9235,            0.,NA,NA,"",       1.92638,      -1.92637,  -7.46203E-03,   417.117E-06
C:/temp/dataset/9/2_2.odb,Step-1,Increment      1: Step Time =    1.000,"PART-1-1",           729,       11.2365,       17.4638,            0.,NA,NA,"",       2.10042,      -2.10037,  -14.3186E-03,   486.312E-06
C:/temp/dataset/9/2_2.odb,Step-1,Increment      1: Step Time =    1.000,"PART-1-1",           730,       9.96430,       18.6935,            0.,NA,NA,"",       2.18502,      -2.18253,  -104.466E-03,   688.148E-06
C:/temp/dataset/9/2_2.odb,Step-1,Increment      1: Step Time =    1.000,"PART-1-1",           731,       8.12949,      -15.2371,            0.,NA,NA,"",   231.171E-03,  -217.424E-03,  -78.5298E-03,   5.95877E-03
C:/temp/dataset/9/2_2.odb,Step-1,Increment      1: Step Time =    1.000,"PART-1-1",           732,       10.9896,      -6.85237,            0.,NA,NA,"",   552.324E-03,  -552.204E-03,   11.5176E-03,   2.18583E-03
C:/temp/dataset/9/2_2.odb,Step-1,Increment      1: Step Time =    1.000,"PART-1-1",           733,       10.9332,      -25.1906,            0.,NA,NA,"",   17.3660E-03,  -17.0449E-03,   3.32426E-03,   798.232E-06
C:/temp/dataset/9/2_2.odb,Step-1,Increment      1: Step Time =    1.000,"PART-1-1",           734,       11.9281,      -5.46067,            0.,NA,NA,"",   630.421E-03,  -627.609E-03,   59.4708E-03,   3.98549E-03
C:/temp/dataset/9/2_2.odb,Step-1,Increment      1: Step Time =    1.000,"PART-1-1",           735,      -11.5697,       3.18107,            0.,NA,NA,"",       1.90261,      -1.13670,      -1.52572,   284.561E-06
C:/temp/dataset/9/2_2.odb,Step-1,Increment      1: Step Time =    1.000,"PART-1-1",           736,      -10.7341,       2.09613,            0.,NA,NA,"",       1.81016,      -1.06322,      -1.46500,   432.847E-06
C:/temp/dataset/9/2_2.odb,Step-1,Increment      1: Step Time =    1.000,"PART-1-1",           737,      -6.76822,       1.80268,            0.,NA,NA,"",       1.58484,      -1.05070,      -1.18649,   1.64044E-03
C:/temp/dataset/9/2_2.odb,Step-1,Increment      1: Step Time =    1.000,"PART-1-1",           738,      -5.32511,       2.65016,            0.,NA,NA,"",       1.55461,      -1.11186,      -1.08655,   2.52268E-03
C:/temp/dataset/9/2_2.odb,Step-1,Increment      1: Step Time =    1.000,"PART-1-1",           739,      -6.45786,       3.67650,            0.,NA,NA,"",       1.66414,      -1.18159,      -1.17184,   2.11854E-03
C:/temp/dataset/9/2_2.odb,Step-1,Increment      1: Step Time =    1.000,"PART-1-1",           740,      -10.1618,       27.4009,            0.,NA,NA,"",       3.12456,      -2.74164,      -1.49877,   753.717E-06
C:/temp/dataset/9/2_2.odb,Step-1,Increment      1: Step Time =    1.000,"PART-1-1",           741,      -8.15950,       27.0742,            0.,NA,NA,"",       3.04993,      -2.72462,      -1.37059,   1.55829E-03
C:/temp/dataset/9/2_2.odb,Step-1,Increment      1: Step Time =    1.000,"PART-1-1",           742,      -8.41457,       23.7439,            0.,NA,NA,"",       2.85854,      -2.50510,      -1.37685,   1.68751E-03
C:/temp/dataset/9/2_2.odb,Step-1,Increment      1: Step Time =    1.000,"PART-1-1",           743,      -9.76606,       23.0282,            0.,NA,NA,"",       2.85845,      -2.45651,      -1.46161,   1.25649E-03
C:/temp/dataset/9/2_2.odb,Step-1,Increment      1: Step Time =    1.000,"PART-1-1",           744,      -10.1457,       6.57799,            0.,NA,NA,"",       1.98794,      -1.37361,      -1.43704,   683.954E-06
C:/temp/dataset/9/2_2.odb,Step-1,Increment      1: Step Time =    1.000,"PART-1-1",           745,      -11.1466,       5.19230,            0.,NA,NA,"",       1.97105,      -1.27655,      -1.50182,   304.979E-06
C:/temp/dataset/9/2_2.odb,Step-1,Increment      1: Step Time =    1.000,"PART-1-1",           746,       7.77017,   782.991E-03,            0.,NA,NA,"",       1.01624,  -999.252E-03,  -185.053E-03,   4.56594E-03
C:/temp/dataset/9/2_2.odb,Step-1,Increment      1: Step Time =    1.000,"PART-1-1",           747,       6.09501,       1.10589,            0.,NA,NA,"",       1.06175,      -1.02151,  -289.547E-03,   4.52877E-03
C:/temp/dataset/9/2_2.odb,Step-1,Increment      1: Step Time =    1.000,"PART-1-1",           748,       6.67539,   61.2235E-03,            0.,NA,NA,"",   985.434E-03,  -953.795E-03,  -247.700E-03,   4.59887E-03
C:/temp/dataset/9/2_2.odb,Step-1,Increment      1: Step Time =    1.000,"PART-1-1",           749,       5.31672,       2.29333,            0.,NA,NA,"",       1.15157,      -1.09882,  -344.553E-03,   4.16463E-03
C:/temp/dataset/9/2_2.odb,Step-1,Increment      1: Step Time =    1.000,"PART-1-1",           750,      -6.94695,       24.4689,            0.,NA,NA,"",       2.85959,      -2.55463,      -1.28496,   1.94024E-03
C:/temp/dataset/9/2_2.odb,Step-1,Increment      1: Step Time =    1.000,"PART-1-1",           751,      -2.09966,       23.3616,            0.,NA,NA,"",       2.66638,      -2.48642,  -962.971E-03,   1.19689E-03
C:/temp/dataset/9/2_2.odb,Step-1,Increment      1: Step Time =    1.000,"PART-1-1",           752,      -2.87591,       24.2478,            0.,NA,NA,"",       2.74091,      -2.54487,      -1.01798,   1.13265E-03
C:/temp/dataset/9/2_2.odb,Step-1,Increment      1: Step Time =    1.000,"PART-1-1",           753,       9.53974,       23.7363,            0.,NA,NA,"",       2.53770,      -2.53336,  -148.365E-03,   504.512E-06
C:/temp/dataset/9/2_2.odb,Step-1,Increment      1: Step Time =    1.000,"PART-1-1",           754,      -5.22075,      -2.25347,            0.,NA,NA,"",       1.31504,  -772.910E-03,      -1.06393,   1.20186E-03
C:/temp/dataset/9/2_2.odb,Step-1,Increment      1: Step Time =    1.000,"PART-1-1",           755,      -7.55915,      -2.11026,            0.,NA,NA,"",       1.45525,  -776.859E-03,      -1.23054,   593.047E-06
C:/temp/dataset/9/2_2.odb,Step-1,Increment      1: Step Time =    1.000,"PART-1-1",           756,      -4.20325,      -1.24540,            0.,NA,NA,"",       1.30473,  -845.633E-03,  -993.598E-03,   1.79573E-03
C:/temp/dataset/9/2_2.odb,Step-1,Increment      1: Step Time =    1.000,"PART-1-1",           757,       12.0426,       5.30937,            0.,NA,NA,"",       1.29369,      -1.29217,   62.6987E-03,   977.610E-06
C:/temp/dataset/9/2_2.odb,Step-1,Increment      1: Step Time =    1.000,"PART-1-1",           758,      -8.17645,       12.8481,            0.,NA,NA,"",       2.23168,      -1.79622,      -1.32438,   1.50075E-03
C:/temp/dataset/9/2_2.odb,Step-1,Increment      1: Step Time =    1.000,"PART-1-1",           759,      -8.09554,       10.3784,            0.,NA,NA,"",       2.09358,      -1.63293,      -1.31020,   1.62566E-03
C:/temp/dataset/9/2_2.odb,Step-1,Increment      1: Step Time =    1.000,"PART-1-1",           760,      -8.33007,       15.6293,            0.,NA,NA,"",       2.39158,      -1.97823,      -1.34398,   1.34506E-03
C:/temp/dataset/9/2_2.odb,Step-1,Increment      1: Step Time =    1.000,"PART-1-1",           761,       12.1122,      -19.7356,            0.,NA,NA,"",   105.741E-03,  -100.997E-03,   31.3175E-03,   3.59898E-03
C:/temp/dataset/9/2_2.odb,Step-1,Increment      1: Step Time =    1.000,"PART-1-1",           762,       12.1388,      -17.4254,            0.,NA,NA,"",   160.123E-03,  -155.332E-03,   38.8749E-03,   3.69842E-03
C:/temp/dataset/9/2_2.odb,Step-1,Increment      1: Step Time =    1.000,"PART-1-1",           763,       12.0361,      -7.90801,            0.,NA,NA,"",   506.940E-03,  -503.386E-03,   59.9295E-03,   3.81264E-03
C:/temp/dataset/9/2_2.odb,Step-1,Increment      1: Step Time =    1.000,"PART-1-1",           764,       12.0837,      -10.3075,            0.,NA,NA,"",   400.032E-03,  -396.033E-03,   56.4170E-03,   3.70670E-03
C:/temp/dataset/9/2_2.odb,Step-1,Increment      1: Step Time =    1.000,"PART-1-1",           765,       12.1118,      -12.6921,            0.,NA,NA,"",   307.151E-03,  -302.815E-03,   51.4251E-03,   3.69474E-03
C:/temp/dataset/9/2_2.odb,Step-1,Increment      1: Step Time =    1.000,"PART-1-1",           766,       12.1357,      -15.0700,            0.,NA,NA,"",   227.231E-03,  -222.594E-03,   45.6708E-03,   3.72102E-03
C:/temp/dataset/9/2_2.odb,Step-1,Increment      1: Step Time =    1.000,"PART-1-1",           767,      -8.71328,  -792.246E-03,            0.,NA,NA,"",       1.57516,  -866.211E-03,      -1.31560,   513.420E-06
C:/temp/dataset/9/2_2.odb,Step-1,Increment      1: Step Time =    1.000,"PART-1-1",           768,      -7.47429,       25.8162,            0.,NA,NA,"",       2.95574,      -2.64300,      -1.32323,   1.76061E-03
C:/temp/dataset/9/2_2.odb,Step-1,Increment      1: Step Time =    1.000,"PART-1-1",           769,       9.13729,   756.201E-03,            0.,NA,NA,"",       1.00240,  -997.074E-03,  -103.177E-03,   3.87451E-03
C:/temp/dataset/9/2_2.odb,Step-1,Increment      1: Step Time =    1.000,"PART-1-1",           770,       7.76646,  -679.521E-03,            0.,NA,NA,"",   922.950E-03,  -905.689E-03,  -177.659E-03,   4.84566E-03
C:/temp/dataset/9/2_2.odb,Step-1,Increment      1: Step Time =    1.000,"PART-1-1",           771,       9.13358,  -706.311E-03,            0.,NA,NA,"",   909.243E-03,  -903.977E-03,  -97.7172E-03,   4.27708E-03
C:/temp/dataset/9/2_2.odb,Step-1,Increment      1: Step Time =    1.000,"PART-1-1",           772,       7.17869,      -1.72980,            0.,NA,NA,"",   864.276E-03,  -839.192E-03,  -206.714E-03,   5.25830E-03
C:/temp/dataset/9/2_2.odb,Step-1,Increment      1: Step Time =    1.000,"PART-1-1",           773,       6.08762,  -989.051E-03,            0.,NA,NA,"",   929.392E-03,  -886.877E-03,  -277.881E-03,   5.10840E-03
C:/temp/dataset/9/2_2.odb,Step-1,Increment      1: Step Time =    1.000,"PART-1-1",           774,       8.06590,       24.5744,            0.,NA,NA,"",       2.60124,      -2.58882,  -253.859E-03,   667.317E-06
C:/temp/dataset/9/2_2.odb,Step-1,Increment      1: Step Time =    1.000,"PART-1-1",           775,       7.69641,      -4.07963,            0.,NA,NA,"",   714.569E-03,  -695.474E-03,  -164.087E-03,   4.62154E-03
C:/temp/dataset/9/2_2.odb,Step-1,Increment      1: Step Time =    1.000,"PART-1-1",           776,       8.40687,      -2.58051,            0.,NA,NA,"",   797.299E-03,  -786.360E-03,  -131.621E-03,   4.55131E-03
C:/temp/dataset/9/2_2.odb,Step-1,Increment      1: Step Time =    1.000,"PART-1-1",           777,      -9.00797,   684.990E-03,            0.,NA,NA,"",       1.65393,  -968.626E-03,      -1.34062,   709.323E-06
C:/temp/dataset/9/2_2.odb,Step-1,Increment      1: Step Time =    1.000,"PART-1-1",           778,       5.05143,   63.4436E-03,            0.,NA,NA,"",       1.01703,  -954.917E-03,  -349.989E-03,   3.74165E-03
C:/temp/dataset/9/2_2.odb,Step-1,Increment      1: Step Time =    1.000,"PART-1-1",           779,      -3.45659,  -454.281E-03,            0.,NA,NA,"",       1.30428,  -902.149E-03,  -941.953E-03,   2.19830E-03
C:/temp/dataset/9/2_2.odb,Step-1,Increment      1: Step Time =    1.000,"PART-1-1",           780,      -7.58605,   993.377E-03,            0.,NA,NA,"",       1.58983,  -992.986E-03,      -1.24159,   1.15892E-03
