ODB Name,Step,Frame,Part Instance Name,    êﬂì_ÉâÉxÉã,X,Y,Z,Section Name,Material Name,Section Point,   U-Magnitude,          U-U1,          U-U2,       S-Mises
C:/temp/dataset/9/2_4.odb,Step-1,Increment      1: Step Time =    1.000,"PART-1-1",             1,            5.,           20.,            0.,NA,NA,"",       4.44124,      -4.32799,  -996.546E-03,   4.51823E-03
C:/temp/dataset/9/2_4.odb,Step-1,Increment      1: Step Time =    1.000,"PART-1-1",             2,            0.,           20.,            0.,NA,NA,"",       4.61649,      -4.29762,      -1.68595,   5.36210E-03
C:/temp/dataset/9/2_4.odb,Step-1,Increment      1: Step Time =    1.000,"PART-1-1",             3,            5.,          12.5,            0.,NA,NA,"",       3.45543,      -3.33780,  -893.945E-03,   5.78147E-03
C:/temp/dataset/9/2_4.odb,Step-1,Increment      1: Step Time =    1.000,"PART-1-1",             4,            5.,            5.,            0.,NA,NA,"",       2.53190,      -2.40683,  -785.929E-03,   9.89369E-03
C:/temp/dataset/9/2_4.odb,Step-1,Increment      1: Step Time =    1.000,"PART-1-1",             5,            0.,            5.,            0.,NA,NA,"",       2.80532,      -2.41115,      -1.43395,   7.19201E-03
C:/temp/dataset/9/2_4.odb,Step-1,Increment      1: Step Time =    1.000,"PART-1-1",             6,           -5.,            5.,            0.,NA,NA,"",       3.19894,      -2.37698,      -2.14084,   8.05435E-03
C:/temp/dataset/9/2_4.odb,Step-1,Increment      1: Step Time =    1.000,"PART-1-1",             7,           -5.,          12.5,            0.,NA,NA,"",       4.02975,      -3.34500,      -2.24719,   4.88394E-03
C:/temp/dataset/9/2_4.odb,Step-1,Increment      1: Step Time =    1.000,"PART-1-1",             8,           -5.,           20.,            0.,NA,NA,"",       4.88021,      -4.28416,      -2.33718,   5.36957E-03
C:/temp/dataset/9/2_4.odb,Step-1,Increment      1: Step Time =    1.000,"PART-1-1",             9,           15.,           30.,            0.,NA,NA,"",       5.77688,      -5.77097,   261.339E-03,   22.4085E-06
C:/temp/dataset/9/2_4.odb,Step-1,Increment      1: Step Time =    1.000,"PART-1-1",            10,           7.5,           30.,            0.,NA,NA,"",       5.75251,      -5.70241,  -757.547E-03,   118.103E-06
C:/temp/dataset/9/2_4.odb,Step-1,Increment      1: Step Time =    1.000,"PART-1-1",            11,            0.,           30.,            0.,NA,NA,"",       5.90120,      -5.62470,      -1.78517,   3.84581E-03
C:/temp/dataset/9/2_4.odb,Step-1,Increment      1: Step Time =    1.000,"PART-1-1",            12,          -7.5,           30.,            0.,NA,NA,"",       6.18230,      -5.53639,      -2.75121,   2.59471E-03
C:/temp/dataset/9/2_4.odb,Step-1,Increment      1: Step Time =    1.000,"PART-1-1",            13,          -15.,           30.,            0.,NA,NA,"",       6.59932,      -5.47818,      -3.67975,   23.8410E-06
C:/temp/dataset/9/2_4.odb,Step-1,Increment      1: Step Time =    1.000,"PART-1-1",            14,          -15.,         21.25,            0.,NA,NA,"",       5.67381,      -4.37846,      -3.60849,   733.371E-06
C:/temp/dataset/9/2_4.odb,Step-1,Increment      1: Step Time =    1.000,"PART-1-1",            15,          -15.,          12.5,            0.,NA,NA,"",       4.81738,      -3.26969,      -3.53783,   1.00802E-03
C:/temp/dataset/9/2_4.odb,Step-1,Increment      1: Step Time =    1.000,"PART-1-1",            16,          -15.,          3.75,            0.,NA,NA,"",       4.07047,      -2.12044,      -3.47455,   1.48470E-03
C:/temp/dataset/9/2_4.odb,Step-1,Increment      1: Step Time =    1.000,"PART-1-1",            17,          -15.,           -5.,            0.,NA,NA,"",       3.52471,  -934.301E-03,      -3.39862,   33.6511E-06
C:/temp/dataset/9/2_4.odb,Step-1,Increment      1: Step Time =    1.000,"PART-1-1",            18,          -10.,           -5.,            0.,NA,NA,"",       2.89059,  -979.610E-03,      -2.71953,   544.578E-06
C:/temp/dataset/9/2_4.odb,Step-1,Increment      1: Step Time =    1.000,"PART-1-1",            19,           -5.,           -5.,            0.,NA,NA,"",       2.27775,      -1.02593,      -2.03362,   791.730E-06
C:/temp/dataset/9/2_4.odb,Step-1,Increment      1: Step Time =    1.000,"PART-1-1",            20,            0.,           -5.,            0.,NA,NA,"",       1.72823,      -1.08636,      -1.34410,   4.54284E-03
C:/temp/dataset/9/2_4.odb,Step-1,Increment      1: Step Time =    1.000,"PART-1-1",            21,            5.,           -5.,            0.,NA,NA,"",       1.33861,      -1.18259,  -627.178E-03,   36.3393E-03
C:/temp/dataset/9/2_4.odb,Step-1,Increment      1: Step Time =    1.000,"PART-1-1",            22,            5.,        -11.25,            0.,NA,NA,"",   807.826E-03,  -677.854E-03,  -439.428E-03,   26.6210E-03
C:/temp/dataset/9/2_4.odb,Step-1,Increment      1: Step Time =    1.000,"PART-1-1",            23,            5.,         -17.5,            0.,NA,NA,"",   412.334E-03,  -302.655E-03,  -280.034E-03,   26.0266E-03
C:/temp/dataset/9/2_4.odb,Step-1,Increment      1: Step Time =    1.000,"PART-1-1",            24,            5.,        -23.75,            0.,NA,NA,"",   158.606E-03,  -86.6335E-03,  -132.855E-03,   24.8727E-03
C:/temp/dataset/9/2_4.odb,Step-1,Increment      1: Step Time =    1.000,"PART-1-1",            25,            5.,          -30.,            0.,NA,NA,"",            0.,  -6.86383E-39,  -13.4362E-39,   26.0952E-03
C:/temp/dataset/9/2_4.odb,Step-1,Increment      1: Step Time =    1.000,"PART-1-1",            26,           15.,          -30.,            0.,NA,NA,"",            0.,  -4.86907E-39,   9.24634E-39,   17.6445E-03
C:/temp/dataset/9/2_4.odb,Step-1,Increment      1: Step Time =    1.000,"PART-1-1",            27,           15.,         -22.5,            0.,NA,NA,"",   164.557E-03,  -109.439E-03,   122.890E-03,   19.7353E-03
C:/temp/dataset/9/2_4.odb,Step-1,Increment      1: Step Time =    1.000,"PART-1-1",            28,           15.,          -15.,            0.,NA,NA,"",   506.529E-03,  -439.318E-03,   252.134E-03,   20.8825E-03
C:/temp/dataset/9/2_4.odb,Step-1,Increment      1: Step Time =    1.000,"PART-1-1",            29,           15.,          -7.5,            0.,NA,NA,"",       1.08386,      -1.01738,   373.762E-03,   21.1655E-03
C:/temp/dataset/9/2_4.odb,Step-1,Increment      1: Step Time =    1.000,"PART-1-1",            30,           15.,            0.,            0.,NA,NA,"",       1.89574,      -1.84388,   440.394E-03,   10.2155E-03
C:/temp/dataset/9/2_4.odb,Step-1,Increment      1: Step Time =    1.000,"PART-1-1",            31,           15.,           7.5,            0.,NA,NA,"",       2.80768,      -2.77567,   422.727E-03,   3.97378E-03
C:/temp/dataset/9/2_4.odb,Step-1,Increment      1: Step Time =    1.000,"PART-1-1",            32,           15.,           15.,            0.,NA,NA,"",       3.76508,      -3.74547,   383.788E-03,   2.93030E-03
C:/temp/dataset/9/2_4.odb,Step-1,Increment      1: Step Time =    1.000,"PART-1-1",            33,           15.,          22.5,            0.,NA,NA,"",       4.76388,      -4.75251,   328.964E-03,   883.060E-06
C:/temp/dataset/9/2_4.odb,Step-1,Increment      1: Step Time =    1.000,"PART-1-1",            34,           2.5,           20.,            0.,NA,NA,"",       4.51535,      -4.31012,      -1.34583,   3.91112E-03
C:/temp/dataset/9/2_4.odb,Step-1,Increment      1: Step Time =    1.000,"PART-1-1",            35,            5.,           15.,            0.,NA,NA,"",       3.77900,      -3.66336,  -927.692E-03,   5.20448E-03
C:/temp/dataset/9/2_4.odb,Step-1,Increment      1: Step Time =    1.000,"PART-1-1",            36,            5.,          17.5,            0.,NA,NA,"",       4.10732,      -3.99337,  -960.786E-03,   5.08168E-03
C:/temp/dataset/9/2_4.odb,Step-1,Increment      1: Step Time =    1.000,"PART-1-1",            37,            5.,           7.5,            0.,NA,NA,"",       2.82721,      -2.70447,  -823.999E-03,   7.64630E-03
C:/temp/dataset/9/2_4.odb,Step-1,Increment      1: Step Time =    1.000,"PART-1-1",            38,            5.,           10.,            0.,NA,NA,"",       3.13763,      -3.01762,  -859.439E-03,   6.44357E-03
C:/temp/dataset/9/2_4.odb,Step-1,Increment      1: Step Time =    1.000,"PART-1-1",            39,           2.5,            5.,            0.,NA,NA,"",       2.65228,      -2.41412,      -1.09845,   10.2145E-03
C:/temp/dataset/9/2_4.odb,Step-1,Increment      1: Step Time =    1.000,"PART-1-1",            40,          -2.5,            5.,            0.,NA,NA,"",       2.98884,      -2.40000,      -1.78134,   4.44147E-03
C:/temp/dataset/9/2_4.odb,Step-1,Increment      1: Step Time =    1.000,"PART-1-1",            41,           -5.,           10.,            0.,NA,NA,"",       3.74883,      -3.02453,      -2.21493,   5.28185E-03
C:/temp/dataset/9/2_4.odb,Step-1,Increment      1: Step Time =    1.000,"PART-1-1",            42,           -5.,           7.5,            0.,NA,NA,"",       3.47223,      -2.70136,      -2.18152,   6.30215E-03
C:/temp/dataset/9/2_4.odb,Step-1,Increment      1: Step Time =    1.000,"PART-1-1",            43,           -5.,          17.5,            0.,NA,NA,"",       4.59793,      -3.97678,      -2.30786,   4.39967E-03
C:/temp/dataset/9/2_4.odb,Step-1,Increment      1: Step Time =    1.000,"PART-1-1",            44,           -5.,           15.,            0.,NA,NA,"",       4.31316,      -3.66250,      -2.27804,   4.45254E-03
C:/temp/dataset/9/2_4.odb,Step-1,Increment      1: Step Time =    1.000,"PART-1-1",            45,          -2.5,           20.,            0.,NA,NA,"",       4.73978,      -4.28875,      -2.01796,   6.34904E-03
C:/temp/dataset/9/2_4.odb,Step-1,Increment      1: Step Time =    1.000,"PART-1-1",            46,          12.5,           30.,            0.,NA,NA,"",       5.74840,      -5.74787,  -77.9330E-03,   79.9508E-06
C:/temp/dataset/9/2_4.odb,Step-1,Increment      1: Step Time =    1.000,"PART-1-1",            47,           10.,           30.,            0.,NA,NA,"",       5.74034,      -5.72515,  -417.311E-03,   249.123E-06
C:/temp/dataset/9/2_4.odb,Step-1,Increment      1: Step Time =    1.000,"PART-1-1",            48,            5.,           30.,            0.,NA,NA,"",       5.78402,      -5.67867,      -1.09888,   554.404E-06
C:/temp/dataset/9/2_4.odb,Step-1,Increment      1: Step Time =    1.000,"PART-1-1",            49,           2.5,           30.,            0.,NA,NA,"",       5.83339,      -5.65270,      -1.44063,   1.75323E-03
C:/temp/dataset/9/2_4.odb,Step-1,Increment      1: Step Time =    1.000,"PART-1-1",            50,          -2.5,           30.,            0.,NA,NA,"",       5.98104,      -5.59191,      -2.12210,   5.43655E-03
C:/temp/dataset/9/2_4.odb,Step-1,Increment      1: Step Time =    1.000,"PART-1-1",            51,           -5.,           30.,            0.,NA,NA,"",       6.07554,      -5.56247,      -2.44359,   5.18612E-03
C:/temp/dataset/9/2_4.odb,Step-1,Increment      1: Step Time =    1.000,"PART-1-1",            52,          -10.,           30.,            0.,NA,NA,"",       6.30688,      -5.51701,      -3.05604,   633.148E-06
C:/temp/dataset/9/2_4.odb,Step-1,Increment      1: Step Time =    1.000,"PART-1-1",            53,         -12.5,           30.,            0.,NA,NA,"",       6.44673,      -5.49757,      -3.36704,   179.461E-06
C:/temp/dataset/9/2_4.odb,Step-1,Increment      1: Step Time =    1.000,"PART-1-1",            54,          -15.,       27.8125,            0.,NA,NA,"",       6.36397,      -5.20435,      -3.66263,   97.9126E-06
C:/temp/dataset/9/2_4.odb,Step-1,Increment      1: Step Time =    1.000,"PART-1-1",            55,          -15.,        25.625,            0.,NA,NA,"",       6.13111,      -4.92964,      -3.64543,   122.990E-06
C:/temp/dataset/9/2_4.odb,Step-1,Increment      1: Step Time =    1.000,"PART-1-1",            56,          -15.,       23.4375,            0.,NA,NA,"",       5.90069,      -4.65412,      -3.62730,   503.211E-06
C:/temp/dataset/9/2_4.odb,Step-1,Increment      1: Step Time =    1.000,"PART-1-1",            57,          -15.,       19.0625,            0.,NA,NA,"",       5.45151,      -4.10282,      -3.58968,   548.414E-06
C:/temp/dataset/9/2_4.odb,Step-1,Increment      1: Step Time =    1.000,"PART-1-1",            58,          -15.,        16.875,            0.,NA,NA,"",       5.23445,      -3.82670,      -3.57153,   77.0644E-06
C:/temp/dataset/9/2_4.odb,Step-1,Increment      1: Step Time =    1.000,"PART-1-1",            59,          -15.,       14.6875,            0.,NA,NA,"",       5.02296,      -3.54926,      -3.55427,   486.146E-06
C:/temp/dataset/9/2_4.odb,Step-1,Increment      1: Step Time =    1.000,"PART-1-1",            60,          -15.,       10.3125,            0.,NA,NA,"",       4.61833,      -2.98739,      -3.52200,   1.45344E-03
C:/temp/dataset/9/2_4.odb,Step-1,Increment      1: Step Time =    1.000,"PART-1-1",            61,          -15.,         8.125,            0.,NA,NA,"",       4.42669,      -2.70187,      -3.50649,   1.74497E-03
C:/temp/dataset/9/2_4.odb,Step-1,Increment      1: Step Time =    1.000,"PART-1-1",            62,          -15.,        5.9375,            0.,NA,NA,"",       4.24357,      -2.41282,      -3.49087,   1.73938E-03
C:/temp/dataset/9/2_4.odb,Step-1,Increment      1: Step Time =    1.000,"PART-1-1",            63,          -15.,        1.5625,            0.,NA,NA,"",       3.90945,      -1.82543,      -3.45710,   1.04090E-03
C:/temp/dataset/9/2_4.odb,Step-1,Increment      1: Step Time =    1.000,"PART-1-1",            64,          -15.,     -625.E-03,            0.,NA,NA,"",       3.76301,      -1.52880,      -3.43847,   559.639E-06
C:/temp/dataset/9/2_4.odb,Step-1,Increment      1: Step Time =    1.000,"PART-1-1",            65,          -15.,       -2.8125,            0.,NA,NA,"",       3.63387,      -1.23149,      -3.41884,   160.024E-06
C:/temp/dataset/9/2_4.odb,Step-1,Increment      1: Step Time =    1.000,"PART-1-1",            66,         -12.5,           -5.,            0.,NA,NA,"",       3.20557,  -957.330E-03,      -3.05928,   195.149E-06
C:/temp/dataset/9/2_4.odb,Step-1,Increment      1: Step Time =    1.000,"PART-1-1",            67,          -7.5,           -5.,            0.,NA,NA,"",       2.58025,      -1.00185,      -2.37782,   348.329E-06
C:/temp/dataset/9/2_4.odb,Step-1,Increment      1: Step Time =    1.000,"PART-1-1",            68,          -2.5,           -5.,            0.,NA,NA,"",       1.99042,      -1.05388,      -1.68853,   2.88698E-03
C:/temp/dataset/9/2_4.odb,Step-1,Increment      1: Step Time =    1.000,"PART-1-1",            69,           2.5,           -5.,            0.,NA,NA,"",       1.50288,      -1.12243,  -999.401E-03,   11.0194E-03
C:/temp/dataset/9/2_4.odb,Step-1,Increment      1: Step Time =    1.000,"PART-1-1",            70,            5.,      -7.08333,            0.,NA,NA,"",       1.15051,      -1.00982,  -551.297E-03,   32.3884E-03
C:/temp/dataset/9/2_4.odb,Step-1,Increment      1: Step Time =    1.000,"PART-1-1",            71,            5.,      -9.16667,            0.,NA,NA,"",   972.870E-03,  -837.343E-03,  -495.310E-03,   26.2510E-03
C:/temp/dataset/9/2_4.odb,Step-1,Increment      1: Step Time =    1.000,"PART-1-1",            72,            5.,      -13.3333,            0.,NA,NA,"",   659.066E-03,  -534.967E-03,  -384.938E-03,   26.3610E-03
C:/temp/dataset/9/2_4.odb,Step-1,Increment      1: Step Time =    1.000,"PART-1-1",            73,            5.,      -15.4167,            0.,NA,NA,"",   527.360E-03,  -409.892E-03,  -331.809E-03,   26.2675E-03
C:/temp/dataset/9/2_4.odb,Step-1,Increment      1: Step Time =    1.000,"PART-1-1",            74,            5.,      -19.5833,            0.,NA,NA,"",   313.334E-03,  -213.192E-03,  -229.624E-03,   25.7253E-03
C:/temp/dataset/9/2_4.odb,Step-1,Increment      1: Step Time =    1.000,"PART-1-1",            75,            5.,      -21.6667,            0.,NA,NA,"",   229.262E-03,  -141.261E-03,  -180.572E-03,   25.3232E-03
C:/temp/dataset/9/2_4.odb,Step-1,Increment      1: Step Time =    1.000,"PART-1-1",            76,            5.,      -25.8333,            0.,NA,NA,"",   99.4346E-03,  -48.3769E-03,  -86.8730E-03,   23.8270E-03
C:/temp/dataset/9/2_4.odb,Step-1,Increment      1: Step Time =    1.000,"PART-1-1",            77,            5.,      -27.9167,            0.,NA,NA,"",   49.8317E-03,  -24.7860E-03,  -43.2302E-03,   24.1717E-03
C:/temp/dataset/9/2_4.odb,Step-1,Increment      1: Step Time =    1.000,"PART-1-1",            78,           7.5,          -30.,            0.,NA,NA,"",            0.,   3.41309E-39,  -35.3417E-39,   10.4177E-03
C:/temp/dataset/9/2_4.odb,Step-1,Increment      1: Step Time =    1.000,"PART-1-1",            79,           10.,          -30.,            0.,NA,NA,"",            0.,   5.40336E-39,  -4.12459E-39,   5.40120E-03
C:/temp/dataset/9/2_4.odb,Step-1,Increment      1: Step Time =    1.000,"PART-1-1",            80,          12.5,          -30.,            0.,NA,NA,"",            0.,  -1.93629E-39,   14.7482E-39,   7.06815E-03
C:/temp/dataset/9/2_4.odb,Step-1,Increment      1: Step Time =    1.000,"PART-1-1",            81,           15.,         -27.5,            0.,NA,NA,"",   42.7673E-03,  -19.1870E-03,   38.2217E-03,   18.8241E-03
C:/temp/dataset/9/2_4.odb,Step-1,Increment      1: Step Time =    1.000,"PART-1-1",            82,           15.,          -25.,            0.,NA,NA,"",   95.2502E-03,  -51.7155E-03,   79.9882E-03,   19.1287E-03
C:/temp/dataset/9/2_4.odb,Step-1,Increment      1: Step Time =    1.000,"PART-1-1",            83,           15.,          -20.,            0.,NA,NA,"",   254.646E-03,  -192.928E-03,   166.202E-03,   20.0724E-03
C:/temp/dataset/9/2_4.odb,Step-1,Increment      1: Step Time =    1.000,"PART-1-1",            84,           15.,         -17.5,            0.,NA,NA,"",   368.085E-03,  -302.744E-03,   209.362E-03,   20.4804E-03
C:/temp/dataset/9/2_4.odb,Step-1,Increment      1: Step Time =    1.000,"PART-1-1",            85,           15.,         -12.5,            0.,NA,NA,"",   671.184E-03,  -603.258E-03,   294.224E-03,   21.3092E-03
C:/temp/dataset/9/2_4.odb,Step-1,Increment      1: Step Time =    1.000,"PART-1-1",            86,           15.,          -10.,            0.,NA,NA,"",   863.254E-03,  -795.520E-03,   335.195E-03,   21.6056E-03
C:/temp/dataset/9/2_4.odb,Step-1,Increment      1: Step Time =    1.000,"PART-1-1",            87,           15.,           -5.,            0.,NA,NA,"",       1.33272,      -1.26912,   406.781E-03,   18.9746E-03
C:/temp/dataset/9/2_4.odb,Step-1,Increment      1: Step Time =    1.000,"PART-1-1",            88,           15.,          -2.5,            0.,NA,NA,"",       1.60587,      -1.54727,   429.840E-03,   14.8847E-03
C:/temp/dataset/9/2_4.odb,Step-1,Increment      1: Step Time =    1.000,"PART-1-1",            89,           15.,           2.5,            0.,NA,NA,"",       2.19494,      -2.15037,   440.094E-03,   6.56504E-03
C:/temp/dataset/9/2_4.odb,Step-1,Increment      1: Step Time =    1.000,"PART-1-1",            90,           15.,            5.,            0.,NA,NA,"",       2.49919,      -2.46140,   432.966E-03,   4.63048E-03
C:/temp/dataset/9/2_4.odb,Step-1,Increment      1: Step Time =    1.000,"PART-1-1",            91,           15.,           10.,            0.,NA,NA,"",       3.12123,      -3.09404,   411.094E-03,   3.73034E-03
C:/temp/dataset/9/2_4.odb,Step-1,Increment      1: Step Time =    1.000,"PART-1-1",            92,           15.,          12.5,            0.,NA,NA,"",       3.44042,      -3.41730,   398.211E-03,   3.40691E-03
C:/temp/dataset/9/2_4.odb,Step-1,Increment      1: Step Time =    1.000,"PART-1-1",            93,           15.,          17.5,            0.,NA,NA,"",       4.09459,      -4.07806,   367.538E-03,   2.30596E-03
C:/temp/dataset/9/2_4.odb,Step-1,Increment      1: Step Time =    1.000,"PART-1-1",            94,           15.,           20.,            0.,NA,NA,"",       4.42795,      -4.41416,   349.244E-03,   1.57105E-03
C:/temp/dataset/9/2_4.odb,Step-1,Increment      1: Step Time =    1.000,"PART-1-1",            95,           15.,           25.,            0.,NA,NA,"",       5.10114,      -5.09188,   307.156E-03,   387.904E-06
C:/temp/dataset/9/2_4.odb,Step-1,Increment      1: Step Time =    1.000,"PART-1-1",            96,           15.,          27.5,            0.,NA,NA,"",       5.43896,      -5.43151,   284.455E-03,   86.0692E-06
C:/temp/dataset/9/2_4.odb,Step-1,Increment      1: Step Time =    1.000,"PART-1-1",            97,       7.09255,      -21.6558,            0.,NA,NA,"",   167.963E-03,  -123.143E-03,  -114.225E-03,   15.8640E-03
C:/temp/dataset/9/2_4.odb,Step-1,Increment      1: Step Time =    1.000,"PART-1-1",            98,       7.09346,      -17.4368,            0.,NA,NA,"",   338.864E-03,  -288.154E-03,  -178.314E-03,   16.2215E-03
C:/temp/dataset/9/2_4.odb,Step-1,Increment      1: Step Time =    1.000,"PART-1-1",            99,       7.15828,      -23.7452,            0.,NA,NA,"",   106.591E-03,  -67.6697E-03,  -82.3554E-03,   15.3833E-03
C:/temp/dataset/9/2_4.odb,Step-1,Increment      1: Step Time =    1.000,"PART-1-1",           100,       7.44609,      -27.8729,            0.,NA,NA,"",   24.2079E-03,  -6.40624E-03,  -23.3449E-03,   14.1922E-03
C:/temp/dataset/9/2_4.odb,Step-1,Increment      1: Step Time =    1.000,"PART-1-1",           101,       7.30780,      -25.7939,            0.,NA,NA,"",   58.8310E-03,  -29.1229E-03,  -51.1170E-03,   14.9883E-03
C:/temp/dataset/9/2_4.odb,Step-1,Increment      1: Step Time =    1.000,"PART-1-1",           102,       7.08258,      -10.9526,            0.,NA,NA,"",   743.229E-03,  -685.377E-03,  -287.484E-03,   16.6943E-03
C:/temp/dataset/9/2_4.odb,Step-1,Increment      1: Step Time =    1.000,"PART-1-1",           103,       7.09950,      -13.1236,            0.,NA,NA,"",   588.012E-03,  -532.899E-03,  -248.549E-03,   16.5456E-03
C:/temp/dataset/9/2_4.odb,Step-1,Increment      1: Step Time =    1.000,"PART-1-1",           104,       6.95448,      -6.62029,            0.,NA,NA,"",       1.11050,      -1.04437,  -377.499E-03,   17.5182E-03
C:/temp/dataset/9/2_4.odb,Step-1,Increment      1: Step Time =    1.000,"PART-1-1",           105,       7.04974,      -8.78764,            0.,NA,NA,"",   917.214E-03,  -855.602E-03,  -330.495E-03,   17.7887E-03
C:/temp/dataset/9/2_4.odb,Step-1,Increment      1: Step Time =    1.000,"PART-1-1",           106,       7.10540,      -15.2896,            0.,NA,NA,"",   452.968E-03,  -400.271E-03,  -212.044E-03,   16.3275E-03
C:/temp/dataset/9/2_4.odb,Step-1,Increment      1: Step Time =    1.000,"PART-1-1",           107,       7.08223,      -19.5608,            0.,NA,NA,"",   244.416E-03,  -196.049E-03,  -145.959E-03,   16.0899E-03
C:/temp/dataset/9/2_4.odb,Step-1,Increment      1: Step Time =    1.000,"PART-1-1",           108,      -11.8989,       25.3809,            0.,NA,NA,"",       5.90152,      -4.92284,      -3.25477,   1.18905E-03
C:/temp/dataset/9/2_4.odb,Step-1,Increment      1: Step Time =    1.000,"PART-1-1",           109,      -12.7134,       3.51066,            0.,NA,NA,"",       3.80495,      -2.10974,      -3.16649,   510.860E-06
C:/temp/dataset/9/2_4.odb,Step-1,Increment      1: Step Time =    1.000,"PART-1-1",           110,      -13.0834,       10.3867,            0.,NA,NA,"",       4.44984,      -3.01393,      -3.27373,   513.226E-06
C:/temp/dataset/9/2_4.odb,Step-1,Increment      1: Step Time =    1.000,"PART-1-1",           111,      -12.9355,       8.20912,            0.,NA,NA,"",       4.23507,      -2.73171,      -3.23629,   401.503E-06
C:/temp/dataset/9/2_4.odb,Step-1,Increment      1: Step Time =    1.000,"PART-1-1",           112,      -13.1801,       12.5484,            0.,NA,NA,"",       4.66377,      -3.29141,      -3.30415,   586.827E-06
C:/temp/dataset/9/2_4.odb,Step-1,Increment      1: Step Time =    1.000,"PART-1-1",           113,      -12.7454,       20.6010,            0.,NA,NA,"",       5.44237,      -4.31373,      -3.31830,   1.13796E-03
C:/temp/dataset/9/2_4.odb,Step-1,Increment      1: Step Time =    1.000,"PART-1-1",           114,      -13.1621,       18.5389,            0.,NA,NA,"",       5.25846,      -4.05101,      -3.35272,   990.035E-06
C:/temp/dataset/9/2_4.odb,Step-1,Increment      1: Step Time =    1.000,"PART-1-1",           115,      -12.3840,       22.8683,            0.,NA,NA,"",       5.65905,      -4.60210,      -3.29325,   1.25884E-03
C:/temp/dataset/9/2_4.odb,Step-1,Increment      1: Step Time =    1.000,"PART-1-1",           116,      -13.4658,       16.5948,            0.,NA,NA,"",       5.08469,      -3.80349,      -3.37455,   747.031E-06
C:/temp/dataset/9/2_4.odb,Step-1,Increment      1: Step Time =    1.000,"PART-1-1",           117,      -13.3466,       14.6489,            0.,NA,NA,"",       4.88206,      -3.55795,      -3.34298,   645.488E-06
C:/temp/dataset/9/2_4.odb,Step-1,Increment      1: Step Time =    1.000,"PART-1-1",           118,      -12.3609,       5.76892,            0.,NA,NA,"",       3.96080,      -2.41487,      -3.13948,   192.848E-06
C:/temp/dataset/9/2_4.odb,Step-1,Increment      1: Step Time =    1.000,"PART-1-1",           119,      -12.8583,       1.39410,            0.,NA,NA,"",       3.65403,      -1.82276,      -3.16694,   554.365E-06
C:/temp/dataset/9/2_4.odb,Step-1,Increment      1: Step Time =    1.000,"PART-1-1",           120,      -12.6304,  -685.754E-03,            0.,NA,NA,"",       3.47796,      -1.54268,      -3.11710,   519.006E-06
C:/temp/dataset/9/2_4.odb,Step-1,Increment      1: Step Time =    1.000,"PART-1-1",           121,   38.5673E-03,       27.2989,            0.,NA,NA,"",       5.54624,      -5.26152,      -1.75418,   3.37017E-03
C:/temp/dataset/9/2_4.odb,Step-1,Increment      1: Step Time =    1.000,"PART-1-1",           122,      -4.16985,       22.2766,            0.,NA,NA,"",       5.10111,      -4.57466,      -2.25694,   3.51207E-03
C:/temp/dataset/9/2_4.odb,Step-1,Increment      1: Step Time =    1.000,"PART-1-1",           123,      -7.85548,       28.0855,            0.,NA,NA,"",       5.98049,      -5.29606,      -2.77813,   3.55870E-03
C:/temp/dataset/9/2_4.odb,Step-1,Increment      1: Step Time =    1.000,"PART-1-1",           124,       9.92813,      -27.7267,            0.,NA,NA,"",   5.14832E-03,   818.414E-06,  -5.08285E-03,   2.94935E-03
C:/temp/dataset/9/2_4.odb,Step-1,Increment      1: Step Time =    1.000,"PART-1-1",           125,       13.1106,      -17.4438,            0.,NA,NA,"",   313.032E-03,  -289.674E-03,   118.651E-03,   11.7186E-03
C:/temp/dataset/9/2_4.odb,Step-1,Increment      1: Step Time =    1.000,"PART-1-1",           126,       12.8150,       2.64061,            0.,NA,NA,"",       2.15442,      -2.14721,   176.137E-03,   4.59504E-03
C:/temp/dataset/9/2_4.odb,Step-1,Increment      1: Step Time =    1.000,"PART-1-1",           127,       7.56819,       12.3225,            0.,NA,NA,"",       3.37782,      -3.33123,  -559.083E-03,   3.34053E-03
C:/temp/dataset/9/2_4.odb,Step-1,Increment      1: Step Time =    1.000,"PART-1-1",           128,       7.47113,       19.8748,            0.,NA,NA,"",       4.38031,      -4.33064,  -657.758E-03,   2.41509E-03
C:/temp/dataset/9/2_4.odb,Step-1,Increment      1: Step Time =    1.000,"PART-1-1",           129,       12.4223,       27.5153,            0.,NA,NA,"",       5.41013,      -5.40973,  -65.3792E-03,   240.000E-06
C:/temp/dataset/9/2_4.odb,Step-1,Increment      1: Step Time =    1.000,"PART-1-1",           130,       12.3750,       22.5091,            0.,NA,NA,"",       4.72927,      -4.72920,  -25.3686E-03,   772.935E-06
C:/temp/dataset/9/2_4.odb,Step-1,Increment      1: Step Time =    1.000,"PART-1-1",           131,       7.58839,       27.9970,            0.,NA,NA,"",       5.47931,      -5.43089,  -726.784E-03,   493.333E-06
C:/temp/dataset/9/2_4.odb,Step-1,Increment      1: Step Time =    1.000,"PART-1-1",           132,   199.805E-03,       22.3057,            0.,NA,NA,"",       4.90289,      -4.60475,      -1.68363,   2.96954E-03
C:/temp/dataset/9/2_4.odb,Step-1,Increment      1: Step Time =    1.000,"PART-1-1",           133,       12.6934,       9.82310,            0.,NA,NA,"",       3.05204,      -3.04974,   118.358E-03,   1.75483E-03
C:/temp/dataset/9/2_4.odb,Step-1,Increment      1: Step Time =    1.000,"PART-1-1",           134,      -7.14717,       12.7802,            0.,NA,NA,"",       4.20971,      -3.36697,      -2.52689,   3.58016E-03
C:/temp/dataset/9/2_4.odb,Step-1,Increment      1: Step Time =    1.000,"PART-1-1",           135,      -6.86178,       17.9412,            0.,NA,NA,"",       4.75954,      -4.02061,      -2.54714,   2.86259E-03
C:/temp/dataset/9/2_4.odb,Step-1,Increment      1: Step Time =    1.000,"PART-1-1",           136,      -2.68307,      -2.95682,            0.,NA,NA,"",       2.18327,      -1.33090,      -1.73071,   3.35950E-03
C:/temp/dataset/9/2_4.odb,Step-1,Increment      1: Step Time =    1.000,"PART-1-1",           137,      -7.59808,      -3.03341,            0.,NA,NA,"",       2.72388,      -1.26955,      -2.40993,   819.108E-06
C:/temp/dataset/9/2_4.odb,Step-1,Increment      1: Step Time =    1.000,"PART-1-1",           138,  -248.196E-03,       2.69947,            0.,NA,NA,"",       2.55046,      -2.10343,      -1.44236,   4.90645E-03
C:/temp/dataset/9/2_4.odb,Step-1,Increment      1: Step Time =    1.000,"PART-1-1",           139,       2.16631,      -2.47375,            0.,NA,NA,"",       1.80348,      -1.45520,      -1.06534,   9.50363E-03
C:/temp/dataset/9/2_4.odb,Step-1,Increment      1: Step Time =    1.000,"PART-1-1",           140,       4.39271,       2.43636,            0.,NA,NA,"",       2.25043,      -2.09298,  -826.949E-03,   6.57880E-03
C:/temp/dataset/9/2_4.odb,Step-1,Increment      1: Step Time =    1.000,"PART-1-1",           141,       12.9283,      -5.27800,            0.,NA,NA,"",       1.23078,      -1.21518,   195.352E-03,   11.0143E-03
C:/temp/dataset/9/2_4.odb,Step-1,Increment      1: Step Time =    1.000,"PART-1-1",           142,       13.0847,      -12.6172,            0.,NA,NA,"",   597.908E-03,  -576.090E-03,   160.046E-03,   11.9999E-03
C:/temp/dataset/9/2_4.odb,Step-1,Increment      1: Step Time =    1.000,"PART-1-1",           143,       12.4838,       17.4790,            0.,NA,NA,"",       4.05136,      -4.05122,   33.4794E-03,   1.14643E-03
C:/temp/dataset/9/2_4.odb,Step-1,Increment      1: Step Time =    1.000,"PART-1-1",           144,       2.63438,       22.2143,            0.,NA,NA,"",       4.80422,      -4.61036,      -1.35096,   3.02630E-03
C:/temp/dataset/9/2_4.odb,Step-1,Increment      1: Step Time =    1.000,"PART-1-1",           145,       7.54366,       14.9275,            0.,NA,NA,"",       3.71866,      -3.67123,  -592.035E-03,   3.12823E-03
C:/temp/dataset/9/2_4.odb,Step-1,Increment      1: Step Time =    1.000,"PART-1-1",           146,       7.50510,       17.4443,            0.,NA,NA,"",       4.05293,      -4.00435,  -625.625E-03,   2.63168E-03
C:/temp/dataset/9/2_4.odb,Step-1,Increment      1: Step Time =    1.000,"PART-1-1",           147,       7.12790,       7.03873,            0.,NA,NA,"",       2.71486,      -2.65764,  -554.454E-03,   3.79828E-03
C:/temp/dataset/9/2_4.odb,Step-1,Increment      1: Step Time =    1.000,"PART-1-1",           148,       7.48952,       9.64170,            0.,NA,NA,"",       3.03477,      -2.98659,  -538.659E-03,   3.66968E-03
C:/temp/dataset/9/2_4.odb,Step-1,Increment      1: Step Time =    1.000,"PART-1-1",           149,       2.16717,       2.56251,            0.,NA,NA,"",       2.37773,      -2.10051,      -1.11420,   4.61023E-03
C:/temp/dataset/9/2_4.odb,Step-1,Increment      1: Step Time =    1.000,"PART-1-1",           150,      -2.68606,       3.12146,            0.,NA,NA,"",       2.78844,      -2.14120,      -1.78624,   4.84550E-03
C:/temp/dataset/9/2_4.odb,Step-1,Increment      1: Step Time =    1.000,"PART-1-1",           151,      -7.08307,       10.2840,            0.,NA,NA,"",       3.93525,      -3.04767,      -2.48955,   4.01201E-03
C:/temp/dataset/9/2_4.odb,Step-1,Increment      1: Step Time =    1.000,"PART-1-1",           152,      -2.13928,       22.2031,            0.,NA,NA,"",       4.99199,      -4.57644,      -1.99404,   2.92966E-03
C:/temp/dataset/9/2_4.odb,Step-1,Increment      1: Step Time =    1.000,"PART-1-1",           153,       9.90766,       27.6812,            0.,NA,NA,"",       5.42468,      -5.40931,  -408.110E-03,   169.457E-06
C:/temp/dataset/9/2_4.odb,Step-1,Increment      1: Step Time =    1.000,"PART-1-1",           154,       5.18317,       27.8350,            0.,NA,NA,"",       5.48827,      -5.38609,      -1.05411,   1.25744E-03
C:/temp/dataset/9/2_4.odb,Step-1,Increment      1: Step Time =    1.000,"PART-1-1",           155,       2.70091,       27.4744,            0.,NA,NA,"",       5.49148,      -5.31236,      -1.39109,   2.41768E-03
C:/temp/dataset/9/2_4.odb,Step-1,Increment      1: Step Time =    1.000,"PART-1-1",           156,      -2.92570,       26.9909,            0.,NA,NA,"",       5.62031,      -5.19417,      -2.14674,   2.90828E-03
C:/temp/dataset/9/2_4.odb,Step-1,Increment      1: Step Time =    1.000,"PART-1-1",           157,      -5.52449,       27.7330,            0.,NA,NA,"",       5.82682,      -5.26938,      -2.48706,   3.84436E-03
C:/temp/dataset/9/2_4.odb,Step-1,Increment      1: Step Time =    1.000,"PART-1-1",           158,      -10.1759,       28.1970,            0.,NA,NA,"",       6.11401,      -5.29096,      -3.06380,   1.22417E-03
C:/temp/dataset/9/2_4.odb,Step-1,Increment      1: Step Time =    1.000,"PART-1-1",           159,      -7.15795,       15.3782,            0.,NA,NA,"",       4.49487,      -3.69654,      -2.55724,   3.28191E-03
C:/temp/dataset/9/2_4.odb,Step-1,Increment      1: Step Time =    1.000,"PART-1-1",           160,      -7.10855,       7.92361,            0.,NA,NA,"",       3.68718,      -2.74210,      -2.46499,   4.43401E-03
C:/temp/dataset/9/2_4.odb,Step-1,Increment      1: Step Time =    1.000,"PART-1-1",           161,      -7.31416,       5.72319,            0.,NA,NA,"",       3.47796,      -2.45240,      -2.46615,   2.82185E-03
C:/temp/dataset/9/2_4.odb,Step-1,Increment      1: Step Time =    1.000,"PART-1-1",           162,      -10.0288,      -2.82434,            0.,NA,NA,"",       3.02611,      -1.27557,      -2.74414,   248.903E-06
C:/temp/dataset/9/2_4.odb,Step-1,Increment      1: Step Time =    1.000,"PART-1-1",           163,      -5.14639,      -3.11924,            0.,NA,NA,"",       2.43568,      -1.28205,      -2.07096,   2.00086E-03
C:/temp/dataset/9/2_4.odb,Step-1,Increment      1: Step Time =    1.000,"PART-1-1",           164,  -261.821E-03,      -2.60038,            0.,NA,NA,"",       1.98491,      -1.40884,      -1.39822,   5.52880E-03
C:/temp/dataset/9/2_4.odb,Step-1,Increment      1: Step Time =    1.000,"PART-1-1",           165,       4.38015,      -2.33295,            0.,NA,NA,"",       1.68213,      -1.49823,  -764.770E-03,   10.3579E-03
C:/temp/dataset/9/2_4.odb,Step-1,Increment      1: Step Time =    1.000,"PART-1-1",           166,       13.0639,      -10.1924,            0.,NA,NA,"",   779.437E-03,  -758.876E-03,   177.845E-03,   12.0531E-03
C:/temp/dataset/9/2_4.odb,Step-1,Increment      1: Step Time =    1.000,"PART-1-1",           167,       13.0843,      -19.8267,            0.,NA,NA,"",   207.787E-03,  -184.758E-03,   95.0792E-03,   11.3814E-03
C:/temp/dataset/9/2_4.odb,Step-1,Increment      1: Step Time =    1.000,"PART-1-1",           168,       12.4446,      -27.5067,            0.,NA,NA,"",   16.7412E-03,  -4.83383E-03,   16.0281E-03,   8.51296E-03
C:/temp/dataset/9/2_4.odb,Step-1,Increment      1: Step Time =    1.000,"PART-1-1",           169,       12.9329,      -22.1971,            0.,NA,NA,"",   123.695E-03,  -103.279E-03,   68.0736E-03,   10.4106E-03
C:/temp/dataset/9/2_4.odb,Step-1,Increment      1: Step Time =    1.000,"PART-1-1",           170,       13.1086,      -15.0383,            0.,NA,NA,"",   442.783E-03,  -419.874E-03,   140.581E-03,   11.9257E-03
C:/temp/dataset/9/2_4.odb,Step-1,Increment      1: Step Time =    1.000,"PART-1-1",           171,       13.0208,      -7.75462,            0.,NA,NA,"",   989.174E-03,  -970.520E-03,   191.195E-03,   11.8130E-03
C:/temp/dataset/9/2_4.odb,Step-1,Increment      1: Step Time =    1.000,"PART-1-1",           172,       12.7756,      -2.70708,            0.,NA,NA,"",       1.50987,      -1.49845,   185.342E-03,   9.49541E-03
C:/temp/dataset/9/2_4.odb,Step-1,Increment      1: Step Time =    1.000,"PART-1-1",           173,       12.6338,  -14.4220E-03,            0.,NA,NA,"",       1.82580,      -1.81826,   165.799E-03,   7.24437E-03
C:/temp/dataset/9/2_4.odb,Step-1,Increment      1: Step Time =    1.000,"PART-1-1",           174,       13.0186,       5.13380,            0.,NA,NA,"",       2.46698,      -2.45982,   187.791E-03,   2.93651E-03
C:/temp/dataset/9/2_4.odb,Step-1,Increment      1: Step Time =    1.000,"PART-1-1",           175,       13.0709,       7.51902,            0.,NA,NA,"",       2.76600,      -2.76010,   180.572E-03,   2.34240E-03
C:/temp/dataset/9/2_4.odb,Step-1,Increment      1: Step Time =    1.000,"PART-1-1",           176,       12.5119,       12.3699,            0.,NA,NA,"",       3.37767,      -3.37679,   77.2653E-03,   1.40563E-03
C:/temp/dataset/9/2_4.odb,Step-1,Increment      1: Step Time =    1.000,"PART-1-1",           177,       12.4863,       14.9454,            0.,NA,NA,"",       3.71466,      -3.71427,   54.3381E-03,   1.23621E-03
C:/temp/dataset/9/2_4.odb,Step-1,Increment      1: Step Time =    1.000,"PART-1-1",           178,       12.4500,       19.9932,            0.,NA,NA,"",       4.38909,      -4.38908,   7.38493E-03,   1.03546E-03
C:/temp/dataset/9/2_4.odb,Step-1,Increment      1: Step Time =    1.000,"PART-1-1",           179,       9.19048,      -23.6482,            0.,NA,NA,"",   69.6864E-03,  -60.5256E-03,  -34.5376E-03,   6.51466E-03
C:/temp/dataset/9/2_4.odb,Step-1,Increment      1: Step Time =    1.000,"PART-1-1",           180,       9.11932,      -19.5624,            0.,NA,NA,"",   197.692E-03,  -187.384E-03,  -63.0040E-03,   6.79364E-03
C:/temp/dataset/9/2_4.odb,Step-1,Increment      1: Step Time =    1.000,"PART-1-1",           181,       9.13323,      -12.9344,            0.,NA,NA,"",   551.313E-03,  -539.702E-03,  -112.551E-03,   6.91779E-03
C:/temp/dataset/9/2_4.odb,Step-1,Increment      1: Step Time =    1.000,"PART-1-1",           182,       9.14303,      -17.4019,            0.,NA,NA,"",   292.312E-03,  -281.961E-03,  -77.0977E-03,   6.73596E-03
C:/temp/dataset/9/2_4.odb,Step-1,Increment      1: Step Time =    1.000,"PART-1-1",           183,       9.11260,      -10.6744,            0.,NA,NA,"",   714.927E-03,  -702.290E-03,  -133.826E-03,   6.98367E-03
C:/temp/dataset/9/2_4.odb,Step-1,Increment      1: Step Time =    1.000,"PART-1-1",           184,       9.06671,      -8.40676,            0.,NA,NA,"",   901.032E-03,  -886.952E-03,  -158.665E-03,   6.10481E-03
C:/temp/dataset/9/2_4.odb,Step-1,Increment      1: Step Time =    1.000,"PART-1-1",           185,       9.15359,      -15.1846,            0.,NA,NA,"",   410.051E-03,  -399.357E-03,  -93.0394E-03,   6.76469E-03
C:/temp/dataset/9/2_4.odb,Step-1,Increment      1: Step Time =    1.000,"PART-1-1",           186,       9.09437,      -21.6308,            0.,NA,NA,"",   125.278E-03,  -114.880E-03,  -49.9703E-03,   6.88430E-03
C:/temp/dataset/9/2_4.odb,Step-1,Increment      1: Step Time =    1.000,"PART-1-1",           187,       8.94944,      -6.10597,            0.,NA,NA,"",       1.11517,      -1.09896,  -189.436E-03,   5.14967E-03
C:/temp/dataset/9/2_4.odb,Step-1,Increment      1: Step Time =    1.000,"PART-1-1",           188,      -11.3189,       17.6054,            0.,NA,NA,"",       5.02540,      -3.94738,      -3.11012,   1.63377E-03
C:/temp/dataset/9/2_4.odb,Step-1,Increment      1: Step Time =    1.000,"PART-1-1",           189,      -10.4260,       2.85148,            0.,NA,NA,"",       3.50868,      -2.04141,      -2.85368,   1.05195E-03
C:/temp/dataset/9/2_4.odb,Step-1,Increment      1: Step Time =    1.000,"PART-1-1",           190,      -12.4413,       27.8959,            0.,NA,NA,"",       6.21142,      -5.23500,      -3.34313,   377.847E-06
C:/temp/dataset/9/2_4.odb,Step-1,Increment      1: Step Time =    1.000,"PART-1-1",           191,      -10.6658,       19.6683,            0.,NA,NA,"",       5.19776,      -4.21127,      -3.04662,   2.04845E-03
C:/temp/dataset/9/2_4.odb,Step-1,Increment      1: Step Time =    1.000,"PART-1-1",           192,      -12.1118,       16.4066,            0.,NA,NA,"",       4.96069,      -3.79028,      -3.20035,   1.26695E-03
C:/temp/dataset/9/2_4.odb,Step-1,Increment      1: Step Time =    1.000,"PART-1-1",           193,      -11.5166,       14.9043,            0.,NA,NA,"",       4.76148,      -3.60489,      -3.11071,   1.44277E-03
C:/temp/dataset/9/2_4.odb,Step-1,Increment      1: Step Time =    1.000,"PART-1-1",           194,      -11.2054,       12.7278,            0.,NA,NA,"",       4.51646,      -3.33039,      -3.05072,   1.45801E-03
C:/temp/dataset/9/2_4.odb,Step-1,Increment      1: Step Time =    1.000,"PART-1-1",           195,      -11.1139,       10.5020,            0.,NA,NA,"",       4.28755,      -3.04531,      -3.01814,   1.34229E-03
C:/temp/dataset/9/2_4.odb,Step-1,Increment      1: Step Time =    1.000,"PART-1-1",           196,      -9.42029,       24.1195,            0.,NA,NA,"",       5.60949,      -4.78084,      -2.93428,   2.72891E-03
C:/temp/dataset/9/2_4.odb,Step-1,Increment      1: Step Time =    1.000,"PART-1-1",           197,      -11.0759,       8.46025,            0.,NA,NA,"",       4.08612,      -2.78063,      -2.99406,   1.08582E-03
C:/temp/dataset/9/2_4.odb,Step-1,Increment      1: Step Time =    1.000,"PART-1-1",           198,      -10.9473,       6.84821,            0.,NA,NA,"",       3.92165,      -2.57027,      -2.96193,   828.229E-06
C:/temp/dataset/9/2_4.odb,Step-1,Increment      1: Step Time =    1.000,"PART-1-1",           199,       9.64075,      -25.5803,            0.,NA,NA,"",   27.6166E-03,  -22.7403E-03,  -15.6703E-03,   4.43608E-03
C:/temp/dataset/9/2_4.odb,Step-1,Increment      1: Step Time =    1.000,"PART-1-1",           200,       6.22595,      -2.03957,            0.,NA,NA,"",       1.63206,      -1.54214,  -534.251E-03,   12.2577E-03
C:/temp/dataset/9/2_4.odb,Step-1,Increment      1: Step Time =    1.000,"PART-1-1",           201,       6.24072,       2.15031,            0.,NA,NA,"",       2.14545,      -2.06067,  -597.166E-03,   9.61556E-03
C:/temp/dataset/9/2_4.odb,Step-1,Increment      1: Step Time =    1.000,"PART-1-1",           202,      -7.69234,       3.89067,            0.,NA,NA,"",       3.33020,      -2.20437,      -2.49619,   2.67101E-03
C:/temp/dataset/9/2_4.odb,Step-1,Increment      1: Step Time =    1.000,"PART-1-1",           203,       7.31807,       22.0589,            0.,NA,NA,"",       4.67874,      -4.62559,  -703.208E-03,   2.61740E-03
C:/temp/dataset/9/2_4.odb,Step-1,Increment      1: Step Time =    1.000,"PART-1-1",           204,      -6.44398,       20.4265,            0.,NA,NA,"",       5.01140,      -4.33090,      -2.52138,   4.94137E-03
C:/temp/dataset/9/2_4.odb,Step-1,Increment      1: Step Time =    1.000,"PART-1-1",           205,       12.2962,       25.0128,            0.,NA,NA,"",       5.06887,      -5.06852,  -59.2147E-03,   471.259E-06
C:/temp/dataset/9/2_4.odb,Step-1,Increment      1: Step Time =    1.000,"PART-1-1",           206,       12.2257,      -24.8009,            0.,NA,NA,"",   49.3667E-03,  -38.4402E-03,   30.9745E-03,   7.26152E-03
C:/temp/dataset/9/2_4.odb,Step-1,Increment      1: Step Time =    1.000,"PART-1-1",           207,      -2.06005,       24.5200,            0.,NA,NA,"",       5.27558,      -4.87885,      -2.00711,   2.02846E-03
C:/temp/dataset/9/2_4.odb,Step-1,Increment      1: Step Time =    1.000,"PART-1-1",           208,       9.31619,       25.0673,            0.,NA,NA,"",       5.07059,      -5.04937,  -463.328E-03,   779.785E-06
C:/temp/dataset/9/2_4.odb,Step-1,Increment      1: Step Time =    1.000,"PART-1-1",           209,       3.21447,       24.8112,            0.,NA,NA,"",       5.12811,      -4.96154,      -1.29639,   2.98123E-03
C:/temp/dataset/9/2_4.odb,Step-1,Increment      1: Step Time =    1.000,"PART-1-1",           210,      -7.52022,      -1.18711,            0.,NA,NA,"",       2.85571,      -1.52076,      -2.41709,   1.57039E-03
C:/temp/dataset/9/2_4.odb,Step-1,Increment      1: Step Time =    1.000,"PART-1-1",           211,       10.0127,       14.9017,            0.,NA,NA,"",       3.69684,      -3.68707,  -268.610E-03,   1.30512E-03
C:/temp/dataset/9/2_4.odb,Step-1,Increment      1: Step Time =    1.000,"PART-1-1",           212,       10.7293,       3.02357,            0.,NA,NA,"",       2.18167,      -2.18042,  -73.9054E-03,   4.28823E-03
C:/temp/dataset/9/2_4.odb,Step-1,Increment      1: Step Time =    1.000,"PART-1-1",           213,       11.4837,       7.36813,            0.,NA,NA,"",       2.72782,      -2.72777,  -16.6270E-03,   1.01343E-03
C:/temp/dataset/9/2_4.odb,Step-1,Increment      1: Step Time =    1.000,"PART-1-1",           214,      -9.20573,       12.9161,            0.,NA,NA,"",       4.37743,      -3.36972,      -2.79408,   2.45376E-03
C:/temp/dataset/9/2_4.odb,Step-1,Increment      1: Step Time =    1.000,"PART-1-1",           215,   314.418E-03,       24.7704,            0.,NA,NA,"",       5.21284,      -4.93048,      -1.69238,   2.59638E-03
C:/temp/dataset/9/2_4.odb,Step-1,Increment      1: Step Time =    1.000,"PART-1-1",           216,       7.52406,       26.3727,            0.,NA,NA,"",       5.25983,      -5.21030,  -720.149E-03,   955.904E-06
C:/temp/dataset/9/2_4.odb,Step-1,Increment      1: Step Time =    1.000,"PART-1-1",           217,  -811.906E-03,   82.6841E-03,            0.,NA,NA,"",       2.30682,      -1.75606,      -1.49588,   5.18908E-03
C:/temp/dataset/9/2_4.odb,Step-1,Increment      1: Step Time =    1.000,"PART-1-1",           218,       11.1400,      -19.6444,            0.,NA,NA,"",   185.118E-03,  -184.136E-03,   19.0437E-03,   2.56740E-03
C:/temp/dataset/9/2_4.odb,Step-1,Increment      1: Step Time =    1.000,"PART-1-1",           219,       11.1036,      -10.4226,            0.,NA,NA,"",   727.464E-03,  -727.148E-03,   21.4340E-03,   2.83251E-03
C:/temp/dataset/9/2_4.odb,Step-1,Increment      1: Step Time =    1.000,"PART-1-1",           220,       10.9280,      -5.64335,            0.,NA,NA,"",       1.15956,      -1.15956,  -363.230E-06,   5.60460E-03
C:/temp/dataset/9/2_4.odb,Step-1,Increment      1: Step Time =    1.000,"PART-1-1",           221,       11.0667,       5.48495,            0.,NA,NA,"",       2.48927,      -2.48869,  -53.7007E-03,   1.76011E-03
C:/temp/dataset/9/2_4.odb,Step-1,Increment      1: Step Time =    1.000,"PART-1-1",           222,       11.1390,      -12.7671,            0.,NA,NA,"",   554.891E-03,  -554.339E-03,   24.7310E-03,   2.71371E-03
C:/temp/dataset/9/2_4.odb,Step-1,Increment      1: Step Time =    1.000,"PART-1-1",           223,       11.1627,      -15.1016,            0.,NA,NA,"",   406.942E-03,  -406.154E-03,   25.3234E-03,   2.78006E-03
C:/temp/dataset/9/2_4.odb,Step-1,Increment      1: Step Time =    1.000,"PART-1-1",           224,      -9.10801,       10.4728,            0.,NA,NA,"",       4.11620,      -3.05737,      -2.75601,   2.53392E-03
C:/temp/dataset/9/2_4.odb,Step-1,Increment      1: Step Time =    1.000,"PART-1-1",           225,      -9.12162,       8.28854,            0.,NA,NA,"",       3.89575,      -2.77444,      -2.73484,   2.32019E-03
C:/temp/dataset/9/2_4.odb,Step-1,Increment      1: Step Time =    1.000,"PART-1-1",           226,      -8.73753,       18.6317,            0.,NA,NA,"",       4.95561,      -4.09433,      -2.79187,   2.75128E-03
C:/temp/dataset/9/2_4.odb,Step-1,Increment      1: Step Time =    1.000,"PART-1-1",           227,      -9.90634,  -397.381E-03,            0.,NA,NA,"",       3.18565,      -1.60642,      -2.75096,   702.417E-06
C:/temp/dataset/9/2_4.odb,Step-1,Increment      1: Step Time =    1.000,"PART-1-1",           228,       9.93939,       19.9385,            0.,NA,NA,"",       4.37184,      -4.35955,  -327.496E-03,   1.48583E-03
C:/temp/dataset/9/2_4.odb,Step-1,Increment      1: Step Time =    1.000,"PART-1-1",           229,       5.70370,       25.8085,            0.,NA,NA,"",       5.20767,      -5.11771,  -963.792E-03,   1.81605E-03
C:/temp/dataset/9/2_4.odb,Step-1,Increment      1: Step Time =    1.000,"PART-1-1",           230,       10.0348,       12.2094,            0.,NA,NA,"",       3.34361,      -3.33496,  -240.378E-03,   1.25452E-03
C:/temp/dataset/9/2_4.odb,Step-1,Increment      1: Step Time =    1.000,"PART-1-1",           231,       9.98921,       17.4486,            0.,NA,NA,"",       4.03601,      -4.02512,  -296.293E-03,   1.30902E-03
C:/temp/dataset/9/2_4.odb,Step-1,Increment      1: Step Time =    1.000,"PART-1-1",           232,       10.1044,       9.10575,            0.,NA,NA,"",       2.94397,      -2.93692,  -203.561E-03,   1.04119E-03
C:/temp/dataset/9/2_4.odb,Step-1,Increment      1: Step Time =    1.000,"PART-1-1",           233,      -3.11139,      -1.10310,            0.,NA,NA,"",       2.39625,      -1.57484,      -1.80608,   4.36216E-03
C:/temp/dataset/9/2_4.odb,Step-1,Increment      1: Step Time =    1.000,"PART-1-1",           234,      -6.48507,       25.5695,            0.,NA,NA,"",       5.61488,      -4.98495,      -2.58403,   3.90078E-03
C:/temp/dataset/9/2_4.odb,Step-1,Increment      1: Step Time =    1.000,"PART-1-1",           235,      -4.76537,       24.8732,            0.,NA,NA,"",       5.44447,      -4.90627,      -2.36024,   3.40248E-03
C:/temp/dataset/9/2_4.odb,Step-1,Increment      1: Step Time =    1.000,"PART-1-1",           236,      -8.46351,       26.0628,            0.,NA,NA,"",       5.77761,      -5.03459,      -2.83438,   3.13178E-03
C:/temp/dataset/9/2_4.odb,Step-1,Increment      1: Step Time =    1.000,"PART-1-1",           237,      -9.50218,       15.8804,            0.,NA,NA,"",       4.71207,      -3.74343,      -2.86187,   2.19731E-03
C:/temp/dataset/9/2_4.odb,Step-1,Increment      1: Step Time =    1.000,"PART-1-1",           238,      -5.29510,      -1.38770,            0.,NA,NA,"",       2.59541,      -1.51464,      -2.10761,   2.87976E-03
C:/temp/dataset/9/2_4.odb,Step-1,Increment      1: Step Time =    1.000,"PART-1-1",           239,       11.0587,      -21.7318,            0.,NA,NA,"",   111.656E-03,  -110.878E-03,   13.1574E-03,   2.17818E-03
C:/temp/dataset/9/2_4.odb,Step-1,Increment      1: Step Time =    1.000,"PART-1-1",           240,       11.1670,      -17.4071,            0.,NA,NA,"",   283.600E-03,  -282.644E-03,   23.2659E-03,   2.76059E-03
C:/temp/dataset/9/2_4.odb,Step-1,Increment      1: Step Time =    1.000,"PART-1-1",           241,       11.0513,      -8.06140,            0.,NA,NA,"",   926.857E-03,  -926.737E-03,   14.9408E-03,   3.68066E-03
C:/temp/dataset/9/2_4.odb,Step-1,Increment      1: Step Time =    1.000,"PART-1-1",           242,       10.1357,   7.39639E-03,            0.,NA,NA,"",       1.80830,      -1.80460,  -115.641E-03,   7.61526E-03
C:/temp/dataset/9/2_4.odb,Step-1,Increment      1: Step Time =    1.000,"PART-1-1",           243,       10.6886,      -3.06387,            0.,NA,NA,"",       1.44053,      -1.44014,  -33.4335E-03,   7.69092E-03
C:/temp/dataset/9/2_4.odb,Step-1,Increment      1: Step Time =    1.000,"PART-1-1",           244,       9.76329,       22.4053,            0.,NA,NA,"",       4.70726,      -4.69221,  -376.037E-03,   1.28362E-03
C:/temp/dataset/9/2_4.odb,Step-1,Increment      1: Step Time =    1.000,"PART-1-1",           245,       8.68231,      -3.74099,            0.,NA,NA,"",       1.37078,      -1.35007,  -237.375E-03,   8.44395E-03
C:/temp/dataset/9/2_4.odb,Step-1,Increment      1: Step Time =    1.000,"PART-1-1",           246,      -9.34414,       6.30777,            0.,NA,NA,"",       3.72051,      -2.51276,      -2.74377,   1.82184E-03
C:/temp/dataset/9/2_4.odb,Step-1,Increment      1: Step Time =    1.000,"PART-1-1",           247,      -9.93235,       4.61568,            0.,NA,NA,"",       3.61655,      -2.28268,      -2.80514,   1.18631E-03
C:/temp/dataset/9/2_4.odb,Step-1,Increment      1: Step Time =    1.000,"PART-1-1",           248,      -8.14937,       21.0679,            0.,NA,NA,"",       5.18717,      -4.40252,      -2.74308,   3.64936E-03
C:/temp/dataset/9/2_4.odb,Step-1,Increment      1: Step Time =    1.000,"PART-1-1",           249,       10.7972,      -23.3791,            0.,NA,NA,"",   65.6080E-03,  -65.4692E-03,   4.26419E-03,   1.04702E-03
C:/temp/dataset/9/2_4.odb,Step-1,Increment      1: Step Time =    1.000,"PART-1-1",           250,       4.15357,   65.4176E-03,            0.,NA,NA,"",       1.97609,      -1.79504,  -826.306E-03,   6.29502E-03
C:/temp/dataset/9/2_4.odb,Step-1,Increment      1: Step Time =    1.000,"PART-1-1",           251,       8.71950,       3.82470,            0.,NA,NA,"",       2.29360,      -2.27085,  -322.268E-03,   5.89397E-03
C:/temp/dataset/9/2_4.odb,Step-1,Increment      1: Step Time =    1.000,"PART-1-1",           252,       5.00281,       23.5204,            0.,NA,NA,"",       4.91518,      -4.80450,      -1.03717,   2.89201E-03
C:/temp/dataset/9/2_4.odb,Step-1,Increment      1: Step Time =    1.000,"PART-1-1",           253,       7.40149,   60.9774E-03,            0.,NA,NA,"",       1.85301,      -1.80280,  -428.447E-03,   9.72565E-03
C:/temp/dataset/9/2_4.odb,Step-1,Increment      1: Step Time =    1.000,"PART-1-1",           254,      -5.73116,       22.7675,            0.,NA,NA,"",       5.24198,      -4.62944,      -2.45899,   4.56377E-03
C:/temp/dataset/9/2_4.odb,Step-1,Increment      1: Step Time =    1.000,"PART-1-1",           255,      -5.42683,       1.83799,            0.,NA,NA,"",       2.90692,      -1.94586,      -2.15958,   4.49166E-03
C:/temp/dataset/9/2_4.odb,Step-1,Increment      1: Step Time =    1.000,"PART-1-1",           256,       6.81561,       24.0815,            0.,NA,NA,"",       4.95876,      -4.89479,  -793.947E-03,   2.04482E-03
C:/temp/dataset/9/2_4.odb,Step-1,Increment      1: Step Time =    1.000,"PART-1-1",           257,      -7.40884,       23.3683,            0.,NA,NA,"",       5.40598,      -4.69740,      -2.67563,   4.02940E-03
C:/temp/dataset/9/2_4.odb,Step-1,Increment      1: Step Time =    1.000,"PART-1-1",           258,      -3.69176,       23.9755,            0.,NA,NA,"",       5.28303,      -4.79694,      -2.21355,   2.79986E-03
C:/temp/dataset/9/2_4.odb,Step-1,Increment      1: Step Time =    1.000,"PART-1-1",           259,      -8.10961,       1.76736,            0.,NA,NA,"",       3.17212,      -1.91482,      -2.52899,   2.26613E-03
C:/temp/dataset/9/2_4.odb,Step-1,Increment      1: Step Time =    1.000,"PART-1-1",           260,       5.94930,   61.4696E-03,            0.,NA,NA,"",       1.89798,      -1.80017,  -601.402E-03,   8.91528E-03
C:/temp/dataset/9/2_4.odb,Step-1,Increment      1: Step Time =    1.000,"PART-1-1",           261,       1.93878,   62.7924E-03,            0.,NA,NA,"",       2.10200,      -1.77973,      -1.11847,   5.45098E-03
C:/temp/dataset/9/2_4.odb,Step-1,Increment      1: Step Time =    1.000,"PART-1-1",           262,       6.71051,      -4.41826,            0.,NA,NA,"",       1.33614,      -1.26198,  -438.965E-03,   11.8828E-03
C:/temp/dataset/9/2_4.odb,Step-1,Increment      1: Step Time =    1.000,"PART-1-1",           263,      -12.5366,      -2.82410,            0.,NA,NA,"",       3.32925,      -1.25274,      -3.08457,   407.076E-06
C:/temp/dataset/9/2_4.odb,Step-1,Increment      1: Step Time =    1.000,"PART-1-1",           264,       6.75090,       4.53602,            0.,NA,NA,"",       2.42097,      -2.35294,  -569.895E-03,   8.33593E-03
C:/temp/dataset/9/2_4.odb,Step-1,Increment      1: Step Time =    1.000,"PART-1-1",           265,      -5.22339,       3.46233,            0.,NA,NA,"",       3.05224,      -2.16572,      -2.15077,   5.99203E-03
C:/temp/dataset/9/2_4.odb,Step-1,Increment      1: Step Time =    1.000,"PART-1-1",           266,       4.93795,       21.9167,            0.,NA,NA,"",       4.70238,      -4.58848,      -1.02870,   3.85389E-03
C:/temp/dataset/9/2_4.odb,Step-1,Increment      1: Step Time =    1.000,"PART-1-1",           267,       8.13144,      -1.42002,            0.,NA,NA,"",       1.65445,      -1.62242,  -324.013E-03,   9.91657E-03
C:/temp/dataset/9/2_4.odb,Step-1,Increment      1: Step Time =    1.000,"PART-1-1",           268,      -3.13115,       1.39136,            0.,NA,NA,"",       2.64385,      -1.90615,      -1.83209,   5.43952E-03
C:/temp/dataset/9/2_4.odb,Step-1,Increment      1: Step Time =    1.000,"PART-1-1",           269,       9.17709,       6.32873,            0.,NA,NA,"",       2.59837,      -2.58174,  -293.476E-03,   2.60281E-03
C:/temp/dataset/9/2_4.odb,Step-1,Increment      1: Step Time =    1.000,"PART-1-1",           270,      -11.0423,       1.34077,            0.,NA,NA,"",       3.44862,      -1.83196,      -2.92180,   721.020E-06
C:/temp/dataset/9/2_4.odb,Step-1,Increment      1: Step Time =    1.000,"PART-1-1",           271,      -10.1478,       26.6048,            0.,NA,NA,"",       5.93319,      -5.09074,      -3.04748,   1.87899E-03
C:/temp/dataset/9/2_4.odb,Step-1,Increment      1: Step Time =    1.000,"PART-1-1",           272,      -10.1118,       21.9370,            0.,NA,NA,"",       5.40799,      -4.50026,      -2.99901,   2.39479E-03
C:/temp/dataset/9/2_4.odb,Step-1,Increment      1: Step Time =    1.000,"PART-1-1",           273,       8.13886,       1.50501,            0.,NA,NA,"",       2.01580,      -1.98303,  -362.001E-03,   8.73671E-03
C:/temp/dataset/9/2_4.odb,Step-1,Increment      1: Step Time =    1.000,"PART-1-1",           274,      -7.06249,   219.393E-03,            0.,NA,NA,"",       2.92410,      -1.71474,      -2.36855,   2.47014E-03
C:/temp/dataset/9/2_4.odb,Step-1,Increment      1: Step Time =    1.000,"PART-1-1",           275,      -5.40522,   241.534E-03,            0.,NA,NA,"",       2.75256,      -1.73225,      -2.13914,   3.63631E-03
C:/temp/dataset/9/2_4.odb,Step-1,Increment      1: Step Time =    1.000,"PART-1-1",           276,      -3.80180,   194.541E-03,            0.,NA,NA,"",       2.58769,      -1.74085,      -1.91457,   4.62091E-03
C:/temp/dataset/9/2_4.odb,Step-1,Increment      1: Step Time =    1.000,"PART-1-1",           277,      -2.71285,       28.4954,            0.,NA,NA,"",       5.79987,      -5.39264,      -2.13493,   3.70366E-03
C:/temp/dataset/9/2_4.odb,Step-1,Increment      1: Step Time =    1.000,"PART-1-1",           278,         -3.75,           30.,            0.,NA,NA,"",       6.02672,      -5.57697,      -2.28445,   5.06202E-03
C:/temp/dataset/9/2_4.odb,Step-1,Increment      1: Step Time =    1.000,"PART-1-1",           279,      -5.26224,       28.8665,            0.,NA,NA,"",       5.95094,      -5.41601,      -2.46587,   3.90161E-03
C:/temp/dataset/9/2_4.odb,Step-1,Increment      1: Step Time =    1.000,"PART-1-1",           280,      -4.22509,       27.3619,            0.,NA,NA,"",       5.72257,      -5.23186,      -2.31849,   3.17483E-03
C:/temp/dataset/9/2_4.odb,Step-1,Increment      1: Step Time =    1.000,"PART-1-1",           281,      -3.84553,       25.9321,            0.,NA,NA,"",       5.52994,      -5.04959,      -2.25429,   2.92400E-03
C:/temp/dataset/9/2_4.odb,Step-1,Increment      1: Step Time =    1.000,"PART-1-1",           282,      -6.00478,       26.6512,            0.,NA,NA,"",       5.71986,      -5.12717,      -2.53551,   3.76824E-03
C:/temp/dataset/9/2_4.odb,Step-1,Increment      1: Step Time =    1.000,"PART-1-1",           283,      -5.62522,       25.2214,            0.,NA,NA,"",       5.52932,      -4.94567,      -2.47258,   3.66458E-03
C:/temp/dataset/9/2_4.odb,Step-1,Increment      1: Step Time =    1.000,"PART-1-1",           284,      -10.0879,       29.0985,            0.,NA,NA,"",       6.21033,      -5.40416,      -3.05996,   649.638E-06
C:/temp/dataset/9/2_4.odb,Step-1,Increment      1: Step Time =    1.000,"PART-1-1",           285,        -11.25,           30.,            0.,NA,NA,"",       6.37506,      -5.50726,      -3.21115,   73.9011E-06
C:/temp/dataset/9/2_4.odb,Step-1,Increment      1: Step Time =    1.000,"PART-1-1",           286,      -12.4706,       28.9480,            0.,NA,NA,"",       6.32893,      -5.36644,      -3.35509,   99.0359E-06
C:/temp/dataset/9/2_4.odb,Step-1,Increment      1: Step Time =    1.000,"PART-1-1",           287,      -11.3086,       28.0465,            0.,NA,NA,"",       6.16107,      -5.26291,      -3.20321,   707.235E-06
C:/temp/dataset/9/2_4.odb,Step-1,Increment      1: Step Time =    1.000,"PART-1-1",           288,      -13.4495,       25.5029,            0.,NA,NA,"",       6.01412,      -4.92638,      -3.44970,   628.982E-06
C:/temp/dataset/9/2_4.odb,Step-1,Increment      1: Step Time =    1.000,"PART-1-1",           289,          -15.,       24.5313,            0.,NA,NA,"",       6.01554,      -4.79196,      -3.63646,   316.109E-06
C:/temp/dataset/9/2_4.odb,Step-1,Increment      1: Step Time =    1.000,"PART-1-1",           290,      -13.6920,       23.1529,            0.,NA,NA,"",       5.77873,      -4.62828,      -3.46015,   858.230E-06
C:/temp/dataset/9/2_4.odb,Step-1,Increment      1: Step Time =    1.000,"PART-1-1",           291,      -12.1415,       24.1246,            0.,NA,NA,"",       5.77933,      -4.76245,      -3.27409,   1.19950E-03
C:/temp/dataset/9/2_4.odb,Step-1,Increment      1: Step Time =    1.000,"PART-1-1",           292,          8.75,          -30.,            0.,NA,NA,"",            0.,   4.20501E-39,  -12.7102E-39,   7.44835E-03
C:/temp/dataset/9/2_4.odb,Step-1,Increment      1: Step Time =    1.000,"PART-1-1",           293,       9.96407,      -28.8633,            0.,NA,NA,"",   4.98670E-03,   4.45128E-03,  -2.24795E-03,   3.67705E-03
C:/temp/dataset/9/2_4.odb,Step-1,Increment      1: Step Time =    1.000,"PART-1-1",           294,       8.68711,      -27.7998,            0.,NA,NA,"",   14.1166E-03,  -1.22269E-03,  -14.0635E-03,   8.48536E-03
C:/temp/dataset/9/2_4.odb,Step-1,Increment      1: Step Time =    1.000,"PART-1-1",           295,       7.47304,      -28.9365,            0.,NA,NA,"",   10.2792E-03,   599.285E-06,  -10.2618E-03,   12.1462E-03
C:/temp/dataset/9/2_4.odb,Step-1,Increment      1: Step Time =    1.000,"PART-1-1",           296,       10.9279,      -22.5555,            0.,NA,NA,"",   87.2104E-03,  -86.8139E-03,   8.30732E-03,   1.54687E-03
C:/temp/dataset/9/2_4.odb,Step-1,Increment      1: Step Time =    1.000,"PART-1-1",           297,       10.0765,      -21.6813,            0.,NA,NA,"",   113.372E-03,  -111.906E-03,  -18.1700E-03,   2.53870E-03
C:/temp/dataset/9/2_4.odb,Step-1,Increment      1: Step Time =    1.000,"PART-1-1",           298,       9.14242,      -22.6395,            0.,NA,NA,"",   95.4326E-03,  -85.6793E-03,  -42.0291E-03,   6.68489E-03
C:/temp/dataset/9/2_4.odb,Step-1,Increment      1: Step Time =    1.000,"PART-1-1",           299,       9.99384,      -23.5137,            0.,NA,NA,"",   64.2110E-03,  -62.3120E-03,  -15.5006E-03,   2.89265E-03
C:/temp/dataset/9/2_4.odb,Step-1,Increment      1: Step Time =    1.000,"PART-1-1",           300,       7.08785,      -18.4988,            0.,NA,NA,"",   289.382E-03,  -239.778E-03,  -162.014E-03,   16.1549E-03
C:/temp/dataset/9/2_4.odb,Step-1,Increment      1: Step Time =    1.000,"PART-1-1",           301,       6.04673,      -17.4684,            0.,NA,NA,"",   373.042E-03,  -294.179E-03,  -229.389E-03,   21.1191E-03
C:/temp/dataset/9/2_4.odb,Step-1,Increment      1: Step Time =    1.000,"PART-1-1",           302,            5.,      -18.5417,            0.,NA,NA,"",   360.890E-03,  -255.713E-03,  -254.662E-03,   25.8749E-03
C:/temp/dataset/9/2_4.odb,Step-1,Increment      1: Step Time =    1.000,"PART-1-1",           303,       6.04112,      -19.5721,            0.,NA,NA,"",   276.964E-03,  -203.424E-03,  -187.957E-03,   20.9028E-03
C:/temp/dataset/9/2_4.odb,Step-1,Increment      1: Step Time =    1.000,"PART-1-1",           304,       7.10245,      -14.2066,            0.,NA,NA,"",   518.048E-03,  -464.150E-03,  -230.084E-03,   16.4348E-03
C:/temp/dataset/9/2_4.odb,Step-1,Increment      1: Step Time =    1.000,"PART-1-1",           305,       6.04975,      -13.2285,            0.,NA,NA,"",   619.972E-03,  -532.688E-03,  -317.189E-03,   21.4483E-03
C:/temp/dataset/9/2_4.odb,Step-1,Increment      1: Step Time =    1.000,"PART-1-1",           306,            5.,       -14.375,            0.,NA,NA,"",   591.101E-03,  -470.195E-03,  -358.213E-03,   26.3158E-03
C:/temp/dataset/9/2_4.odb,Step-1,Increment      1: Step Time =    1.000,"PART-1-1",           307,       6.05270,      -15.3531,            0.,NA,NA,"",   487.013E-03,  -403.809E-03,  -272.249E-03,   21.2935E-03
C:/temp/dataset/9/2_4.odb,Step-1,Increment      1: Step Time =    1.000,"PART-1-1",           308,            5.,      -6.04167,            0.,NA,NA,"",       1.24680,      -1.09852,  -589.721E-03,   35.9185E-03
C:/temp/dataset/9/2_4.odb,Step-1,Increment      1: Step Time =    1.000,"PART-1-1",           309,       5.97724,      -6.85181,            0.,NA,NA,"",       1.12537,      -1.02240,  -470.261E-03,   23.2862E-03
C:/temp/dataset/9/2_4.odb,Step-1,Increment      1: Step Time =    1.000,"PART-1-1",           310,       6.83249,      -5.51927,            0.,NA,NA,"",       1.21596,      -1.14505,  -409.174E-03,   11.8302E-03
C:/temp/dataset/9/2_4.odb,Step-1,Increment      1: Step Time =    1.000,"PART-1-1",           311,       5.85525,      -4.70913,            0.,NA,NA,"",       1.33064,      -1.22113,  -528.631E-03,   21.1644E-03
C:/temp/dataset/9/2_4.odb,Step-1,Increment      1: Step Time =    1.000,"PART-1-1",           312,       4.27314,       1.25089,            0.,NA,NA,"",       2.11246,      -1.94397,  -826.698E-03,   6.06127E-03
C:/temp/dataset/9/2_4.odb,Step-1,Increment      1: Step Time =    1.000,"PART-1-1",           313,       3.27994,       2.49943,            0.,NA,NA,"",       2.31028,      -2.09744,  -968.592E-03,   4.47664E-03
C:/temp/dataset/9/2_4.odb,Step-1,Increment      1: Step Time =    1.000,"PART-1-1",           314,       2.05297,       1.31265,            0.,NA,NA,"",       2.23826,      -1.94016,      -1.11605,   4.36170E-03
C:/temp/dataset/9/2_4.odb,Step-1,Increment      1: Step Time =    1.000,"PART-1-1",           315,       3.04617,   64.1050E-03,            0.,NA,NA,"",       2.03467,      -1.78806,  -970.937E-03,   5.30256E-03
C:/temp/dataset/9/2_4.odb,Step-1,Increment      1: Step Time =    1.000,"PART-1-1",           316,       6.28410,       12.4112,            0.,NA,NA,"",       3.41232,      -3.33418,  -726.051E-03,   4.53835E-03
C:/temp/dataset/9/2_4.odb,Step-1,Increment      1: Step Time =    1.000,"PART-1-1",           317,            5.,         11.25,            0.,NA,NA,"",       3.29571,      -3.17694,  -876.796E-03,   6.13735E-03
C:/temp/dataset/9/2_4.odb,Step-1,Increment      1: Step Time =    1.000,"PART-1-1",           318,       6.24476,       9.82085,            0.,NA,NA,"",       3.08196,      -3.00176,  -698.527E-03,   5.05500E-03
C:/temp/dataset/9/2_4.odb,Step-1,Increment      1: Step Time =    1.000,"PART-1-1",           319,       7.52885,       10.9821,            0.,NA,NA,"",       3.20543,      -3.15808,  -548.886E-03,   3.49782E-03
C:/temp/dataset/9/2_4.odb,Step-1,Increment      1: Step Time =    1.000,"PART-1-1",           320,       6.23557,       19.9374,            0.,NA,NA,"",       4.40713,      -4.32915,  -825.354E-03,   3.40878E-03
C:/temp/dataset/9/2_4.odb,Step-1,Increment      1: Step Time =    1.000,"PART-1-1",           321,            5.,         18.75,            0.,NA,NA,"",       4.27333,      -4.15980,  -978.456E-03,   5.35791E-03
C:/temp/dataset/9/2_4.odb,Step-1,Increment      1: Step Time =    1.000,"PART-1-1",           322,       6.25255,       17.4722,            0.,NA,NA,"",       4.07634,      -3.99839,  -793.344E-03,   3.78732E-03
C:/temp/dataset/9/2_4.odb,Step-1,Increment      1: Step Time =    1.000,"PART-1-1",           323,       7.48812,       18.6595,            0.,NA,NA,"",       4.21594,      -4.16680,  -641.796E-03,   2.30898E-03
C:/temp/dataset/9/2_4.odb,Step-1,Increment      1: Step Time =    1.000,"PART-1-1",           324,       12.4612,       28.7577,            0.,NA,NA,"",       5.57934,      -5.57888,  -71.6614E-03,   148.260E-06
C:/temp/dataset/9/2_4.odb,Step-1,Increment      1: Step Time =    1.000,"PART-1-1",           325,         11.25,           30.,            0.,NA,NA,"",       5.74182,      -5.73648,  -247.560E-03,   163.824E-06
C:/temp/dataset/9/2_4.odb,Step-1,Increment      1: Step Time =    1.000,"PART-1-1",           326,       9.95383,       28.8406,            0.,NA,NA,"",       5.58250,      -5.56722,  -412.720E-03,   196.257E-06
C:/temp/dataset/9/2_4.odb,Step-1,Increment      1: Step Time =    1.000,"PART-1-1",           327,       11.1650,       27.5983,            0.,NA,NA,"",       5.41469,      -5.40952,  -236.665E-03,   171.395E-06
C:/temp/dataset/9/2_4.odb,Step-1,Increment      1: Step Time =    1.000,"PART-1-1",           328,       9.61193,       26.3742,            0.,NA,NA,"",       5.24737,      -5.22923,  -435.876E-03,   456.994E-06
C:/temp/dataset/9/2_4.odb,Step-1,Increment      1: Step Time =    1.000,"PART-1-1",           329,       10.8062,       25.0400,            0.,NA,NA,"",       5.06554,      -5.05880,  -261.070E-03,   484.453E-06
C:/temp/dataset/9/2_4.odb,Step-1,Increment      1: Step Time =    1.000,"PART-1-1",           330,       12.3592,       26.2641,            0.,NA,NA,"",       5.23951,      -5.23914,  -62.3049E-03,   343.113E-06
C:/temp/dataset/9/2_4.odb,Step-1,Increment      1: Step Time =    1.000,"PART-1-1",           331,       7.54419,       28.9985,            0.,NA,NA,"",       5.61576,      -5.56650,  -742.164E-03,   258.260E-06
C:/temp/dataset/9/2_4.odb,Step-1,Increment      1: Step Time =    1.000,"PART-1-1",           332,          6.25,           30.,            0.,NA,NA,"",       5.76594,      -5.69075,  -928.092E-03,   214.840E-06
C:/temp/dataset/9/2_4.odb,Step-1,Increment      1: Step Time =    1.000,"PART-1-1",           333,       5.09159,       28.9175,            0.,NA,NA,"",       5.63572,      -5.53195,      -1.07648,   776.097E-06
C:/temp/dataset/9/2_4.odb,Step-1,Increment      1: Step Time =    1.000,"PART-1-1",           334,       6.38578,       27.9160,            0.,NA,NA,"",       5.48140,      -5.40862,  -890.284E-03,   855.892E-06
C:/temp/dataset/9/2_4.odb,Step-1,Increment      1: Step Time =    1.000,"PART-1-1",           335,       2.95769,       26.1428,            0.,NA,NA,"",       5.30964,      -5.13671,      -1.34407,   2.57448E-03
C:/temp/dataset/9/2_4.odb,Step-1,Increment      1: Step Time =    1.000,"PART-1-1",           336,       4.45909,       25.3098,            0.,NA,NA,"",       5.16457,      -5.03944,      -1.12995,   2.36915E-03
C:/temp/dataset/9/2_4.odb,Step-1,Increment      1: Step Time =    1.000,"PART-1-1",           337,       5.44343,       26.8217,            0.,NA,NA,"",       5.34781,      -5.25175,      -1.00909,   1.45755E-03
C:/temp/dataset/9/2_4.odb,Step-1,Increment      1: Step Time =    1.000,"PART-1-1",           338,       3.94204,       27.6547,            0.,NA,NA,"",       5.48730,      -5.34937,      -1.22257,   1.71339E-03
C:/temp/dataset/9/2_4.odb,Step-1,Increment      1: Step Time =    1.000,"PART-1-1",           339,       6.06395,       7.26936,            0.,NA,NA,"",       2.76766,      -2.68069,  -688.363E-03,   5.56705E-03
C:/temp/dataset/9/2_4.odb,Step-1,Increment      1: Step Time =    1.000,"PART-1-1",           340,       7.30871,       8.34021,            0.,NA,NA,"",       2.87350,      -2.82102,  -546.666E-03,   3.85391E-03
C:/temp/dataset/9/2_4.odb,Step-1,Increment      1: Step Time =    1.000,"PART-1-1",           341,            5.,          8.75,            0.,NA,NA,"",       2.98125,      -2.85989,  -841.959E-03,   7.08058E-03
C:/temp/dataset/9/2_4.odb,Step-1,Increment      1: Step Time =    1.000,"PART-1-1",           342,      -13.9291,       1.47830,            0.,NA,NA,"",       3.78107,      -1.82423,      -3.31190,   664.664E-06
C:/temp/dataset/9/2_4.odb,Step-1,Increment      1: Step Time =    1.000,"PART-1-1",           343,          -15.,    468.75E-03,            0.,NA,NA,"",       3.83424,      -1.67726,      -3.44792,   804.341E-06
C:/temp/dataset/9/2_4.odb,Step-1,Increment      1: Step Time =    1.000,"PART-1-1",           344,      -13.8152,  -655.377E-03,            0.,NA,NA,"",       3.61963,      -1.53583,      -3.27764,   418.770E-06
C:/temp/dataset/9/2_4.odb,Step-1,Increment      1: Step Time =    1.000,"PART-1-1",           345,      -12.7443,   354.171E-03,            0.,NA,NA,"",       3.56436,      -1.68285,      -3.14208,   528.147E-06
C:/temp/dataset/9/2_4.odb,Step-1,Increment      1: Step Time =    1.000,"PART-1-1",           346,      -13.9678,       8.16706,            0.,NA,NA,"",       4.32997,      -2.71694,      -3.37148,   1.00715E-03
C:/temp/dataset/9/2_4.odb,Step-1,Increment      1: Step Time =    1.000,"PART-1-1",           347,          -15.,       7.03125,            0.,NA,NA,"",       4.33399,      -2.55778,      -3.49875,   1.74601E-03
C:/temp/dataset/9/2_4.odb,Step-1,Increment      1: Step Time =    1.000,"PART-1-1",           348,      -13.6804,       5.85321,            0.,NA,NA,"",       4.10103,      -2.41406,      -3.31524,   888.448E-06
C:/temp/dataset/9/2_4.odb,Step-1,Increment      1: Step Time =    1.000,"PART-1-1",           349,      -12.6482,       6.98902,            0.,NA,NA,"",       4.09741,      -2.57386,      -3.18812,   216.038E-06
C:/temp/dataset/9/2_4.odb,Step-1,Increment      1: Step Time =    1.000,"PART-1-1",           350,      -5.93089,       17.7206,            0.,NA,NA,"",       4.67805,      -3.99886,      -2.42760,   3.50320E-03
C:/temp/dataset/9/2_4.odb,Step-1,Increment      1: Step Time =    1.000,"PART-1-1",           351,      -7.00986,       16.6597,            0.,NA,NA,"",       4.62663,      -3.85895,      -2.55229,   3.10524E-03
C:/temp/dataset/9/2_4.odb,Step-1,Increment      1: Step Time =    1.000,"PART-1-1",           352,      -6.07897,       15.1891,            0.,NA,NA,"",       4.40281,      -3.67968,      -2.41757,   3.86824E-03
C:/temp/dataset/9/2_4.odb,Step-1,Increment      1: Step Time =    1.000,"PART-1-1",           353,           -5.,         16.25,            0.,NA,NA,"",       4.45553,      -3.82019,      -2.29300,   4.44836E-03
C:/temp/dataset/9/2_4.odb,Step-1,Increment      1: Step Time =    1.000,"PART-1-1",           354,      -7.79966,       18.2865,            0.,NA,NA,"",       4.85674,      -4.05738,      -2.66937,   2.85776E-03
C:/temp/dataset/9/2_4.odb,Step-1,Increment      1: Step Time =    1.000,"PART-1-1",           355,      -6.65288,       19.1839,            0.,NA,NA,"",       4.88462,      -4.17600,      -2.53387,   3.54089E-03
C:/temp/dataset/9/2_4.odb,Step-1,Increment      1: Step Time =    1.000,"PART-1-1",           356,      -7.29668,       20.7472,            0.,NA,NA,"",       5.09875,      -4.36681,      -2.63217,   4.20617E-03
C:/temp/dataset/9/2_4.odb,Step-1,Increment      1: Step Time =    1.000,"PART-1-1",           357,      -8.44345,       19.8498,            0.,NA,NA,"",       5.07006,      -4.24833,      -2.76716,   3.12102E-03
C:/temp/dataset/9/2_4.odb,Step-1,Increment      1: Step Time =    1.000,"PART-1-1",           358,      -2.59303,       4.06073,            0.,NA,NA,"",       2.88616,      -2.26912,      -1.78354,   3.21929E-03
C:/temp/dataset/9/2_4.odb,Step-1,Increment      1: Step Time =    1.000,"PART-1-1",           359,      -1.46713,       2.91047,            0.,NA,NA,"",       2.66616,      -2.12252,      -1.61348,   4.55309E-03
C:/temp/dataset/9/2_4.odb,Step-1,Increment      1: Step Time =    1.000,"PART-1-1",           360,  -124.098E-03,       3.84974,            0.,NA,NA,"",       2.67531,      -2.25637,      -1.43738,   5.34082E-03
C:/temp/dataset/9/2_4.odb,Step-1,Increment      1: Step Time =    1.000,"PART-1-1",           361,         -1.25,            5.,            0.,NA,NA,"",       2.89332,      -2.40664,      -1.60604,   5.48952E-03
C:/temp/dataset/9/2_4.odb,Step-1,Increment      1: Step Time =    1.000,"PART-1-1",           362,      -11.2683,  -541.568E-03,            0.,NA,NA,"",       3.33004,      -1.57466,      -2.93422,   437.878E-06
C:/temp/dataset/9/2_4.odb,Step-1,Increment      1: Step Time =    1.000,"PART-1-1",           363,      -10.4743,   471.696E-03,            0.,NA,NA,"",       3.31688,      -1.71924,      -2.83654,   706.897E-06
C:/temp/dataset/9/2_4.odb,Step-1,Increment      1: Step Time =    1.000,"PART-1-1",           364,      -11.9503,       1.36743,            0.,NA,NA,"",       3.55077,      -1.82743,      -3.04442,   513.295E-06
C:/temp/dataset/9/2_4.odb,Step-1,Increment      1: Step Time =    1.000,"PART-1-1",           365,      -13.0095,       9.29789,            0.,NA,NA,"",       4.34177,      -2.87325,      -3.25507,   445.983E-06
C:/temp/dataset/9/2_4.odb,Step-1,Increment      1: Step Time =    1.000,"PART-1-1",           366,      -14.0417,       10.3496,            0.,NA,NA,"",       4.53333,      -3.00078,      -3.39800,   837.069E-06
C:/temp/dataset/9/2_4.odb,Step-1,Increment      1: Step Time =    1.000,"PART-1-1",           367,          -15.,       9.21875,            0.,NA,NA,"",       4.52153,      -2.84506,      -3.51423,   1.59581E-03
C:/temp/dataset/9/2_4.odb,Step-1,Increment      1: Step Time =    1.000,"PART-1-1",           368,      -6.40766,      -1.28741,            0.,NA,NA,"",       2.72449,      -1.51749,      -2.26275,   2.17436E-03
C:/temp/dataset/9/2_4.odb,Step-1,Increment      1: Step Time =    1.000,"PART-1-1",           369,      -5.35016,  -573.084E-03,            0.,NA,NA,"",       2.67280,      -1.62356,      -2.12319,   3.23838E-03
C:/temp/dataset/9/2_4.odb,Step-1,Increment      1: Step Time =    1.000,"PART-1-1",           370,      -6.23385,   230.463E-03,            0.,NA,NA,"",       2.83746,      -1.72344,      -2.25410,   3.03070E-03
C:/temp/dataset/9/2_4.odb,Step-1,Increment      1: Step Time =    1.000,"PART-1-1",           371,      -7.29135,  -483.859E-03,            0.,NA,NA,"",       2.88839,      -1.61789,      -2.39274,   1.99601E-03
C:/temp/dataset/9/2_4.odb,Step-1,Increment      1: Step Time =    1.000,"PART-1-1",           372,   952.242E-03,      -2.53706,            0.,NA,NA,"",       1.88874,      -1.43243,      -1.23105,   6.32426E-03
C:/temp/dataset/9/2_4.odb,Step-1,Increment      1: Step Time =    1.000,"PART-1-1",           373,  -130.910E-03,      -3.80019,            0.,NA,NA,"",       1.85466,      -1.24845,      -1.37155,   4.57637E-03
C:/temp/dataset/9/2_4.odb,Step-1,Increment      1: Step Time =    1.000,"PART-1-1",           374,          1.25,           -5.,            0.,NA,NA,"",       1.61028,      -1.10283,      -1.17335,   6.72698E-03
C:/temp/dataset/9/2_4.odb,Step-1,Increment      1: Step Time =    1.000,"PART-1-1",           375,       2.33315,      -3.73687,            0.,NA,NA,"",       1.65459,      -1.29435,      -1.03069,   7.38732E-03
C:/temp/dataset/9/2_4.odb,Step-1,Increment      1: Step Time =    1.000,"PART-1-1",           376,       4.26686,      -1.13377,            0.,NA,NA,"",       1.82789,      -1.64548,  -795.981E-03,   7.82612E-03
C:/temp/dataset/9/2_4.odb,Step-1,Increment      1: Step Time =    1.000,"PART-1-1",           377,       2.05254,      -1.20548,            0.,NA,NA,"",       1.95230,      -1.61877,      -1.09136,   6.37563E-03
C:/temp/dataset/9/2_4.odb,Step-1,Increment      1: Step Time =    1.000,"PART-1-1",           378,       3.27323,      -2.40335,            0.,NA,NA,"",       1.73804,      -1.48010,  -911.092E-03,   7.62419E-03
C:/temp/dataset/9/2_4.odb,Step-1,Increment      1: Step Time =    1.000,"PART-1-1",           379,       10.4325,       1.51548,            0.,NA,NA,"",       1.99424,      -1.99196,  -95.4161E-03,   5.92099E-03
C:/temp/dataset/9/2_4.odb,Step-1,Increment      1: Step Time =    1.000,"PART-1-1",           380,       11.3847,  -3.51279E-03,            0.,NA,NA,"",       1.81043,      -1.81026,   24.7764E-03,   6.56812E-03
C:/temp/dataset/9/2_4.odb,Step-1,Increment      1: Step Time =    1.000,"PART-1-1",           381,       12.7244,       1.31309,            0.,NA,NA,"",       1.98934,      -1.98195,   171.412E-03,   5.89812E-03
C:/temp/dataset/9/2_4.odb,Step-1,Increment      1: Step Time =    1.000,"PART-1-1",           382,       11.7722,       2.83209,            0.,NA,NA,"",       2.16371,      -2.16311,   51.1799E-03,   3.82714E-03
C:/temp/dataset/9/2_4.odb,Step-1,Increment      1: Step Time =    1.000,"PART-1-1",           383,       9.00808,      -7.25637,            0.,NA,NA,"",       1.00514,  -989.921E-03,  -174.225E-03,   5.56921E-03
C:/temp/dataset/9/2_4.odb,Step-1,Increment      1: Step Time =    1.000,"PART-1-1",           384,       7.95196,      -6.36313,            0.,NA,NA,"",       1.10673,      -1.06957,  -284.373E-03,   10.0268E-03
C:/temp/dataset/9/2_4.odb,Step-1,Increment      1: Step Time =    1.000,"PART-1-1",           385,       7.00211,      -7.70397,            0.,NA,NA,"",       1.01091,  -946.800E-03,  -354.277E-03,   16.8800E-03
C:/temp/dataset/9/2_4.odb,Step-1,Increment      1: Step Time =    1.000,"PART-1-1",           386,       8.05823,      -8.59720,            0.,NA,NA,"",   903.633E-03,  -869.778E-03,  -245.031E-03,   11.7082E-03
C:/temp/dataset/9/2_4.odb,Step-1,Increment      1: Step Time =    1.000,"PART-1-1",           387,       7.09104,      -12.0381,            0.,NA,NA,"",   663.212E-03,  -606.745E-03,  -267.789E-03,   16.6233E-03
C:/temp/dataset/9/2_4.odb,Step-1,Increment      1: Step Time =    1.000,"PART-1-1",           388,       6.04129,      -11.1013,            0.,NA,NA,"",   771.533E-03,  -680.140E-03,  -364.242E-03,   21.6518E-03
C:/temp/dataset/9/2_4.odb,Step-1,Increment      1: Step Time =    1.000,"PART-1-1",           389,            5.,      -12.2917,            0.,NA,NA,"",   731.317E-03,  -604.243E-03,  -411.965E-03,   26.4965E-03
C:/temp/dataset/9/2_4.odb,Step-1,Increment      1: Step Time =    1.000,"PART-1-1",           390,       9.13117,      -18.4822,            0.,NA,NA,"",   242.562E-03,  -232.247E-03,  -69.9832E-03,   6.76615E-03
C:/temp/dataset/9/2_4.odb,Step-1,Increment      1: Step Time =    1.000,"PART-1-1",           391,       10.1297,      -19.6034,            0.,NA,NA,"",   185.991E-03,  -184.713E-03,  -21.7646E-03,   2.25578E-03
C:/temp/dataset/9/2_4.odb,Step-1,Increment      1: Step Time =    1.000,"PART-1-1",           392,       11.1535,      -18.5257,            0.,NA,NA,"",   231.742E-03,  -230.771E-03,   21.1865E-03,   2.66445E-03
C:/temp/dataset/9/2_4.odb,Step-1,Increment      1: Step Time =    1.000,"PART-1-1",           393,       10.1550,      -17.4045,            0.,NA,NA,"",   282.519E-03,  -281.240E-03,  -26.8528E-03,   2.11197E-03
C:/temp/dataset/9/2_4.odb,Step-1,Increment      1: Step Time =    1.000,"PART-1-1",           394,       6.27183,       14.9637,            0.,NA,NA,"",       3.74487,      -3.66705,  -759.475E-03,   4.17219E-03
C:/temp/dataset/9/2_4.odb,Step-1,Increment      1: Step Time =    1.000,"PART-1-1",           395,       7.52438,       16.1859,            0.,NA,NA,"",       3.88519,      -3.83718,  -608.873E-03,   2.89010E-03
C:/temp/dataset/9/2_4.odb,Step-1,Increment      1: Step Time =    1.000,"PART-1-1",           396,            5.,         16.25,            0.,NA,NA,"",       3.94273,      -3.82799,  -944.237E-03,   5.11274E-03
C:/temp/dataset/9/2_4.odb,Step-1,Increment      1: Step Time =    1.000,"PART-1-1",           397,       2.56719,       21.1071,            0.,NA,NA,"",       4.66044,      -4.46104,      -1.34862,   2.91438E-03
C:/temp/dataset/9/2_4.odb,Step-1,Increment      1: Step Time =    1.000,"PART-1-1",           398,       1.41709,       22.2600,            0.,NA,NA,"",       4.85095,      -4.60730,      -1.51808,   2.89066E-03
C:/temp/dataset/9/2_4.odb,Step-1,Increment      1: Step Time =    1.000,"PART-1-1",           399,   99.9026E-03,       21.1528,            0.,NA,NA,"",       4.75981,      -4.45150,      -1.68522,   4.00267E-03
C:/temp/dataset/9/2_4.odb,Step-1,Increment      1: Step Time =    1.000,"PART-1-1",           400,          1.25,           20.,            0.,NA,NA,"",       4.56285,      -4.30331,      -1.51693,   4.60166E-03
C:/temp/dataset/9/2_4.odb,Step-1,Increment      1: Step Time =    1.000,"PART-1-1",           401,       7.55593,       13.6250,            0.,NA,NA,"",       3.54757,      -3.50058,  -575.526E-03,   3.23008E-03
C:/temp/dataset/9/2_4.odb,Step-1,Increment      1: Step Time =    1.000,"PART-1-1",           402,            5.,         13.75,            0.,NA,NA,"",       3.61656,      -3.49997,  -910.899E-03,   5.49944E-03
C:/temp/dataset/9/2_4.odb,Step-1,Increment      1: Step Time =    1.000,"PART-1-1",           403,       8.77818,       14.9146,            0.,NA,NA,"",       3.70393,      -3.67887,  -430.138E-03,   2.10281E-03
C:/temp/dataset/9/2_4.odb,Step-1,Increment      1: Step Time =    1.000,"PART-1-1",           404,       10.0010,       16.1752,            0.,NA,NA,"",       3.86587,      -3.85554,  -282.384E-03,   1.31106E-03
C:/temp/dataset/9/2_4.odb,Step-1,Increment      1: Step Time =    1.000,"PART-1-1",           405,       8.74716,       17.4465,            0.,NA,NA,"",       4.04087,      -4.01451,  -460.786E-03,   1.91283E-03
C:/temp/dataset/9/2_4.odb,Step-1,Increment      1: Step Time =    1.000,"PART-1-1",           406,       10.1219,       5.90684,            0.,NA,NA,"",       2.54103,      -2.53512,  -173.188E-03,   1.90169E-03
C:/temp/dataset/9/2_4.odb,Step-1,Increment      1: Step Time =    1.000,"PART-1-1",           407,       8.94830,       5.07672,            0.,NA,NA,"",       2.44546,      -2.42591,  -308.661E-03,   4.16332E-03
C:/temp/dataset/9/2_4.odb,Step-1,Increment      1: Step Time =    1.000,"PART-1-1",           408,       9.72441,       3.42413,            0.,NA,NA,"",       2.23394,      -2.22521,  -197.358E-03,   4.76961E-03
C:/temp/dataset/9/2_4.odb,Step-1,Increment      1: Step Time =    1.000,"PART-1-1",           409,       10.8980,       4.25426,            0.,NA,NA,"",       2.33521,      -2.33433,  -64.1743E-03,   2.97453E-03
C:/temp/dataset/9/2_4.odb,Step-1,Increment      1: Step Time =    1.000,"PART-1-1",           410,       8.15250,       6.68373,            0.,NA,NA,"",       2.65384,      -2.61978,  -423.785E-03,   3.23185E-03
C:/temp/dataset/9/2_4.odb,Step-1,Increment      1: Step Time =    1.000,"PART-1-1",           411,       9.64075,       7.71724,            0.,NA,NA,"",       2.76934,      -2.75810,  -249.198E-03,   1.69646E-03
C:/temp/dataset/9/2_4.odb,Step-1,Increment      1: Step Time =    1.000,"PART-1-1",           412,       8.79696,       9.37373,            0.,NA,NA,"",       2.98445,      -2.96132,  -370.808E-03,   2.24144E-03
C:/temp/dataset/9/2_4.odb,Step-1,Increment      1: Step Time =    1.000,"PART-1-1",           413,   959.485E-03,       2.63099,            0.,NA,NA,"",       2.45968,      -2.10253,      -1.27648,   4.76180E-03
C:/temp/dataset/9/2_4.odb,Step-1,Increment      1: Step Time =    1.000,"PART-1-1",           414,       2.33358,       3.78125,            0.,NA,NA,"",       2.51292,      -2.25668,      -1.10552,   6.98135E-03
C:/temp/dataset/9/2_4.odb,Step-1,Increment      1: Step Time =    1.000,"PART-1-1",           415,          1.25,            5.,            0.,NA,NA,"",       2.72472,      -2.41356,      -1.26445,   8.57996E-03
C:/temp/dataset/9/2_4.odb,Step-1,Increment      1: Step Time =    1.000,"PART-1-1",           416,      -9.23288,       7.29816,            0.,NA,NA,"",       3.80718,      -2.64401,      -2.73931,   2.02741E-03
C:/temp/dataset/9/2_4.odb,Step-1,Increment      1: Step Time =    1.000,"PART-1-1",           417,      -8.32915,       6.01548,            0.,NA,NA,"",       3.59882,      -2.48259,      -2.60543,   2.37839E-03
C:/temp/dataset/9/2_4.odb,Step-1,Increment      1: Step Time =    1.000,"PART-1-1",           418,      -7.21136,       6.82340,            0.,NA,NA,"",       3.58160,      -2.59834,      -2.46505,   3.40481E-03
C:/temp/dataset/9/2_4.odb,Step-1,Increment      1: Step Time =    1.000,"PART-1-1",           419,      -8.11509,       8.10607,            0.,NA,NA,"",       3.79065,      -2.75850,      -2.59995,   3.34109E-03
C:/temp/dataset/9/2_4.odb,Step-1,Increment      1: Step Time =    1.000,"PART-1-1",           420,      -13.1318,       11.4675,            0.,NA,NA,"",       4.55618,      -3.15303,      -3.28895,   539.360E-06
C:/temp/dataset/9/2_4.odb,Step-1,Increment      1: Step Time =    1.000,"PART-1-1",           421,      -14.0901,       12.5242,            0.,NA,NA,"",       4.73992,      -3.28063,      -3.42115,   563.206E-06
C:/temp/dataset/9/2_4.odb,Step-1,Increment      1: Step Time =    1.000,"PART-1-1",           422,          -15.,       11.4063,            0.,NA,NA,"",       4.71699,      -3.12892,      -3.52985,   1.22979E-03
C:/temp/dataset/9/2_4.odb,Step-1,Increment      1: Step Time =    1.000,"PART-1-1",           423,      -9.35396,       14.3983,            0.,NA,NA,"",       4.54439,      -3.55709,      -2.82819,   2.32238E-03
C:/temp/dataset/9/2_4.odb,Step-1,Increment      1: Step Time =    1.000,"PART-1-1",           424,      -10.5094,       15.3924,            0.,NA,NA,"",       4.73472,      -3.67435,      -2.98610,   1.82073E-03
C:/temp/dataset/9/2_4.odb,Step-1,Increment      1: Step Time =    1.000,"PART-1-1",           425,      -11.3610,       13.8160,            0.,NA,NA,"",       4.63871,      -3.46791,      -3.08079,   1.44191E-03
C:/temp/dataset/9/2_4.odb,Step-1,Increment      1: Step Time =    1.000,"PART-1-1",           426,      -10.2056,       12.8219,            0.,NA,NA,"",       4.44566,      -3.35019,      -2.92234,   1.93923E-03
C:/temp/dataset/9/2_4.odb,Step-1,Increment      1: Step Time =    1.000,"PART-1-1",           427,      -14.0810,       18.8007,            0.,NA,NA,"",       5.35460,      -4.07693,      -3.47137,   744.806E-06
C:/temp/dataset/9/2_4.odb,Step-1,Increment      1: Step Time =    1.000,"PART-1-1",           428,          -15.,       17.9688,            0.,NA,NA,"",       5.34231,      -3.96487,      -3.58051,   308.727E-06
C:/temp/dataset/9/2_4.odb,Step-1,Increment      1: Step Time =    1.000,"PART-1-1",           429,      -14.2329,       16.7349,            0.,NA,NA,"",       5.15928,      -3.81511,      -3.47320,   407.268E-06
C:/temp/dataset/9/2_4.odb,Step-1,Increment      1: Step Time =    1.000,"PART-1-1",           430,      -13.3139,       17.5668,            0.,NA,NA,"",       5.17084,      -3.92736,      -3.36355,   857.726E-06
C:/temp/dataset/9/2_4.odb,Step-1,Increment      1: Step Time =    1.000,"PART-1-1",           431,      -12.9537,       19.5700,            0.,NA,NA,"",       5.34953,      -4.18239,      -3.33543,   1.04066E-03
C:/temp/dataset/9/2_4.odb,Step-1,Increment      1: Step Time =    1.000,"PART-1-1",           432,      -13.8727,       20.9255,            0.,NA,NA,"",       5.55740,      -4.34615,      -3.46348,   918.735E-06
C:/temp/dataset/9/2_4.odb,Step-1,Increment      1: Step Time =    1.000,"PART-1-1",           433,          -15.,       20.1563,            0.,NA,NA,"",       5.56203,      -4.24064,      -3.59905,   645.124E-06
C:/temp/dataset/9/2_4.odb,Step-1,Increment      1: Step Time =    1.000,"PART-1-1",           434,       1.76445,       24.7908,            0.,NA,NA,"",       5.16688,      -4.94581,      -1.49520,   2.81872E-03
C:/temp/dataset/9/2_4.odb,Step-1,Increment      1: Step Time =    1.000,"PART-1-1",           435,       1.36974,       27.3866,            0.,NA,NA,"",       5.51575,      -5.28667,      -1.57310,   2.92870E-03
C:/temp/dataset/9/2_4.odb,Step-1,Increment      1: Step Time =    1.000,"PART-1-1",           436,   176.493E-03,       26.0346,            0.,NA,NA,"",       5.37927,      -5.09579,      -1.72323,   2.68245E-03
C:/temp/dataset/9/2_4.odb,Step-1,Increment      1: Step Time =    1.000,"PART-1-1",           437,       7.39460,       20.9669,            0.,NA,NA,"",       4.52935,      -4.47795,  -680.413E-03,   2.57681E-03
C:/temp/dataset/9/2_4.odb,Step-1,Increment      1: Step Time =    1.000,"PART-1-1",           438,       8.70526,       19.9066,            0.,NA,NA,"",       4.37277,      -4.34497,  -492.280E-03,   1.81416E-03
C:/temp/dataset/9/2_4.odb,Step-1,Increment      1: Step Time =    1.000,"PART-1-1",           439,       9.85134,       21.1719,            0.,NA,NA,"",       4.53938,      -4.52574,  -351.701E-03,   1.37353E-03
C:/temp/dataset/9/2_4.odb,Step-1,Increment      1: Step Time =    1.000,"PART-1-1",           440,       8.54068,       22.2321,            0.,NA,NA,"",       4.68976,      -4.65865,  -539.314E-03,   1.83068E-03
C:/temp/dataset/9/2_4.odb,Step-1,Increment      1: Step Time =    1.000,"PART-1-1",           441,       4.10864,       24.1658,            0.,NA,NA,"",       5.02085,      -4.88335,      -1.16701,   2.84433E-03
C:/temp/dataset/9/2_4.odb,Step-1,Increment      1: Step Time =    1.000,"PART-1-1",           442,       5.90921,       23.8009,            0.,NA,NA,"",       4.93524,      -4.84961,  -915.336E-03,   2.49767E-03
C:/temp/dataset/9/2_4.odb,Step-1,Increment      1: Step Time =    1.000,"PART-1-1",           443,       6.25965,       24.9450,            0.,NA,NA,"",       5.08302,      -5.00644,  -879.002E-03,   1.84917E-03
C:/temp/dataset/9/2_4.odb,Step-1,Increment      1: Step Time =    1.000,"PART-1-1",           444,   19.2837E-03,       28.6494,            0.,NA,NA,"",       5.72112,      -5.44056,      -1.76960,   3.42690E-03
C:/temp/dataset/9/2_4.odb,Step-1,Increment      1: Step Time =    1.000,"PART-1-1",           445,       2.60045,       28.7372,            0.,NA,NA,"",       5.66180,      -5.48190,      -1.41592,   1.75783E-03
C:/temp/dataset/9/2_4.odb,Step-1,Increment      1: Step Time =    1.000,"PART-1-1",           446,          1.25,           30.,            0.,NA,NA,"",       5.86507,      -5.63934,      -1.61149,   2.34768E-03
C:/temp/dataset/9/2_4.odb,Step-1,Increment      1: Step Time =    1.000,"PART-1-1",           447,      -7.67774,       29.0428,            0.,NA,NA,"",       6.08261,      -5.41795,      -2.76477,   2.99778E-03
C:/temp/dataset/9/2_4.odb,Step-1,Increment      1: Step Time =    1.000,"PART-1-1",           448,      -6.68998,       27.9093,            0.,NA,NA,"",       5.90294,      -5.28293,      -2.63351,   3.67065E-03
C:/temp/dataset/9/2_4.odb,Step-1,Increment      1: Step Time =    1.000,"PART-1-1",           449,         -6.25,           30.,            0.,NA,NA,"",       6.12771,      -5.54871,      -2.60013,   4.18613E-03
C:/temp/dataset/9/2_4.odb,Step-1,Increment      1: Step Time =    1.000,"PART-1-1",           450,      -12.1701,       26.6384,            0.,NA,NA,"",       6.05664,      -5.07922,      -3.29915,   762.752E-06
C:/temp/dataset/9/2_4.odb,Step-1,Increment      1: Step Time =    1.000,"PART-1-1",           451,      -13.7206,       27.8542,            0.,NA,NA,"",       6.28601,      -5.21965,      -3.50274,   137.215E-06
C:/temp/dataset/9/2_4.odb,Step-1,Increment      1: Step Time =    1.000,"PART-1-1",           452,          -15.,       26.7188,            0.,NA,NA,"",       6.24725,      -5.06712,      -3.65409,   32.3574E-06
C:/temp/dataset/9/2_4.odb,Step-1,Increment      1: Step Time =    1.000,"PART-1-1",           453,        -13.75,           30.,            0.,NA,NA,"",       6.52157,      -5.48792,      -3.52330,   81.5594E-06
C:/temp/dataset/9/2_4.odb,Step-1,Increment      1: Step Time =    1.000,"PART-1-1",           454,          -15.,       28.9063,            0.,NA,NA,"",       6.48125,      -5.34126,      -3.67118,   65.3381E-06
C:/temp/dataset/9/2_4.odb,Step-1,Increment      1: Step Time =    1.000,"PART-1-1",           455,      -9.01567,       28.1413,            0.,NA,NA,"",       6.04584,      -5.29357,      -2.92066,   2.33313E-03
C:/temp/dataset/9/2_4.odb,Step-1,Increment      1: Step Time =    1.000,"PART-1-1",           456,         -8.75,           30.,            0.,NA,NA,"",       6.24190,      -5.52648,      -2.90162,   767.528E-06
C:/temp/dataset/9/2_4.odb,Step-1,Increment      1: Step Time =    1.000,"PART-1-1",           457,      -10.9923,       18.6369,            0.,NA,NA,"",       5.11047,      -4.07941,      -3.07820,   1.80554E-03
C:/temp/dataset/9/2_4.odb,Step-1,Increment      1: Step Time =    1.000,"PART-1-1",           458,      -11.7056,       20.1347,            0.,NA,NA,"",       5.31965,      -4.26258,      -3.18263,   1.58531E-03
C:/temp/dataset/9/2_4.odb,Step-1,Increment      1: Step Time =    1.000,"PART-1-1",           459,      -12.2405,       18.0722,            0.,NA,NA,"",       5.14170,      -3.99923,      -3.23161,   1.31659E-03
C:/temp/dataset/9/2_4.odb,Step-1,Increment      1: Step Time =    1.000,"PART-1-1",           460,      -11.7153,       17.0060,            0.,NA,NA,"",       4.99235,      -3.86892,      -3.15516,   1.44185E-03
C:/temp/dataset/9/2_4.odb,Step-1,Increment      1: Step Time =    1.000,"PART-1-1",           461,      -12.7888,       16.5007,            0.,NA,NA,"",       5.02238,      -3.79691,      -3.28752,   1.00518E-03
C:/temp/dataset/9/2_4.odb,Step-1,Increment      1: Step Time =    1.000,"PART-1-1",           462,      -13.2634,       13.5986,            0.,NA,NA,"",       4.77246,      -3.42495,      -3.32358,   608.199E-06
C:/temp/dataset/9/2_4.odb,Step-1,Increment      1: Step Time =    1.000,"PART-1-1",           463,      -14.1733,       14.6682,            0.,NA,NA,"",       4.95203,      -3.55365,      -3.44879,   328.775E-06
C:/temp/dataset/9/2_4.odb,Step-1,Increment      1: Step Time =    1.000,"PART-1-1",           464,          -15.,       13.5938,            0.,NA,NA,"",       4.91939,      -3.40978,      -3.54596,   747.253E-06
C:/temp/dataset/9/2_4.odb,Step-1,Increment      1: Step Time =    1.000,"PART-1-1",           465,      -6.04154,       10.1420,            0.,NA,NA,"",       3.84081,      -3.03624,      -2.35225,   4.65730E-03
C:/temp/dataset/9/2_4.odb,Step-1,Increment      1: Step Time =    1.000,"PART-1-1",           466,      -7.09581,       9.10381,            0.,NA,NA,"",       3.81055,      -2.89539,      -2.47730,   4.07415E-03
C:/temp/dataset/9/2_4.odb,Step-1,Increment      1: Step Time =    1.000,"PART-1-1",           467,      -6.05428,       7.71180,            0.,NA,NA,"",       3.57835,      -2.72231,      -2.32241,   5.14422E-03
C:/temp/dataset/9/2_4.odb,Step-1,Increment      1: Step Time =    1.000,"PART-1-1",           468,           -5.,          8.75,            0.,NA,NA,"",       3.60969,      -2.86293,      -2.19852,   5.77405E-03
C:/temp/dataset/9/2_4.odb,Step-1,Increment      1: Step Time =    1.000,"PART-1-1",           469,      -6.15708,       5.36159,            0.,NA,NA,"",       3.33895,      -2.41502,      -2.30570,   5.22469E-03
C:/temp/dataset/9/2_4.odb,Step-1,Increment      1: Step Time =    1.000,"PART-1-1",           470,           -5.,          6.25,            0.,NA,NA,"",       3.33456,      -2.53870,      -2.16200,   8.13979E-03
C:/temp/dataset/9/2_4.odb,Step-1,Increment      1: Step Time =    1.000,"PART-1-1",           471,      -13.8567,       3.63033,            0.,NA,NA,"",       3.93698,      -2.11526,      -3.32046,   877.666E-06
C:/temp/dataset/9/2_4.odb,Step-1,Increment      1: Step Time =    1.000,"PART-1-1",           472,      -12.5372,       4.63979,            0.,NA,NA,"",       3.88087,      -2.26276,      -3.15295,   338.160E-06
C:/temp/dataset/9/2_4.odb,Step-1,Increment      1: Step Time =    1.000,"PART-1-1",           473,          -15.,       4.84375,            0.,NA,NA,"",       4.15564,      -2.26701,      -3.48282,   1.61685E-03
C:/temp/dataset/9/2_4.odb,Step-1,Increment      1: Step Time =    1.000,"PART-1-1",           474,      -12.7859,       2.45238,            0.,NA,NA,"",       3.72765,      -1.96651,      -3.16674,   532.924E-06
C:/temp/dataset/9/2_4.odb,Step-1,Increment      1: Step Time =    1.000,"PART-1-1",           475,          -15.,       2.65625,            0.,NA,NA,"",       3.98829,      -1.97320,      -3.46597,   1.25853E-03
C:/temp/dataset/9/2_4.odb,Step-1,Increment      1: Step Time =    1.000,"PART-1-1",           476,      -13.7683,      -2.81830,            0.,NA,NA,"",       3.48078,      -1.24217,      -3.25159,   238.799E-06
C:/temp/dataset/9/2_4.odb,Step-1,Increment      1: Step Time =    1.000,"PART-1-1",           477,          -15.,      -3.90625,            0.,NA,NA,"",       3.57662,      -1.08285,      -3.40876,   64.1799E-06
C:/temp/dataset/9/2_4.odb,Step-1,Increment      1: Step Time =    1.000,"PART-1-1",           478,        -13.75,           -5.,            0.,NA,NA,"",       3.36461,  -945.870E-03,      -3.22892,   71.5816E-06
C:/temp/dataset/9/2_4.odb,Step-1,Increment      1: Step Time =    1.000,"PART-1-1",           479,      -12.5183,      -3.91205,            0.,NA,NA,"",       3.26460,      -1.10492,      -3.07193,   267.915E-06
C:/temp/dataset/9/2_4.odb,Step-1,Increment      1: Step Time =    1.000,"PART-1-1",           480,      -3.91473,      -3.03803,            0.,NA,NA,"",       2.30641,      -1.30613,      -1.90093,   2.67065E-03
C:/temp/dataset/9/2_4.odb,Step-1,Increment      1: Step Time =    1.000,"PART-1-1",           481,      -5.07319,      -4.05962,            0.,NA,NA,"",       2.35479,      -1.15452,      -2.05235,   1.23843E-03
C:/temp/dataset/9/2_4.odb,Step-1,Increment      1: Step Time =    1.000,"PART-1-1",           482,         -3.75,           -5.,            0.,NA,NA,"",       2.13157,      -1.03932,      -1.86102,   1.84647E-03
C:/temp/dataset/9/2_4.odb,Step-1,Increment      1: Step Time =    1.000,"PART-1-1",           483,      -2.59153,      -3.97841,            0.,NA,NA,"",       2.08482,      -1.19330,      -1.70953,   2.86148E-03
C:/temp/dataset/9/2_4.odb,Step-1,Increment      1: Step Time =    1.000,"PART-1-1",           484,   563.435E-03,   72.7383E-03,            0.,NA,NA,"",       2.19841,      -1.76834,      -1.30614,   5.29638E-03
C:/temp/dataset/9/2_4.odb,Step-1,Increment      1: Step Time =    1.000,"PART-1-1",           485,  -536.863E-03,      -1.25885,            0.,NA,NA,"",       2.14424,      -1.58269,      -1.44667,   5.17491E-03
C:/temp/dataset/9/2_4.odb,Step-1,Increment      1: Step Time =    1.000,"PART-1-1",           486,       7.06616,      -9.87010,            0.,NA,NA,"",   828.029E-03,  -768.378E-03,  -308.589E-03,   17.0865E-03
C:/temp/dataset/9/2_4.odb,Step-1,Increment      1: Step Time =    1.000,"PART-1-1",           487,       6.02487,      -8.97716,            0.,NA,NA,"",   941.388E-03,  -845.740E-03,  -413.443E-03,   22.1890E-03
C:/temp/dataset/9/2_4.odb,Step-1,Increment      1: Step Time =    1.000,"PART-1-1",           488,            5.,      -10.2083,            0.,NA,NA,"",   888.335E-03,  -755.481E-03,  -467.318E-03,   26.3598E-03
C:/temp/dataset/9/2_4.odb,Step-1,Increment      1: Step Time =    1.000,"PART-1-1",           489,       13.0743,      -11.4048,            0.,NA,NA,"",   685.335E-03,  -664.115E-03,   169.218E-03,   12.0098E-03
C:/temp/dataset/9/2_4.odb,Step-1,Increment      1: Step Time =    1.000,"PART-1-1",           490,       14.0423,      -12.5586,            0.,NA,NA,"",   630.976E-03,  -588.704E-03,   227.065E-03,   16.6499E-03
C:/temp/dataset/9/2_4.odb,Step-1,Increment      1: Step Time =    1.000,"PART-1-1",           491,           15.,        -11.25,            0.,NA,NA,"",   763.714E-03,  -695.764E-03,   314.914E-03,   21.4472E-03
C:/temp/dataset/9/2_4.odb,Step-1,Increment      1: Step Time =    1.000,"PART-1-1",           492,       14.0319,      -10.0962,            0.,NA,NA,"",   817.361E-03,  -776.174E-03,   256.191E-03,   16.8135E-03
C:/temp/dataset/9/2_4.odb,Step-1,Increment      1: Step Time =    1.000,"PART-1-1",           493,       7.09943,      -16.3632,            0.,NA,NA,"",   393.544E-03,  -341.814E-03,  -195.039E-03,   16.2753E-03
C:/temp/dataset/9/2_4.odb,Step-1,Increment      1: Step Time =    1.000,"PART-1-1",           494,            5.,      -16.4583,            0.,NA,NA,"",   467.791E-03,  -354.043E-03,  -305.748E-03,   26.1467E-03
C:/temp/dataset/9/2_4.odb,Step-1,Increment      1: Step Time =    1.000,"PART-1-1",           495,       13.0966,      -13.8278,            0.,NA,NA,"",   517.157E-03,  -494.764E-03,   150.531E-03,   11.9617E-03
C:/temp/dataset/9/2_4.odb,Step-1,Increment      1: Step Time =    1.000,"PART-1-1",           496,       14.0543,      -15.0192,            0.,NA,NA,"",   471.561E-03,  -428.690E-03,   196.456E-03,   16.4023E-03
C:/temp/dataset/9/2_4.odb,Step-1,Increment      1: Step Time =    1.000,"PART-1-1",           497,           15.,        -13.75,            0.,NA,NA,"",   585.512E-03,  -517.820E-03,   273.288E-03,   21.0892E-03
C:/temp/dataset/9/2_4.odb,Step-1,Increment      1: Step Time =    1.000,"PART-1-1",           498,       13.0974,      -18.6352,            0.,NA,NA,"",   257.456E-03,  -234.226E-03,   106.873E-03,   11.5504E-03
C:/temp/dataset/9/2_4.odb,Step-1,Increment      1: Step Time =    1.000,"PART-1-1",           499,       14.0421,      -19.9133,            0.,NA,NA,"",   229.186E-03,  -187.958E-03,   131.141E-03,   15.7236E-03
C:/temp/dataset/9/2_4.odb,Step-1,Increment      1: Step Time =    1.000,"PART-1-1",           500,           15.,        -18.75,            0.,NA,NA,"",   308.327E-03,  -244.526E-03,   187.810E-03,   20.2765E-03
C:/temp/dataset/9/2_4.odb,Step-1,Increment      1: Step Time =    1.000,"PART-1-1",           501,       14.0553,      -17.4719,            0.,NA,NA,"",   337.949E-03,  -295.331E-03,   164.284E-03,   16.0981E-03
C:/temp/dataset/9/2_4.odb,Step-1,Increment      1: Step Time =    1.000,"PART-1-1",           502,       7.12541,      -22.7005,            0.,NA,NA,"",   135.300E-03,  -93.2313E-03,  -98.0514E-03,   15.6288E-03
C:/temp/dataset/9/2_4.odb,Step-1,Increment      1: Step Time =    1.000,"PART-1-1",           503,       6.04628,      -21.6612,            0.,NA,NA,"",   197.362E-03,  -131.038E-03,  -147.583E-03,   20.5836E-03
C:/temp/dataset/9/2_4.odb,Step-1,Increment      1: Step Time =    1.000,"PART-1-1",           504,            5.,      -22.7083,            0.,NA,NA,"",   192.375E-03,  -111.809E-03,  -156.547E-03,   25.0944E-03
C:/temp/dataset/9/2_4.odb,Step-1,Increment      1: Step Time =    1.000,"PART-1-1",           505,       6.07914,      -23.7476,            0.,NA,NA,"",   131.863E-03,  -75.8965E-03,  -107.831E-03,   20.1170E-03
C:/temp/dataset/9/2_4.odb,Step-1,Increment      1: Step Time =    1.000,"PART-1-1",           506,       6.22304,      -27.8948,            0.,NA,NA,"",   34.9798E-03,  -13.3238E-03,  -32.3429E-03,   19.0650E-03
C:/temp/dataset/9/2_4.odb,Step-1,Increment      1: Step Time =    1.000,"PART-1-1",           507,            5.,      -28.9583,            0.,NA,NA,"",   26.3705E-03,  -16.0547E-03,  -20.9201E-03,   23.2708E-03
C:/temp/dataset/9/2_4.odb,Step-1,Increment      1: Step Time =    1.000,"PART-1-1",           508,          6.25,          -30.,            0.,NA,NA,"",            0.,   1.38057E-39,  -27.8604E-39,   16.8538E-03
C:/temp/dataset/9/2_4.odb,Step-1,Increment      1: Step Time =    1.000,"PART-1-1",           509,       9.78444,      -26.6535,            0.,NA,NA,"",   12.9985E-03,  -8.67364E-03,  -9.68139E-03,   3.74515E-03
C:/temp/dataset/9/2_4.odb,Step-1,Increment      1: Step Time =    1.000,"PART-1-1",           510,       8.47427,      -25.6871,            0.,NA,NA,"",   41.8422E-03,  -24.5409E-03,  -33.8897E-03,   9.68237E-03
C:/temp/dataset/9/2_4.odb,Step-1,Increment      1: Step Time =    1.000,"PART-1-1",           511,       7.37694,      -26.8334,            0.,NA,NA,"",   39.8879E-03,  -15.5740E-03,  -36.7219E-03,   14.2945E-03
C:/temp/dataset/9/2_4.odb,Step-1,Increment      1: Step Time =    1.000,"PART-1-1",           512,       13.7223,      -27.5034,            0.,NA,NA,"",   28.9161E-03,  -10.1557E-03,   27.0740E-03,   13.6162E-03
C:/temp/dataset/9/2_4.odb,Step-1,Increment      1: Step Time =    1.000,"PART-1-1",           513,       12.4723,      -28.7534,            0.,NA,NA,"",   7.49529E-03,   2.16721E-03,   7.17513E-03,   7.49354E-03
C:/temp/dataset/9/2_4.odb,Step-1,Increment      1: Step Time =    1.000,"PART-1-1",           514,         13.75,          -30.,            0.,NA,NA,"",            0.,   2.84793E-39,   18.6355E-39,   11.1018E-03
C:/temp/dataset/9/2_4.odb,Step-1,Increment      1: Step Time =    1.000,"PART-1-1",           515,           15.,        -28.75,            0.,NA,NA,"",   21.3203E-03,  -11.3400E-03,   18.0543E-03,   17.2447E-03
C:/temp/dataset/9/2_4.odb,Step-1,Increment      1: Step Time =    1.000,"PART-1-1",           516,         11.25,          -30.,            0.,NA,NA,"",            0.,   4.91173E-39,   3.92044E-39,   4.66197E-03
C:/temp/dataset/9/2_4.odb,Step-1,Increment      1: Step Time =    1.000,"PART-1-1",           517,       11.1864,      -27.6167,            0.,NA,NA,"",   4.68228E-03,  -388.257E-06,   4.66616E-03,   2.91340E-03
C:/temp/dataset/9/2_4.odb,Step-1,Increment      1: Step Time =    1.000,"PART-1-1",           518,       9.10684,      -20.5966,            0.,NA,NA,"",   159.280E-03,  -148.937E-03,  -56.4605E-03,   6.84756E-03
C:/temp/dataset/9/2_4.odb,Step-1,Increment      1: Step Time =    1.000,"PART-1-1",           519,       11.0993,      -20.6881,            0.,NA,NA,"",   146.142E-03,  -145.264E-03,   15.9968E-03,   2.37262E-03
C:/temp/dataset/9/2_4.odb,Step-1,Increment      1: Step Time =    1.000,"PART-1-1",           520,       7.08739,      -20.6083,            0.,NA,NA,"",   204.088E-03,  -157.370E-03,  -129.948E-03,   15.9765E-03
C:/temp/dataset/9/2_4.odb,Step-1,Increment      1: Step Time =    1.000,"PART-1-1",           521,            5.,       -20.625,            0.,NA,NA,"",   269.514E-03,  -175.051E-03,  -204.926E-03,   25.5209E-03
C:/temp/dataset/9/2_4.odb,Step-1,Increment      1: Step Time =    1.000,"PART-1-1",           522,       9.14341,      -14.0595,            0.,NA,NA,"",   477.996E-03,  -466.862E-03,  -102.568E-03,   6.83865E-03
C:/temp/dataset/9/2_4.odb,Step-1,Increment      1: Step Time =    1.000,"PART-1-1",           523,       10.1582,      -15.1431,            0.,NA,NA,"",   403.107E-03,  -401.671E-03,  -34.0000E-03,   2.09812E-03
C:/temp/dataset/9/2_4.odb,Step-1,Increment      1: Step Time =    1.000,"PART-1-1",           524,       11.1509,      -13.9343,            0.,NA,NA,"",   477.969E-03,  -477.302E-03,   25.2530E-03,   2.75060E-03
C:/temp/dataset/9/2_4.odb,Step-1,Increment      1: Step Time =    1.000,"PART-1-1",           525,       10.1361,      -12.8507,            0.,NA,NA,"",   547.701E-03,  -545.914E-03,  -44.2141E-03,   2.18658E-03
C:/temp/dataset/9/2_4.odb,Step-1,Increment      1: Step Time =    1.000,"PART-1-1",           526,       9.12292,      -11.8044,            0.,NA,NA,"",   630.415E-03,  -618.303E-03,  -122.983E-03,   6.90883E-03
C:/temp/dataset/9/2_4.odb,Step-1,Increment      1: Step Time =    1.000,"PART-1-1",           527,       11.1213,      -11.5948,            0.,NA,NA,"",   638.102E-03,  -637.676E-03,   23.3228E-03,   2.75123E-03
C:/temp/dataset/9/2_4.odb,Step-1,Increment      1: Step Time =    1.000,"PART-1-1",           528,       10.1081,      -10.5485,            0.,NA,NA,"",   715.779E-03,  -713.527E-03,  -56.7367E-03,   2.18239E-03
C:/temp/dataset/9/2_4.odb,Step-1,Increment      1: Step Time =    1.000,"PART-1-1",           529,       13.8169,  -7.21098E-03,            0.,NA,NA,"",       1.85472,      -1.83008,   301.320E-03,   8.08505E-03
C:/temp/dataset/9/2_4.odb,Step-1,Increment      1: Step Time =    1.000,"PART-1-1",           530,           15.,          1.25,            0.,NA,NA,"",       2.04454,      -1.99633,   441.374E-03,   8.36344E-03
C:/temp/dataset/9/2_4.odb,Step-1,Increment      1: Step Time =    1.000,"PART-1-1",           531,       13.9075,       2.57030,            0.,NA,NA,"",       2.17003,      -2.14817,   307.218E-03,   5.24606E-03
C:/temp/dataset/9/2_4.odb,Step-1,Increment      1: Step Time =    1.000,"PART-1-1",           532,       10.8083,      -4.35361,            0.,NA,NA,"",       1.29602,      -1.29592,  -15.8051E-03,   6.41529E-03
C:/temp/dataset/9/2_4.odb,Step-1,Increment      1: Step Time =    1.000,"PART-1-1",           533,       9.68548,      -3.40243,            0.,NA,NA,"",       1.40123,      -1.39464,  -135.789E-03,   7.29782E-03
C:/temp/dataset/9/2_4.odb,Step-1,Increment      1: Step Time =    1.000,"PART-1-1",           534,       8.81587,      -4.92348,            0.,NA,NA,"",       1.23880,      -1.22047,  -212.313E-03,   6.27926E-03
C:/temp/dataset/9/2_4.odb,Step-1,Increment      1: Step Time =    1.000,"PART-1-1",           535,       9.93870,      -5.87466,            0.,NA,NA,"",       1.13262,      -1.12861,  -95.2241E-03,   3.93784E-03
C:/temp/dataset/9/2_4.odb,Step-1,Increment      1: Step Time =    1.000,"PART-1-1",           536,       10.7940,       8.23694,            0.,NA,NA,"",       2.83419,      -2.83208,  -109.541E-03,   794.312E-06
C:/temp/dataset/9/2_4.odb,Step-1,Increment      1: Step Time =    1.000,"PART-1-1",           537,       11.2752,       6.42654,            0.,NA,NA,"",       2.60818,      -2.60794,  -35.4221E-03,   1.26128E-03
C:/temp/dataset/9/2_4.odb,Step-1,Increment      1: Step Time =    1.000,"PART-1-1",           538,       12.8821,       8.67106,            0.,NA,NA,"",       2.90831,      -2.90445,   149.778E-03,   2.04808E-03
C:/temp/dataset/9/2_4.odb,Step-1,Increment      1: Step Time =    1.000,"PART-1-1",           539,       14.0355,       7.50951,            0.,NA,NA,"",       2.78405,      -2.76768,   301.522E-03,   3.15214E-03
C:/temp/dataset/9/2_4.odb,Step-1,Increment      1: Step Time =    1.000,"PART-1-1",           540,           15.,          8.75,            0.,NA,NA,"",       2.96376,      -2.93427,   417.068E-03,   3.86756E-03
C:/temp/dataset/9/2_4.odb,Step-1,Increment      1: Step Time =    1.000,"PART-1-1",           541,       13.8467,       9.91155,            0.,NA,NA,"",       3.08297,      -3.07160,   264.515E-03,   2.71479E-03
C:/temp/dataset/9/2_4.odb,Step-1,Increment      1: Step Time =    1.000,"PART-1-1",           542,       12.4850,       16.2122,            0.,NA,NA,"",       3.88244,      -3.88219,   44.0606E-03,   1.18336E-03
C:/temp/dataset/9/2_4.odb,Step-1,Increment      1: Step Time =    1.000,"PART-1-1",           543,       13.7431,       14.9727,            0.,NA,NA,"",       3.73598,      -3.72957,   218.795E-03,   1.99258E-03
C:/temp/dataset/9/2_4.odb,Step-1,Increment      1: Step Time =    1.000,"PART-1-1",           544,           15.,         16.25,            0.,NA,NA,"",       3.92928,      -3.91126,   375.908E-03,   2.61945E-03
C:/temp/dataset/9/2_4.odb,Step-1,Increment      1: Step Time =    1.000,"PART-1-1",           545,       13.7419,       17.4895,            0.,NA,NA,"",       4.06931,      -4.06438,   200.193E-03,   1.57862E-03
C:/temp/dataset/9/2_4.odb,Step-1,Increment      1: Step Time =    1.000,"PART-1-1",           546,       12.4991,       13.6576,            0.,NA,NA,"",       3.54549,      -3.54488,   65.9765E-03,   1.31400E-03
C:/temp/dataset/9/2_4.odb,Step-1,Increment      1: Step Time =    1.000,"PART-1-1",           547,       13.7559,       12.4349,            0.,NA,NA,"",       3.40501,      -3.39672,   237.484E-03,   2.35461E-03
C:/temp/dataset/9/2_4.odb,Step-1,Increment      1: Step Time =    1.000,"PART-1-1",           548,           15.,         13.75,            0.,NA,NA,"",       3.60209,      -3.58079,   391.216E-03,   3.17025E-03
C:/temp/dataset/9/2_4.odb,Step-1,Increment      1: Step Time =    1.000,"PART-1-1",           549,           15.,         21.25,            0.,NA,NA,"",       4.59568,      -4.58314,   339.324E-03,   1.22606E-03
C:/temp/dataset/9/2_4.odb,Step-1,Increment      1: Step Time =    1.000,"PART-1-1",           550,       13.6875,       22.5045,            0.,NA,NA,"",       4.74309,      -4.74067,   151.521E-03,   644.876E-06
C:/temp/dataset/9/2_4.odb,Step-1,Increment      1: Step Time =    1.000,"PART-1-1",           551,       12.4125,       21.2511,            0.,NA,NA,"",       4.55895,      -4.55894,  -8.87531E-03,   899.316E-06
C:/temp/dataset/9/2_4.odb,Step-1,Increment      1: Step Time =    1.000,"PART-1-1",           552,       13.7250,       19.9966,            0.,NA,NA,"",       4.40500,      -4.40140,   177.980E-03,   1.10864E-03
C:/temp/dataset/9/2_4.odb,Step-1,Increment      1: Step Time =    1.000,"PART-1-1",           553,       13.6481,       25.0064,            0.,NA,NA,"",       5.08161,      -5.08010,   123.818E-03,   314.822E-06
C:/temp/dataset/9/2_4.odb,Step-1,Increment      1: Step Time =    1.000,"PART-1-1",           554,       12.3356,       23.7609,            0.,NA,NA,"",       4.89898,      -4.89880,  -42.2424E-03,   615.834E-06
C:/temp/dataset/9/2_4.odb,Step-1,Increment      1: Step Time =    1.000,"PART-1-1",           555,           15.,         23.75,            0.,NA,NA,"",       4.93240,      -4.92213,   318.208E-03,   635.008E-06
C:/temp/dataset/9/2_4.odb,Step-1,Increment      1: Step Time =    1.000,"PART-1-1",           556,       13.7112,       27.5077,            0.,NA,NA,"",       5.42169,      -5.42059,   109.460E-03,   135.423E-06
C:/temp/dataset/9/2_4.odb,Step-1,Increment      1: Step Time =    1.000,"PART-1-1",           557,           15.,         28.75,            0.,NA,NA,"",       5.60791,      -5.60127,   272.921E-03,   35.1881E-06
C:/temp/dataset/9/2_4.odb,Step-1,Increment      1: Step Time =    1.000,"PART-1-1",           558,         13.75,           30.,            0.,NA,NA,"",       5.76012,      -5.75940,   91.6862E-03,   30.9117E-06
C:/temp/dataset/9/2_4.odb,Step-1,Increment      1: Step Time =    1.000,"PART-1-1",           559,            5.,      -24.7917,            0.,NA,NA,"",   127.681E-03,  -65.5435E-03,  -109.574E-03,   24.3450E-03
C:/temp/dataset/9/2_4.odb,Step-1,Increment      1: Step Time =    1.000,"PART-1-1",           560,       6.15390,      -25.8136,            0.,NA,NA,"",   79.0355E-03,  -37.7291E-03,  -69.4488E-03,   19.4220E-03
C:/temp/dataset/9/2_4.odb,Step-1,Increment      1: Step Time =    1.000,"PART-1-1",           561,       7.23304,      -24.7696,            0.,NA,NA,"",   81.0339E-03,  -46.3811E-03,  -66.4477E-03,   15.1606E-03
C:/temp/dataset/9/2_4.odb,Step-1,Increment      1: Step Time =    1.000,"PART-1-1",           562,       13.0086,      -21.0119,            0.,NA,NA,"",   162.811E-03,  -141.096E-03,   81.2367E-03,   10.8981E-03
C:/temp/dataset/9/2_4.odb,Step-1,Increment      1: Step Time =    1.000,"PART-1-1",           563,       13.9664,      -22.3485,            0.,NA,NA,"",   142.685E-03,  -105.287E-03,   96.2998E-03,   15.0691E-03
C:/temp/dataset/9/2_4.odb,Step-1,Increment      1: Step Time =    1.000,"PART-1-1",           564,           15.,        -21.25,            0.,NA,NA,"",   206.809E-03,  -147.899E-03,   144.553E-03,   19.8976E-03
C:/temp/dataset/9/2_4.odb,Step-1,Increment      1: Step Time =    1.000,"PART-1-1",           565,            5.,       -26.875,            0.,NA,NA,"",   74.0753E-03,  -35.5131E-03,  -65.0074E-03,   23.7478E-03
C:/temp/dataset/9/2_4.odb,Step-1,Increment      1: Step Time =    1.000,"PART-1-1",           566,       12.9745,      -6.51631,            0.,NA,NA,"",       1.10626,      -1.08910,   194.114E-03,   11.3569E-03
C:/temp/dataset/9/2_4.odb,Step-1,Increment      1: Step Time =    1.000,"PART-1-1",           567,       14.0104,      -7.62731,            0.,NA,NA,"",       1.03208,  -992.899E-03,   281.669E-03,   16.4398E-03
C:/temp/dataset/9/2_4.odb,Step-1,Increment      1: Step Time =    1.000,"PART-1-1",           568,           15.,         -6.25,            0.,NA,NA,"",       1.20490,      -1.13960,   391.259E-03,   20.0960E-03
C:/temp/dataset/9/2_4.odb,Step-1,Increment      1: Step Time =    1.000,"PART-1-1",           569,       13.9641,      -5.13900,            0.,NA,NA,"",       1.27677,      -1.24113,   299.564E-03,   14.8117E-03
C:/temp/dataset/9/2_4.odb,Step-1,Increment      1: Step Time =    1.000,"PART-1-1",           570,       11.1649,      -16.2543,            0.,NA,NA,"",   342.452E-03,  -341.579E-03,   24.4423E-03,   2.77151E-03
C:/temp/dataset/9/2_4.odb,Step-1,Increment      1: Step Time =    1.000,"PART-1-1",           571,       9.14831,      -16.2933,            0.,NA,NA,"",   348.583E-03,  -338.077E-03,  -84.9355E-03,   6.74763E-03
C:/temp/dataset/9/2_4.odb,Step-1,Increment      1: Step Time =    1.000,"PART-1-1",           572,            5.,        -8.125,            0.,NA,NA,"",       1.06182,  -924.316E-03,  -522.588E-03,   28.1173E-03
C:/temp/dataset/9/2_4.odb,Step-1,Increment      1: Step Time =    1.000,"PART-1-1",           573,       12.8519,      -3.99254,            0.,NA,NA,"",       1.36695,      -1.35346,   191.624E-03,   10.1702E-03
C:/temp/dataset/9/2_4.odb,Step-1,Increment      1: Step Time =    1.000,"PART-1-1",           574,           15.,         -3.75,            0.,NA,NA,"",       1.46667,      -1.40531,   419.765E-03,   16.9525E-03
C:/temp/dataset/9/2_4.odb,Step-1,Increment      1: Step Time =    1.000,"PART-1-1",           575,       13.8878,      -2.60354,            0.,NA,NA,"",       1.55221,      -1.52184,   305.569E-03,   11.7026E-03
C:/temp/dataset/9/2_4.odb,Step-1,Increment      1: Step Time =    1.000,"PART-1-1",           576,       13.0423,      -8.97351,            0.,NA,NA,"",   880.745E-03,  -861.099E-03,   184.987E-03,   11.9026E-03
C:/temp/dataset/9/2_4.odb,Step-1,Increment      1: Step Time =    1.000,"PART-1-1",           577,           15.,         -8.75,            0.,NA,NA,"",   969.946E-03,  -902.665E-03,   354.953E-03,   21.3837E-03
C:/temp/dataset/9/2_4.odb,Step-1,Increment      1: Step Time =    1.000,"PART-1-1",           578,       8.09346,      -21.6433,            0.,NA,NA,"",   143.783E-03,  -117.973E-03,  -82.1941E-03,   11.3690E-03
C:/temp/dataset/9/2_4.odb,Step-1,Increment      1: Step Time =    1.000,"PART-1-1",           579,       8.17438,      -23.6967,            0.,NA,NA,"",   86.0621E-03,  -63.0240E-03,  -58.6059E-03,   10.9645E-03
C:/temp/dataset/9/2_4.odb,Step-1,Increment      1: Step Time =    1.000,"PART-1-1",           580,       8.10077,      -19.5616,            0.,NA,NA,"",   217.388E-03,  -190.623E-03,  -104.502E-03,   11.4370E-03
C:/temp/dataset/9/2_4.odb,Step-1,Increment      1: Step Time =    1.000,"PART-1-1",           581,       8.11824,      -17.4194,            0.,NA,NA,"",   311.366E-03,  -283.932E-03,  -127.793E-03,   11.4755E-03
C:/temp/dataset/9/2_4.odb,Step-1,Increment      1: Step Time =    1.000,"PART-1-1",           582,          -15.,       22.3438,            0.,NA,NA,"",       5.78675,      -4.51629,      -3.61796,   626.556E-06
C:/temp/dataset/9/2_4.odb,Step-1,Increment      1: Step Time =    1.000,"PART-1-1",           583,      -12.5647,       21.7347,            0.,NA,NA,"",       5.54980,      -4.45784,      -3.30574,   1.15520E-03
C:/temp/dataset/9/2_4.odb,Step-1,Increment      1: Step Time =    1.000,"PART-1-1",           584,      -4.95050,       22.5220,            0.,NA,NA,"",       5.17117,      -4.60206,      -2.35839,   4.14233E-03
C:/temp/dataset/9/2_4.odb,Step-1,Increment      1: Step Time =    1.000,"PART-1-1",           585,      -3.93081,       23.1260,            0.,NA,NA,"",       5.19136,      -4.68548,      -2.23528,   3.05893E-03
C:/temp/dataset/9/2_4.odb,Step-1,Increment      1: Step Time =    1.000,"PART-1-1",           586,      -4.22857,       24.4244,            0.,NA,NA,"",       5.36369,      -4.85164,      -2.28709,   3.04356E-03
C:/temp/dataset/9/2_4.odb,Step-1,Increment      1: Step Time =    1.000,"PART-1-1",           587,      -5.24826,       23.8204,            0.,NA,NA,"",       5.34186,      -4.76737,      -2.40990,   3.82729E-03
C:/temp/dataset/9/2_4.odb,Step-1,Increment      1: Step Time =    1.000,"PART-1-1",           588,      -10.1110,       10.4874,            0.,NA,NA,"",       4.20084,      -3.05149,      -2.88712,   1.91781E-03
C:/temp/dataset/9/2_4.odb,Step-1,Increment      1: Step Time =    1.000,"PART-1-1",           589,      -9.15687,       11.6944,            0.,NA,NA,"",       4.24627,      -3.21394,      -2.77514,   2.50279E-03
C:/temp/dataset/9/2_4.odb,Step-1,Increment      1: Step Time =    1.000,"PART-1-1",           590,      -11.1597,       11.6149,            0.,NA,NA,"",       4.40145,      -3.18822,      -3.03447,   1.39466E-03
C:/temp/dataset/9/2_4.odb,Step-1,Increment      1: Step Time =    1.000,"PART-1-1",           591,      -6.07359,       12.6401,            0.,NA,NA,"",       4.11843,      -3.35619,      -2.38694,   4.21935E-03
C:/temp/dataset/9/2_4.odb,Step-1,Increment      1: Step Time =    1.000,"PART-1-1",           592,      -7.11512,       11.5321,            0.,NA,NA,"",       4.07202,      -3.20771,      -2.50839,   3.75986E-03
C:/temp/dataset/9/2_4.odb,Step-1,Increment      1: Step Time =    1.000,"PART-1-1",           593,           -5.,         11.25,            0.,NA,NA,"",       3.88890,      -3.18515,      -2.23123,   5.10483E-03
C:/temp/dataset/9/2_4.odb,Step-1,Increment      1: Step Time =    1.000,"PART-1-1",           594,      -10.0988,       8.37440,            0.,NA,NA,"",       3.99011,      -2.77762,      -2.86457,   1.68345E-03
C:/temp/dataset/9/2_4.odb,Step-1,Increment      1: Step Time =    1.000,"PART-1-1",           595,      -9.11481,       9.38066,            0.,NA,NA,"",       4.00523,      -2.91624,      -2.74543,   2.50287E-03
C:/temp/dataset/9/2_4.odb,Step-1,Increment      1: Step Time =    1.000,"PART-1-1",           596,      -11.0949,       9.48111,            0.,NA,NA,"",       4.18621,      -2.91336,      -3.00611,   1.20312E-03
C:/temp/dataset/9/2_4.odb,Step-1,Increment      1: Step Time =    1.000,"PART-1-1",           597,      -11.8142,       15.6555,            0.,NA,NA,"",       4.86114,      -3.69767,      -3.15561,   1.35389E-03
C:/temp/dataset/9/2_4.odb,Step-1,Increment      1: Step Time =    1.000,"PART-1-1",           598,      -13.4062,       15.6218,            0.,NA,NA,"",       4.98298,      -3.68088,      -3.35875,   685.286E-06
C:/temp/dataset/9/2_4.odb,Step-1,Increment      1: Step Time =    1.000,"PART-1-1",           599,      -12.4316,       14.7766,            0.,NA,NA,"",       4.82079,      -3.58151,      -3.22690,   1.01590E-03
C:/temp/dataset/9/2_4.odb,Step-1,Increment      1: Step Time =    1.000,"PART-1-1",           600,      -5.72199,       20.2132,            0.,NA,NA,"",       4.94482,      -4.30745,      -2.42839,   4.95228E-03
C:/temp/dataset/9/2_4.odb,Step-1,Increment      1: Step Time =    1.000,"PART-1-1",           601,           -5.,         18.75,            0.,NA,NA,"",       4.74082,      -4.13286,      -2.32268,   4.23375E-03
C:/temp/dataset/9/2_4.odb,Step-1,Increment      1: Step Time =    1.000,"PART-1-1",           602,          -15.,       15.7813,            0.,NA,NA,"",       5.12799,      -3.68820,      -3.56279,   210.424E-06
C:/temp/dataset/9/2_4.odb,Step-1,Increment      1: Step Time =    1.000,"PART-1-1",           603,      -10.4105,       16.7429,            0.,NA,NA,"",       4.86886,      -3.84551,      -2.98627,   1.91770E-03
C:/temp/dataset/9/2_4.odb,Step-1,Increment      1: Step Time =    1.000,"PART-1-1",           604,      -12.1928,       12.6381,            0.,NA,NA,"",       4.58904,      -3.31101,      -3.17749,   951.288E-06
C:/temp/dataset/9/2_4.odb,Step-1,Increment      1: Step Time =    1.000,"PART-1-1",           605,      -12.0987,       10.4443,            0.,NA,NA,"",       4.36769,      -3.02975,      -3.14600,   793.470E-06
C:/temp/dataset/9/2_4.odb,Step-1,Increment      1: Step Time =    1.000,"PART-1-1",           606,      -7.50325,       4.80693,            0.,NA,NA,"",       3.40312,      -2.32923,      -2.48112,   2.82939E-03
C:/temp/dataset/9/2_4.odb,Step-1,Increment      1: Step Time =    1.000,"PART-1-1",           607,      -9.63824,       5.46172,            0.,NA,NA,"",       3.66706,      -2.39799,      -2.77434,   1.42217E-03
C:/temp/dataset/9/2_4.odb,Step-1,Increment      1: Step Time =    1.000,"PART-1-1",           608,      -8.81234,       4.25317,            0.,NA,NA,"",       3.47332,      -2.24378,      -2.65130,   1.87490E-03
C:/temp/dataset/9/2_4.odb,Step-1,Increment      1: Step Time =    1.000,"PART-1-1",           609,          -15.,      -1.71875,            0.,NA,NA,"",       3.69611,      -1.38018,      -3.42875,   363.628E-06
C:/temp/dataset/9/2_4.odb,Step-1,Increment      1: Step Time =    1.000,"PART-1-1",           610,      -12.5835,      -1.75493,            0.,NA,NA,"",       3.40132,      -1.39774,      -3.10086,   450.547E-06
C:/temp/dataset/9/2_4.odb,Step-1,Increment      1: Step Time =    1.000,"PART-1-1",           611,        -11.25,           -5.,            0.,NA,NA,"",       3.04757,  -968.534E-03,      -2.88957,   376.032E-06
C:/temp/dataset/9/2_4.odb,Step-1,Increment      1: Step Time =    1.000,"PART-1-1",           612,      -10.0144,      -3.91217,            0.,NA,NA,"",       2.95541,      -1.12758,      -2.73185,   367.398E-06
C:/temp/dataset/9/2_4.odb,Step-1,Increment      1: Step Time =    1.000,"PART-1-1",           613,      -11.2827,      -2.82422,            0.,NA,NA,"",       3.17687,      -1.26415,      -2.91452,   283.798E-06
C:/temp/dataset/9/2_4.odb,Step-1,Increment      1: Step Time =    1.000,"PART-1-1",           614,         -8.75,           -5.,            0.,NA,NA,"",       2.73472,  -990.626E-03,      -2.54900,   452.133E-06
C:/temp/dataset/9/2_4.odb,Step-1,Increment      1: Step Time =    1.000,"PART-1-1",           615,      -7.54904,      -4.01671,            0.,NA,NA,"",       2.64975,      -1.13597,      -2.39390,   447.312E-06
C:/temp/dataset/9/2_4.odb,Step-1,Increment      1: Step Time =    1.000,"PART-1-1",           616,      -8.81345,      -2.92887,            0.,NA,NA,"",       2.87438,      -1.27245,      -2.57739,   409.793E-06
C:/temp/dataset/9/2_4.odb,Step-1,Increment      1: Step Time =    1.000,"PART-1-1",           617,  -969.738E-03,       22.2544,            0.,NA,NA,"",       4.94532,      -4.59030,      -1.83993,   2.94903E-03
C:/temp/dataset/9/2_4.odb,Step-1,Increment      1: Step Time =    1.000,"PART-1-1",           618,      -2.31964,       21.1016,            0.,NA,NA,"",       4.86551,      -4.43259,      -2.00634,   4.53218E-03
C:/temp/dataset/9/2_4.odb,Step-1,Increment      1: Step Time =    1.000,"PART-1-1",           619,         -1.25,           20.,            0.,NA,NA,"",       4.67568,      -4.29280,      -1.85308,   5.79912E-03
C:/temp/dataset/9/2_4.odb,Step-1,Increment      1: Step Time =    1.000,"PART-1-1",           620,         -1.25,           30.,            0.,NA,NA,"",       5.93967,      -5.60806,      -1.95688,   4.86634E-03
C:/temp/dataset/9/2_4.odb,Step-1,Increment      1: Step Time =    1.000,"PART-1-1",           621,      -1.44357,       27.1449,            0.,NA,NA,"",       5.57988,      -5.22714,      -1.95245,   2.72287E-03
C:/temp/dataset/9/2_4.odb,Step-1,Increment      1: Step Time =    1.000,"PART-1-1",           622,      -4.58492,       21.1383,            0.,NA,NA,"",       4.98755,      -4.42682,      -2.29759,   4.39468E-03
C:/temp/dataset/9/2_4.odb,Step-1,Increment      1: Step Time =    1.000,"PART-1-1",           623,         -3.75,           20.,            0.,NA,NA,"",       4.80872,      -4.28619,      -2.18001,   6.40822E-03
C:/temp/dataset/9/2_4.odb,Step-1,Increment      1: Step Time =    1.000,"PART-1-1",           624,      -3.15456,       22.2398,            0.,NA,NA,"",       5.04546,      -4.57548,      -2.12643,   2.80263E-03
C:/temp/dataset/9/2_4.odb,Step-1,Increment      1: Step Time =    1.000,"PART-1-1",           625,      -11.2479,       22.4027,            0.,NA,NA,"",       5.53302,      -4.55140,      -3.14628,   1.80835E-03
C:/temp/dataset/9/2_4.odb,Step-1,Increment      1: Step Time =    1.000,"PART-1-1",           626,      -10.3888,       20.8027,            0.,NA,NA,"",       5.30170,      -4.35564,      -3.02266,   2.15884E-03
C:/temp/dataset/9/2_4.odb,Step-1,Increment      1: Step Time =    1.000,"PART-1-1",           627,       9.41561,      -24.6142,            0.,NA,NA,"",   46.5618E-03,  -39.8193E-03,  -24.1336E-03,   5.46446E-03
C:/temp/dataset/9/2_4.odb,Step-1,Increment      1: Step Time =    1.000,"PART-1-1",           628,           15.,        -16.25,            0.,NA,NA,"",   434.104E-03,  -367.655E-03,   230.817E-03,   20.6785E-03
C:/temp/dataset/9/2_4.odb,Step-1,Increment      1: Step Time =    1.000,"PART-1-1",           629,       13.1096,      -16.2411,            0.,NA,NA,"",   374.841E-03,  -351.676E-03,   129.729E-03,   11.8213E-03
C:/temp/dataset/9/2_4.odb,Step-1,Increment      1: Step Time =    1.000,"PART-1-1",           630,           15.,          3.75,            0.,NA,NA,"",       2.34658,      -2.30551,   437.146E-03,   5.57508E-03
C:/temp/dataset/9/2_4.odb,Step-1,Increment      1: Step Time =    1.000,"PART-1-1",           631,       14.0093,       5.06690,            0.,NA,NA,"",       2.47976,      -2.46030,   310.059E-03,   3.70908E-03
C:/temp/dataset/9/2_4.odb,Step-1,Increment      1: Step Time =    1.000,"PART-1-1",           632,       12.9168,       3.88721,            0.,NA,NA,"",       2.31039,      -2.30321,   182.099E-03,   3.70826E-03
C:/temp/dataset/9/2_4.odb,Step-1,Increment      1: Step Time =    1.000,"PART-1-1",           633,       12.6026,       11.0965,            0.,NA,NA,"",       3.21412,      -3.21262,   98.0612E-03,   1.57952E-03
C:/temp/dataset/9/2_4.odb,Step-1,Increment      1: Step Time =    1.000,"PART-1-1",           634,           15.,         11.25,            0.,NA,NA,"",       3.28012,      -3.25504,   404.829E-03,   3.56792E-03
C:/temp/dataset/9/2_4.odb,Step-1,Increment      1: Step Time =    1.000,"PART-1-1",           635,       12.4669,       18.7361,            0.,NA,NA,"",       4.21981,      -4.21976,   20.5748E-03,   1.08109E-03
C:/temp/dataset/9/2_4.odb,Step-1,Increment      1: Step Time =    1.000,"PART-1-1",           636,           15.,         18.75,            0.,NA,NA,"",       4.26086,      -4.24574,   358.647E-03,   1.94069E-03
C:/temp/dataset/9/2_4.odb,Step-1,Increment      1: Step Time =    1.000,"PART-1-1",           637,           15.,         26.25,            0.,NA,NA,"",       5.27001,      -5.26170,   295.889E-03,   235.810E-06
C:/temp/dataset/9/2_4.odb,Step-1,Increment      1: Step Time =    1.000,"PART-1-1",           638,          8.75,           30.,            0.,NA,NA,"",       5.74394,      -5.71384,  -587.292E-03,   183.502E-06
C:/temp/dataset/9/2_4.odb,Step-1,Increment      1: Step Time =    1.000,"PART-1-1",           639,       8.74802,       27.8391,            0.,NA,NA,"",       5.44976,      -5.42015,  -567.288E-03,   275.337E-06
C:/temp/dataset/9/2_4.odb,Step-1,Increment      1: Step Time =    1.000,"PART-1-1",           640,       11.0691,       22.4572,            0.,NA,NA,"",       4.71475,      -4.71048,  -200.658E-03,   895.781E-06
C:/temp/dataset/9/2_4.odb,Step-1,Increment      1: Step Time =    1.000,"PART-1-1",           641,       11.1947,       19.9658,            0.,NA,NA,"",       4.37705,      -4.37412,  -160.064E-03,   1.07782E-03
C:/temp/dataset/9/2_4.odb,Step-1,Increment      1: Step Time =    1.000,"PART-1-1",           642,          3.75,           30.,            0.,NA,NA,"",       5.80653,      -5.66601,      -1.26972,   1.12192E-03
C:/temp/dataset/9/2_4.odb,Step-1,Increment      1: Step Time =    1.000,"PART-1-1",           643,       6.12801,       21.9878,            0.,NA,NA,"",       4.68747,      -4.60694,  -865.165E-03,   3.23529E-03
C:/temp/dataset/9/2_4.odb,Step-1,Increment      1: Step Time =    1.000,"PART-1-1",           644,       7.06684,       23.0702,            0.,NA,NA,"",       4.81893,      -4.76040,  -748.767E-03,   2.21090E-03
C:/temp/dataset/9/2_4.odb,Step-1,Increment      1: Step Time =    1.000,"PART-1-1",           645,       4.97038,       22.7185,            0.,NA,NA,"",       4.80889,      -4.69660,      -1.03312,   3.22888E-03
C:/temp/dataset/9/2_4.odb,Step-1,Increment      1: Step Time =    1.000,"PART-1-1",           646,          3.75,           20.,            0.,NA,NA,"",       4.47483,      -4.31822,      -1.17350,   2.94491E-03
C:/temp/dataset/9/2_4.odb,Step-1,Increment      1: Step Time =    1.000,"PART-1-1",           647,       4.96897,       20.9583,            0.,NA,NA,"",       4.57292,      -4.45933,      -1.01291,   3.85925E-03
C:/temp/dataset/9/2_4.odb,Step-1,Increment      1: Step Time =    1.000,"PART-1-1",           648,       3.78616,       22.0655,            0.,NA,NA,"",       4.75108,      -4.59964,      -1.18999,   3.28744E-03
C:/temp/dataset/9/2_4.odb,Step-1,Increment      1: Step Time =    1.000,"PART-1-1",           649,           -5.,         13.75,            0.,NA,NA,"",       4.17122,      -3.50414,      -2.26277,   4.68862E-03
C:/temp/dataset/9/2_4.odb,Step-1,Increment      1: Step Time =    1.000,"PART-1-1",           650,      -7.15256,       14.0792,            0.,NA,NA,"",       4.35187,      -3.53213,      -2.54221,   3.42399E-03
C:/temp/dataset/9/2_4.odb,Step-1,Increment      1: Step Time =    1.000,"PART-1-1",           651,      -9.70164,       19.1500,            0.,NA,NA,"",       5.07621,      -4.15275,      -2.91933,   2.39842E-03
C:/temp/dataset/9/2_4.odb,Step-1,Increment      1: Step Time =    1.000,"PART-1-1",           652,      -9.13060,       21.5024,            0.,NA,NA,"",       5.29720,      -4.45157,      -2.87121,   3.00713E-03
C:/temp/dataset/9/2_4.odb,Step-1,Increment      1: Step Time =    1.000,"PART-1-1",           653,         -1.25,           -5.,            0.,NA,NA,"",       1.85555,      -1.06965,      -1.51621,   3.75757E-03
C:/temp/dataset/9/2_4.odb,Step-1,Increment      1: Step Time =    1.000,"PART-1-1",           654,      -1.47244,      -2.77860,            0.,NA,NA,"",       2.07911,      -1.36954,      -1.56430,   4.22933E-03
C:/temp/dataset/9/2_4.odb,Step-1,Increment      1: Step Time =    1.000,"PART-1-1",           655,      -9.96758,      -1.61086,            0.,NA,NA,"",       3.10245,      -1.44113,      -2.74743,   472.835E-06
C:/temp/dataset/9/2_4.odb,Step-1,Increment      1: Step Time =    1.000,"PART-1-1",           656,      -6.37223,      -3.07632,            0.,NA,NA,"",       2.57839,      -1.27553,      -2.24079,   1.38088E-03
C:/temp/dataset/9/2_4.odb,Step-1,Increment      1: Step Time =    1.000,"PART-1-1",           657,         -6.25,           -5.,            0.,NA,NA,"",       2.42769,      -1.01354,      -2.20599,   214.838E-06
C:/temp/dataset/9/2_4.odb,Step-1,Increment      1: Step Time =    1.000,"PART-1-1",           658,         -3.75,            5.,            0.,NA,NA,"",       3.08933,      -2.39031,      -1.95712,   2.70453E-03
C:/temp/dataset/9/2_4.odb,Step-1,Increment      1: Step Time =    1.000,"PART-1-1",           659,      -5.11170,       4.23117,            0.,NA,NA,"",       3.12406,      -2.27035,      -2.14599,   6.07565E-03
C:/temp/dataset/9/2_4.odb,Step-1,Increment      1: Step Time =    1.000,"PART-1-1",           660,      -3.95473,       3.29190,            0.,NA,NA,"",       2.91732,      -2.15278,      -1.96883,   5.17922E-03
C:/temp/dataset/9/2_4.odb,Step-1,Increment      1: Step Time =    1.000,"PART-1-1",           661,          3.75,           -5.,            0.,NA,NA,"",       1.41428,      -1.14861,  -825.154E-03,   17.2258E-03
C:/temp/dataset/9/2_4.odb,Step-1,Increment      1: Step Time =    1.000,"PART-1-1",           662,       4.69008,      -3.66648,            0.,NA,NA,"",       1.50973,      -1.33866,  -698.059E-03,   18.6556E-03
C:/temp/dataset/9/2_4.odb,Step-1,Increment      1: Step Time =    1.000,"PART-1-1",           663,       4.69636,       3.71818,            0.,NA,NA,"",       2.39383,      -2.25415,  -805.730E-03,   8.12677E-03
C:/temp/dataset/9/2_4.odb,Step-1,Increment      1: Step Time =    1.000,"PART-1-1",           664,          3.75,            5.,            0.,NA,NA,"",       2.58688,      -2.41111,  -937.288E-03,   10.6173E-03
C:/temp/dataset/9/2_4.odb,Step-1,Increment      1: Step Time =    1.000,"PART-1-1",           665,       8.42013,       25.7200,            0.,NA,NA,"",       5.16394,      -5.12995,  -591.576E-03,   789.207E-06
C:/temp/dataset/9/2_4.odb,Step-1,Increment      1: Step Time =    1.000,"PART-1-1",           666,       7.55622,       27.1849,            0.,NA,NA,"",       5.36948,      -5.32051,  -723.520E-03,   714.147E-06
C:/temp/dataset/9/2_4.odb,Step-1,Increment      1: Step Time =    1.000,"PART-1-1",           667,       6.61388,       26.0906,            0.,NA,NA,"",       5.23213,      -5.16397,  -841.810E-03,   1.35363E-03
C:/temp/dataset/9/2_4.odb,Step-1,Increment      1: Step Time =    1.000,"PART-1-1",           668,       10.0237,       13.5556,            0.,NA,NA,"",       3.51951,      -3.51030,  -254.387E-03,   1.27498E-03
C:/temp/dataset/9/2_4.odb,Step-1,Increment      1: Step Time =    1.000,"PART-1-1",           669,       8.80148,       12.2659,            0.,NA,NA,"",       3.35665,      -3.33278,  -399.590E-03,   2.21913E-03
C:/temp/dataset/9/2_4.odb,Step-1,Increment      1: Step Time =    1.000,"PART-1-1",           670,            5.,          6.25,            0.,NA,NA,"",       2.67503,      -2.55102,  -805.030E-03,   8.12356E-03
C:/temp/dataset/9/2_4.odb,Step-1,Increment      1: Step Time =    1.000,"PART-1-1",           671,       5.87545,       4.76801,            0.,NA,NA,"",       2.47503,      -2.37987,  -679.719E-03,   8.93689E-03
C:/temp/dataset/9/2_4.odb,Step-1,Increment      1: Step Time =    1.000,"PART-1-1",           672,       6.93940,       5.78737,            0.,NA,NA,"",       2.56689,      -2.50438,  -563.055E-03,   5.38089E-03
C:/temp/dataset/9/2_4.odb,Step-1,Increment      1: Step Time =    1.000,"PART-1-1",           673,       7.73520,       4.18036,            0.,NA,NA,"",       2.35426,      -2.31170,  -445.664E-03,   6.88157E-03
C:/temp/dataset/9/2_4.odb,Step-1,Increment      1: Step Time =    1.000,"PART-1-1",           674,       6.49581,       3.34316,            0.,NA,NA,"",       2.28365,      -2.20777,  -583.787E-03,   9.39047E-03
C:/temp/dataset/9/2_4.odb,Step-1,Increment      1: Step Time =    1.000,"PART-1-1",           675,       7.18979,       1.82766,            0.,NA,NA,"",       2.07742,      -2.02151,  -478.720E-03,   9.04187E-03
C:/temp/dataset/9/2_4.odb,Step-1,Increment      1: Step Time =    1.000,"PART-1-1",           676,       8.42918,       2.66485,            0.,NA,NA,"",       2.15452,      -2.12706,  -342.860E-03,   7.39846E-03
C:/temp/dataset/9/2_4.odb,Step-1,Increment      1: Step Time =    1.000,"PART-1-1",           677,  -530.051E-03,       1.39108,            0.,NA,NA,"",       2.42503,      -1.92983,      -1.46852,   4.85030E-03
C:/temp/dataset/9/2_4.odb,Step-1,Increment      1: Step Time =    1.000,"PART-1-1",           678,      -10.1792,       3.73358,            0.,NA,NA,"",       3.56101,      -2.16229,      -2.82936,   1.11761E-03
C:/temp/dataset/9/2_4.odb,Step-1,Increment      1: Step Time =    1.000,"PART-1-1",           679,      -9.26781,       2.30942,            0.,NA,NA,"",       3.34072,      -1.97825,      -2.69201,   1.48194E-03
C:/temp/dataset/9/2_4.odb,Step-1,Increment      1: Step Time =    1.000,"PART-1-1",           680,      -7.90097,       2.82902,            0.,NA,NA,"",       3.24878,      -2.05970,      -2.51241,   2.50134E-03
C:/temp/dataset/9/2_4.odb,Step-1,Increment      1: Step Time =    1.000,"PART-1-1",           681,      -2.90861,       2.25641,            0.,NA,NA,"",       2.71414,      -2.02314,      -1.80927,   5.10424E-03
C:/temp/dataset/9/2_4.odb,Step-1,Increment      1: Step Time =    1.000,"PART-1-1",           682,      -1.97153,   737.020E-03,            0.,NA,NA,"",       2.47327,      -1.83050,      -1.66323,   5.28442E-03
C:/temp/dataset/9/2_4.odb,Step-1,Increment      1: Step Time =    1.000,"PART-1-1",           683,      -12.0057,       8.33468,            0.,NA,NA,"",       4.15950,      -2.75628,      -3.11518,   545.485E-06
C:/temp/dataset/9/2_4.odb,Step-1,Increment      1: Step Time =    1.000,"PART-1-1",           684,   257.111E-03,       23.5381,            0.,NA,NA,"",       5.05775,      -4.76769,      -1.68818,   2.59839E-03
C:/temp/dataset/9/2_4.odb,Step-1,Increment      1: Step Time =    1.000,"PART-1-1",           685,       2.92443,       23.5127,            0.,NA,NA,"",       4.96581,      -4.78611,      -1.32380,   2.98815E-03
C:/temp/dataset/9/2_4.odb,Step-1,Increment      1: Step Time =    1.000,"PART-1-1",           686,  -872.814E-03,       24.6452,            0.,NA,NA,"",       5.24192,      -4.90429,      -1.85086,   2.10997E-03
C:/temp/dataset/9/2_4.odb,Step-1,Increment      1: Step Time =    1.000,"PART-1-1",           687,      -2.49287,       25.7554,            0.,NA,NA,"",       5.44806,      -5.03669,      -2.07681,   2.28970E-03
C:/temp/dataset/9/2_4.odb,Step-1,Increment      1: Step Time =    1.000,"PART-1-1",           688,      -6.57000,       23.0679,            0.,NA,NA,"",       5.32362,      -4.66361,      -2.56743,   4.27806E-03
C:/temp/dataset/9/2_4.odb,Step-1,Increment      1: Step Time =    1.000,"PART-1-1",           689,      -7.77911,       22.2181,            0.,NA,NA,"",       5.29501,      -4.54943,      -2.70922,   3.79595E-03
C:/temp/dataset/9/2_4.odb,Step-1,Increment      1: Step Time =    1.000,"PART-1-1",           690,      -6.08757,       21.5970,            0.,NA,NA,"",       5.12474,      -4.47897,      -2.49035,   4.82793E-03
C:/temp/dataset/9/2_4.odb,Step-1,Increment      1: Step Time =    1.000,"PART-1-1",           691,      -10.6596,       24.7502,            0.,NA,NA,"",       5.75510,      -4.85227,      -3.09463,   1.92607E-03
C:/temp/dataset/9/2_4.odb,Step-1,Increment      1: Step Time =    1.000,"PART-1-1",           692,      -8.94190,       25.0911,            0.,NA,NA,"",       5.69237,      -4.90754,      -2.88429,   2.87378E-03
C:/temp/dataset/9/2_4.odb,Step-1,Increment      1: Step Time =    1.000,"PART-1-1",           693,      -9.30563,       26.3338,            0.,NA,NA,"",       5.85509,      -5.06288,      -2.94097,   2.43519E-03
C:/temp/dataset/9/2_4.odb,Step-1,Increment      1: Step Time =    1.000,"PART-1-1",           694,      -11.0233,       25.9928,            0.,NA,NA,"",       5.91570,      -5.00672,      -3.15091,   1.49458E-03
C:/temp/dataset/9/2_4.odb,Step-1,Increment      1: Step Time =    1.000,"PART-1-1",           695,      -9.11986,       17.2561,            0.,NA,NA,"",       4.83232,      -3.91934,      -2.82667,   2.42324E-03
C:/temp/dataset/9/2_4.odb,Step-1,Increment      1: Step Time =    1.000,"PART-1-1",           696,      -11.0116,       7.65423,            0.,NA,NA,"",       4.00349,      -2.67572,      -2.97800,   965.511E-06
C:/temp/dataset/9/2_4.odb,Step-1,Increment      1: Step Time =    1.000,"PART-1-1",           697,      -11.6541,       6.30856,            0.,NA,NA,"",       3.93951,      -2.49275,      -3.05056,   418.587E-06
C:/temp/dataset/9/2_4.odb,Step-1,Increment      1: Step Time =    1.000,"PART-1-1",           698,      -3.46647,   792.949E-03,            0.,NA,NA,"",       2.61440,      -1.82358,      -1.87341,   4.96416E-03
C:/temp/dataset/9/2_4.odb,Step-1,Increment      1: Step Time =    1.000,"PART-1-1",           699,      -4.27899,       1.61468,            0.,NA,NA,"",       2.77353,      -1.92570,      -1.99604,   4.93169E-03
C:/temp/dataset/9/2_4.odb,Step-1,Increment      1: Step Time =    1.000,"PART-1-1",           700,      -5.41602,       1.03976,            0.,NA,NA,"",       2.82857,      -1.83906,      -2.14911,   4.03547E-03
C:/temp/dataset/9/2_4.odb,Step-1,Increment      1: Step Time =    1.000,"PART-1-1",           701,      -4.60351,   218.037E-03,            0.,NA,NA,"",       2.66906,      -1.73642,      -2.02700,   4.08144E-03
C:/temp/dataset/9/2_4.odb,Step-1,Increment      1: Step Time =    1.000,"PART-1-1",           702,      -1.96165,  -510.209E-03,            0.,NA,NA,"",       2.34532,      -1.66593,      -1.65082,   4.77020E-03
C:/temp/dataset/9/2_4.odb,Step-1,Increment      1: Step Time =    1.000,"PART-1-1",           703,      -2.89723,      -2.02996,            0.,NA,NA,"",       2.28887,      -1.45338,      -1.76823,   3.73996E-03
C:/temp/dataset/9/2_4.odb,Step-1,Increment      1: Step Time =    1.000,"PART-1-1",           704,       6.46823,      -3.22891,            0.,NA,NA,"",       1.48055,      -1.39890,  -484.868E-03,   12.1428E-03
C:/temp/dataset/9/2_4.odb,Step-1,Increment      1: Step Time =    1.000,"PART-1-1",           705,       5.30305,      -2.18626,            0.,NA,NA,"",       1.65296,      -1.52164,  -645.674E-03,   10.6817E-03
C:/temp/dataset/9/2_4.odb,Step-1,Increment      1: Step Time =    1.000,"PART-1-1",           706,       8.11637,      -13.0290,            0.,NA,NA,"",   564.892E-03,  -535.133E-03,  -180.931E-03,   11.7382E-03
C:/temp/dataset/9/2_4.odb,Step-1,Increment      1: Step Time =    1.000,"PART-1-1",           707,       8.09759,      -10.8135,            0.,NA,NA,"",   724.052E-03,  -692.485E-03,  -211.463E-03,   11.8205E-03
C:/temp/dataset/9/2_4.odb,Step-1,Increment      1: Step Time =    1.000,"PART-1-1",           708,           15.,        -26.25,            0.,NA,NA,"",   67.3969E-03,  -32.7663E-03,   58.8957E-03,   18.8045E-03
C:/temp/dataset/9/2_4.odb,Step-1,Increment      1: Step Time =    1.000,"PART-1-1",           709,       13.6129,      -24.9005,            0.,NA,NA,"",   71.1670E-03,  -43.4392E-03,   56.3718E-03,   13.1883E-03
C:/temp/dataset/9/2_4.odb,Step-1,Increment      1: Step Time =    1.000,"PART-1-1",           710,       12.3352,      -26.1538,            0.,NA,NA,"",   29.9131E-03,  -17.7538E-03,   24.0748E-03,   7.66322E-03
C:/temp/dataset/9/2_4.odb,Step-1,Increment      1: Step Time =    1.000,"PART-1-1",           711,       11.5115,      -24.0900,            0.,NA,NA,"",   54.2802E-03,  -50.5275E-03,   19.8322E-03,   4.03693E-03
C:/temp/dataset/9/2_4.odb,Step-1,Increment      1: Step Time =    1.000,"PART-1-1",           712,       12.5793,      -23.4990,            0.,NA,NA,"",   82.5417E-03,  -67.2809E-03,   47.8164E-03,   8.83804E-03
C:/temp/dataset/9/2_4.odb,Step-1,Increment      1: Step Time =    1.000,"PART-1-1",           713,       11.9958,      -21.9645,            0.,NA,NA,"",   114.059E-03,  -106.193E-03,   41.6223E-03,   6.28292E-03
C:/temp/dataset/9/2_4.odb,Step-1,Increment      1: Step Time =    1.000,"PART-1-1",           714,           15.,        -23.75,            0.,NA,NA,"",   127.514E-03,  -77.4208E-03,   101.320E-03,   19.3944E-03
C:/temp/dataset/9/2_4.odb,Step-1,Increment      1: Step Time =    1.000,"PART-1-1",           715,       11.0775,      -9.24199,            0.,NA,NA,"",   823.709E-03,  -823.504E-03,   18.3867E-03,   3.17940E-03
C:/temp/dataset/9/2_4.odb,Step-1,Increment      1: Step Time =    1.000,"PART-1-1",           716,       10.0590,      -8.23408,            0.,NA,NA,"",   908.539E-03,  -905.659E-03,  -72.2792E-03,   1.89012E-03
C:/temp/dataset/9/2_4.odb,Step-1,Increment      1: Step Time =    1.000,"PART-1-1",           717,       9.08966,      -9.54059,            0.,NA,NA,"",   805.283E-03,  -791.890E-03,  -146.256E-03,   6.54951E-03
C:/temp/dataset/9/2_4.odb,Step-1,Increment      1: Step Time =    1.000,"PART-1-1",           718,           15.,         -1.25,            0.,NA,NA,"",       1.74922,      -1.69385,   436.611E-03,   12.5391E-03
C:/temp/dataset/9/2_4.odb,Step-1,Increment      1: Step Time =    1.000,"PART-1-1",           719,       12.7047,      -1.36075,            0.,NA,NA,"",       1.66564,      -1.65623,   176.810E-03,   8.32888E-03
C:/temp/dataset/9/2_4.odb,Step-1,Increment      1: Step Time =    1.000,"PART-1-1",           720,       10.4122,      -1.52824,            0.,NA,NA,"",       1.62109,      -1.61947,  -72.4435E-03,   7.47533E-03
C:/temp/dataset/9/2_4.odb,Step-1,Increment      1: Step Time =    1.000,"PART-1-1",           721,       11.7321,      -2.88547,            0.,NA,NA,"",       1.47060,      -1.46868,   75.0354E-03,   8.00694E-03
C:/temp/dataset/9/2_4.odb,Step-1,Increment      1: Step Time =    1.000,"PART-1-1",           722,       13.0447,       6.32641,            0.,NA,NA,"",       2.61610,      -2.60960,   184.295E-03,   2.61247E-03
C:/temp/dataset/9/2_4.odb,Step-1,Increment      1: Step Time =    1.000,"PART-1-1",           723,           15.,          6.25,            0.,NA,NA,"",       2.65287,      -2.61810,   428.111E-03,   4.30732E-03
C:/temp/dataset/9/2_4.odb,Step-1,Increment      1: Step Time =    1.000,"PART-1-1",           724,       12.2773,       7.44357,            0.,NA,NA,"",       2.74497,      -2.74375,   81.8299E-03,   1.58185E-03
C:/temp/dataset/9/2_4.odb,Step-1,Increment      1: Step Time =    1.000,"PART-1-1",           725,       11.3989,       9.46443,            0.,NA,NA,"",       2.99315,      -2.99284,  -43.1161E-03,   795.768E-06
C:/temp/dataset/9/2_4.odb,Step-1,Increment      1: Step Time =    1.000,"PART-1-1",           726,       10.0696,       10.6576,            0.,NA,NA,"",       3.14270,      -3.13487,  -221.744E-03,   1.15127E-03
C:/temp/dataset/9/2_4.odb,Step-1,Increment      1: Step Time =    1.000,"PART-1-1",           727,       11.2733,       12.2896,            0.,NA,NA,"",       3.35656,      -3.35557,  -81.7174E-03,   769.380E-06
C:/temp/dataset/9/2_4.odb,Step-1,Increment      1: Step Time =    1.000,"PART-1-1",           728,       11.2495,       14.9235,            0.,NA,NA,"",       3.70195,      -3.70040,  -107.194E-03,   839.424E-06
C:/temp/dataset/9/2_4.odb,Step-1,Increment      1: Step Time =    1.000,"PART-1-1",           729,       11.2365,       17.4638,            0.,NA,NA,"",       4.04011,      -4.03797,  -131.445E-03,   979.128E-06
C:/temp/dataset/9/2_4.odb,Step-1,Increment      1: Step Time =    1.000,"PART-1-1",           730,       9.96430,       18.6935,            0.,NA,NA,"",       4.20351,      -4.19193,  -311.779E-03,   1.38131E-03
C:/temp/dataset/9/2_4.odb,Step-1,Increment      1: Step Time =    1.000,"PART-1-1",           731,       8.12949,      -15.2371,            0.,NA,NA,"",   426.934E-03,  -398.659E-03,  -152.786E-03,   11.5424E-03
C:/temp/dataset/9/2_4.odb,Step-1,Increment      1: Step Time =    1.000,"PART-1-1",           732,       10.9896,      -6.85237,            0.,NA,NA,"",       1.03921,      -1.03918,   7.72453E-03,   4.40115E-03
C:/temp/dataset/9/2_4.odb,Step-1,Increment      1: Step Time =    1.000,"PART-1-1",           733,       10.9332,      -25.1906,            0.,NA,NA,"",   29.2918E-03,  -28.7023E-03,   5.84731E-03,   1.57221E-03
C:/temp/dataset/9/2_4.odb,Step-1,Increment      1: Step Time =    1.000,"PART-1-1",           734,       11.9281,      -5.46067,            0.,NA,NA,"",       1.19062,      -1.18669,   96.7107E-03,   7.99567E-03
C:/temp/dataset/9/2_4.odb,Step-1,Increment      1: Step Time =    1.000,"PART-1-1",           735,      -11.5697,       3.18107,            0.,NA,NA,"",       3.65661,      -2.07573,      -3.01035,   570.643E-06
C:/temp/dataset/9/2_4.odb,Step-1,Increment      1: Step Time =    1.000,"PART-1-1",           736,      -10.7341,       2.09613,            0.,NA,NA,"",       3.47701,      -1.93679,      -2.88764,   865.707E-06
C:/temp/dataset/9/2_4.odb,Step-1,Increment      1: Step Time =    1.000,"PART-1-1",           737,      -6.76822,       1.80268,            0.,NA,NA,"",       3.03757,      -1.93031,      -2.34536,   3.27231E-03
C:/temp/dataset/9/2_4.odb,Step-1,Increment      1: Step Time =    1.000,"PART-1-1",           738,      -5.32511,       2.65016,            0.,NA,NA,"",       2.97811,      -2.05562,      -2.15489,   5.04065E-03
C:/temp/dataset/9/2_4.odb,Step-1,Increment      1: Step Time =    1.000,"PART-1-1",           739,      -6.45786,       3.67650,            0.,NA,NA,"",       3.19120,      -2.18548,      -2.32539,   4.23101E-03
C:/temp/dataset/9/2_4.odb,Step-1,Increment      1: Step Time =    1.000,"PART-1-1",           740,      -10.1618,       27.4009,            0.,NA,NA,"",       6.02376,      -5.19110,      -3.05584,   1.50306E-03
C:/temp/dataset/9/2_4.odb,Step-1,Increment      1: Step Time =    1.000,"PART-1-1",           741,      -8.15950,       27.0742,            0.,NA,NA,"",       5.87864,      -5.16555,      -2.80633,   3.11072E-03
C:/temp/dataset/9/2_4.odb,Step-1,Increment      1: Step Time =    1.000,"PART-1-1",           742,      -8.41457,       23.7439,            0.,NA,NA,"",       5.50735,      -4.73945,      -2.80510,   3.36985E-03
C:/temp/dataset/9/2_4.odb,Step-1,Increment      1: Step Time =    1.000,"PART-1-1",           743,      -9.76606,       23.0282,            0.,NA,NA,"",       5.50754,      -4.64031,      -2.96658,   2.50791E-03
C:/temp/dataset/9/2_4.odb,Step-1,Increment      1: Step Time =    1.000,"PART-1-1",           744,      -10.1457,       6.57799,            0.,NA,NA,"",       3.82093,      -2.54157,      -2.85306,   1.35819E-03
C:/temp/dataset/9/2_4.odb,Step-1,Increment      1: Step Time =    1.000,"PART-1-1",           745,      -11.1466,       5.19230,            0.,NA,NA,"",       3.78881,      -2.34896,      -2.97279,   602.771E-06
C:/temp/dataset/9/2_4.odb,Step-1,Increment      1: Step Time =    1.000,"PART-1-1",           746,       7.77017,   782.991E-03,            0.,NA,NA,"",       1.93376,      -1.89289,  -395.451E-03,   9.12932E-03
C:/temp/dataset/9/2_4.odb,Step-1,Increment      1: Step Time =    1.000,"PART-1-1",           747,       6.09501,       1.10589,            0.,NA,NA,"",       2.02136,      -1.93044,  -599.429E-03,   9.06611E-03
C:/temp/dataset/9/2_4.odb,Step-1,Increment      1: Step Time =    1.000,"PART-1-1",           748,       6.67539,   61.2235E-03,            0.,NA,NA,"",       1.87354,      -1.80163,  -514.076E-03,   9.20259E-03
C:/temp/dataset/9/2_4.odb,Step-1,Increment      1: Step Time =    1.000,"PART-1-1",           749,       5.31672,       2.29333,            0.,NA,NA,"",       2.19541,      -2.07712,  -710.939E-03,   8.32878E-03
C:/temp/dataset/9/2_4.odb,Step-1,Increment      1: Step Time =    1.000,"PART-1-1",           750,      -6.94695,       24.4689,            0.,NA,NA,"",       5.50906,      -4.84081,      -2.62987,   3.87507E-03
C:/temp/dataset/9/2_4.odb,Step-1,Increment      1: Step Time =    1.000,"PART-1-1",           751,      -2.09966,       23.3616,            0.,NA,NA,"",       5.13341,      -4.72755,      -2.00053,   2.40404E-03
C:/temp/dataset/9/2_4.odb,Step-1,Increment      1: Step Time =    1.000,"PART-1-1",           752,      -2.87591,       24.2478,            0.,NA,NA,"",       5.27816,      -4.83762,      -2.11102,   2.26773E-03
C:/temp/dataset/9/2_4.odb,Step-1,Increment      1: Step Time =    1.000,"PART-1-1",           753,       9.53974,       23.7363,            0.,NA,NA,"",       4.88889,      -4.87083,  -419.717E-03,   1.01184E-03
C:/temp/dataset/9/2_4.odb,Step-1,Increment      1: Step Time =    1.000,"PART-1-1",           754,      -5.22075,      -2.25347,            0.,NA,NA,"",       2.51410,      -1.39859,      -2.08918,   2.39081E-03
C:/temp/dataset/9/2_4.odb,Step-1,Increment      1: Step Time =    1.000,"PART-1-1",           755,      -7.55915,      -2.11026,            0.,NA,NA,"",       2.78774,      -1.39535,      -2.41340,   1.17736E-03
C:/temp/dataset/9/2_4.odb,Step-1,Increment      1: Step Time =    1.000,"PART-1-1",           756,      -4.20325,      -1.24540,            0.,NA,NA,"",       2.49314,      -1.54458,      -1.95704,   3.57804E-03
C:/temp/dataset/9/2_4.odb,Step-1,Increment      1: Step Time =    1.000,"PART-1-1",           757,       12.0426,       5.30937,            0.,NA,NA,"",       2.47478,      -2.47387,   67.0727E-03,   1.96171E-03
C:/temp/dataset/9/2_4.odb,Step-1,Increment      1: Step Time =    1.000,"PART-1-1",           758,      -8.17645,       12.8481,            0.,NA,NA,"",       4.29240,      -3.36850,      -2.66042,   2.99578E-03
C:/temp/dataset/9/2_4.odb,Step-1,Increment      1: Step Time =    1.000,"PART-1-1",           759,      -8.09554,       10.3784,            0.,NA,NA,"",       4.02469,      -3.05269,      -2.62283,   3.24559E-03
C:/temp/dataset/9/2_4.odb,Step-1,Increment      1: Step Time =    1.000,"PART-1-1",           760,      -8.33007,       15.6293,            0.,NA,NA,"",       4.60233,      -3.72019,      -2.70954,   2.68496E-03
C:/temp/dataset/9/2_4.odb,Step-1,Increment      1: Step Time =    1.000,"PART-1-1",           761,       12.1122,      -19.7356,            0.,NA,NA,"",   192.300E-03,  -183.491E-03,   57.5366E-03,   6.94707E-03
C:/temp/dataset/9/2_4.odb,Step-1,Increment      1: Step Time =    1.000,"PART-1-1",           762,       12.1388,      -17.4254,            0.,NA,NA,"",   293.946E-03,  -285.207E-03,   71.1434E-03,   7.21697E-03
C:/temp/dataset/9/2_4.odb,Step-1,Increment      1: Step Time =    1.000,"PART-1-1",           763,       12.0361,      -7.90801,            0.,NA,NA,"",   953.214E-03,  -947.691E-03,   102.464E-03,   7.65923E-03
C:/temp/dataset/9/2_4.odb,Step-1,Increment      1: Step Time =    1.000,"PART-1-1",           764,       12.0837,      -10.3075,            0.,NA,NA,"",   748.575E-03,  -741.970E-03,   99.2206E-03,   7.41930E-03
C:/temp/dataset/9/2_4.odb,Step-1,Increment      1: Step Time =    1.000,"PART-1-1",           765,       12.1118,      -12.6921,            0.,NA,NA,"",   571.672E-03,  -564.193E-03,   92.1686E-03,   7.34335E-03
C:/temp/dataset/9/2_4.odb,Step-1,Increment      1: Step Time =    1.000,"PART-1-1",           766,       12.1357,      -15.0700,            0.,NA,NA,"",   420.286E-03,  -412.024E-03,   82.9240E-03,   7.33192E-03
C:/temp/dataset/9/2_4.odb,Step-1,Increment      1: Step Time =    1.000,"PART-1-1",           767,      -8.71328,  -792.246E-03,            0.,NA,NA,"",       3.02065,      -1.56350,      -2.58453,   1.01887E-03
C:/temp/dataset/9/2_4.odb,Step-1,Increment      1: Step Time =    1.000,"PART-1-1",           768,      -7.47429,       25.8162,            0.,NA,NA,"",       5.69574,      -5.00999,      -2.70952,   3.51546E-03
C:/temp/dataset/9/2_4.odb,Step-1,Increment      1: Step Time =    1.000,"PART-1-1",           769,       9.13729,   756.201E-03,            0.,NA,NA,"",       1.90770,      -1.89295,  -236.765E-03,   7.73182E-03
C:/temp/dataset/9/2_4.odb,Step-1,Increment      1: Step Time =    1.000,"PART-1-1",           770,       7.76646,  -679.521E-03,            0.,NA,NA,"",       1.75288,      -1.71221,  -375.417E-03,   9.68622E-03
C:/temp/dataset/9/2_4.odb,Step-1,Increment      1: Step Time =    1.000,"PART-1-1",           771,       9.13358,  -706.311E-03,            0.,NA,NA,"",       1.72714,      -1.71299,  -220.667E-03,   8.54540E-03
C:/temp/dataset/9/2_4.odb,Step-1,Increment      1: Step Time =    1.000,"PART-1-1",           772,       7.17869,      -1.72980,            0.,NA,NA,"",       1.63880,      -1.58203,  -427.609E-03,   10.5356E-03
C:/temp/dataset/9/2_4.odb,Step-1,Increment      1: Step Time =    1.000,"PART-1-1",           773,       6.08762,  -989.051E-03,            0.,NA,NA,"",       1.76457,      -1.67050,  -568.455E-03,   10.2298E-03
C:/temp/dataset/9/2_4.odb,Step-1,Increment      1: Step Time =    1.000,"PART-1-1",           774,       8.06590,       24.5744,            0.,NA,NA,"",       5.01140,      -4.97185,  -628.368E-03,   1.33486E-03
C:/temp/dataset/9/2_4.odb,Step-1,Increment      1: Step Time =    1.000,"PART-1-1",           775,       7.69641,      -4.07963,            0.,NA,NA,"",       1.34913,      -1.30640,  -336.871E-03,   9.22131E-03
C:/temp/dataset/9/2_4.odb,Step-1,Increment      1: Step Time =    1.000,"PART-1-1",           776,       8.40687,      -2.58051,            0.,NA,NA,"",       1.50974,      -1.48367,  -279.341E-03,   9.07369E-03
C:/temp/dataset/9/2_4.odb,Step-1,Increment      1: Step Time =    1.000,"PART-1-1",           777,      -9.00797,   684.990E-03,            0.,NA,NA,"",       3.17321,      -1.76092,      -2.63978,   1.41360E-03
C:/temp/dataset/9/2_4.odb,Step-1,Increment      1: Step Time =    1.000,"PART-1-1",           778,       5.05143,   63.4436E-03,            0.,NA,NA,"",       1.93425,      -1.79819,  -712.628E-03,   7.49455E-03
C:/temp/dataset/9/2_4.odb,Step-1,Increment      1: Step Time =    1.000,"PART-1-1",           779,      -3.45659,  -454.281E-03,            0.,NA,NA,"",       2.49172,      -1.65783,      -1.86018,   4.38482E-03
C:/temp/dataset/9/2_4.odb,Step-1,Increment      1: Step Time =    1.000,"PART-1-1",           780,      -7.58605,   993.377E-03,            0.,NA,NA,"",       3.04788,      -1.81463,      -2.44881,   2.30943E-03
