ODB Name,Step,Frame,Part Instance Name,    êﬂì_ÉâÉxÉã,X,Y,Z,Section Name,Material Name,Section Point,   U-Magnitude,          U-U1,          U-U2,       S-Mises
C:/temp/dataset/9/2_5.odb,Step-1,Increment      1: Step Time =    1.000,"PART-1-1",             1,            5.,           20.,            0.,NA,NA,"",       5.44576,      -5.28971,      -1.29431,   5.64667E-03
C:/temp/dataset/9/2_5.odb,Step-1,Increment      1: Step Time =    1.000,"PART-1-1",             2,            0.,           20.,            0.,NA,NA,"",       5.66062,      -5.23883,      -2.14413,   6.70606E-03
C:/temp/dataset/9/2_5.odb,Step-1,Increment      1: Step Time =    1.000,"PART-1-1",             3,            5.,          12.5,            0.,NA,NA,"",       4.23085,      -4.07202,      -1.14836,   7.23586E-03
C:/temp/dataset/9/2_5.odb,Step-1,Increment      1: Step Time =    1.000,"PART-1-1",             4,            5.,            5.,            0.,NA,NA,"",       3.09398,      -2.92865,  -997.870E-03,   12.3791E-03
C:/temp/dataset/9/2_5.odb,Step-1,Increment      1: Step Time =    1.000,"PART-1-1",             5,            0.,            5.,            0.,NA,NA,"",       3.43117,      -2.92273,      -1.79737,   8.99470E-03
C:/temp/dataset/9/2_5.odb,Step-1,Increment      1: Step Time =    1.000,"PART-1-1",             6,           -5.,            5.,            0.,NA,NA,"",       3.91659,      -2.86639,      -2.66899,   10.0655E-03
C:/temp/dataset/9/2_5.odb,Step-1,Increment      1: Step Time =    1.000,"PART-1-1",             7,           -5.,          12.5,            0.,NA,NA,"",       4.93946,      -4.05622,      -2.81874,   6.10645E-03
C:/temp/dataset/9/2_5.odb,Step-1,Increment      1: Step Time =    1.000,"PART-1-1",             8,           -5.,           20.,            0.,NA,NA,"",       5.98618,      -5.21056,      -2.94694,   6.71373E-03
C:/temp/dataset/9/2_5.odb,Step-1,Increment      1: Step Time =    1.000,"PART-1-1",             9,           15.,           30.,            0.,NA,NA,"",       7.09679,      -7.09312,   228.229E-03,   28.0667E-06
C:/temp/dataset/9/2_5.odb,Step-1,Increment      1: Step Time =    1.000,"PART-1-1",            10,           7.5,           30.,            0.,NA,NA,"",       7.06363,      -6.98863,      -1.02661,   149.311E-06
C:/temp/dataset/9/2_5.odb,Step-1,Increment      1: Step Time =    1.000,"PART-1-1",            11,            0.,           30.,            0.,NA,NA,"",       7.24450,      -6.87238,      -2.29199,   4.80155E-03
C:/temp/dataset/9/2_5.odb,Step-1,Increment      1: Step Time =    1.000,"PART-1-1",            12,          -7.5,           30.,            0.,NA,NA,"",       7.59008,      -6.74524,      -3.48007,   3.24329E-03
C:/temp/dataset/9/2_5.odb,Step-1,Increment      1: Step Time =    1.000,"PART-1-1",            13,          -15.,           30.,            0.,NA,NA,"",       8.10453,      -6.65710,      -4.62238,   29.8300E-06
C:/temp/dataset/9/2_5.odb,Step-1,Increment      1: Step Time =    1.000,"PART-1-1",            14,          -15.,         21.25,            0.,NA,NA,"",       6.96533,      -5.30402,      -4.51478,   915.430E-06
C:/temp/dataset/9/2_5.odb,Step-1,Increment      1: Step Time =    1.000,"PART-1-1",            15,          -15.,          12.5,            0.,NA,NA,"",       5.91167,      -3.93962,      -4.40763,   1.27034E-03
C:/temp/dataset/9/2_5.odb,Step-1,Increment      1: Step Time =    1.000,"PART-1-1",            16,          -15.,          3.75,            0.,NA,NA,"",       4.99324,      -2.52425,      -4.30820,   1.86387E-03
C:/temp/dataset/9/2_5.odb,Step-1,Increment      1: Step Time =    1.000,"PART-1-1",            17,          -15.,           -5.,            0.,NA,NA,"",       4.32421,      -1.06321,      -4.19147,   42.2417E-06
C:/temp/dataset/9/2_5.odb,Step-1,Increment      1: Step Time =    1.000,"PART-1-1",            18,          -10.,           -5.,            0.,NA,NA,"",       3.54100,      -1.13238,      -3.35506,   683.650E-06
C:/temp/dataset/9/2_5.odb,Step-1,Increment      1: Step Time =    1.000,"PART-1-1",            19,           -5.,           -5.,            0.,NA,NA,"",       2.78357,      -1.20306,      -2.51016,   977.591E-06
C:/temp/dataset/9/2_5.odb,Step-1,Increment      1: Step Time =    1.000,"PART-1-1",            20,            0.,           -5.,            0.,NA,NA,"",       2.10421,      -1.29145,      -1.66128,   5.65011E-03
C:/temp/dataset/9/2_5.odb,Step-1,Increment      1: Step Time =    1.000,"PART-1-1",            21,            5.,           -5.,            0.,NA,NA,"",       1.62438,      -1.42533,  -779.133E-03,   45.3200E-03
C:/temp/dataset/9/2_5.odb,Step-1,Increment      1: Step Time =    1.000,"PART-1-1",            22,            5.,        -11.25,            0.,NA,NA,"",   977.118E-03,  -813.580E-03,  -541.154E-03,   32.9957E-03
C:/temp/dataset/9/2_5.odb,Step-1,Increment      1: Step Time =    1.000,"PART-1-1",            23,            5.,         -17.5,            0.,NA,NA,"",   496.457E-03,  -360.317E-03,  -341.527E-03,   32.0273E-03
C:/temp/dataset/9/2_5.odb,Step-1,Increment      1: Step Time =    1.000,"PART-1-1",            24,            5.,        -23.75,            0.,NA,NA,"",   190.050E-03,  -101.827E-03,  -160.469E-03,   30.2786E-03
C:/temp/dataset/9/2_5.odb,Step-1,Increment      1: Step Time =    1.000,"PART-1-1",            25,            5.,          -30.,            0.,NA,NA,"",            0.,  -8.17503E-39,  -16.0602E-39,   31.1613E-03
C:/temp/dataset/9/2_5.odb,Step-1,Increment      1: Step Time =    1.000,"PART-1-1",            26,           15.,          -30.,            0.,NA,NA,"",            0.,  -5.71342E-39,   10.8861E-39,   20.7843E-03
C:/temp/dataset/9/2_5.odb,Step-1,Increment      1: Step Time =    1.000,"PART-1-1",            27,           15.,         -22.5,            0.,NA,NA,"",   196.472E-03,  -129.699E-03,   147.579E-03,   24.0198E-03
C:/temp/dataset/9/2_5.odb,Step-1,Increment      1: Step Time =    1.000,"PART-1-1",            28,           15.,          -15.,            0.,NA,NA,"",   611.076E-03,  -529.865E-03,   304.397E-03,   25.8095E-03
C:/temp/dataset/9/2_5.odb,Step-1,Increment      1: Step Time =    1.000,"PART-1-1",            29,           15.,          -7.5,            0.,NA,NA,"",       1.31736,      -1.23819,   449.826E-03,   26.4047E-03
C:/temp/dataset/9/2_5.odb,Step-1,Increment      1: Step Time =    1.000,"PART-1-1",            30,           15.,            0.,            0.,NA,NA,"",       2.31549,      -2.25607,   521.232E-03,   12.8025E-03
C:/temp/dataset/9/2_5.odb,Step-1,Increment      1: Step Time =    1.000,"PART-1-1",            31,           15.,           7.5,            0.,NA,NA,"",       3.43786,      -3.40365,   483.844E-03,   4.98422E-03
C:/temp/dataset/9/2_5.odb,Step-1,Increment      1: Step Time =    1.000,"PART-1-1",            32,           15.,           15.,            0.,NA,NA,"",       4.61717,      -4.59818,   418.366E-03,   3.67488E-03
C:/temp/dataset/9/2_5.odb,Step-1,Increment      1: Step Time =    1.000,"PART-1-1",            33,           15.,          22.5,            0.,NA,NA,"",       5.84817,      -5.83877,   331.543E-03,   1.10656E-03
C:/temp/dataset/9/2_5.odb,Step-1,Increment      1: Step Time =    1.000,"PART-1-1",            34,           2.5,           20.,            0.,NA,NA,"",       5.53628,      -5.26074,      -1.72484,   4.89552E-03
C:/temp/dataset/9/2_5.odb,Step-1,Increment      1: Step Time =    1.000,"PART-1-1",            35,            5.,           15.,            0.,NA,NA,"",       4.62953,      -4.47230,      -1.19627,   6.51271E-03
C:/temp/dataset/9/2_5.odb,Step-1,Increment      1: Step Time =    1.000,"PART-1-1",            36,            5.,          17.5,            0.,NA,NA,"",       5.03418,      -4.87817,      -1.24354,   6.35649E-03
C:/temp/dataset/9/2_5.odb,Step-1,Increment      1: Step Time =    1.000,"PART-1-1",            37,            5.,           7.5,            0.,NA,NA,"",       3.45718,      -3.29383,      -1.05013,   9.56352E-03
C:/temp/dataset/9/2_5.odb,Step-1,Increment      1: Step Time =    1.000,"PART-1-1",            38,            5.,           10.,            0.,NA,NA,"",       3.83938,      -3.67852,      -1.09970,   8.06423E-03
C:/temp/dataset/9/2_5.odb,Step-1,Increment      1: Step Time =    1.000,"PART-1-1",            39,           2.5,            5.,            0.,NA,NA,"",       3.24250,      -2.93256,      -1.38345,   12.7815E-03
C:/temp/dataset/9/2_5.odb,Step-1,Increment      1: Step Time =    1.000,"PART-1-1",            40,          -2.5,            5.,            0.,NA,NA,"",       3.65750,      -2.90222,      -2.22584,   5.55956E-03
C:/temp/dataset/9/2_5.odb,Step-1,Increment      1: Step Time =    1.000,"PART-1-1",            41,           -5.,           10.,            0.,NA,NA,"",       4.59358,      -3.66225,      -2.77289,   6.60421E-03
C:/temp/dataset/9/2_5.odb,Step-1,Increment      1: Step Time =    1.000,"PART-1-1",            42,           -5.,           7.5,            0.,NA,NA,"",       4.25302,      -3.26494,      -2.72551,   7.88221E-03
C:/temp/dataset/9/2_5.odb,Step-1,Increment      1: Step Time =    1.000,"PART-1-1",            43,           -5.,          17.5,            0.,NA,NA,"",       5.63889,      -4.83285,      -2.90528,   5.49538E-03
C:/temp/dataset/9/2_5.odb,Step-1,Increment      1: Step Time =    1.000,"PART-1-1",            44,           -5.,           15.,            0.,NA,NA,"",       5.28836,      -4.44653,      -2.86272,   5.56519E-03
C:/temp/dataset/9/2_5.odb,Step-1,Increment      1: Step Time =    1.000,"PART-1-1",            45,          -2.5,           20.,            0.,NA,NA,"",       5.81265,      -5.22177,      -2.55344,   7.94019E-03
C:/temp/dataset/9/2_5.odb,Step-1,Increment      1: Step Time =    1.000,"PART-1-1",            46,          12.5,           30.,            0.,NA,NA,"",       7.06055,      -7.05800,  -189.597E-03,   99.9156E-06
C:/temp/dataset/9/2_5.odb,Step-1,Increment      1: Step Time =    1.000,"PART-1-1",            47,           10.,           30.,            0.,NA,NA,"",       7.04957,      -7.02334,  -607.568E-03,   312.014E-06
C:/temp/dataset/9/2_5.odb,Step-1,Increment      1: Step Time =    1.000,"PART-1-1",            48,            5.,           30.,            0.,NA,NA,"",       7.10161,      -6.95263,      -1.44699,   690.198E-06
C:/temp/dataset/9/2_5.odb,Step-1,Increment      1: Step Time =    1.000,"PART-1-1",            49,           2.5,           30.,            0.,NA,NA,"",       7.16167,      -6.91382,      -1.86778,   2.18643E-03
C:/temp/dataset/9/2_5.odb,Step-1,Increment      1: Step Time =    1.000,"PART-1-1",            50,          -2.5,           30.,            0.,NA,NA,"",       7.34229,      -6.82525,      -2.70652,   6.78890E-03
C:/temp/dataset/9/2_5.odb,Step-1,Increment      1: Step Time =    1.000,"PART-1-1",            51,           -5.,           30.,            0.,NA,NA,"",       7.45851,      -6.78289,      -3.10188,   6.47563E-03
C:/temp/dataset/9/2_5.odb,Step-1,Increment      1: Step Time =    1.000,"PART-1-1",            52,          -10.,           30.,            0.,NA,NA,"",       7.74380,      -6.71606,      -3.85499,   791.693E-06
C:/temp/dataset/9/2_5.odb,Step-1,Increment      1: Step Time =    1.000,"PART-1-1",            53,         -12.5,           30.,            0.,NA,NA,"",       7.91630,      -6.68658,      -4.23762,   224.124E-06
C:/temp/dataset/9/2_5.odb,Step-1,Increment      1: Step Time =    1.000,"PART-1-1",            54,          -15.,       27.8125,            0.,NA,NA,"",       7.81482,      -6.32018,      -4.59638,   122.208E-06
C:/temp/dataset/9/2_5.odb,Step-1,Increment      1: Step Time =    1.000,"PART-1-1",            55,          -15.,        25.625,            0.,NA,NA,"",       7.52818,      -5.98216,      -4.57026,   153.846E-06
C:/temp/dataset/9/2_5.odb,Step-1,Increment      1: Step Time =    1.000,"PART-1-1",            56,          -15.,       23.4375,            0.,NA,NA,"",       7.24456,      -5.64317,      -4.54294,   628.677E-06
C:/temp/dataset/9/2_5.odb,Step-1,Increment      1: Step Time =    1.000,"PART-1-1",            57,          -15.,       19.0625,            0.,NA,NA,"",       6.69178,      -4.96490,      -4.48661,   682.527E-06
C:/temp/dataset/9/2_5.odb,Step-1,Increment      1: Step Time =    1.000,"PART-1-1",            58,          -15.,        16.875,            0.,NA,NA,"",       6.42473,      -4.62517,      -4.45925,   91.1298E-06
C:/temp/dataset/9/2_5.odb,Step-1,Increment      1: Step Time =    1.000,"PART-1-1",            59,          -15.,       14.6875,            0.,NA,NA,"",       6.16455,      -4.28374,      -4.43297,   615.844E-06
C:/temp/dataset/9/2_5.odb,Step-1,Increment      1: Step Time =    1.000,"PART-1-1",            60,          -15.,       10.3125,            0.,NA,NA,"",       5.66685,      -3.59206,      -4.38295,   1.82834E-03
C:/temp/dataset/9/2_5.odb,Step-1,Increment      1: Step Time =    1.000,"PART-1-1",            61,          -15.,         8.125,            0.,NA,NA,"",       5.43116,      -3.24045,      -4.35856,   2.19279E-03
C:/temp/dataset/9/2_5.odb,Step-1,Increment      1: Step Time =    1.000,"PART-1-1",            62,          -15.,        5.9375,            0.,NA,NA,"",       5.20600,      -2.88442,      -4.33388,   2.18445E-03
C:/temp/dataset/9/2_5.odb,Step-1,Increment      1: Step Time =    1.000,"PART-1-1",            63,          -15.,        1.5625,            0.,NA,NA,"",       4.79544,      -2.16084,      -4.28100,   1.30616E-03
C:/temp/dataset/9/2_5.odb,Step-1,Increment      1: Step Time =    1.000,"PART-1-1",            64,          -15.,     -625.E-03,            0.,NA,NA,"",       4.61576,      -1.79544,      -4.25225,   701.659E-06
C:/temp/dataset/9/2_5.odb,Step-1,Increment      1: Step Time =    1.000,"PART-1-1",            65,          -15.,       -2.8125,            0.,NA,NA,"",       4.45757,      -1.42924,      -4.22222,   200.238E-06
C:/temp/dataset/9/2_5.odb,Step-1,Increment      1: Step Time =    1.000,"PART-1-1",            66,         -12.5,           -5.,            0.,NA,NA,"",       3.93010,      -1.09826,      -3.77353,   244.249E-06
C:/temp/dataset/9/2_5.odb,Step-1,Increment      1: Step Time =    1.000,"PART-1-1",            67,          -7.5,           -5.,            0.,NA,NA,"",       3.15751,      -1.16652,      -2.93413,   442.423E-06
C:/temp/dataset/9/2_5.odb,Step-1,Increment      1: Step Time =    1.000,"PART-1-1",            68,          -2.5,           -5.,            0.,NA,NA,"",       2.42834,      -1.24445,      -2.08523,   3.59114E-03
C:/temp/dataset/9/2_5.odb,Step-1,Increment      1: Step Time =    1.000,"PART-1-1",            69,           2.5,           -5.,            0.,NA,NA,"",       1.82588,      -1.34293,      -1.23709,   13.7528E-03
C:/temp/dataset/9/2_5.odb,Step-1,Increment      1: Step Time =    1.000,"PART-1-1",            70,            5.,      -7.08333,            0.,NA,NA,"",       1.39513,      -1.21638,  -683.228E-03,   40.3509E-03
C:/temp/dataset/9/2_5.odb,Step-1,Increment      1: Step Time =    1.000,"PART-1-1",            71,            5.,      -9.16667,            0.,NA,NA,"",       1.17836,      -1.00701,  -611.946E-03,   32.5799E-03
C:/temp/dataset/9/2_5.odb,Step-1,Increment      1: Step Time =    1.000,"PART-1-1",            72,            5.,      -13.3333,            0.,NA,NA,"",   795.992E-03,  -640.585E-03,  -472.497E-03,   32.6056E-03
C:/temp/dataset/9/2_5.odb,Step-1,Increment      1: Step Time =    1.000,"PART-1-1",            73,            5.,      -15.4167,            0.,NA,NA,"",   635.945E-03,  -489.505E-03,  -405.969E-03,   32.4135E-03
C:/temp/dataset/9/2_5.odb,Step-1,Increment      1: Step Time =    1.000,"PART-1-1",            74,            5.,      -19.5833,            0.,NA,NA,"",   376.669E-03,  -252.883E-03,  -279.159E-03,   31.5564E-03
C:/temp/dataset/9/2_5.odb,Step-1,Increment      1: Step Time =    1.000,"PART-1-1",            75,            5.,      -21.6667,            0.,NA,NA,"",   275.172E-03,  -166.839E-03,  -218.826E-03,   30.9530E-03
C:/temp/dataset/9/2_5.odb,Step-1,Increment      1: Step Time =    1.000,"PART-1-1",            76,            5.,      -25.8333,            0.,NA,NA,"",   118.907E-03,  -56.6364E-03,  -104.553E-03,   28.8787E-03
C:/temp/dataset/9/2_5.odb,Step-1,Increment      1: Step Time =    1.000,"PART-1-1",            77,            5.,      -27.9167,            0.,NA,NA,"",   59.4088E-03,  -29.1078E-03,  -51.7893E-03,   29.1074E-03
C:/temp/dataset/9/2_5.odb,Step-1,Increment      1: Step Time =    1.000,"PART-1-1",            78,           7.5,          -30.,            0.,NA,NA,"",            0.,   6.80188E-39,  -56.2222E-39,   12.6802E-03
C:/temp/dataset/9/2_5.odb,Step-1,Increment      1: Step Time =    1.000,"PART-1-1",            79,           10.,          -30.,            0.,NA,NA,"",            0.,   8.48315E-39,  -5.67788E-39,   6.76528E-03
C:/temp/dataset/9/2_5.odb,Step-1,Increment      1: Step Time =    1.000,"PART-1-1",            80,          12.5,          -30.,            0.,NA,NA,"",            0.,  -2.94364E-39,   22.0114E-39,   8.57366E-03
C:/temp/dataset/9/2_5.odb,Step-1,Increment      1: Step Time =    1.000,"PART-1-1",            81,           15.,         -27.5,            0.,NA,NA,"",   50.5085E-03,  -22.1099E-03,   45.4122E-03,   22.5422E-03
C:/temp/dataset/9/2_5.odb,Step-1,Increment      1: Step Time =    1.000,"PART-1-1",            82,           15.,          -25.,            0.,NA,NA,"",   113.232E-03,  -60.5501E-03,   95.6821E-03,   23.1330E-03
C:/temp/dataset/9/2_5.odb,Step-1,Increment      1: Step Time =    1.000,"PART-1-1",            83,           15.,          -20.,            0.,NA,NA,"",   305.207E-03,  -230.432E-03,   200.132E-03,   24.5747E-03
C:/temp/dataset/9/2_5.odb,Step-1,Increment      1: Step Time =    1.000,"PART-1-1",            84,           15.,         -17.5,            0.,NA,NA,"",   442.694E-03,  -363.593E-03,   252.543E-03,   25.2017E-03
C:/temp/dataset/9/2_5.odb,Step-1,Increment      1: Step Time =    1.000,"PART-1-1",            85,           15.,         -12.5,            0.,NA,NA,"",   811.948E-03,  -730.131E-03,   355.202E-03,   26.4350E-03
C:/temp/dataset/9/2_5.odb,Step-1,Increment      1: Step Time =    1.000,"PART-1-1",            86,           15.,          -10.,            0.,NA,NA,"",       1.04689,  -965.684E-03,   404.267E-03,   26.8864E-03
C:/temp/dataset/9/2_5.odb,Step-1,Increment      1: Step Time =    1.000,"PART-1-1",            87,           15.,           -5.,            0.,NA,NA,"",       1.62302,      -1.54798,   487.798E-03,   23.7172E-03
C:/temp/dataset/9/2_5.odb,Step-1,Increment      1: Step Time =    1.000,"PART-1-1",            88,           15.,          -2.5,            0.,NA,NA,"",       1.95888,      -1.89062,   512.618E-03,   18.6326E-03
C:/temp/dataset/9/2_5.odb,Step-1,Increment      1: Step Time =    1.000,"PART-1-1",            89,           15.,           2.5,            0.,NA,NA,"",       2.68366,      -2.63360,   515.924E-03,   8.23468E-03
C:/temp/dataset/9/2_5.odb,Step-1,Increment      1: Step Time =    1.000,"PART-1-1",            90,           15.,            5.,            0.,NA,NA,"",       3.05810,      -3.01664,   501.896E-03,   5.80916E-03
C:/temp/dataset/9/2_5.odb,Step-1,Increment      1: Step Time =    1.000,"PART-1-1",            91,           15.,           10.,            0.,NA,NA,"",       3.82398,      -3.79574,   463.890E-03,   4.67845E-03
C:/temp/dataset/9/2_5.odb,Step-1,Increment      1: Step Time =    1.000,"PART-1-1",            92,           15.,          12.5,            0.,NA,NA,"",       4.21715,      -4.19391,   442.187E-03,   4.27284E-03
C:/temp/dataset/9/2_5.odb,Step-1,Increment      1: Step Time =    1.000,"PART-1-1",            93,           15.,          17.5,            0.,NA,NA,"",       5.02324,      -5.00792,   392.084E-03,   2.89138E-03
C:/temp/dataset/9/2_5.odb,Step-1,Increment      1: Step Time =    1.000,"PART-1-1",            94,           15.,           20.,            0.,NA,NA,"",       5.43412,      -5.42198,   363.102E-03,   1.96940E-03
C:/temp/dataset/9/2_5.odb,Step-1,Increment      1: Step Time =    1.000,"PART-1-1",            95,           15.,           25.,            0.,NA,NA,"",       6.26387,      -6.25678,   298.028E-03,   485.726E-06
C:/temp/dataset/9/2_5.odb,Step-1,Increment      1: Step Time =    1.000,"PART-1-1",            96,           15.,          27.5,            0.,NA,NA,"",       6.68026,      -6.67507,   263.384E-03,   107.575E-06
C:/temp/dataset/9/2_5.odb,Step-1,Increment      1: Step Time =    1.000,"PART-1-1",            97,       7.09255,      -21.6558,            0.,NA,NA,"",   200.652E-03,  -144.898E-03,  -138.802E-03,   19.3760E-03
C:/temp/dataset/9/2_5.odb,Step-1,Increment      1: Step Time =    1.000,"PART-1-1",            98,       7.09346,      -17.4368,            0.,NA,NA,"",   406.415E-03,  -342.974E-03,  -218.040E-03,   19.9318E-03
C:/temp/dataset/9/2_5.odb,Step-1,Increment      1: Step Time =    1.000,"PART-1-1",            99,       7.15828,      -23.7452,            0.,NA,NA,"",   127.203E-03,  -78.8375E-03,  -99.8267E-03,   18.7264E-03
C:/temp/dataset/9/2_5.odb,Step-1,Increment      1: Step Time =    1.000,"PART-1-1",           100,       7.44609,      -27.8729,            0.,NA,NA,"",   29.0355E-03,  -6.86870E-03,  -28.2114E-03,   17.1684E-03
C:/temp/dataset/9/2_5.odb,Step-1,Increment      1: Step Time =    1.000,"PART-1-1",           101,       7.30780,      -25.7939,            0.,NA,NA,"",   70.2529E-03,  -33.2974E-03,  -61.8608E-03,   18.1778E-03
C:/temp/dataset/9/2_5.odb,Step-1,Increment      1: Step Time =    1.000,"PART-1-1",           102,       7.08258,      -10.9526,            0.,NA,NA,"",   897.308E-03,  -823.820E-03,  -355.645E-03,   20.6560E-03
C:/temp/dataset/9/2_5.odb,Step-1,Increment      1: Step Time =    1.000,"PART-1-1",           103,       7.09950,      -13.1236,            0.,NA,NA,"",   708.419E-03,  -638.815E-03,  -306.224E-03,   20.4291E-03
C:/temp/dataset/9/2_5.odb,Step-1,Increment      1: Step Time =    1.000,"PART-1-1",           104,       6.95448,      -6.62029,            0.,NA,NA,"",       1.34558,      -1.26055,  -470.753E-03,   21.8041E-03
C:/temp/dataset/9/2_5.odb,Step-1,Increment      1: Step Time =    1.000,"PART-1-1",           105,       7.04974,      -8.78764,            0.,NA,NA,"",       1.10946,      -1.03070,  -410.552E-03,   22.0776E-03
C:/temp/dataset/9/2_5.odb,Step-1,Increment      1: Step Time =    1.000,"PART-1-1",           106,       7.10540,      -15.2896,            0.,NA,NA,"",   544.499E-03,  -478.287E-03,  -260.231E-03,   20.1131E-03
C:/temp/dataset/9/2_5.odb,Step-1,Increment      1: Step Time =    1.000,"PART-1-1",           107,       7.08223,      -19.5608,            0.,NA,NA,"",   292.509E-03,  -232.204E-03,  -177.884E-03,   19.7140E-03
C:/temp/dataset/9/2_5.odb,Step-1,Increment      1: Step Time =    1.000,"PART-1-1",           108,      -11.8989,       25.3809,            0.,NA,NA,"",       7.24499,      -5.98079,      -4.08901,   1.48511E-03
C:/temp/dataset/9/2_5.odb,Step-1,Increment      1: Step Time =    1.000,"PART-1-1",           109,      -12.7134,       3.51066,            0.,NA,NA,"",       4.66548,      -2.51703,      -3.92826,   644.609E-06
C:/temp/dataset/9/2_5.odb,Step-1,Increment      1: Step Time =    1.000,"PART-1-1",           110,      -13.0834,       10.3867,            0.,NA,NA,"",       5.45886,      -3.62942,      -4.07756,   644.784E-06
C:/temp/dataset/9/2_5.odb,Step-1,Increment      1: Step Time =    1.000,"PART-1-1",           111,      -12.9355,       8.20912,            0.,NA,NA,"",       5.19460,      -3.28235,      -4.02616,   507.123E-06
C:/temp/dataset/9/2_5.odb,Step-1,Increment      1: Step Time =    1.000,"PART-1-1",           112,      -13.1801,       12.5484,            0.,NA,NA,"",       5.72207,      -3.97070,      -4.12015,   734.822E-06
C:/temp/dataset/9/2_5.odb,Step-1,Increment      1: Step Time =    1.000,"PART-1-1",           113,      -12.7454,       20.6010,            0.,NA,NA,"",       6.67995,      -5.22954,      -4.15617,   1.42062E-03
C:/temp/dataset/9/2_5.odb,Step-1,Increment      1: Step Time =    1.000,"PART-1-1",           114,      -13.1621,       18.5389,            0.,NA,NA,"",       6.45374,      -4.90539,      -4.19380,   1.23604E-03
C:/temp/dataset/9/2_5.odb,Step-1,Increment      1: Step Time =    1.000,"PART-1-1",           115,      -12.3840,       22.8683,            0.,NA,NA,"",       6.94658,      -5.58510,      -4.13057,   1.57177E-03
C:/temp/dataset/9/2_5.odb,Step-1,Increment      1: Step Time =    1.000,"PART-1-1",           116,      -13.4658,       16.5948,            0.,NA,NA,"",       6.24002,      -4.60016,      -4.21620,   932.478E-06
C:/temp/dataset/9/2_5.odb,Step-1,Increment      1: Step Time =    1.000,"PART-1-1",           117,      -13.3466,       14.6489,            0.,NA,NA,"",       5.99069,      -4.29833,      -4.17286,   806.686E-06
C:/temp/dataset/9/2_5.odb,Step-1,Increment      1: Step Time =    1.000,"PART-1-1",           118,      -12.3609,       5.76892,            0.,NA,NA,"",       4.85696,      -2.89370,      -3.90084,   245.485E-06
C:/temp/dataset/9/2_5.odb,Step-1,Increment      1: Step Time =    1.000,"PART-1-1",           119,      -12.8583,       1.39410,            0.,NA,NA,"",       4.48010,      -2.16320,      -3.92324,   698.093E-06
C:/temp/dataset/9/2_5.odb,Step-1,Increment      1: Step Time =    1.000,"PART-1-1",           120,      -12.6304,  -685.754E-03,            0.,NA,NA,"",       4.26372,      -1.81884,      -3.85631,   652.848E-06
C:/temp/dataset/9/2_5.odb,Step-1,Increment      1: Step Time =    1.000,"PART-1-1",           121,   38.5673E-03,       27.2989,            0.,NA,NA,"",       6.80677,      -6.42529,      -2.24672,   4.21214E-03
C:/temp/dataset/9/2_5.odb,Step-1,Increment      1: Step Time =    1.000,"PART-1-1",           122,      -4.16985,       22.2766,            0.,NA,NA,"",       6.25801,      -5.56964,      -2.85339,   4.38713E-03
C:/temp/dataset/9/2_5.odb,Step-1,Increment      1: Step Time =    1.000,"PART-1-1",           123,      -7.85548,       28.0855,            0.,NA,NA,"",       7.34168,      -6.44887,      -3.50890,   4.44642E-03
C:/temp/dataset/9/2_5.odb,Step-1,Increment      1: Step Time =    1.000,"PART-1-1",           124,       9.92813,      -27.7267,            0.,NA,NA,"",   6.52255E-03,   1.90087E-03,  -6.23942E-03,   3.66498E-03
C:/temp/dataset/9/2_5.odb,Step-1,Increment      1: Step Time =    1.000,"PART-1-1",           125,       13.1106,      -17.4438,            0.,NA,NA,"",   375.182E-03,  -346.947E-03,   142.790E-03,   14.4398E-03
C:/temp/dataset/9/2_5.odb,Step-1,Increment      1: Step Time =    1.000,"PART-1-1",           126,       12.8150,       2.64061,            0.,NA,NA,"",       2.63205,      -2.62510,   191.257E-03,   5.75472E-03
C:/temp/dataset/9/2_5.odb,Step-1,Increment      1: Step Time =    1.000,"PART-1-1",           127,       7.56819,       12.3225,            0.,NA,NA,"",       4.13601,      -4.07008,  -735.555E-03,   4.17685E-03
C:/temp/dataset/9/2_5.odb,Step-1,Increment      1: Step Time =    1.000,"PART-1-1",           128,       7.47113,       19.8748,            0.,NA,NA,"",       5.37160,      -5.29959,  -876.575E-03,   3.02418E-03
C:/temp/dataset/9/2_5.odb,Step-1,Increment      1: Step Time =    1.000,"PART-1-1",           129,       12.4223,       27.5153,            0.,NA,NA,"",       6.64347,      -6.64136,  -167.486E-03,   300.820E-06
C:/temp/dataset/9/2_5.odb,Step-1,Increment      1: Step Time =    1.000,"PART-1-1",           130,       12.3750,       22.5091,            0.,NA,NA,"",       5.80406,      -5.80312,  -104.808E-03,   969.735E-06
C:/temp/dataset/9/2_5.odb,Step-1,Increment      1: Step Time =    1.000,"PART-1-1",           131,       7.58839,       27.9970,            0.,NA,NA,"",       6.72675,      -6.65449,  -983.347E-03,   615.367E-06
C:/temp/dataset/9/2_5.odb,Step-1,Increment      1: Step Time =    1.000,"PART-1-1",           132,   199.805E-03,       22.3057,            0.,NA,NA,"",       6.01373,      -5.61733,      -2.14721,   3.71660E-03
C:/temp/dataset/9/2_5.odb,Step-1,Increment      1: Step Time =    1.000,"PART-1-1",           133,       12.6934,       9.82310,            0.,NA,NA,"",       3.73720,      -3.73575,   104.178E-03,   2.20358E-03
C:/temp/dataset/9/2_5.odb,Step-1,Increment      1: Step Time =    1.000,"PART-1-1",           134,      -7.14717,       12.7802,            0.,NA,NA,"",       5.16151,      -4.07816,      -3.16382,   4.47318E-03
C:/temp/dataset/9/2_5.odb,Step-1,Increment      1: Step Time =    1.000,"PART-1-1",           135,      -6.86178,       17.9412,            0.,NA,NA,"",       5.83820,      -4.88254,      -3.20083,   3.57575E-03
C:/temp/dataset/9/2_5.odb,Step-1,Increment      1: Step Time =    1.000,"PART-1-1",           136,      -2.68307,      -2.95682,            0.,NA,NA,"",       2.66535,      -1.58525,      -2.14268,   4.18811E-03
C:/temp/dataset/9/2_5.odb,Step-1,Increment      1: Step Time =    1.000,"PART-1-1",           137,      -7.59808,      -3.03341,            0.,NA,NA,"",       3.33354,      -1.49596,      -2.97902,   1.01882E-03
C:/temp/dataset/9/2_5.odb,Step-1,Increment      1: Step Time =    1.000,"PART-1-1",           138,  -248.196E-03,       2.69947,            0.,NA,NA,"",       3.11690,      -2.54336,      -1.80178,   6.13535E-03
C:/temp/dataset/9/2_5.odb,Step-1,Increment      1: Step Time =    1.000,"PART-1-1",           139,       2.16631,      -2.47375,            0.,NA,NA,"",       2.19649,      -1.75200,      -1.32478,   11.8883E-03
C:/temp/dataset/9/2_5.odb,Step-1,Increment      1: Step Time =    1.000,"PART-1-1",           140,       4.39271,       2.43636,            0.,NA,NA,"",       2.74746,      -2.54190,      -1.04272,   8.22481E-03
C:/temp/dataset/9/2_5.odb,Step-1,Increment      1: Step Time =    1.000,"PART-1-1",           141,       12.9283,      -5.27800,            0.,NA,NA,"",       1.49612,      -1.47844,   229.337E-03,   13.7794E-03
C:/temp/dataset/9/2_5.odb,Step-1,Increment      1: Step Time =    1.000,"PART-1-1",           142,       13.0847,      -12.6172,            0.,NA,NA,"",   721.477E-03,  -695.462E-03,   191.993E-03,   14.9139E-03
C:/temp/dataset/9/2_5.odb,Step-1,Increment      1: Step Time =    1.000,"PART-1-1",           143,       12.4838,       17.4790,            0.,NA,NA,"",       4.96845,      -4.96841,  -19.0978E-03,   1.43998E-03
C:/temp/dataset/9/2_5.odb,Step-1,Increment      1: Step Time =    1.000,"PART-1-1",           144,       2.63438,       22.2143,            0.,NA,NA,"",       5.89256,      -5.63071,      -1.73707,   3.78047E-03
C:/temp/dataset/9/2_5.odb,Step-1,Increment      1: Step Time =    1.000,"PART-1-1",           145,       7.54366,       14.9275,            0.,NA,NA,"",       4.55601,      -4.48827,  -782.676E-03,   3.91129E-03
C:/temp/dataset/9/2_5.odb,Step-1,Increment      1: Step Time =    1.000,"PART-1-1",           146,       7.50510,       17.4443,            0.,NA,NA,"",       4.96800,      -4.89809,  -830.542E-03,   3.28900E-03
C:/temp/dataset/9/2_5.odb,Step-1,Increment      1: Step Time =    1.000,"PART-1-1",           147,       7.12790,       7.03873,            0.,NA,NA,"",       3.31930,      -3.24087,  -717.282E-03,   4.74799E-03
C:/temp/dataset/9/2_5.odb,Step-1,Increment      1: Step Time =    1.000,"PART-1-1",           148,       7.48952,       9.64170,            0.,NA,NA,"",       3.71338,      -3.64606,  -703.897E-03,   4.58688E-03
C:/temp/dataset/9/2_5.odb,Step-1,Increment      1: Step Time =    1.000,"PART-1-1",           149,       2.16717,       2.56251,            0.,NA,NA,"",       2.90412,      -2.54605,      -1.39699,   5.77960E-03
C:/temp/dataset/9/2_5.odb,Step-1,Increment      1: Step Time =    1.000,"PART-1-1",           150,      -2.68606,       3.12146,            0.,NA,NA,"",       3.41035,      -2.58306,      -2.22672,   6.05220E-03
C:/temp/dataset/9/2_5.odb,Step-1,Increment      1: Step Time =    1.000,"PART-1-1",           151,      -7.08307,       10.2840,            0.,NA,NA,"",       4.82364,      -3.68567,      -3.11181,   5.01376E-03
C:/temp/dataset/9/2_5.odb,Step-1,Increment      1: Step Time =    1.000,"PART-1-1",           152,      -2.13928,       22.2031,            0.,NA,NA,"",       6.12342,      -5.57660,      -2.52937,   3.67174E-03
C:/temp/dataset/9/2_5.odb,Step-1,Increment      1: Step Time =    1.000,"PART-1-1",           153,       9.90766,       27.6812,            0.,NA,NA,"",       6.66032,      -6.63413,  -590.024E-03,   212.757E-06
C:/temp/dataset/9/2_5.odb,Step-1,Increment      1: Step Time =    1.000,"PART-1-1",           154,       5.18317,       27.8350,            0.,NA,NA,"",       6.73690,      -6.59278,      -1.38605,   1.56933E-03
C:/temp/dataset/9/2_5.odb,Step-1,Increment      1: Step Time =    1.000,"PART-1-1",           155,       2.70091,       27.4744,            0.,NA,NA,"",       6.74001,      -6.49519,      -1.80007,   3.01892E-03
C:/temp/dataset/9/2_5.odb,Step-1,Increment      1: Step Time =    1.000,"PART-1-1",           156,      -2.92570,       26.9909,            0.,NA,NA,"",       6.89768,      -6.33474,      -2.72930,   3.63422E-03
C:/temp/dataset/9/2_5.odb,Step-1,Increment      1: Step Time =    1.000,"PART-1-1",           157,      -5.52449,       27.7330,            0.,NA,NA,"",       7.15218,      -6.42115,      -3.14999,   4.80268E-03
C:/temp/dataset/9/2_5.odb,Step-1,Increment      1: Step Time =    1.000,"PART-1-1",           158,      -10.1759,       28.1970,            0.,NA,NA,"",       7.50637,      -6.43755,      -3.86051,   1.52971E-03
C:/temp/dataset/9/2_5.odb,Step-1,Increment      1: Step Time =    1.000,"PART-1-1",           159,      -7.15795,       15.3782,            0.,NA,NA,"",       5.51252,      -4.48340,      -3.20734,   4.09921E-03
C:/temp/dataset/9/2_5.odb,Step-1,Increment      1: Step Time =    1.000,"PART-1-1",           160,      -7.10855,       7.92361,            0.,NA,NA,"",       4.51827,      -3.30978,      -3.07573,   5.54010E-03
C:/temp/dataset/9/2_5.odb,Step-1,Increment      1: Step Time =    1.000,"PART-1-1",           161,      -7.31416,       5.72319,            0.,NA,NA,"",       4.26078,      -2.95289,      -3.07159,   3.52252E-03
C:/temp/dataset/9/2_5.odb,Step-1,Increment      1: Step Time =    1.000,"PART-1-1",           162,      -10.0288,      -2.82434,            0.,NA,NA,"",       3.70686,      -1.49680,      -3.39122,   314.248E-06
C:/temp/dataset/9/2_5.odb,Step-1,Increment      1: Step Time =    1.000,"PART-1-1",           163,      -5.14639,      -3.11924,            0.,NA,NA,"",       2.97740,      -1.51814,      -2.56128,   2.49319E-03
C:/temp/dataset/9/2_5.odb,Step-1,Increment      1: Step Time =    1.000,"PART-1-1",           164,  -261.821E-03,      -2.60038,            0.,NA,NA,"",       2.42022,      -1.68812,      -1.73428,   6.90129E-03
C:/temp/dataset/9/2_5.odb,Step-1,Increment      1: Step Time =    1.000,"PART-1-1",           165,       4.38015,      -2.33295,            0.,NA,NA,"",       2.04738,      -1.81099,  -955.018E-03,   12.9886E-03
C:/temp/dataset/9/2_5.odb,Step-1,Increment      1: Step Time =    1.000,"PART-1-1",           166,       13.0639,      -10.1924,            0.,NA,NA,"",   943.100E-03,  -918.848E-03,   212.499E-03,   15.0296E-03
C:/temp/dataset/9/2_5.odb,Step-1,Increment      1: Step Time =    1.000,"PART-1-1",           167,       13.0843,      -19.8267,            0.,NA,NA,"",   247.962E-03,  -220.003E-03,   114.385E-03,   13.9504E-03
C:/temp/dataset/9/2_5.odb,Step-1,Increment      1: Step Time =    1.000,"PART-1-1",           168,       12.4446,      -27.5067,            0.,NA,NA,"",   19.7515E-03,  -4.85830E-03,   19.1447E-03,   10.2310E-03
C:/temp/dataset/9/2_5.odb,Step-1,Increment      1: Step Time =    1.000,"PART-1-1",           169,       12.9329,      -22.1971,            0.,NA,NA,"",   146.774E-03,  -121.881E-03,   81.7789E-03,   12.6848E-03
C:/temp/dataset/9/2_5.odb,Step-1,Increment      1: Step Time =    1.000,"PART-1-1",           170,       13.1086,      -15.0383,            0.,NA,NA,"",   532.631E-03,  -505.097E-03,   169.035E-03,   14.7626E-03
C:/temp/dataset/9/2_5.odb,Step-1,Increment      1: Step Time =    1.000,"PART-1-1",           171,       13.0208,      -7.75462,            0.,NA,NA,"",       1.19980,      -1.17813,   226.970E-03,   14.7650E-03
C:/temp/dataset/9/2_5.odb,Step-1,Increment      1: Step Time =    1.000,"PART-1-1",           172,       12.7756,      -2.70708,            0.,NA,NA,"",       1.83895,      -1.82655,   213.183E-03,   11.8757E-03
C:/temp/dataset/9/2_5.odb,Step-1,Increment      1: Step Time =    1.000,"PART-1-1",           173,       12.6338,  -14.4220E-03,            0.,NA,NA,"",       2.22748,      -2.21986,   184.124E-03,   9.06241E-03
C:/temp/dataset/9/2_5.odb,Step-1,Increment      1: Step Time =    1.000,"PART-1-1",           174,       13.0186,       5.13380,            0.,NA,NA,"",       3.01696,      -3.01031,   200.161E-03,   3.68238E-03
C:/temp/dataset/9/2_5.odb,Step-1,Increment      1: Step Time =    1.000,"PART-1-1",           175,       13.0709,       7.51902,            0.,NA,NA,"",       3.38517,      -3.38005,   185.981E-03,   2.93925E-03
C:/temp/dataset/9/2_5.odb,Step-1,Increment      1: Step Time =    1.000,"PART-1-1",           176,       12.5119,       12.3699,            0.,NA,NA,"",       4.13825,      -4.13797,   47.5775E-03,   1.76634E-03
C:/temp/dataset/9/2_5.odb,Step-1,Increment      1: Step Time =    1.000,"PART-1-1",           177,       12.4863,       14.9454,            0.,NA,NA,"",       4.55348,      -4.55346,   13.0221E-03,   1.55359E-03
C:/temp/dataset/9/2_5.odb,Step-1,Increment      1: Step Time =    1.000,"PART-1-1",           178,       12.4500,       19.9932,            0.,NA,NA,"",       5.38474,      -5.38443,  -57.7907E-03,   1.29958E-03
C:/temp/dataset/9/2_5.odb,Step-1,Increment      1: Step Time =    1.000,"PART-1-1",           179,       9.19048,      -23.6482,            0.,NA,NA,"",   81.9088E-03,  -70.2675E-03,  -42.0895E-03,   7.97067E-03
C:/temp/dataset/9/2_5.odb,Step-1,Increment      1: Step Time =    1.000,"PART-1-1",           180,       9.11932,      -19.5624,            0.,NA,NA,"",   235.119E-03,  -222.069E-03,  -77.2425E-03,   8.33259E-03
C:/temp/dataset/9/2_5.odb,Step-1,Increment      1: Step Time =    1.000,"PART-1-1",           181,       9.13323,      -12.9344,            0.,NA,NA,"",   663.239E-03,  -648.227E-03,  -140.317E-03,   8.51710E-03
C:/temp/dataset/9/2_5.odb,Step-1,Increment      1: Step Time =    1.000,"PART-1-1",           182,       9.14303,      -17.4019,            0.,NA,NA,"",   349.193E-03,  -336.027E-03,  -94.9808E-03,   8.27243E-03
C:/temp/dataset/9/2_5.odb,Step-1,Increment      1: Step Time =    1.000,"PART-1-1",           183,       9.11260,      -10.6744,            0.,NA,NA,"",   862.472E-03,  -845.960E-03,  -167.957E-03,   8.61693E-03
C:/temp/dataset/9/2_5.odb,Step-1,Increment      1: Step Time =    1.000,"PART-1-1",           184,       9.06671,      -8.40676,            0.,NA,NA,"",       1.08963,      -1.07103,  -200.463E-03,   7.53329E-03
C:/temp/dataset/9/2_5.odb,Step-1,Increment      1: Step Time =    1.000,"PART-1-1",           185,       9.15359,      -15.1846,            0.,NA,NA,"",   491.701E-03,  -477.997E-03,  -115.278E-03,   8.31762E-03
C:/temp/dataset/9/2_5.odb,Step-1,Increment      1: Step Time =    1.000,"PART-1-1",           186,       9.09437,      -21.6308,            0.,NA,NA,"",   148.243E-03,  -135.096E-03,  -61.0327E-03,   8.43151E-03
C:/temp/dataset/9/2_5.odb,Step-1,Increment      1: Step Time =    1.000,"PART-1-1",           187,       8.94944,      -6.10597,            0.,NA,NA,"",       1.35169,      -1.33006,  -240.849E-03,   6.42546E-03
C:/temp/dataset/9/2_5.odb,Step-1,Increment      1: Step Time =    1.000,"PART-1-1",           188,      -11.3189,       17.6054,            0.,NA,NA,"",       6.16647,      -4.78219,      -3.89307,   2.04215E-03
C:/temp/dataset/9/2_5.odb,Step-1,Increment      1: Step Time =    1.000,"PART-1-1",           189,      -10.4260,       2.85148,            0.,NA,NA,"",       4.29988,      -2.43884,      -3.54133,   1.31455E-03
C:/temp/dataset/9/2_5.odb,Step-1,Increment      1: Step Time =    1.000,"PART-1-1",           190,      -12.4413,       27.8959,            0.,NA,NA,"",       7.62662,      -6.36366,      -4.20347,   472.052E-06
C:/temp/dataset/9/2_5.odb,Step-1,Increment      1: Step Time =    1.000,"PART-1-1",           191,      -10.6658,       19.6683,            0.,NA,NA,"",       6.37841,      -5.10827,      -3.81964,   2.56017E-03
C:/temp/dataset/9/2_5.odb,Step-1,Increment      1: Step Time =    1.000,"PART-1-1",           192,      -12.1118,       16.4066,            0.,NA,NA,"",       6.08706,      -4.58708,      -4.00137,   1.58298E-03
C:/temp/dataset/9/2_5.odb,Step-1,Increment      1: Step Time =    1.000,"PART-1-1",           193,      -11.5166,       14.9043,            0.,NA,NA,"",       5.84177,      -4.36041,      -3.88756,   1.80228E-03
C:/temp/dataset/9/2_5.odb,Step-1,Increment      1: Step Time =    1.000,"PART-1-1",           194,      -11.2054,       12.7278,            0.,NA,NA,"",       5.54018,      -4.02344,      -3.80862,   1.81982E-03
C:/temp/dataset/9/2_5.odb,Step-1,Increment      1: Step Time =    1.000,"PART-1-1",           195,      -11.1139,       10.5020,            0.,NA,NA,"",       5.25848,      -3.67287,      -3.76319,   1.67351E-03
C:/temp/dataset/9/2_5.odb,Step-1,Increment      1: Step Time =    1.000,"PART-1-1",           196,      -9.42029,       24.1195,            0.,NA,NA,"",       6.88500,      -5.81160,      -3.69169,   3.40917E-03
C:/temp/dataset/9/2_5.odb,Step-1,Increment      1: Step Time =    1.000,"PART-1-1",           197,      -11.0759,       8.46025,            0.,NA,NA,"",       5.01060,      -3.34723,      -3.72856,   1.35154E-03
C:/temp/dataset/9/2_5.odb,Step-1,Increment      1: Step Time =    1.000,"PART-1-1",           198,      -10.9473,       6.84821,            0.,NA,NA,"",       4.80818,      -3.08862,      -3.68498,   1.02929E-03
C:/temp/dataset/9/2_5.odb,Step-1,Increment      1: Step Time =    1.000,"PART-1-1",           199,       9.64075,      -25.5803,            0.,NA,NA,"",   31.9175E-03,  -25.5461E-03,  -19.1344E-03,   5.46505E-03
C:/temp/dataset/9/2_5.odb,Step-1,Increment      1: Step Time =    1.000,"PART-1-1",           200,       6.22595,      -2.03957,            0.,NA,NA,"",       1.98619,      -1.86913,  -671.771E-03,   15.3691E-03
C:/temp/dataset/9/2_5.odb,Step-1,Increment      1: Step Time =    1.000,"PART-1-1",           201,       6.24072,       2.15031,            0.,NA,NA,"",       2.61838,      -2.50595,  -759.019E-03,   12.0263E-03
C:/temp/dataset/9/2_5.odb,Step-1,Increment      1: Step Time =    1.000,"PART-1-1",           202,      -7.69234,       3.89067,            0.,NA,NA,"",       4.07899,      -2.64665,      -3.10377,   3.33865E-03
C:/temp/dataset/9/2_5.odb,Step-1,Increment      1: Step Time =    1.000,"PART-1-1",           203,       7.31807,       22.0589,            0.,NA,NA,"",       5.73951,      -5.66227,  -938.465E-03,   3.27474E-03
C:/temp/dataset/9/2_5.odb,Step-1,Increment      1: Step Time =    1.000,"PART-1-1",           204,      -6.44398,       20.4265,            0.,NA,NA,"",       6.14802,      -5.26491,      -3.17472,   6.18015E-03
C:/temp/dataset/9/2_5.odb,Step-1,Increment      1: Step Time =    1.000,"PART-1-1",           205,       12.2962,       25.0128,            0.,NA,NA,"",       6.22269,      -6.22081,  -153.189E-03,   591.191E-06
C:/temp/dataset/9/2_5.odb,Step-1,Increment      1: Step Time =    1.000,"PART-1-1",           206,       12.2257,      -24.8009,            0.,NA,NA,"",   57.7977E-03,  -44.3227E-03,   37.0955E-03,   8.78297E-03
C:/temp/dataset/9/2_5.odb,Step-1,Increment      1: Step Time =    1.000,"PART-1-1",           207,      -2.06005,       24.5200,            0.,NA,NA,"",       6.47289,      -5.94892,      -2.55122,   2.53886E-03
C:/temp/dataset/9/2_5.odb,Step-1,Increment      1: Step Time =    1.000,"PART-1-1",           208,       9.31619,       25.0673,            0.,NA,NA,"",       6.22346,      -6.18932,  -651.034E-03,   975.629E-06
C:/temp/dataset/9/2_5.odb,Step-1,Increment      1: Step Time =    1.000,"PART-1-1",           209,       3.21447,       24.8112,            0.,NA,NA,"",       6.29210,      -6.06463,      -1.67655,   3.72447E-03
C:/temp/dataset/9/2_5.odb,Step-1,Increment      1: Step Time =    1.000,"PART-1-1",           210,      -7.52022,      -1.18711,            0.,NA,NA,"",       3.49525,      -1.80556,      -2.99279,   1.95745E-03
C:/temp/dataset/9/2_5.odb,Step-1,Increment      1: Step Time =    1.000,"PART-1-1",           211,       10.0127,       14.9017,            0.,NA,NA,"",       4.53019,      -4.51385,  -384.400E-03,   1.63206E-03
C:/temp/dataset/9/2_5.odb,Step-1,Increment      1: Step Time =    1.000,"PART-1-1",           212,       10.7293,       3.02357,            0.,NA,NA,"",       2.66434,      -2.66177,  -116.971E-03,   5.36140E-03
C:/temp/dataset/9/2_5.odb,Step-1,Increment      1: Step Time =    1.000,"PART-1-1",           213,       11.4837,       7.36813,            0.,NA,NA,"",       3.33716,      -3.33669,  -56.2432E-03,   1.27060E-03
C:/temp/dataset/9/2_5.odb,Step-1,Increment      1: Step Time =    1.000,"PART-1-1",           214,      -9.20573,       12.9161,            0.,NA,NA,"",       5.36849,      -4.07663,      -3.49311,   3.06427E-03
C:/temp/dataset/9/2_5.odb,Step-1,Increment      1: Step Time =    1.000,"PART-1-1",           215,   314.418E-03,       24.7704,            0.,NA,NA,"",       6.39584,      -6.01855,      -2.16421,   3.24611E-03
C:/temp/dataset/9/2_5.odb,Step-1,Increment      1: Step Time =    1.000,"PART-1-1",           216,       7.52406,       26.3727,            0.,NA,NA,"",       6.45608,      -6.38266,  -970.845E-03,   1.19380E-03
C:/temp/dataset/9/2_5.odb,Step-1,Increment      1: Step Time =    1.000,"PART-1-1",           217,  -811.906E-03,   82.6841E-03,            0.,NA,NA,"",       2.81673,      -2.11419,      -1.86123,   6.48445E-03
C:/temp/dataset/9/2_5.odb,Step-1,Increment      1: Step Time =    1.000,"PART-1-1",           218,       11.1400,      -19.6444,            0.,NA,NA,"",   219.806E-03,  -218.670E-03,   22.3122E-03,   3.22804E-03
C:/temp/dataset/9/2_5.odb,Step-1,Increment      1: Step Time =    1.000,"PART-1-1",           219,       11.1036,      -10.4226,            0.,NA,NA,"",   878.382E-03,  -878.116E-03,   21.6430E-03,   3.61621E-03
C:/temp/dataset/9/2_5.odb,Step-1,Increment      1: Step Time =    1.000,"PART-1-1",           220,       10.9280,      -5.64335,            0.,NA,NA,"",       1.40726,      -1.40722,  -9.85939E-03,   7.02135E-03
C:/temp/dataset/9/2_5.odb,Step-1,Increment      1: Step Time =    1.000,"PART-1-1",           221,       11.0667,       5.48495,            0.,NA,NA,"",       3.04319,      -3.04163,  -97.6103E-03,   2.20132E-03
C:/temp/dataset/9/2_5.odb,Step-1,Increment      1: Step Time =    1.000,"PART-1-1",           222,       11.1390,      -12.7671,            0.,NA,NA,"",   667.999E-03,  -667.448E-03,   27.1228E-03,   3.45326E-03
C:/temp/dataset/9/2_5.odb,Step-1,Increment      1: Step Time =    1.000,"PART-1-1",           223,       11.1627,      -15.1016,            0.,NA,NA,"",   488.147E-03,  -487.293E-03,   28.8607E-03,   3.52002E-03
C:/temp/dataset/9/2_5.odb,Step-1,Increment      1: Step Time =    1.000,"PART-1-1",           224,      -9.10801,       10.4728,            0.,NA,NA,"",       5.04697,      -3.69265,      -3.44038,   3.16356E-03
C:/temp/dataset/9/2_5.odb,Step-1,Increment      1: Step Time =    1.000,"PART-1-1",           225,      -9.12162,       8.28854,            0.,NA,NA,"",       4.77565,      -3.34452,      -3.40896,   2.89558E-03
C:/temp/dataset/9/2_5.odb,Step-1,Increment      1: Step Time =    1.000,"PART-1-1",           226,      -8.73753,       18.6317,            0.,NA,NA,"",       6.07993,      -4.96889,      -3.50367,   3.44082E-03
C:/temp/dataset/9/2_5.odb,Step-1,Increment      1: Step Time =    1.000,"PART-1-1",           227,      -9.90634,  -397.381E-03,            0.,NA,NA,"",       3.90247,      -1.90458,      -3.40615,   877.473E-06
C:/temp/dataset/9/2_5.odb,Step-1,Increment      1: Step Time =    1.000,"PART-1-1",           228,       9.93939,       19.9385,            0.,NA,NA,"",       5.36222,      -5.34158,  -470.000E-03,   1.86162E-03
C:/temp/dataset/9/2_5.odb,Step-1,Increment      1: Step Time =    1.000,"PART-1-1",           229,       5.70370,       25.8085,            0.,NA,NA,"",       6.39107,      -6.26372,      -1.26945,   2.26821E-03
C:/temp/dataset/9/2_5.odb,Step-1,Increment      1: Step Time =    1.000,"PART-1-1",           230,       10.0348,       12.2094,            0.,NA,NA,"",       4.09493,      -4.08054,  -342.955E-03,   1.56670E-03
C:/temp/dataset/9/2_5.odb,Step-1,Increment      1: Step Time =    1.000,"PART-1-1",           231,       9.98921,       17.4486,            0.,NA,NA,"",       4.94824,      -4.92995,  -425.016E-03,   1.63978E-03
C:/temp/dataset/9/2_5.odb,Step-1,Increment      1: Step Time =    1.000,"PART-1-1",           232,       10.1044,       9.10575,            0.,NA,NA,"",       3.60263,      -3.59092,  -290.234E-03,   1.29812E-03
C:/temp/dataset/9/2_5.odb,Step-1,Increment      1: Step Time =    1.000,"PART-1-1",           233,      -3.11139,      -1.10310,            0.,NA,NA,"",       2.92752,      -1.88449,      -2.24032,   5.44574E-03
C:/temp/dataset/9/2_5.odb,Step-1,Increment      1: Step Time =    1.000,"PART-1-1",           234,      -6.48507,       25.5695,            0.,NA,NA,"",       6.89120,      -6.06913,      -3.26410,   4.87322E-03
C:/temp/dataset/9/2_5.odb,Step-1,Increment      1: Step Time =    1.000,"PART-1-1",           235,      -4.76537,       24.8732,            0.,NA,NA,"",       6.68108,      -5.97622,      -2.98692,   4.25061E-03
C:/temp/dataset/9/2_5.odb,Step-1,Increment      1: Step Time =    1.000,"PART-1-1",           236,      -8.46351,       26.0628,            0.,NA,NA,"",       7.09190,      -6.12586,      -3.57335,   3.91260E-03
C:/temp/dataset/9/2_5.odb,Step-1,Increment      1: Step Time =    1.000,"PART-1-1",           237,      -9.50218,       15.8804,            0.,NA,NA,"",       5.78041,      -4.53558,      -3.58352,   2.74545E-03
C:/temp/dataset/9/2_5.odb,Step-1,Increment      1: Step Time =    1.000,"PART-1-1",           238,      -5.29510,      -1.38770,            0.,NA,NA,"",       3.17372,      -1.80418,      -2.61101,   3.59274E-03
C:/temp/dataset/9/2_5.odb,Step-1,Increment      1: Step Time =    1.000,"PART-1-1",           239,       11.0587,      -21.7318,            0.,NA,NA,"",   131.515E-03,  -130.607E-03,   15.4205E-03,   2.74801E-03
C:/temp/dataset/9/2_5.odb,Step-1,Increment      1: Step Time =    1.000,"PART-1-1",           240,       11.1670,      -17.4071,            0.,NA,NA,"",   338.689E-03,  -337.609E-03,   27.0258E-03,   3.47862E-03
C:/temp/dataset/9/2_5.odb,Step-1,Increment      1: Step Time =    1.000,"PART-1-1",           241,       11.0513,      -8.06140,            0.,NA,NA,"",       1.12211,      -1.12205,   11.6878E-03,   4.65928E-03
C:/temp/dataset/9/2_5.odb,Step-1,Increment      1: Step Time =    1.000,"PART-1-1",           242,       10.1357,   7.39639E-03,            0.,NA,NA,"",       2.20447,      -2.19854,  -161.621E-03,   9.51247E-03
C:/temp/dataset/9/2_5.odb,Step-1,Increment      1: Step Time =    1.000,"PART-1-1",           243,       10.6886,      -3.06387,            0.,NA,NA,"",       1.75228,      -1.75144,  -54.4796E-03,   9.60521E-03
C:/temp/dataset/9/2_5.odb,Step-1,Increment      1: Step Time =    1.000,"PART-1-1",           244,       9.76329,       22.4053,            0.,NA,NA,"",       5.77569,      -5.75073,  -536.383E-03,   1.60745E-03
C:/temp/dataset/9/2_5.odb,Step-1,Increment      1: Step Time =    1.000,"PART-1-1",           245,       8.68231,      -3.74099,            0.,NA,NA,"",       1.66547,      -1.63760,  -303.398E-03,   10.5433E-03
C:/temp/dataset/9/2_5.odb,Step-1,Increment      1: Step Time =    1.000,"PART-1-1",           246,      -9.34414,       6.30777,            0.,NA,NA,"",       4.56006,      -3.02192,      -3.41498,   2.27229E-03
C:/temp/dataset/9/2_5.odb,Step-1,Increment      1: Step Time =    1.000,"PART-1-1",           247,      -9.93235,       4.61568,            0.,NA,NA,"",       4.43235,      -2.73719,      -3.48619,   1.47915E-03
C:/temp/dataset/9/2_5.odb,Step-1,Increment      1: Step Time =    1.000,"PART-1-1",           248,      -8.14937,       21.0679,            0.,NA,NA,"",       6.36478,      -5.34917,      -3.44918,   4.56158E-03
C:/temp/dataset/9/2_5.odb,Step-1,Increment      1: Step Time =    1.000,"PART-1-1",           249,       10.7972,      -23.3791,            0.,NA,NA,"",   76.4331E-03,  -76.2822E-03,   4.80028E-03,   1.45807E-03
C:/temp/dataset/9/2_5.odb,Step-1,Increment      1: Step Time =    1.000,"PART-1-1",           250,       4.15357,   65.4176E-03,            0.,NA,NA,"",       2.40948,      -2.17520,      -1.03638,   7.87635E-03
C:/temp/dataset/9/2_5.odb,Step-1,Increment      1: Step Time =    1.000,"PART-1-1",           251,       8.71950,       3.82470,            0.,NA,NA,"",       2.80127,      -2.76894,  -424.338E-03,   7.37112E-03
C:/temp/dataset/9/2_5.odb,Step-1,Increment      1: Step Time =    1.000,"PART-1-1",           252,       5.00281,       23.5204,            0.,NA,NA,"",       6.03015,      -5.87621,      -1.35385,   3.61402E-03
C:/temp/dataset/9/2_5.odb,Step-1,Increment      1: Step Time =    1.000,"PART-1-1",           253,       7.40149,   60.9774E-03,            0.,NA,NA,"",       2.25852,      -2.19143,  -546.401E-03,   12.1573E-03
C:/temp/dataset/9/2_5.odb,Step-1,Increment      1: Step Time =    1.000,"PART-1-1",           254,      -5.73116,       22.7675,            0.,NA,NA,"",       6.43175,      -5.63352,      -3.10337,   5.70082E-03
C:/temp/dataset/9/2_5.odb,Step-1,Increment      1: Step Time =    1.000,"PART-1-1",           255,      -5.42683,       1.83799,            0.,NA,NA,"",       3.55696,      -2.33468,      -2.68352,   5.61091E-03
C:/temp/dataset/9/2_5.odb,Step-1,Increment      1: Step Time =    1.000,"PART-1-1",           256,       6.81561,       24.0815,            0.,NA,NA,"",       6.08457,      -5.99229,      -1.05566,   2.55568E-03
C:/temp/dataset/9/2_5.odb,Step-1,Increment      1: Step Time =    1.000,"PART-1-1",           257,      -7.40884,       23.3683,            0.,NA,NA,"",       6.63403,      -5.71341,      -3.37154,   5.03478E-03
C:/temp/dataset/9/2_5.odb,Step-1,Increment      1: Step Time =    1.000,"PART-1-1",           258,      -3.69176,       23.9755,            0.,NA,NA,"",       6.48210,      -5.84419,      -2.80410,   3.49959E-03
C:/temp/dataset/9/2_5.odb,Step-1,Increment      1: Step Time =    1.000,"PART-1-1",           259,      -8.10961,       1.76736,            0.,NA,NA,"",       3.88463,      -2.28911,      -3.13852,   2.82957E-03
C:/temp/dataset/9/2_5.odb,Step-1,Increment      1: Step Time =    1.000,"PART-1-1",           260,       5.94930,   61.4696E-03,            0.,NA,NA,"",       2.31356,      -2.18541,  -759.321E-03,   11.1612E-03
C:/temp/dataset/9/2_5.odb,Step-1,Increment      1: Step Time =    1.000,"PART-1-1",           261,       1.93878,   62.7924E-03,            0.,NA,NA,"",       2.56434,      -2.15087,      -1.39629,   6.82205E-03
C:/temp/dataset/9/2_5.odb,Step-1,Increment      1: Step Time =    1.000,"PART-1-1",           262,       6.71051,      -4.41826,            0.,NA,NA,"",       1.62207,      -1.52618,  -549.453E-03,   14.8494E-03
C:/temp/dataset/9/2_5.odb,Step-1,Increment      1: Step Time =    1.000,"PART-1-1",           263,      -12.5366,      -2.82410,            0.,NA,NA,"",       4.08134,      -1.46198,      -3.81051,   511.159E-06
C:/temp/dataset/9/2_5.odb,Step-1,Increment      1: Step Time =    1.000,"PART-1-1",           264,       6.75090,       4.53602,            0.,NA,NA,"",       2.95755,      -2.86584,  -730.815E-03,   10.4371E-03
C:/temp/dataset/9/2_5.odb,Step-1,Increment      1: Step Time =    1.000,"PART-1-1",           265,      -5.22339,       3.46233,            0.,NA,NA,"",       3.73585,      -2.60583,      -2.67698,   7.49206E-03
C:/temp/dataset/9/2_5.odb,Step-1,Increment      1: Step Time =    1.000,"PART-1-1",           266,       4.93795,       21.9167,            0.,NA,NA,"",       5.76775,      -5.61013,      -1.33917,   4.81697E-03
C:/temp/dataset/9/2_5.odb,Step-1,Increment      1: Step Time =    1.000,"PART-1-1",           267,       8.13144,      -1.42002,            0.,NA,NA,"",       2.01428,      -1.97116,  -414.566E-03,   12.4017E-03
C:/temp/dataset/9/2_5.odb,Step-1,Increment      1: Step Time =    1.000,"PART-1-1",           268,      -3.13115,       1.39136,            0.,NA,NA,"",       3.23229,      -2.29238,      -2.27875,   6.79632E-03
C:/temp/dataset/9/2_5.odb,Step-1,Increment      1: Step Time =    1.000,"PART-1-1",           269,       9.17709,       6.32873,            0.,NA,NA,"",       3.17661,      -3.15202,  -394.510E-03,   3.25683E-03
C:/temp/dataset/9/2_5.odb,Step-1,Increment      1: Step Time =    1.000,"PART-1-1",           270,      -11.0423,       1.34077,            0.,NA,NA,"",       4.22641,      -2.17930,      -3.62122,   902.735E-06
C:/temp/dataset/9/2_5.odb,Step-1,Increment      1: Step Time =    1.000,"PART-1-1",           271,      -10.1478,       26.6048,            0.,NA,NA,"",       7.28372,      -6.19125,      -3.83680,   2.34749E-03
C:/temp/dataset/9/2_5.odb,Step-1,Increment      1: Step Time =    1.000,"PART-1-1",           272,      -10.1118,       21.9370,            0.,NA,NA,"",       6.63705,      -5.46496,      -3.76626,   2.99203E-03
C:/temp/dataset/9/2_5.odb,Step-1,Increment      1: Step Time =    1.000,"PART-1-1",           273,       8.13886,       1.50501,            0.,NA,NA,"",       2.45914,      -2.41420,  -467.964E-03,   10.9255E-03
C:/temp/dataset/9/2_5.odb,Step-1,Increment      1: Step Time =    1.000,"PART-1-1",           274,      -7.06249,   219.393E-03,            0.,NA,NA,"",       3.57897,      -2.04564,      -2.93672,   3.08227E-03
C:/temp/dataset/9/2_5.odb,Step-1,Increment      1: Step Time =    1.000,"PART-1-1",           275,      -5.40522,   241.534E-03,            0.,NA,NA,"",       3.36702,      -2.07181,      -2.65413,   4.53956E-03
C:/temp/dataset/9/2_5.odb,Step-1,Increment      1: Step Time =    1.000,"PART-1-1",           276,      -3.80180,   194.541E-03,            0.,NA,NA,"",       3.16338,      -2.08694,      -2.37732,   5.77110E-03
C:/temp/dataset/9/2_5.odb,Step-1,Increment      1: Step Time =    1.000,"PART-1-1",           277,      -2.71285,       28.4954,            0.,NA,NA,"",       7.11898,      -6.57947,      -2.71852,   4.62524E-03
C:/temp/dataset/9/2_5.odb,Step-1,Increment      1: Step Time =    1.000,"PART-1-1",           278,         -3.75,           30.,            0.,NA,NA,"",       7.39844,      -6.80374,      -2.90620,   6.32138E-03
C:/temp/dataset/9/2_5.odb,Step-1,Increment      1: Step Time =    1.000,"PART-1-1",           279,      -5.26224,       28.8665,            0.,NA,NA,"",       7.30504,      -6.60210,      -3.12662,   4.87249E-03
C:/temp/dataset/9/2_5.odb,Step-1,Increment      1: Step Time =    1.000,"PART-1-1",           280,      -4.22509,       27.3619,            0.,NA,NA,"",       7.02368,      -6.37800,      -2.94164,   3.96604E-03
C:/temp/dataset/9/2_5.odb,Step-1,Increment      1: Step Time =    1.000,"PART-1-1",           281,      -3.84553,       25.9321,            0.,NA,NA,"",       6.78633,      -6.15466,      -2.85908,   3.65290E-03
C:/temp/dataset/9/2_5.odb,Step-1,Increment      1: Step Time =    1.000,"PART-1-1",           282,      -6.00478,       26.6512,            0.,NA,NA,"",       7.02046,      -6.24515,      -3.20701,   4.70739E-03
C:/temp/dataset/9/2_5.odb,Step-1,Increment      1: Step Time =    1.000,"PART-1-1",           283,      -5.62522,       25.2214,            0.,NA,NA,"",       6.78569,      -6.02273,      -3.12606,   4.57783E-03
C:/temp/dataset/9/2_5.odb,Step-1,Increment      1: Step Time =    1.000,"PART-1-1",           284,      -10.0879,       29.0985,            0.,NA,NA,"",       7.62495,      -6.57702,      -3.85780,   811.428E-06
C:/temp/dataset/9/2_5.odb,Step-1,Increment      1: Step Time =    1.000,"PART-1-1",           285,        -11.25,           30.,            0.,NA,NA,"",       7.82790,      -6.70130,      -4.04582,   92.1827E-06
C:/temp/dataset/9/2_5.odb,Step-1,Increment      1: Step Time =    1.000,"PART-1-1",           286,      -12.4706,       28.9480,            0.,NA,NA,"",       7.77128,      -6.52531,      -4.22056,   123.705E-06
C:/temp/dataset/9/2_5.odb,Step-1,Increment      1: Step Time =    1.000,"PART-1-1",           287,      -11.3086,       28.0465,            0.,NA,NA,"",       7.56446,      -6.40053,      -4.03167,   883.448E-06
C:/temp/dataset/9/2_5.odb,Step-1,Increment      1: Step Time =    1.000,"PART-1-1",           288,      -13.4495,       25.5029,            0.,NA,NA,"",       7.38389,      -5.98167,      -4.32914,   785.680E-06
C:/temp/dataset/9/2_5.odb,Step-1,Increment      1: Step Time =    1.000,"PART-1-1",           289,          -15.,       24.5313,            0.,NA,NA,"",       7.38592,      -5.81275,      -4.55673,   395.026E-06
C:/temp/dataset/9/2_5.odb,Step-1,Increment      1: Step Time =    1.000,"PART-1-1",           290,      -13.6920,       23.1529,            0.,NA,NA,"",       7.09416,      -5.61436,      -4.33661,   1.07174E-03
C:/temp/dataset/9/2_5.odb,Step-1,Increment      1: Step Time =    1.000,"PART-1-1",           291,      -12.1415,       24.1246,            0.,NA,NA,"",       7.09460,      -5.78292,      -4.10989,   1.49779E-03
C:/temp/dataset/9/2_5.odb,Step-1,Increment      1: Step Time =    1.000,"PART-1-1",           292,          8.75,          -30.,            0.,NA,NA,"",            0.,   5.29419E-39,  -15.4377E-39,   9.15265E-03
C:/temp/dataset/9/2_5.odb,Step-1,Increment      1: Step Time =    1.000,"PART-1-1",           293,       9.96407,      -28.8633,            0.,NA,NA,"",   6.44015E-03,   5.81378E-03,  -2.77045E-03,   4.67335E-03
C:/temp/dataset/9/2_5.odb,Step-1,Increment      1: Step Time =    1.000,"PART-1-1",           294,       8.68711,      -27.7998,            0.,NA,NA,"",   17.0757E-03,  -575.197E-06,  -17.0660E-03,   10.2980E-03
C:/temp/dataset/9/2_5.odb,Step-1,Increment      1: Step Time =    1.000,"PART-1-1",           295,       7.47304,      -28.9365,            0.,NA,NA,"",   12.4513E-03,   1.11587E-03,  -12.4012E-03,   14.7271E-03
C:/temp/dataset/9/2_5.odb,Step-1,Increment      1: Step Time =    1.000,"PART-1-1",           296,       10.9279,      -22.5555,            0.,NA,NA,"",   102.235E-03,  -101.781E-03,   9.62535E-03,   2.00262E-03
C:/temp/dataset/9/2_5.odb,Step-1,Increment      1: Step Time =    1.000,"PART-1-1",           297,       10.0765,      -21.6813,            0.,NA,NA,"",   133.578E-03,  -131.668E-03,  -22.5094E-03,   3.18257E-03
C:/temp/dataset/9/2_5.odb,Step-1,Increment      1: Step Time =    1.000,"PART-1-1",           298,       9.14242,      -22.6395,            0.,NA,NA,"",   112.570E-03,  -100.216E-03,  -51.2715E-03,   8.18416E-03
C:/temp/dataset/9/2_5.odb,Step-1,Increment      1: Step Time =    1.000,"PART-1-1",           299,       9.99384,      -23.5137,            0.,NA,NA,"",   74.9100E-03,  -72.4378E-03,  -19.0857E-03,   3.60963E-03
C:/temp/dataset/9/2_5.odb,Step-1,Increment      1: Step Time =    1.000,"PART-1-1",           300,       7.08785,      -18.4988,            0.,NA,NA,"",   346.687E-03,  -284.741E-03,  -197.772E-03,   19.8218E-03
C:/temp/dataset/9/2_5.odb,Step-1,Increment      1: Step Time =    1.000,"PART-1-1",           301,       6.04673,      -17.4684,            0.,NA,NA,"",   448.354E-03,  -350.110E-03,  -280.079E-03,   25.9717E-03
C:/temp/dataset/9/2_5.odb,Step-1,Increment      1: Step Time =    1.000,"PART-1-1",           302,            5.,      -18.5417,            0.,NA,NA,"",   434.177E-03,  -303.899E-03,  -310.089E-03,   31.7901E-03
C:/temp/dataset/9/2_5.odb,Step-1,Increment      1: Step Time =    1.000,"PART-1-1",           303,       6.04112,      -19.5721,            0.,NA,NA,"",   332.323E-03,  -241.051E-03,  -228.765E-03,   25.6273E-03
C:/temp/dataset/9/2_5.odb,Step-1,Increment      1: Step Time =    1.000,"PART-1-1",           304,       7.10245,      -14.2066,            0.,NA,NA,"",   623.439E-03,  -555.550E-03,  -282.914E-03,   20.2688E-03
C:/temp/dataset/9/2_5.odb,Step-1,Increment      1: Step Time =    1.000,"PART-1-1",           305,       6.04975,      -13.2285,            0.,NA,NA,"",   747.829E-03,  -638.126E-03,  -389.927E-03,   26.5098E-03
C:/temp/dataset/9/2_5.odb,Step-1,Increment      1: Step Time =    1.000,"PART-1-1",           306,            5.,       -14.375,            0.,NA,NA,"",   713.362E-03,  -562.299E-03,  -438.981E-03,   32.5110E-03
C:/temp/dataset/9/2_5.odb,Step-1,Increment      1: Step Time =    1.000,"PART-1-1",           307,       6.05270,      -15.3531,            0.,NA,NA,"",   586.382E-03,  -482.295E-03,  -333.520E-03,   26.2570E-03
C:/temp/dataset/9/2_5.odb,Step-1,Increment      1: Step Time =    1.000,"PART-1-1",           308,            5.,      -6.04167,            0.,NA,NA,"",       1.51266,      -1.32378,  -731.943E-03,   44.6237E-03
C:/temp/dataset/9/2_5.odb,Step-1,Increment      1: Step Time =    1.000,"PART-1-1",           309,       5.97724,      -6.85181,            0.,NA,NA,"",       1.36387,      -1.23240,  -584.227E-03,   28.9426E-03
C:/temp/dataset/9/2_5.odb,Step-1,Increment      1: Step Time =    1.000,"PART-1-1",           310,       6.83249,      -5.51927,            0.,NA,NA,"",       1.47452,      -1.38313,  -511.016E-03,   14.7057E-03
C:/temp/dataset/9/2_5.odb,Step-1,Increment      1: Step Time =    1.000,"PART-1-1",           311,       5.85525,      -4.70913,            0.,NA,NA,"",       1.61488,      -1.47440,  -658.761E-03,   26.4018E-03
C:/temp/dataset/9/2_5.odb,Step-1,Increment      1: Step Time =    1.000,"PART-1-1",           312,       4.27314,       1.25089,            0.,NA,NA,"",       2.57748,      -2.35851,      -1.03964,   7.58217E-03
C:/temp/dataset/9/2_5.odb,Step-1,Increment      1: Step Time =    1.000,"PART-1-1",           313,       3.27994,       2.49943,            0.,NA,NA,"",       2.82110,      -2.54491,      -1.21740,   5.60271E-03
C:/temp/dataset/9/2_5.odb,Step-1,Increment      1: Step Time =    1.000,"PART-1-1",           314,       2.05297,       1.31265,            0.,NA,NA,"",       2.73224,      -2.34852,      -1.39628,   5.46331E-03
C:/temp/dataset/9/2_5.odb,Step-1,Increment      1: Step Time =    1.000,"PART-1-1",           315,       3.04617,   64.1050E-03,            0.,NA,NA,"",       2.48147,      -2.16393,      -1.21454,   6.63412E-03
C:/temp/dataset/9/2_5.odb,Step-1,Increment      1: Step Time =    1.000,"PART-1-1",           316,       6.28410,       12.4112,            0.,NA,NA,"",       4.17808,      -4.07065,  -941.364E-03,   5.67777E-03
C:/temp/dataset/9/2_5.odb,Step-1,Increment      1: Step Time =    1.000,"PART-1-1",           317,            5.,         11.25,            0.,NA,NA,"",       4.03409,      -3.87431,      -1.12413,   7.68105E-03
C:/temp/dataset/9/2_5.odb,Step-1,Increment      1: Step Time =    1.000,"PART-1-1",           318,       6.24476,       9.82085,            0.,NA,NA,"",       3.77112,      -3.66187,  -901.132E-03,   6.32324E-03
C:/temp/dataset/9/2_5.odb,Step-1,Increment      1: Step Time =    1.000,"PART-1-1",           319,       7.52885,       10.9821,            0.,NA,NA,"",       3.92361,      -3.85704,  -719.713E-03,   4.37289E-03
C:/temp/dataset/9/2_5.odb,Step-1,Increment      1: Step Time =    1.000,"PART-1-1",           320,       6.23557,       19.9374,            0.,NA,NA,"",       5.40418,      -5.29452,      -1.08318,   4.26216E-03
C:/temp/dataset/9/2_5.odb,Step-1,Increment      1: Step Time =    1.000,"PART-1-1",           321,            5.,         18.75,            0.,NA,NA,"",       5.23877,      -5.08284,      -1.26863,   6.69682E-03
C:/temp/dataset/9/2_5.odb,Step-1,Increment      1: Step Time =    1.000,"PART-1-1",           322,       6.25255,       17.4722,            0.,NA,NA,"",       4.99637,      -4.88753,      -1.03719,   4.73562E-03
C:/temp/dataset/9/2_5.odb,Step-1,Increment      1: Step Time =    1.000,"PART-1-1",           323,       7.48812,       18.6595,            0.,NA,NA,"",       5.16895,      -5.09797,  -853.660E-03,   2.88873E-03
C:/temp/dataset/9/2_5.odb,Step-1,Increment      1: Step Time =    1.000,"PART-1-1",           324,       12.4612,       28.7577,            0.,NA,NA,"",       6.85210,      -6.84978,  -178.551E-03,   185.689E-06
C:/temp/dataset/9/2_5.odb,Step-1,Increment      1: Step Time =    1.000,"PART-1-1",           325,         11.25,           30.,            0.,NA,NA,"",       7.05190,      -7.04063,  -398.504E-03,   205.054E-06
C:/temp/dataset/9/2_5.odb,Step-1,Increment      1: Step Time =    1.000,"PART-1-1",           326,       9.95383,       28.8406,            0.,NA,NA,"",       6.85493,      -6.82873,  -598.807E-03,   246.208E-06
C:/temp/dataset/9/2_5.odb,Step-1,Increment      1: Step Time =    1.000,"PART-1-1",           327,       11.1650,       27.5983,            0.,NA,NA,"",       6.64854,      -6.63775,  -378.655E-03,   215.445E-06
C:/temp/dataset/9/2_5.odb,Step-1,Increment      1: Step Time =    1.000,"PART-1-1",           328,       9.61193,       26.3742,            0.,NA,NA,"",       6.44156,      -6.41158,  -620.721E-03,   572.003E-06
C:/temp/dataset/9/2_5.odb,Step-1,Increment      1: Step Time =    1.000,"PART-1-1",           329,       10.8062,       25.0400,            0.,NA,NA,"",       6.21789,      -6.20489,  -401.855E-03,   607.086E-06
C:/temp/dataset/9/2_5.odb,Step-1,Increment      1: Step Time =    1.000,"PART-1-1",           330,       12.3592,       26.2641,            0.,NA,NA,"",       6.43309,      -6.43110,  -160.348E-03,   430.352E-06
C:/temp/dataset/9/2_5.odb,Step-1,Increment      1: Step Time =    1.000,"PART-1-1",           331,       7.54419,       28.9985,            0.,NA,NA,"",       6.89500,      -6.82137,      -1.00497,   322.581E-06
C:/temp/dataset/9/2_5.odb,Step-1,Increment      1: Step Time =    1.000,"PART-1-1",           332,          6.25,           30.,            0.,NA,NA,"",       7.07974,      -6.97090,      -1.23665,   266.275E-06
C:/temp/dataset/9/2_5.odb,Step-1,Increment      1: Step Time =    1.000,"PART-1-1",           333,       5.09159,       28.9175,            0.,NA,NA,"",       6.91872,      -6.77217,      -1.41648,   967.692E-06
C:/temp/dataset/9/2_5.odb,Step-1,Increment      1: Step Time =    1.000,"PART-1-1",           334,       6.38578,       27.9160,            0.,NA,NA,"",       6.72888,      -6.62380,      -1.18450,   1.06791E-03
C:/temp/dataset/9/2_5.odb,Step-1,Increment      1: Step Time =    1.000,"PART-1-1",           335,       2.95769,       26.1428,            0.,NA,NA,"",       6.51585,      -6.27959,      -1.73871,   3.21557E-03
C:/temp/dataset/9/2_5.odb,Step-1,Increment      1: Step Time =    1.000,"PART-1-1",           336,       4.45909,       25.3098,            0.,NA,NA,"",       6.33746,      -6.16395,      -1.47282,   2.95953E-03
C:/temp/dataset/9/2_5.odb,Step-1,Increment      1: Step Time =    1.000,"PART-1-1",           337,       5.44343,       26.8217,            0.,NA,NA,"",       6.56378,      -6.42805,      -1.32792,   1.81983E-03
C:/temp/dataset/9/2_5.odb,Step-1,Increment      1: Step Time =    1.000,"PART-1-1",           338,       3.94204,       27.6547,            0.,NA,NA,"",       6.73527,      -6.54417,      -1.59302,   2.13899E-03
C:/temp/dataset/9/2_5.odb,Step-1,Increment      1: Step Time =    1.000,"PART-1-1",           339,       6.06395,       7.26936,            0.,NA,NA,"",       3.38405,      -3.26693,  -882.621E-03,   6.96062E-03
C:/temp/dataset/9/2_5.odb,Step-1,Increment      1: Step Time =    1.000,"PART-1-1",           340,       7.30871,       8.34021,            0.,NA,NA,"",       3.51469,      -3.44209,  -710.686E-03,   4.81646E-03
C:/temp/dataset/9/2_5.odb,Step-1,Increment      1: Step Time =    1.000,"PART-1-1",           341,            5.,          8.75,            0.,NA,NA,"",       3.64682,      -3.48472,      -1.07517,   8.85922E-03
C:/temp/dataset/9/2_5.odb,Step-1,Increment      1: Step Time =    1.000,"PART-1-1",           342,      -13.9291,       1.47830,            0.,NA,NA,"",       4.63694,      -2.16219,      -4.10197,   835.804E-06
C:/temp/dataset/9/2_5.odb,Step-1,Increment      1: Step Time =    1.000,"PART-1-1",           343,          -15.,    468.75E-03,            0.,NA,NA,"",       4.70312,      -1.97832,      -4.26680,   1.00900E-03
C:/temp/dataset/9/2_5.odb,Step-1,Increment      1: Step Time =    1.000,"PART-1-1",           344,      -13.8152,  -655.377E-03,            0.,NA,NA,"",       4.43869,      -1.80727,      -4.05410,   526.375E-06
C:/temp/dataset/9/2_5.odb,Step-1,Increment      1: Step Time =    1.000,"PART-1-1",           345,      -12.7443,   354.171E-03,            0.,NA,NA,"",       4.36987,      -1.99119,      -3.88985,   664.713E-06
C:/temp/dataset/9/2_5.odb,Step-1,Increment      1: Step Time =    1.000,"PART-1-1",           346,      -13.9678,       8.16706,            0.,NA,NA,"",       5.31176,      -3.26158,      -4.19248,   1.26877E-03
C:/temp/dataset/9/2_5.odb,Step-1,Increment      1: Step Time =    1.000,"PART-1-1",           347,          -15.,       7.03125,            0.,NA,NA,"",       5.31717,      -3.06298,      -4.34632,   2.19342E-03
C:/temp/dataset/9/2_5.odb,Step-1,Increment      1: Step Time =    1.000,"PART-1-1",           348,      -13.6804,       5.85321,            0.,NA,NA,"",       5.03007,      -2.88932,      -4.11745,   1.11930E-03
C:/temp/dataset/9/2_5.odb,Step-1,Increment      1: Step Time =    1.000,"PART-1-1",           349,      -12.6482,       6.98902,            0.,NA,NA,"",       5.02514,      -3.08872,      -3.96381,   275.425E-06
C:/temp/dataset/9/2_5.odb,Step-1,Increment      1: Step Time =    1.000,"PART-1-1",           350,      -5.93089,       17.7206,            0.,NA,NA,"",       5.73770,      -4.85791,      -3.05318,   4.37398E-03
C:/temp/dataset/9/2_5.odb,Step-1,Increment      1: Step Time =    1.000,"PART-1-1",           351,      -7.00986,       16.6597,            0.,NA,NA,"",       5.67465,      -4.68343,      -3.20423,   3.87790E-03
C:/temp/dataset/9/2_5.odb,Step-1,Increment      1: Step Time =    1.000,"PART-1-1",           352,      -6.07897,       15.1891,            0.,NA,NA,"",       5.39895,      -4.46517,      -3.03494,   4.83311E-03
C:/temp/dataset/9/2_5.odb,Step-1,Increment      1: Step Time =    1.000,"PART-1-1",           353,           -5.,         16.25,            0.,NA,NA,"",       5.46361,      -4.64038,      -2.88408,   5.55796E-03
C:/temp/dataset/9/2_5.odb,Step-1,Increment      1: Step Time =    1.000,"PART-1-1",           354,      -7.79966,       18.2865,            0.,NA,NA,"",       5.95803,      -4.92562,      -3.35209,   3.57210E-03
C:/temp/dataset/9/2_5.odb,Step-1,Increment      1: Step Time =    1.000,"PART-1-1",           355,      -6.65288,       19.1839,            0.,NA,NA,"",       5.99206,      -5.07404,      -3.18730,   4.42725E-03
C:/temp/dataset/9/2_5.odb,Step-1,Increment      1: Step Time =    1.000,"PART-1-1",           356,      -7.29668,       20.7472,            0.,NA,NA,"",       6.25575,      -5.30716,      -3.31187,   5.25879E-03
C:/temp/dataset/9/2_5.odb,Step-1,Increment      1: Step Time =    1.000,"PART-1-1",           357,      -8.44345,       19.8498,            0.,NA,NA,"",       6.22071,      -5.15892,      -3.47602,   3.90189E-03
C:/temp/dataset/9/2_5.odb,Step-1,Increment      1: Step Time =    1.000,"PART-1-1",           358,      -2.59303,       4.06073,            0.,NA,NA,"",       3.53082,      -2.74081,      -2.22591,   4.02569E-03
C:/temp/dataset/9/2_5.odb,Step-1,Increment      1: Step Time =    1.000,"PART-1-1",           359,      -1.46713,       2.91047,            0.,NA,NA,"",       3.25954,      -2.56349,      -2.01324,   5.68879E-03
C:/temp/dataset/9/2_5.odb,Step-1,Increment      1: Step Time =    1.000,"PART-1-1",           360,  -124.098E-03,       3.84974,            0.,NA,NA,"",       3.27083,      -2.73194,      -1.79858,   6.68122E-03
C:/temp/dataset/9/2_5.odb,Step-1,Increment      1: Step Time =    1.000,"PART-1-1",           361,         -1.25,            5.,            0.,NA,NA,"",       3.53969,      -2.91388,      -2.00965,   6.86692E-03
C:/temp/dataset/9/2_5.odb,Step-1,Increment      1: Step Time =    1.000,"PART-1-1",           362,      -11.2683,  -541.568E-03,            0.,NA,NA,"",       4.08093,      -1.86185,      -3.63147,   549.913E-06
C:/temp/dataset/9/2_5.odb,Step-1,Increment      1: Step Time =    1.000,"PART-1-1",           363,      -10.4743,   471.696E-03,            0.,NA,NA,"",       4.06412,      -2.04200,      -3.51388,   884.108E-06
C:/temp/dataset/9/2_5.odb,Step-1,Increment      1: Step Time =    1.000,"PART-1-1",           364,      -11.9503,       1.36743,            0.,NA,NA,"",       4.35257,      -2.17134,      -3.77229,   645.164E-06
C:/temp/dataset/9/2_5.odb,Step-1,Increment      1: Step Time =    1.000,"PART-1-1",           365,      -13.0095,       9.29789,            0.,NA,NA,"",       5.32588,      -3.45642,      -4.05194,   561.497E-06
C:/temp/dataset/9/2_5.odb,Step-1,Increment      1: Step Time =    1.000,"PART-1-1",           366,      -14.0417,       10.3496,            0.,NA,NA,"",       5.56193,      -3.61088,      -4.23043,   1.05602E-03
C:/temp/dataset/9/2_5.odb,Step-1,Increment      1: Step Time =    1.000,"PART-1-1",           367,          -15.,       9.21875,            0.,NA,NA,"",       5.54779,      -3.41679,      -4.37076,   2.00630E-03
C:/temp/dataset/9/2_5.odb,Step-1,Increment      1: Step Time =    1.000,"PART-1-1",           368,      -6.40766,      -1.28741,            0.,NA,NA,"",       3.33316,      -1.80459,      -2.80239,   2.71127E-03
C:/temp/dataset/9/2_5.odb,Step-1,Increment      1: Step Time =    1.000,"PART-1-1",           369,      -5.35016,  -573.084E-03,            0.,NA,NA,"",       3.26890,      -1.93814,      -2.63235,   4.04171E-03
C:/temp/dataset/9/2_5.odb,Step-1,Increment      1: Step Time =    1.000,"PART-1-1",           370,      -6.23385,   230.463E-03,            0.,NA,NA,"",       3.47192,      -2.05865,      -2.79574,   3.78263E-03
C:/temp/dataset/9/2_5.odb,Step-1,Increment      1: Step Time =    1.000,"PART-1-1",           371,      -7.29135,  -483.859E-03,            0.,NA,NA,"",       3.53523,      -1.92577,      -2.96467,   2.48967E-03
C:/temp/dataset/9/2_5.odb,Step-1,Increment      1: Step Time =    1.000,"PART-1-1",           372,   952.242E-03,      -2.53706,            0.,NA,NA,"",       2.30156,      -1.72059,      -1.52864,   7.89255E-03
C:/temp/dataset/9/2_5.odb,Step-1,Increment      1: Step Time =    1.000,"PART-1-1",           373,  -130.910E-03,      -3.80019,            0.,NA,NA,"",       2.25982,      -1.49083,      -1.69830,   5.70014E-03
C:/temp/dataset/9/2_5.odb,Step-1,Increment      1: Step Time =    1.000,"PART-1-1",           374,          1.25,           -5.,            0.,NA,NA,"",       1.95844,      -1.31518,      -1.45113,   8.36939E-03
C:/temp/dataset/9/2_5.odb,Step-1,Increment      1: Step Time =    1.000,"PART-1-1",           375,       2.33315,      -3.73687,            0.,NA,NA,"",       2.01303,      -1.55444,      -1.27907,   9.21267E-03
C:/temp/dataset/9/2_5.odb,Step-1,Increment      1: Step Time =    1.000,"PART-1-1",           376,       4.26686,      -1.13377,            0.,NA,NA,"",       2.22692,      -1.99166,  -996.215E-03,   9.79691E-03
C:/temp/dataset/9/2_5.odb,Step-1,Increment      1: Step Time =    1.000,"PART-1-1",           377,       2.05254,      -1.20548,            0.,NA,NA,"",       2.37989,      -1.95309,      -1.35990,   7.97729E-03
C:/temp/dataset/9/2_5.odb,Step-1,Increment      1: Step Time =    1.000,"PART-1-1",           378,       3.27323,      -2.40335,            0.,NA,NA,"",       2.11607,      -1.78589,      -1.13506,   9.53775E-03
C:/temp/dataset/9/2_5.odb,Step-1,Increment      1: Step Time =    1.000,"PART-1-1",           379,       10.4325,       1.51548,            0.,NA,NA,"",       2.43348,      -2.42944,  -140.073E-03,   7.39709E-03
C:/temp/dataset/9/2_5.odb,Step-1,Increment      1: Step Time =    1.000,"PART-1-1",           380,       11.3847,  -3.51279E-03,            0.,NA,NA,"",       2.20776,      -2.20773,   10.9166E-03,   8.20876E-03
C:/temp/dataset/9/2_5.odb,Step-1,Increment      1: Step Time =    1.000,"PART-1-1",           381,       12.7244,       1.31309,            0.,NA,NA,"",       2.42881,      -2.42150,   188.279E-03,   7.38106E-03
C:/temp/dataset/9/2_5.odb,Step-1,Increment      1: Step Time =    1.000,"PART-1-1",           382,       11.7722,       2.83209,            0.,NA,NA,"",       2.64281,      -2.64255,   37.2506E-03,   4.78834E-03
C:/temp/dataset/9/2_5.odb,Step-1,Increment      1: Step Time =    1.000,"PART-1-1",           383,       9.00808,      -7.25637,            0.,NA,NA,"",       1.21695,      -1.19675,  -220.793E-03,   6.89833E-03
C:/temp/dataset/9/2_5.odb,Step-1,Increment      1: Step Time =    1.000,"PART-1-1",           384,       7.95196,      -6.36313,            0.,NA,NA,"",       1.34101,      -1.29265,  -356.888E-03,   12.4431E-03
C:/temp/dataset/9/2_5.odb,Step-1,Increment      1: Step Time =    1.000,"PART-1-1",           385,       7.00211,      -7.70397,            0.,NA,NA,"",       1.22383,      -1.14164,  -440.927E-03,   20.9558E-03
C:/temp/dataset/9/2_5.odb,Step-1,Increment      1: Step Time =    1.000,"PART-1-1",           386,       8.05823,      -8.59720,            0.,NA,NA,"",       1.09271,      -1.04898,  -306.041E-03,   14.5076E-03
C:/temp/dataset/9/2_5.odb,Step-1,Increment      1: Step Time =    1.000,"PART-1-1",           387,       7.09104,      -12.0381,            0.,NA,NA,"",   799.880E-03,  -728.363E-03,  -330.597E-03,   20.5461E-03
C:/temp/dataset/9/2_5.odb,Step-1,Increment      1: Step Time =    1.000,"PART-1-1",           388,       6.04129,      -11.1013,            0.,NA,NA,"",   932.277E-03,  -816.826E-03,  -449.372E-03,   26.8175E-03
C:/temp/dataset/9/2_5.odb,Step-1,Increment      1: Step Time =    1.000,"PART-1-1",           389,            5.,      -12.2917,            0.,NA,NA,"",   883.921E-03,  -724.414E-03,  -506.499E-03,   32.8073E-03
C:/temp/dataset/9/2_5.odb,Step-1,Increment      1: Step Time =    1.000,"PART-1-1",           390,       9.13117,      -18.4822,            0.,NA,NA,"",   289.153E-03,  -276.068E-03,  -85.9975E-03,   8.30428E-03
C:/temp/dataset/9/2_5.odb,Step-1,Increment      1: Step Time =    1.000,"PART-1-1",           391,       10.1297,      -19.6034,            0.,NA,NA,"",   220.770E-03,  -219.090E-03,  -27.1899E-03,   2.82859E-03
C:/temp/dataset/9/2_5.odb,Step-1,Increment      1: Step Time =    1.000,"PART-1-1",           392,       11.1535,      -18.5257,            0.,NA,NA,"",   276.026E-03,  -274.916E-03,   24.7308E-03,   3.35298E-03
C:/temp/dataset/9/2_5.odb,Step-1,Increment      1: Step Time =    1.000,"PART-1-1",           393,       10.1550,      -17.4045,            0.,NA,NA,"",   337.220E-03,  -335.513E-03,  -33.8852E-03,   2.63733E-03
C:/temp/dataset/9/2_5.odb,Step-1,Increment      1: Step Time =    1.000,"PART-1-1",           394,       6.27183,       14.9637,            0.,NA,NA,"",       4.58786,      -4.47999,  -988.977E-03,   5.21896E-03
C:/temp/dataset/9/2_5.odb,Step-1,Increment      1: Step Time =    1.000,"PART-1-1",           395,       7.52438,       16.1859,            0.,NA,NA,"",       4.76124,      -4.69242,  -806.639E-03,   3.61311E-03
C:/temp/dataset/9/2_5.odb,Step-1,Increment      1: Step Time =    1.000,"PART-1-1",           396,            5.,         16.25,            0.,NA,NA,"",       4.83131,      -4.67476,      -1.21989,   6.39661E-03
C:/temp/dataset/9/2_5.odb,Step-1,Increment      1: Step Time =    1.000,"PART-1-1",           397,       2.56719,       21.1071,            0.,NA,NA,"",       5.71524,      -5.44671,      -1.73127,   3.64744E-03
C:/temp/dataset/9/2_5.odb,Step-1,Increment      1: Step Time =    1.000,"PART-1-1",           398,       1.41709,       22.2600,            0.,NA,NA,"",       5.94990,      -5.62367,      -1.94310,   3.61472E-03
C:/temp/dataset/9/2_5.odb,Step-1,Increment      1: Step Time =    1.000,"PART-1-1",           399,   99.9026E-03,       21.1528,            0.,NA,NA,"",       5.83733,      -5.42846,      -2.14621,   5.00852E-03
C:/temp/dataset/9/2_5.odb,Step-1,Increment      1: Step Time =    1.000,"PART-1-1",           400,          1.25,           20.,            0.,NA,NA,"",       5.59461,      -5.24905,      -1.93576,   5.75697E-03
C:/temp/dataset/9/2_5.odb,Step-1,Increment      1: Step Time =    1.000,"PART-1-1",           401,       7.55593,       13.6250,            0.,NA,NA,"",       4.34518,      -4.27837,  -759.049E-03,   4.03871E-03
C:/temp/dataset/9/2_5.odb,Step-1,Increment      1: Step Time =    1.000,"PART-1-1",           402,            5.,         13.75,            0.,NA,NA,"",       4.42937,      -4.27139,      -1.17239,   6.88229E-03
C:/temp/dataset/9/2_5.odb,Step-1,Increment      1: Step Time =    1.000,"PART-1-1",           403,       8.77818,       14.9146,            0.,NA,NA,"",       4.53837,      -4.50073,  -583.296E-03,   2.62828E-03
C:/temp/dataset/9/2_5.odb,Step-1,Increment      1: Step Time =    1.000,"PART-1-1",           404,       10.0010,       16.1752,            0.,NA,NA,"",       4.73852,      -4.72121,  -404.602E-03,   1.64074E-03
C:/temp/dataset/9/2_5.odb,Step-1,Increment      1: Step Time =    1.000,"PART-1-1",           405,       8.74716,       17.4465,            0.,NA,NA,"",       4.95366,      -4.91375,  -627.554E-03,   2.39196E-03
C:/temp/dataset/9/2_5.odb,Step-1,Increment      1: Step Time =    1.000,"PART-1-1",           406,       10.1219,       5.90684,            0.,NA,NA,"",       3.10644,      -3.09672,  -245.555E-03,   2.37736E-03
C:/temp/dataset/9/2_5.odb,Step-1,Increment      1: Step Time =    1.000,"PART-1-1",           407,       8.94830,       5.07672,            0.,NA,NA,"",       2.98828,      -2.95997,  -410.396E-03,   5.20776E-03
C:/temp/dataset/9/2_5.odb,Step-1,Increment      1: Step Time =    1.000,"PART-1-1",           408,       9.72441,       3.42413,            0.,NA,NA,"",       2.72822,      -2.71485,  -269.725E-03,   5.96288E-03
C:/temp/dataset/9/2_5.odb,Step-1,Increment      1: Step Time =    1.000,"PART-1-1",           409,       10.8980,       4.25426,            0.,NA,NA,"",       2.85344,      -2.85141,  -107.746E-03,   3.71924E-03
C:/temp/dataset/9/2_5.odb,Step-1,Increment      1: Step Time =    1.000,"PART-1-1",           410,       8.15250,       6.68373,            0.,NA,NA,"",       3.24451,      -3.19657,  -555.674E-03,   4.04224E-03
C:/temp/dataset/9/2_5.odb,Step-1,Increment      1: Step Time =    1.000,"PART-1-1",           411,       9.64075,       7.71724,            0.,NA,NA,"",       3.38734,      -3.36991,  -343.178E-03,   2.11904E-03
C:/temp/dataset/9/2_5.odb,Step-1,Increment      1: Step Time =    1.000,"PART-1-1",           412,       8.79696,       9.37373,            0.,NA,NA,"",       3.65190,      -3.61796,  -496.672E-03,   2.79945E-03
C:/temp/dataset/9/2_5.odb,Step-1,Increment      1: Step Time =    1.000,"PART-1-1",           413,   959.485E-03,       2.63099,            0.,NA,NA,"",       3.00505,      -2.54547,      -1.59716,   5.95977E-03
C:/temp/dataset/9/2_5.odb,Step-1,Increment      1: Step Time =    1.000,"PART-1-1",           414,       2.33358,       3.78125,            0.,NA,NA,"",       3.07074,      -2.73854,      -1.38920,   8.74097E-03
C:/temp/dataset/9/2_5.odb,Step-1,Increment      1: Step Time =    1.000,"PART-1-1",           415,          1.25,            5.,            0.,NA,NA,"",       3.33180,      -2.92888,      -1.58826,   10.7328E-03
C:/temp/dataset/9/2_5.odb,Step-1,Increment      1: Step Time =    1.000,"PART-1-1",           416,      -9.23288,       7.29816,            0.,NA,NA,"",       4.66668,      -3.18373,      -3.41200,   2.52885E-03
C:/temp/dataset/9/2_5.odb,Step-1,Increment      1: Step Time =    1.000,"PART-1-1",           417,      -8.32915,       6.01548,            0.,NA,NA,"",       4.40990,      -2.98740,      -3.24387,   2.96741E-03
C:/temp/dataset/9/2_5.odb,Step-1,Increment      1: Step Time =    1.000,"PART-1-1",           418,      -7.21136,       6.82340,            0.,NA,NA,"",       4.38835,      -3.13273,      -3.07305,   4.25218E-03
C:/temp/dataset/9/2_5.odb,Step-1,Increment      1: Step Time =    1.000,"PART-1-1",           419,      -8.11509,       8.10607,            0.,NA,NA,"",       4.64596,      -3.32744,      -3.24239,   4.17231E-03
C:/temp/dataset/9/2_5.odb,Step-1,Increment      1: Step Time =    1.000,"PART-1-1",           420,      -13.1318,       11.4675,            0.,NA,NA,"",       5.58970,      -3.80051,      -4.09888,   676.261E-06
C:/temp/dataset/9/2_5.odb,Step-1,Increment      1: Step Time =    1.000,"PART-1-1",           421,      -14.0901,       12.5242,            0.,NA,NA,"",       5.81607,      -3.95527,      -4.26410,   712.241E-06
C:/temp/dataset/9/2_5.odb,Step-1,Increment      1: Step Time =    1.000,"PART-1-1",           422,          -15.,       11.4063,            0.,NA,NA,"",       5.78819,      -3.76632,      -4.39523,   1.54817E-03
C:/temp/dataset/9/2_5.odb,Step-1,Increment      1: Step Time =    1.000,"PART-1-1",           423,      -9.35396,       14.3983,            0.,NA,NA,"",       5.57402,      -4.30674,      -3.53860,   2.90084E-03
C:/temp/dataset/9/2_5.odb,Step-1,Increment      1: Step Time =    1.000,"PART-1-1",           424,      -10.5094,       15.3924,            0.,NA,NA,"",       5.80855,      -4.44823,      -3.73531,   2.27460E-03
C:/temp/dataset/9/2_5.odb,Step-1,Increment      1: Step Time =    1.000,"PART-1-1",           425,      -11.3610,       13.8160,            0.,NA,NA,"",       5.69066,      -4.19226,      -3.84819,   1.80043E-03
C:/temp/dataset/9/2_5.odb,Step-1,Increment      1: Step Time =    1.000,"PART-1-1",           426,      -10.2056,       12.8219,            0.,NA,NA,"",       5.45275,      -4.05020,      -3.65080,   2.42094E-03
C:/temp/dataset/9/2_5.odb,Step-1,Increment      1: Step Time =    1.000,"PART-1-1",           427,      -14.0810,       18.8007,            0.,NA,NA,"",       6.57229,      -4.93516,      -4.34042,   928.491E-06
C:/temp/dataset/9/2_5.odb,Step-1,Increment      1: Step Time =    1.000,"PART-1-1",           428,          -15.,       17.9688,            0.,NA,NA,"",       6.55742,      -4.79518,      -4.47281,   381.678E-06
C:/temp/dataset/9/2_5.odb,Step-1,Increment      1: Step Time =    1.000,"PART-1-1",           429,      -14.2329,       16.7349,            0.,NA,NA,"",       6.33202,      -4.61268,      -4.33793,   506.460E-06
C:/temp/dataset/9/2_5.odb,Step-1,Increment      1: Step Time =    1.000,"PART-1-1",           430,      -13.3139,       17.5668,            0.,NA,NA,"",       6.34597,      -4.75291,      -4.20490,   1.07055E-03
C:/temp/dataset/9/2_5.odb,Step-1,Increment      1: Step Time =    1.000,"PART-1-1",           431,      -12.9537,       19.5700,            0.,NA,NA,"",       6.56575,      -5.06749,      -4.17488,   1.29899E-03
C:/temp/dataset/9/2_5.odb,Step-1,Increment      1: Step Time =    1.000,"PART-1-1",           432,      -13.8727,       20.9255,            0.,NA,NA,"",       6.82180,      -5.26685,      -4.33558,   1.14674E-03
C:/temp/dataset/9/2_5.odb,Step-1,Increment      1: Step Time =    1.000,"PART-1-1",           433,          -15.,       20.1563,            0.,NA,NA,"",       6.82778,      -5.13447,      -4.50065,   804.277E-06
C:/temp/dataset/9/2_5.odb,Step-1,Increment      1: Step Time =    1.000,"PART-1-1",           434,       1.76445,       24.7908,            0.,NA,NA,"",       6.33949,      -6.04131,      -1.92139,   3.52220E-03
C:/temp/dataset/9/2_5.odb,Step-1,Increment      1: Step Time =    1.000,"PART-1-1",           435,       1.36974,       27.3866,            0.,NA,NA,"",       6.76952,      -6.45988,      -2.02396,   3.65857E-03
C:/temp/dataset/9/2_5.odb,Step-1,Increment      1: Step Time =    1.000,"PART-1-1",           436,   176.493E-03,       26.0346,            0.,NA,NA,"",       6.60097,      -6.22166,      -2.20539,   3.35253E-03
C:/temp/dataset/9/2_5.odb,Step-1,Increment      1: Step Time =    1.000,"PART-1-1",           437,       7.39460,       20.9669,            0.,NA,NA,"",       5.55534,      -5.48073,  -907.425E-03,   3.22481E-03
C:/temp/dataset/9/2_5.odb,Step-1,Increment      1: Step Time =    1.000,"PART-1-1",           438,       8.70526,       19.9066,            0.,NA,NA,"",       5.36282,      -5.32044,  -672.847E-03,   2.27133E-03
C:/temp/dataset/9/2_5.odb,Step-1,Increment      1: Step Time =    1.000,"PART-1-1",           439,       9.85134,       21.1719,            0.,NA,NA,"",       5.56875,      -5.54598,  -503.103E-03,   1.72051E-03
C:/temp/dataset/9/2_5.odb,Step-1,Increment      1: Step Time =    1.000,"PART-1-1",           440,       8.54068,       22.2321,            0.,NA,NA,"",       5.75359,      -5.70619,  -737.029E-03,   2.29072E-03
C:/temp/dataset/9/2_5.odb,Step-1,Increment      1: Step Time =    1.000,"PART-1-1",           441,       4.10864,       24.1658,            0.,NA,NA,"",       6.16014,      -5.97082,      -1.51549,   3.55400E-03
C:/temp/dataset/9/2_5.odb,Step-1,Increment      1: Step Time =    1.000,"PART-1-1",           442,       5.90921,       23.8009,            0.,NA,NA,"",       6.05522,      -5.93422,      -1.20447,   3.12139E-03
C:/temp/dataset/9/2_5.odb,Step-1,Increment      1: Step Time =    1.000,"PART-1-1",           443,       6.25965,       24.9450,            0.,NA,NA,"",       6.23757,      -6.12824,      -1.16273,   2.31029E-03
C:/temp/dataset/9/2_5.odb,Step-1,Increment      1: Step Time =    1.000,"PART-1-1",           444,   19.2837E-03,       28.6494,            0.,NA,NA,"",       7.02238,      -6.64565,      -2.26916,   4.27916E-03
C:/temp/dataset/9/2_5.odb,Step-1,Increment      1: Step Time =    1.000,"PART-1-1",           445,       2.60045,       28.7372,            0.,NA,NA,"",       6.95005,      -6.70371,      -1.83397,   2.19312E-03
C:/temp/dataset/9/2_5.odb,Step-1,Increment      1: Step Time =    1.000,"PART-1-1",           446,          1.25,           30.,            0.,NA,NA,"",       7.20037,      -6.89396,      -2.07815,   2.93002E-03
C:/temp/dataset/9/2_5.odb,Step-1,Increment      1: Step Time =    1.000,"PART-1-1",           447,      -7.67774,       29.0428,            0.,NA,NA,"",       7.46742,      -6.59921,      -3.49468,   3.74546E-03
C:/temp/dataset/9/2_5.odb,Step-1,Increment      1: Step Time =    1.000,"PART-1-1",           448,      -6.68998,       27.9093,            0.,NA,NA,"",       7.24605,      -6.43524,      -3.33060,   4.58544E-03
C:/temp/dataset/9/2_5.odb,Step-1,Increment      1: Step Time =    1.000,"PART-1-1",           449,         -6.25,           30.,            0.,NA,NA,"",       7.52276,      -6.76308,      -3.29436,   5.22878E-03
C:/temp/dataset/9/2_5.odb,Step-1,Increment      1: Step Time =    1.000,"PART-1-1",           450,      -12.1701,       26.6384,            0.,NA,NA,"",       7.43601,      -6.17258,      -4.14650,   952.734E-06
C:/temp/dataset/9/2_5.odb,Step-1,Increment      1: Step Time =    1.000,"PART-1-1",           451,      -13.7206,       27.8542,            0.,NA,NA,"",       7.71864,      -6.34188,      -4.39975,   171.441E-06
C:/temp/dataset/9/2_5.odb,Step-1,Increment      1: Step Time =    1.000,"PART-1-1",           452,          -15.,       26.7188,            0.,NA,NA,"",       7.67114,      -6.15132,      -4.58340,   40.4221E-06
C:/temp/dataset/9/2_5.odb,Step-1,Increment      1: Step Time =    1.000,"PART-1-1",           453,        -13.75,           30.,            0.,NA,NA,"",       8.00863,      -6.67191,      -4.42988,   101.826E-06
C:/temp/dataset/9/2_5.odb,Step-1,Increment      1: Step Time =    1.000,"PART-1-1",           454,          -15.,       28.9063,            0.,NA,NA,"",       7.95919,      -6.48864,      -4.60937,   81.5795E-06
C:/temp/dataset/9/2_5.odb,Step-1,Increment      1: Step Time =    1.000,"PART-1-1",           455,      -9.01567,       28.1413,            0.,NA,NA,"",       7.42229,      -6.44330,      -3.68432,   2.91485E-03
C:/temp/dataset/9/2_5.odb,Step-1,Increment      1: Step Time =    1.000,"PART-1-1",           456,         -8.75,           30.,            0.,NA,NA,"",       7.66363,      -6.73045,      -3.66501,   959.400E-06
C:/temp/dataset/9/2_5.odb,Step-1,Increment      1: Step Time =    1.000,"PART-1-1",           457,      -10.9923,       18.6369,            0.,NA,NA,"",       6.27107,      -4.94534,      -3.85615,   2.25658E-03
C:/temp/dataset/9/2_5.odb,Step-1,Increment      1: Step Time =    1.000,"PART-1-1",           458,      -11.7056,       20.1347,            0.,NA,NA,"",       6.52868,      -5.16900,      -3.98812,   1.98046E-03
C:/temp/dataset/9/2_5.odb,Step-1,Increment      1: Step Time =    1.000,"PART-1-1",           459,      -12.2405,       18.0722,            0.,NA,NA,"",       6.30983,      -4.84383,      -4.04367,   1.64491E-03
C:/temp/dataset/9/2_5.odb,Step-1,Increment      1: Step Time =    1.000,"PART-1-1",           460,      -11.7153,       17.0060,            0.,NA,NA,"",       6.12591,      -4.68475,      -3.94713,   1.80174E-03
C:/temp/dataset/9/2_5.odb,Step-1,Increment      1: Step Time =    1.000,"PART-1-1",           461,      -12.7888,       16.5007,            0.,NA,NA,"",       6.16316,      -4.59365,      -4.10888,   1.25533E-03
C:/temp/dataset/9/2_5.odb,Step-1,Increment      1: Step Time =    1.000,"PART-1-1",           462,      -13.2634,       13.5986,            0.,NA,NA,"",       5.85582,      -4.13485,      -4.14652,   760.623E-06
C:/temp/dataset/9/2_5.odb,Step-1,Increment      1: Step Time =    1.000,"PART-1-1",           463,      -14.1733,       14.6682,            0.,NA,NA,"",       6.07703,      -4.29108,      -4.30312,   414.898E-06
C:/temp/dataset/9/2_5.odb,Step-1,Increment      1: Step Time =    1.000,"PART-1-1",           464,          -15.,       13.5938,            0.,NA,NA,"",       6.03716,      -4.11207,      -4.42020,   943.312E-06
C:/temp/dataset/9/2_5.odb,Step-1,Increment      1: Step Time =    1.000,"PART-1-1",           465,      -6.04154,       10.1420,            0.,NA,NA,"",       4.70710,      -3.67413,      -2.94237,   5.82185E-03
C:/temp/dataset/9/2_5.odb,Step-1,Increment      1: Step Time =    1.000,"PART-1-1",           466,      -7.09581,       9.10381,            0.,NA,NA,"",       4.67013,      -3.49835,      -3.09381,   5.09071E-03
C:/temp/dataset/9/2_5.odb,Step-1,Increment      1: Step Time =    1.000,"PART-1-1",           467,      -6.05428,       7.71180,            0.,NA,NA,"",       4.38398,      -3.28812,      -2.89958,   6.43067E-03
C:/temp/dataset/9/2_5.odb,Step-1,Increment      1: Step Time =    1.000,"PART-1-1",           468,           -5.,          8.75,            0.,NA,NA,"",       4.42226,      -3.46356,      -2.74957,   7.21990E-03
C:/temp/dataset/9/2_5.odb,Step-1,Increment      1: Step Time =    1.000,"PART-1-1",           469,      -6.15708,       5.36159,            0.,NA,NA,"",       4.08931,      -2.90997,      -2.87307,   6.52706E-03
C:/temp/dataset/9/2_5.odb,Step-1,Increment      1: Step Time =    1.000,"PART-1-1",           470,           -5.,          6.25,            0.,NA,NA,"",       4.08351,      -3.06505,      -2.69825,   10.1714E-03
C:/temp/dataset/9/2_5.odb,Step-1,Increment      1: Step Time =    1.000,"PART-1-1",           471,      -13.8567,       3.63033,            0.,NA,NA,"",       4.82846,      -2.52085,      -4.11817,   1.10425E-03
C:/temp/dataset/9/2_5.odb,Step-1,Increment      1: Step Time =    1.000,"PART-1-1",           472,      -12.5372,       4.63979,            0.,NA,NA,"",       4.75874,      -2.70592,      -3.91453,   428.452E-06
C:/temp/dataset/9/2_5.odb,Step-1,Increment      1: Step Time =    1.000,"PART-1-1",           473,          -15.,       4.84375,            0.,NA,NA,"",       5.09792,      -2.70481,      -4.32120,   2.03019E-03
C:/temp/dataset/9/2_5.odb,Step-1,Increment      1: Step Time =    1.000,"PART-1-1",           474,      -12.7859,       2.45238,            0.,NA,NA,"",       4.57050,      -2.34043,      -3.92579,   671.628E-06
C:/temp/dataset/9/2_5.odb,Step-1,Increment      1: Step Time =    1.000,"PART-1-1",           475,          -15.,       2.65625,            0.,NA,NA,"",       4.89227,      -2.34287,      -4.29479,   1.57968E-03
C:/temp/dataset/9/2_5.odb,Step-1,Increment      1: Step Time =    1.000,"PART-1-1",           476,      -13.7683,      -2.81830,            0.,NA,NA,"",       4.26850,      -1.44568,      -4.01623,   299.644E-06
C:/temp/dataset/9/2_5.odb,Step-1,Increment      1: Step Time =    1.000,"PART-1-1",           477,          -15.,      -3.90625,            0.,NA,NA,"",       4.38757,      -1.24617,      -4.20688,   80.2982E-06
C:/temp/dataset/9/2_5.odb,Step-1,Increment      1: Step Time =    1.000,"PART-1-1",           478,        -13.75,           -5.,            0.,NA,NA,"",       4.12651,      -1.08081,      -3.98246,   89.5680E-06
C:/temp/dataset/9/2_5.odb,Step-1,Increment      1: Step Time =    1.000,"PART-1-1",           479,      -12.5183,      -3.91205,            0.,NA,NA,"",       4.00222,      -1.27998,      -3.79202,   336.082E-06
C:/temp/dataset/9/2_5.odb,Step-1,Increment      1: Step Time =    1.000,"PART-1-1",           480,      -3.91473,      -3.03803,            0.,NA,NA,"",       2.81757,      -1.55126,      -2.35209,   3.32865E-03
C:/temp/dataset/9/2_5.odb,Step-1,Increment      1: Step Time =    1.000,"PART-1-1",           481,      -5.07319,      -4.05962,            0.,NA,NA,"",       2.87808,      -1.36125,      -2.53581,   1.53939E-03
C:/temp/dataset/9/2_5.odb,Step-1,Increment      1: Step Time =    1.000,"PART-1-1",           482,         -3.75,           -5.,            0.,NA,NA,"",       2.60284,      -1.22303,      -2.29760,   2.29312E-03
C:/temp/dataset/9/2_5.odb,Step-1,Increment      1: Step Time =    1.000,"PART-1-1",           483,      -2.59153,      -3.97841,            0.,NA,NA,"",       2.54431,      -1.41599,      -2.11388,   3.56250E-03
C:/temp/dataset/9/2_5.odb,Step-1,Increment      1: Step Time =    1.000,"PART-1-1",           484,   563.435E-03,   72.7383E-03,            0.,NA,NA,"",       2.68308,      -2.13312,      -1.62749,   6.62343E-03
C:/temp/dataset/9/2_5.odb,Step-1,Increment      1: Step Time =    1.000,"PART-1-1",           485,  -536.863E-03,      -1.25885,            0.,NA,NA,"",       2.61645,      -1.90146,      -1.79730,   6.46278E-03
C:/temp/dataset/9/2_5.odb,Step-1,Increment      1: Step Time =    1.000,"PART-1-1",           486,       7.06616,      -9.87010,            0.,NA,NA,"",       1.00067,  -924.658E-03,  -382.544E-03,   21.1688E-03
C:/temp/dataset/9/2_5.odb,Step-1,Increment      1: Step Time =    1.000,"PART-1-1",           487,       6.02487,      -8.97716,            0.,NA,NA,"",       1.13941,      -1.01792,  -511.936E-03,   27.5339E-03
C:/temp/dataset/9/2_5.odb,Step-1,Increment      1: Step Time =    1.000,"PART-1-1",           488,            5.,      -10.2083,            0.,NA,NA,"",       1.07525,  -907.684E-03,  -576.435E-03,   32.6875E-03
C:/temp/dataset/9/2_5.odb,Step-1,Increment      1: Step Time =    1.000,"PART-1-1",           489,       13.0743,      -11.4048,            0.,NA,NA,"",   828.139E-03,  -802.964E-03,   202.640E-03,   14.9495E-03
C:/temp/dataset/9/2_5.odb,Step-1,Increment      1: Step Time =    1.000,"PART-1-1",           490,       14.0423,      -12.5586,            0.,NA,NA,"",   762.379E-03,  -711.610E-03,   273.556E-03,   20.6673E-03
C:/temp/dataset/9/2_5.odb,Step-1,Increment      1: Step Time =    1.000,"PART-1-1",           491,           15.,        -11.25,            0.,NA,NA,"",   925.057E-03,  -843.386E-03,   380.042E-03,   26.6471E-03
C:/temp/dataset/9/2_5.odb,Step-1,Increment      1: Step Time =    1.000,"PART-1-1",           492,       14.0319,      -10.0962,            0.,NA,NA,"",   990.134E-03,  -941.004E-03,   308.020E-03,   20.9377E-03
C:/temp/dataset/9/2_5.odb,Step-1,Increment      1: Step Time =    1.000,"PART-1-1",           493,       7.09943,      -16.3632,            0.,NA,NA,"",   472.531E-03,  -407.682E-03,  -238.917E-03,   20.0233E-03
C:/temp/dataset/9/2_5.odb,Step-1,Increment      1: Step Time =    1.000,"PART-1-1",           494,            5.,      -16.4583,            0.,NA,NA,"",   563.669E-03,  -422.177E-03,  -373.483E-03,   32.2195E-03
C:/temp/dataset/9/2_5.odb,Step-1,Increment      1: Step Time =    1.000,"PART-1-1",           495,       13.0966,      -13.8278,            0.,NA,NA,"",   623.100E-03,  -596.286E-03,   180.823E-03,   14.8362E-03
C:/temp/dataset/9/2_5.odb,Step-1,Increment      1: Step Time =    1.000,"PART-1-1",           496,       14.0543,      -15.0192,            0.,NA,NA,"",   568.120E-03,  -516.379E-03,   236.883E-03,   20.2822E-03
C:/temp/dataset/9/2_5.odb,Step-1,Increment      1: Step Time =    1.000,"PART-1-1",           497,           15.,        -13.75,            0.,NA,NA,"",   707.360E-03,  -625.683E-03,   329.968E-03,   26.1133E-03
C:/temp/dataset/9/2_5.odb,Step-1,Increment      1: Step Time =    1.000,"PART-1-1",           498,       13.0974,      -18.6352,            0.,NA,NA,"",   307.932E-03,  -279.788E-03,   128.611E-03,   14.1952E-03
C:/temp/dataset/9/2_5.odb,Step-1,Increment      1: Step Time =    1.000,"PART-1-1",           499,       14.0421,      -19.9133,            0.,NA,NA,"",   274.197E-03,  -224.153E-03,   157.922E-03,   19.2564E-03
C:/temp/dataset/9/2_5.odb,Step-1,Increment      1: Step Time =    1.000,"PART-1-1",           500,           15.,        -18.75,            0.,NA,NA,"",   370.202E-03,  -292.924E-03,   226.374E-03,   24.8878E-03
C:/temp/dataset/9/2_5.odb,Step-1,Increment      1: Step Time =    1.000,"PART-1-1",           501,       14.0553,      -17.4719,            0.,NA,NA,"",   405.819E-03,  -354.208E-03,   198.055E-03,   19.8173E-03
C:/temp/dataset/9/2_5.odb,Step-1,Increment      1: Step Time =    1.000,"PART-1-1",           502,       7.12541,      -22.7005,            0.,NA,NA,"",   161.521E-03,  -109.223E-03,  -118.994E-03,   19.0573E-03
C:/temp/dataset/9/2_5.odb,Step-1,Increment      1: Step Time =    1.000,"PART-1-1",           503,       6.04628,      -21.6612,            0.,NA,NA,"",   236.472E-03,  -154.422E-03,  -179.088E-03,   25.1496E-03
C:/temp/dataset/9/2_5.odb,Step-1,Increment      1: Step Time =    1.000,"PART-1-1",           504,            5.,      -22.7083,            0.,NA,NA,"",   230.712E-03,  -131.739E-03,  -189.401E-03,   30.6112E-03
C:/temp/dataset/9/2_5.odb,Step-1,Increment      1: Step Time =    1.000,"PART-1-1",           505,       6.07914,      -23.7476,            0.,NA,NA,"",   157.827E-03,  -88.7847E-03,  -130.487E-03,   24.4850E-03
C:/temp/dataset/9/2_5.odb,Step-1,Increment      1: Step Time =    1.000,"PART-1-1",           506,       6.22304,      -27.8948,            0.,NA,NA,"",   41.8576E-03,  -15.2601E-03,  -38.9768E-03,   23.0069E-03
C:/temp/dataset/9/2_5.odb,Step-1,Increment      1: Step Time =    1.000,"PART-1-1",           507,            5.,      -28.9583,            0.,NA,NA,"",   31.4167E-03,  -19.0074E-03,  -25.0145E-03,   27.9004E-03
C:/temp/dataset/9/2_5.odb,Step-1,Increment      1: Step Time =    1.000,"PART-1-1",           508,          6.25,          -30.,            0.,NA,NA,"",            0.,   1.76044E-39,  -33.5121E-39,   20.2014E-03
C:/temp/dataset/9/2_5.odb,Step-1,Increment      1: Step Time =    1.000,"PART-1-1",           509,       9.78444,      -26.6535,            0.,NA,NA,"",   14.9113E-03,  -9.06326E-03,  -11.8408E-03,   4.63238E-03
C:/temp/dataset/9/2_5.odb,Step-1,Increment      1: Step Time =    1.000,"PART-1-1",           510,       8.47427,      -25.6871,            0.,NA,NA,"",   49.5944E-03,  -27.7291E-03,  -41.1181E-03,   11.7720E-03
C:/temp/dataset/9/2_5.odb,Step-1,Increment      1: Step Time =    1.000,"PART-1-1",           511,       7.37694,      -26.8334,            0.,NA,NA,"",   47.7168E-03,  -17.4519E-03,  -44.4108E-03,   17.3246E-03
C:/temp/dataset/9/2_5.odb,Step-1,Increment      1: Step Time =    1.000,"PART-1-1",           512,       13.7223,      -27.5034,            0.,NA,NA,"",   34.2692E-03,  -11.2987E-03,   32.3530E-03,   16.3304E-03
C:/temp/dataset/9/2_5.odb,Step-1,Increment      1: Step Time =    1.000,"PART-1-1",           513,       12.4723,      -28.7534,            0.,NA,NA,"",   9.08920E-03,   3.04814E-03,   8.56285E-03,   9.03224E-03
C:/temp/dataset/9/2_5.odb,Step-1,Increment      1: Step Time =    1.000,"PART-1-1",           514,         13.75,          -30.,            0.,NA,NA,"",            0.,   3.51905E-39,   22.1337E-39,   13.1353E-03
C:/temp/dataset/9/2_5.odb,Step-1,Increment      1: Step Time =    1.000,"PART-1-1",           515,           15.,        -28.75,            0.,NA,NA,"",   25.0773E-03,  -13.1183E-03,   21.3725E-03,   20.5165E-03
C:/temp/dataset/9/2_5.odb,Step-1,Increment      1: Step Time =    1.000,"PART-1-1",           516,         11.25,          -30.,            0.,NA,NA,"",            0.,   6.14948E-39,   4.55023E-39,   5.79496E-03
C:/temp/dataset/9/2_5.odb,Step-1,Increment      1: Step Time =    1.000,"PART-1-1",           517,       11.1864,      -27.6167,            0.,NA,NA,"",   5.53204E-03,   471.168E-06,   5.51194E-03,   3.53159E-03
C:/temp/dataset/9/2_5.odb,Step-1,Increment      1: Step Time =    1.000,"PART-1-1",           518,       9.10684,      -20.5966,            0.,NA,NA,"",   188.975E-03,  -175.896E-03,  -69.0821E-03,   8.39286E-03
C:/temp/dataset/9/2_5.odb,Step-1,Increment      1: Step Time =    1.000,"PART-1-1",           519,       11.0993,      -20.6881,            0.,NA,NA,"",   172.907E-03,  -171.887E-03,   18.7527E-03,   2.98761E-03
C:/temp/dataset/9/2_5.odb,Step-1,Increment      1: Step Time =    1.000,"PART-1-1",           520,       7.08739,      -20.6083,            0.,NA,NA,"",   244.007E-03,  -185.832E-03,  -158.133E-03,   19.5444E-03
C:/temp/dataset/9/2_5.odb,Step-1,Increment      1: Step Time =    1.000,"PART-1-1",           521,            5.,       -20.625,            0.,NA,NA,"",   323.739E-03,  -207.212E-03,  -248.737E-03,   31.2502E-03
C:/temp/dataset/9/2_5.odb,Step-1,Increment      1: Step Time =    1.000,"PART-1-1",           522,       9.14341,      -14.0595,            0.,NA,NA,"",   574.145E-03,  -559.816E-03,  -127.468E-03,   8.41416E-03
C:/temp/dataset/9/2_5.odb,Step-1,Increment      1: Step Time =    1.000,"PART-1-1",           523,       10.1582,      -15.1431,            0.,NA,NA,"",   483.254E-03,  -481.305E-03,  -43.3667E-03,   2.60223E-03
C:/temp/dataset/9/2_5.odb,Step-1,Increment      1: Step Time =    1.000,"PART-1-1",           524,       11.1509,      -13.9343,            0.,NA,NA,"",   574.422E-03,  -573.724E-03,   28.3155E-03,   3.49034E-03
C:/temp/dataset/9/2_5.odb,Step-1,Increment      1: Step Time =    1.000,"PART-1-1",           525,       10.1361,      -12.8507,            0.,NA,NA,"",   658.928E-03,  -656.462E-03,  -56.9522E-03,   2.69643E-03
C:/temp/dataset/9/2_5.odb,Step-1,Increment      1: Step Time =    1.000,"PART-1-1",           526,       9.12292,      -11.8044,            0.,NA,NA,"",   759.499E-03,  -743.758E-03,  -153.826E-03,   8.51371E-03
C:/temp/dataset/9/2_5.odb,Step-1,Increment      1: Step Time =    1.000,"PART-1-1",           527,       11.1213,      -11.5948,            0.,NA,NA,"",   769.370E-03,  -768.972E-03,   24.7376E-03,   3.50459E-03
C:/temp/dataset/9/2_5.odb,Step-1,Increment      1: Step Time =    1.000,"PART-1-1",           528,       10.1081,      -10.5485,            0.,NA,NA,"",   863.705E-03,  -860.546E-03,  -73.8043E-03,   2.68693E-03
C:/temp/dataset/9/2_5.odb,Step-1,Increment      1: Step Time =    1.000,"PART-1-1",           529,       13.8169,  -7.21098E-03,            0.,NA,NA,"",       2.26397,      -2.23667,   350.500E-03,   10.1312E-03
C:/temp/dataset/9/2_5.odb,Step-1,Increment      1: Step Time =    1.000,"PART-1-1",           530,           15.,          1.25,            0.,NA,NA,"",       2.49859,      -2.44388,   520.021E-03,   10.4851E-03
C:/temp/dataset/9/2_5.odb,Step-1,Increment      1: Step Time =    1.000,"PART-1-1",           531,       13.9075,       2.57030,            0.,NA,NA,"",       2.65207,      -2.62854,   352.493E-03,   6.57815E-03
C:/temp/dataset/9/2_5.odb,Step-1,Increment      1: Step Time =    1.000,"PART-1-1",           532,       10.8083,      -4.35361,            0.,NA,NA,"",       1.57473,      -1.57444,  -30.6773E-03,   8.00996E-03
C:/temp/dataset/9/2_5.odb,Step-1,Increment      1: Step Time =    1.000,"PART-1-1",           533,       9.68548,      -3.40243,            0.,NA,NA,"",       1.70340,      -1.69393,  -179.409E-03,   9.11444E-03
C:/temp/dataset/9/2_5.odb,Step-1,Increment      1: Step Time =    1.000,"PART-1-1",           534,       8.81587,      -4.92348,            0.,NA,NA,"",       1.50335,      -1.47879,  -270.623E-03,   7.81816E-03
C:/temp/dataset/9/2_5.odb,Step-1,Increment      1: Step Time =    1.000,"PART-1-1",           535,       9.93870,      -5.87466,            0.,NA,NA,"",       1.37359,      -1.36783,  -125.741E-03,   4.93697E-03
C:/temp/dataset/9/2_5.odb,Step-1,Increment      1: Step Time =    1.000,"PART-1-1",           536,       10.7940,       8.23694,            0.,NA,NA,"",       3.46778,      -3.46349,  -172.536E-03,   992.223E-06
C:/temp/dataset/9/2_5.odb,Step-1,Increment      1: Step Time =    1.000,"PART-1-1",           537,       11.2752,       6.42654,            0.,NA,NA,"",       3.18972,      -3.18879,  -77.2397E-03,   1.57843E-03
C:/temp/dataset/9/2_5.odb,Step-1,Increment      1: Step Time =    1.000,"PART-1-1",           538,       12.8821,       8.67106,            0.,NA,NA,"",       3.56030,      -3.55733,   145.489E-03,   2.57071E-03
C:/temp/dataset/9/2_5.odb,Step-1,Increment      1: Step Time =    1.000,"PART-1-1",           539,       14.0355,       7.50951,            0.,NA,NA,"",       3.40806,      -3.39158,   334.760E-03,   3.95435E-03
C:/temp/dataset/9/2_5.odb,Step-1,Increment      1: Step Time =    1.000,"PART-1-1",           540,           15.,          8.75,            0.,NA,NA,"",       3.63005,      -3.59896,   474.086E-03,   4.85074E-03
C:/temp/dataset/9/2_5.odb,Step-1,Increment      1: Step Time =    1.000,"PART-1-1",           541,       13.8467,       9.91155,            0.,NA,NA,"",       3.77605,      -3.76537,   283.782E-03,   3.40636E-03
C:/temp/dataset/9/2_5.odb,Step-1,Increment      1: Step Time =    1.000,"PART-1-1",           542,       12.4850,       16.2122,            0.,NA,NA,"",       4.76025,      -4.76025,  -2.82575E-03,   1.48671E-03
C:/temp/dataset/9/2_5.odb,Step-1,Increment      1: Step Time =    1.000,"PART-1-1",           543,       13.7431,       14.9727,            0.,NA,NA,"",       4.58050,      -4.57543,   215.369E-03,   2.50085E-03
C:/temp/dataset/9/2_5.odb,Step-1,Increment      1: Step Time =    1.000,"PART-1-1",           544,           15.,         16.25,            0.,NA,NA,"",       4.81952,      -4.80243,   405.551E-03,   3.28478E-03
C:/temp/dataset/9/2_5.odb,Step-1,Increment      1: Step Time =    1.000,"PART-1-1",           545,       13.7419,       17.4895,            0.,NA,NA,"",       4.99130,      -4.98783,   186.107E-03,   1.98106E-03
C:/temp/dataset/9/2_5.odb,Step-1,Increment      1: Step Time =    1.000,"PART-1-1",           546,       12.4991,       13.6576,            0.,NA,NA,"",       4.34501,      -4.34491,   30.5439E-03,   1.65119E-03
C:/temp/dataset/9/2_5.odb,Step-1,Increment      1: Step Time =    1.000,"PART-1-1",           547,       13.7559,       12.4349,            0.,NA,NA,"",       4.17270,      -4.16553,   244.576E-03,   2.95508E-03
C:/temp/dataset/9/2_5.odb,Step-1,Increment      1: Step Time =    1.000,"PART-1-1",           548,           15.,         13.75,            0.,NA,NA,"",       4.41635,      -4.39531,   430.570E-03,   3.97593E-03
C:/temp/dataset/9/2_5.odb,Step-1,Increment      1: Step Time =    1.000,"PART-1-1",           549,           15.,         21.25,            0.,NA,NA,"",       5.64085,      -5.63013,   347.605E-03,   1.53673E-03
C:/temp/dataset/9/2_5.odb,Step-1,Increment      1: Step Time =    1.000,"PART-1-1",           550,       13.6875,       22.5045,            0.,NA,NA,"",       5.82180,      -5.82071,   113.027E-03,   809.048E-06
C:/temp/dataset/9/2_5.odb,Step-1,Increment      1: Step Time =    1.000,"PART-1-1",           551,       12.4125,       21.2511,            0.,NA,NA,"",       5.59412,      -5.59353,  -81.1451E-03,   1.12849E-03
C:/temp/dataset/9/2_5.odb,Step-1,Increment      1: Step Time =    1.000,"PART-1-1",           552,       13.7250,       19.9966,            0.,NA,NA,"",       5.40506,      -5.40292,   152.245E-03,   1.39097E-03
C:/temp/dataset/9/2_5.odb,Step-1,Increment      1: Step Time =    1.000,"PART-1-1",           553,       13.6481,       25.0064,            0.,NA,NA,"",       6.23907,      -6.23866,   72.2315E-03,   394.919E-06
C:/temp/dataset/9/2_5.odb,Step-1,Increment      1: Step Time =    1.000,"PART-1-1",           554,       12.3356,       23.7609,            0.,NA,NA,"",       6.01327,      -6.01189,  -128.934E-03,   772.597E-06
C:/temp/dataset/9/2_5.odb,Step-1,Increment      1: Step Time =    1.000,"PART-1-1",           555,           15.,         23.75,            0.,NA,NA,"",       6.05589,      -6.04769,   314.973E-03,   795.543E-06
C:/temp/dataset/9/2_5.odb,Step-1,Increment      1: Step Time =    1.000,"PART-1-1",           556,       13.7112,       27.5077,            0.,NA,NA,"",       6.65834,      -6.65817,   47.8529E-03,   169.642E-06
C:/temp/dataset/9/2_5.odb,Step-1,Increment      1: Step Time =    1.000,"PART-1-1",           557,           15.,         28.75,            0.,NA,NA,"",       6.88852,      -6.88413,   245.835E-03,   43.9737E-06
C:/temp/dataset/9/2_5.odb,Step-1,Increment      1: Step Time =    1.000,"PART-1-1",           558,         13.75,           30.,            0.,NA,NA,"",       7.07556,      -7.07553,   19.2962E-03,   38.6300E-06
C:/temp/dataset/9/2_5.odb,Step-1,Increment      1: Step Time =    1.000,"PART-1-1",           559,            5.,      -24.7917,            0.,NA,NA,"",   152.851E-03,  -76.8611E-03,  -132.121E-03,   29.5721E-03
C:/temp/dataset/9/2_5.odb,Step-1,Increment      1: Step Time =    1.000,"PART-1-1",           560,       6.15390,      -25.8136,            0.,NA,NA,"",   94.5439E-03,  -43.7084E-03,  -83.8339E-03,   23.5419E-03
C:/temp/dataset/9/2_5.odb,Step-1,Increment      1: Step Time =    1.000,"PART-1-1",           561,       7.23304,      -24.7696,            0.,NA,NA,"",   96.7027E-03,  -53.6284E-03,  -80.4699E-03,   18.4237E-03
C:/temp/dataset/9/2_5.odb,Step-1,Increment      1: Step Time =    1.000,"PART-1-1",           562,       13.0086,      -21.0119,            0.,NA,NA,"",   193.767E-03,  -167.350E-03,   97.6709E-03,   13.3197E-03
C:/temp/dataset/9/2_5.odb,Step-1,Increment      1: Step Time =    1.000,"PART-1-1",           563,       13.9664,      -22.3485,            0.,NA,NA,"",   169.991E-03,  -124.507E-03,   115.737E-03,   18.3442E-03
C:/temp/dataset/9/2_5.odb,Step-1,Increment      1: Step Time =    1.000,"PART-1-1",           564,           15.,        -21.25,            0.,NA,NA,"",   247.408E-03,  -176.030E-03,   173.851E-03,   24.2890E-03
C:/temp/dataset/9/2_5.odb,Step-1,Increment      1: Step Time =    1.000,"PART-1-1",           565,            5.,       -26.875,            0.,NA,NA,"",   88.4569E-03,  -41.5859E-03,  -78.0720E-03,   28.6915E-03
C:/temp/dataset/9/2_5.odb,Step-1,Increment      1: Step Time =    1.000,"PART-1-1",           566,       12.9745,      -6.51631,            0.,NA,NA,"",       1.34333,      -1.32361,   229.302E-03,   14.1981E-03
C:/temp/dataset/9/2_5.odb,Step-1,Increment      1: Step Time =    1.000,"PART-1-1",           567,       14.0104,      -7.62731,            0.,NA,NA,"",       1.25313,      -1.20685,   337.439E-03,   20.5249E-03
C:/temp/dataset/9/2_5.odb,Step-1,Increment      1: Step Time =    1.000,"PART-1-1",           568,           15.,         -6.25,            0.,NA,NA,"",       1.46597,      -1.38854,   470.136E-03,   25.0926E-03
C:/temp/dataset/9/2_5.odb,Step-1,Increment      1: Step Time =    1.000,"PART-1-1",           569,       13.9641,      -5.13900,            0.,NA,NA,"",       1.55343,      -1.51191,   356.744E-03,   18.5261E-03
C:/temp/dataset/9/2_5.odb,Step-1,Increment      1: Step Time =    1.000,"PART-1-1",           570,       11.1649,      -16.2543,            0.,NA,NA,"",   409.937E-03,  -408.968E-03,   28.1584E-03,   3.50028E-03
C:/temp/dataset/9/2_5.odb,Step-1,Increment      1: Step Time =    1.000,"PART-1-1",           571,       9.14831,      -16.2933,            0.,NA,NA,"",   417.238E-03,  -403.829E-03,  -104.926E-03,   8.29170E-03
C:/temp/dataset/9/2_5.odb,Step-1,Increment      1: Step Time =    1.000,"PART-1-1",           572,            5.,        -8.125,            0.,NA,NA,"",       1.28698,      -1.11269,  -646.711E-03,   34.9384E-03
C:/temp/dataset/9/2_5.odb,Step-1,Increment      1: Step Time =    1.000,"PART-1-1",           573,       12.8519,      -3.99254,            0.,NA,NA,"",       1.66333,      -1.64832,   222.961E-03,   12.7176E-03
C:/temp/dataset/9/2_5.odb,Step-1,Increment      1: Step Time =    1.000,"PART-1-1",           574,           15.,         -3.75,            0.,NA,NA,"",       1.78768,      -1.71572,   502.111E-03,   21.2030E-03
C:/temp/dataset/9/2_5.odb,Step-1,Increment      1: Step Time =    1.000,"PART-1-1",           575,       13.8878,      -2.60354,            0.,NA,NA,"",       1.89190,      -1.85725,   360.424E-03,   14.6534E-03
C:/temp/dataset/9/2_5.odb,Step-1,Increment      1: Step Time =    1.000,"PART-1-1",           576,       13.0423,      -8.97351,            0.,NA,NA,"",       1.06702,      -1.04401,   220.393E-03,   14.8570E-03
C:/temp/dataset/9/2_5.odb,Step-1,Increment      1: Step Time =    1.000,"PART-1-1",           577,           15.,         -8.75,            0.,NA,NA,"",       1.17763,      -1.09721,   427.713E-03,   26.6422E-03
C:/temp/dataset/9/2_5.odb,Step-1,Increment      1: Step Time =    1.000,"PART-1-1",           578,       8.09346,      -21.6433,            0.,NA,NA,"",   171.037E-03,  -138.720E-03,  -100.052E-03,   13.8924E-03
C:/temp/dataset/9/2_5.odb,Step-1,Increment      1: Step Time =    1.000,"PART-1-1",           579,       8.17438,      -23.6967,            0.,NA,NA,"",   102.127E-03,  -73.2387E-03,  -71.1754E-03,   13.3619E-03
C:/temp/dataset/9/2_5.odb,Step-1,Increment      1: Step Time =    1.000,"PART-1-1",           580,       8.10077,      -19.5616,            0.,NA,NA,"",   259.348E-03,  -225.786E-03,  -127.602E-03,   14.0128E-03
C:/temp/dataset/9/2_5.odb,Step-1,Increment      1: Step Time =    1.000,"PART-1-1",           581,       8.11824,      -17.4194,            0.,NA,NA,"",   372.621E-03,  -338.105E-03,  -156.624E-03,   14.0940E-03
C:/temp/dataset/9/2_5.odb,Step-1,Increment      1: Step Time =    1.000,"PART-1-1",           582,          -15.,       22.3438,            0.,NA,NA,"",       7.10432,      -5.47359,      -4.52894,   782.387E-06
C:/temp/dataset/9/2_5.odb,Step-1,Increment      1: Step Time =    1.000,"PART-1-1",           583,      -12.5647,       21.7347,            0.,NA,NA,"",       6.81214,      -5.40723,      -4.14332,   1.44198E-03
C:/temp/dataset/9/2_5.odb,Step-1,Increment      1: Step Time =    1.000,"PART-1-1",           584,      -4.95050,       22.5220,            0.,NA,NA,"",       6.34441,      -5.60158,      -2.97891,   5.17441E-03
C:/temp/dataset/9/2_5.odb,Step-1,Increment      1: Step Time =    1.000,"PART-1-1",           585,      -3.93081,       23.1260,            0.,NA,NA,"",       6.36917,      -5.70652,      -2.82878,   3.82344E-03
C:/temp/dataset/9/2_5.odb,Step-1,Increment      1: Step Time =    1.000,"PART-1-1",           586,      -4.22857,       24.4244,            0.,NA,NA,"",       6.58151,      -5.91024,      -2.89575,   3.80275E-03
C:/temp/dataset/9/2_5.odb,Step-1,Increment      1: Step Time =    1.000,"PART-1-1",           587,      -5.24826,       23.8204,            0.,NA,NA,"",       6.55472,      -5.80425,      -3.04549,   4.78121E-03
C:/temp/dataset/9/2_5.odb,Step-1,Increment      1: Step Time =    1.000,"PART-1-1",           588,      -10.1110,       10.4874,            0.,NA,NA,"",       5.15144,      -3.68294,      -3.60185,   2.39293E-03
C:/temp/dataset/9/2_5.odb,Step-1,Increment      1: Step Time =    1.000,"PART-1-1",           589,      -9.15687,       11.6944,            0.,NA,NA,"",       5.20706,      -3.88513,      -3.46688,   3.12515E-03
C:/temp/dataset/9/2_5.odb,Step-1,Increment      1: Step Time =    1.000,"PART-1-1",           590,      -11.1597,       11.6149,            0.,NA,NA,"",       5.39865,      -3.84862,      -3.78596,   1.73976E-03
C:/temp/dataset/9/2_5.odb,Step-1,Increment      1: Step Time =    1.000,"PART-1-1",           591,      -6.07359,       12.6401,            0.,NA,NA,"",       5.04889,      -4.06746,      -2.99116,   5.27380E-03
C:/temp/dataset/9/2_5.odb,Step-1,Increment      1: Step Time =    1.000,"PART-1-1",           592,      -7.11512,       11.5321,            0.,NA,NA,"",       4.99202,      -3.88239,      -3.13803,   4.69808E-03
C:/temp/dataset/9/2_5.odb,Step-1,Increment      1: Step Time =    1.000,"PART-1-1",           593,           -5.,         11.25,            0.,NA,NA,"",       4.76604,      -3.85971,      -2.79604,   6.38271E-03
C:/temp/dataset/9/2_5.odb,Step-1,Increment      1: Step Time =    1.000,"PART-1-1",           594,      -10.0988,       8.37440,            0.,NA,NA,"",       4.89211,      -3.34598,      -3.56892,   2.09896E-03
C:/temp/dataset/9/2_5.odb,Step-1,Increment      1: Step Time =    1.000,"PART-1-1",           595,      -9.11481,       9.38066,            0.,NA,NA,"",       4.91038,      -3.51899,      -3.42470,   3.12439E-03
C:/temp/dataset/9/2_5.odb,Step-1,Increment      1: Step Time =    1.000,"PART-1-1",           596,      -11.0949,       9.48111,            0.,NA,NA,"",       5.13378,      -3.51054,      -3.74590,   1.49880E-03
C:/temp/dataset/9/2_5.odb,Step-1,Increment      1: Step Time =    1.000,"PART-1-1",           597,      -11.8142,       15.6555,            0.,NA,NA,"",       5.96447,      -4.47384,      -3.94458,   1.69145E-03
C:/temp/dataset/9/2_5.odb,Step-1,Increment      1: Step Time =    1.000,"PART-1-1",           598,      -13.4062,       15.6218,            0.,NA,NA,"",       6.11486,      -4.44945,      -4.19451,   855.649E-06
C:/temp/dataset/9/2_5.odb,Step-1,Increment      1: Step Time =    1.000,"PART-1-1",           599,      -12.4316,       14.7766,            0.,NA,NA,"",       5.91502,      -4.32947,      -4.03028,   1.26854E-03
C:/temp/dataset/9/2_5.odb,Step-1,Increment      1: Step Time =    1.000,"PART-1-1",           600,      -5.72199,       20.2132,            0.,NA,NA,"",       6.06589,      -5.23767,      -3.05971,   6.18941E-03
C:/temp/dataset/9/2_5.odb,Step-1,Increment      1: Step Time =    1.000,"PART-1-1",           601,           -5.,         18.75,            0.,NA,NA,"",       5.81476,      -5.02470,      -2.92640,   5.28180E-03
C:/temp/dataset/9/2_5.odb,Step-1,Increment      1: Step Time =    1.000,"PART-1-1",           602,          -15.,       15.7813,            0.,NA,NA,"",       6.29376,      -4.45473,      -4.44599,   269.824E-06
C:/temp/dataset/9/2_5.odb,Step-1,Increment      1: Step Time =    1.000,"PART-1-1",           603,      -10.4105,       16.7429,            0.,NA,NA,"",       5.97359,      -4.65901,      -3.73864,   2.39655E-03
C:/temp/dataset/9/2_5.odb,Step-1,Increment      1: Step Time =    1.000,"PART-1-1",           604,      -12.1928,       12.6381,            0.,NA,NA,"",       5.62980,      -3.99721,      -3.96445,   1.18680E-03
C:/temp/dataset/9/2_5.odb,Step-1,Increment      1: Step Time =    1.000,"PART-1-1",           605,      -12.0987,       10.4443,            0.,NA,NA,"",       5.35742,      -3.65130,      -3.92046,   988.369E-06
C:/temp/dataset/9/2_5.odb,Step-1,Increment      1: Step Time =    1.000,"PART-1-1",           606,      -7.50325,       4.80693,            0.,NA,NA,"",       4.16872,      -2.80082,      -3.08765,   3.53290E-03
C:/temp/dataset/9/2_5.odb,Step-1,Increment      1: Step Time =    1.000,"PART-1-1",           607,      -9.63824,       5.46172,            0.,NA,NA,"",       4.49438,      -2.87990,      -3.45046,   1.77302E-03
C:/temp/dataset/9/2_5.odb,Step-1,Increment      1: Step Time =    1.000,"PART-1-1",           608,      -8.81234,       4.25317,            0.,NA,NA,"",       4.25561,      -2.69221,      -3.29579,   2.34114E-03
C:/temp/dataset/9/2_5.odb,Step-1,Increment      1: Step Time =    1.000,"PART-1-1",           609,          -15.,      -1.71875,            0.,NA,NA,"",       4.53376,      -1.61237,      -4.23736,   455.682E-06
C:/temp/dataset/9/2_5.odb,Step-1,Increment      1: Step Time =    1.000,"PART-1-1",           610,      -12.5835,      -1.75493,            0.,NA,NA,"",       4.16970,      -1.64045,      -3.83344,   566.359E-06
C:/temp/dataset/9/2_5.odb,Step-1,Increment      1: Step Time =    1.000,"PART-1-1",           611,        -11.25,           -5.,            0.,NA,NA,"",       3.73493,      -1.11539,      -3.56449,   471.649E-06
C:/temp/dataset/9/2_5.odb,Step-1,Increment      1: Step Time =    1.000,"PART-1-1",           612,      -10.0144,      -3.91217,            0.,NA,NA,"",       3.62026,      -1.31458,      -3.37316,   462.306E-06
C:/temp/dataset/9/2_5.odb,Step-1,Increment      1: Step Time =    1.000,"PART-1-1",           613,      -11.2827,      -2.82422,            0.,NA,NA,"",       3.89311,      -1.47938,      -3.60108,   358.216E-06
C:/temp/dataset/9/2_5.odb,Step-1,Increment      1: Step Time =    1.000,"PART-1-1",           614,         -8.75,           -5.,            0.,NA,NA,"",       3.34841,      -1.14931,      -3.14499,   570.154E-06
C:/temp/dataset/9/2_5.odb,Step-1,Increment      1: Step Time =    1.000,"PART-1-1",           615,      -7.54904,      -4.01671,            0.,NA,NA,"",       3.24264,      -1.33158,      -2.95662,   558.846E-06
C:/temp/dataset/9/2_5.odb,Step-1,Increment      1: Step Time =    1.000,"PART-1-1",           616,      -8.81345,      -2.92887,            0.,NA,NA,"",       3.51945,      -1.49624,      -3.18556,   508.894E-06
C:/temp/dataset/9/2_5.odb,Step-1,Increment      1: Step Time =    1.000,"PART-1-1",           617,  -969.738E-03,       22.2544,            0.,NA,NA,"",       6.06592,      -5.59656,      -2.33965,   3.69317E-03
C:/temp/dataset/9/2_5.odb,Step-1,Increment      1: Step Time =    1.000,"PART-1-1",           618,      -2.31964,       21.1016,            0.,NA,NA,"",       5.96757,      -5.39917,      -2.54183,   5.67192E-03
C:/temp/dataset/9/2_5.odb,Step-1,Increment      1: Step Time =    1.000,"PART-1-1",           619,         -1.25,           20.,            0.,NA,NA,"",       5.73357,      -5.22978,      -2.35017,   7.25268E-03
C:/temp/dataset/9/2_5.odb,Step-1,Increment      1: Step Time =    1.000,"PART-1-1",           620,         -1.25,           30.,            0.,NA,NA,"",       7.29155,      -6.84837,      -2.50330,   6.07722E-03
C:/temp/dataset/9/2_5.odb,Step-1,Increment      1: Step Time =    1.000,"PART-1-1",           621,      -1.44357,       27.1449,            0.,NA,NA,"",       6.84798,      -6.37906,      -2.49047,   3.40212E-03
C:/temp/dataset/9/2_5.odb,Step-1,Increment      1: Step Time =    1.000,"PART-1-1",           622,      -4.58492,       21.1383,            0.,NA,NA,"",       6.11819,      -5.38684,      -2.90073,   5.49557E-03
C:/temp/dataset/9/2_5.odb,Step-1,Increment      1: Step Time =    1.000,"PART-1-1",           623,         -3.75,           20.,            0.,NA,NA,"",       5.89781,      -5.21574,      -2.75321,   8.02116E-03
C:/temp/dataset/9/2_5.odb,Step-1,Increment      1: Step Time =    1.000,"PART-1-1",           624,      -3.15456,       22.2398,            0.,NA,NA,"",       6.18935,      -5.57299,      -2.69256,   3.50654E-03
C:/temp/dataset/9/2_5.odb,Step-1,Increment      1: Step Time =    1.000,"PART-1-1",           625,      -11.2479,       22.4027,            0.,NA,NA,"",       6.79121,      -5.52531,      -3.94861,   2.25877E-03
C:/temp/dataset/9/2_5.odb,Step-1,Increment      1: Step Time =    1.000,"PART-1-1",           626,      -10.3888,       20.8027,            0.,NA,NA,"",       6.50628,      -5.28646,      -3.79276,   2.69738E-03
C:/temp/dataset/9/2_5.odb,Step-1,Increment      1: Step Time =    1.000,"PART-1-1",           627,       9.41561,      -24.6142,            0.,NA,NA,"",   54.3641E-03,  -45.7100E-03,  -29.4286E-03,   6.70064E-03
C:/temp/dataset/9/2_5.odb,Step-1,Increment      1: Step Time =    1.000,"PART-1-1",           628,           15.,        -16.25,            0.,NA,NA,"",   522.921E-03,  -442.543E-03,   278.572E-03,   25.5013E-03
C:/temp/dataset/9/2_5.odb,Step-1,Increment      1: Step Time =    1.000,"PART-1-1",           629,       13.1096,      -16.2411,            0.,NA,NA,"",   450.115E-03,  -422.188E-03,   156.078E-03,   14.5996E-03
C:/temp/dataset/9/2_5.odb,Step-1,Increment      1: Step Time =    1.000,"PART-1-1",           630,           15.,          3.75,            0.,NA,NA,"",       2.87028,      -2.82466,   509.696E-03,   6.99342E-03
C:/temp/dataset/9/2_5.odb,Step-1,Increment      1: Step Time =    1.000,"PART-1-1",           631,       14.0093,       5.06690,            0.,NA,NA,"",       3.03340,      -3.01307,   350.640E-03,   4.65276E-03
C:/temp/dataset/9/2_5.odb,Step-1,Increment      1: Step Time =    1.000,"PART-1-1",           632,       12.9168,       3.88721,            0.,NA,NA,"",       2.82412,      -2.81732,   195.891E-03,   4.64717E-03
C:/temp/dataset/9/2_5.odb,Step-1,Increment      1: Step Time =    1.000,"PART-1-1",           633,       12.6026,       11.0965,            0.,NA,NA,"",       3.93680,      -3.93606,   76.2146E-03,   1.98404E-03
C:/temp/dataset/9/2_5.odb,Step-1,Increment      1: Step Time =    1.000,"PART-1-1",           634,           15.,         11.25,            0.,NA,NA,"",       4.01968,      -3.99404,   453.284E-03,   4.47476E-03
C:/temp/dataset/9/2_5.odb,Step-1,Increment      1: Step Time =    1.000,"PART-1-1",           635,       12.4669,       18.7361,            0.,NA,NA,"",       5.17607,      -5.17593,  -38.2496E-03,   1.35737E-03
C:/temp/dataset/9/2_5.odb,Step-1,Increment      1: Step Time =    1.000,"PART-1-1",           636,           15.,         18.75,            0.,NA,NA,"",       5.22818,      -5.21450,   377.928E-03,   2.43311E-03
C:/temp/dataset/9/2_5.odb,Step-1,Increment      1: Step Time =    1.000,"PART-1-1",           637,           15.,         26.25,            0.,NA,NA,"",       6.47202,      -6.46593,   280.811E-03,   295.165E-06
C:/temp/dataset/9/2_5.odb,Step-1,Increment      1: Step Time =    1.000,"PART-1-1",           638,          8.75,           30.,            0.,NA,NA,"",       7.05353,      -7.00606,  -816.920E-03,   230.552E-06
C:/temp/dataset/9/2_5.odb,Step-1,Increment      1: Step Time =    1.000,"PART-1-1",           639,       8.74802,       27.8391,            0.,NA,NA,"",       6.69076,      -6.64438,  -786.488E-03,   343.437E-06
C:/temp/dataset/9/2_5.odb,Step-1,Increment      1: Step Time =    1.000,"PART-1-1",           640,       11.0691,       22.4572,            0.,NA,NA,"",       5.78553,      -5.77664,  -320.531E-03,   1.12276E-03
C:/temp/dataset/9/2_5.odb,Step-1,Increment      1: Step Time =    1.000,"PART-1-1",           641,       11.1947,       19.9658,            0.,NA,NA,"",       5.36925,      -5.36276,  -263.898E-03,   1.35182E-03
C:/temp/dataset/9/2_5.odb,Step-1,Increment      1: Step Time =    1.000,"PART-1-1",           642,          3.75,           30.,            0.,NA,NA,"",       7.12896,      -6.93363,      -1.65735,   1.39864E-03
C:/temp/dataset/9/2_5.odb,Step-1,Increment      1: Step Time =    1.000,"PART-1-1",           643,       6.12801,       21.9878,            0.,NA,NA,"",       5.74981,      -5.63611,      -1.13783,   4.04497E-03
C:/temp/dataset/9/2_5.odb,Step-1,Increment      1: Step Time =    1.000,"PART-1-1",           644,       7.06684,       23.0702,            0.,NA,NA,"",       5.91225,      -5.82753,  -997.309E-03,   2.76458E-03
C:/temp/dataset/9/2_5.odb,Step-1,Increment      1: Step Time =    1.000,"PART-1-1",           645,       4.97038,       22.7185,            0.,NA,NA,"",       5.89908,      -5.74330,      -1.34674,   4.03563E-03
C:/temp/dataset/9/2_5.odb,Step-1,Increment      1: Step Time =    1.000,"PART-1-1",           646,          3.75,           20.,            0.,NA,NA,"",       5.48666,      -5.27409,      -1.51243,   3.68829E-03
C:/temp/dataset/9/2_5.odb,Step-1,Increment      1: Step Time =    1.000,"PART-1-1",           647,       4.96897,       20.9583,            0.,NA,NA,"",       5.60814,      -5.45127,      -1.31714,   4.82486E-03
C:/temp/dataset/9/2_5.odb,Step-1,Increment      1: Step Time =    1.000,"PART-1-1",           648,       3.78616,       22.0655,            0.,NA,NA,"",       5.82740,      -5.62069,      -1.53833,   4.10767E-03
C:/temp/dataset/9/2_5.odb,Step-1,Increment      1: Step Time =    1.000,"PART-1-1",           649,           -5.,         13.75,            0.,NA,NA,"",       5.11363,      -4.25185,      -2.84094,   5.86132E-03
C:/temp/dataset/9/2_5.odb,Step-1,Increment      1: Step Time =    1.000,"PART-1-1",           650,      -7.15256,       14.0792,            0.,NA,NA,"",       5.33649,      -4.28124,      -3.18577,   4.27739E-03
C:/temp/dataset/9/2_5.odb,Step-1,Increment      1: Step Time =    1.000,"PART-1-1",           651,      -9.70164,       19.1500,            0.,NA,NA,"",       6.22858,      -5.03852,      -3.66176,   2.99856E-03
C:/temp/dataset/9/2_5.odb,Step-1,Increment      1: Step Time =    1.000,"PART-1-1",           652,      -9.13060,       21.5024,            0.,NA,NA,"",       6.50045,      -5.40728,      -3.60794,   3.75809E-03
C:/temp/dataset/9/2_5.odb,Step-1,Increment      1: Step Time =    1.000,"PART-1-1",           653,         -1.25,           -5.,            0.,NA,NA,"",       2.26158,      -1.26737,      -1.87311,   4.67255E-03
C:/temp/dataset/9/2_5.odb,Step-1,Increment      1: Step Time =    1.000,"PART-1-1",           654,      -1.47244,      -2.77860,            0.,NA,NA,"",       2.53659,      -1.63628,      -1.93827,   5.27506E-03
C:/temp/dataset/9/2_5.odb,Step-1,Increment      1: Step Time =    1.000,"PART-1-1",           655,      -9.96758,      -1.61086,            0.,NA,NA,"",       3.80040,      -1.70086,      -3.39855,   591.882E-06
C:/temp/dataset/9/2_5.odb,Step-1,Increment      1: Step Time =    1.000,"PART-1-1",           656,      -6.37223,      -3.07632,            0.,NA,NA,"",       3.15376,      -1.50670,      -2.77057,   1.71931E-03
C:/temp/dataset/9/2_5.odb,Step-1,Increment      1: Step Time =    1.000,"PART-1-1",           657,         -6.25,           -5.,            0.,NA,NA,"",       2.96892,      -1.18434,      -2.72247,   259.084E-06
C:/temp/dataset/9/2_5.odb,Step-1,Increment      1: Step Time =    1.000,"PART-1-1",           658,         -3.75,            5.,            0.,NA,NA,"",       3.78143,      -2.88675,      -2.44253,   3.38033E-03
C:/temp/dataset/9/2_5.odb,Step-1,Increment      1: Step Time =    1.000,"PART-1-1",           659,      -5.11170,       4.23117,            0.,NA,NA,"",       3.82430,      -2.73485,      -2.67317,   7.59464E-03
C:/temp/dataset/9/2_5.odb,Step-1,Increment      1: Step Time =    1.000,"PART-1-1",           660,      -3.95473,       3.29190,            0.,NA,NA,"",       3.56932,      -2.59358,      -2.45222,   6.47193E-03
C:/temp/dataset/9/2_5.odb,Step-1,Increment      1: Step Time =    1.000,"PART-1-1",           661,          3.75,           -5.,            0.,NA,NA,"",       1.71681,      -1.37880,      -1.02292,   21.4074E-03
C:/temp/dataset/9/2_5.odb,Step-1,Increment      1: Step Time =    1.000,"PART-1-1",           662,       4.69008,      -3.66648,            0.,NA,NA,"",       1.83521,      -1.61606,  -869.673E-03,   23.3182E-03
C:/temp/dataset/9/2_5.odb,Step-1,Increment      1: Step Time =    1.000,"PART-1-1",           663,       4.69636,       3.71818,            0.,NA,NA,"",       2.92411,      -2.74061,      -1.01957,   10.1689E-03
C:/temp/dataset/9/2_5.odb,Step-1,Increment      1: Step Time =    1.000,"PART-1-1",           664,          3.75,            5.,            0.,NA,NA,"",       3.16186,      -2.93158,      -1.18456,   13.2972E-03
C:/temp/dataset/9/2_5.odb,Step-1,Increment      1: Step Time =    1.000,"PART-1-1",           665,       8.42013,       25.7200,            0.,NA,NA,"",       6.33820,      -6.28614,  -810.742E-03,   986.126E-06
C:/temp/dataset/9/2_5.odb,Step-1,Increment      1: Step Time =    1.000,"PART-1-1",           666,       7.55622,       27.1849,            0.,NA,NA,"",       6.59129,      -6.51846,  -977.159E-03,   891.582E-06
C:/temp/dataset/9/2_5.odb,Step-1,Increment      1: Step Time =    1.000,"PART-1-1",           667,       6.61388,       26.0906,            0.,NA,NA,"",       6.42157,      -6.32316,      -1.11995,   1.69052E-03
C:/temp/dataset/9/2_5.odb,Step-1,Increment      1: Step Time =    1.000,"PART-1-1",           668,       10.0237,       13.5556,            0.,NA,NA,"",       4.31166,      -4.29631,  -363.515E-03,   1.59334E-03
C:/temp/dataset/9/2_5.odb,Step-1,Increment      1: Step Time =    1.000,"PART-1-1",           669,       8.80148,       12.2659,            0.,NA,NA,"",       4.11042,      -4.07492,  -539.067E-03,   2.77287E-03
C:/temp/dataset/9/2_5.odb,Step-1,Increment      1: Step Time =    1.000,"PART-1-1",           670,            5.,          6.25,            0.,NA,NA,"",       3.26989,      -3.10544,      -1.02392,   10.1519E-03
C:/temp/dataset/9/2_5.odb,Step-1,Increment      1: Step Time =    1.000,"PART-1-1",           671,       5.87545,       4.76801,            0.,NA,NA,"",       3.02400,      -2.89716,  -866.604E-03,   11.1805E-03
C:/temp/dataset/9/2_5.odb,Step-1,Increment      1: Step Time =    1.000,"PART-1-1",           672,       6.93940,       5.78737,            0.,NA,NA,"",       3.13715,      -3.05220,  -725.121E-03,   6.73589E-03
C:/temp/dataset/9/2_5.odb,Step-1,Increment      1: Step Time =    1.000,"PART-1-1",           673,       7.73520,       4.18036,            0.,NA,NA,"",       2.87565,      -2.81716,  -577.045E-03,   8.61081E-03
C:/temp/dataset/9/2_5.odb,Step-1,Increment      1: Step Time =    1.000,"PART-1-1",           674,       6.49581,       3.34316,            0.,NA,NA,"",       2.78853,      -2.68710,  -745.270E-03,   11.7488E-03
C:/temp/dataset/9/2_5.odb,Step-1,Increment      1: Step Time =    1.000,"PART-1-1",           675,       7.18979,       1.82766,            0.,NA,NA,"",       2.53476,      -2.45967,  -612.393E-03,   11.3063E-03
C:/temp/dataset/9/2_5.odb,Step-1,Increment      1: Step Time =    1.000,"PART-1-1",           676,       8.42918,       2.66485,            0.,NA,NA,"",       2.62998,      -2.59171,  -447.062E-03,   9.25181E-03
C:/temp/dataset/9/2_5.odb,Step-1,Increment      1: Step Time =    1.000,"PART-1-1",           677,  -530.051E-03,       1.39108,            0.,NA,NA,"",       2.96233,      -2.32890,      -1.83075,   6.06265E-03
C:/temp/dataset/9/2_5.odb,Step-1,Increment      1: Step Time =    1.000,"PART-1-1",           678,      -10.1792,       3.73358,            0.,NA,NA,"",       4.36412,      -2.58831,      -3.51371,   1.39528E-03
C:/temp/dataset/9/2_5.odb,Step-1,Increment      1: Step Time =    1.000,"PART-1-1",           679,      -9.26781,       2.30942,            0.,NA,NA,"",       4.09265,      -2.36412,      -3.34077,   1.84950E-03
C:/temp/dataset/9/2_5.odb,Step-1,Increment      1: Step Time =    1.000,"PART-1-1",           680,      -7.90097,       2.82902,            0.,NA,NA,"",       3.97886,      -2.46802,      -3.12093,   3.12411E-03
C:/temp/dataset/9/2_5.odb,Step-1,Increment      1: Step Time =    1.000,"PART-1-1",           681,      -2.90861,       2.25641,            0.,NA,NA,"",       3.31881,      -2.43705,      -2.25285,   6.37727E-03
C:/temp/dataset/9/2_5.odb,Step-1,Increment      1: Step Time =    1.000,"PART-1-1",           682,      -1.97153,   737.020E-03,            0.,NA,NA,"",       3.02194,      -2.20256,      -2.06902,   6.60311E-03
C:/temp/dataset/9/2_5.odb,Step-1,Increment      1: Step Time =    1.000,"PART-1-1",           683,      -12.0057,       8.33468,            0.,NA,NA,"",       5.10125,      -3.31492,      -3.87737,   677.236E-06
C:/temp/dataset/9/2_5.odb,Step-1,Increment      1: Step Time =    1.000,"PART-1-1",           684,   257.111E-03,       23.5381,            0.,NA,NA,"",       6.20464,      -5.81803,      -2.15593,   3.25041E-03
C:/temp/dataset/9/2_5.odb,Step-1,Increment      1: Step Time =    1.000,"PART-1-1",           685,       2.92443,       23.5127,            0.,NA,NA,"",       6.09190,      -5.84786,      -1.70697,   3.73326E-03
C:/temp/dataset/9/2_5.odb,Step-1,Increment      1: Step Time =    1.000,"PART-1-1",           686,  -872.814E-03,       24.6452,            0.,NA,NA,"",       6.43150,      -5.98322,      -2.35910,   2.63995E-03
C:/temp/dataset/9/2_5.odb,Step-1,Increment      1: Step Time =    1.000,"PART-1-1",           687,      -2.49287,       25.7554,            0.,NA,NA,"",       6.68544,      -6.14206,      -2.64013,   2.86267E-03
C:/temp/dataset/9/2_5.odb,Step-1,Increment      1: Step Time =    1.000,"PART-1-1",           688,      -6.57000,       23.0679,            0.,NA,NA,"",       6.53245,      -5.67369,      -3.23761,   5.34479E-03
C:/temp/dataset/9/2_5.odb,Step-1,Increment      1: Step Time =    1.000,"PART-1-1",           689,      -7.77911,       22.2181,            0.,NA,NA,"",       6.49747,      -5.53063,      -3.41017,   4.74378E-03
C:/temp/dataset/9/2_5.odb,Step-1,Increment      1: Step Time =    1.000,"PART-1-1",           690,      -6.08757,       21.5970,            0.,NA,NA,"",       6.28746,      -5.44771,      -3.13920,   6.03459E-03
C:/temp/dataset/9/2_5.odb,Step-1,Increment      1: Step Time =    1.000,"PART-1-1",           691,      -10.6596,       24.7502,            0.,NA,NA,"",       7.06451,      -5.89673,      -3.89050,   2.40588E-03
C:/temp/dataset/9/2_5.odb,Step-1,Increment      1: Step Time =    1.000,"PART-1-1",           692,      -8.94190,       25.0911,            0.,NA,NA,"",       6.98698,      -5.96851,      -3.63246,   3.59007E-03
C:/temp/dataset/9/2_5.odb,Step-1,Increment      1: Step Time =    1.000,"PART-1-1",           693,      -9.30563,       26.3338,            0.,NA,NA,"",       7.18743,      -6.15883,      -3.70513,   3.04222E-03
C:/temp/dataset/9/2_5.odb,Step-1,Increment      1: Step Time =    1.000,"PART-1-1",           694,      -11.0233,       25.9928,            0.,NA,NA,"",       7.26231,      -6.08594,      -3.96264,   1.86701E-03
C:/temp/dataset/9/2_5.odb,Step-1,Increment      1: Step Time =    1.000,"PART-1-1",           695,      -9.11986,       17.2561,            0.,NA,NA,"",       5.92829,      -4.75281,      -3.54336,   3.02897E-03
C:/temp/dataset/9/2_5.odb,Step-1,Increment      1: Step Time =    1.000,"PART-1-1",           696,      -11.0116,       7.65423,            0.,NA,NA,"",       4.90891,      -3.21825,      -3.70679,   1.20096E-03
C:/temp/dataset/9/2_5.odb,Step-1,Increment      1: Step Time =    1.000,"PART-1-1",           697,      -11.6541,       6.30856,            0.,NA,NA,"",       4.83046,      -2.99139,      -3.79274,   517.960E-06
C:/temp/dataset/9/2_5.odb,Step-1,Increment      1: Step Time =    1.000,"PART-1-1",           698,      -3.46647,   792.949E-03,            0.,NA,NA,"",       3.19612,      -2.18975,      -2.32813,   6.20090E-03
C:/temp/dataset/9/2_5.odb,Step-1,Increment      1: Step Time =    1.000,"PART-1-1",           699,      -4.27899,       1.61468,            0.,NA,NA,"",       3.39232,      -2.31314,      -2.48137,   6.16123E-03
C:/temp/dataset/9/2_5.odb,Step-1,Increment      1: Step Time =    1.000,"PART-1-1",           700,      -5.41602,       1.03976,            0.,NA,NA,"",       3.46053,      -2.20326,      -2.66851,   5.03963E-03
C:/temp/dataset/9/2_5.odb,Step-1,Increment      1: Step Time =    1.000,"PART-1-1",           701,      -4.60351,   218.037E-03,            0.,NA,NA,"",       3.26388,      -2.07921,      -2.51591,   5.09630E-03
C:/temp/dataset/9/2_5.odb,Step-1,Increment      1: Step Time =    1.000,"PART-1-1",           702,      -1.96165,  -510.209E-03,            0.,NA,NA,"",       2.86439,      -1.99994,      -2.05060,   5.95853E-03
C:/temp/dataset/9/2_5.odb,Step-1,Increment      1: Step Time =    1.000,"PART-1-1",           703,      -2.89723,      -2.02996,            0.,NA,NA,"",       2.79533,      -1.73551,      -2.19131,   4.66645E-03
C:/temp/dataset/9/2_5.odb,Step-1,Increment      1: Step Time =    1.000,"PART-1-1",           704,       6.46823,      -3.22891,            0.,NA,NA,"",       1.79966,      -1.69375,  -608.257E-03,   15.1745E-03
C:/temp/dataset/9/2_5.odb,Step-1,Increment      1: Step Time =    1.000,"PART-1-1",           705,       5.30305,      -2.18626,            0.,NA,NA,"",       2.01169,      -1.84202,  -808.606E-03,   13.3622E-03
C:/temp/dataset/9/2_5.odb,Step-1,Increment      1: Step Time =    1.000,"PART-1-1",           706,       8.11637,      -13.0290,            0.,NA,NA,"",   679.924E-03,  -642.059E-03,  -223.736E-03,   14.4788E-03
C:/temp/dataset/9/2_5.odb,Step-1,Increment      1: Step Time =    1.000,"PART-1-1",           707,       8.09759,      -10.8135,            0.,NA,NA,"",   873.648E-03,  -833.187E-03,  -262.793E-03,   14.6083E-03
C:/temp/dataset/9/2_5.odb,Step-1,Increment      1: Step Time =    1.000,"PART-1-1",           708,           15.,        -26.25,            0.,NA,NA,"",   79.8844E-03,  -38.0460E-03,   70.2426E-03,   22.6362E-03
C:/temp/dataset/9/2_5.odb,Step-1,Increment      1: Step Time =    1.000,"PART-1-1",           709,       13.6129,      -24.9005,            0.,NA,NA,"",   84.3350E-03,  -50.4702E-03,   67.5659E-03,   15.9405E-03
C:/temp/dataset/9/2_5.odb,Step-1,Increment      1: Step Time =    1.000,"PART-1-1",           710,       12.3352,      -26.1538,            0.,NA,NA,"",   35.0097E-03,  -19.8960E-03,   28.8067E-03,   9.24699E-03
C:/temp/dataset/9/2_5.odb,Step-1,Increment      1: Step Time =    1.000,"PART-1-1",           711,       11.5115,      -24.0900,            0.,NA,NA,"",   63.1772E-03,  -58.5872E-03,   23.6410E-03,   4.92053E-03
C:/temp/dataset/9/2_5.odb,Step-1,Increment      1: Step Time =    1.000,"PART-1-1",           712,       12.5793,      -23.4990,            0.,NA,NA,"",   97.4003E-03,  -78.7180E-03,   57.3610E-03,   10.7327E-03
C:/temp/dataset/9/2_5.odb,Step-1,Increment      1: Step Time =    1.000,"PART-1-1",           713,       11.9958,      -21.9645,            0.,NA,NA,"",   134.745E-03,  -125.182E-03,   49.8571E-03,   7.67680E-03
C:/temp/dataset/9/2_5.odb,Step-1,Increment      1: Step Time =    1.000,"PART-1-1",           714,           15.,        -23.75,            0.,NA,NA,"",   151.927E-03,  -91.2651E-03,   121.460E-03,   23.5300E-03
C:/temp/dataset/9/2_5.odb,Step-1,Increment      1: Step Time =    1.000,"PART-1-1",           715,       11.0775,      -9.24199,            0.,NA,NA,"",   995.941E-03,  -995.796E-03,   16.9900E-03,   4.03428E-03
C:/temp/dataset/9/2_5.odb,Step-1,Increment      1: Step Time =    1.000,"PART-1-1",           716,       10.0590,      -8.23408,            0.,NA,NA,"",       1.09916,      -1.09505,  -94.8758E-03,   2.35156E-03
C:/temp/dataset/9/2_5.odb,Step-1,Increment      1: Step Time =    1.000,"PART-1-1",           717,       9.08966,      -9.54059,            0.,NA,NA,"",   972.692E-03,  -955.099E-03,  -184.163E-03,   8.08330E-03
C:/temp/dataset/9/2_5.odb,Step-1,Increment      1: Step Time =    1.000,"PART-1-1",           718,           15.,         -1.25,            0.,NA,NA,"",       2.13522,      -2.07122,   518.851E-03,   15.7038E-03
C:/temp/dataset/9/2_5.odb,Step-1,Increment      1: Step Time =    1.000,"PART-1-1",           719,       12.7047,      -1.36075,            0.,NA,NA,"",       2.03047,      -2.02057,   200.280E-03,   10.4146E-03
C:/temp/dataset/9/2_5.odb,Step-1,Increment      1: Step Time =    1.000,"PART-1-1",           720,       10.4122,      -1.52824,            0.,NA,NA,"",       1.97422,      -1.97141,  -105.319E-03,   9.32622E-03
C:/temp/dataset/9/2_5.odb,Step-1,Increment      1: Step Time =    1.000,"PART-1-1",           721,       11.7321,      -2.88547,            0.,NA,NA,"",       1.78992,      -1.78821,   78.2255E-03,   10.0139E-03
C:/temp/dataset/9/2_5.odb,Step-1,Increment      1: Step Time =    1.000,"PART-1-1",           722,       13.0447,       6.32641,            0.,NA,NA,"",       3.20058,      -3.19474,   193.227E-03,   3.27721E-03
C:/temp/dataset/9/2_5.odb,Step-1,Increment      1: Step Time =    1.000,"PART-1-1",           723,           15.,          6.25,            0.,NA,NA,"",       3.24728,      -3.20960,   493.217E-03,   5.40306E-03
C:/temp/dataset/9/2_5.odb,Step-1,Increment      1: Step Time =    1.000,"PART-1-1",           724,       12.2773,       7.44357,            0.,NA,NA,"",       3.35876,      -3.35813,   64.6976E-03,   1.98536E-03
C:/temp/dataset/9/2_5.odb,Step-1,Increment      1: Step Time =    1.000,"PART-1-1",           725,       11.3989,       9.46443,            0.,NA,NA,"",       3.66390,      -3.66270,  -93.6530E-03,   999.460E-06
C:/temp/dataset/9/2_5.odb,Step-1,Increment      1: Step Time =    1.000,"PART-1-1",           726,       10.0696,       10.6576,            0.,NA,NA,"",       3.84742,      -3.83440,  -316.271E-03,   1.43678E-03
C:/temp/dataset/9/2_5.odb,Step-1,Increment      1: Step Time =    1.000,"PART-1-1",           727,       11.2733,       12.2896,            0.,NA,NA,"",       4.11153,      -4.10886,  -147.878E-03,   966.046E-06
C:/temp/dataset/9/2_5.odb,Step-1,Increment      1: Step Time =    1.000,"PART-1-1",           728,       11.2495,       14.9235,            0.,NA,NA,"",       4.53713,      -4.53332,  -185.751E-03,   1.05389E-03
C:/temp/dataset/9/2_5.odb,Step-1,Increment      1: Step Time =    1.000,"PART-1-1",           729,       11.2365,       17.4638,            0.,NA,NA,"",       4.95391,      -4.94893,  -222.097E-03,   1.22913E-03
C:/temp/dataset/9/2_5.odb,Step-1,Increment      1: Step Time =    1.000,"PART-1-1",           730,       9.96430,       18.6935,            0.,NA,NA,"",       5.15471,      -5.13526,  -447.347E-03,   1.73060E-03
C:/temp/dataset/9/2_5.odb,Step-1,Increment      1: Step Time =    1.000,"PART-1-1",           731,       8.12949,      -15.2371,            0.,NA,NA,"",   512.456E-03,  -476.702E-03,  -188.058E-03,   14.2074E-03
C:/temp/dataset/9/2_5.odb,Step-1,Increment      1: Step Time =    1.000,"PART-1-1",           732,       10.9896,      -6.85237,            0.,NA,NA,"",       1.25969,      -1.25969,   1.56430E-03,   5.52653E-03
C:/temp/dataset/9/2_5.odb,Step-1,Increment      1: Step Time =    1.000,"PART-1-1",           733,       10.9332,      -25.1906,            0.,NA,NA,"",   33.3426E-03,  -32.6377E-03,   6.81980E-03,   1.99544E-03
C:/temp/dataset/9/2_5.odb,Step-1,Increment      1: Step Time =    1.000,"PART-1-1",           734,       11.9281,      -5.46067,            0.,NA,NA,"",       1.44606,      -1.44197,   108.787E-03,   10.0169E-03
C:/temp/dataset/9/2_5.odb,Step-1,Increment      1: Step Time =    1.000,"PART-1-1",           735,      -11.5697,       3.18107,            0.,NA,NA,"",       4.48244,      -2.47811,      -3.73513,   714.486E-06
C:/temp/dataset/9/2_5.odb,Step-1,Increment      1: Step Time =    1.000,"PART-1-1",           736,      -10.7341,       2.09613,            0.,NA,NA,"",       4.26111,      -2.30921,      -3.58115,   1.08246E-03
C:/temp/dataset/9/2_5.odb,Step-1,Increment      1: Step Time =    1.000,"PART-1-1",           737,      -6.76822,       1.80268,            0.,NA,NA,"",       3.71838,      -2.31182,      -2.91236,   4.08616E-03
C:/temp/dataset/9/2_5.odb,Step-1,Increment      1: Step Time =    1.000,"PART-1-1",           738,      -5.32511,       2.65016,            0.,NA,NA,"",       3.64457,      -2.47006,      -2.67988,   6.29955E-03
C:/temp/dataset/9/2_5.odb,Step-1,Increment      1: Step Time =    1.000,"PART-1-1",           739,      -6.45786,       3.67650,            0.,NA,NA,"",       3.90740,      -2.62671,      -2.89278,   5.28632E-03
C:/temp/dataset/9/2_5.odb,Step-1,Increment      1: Step Time =    1.000,"PART-1-1",           740,      -10.1618,       27.4009,            0.,NA,NA,"",       7.39525,      -6.31472,      -3.84891,   1.87775E-03
C:/temp/dataset/9/2_5.odb,Step-1,Increment      1: Step Time =    1.000,"PART-1-1",           741,      -8.15950,       27.0742,            0.,NA,NA,"",       7.21628,      -6.28764,      -3.54123,   3.88636E-03
C:/temp/dataset/9/2_5.odb,Step-1,Increment      1: Step Time =    1.000,"PART-1-1",           742,      -8.41457,       23.7439,            0.,NA,NA,"",       6.75906,      -5.76291,      -3.53181,   4.21032E-03
C:/temp/dataset/9/2_5.odb,Step-1,Increment      1: Step Time =    1.000,"PART-1-1",           743,      -9.76606,       23.0282,            0.,NA,NA,"",       6.75954,      -5.63798,      -3.72889,   3.13297E-03
C:/temp/dataset/9/2_5.odb,Step-1,Increment      1: Step Time =    1.000,"PART-1-1",           744,      -10.1457,       6.57799,            0.,NA,NA,"",       4.68394,      -3.05533,      -3.55025,   1.69220E-03
C:/temp/dataset/9/2_5.odb,Step-1,Increment      1: Step Time =    1.000,"PART-1-1",           745,      -11.1466,       5.19230,            0.,NA,NA,"",       4.64483,      -2.81565,      -3.69412,   749.307E-06
C:/temp/dataset/9/2_5.odb,Step-1,Increment      1: Step Time =    1.000,"PART-1-1",           746,       7.77017,   782.991E-03,            0.,NA,NA,"",       2.35803,      -2.30278,  -507.466E-03,   11.4146E-03
C:/temp/dataset/9/2_5.odb,Step-1,Increment      1: Step Time =    1.000,"PART-1-1",           747,       6.09501,       1.10589,            0.,NA,NA,"",       2.46555,      -2.34570,  -759.352E-03,   11.3427E-03
C:/temp/dataset/9/2_5.odb,Step-1,Increment      1: Step Time =    1.000,"PART-1-1",           748,       6.67539,   61.2235E-03,            0.,NA,NA,"",       2.28362,      -2.18862,  -651.805E-03,   11.5112E-03
C:/temp/dataset/9/2_5.odb,Step-1,Increment      1: Step Time =    1.000,"PART-1-1",           749,       5.31672,       2.29333,            0.,NA,NA,"",       2.67979,      -2.52433,  -899.477E-03,   10.4149E-03
C:/temp/dataset/9/2_5.odb,Step-1,Increment      1: Step Time =    1.000,"PART-1-1",           750,      -6.94695,       24.4689,            0.,NA,NA,"",       6.76091,      -5.89082,      -3.31786,   4.84140E-03
C:/temp/dataset/9/2_5.odb,Step-1,Increment      1: Step Time =    1.000,"PART-1-1",           751,      -2.09966,       23.3616,            0.,NA,NA,"",       6.29769,      -5.76264,      -2.54025,   3.01156E-03
C:/temp/dataset/9/2_5.odb,Step-1,Increment      1: Step Time =    1.000,"PART-1-1",           752,      -2.87591,       24.2478,            0.,NA,NA,"",       6.47607,      -5.89619,      -2.67851,   2.83601E-03
C:/temp/dataset/9/2_5.odb,Step-1,Increment      1: Step Time =    1.000,"PART-1-1",           753,       9.53974,       23.7363,            0.,NA,NA,"",       5.99953,      -5.97007,  -593.753E-03,   1.26671E-03
C:/temp/dataset/9/2_5.odb,Step-1,Increment      1: Step Time =    1.000,"PART-1-1",           754,      -5.22075,      -2.25347,            0.,NA,NA,"",       3.07376,      -1.66147,      -2.58602,   2.98134E-03
C:/temp/dataset/9/2_5.odb,Step-1,Increment      1: Step Time =    1.000,"PART-1-1",           755,      -7.55915,      -2.11026,            0.,NA,NA,"",       3.41184,      -1.65101,      -2.98577,   1.46674E-03
C:/temp/dataset/9/2_5.odb,Step-1,Increment      1: Step Time =    1.000,"PART-1-1",           756,      -4.20325,      -1.24540,            0.,NA,NA,"",       3.04727,      -1.84413,      -2.42592,   4.46541E-03
C:/temp/dataset/9/2_5.odb,Step-1,Increment      1: Step Time =    1.000,"PART-1-1",           757,       12.0426,       5.30937,            0.,NA,NA,"",       3.02593,      -3.02549,   51.3252E-03,   2.45859E-03
C:/temp/dataset/9/2_5.odb,Step-1,Increment      1: Step Time =    1.000,"PART-1-1",           758,      -8.17645,       12.8481,            0.,NA,NA,"",       5.26356,      -4.07760,      -3.32840,   3.74201E-03
C:/temp/dataset/9/2_5.odb,Step-1,Increment      1: Step Time =    1.000,"PART-1-1",           759,      -8.09554,       10.3784,            0.,NA,NA,"",       4.93403,      -3.68936,      -3.27616,   4.05436E-03
C:/temp/dataset/9/2_5.odb,Step-1,Increment      1: Step Time =    1.000,"PART-1-1",           760,      -8.33007,       15.6293,            0.,NA,NA,"",       5.64505,      -4.50974,      -3.39541,   3.35376E-03
C:/temp/dataset/9/2_5.odb,Step-1,Increment      1: Step Time =    1.000,"PART-1-1",           761,       12.1122,      -19.7356,            0.,NA,NA,"",   228.819E-03,  -218.179E-03,   68.9621E-03,   8.53645E-03
C:/temp/dataset/9/2_5.odb,Step-1,Increment      1: Step Time =    1.000,"PART-1-1",           762,       12.1388,      -17.4254,            0.,NA,NA,"",   351.590E-03,  -341.118E-03,   85.1675E-03,   8.91686E-03
C:/temp/dataset/9/2_5.odb,Step-1,Increment      1: Step Time =    1.000,"PART-1-1",           763,       12.0361,      -7.90801,            0.,NA,NA,"",       1.15502,      -1.14892,   118.611E-03,   9.60181E-03
C:/temp/dataset/9/2_5.odb,Step-1,Increment      1: Step Time =    1.000,"PART-1-1",           764,       12.0837,      -10.3075,            0.,NA,NA,"",   904.731E-03,  -897.188E-03,   116.586E-03,   9.28412E-03
C:/temp/dataset/9/2_5.odb,Step-1,Increment      1: Step Time =    1.000,"PART-1-1",           765,       12.1118,      -12.6921,            0.,NA,NA,"",   688.923E-03,  -680.194E-03,   109.320E-03,   9.15690E-03
C:/temp/dataset/9/2_5.odb,Step-1,Increment      1: Step Time =    1.000,"PART-1-1",           766,       12.1357,      -15.0700,            0.,NA,NA,"",   504.775E-03,  -494.982E-03,   98.9460E-03,   9.10322E-03
C:/temp/dataset/9/2_5.odb,Step-1,Increment      1: Step Time =    1.000,"PART-1-1",           767,      -8.71328,  -792.246E-03,            0.,NA,NA,"",       3.69884,      -1.85493,      -3.20010,   1.26906E-03
C:/temp/dataset/9/2_5.odb,Step-1,Increment      1: Step Time =    1.000,"PART-1-1",           768,      -7.47429,       25.8162,            0.,NA,NA,"",       6.99093,      -6.09776,      -3.41913,   4.39177E-03
C:/temp/dataset/9/2_5.odb,Step-1,Increment      1: Step Time =    1.000,"PART-1-1",           769,       9.13729,   756.201E-03,            0.,NA,NA,"",       2.32639,      -2.30534,  -312.182E-03,   9.65779E-03
C:/temp/dataset/9/2_5.odb,Step-1,Increment      1: Step Time =    1.000,"PART-1-1",           770,       7.76646,  -679.521E-03,            0.,NA,NA,"",       2.13534,      -2.08082,  -479.450E-03,   12.1098E-03
C:/temp/dataset/9/2_5.odb,Step-1,Increment      1: Step Time =    1.000,"PART-1-1",           771,       9.13358,  -706.311E-03,            0.,NA,NA,"",       2.10414,      -2.08418,  -289.128E-03,   10.6810E-03
C:/temp/dataset/9/2_5.odb,Step-1,Increment      1: Step Time =    1.000,"PART-1-1",           772,       7.17869,      -1.72980,            0.,NA,NA,"",       1.99472,      -1.91988,  -541.251E-03,   13.1874E-03
C:/temp/dataset/9/2_5.odb,Step-1,Increment      1: Step Time =    1.000,"PART-1-1",           773,       6.08762,  -989.051E-03,            0.,NA,NA,"",       2.14929,      -2.02642,  -716.300E-03,   12.8010E-03
C:/temp/dataset/9/2_5.odb,Step-1,Increment      1: Step Time =    1.000,"PART-1-1",           774,       8.06590,       24.5744,            0.,NA,NA,"",       6.14997,      -6.09053,  -853.003E-03,   1.66850E-03
C:/temp/dataset/9/2_5.odb,Step-1,Increment      1: Step Time =    1.000,"PART-1-1",           775,       7.69641,      -4.07963,            0.,NA,NA,"",       1.63844,      -1.58240,  -424.828E-03,   11.5199E-03
C:/temp/dataset/9/2_5.odb,Step-1,Increment      1: Step Time =    1.000,"PART-1-1",           776,       8.40687,      -2.58051,            0.,NA,NA,"",       1.83628,      -1.80120,  -357.195E-03,   11.3292E-03
C:/temp/dataset/9/2_5.odb,Step-1,Increment      1: Step Time =    1.000,"PART-1-1",           777,      -9.00797,   684.990E-03,            0.,NA,NA,"",       3.88651,      -2.09723,      -3.27210,   1.76437E-03
C:/temp/dataset/9/2_5.odb,Step-1,Increment      1: Step Time =    1.000,"PART-1-1",           778,       5.05143,   63.4436E-03,            0.,NA,NA,"",       2.35808,      -2.18108,  -896.335E-03,   9.37933E-03
C:/temp/dataset/9/2_5.odb,Step-1,Increment      1: Step Time =    1.000,"PART-1-1",           779,      -3.45659,  -454.281E-03,            0.,NA,NA,"",       3.04513,      -1.98571,      -2.30864,   5.47518E-03
C:/temp/dataset/9/2_5.odb,Step-1,Increment      1: Step Time =    1.000,"PART-1-1",           780,      -7.58605,   993.377E-03,            0.,NA,NA,"",       3.73151,      -2.16719,      -3.03767,   2.88236E-03
