ODB Name,Step,Frame,Part Instance Name,    êﬂì_ÉâÉxÉã,X,Y,Z,Section Name,Material Name,Section Point,   U-Magnitude,          U-U1,          U-U2,       S-Mises
C:/temp/dataset/9/30_8.odb,Step-1,Increment      4: Step Time =    1.000,"PART-1-1",             1,            5.,           20.,            0.,NA,NA,"",       18.1892,      -17.1737,      -5.99266,   10.1522E-03
C:/temp/dataset/9/30_8.odb,Step-1,Increment      4: Step Time =    1.000,"PART-1-1",             2,            0.,           20.,            0.,NA,NA,"",       18.6077,      -16.6633,      -8.28137,   6.88271E-03
C:/temp/dataset/9/30_8.odb,Step-1,Increment      4: Step Time =    1.000,"PART-1-1",             3,            5.,          12.5,            0.,NA,NA,"",       14.6058,      -13.6813,      -5.11404,   6.34945E-03
C:/temp/dataset/9/30_8.odb,Step-1,Increment      4: Step Time =    1.000,"PART-1-1",             4,            5.,            5.,            0.,NA,NA,"",       11.1325,      -10.3031,      -4.21635,   17.8040E-03
C:/temp/dataset/9/30_8.odb,Step-1,Increment      4: Step Time =    1.000,"PART-1-1",             5,            0.,            5.,            0.,NA,NA,"",       11.7891,      -9.84960,      -6.47832,   16.8548E-03
C:/temp/dataset/9/30_8.odb,Step-1,Increment      4: Step Time =    1.000,"PART-1-1",             6,           -5.,            5.,            0.,NA,NA,"",       12.8629,      -9.36194,      -8.82093,   18.5208E-03
C:/temp/dataset/9/30_8.odb,Step-1,Increment      4: Step Time =    1.000,"PART-1-1",             7,           -5.,          12.5,            0.,NA,NA,"",       16.1136,      -12.8343,      -9.74308,   9.72099E-03
C:/temp/dataset/9/30_8.odb,Step-1,Increment      4: Step Time =    1.000,"PART-1-1",             8,           -5.,           20.,            0.,NA,NA,"",       19.2979,      -16.1555,      -10.5551,   7.00993E-03
C:/temp/dataset/9/30_8.odb,Step-1,Increment      4: Step Time =    1.000,"PART-1-1",             9,           15.,           30.,            0.,NA,NA,"",       23.0349,      -22.8985,      -2.50309,   75.1502E-06
C:/temp/dataset/9/30_8.odb,Step-1,Increment      4: Step Time =    1.000,"PART-1-1",            10,           7.5,           30.,            0.,NA,NA,"",       22.8395,      -22.0484,      -5.95881,   2.38889E-03
C:/temp/dataset/9/30_8.odb,Step-1,Increment      4: Step Time =    1.000,"PART-1-1",            11,            0.,           30.,            0.,NA,NA,"",       23.1802,      -21.1992,      -9.37642,   3.44749E-03
C:/temp/dataset/9/30_8.odb,Step-1,Increment      4: Step Time =    1.000,"PART-1-1",            12,          -7.5,           30.,            0.,NA,NA,"",       24.0388,      -20.3798,      -12.7487,   1.21115E-03
C:/temp/dataset/9/30_8.odb,Step-1,Increment      4: Step Time =    1.000,"PART-1-1",            13,          -15.,           30.,            0.,NA,NA,"",       25.3562,      -19.5822,      -16.1083,   20.0284E-06
C:/temp/dataset/9/30_8.odb,Step-1,Increment      4: Step Time =    1.000,"PART-1-1",            14,          -15.,         21.25,            0.,NA,NA,"",       21.8144,      -15.6651,      -15.1813,   658.415E-06
C:/temp/dataset/9/30_8.odb,Step-1,Increment      4: Step Time =    1.000,"PART-1-1",            15,          -15.,          12.5,            0.,NA,NA,"",       18.4798,      -11.7232,      -14.2854,   9.40653E-03
C:/temp/dataset/9/30_8.odb,Step-1,Increment      4: Step Time =    1.000,"PART-1-1",            16,          -15.,          3.75,            0.,NA,NA,"",       15.3766,      -7.63988,      -13.3444,   2.87672E-03
C:/temp/dataset/9/30_8.odb,Step-1,Increment      4: Step Time =    1.000,"PART-1-1",            17,          -15.,           -5.,            0.,NA,NA,"",       12.8248,      -3.53884,      -12.3269,   24.7207E-06
C:/temp/dataset/9/30_8.odb,Step-1,Increment      4: Step Time =    1.000,"PART-1-1",            18,          -10.,           -5.,            0.,NA,NA,"",       10.8045,      -4.12078,      -9.98780,   637.724E-06
C:/temp/dataset/9/30_8.odb,Step-1,Increment      4: Step Time =    1.000,"PART-1-1",            19,           -5.,           -5.,            0.,NA,NA,"",       8.98773,      -4.70574,      -7.65737,   3.08492E-03
C:/temp/dataset/9/30_8.odb,Step-1,Increment      4: Step Time =    1.000,"PART-1-1",            20,            0.,           -5.,            0.,NA,NA,"",       7.52473,      -5.28764,      -5.35373,   3.53690E-03
C:/temp/dataset/9/30_8.odb,Step-1,Increment      4: Step Time =    1.000,"PART-1-1",            21,            5.,           -5.,            0.,NA,NA,"",       6.62129,      -5.89375,      -3.01749,   51.6524E-03
C:/temp/dataset/9/30_8.odb,Step-1,Increment      4: Step Time =    1.000,"PART-1-1",            22,            5.,        -11.25,            0.,NA,NA,"",       4.22426,      -3.61140,      -2.19138,   71.3900E-03
C:/temp/dataset/9/30_8.odb,Step-1,Increment      4: Step Time =    1.000,"PART-1-1",            23,            5.,         -17.5,            0.,NA,NA,"",       2.28242,      -1.77810,      -1.43101,   93.0669E-03
C:/temp/dataset/9/30_8.odb,Step-1,Increment      4: Step Time =    1.000,"PART-1-1",            24,            5.,        -23.75,            0.,NA,NA,"",   908.800E-03,  -561.895E-03,  -714.277E-03,   114.834E-03
C:/temp/dataset/9/30_8.odb,Step-1,Increment      4: Step Time =    1.000,"PART-1-1",            25,            5.,          -30.,            0.,NA,NA,"",            0.,   978.087E-42,   1.73440E-39,   147.994E-03
C:/temp/dataset/9/30_8.odb,Step-1,Increment      4: Step Time =    1.000,"PART-1-1",            26,           15.,          -30.,            0.,NA,NA,"",            0.,  -86.5148E-42,   9.53023E-42,   157.487E-03
C:/temp/dataset/9/30_8.odb,Step-1,Increment      4: Step Time =    1.000,"PART-1-1",            27,           15.,         -22.5,            0.,NA,NA,"",       1.20658,  -915.224E-03,   786.250E-03,   113.805E-03
C:/temp/dataset/9/30_8.odb,Step-1,Increment      4: Step Time =    1.000,"PART-1-1",            28,           15.,          -15.,            0.,NA,NA,"",       3.14654,      -2.90452,       1.21016,   87.1392E-03
C:/temp/dataset/9/30_8.odb,Step-1,Increment      4: Step Time =    1.000,"PART-1-1",            29,           15.,          -7.5,            0.,NA,NA,"",       5.86051,      -5.74039,       1.18049,   58.7782E-03
C:/temp/dataset/9/30_8.odb,Step-1,Increment      4: Step Time =    1.000,"PART-1-1",            30,           15.,            0.,            0.,NA,NA,"",       9.08429,      -9.05633,   712.258E-03,   23.8624E-03
C:/temp/dataset/9/30_8.odb,Step-1,Increment      4: Step Time =    1.000,"PART-1-1",            31,           15.,           7.5,            0.,NA,NA,"",       12.4845,      -12.4845,  -2.03660E-03,   10.5954E-03
C:/temp/dataset/9/30_8.odb,Step-1,Increment      4: Step Time =    1.000,"PART-1-1",            32,           15.,           15.,            0.,NA,NA,"",       15.9816,      -15.9616,  -800.412E-03,   3.74054E-03
C:/temp/dataset/9/30_8.odb,Step-1,Increment      4: Step Time =    1.000,"PART-1-1",            33,           15.,          22.5,            0.,NA,NA,"",       19.5124,      -19.4422,      -1.65378,   1.43780E-03
C:/temp/dataset/9/30_8.odb,Step-1,Increment      4: Step Time =    1.000,"PART-1-1",            34,           2.5,           20.,            0.,NA,NA,"",       18.3661,      -16.9216,      -7.13960,   8.18961E-03
C:/temp/dataset/9/30_8.odb,Step-1,Increment      4: Step Time =    1.000,"PART-1-1",            35,            5.,           15.,            0.,NA,NA,"",       15.7908,      -14.8354,      -5.40910,   3.86209E-03
C:/temp/dataset/9/30_8.odb,Step-1,Increment      4: Step Time =    1.000,"PART-1-1",            36,            5.,          17.5,            0.,NA,NA,"",       16.9831,      -15.9972,      -5.70232,   2.00736E-03
C:/temp/dataset/9/30_8.odb,Step-1,Increment      4: Step Time =    1.000,"PART-1-1",            37,            5.,           7.5,            0.,NA,NA,"",       12.2674,      -11.4050,      -4.51855,   13.7467E-03
C:/temp/dataset/9/30_8.odb,Step-1,Increment      4: Step Time =    1.000,"PART-1-1",            38,            5.,           10.,            0.,NA,NA,"",       13.4303,      -12.5367,      -4.81683,   9.21194E-03
C:/temp/dataset/9/30_8.odb,Step-1,Increment      4: Step Time =    1.000,"PART-1-1",            39,           2.5,            5.,            0.,NA,NA,"",       11.4066,      -10.0847,      -5.33003,   17.9012E-03
C:/temp/dataset/9/30_8.odb,Step-1,Increment      4: Step Time =    1.000,"PART-1-1",            40,          -2.5,            5.,            0.,NA,NA,"",       12.2720,      -9.60342,      -7.64044,   17.0446E-03
C:/temp/dataset/9/30_8.odb,Step-1,Increment      4: Step Time =    1.000,"PART-1-1",            41,           -5.,           10.,            0.,NA,NA,"",       15.0527,      -11.7156,      -9.45128,   13.0869E-03
C:/temp/dataset/9/30_8.odb,Step-1,Increment      4: Step Time =    1.000,"PART-1-1",            42,           -5.,           7.5,            0.,NA,NA,"",       13.9720,      -10.5638,      -9.14466,   13.4846E-03
C:/temp/dataset/9/30_8.odb,Step-1,Increment      4: Step Time =    1.000,"PART-1-1",            43,           -5.,          17.5,            0.,NA,NA,"",       18.2345,      -15.0524,      -10.2918,   4.60064E-03
C:/temp/dataset/9/30_8.odb,Step-1,Increment      4: Step Time =    1.000,"PART-1-1",            44,           -5.,           15.,            0.,NA,NA,"",       17.1683,      -13.9424,      -10.0180,   6.09175E-03
C:/temp/dataset/9/30_8.odb,Step-1,Increment      4: Step Time =    1.000,"PART-1-1",            45,          -2.5,           20.,            0.,NA,NA,"",       18.9180,      -16.4062,      -9.41953,   7.10197E-03
C:/temp/dataset/9/30_8.odb,Step-1,Increment      4: Step Time =    1.000,"PART-1-1",            46,          12.5,           30.,            0.,NA,NA,"",       22.9103,      -22.6167,      -3.65604,   301.441E-06
C:/temp/dataset/9/30_8.odb,Step-1,Increment      4: Step Time =    1.000,"PART-1-1",            47,           10.,           30.,            0.,NA,NA,"",       22.8451,      -22.3333,      -4.80870,   1.24944E-03
C:/temp/dataset/9/30_8.odb,Step-1,Increment      4: Step Time =    1.000,"PART-1-1",            48,            5.,           30.,            0.,NA,NA,"",       22.8935,      -21.7634,      -7.10415,   3.28003E-03
C:/temp/dataset/9/30_8.odb,Step-1,Increment      4: Step Time =    1.000,"PART-1-1",            49,           2.5,           30.,            0.,NA,NA,"",       23.0073,      -21.4798,      -8.24336,   3.62372E-03
C:/temp/dataset/9/30_8.odb,Step-1,Increment      4: Step Time =    1.000,"PART-1-1",            50,          -2.5,           30.,            0.,NA,NA,"",       23.4111,      -20.9223,      -10.5041,   2.85950E-03
C:/temp/dataset/9/30_8.odb,Step-1,Increment      4: Step Time =    1.000,"PART-1-1",            51,           -5.,           30.,            0.,NA,NA,"",       23.6980,      -20.6493,      -11.6277,   2.05705E-03
C:/temp/dataset/9/30_8.odb,Step-1,Increment      4: Step Time =    1.000,"PART-1-1",            52,          -10.,           30.,            0.,NA,NA,"",       24.4307,      -20.1127,      -13.8686,   549.084E-06
C:/temp/dataset/9/30_8.odb,Step-1,Increment      4: Step Time =    1.000,"PART-1-1",            53,         -12.5,           30.,            0.,NA,NA,"",       24.8708,      -19.8472,      -14.9882,   134.573E-06
C:/temp/dataset/9/30_8.odb,Step-1,Increment      4: Step Time =    1.000,"PART-1-1",            54,          -15.,       27.8125,            0.,NA,NA,"",       24.4559,      -18.6020,      -15.8763,   120.100E-06
C:/temp/dataset/9/30_8.odb,Step-1,Increment      4: Step Time =    1.000,"PART-1-1",            55,          -15.,        25.625,            0.,NA,NA,"",       23.5642,      -17.6220,      -15.6440,   275.524E-06
C:/temp/dataset/9/30_8.odb,Step-1,Increment      4: Step Time =    1.000,"PART-1-1",            56,          -15.,       23.4375,            0.,NA,NA,"",       22.6830,      -16.6430,      -15.4119,   169.207E-06
C:/temp/dataset/9/30_8.odb,Step-1,Increment      4: Step Time =    1.000,"PART-1-1",            57,          -15.,       19.0625,            0.,NA,NA,"",       20.9597,      -14.6870,      -14.9533,   2.32811E-03
C:/temp/dataset/9/30_8.odb,Step-1,Increment      4: Step Time =    1.000,"PART-1-1",            58,          -15.,        16.875,            0.,NA,NA,"",       20.1194,      -13.7061,      -14.7287,   4.70500E-03
C:/temp/dataset/9/30_8.odb,Step-1,Increment      4: Step Time =    1.000,"PART-1-1",            59,          -15.,       14.6875,            0.,NA,NA,"",       19.2931,      -12.7193,      -14.5067,   7.31957E-03
C:/temp/dataset/9/30_8.odb,Step-1,Increment      4: Step Time =    1.000,"PART-1-1",            60,          -15.,       10.3125,            0.,NA,NA,"",       17.6790,      -10.7155,      -14.0615,   10.1188E-03
C:/temp/dataset/9/30_8.odb,Step-1,Increment      4: Step Time =    1.000,"PART-1-1",            61,          -15.,         8.125,            0.,NA,NA,"",       16.8916,      -9.69646,      -13.8312,   8.85217E-03
C:/temp/dataset/9/30_8.odb,Step-1,Increment      4: Step Time =    1.000,"PART-1-1",            62,          -15.,        5.9375,            0.,NA,NA,"",       16.1216,      -8.66955,      -13.5921,   5.98754E-03
C:/temp/dataset/9/30_8.odb,Step-1,Increment      4: Step Time =    1.000,"PART-1-1",            63,          -15.,        1.5625,            0.,NA,NA,"",       14.6660,      -6.61162,      -13.0911,   668.704E-06
C:/temp/dataset/9/30_8.odb,Step-1,Increment      4: Step Time =    1.000,"PART-1-1",            64,          -15.,     -625.E-03,            0.,NA,NA,"",       13.9989,      -5.58609,      -12.8360,   163.988E-06
C:/temp/dataset/9/30_8.odb,Step-1,Increment      4: Step Time =    1.000,"PART-1-1",            65,          -15.,       -2.8125,            0.,NA,NA,"",       13.3828,      -4.56233,      -12.5812,   126.430E-06
C:/temp/dataset/9/30_8.odb,Step-1,Increment      4: Step Time =    1.000,"PART-1-1",            66,         -12.5,           -5.,            0.,NA,NA,"",       11.7960,      -3.82957,      -11.1570,   177.027E-06
C:/temp/dataset/9/30_8.odb,Step-1,Increment      4: Step Time =    1.000,"PART-1-1",            67,          -7.5,           -5.,            0.,NA,NA,"",       9.86264,      -4.41277,      -8.82038,   1.66137E-03
C:/temp/dataset/9/30_8.odb,Step-1,Increment      4: Step Time =    1.000,"PART-1-1",            68,          -2.5,           -5.,            0.,NA,NA,"",       8.20118,      -4.99820,      -6.50211,   4.28728E-03
C:/temp/dataset/9/30_8.odb,Step-1,Increment      4: Step Time =    1.000,"PART-1-1",            69,           2.5,           -5.,            0.,NA,NA,"",       6.98289,      -5.57383,      -4.20632,   10.9647E-03
C:/temp/dataset/9/30_8.odb,Step-1,Increment      4: Step Time =    1.000,"PART-1-1",            70,            5.,      -7.08333,            0.,NA,NA,"",       5.78469,      -5.10286,      -2.72460,   64.1136E-03
C:/temp/dataset/9/30_8.odb,Step-1,Increment      4: Step Time =    1.000,"PART-1-1",            71,            5.,      -9.16667,            0.,NA,NA,"",       4.98260,      -4.33492,      -2.45658,   63.6019E-03
C:/temp/dataset/9/30_8.odb,Step-1,Increment      4: Step Time =    1.000,"PART-1-1",            72,            5.,      -13.3333,            0.,NA,NA,"",       3.51798,      -2.94010,      -1.93183,   78.4218E-03
C:/temp/dataset/9/30_8.odb,Step-1,Increment      4: Step Time =    1.000,"PART-1-1",            73,            5.,      -15.4167,            0.,NA,NA,"",       2.86943,      -2.32732,      -1.67846,   85.8096E-03
C:/temp/dataset/9/30_8.odb,Step-1,Increment      4: Step Time =    1.000,"PART-1-1",            74,            5.,      -19.5833,            0.,NA,NA,"",       1.75974,      -1.29747,      -1.18881,   100.322E-03
C:/temp/dataset/9/30_8.odb,Step-1,Increment      4: Step Time =    1.000,"PART-1-1",            75,            5.,      -21.6667,            0.,NA,NA,"",       1.30234,  -890.169E-03,  -950.620E-03,   107.446E-03
C:/temp/dataset/9/30_8.odb,Step-1,Increment      4: Step Time =    1.000,"PART-1-1",            76,            5.,      -25.8333,            0.,NA,NA,"",   573.645E-03,  -314.656E-03,  -479.647E-03,   119.169E-03
C:/temp/dataset/9/30_8.odb,Step-1,Increment      4: Step Time =    1.000,"PART-1-1",            77,            5.,      -27.9167,            0.,NA,NA,"",   288.034E-03,  -151.513E-03,  -244.965E-03,   132.830E-03
C:/temp/dataset/9/30_8.odb,Step-1,Increment      4: Step Time =    1.000,"PART-1-1",            78,           7.5,          -30.,            0.,NA,NA,"",            0.,   5.02176E-39,  -99.1483E-39,   46.3483E-03
C:/temp/dataset/9/30_8.odb,Step-1,Increment      4: Step Time =    1.000,"PART-1-1",            79,           10.,          -30.,            0.,NA,NA,"",            0.,   15.3384E-39,   7.39170E-39,   14.2069E-03
C:/temp/dataset/9/30_8.odb,Step-1,Increment      4: Step Time =    1.000,"PART-1-1",            80,          12.5,          -30.,            0.,NA,NA,"",            0.,  -44.3212E-39,   92.3451E-39,   49.4411E-03
C:/temp/dataset/9/30_8.odb,Step-1,Increment      4: Step Time =    1.000,"PART-1-1",            81,           15.,         -27.5,            0.,NA,NA,"",   369.283E-03,  -221.001E-03,   295.852E-03,   131.389E-03
C:/temp/dataset/9/30_8.odb,Step-1,Increment      4: Step Time =    1.000,"PART-1-1",            82,           15.,          -25.,            0.,NA,NA,"",   746.845E-03,  -499.385E-03,   555.330E-03,   120.138E-03
C:/temp/dataset/9/30_8.odb,Step-1,Increment      4: Step Time =    1.000,"PART-1-1",            83,           15.,          -20.,            0.,NA,NA,"",       1.75826,      -1.46258,   975.863E-03,   104.890E-03
C:/temp/dataset/9/30_8.odb,Step-1,Increment      4: Step Time =    1.000,"PART-1-1",            84,           15.,         -17.5,            0.,NA,NA,"",       2.40577,      -2.13019,       1.11804,   96.1479E-03
C:/temp/dataset/9/30_8.odb,Step-1,Increment      4: Step Time =    1.000,"PART-1-1",            85,           15.,         -12.5,            0.,NA,NA,"",       3.97462,      -3.77254,       1.25120,   78.1373E-03
C:/temp/dataset/9/30_8.odb,Step-1,Increment      4: Step Time =    1.000,"PART-1-1",            86,           15.,          -10.,            0.,NA,NA,"",       4.88231,      -4.72190,       1.24123,   68.8989E-03
C:/temp/dataset/9/30_8.odb,Step-1,Increment      4: Step Time =    1.000,"PART-1-1",            87,           15.,           -5.,            0.,NA,NA,"",       6.89742,      -6.81403,       1.06927,   47.0698E-03
C:/temp/dataset/9/30_8.odb,Step-1,Increment      4: Step Time =    1.000,"PART-1-1",            88,           15.,          -2.5,            0.,NA,NA,"",       7.97750,      -7.92538,   910.385E-03,   34.6316E-03
C:/temp/dataset/9/30_8.odb,Step-1,Increment      4: Step Time =    1.000,"PART-1-1",            89,           15.,           2.5,            0.,NA,NA,"",       10.2066,      -10.1949,   487.638E-03,   16.5385E-03
C:/temp/dataset/9/30_8.odb,Step-1,Increment      4: Step Time =    1.000,"PART-1-1",            90,           15.,            5.,            0.,NA,NA,"",       11.3399,      -11.3372,   247.545E-03,   12.6553E-03
C:/temp/dataset/9/30_8.odb,Step-1,Increment      4: Step Time =    1.000,"PART-1-1",            91,           15.,           10.,            0.,NA,NA,"",       13.6409,      -13.6384,  -259.828E-03,   8.67504E-03
C:/temp/dataset/9/30_8.odb,Step-1,Increment      4: Step Time =    1.000,"PART-1-1",            92,           15.,          12.5,            0.,NA,NA,"",       14.8076,      -14.7982,  -526.061E-03,   6.35402E-03
C:/temp/dataset/9/30_8.odb,Step-1,Increment      4: Step Time =    1.000,"PART-1-1",            93,           15.,          17.5,            0.,NA,NA,"",       17.1593,      -17.1252,      -1.08157,   1.20987E-03
C:/temp/dataset/9/30_8.odb,Step-1,Increment      4: Step Time =    1.000,"PART-1-1",            94,           15.,           20.,            0.,NA,NA,"",       18.3369,      -18.2859,      -1.36710,   694.805E-06
C:/temp/dataset/9/30_8.odb,Step-1,Increment      4: Step Time =    1.000,"PART-1-1",            95,           15.,           25.,            0.,NA,NA,"",       20.6859,      -20.5948,      -1.93888,   1.07539E-03
C:/temp/dataset/9/30_8.odb,Step-1,Increment      4: Step Time =    1.000,"PART-1-1",            96,           15.,          27.5,            0.,NA,NA,"",       21.8594,      -21.7462,      -2.22157,   295.518E-06
C:/temp/dataset/9/30_8.odb,Step-1,Increment      4: Step Time =    1.000,"PART-1-1",            97,       7.09255,      -21.6558,            0.,NA,NA,"",       1.00916,  -850.966E-03,  -542.466E-03,   60.6398E-03
C:/temp/dataset/9/30_8.odb,Step-1,Increment      4: Step Time =    1.000,"PART-1-1",            98,       7.09346,      -17.4368,            0.,NA,NA,"",       1.99933,      -1.80092,  -868.337E-03,   53.0891E-03
C:/temp/dataset/9/30_8.odb,Step-1,Increment      4: Step Time =    1.000,"PART-1-1",            99,       7.15828,      -23.7452,            0.,NA,NA,"",   631.501E-03,  -499.359E-03,  -386.567E-03,   62.6607E-03
C:/temp/dataset/9/30_8.odb,Step-1,Increment      4: Step Time =    1.000,"PART-1-1",           100,       7.44609,      -27.8729,            0.,NA,NA,"",   124.026E-03,  -62.6241E-03,  -107.055E-03,   63.9651E-03
C:/temp/dataset/9/30_8.odb,Step-1,Increment      4: Step Time =    1.000,"PART-1-1",           101,       7.30780,      -25.7939,            0.,NA,NA,"",   333.297E-03,  -235.968E-03,  -235.385E-03,   64.8416E-03
C:/temp/dataset/9/30_8.odb,Step-1,Increment      4: Step Time =    1.000,"PART-1-1",           102,       7.08258,      -10.9526,            0.,NA,NA,"",       4.07330,      -3.79833,      -1.47122,   41.2671E-03
C:/temp/dataset/9/30_8.odb,Step-1,Increment      4: Step Time =    1.000,"PART-1-1",           103,       7.09950,      -13.1236,            0.,NA,NA,"",       3.31123,      -3.06577,      -1.25113,   45.1978E-03
C:/temp/dataset/9/30_8.odb,Step-1,Increment      4: Step Time =    1.000,"PART-1-1",           104,       6.95448,      -6.62029,            0.,NA,NA,"",       5.76637,      -5.41398,      -1.98489,   29.9447E-03
C:/temp/dataset/9/30_8.odb,Step-1,Increment      4: Step Time =    1.000,"PART-1-1",           105,       7.04974,      -8.78764,            0.,NA,NA,"",       4.89129,      -4.58207,      -1.71153,   37.9081E-03
C:/temp/dataset/9/30_8.odb,Step-1,Increment      4: Step Time =    1.000,"PART-1-1",           106,       7.10540,      -15.2896,            0.,NA,NA,"",       2.61644,      -2.39677,      -1.04943,   49.0124E-03
C:/temp/dataset/9/30_8.odb,Step-1,Increment      4: Step Time =    1.000,"PART-1-1",           107,       7.08223,      -19.5608,            0.,NA,NA,"",       1.46314,      -1.28423,  -701.094E-03,   57.0974E-03
C:/temp/dataset/9/30_8.odb,Step-1,Increment      4: Step Time =    1.000,"PART-1-1",           108,      -11.8989,       25.3809,            0.,NA,NA,"",       22.8199,      -17.8407,      -14.2288,   364.709E-06
C:/temp/dataset/9/30_8.odb,Step-1,Increment      4: Step Time =    1.000,"PART-1-1",           109,      -12.7134,       3.51066,            0.,NA,NA,"",       14.5185,      -7.79373,      -12.2493,   3.92878E-03
C:/temp/dataset/9/30_8.odb,Step-1,Increment      4: Step Time =    1.000,"PART-1-1",           110,      -13.0834,       10.3867,            0.,NA,NA,"",       17.1577,      -10.9697,      -13.1929,   5.83149E-03
C:/temp/dataset/9/30_8.odb,Step-1,Increment      4: Step Time =    1.000,"PART-1-1",           111,      -12.9355,       8.20912,            0.,NA,NA,"",       16.2981,      -9.97577,      -12.8884,   5.64275E-03
C:/temp/dataset/9/30_8.odb,Step-1,Increment      4: Step Time =    1.000,"PART-1-1",           112,      -13.1801,       12.5484,            0.,NA,NA,"",       18.0031,      -11.9501,      -13.4650,   5.79126E-03
C:/temp/dataset/9/30_8.odb,Step-1,Increment      4: Step Time =    1.000,"PART-1-1",           113,      -12.7454,       20.6010,            0.,NA,NA,"",       21.0410,      -15.6144,      -14.1037,   2.21883E-03
C:/temp/dataset/9/30_8.odb,Step-1,Increment      4: Step Time =    1.000,"PART-1-1",           114,      -13.1621,       18.5389,            0.,NA,NA,"",       20.3159,      -14.6492,      -14.0761,   3.18930E-03
C:/temp/dataset/9/30_8.odb,Step-1,Increment      4: Step Time =    1.000,"PART-1-1",           115,      -12.3840,       22.8683,            0.,NA,NA,"",       21.8815,      -16.6652,      -14.1800,   1.07685E-03
C:/temp/dataset/9/30_8.odb,Step-1,Increment      4: Step Time =    1.000,"PART-1-1",           116,      -13.4658,       16.5948,            0.,NA,NA,"",       19.6290,      -13.7463,      -14.0120,   4.26559E-03
C:/temp/dataset/9/30_8.odb,Step-1,Increment      4: Step Time =    1.000,"PART-1-1",           117,      -13.3466,       14.6489,            0.,NA,NA,"",       18.8489,      -12.8840,      -13.7580,   5.29707E-03
C:/temp/dataset/9/30_8.odb,Step-1,Increment      4: Step Time =    1.000,"PART-1-1",           118,      -12.3609,       5.76892,            0.,NA,NA,"",       15.2195,      -8.89753,      -12.3477,   5.47546E-03
C:/temp/dataset/9/30_8.odb,Step-1,Increment      4: Step Time =    1.000,"PART-1-1",           119,      -12.8583,       1.39410,            0.,NA,NA,"",       13.8441,      -6.78174,      -12.0693,   1.92585E-03
C:/temp/dataset/9/30_8.odb,Step-1,Increment      4: Step Time =    1.000,"PART-1-1",           120,      -12.6304,  -685.754E-03,            0.,NA,NA,"",       13.0910,      -5.83293,      -11.7197,   610.155E-06
C:/temp/dataset/9/30_8.odb,Step-1,Increment      4: Step Time =    1.000,"PART-1-1",           121,   38.5673E-03,       27.2989,            0.,NA,NA,"",       21.9378,      -19.9764,      -9.06705,   889.304E-06
C:/temp/dataset/9/30_8.odb,Step-1,Increment      4: Step Time =    1.000,"PART-1-1",           122,      -4.16985,       22.2766,            0.,NA,NA,"",       20.1617,      -17.2577,      -10.4243,   3.30827E-03
C:/temp/dataset/9/30_8.odb,Step-1,Increment      4: Step Time =    1.000,"PART-1-1",           123,      -7.85548,       28.0855,            0.,NA,NA,"",       23.2585,      -19.4819,      -12.7047,   823.250E-06
C:/temp/dataset/9/30_8.odb,Step-1,Increment      4: Step Time =    1.000,"PART-1-1",           124,       9.92813,      -27.7267,            0.,NA,NA,"",   50.2978E-03,  -50.1948E-03,   3.21715E-03,   16.5895E-03
C:/temp/dataset/9/30_8.odb,Step-1,Increment      4: Step Time =    1.000,"PART-1-1",           125,       13.1106,      -17.4438,            0.,NA,NA,"",       2.11833,      -2.01819,   643.608E-03,   61.9153E-03
C:/temp/dataset/9/30_8.odb,Step-1,Increment      4: Step Time =    1.000,"PART-1-1",           126,       12.8150,       2.64061,            0.,NA,NA,"",       10.0309,      -10.0187,  -493.995E-03,   12.0248E-03
C:/temp/dataset/9/30_8.odb,Step-1,Increment      4: Step Time =    1.000,"PART-1-1",           127,       7.56819,       12.3225,            0.,NA,NA,"",       14.4227,      -13.8828,      -3.90925,   4.70060E-03
C:/temp/dataset/9/30_8.odb,Step-1,Increment      4: Step Time =    1.000,"PART-1-1",           128,       7.47113,       19.8748,            0.,NA,NA,"",       18.0441,      -17.3852,      -4.83163,   5.20160E-03
C:/temp/dataset/9/30_8.odb,Step-1,Increment      4: Step Time =    1.000,"PART-1-1",           129,       12.4223,       27.5153,            0.,NA,NA,"",       21.7324,      -21.4628,      -3.41245,   946.114E-06
C:/temp/dataset/9/30_8.odb,Step-1,Increment      4: Step Time =    1.000,"PART-1-1",           130,       12.3750,       22.5091,            0.,NA,NA,"",       19.3642,      -19.1506,      -2.86848,   849.583E-06
C:/temp/dataset/9/30_8.odb,Step-1,Increment      4: Step Time =    1.000,"PART-1-1",           131,       7.58839,       27.9970,            0.,NA,NA,"",       21.8912,      -21.1373,      -5.69552,   1.50460E-03
C:/temp/dataset/9/30_8.odb,Step-1,Increment      4: Step Time =    1.000,"PART-1-1",           132,   199.805E-03,       22.3057,            0.,NA,NA,"",       19.6366,      -17.7273,      -8.44642,   4.77062E-03
C:/temp/dataset/9/30_8.odb,Step-1,Increment      4: Step Time =    1.000,"PART-1-1",           133,       12.6934,       9.82310,            0.,NA,NA,"",       13.3574,      -13.2946,      -1.29291,   5.99464E-03
C:/temp/dataset/9/30_8.odb,Step-1,Increment      4: Step Time =    1.000,"PART-1-1",           134,      -7.14717,       12.7802,            0.,NA,NA,"",       16.6561,      -12.7287,      -10.7427,   7.10553E-03
C:/temp/dataset/9/30_8.odb,Step-1,Increment      4: Step Time =    1.000,"PART-1-1",           135,      -6.86178,       17.9412,            0.,NA,NA,"",       18.7480,      -15.0553,      -11.1725,   4.21671E-03
C:/temp/dataset/9/30_8.odb,Step-1,Increment      4: Step Time =    1.000,"PART-1-1",           136,      -2.68307,      -2.95682,            0.,NA,NA,"",       9.02844,      -5.92182,      -6.81504,   1.59764E-03
C:/temp/dataset/9/30_8.odb,Step-1,Increment      4: Step Time =    1.000,"PART-1-1",           137,      -7.59808,      -3.03341,            0.,NA,NA,"",       10.5336,      -5.31853,      -9.09231,   1.32038E-03
C:/temp/dataset/9/30_8.odb,Step-1,Increment      4: Step Time =    1.000,"PART-1-1",           138,  -248.196E-03,       2.69947,            0.,NA,NA,"",       10.8247,      -8.78233,      -6.32808,   9.75057E-03
C:/temp/dataset/9/30_8.odb,Step-1,Increment      4: Step Time =    1.000,"PART-1-1",           139,       2.16631,      -2.47375,            0.,NA,NA,"",       8.14316,      -6.69085,      -4.64151,   7.03065E-03
C:/temp/dataset/9/30_8.odb,Step-1,Increment      4: Step Time =    1.000,"PART-1-1",           140,       4.39271,       2.43636,            0.,NA,NA,"",       10.0376,      -9.12048,      -4.19162,   15.7382E-03
C:/temp/dataset/9/30_8.odb,Step-1,Increment      4: Step Time =    1.000,"PART-1-1",           141,       12.9283,      -5.27800,            0.,NA,NA,"",       6.48234,      -6.47755,   249.152E-03,   32.4721E-03
C:/temp/dataset/9/30_8.odb,Step-1,Increment      4: Step Time =    1.000,"PART-1-1",           142,       13.0847,      -12.6172,            0.,NA,NA,"",       3.62521,      -3.56993,   630.650E-03,   50.3903E-03
C:/temp/dataset/9/30_8.odb,Step-1,Increment      4: Step Time =    1.000,"PART-1-1",           143,       12.4838,       17.4790,            0.,NA,NA,"",       16.9777,      -16.8289,      -2.24289,   3.26950E-03
C:/temp/dataset/9/30_8.odb,Step-1,Increment      4: Step Time =    1.000,"PART-1-1",           144,       2.63438,       22.2143,            0.,NA,NA,"",       19.3807,      -17.9427,      -7.32598,   5.10888E-03
C:/temp/dataset/9/30_8.odb,Step-1,Increment      4: Step Time =    1.000,"PART-1-1",           145,       7.54366,       14.9275,            0.,NA,NA,"",       15.6672,      -15.0874,      -4.22268,   3.99080E-03
C:/temp/dataset/9/30_8.odb,Step-1,Increment      4: Step Time =    1.000,"PART-1-1",           146,       7.50510,       17.4443,            0.,NA,NA,"",       16.8751,      -16.2549,      -4.53297,   4.85709E-03
C:/temp/dataset/9/30_8.odb,Step-1,Increment      4: Step Time =    1.000,"PART-1-1",           147,       7.12790,       7.03873,            0.,NA,NA,"",       11.9422,      -11.4175,      -3.50091,   6.84915E-03
C:/temp/dataset/9/30_8.odb,Step-1,Increment      4: Step Time =    1.000,"PART-1-1",           148,       7.48952,       9.64170,            0.,NA,NA,"",       13.1531,      -12.6408,      -3.63498,   6.01100E-03
C:/temp/dataset/9/30_8.odb,Step-1,Increment      4: Step Time =    1.000,"PART-1-1",           149,       2.16717,       2.56251,            0.,NA,NA,"",       10.3664,      -8.96401,      -5.20656,   9.53570E-03
C:/temp/dataset/9/30_8.odb,Step-1,Increment      4: Step Time =    1.000,"PART-1-1",           150,      -2.68606,       3.12146,            0.,NA,NA,"",       11.5071,      -8.72158,      -7.50643,   10.5638E-03
C:/temp/dataset/9/30_8.odb,Step-1,Increment      4: Step Time =    1.000,"PART-1-1",           151,      -7.08307,       10.2840,            0.,NA,NA,"",       15.6118,      -11.6092,      -10.4381,   6.68919E-03
C:/temp/dataset/9/30_8.odb,Step-1,Increment      4: Step Time =    1.000,"PART-1-1",           152,      -2.13928,       22.2031,            0.,NA,NA,"",       19.8550,      -17.4360,      -9.49772,   4.43070E-03
C:/temp/dataset/9/30_8.odb,Step-1,Increment      4: Step Time =    1.000,"PART-1-1",           153,       9.90766,       27.6812,            0.,NA,NA,"",       21.7450,      -21.2547,      -4.59162,   1.33876E-03
C:/temp/dataset/9/30_8.odb,Step-1,Increment      4: Step Time =    1.000,"PART-1-1",           154,       5.18317,       27.8350,            0.,NA,NA,"",       21.8697,      -20.7916,      -6.78197,   1.47832E-03
C:/temp/dataset/9/30_8.odb,Step-1,Increment      4: Step Time =    1.000,"PART-1-1",           155,       2.70091,       27.4744,            0.,NA,NA,"",       21.8206,      -20.3494,      -7.87650,   1.04669E-03
C:/temp/dataset/9/30_8.odb,Step-1,Increment      4: Step Time =    1.000,"PART-1-1",           156,      -2.92570,       26.9909,            0.,NA,NA,"",       22.1011,      -19.5156,      -10.3731,   1.02510E-03
C:/temp/dataset/9/30_8.odb,Step-1,Increment      4: Step Time =    1.000,"PART-1-1",           157,      -5.52449,       27.7330,            0.,NA,NA,"",       22.7622,      -19.5718,      -11.6216,   1.12025E-03
C:/temp/dataset/9/30_8.odb,Step-1,Increment      4: Step Time =    1.000,"PART-1-1",           158,      -10.1759,       28.1970,            0.,NA,NA,"",       23.6889,      -19.2855,      -13.7562,   491.321E-06
C:/temp/dataset/9/30_8.odb,Step-1,Increment      4: Step Time =    1.000,"PART-1-1",           159,      -7.15795,       15.3782,            0.,NA,NA,"",       17.7331,      -13.8850,      -11.0305,   5.18315E-03
C:/temp/dataset/9/30_8.odb,Step-1,Increment      4: Step Time =    1.000,"PART-1-1",           160,      -7.10855,       7.92361,            0.,NA,NA,"",       14.6335,      -10.5145,      -10.1776,   7.58569E-03
C:/temp/dataset/9/30_8.odb,Step-1,Increment      4: Step Time =    1.000,"PART-1-1",           161,      -7.31416,       5.72319,            0.,NA,NA,"",       13.7637,      -9.44932,      -10.0075,   11.3212E-03
C:/temp/dataset/9/30_8.odb,Step-1,Increment      4: Step Time =    1.000,"PART-1-1",           162,      -10.0288,      -2.82434,            0.,NA,NA,"",       11.4669,      -5.13419,      -10.2533,   686.018E-06
C:/temp/dataset/9/30_8.odb,Step-1,Increment      4: Step Time =    1.000,"PART-1-1",           163,      -5.14639,      -3.11924,            0.,NA,NA,"",       9.69399,      -5.56290,      -7.93899,   1.74579E-03
C:/temp/dataset/9/30_8.odb,Step-1,Increment      4: Step Time =    1.000,"PART-1-1",           164,  -261.821E-03,      -2.60038,            0.,NA,NA,"",       8.56903,      -6.36224,      -5.74022,   2.65607E-03
C:/temp/dataset/9/30_8.odb,Step-1,Increment      4: Step Time =    1.000,"PART-1-1",           165,       4.38015,      -2.33295,            0.,NA,NA,"",       7.88674,      -6.99603,      -3.64091,   16.0332E-03
C:/temp/dataset/9/30_8.odb,Step-1,Increment      4: Step Time =    1.000,"PART-1-1",           166,       13.0639,      -10.1924,            0.,NA,NA,"",       4.50400,      -4.46923,   558.579E-03,   44.6810E-03
C:/temp/dataset/9/30_8.odb,Step-1,Increment      4: Step Time =    1.000,"PART-1-1",           167,       13.0843,      -19.8267,            0.,NA,NA,"",       1.50511,      -1.38853,   580.827E-03,   67.0489E-03
C:/temp/dataset/9/30_8.odb,Step-1,Increment      4: Step Time =    1.000,"PART-1-1",           168,       12.4446,      -27.5067,            0.,NA,NA,"",   176.596E-03,  -115.937E-03,   133.209E-03,   72.4721E-03
C:/temp/dataset/9/30_8.odb,Step-1,Increment      4: Step Time =    1.000,"PART-1-1",           169,       12.9329,      -22.1971,            0.,NA,NA,"",   978.710E-03,  -862.004E-03,   463.489E-03,   69.0698E-03
C:/temp/dataset/9/30_8.odb,Step-1,Increment      4: Step Time =    1.000,"PART-1-1",           170,       13.1086,      -15.0383,            0.,NA,NA,"",       2.82733,      -2.74894,   661.164E-03,   56.3217E-03
C:/temp/dataset/9/30_8.odb,Step-1,Increment      4: Step Time =    1.000,"PART-1-1",           171,       13.0208,      -7.75462,            0.,NA,NA,"",       5.45644,      -5.43900,   435.871E-03,   38.8274E-03
C:/temp/dataset/9/30_8.odb,Step-1,Increment      4: Step Time =    1.000,"PART-1-1",           172,       12.7756,      -2.70708,            0.,NA,NA,"",       7.59497,      -7.59496,  -11.4115E-03,   25.3547E-03
C:/temp/dataset/9/30_8.odb,Step-1,Increment      4: Step Time =    1.000,"PART-1-1",           173,       12.6338,  -14.4220E-03,            0.,NA,NA,"",       8.79910,      -8.79348,  -314.295E-03,   17.9247E-03
C:/temp/dataset/9/30_8.odb,Step-1,Increment      4: Step Time =    1.000,"PART-1-1",           174,       13.0186,       5.13380,            0.,NA,NA,"",       11.1966,      -11.1775,  -654.649E-03,   9.07463E-03
C:/temp/dataset/9/30_8.odb,Step-1,Increment      4: Step Time =    1.000,"PART-1-1",           175,       13.0709,       7.51902,            0.,NA,NA,"",       12.3070,      -12.2756,  -877.204E-03,   7.50581E-03
C:/temp/dataset/9/30_8.odb,Step-1,Increment      4: Step Time =    1.000,"PART-1-1",           176,       12.5119,       12.3699,            0.,NA,NA,"",       14.5481,      -14.4538,      -1.65400,   4.97062E-03
C:/temp/dataset/9/30_8.odb,Step-1,Increment      4: Step Time =    1.000,"PART-1-1",           177,       12.4863,       14.9454,            0.,NA,NA,"",       15.7704,      -15.6489,      -1.95386,   4.18316E-03
C:/temp/dataset/9/30_8.odb,Step-1,Increment      4: Step Time =    1.000,"PART-1-1",           178,       12.4500,       19.9932,            0.,NA,NA,"",       18.1734,      -17.9941,      -2.54633,   1.98386E-03
C:/temp/dataset/9/30_8.odb,Step-1,Increment      4: Step Time =    1.000,"PART-1-1",           179,       9.19048,      -23.6482,            0.,NA,NA,"",   516.338E-03,  -504.715E-03,  -108.938E-03,   21.1490E-03
C:/temp/dataset/9/30_8.odb,Step-1,Increment      4: Step Time =    1.000,"PART-1-1",           180,       9.11932,      -19.5624,            0.,NA,NA,"",       1.32995,      -1.30571,  -252.748E-03,   21.0060E-03
C:/temp/dataset/9/30_8.odb,Step-1,Increment      4: Step Time =    1.000,"PART-1-1",           181,       9.13323,      -12.9344,            0.,NA,NA,"",       3.27076,      -3.21325,  -610.660E-03,   19.1902E-03
C:/temp/dataset/9/30_8.odb,Step-1,Increment      4: Step Time =    1.000,"PART-1-1",           182,       9.14303,      -17.4019,            0.,NA,NA,"",       1.88390,      -1.85223,  -343.982E-03,   20.2271E-03
C:/temp/dataset/9/30_8.odb,Step-1,Increment      4: Step Time =    1.000,"PART-1-1",           183,       9.11260,      -10.6744,            0.,NA,NA,"",       4.08121,      -4.00512,  -784.419E-03,   18.4455E-03
C:/temp/dataset/9/30_8.odb,Step-1,Increment      4: Step Time =    1.000,"PART-1-1",           184,       9.06671,      -8.40676,            0.,NA,NA,"",       4.95783,      -4.85804,  -989.708E-03,   17.6225E-03
C:/temp/dataset/9/30_8.odb,Step-1,Increment      4: Step Time =    1.000,"PART-1-1",           185,       9.15359,      -15.1846,            0.,NA,NA,"",       2.53394,      -2.49170,  -460.736E-03,   19.6112E-03
C:/temp/dataset/9/30_8.odb,Step-1,Increment      4: Step Time =    1.000,"PART-1-1",           186,       9.09437,      -21.6308,            0.,NA,NA,"",   878.961E-03,  -860.005E-03,  -181.559E-03,   21.8283E-03
C:/temp/dataset/9/30_8.odb,Step-1,Increment      4: Step Time =    1.000,"PART-1-1",           187,       8.94944,      -6.10597,            0.,NA,NA,"",       5.90865,      -5.77588,      -1.24554,   18.6804E-03
C:/temp/dataset/9/30_8.odb,Step-1,Increment      4: Step Time =    1.000,"PART-1-1",           188,      -11.3189,       17.6054,            0.,NA,NA,"",       19.5227,      -14.4309,      -13.1485,   4.32132E-03
C:/temp/dataset/9/30_8.odb,Step-1,Increment      4: Step Time =    1.000,"PART-1-1",           189,      -10.4260,       2.85148,            0.,NA,NA,"",       13.5398,      -7.74415,      -11.1065,   5.29617E-03
C:/temp/dataset/9/30_8.odb,Step-1,Increment      4: Step Time =    1.000,"PART-1-1",           190,      -12.4413,       27.8959,            0.,NA,NA,"",       23.9758,      -18.9104,      -14.7389,   333.424E-06
C:/temp/dataset/9/30_8.odb,Step-1,Increment      4: Step Time =    1.000,"PART-1-1",           191,      -10.6658,       19.6683,            0.,NA,NA,"",       20.2139,      -15.4199,      -13.0702,   3.78226E-03
C:/temp/dataset/9/30_8.odb,Step-1,Increment      4: Step Time =    1.000,"PART-1-1",           192,      -12.1118,       16.4066,            0.,NA,NA,"",       19.2294,      -13.8093,      -13.3818,   4.37672E-03
C:/temp/dataset/9/30_8.odb,Step-1,Increment      4: Step Time =    1.000,"PART-1-1",           193,      -11.5166,       14.9043,            0.,NA,NA,"",       18.4963,      -13.2007,      -12.9558,   4.63915E-03
C:/temp/dataset/9/30_8.odb,Step-1,Increment      4: Step Time =    1.000,"PART-1-1",           194,      -11.2054,       12.7278,            0.,NA,NA,"",       17.5650,      -12.2533,      -12.5852,   4.19638E-03
C:/temp/dataset/9/30_8.odb,Step-1,Increment      4: Step Time =    1.000,"PART-1-1",           195,      -11.1139,       10.5020,            0.,NA,NA,"",       16.6706,      -11.2474,      -12.3047,   3.88393E-03
C:/temp/dataset/9/30_8.odb,Step-1,Increment      4: Step Time =    1.000,"PART-1-1",           196,      -9.42029,       24.1195,            0.,NA,NA,"",       21.8197,      -17.5370,      -12.9828,   1.53245E-03
C:/temp/dataset/9/30_8.odb,Step-1,Increment      4: Step Time =    1.000,"PART-1-1",           197,      -11.0759,       8.46025,            0.,NA,NA,"",       15.8655,      -10.3063,      -12.0620,   4.97453E-03
C:/temp/dataset/9/30_8.odb,Step-1,Increment      4: Step Time =    1.000,"PART-1-1",           198,      -10.9473,       6.84821,            0.,NA,NA,"",       15.2060,      -9.56660,      -11.8196,   5.96046E-03
C:/temp/dataset/9/30_8.odb,Step-1,Increment      4: Step Time =    1.000,"PART-1-1",           199,       9.64075,      -25.5803,            0.,NA,NA,"",   244.119E-03,  -242.855E-03,  -24.8054E-03,   16.6297E-03
C:/temp/dataset/9/30_8.odb,Step-1,Increment      4: Step Time =    1.000,"PART-1-1",           200,       6.22595,      -2.03957,            0.,NA,NA,"",       7.83521,      -7.30162,      -2.84196,   24.7421E-03
C:/temp/dataset/9/30_8.odb,Step-1,Increment      4: Step Time =    1.000,"PART-1-1",           201,       6.24072,       2.15031,            0.,NA,NA,"",       9.75026,      -9.16147,      -3.33690,   18.9962E-03
C:/temp/dataset/9/30_8.odb,Step-1,Increment      4: Step Time =    1.000,"PART-1-1",           202,      -7.69234,       3.89067,            0.,NA,NA,"",       13.1153,      -8.53728,      -9.95617,   10.3958E-03
C:/temp/dataset/9/30_8.odb,Step-1,Increment      4: Step Time =    1.000,"PART-1-1",           203,       7.31807,       22.0589,            0.,NA,NA,"",       19.0887,      -18.3796,      -5.15470,   3.36169E-03
C:/temp/dataset/9/30_8.odb,Step-1,Increment      4: Step Time =    1.000,"PART-1-1",           204,      -6.44398,       20.4265,            0.,NA,NA,"",       19.7207,      -16.1983,      -11.2482,   5.91000E-03
C:/temp/dataset/9/30_8.odb,Step-1,Increment      4: Step Time =    1.000,"PART-1-1",           205,       12.2962,       25.0128,            0.,NA,NA,"",       20.5453,      -20.2964,      -3.18882,   1.03222E-03
C:/temp/dataset/9/30_8.odb,Step-1,Increment      4: Step Time =    1.000,"PART-1-1",           206,       12.2257,      -24.8009,            0.,NA,NA,"",   469.955E-03,  -398.085E-03,   249.772E-03,   60.9445E-03
C:/temp/dataset/9/30_8.odb,Step-1,Increment      4: Step Time =    1.000,"PART-1-1",           207,      -2.06005,       24.5200,            0.,NA,NA,"",       20.8874,      -18.4908,      -9.71476,   1.92712E-03
C:/temp/dataset/9/30_8.odb,Step-1,Increment      4: Step Time =    1.000,"PART-1-1",           208,       9.31619,       25.0673,            0.,NA,NA,"",       20.5023,      -19.9861,      -4.57163,   1.47336E-03
C:/temp/dataset/9/30_8.odb,Step-1,Increment      4: Step Time =    1.000,"PART-1-1",           209,       3.21447,       24.8112,            0.,NA,NA,"",       20.5495,      -19.1903,      -7.34943,   1.23095E-03
C:/temp/dataset/9/30_8.odb,Step-1,Increment      4: Step Time =    1.000,"PART-1-1",           210,      -7.52022,      -1.18711,            0.,NA,NA,"",       11.1440,      -6.18663,      -9.26903,   2.40146E-03
C:/temp/dataset/9/30_8.odb,Step-1,Increment      4: Step Time =    1.000,"PART-1-1",           211,       10.0127,       14.9017,            0.,NA,NA,"",       15.6579,      -15.3510,      -3.08474,   4.70289E-03
C:/temp/dataset/9/30_8.odb,Step-1,Increment      4: Step Time =    1.000,"PART-1-1",           212,       10.7293,       3.02357,            0.,NA,NA,"",       10.0813,      -9.97624,      -1.45189,   8.77739E-03
C:/temp/dataset/9/30_8.odb,Step-1,Increment      4: Step Time =    1.000,"PART-1-1",           213,       11.4837,       7.36813,            0.,NA,NA,"",       12.1344,      -12.0315,      -1.57710,   5.48893E-03
C:/temp/dataset/9/30_8.odb,Step-1,Increment      4: Step Time =    1.000,"PART-1-1",           214,      -9.20573,       12.9161,            0.,NA,NA,"",       17.1627,      -12.5620,      -11.6943,   4.66960E-03
C:/temp/dataset/9/30_8.odb,Step-1,Increment      4: Step Time =    1.000,"PART-1-1",           215,   314.418E-03,       24.7704,            0.,NA,NA,"",       20.7536,      -18.8577,      -8.66592,   1.85274E-03
C:/temp/dataset/9/30_8.odb,Step-1,Increment      4: Step Time =    1.000,"PART-1-1",           216,       7.52406,       26.3727,            0.,NA,NA,"",       21.1249,      -20.3844,      -5.54440,   1.38587E-03
C:/temp/dataset/9/30_8.odb,Step-1,Increment      4: Step Time =    1.000,"PART-1-1",           217,  -811.906E-03,   82.6841E-03,            0.,NA,NA,"",       9.81258,      -7.52992,      -6.29183,   3.20423E-03
C:/temp/dataset/9/30_8.odb,Step-1,Increment      4: Step Time =    1.000,"PART-1-1",           218,       11.1400,      -19.6444,            0.,NA,NA,"",       1.35602,      -1.34438,   177.289E-03,   30.8701E-03
C:/temp/dataset/9/30_8.odb,Step-1,Increment      4: Step Time =    1.000,"PART-1-1",           219,       11.1036,      -10.4226,            0.,NA,NA,"",       4.22994,      -4.22845,  -112.413E-03,   23.1832E-03
C:/temp/dataset/9/30_8.odb,Step-1,Increment      4: Step Time =    1.000,"PART-1-1",           220,       10.9280,      -5.64335,            0.,NA,NA,"",       6.15798,      -6.13667,  -511.829E-03,   23.1430E-03
C:/temp/dataset/9/30_8.odb,Step-1,Increment      4: Step Time =    1.000,"PART-1-1",           221,       11.0667,       5.48495,            0.,NA,NA,"",       11.2365,      -11.1271,      -1.56365,   5.56717E-03
C:/temp/dataset/9/30_8.odb,Step-1,Increment      4: Step Time =    1.000,"PART-1-1",           222,       11.1390,      -12.7671,            0.,NA,NA,"",       3.38199,      -3.38195,   16.2692E-03,   24.9278E-03
C:/temp/dataset/9/30_8.odb,Step-1,Increment      4: Step Time =    1.000,"PART-1-1",           223,       11.1627,      -15.1016,            0.,NA,NA,"",       2.61231,      -2.61008,   107.929E-03,   27.0993E-03
C:/temp/dataset/9/30_8.odb,Step-1,Increment      4: Step Time =    1.000,"PART-1-1",           224,      -9.10801,       10.4728,            0.,NA,NA,"",       16.1557,      -11.4630,      -11.3845,   4.20036E-03
C:/temp/dataset/9/30_8.odb,Step-1,Increment      4: Step Time =    1.000,"PART-1-1",           225,      -9.12162,       8.28854,            0.,NA,NA,"",       15.2788,      -10.4505,      -11.1459,   6.03910E-03
C:/temp/dataset/9/30_8.odb,Step-1,Increment      4: Step Time =    1.000,"PART-1-1",           226,      -8.73753,       18.6317,            0.,NA,NA,"",       19.3937,      -15.1635,      -12.0907,   5.01147E-03
C:/temp/dataset/9/30_8.odb,Step-1,Increment      4: Step Time =    1.000,"PART-1-1",           227,      -9.90634,  -397.381E-03,            0.,NA,NA,"",       12.2173,      -6.28145,      -10.4788,   1.98104E-03
C:/temp/dataset/9/30_8.odb,Step-1,Increment      4: Step Time =    1.000,"PART-1-1",           228,       9.93939,       19.9385,            0.,NA,NA,"",       18.0706,      -17.6880,      -3.69901,   3.39349E-03
C:/temp/dataset/9/30_8.odb,Step-1,Increment      4: Step Time =    1.000,"PART-1-1",           229,       5.70370,       25.8085,            0.,NA,NA,"",       20.8999,      -19.9217,      -6.31913,   1.08976E-03
C:/temp/dataset/9/30_8.odb,Step-1,Increment      4: Step Time =    1.000,"PART-1-1",           230,       10.0348,       12.2094,            0.,NA,NA,"",       14.3718,      -14.1027,      -2.76799,   4.78107E-03
C:/temp/dataset/9/30_8.odb,Step-1,Increment      4: Step Time =    1.000,"PART-1-1",           231,       9.98921,       17.4486,            0.,NA,NA,"",       16.8787,      -16.5350,      -3.38851,   4.66496E-03
C:/temp/dataset/9/30_8.odb,Step-1,Increment      4: Step Time =    1.000,"PART-1-1",           232,       10.1044,       9.10575,            0.,NA,NA,"",       12.9011,      -12.6780,      -2.38879,   4.64208E-03
C:/temp/dataset/9/30_8.odb,Step-1,Increment      4: Step Time =    1.000,"PART-1-1",           233,      -3.11139,      -1.10310,            0.,NA,NA,"",       9.87049,      -6.72859,      -7.22168,   1.89957E-03
C:/temp/dataset/9/30_8.odb,Step-1,Increment      4: Step Time =    1.000,"PART-1-1",           234,      -6.48507,       25.5695,            0.,NA,NA,"",       21.9506,      -18.4959,      -11.8208,   1.53286E-03
C:/temp/dataset/9/30_8.odb,Step-1,Increment      4: Step Time =    1.000,"PART-1-1",           235,      -4.76537,       24.8732,            0.,NA,NA,"",       21.3925,      -18.3638,      -10.9731,   1.79212E-03
C:/temp/dataset/9/30_8.odb,Step-1,Increment      4: Step Time =    1.000,"PART-1-1",           236,      -8.46351,       26.0628,            0.,NA,NA,"",       22.4818,      -18.5089,      -12.7614,   1.07227E-03
C:/temp/dataset/9/30_8.odb,Step-1,Increment      4: Step Time =    1.000,"PART-1-1",           237,      -9.50218,       15.8804,            0.,NA,NA,"",       18.4265,      -13.8575,      -12.1451,   4.95107E-03
C:/temp/dataset/9/30_8.odb,Step-1,Increment      4: Step Time =    1.000,"PART-1-1",           238,      -5.29510,      -1.38770,            0.,NA,NA,"",       10.3747,      -6.34851,      -8.20552,   2.37002E-03
C:/temp/dataset/9/30_8.odb,Step-1,Increment      4: Step Time =    1.000,"PART-1-1",           239,       11.0587,      -21.7318,            0.,NA,NA,"",   896.584E-03,  -882.146E-03,   160.258E-03,   31.7676E-03
C:/temp/dataset/9/30_8.odb,Step-1,Increment      4: Step Time =    1.000,"PART-1-1",           240,       11.1670,      -17.4071,            0.,NA,NA,"",       1.93258,      -1.92585,   161.193E-03,   29.2567E-03
C:/temp/dataset/9/30_8.odb,Step-1,Increment      4: Step Time =    1.000,"PART-1-1",           241,       11.0513,      -8.06140,            0.,NA,NA,"",       5.15239,      -5.14476,  -280.262E-03,   22.7242E-03
C:/temp/dataset/9/30_8.odb,Step-1,Increment      4: Step Time =    1.000,"PART-1-1",           242,       10.1357,   7.39639E-03,            0.,NA,NA,"",       8.67047,      -8.55864,      -1.38805,   16.5456E-03
C:/temp/dataset/9/30_8.odb,Step-1,Increment      4: Step Time =    1.000,"PART-1-1",           243,       10.6886,      -3.06387,            0.,NA,NA,"",       7.28569,      -7.23708,  -840.144E-03,   21.9683E-03
C:/temp/dataset/9/30_8.odb,Step-1,Increment      4: Step Time =    1.000,"PART-1-1",           244,       9.76329,       22.4053,            0.,NA,NA,"",       19.2442,      -18.8103,      -4.06373,   1.97397E-03
C:/temp/dataset/9/30_8.odb,Step-1,Increment      4: Step Time =    1.000,"PART-1-1",           245,       8.68231,      -3.74099,            0.,NA,NA,"",       6.94954,      -6.76401,      -1.59510,   23.4758E-03
C:/temp/dataset/9/30_8.odb,Step-1,Increment      4: Step Time =    1.000,"PART-1-1",           246,      -9.34414,       6.30777,            0.,NA,NA,"",       14.5444,      -9.49476,      -11.0177,   7.59047E-03
C:/temp/dataset/9/30_8.odb,Step-1,Increment      4: Step Time =    1.000,"PART-1-1",           247,      -9.93235,       4.61568,            0.,NA,NA,"",       14.0507,      -8.63018,      -11.0879,   7.16694E-03
C:/temp/dataset/9/30_8.odb,Step-1,Increment      4: Step Time =    1.000,"PART-1-1",           248,      -8.14937,       21.0679,            0.,NA,NA,"",       20.2969,      -16.3073,      -12.0846,   4.17558E-03
C:/temp/dataset/9/30_8.odb,Step-1,Increment      4: Step Time =    1.000,"PART-1-1",           249,       10.7972,      -23.3791,            0.,NA,NA,"",   583.252E-03,  -573.052E-03,   108.598E-03,   28.1555E-03
C:/temp/dataset/9/30_8.odb,Step-1,Increment      4: Step Time =    1.000,"PART-1-1",           250,       4.15357,   65.4176E-03,            0.,NA,NA,"",       8.99102,      -8.04064,      -4.02325,   13.3735E-03
C:/temp/dataset/9/30_8.odb,Step-1,Increment      4: Step Time =    1.000,"PART-1-1",           251,       8.71950,       3.82470,            0.,NA,NA,"",       10.4244,      -10.1375,      -2.42870,   9.17733E-03
C:/temp/dataset/9/30_8.odb,Step-1,Increment      4: Step Time =    1.000,"PART-1-1",           252,       5.00281,       23.5204,            0.,NA,NA,"",       19.8513,      -18.7957,      -6.38689,   2.16106E-03
C:/temp/dataset/9/30_8.odb,Step-1,Increment      4: Step Time =    1.000,"PART-1-1",           253,       7.40149,   60.9774E-03,            0.,NA,NA,"",       8.72510,      -8.33558,      -2.57789,   19.9544E-03
C:/temp/dataset/9/30_8.odb,Step-1,Increment      4: Step Time =    1.000,"PART-1-1",           254,      -5.73116,       22.7675,            0.,NA,NA,"",       20.6115,      -17.3160,      -11.1800,   3.24398E-03
C:/temp/dataset/9/30_8.odb,Step-1,Increment      4: Step Time =    1.000,"PART-1-1",           255,      -5.42683,       1.83799,            0.,NA,NA,"",       11.6592,      -7.82860,      -8.63996,   6.19674E-03
C:/temp/dataset/9/30_8.odb,Step-1,Increment      4: Step Time =    1.000,"PART-1-1",           256,       6.81561,       24.0815,            0.,NA,NA,"",       20.0558,      -19.2537,      -5.61510,   1.78220E-03
C:/temp/dataset/9/30_8.odb,Step-1,Increment      4: Step Time =    1.000,"PART-1-1",           257,      -7.40884,       23.3683,            0.,NA,NA,"",       21.1451,      -17.4110,      -11.9988,   2.69899E-03
C:/temp/dataset/9/30_8.odb,Step-1,Increment      4: Step Time =    1.000,"PART-1-1",           258,      -3.69176,       23.9755,            0.,NA,NA,"",       20.8475,      -18.0725,      -10.3926,   2.35285E-03
C:/temp/dataset/9/30_8.odb,Step-1,Increment      4: Step Time =    1.000,"PART-1-1",           259,      -8.10961,       1.76736,            0.,NA,NA,"",       12.4123,      -7.49593,      -9.89320,   5.57801E-03
C:/temp/dataset/9/30_8.odb,Step-1,Increment      4: Step Time =    1.000,"PART-1-1",           260,       5.94930,   61.4696E-03,            0.,NA,NA,"",       8.81481,      -8.20629,      -3.21833,   18.7111E-03
C:/temp/dataset/9/30_8.odb,Step-1,Increment      4: Step Time =    1.000,"PART-1-1",           261,       1.93878,   62.7924E-03,            0.,NA,NA,"",       9.29346,      -7.81572,      -5.02822,   6.50333E-03
C:/temp/dataset/9/30_8.odb,Step-1,Increment      4: Step Time =    1.000,"PART-1-1",           262,       6.71051,      -4.41826,            0.,NA,NA,"",       6.72377,      -6.30347,      -2.33997,   28.4840E-03
C:/temp/dataset/9/30_8.odb,Step-1,Increment      4: Step Time =    1.000,"PART-1-1",           263,      -12.5366,      -2.82410,            0.,NA,NA,"",       12.4109,      -4.84322,      -11.4269,   233.533E-06
C:/temp/dataset/9/30_8.odb,Step-1,Increment      4: Step Time =    1.000,"PART-1-1",           264,       6.75090,       4.53602,            0.,NA,NA,"",       10.8077,      -10.2634,      -3.38675,   12.1278E-03
C:/temp/dataset/9/30_8.odb,Step-1,Increment      4: Step Time =    1.000,"PART-1-1",           265,      -5.22339,       3.46233,            0.,NA,NA,"",       12.2648,      -8.60764,      -8.73690,   8.63616E-03
C:/temp/dataset/9/30_8.odb,Step-1,Increment      4: Step Time =    1.000,"PART-1-1",           266,       4.93795,       21.9167,            0.,NA,NA,"",       19.1001,      -18.0529,      -6.23756,   3.30293E-03
C:/temp/dataset/9/30_8.odb,Step-1,Increment      4: Step Time =    1.000,"PART-1-1",           267,       8.13144,      -1.42002,            0.,NA,NA,"",       8.01743,      -7.74079,      -2.08793,   22.0283E-03
C:/temp/dataset/9/30_8.odb,Step-1,Increment      4: Step Time =    1.000,"PART-1-1",           268,      -3.13115,       1.39136,            0.,NA,NA,"",       10.8857,      -7.87688,      -7.51350,   4.86246E-03
C:/temp/dataset/9/30_8.odb,Step-1,Increment      4: Step Time =    1.000,"PART-1-1",           269,       9.17709,       6.32873,            0.,NA,NA,"",       11.5840,      -11.3109,      -2.50069,   4.03470E-03
C:/temp/dataset/9/30_8.odb,Step-1,Increment      4: Step Time =    1.000,"PART-1-1",           270,      -11.0423,       1.34077,            0.,NA,NA,"",       13.2017,      -6.96520,      -11.2148,   2.89949E-03
C:/temp/dataset/9/30_8.odb,Step-1,Increment      4: Step Time =    1.000,"PART-1-1",           271,      -10.1478,       26.6048,            0.,NA,NA,"",       23.0057,      -18.5742,      -13.5742,   595.202E-06
C:/temp/dataset/9/30_8.odb,Step-1,Increment      4: Step Time =    1.000,"PART-1-1",           272,      -10.1118,       21.9370,            0.,NA,NA,"",       21.0351,      -16.4892,      -13.0607,   2.57460E-03
C:/temp/dataset/9/30_8.odb,Step-1,Increment      4: Step Time =    1.000,"PART-1-1",           273,       8.13886,       1.50501,            0.,NA,NA,"",       9.36455,      -9.04576,      -2.42260,   16.3198E-03
C:/temp/dataset/9/30_8.odb,Step-1,Increment      4: Step Time =    1.000,"PART-1-1",           274,      -7.06249,   219.393E-03,            0.,NA,NA,"",       11.5104,      -6.89269,      -9.21841,   3.84549E-03
C:/temp/dataset/9/30_8.odb,Step-1,Increment      4: Step Time =    1.000,"PART-1-1",           275,      -5.40522,   241.534E-03,            0.,NA,NA,"",       11.0263,      -7.09064,      -8.44401,   3.88388E-03
C:/temp/dataset/9/30_8.odb,Step-1,Increment      4: Step Time =    1.000,"PART-1-1",           276,      -3.80180,   194.541E-03,            0.,NA,NA,"",       10.5682,      -7.24972,      -7.68957,   3.53016E-03
C:/temp/dataset/9/30_8.odb,Step-1,Increment      4: Step Time =    1.000,"PART-1-1",           277,      -2.71285,       28.4954,            0.,NA,NA,"",       22.7547,      -20.2189,      -10.4391,   1.62895E-03
C:/temp/dataset/9/30_8.odb,Step-1,Increment      4: Step Time =    1.000,"PART-1-1",           278,         -3.75,           30.,            0.,NA,NA,"",       23.5477,      -20.7853,      -11.0663,   2.45968E-03
C:/temp/dataset/9/30_8.odb,Step-1,Increment      4: Step Time =    1.000,"PART-1-1",           279,      -5.26224,       28.8665,            0.,NA,NA,"",       23.2288,      -20.1106,      -11.6249,   1.37863E-03
C:/temp/dataset/9/30_8.odb,Step-1,Increment      4: Step Time =    1.000,"PART-1-1",           280,      -4.22509,       27.3619,            0.,NA,NA,"",       22.4257,      -19.5436,      -10.9980,   1.07091E-03
C:/temp/dataset/9/30_8.odb,Step-1,Increment      4: Step Time =    1.000,"PART-1-1",           281,      -3.84553,       25.9321,            0.,NA,NA,"",       21.7393,      -18.9388,      -10.6733,   1.21820E-03
C:/temp/dataset/9/30_8.odb,Step-1,Increment      4: Step Time =    1.000,"PART-1-1",           282,      -6.00478,       26.6512,            0.,NA,NA,"",       22.3532,      -19.0335,      -11.7213,   1.10290E-03
C:/temp/dataset/9/30_8.odb,Step-1,Increment      4: Step Time =    1.000,"PART-1-1",           283,      -5.62522,       25.2214,            0.,NA,NA,"",       21.6693,      -18.4299,      -11.3972,   1.68158E-03
C:/temp/dataset/9/30_8.odb,Step-1,Increment      4: Step Time =    1.000,"PART-1-1",           284,      -10.0879,       29.0985,            0.,NA,NA,"",       24.0592,      -19.6992,      -13.8125,   433.364E-06
C:/temp/dataset/9/30_8.odb,Step-1,Increment      4: Step Time =    1.000,"PART-1-1",           285,        -11.25,           30.,            0.,NA,NA,"",       24.6449,      -19.9798,      -14.4284,   353.045E-06
C:/temp/dataset/9/30_8.odb,Step-1,Increment      4: Step Time =    1.000,"PART-1-1",           286,      -12.4706,       28.9480,            0.,NA,NA,"",       24.4227,      -19.3789,      -14.8636,   194.234E-06
C:/temp/dataset/9/30_8.odb,Step-1,Increment      4: Step Time =    1.000,"PART-1-1",           287,      -11.3086,       28.0465,            0.,NA,NA,"",       23.8269,      -19.0979,      -14.2475,   399.096E-06
C:/temp/dataset/9/30_8.odb,Step-1,Increment      4: Step Time =    1.000,"PART-1-1",           288,      -13.4495,       25.5029,            0.,NA,NA,"",       23.1840,      -17.7314,      -14.9365,   278.862E-06
C:/temp/dataset/9/30_8.odb,Step-1,Increment      4: Step Time =    1.000,"PART-1-1",           289,          -15.,       24.5313,            0.,NA,NA,"",       23.1221,      -17.1324,      -15.5278,   231.756E-06
C:/temp/dataset/9/30_8.odb,Step-1,Increment      4: Step Time =    1.000,"PART-1-1",           290,      -13.6920,       23.1529,            0.,NA,NA,"",       22.2775,      -16.6540,      -14.7963,   527.425E-06
C:/temp/dataset/9/30_8.odb,Step-1,Increment      4: Step Time =    1.000,"PART-1-1",           291,      -12.1415,       24.1246,            0.,NA,NA,"",       22.3476,      -17.2527,      -14.2042,   593.780E-06
C:/temp/dataset/9/30_8.odb,Step-1,Increment      4: Step Time =    1.000,"PART-1-1",           292,          8.75,          -30.,            0.,NA,NA,"",            0.,   348.193E-42,   309.901E-42,   27.0131E-03
C:/temp/dataset/9/30_8.odb,Step-1,Increment      4: Step Time =    1.000,"PART-1-1",           293,       9.96407,      -28.8633,            0.,NA,NA,"",   2.01076E-03,  -683.983E-06,   1.89086E-03,   3.44523E-03
C:/temp/dataset/9/30_8.odb,Step-1,Increment      4: Step Time =    1.000,"PART-1-1",           294,       8.68711,      -27.7998,            0.,NA,NA,"",   68.9435E-03,  -47.4509E-03,  -50.0162E-03,   32.0945E-03
C:/temp/dataset/9/30_8.odb,Step-1,Increment      4: Step Time =    1.000,"PART-1-1",           295,       7.47304,      -28.9365,            0.,NA,NA,"",   47.2539E-03,  -5.52254E-03,  -46.9300E-03,   54.0869E-03
C:/temp/dataset/9/30_8.odb,Step-1,Increment      4: Step Time =    1.000,"PART-1-1",           296,       10.9279,      -22.5555,            0.,NA,NA,"",   732.973E-03,  -720.660E-03,   133.789E-03,   29.9142E-03
C:/temp/dataset/9/30_8.odb,Step-1,Increment      4: Step Time =    1.000,"PART-1-1",           297,       10.0765,      -21.6813,            0.,NA,NA,"",   866.651E-03,  -866.605E-03,  -8.98379E-03,   16.6663E-03
C:/temp/dataset/9/30_8.odb,Step-1,Increment      4: Step Time =    1.000,"PART-1-1",           298,       9.14242,      -22.6395,            0.,NA,NA,"",   687.453E-03,  -672.484E-03,  -142.674E-03,   21.3466E-03
C:/temp/dataset/9/30_8.odb,Step-1,Increment      4: Step Time =    1.000,"PART-1-1",           299,       9.99384,      -23.5137,            0.,NA,NA,"",   535.212E-03,  -535.210E-03,  -1.50828E-03,   16.7529E-03
C:/temp/dataset/9/30_8.odb,Step-1,Increment      4: Step Time =    1.000,"PART-1-1",           300,       7.08785,      -18.4988,            0.,NA,NA,"",       1.72168,      -1.53318,  -783.286E-03,   55.0704E-03
C:/temp/dataset/9/30_8.odb,Step-1,Increment      4: Step Time =    1.000,"PART-1-1",           301,       6.04673,      -17.4684,            0.,NA,NA,"",       2.12047,      -1.78478,      -1.14496,   72.6769E-03
C:/temp/dataset/9/30_8.odb,Step-1,Increment      4: Step Time =    1.000,"PART-1-1",           302,            5.,      -18.5417,            0.,NA,NA,"",       2.01293,      -1.52890,      -1.30933,   96.6476E-03
C:/temp/dataset/9/30_8.odb,Step-1,Increment      4: Step Time =    1.000,"PART-1-1",           303,       6.04112,      -19.5721,            0.,NA,NA,"",       1.59253,      -1.28554,  -939.967E-03,   78.3330E-03
C:/temp/dataset/9/30_8.odb,Step-1,Increment      4: Step Time =    1.000,"PART-1-1",           304,       7.10245,      -14.2066,            0.,NA,NA,"",       2.95539,      -2.72311,      -1.14847,   47.0936E-03
C:/temp/dataset/9/30_8.odb,Step-1,Increment      4: Step Time =    1.000,"PART-1-1",           305,       6.04975,      -13.2285,            0.,NA,NA,"",       3.39347,      -2.99910,      -1.58779,   61.3806E-03
C:/temp/dataset/9/30_8.odb,Step-1,Increment      4: Step Time =    1.000,"PART-1-1",           306,            5.,       -14.375,            0.,NA,NA,"",       3.18624,      -2.62608,      -1.80439,   82.0902E-03
C:/temp/dataset/9/30_8.odb,Step-1,Increment      4: Step Time =    1.000,"PART-1-1",           307,       6.05270,      -15.3531,            0.,NA,NA,"",       2.72170,      -2.35774,      -1.35967,   66.9895E-03
C:/temp/dataset/9/30_8.odb,Step-1,Increment      4: Step Time =    1.000,"PART-1-1",           308,            5.,      -6.04167,            0.,NA,NA,"",       6.19979,      -5.49468,      -2.87158,   63.3757E-03
C:/temp/dataset/9/30_8.odb,Step-1,Increment      4: Step Time =    1.000,"PART-1-1",           309,       5.97724,      -6.85181,            0.,NA,NA,"",       5.75421,      -5.24919,      -2.35732,   45.6813E-03
C:/temp/dataset/9/30_8.odb,Step-1,Increment      4: Step Time =    1.000,"PART-1-1",           310,       6.83249,      -5.51927,            0.,NA,NA,"",       6.23300,      -5.84708,      -2.15915,   25.6304E-03
C:/temp/dataset/9/30_8.odb,Step-1,Increment      4: Step Time =    1.000,"PART-1-1",           311,       5.85525,      -4.70913,            0.,NA,NA,"",       6.65940,      -6.10136,      -2.66851,   35.1530E-03
C:/temp/dataset/9/30_8.odb,Step-1,Increment      4: Step Time =    1.000,"PART-1-1",           312,       4.27314,       1.25089,            0.,NA,NA,"",       9.51319,      -8.58071,      -4.10759,   14.0816E-03
C:/temp/dataset/9/30_8.odb,Step-1,Increment      4: Step Time =    1.000,"PART-1-1",           313,       3.27994,       2.49943,            0.,NA,NA,"",       10.1912,      -9.04396,      -4.69766,   11.6491E-03
C:/temp/dataset/9/30_8.odb,Step-1,Increment      4: Step Time =    1.000,"PART-1-1",           314,       2.05297,       1.31265,            0.,NA,NA,"",       9.82826,      -8.39088,      -5.11741,   8.01230E-03
C:/temp/dataset/9/30_8.odb,Step-1,Increment      4: Step Time =    1.000,"PART-1-1",           315,       3.04617,   64.1050E-03,            0.,NA,NA,"",       9.12973,      -7.92975,      -4.52450,   9.93922E-03
C:/temp/dataset/9/30_8.odb,Step-1,Increment      4: Step Time =    1.000,"PART-1-1",           316,       6.28410,       12.4112,            0.,NA,NA,"",       14.5014,      -13.7823,      -4.50986,   4.99670E-03
C:/temp/dataset/9/30_8.odb,Step-1,Increment      4: Step Time =    1.000,"PART-1-1",           317,            5.,         11.25,            0.,NA,NA,"",       14.0166,      -13.1076,      -4.96563,   7.81633E-03
C:/temp/dataset/9/30_8.odb,Step-1,Increment      4: Step Time =    1.000,"PART-1-1",           318,       6.24476,       9.82085,            0.,NA,NA,"",       13.2788,      -12.5890,      -4.22411,   7.18718E-03
C:/temp/dataset/9/30_8.odb,Step-1,Increment      4: Step Time =    1.000,"PART-1-1",           319,       7.52885,       10.9821,            0.,NA,NA,"",       13.7865,      -13.2604,      -3.77197,   5.28847E-03
C:/temp/dataset/9/30_8.odb,Step-1,Increment      4: Step Time =    1.000,"PART-1-1",           320,       6.23557,       19.9374,            0.,NA,NA,"",       18.1073,      -17.2798,      -5.41124,   6.34129E-03
C:/temp/dataset/9/30_8.odb,Step-1,Increment      4: Step Time =    1.000,"PART-1-1",           321,            5.,         18.75,            0.,NA,NA,"",       17.5822,      -16.5816,      -5.84656,   3.62607E-03
C:/temp/dataset/9/30_8.odb,Step-1,Increment      4: Step Time =    1.000,"PART-1-1",           322,       6.25255,       17.4722,            0.,NA,NA,"",       16.9195,      -16.1276,      -5.11567,   2.18850E-03
C:/temp/dataset/9/30_8.odb,Step-1,Increment      4: Step Time =    1.000,"PART-1-1",           323,       7.48812,       18.6595,            0.,NA,NA,"",       17.4609,      -16.8214,      -4.68223,   4.70812E-03
C:/temp/dataset/9/30_8.odb,Step-1,Increment      4: Step Time =    1.000,"PART-1-1",           324,       12.4612,       28.7577,            0.,NA,NA,"",       22.3210,      -22.0394,      -3.53417,   536.022E-06
C:/temp/dataset/9/30_8.odb,Step-1,Increment      4: Step Time =    1.000,"PART-1-1",           325,         11.25,           30.,            0.,NA,NA,"",       22.8702,      -22.4752,      -4.23253,   782.724E-06
C:/temp/dataset/9/30_8.odb,Step-1,Increment      4: Step Time =    1.000,"PART-1-1",           326,       9.95383,       28.8406,            0.,NA,NA,"",       22.2946,      -21.7935,      -4.70005,   1.09721E-03
C:/temp/dataset/9/30_8.odb,Step-1,Increment      4: Step Time =    1.000,"PART-1-1",           327,       11.1650,       27.5983,            0.,NA,NA,"",       21.7305,      -21.3588,      -4.00213,   1.11954E-03
C:/temp/dataset/9/30_8.odb,Step-1,Increment      4: Step Time =    1.000,"PART-1-1",           328,       9.61193,       26.3742,            0.,NA,NA,"",       21.1231,      -20.6203,      -4.58176,   1.25843E-03
C:/temp/dataset/9/30_8.odb,Step-1,Increment      4: Step Time =    1.000,"PART-1-1",           329,       10.8062,       25.0400,            0.,NA,NA,"",       20.5115,      -20.1411,      -3.88030,   1.21920E-03
C:/temp/dataset/9/30_8.odb,Step-1,Increment      4: Step Time =    1.000,"PART-1-1",           330,       12.3592,       26.2641,            0.,NA,NA,"",       21.1389,      -20.8796,      -3.30078,   960.417E-06
C:/temp/dataset/9/30_8.odb,Step-1,Increment      4: Step Time =    1.000,"PART-1-1",           331,       7.54419,       28.9985,            0.,NA,NA,"",       22.3650,      -21.5925,      -5.82715,   1.79429E-03
C:/temp/dataset/9/30_8.odb,Step-1,Increment      4: Step Time =    1.000,"PART-1-1",           332,          6.25,           30.,            0.,NA,NA,"",       22.8590,      -21.9058,      -6.53218,   2.83406E-03
C:/temp/dataset/9/30_8.odb,Step-1,Increment      4: Step Time =    1.000,"PART-1-1",           333,       5.09159,       28.9175,            0.,NA,NA,"",       22.3814,      -21.2772,      -6.94318,   2.30049E-03
C:/temp/dataset/9/30_8.odb,Step-1,Increment      4: Step Time =    1.000,"PART-1-1",           334,       6.38578,       27.9160,            0.,NA,NA,"",       21.8729,      -20.9642,      -6.23931,   1.47974E-03
C:/temp/dataset/9/30_8.odb,Step-1,Increment      4: Step Time =    1.000,"PART-1-1",           335,       2.95769,       26.1428,            0.,NA,NA,"",       21.1854,      -19.7701,      -7.61335,   415.681E-06
C:/temp/dataset/9/30_8.odb,Step-1,Increment      4: Step Time =    1.000,"PART-1-1",           336,       4.45909,       25.3098,            0.,NA,NA,"",       20.7152,      -19.5552,      -6.83495,   945.955E-06
C:/temp/dataset/9/30_8.odb,Step-1,Increment      4: Step Time =    1.000,"PART-1-1",           337,       5.44343,       26.8217,            0.,NA,NA,"",       21.3848,      -20.3567,      -6.55075,   1.05925E-03
C:/temp/dataset/9/30_8.odb,Step-1,Increment      4: Step Time =    1.000,"PART-1-1",           338,       3.94204,       27.6547,            0.,NA,NA,"",       21.8369,      -20.5699,      -7.32996,   1.23680E-03
C:/temp/dataset/9/30_8.odb,Step-1,Increment      4: Step Time =    1.000,"PART-1-1",           339,       6.06395,       7.26936,            0.,NA,NA,"",       12.0943,      -11.4115,      -4.00616,   9.65765E-03
C:/temp/dataset/9/30_8.odb,Step-1,Increment      4: Step Time =    1.000,"PART-1-1",           340,       7.30871,       8.34021,            0.,NA,NA,"",       12.5449,      -12.0270,      -3.56755,   6.64030E-03
C:/temp/dataset/9/30_8.odb,Step-1,Increment      4: Step Time =    1.000,"PART-1-1",           341,            5.,          8.75,            0.,NA,NA,"",       12.8471,      -11.9690,      -4.66819,   11.5160E-03
C:/temp/dataset/9/30_8.odb,Step-1,Increment      4: Step Time =    1.000,"PART-1-1",           342,      -13.9291,       1.47830,            0.,NA,NA,"",       14.2514,      -6.69712,      -12.5797,   1.10996E-03
C:/temp/dataset/9/30_8.odb,Step-1,Increment      4: Step Time =    1.000,"PART-1-1",           343,          -15.,    468.75E-03,            0.,NA,NA,"",       14.3265,      -6.09854,      -12.9636,   264.463E-06
C:/temp/dataset/9/30_8.odb,Step-1,Increment      4: Step Time =    1.000,"PART-1-1",           344,      -13.8152,  -655.377E-03,            0.,NA,NA,"",       13.5404,      -5.70968,      -12.2777,   298.453E-06
C:/temp/dataset/9/30_8.odb,Step-1,Increment      4: Step Time =    1.000,"PART-1-1",           345,      -12.7443,   354.171E-03,            0.,NA,NA,"",       13.4631,      -6.30701,      -11.8944,   1.23238E-03
C:/temp/dataset/9/30_8.odb,Step-1,Increment      4: Step Time =    1.000,"PART-1-1",           346,      -13.9678,       8.16706,            0.,NA,NA,"",       16.5901,      -9.83681,      -13.3592,   7.00926E-03
C:/temp/dataset/9/30_8.odb,Step-1,Increment      4: Step Time =    1.000,"PART-1-1",           347,          -15.,       7.03125,            0.,NA,NA,"",       16.5039,      -9.18365,      -13.7128,   7.44364E-03
C:/temp/dataset/9/30_8.odb,Step-1,Increment      4: Step Time =    1.000,"PART-1-1",           348,      -13.6804,       5.85321,            0.,NA,NA,"",       15.6639,      -8.78480,      -12.9687,   4.96319E-03
C:/temp/dataset/9/30_8.odb,Step-1,Increment      4: Step Time =    1.000,"PART-1-1",           349,      -12.6482,       6.98902,            0.,NA,NA,"",       15.7584,      -9.43780,      -12.6196,   5.29659E-03
C:/temp/dataset/9/30_8.odb,Step-1,Increment      4: Step Time =    1.000,"PART-1-1",           350,      -5.93089,       17.7206,            0.,NA,NA,"",       18.4877,      -15.0544,      -10.7313,   3.41920E-03
C:/temp/dataset/9/30_8.odb,Step-1,Increment      4: Step Time =    1.000,"PART-1-1",           351,      -7.00986,       16.6597,            0.,NA,NA,"",       18.2387,      -14.4705,      -11.1021,   4.23228E-03
C:/temp/dataset/9/30_8.odb,Step-1,Increment      4: Step Time =    1.000,"PART-1-1",           352,      -6.07897,       15.1891,            0.,NA,NA,"",       17.4459,      -13.9143,      -10.5239,   5.32616E-03
C:/temp/dataset/9/30_8.odb,Step-1,Increment      4: Step Time =    1.000,"PART-1-1",           353,           -5.,         16.25,            0.,NA,NA,"",       17.7012,      -14.4981,      -10.1557,   5.29638E-03
C:/temp/dataset/9/30_8.odb,Step-1,Increment      4: Step Time =    1.000,"PART-1-1",           354,      -7.79966,       18.2865,            0.,NA,NA,"",       19.0677,      -15.1094,      -11.6311,   4.64304E-03
C:/temp/dataset/9/30_8.odb,Step-1,Increment      4: Step Time =    1.000,"PART-1-1",           355,      -6.65288,       19.1839,            0.,NA,NA,"",       19.2316,      -15.6268,      -11.2098,   4.85942E-03
C:/temp/dataset/9/30_8.odb,Step-1,Increment      4: Step Time =    1.000,"PART-1-1",           356,      -7.29668,       20.7472,            0.,NA,NA,"",       20.0066,      -16.2530,      -11.6663,   4.85652E-03
C:/temp/dataset/9/30_8.odb,Step-1,Increment      4: Step Time =    1.000,"PART-1-1",           357,      -8.44345,       19.8498,            0.,NA,NA,"",       19.8418,      -15.7352,      -12.0873,   4.48574E-03
C:/temp/dataset/9/30_8.odb,Step-1,Increment      4: Step Time =    1.000,"PART-1-1",           358,      -2.59303,       4.06073,            0.,NA,NA,"",       11.8891,      -9.16498,      -7.57331,   13.3678E-03
C:/temp/dataset/9/30_8.odb,Step-1,Increment      4: Step Time =    1.000,"PART-1-1",           359,      -1.46713,       2.91047,            0.,NA,NA,"",       11.1547,      -8.75244,      -6.91528,   9.99014E-03
C:/temp/dataset/9/30_8.odb,Step-1,Increment      4: Step Time =    1.000,"PART-1-1",           360,  -124.098E-03,       3.84974,            0.,NA,NA,"",       11.3040,      -9.31620,      -6.40232,   13.3909E-03
C:/temp/dataset/9/30_8.odb,Step-1,Increment      4: Step Time =    1.000,"PART-1-1",           361,         -1.25,            5.,            0.,NA,NA,"",       12.0182,      -9.72693,      -7.05861,   16.7772E-03
C:/temp/dataset/9/30_8.odb,Step-1,Increment      4: Step Time =    1.000,"PART-1-1",           362,      -11.2683,  -541.568E-03,            0.,NA,NA,"",       12.6448,      -6.05769,      -11.0993,   1.22269E-03
C:/temp/dataset/9/30_8.odb,Step-1,Increment      4: Step Time =    1.000,"PART-1-1",           363,      -10.4743,   471.696E-03,            0.,NA,NA,"",       12.7088,      -6.62284,      -10.8467,   2.33720E-03
C:/temp/dataset/9/30_8.odb,Step-1,Increment      4: Step Time =    1.000,"PART-1-1",           364,      -11.9503,       1.36743,            0.,NA,NA,"",       13.5199,      -6.87379,      -11.6421,   2.30178E-03
C:/temp/dataset/9/30_8.odb,Step-1,Increment      4: Step Time =    1.000,"PART-1-1",           365,      -13.0095,       9.29789,            0.,NA,NA,"",       16.7271,      -10.4742,      -13.0417,   5.58827E-03
C:/temp/dataset/9/30_8.odb,Step-1,Increment      4: Step Time =    1.000,"PART-1-1",           366,      -14.0417,       10.3496,            0.,NA,NA,"",       17.4147,      -10.8430,      -13.6272,   7.93217E-03
C:/temp/dataset/9/30_8.odb,Step-1,Increment      4: Step Time =    1.000,"PART-1-1",           367,          -15.,       9.21875,            0.,NA,NA,"",       17.2834,      -10.2072,      -13.9474,   9.50581E-03
C:/temp/dataset/9/30_8.odb,Step-1,Increment      4: Step Time =    1.000,"PART-1-1",           368,      -6.40766,      -1.28741,            0.,NA,NA,"",       10.7524,      -6.26756,      -8.73681,   2.29903E-03
C:/temp/dataset/9/30_8.odb,Step-1,Increment      4: Step Time =    1.000,"PART-1-1",           369,      -5.35016,  -573.084E-03,            0.,NA,NA,"",       10.6981,      -6.71954,      -8.32451,   3.02741E-03
C:/temp/dataset/9/30_8.odb,Step-1,Increment      4: Step Time =    1.000,"PART-1-1",           370,      -6.23385,   230.463E-03,            0.,NA,NA,"",       11.2637,      -6.99175,      -8.83097,   3.88826E-03
C:/temp/dataset/9/30_8.odb,Step-1,Increment      4: Step Time =    1.000,"PART-1-1",           371,      -7.29135,  -483.859E-03,            0.,NA,NA,"",       11.3232,      -6.53980,      -9.24364,   3.07292E-03
C:/temp/dataset/9/30_8.odb,Step-1,Increment      4: Step Time =    1.000,"PART-1-1",           372,   952.242E-03,      -2.53706,            0.,NA,NA,"",       8.33963,      -6.52769,      -5.19025,   2.63419E-03
C:/temp/dataset/9/30_8.odb,Step-1,Increment      4: Step Time =    1.000,"PART-1-1",           373,  -130.910E-03,      -3.80019,            0.,NA,NA,"",       8.04338,      -5.82449,      -5.54719,   2.86175E-03
C:/temp/dataset/9/30_8.odb,Step-1,Increment      4: Step Time =    1.000,"PART-1-1",           374,          1.25,           -5.,            0.,NA,NA,"",       7.23457,      -5.42914,      -4.78157,   4.63981E-03
C:/temp/dataset/9/30_8.odb,Step-1,Increment      4: Step Time =    1.000,"PART-1-1",           375,       2.33315,      -3.73687,            0.,NA,NA,"",       7.56547,      -6.13766,      -4.42329,   5.06474E-03
C:/temp/dataset/9/30_8.odb,Step-1,Increment      4: Step Time =    1.000,"PART-1-1",           376,       4.26686,      -1.13377,            0.,NA,NA,"",       8.43722,      -7.51667,      -3.83227,   13.8148E-03
C:/temp/dataset/9/30_8.odb,Step-1,Increment      4: Step Time =    1.000,"PART-1-1",           377,       2.05254,      -1.20548,            0.,NA,NA,"",       8.71826,      -7.25499,      -4.83458,   4.47406E-03
C:/temp/dataset/9/30_8.odb,Step-1,Increment      4: Step Time =    1.000,"PART-1-1",           378,       3.27323,      -2.40335,            0.,NA,NA,"",       8.00250,      -6.84960,      -4.13800,   7.86559E-03
C:/temp/dataset/9/30_8.odb,Step-1,Increment      4: Step Time =    1.000,"PART-1-1",           379,       10.4325,       1.51548,            0.,NA,NA,"",       9.37427,      -9.26592,      -1.42117,   12.5205E-03
C:/temp/dataset/9/30_8.odb,Step-1,Increment      4: Step Time =    1.000,"PART-1-1",           380,       11.3847,  -3.51279E-03,            0.,NA,NA,"",       8.71477,      -8.67309,  -851.289E-03,   15.5045E-03
C:/temp/dataset/9/30_8.odb,Step-1,Increment      4: Step Time =    1.000,"PART-1-1",           381,       12.7244,       1.31309,            0.,NA,NA,"",       9.41393,      -9.40531,  -402.810E-03,   14.8996E-03
C:/temp/dataset/9/30_8.odb,Step-1,Increment      4: Step Time =    1.000,"PART-1-1",           382,       11.7722,       2.83209,            0.,NA,NA,"",       10.0434,      -9.99618,  -972.608E-03,   9.56806E-03
C:/temp/dataset/9/30_8.odb,Step-1,Increment      4: Step Time =    1.000,"PART-1-1",           383,       9.00808,      -7.25637,            0.,NA,NA,"",       5.42621,      -5.31042,      -1.11499,   17.8285E-03
C:/temp/dataset/9/30_8.odb,Step-1,Increment      4: Step Time =    1.000,"PART-1-1",           384,       7.95196,      -6.36313,            0.,NA,NA,"",       5.81997,      -5.59158,      -1.61440,   21.4112E-03
C:/temp/dataset/9/30_8.odb,Step-1,Increment      4: Step Time =    1.000,"PART-1-1",           385,       7.00211,      -7.70397,            0.,NA,NA,"",       5.32145,      -4.99069,      -1.84684,   33.8842E-03
C:/temp/dataset/9/30_8.odb,Step-1,Increment      4: Step Time =    1.000,"PART-1-1",           386,       8.05823,      -8.59720,            0.,NA,NA,"",       4.90587,      -4.71670,      -1.34919,   25.0998E-03
C:/temp/dataset/9/30_8.odb,Step-1,Increment      4: Step Time =    1.000,"PART-1-1",           387,       7.09104,      -12.0381,            0.,NA,NA,"",       3.68464,      -3.42470,      -1.35940,   43.2168E-03
C:/temp/dataset/9/30_8.odb,Step-1,Increment      4: Step Time =    1.000,"PART-1-1",           388,       6.04129,      -11.1013,            0.,NA,NA,"",       4.12800,      -3.70102,      -1.82833,   55.8821E-03
C:/temp/dataset/9/30_8.odb,Step-1,Increment      4: Step Time =    1.000,"PART-1-1",           389,            5.,      -12.2917,            0.,NA,NA,"",       3.86422,      -3.26884,      -2.06079,   74.8931E-03
C:/temp/dataset/9/30_8.odb,Step-1,Increment      4: Step Time =    1.000,"PART-1-1",           390,       9.13117,      -18.4822,            0.,NA,NA,"",       1.59674,      -1.56904,  -296.133E-03,   20.6039E-03
C:/temp/dataset/9/30_8.odb,Step-1,Increment      4: Step Time =    1.000,"PART-1-1",           391,       10.1297,      -19.6034,            0.,NA,NA,"",       1.32120,      -1.32071,  -36.0227E-03,   16.6738E-03
C:/temp/dataset/9/30_8.odb,Step-1,Increment      4: Step Time =    1.000,"PART-1-1",           392,       11.1535,      -18.5257,            0.,NA,NA,"",       1.63336,      -1.62423,   172.437E-03,   30.0252E-03
C:/temp/dataset/9/30_8.odb,Step-1,Increment      4: Step Time =    1.000,"PART-1-1",           393,       10.1550,      -17.4045,            0.,NA,NA,"",       1.88711,      -1.88495,  -90.3116E-03,   16.5140E-03
C:/temp/dataset/9/30_8.odb,Step-1,Increment      4: Step Time =    1.000,"PART-1-1",           394,       6.27183,       14.9637,            0.,NA,NA,"",       15.7172,      -14.9617,      -4.81448,   3.17440E-03
C:/temp/dataset/9/30_8.odb,Step-1,Increment      4: Step Time =    1.000,"PART-1-1",           395,       7.52438,       16.1859,            0.,NA,NA,"",       16.2708,      -15.6708,      -4.37784,   4.09521E-03
C:/temp/dataset/9/30_8.odb,Step-1,Increment      4: Step Time =    1.000,"PART-1-1",           396,            5.,         16.25,            0.,NA,NA,"",       16.3856,      -15.4149,      -5.55591,   2.38974E-03
C:/temp/dataset/9/30_8.odb,Step-1,Increment      4: Step Time =    1.000,"PART-1-1",           397,       2.56719,       21.1071,            0.,NA,NA,"",       18.8716,      -17.4305,      -7.23288,   6.28766E-03
C:/temp/dataset/9/30_8.odb,Step-1,Increment      4: Step Time =    1.000,"PART-1-1",           398,       1.41709,       22.2600,            0.,NA,NA,"",       19.5006,      -17.8346,      -7.88686,   4.73959E-03
C:/temp/dataset/9/30_8.odb,Step-1,Increment      4: Step Time =    1.000,"PART-1-1",           399,   99.9026E-03,       21.1528,            0.,NA,NA,"",       19.1213,      -17.1950,      -8.36395,   5.89126E-03
C:/temp/dataset/9/30_8.odb,Step-1,Increment      4: Step Time =    1.000,"PART-1-1",           400,          1.25,           20.,            0.,NA,NA,"",       18.4783,      -16.7927,      -7.71062,   7.38769E-03
C:/temp/dataset/9/30_8.odb,Step-1,Increment      4: Step Time =    1.000,"PART-1-1",           401,       7.55593,       13.6250,            0.,NA,NA,"",       15.0441,      -14.4842,      -4.06592,   4.28180E-03
C:/temp/dataset/9/30_8.odb,Step-1,Increment      4: Step Time =    1.000,"PART-1-1",           402,            5.,         13.75,            0.,NA,NA,"",       15.1973,      -14.2573,      -5.26184,   5.09959E-03
C:/temp/dataset/9/30_8.odb,Step-1,Increment      4: Step Time =    1.000,"PART-1-1",           403,       8.77818,       14.9146,            0.,NA,NA,"",       15.6515,      -15.2191,      -3.65321,   4.29931E-03
C:/temp/dataset/9/30_8.odb,Step-1,Increment      4: Step Time =    1.000,"PART-1-1",           404,       10.0010,       16.1752,            0.,NA,NA,"",       16.2679,      -15.9427,      -3.23632,   4.69530E-03
C:/temp/dataset/9/30_8.odb,Step-1,Increment      4: Step Time =    1.000,"PART-1-1",           405,       8.74716,       17.4465,            0.,NA,NA,"",       16.8668,      -16.3953,      -3.96018,   4.60273E-03
C:/temp/dataset/9/30_8.odb,Step-1,Increment      4: Step Time =    1.000,"PART-1-1",           406,       10.1219,       5.90684,            0.,NA,NA,"",       11.4015,      -11.2190,      -2.03148,   4.33433E-03
C:/temp/dataset/9/30_8.odb,Step-1,Increment      4: Step Time =    1.000,"PART-1-1",           407,       8.94830,       5.07672,            0.,NA,NA,"",       11.0021,      -10.7223,      -2.46564,   6.12026E-03
C:/temp/dataset/9/30_8.odb,Step-1,Increment      4: Step Time =    1.000,"PART-1-1",           408,       9.72441,       3.42413,            0.,NA,NA,"",       10.2418,      -10.0565,      -1.93894,   8.16473E-03
C:/temp/dataset/9/30_8.odb,Step-1,Increment      4: Step Time =    1.000,"PART-1-1",           409,       10.8980,       4.25426,            0.,NA,NA,"",       10.6580,      -10.5507,      -1.50809,   6.96064E-03
C:/temp/dataset/9/30_8.odb,Step-1,Increment      4: Step Time =    1.000,"PART-1-1",           410,       8.15250,       6.68373,            0.,NA,NA,"",       11.7536,      -11.3643,      -2.99998,   4.85325E-03
C:/temp/dataset/9/30_8.odb,Step-1,Increment      4: Step Time =    1.000,"PART-1-1",           411,       9.64075,       7.71724,            0.,NA,NA,"",       12.2385,      -11.9918,      -2.44496,   4.29858E-03
C:/temp/dataset/9/30_8.odb,Step-1,Increment      4: Step Time =    1.000,"PART-1-1",           412,       8.79696,       9.37373,            0.,NA,NA,"",       13.0121,      -12.6589,      -3.01087,   4.65770E-03
C:/temp/dataset/9/30_8.odb,Step-1,Increment      4: Step Time =    1.000,"PART-1-1",           413,   959.485E-03,       2.63099,            0.,NA,NA,"",       10.5826,      -8.87436,      -5.76509,   9.81486E-03
C:/temp/dataset/9/30_8.odb,Step-1,Increment      4: Step Time =    1.000,"PART-1-1",           414,       2.33358,       3.78125,            0.,NA,NA,"",       10.8857,      -9.52589,      -5.26841,   13.3510E-03
C:/temp/dataset/9/30_8.odb,Step-1,Increment      4: Step Time =    1.000,"PART-1-1",           415,          1.25,            5.,            0.,NA,NA,"",       11.5844,      -9.96854,      -5.90145,   17.1010E-03
C:/temp/dataset/9/30_8.odb,Step-1,Increment      4: Step Time =    1.000,"PART-1-1",           416,      -9.23288,       7.29816,            0.,NA,NA,"",       14.9099,      -9.97394,      -11.0827,   6.60328E-03
C:/temp/dataset/9/30_8.odb,Step-1,Increment      4: Step Time =    1.000,"PART-1-1",           417,      -8.32915,       6.01548,            0.,NA,NA,"",       14.1515,      -9.47234,      -10.5138,   8.63750E-03
C:/temp/dataset/9/30_8.odb,Step-1,Increment      4: Step Time =    1.000,"PART-1-1",           418,      -7.21136,       6.82340,            0.,NA,NA,"",       14.1962,      -9.98217,      -10.0940,   8.52355E-03
C:/temp/dataset/9/30_8.odb,Step-1,Increment      4: Step Time =    1.000,"PART-1-1",           419,      -8.11509,       8.10607,            0.,NA,NA,"",       14.9521,      -10.4819,      -10.6628,   6.77716E-03
C:/temp/dataset/9/30_8.odb,Step-1,Increment      4: Step Time =    1.000,"PART-1-1",           420,      -13.1318,       11.4675,            0.,NA,NA,"",       17.5797,      -11.4614,      -13.3297,   5.73140E-03
C:/temp/dataset/9/30_8.odb,Step-1,Increment      4: Step Time =    1.000,"PART-1-1",           421,      -14.0901,       12.5242,            0.,NA,NA,"",       18.2385,      -11.8367,      -13.8758,   7.49595E-03
C:/temp/dataset/9/30_8.odb,Step-1,Increment      4: Step Time =    1.000,"PART-1-1",           422,          -15.,       11.4063,            0.,NA,NA,"",       18.0779,      -11.2208,      -14.1740,   9.77327E-03
C:/temp/dataset/9/30_8.odb,Step-1,Increment      4: Step Time =    1.000,"PART-1-1",           423,      -9.35396,       14.3983,            0.,NA,NA,"",       17.7942,      -13.2113,      -11.9203,   4.71915E-03
C:/temp/dataset/9/30_8.odb,Step-1,Increment      4: Step Time =    1.000,"PART-1-1",           424,      -10.5094,       15.3924,            0.,NA,NA,"",       18.4545,      -13.5300,      -12.5502,   4.59303E-03
C:/temp/dataset/9/30_8.odb,Step-1,Increment      4: Step Time =    1.000,"PART-1-1",           425,      -11.3610,       13.8160,            0.,NA,NA,"",       18.0306,      -12.7281,      -12.7710,   4.35543E-03
C:/temp/dataset/9/30_8.odb,Step-1,Increment      4: Step Time =    1.000,"PART-1-1",           426,      -10.2056,       12.8219,            0.,NA,NA,"",       17.3588,      -12.4079,      -12.1397,   4.15644E-03
C:/temp/dataset/9/30_8.odb,Step-1,Increment      4: Step Time =    1.000,"PART-1-1",           427,      -14.0810,       18.8007,            0.,NA,NA,"",       20.6360,      -14.6678,      -14.5155,   2.47434E-03
C:/temp/dataset/9/30_8.odb,Step-1,Increment      4: Step Time =    1.000,"PART-1-1",           428,          -15.,       17.9688,            0.,NA,NA,"",       20.5378,      -14.1971,      -14.8406,   3.51706E-03
C:/temp/dataset/9/30_8.odb,Step-1,Increment      4: Step Time =    1.000,"PART-1-1",           429,      -14.2329,       16.7349,            0.,NA,NA,"",       19.8728,      -13.7260,      -14.3710,   4.26935E-03
C:/temp/dataset/9/30_8.odb,Step-1,Increment      4: Step Time =    1.000,"PART-1-1",           430,      -13.3139,       17.5668,            0.,NA,NA,"",       19.9705,      -14.1982,      -14.0438,   3.67272E-03
C:/temp/dataset/9/30_8.odb,Step-1,Increment      4: Step Time =    1.000,"PART-1-1",           431,      -12.9537,       19.5700,            0.,NA,NA,"",       20.6760,      -15.1320,      -14.0896,   2.67139E-03
C:/temp/dataset/9/30_8.odb,Step-1,Increment      4: Step Time =    1.000,"PART-1-1",           432,      -13.8727,       20.9255,            0.,NA,NA,"",       21.4246,      -15.6395,      -14.6432,   1.24967E-03
C:/temp/dataset/9/30_8.odb,Step-1,Increment      4: Step Time =    1.000,"PART-1-1",           433,          -15.,       20.1563,            0.,NA,NA,"",       21.3852,      -15.1762,      -15.0669,   1.48721E-03
C:/temp/dataset/9/30_8.odb,Step-1,Increment      4: Step Time =    1.000,"PART-1-1",           434,       1.76445,       24.7908,            0.,NA,NA,"",       20.6404,      -19.0234,      -8.00857,   1.61673E-03
C:/temp/dataset/9/30_8.odb,Step-1,Increment      4: Step Time =    1.000,"PART-1-1",           435,       1.36974,       27.3866,            0.,NA,NA,"",       21.8702,      -20.1623,      -8.47265,   905.212E-06
C:/temp/dataset/9/30_8.odb,Step-1,Increment      4: Step Time =    1.000,"PART-1-1",           436,   176.493E-03,       26.0346,            0.,NA,NA,"",       21.3459,      -19.4171,      -8.86687,   798.584E-06
C:/temp/dataset/9/30_8.odb,Step-1,Increment      4: Step Time =    1.000,"PART-1-1",           437,       7.39460,       20.9669,            0.,NA,NA,"",       18.5679,      -17.8837,      -4.99401,   4.24159E-03
C:/temp/dataset/9/30_8.odb,Step-1,Increment      4: Step Time =    1.000,"PART-1-1",           438,       8.70526,       19.9066,            0.,NA,NA,"",       18.0474,      -17.5362,      -4.26513,   4.12053E-03
C:/temp/dataset/9/30_8.odb,Step-1,Increment      4: Step Time =    1.000,"PART-1-1",           439,       9.85134,       21.1719,            0.,NA,NA,"",       18.6582,      -18.2500,      -3.88169,   2.49199E-03
C:/temp/dataset/9/30_8.odb,Step-1,Increment      4: Step Time =    1.000,"PART-1-1",           440,       8.54068,       22.2321,            0.,NA,NA,"",       19.1572,      -18.5945,      -4.60912,   2.62581E-03
C:/temp/dataset/9/30_8.odb,Step-1,Increment      4: Step Time =    1.000,"PART-1-1",           441,       4.10864,       24.1658,            0.,NA,NA,"",       20.1972,      -18.9933,      -6.86891,   1.62685E-03
C:/temp/dataset/9/30_8.odb,Step-1,Increment      4: Step Time =    1.000,"PART-1-1",           442,       5.90921,       23.8009,            0.,NA,NA,"",       19.9485,      -19.0243,      -6.00133,   1.85012E-03
C:/temp/dataset/9/30_8.odb,Step-1,Increment      4: Step Time =    1.000,"PART-1-1",           443,       6.25965,       24.9450,            0.,NA,NA,"",       20.4768,      -19.5879,      -5.96760,   1.35027E-03
C:/temp/dataset/9/30_8.odb,Step-1,Increment      4: Step Time =    1.000,"PART-1-1",           444,   19.2837E-03,       28.6494,            0.,NA,NA,"",       22.5590,      -20.5878,      -9.22219,   2.07637E-03
C:/temp/dataset/9/30_8.odb,Step-1,Increment      4: Step Time =    1.000,"PART-1-1",           445,       2.60045,       28.7372,            0.,NA,NA,"",       22.4140,      -20.9145,      -8.06028,   2.31237E-03
C:/temp/dataset/9/30_8.odb,Step-1,Increment      4: Step Time =    1.000,"PART-1-1",           446,          1.25,           30.,            0.,NA,NA,"",       23.0864,      -21.3391,      -8.81062,   3.53884E-03
C:/temp/dataset/9/30_8.odb,Step-1,Increment      4: Step Time =    1.000,"PART-1-1",           447,      -7.67774,       29.0428,            0.,NA,NA,"",       23.6477,      -19.9309,      -12.7269,   872.157E-06
C:/temp/dataset/9/30_8.odb,Step-1,Increment      4: Step Time =    1.000,"PART-1-1",           448,      -6.68998,       27.9093,            0.,NA,NA,"",       23.0053,      -19.5268,      -12.1634,   968.260E-06
C:/temp/dataset/9/30_8.odb,Step-1,Increment      4: Step Time =    1.000,"PART-1-1",           449,         -6.25,           30.,            0.,NA,NA,"",       23.8619,      -20.5142,      -12.1884,   1.62883E-03
C:/temp/dataset/9/30_8.odb,Step-1,Increment      4: Step Time =    1.000,"PART-1-1",           450,      -12.1701,       26.6384,            0.,NA,NA,"",       23.3974,      -18.3755,      -14.4839,   277.788E-06
C:/temp/dataset/9/30_8.odb,Step-1,Increment      4: Step Time =    1.000,"PART-1-1",           451,      -13.7206,       27.8542,            0.,NA,NA,"",       24.2098,      -18.7562,      -15.3075,   198.261E-06
C:/temp/dataset/9/30_8.odb,Step-1,Increment      4: Step Time =    1.000,"PART-1-1",           452,          -15.,       26.7188,            0.,NA,NA,"",       24.0088,      -18.1119,      -15.7601,   195.865E-06
C:/temp/dataset/9/30_8.odb,Step-1,Increment      4: Step Time =    1.000,"PART-1-1",           453,        -13.75,           30.,            0.,NA,NA,"",       25.1080,      -19.7147,      -15.5482,   53.2971E-06
C:/temp/dataset/9/30_8.odb,Step-1,Increment      4: Step Time =    1.000,"PART-1-1",           454,          -15.,       28.9063,            0.,NA,NA,"",       24.9051,      -19.0921,      -15.9923,   44.4036E-06
C:/temp/dataset/9/30_8.odb,Step-1,Increment      4: Step Time =    1.000,"PART-1-1",           455,      -9.01567,       28.1413,            0.,NA,NA,"",       23.4685,      -19.3836,      -13.2305,   652.592E-06
C:/temp/dataset/9/30_8.odb,Step-1,Increment      4: Step Time =    1.000,"PART-1-1",           456,         -8.75,           30.,            0.,NA,NA,"",       24.2285,      -20.2460,      -13.3087,   874.327E-06
C:/temp/dataset/9/30_8.odb,Step-1,Increment      4: Step Time =    1.000,"PART-1-1",           457,      -10.9923,       18.6369,            0.,NA,NA,"",       19.8652,      -14.9257,      -13.1091,   4.01214E-03
C:/temp/dataset/9/30_8.odb,Step-1,Increment      4: Step Time =    1.000,"PART-1-1",           458,      -11.7056,       20.1347,            0.,NA,NA,"",       20.6252,      -15.5171,      -13.5875,   2.90549E-03
C:/temp/dataset/9/30_8.odb,Step-1,Increment      4: Step Time =    1.000,"PART-1-1",           459,      -12.2405,       18.0722,            0.,NA,NA,"",       19.9179,      -14.5399,      -13.6130,   3.65395E-03
C:/temp/dataset/9/30_8.odb,Step-1,Increment      4: Step Time =    1.000,"PART-1-1",           460,      -11.7153,       17.0060,            0.,NA,NA,"",       19.3739,      -14.1204,      -13.2651,   4.27979E-03
C:/temp/dataset/9/30_8.odb,Step-1,Increment      4: Step Time =    1.000,"PART-1-1",           461,      -12.7888,       16.5007,            0.,NA,NA,"",       19.4278,      -13.7777,      -13.6973,   4.18860E-03
C:/temp/dataset/9/30_8.odb,Step-1,Increment      4: Step Time =    1.000,"PART-1-1",           462,      -13.2634,       13.5986,            0.,NA,NA,"",       18.4254,      -12.4182,      -13.6119,   5.51443E-03
C:/temp/dataset/9/30_8.odb,Step-1,Increment      4: Step Time =    1.000,"PART-1-1",           463,      -14.1733,       14.6682,            0.,NA,NA,"",       19.0689,      -12.8015,      -14.1331,   6.11360E-03
C:/temp/dataset/9/30_8.odb,Step-1,Increment      4: Step Time =    1.000,"PART-1-1",           464,          -15.,       13.5938,            0.,NA,NA,"",       18.8849,      -12.2225,      -14.3962,   8.35908E-03
C:/temp/dataset/9/30_8.odb,Step-1,Increment      4: Step Time =    1.000,"PART-1-1",           465,      -6.04154,       10.1420,            0.,NA,NA,"",       15.3281,      -11.6631,      -9.94590,   9.19185E-03
C:/temp/dataset/9/30_8.odb,Step-1,Increment      4: Step Time =    1.000,"PART-1-1",           466,      -7.09581,       9.10381,            0.,NA,NA,"",       15.1231,      -11.0646,      -10.3093,   6.27007E-03
C:/temp/dataset/9/30_8.odb,Step-1,Increment      4: Step Time =    1.000,"PART-1-1",           467,      -6.05428,       7.71180,            0.,NA,NA,"",       14.2981,      -10.5380,      -9.66361,   8.85142E-03
C:/temp/dataset/9/30_8.odb,Step-1,Increment      4: Step Time =    1.000,"PART-1-1",           468,           -5.,          8.75,            0.,NA,NA,"",       14.5146,      -11.1442,      -9.29949,   12.0583E-03
C:/temp/dataset/9/30_8.odb,Step-1,Increment      4: Step Time =    1.000,"PART-1-1",           469,      -6.15708,       5.36159,            0.,NA,NA,"",       13.3126,      -9.40525,      -9.42160,   12.6341E-03
C:/temp/dataset/9/30_8.odb,Step-1,Increment      4: Step Time =    1.000,"PART-1-1",           470,           -5.,          6.25,            0.,NA,NA,"",       13.4271,      -9.97604,      -8.98701,   8.26391E-03
C:/temp/dataset/9/30_8.odb,Step-1,Increment      4: Step Time =    1.000,"PART-1-1",           471,      -13.8567,       3.63033,            0.,NA,NA,"",       14.9432,      -7.71769,      -12.7959,   2.85431E-03
C:/temp/dataset/9/30_8.odb,Step-1,Increment      4: Step Time =    1.000,"PART-1-1",           472,      -12.5372,       4.63979,            0.,NA,NA,"",       14.8631,      -8.34573,      -12.2988,   4.71931E-03
C:/temp/dataset/9/30_8.odb,Step-1,Increment      4: Step Time =    1.000,"PART-1-1",           473,          -15.,       4.84375,            0.,NA,NA,"",       15.7454,      -8.15479,      -13.4691,   4.41018E-03
C:/temp/dataset/9/30_8.odb,Step-1,Increment      4: Step Time =    1.000,"PART-1-1",           474,      -12.7859,       2.45238,            0.,NA,NA,"",       14.1759,      -7.28741,      -12.1593,   2.90366E-03
C:/temp/dataset/9/30_8.odb,Step-1,Increment      4: Step Time =    1.000,"PART-1-1",           475,          -15.,       2.65625,            0.,NA,NA,"",       15.0164,      -7.12543,      -13.2182,   1.75086E-03
C:/temp/dataset/9/30_8.odb,Step-1,Increment      4: Step Time =    1.000,"PART-1-1",           476,      -13.7683,      -2.81830,            0.,NA,NA,"",       12.8924,      -4.70276,      -12.0041,   170.997E-06
C:/temp/dataset/9/30_8.odb,Step-1,Increment      4: Step Time =    1.000,"PART-1-1",           477,          -15.,      -3.90625,            0.,NA,NA,"",       13.0962,      -4.05061,      -12.4540,   50.8202E-06
C:/temp/dataset/9/30_8.odb,Step-1,Increment      4: Step Time =    1.000,"PART-1-1",           478,        -13.75,           -5.,            0.,NA,NA,"",       12.3064,      -3.68415,      -11.7419,   76.3436E-06
C:/temp/dataset/9/30_8.odb,Step-1,Increment      4: Step Time =    1.000,"PART-1-1",           479,      -12.5183,      -3.91205,            0.,NA,NA,"",       12.0960,      -4.33646,      -11.2920,   137.407E-06
C:/temp/dataset/9/30_8.odb,Step-1,Increment      4: Step Time =    1.000,"PART-1-1",           480,      -3.91473,      -3.03803,            0.,NA,NA,"",       9.34804,      -5.74279,      -7.37605,   1.63501E-03
C:/temp/dataset/9/30_8.odb,Step-1,Increment      4: Step Time =    1.000,"PART-1-1",           481,      -5.07319,      -4.05962,            0.,NA,NA,"",       9.33684,      -5.13471,      -7.79816,   2.13234E-03
C:/temp/dataset/9/30_8.odb,Step-1,Increment      4: Step Time =    1.000,"PART-1-1",           482,         -3.75,           -5.,            0.,NA,NA,"",       8.58199,      -4.85219,      -7.07862,   3.70429E-03
C:/temp/dataset/9/30_8.odb,Step-1,Increment      4: Step Time =    1.000,"PART-1-1",           483,      -2.59153,      -3.97841,            0.,NA,NA,"",       8.61094,      -5.46037,      -6.65827,   2.85000E-03
C:/temp/dataset/9/30_8.odb,Step-1,Increment      4: Step Time =    1.000,"PART-1-1",           484,   563.435E-03,   72.7383E-03,            0.,NA,NA,"",       9.53486,      -7.67411,      -5.65877,   4.15972E-03
C:/temp/dataset/9/30_8.odb,Step-1,Increment      4: Step Time =    1.000,"PART-1-1",           485,  -536.863E-03,      -1.25885,            0.,NA,NA,"",       9.18865,      -6.94596,      -6.01540,   1.11399E-03
C:/temp/dataset/9/30_8.odb,Step-1,Increment      4: Step Time =    1.000,"PART-1-1",           486,       7.06616,      -9.87010,            0.,NA,NA,"",       4.47577,      -4.18400,      -1.58955,   39.5592E-03
C:/temp/dataset/9/30_8.odb,Step-1,Increment      4: Step Time =    1.000,"PART-1-1",           487,       6.02487,      -8.97716,            0.,NA,NA,"",       4.91830,      -4.45618,      -2.08137,   50.8566E-03
C:/temp/dataset/9/30_8.odb,Step-1,Increment      4: Step Time =    1.000,"PART-1-1",           488,            5.,      -10.2083,            0.,NA,NA,"",       4.59716,      -3.96681,      -2.32344,   67.3822E-03
C:/temp/dataset/9/30_8.odb,Step-1,Increment      4: Step Time =    1.000,"PART-1-1",           489,       13.0743,      -11.4048,            0.,NA,NA,"",       4.05520,      -4.01059,   599.873E-03,   47.4659E-03
C:/temp/dataset/9/30_8.odb,Step-1,Increment      4: Step Time =    1.000,"PART-1-1",           490,       14.0423,      -12.5586,            0.,NA,NA,"",       3.78583,      -3.66765,   938.509E-03,   64.0052E-03
C:/temp/dataset/9/30_8.odb,Step-1,Increment      4: Step Time =    1.000,"PART-1-1",           491,           15.,        -11.25,            0.,NA,NA,"",       4.41904,      -4.23780,       1.25259,   73.4808E-03
C:/temp/dataset/9/30_8.odb,Step-1,Increment      4: Step Time =    1.000,"PART-1-1",           492,       14.0319,      -10.0962,            0.,NA,NA,"",       4.67870,      -4.59191,   896.996E-03,   56.4544E-03
C:/temp/dataset/9/30_8.odb,Step-1,Increment      4: Step Time =    1.000,"PART-1-1",           493,       7.09943,      -16.3632,            0.,NA,NA,"",       2.29880,      -2.08999,  -957.299E-03,   51.0388E-03
C:/temp/dataset/9/30_8.odb,Step-1,Increment      4: Step Time =    1.000,"PART-1-1",           494,            5.,      -16.4583,            0.,NA,NA,"",       2.56803,      -2.04446,      -1.55402,   89.4017E-03
C:/temp/dataset/9/30_8.odb,Step-1,Increment      4: Step Time =    1.000,"PART-1-1",           495,       13.0966,      -13.8278,            0.,NA,NA,"",       3.21585,      -3.14922,   651.261E-03,   53.3027E-03
C:/temp/dataset/9/30_8.odb,Step-1,Increment      4: Step Time =    1.000,"PART-1-1",           496,       14.0543,      -15.0192,            0.,NA,NA,"",       2.97366,      -2.82326,   933.749E-03,   71.5096E-03
C:/temp/dataset/9/30_8.odb,Step-1,Increment      4: Step Time =    1.000,"PART-1-1",           497,           15.,        -13.75,            0.,NA,NA,"",       3.55012,      -3.32761,       1.23708,   82.5886E-03
C:/temp/dataset/9/30_8.odb,Step-1,Increment      4: Step Time =    1.000,"PART-1-1",           498,       13.0974,      -18.6352,            0.,NA,NA,"",       1.79972,      -1.69074,   616.751E-03,   64.4187E-03
C:/temp/dataset/9/30_8.odb,Step-1,Increment      4: Step Time =    1.000,"PART-1-1",           499,       14.0421,      -19.9133,            0.,NA,NA,"",       1.62104,      -1.42210,   778.081E-03,   85.7642E-03
C:/temp/dataset/9/30_8.odb,Step-1,Increment      4: Step Time =    1.000,"PART-1-1",           500,           15.,        -18.75,            0.,NA,NA,"",       2.07006,      -1.78221,       1.05304,   100.451E-03
C:/temp/dataset/9/30_8.odb,Step-1,Increment      4: Step Time =    1.000,"PART-1-1",           501,       14.0553,      -17.4719,            0.,NA,NA,"",       2.24980,      -2.07074,   879.563E-03,   78.8279E-03
C:/temp/dataset/9/30_8.odb,Step-1,Increment      4: Step Time =    1.000,"PART-1-1",           502,       7.12541,      -22.7005,            0.,NA,NA,"",   809.927E-03,  -664.709E-03,  -462.755E-03,   61.6421E-03
C:/temp/dataset/9/30_8.odb,Step-1,Increment      4: Step Time =    1.000,"PART-1-1",           503,       6.04628,      -21.6612,            0.,NA,NA,"",       1.13898,  -864.577E-03,  -741.473E-03,   83.6468E-03
C:/temp/dataset/9/30_8.odb,Step-1,Increment      4: Step Time =    1.000,"PART-1-1",           504,            5.,      -22.7083,            0.,NA,NA,"",       1.09781,  -715.822E-03,  -832.336E-03,   111.049E-03
C:/temp/dataset/9/30_8.odb,Step-1,Increment      4: Step Time =    1.000,"PART-1-1",           505,       6.07914,      -23.7476,            0.,NA,NA,"",   755.598E-03,  -523.062E-03,  -545.284E-03,   88.4033E-03
C:/temp/dataset/9/30_8.odb,Step-1,Increment      4: Step Time =    1.000,"PART-1-1",           506,       6.22304,      -27.8948,            0.,NA,NA,"",   187.575E-03,  -90.4196E-03,  -164.344E-03,   96.1511E-03
C:/temp/dataset/9/30_8.odb,Step-1,Increment      4: Step Time =    1.000,"PART-1-1",           507,            5.,      -28.9583,            0.,NA,NA,"",   150.195E-03,  -91.6112E-03,  -119.021E-03,   129.058E-03
C:/temp/dataset/9/30_8.odb,Step-1,Increment      4: Step Time =    1.000,"PART-1-1",           508,          6.25,          -30.,            0.,NA,NA,"",            0.,   105.571E-42,   1.71202E-39,   89.7769E-03
C:/temp/dataset/9/30_8.odb,Step-1,Increment      4: Step Time =    1.000,"PART-1-1",           509,       9.78444,      -26.6535,            0.,NA,NA,"",   133.652E-03,  -133.489E-03,  -6.59513E-03,   16.1763E-03
C:/temp/dataset/9/30_8.odb,Step-1,Increment      4: Step Time =    1.000,"PART-1-1",           510,       8.47427,      -25.6871,            0.,NA,NA,"",   265.360E-03,  -230.926E-03,  -130.725E-03,   36.2300E-03
C:/temp/dataset/9/30_8.odb,Step-1,Increment      4: Step Time =    1.000,"PART-1-1",           511,       7.37694,      -26.8334,            0.,NA,NA,"",   215.632E-03,  -135.465E-03,  -167.769E-03,   62.4072E-03
C:/temp/dataset/9/30_8.odb,Step-1,Increment      4: Step Time =    1.000,"PART-1-1",           512,       13.7223,      -27.5034,            0.,NA,NA,"",   257.861E-03,  -156.718E-03,   204.772E-03,   100.373E-03
C:/temp/dataset/9/30_8.odb,Step-1,Increment      4: Step Time =    1.000,"PART-1-1",           513,       12.4723,      -28.7534,            0.,NA,NA,"",   67.0331E-03,  -29.3148E-03,   60.2834E-03,   60.6749E-03
C:/temp/dataset/9/30_8.odb,Step-1,Increment      4: Step Time =    1.000,"PART-1-1",           514,         13.75,          -30.,            0.,NA,NA,"",            0.,  -186.530E-42,  -598.004E-42,   98.5418E-03
C:/temp/dataset/9/30_8.odb,Step-1,Increment      4: Step Time =    1.000,"PART-1-1",           515,           15.,        -28.75,            0.,NA,NA,"",   194.772E-03,  -126.616E-03,   148.002E-03,   135.458E-03
C:/temp/dataset/9/30_8.odb,Step-1,Increment      4: Step Time =    1.000,"PART-1-1",           516,         11.25,          -30.,            0.,NA,NA,"",            0.,   49.9815E-42,  -303.558E-42,   27.3196E-03
C:/temp/dataset/9/30_8.odb,Step-1,Increment      4: Step Time =    1.000,"PART-1-1",           517,       11.1864,      -27.6167,            0.,NA,NA,"",   95.6012E-03,  -73.4449E-03,   61.2000E-03,   40.2525E-03
C:/temp/dataset/9/30_8.odb,Step-1,Increment      4: Step Time =    1.000,"PART-1-1",           518,       9.10684,      -20.5966,            0.,NA,NA,"",       1.09435,      -1.07295,  -215.354E-03,   21.4300E-03
C:/temp/dataset/9/30_8.odb,Step-1,Increment      4: Step Time =    1.000,"PART-1-1",           519,       11.0993,      -20.6881,            0.,NA,NA,"",       1.11604,      -1.10289,   170.859E-03,   31.2350E-03
C:/temp/dataset/9/30_8.odb,Step-1,Increment      4: Step Time =    1.000,"PART-1-1",           520,       7.08739,      -20.6083,            0.,NA,NA,"",       1.22628,      -1.05778,  -620.380E-03,   58.8401E-03
C:/temp/dataset/9/30_8.odb,Step-1,Increment      4: Step Time =    1.000,"PART-1-1",           521,            5.,       -20.625,            0.,NA,NA,"",       1.52291,      -1.08437,      -1.06930,   103.804E-03
C:/temp/dataset/9/30_8.odb,Step-1,Increment      4: Step Time =    1.000,"PART-1-1",           522,       9.14341,      -14.0595,            0.,NA,NA,"",       2.89317,      -2.84369,  -532.758E-03,   19.3943E-03
C:/temp/dataset/9/30_8.odb,Step-1,Increment      4: Step Time =    1.000,"PART-1-1",           523,       10.1582,      -15.1431,            0.,NA,NA,"",       2.55308,      -2.54701,  -175.972E-03,   16.2178E-03
C:/temp/dataset/9/30_8.odb,Step-1,Increment      4: Step Time =    1.000,"PART-1-1",           524,       11.1509,      -13.9343,            0.,NA,NA,"",       2.98725,      -2.98652,   66.2135E-03,   25.9657E-03
C:/temp/dataset/9/30_8.odb,Step-1,Increment      4: Step Time =    1.000,"PART-1-1",           525,       10.1361,      -12.8507,            0.,NA,NA,"",       3.30730,      -3.29392,  -297.204E-03,   15.8929E-03
C:/temp/dataset/9/30_8.odb,Step-1,Increment      4: Step Time =    1.000,"PART-1-1",           526,       9.12292,      -11.8044,            0.,NA,NA,"",       3.66765,      -3.60125,  -694.721E-03,   18.8076E-03
C:/temp/dataset/9/30_8.odb,Step-1,Increment      4: Step Time =    1.000,"PART-1-1",           527,       11.1213,      -11.5948,            0.,NA,NA,"",       3.79695,      -3.79669,  -43.9919E-03,   24.0045E-03
C:/temp/dataset/9/30_8.odb,Step-1,Increment      4: Step Time =    1.000,"PART-1-1",           528,       10.1081,      -10.5485,            0.,NA,NA,"",       4.13764,      -4.11323,  -448.821E-03,   15.7611E-03
C:/temp/dataset/9/30_8.odb,Step-1,Increment      4: Step Time =    1.000,"PART-1-1",           529,       13.8169,  -7.21098E-03,            0.,NA,NA,"",       8.92385,      -8.92170,   195.992E-03,   19.7972E-03
C:/temp/dataset/9/30_8.odb,Step-1,Increment      4: Step Time =    1.000,"PART-1-1",           530,           15.,          1.25,            0.,NA,NA,"",       9.64398,      -9.62514,   602.522E-03,   20.1425E-03
C:/temp/dataset/9/30_8.odb,Step-1,Increment      4: Step Time =    1.000,"PART-1-1",           531,       13.9075,       2.57030,            0.,NA,NA,"",       10.1051,      -10.1051,  -4.52382E-03,   13.8278E-03
C:/temp/dataset/9/30_8.odb,Step-1,Increment      4: Step Time =    1.000,"PART-1-1",           532,       10.8083,      -4.35361,            0.,NA,NA,"",       6.71522,      -6.68160,  -671.114E-03,   22.2909E-03
C:/temp/dataset/9/30_8.odb,Step-1,Increment      4: Step Time =    1.000,"PART-1-1",           533,       9.68548,      -3.40243,            0.,NA,NA,"",       7.10375,      -6.99849,      -1.21837,   21.2322E-03
C:/temp/dataset/9/30_8.odb,Step-1,Increment      4: Step Time =    1.000,"PART-1-1",           534,       8.81587,      -4.92348,            0.,NA,NA,"",       6.42248,      -6.26445,      -1.41595,   21.2638E-03
C:/temp/dataset/9/30_8.odb,Step-1,Increment      4: Step Time =    1.000,"PART-1-1",           535,       9.93870,      -5.87466,            0.,NA,NA,"",       6.01866,      -5.95410,  -879.209E-03,   19.3070E-03
C:/temp/dataset/9/30_8.odb,Step-1,Increment      4: Step Time =    1.000,"PART-1-1",           536,       10.7940,       8.23694,            0.,NA,NA,"",       12.5123,      -12.3544,      -1.98173,   4.83754E-03
C:/temp/dataset/9/30_8.odb,Step-1,Increment      4: Step Time =    1.000,"PART-1-1",           537,       11.2752,       6.42654,            0.,NA,NA,"",       11.6845,      -11.5785,      -1.57045,   5.48604E-03
C:/temp/dataset/9/30_8.odb,Step-1,Increment      4: Step Time =    1.000,"PART-1-1",           538,       12.8821,       8.67106,            0.,NA,NA,"",       12.8303,      -12.7845,      -1.08398,   6.71496E-03
C:/temp/dataset/9/30_8.odb,Step-1,Increment      4: Step Time =    1.000,"PART-1-1",           539,       14.0355,       7.50951,            0.,NA,NA,"",       12.3872,      -12.3794,  -440.075E-03,   8.95222E-03
C:/temp/dataset/9/30_8.odb,Step-1,Increment      4: Step Time =    1.000,"PART-1-1",           540,           15.,          8.75,            0.,NA,NA,"",       13.0612,      -13.0606,  -129.858E-03,   9.66699E-03
C:/temp/dataset/9/30_8.odb,Step-1,Increment      4: Step Time =    1.000,"PART-1-1",           541,       13.8467,       9.91155,            0.,NA,NA,"",       13.4880,      -13.4656,  -777.222E-03,   7.09386E-03
C:/temp/dataset/9/30_8.odb,Step-1,Increment      4: Step Time =    1.000,"PART-1-1",           542,       12.4850,       16.2122,            0.,NA,NA,"",       16.3740,      -16.2390,      -2.09797,   3.69115E-03
C:/temp/dataset/9/30_8.odb,Step-1,Increment      4: Step Time =    1.000,"PART-1-1",           543,       13.7431,       14.9727,            0.,NA,NA,"",       15.8644,      -15.8044,      -1.37825,   3.51594E-03
C:/temp/dataset/9/30_8.odb,Step-1,Increment      4: Step Time =    1.000,"PART-1-1",           544,           15.,         16.25,            0.,NA,NA,"",       16.5702,      -16.5435,  -940.287E-03,   2.47600E-03
C:/temp/dataset/9/30_8.odb,Step-1,Increment      4: Step Time =    1.000,"PART-1-1",           545,       13.7419,       17.4895,            0.,NA,NA,"",       17.0577,      -16.9764,      -1.66325,   1.97700E-03
C:/temp/dataset/9/30_8.odb,Step-1,Increment      4: Step Time =    1.000,"PART-1-1",           546,       12.4991,       13.6576,            0.,NA,NA,"",       15.1586,      -15.0509,      -1.80323,   4.52597E-03
C:/temp/dataset/9/30_8.odb,Step-1,Increment      4: Step Time =    1.000,"PART-1-1",           547,       13.7559,       12.4349,            0.,NA,NA,"",       14.6657,      -14.6251,      -1.09109,   5.27116E-03
C:/temp/dataset/9/30_8.odb,Step-1,Increment      4: Step Time =    1.000,"PART-1-1",           548,           15.,         13.75,            0.,NA,NA,"",       15.3939,      -15.3797,  -662.284E-03,   5.05555E-03
C:/temp/dataset/9/30_8.odb,Step-1,Increment      4: Step Time =    1.000,"PART-1-1",           549,           15.,         21.25,            0.,NA,NA,"",       18.9250,      -18.8646,      -1.51050,   1.08102E-03
C:/temp/dataset/9/30_8.odb,Step-1,Increment      4: Step Time =    1.000,"PART-1-1",           550,       13.6875,       22.5045,            0.,NA,NA,"",       19.4284,      -19.2963,      -2.26126,   1.05227E-03
C:/temp/dataset/9/30_8.odb,Step-1,Increment      4: Step Time =    1.000,"PART-1-1",           551,       12.4125,       21.2511,            0.,NA,NA,"",       18.7693,      -18.5730,      -2.70762,   1.28578E-03
C:/temp/dataset/9/30_8.odb,Step-1,Increment      4: Step Time =    1.000,"PART-1-1",           552,       13.7250,       19.9966,            0.,NA,NA,"",       18.2449,      -18.1396,      -1.95737,   1.13434E-03
C:/temp/dataset/9/30_8.odb,Step-1,Increment      4: Step Time =    1.000,"PART-1-1",           553,       13.6481,       25.0064,            0.,NA,NA,"",       20.6058,      -20.4458,      -2.56359,   935.826E-06
C:/temp/dataset/9/30_8.odb,Step-1,Increment      4: Step Time =    1.000,"PART-1-1",           554,       12.3356,       23.7609,            0.,NA,NA,"",       19.9551,      -19.7239,      -3.02893,   753.864E-06
C:/temp/dataset/9/30_8.odb,Step-1,Increment      4: Step Time =    1.000,"PART-1-1",           555,           15.,         23.75,            0.,NA,NA,"",       20.0993,      -20.0188,      -1.79660,   1.26483E-03
C:/temp/dataset/9/30_8.odb,Step-1,Increment      4: Step Time =    1.000,"PART-1-1",           556,       13.7112,       27.5077,            0.,NA,NA,"",       21.7875,      -21.6047,      -2.81676,   553.201E-06
C:/temp/dataset/9/30_8.odb,Step-1,Increment      4: Step Time =    1.000,"PART-1-1",           557,           15.,         28.75,            0.,NA,NA,"",       22.4469,      -22.3223,      -2.36235,   109.781E-06
C:/temp/dataset/9/30_8.odb,Step-1,Increment      4: Step Time =    1.000,"PART-1-1",           558,         13.75,           30.,            0.,NA,NA,"",       22.9651,      -22.7577,      -3.07952,   113.841E-06
C:/temp/dataset/9/30_8.odb,Step-1,Increment      4: Step Time =    1.000,"PART-1-1",           559,            5.,      -24.7917,            0.,NA,NA,"",   734.314E-03,  -428.226E-03,  -596.522E-03,   116.775E-03
C:/temp/dataset/9/30_8.odb,Step-1,Increment      4: Step Time =    1.000,"PART-1-1",           560,       6.15390,      -25.8136,            0.,NA,NA,"",   443.354E-03,  -268.041E-03,  -353.153E-03,   91.5850E-03
C:/temp/dataset/9/30_8.odb,Step-1,Increment      4: Step Time =    1.000,"PART-1-1",           561,       7.23304,      -24.7696,            0.,NA,NA,"",   472.054E-03,  -356.842E-03,  -309.028E-03,   63.4932E-03
C:/temp/dataset/9/30_8.odb,Step-1,Increment      4: Step Time =    1.000,"PART-1-1",           562,       13.0086,      -21.0119,            0.,NA,NA,"",       1.22899,      -1.11132,   524.773E-03,   68.0084E-03
C:/temp/dataset/9/30_8.odb,Step-1,Increment      4: Step Time =    1.000,"PART-1-1",           563,       13.9664,      -22.3485,            0.,NA,NA,"",       1.08320,  -884.156E-03,   625.776E-03,   91.2477E-03
C:/temp/dataset/9/30_8.odb,Step-1,Increment      4: Step Time =    1.000,"PART-1-1",           564,           15.,        -21.25,            0.,NA,NA,"",       1.47046,      -1.17295,   886.824E-03,   109.230E-03
C:/temp/dataset/9/30_8.odb,Step-1,Increment      4: Step Time =    1.000,"PART-1-1",           565,            5.,       -26.875,            0.,NA,NA,"",   428.475E-03,  -226.070E-03,  -363.982E-03,   124.273E-03
C:/temp/dataset/9/30_8.odb,Step-1,Increment      4: Step Time =    1.000,"PART-1-1",           566,       12.9745,      -6.51631,            0.,NA,NA,"",       5.96207,      -5.95191,   347.967E-03,   35.5523E-03
C:/temp/dataset/9/30_8.odb,Step-1,Increment      4: Step Time =    1.000,"PART-1-1",           567,       14.0104,      -7.62731,            0.,NA,NA,"",       5.64361,      -5.58595,   804.659E-03,   48.2995E-03
C:/temp/dataset/9/30_8.odb,Step-1,Increment      4: Step Time =    1.000,"PART-1-1",           568,           15.,         -6.25,            0.,NA,NA,"",       6.37250,      -6.27131,       1.13111,   52.9505E-03
C:/temp/dataset/9/30_8.odb,Step-1,Increment      4: Step Time =    1.000,"PART-1-1",           569,       13.9641,      -5.13900,            0.,NA,NA,"",       6.67419,      -6.64196,   655.063E-03,   38.9532E-03
C:/temp/dataset/9/30_8.odb,Step-1,Increment      4: Step Time =    1.000,"PART-1-1",           570,       11.1649,      -16.2543,            0.,NA,NA,"",       2.26182,      -2.25758,   138.417E-03,   28.1286E-03
C:/temp/dataset/9/30_8.odb,Step-1,Increment      4: Step Time =    1.000,"PART-1-1",           571,       9.14831,      -16.2933,            0.,NA,NA,"",       2.19908,      -2.16245,  -399.753E-03,   19.9057E-03
C:/temp/dataset/9/30_8.odb,Step-1,Increment      4: Step Time =    1.000,"PART-1-1",           572,            5.,        -8.125,            0.,NA,NA,"",       5.38116,      -4.71672,      -2.59027,   62.6632E-03
C:/temp/dataset/9/30_8.odb,Step-1,Increment      4: Step Time =    1.000,"PART-1-1",           573,       12.8519,      -3.99254,            0.,NA,NA,"",       7.03292,      -7.03183,   124.051E-03,   28.8249E-03
C:/temp/dataset/9/30_8.odb,Step-1,Increment      4: Step Time =    1.000,"PART-1-1",           574,           15.,         -3.75,            0.,NA,NA,"",       7.43309,      -7.36615,   995.326E-03,   40.8609E-03
C:/temp/dataset/9/30_8.odb,Step-1,Increment      4: Step Time =    1.000,"PART-1-1",           575,       13.8878,      -2.60354,            0.,NA,NA,"",       7.76912,      -7.75635,   445.295E-03,   28.8117E-03
C:/temp/dataset/9/30_8.odb,Step-1,Increment      4: Step Time =    1.000,"PART-1-1",           576,       13.0423,      -8.97351,            0.,NA,NA,"",       4.97180,      -4.94634,   502.556E-03,   41.6657E-03
C:/temp/dataset/9/30_8.odb,Step-1,Increment      4: Step Time =    1.000,"PART-1-1",           577,           15.,         -8.75,            0.,NA,NA,"",       5.36324,      -5.22328,       1.21722,   63.8301E-03
C:/temp/dataset/9/30_8.odb,Step-1,Increment      4: Step Time =    1.000,"PART-1-1",           578,       8.09346,      -21.6433,            0.,NA,NA,"",   923.264E-03,  -850.309E-03,  -359.711E-03,   39.6320E-03
C:/temp/dataset/9/30_8.odb,Step-1,Increment      4: Step Time =    1.000,"PART-1-1",           579,       8.17438,      -23.6967,            0.,NA,NA,"",   553.683E-03,  -496.052E-03,  -245.961E-03,   40.1703E-03
C:/temp/dataset/9/30_8.odb,Step-1,Increment      4: Step Time =    1.000,"PART-1-1",           580,       8.10077,      -19.5616,            0.,NA,NA,"",       1.37454,      -1.29021,  -474.044E-03,   37.4012E-03
C:/temp/dataset/9/30_8.odb,Step-1,Increment      4: Step Time =    1.000,"PART-1-1",           581,       8.11824,      -17.4194,            0.,NA,NA,"",       1.91957,      -1.82222,  -603.535E-03,   34.9838E-03
C:/temp/dataset/9/30_8.odb,Step-1,Increment      4: Step Time =    1.000,"PART-1-1",           582,          -15.,       22.3438,            0.,NA,NA,"",       22.2470,      -16.1540,      -15.2963,   249.826E-06
C:/temp/dataset/9/30_8.odb,Step-1,Increment      4: Step Time =    1.000,"PART-1-1",           583,      -12.5647,       21.7347,            0.,NA,NA,"",       21.4586,      -16.1397,      -14.1416,   1.61596E-03
C:/temp/dataset/9/30_8.odb,Step-1,Increment      4: Step Time =    1.000,"PART-1-1",           584,      -4.95050,       22.5220,            0.,NA,NA,"",       20.3846,      -17.2868,      -10.8027,   3.39113E-03
C:/temp/dataset/9/30_8.odb,Step-1,Increment      4: Step Time =    1.000,"PART-1-1",           585,      -3.93081,       23.1260,            0.,NA,NA,"",       20.5030,      -17.6647,      -10.4083,   2.79740E-03
C:/temp/dataset/9/30_8.odb,Step-1,Increment      4: Step Time =    1.000,"PART-1-1",           586,      -4.22857,       24.4244,            0.,NA,NA,"",       21.1194,      -18.2182,      -10.6830,   2.01557E-03
C:/temp/dataset/9/30_8.odb,Step-1,Increment      4: Step Time =    1.000,"PART-1-1",           587,      -5.24826,       23.8204,            0.,NA,NA,"",       20.9982,      -17.8391,      -11.0766,   2.38676E-03
C:/temp/dataset/9/30_8.odb,Step-1,Increment      4: Step Time =    1.000,"PART-1-1",           588,      -10.1110,       10.4874,            0.,NA,NA,"",       16.4082,      -11.3550,      -11.8446,   3.75514E-03
C:/temp/dataset/9/30_8.odb,Step-1,Increment      4: Step Time =    1.000,"PART-1-1",           589,      -9.15687,       11.6944,            0.,NA,NA,"",       16.6593,      -12.0149,      -11.5402,   3.93241E-03
C:/temp/dataset/9/30_8.odb,Step-1,Increment      4: Step Time =    1.000,"PART-1-1",           590,      -11.1597,       11.6149,            0.,NA,NA,"",       17.1174,      -11.7521,      -12.4457,   3.72861E-03
C:/temp/dataset/9/30_8.odb,Step-1,Increment      4: Step Time =    1.000,"PART-1-1",           591,      -6.07359,       12.6401,            0.,NA,NA,"",       16.3788,      -12.7832,      -10.2400,   8.07605E-03
C:/temp/dataset/9/30_8.odb,Step-1,Increment      4: Step Time =    1.000,"PART-1-1",           592,      -7.11512,       11.5321,            0.,NA,NA,"",       16.1348,      -12.1719,      -10.5912,   6.14770E-03
C:/temp/dataset/9/30_8.odb,Step-1,Increment      4: Step Time =    1.000,"PART-1-1",           593,           -5.,         11.25,            0.,NA,NA,"",       15.5883,      -12.2809,      -9.60075,   11.7449E-03
C:/temp/dataset/9/30_8.odb,Step-1,Increment      4: Step Time =    1.000,"PART-1-1",           594,      -10.0988,       8.37440,            0.,NA,NA,"",       15.5679,      -10.3782,      -11.6040,   5.24990E-03
C:/temp/dataset/9/30_8.odb,Step-1,Increment      4: Step Time =    1.000,"PART-1-1",           595,      -9.11481,       9.38066,            0.,NA,NA,"",       15.7173,      -10.9592,      -11.2663,   4.51909E-03
C:/temp/dataset/9/30_8.odb,Step-1,Increment      4: Step Time =    1.000,"PART-1-1",           596,      -11.0949,       9.48111,            0.,NA,NA,"",       16.2674,      -10.7784,      -12.1843,   4.13482E-03
C:/temp/dataset/9/30_8.odb,Step-1,Increment      4: Step Time =    1.000,"PART-1-1",           597,      -11.8142,       15.6555,            0.,NA,NA,"",       18.8631,      -13.5052,      -13.1691,   4.47792E-03
C:/temp/dataset/9/30_8.odb,Step-1,Increment      4: Step Time =    1.000,"PART-1-1",           598,      -13.4062,       15.6218,            0.,NA,NA,"",       19.2381,      -13.3158,      -13.8851,   4.76599E-03
C:/temp/dataset/9/30_8.odb,Step-1,Increment      4: Step Time =    1.000,"PART-1-1",           599,      -12.4316,       14.7766,            0.,NA,NA,"",       18.6688,      -13.0425,      -13.3573,   4.70310E-03
C:/temp/dataset/9/30_8.odb,Step-1,Increment      4: Step Time =    1.000,"PART-1-1",           600,      -5.72199,       20.2132,            0.,NA,NA,"",       19.5068,      -16.1770,      -10.9006,   5.74895E-03
C:/temp/dataset/9/30_8.odb,Step-1,Increment      4: Step Time =    1.000,"PART-1-1",           601,           -5.,         18.75,            0.,NA,NA,"",       18.7688,      -15.6069,      -10.4256,   3.10674E-03
C:/temp/dataset/9/30_8.odb,Step-1,Increment      4: Step Time =    1.000,"PART-1-1",           602,          -15.,       15.7813,            0.,NA,NA,"",       19.7046,      -13.2136,      -14.6175,   6.00383E-03
C:/temp/dataset/9/30_8.odb,Step-1,Increment      4: Step Time =    1.000,"PART-1-1",           603,      -10.4105,       16.7429,            0.,NA,NA,"",       18.9741,      -14.1441,      -12.6475,   4.52740E-03
C:/temp/dataset/9/30_8.odb,Step-1,Increment      4: Step Time =    1.000,"PART-1-1",           604,      -12.1928,       12.6381,            0.,NA,NA,"",       17.7795,      -12.1018,      -13.0253,   4.77802E-03
C:/temp/dataset/9/30_8.odb,Step-1,Increment      4: Step Time =    1.000,"PART-1-1",           605,      -12.0987,       10.4443,            0.,NA,NA,"",       16.9095,      -11.1086,      -12.7488,   4.76414E-03
C:/temp/dataset/9/30_8.odb,Step-1,Increment      4: Step Time =    1.000,"PART-1-1",           606,      -7.50325,       4.80693,            0.,NA,NA,"",       13.4346,      -8.99181,      -9.98173,   11.0079E-03
C:/temp/dataset/9/30_8.odb,Step-1,Increment      4: Step Time =    1.000,"PART-1-1",           607,      -9.63824,       5.46172,            0.,NA,NA,"",       14.2932,      -9.06249,      -11.0529,   7.26494E-03
C:/temp/dataset/9/30_8.odb,Step-1,Increment      4: Step Time =    1.000,"PART-1-1",           608,      -8.81234,       4.25317,            0.,NA,NA,"",       13.5810,      -8.58455,      -10.5238,   8.16304E-03
C:/temp/dataset/9/30_8.odb,Step-1,Increment      4: Step Time =    1.000,"PART-1-1",           609,          -15.,      -1.71875,            0.,NA,NA,"",       13.6840,      -5.07408,      -12.7085,   147.689E-06
C:/temp/dataset/9/30_8.odb,Step-1,Increment      4: Step Time =    1.000,"PART-1-1",           610,      -12.5835,      -1.75493,            0.,NA,NA,"",       12.7449,      -5.33790,      -11.5732,   251.277E-06
C:/temp/dataset/9/30_8.odb,Step-1,Increment      4: Step Time =    1.000,"PART-1-1",           611,        -11.25,           -5.,            0.,NA,NA,"",       11.2949,      -3.97510,      -10.5723,   406.598E-06
C:/temp/dataset/9/30_8.odb,Step-1,Increment      4: Step Time =    1.000,"PART-1-1",           612,      -10.0144,      -3.91217,            0.,NA,NA,"",       11.1284,      -4.62771,      -10.1205,   404.912E-06
C:/temp/dataset/9/30_8.odb,Step-1,Increment      4: Step Time =    1.000,"PART-1-1",           613,      -11.2827,      -2.82422,            0.,NA,NA,"",       11.9329,      -4.98875,      -10.8401,   423.695E-06
C:/temp/dataset/9/30_8.odb,Step-1,Increment      4: Step Time =    1.000,"PART-1-1",           614,         -8.75,           -5.,            0.,NA,NA,"",       10.3264,      -4.26665,      -9.40373,   1.13931E-03
C:/temp/dataset/9/30_8.odb,Step-1,Increment      4: Step Time =    1.000,"PART-1-1",           615,      -7.54904,      -4.01671,            0.,NA,NA,"",       10.1929,      -4.86607,      -8.95633,   1.13982E-03
C:/temp/dataset/9/30_8.odb,Step-1,Increment      4: Step Time =    1.000,"PART-1-1",           616,      -8.81345,      -2.92887,            0.,NA,NA,"",       10.9943,      -5.22633,      -9.67260,   979.137E-06
C:/temp/dataset/9/30_8.odb,Step-1,Increment      4: Step Time =    1.000,"PART-1-1",           617,  -969.738E-03,       22.2544,            0.,NA,NA,"",       19.7387,      -17.5814,      -8.97263,   4.50849E-03
C:/temp/dataset/9/30_8.odb,Step-1,Increment      4: Step Time =    1.000,"PART-1-1",           618,      -2.31964,       21.1016,            0.,NA,NA,"",       19.3857,      -16.9212,      -9.45922,   5.64852E-03
C:/temp/dataset/9/30_8.odb,Step-1,Increment      4: Step Time =    1.000,"PART-1-1",           619,         -1.25,           20.,            0.,NA,NA,"",       18.7544,      -16.5345,      -8.85075,   6.97515E-03
C:/temp/dataset/9/30_8.odb,Step-1,Increment      4: Step Time =    1.000,"PART-1-1",           620,         -1.25,           30.,            0.,NA,NA,"",       23.2885,      -21.0603,      -9.94087,   3.15594E-03
C:/temp/dataset/9/30_8.odb,Step-1,Increment      4: Step Time =    1.000,"PART-1-1",           621,      -1.44357,       27.1449,            0.,NA,NA,"",       22.0085,      -19.7453,      -9.72098,   892.604E-06
C:/temp/dataset/9/30_8.odb,Step-1,Increment      4: Step Time =    1.000,"PART-1-1",           622,      -4.58492,       21.1383,            0.,NA,NA,"",       19.7242,      -16.7040,      -10.4892,   5.04474E-03
C:/temp/dataset/9/30_8.odb,Step-1,Increment      4: Step Time =    1.000,"PART-1-1",           623,         -3.75,           20.,            0.,NA,NA,"",       19.0996,      -16.2802,      -9.98758,   8.21726E-03
C:/temp/dataset/9/30_8.odb,Step-1,Increment      4: Step Time =    1.000,"PART-1-1",           624,      -3.15456,       22.2398,            0.,NA,NA,"",       20.0038,      -17.3469,      -9.96185,   3.59296E-03
C:/temp/dataset/9/30_8.odb,Step-1,Increment      4: Step Time =    1.000,"PART-1-1",           625,      -11.2479,       22.4027,            0.,NA,NA,"",       21.4554,      -16.5773,      -13.6208,   1.79841E-03
C:/temp/dataset/9/30_8.odb,Step-1,Increment      4: Step Time =    1.000,"PART-1-1",           626,      -10.3888,       20.8027,            0.,NA,NA,"",       20.6213,      -15.9544,      -13.0651,   3.11744E-03
C:/temp/dataset/9/30_8.odb,Step-1,Increment      4: Step Time =    1.000,"PART-1-1",           627,       9.41561,      -24.6142,            0.,NA,NA,"",   369.462E-03,  -364.496E-03,  -60.3728E-03,   18.2655E-03
C:/temp/dataset/9/30_8.odb,Step-1,Increment      4: Step Time =    1.000,"PART-1-1",           628,           15.,        -16.25,            0.,NA,NA,"",       2.76482,      -2.50485,       1.17046,   91.5769E-03
C:/temp/dataset/9/30_8.odb,Step-1,Increment      4: Step Time =    1.000,"PART-1-1",           629,       13.1096,      -16.2411,            0.,NA,NA,"",       2.46154,      -2.37211,   657.444E-03,   59.0648E-03
C:/temp/dataset/9/30_8.odb,Step-1,Increment      4: Step Time =    1.000,"PART-1-1",           630,           15.,          3.75,            0.,NA,NA,"",       10.7720,      -10.7656,   369.087E-03,   14.5720E-03
C:/temp/dataset/9/30_8.odb,Step-1,Increment      4: Step Time =    1.000,"PART-1-1",           631,       14.0093,       5.06690,            0.,NA,NA,"",       11.2583,      -11.2565,  -204.112E-03,   10.7305E-03
C:/temp/dataset/9/30_8.odb,Step-1,Increment      4: Step Time =    1.000,"PART-1-1",           632,       12.9168,       3.88721,            0.,NA,NA,"",       10.6130,      -10.5975,  -573.692E-03,   10.4912E-03
C:/temp/dataset/9/30_8.odb,Step-1,Increment      4: Step Time =    1.000,"PART-1-1",           633,       12.6026,       11.0965,            0.,NA,NA,"",       13.9514,      -13.8735,      -1.47246,   5.43522E-03
C:/temp/dataset/9/30_8.odb,Step-1,Increment      4: Step Time =    1.000,"PART-1-1",           634,           15.,         11.25,            0.,NA,NA,"",       14.2231,      -14.2177,  -391.883E-03,   7.52454E-03
C:/temp/dataset/9/30_8.odb,Step-1,Increment      4: Step Time =    1.000,"PART-1-1",           635,       12.4669,       18.7361,            0.,NA,NA,"",       17.5759,      -17.4120,      -2.39452,   2.59960E-03
C:/temp/dataset/9/30_8.odb,Step-1,Increment      4: Step Time =    1.000,"PART-1-1",           636,           15.,         18.75,            0.,NA,NA,"",       17.7483,      -17.7060,      -1.22401,   280.428E-06
C:/temp/dataset/9/30_8.odb,Step-1,Increment      4: Step Time =    1.000,"PART-1-1",           637,           15.,         26.25,            0.,NA,NA,"",       21.2725,      -21.1705,      -2.08044,   688.645E-06
C:/temp/dataset/9/30_8.odb,Step-1,Increment      4: Step Time =    1.000,"PART-1-1",           638,          8.75,           30.,            0.,NA,NA,"",       22.8348,      -22.1910,      -5.38422,   1.82242E-03
C:/temp/dataset/9/30_8.odb,Step-1,Increment      4: Step Time =    1.000,"PART-1-1",           639,       8.74802,       27.8391,            0.,NA,NA,"",       21.8112,      -21.1960,      -5.14393,   1.39386E-03
C:/temp/dataset/9/30_8.odb,Step-1,Increment      4: Step Time =    1.000,"PART-1-1",           640,       11.0691,       22.4572,            0.,NA,NA,"",       19.2940,      -18.9801,      -3.46605,   1.41219E-03
C:/temp/dataset/9/30_8.odb,Step-1,Increment      4: Step Time =    1.000,"PART-1-1",           641,       11.1947,       19.9658,            0.,NA,NA,"",       18.1119,      -17.8406,      -3.12281,   2.67785E-03
C:/temp/dataset/9/30_8.odb,Step-1,Increment      4: Step Time =    1.000,"PART-1-1",           642,          3.75,           30.,            0.,NA,NA,"",       22.9429,      -21.6213,      -7.67454,   3.45566E-03
C:/temp/dataset/9/30_8.odb,Step-1,Increment      4: Step Time =    1.000,"PART-1-1",           643,       6.12801,       21.9878,            0.,NA,NA,"",       19.0858,      -18.2157,      -5.69707,   3.45156E-03
C:/temp/dataset/9/30_8.odb,Step-1,Increment      4: Step Time =    1.000,"PART-1-1",           644,       7.06684,       23.0702,            0.,NA,NA,"",       19.5726,      -18.8171,      -5.38557,   2.39588E-03
C:/temp/dataset/9/30_8.odb,Step-1,Increment      4: Step Time =    1.000,"PART-1-1",           645,       4.97038,       22.7185,            0.,NA,NA,"",       19.4760,      -18.4247,      -6.31234,   2.62224E-03
C:/temp/dataset/9/30_8.odb,Step-1,Increment      4: Step Time =    1.000,"PART-1-1",           646,          3.75,           20.,            0.,NA,NA,"",       18.2694,      -17.0488,      -6.56570,   10.1826E-03
C:/temp/dataset/9/30_8.odb,Step-1,Increment      4: Step Time =    1.000,"PART-1-1",           647,       4.96897,       20.9583,            0.,NA,NA,"",       18.6464,      -17.6148,      -6.11636,   6.48096E-03
C:/temp/dataset/9/30_8.odb,Step-1,Increment      4: Step Time =    1.000,"PART-1-1",           648,       3.78616,       22.0655,            0.,NA,NA,"",       19.2324,      -17.9966,      -6.78294,   3.84928E-03
C:/temp/dataset/9/30_8.odb,Step-1,Increment      4: Step Time =    1.000,"PART-1-1",           649,           -5.,         13.75,            0.,NA,NA,"",       16.6371,      -13.3857,      -9.88010,   7.20133E-03
C:/temp/dataset/9/30_8.odb,Step-1,Increment      4: Step Time =    1.000,"PART-1-1",           650,      -7.15256,       14.0792,            0.,NA,NA,"",       17.1935,      -13.3076,      -10.8869,   6.15937E-03
C:/temp/dataset/9/30_8.odb,Step-1,Increment      4: Step Time =    1.000,"PART-1-1",           651,      -9.70164,       19.1500,            0.,NA,NA,"",       19.8017,      -15.2917,      -12.5806,   4.35089E-03
C:/temp/dataset/9/30_8.odb,Step-1,Increment      4: Step Time =    1.000,"PART-1-1",           652,      -9.13060,       21.5024,            0.,NA,NA,"",       20.6636,      -16.3984,      -12.5729,   3.35796E-03
C:/temp/dataset/9/30_8.odb,Step-1,Increment      4: Step Time =    1.000,"PART-1-1",           653,         -1.25,           -5.,            0.,NA,NA,"",       7.84788,      -5.14347,      -5.92739,   3.88860E-03
C:/temp/dataset/9/30_8.odb,Step-1,Increment      4: Step Time =    1.000,"PART-1-1",           654,      -1.47244,      -2.77860,            0.,NA,NA,"",       8.78221,      -6.14248,      -6.27672,   1.82476E-03
C:/temp/dataset/9/30_8.odb,Step-1,Increment      4: Step Time =    1.000,"PART-1-1",           655,      -9.96758,      -1.61086,            0.,NA,NA,"",       11.8333,      -5.70780,      -10.3657,   1.15262E-03
C:/temp/dataset/9/30_8.odb,Step-1,Increment      4: Step Time =    1.000,"PART-1-1",           656,      -6.37223,      -3.07632,            0.,NA,NA,"",       10.1048,      -5.44079,      -8.51502,   1.50430E-03
C:/temp/dataset/9/30_8.odb,Step-1,Increment      4: Step Time =    1.000,"PART-1-1",           657,         -6.25,           -5.,            0.,NA,NA,"",       9.41559,      -4.55921,      -8.23814,   2.36290E-03
C:/temp/dataset/9/30_8.odb,Step-1,Increment      4: Step Time =    1.000,"PART-1-1",           658,         -3.75,            5.,            0.,NA,NA,"",       12.5544,      -9.48208,      -8.22815,   20.4045E-03
C:/temp/dataset/9/30_8.odb,Step-1,Increment      4: Step Time =    1.000,"PART-1-1",           659,      -5.11170,       4.23117,            0.,NA,NA,"",       12.5576,      -8.98157,      -8.77643,   13.4677E-03
C:/temp/dataset/9/30_8.odb,Step-1,Increment      4: Step Time =    1.000,"PART-1-1",           660,      -3.95473,       3.29190,            0.,NA,NA,"",       11.8756,      -8.66712,      -8.11862,   8.37396E-03
C:/temp/dataset/9/30_8.odb,Step-1,Increment      4: Step Time =    1.000,"PART-1-1",           661,          3.75,           -5.,            0.,NA,NA,"",       6.77670,      -5.72285,      -3.62941,   16.2608E-03
C:/temp/dataset/9/30_8.odb,Step-1,Increment      4: Step Time =    1.000,"PART-1-1",           662,       4.69008,      -3.66648,            0.,NA,NA,"",       7.25579,      -6.44394,      -3.33498,   26.5013E-03
C:/temp/dataset/9/30_8.odb,Step-1,Increment      4: Step Time =    1.000,"PART-1-1",           663,       4.69636,       3.71818,            0.,NA,NA,"",       10.5891,      -9.71828,      -4.20536,   16.2633E-03
C:/temp/dataset/9/30_8.odb,Step-1,Increment      4: Step Time =    1.000,"PART-1-1",           664,          3.75,            5.,            0.,NA,NA,"",       11.2550,      -10.1967,      -4.76465,   16.2025E-03
C:/temp/dataset/9/30_8.odb,Step-1,Increment      4: Step Time =    1.000,"PART-1-1",           665,       8.42013,       25.7200,            0.,NA,NA,"",       20.8096,      -20.1854,      -5.05845,   1.35994E-03
C:/temp/dataset/9/30_8.odb,Step-1,Increment      4: Step Time =    1.000,"PART-1-1",           666,       7.55622,       27.1849,            0.,NA,NA,"",       21.5080,      -20.7607,      -5.61998,   1.34757E-03
C:/temp/dataset/9/30_8.odb,Step-1,Increment      4: Step Time =    1.000,"PART-1-1",           667,       6.61388,       26.0906,            0.,NA,NA,"",       21.0077,      -20.1528,      -5.93203,   1.21635E-03
C:/temp/dataset/9/30_8.odb,Step-1,Increment      4: Step Time =    1.000,"PART-1-1",           668,       10.0237,       13.5556,            0.,NA,NA,"",       15.0140,      -14.7261,      -2.92587,   4.74252E-03
C:/temp/dataset/9/30_8.odb,Step-1,Increment      4: Step Time =    1.000,"PART-1-1",           669,       8.80148,       12.2659,            0.,NA,NA,"",       14.3852,      -13.9926,      -3.33791,   4.37677E-03
C:/temp/dataset/9/30_8.odb,Step-1,Increment      4: Step Time =    1.000,"PART-1-1",           670,            5.,          6.25,            0.,NA,NA,"",       11.6925,      -10.8468,      -4.36597,   16.6053E-03
C:/temp/dataset/9/30_8.odb,Step-1,Increment      4: Step Time =    1.000,"PART-1-1",           671,       5.87545,       4.76801,            0.,NA,NA,"",       10.9630,      -10.2817,      -3.80446,   15.1419E-03
C:/temp/dataset/9/30_8.odb,Step-1,Increment      4: Step Time =    1.000,"PART-1-1",           672,       6.93940,       5.78737,            0.,NA,NA,"",       11.3710,      -10.8370,      -3.44380,   7.57272E-03
C:/temp/dataset/9/30_8.odb,Step-1,Increment      4: Step Time =    1.000,"PART-1-1",           673,       7.73520,       4.18036,            0.,NA,NA,"",       10.6066,      -10.2005,      -2.90712,   10.1900E-03
C:/temp/dataset/9/30_8.odb,Step-1,Increment      4: Step Time =    1.000,"PART-1-1",           674,       6.49581,       3.34316,            0.,NA,NA,"",       10.2784,      -9.71258,      -3.36320,   16.3959E-03
C:/temp/dataset/9/30_8.odb,Step-1,Increment      4: Step Time =    1.000,"PART-1-1",           675,       7.18979,       1.82766,            0.,NA,NA,"",       9.54756,      -9.10334,      -2.87839,   17.3318E-03
C:/temp/dataset/9/30_8.odb,Step-1,Increment      4: Step Time =    1.000,"PART-1-1",           676,       8.42918,       2.66485,            0.,NA,NA,"",       9.89307,      -9.59072,      -2.42712,   12.8954E-03
C:/temp/dataset/9/30_8.odb,Step-1,Increment      4: Step Time =    1.000,"PART-1-1",           677,  -530.051E-03,       1.39108,            0.,NA,NA,"",       10.3126,      -8.15741,      -6.30928,   6.35237E-03
C:/temp/dataset/9/30_8.odb,Step-1,Increment      4: Step Time =    1.000,"PART-1-1",           678,      -10.1792,       3.73358,            0.,NA,NA,"",       13.7902,      -8.18685,      -11.0971,   6.13469E-03
C:/temp/dataset/9/30_8.odb,Step-1,Increment      4: Step Time =    1.000,"PART-1-1",           679,      -9.26781,       2.30942,            0.,NA,NA,"",       12.9741,      -7.61977,      -10.5008,   5.02884E-03
C:/temp/dataset/9/30_8.odb,Step-1,Increment      4: Step Time =    1.000,"PART-1-1",           680,      -7.90097,       2.82902,            0.,NA,NA,"",       12.7563,      -8.01564,      -9.92341,   7.57931E-03
C:/temp/dataset/9/30_8.odb,Step-1,Increment      4: Step Time =    1.000,"PART-1-1",           681,      -2.90861,       2.25641,            0.,NA,NA,"",       11.1928,      -8.29981,      -7.50950,   7.61379E-03
C:/temp/dataset/9/30_8.odb,Step-1,Increment      4: Step Time =    1.000,"PART-1-1",           682,      -1.97153,   737.020E-03,            0.,NA,NA,"",       10.3421,      -7.70278,      -6.90113,   4.15698E-03
C:/temp/dataset/9/30_8.odb,Step-1,Increment      4: Step Time =    1.000,"PART-1-1",           683,      -12.0057,       8.33468,            0.,NA,NA,"",       16.0769,      -10.1412,      -12.4749,   5.21589E-03
C:/temp/dataset/9/30_8.odb,Step-1,Increment      4: Step Time =    1.000,"PART-1-1",           684,   257.111E-03,       23.5381,            0.,NA,NA,"",       20.1945,      -18.2922,      -8.55644,   3.20804E-03
C:/temp/dataset/9/30_8.odb,Step-1,Increment      4: Step Time =    1.000,"PART-1-1",           685,       2.92443,       23.5127,            0.,NA,NA,"",       19.9636,      -18.5660,      -7.33818,   3.05039E-03
C:/temp/dataset/9/30_8.odb,Step-1,Increment      4: Step Time =    1.000,"PART-1-1",           686,  -872.814E-03,       24.6452,            0.,NA,NA,"",       20.8131,      -18.6739,      -9.19086,   1.94615E-03
C:/temp/dataset/9/30_8.odb,Step-1,Increment      4: Step Time =    1.000,"PART-1-1",           687,      -2.49287,       25.7554,            0.,NA,NA,"",       21.4946,      -19.0033,      -10.0444,   1.18057E-03
C:/temp/dataset/9/30_8.odb,Step-1,Increment      4: Step Time =    1.000,"PART-1-1",           688,      -6.57000,       23.0679,            0.,NA,NA,"",       20.8761,      -17.3636,      -11.5895,   2.99779E-03
C:/temp/dataset/9/30_8.odb,Step-1,Increment      4: Step Time =    1.000,"PART-1-1",           689,      -7.77911,       22.2181,            0.,NA,NA,"",       20.7171,      -16.8583,      -12.0414,   3.29637E-03
C:/temp/dataset/9/30_8.odb,Step-1,Increment      4: Step Time =    1.000,"PART-1-1",           690,      -6.08757,       21.5970,            0.,NA,NA,"",       20.1618,      -16.7554,      -11.2140,   4.49232E-03
C:/temp/dataset/9/30_8.odb,Step-1,Increment      4: Step Time =    1.000,"PART-1-1",           691,      -10.6596,       24.7502,            0.,NA,NA,"",       22.3165,      -17.6890,      -13.6061,   932.205E-06
C:/temp/dataset/9/30_8.odb,Step-1,Increment      4: Step Time =    1.000,"PART-1-1",           692,      -8.94190,       25.0911,            0.,NA,NA,"",       22.1473,      -18.0226,      -12.8720,   1.17758E-03
C:/temp/dataset/9/30_8.odb,Step-1,Increment      4: Step Time =    1.000,"PART-1-1",           693,      -9.30563,       26.3338,            0.,NA,NA,"",       22.7417,      -18.5417,      -13.1679,   812.067E-06
C:/temp/dataset/9/30_8.odb,Step-1,Increment      4: Step Time =    1.000,"PART-1-1",           694,      -11.0233,       25.9928,            0.,NA,NA,"",       22.9076,      -18.2074,      -13.9015,   455.062E-06
C:/temp/dataset/9/30_8.odb,Step-1,Increment      4: Step Time =    1.000,"PART-1-1",           695,      -9.11986,       17.2561,            0.,NA,NA,"",       18.9057,      -14.5116,      -12.1178,   4.84515E-03
C:/temp/dataset/9/30_8.odb,Step-1,Increment      4: Step Time =    1.000,"PART-1-1",           696,      -11.0116,       7.65423,            0.,NA,NA,"",       15.5353,      -9.93716,      -11.9415,   5.36878E-03
C:/temp/dataset/9/30_8.odb,Step-1,Increment      4: Step Time =    1.000,"PART-1-1",           697,      -11.6541,       6.30856,            0.,NA,NA,"",       15.2066,      -9.23230,      -12.0833,   5.65496E-03
C:/temp/dataset/9/30_8.odb,Step-1,Increment      4: Step Time =    1.000,"PART-1-1",           698,      -3.46647,   792.949E-03,            0.,NA,NA,"",       10.7233,      -7.56349,      -7.60154,   4.15974E-03
C:/temp/dataset/9/30_8.odb,Step-1,Increment      4: Step Time =    1.000,"PART-1-1",           699,      -4.27899,       1.61468,            0.,NA,NA,"",       11.2640,      -7.85282,      -8.07526,   5.29857E-03
C:/temp/dataset/9/30_8.odb,Step-1,Increment      4: Step Time =    1.000,"PART-1-1",           700,      -5.41602,       1.03976,            0.,NA,NA,"",       11.3402,      -7.45943,      -8.54155,   5.02731E-03
C:/temp/dataset/9/30_8.odb,Step-1,Increment      4: Step Time =    1.000,"PART-1-1",           701,      -4.60351,   218.037E-03,            0.,NA,NA,"",       10.7926,      -7.17036,      -8.06635,   3.68071E-03
C:/temp/dataset/9/30_8.odb,Step-1,Increment      4: Step Time =    1.000,"PART-1-1",           702,      -1.96165,  -510.209E-03,            0.,NA,NA,"",       9.82313,      -7.13093,      -6.75601,   2.32022E-03
C:/temp/dataset/9/30_8.odb,Step-1,Increment      4: Step Time =    1.000,"PART-1-1",           703,      -2.89723,      -2.02996,            0.,NA,NA,"",       9.44803,      -6.32539,      -7.01817,   1.32264E-03
C:/temp/dataset/9/30_8.odb,Step-1,Increment      4: Step Time =    1.000,"PART-1-1",           704,       6.46823,      -3.22891,            0.,NA,NA,"",       7.27594,      -6.79993,      -2.58850,   26.7008E-03
C:/temp/dataset/9/30_8.odb,Step-1,Increment      4: Step Time =    1.000,"PART-1-1",           705,       5.30305,      -2.18626,            0.,NA,NA,"",       7.85114,      -7.15263,      -3.23731,   19.5143E-03
C:/temp/dataset/9/30_8.odb,Step-1,Increment      4: Step Time =    1.000,"PART-1-1",           706,       8.11637,      -13.0290,            0.,NA,NA,"",       3.27059,      -3.13579,  -929.282E-03,   30.5711E-03
C:/temp/dataset/9/30_8.odb,Step-1,Increment      4: Step Time =    1.000,"PART-1-1",           707,       8.09759,      -10.8135,            0.,NA,NA,"",       4.05760,      -3.89798,      -1.12688,   28.2567E-03
C:/temp/dataset/9/30_8.odb,Step-1,Increment      4: Step Time =    1.000,"PART-1-1",           708,           15.,        -26.25,            0.,NA,NA,"",   551.996E-03,  -346.999E-03,   429.291E-03,   124.612E-03
C:/temp/dataset/9/30_8.odb,Step-1,Increment      4: Step Time =    1.000,"PART-1-1",           709,       13.6129,      -24.9005,            0.,NA,NA,"",   598.081E-03,  -442.297E-03,   402.584E-03,   90.2422E-03
C:/temp/dataset/9/30_8.odb,Step-1,Increment      4: Step Time =    1.000,"PART-1-1",           710,       12.3352,      -26.1538,            0.,NA,NA,"",   307.119E-03,  -235.201E-03,   197.491E-03,   64.3852E-03
C:/temp/dataset/9/30_8.odb,Step-1,Increment      4: Step Time =    1.000,"PART-1-1",           711,       11.5115,      -24.0900,            0.,NA,NA,"",   515.821E-03,  -479.042E-03,   191.286E-03,   43.3506E-03
C:/temp/dataset/9/30_8.odb,Step-1,Increment      4: Step Time =    1.000,"PART-1-1",           712,       12.5793,      -23.4990,            0.,NA,NA,"",   705.427E-03,  -611.061E-03,   352.464E-03,   64.9376E-03
C:/temp/dataset/9/30_8.odb,Step-1,Increment      4: Step Time =    1.000,"PART-1-1",           713,       11.9958,      -21.9645,            0.,NA,NA,"",   924.055E-03,  -868.536E-03,   315.473E-03,   49.7465E-03
C:/temp/dataset/9/30_8.odb,Step-1,Increment      4: Step Time =    1.000,"PART-1-1",           714,           15.,        -23.75,            0.,NA,NA,"",   965.582E-03,  -690.290E-03,   675.165E-03,   116.808E-03
C:/temp/dataset/9/30_8.odb,Step-1,Increment      4: Step Time =    1.000,"PART-1-1",           715,       11.0775,      -9.24199,            0.,NA,NA,"",       4.68275,      -4.67880,  -192.316E-03,   22.8974E-03
C:/temp/dataset/9/30_8.odb,Step-1,Increment      4: Step Time =    1.000,"PART-1-1",           716,       10.0590,      -8.23408,            0.,NA,NA,"",       5.03851,      -4.99829,  -635.325E-03,   16.5100E-03
C:/temp/dataset/9/30_8.odb,Step-1,Increment      4: Step Time =    1.000,"PART-1-1",           717,       9.08966,      -9.54059,            0.,NA,NA,"",       4.51196,      -4.42440,  -884.565E-03,   17.9228E-03
C:/temp/dataset/9/30_8.odb,Step-1,Increment      4: Step Time =    1.000,"PART-1-1",           718,           15.,         -1.25,            0.,NA,NA,"",       8.52840,      -8.48933,   815.388E-03,   29.2151E-03
C:/temp/dataset/9/30_8.odb,Step-1,Increment      4: Step Time =    1.000,"PART-1-1",           719,       12.7047,      -1.36075,            0.,NA,NA,"",       8.19364,      -8.19210,  -159.115E-03,   21.5881E-03
C:/temp/dataset/9/30_8.odb,Step-1,Increment      4: Step Time =    1.000,"PART-1-1",           720,       10.4122,      -1.52824,            0.,NA,NA,"",       7.97300,      -7.89551,      -1.10887,   19.0101E-03
C:/temp/dataset/9/30_8.odb,Step-1,Increment      4: Step Time =    1.000,"PART-1-1",           721,       11.7321,      -2.88547,            0.,NA,NA,"",       7.42564,      -7.41332,  -427.641E-03,   22.3259E-03
C:/temp/dataset/9/30_8.odb,Step-1,Increment      4: Step Time =    1.000,"PART-1-1",           722,       13.0447,       6.32641,            0.,NA,NA,"",       11.7508,      -11.7258,  -765.197E-03,   8.29268E-03
C:/temp/dataset/9/30_8.odb,Step-1,Increment      4: Step Time =    1.000,"PART-1-1",           723,           15.,          6.25,            0.,NA,NA,"",       11.9107,      -11.9101,   123.837E-03,   11.6455E-03
C:/temp/dataset/9/30_8.odb,Step-1,Increment      4: Step Time =    1.000,"PART-1-1",           724,       12.2773,       7.44357,            0.,NA,NA,"",       12.2149,      -12.1531,      -1.22749,   6.36441E-03
C:/temp/dataset/9/30_8.odb,Step-1,Increment      4: Step Time =    1.000,"PART-1-1",           725,       11.3989,       9.46443,            0.,NA,NA,"",       13.1151,      -12.9851,      -1.84178,   4.93133E-03
C:/temp/dataset/9/30_8.odb,Step-1,Increment      4: Step Time =    1.000,"PART-1-1",           726,       10.0696,       10.6576,            0.,NA,NA,"",       13.6346,      -13.3888,      -2.57731,   4.72147E-03
C:/temp/dataset/9/30_8.odb,Step-1,Increment      4: Step Time =    1.000,"PART-1-1",           727,       11.2733,       12.2896,            0.,NA,NA,"",       14.4479,      -14.2777,      -2.21130,   4.60070E-03
C:/temp/dataset/9/30_8.odb,Step-1,Increment      4: Step Time =    1.000,"PART-1-1",           728,       11.2495,       14.9235,            0.,NA,NA,"",       15.7030,      -15.4995,      -2.51957,   4.33895E-03
C:/temp/dataset/9/30_8.odb,Step-1,Increment      4: Step Time =    1.000,"PART-1-1",           729,       11.2365,       17.4638,            0.,NA,NA,"",       16.9176,      -16.6816,      -2.81594,   3.84625E-03
C:/temp/dataset/9/30_8.odb,Step-1,Increment      4: Step Time =    1.000,"PART-1-1",           730,       9.96430,       18.6935,            0.,NA,NA,"",       17.4750,      -17.1119,      -3.54380,   3.96986E-03
C:/temp/dataset/9/30_8.odb,Step-1,Increment      4: Step Time =    1.000,"PART-1-1",           731,       8.12949,      -15.2371,            0.,NA,NA,"",       2.55372,      -2.44019,  -752.982E-03,   32.6331E-03
C:/temp/dataset/9/30_8.odb,Step-1,Increment      4: Step Time =    1.000,"PART-1-1",           732,       10.9896,      -6.85237,            0.,NA,NA,"",       5.64727,      -5.63368,  -391.632E-03,   22.7104E-03
C:/temp/dataset/9/30_8.odb,Step-1,Increment      4: Step Time =    1.000,"PART-1-1",           733,       10.9332,      -25.1906,            0.,NA,NA,"",   326.569E-03,  -310.141E-03,   102.272E-03,   32.4698E-03
C:/temp/dataset/9/30_8.odb,Step-1,Increment      4: Step Time =    1.000,"PART-1-1",           734,       11.9281,      -5.46067,            0.,NA,NA,"",       6.30572,      -6.30430,  -133.482E-03,   26.7066E-03
C:/temp/dataset/9/30_8.odb,Step-1,Increment      4: Step Time =    1.000,"PART-1-1",           735,      -11.5697,       3.18107,            0.,NA,NA,"",       14.0266,      -7.76953,      -11.6782,   4.26531E-03
C:/temp/dataset/9/30_8.odb,Step-1,Increment      4: Step Time =    1.000,"PART-1-1",           736,      -10.7341,       2.09613,            0.,NA,NA,"",       13.3656,      -7.35450,      -11.1603,   3.98326E-03
C:/temp/dataset/9/30_8.odb,Step-1,Increment      4: Step Time =    1.000,"PART-1-1",           737,      -6.76822,       1.80268,            0.,NA,NA,"",       12.0244,      -7.66236,      -9.26686,   5.80851E-03
C:/temp/dataset/9/30_8.odb,Step-1,Increment      4: Step Time =    1.000,"PART-1-1",           738,      -5.32511,       2.65016,            0.,NA,NA,"",       11.9584,      -8.21729,      -8.68787,   7.13383E-03
C:/temp/dataset/9/30_8.odb,Step-1,Increment      4: Step Time =    1.000,"PART-1-1",           739,      -6.45786,       3.67650,            0.,NA,NA,"",       12.6831,      -8.57209,      -9.34777,   9.63127E-03
C:/temp/dataset/9/30_8.odb,Step-1,Increment      4: Step Time =    1.000,"PART-1-1",           740,      -10.1618,       27.4009,            0.,NA,NA,"",       23.3469,      -18.9299,      -13.6653,   484.352E-06
C:/temp/dataset/9/30_8.odb,Step-1,Increment      4: Step Time =    1.000,"PART-1-1",           741,      -8.15950,       27.0742,            0.,NA,NA,"",       22.8682,      -18.9953,      -12.7331,   790.528E-06
C:/temp/dataset/9/30_8.odb,Step-1,Increment      4: Step Time =    1.000,"PART-1-1",           742,      -8.41457,       23.7439,            0.,NA,NA,"",       21.4796,      -17.4743,      -12.4909,   2.11913E-03
C:/temp/dataset/9/30_8.odb,Step-1,Increment      4: Step Time =    1.000,"PART-1-1",           743,      -9.76606,       23.0282,            0.,NA,NA,"",       21.4241,      -17.0127,      -13.0215,   1.94491E-03
C:/temp/dataset/9/30_8.odb,Step-1,Increment      4: Step Time =    1.000,"PART-1-1",           744,      -10.1457,       6.57799,            0.,NA,NA,"",       14.8739,      -9.53093,      -11.4190,   6.66022E-03
C:/temp/dataset/9/30_8.odb,Step-1,Increment      4: Step Time =    1.000,"PART-1-1",           745,      -11.1466,       5.19230,            0.,NA,NA,"",       14.6339,      -8.76472,      -11.7189,   5.87594E-03
C:/temp/dataset/9/30_8.odb,Step-1,Increment      4: Step Time =    1.000,"PART-1-1",           746,       7.77017,   782.991E-03,            0.,NA,NA,"",       9.04291,      -8.69022,      -2.50088,   18.0819E-03
C:/temp/dataset/9/30_8.odb,Step-1,Increment      4: Step Time =    1.000,"PART-1-1",           747,       6.09501,       1.10589,            0.,NA,NA,"",       9.28189,      -8.68380,      -3.27797,   18.6115E-03
C:/temp/dataset/9/30_8.odb,Step-1,Increment      4: Step Time =    1.000,"PART-1-1",           748,       6.67539,   61.2235E-03,            0.,NA,NA,"",       8.76410,      -8.27143,      -2.89704,   19.1731E-03
C:/temp/dataset/9/30_8.odb,Step-1,Increment      4: Step Time =    1.000,"PART-1-1",           749,       5.31672,       2.29333,            0.,NA,NA,"",       9.88592,      -9.14147,      -3.76363,   17.8415E-03
C:/temp/dataset/9/30_8.odb,Step-1,Increment      4: Step Time =    1.000,"PART-1-1",           750,      -6.94695,       24.4689,            0.,NA,NA,"",       21.5441,      -17.9528,      -11.9098,   1.94164E-03
C:/temp/dataset/9/30_8.odb,Step-1,Increment      4: Step Time =    1.000,"PART-1-1",           751,      -2.09966,       23.3616,            0.,NA,NA,"",       20.3704,      -17.9630,      -9.60646,   3.19323E-03
C:/temp/dataset/9/30_8.odb,Step-1,Increment      4: Step Time =    1.000,"PART-1-1",           752,      -2.87591,       24.2478,            0.,NA,NA,"",       20.8635,      -18.2813,      -10.0538,   2.12891E-03
C:/temp/dataset/9/30_8.odb,Step-1,Increment      4: Step Time =    1.000,"PART-1-1",           753,       9.53974,       23.7363,            0.,NA,NA,"",       19.8737,      -19.3988,      -4.31824,   1.40895E-03
C:/temp/dataset/9/30_8.odb,Step-1,Increment      4: Step Time =    1.000,"PART-1-1",           754,      -5.22075,      -2.25347,            0.,NA,NA,"",       10.0315,      -5.95580,      -8.07209,   1.77883E-03
C:/temp/dataset/9/30_8.odb,Step-1,Increment      4: Step Time =    1.000,"PART-1-1",           755,      -7.55915,      -2.11026,            0.,NA,NA,"",       10.8340,      -5.75277,      -9.18048,   1.67472E-03
C:/temp/dataset/9/30_8.odb,Step-1,Increment      4: Step Time =    1.000,"PART-1-1",           756,      -4.20325,      -1.24540,            0.,NA,NA,"",       10.1117,      -6.53897,      -7.71286,   2.12733E-03
C:/temp/dataset/9/30_8.odb,Step-1,Increment      4: Step Time =    1.000,"PART-1-1",           757,       12.0426,       5.30937,            0.,NA,NA,"",       11.2066,      -11.1516,      -1.10909,   7.02383E-03
C:/temp/dataset/9/30_8.odb,Step-1,Increment      4: Step Time =    1.000,"PART-1-1",           758,      -8.17645,       12.8481,            0.,NA,NA,"",       16.9045,      -12.6457,      -11.2182,   5.37065E-03
C:/temp/dataset/9/30_8.odb,Step-1,Increment      4: Step Time =    1.000,"PART-1-1",           759,      -8.09554,       10.3784,            0.,NA,NA,"",       15.8787,      -11.5360,      -10.9112,   5.05275E-03
C:/temp/dataset/9/30_8.odb,Step-1,Increment      4: Step Time =    1.000,"PART-1-1",           760,      -8.33007,       15.6293,            0.,NA,NA,"",       18.0749,      -13.8719,      -11.5875,   4.77788E-03
C:/temp/dataset/9/30_8.odb,Step-1,Increment      4: Step Time =    1.000,"PART-1-1",           761,       12.1122,      -19.7356,            0.,NA,NA,"",       1.41468,      -1.36266,   380.115E-03,   48.2721E-03
C:/temp/dataset/9/30_8.odb,Step-1,Increment      4: Step Time =    1.000,"PART-1-1",           762,       12.1388,      -17.4254,            0.,NA,NA,"",       2.00902,      -1.96835,   402.176E-03,   44.8794E-03
C:/temp/dataset/9/30_8.odb,Step-1,Increment      4: Step Time =    1.000,"PART-1-1",           763,       12.0361,      -7.90801,            0.,NA,NA,"",       5.28921,      -5.28867,   75.7976E-03,   29.8457E-03
C:/temp/dataset/9/30_8.odb,Step-1,Increment      4: Step Time =    1.000,"PART-1-1",           764,       12.0837,      -10.3075,            0.,NA,NA,"",       4.35097,      -4.34534,   221.329E-03,   33.0883E-03
C:/temp/dataset/9/30_8.odb,Step-1,Increment      4: Step Time =    1.000,"PART-1-1",           765,       12.1118,      -12.6921,            0.,NA,NA,"",       3.48726,      -3.47235,   322.072E-03,   36.8520E-03
C:/temp/dataset/9/30_8.odb,Step-1,Increment      4: Step Time =    1.000,"PART-1-1",           766,       12.1357,      -15.0700,            0.,NA,NA,"",       2.70322,      -2.67586,   383.637E-03,   40.9659E-03
C:/temp/dataset/9/30_8.odb,Step-1,Increment      4: Step Time =    1.000,"PART-1-1",           767,      -8.71328,  -792.246E-03,            0.,NA,NA,"",       11.6770,      -6.23378,      -9.87387,   2.06713E-03
C:/temp/dataset/9/30_8.odb,Step-1,Increment      4: Step Time =    1.000,"PART-1-1",           768,      -7.47429,       25.8162,            0.,NA,NA,"",       22.2130,      -18.5025,      -12.2912,   1.29535E-03
C:/temp/dataset/9/30_8.odb,Step-1,Increment      4: Step Time =    1.000,"PART-1-1",           769,       9.13729,   756.201E-03,            0.,NA,NA,"",       9.00530,      -8.80230,      -1.90130,   15.4401E-03
C:/temp/dataset/9/30_8.odb,Step-1,Increment      4: Step Time =    1.000,"PART-1-1",           770,       7.76646,  -679.521E-03,            0.,NA,NA,"",       8.36969,      -8.03840,      -2.33151,   20.6702E-03
C:/temp/dataset/9/30_8.odb,Step-1,Increment      4: Step Time =    1.000,"PART-1-1",           771,       9.13358,  -706.311E-03,            0.,NA,NA,"",       8.33087,      -8.14720,      -1.73966,   18.6778E-03
C:/temp/dataset/9/30_8.odb,Step-1,Increment      4: Step Time =    1.000,"PART-1-1",           772,       7.17869,      -1.72980,            0.,NA,NA,"",       7.91394,      -7.52114,      -2.46231,   22.4879E-03
C:/temp/dataset/9/30_8.odb,Step-1,Increment      4: Step Time =    1.000,"PART-1-1",           773,       6.08762,  -989.051E-03,            0.,NA,NA,"",       8.32438,      -7.75289,      -3.03118,   21.0753E-03
C:/temp/dataset/9/30_8.odb,Step-1,Increment      4: Step Time =    1.000,"PART-1-1",           774,       8.06590,       24.5744,            0.,NA,NA,"",       20.2699,      -19.6195,      -5.09354,   1.61653E-03
C:/temp/dataset/9/30_8.odb,Step-1,Increment      4: Step Time =    1.000,"PART-1-1",           775,       7.69641,      -4.07963,            0.,NA,NA,"",       6.82327,      -6.53420,      -1.96501,   23.7868E-03
C:/temp/dataset/9/30_8.odb,Step-1,Increment      4: Step Time =    1.000,"PART-1-1",           776,       8.40687,      -2.58051,            0.,NA,NA,"",       7.47959,      -7.25020,      -1.83814,   22.5718E-03
C:/temp/dataset/9/30_8.odb,Step-1,Increment      4: Step Time =    1.000,"PART-1-1",           777,      -9.00797,   684.990E-03,            0.,NA,NA,"",       12.2966,      -6.88922,      -10.1855,   3.71151E-03
C:/temp/dataset/9/30_8.odb,Step-1,Increment      4: Step Time =    1.000,"PART-1-1",           778,       5.05143,   63.4436E-03,            0.,NA,NA,"",       8.89457,      -8.12478,      -3.61958,   16.2458E-03
C:/temp/dataset/9/30_8.odb,Step-1,Increment      4: Step Time =    1.000,"PART-1-1",           779,      -3.45659,  -454.281E-03,            0.,NA,NA,"",       10.2190,      -6.98904,      -7.45529,   2.61954E-03
C:/temp/dataset/9/30_8.odb,Step-1,Increment      4: Step Time =    1.000,"PART-1-1",           780,      -7.58605,   993.377E-03,            0.,NA,NA,"",       11.9603,      -7.19364,      -9.55509,   4.48795E-03
