ODB Name,Step,Frame,Part Instance Name,    êﬂì_ÉâÉxÉã,X,Y,Z,Section Name,Material Name,Section Point,   U-Magnitude,          U-U1,          U-U2,       S-Mises
C:/temp/dataset/9/31_7.odb,Step-1,Increment      1: Step Time =    1.000,"PART-1-1",             1,            5.,           20.,            0.,NA,NA,"",       4.54040,      -4.43023,  -994.151E-03,   1.39160E-03
C:/temp/dataset/9/31_7.odb,Step-1,Increment      1: Step Time =    1.000,"PART-1-1",             2,            0.,           20.,            0.,NA,NA,"",       4.69466,      -4.38967,      -1.66452,   1.16563E-03
C:/temp/dataset/9/31_7.odb,Step-1,Increment      1: Step Time =    1.000,"PART-1-1",             3,            5.,          12.5,            0.,NA,NA,"",       3.55912,      -3.43993,  -913.345E-03,   2.83668E-03
C:/temp/dataset/9/31_7.odb,Step-1,Increment      1: Step Time =    1.000,"PART-1-1",             4,            5.,            5.,            0.,NA,NA,"",       2.62401,      -2.49047,  -826.434E-03,   8.75033E-03
C:/temp/dataset/9/31_7.odb,Step-1,Increment      1: Step Time =    1.000,"PART-1-1",             5,            0.,            5.,            0.,NA,NA,"",       2.91325,      -2.48261,      -1.52436,   5.26090E-03
C:/temp/dataset/9/31_7.odb,Step-1,Increment      1: Step Time =    1.000,"PART-1-1",             6,           -5.,            5.,            0.,NA,NA,"",       3.28580,      -2.42696,      -2.21502,   3.14790E-03
C:/temp/dataset/9/31_7.odb,Step-1,Increment      1: Step Time =    1.000,"PART-1-1",             7,           -5.,          12.5,            0.,NA,NA,"",       4.08323,      -3.38931,      -2.27715,   182.880E-06
C:/temp/dataset/9/31_7.odb,Step-1,Increment      1: Step Time =    1.000,"PART-1-1",             8,           -5.,           20.,            0.,NA,NA,"",       4.93879,      -4.35304,      -2.33296,   3.23412E-03
C:/temp/dataset/9/31_7.odb,Step-1,Increment      1: Step Time =    1.000,"PART-1-1",             9,           15.,           30.,            0.,NA,NA,"",       5.85674,      -5.85156,   246.310E-03,   11.3257E-06
C:/temp/dataset/9/31_7.odb,Step-1,Increment      1: Step Time =    1.000,"PART-1-1",            10,           7.5,           30.,            0.,NA,NA,"",       5.83400,      -5.78513,  -753.615E-03,   165.779E-06
C:/temp/dataset/9/31_7.odb,Step-1,Increment      1: Step Time =    1.000,"PART-1-1",            11,            0.,           30.,            0.,NA,NA,"",       5.98017,      -5.71714,      -1.75407,   611.584E-06
C:/temp/dataset/9/31_7.odb,Step-1,Increment      1: Step Time =    1.000,"PART-1-1",            12,          -7.5,           30.,            0.,NA,NA,"",       6.27720,      -5.64542,      -2.74454,   809.498E-06
C:/temp/dataset/9/31_7.odb,Step-1,Increment      1: Step Time =    1.000,"PART-1-1",            13,          -15.,           30.,            0.,NA,NA,"",       6.70839,      -5.57896,      -3.72527,   25.4870E-06
C:/temp/dataset/9/31_7.odb,Step-1,Increment      1: Step Time =    1.000,"PART-1-1",            14,          -15.,         21.25,            0.,NA,NA,"",       5.74192,      -4.43480,      -3.64721,   834.401E-06
C:/temp/dataset/9/31_7.odb,Step-1,Increment      1: Step Time =    1.000,"PART-1-1",            15,          -15.,          12.5,            0.,NA,NA,"",       4.86482,      -3.30457,      -3.57019,   253.794E-06
C:/temp/dataset/9/31_7.odb,Step-1,Increment      1: Step Time =    1.000,"PART-1-1",            16,          -15.,          3.75,            0.,NA,NA,"",       4.12354,      -2.17142,      -3.50550,   1.70288E-03
C:/temp/dataset/9/31_7.odb,Step-1,Increment      1: Step Time =    1.000,"PART-1-1",            17,          -15.,           -5.,            0.,NA,NA,"",       3.58221,      -1.01557,      -3.43524,   67.2973E-06
C:/temp/dataset/9/31_7.odb,Step-1,Increment      1: Step Time =    1.000,"PART-1-1",            18,          -10.,           -5.,            0.,NA,NA,"",       2.97071,      -1.05766,      -2.77605,   1.16306E-03
C:/temp/dataset/9/31_7.odb,Step-1,Increment      1: Step Time =    1.000,"PART-1-1",            19,           -5.,           -5.,            0.,NA,NA,"",       2.37517,      -1.09244,      -2.10903,   2.88873E-03
C:/temp/dataset/9/31_7.odb,Step-1,Increment      1: Step Time =    1.000,"PART-1-1",            20,            0.,           -5.,            0.,NA,NA,"",       1.81288,      -1.13253,      -1.41560,   980.833E-06
C:/temp/dataset/9/31_7.odb,Step-1,Increment      1: Step Time =    1.000,"PART-1-1",            21,            5.,           -5.,            0.,NA,NA,"",       1.39073,      -1.22143,  -665.003E-03,   38.7421E-03
C:/temp/dataset/9/31_7.odb,Step-1,Increment      1: Step Time =    1.000,"PART-1-1",            22,            5.,        -11.25,            0.,NA,NA,"",   836.978E-03,  -697.148E-03,  -463.159E-03,   28.3767E-03
C:/temp/dataset/9/31_7.odb,Step-1,Increment      1: Step Time =    1.000,"PART-1-1",            23,            5.,         -17.5,            0.,NA,NA,"",   426.854E-03,  -309.679E-03,  -293.774E-03,   27.5534E-03
C:/temp/dataset/9/31_7.odb,Step-1,Increment      1: Step Time =    1.000,"PART-1-1",            24,            5.,        -23.75,            0.,NA,NA,"",   164.353E-03,  -88.3167E-03,  -138.607E-03,   26.0972E-03
C:/temp/dataset/9/31_7.odb,Step-1,Increment      1: Step Time =    1.000,"PART-1-1",            25,            5.,          -30.,            0.,NA,NA,"",            0.,  -7.11996E-39,  -13.8926E-39,   27.1536E-03
C:/temp/dataset/9/31_7.odb,Step-1,Increment      1: Step Time =    1.000,"PART-1-1",            26,           15.,          -30.,            0.,NA,NA,"",            0.,  -4.74473E-39,   9.09410E-39,   17.2865E-03
C:/temp/dataset/9/31_7.odb,Step-1,Increment      1: Step Time =    1.000,"PART-1-1",            27,           15.,         -22.5,            0.,NA,NA,"",   165.427E-03,  -109.800E-03,   123.734E-03,   20.0929E-03
C:/temp/dataset/9/31_7.odb,Step-1,Increment      1: Step Time =    1.000,"PART-1-1",            28,           15.,          -15.,            0.,NA,NA,"",   517.331E-03,  -449.560E-03,   255.983E-03,   21.5488E-03
C:/temp/dataset/9/31_7.odb,Step-1,Increment      1: Step Time =    1.000,"PART-1-1",            29,           15.,          -7.5,            0.,NA,NA,"",       1.11696,      -1.04997,   381.017E-03,   21.9426E-03
C:/temp/dataset/9/31_7.odb,Step-1,Increment      1: Step Time =    1.000,"PART-1-1",            30,           15.,            0.,            0.,NA,NA,"",       1.96248,      -1.91097,   446.668E-03,   10.1250E-03
C:/temp/dataset/9/31_7.odb,Step-1,Increment      1: Step Time =    1.000,"PART-1-1",            31,           15.,           7.5,            0.,NA,NA,"",       2.90419,      -2.87363,   420.195E-03,   2.76114E-03
C:/temp/dataset/9/31_7.odb,Step-1,Increment      1: Step Time =    1.000,"PART-1-1",            32,           15.,           15.,            0.,NA,NA,"",       3.87129,      -3.85342,   371.532E-03,   1.79828E-03
C:/temp/dataset/9/31_7.odb,Step-1,Increment      1: Step Time =    1.000,"PART-1-1",            33,           15.,          22.5,            0.,NA,NA,"",       4.86079,      -4.85074,   312.521E-03,   469.442E-06
C:/temp/dataset/9/31_7.odb,Step-1,Increment      1: Step Time =    1.000,"PART-1-1",            34,           2.5,           20.,            0.,NA,NA,"",       4.60594,      -4.40963,      -1.33034,   1.00919E-03
C:/temp/dataset/9/31_7.odb,Step-1,Increment      1: Step Time =    1.000,"PART-1-1",            35,            5.,           15.,            0.,NA,NA,"",       3.88330,      -3.76763,  -940.747E-03,   2.32315E-03
C:/temp/dataset/9/31_7.odb,Step-1,Increment      1: Step Time =    1.000,"PART-1-1",            36,            5.,          17.5,            0.,NA,NA,"",       4.21039,      -4.09775,  -967.392E-03,   1.96925E-03
C:/temp/dataset/9/31_7.odb,Step-1,Increment      1: Step Time =    1.000,"PART-1-1",            37,            5.,           7.5,            0.,NA,NA,"",       2.92422,      -2.79626,  -855.574E-03,   4.50160E-03
C:/temp/dataset/9/31_7.odb,Step-1,Increment      1: Step Time =    1.000,"PART-1-1",            38,            5.,           10.,            0.,NA,NA,"",       3.23879,      -3.11553,  -885.019E-03,   3.47187E-03
C:/temp/dataset/9/31_7.odb,Step-1,Increment      1: Step Time =    1.000,"PART-1-1",            39,           2.5,            5.,            0.,NA,NA,"",       2.75176,      -2.49373,      -1.16340,   8.67195E-03
C:/temp/dataset/9/31_7.odb,Step-1,Increment      1: Step Time =    1.000,"PART-1-1",            40,          -2.5,            5.,            0.,NA,NA,"",       3.09524,      -2.45631,      -1.88335,   7.40215E-03
C:/temp/dataset/9/31_7.odb,Step-1,Increment      1: Step Time =    1.000,"PART-1-1",            41,           -5.,           10.,            0.,NA,NA,"",       3.80812,      -3.06759,      -2.25647,   129.943E-06
C:/temp/dataset/9/31_7.odb,Step-1,Increment      1: Step Time =    1.000,"PART-1-1",            42,           -5.,           7.5,            0.,NA,NA,"",       3.54031,      -2.74572,      -2.23491,   597.107E-06
C:/temp/dataset/9/31_7.odb,Step-1,Increment      1: Step Time =    1.000,"PART-1-1",            43,           -5.,          17.5,            0.,NA,NA,"",       4.65060,      -4.03265,      -2.31642,   1.37845E-03
C:/temp/dataset/9/31_7.odb,Step-1,Increment      1: Step Time =    1.000,"PART-1-1",            44,           -5.,           15.,            0.,NA,NA,"",       4.36448,      -3.71104,      -2.29714,   553.608E-06
C:/temp/dataset/9/31_7.odb,Step-1,Increment      1: Step Time =    1.000,"PART-1-1",            45,          -2.5,           20.,            0.,NA,NA,"",       4.80528,      -4.37019,      -1.99804,   1.63419E-03
C:/temp/dataset/9/31_7.odb,Step-1,Increment      1: Step Time =    1.000,"PART-1-1",            46,          12.5,           30.,            0.,NA,NA,"",       5.82988,      -5.82923,  -87.0136E-03,   24.1120E-06
C:/temp/dataset/9/31_7.odb,Step-1,Increment      1: Step Time =    1.000,"PART-1-1",            47,           10.,           30.,            0.,NA,NA,"",       5.82228,      -5.80709,  -420.236E-03,   124.586E-06
C:/temp/dataset/9/31_7.odb,Step-1,Increment      1: Step Time =    1.000,"PART-1-1",            48,            5.,           30.,            0.,NA,NA,"",       5.86470,      -5.76303,      -1.08728,   35.5777E-06
C:/temp/dataset/9/31_7.odb,Step-1,Increment      1: Step Time =    1.000,"PART-1-1",            49,           2.5,           30.,            0.,NA,NA,"",       5.91367,      -5.74042,      -1.42096,   265.920E-06
C:/temp/dataset/9/31_7.odb,Step-1,Increment      1: Step Time =    1.000,"PART-1-1",            50,          -2.5,           30.,            0.,NA,NA,"",       6.06337,      -5.69326,      -2.08596,   873.115E-06
C:/temp/dataset/9/31_7.odb,Step-1,Increment      1: Step Time =    1.000,"PART-1-1",            51,           -5.,           30.,            0.,NA,NA,"",       6.16257,      -5.66917,      -2.41615,   980.320E-06
C:/temp/dataset/9/31_7.odb,Step-1,Increment      1: Step Time =    1.000,"PART-1-1",            52,          -10.,           30.,            0.,NA,NA,"",       6.40681,      -5.62248,      -3.07164,   445.512E-06
C:/temp/dataset/9/31_7.odb,Step-1,Increment      1: Step Time =    1.000,"PART-1-1",            53,         -12.5,           30.,            0.,NA,NA,"",       6.55085,      -5.60047,      -3.39830,   94.2659E-06
C:/temp/dataset/9/31_7.odb,Step-1,Increment      1: Step Time =    1.000,"PART-1-1",            54,          -15.,       27.8125,            0.,NA,NA,"",       6.46141,      -5.29265,      -3.70644,   75.1129E-06
C:/temp/dataset/9/31_7.odb,Step-1,Increment      1: Step Time =    1.000,"PART-1-1",            55,          -15.,        25.625,            0.,NA,NA,"",       6.21749,      -5.00616,      -3.68721,   352.418E-06
C:/temp/dataset/9/31_7.odb,Step-1,Increment      1: Step Time =    1.000,"PART-1-1",            56,          -15.,       23.4375,            0.,NA,NA,"",       5.97734,      -4.72002,      -3.66742,   653.639E-06
C:/temp/dataset/9/31_7.odb,Step-1,Increment      1: Step Time =    1.000,"PART-1-1",            57,          -15.,       19.0625,            0.,NA,NA,"",       5.51224,      -4.15084,      -3.62702,   801.363E-06
C:/temp/dataset/9/31_7.odb,Step-1,Increment      1: Step Time =    1.000,"PART-1-1",            58,          -15.,        16.875,            0.,NA,NA,"",       5.28909,      -3.86807,      -3.60729,   553.145E-06
C:/temp/dataset/9/31_7.odb,Step-1,Increment      1: Step Time =    1.000,"PART-1-1",            59,          -15.,       14.6875,            0.,NA,NA,"",       5.07311,      -3.58614,      -3.58832,   177.073E-06
C:/temp/dataset/9/31_7.odb,Step-1,Increment      1: Step Time =    1.000,"PART-1-1",            60,          -15.,       10.3125,            0.,NA,NA,"",       4.66489,      -3.02288,      -3.55293,   711.877E-06
C:/temp/dataset/9/31_7.odb,Step-1,Increment      1: Step Time =    1.000,"PART-1-1",            61,          -15.,         8.125,            0.,NA,NA,"",       4.47411,      -2.74056,      -3.53652,   1.18788E-03
C:/temp/dataset/9/31_7.odb,Step-1,Increment      1: Step Time =    1.000,"PART-1-1",            62,          -15.,        5.9375,            0.,NA,NA,"",       4.29336,      -2.45694,      -3.52085,   1.55430E-03
C:/temp/dataset/9/31_7.odb,Step-1,Increment      1: Step Time =    1.000,"PART-1-1",            63,          -15.,        1.5625,            0.,NA,NA,"",       3.96568,      -1.88372,      -3.48973,   1.42701E-03
C:/temp/dataset/9/31_7.odb,Step-1,Increment      1: Step Time =    1.000,"PART-1-1",            64,          -15.,     -625.E-03,            0.,NA,NA,"",       3.82130,      -1.59441,      -3.47278,   797.968E-06
C:/temp/dataset/9/31_7.odb,Step-1,Increment      1: Step Time =    1.000,"PART-1-1",            65,          -15.,       -2.8125,            0.,NA,NA,"",       3.69257,      -1.30468,      -3.45440,   175.753E-06
C:/temp/dataset/9/31_7.odb,Step-1,Increment      1: Step Time =    1.000,"PART-1-1",            66,         -12.5,           -5.,            0.,NA,NA,"",       3.27412,      -1.03735,      -3.10544,   235.204E-06
C:/temp/dataset/9/31_7.odb,Step-1,Increment      1: Step Time =    1.000,"PART-1-1",            67,          -7.5,           -5.,            0.,NA,NA,"",       2.67111,      -1.07579,      -2.44490,   2.25687E-03
C:/temp/dataset/9/31_7.odb,Step-1,Increment      1: Step Time =    1.000,"PART-1-1",            68,          -2.5,           -5.,            0.,NA,NA,"",       2.08615,      -1.11015,      -1.76624,   1.96295E-03
C:/temp/dataset/9/31_7.odb,Step-1,Increment      1: Step Time =    1.000,"PART-1-1",            69,           2.5,           -5.,            0.,NA,NA,"",       1.57082,      -1.16191,      -1.05710,   9.19922E-03
C:/temp/dataset/9/31_7.odb,Step-1,Increment      1: Step Time =    1.000,"PART-1-1",            70,            5.,      -7.08333,            0.,NA,NA,"",       1.19342,      -1.04137,  -582.937E-03,   34.6936E-03
C:/temp/dataset/9/31_7.odb,Step-1,Increment      1: Step Time =    1.000,"PART-1-1",            71,            5.,      -9.16667,            0.,NA,NA,"",       1.00853,  -862.407E-03,  -522.873E-03,   28.0686E-03
C:/temp/dataset/9/31_7.odb,Step-1,Increment      1: Step Time =    1.000,"PART-1-1",            72,            5.,      -13.3333,            0.,NA,NA,"",   682.550E-03,  -549.323E-03,  -405.115E-03,   28.0321E-03
C:/temp/dataset/9/31_7.odb,Step-1,Increment      1: Step Time =    1.000,"PART-1-1",            73,            5.,      -15.4167,            0.,NA,NA,"",   545.990E-03,  -420.169E-03,  -348.658E-03,   27.8723E-03
C:/temp/dataset/9/31_7.odb,Step-1,Increment      1: Step Time =    1.000,"PART-1-1",            74,            5.,      -19.5833,            0.,NA,NA,"",   324.407E-03,  -217.743E-03,  -240.473E-03,   27.1648E-03
C:/temp/dataset/9/31_7.odb,Step-1,Increment      1: Step Time =    1.000,"PART-1-1",            75,            5.,      -21.6667,            0.,NA,NA,"",   237.447E-03,  -144.057E-03,  -188.756E-03,   26.6618E-03
C:/temp/dataset/9/31_7.odb,Step-1,Increment      1: Step Time =    1.000,"PART-1-1",            76,            5.,      -25.8333,            0.,NA,NA,"",   103.098E-03,  -49.4630E-03,  -90.4573E-03,   24.9050E-03
C:/temp/dataset/9/31_7.odb,Step-1,Increment      1: Step Time =    1.000,"PART-1-1",            77,            5.,      -27.9167,            0.,NA,NA,"",   51.7212E-03,  -25.5854E-03,  -44.9496E-03,   25.1639E-03
C:/temp/dataset/9/31_7.odb,Step-1,Increment      1: Step Time =    1.000,"PART-1-1",            78,           7.5,          -30.,            0.,NA,NA,"",            0.,   3.96594E-39,  -38.5629E-39,   11.0056E-03
C:/temp/dataset/9/31_7.odb,Step-1,Increment      1: Step Time =    1.000,"PART-1-1",            79,           10.,          -30.,            0.,NA,NA,"",            0.,   5.74456E-39,  -4.93782E-39,   5.84342E-03
C:/temp/dataset/9/31_7.odb,Step-1,Increment      1: Step Time =    1.000,"PART-1-1",            80,          12.5,          -30.,            0.,NA,NA,"",            0.,  -1.49286E-39,   14.7039E-39,   7.13143E-03
C:/temp/dataset/9/31_7.odb,Step-1,Increment      1: Step Time =    1.000,"PART-1-1",            81,           15.,         -27.5,            0.,NA,NA,"",   42.1686E-03,  -18.3378E-03,   37.9726E-03,   18.9057E-03
C:/temp/dataset/9/31_7.odb,Step-1,Increment      1: Step Time =    1.000,"PART-1-1",            82,           15.,          -25.,            0.,NA,NA,"",   95.0149E-03,  -50.9793E-03,   80.1806E-03,   19.3844E-03
C:/temp/dataset/9/31_7.odb,Step-1,Increment      1: Step Time =    1.000,"PART-1-1",            83,           15.,          -20.,            0.,NA,NA,"",   257.633E-03,  -195.413E-03,   167.895E-03,   20.5358E-03
C:/temp/dataset/9/31_7.odb,Step-1,Increment      1: Step Time =    1.000,"PART-1-1",            84,           15.,         -17.5,            0.,NA,NA,"",   374.345E-03,  -308.480E-03,   212.071E-03,   21.0478E-03
C:/temp/dataset/9/31_7.odb,Step-1,Increment      1: Step Time =    1.000,"PART-1-1",            85,           15.,         -12.5,            0.,NA,NA,"",   687.910E-03,  -619.394E-03,   299.286E-03,   22.0625E-03
C:/temp/dataset/9/31_7.odb,Step-1,Increment      1: Step Time =    1.000,"PART-1-1",            86,           15.,          -10.,            0.,NA,NA,"",   887.392E-03,  -819.070E-03,   341.451E-03,   22.4130E-03
C:/temp/dataset/9/31_7.odb,Step-1,Increment      1: Step Time =    1.000,"PART-1-1",            87,           15.,           -5.,            0.,NA,NA,"",       1.37622,      -1.31230,   414.551E-03,   19.5837E-03
C:/temp/dataset/9/31_7.odb,Step-1,Increment      1: Step Time =    1.000,"PART-1-1",            88,           15.,          -2.5,            0.,NA,NA,"",       1.66079,      -1.60218,   437.336E-03,   15.1886E-03
C:/temp/dataset/9/31_7.odb,Step-1,Increment      1: Step Time =    1.000,"PART-1-1",            89,           15.,           2.5,            0.,NA,NA,"",       2.27312,      -2.22930,   444.195E-03,   6.02572E-03
C:/temp/dataset/9/31_7.odb,Step-1,Increment      1: Step Time =    1.000,"PART-1-1",            90,           15.,            5.,            0.,NA,NA,"",       2.58756,      -2.55090,   434.012E-03,   3.67283E-03
C:/temp/dataset/9/31_7.odb,Step-1,Increment      1: Step Time =    1.000,"PART-1-1",            91,           15.,           10.,            0.,NA,NA,"",       3.22341,      -3.19788,   404.942E-03,   2.45055E-03
C:/temp/dataset/9/31_7.odb,Step-1,Increment      1: Step Time =    1.000,"PART-1-1",            92,           15.,          12.5,            0.,NA,NA,"",       3.54580,      -3.52442,   388.761E-03,   2.17046E-03
C:/temp/dataset/9/31_7.odb,Step-1,Increment      1: Step Time =    1.000,"PART-1-1",            93,           15.,          17.5,            0.,NA,NA,"",       4.19942,      -4.18455,   353.089E-03,   1.35220E-03
C:/temp/dataset/9/31_7.odb,Step-1,Increment      1: Step Time =    1.000,"PART-1-1",            94,           15.,           20.,            0.,NA,NA,"",       4.52951,      -4.51723,   333.376E-03,   881.559E-06
C:/temp/dataset/9/31_7.odb,Step-1,Increment      1: Step Time =    1.000,"PART-1-1",            95,           15.,           25.,            0.,NA,NA,"",       5.19264,      -5.18449,   290.820E-03,   181.341E-06
C:/temp/dataset/9/31_7.odb,Step-1,Increment      1: Step Time =    1.000,"PART-1-1",            96,           15.,          27.5,            0.,NA,NA,"",       5.52466,      -5.51813,   268.645E-03,   26.0519E-06
C:/temp/dataset/9/31_7.odb,Step-1,Increment      1: Step Time =    1.000,"PART-1-1",            97,       7.09255,      -21.6558,            0.,NA,NA,"",   173.620E-03,  -124.896E-03,  -120.602E-03,   16.8454E-03
C:/temp/dataset/9/31_7.odb,Step-1,Increment      1: Step Time =    1.000,"PART-1-1",            98,       7.09346,      -17.4368,            0.,NA,NA,"",   349.539E-03,  -294.184E-03,  -188.769E-03,   17.3030E-03
C:/temp/dataset/9/31_7.odb,Step-1,Increment      1: Step Time =    1.000,"PART-1-1",            99,       7.15828,      -23.7452,            0.,NA,NA,"",   110.529E-03,  -68.3278E-03,  -86.8790E-03,   16.3025E-03
C:/temp/dataset/9/31_7.odb,Step-1,Increment      1: Step Time =    1.000,"PART-1-1",           100,       7.44609,      -27.8729,            0.,NA,NA,"",   25.4264E-03,  -6.32867E-03,  -24.6262E-03,   14.9835E-03
C:/temp/dataset/9/31_7.odb,Step-1,Increment      1: Step Time =    1.000,"PART-1-1",           101,       7.30780,      -25.7939,            0.,NA,NA,"",   61.3282E-03,  -29.2118E-03,  -53.9242E-03,   15.8537E-03
C:/temp/dataset/9/31_7.odb,Step-1,Increment      1: Step Time =    1.000,"PART-1-1",           102,       7.08258,      -10.9526,            0.,NA,NA,"",   767.903E-03,  -704.520E-03,  -305.495E-03,   17.9004E-03
C:/temp/dataset/9/31_7.odb,Step-1,Increment      1: Step Time =    1.000,"PART-1-1",           103,       7.09950,      -13.1236,            0.,NA,NA,"",   607.029E-03,  -546.704E-03,  -263.816E-03,   17.7164E-03
C:/temp/dataset/9/31_7.odb,Step-1,Increment      1: Step Time =    1.000,"PART-1-1",           104,       6.95448,      -6.62029,            0.,NA,NA,"",       1.14957,      -1.07708,  -401.780E-03,   18.7533E-03
C:/temp/dataset/9/31_7.odb,Step-1,Increment      1: Step Time =    1.000,"PART-1-1",           105,       7.04974,      -8.78764,            0.,NA,NA,"",   948.549E-03,  -880.992E-03,  -351.566E-03,   19.0960E-03
C:/temp/dataset/9/31_7.odb,Step-1,Increment      1: Step Time =    1.000,"PART-1-1",           106,       7.10540,      -15.2896,            0.,NA,NA,"",   467.324E-03,  -409.711E-03,  -224.787E-03,   17.4517E-03
C:/temp/dataset/9/31_7.odb,Step-1,Increment      1: Step Time =    1.000,"PART-1-1",           107,       7.08223,      -19.5608,            0.,NA,NA,"",   252.247E-03,  -199.550E-03,  -154.301E-03,   17.1243E-03
C:/temp/dataset/9/31_7.odb,Step-1,Increment      1: Step Time =    1.000,"PART-1-1",           108,      -11.8989,       25.3809,            0.,NA,NA,"",       5.98012,      -5.00040,      -3.27990,   511.461E-06
C:/temp/dataset/9/31_7.odb,Step-1,Increment      1: Step Time =    1.000,"PART-1-1",           109,      -12.7134,       3.51066,            0.,NA,NA,"",       3.86540,      -2.16110,      -3.20483,   965.786E-06
C:/temp/dataset/9/31_7.odb,Step-1,Increment      1: Step Time =    1.000,"PART-1-1",           110,      -13.0834,       10.3867,            0.,NA,NA,"",       4.49734,      -3.04899,      -3.30601,   740.637E-06
C:/temp/dataset/9/31_7.odb,Step-1,Increment      1: Step Time =    1.000,"PART-1-1",           111,      -12.9355,       8.20912,            0.,NA,NA,"",       4.28521,      -2.76968,      -3.26984,   903.090E-06
C:/temp/dataset/9/31_7.odb,Step-1,Increment      1: Step Time =    1.000,"PART-1-1",           112,      -13.1801,       12.5484,            0.,NA,NA,"",       4.71074,      -3.32620,      -3.33579,   574.694E-06
C:/temp/dataset/9/31_7.odb,Step-1,Increment      1: Step Time =    1.000,"PART-1-1",           113,      -12.7454,       20.6010,            0.,NA,NA,"",       5.50418,      -4.36891,      -3.34792,   404.003E-06
C:/temp/dataset/9/31_7.odb,Step-1,Increment      1: Step Time =    1.000,"PART-1-1",           114,      -13.1621,       18.5389,            0.,NA,NA,"",       5.31462,      -4.09809,      -3.38391,   455.736E-06
C:/temp/dataset/9/31_7.odb,Step-1,Increment      1: Step Time =    1.000,"PART-1-1",           115,      -12.3840,       22.8683,            0.,NA,NA,"",       5.72831,      -4.66740,      -3.32099,   451.826E-06
C:/temp/dataset/9/31_7.odb,Step-1,Increment      1: Step Time =    1.000,"PART-1-1",           116,      -13.4658,       16.5948,            0.,NA,NA,"",       5.13656,      -3.84452,      -3.40644,   434.375E-06
C:/temp/dataset/9/31_7.odb,Step-1,Increment      1: Step Time =    1.000,"PART-1-1",           117,      -13.3466,       14.6489,            0.,NA,NA,"",       4.93064,      -3.59493,      -3.37456,   448.841E-06
C:/temp/dataset/9/31_7.odb,Step-1,Increment      1: Step Time =    1.000,"PART-1-1",           118,      -12.3609,       5.76892,            0.,NA,NA,"",       4.01685,      -2.45895,      -3.17627,   911.718E-06
C:/temp/dataset/9/31_7.odb,Step-1,Increment      1: Step Time =    1.000,"PART-1-1",           119,      -12.8583,       1.39410,            0.,NA,NA,"",       3.71816,      -1.88117,      -3.20716,   1.06069E-03
C:/temp/dataset/9/31_7.odb,Step-1,Increment      1: Step Time =    1.000,"PART-1-1",           120,      -12.6304,  -685.754E-03,            0.,NA,NA,"",       3.54563,      -1.60769,      -3.16019,   1.07802E-03
C:/temp/dataset/9/31_7.odb,Step-1,Increment      1: Step Time =    1.000,"PART-1-1",           121,   38.5673E-03,       27.2989,            0.,NA,NA,"",       5.62962,      -5.35868,      -1.72545,   476.650E-06
C:/temp/dataset/9/31_7.odb,Step-1,Increment      1: Step Time =    1.000,"PART-1-1",           122,      -4.16985,       22.2766,            0.,NA,NA,"",       5.16935,      -4.65829,      -2.24110,   894.101E-06
C:/temp/dataset/9/31_7.odb,Step-1,Increment      1: Step Time =    1.000,"PART-1-1",           123,      -7.85548,       28.0855,            0.,NA,NA,"",       6.06307,      -5.39072,      -2.77506,   519.334E-06
C:/temp/dataset/9/31_7.odb,Step-1,Increment      1: Step Time =    1.000,"PART-1-1",           124,       9.92813,      -27.7267,            0.,NA,NA,"",   6.06666E-03,   1.44934E-03,  -5.89099E-03,   3.43372E-03
C:/temp/dataset/9/31_7.odb,Step-1,Increment      1: Step Time =    1.000,"PART-1-1",           125,       13.1106,      -17.4438,            0.,NA,NA,"",   317.925E-03,  -295.037E-03,   118.447E-03,   11.8937E-03
C:/temp/dataset/9/31_7.odb,Step-1,Increment      1: Step Time =    1.000,"PART-1-1",           126,       12.8150,       2.64061,            0.,NA,NA,"",       2.23252,      -2.22597,   170.820E-03,   4.85375E-03
C:/temp/dataset/9/31_7.odb,Step-1,Increment      1: Step Time =    1.000,"PART-1-1",           127,       7.56819,       12.3225,            0.,NA,NA,"",       3.48427,      -3.43623,  -576.563E-03,   1.55540E-03
C:/temp/dataset/9/31_7.odb,Step-1,Increment      1: Step Time =    1.000,"PART-1-1",           128,       7.47113,       19.8748,            0.,NA,NA,"",       4.48348,      -4.43417,  -663.130E-03,   1.09008E-03
C:/temp/dataset/9/31_7.odb,Step-1,Increment      1: Step Time =    1.000,"PART-1-1",           129,       12.4223,       27.5153,            0.,NA,NA,"",       5.49767,      -5.49716,  -75.1498E-03,   137.916E-06
C:/temp/dataset/9/31_7.odb,Step-1,Increment      1: Step Time =    1.000,"PART-1-1",           130,       12.3750,       22.5091,            0.,NA,NA,"",       4.82839,      -4.82825,  -36.9029E-03,   514.575E-06
C:/temp/dataset/9/31_7.odb,Step-1,Increment      1: Step Time =    1.000,"PART-1-1",           131,       7.58839,       27.9970,            0.,NA,NA,"",       5.56607,      -5.51881,  -723.773E-03,   172.229E-06
C:/temp/dataset/9/31_7.odb,Step-1,Increment      1: Step Time =    1.000,"PART-1-1",           132,   199.805E-03,       22.3057,            0.,NA,NA,"",       4.98247,      -4.69804,      -1.65934,   878.248E-06
C:/temp/dataset/9/31_7.odb,Step-1,Increment      1: Step Time =    1.000,"PART-1-1",           133,       12.6934,       9.82310,            0.,NA,NA,"",       3.15530,      -3.15346,   107.656E-03,   1.46933E-03
C:/temp/dataset/9/31_7.odb,Step-1,Increment      1: Step Time =    1.000,"PART-1-1",           134,      -7.14717,       12.7802,            0.,NA,NA,"",       4.25958,      -3.40723,      -2.55632,   506.079E-06
C:/temp/dataset/9/31_7.odb,Step-1,Increment      1: Step Time =    1.000,"PART-1-1",           135,      -6.86178,       17.9412,            0.,NA,NA,"",       4.81124,      -4.07356,      -2.56011,   1.35857E-03
C:/temp/dataset/9/31_7.odb,Step-1,Increment      1: Step Time =    1.000,"PART-1-1",           136,      -2.68307,      -2.95682,            0.,NA,NA,"",       2.28263,      -1.38803,      -1.81212,   2.13976E-03
C:/temp/dataset/9/31_7.odb,Step-1,Increment      1: Step Time =    1.000,"PART-1-1",           137,      -7.59808,      -3.03341,            0.,NA,NA,"",       2.81499,      -1.33741,      -2.47700,   1.39874E-03
C:/temp/dataset/9/31_7.odb,Step-1,Increment      1: Step Time =    1.000,"PART-1-1",           138,  -248.196E-03,       2.69947,            0.,NA,NA,"",       2.64886,      -2.16221,      -1.53013,   9.28519E-03
C:/temp/dataset/9/31_7.odb,Step-1,Increment      1: Step Time =    1.000,"PART-1-1",           139,       2.16631,      -2.47375,            0.,NA,NA,"",       1.88214,      -1.50559,      -1.12945,   11.4213E-03
C:/temp/dataset/9/31_7.odb,Step-1,Increment      1: Step Time =    1.000,"PART-1-1",           140,       4.39271,       2.43636,            0.,NA,NA,"",       2.33151,      -2.16081,  -875.715E-03,   4.54163E-03
C:/temp/dataset/9/31_7.odb,Step-1,Increment      1: Step Time =    1.000,"PART-1-1",           141,       12.9283,      -5.27800,            0.,NA,NA,"",       1.27079,      -1.25581,   194.588E-03,   11.3200E-03
C:/temp/dataset/9/31_7.odb,Step-1,Increment      1: Step Time =    1.000,"PART-1-1",           142,       13.0847,      -12.6172,            0.,NA,NA,"",   612.446E-03,  -591.129E-03,   160.177E-03,   12.2773E-03
C:/temp/dataset/9/31_7.odb,Step-1,Increment      1: Step Time =    1.000,"PART-1-1",           143,       12.4838,       17.4790,            0.,NA,NA,"",       4.15863,      -4.15858,   20.7215E-03,   876.772E-06
C:/temp/dataset/9/31_7.odb,Step-1,Increment      1: Step Time =    1.000,"PART-1-1",           144,       2.63438,       22.2143,            0.,NA,NA,"",       4.89135,      -4.70619,      -1.33305,   701.788E-06
C:/temp/dataset/9/31_7.odb,Step-1,Increment      1: Step Time =    1.000,"PART-1-1",           145,       7.54366,       14.9275,            0.,NA,NA,"",       3.82635,      -3.77816,  -605.391E-03,   1.35532E-03
C:/temp/dataset/9/31_7.odb,Step-1,Increment      1: Step Time =    1.000,"PART-1-1",           146,       7.50510,       17.4443,            0.,NA,NA,"",       4.15960,      -4.11084,  -635.021E-03,   1.08110E-03
C:/temp/dataset/9/31_7.odb,Step-1,Increment      1: Step Time =    1.000,"PART-1-1",           147,       7.12790,       7.03873,            0.,NA,NA,"",       2.81160,      -2.75100,  -580.598E-03,   2.12256E-03
C:/temp/dataset/9/31_7.odb,Step-1,Increment      1: Step Time =    1.000,"PART-1-1",           148,       7.48952,       9.64170,            0.,NA,NA,"",       3.13751,      -3.08707,  -560.331E-03,   1.75099E-03
C:/temp/dataset/9/31_7.odb,Step-1,Increment      1: Step Time =    1.000,"PART-1-1",           149,       2.16717,       2.56251,            0.,NA,NA,"",       2.46544,      -2.16385,      -1.18157,   6.50545E-03
C:/temp/dataset/9/31_7.odb,Step-1,Increment      1: Step Time =    1.000,"PART-1-1",           150,      -2.68606,       3.12146,            0.,NA,NA,"",       2.89622,      -2.20000,      -1.88364,   7.22366E-03
C:/temp/dataset/9/31_7.odb,Step-1,Increment      1: Step Time =    1.000,"PART-1-1",           151,      -7.08307,       10.2840,            0.,NA,NA,"",       3.98956,      -3.08680,      -2.52750,   433.436E-06
C:/temp/dataset/9/31_7.odb,Step-1,Increment      1: Step Time =    1.000,"PART-1-1",           152,      -2.13928,       22.2031,            0.,NA,NA,"",       5.06418,      -4.66517,      -1.97031,   1.23178E-03
C:/temp/dataset/9/31_7.odb,Step-1,Increment      1: Step Time =    1.000,"PART-1-1",           153,       9.90766,       27.6812,            0.,NA,NA,"",       5.51246,      -5.49706,  -411.693E-03,   171.638E-06
C:/temp/dataset/9/31_7.odb,Step-1,Increment      1: Step Time =    1.000,"PART-1-1",           154,       5.18317,       27.8350,            0.,NA,NA,"",       5.57453,      -5.47601,      -1.04340,   275.041E-06
C:/temp/dataset/9/31_7.odb,Step-1,Increment      1: Step Time =    1.000,"PART-1-1",           155,       2.70091,       27.4744,            0.,NA,NA,"",       5.57726,      -5.40593,      -1.37178,   430.489E-06
C:/temp/dataset/9/31_7.odb,Step-1,Increment      1: Step Time =    1.000,"PART-1-1",           156,      -2.92570,       26.9909,            0.,NA,NA,"",       5.69876,      -5.29107,      -2.11671,   389.524E-06
C:/temp/dataset/9/31_7.odb,Step-1,Increment      1: Step Time =    1.000,"PART-1-1",           157,      -5.52449,       27.7330,            0.,NA,NA,"",       5.90504,      -5.36540,      -2.46616,   455.142E-06
C:/temp/dataset/9/31_7.odb,Step-1,Increment      1: Step Time =    1.000,"PART-1-1",           158,      -10.1759,       28.1970,            0.,NA,NA,"",       6.20304,      -5.38472,      -3.07936,   457.500E-06
C:/temp/dataset/9/31_7.odb,Step-1,Increment      1: Step Time =    1.000,"PART-1-1",           159,      -7.15795,       15.3782,            0.,NA,NA,"",       4.54369,      -3.74122,      -2.57845,   751.364E-06
C:/temp/dataset/9/31_7.odb,Step-1,Increment      1: Step Time =    1.000,"PART-1-1",           160,      -7.10855,       7.92361,            0.,NA,NA,"",       3.74808,      -2.78287,      -2.51072,   653.887E-06
C:/temp/dataset/9/31_7.odb,Step-1,Increment      1: Step Time =    1.000,"PART-1-1",           161,      -7.31416,       5.72319,            0.,NA,NA,"",       3.54746,      -2.49833,      -2.51849,   1.39511E-03
C:/temp/dataset/9/31_7.odb,Step-1,Increment      1: Step Time =    1.000,"PART-1-1",           162,      -10.0288,      -2.82434,            0.,NA,NA,"",       3.10647,      -1.34574,      -2.79985,   1.27603E-03
C:/temp/dataset/9/31_7.odb,Step-1,Increment      1: Step Time =    1.000,"PART-1-1",           163,      -5.14639,      -3.11924,            0.,NA,NA,"",       2.53442,      -1.34530,      -2.14790,   1.27865E-03
C:/temp/dataset/9/31_7.odb,Step-1,Increment      1: Step Time =    1.000,"PART-1-1",           164,  -261.821E-03,      -2.60038,            0.,NA,NA,"",       2.07663,      -1.46133,      -1.47542,   5.35768E-03
C:/temp/dataset/9/31_7.odb,Step-1,Increment      1: Step Time =    1.000,"PART-1-1",           165,       4.38015,      -2.33295,            0.,NA,NA,"",       1.74951,      -1.54933,  -812.625E-03,   12.6038E-03
C:/temp/dataset/9/31_7.odb,Step-1,Increment      1: Step Time =    1.000,"PART-1-1",           166,       13.0639,      -10.1924,            0.,NA,NA,"",   800.858E-03,  -780.819E-03,   178.031E-03,   12.3644E-03
C:/temp/dataset/9/31_7.odb,Step-1,Increment      1: Step Time =    1.000,"PART-1-1",           167,       13.0843,      -19.8267,            0.,NA,NA,"",   209.690E-03,  -187.098E-03,   94.6795E-03,   11.4888E-03
C:/temp/dataset/9/31_7.odb,Step-1,Increment      1: Step Time =    1.000,"PART-1-1",           168,       12.4446,      -27.5067,            0.,NA,NA,"",   16.1503E-03,  -3.96674E-03,   15.6556E-03,   8.36816E-03
C:/temp/dataset/9/31_7.odb,Step-1,Increment      1: Step Time =    1.000,"PART-1-1",           169,       12.9329,      -22.1971,            0.,NA,NA,"",   123.648E-03,  -103.617E-03,   67.4703E-03,   10.4257E-03
C:/temp/dataset/9/31_7.odb,Step-1,Increment      1: Step Time =    1.000,"PART-1-1",           170,       13.1086,      -15.0383,            0.,NA,NA,"",   451.851E-03,  -429.427E-03,   140.576E-03,   12.1580E-03
C:/temp/dataset/9/31_7.odb,Step-1,Increment      1: Step Time =    1.000,"PART-1-1",           171,       13.0208,      -7.75462,            0.,NA,NA,"",       1.01904,      -1.00095,   191.178E-03,   12.1329E-03
C:/temp/dataset/9/31_7.odb,Step-1,Increment      1: Step Time =    1.000,"PART-1-1",           172,       12.7756,      -2.70708,            0.,NA,NA,"",       1.56177,      -1.55101,   183.030E-03,   9.81379E-03
C:/temp/dataset/9/31_7.odb,Step-1,Increment      1: Step Time =    1.000,"PART-1-1",           173,       12.6338,  -14.4220E-03,            0.,NA,NA,"",       1.89094,      -1.88404,   161.434E-03,   7.61439E-03
C:/temp/dataset/9/31_7.odb,Step-1,Increment      1: Step Time =    1.000,"PART-1-1",           174,       13.0186,       5.13380,            0.,NA,NA,"",       2.55595,      -2.54951,   181.323E-03,   2.82928E-03
C:/temp/dataset/9/31_7.odb,Step-1,Increment      1: Step Time =    1.000,"PART-1-1",           175,       13.0709,       7.51902,            0.,NA,NA,"",       2.86331,      -2.85812,   172.340E-03,   1.95447E-03
C:/temp/dataset/9/31_7.odb,Step-1,Increment      1: Step Time =    1.000,"PART-1-1",           176,       12.5119,       12.3699,            0.,NA,NA,"",       3.48487,      -3.48426,   65.2106E-03,   1.19312E-03
C:/temp/dataset/9/31_7.odb,Step-1,Increment      1: Step Time =    1.000,"PART-1-1",           177,       12.4863,       14.9454,            0.,NA,NA,"",       3.82314,      -3.82291,   41.7100E-03,   1.02083E-03
C:/temp/dataset/9/31_7.odb,Step-1,Increment      1: Step Time =    1.000,"PART-1-1",           178,       12.4500,       19.9932,            0.,NA,NA,"",       4.49304,      -4.49304,  -5.02501E-03,   717.613E-06
C:/temp/dataset/9/31_7.odb,Step-1,Increment      1: Step Time =    1.000,"PART-1-1",           179,       9.19048,      -23.6482,            0.,NA,NA,"",   71.3305E-03,  -60.5593E-03,  -37.6909E-03,   7.15598E-03
C:/temp/dataset/9/31_7.odb,Step-1,Increment      1: Step Time =    1.000,"PART-1-1",           180,       9.11932,      -19.5624,            0.,NA,NA,"",   202.239E-03,  -190.236E-03,  -68.6363E-03,   7.45617E-03
C:/temp/dataset/9/31_7.odb,Step-1,Increment      1: Step Time =    1.000,"PART-1-1",           181,       9.13323,      -12.9344,            0.,NA,NA,"",   566.935E-03,  -553.494E-03,  -122.715E-03,   7.59887E-03
C:/temp/dataset/9/31_7.odb,Step-1,Increment      1: Step Time =    1.000,"PART-1-1",           182,       9.14303,      -17.4019,            0.,NA,NA,"",   299.475E-03,  -287.432E-03,  -84.0726E-03,   7.40265E-03
C:/temp/dataset/9/31_7.odb,Step-1,Increment      1: Step Time =    1.000,"PART-1-1",           183,       9.11260,      -10.6744,            0.,NA,NA,"",   736.495E-03,  -721.913E-03,  -145.828E-03,   7.65847E-03
C:/temp/dataset/9/31_7.odb,Step-1,Increment      1: Step Time =    1.000,"PART-1-1",           184,       9.06671,      -8.40676,            0.,NA,NA,"",   929.775E-03,  -913.598E-03,  -172.687E-03,   6.68265E-03
C:/temp/dataset/9/31_7.odb,Step-1,Increment      1: Step Time =    1.000,"PART-1-1",           185,       9.15359,      -15.1846,            0.,NA,NA,"",   420.869E-03,  -408.446E-03,  -101.501E-03,   7.43845E-03
C:/temp/dataset/9/31_7.odb,Step-1,Increment      1: Step Time =    1.000,"PART-1-1",           186,       9.09437,      -21.6308,            0.,NA,NA,"",   128.105E-03,  -115.993E-03,  -54.3739E-03,   7.54398E-03
C:/temp/dataset/9/31_7.odb,Step-1,Increment      1: Step Time =    1.000,"PART-1-1",           187,       8.94944,      -6.10597,            0.,NA,NA,"",       1.15268,      -1.13417,  -205.758E-03,   5.55413E-03
C:/temp/dataset/9/31_7.odb,Step-1,Increment      1: Step Time =    1.000,"PART-1-1",           188,      -11.3189,       17.6054,            0.,NA,NA,"",       5.07740,      -3.99277,      -3.13653,   589.143E-06
C:/temp/dataset/9/31_7.odb,Step-1,Increment      1: Step Time =    1.000,"PART-1-1",           189,      -10.4260,       2.85148,            0.,NA,NA,"",       3.57852,      -2.09560,      -2.90073,   1.01264E-03
C:/temp/dataset/9/31_7.odb,Step-1,Increment      1: Step Time =    1.000,"PART-1-1",           190,      -12.4413,       27.8959,            0.,NA,NA,"",       6.30362,      -5.32554,      -3.37259,   328.854E-06
C:/temp/dataset/9/31_7.odb,Step-1,Increment      1: Step Time =    1.000,"PART-1-1",           191,      -10.6658,       19.6683,            0.,NA,NA,"",       5.25451,      -4.26495,      -3.06922,   439.875E-06
C:/temp/dataset/9/31_7.odb,Step-1,Increment      1: Step Time =    1.000,"PART-1-1",           192,      -12.1118,       16.4066,            0.,NA,NA,"",       5.01093,      -3.83155,      -3.22934,   567.769E-06
C:/temp/dataset/9/31_7.odb,Step-1,Increment      1: Step Time =    1.000,"PART-1-1",           193,      -11.5166,       14.9043,            0.,NA,NA,"",       4.80939,      -3.64319,      -3.13966,   708.773E-06
C:/temp/dataset/9/31_7.odb,Step-1,Increment      1: Step Time =    1.000,"PART-1-1",           194,      -11.2054,       12.7278,            0.,NA,NA,"",       4.56357,      -3.36604,      -3.08154,   792.643E-06
C:/temp/dataset/9/31_7.odb,Step-1,Increment      1: Step Time =    1.000,"PART-1-1",           195,      -11.1139,       10.5020,            0.,NA,NA,"",       4.33631,      -3.08075,      -3.05165,   830.237E-06
C:/temp/dataset/9/31_7.odb,Step-1,Increment      1: Step Time =    1.000,"PART-1-1",           196,      -9.42029,       24.1195,            0.,NA,NA,"",       5.67953,      -4.85595,      -2.94563,   517.114E-06
C:/temp/dataset/9/31_7.odb,Step-1,Increment      1: Step Time =    1.000,"PART-1-1",           197,      -11.0759,       8.46025,            0.,NA,NA,"",       4.13828,      -2.81831,      -3.03027,   860.479E-06
C:/temp/dataset/9/31_7.odb,Step-1,Increment      1: Step Time =    1.000,"PART-1-1",           198,      -10.9473,       6.84821,            0.,NA,NA,"",       3.97783,      -2.61141,      -3.00060,   829.289E-06
C:/temp/dataset/9/31_7.odb,Step-1,Increment      1: Step Time =    1.000,"PART-1-1",           199,       9.64075,      -25.5803,            0.,NA,NA,"",   28.2715E-03,  -22.1758E-03,  -17.5360E-03,   5.01096E-03
C:/temp/dataset/9/31_7.odb,Step-1,Increment      1: Step Time =    1.000,"PART-1-1",           200,       6.22595,      -2.03957,            0.,NA,NA,"",       1.69345,      -1.59491,  -569.223E-03,   12.7618E-03
C:/temp/dataset/9/31_7.odb,Step-1,Increment      1: Step Time =    1.000,"PART-1-1",           201,       6.24072,       2.15031,            0.,NA,NA,"",       2.22289,      -2.13095,  -632.664E-03,   7.58018E-03
C:/temp/dataset/9/31_7.odb,Step-1,Increment      1: Step Time =    1.000,"PART-1-1",           202,      -7.69234,       3.89067,            0.,NA,NA,"",       3.40765,      -2.25776,      -2.55238,   1.58709E-03
C:/temp/dataset/9/31_7.odb,Step-1,Increment      1: Step Time =    1.000,"PART-1-1",           203,       7.31807,       22.0589,            0.,NA,NA,"",       4.77689,      -4.72464,  -704.609E-03,   977.407E-06
C:/temp/dataset/9/31_7.odb,Step-1,Increment      1: Step Time =    1.000,"PART-1-1",           204,      -6.44398,       20.4265,            0.,NA,NA,"",       5.07091,      -4.39731,      -2.52542,   1.14934E-03
C:/temp/dataset/9/31_7.odb,Step-1,Increment      1: Step Time =    1.000,"PART-1-1",           205,       12.2962,       25.0128,            0.,NA,NA,"",       5.16243,      -5.16196,  -69.6068E-03,   311.099E-06
C:/temp/dataset/9/31_7.odb,Step-1,Increment      1: Step Time =    1.000,"PART-1-1",           206,       12.2257,      -24.8009,            0.,NA,NA,"",   48.2427E-03,  -37.6697E-03,   30.1389E-03,   7.10424E-03
C:/temp/dataset/9/31_7.odb,Step-1,Increment      1: Step Time =    1.000,"PART-1-1",           207,      -2.06005,       24.5200,            0.,NA,NA,"",       5.35212,      -4.97222,      -1.98047,   608.517E-06
C:/temp/dataset/9/31_7.odb,Step-1,Increment      1: Step Time =    1.000,"PART-1-1",           208,       9.31619,       25.0673,            0.,NA,NA,"",       5.16425,      -5.14312,  -466.758E-03,   392.729E-06
C:/temp/dataset/9/31_7.odb,Step-1,Increment      1: Step Time =    1.000,"PART-1-1",           209,       3.21447,       24.8112,            0.,NA,NA,"",       5.21581,      -5.05652,      -1.27917,   667.191E-06
C:/temp/dataset/9/31_7.odb,Step-1,Increment      1: Step Time =    1.000,"PART-1-1",           210,      -7.52022,      -1.18711,            0.,NA,NA,"",       2.94692,      -1.58522,      -2.48423,   1.26263E-03
C:/temp/dataset/9/31_7.odb,Step-1,Increment      1: Step Time =    1.000,"PART-1-1",           211,       10.0127,       14.9017,            0.,NA,NA,"",       3.80582,      -3.79538,  -281.785E-03,   799.913E-06
C:/temp/dataset/9/31_7.odb,Step-1,Increment      1: Step Time =    1.000,"PART-1-1",           212,       10.7293,       3.02357,            0.,NA,NA,"",       2.26166,      -2.25996,  -87.6547E-03,   4.70550E-03
C:/temp/dataset/9/31_7.odb,Step-1,Increment      1: Step Time =    1.000,"PART-1-1",           213,       11.4837,       7.36813,            0.,NA,NA,"",       2.82511,      -2.82495,  -29.2784E-03,   1.20712E-03
C:/temp/dataset/9/31_7.odb,Step-1,Increment      1: Step Time =    1.000,"PART-1-1",           214,      -9.20573,       12.9161,            0.,NA,NA,"",       4.42532,      -3.40724,      -2.82386,   758.777E-06
C:/temp/dataset/9/31_7.odb,Step-1,Increment      1: Step Time =    1.000,"PART-1-1",           215,   314.418E-03,       24.7704,            0.,NA,NA,"",       5.29499,      -5.02596,      -1.66634,   620.811E-06
C:/temp/dataset/9/31_7.odb,Step-1,Increment      1: Step Time =    1.000,"PART-1-1",           216,       7.52406,       26.3727,            0.,NA,NA,"",       5.35006,      -5.30171,  -717.609E-03,   311.210E-06
C:/temp/dataset/9/31_7.odb,Step-1,Increment      1: Step Time =    1.000,"PART-1-1",           217,  -811.906E-03,   82.6841E-03,            0.,NA,NA,"",       2.40427,      -1.81226,      -1.57995,   7.19739E-03
C:/temp/dataset/9/31_7.odb,Step-1,Increment      1: Step Time =    1.000,"PART-1-1",           218,       11.1400,      -19.6444,            0.,NA,NA,"",   187.321E-03,  -186.622E-03,   16.1638E-03,   2.37330E-03
C:/temp/dataset/9/31_7.odb,Step-1,Increment      1: Step Time =    1.000,"PART-1-1",           219,       11.1036,      -10.4226,            0.,NA,NA,"",   747.909E-03,  -747.747E-03,   15.5319E-03,   2.71104E-03
C:/temp/dataset/9/31_7.odb,Step-1,Increment      1: Step Time =    1.000,"PART-1-1",           220,       10.9280,      -5.64335,            0.,NA,NA,"",       1.19762,      -1.19759,  -8.95554E-03,   5.76731E-03
C:/temp/dataset/9/31_7.odb,Step-1,Increment      1: Step Time =    1.000,"PART-1-1",           221,       11.0667,       5.48495,            0.,NA,NA,"",       2.57999,      -2.57912,  -67.0405E-03,   2.15324E-03
C:/temp/dataset/9/31_7.odb,Step-1,Increment      1: Step Time =    1.000,"PART-1-1",           222,       11.1390,      -12.7671,            0.,NA,NA,"",   568.913E-03,  -568.569E-03,   19.7764E-03,   2.55972E-03
C:/temp/dataset/9/31_7.odb,Step-1,Increment      1: Step Time =    1.000,"PART-1-1",           223,       11.1627,      -15.1016,            0.,NA,NA,"",   415.841E-03,  -415.301E-03,   21.1776E-03,   2.61469E-03
C:/temp/dataset/9/31_7.odb,Step-1,Increment      1: Step Time =    1.000,"PART-1-1",           224,      -9.10801,       10.4728,            0.,NA,NA,"",       4.16703,      -3.09407,      -2.79122,   729.479E-06
C:/temp/dataset/9/31_7.odb,Step-1,Increment      1: Step Time =    1.000,"PART-1-1",           225,      -9.12162,       8.28854,            0.,NA,NA,"",       3.95132,      -2.81300,      -2.77488,   796.685E-06
C:/temp/dataset/9/31_7.odb,Step-1,Increment      1: Step Time =    1.000,"PART-1-1",           226,      -8.73753,       18.6317,            0.,NA,NA,"",       5.00875,      -4.14662,      -2.80947,   851.677E-06
C:/temp/dataset/9/31_7.odb,Step-1,Increment      1: Step Time =    1.000,"PART-1-1",           227,      -9.90634,  -397.381E-03,            0.,NA,NA,"",       3.26492,      -1.67006,      -2.80546,   1.37412E-03
C:/temp/dataset/9/31_7.odb,Step-1,Increment      1: Step Time =    1.000,"PART-1-1",           228,       9.93939,       19.9385,            0.,NA,NA,"",       4.47634,      -4.46366,  -336.768E-03,   832.841E-06
C:/temp/dataset/9/31_7.odb,Step-1,Increment      1: Step Time =    1.000,"PART-1-1",           229,       5.70370,       25.8085,            0.,NA,NA,"",       5.29762,      -5.21074,  -955.476E-03,   460.145E-06
C:/temp/dataset/9/31_7.odb,Step-1,Increment      1: Step Time =    1.000,"PART-1-1",           230,       10.0348,       12.2094,            0.,NA,NA,"",       3.45105,      -3.44160,  -255.299E-03,   777.467E-06
C:/temp/dataset/9/31_7.odb,Step-1,Increment      1: Step Time =    1.000,"PART-1-1",           231,       9.98921,       17.4486,            0.,NA,NA,"",       4.14394,      -4.13250,  -307.614E-03,   825.414E-06
C:/temp/dataset/9/31_7.odb,Step-1,Increment      1: Step Time =    1.000,"PART-1-1",           232,       10.1044,       9.10575,            0.,NA,NA,"",       3.04624,      -3.03830,  -219.824E-03,   732.279E-06
C:/temp/dataset/9/31_7.odb,Step-1,Increment      1: Step Time =    1.000,"PART-1-1",           233,      -3.11139,      -1.10310,            0.,NA,NA,"",       2.49835,      -1.63364,      -1.89023,   3.22525E-03
C:/temp/dataset/9/31_7.odb,Step-1,Increment      1: Step Time =    1.000,"PART-1-1",           234,      -6.48507,       25.5695,            0.,NA,NA,"",       5.68762,      -5.07180,      -2.57408,   366.829E-06
C:/temp/dataset/9/31_7.odb,Step-1,Increment      1: Step Time =    1.000,"PART-1-1",           235,      -4.76537,       24.8732,            0.,NA,NA,"",       5.51694,      -4.99520,      -2.34192,   330.164E-06
C:/temp/dataset/9/31_7.odb,Step-1,Increment      1: Step Time =    1.000,"PART-1-1",           236,      -8.46351,       26.0628,            0.,NA,NA,"",       5.85311,      -5.11939,      -2.83739,   506.565E-06
C:/temp/dataset/9/31_7.odb,Step-1,Increment      1: Step Time =    1.000,"PART-1-1",           237,      -9.50218,       15.8804,            0.,NA,NA,"",       4.76053,      -3.78576,      -2.88629,   816.723E-06
C:/temp/dataset/9/31_7.odb,Step-1,Increment      1: Step Time =    1.000,"PART-1-1",           238,      -5.29510,      -1.38770,            0.,NA,NA,"",       2.69488,      -1.57697,      -2.18530,   1.25207E-03
C:/temp/dataset/9/31_7.odb,Step-1,Increment      1: Step Time =    1.000,"PART-1-1",           239,       11.0587,      -21.7318,            0.,NA,NA,"",   112.101E-03,  -111.582E-03,   10.7802E-03,   1.97376E-03
C:/temp/dataset/9/31_7.odb,Step-1,Increment      1: Step Time =    1.000,"PART-1-1",           240,       11.1670,      -17.4071,            0.,NA,NA,"",   288.587E-03,  -287.907E-03,   19.8011E-03,   2.58138E-03
C:/temp/dataset/9/31_7.odb,Step-1,Increment      1: Step Time =    1.000,"PART-1-1",           241,       11.0513,      -8.06140,            0.,NA,NA,"",   955.204E-03,  -955.171E-03,   7.91982E-03,   3.64868E-03
C:/temp/dataset/9/31_7.odb,Step-1,Increment      1: Step Time =    1.000,"PART-1-1",           242,       10.1357,   7.39639E-03,            0.,NA,NA,"",       1.87362,      -1.86904,  -130.860E-03,   7.82518E-03
C:/temp/dataset/9/31_7.odb,Step-1,Increment      1: Step Time =    1.000,"PART-1-1",           243,       10.6886,      -3.06387,            0.,NA,NA,"",       1.49056,      -1.48989,  -44.4777E-03,   7.99325E-03
C:/temp/dataset/9/31_7.odb,Step-1,Increment      1: Step Time =    1.000,"PART-1-1",           244,       9.76329,       22.4053,            0.,NA,NA,"",       4.80679,      -4.79153,  -382.778E-03,   667.221E-06
C:/temp/dataset/9/31_7.odb,Step-1,Increment      1: Step Time =    1.000,"PART-1-1",           245,       8.68231,      -3.74099,            0.,NA,NA,"",       1.41920,      -1.39575,  -256.923E-03,   8.74446E-03
C:/temp/dataset/9/31_7.odb,Step-1,Increment      1: Step Time =    1.000,"PART-1-1",           246,      -9.34414,       6.30777,            0.,NA,NA,"",       3.78179,      -2.55579,      -2.78745,   891.033E-06
C:/temp/dataset/9/31_7.odb,Step-1,Increment      1: Step Time =    1.000,"PART-1-1",           247,      -9.93235,       4.61568,            0.,NA,NA,"",       3.68223,      -2.33104,      -2.85045,   822.805E-06
C:/temp/dataset/9/31_7.odb,Step-1,Increment      1: Step Time =    1.000,"PART-1-1",           248,      -8.14937,       21.0679,            0.,NA,NA,"",       5.24763,      -4.46723,      -2.75345,   608.377E-06
C:/temp/dataset/9/31_7.odb,Step-1,Increment      1: Step Time =    1.000,"PART-1-1",           249,       10.7972,      -23.3791,            0.,NA,NA,"",   65.3322E-03,  -65.2956E-03,   2.18653E-03,   996.938E-06
C:/temp/dataset/9/31_7.odb,Step-1,Increment      1: Step Time =    1.000,"PART-1-1",           250,       4.15357,   65.4176E-03,            0.,NA,NA,"",       2.05078,      -1.85362,  -877.371E-03,   7.26442E-03
C:/temp/dataset/9/31_7.odb,Step-1,Increment      1: Step Time =    1.000,"PART-1-1",           251,       8.71950,       3.82470,            0.,NA,NA,"",       2.37776,      -2.35271,  -344.243E-03,   5.39545E-03
C:/temp/dataset/9/31_7.odb,Step-1,Increment      1: Step Time =    1.000,"PART-1-1",           252,       5.00281,       23.5204,            0.,NA,NA,"",       5.00682,      -4.90016,      -1.02795,   758.020E-06
C:/temp/dataset/9/31_7.odb,Step-1,Increment      1: Step Time =    1.000,"PART-1-1",           253,       7.40149,   60.9774E-03,            0.,NA,NA,"",       1.92054,      -1.86526,  -457.480E-03,   8.88087E-03
C:/temp/dataset/9/31_7.odb,Step-1,Increment      1: Step Time =    1.000,"PART-1-1",           254,      -5.73116,       22.7675,            0.,NA,NA,"",       5.30944,      -4.70961,      -2.45147,   655.387E-06
C:/temp/dataset/9/31_7.odb,Step-1,Increment      1: Step Time =    1.000,"PART-1-1",           255,      -5.42683,       1.83799,            0.,NA,NA,"",       3.00575,      -2.00753,      -2.23703,   2.48616E-03
C:/temp/dataset/9/31_7.odb,Step-1,Increment      1: Step Time =    1.000,"PART-1-1",           256,       6.81561,       24.0815,            0.,NA,NA,"",       5.05250,      -4.99021,  -790.921E-03,   636.033E-06
C:/temp/dataset/9/31_7.odb,Step-1,Increment      1: Step Time =    1.000,"PART-1-1",           257,      -7.40884,       23.3683,            0.,NA,NA,"",       5.47335,      -4.77432,      -2.67647,   528.833E-06
C:/temp/dataset/9/31_7.odb,Step-1,Increment      1: Step Time =    1.000,"PART-1-1",           258,      -3.69176,       23.9755,            0.,NA,NA,"",       5.35555,      -4.88626,      -2.19236,   561.752E-06
C:/temp/dataset/9/31_7.odb,Step-1,Increment      1: Step Time =    1.000,"PART-1-1",           259,      -8.10961,       1.76736,            0.,NA,NA,"",       3.25565,      -1.97407,      -2.58888,   1.49842E-03
C:/temp/dataset/9/31_7.odb,Step-1,Increment      1: Step Time =    1.000,"PART-1-1",           260,       5.94930,   61.4696E-03,            0.,NA,NA,"",       1.96784,      -1.86104,  -639.465E-03,   8.09015E-03
C:/temp/dataset/9/31_7.odb,Step-1,Increment      1: Step Time =    1.000,"PART-1-1",           261,       1.93878,   62.7924E-03,            0.,NA,NA,"",       2.18590,      -1.83589,      -1.18646,   9.18290E-03
C:/temp/dataset/9/31_7.odb,Step-1,Increment      1: Step Time =    1.000,"PART-1-1",           262,       6.71051,      -4.41826,            0.,NA,NA,"",       1.38530,      -1.30401,  -467.562E-03,   12.6416E-03
C:/temp/dataset/9/31_7.odb,Step-1,Increment      1: Step Time =    1.000,"PART-1-1",           263,      -12.5366,      -2.82410,            0.,NA,NA,"",       3.39832,      -1.32471,      -3.12949,   797.646E-06
C:/temp/dataset/9/31_7.odb,Step-1,Increment      1: Step Time =    1.000,"PART-1-1",           264,       6.75090,       4.53602,            0.,NA,NA,"",       2.50915,      -2.43625,  -600.408E-03,   7.17703E-03
C:/temp/dataset/9/31_7.odb,Step-1,Increment      1: Step Time =    1.000,"PART-1-1",           265,      -5.22339,       3.46233,            0.,NA,NA,"",       3.14897,      -2.22522,      -2.22810,   3.77353E-03
C:/temp/dataset/9/31_7.odb,Step-1,Increment      1: Step Time =    1.000,"PART-1-1",           266,       4.93795,       21.9167,            0.,NA,NA,"",       4.79601,      -4.68598,      -1.02142,   1.04924E-03
C:/temp/dataset/9/31_7.odb,Step-1,Increment      1: Step Time =    1.000,"PART-1-1",           267,       8.13144,      -1.42002,            0.,NA,NA,"",       1.71447,      -1.67872,  -348.310E-03,   9.69771E-03
C:/temp/dataset/9/31_7.odb,Step-1,Increment      1: Step Time =    1.000,"PART-1-1",           268,      -3.13115,       1.39136,            0.,NA,NA,"",       2.74925,      -1.96606,      -1.92172,   5.11917E-03
C:/temp/dataset/9/31_7.odb,Step-1,Increment      1: Step Time =    1.000,"PART-1-1",           269,       9.17709,       6.32873,            0.,NA,NA,"",       2.69278,      -2.67450,  -313.230E-03,   2.17016E-03
C:/temp/dataset/9/31_7.odb,Step-1,Increment      1: Step Time =    1.000,"PART-1-1",           270,      -11.0423,       1.34077,            0.,NA,NA,"",       3.51984,      -1.89061,      -2.96899,   1.15630E-03
C:/temp/dataset/9/31_7.odb,Step-1,Increment      1: Step Time =    1.000,"PART-1-1",           271,      -10.1478,       26.6048,            0.,NA,NA,"",       6.01390,      -5.17599,      -3.06204,   517.180E-06
C:/temp/dataset/9/31_7.odb,Step-1,Increment      1: Step Time =    1.000,"PART-1-1",           272,      -10.1118,       21.9370,            0.,NA,NA,"",       5.47143,      -4.56459,      -3.01680,   404.950E-06
C:/temp/dataset/9/31_7.odb,Step-1,Increment      1: Step Time =    1.000,"PART-1-1",           273,       8.13886,       1.50501,            0.,NA,NA,"",       2.08922,      -2.05305,  -387.067E-03,   7.99861E-03
C:/temp/dataset/9/31_7.odb,Step-1,Increment      1: Step Time =    1.000,"PART-1-1",           274,      -7.06249,   219.393E-03,            0.,NA,NA,"",       3.01628,      -1.77729,      -2.43705,   1.41163E-03
C:/temp/dataset/9/31_7.odb,Step-1,Increment      1: Step Time =    1.000,"PART-1-1",           275,      -5.40522,   241.534E-03,            0.,NA,NA,"",       2.85216,      -1.79442,      -2.21695,   1.77080E-03
C:/temp/dataset/9/31_7.odb,Step-1,Increment      1: Step Time =    1.000,"PART-1-1",           276,      -3.80180,   194.541E-03,            0.,NA,NA,"",       2.69112,      -1.80121,      -1.99945,   3.24955E-03
C:/temp/dataset/9/31_7.odb,Step-1,Increment      1: Step Time =    1.000,"PART-1-1",           277,      -2.71285,       28.4954,            0.,NA,NA,"",       5.88027,      -5.49197,      -2.10139,   581.257E-06
C:/temp/dataset/9/31_7.odb,Step-1,Increment      1: Step Time =    1.000,"PART-1-1",           278,         -3.75,           30.,            0.,NA,NA,"",       6.11102,      -5.68122,      -2.25128,   932.039E-06
C:/temp/dataset/9/31_7.odb,Step-1,Increment      1: Step Time =    1.000,"PART-1-1",           279,      -5.26224,       28.8665,            0.,NA,NA,"",       6.03320,      -5.51724,      -2.44122,   704.103E-06
C:/temp/dataset/9/31_7.odb,Step-1,Increment      1: Step Time =    1.000,"PART-1-1",           280,      -4.22509,       27.3619,            0.,NA,NA,"",       5.80023,      -5.32828,      -2.29174,   367.681E-06
C:/temp/dataset/9/31_7.odb,Step-1,Increment      1: Step Time =    1.000,"PART-1-1",           281,      -3.84553,       25.9321,            0.,NA,NA,"",       5.60541,      -5.14299,      -2.22941,   319.200E-06
C:/temp/dataset/9/31_7.odb,Step-1,Increment      1: Step Time =    1.000,"PART-1-1",           282,      -6.00478,       26.6512,            0.,NA,NA,"",       5.79518,      -5.21852,      -2.52016,   375.864E-06
C:/temp/dataset/9/31_7.odb,Step-1,Increment      1: Step Time =    1.000,"PART-1-1",           283,      -5.62522,       25.2214,            0.,NA,NA,"",       5.60167,      -5.03351,      -2.45814,   295.689E-06
C:/temp/dataset/9/31_7.odb,Step-1,Increment      1: Step Time =    1.000,"PART-1-1",           284,      -10.0879,       29.0985,            0.,NA,NA,"",       6.30473,      -5.50370,      -3.07554,   405.694E-06
C:/temp/dataset/9/31_7.odb,Step-1,Increment      1: Step Time =    1.000,"PART-1-1",           285,        -11.25,           30.,            0.,NA,NA,"",       6.47708,      -5.61138,      -3.23497,   270.556E-06
C:/temp/dataset/9/31_7.odb,Step-1,Increment      1: Step Time =    1.000,"PART-1-1",           286,      -12.4706,       28.9480,            0.,NA,NA,"",       6.42703,      -5.46309,      -3.38547,   185.236E-06
C:/temp/dataset/9/31_7.odb,Step-1,Increment      1: Step Time =    1.000,"PART-1-1",           287,      -11.3086,       28.0465,            0.,NA,NA,"",       6.25170,      -5.35508,      -3.22597,   385.942E-06
C:/temp/dataset/9/31_7.odb,Step-1,Increment      1: Step Time =    1.000,"PART-1-1",           288,      -13.4495,       25.5029,            0.,NA,NA,"",       6.09644,      -5.00328,      -3.48335,   376.977E-06
C:/temp/dataset/9/31_7.odb,Step-1,Increment      1: Step Time =    1.000,"PART-1-1",           289,          -15.,       24.5313,            0.,NA,NA,"",       6.09688,      -4.86302,      -3.67737,   505.706E-06
C:/temp/dataset/9/31_7.odb,Step-1,Increment      1: Step Time =    1.000,"PART-1-1",           290,      -13.6920,       23.1529,            0.,NA,NA,"",       5.85142,      -4.69370,      -3.49403,   514.100E-06
C:/temp/dataset/9/31_7.odb,Step-1,Increment      1: Step Time =    1.000,"PART-1-1",           291,      -12.1415,       24.1246,            0.,NA,NA,"",       5.85307,      -4.83375,      -3.30048,   469.878E-06
C:/temp/dataset/9/31_7.odb,Step-1,Increment      1: Step Time =    1.000,"PART-1-1",           292,          8.75,          -30.,            0.,NA,NA,"",            0.,   4.40945E-39,  -13.6540E-39,   7.98301E-03
C:/temp/dataset/9/31_7.odb,Step-1,Increment      1: Step Time =    1.000,"PART-1-1",           293,       9.96407,      -28.8633,            0.,NA,NA,"",   5.53532E-03,   4.87299E-03,  -2.62559E-03,   4.14460E-03
C:/temp/dataset/9/31_7.odb,Step-1,Increment      1: Step Time =    1.000,"PART-1-1",           294,       8.68711,      -27.7998,            0.,NA,NA,"",   15.1249E-03,  -813.629E-06,  -15.1030E-03,   9.11118E-03
C:/temp/dataset/9/31_7.odb,Step-1,Increment      1: Step Time =    1.000,"PART-1-1",           295,       7.47304,      -28.9365,            0.,NA,NA,"",   10.8529E-03,   724.470E-06,  -10.8287E-03,   12.8346E-03
C:/temp/dataset/9/31_7.odb,Step-1,Increment      1: Step Time =    1.000,"PART-1-1",           296,       10.9279,      -22.5555,            0.,NA,NA,"",   87.2382E-03,  -87.0272E-03,   6.06432E-03,   1.36517E-03
C:/temp/dataset/9/31_7.odb,Step-1,Increment      1: Step Time =    1.000,"PART-1-1",           297,       10.0765,      -21.6813,            0.,NA,NA,"",   114.819E-03,  -112.779E-03,  -21.5475E-03,   3.05051E-03
C:/temp/dataset/9/31_7.odb,Step-1,Increment      1: Step Time =    1.000,"PART-1-1",           298,       9.14242,      -22.6395,            0.,NA,NA,"",   97.5905E-03,  -86.1775E-03,  -45.7969E-03,   7.33492E-03
C:/temp/dataset/9/31_7.odb,Step-1,Increment      1: Step Time =    1.000,"PART-1-1",           299,       9.99384,      -23.5137,            0.,NA,NA,"",   64.8042E-03,  -62.2174E-03,  -18.1267E-03,   3.42175E-03
C:/temp/dataset/9/31_7.odb,Step-1,Increment      1: Step Time =    1.000,"PART-1-1",           300,       7.08785,      -18.4988,            0.,NA,NA,"",   298.543E-03,  -244.442E-03,  -171.394E-03,   17.2128E-03
C:/temp/dataset/9/31_7.odb,Step-1,Increment      1: Step Time =    1.000,"PART-1-1",           301,       6.04673,      -17.4684,            0.,NA,NA,"",   385.646E-03,  -300.644E-03,  -241.528E-03,   22.4220E-03
C:/temp/dataset/9/31_7.odb,Step-1,Increment      1: Step Time =    1.000,"PART-1-1",           302,            5.,      -18.5417,            0.,NA,NA,"",   373.609E-03,  -261.406E-03,  -266.928E-03,   27.3579E-03
C:/temp/dataset/9/31_7.odb,Step-1,Increment      1: Step Time =    1.000,"PART-1-1",           303,       6.04112,      -19.5721,            0.,NA,NA,"",   286.455E-03,  -207.394E-03,  -197.596E-03,   22.1382E-03
C:/temp/dataset/9/31_7.odb,Step-1,Increment      1: Step Time =    1.000,"PART-1-1",           304,       7.10245,      -14.2066,            0.,NA,NA,"",   534.617E-03,  -475.655E-03,  -244.065E-03,   17.5820E-03
C:/temp/dataset/9/31_7.odb,Step-1,Increment      1: Step Time =    1.000,"PART-1-1",           305,       6.04975,      -13.2285,            0.,NA,NA,"",   641.152E-03,  -546.697E-03,  -334.961E-03,   22.8689E-03
C:/temp/dataset/9/31_7.odb,Step-1,Increment      1: Step Time =    1.000,"PART-1-1",           306,            5.,       -14.375,            0.,NA,NA,"",   612.060E-03,  -482.406E-03,  -376.699E-03,   27.9542E-03
C:/temp/dataset/9/31_7.odb,Step-1,Increment      1: Step Time =    1.000,"PART-1-1",           307,       6.05270,      -15.3531,            0.,NA,NA,"",   503.473E-03,  -413.600E-03,  -287.089E-03,   22.6572E-03
C:/temp/dataset/9/31_7.odb,Step-1,Increment      1: Step Time =    1.000,"PART-1-1",           308,            5.,      -6.04167,            0.,NA,NA,"",       1.29397,      -1.13340,  -624.305E-03,   38.6358E-03
C:/temp/dataset/9/31_7.odb,Step-1,Increment      1: Step Time =    1.000,"PART-1-1",           309,       5.97724,      -6.85181,            0.,NA,NA,"",       1.16617,      -1.05417,  -498.677E-03,   24.9559E-03
C:/temp/dataset/9/31_7.odb,Step-1,Increment      1: Step Time =    1.000,"PART-1-1",           310,       6.83249,      -5.51927,            0.,NA,NA,"",       1.25969,      -1.18199,  -435.555E-03,   12.7298E-03
C:/temp/dataset/9/31_7.odb,Step-1,Increment      1: Step Time =    1.000,"PART-1-1",           311,       5.85525,      -4.70913,            0.,NA,NA,"",       1.38078,      -1.26152,  -561.352E-03,   22.8104E-03
C:/temp/dataset/9/31_7.odb,Step-1,Increment      1: Step Time =    1.000,"PART-1-1",           312,       4.27314,       1.25089,            0.,NA,NA,"",       2.18999,      -2.00679,  -876.839E-03,   5.82734E-03
C:/temp/dataset/9/31_7.odb,Step-1,Increment      1: Step Time =    1.000,"PART-1-1",           313,       3.27994,       2.49943,            0.,NA,NA,"",       2.39410,      -2.16300,      -1.02622,   4.36785E-03
C:/temp/dataset/9/31_7.odb,Step-1,Increment      1: Step Time =    1.000,"PART-1-1",           314,       2.05297,       1.31265,            0.,NA,NA,"",       2.32347,      -1.99915,      -1.18401,   7.53309E-03
C:/temp/dataset/9/31_7.odb,Step-1,Increment      1: Step Time =    1.000,"PART-1-1",           315,       3.04617,   64.1050E-03,            0.,NA,NA,"",       2.11357,      -1.84528,      -1.03060,   7.89377E-03
C:/temp/dataset/9/31_7.odb,Step-1,Increment      1: Step Time =    1.000,"PART-1-1",           316,       6.28410,       12.4112,            0.,NA,NA,"",       3.51763,      -3.43792,  -744.594E-03,   2.14876E-03
C:/temp/dataset/9/31_7.odb,Step-1,Increment      1: Step Time =    1.000,"PART-1-1",           317,            5.,         11.25,            0.,NA,NA,"",       3.39839,      -3.27724,  -899.312E-03,   3.17572E-03
C:/temp/dataset/9/31_7.odb,Step-1,Increment      1: Step Time =    1.000,"PART-1-1",           318,       6.24476,       9.82085,            0.,NA,NA,"",       3.18405,      -3.10106,  -722.253E-03,   2.57624E-03
C:/temp/dataset/9/31_7.odb,Step-1,Increment      1: Step Time =    1.000,"PART-1-1",           319,       7.52885,       10.9821,            0.,NA,NA,"",       3.31031,      -3.26113,  -568.466E-03,   1.65853E-03
C:/temp/dataset/9/31_7.odb,Step-1,Increment      1: Step Time =    1.000,"PART-1-1",           320,       6.23557,       19.9374,            0.,NA,NA,"",       4.50884,      -4.43217,  -827.955E-03,   1.19973E-03
C:/temp/dataset/9/31_7.odb,Step-1,Increment      1: Step Time =    1.000,"PART-1-1",           321,            5.,         18.75,            0.,NA,NA,"",       4.37493,      -4.26357,  -980.790E-03,   1.85697E-03
C:/temp/dataset/9/31_7.odb,Step-1,Increment      1: Step Time =    1.000,"PART-1-1",           322,       6.25255,       17.4722,            0.,NA,NA,"",       4.18160,      -4.10415,  -801.055E-03,   1.46163E-03
C:/temp/dataset/9/31_7.odb,Step-1,Increment      1: Step Time =    1.000,"PART-1-1",           323,       7.48812,       18.6595,            0.,NA,NA,"",       4.32129,      -4.27226,  -649.105E-03,   1.03174E-03
C:/temp/dataset/9/31_7.odb,Step-1,Increment      1: Step Time =    1.000,"PART-1-1",           324,       12.4612,       28.7577,            0.,NA,NA,"",       5.66382,      -5.66324,  -81.0839E-03,   73.8947E-06
C:/temp/dataset/9/31_7.odb,Step-1,Increment      1: Step Time =    1.000,"PART-1-1",           325,         11.25,           30.,            0.,NA,NA,"",       5.82366,      -5.81814,  -253.626E-03,   72.2563E-06
C:/temp/dataset/9/31_7.odb,Step-1,Increment      1: Step Time =    1.000,"PART-1-1",           326,       9.95383,       28.8406,            0.,NA,NA,"",       5.66740,      -5.65211,  -415.976E-03,   139.426E-06
C:/temp/dataset/9/31_7.odb,Step-1,Increment      1: Step Time =    1.000,"PART-1-1",           327,       11.1650,       27.5983,            0.,NA,NA,"",       5.50248,      -5.49709,  -243.419E-03,   151.545E-06
C:/temp/dataset/9/31_7.odb,Step-1,Increment      1: Step Time =    1.000,"PART-1-1",           328,       9.61193,       26.3742,            0.,NA,NA,"",       5.33820,      -5.32010,  -439.282E-03,   273.013E-06
C:/temp/dataset/9/31_7.odb,Step-1,Increment      1: Step Time =    1.000,"PART-1-1",           329,       10.8062,       25.0400,            0.,NA,NA,"",       5.15943,      -5.15246,  -268.156E-03,   317.645E-06
C:/temp/dataset/9/31_7.odb,Step-1,Increment      1: Step Time =    1.000,"PART-1-1",           330,       12.3592,       26.2641,            0.,NA,NA,"",       5.33009,      -5.32960,  -72.3715E-03,   220.440E-06
C:/temp/dataset/9/31_7.odb,Step-1,Increment      1: Step Time =    1.000,"PART-1-1",           331,       7.54419,       28.9985,            0.,NA,NA,"",       5.70002,      -5.65195,  -738.700E-03,   163.583E-06
C:/temp/dataset/9/31_7.odb,Step-1,Increment      1: Step Time =    1.000,"PART-1-1",           332,          6.25,           30.,            0.,NA,NA,"",       5.84702,      -5.77412,  -920.418E-03,   101.370E-06
C:/temp/dataset/9/31_7.odb,Step-1,Increment      1: Step Time =    1.000,"PART-1-1",           333,       5.09159,       28.9175,            0.,NA,NA,"",       5.71953,      -5.61944,      -1.06535,   151.022E-06
C:/temp/dataset/9/31_7.odb,Step-1,Increment      1: Step Time =    1.000,"PART-1-1",           334,       6.38578,       27.9160,            0.,NA,NA,"",       5.56797,      -5.49743,  -883.541E-03,   201.600E-06
C:/temp/dataset/9/31_7.odb,Step-1,Increment      1: Step Time =    1.000,"PART-1-1",           335,       2.95769,       26.1428,            0.,NA,NA,"",       5.39656,      -5.23123,      -1.32556,   521.822E-06
C:/temp/dataset/9/31_7.odb,Step-1,Increment      1: Step Time =    1.000,"PART-1-1",           336,       4.45909,       25.3098,            0.,NA,NA,"",       5.25377,      -5.13360,      -1.11726,   551.829E-06
C:/temp/dataset/9/31_7.odb,Step-1,Increment      1: Step Time =    1.000,"PART-1-1",           337,       5.44343,       26.8217,            0.,NA,NA,"",       5.43605,      -5.34337,  -999.484E-03,   355.840E-06
C:/temp/dataset/9/31_7.odb,Step-1,Increment      1: Step Time =    1.000,"PART-1-1",           338,       3.94204,       27.6547,            0.,NA,NA,"",       5.57338,      -5.44099,      -1.20759,   347.058E-06
C:/temp/dataset/9/31_7.odb,Step-1,Increment      1: Step Time =    1.000,"PART-1-1",           339,       6.06395,       7.26936,            0.,NA,NA,"",       2.86499,      -2.77358,  -717.960E-03,   2.96147E-03
C:/temp/dataset/9/31_7.odb,Step-1,Increment      1: Step Time =    1.000,"PART-1-1",           340,       7.30871,       8.34021,            0.,NA,NA,"",       2.97358,      -2.91832,  -570.578E-03,   1.90274E-03
C:/temp/dataset/9/31_7.odb,Step-1,Increment      1: Step Time =    1.000,"PART-1-1",           341,            5.,          8.75,            0.,NA,NA,"",       3.08031,      -2.95477,  -870.430E-03,   3.88329E-03
C:/temp/dataset/9/31_7.odb,Step-1,Increment      1: Step Time =    1.000,"PART-1-1",           342,      -13.9291,       1.47830,            0.,NA,NA,"",       3.84120,      -1.88253,      -3.34827,   1.17022E-03
C:/temp/dataset/9/31_7.odb,Step-1,Increment      1: Step Time =    1.000,"PART-1-1",           343,          -15.,    468.75E-03,            0.,NA,NA,"",       3.89168,      -1.73921,      -3.48142,   1.11840E-03
C:/temp/dataset/9/31_7.odb,Step-1,Increment      1: Step Time =    1.000,"PART-1-1",           344,      -13.8152,  -655.377E-03,            0.,NA,NA,"",       3.68247,      -1.60113,      -3.31617,   825.682E-06
C:/temp/dataset/9/31_7.odb,Step-1,Increment      1: Step Time =    1.000,"PART-1-1",           345,      -12.7443,   354.171E-03,            0.,NA,NA,"",       3.63043,      -1.74458,      -3.18378,   1.04590E-03
C:/temp/dataset/9/31_7.odb,Step-1,Increment      1: Step Time =    1.000,"PART-1-1",           346,      -13.9678,       8.16706,            0.,NA,NA,"",       4.37878,      -2.75515,      -3.40336,   986.416E-06
C:/temp/dataset/9/31_7.odb,Step-1,Increment      1: Step Time =    1.000,"PART-1-1",           347,          -15.,       7.03125,            0.,NA,NA,"",       4.38244,      -2.59896,      -3.52863,   1.37108E-03
C:/temp/dataset/9/31_7.odb,Step-1,Increment      1: Step Time =    1.000,"PART-1-1",           348,      -13.6804,       5.85321,            0.,NA,NA,"",       4.15402,      -2.45800,      -3.34875,   1.19717E-03
C:/temp/dataset/9/31_7.odb,Step-1,Increment      1: Step Time =    1.000,"PART-1-1",           349,      -12.6482,       6.98902,            0.,NA,NA,"",       4.15020,      -2.61455,      -3.22309,   905.310E-06
C:/temp/dataset/9/31_7.odb,Step-1,Increment      1: Step Time =    1.000,"PART-1-1",           350,      -5.93089,       17.7206,            0.,NA,NA,"",       4.72968,      -4.05303,      -2.43779,   1.06612E-03
C:/temp/dataset/9/31_7.odb,Step-1,Increment      1: Step Time =    1.000,"PART-1-1",           351,      -7.00986,       16.6597,            0.,NA,NA,"",       4.67637,      -3.90728,      -2.56935,   922.422E-06
C:/temp/dataset/9/31_7.odb,Step-1,Increment      1: Step Time =    1.000,"PART-1-1",           352,      -6.07897,       15.1891,            0.,NA,NA,"",       4.45269,      -3.72617,      -2.43765,   592.324E-06
C:/temp/dataset/9/31_7.odb,Step-1,Increment      1: Step Time =    1.000,"PART-1-1",           353,           -5.,         16.25,            0.,NA,NA,"",       4.50717,      -3.87205,      -2.30691,   782.342E-06
C:/temp/dataset/9/31_7.odb,Step-1,Increment      1: Step Time =    1.000,"PART-1-1",           354,      -7.79966,       18.2865,            0.,NA,NA,"",       4.90902,      -4.10992,      -2.68459,   1.00954E-03
C:/temp/dataset/9/31_7.odb,Step-1,Increment      1: Step Time =    1.000,"PART-1-1",           355,      -6.65288,       19.1839,            0.,NA,NA,"",       4.93947,      -4.23489,      -2.54245,   1.13263E-03
C:/temp/dataset/9/31_7.odb,Step-1,Increment      1: Step Time =    1.000,"PART-1-1",           356,      -7.29668,       20.7472,            0.,NA,NA,"",       5.15870,      -4.43230,      -2.63949,   819.042E-06
C:/temp/dataset/9/31_7.odb,Step-1,Increment      1: Step Time =    1.000,"PART-1-1",           357,      -8.44345,       19.8498,            0.,NA,NA,"",       5.12669,      -4.30657,      -2.78142,   637.976E-06
C:/temp/dataset/9/31_7.odb,Step-1,Increment      1: Step Time =    1.000,"PART-1-1",           358,      -2.59303,       4.06073,            0.,NA,NA,"",       2.99399,      -2.32713,      -1.88373,   6.67461E-03
C:/temp/dataset/9/31_7.odb,Step-1,Increment      1: Step Time =    1.000,"PART-1-1",           359,      -1.46713,       2.91047,            0.,NA,NA,"",       2.77023,      -2.18085,      -1.70823,   8.03571E-03
C:/temp/dataset/9/31_7.odb,Step-1,Increment      1: Step Time =    1.000,"PART-1-1",           360,  -124.098E-03,       3.84974,            0.,NA,NA,"",       2.77567,      -2.31802,      -1.52679,   7.20428E-03
C:/temp/dataset/9/31_7.odb,Step-1,Increment      1: Step Time =    1.000,"PART-1-1",           361,         -1.25,            5.,            0.,NA,NA,"",       3.00370,      -2.47031,      -1.70874,   5.66189E-03
C:/temp/dataset/9/31_7.odb,Step-1,Increment      1: Step Time =    1.000,"PART-1-1",           362,      -11.2683,  -541.568E-03,            0.,NA,NA,"",       3.40335,      -1.63889,      -2.98276,   1.20320E-03
C:/temp/dataset/9/31_7.odb,Step-1,Increment      1: Step Time =    1.000,"PART-1-1",           363,      -10.4743,   471.696E-03,            0.,NA,NA,"",       3.39224,      -1.78056,      -2.88737,   1.20943E-03
C:/temp/dataset/9/31_7.odb,Step-1,Increment      1: Step Time =    1.000,"PART-1-1",           364,      -11.9503,       1.36743,            0.,NA,NA,"",       3.61835,      -1.88589,      -3.08802,   1.08937E-03
C:/temp/dataset/9/31_7.odb,Step-1,Increment      1: Step Time =    1.000,"PART-1-1",           365,      -13.0095,       9.29789,            0.,NA,NA,"",       4.39034,      -2.90944,      -3.28790,   816.569E-06
C:/temp/dataset/9/31_7.odb,Step-1,Increment      1: Step Time =    1.000,"PART-1-1",           366,      -14.0417,       10.3496,            0.,NA,NA,"",       4.58033,      -3.03594,      -3.42964,   664.556E-06
C:/temp/dataset/9/31_7.odb,Step-1,Increment      1: Step Time =    1.000,"PART-1-1",           367,          -15.,       9.21875,            0.,NA,NA,"",       4.56830,      -2.88184,      -3.54463,   945.420E-06
C:/temp/dataset/9/31_7.odb,Step-1,Increment      1: Step Time =    1.000,"PART-1-1",           368,      -6.40766,      -1.28741,            0.,NA,NA,"",       2.82035,      -1.58114,      -2.33546,   1.00743E-03
C:/temp/dataset/9/31_7.odb,Step-1,Increment      1: Step Time =    1.000,"PART-1-1",           369,      -5.35016,  -573.084E-03,            0.,NA,NA,"",       2.77243,      -1.68575,      -2.20105,   1.49370E-03
C:/temp/dataset/9/31_7.odb,Step-1,Increment      1: Step Time =    1.000,"PART-1-1",           370,      -6.23385,   230.463E-03,            0.,NA,NA,"",       2.93365,      -1.78592,      -2.32740,   1.37482E-03
C:/temp/dataset/9/31_7.odb,Step-1,Increment      1: Step Time =    1.000,"PART-1-1",           371,      -7.29135,  -483.859E-03,            0.,NA,NA,"",       2.98014,      -1.68128,      -2.46060,   1.29421E-03
C:/temp/dataset/9/31_7.odb,Step-1,Increment      1: Step Time =    1.000,"PART-1-1",           372,   952.242E-03,      -2.53706,            0.,NA,NA,"",       1.97420,      -1.48354,      -1.30253,   7.31293E-03
C:/temp/dataset/9/31_7.odb,Step-1,Increment      1: Step Time =    1.000,"PART-1-1",           373,  -130.910E-03,      -3.80019,            0.,NA,NA,"",       1.94348,      -1.29831,      -1.44621,   2.44372E-03
C:/temp/dataset/9/31_7.odb,Step-1,Increment      1: Step Time =    1.000,"PART-1-1",           374,          1.25,           -5.,            0.,NA,NA,"",       1.68694,      -1.14504,      -1.23881,   3.28797E-03
C:/temp/dataset/9/31_7.odb,Step-1,Increment      1: Step Time =    1.000,"PART-1-1",           375,       2.33315,      -3.73687,            0.,NA,NA,"",       1.72896,      -1.34058,      -1.09186,   6.31723E-03
C:/temp/dataset/9/31_7.odb,Step-1,Increment      1: Step Time =    1.000,"PART-1-1",           376,       4.26686,      -1.13377,            0.,NA,NA,"",       1.89916,      -1.70045,  -845.737E-03,   9.63257E-03
C:/temp/dataset/9/31_7.odb,Step-1,Increment      1: Step Time =    1.000,"PART-1-1",           377,       2.05254,      -1.20548,            0.,NA,NA,"",       2.03389,      -1.67239,      -1.15750,   9.29724E-03
C:/temp/dataset/9/31_7.odb,Step-1,Increment      1: Step Time =    1.000,"PART-1-1",           378,       3.27323,      -2.40335,            0.,NA,NA,"",       1.81073,      -1.53082,  -967.130E-03,   10.0738E-03
C:/temp/dataset/9/31_7.odb,Step-1,Increment      1: Step Time =    1.000,"PART-1-1",           379,       10.4325,       1.51548,            0.,NA,NA,"",       2.06694,      -2.06402,  -109.901E-03,   6.23725E-03
C:/temp/dataset/9/31_7.odb,Step-1,Increment      1: Step Time =    1.000,"PART-1-1",           380,       11.3847,  -3.51279E-03,            0.,NA,NA,"",       1.87548,      -1.87541,   15.0628E-03,   6.96483E-03
C:/temp/dataset/9/31_7.odb,Step-1,Increment      1: Step Time =    1.000,"PART-1-1",           381,       12.7244,       1.31309,            0.,NA,NA,"",       2.06106,      -2.05432,   166.617E-03,   6.21859E-03
C:/temp/dataset/9/31_7.odb,Step-1,Increment      1: Step Time =    1.000,"PART-1-1",           382,       11.7722,       2.83209,            0.,NA,NA,"",       2.24269,      -2.24230,   41.6072E-03,   4.31409E-03
C:/temp/dataset/9/31_7.odb,Step-1,Increment      1: Step Time =    1.000,"PART-1-1",           383,       9.00808,      -7.25637,            0.,NA,NA,"",       1.03809,      -1.02067,  -189.397E-03,   6.08489E-03
C:/temp/dataset/9/31_7.odb,Step-1,Increment      1: Step Time =    1.000,"PART-1-1",           384,       7.95196,      -6.36313,            0.,NA,NA,"",       1.14472,      -1.10343,  -304.685E-03,   10.8067E-03
C:/temp/dataset/9/31_7.odb,Step-1,Increment      1: Step Time =    1.000,"PART-1-1",           385,       7.00211,      -7.70397,            0.,NA,NA,"",       1.04594,  -975.644E-03,  -376.969E-03,   18.1280E-03
C:/temp/dataset/9/31_7.odb,Step-1,Increment      1: Step Time =    1.000,"PART-1-1",           386,       8.05823,      -8.59720,            0.,NA,NA,"",   933.390E-03,  -895.693E-03,  -262.584E-03,   12.6331E-03
C:/temp/dataset/9/31_7.odb,Step-1,Increment      1: Step Time =    1.000,"PART-1-1",           387,       7.09104,      -12.0381,            0.,NA,NA,"",   684.937E-03,  -623.099E-03,  -284.404E-03,   17.8118E-03
C:/temp/dataset/9/31_7.odb,Step-1,Increment      1: Step Time =    1.000,"PART-1-1",           388,       6.04129,      -11.1013,            0.,NA,NA,"",   798.336E-03,  -699.264E-03,  -385.190E-03,   23.1328E-03
C:/temp/dataset/9/31_7.odb,Step-1,Increment      1: Step Time =    1.000,"PART-1-1",           389,            5.,      -12.2917,            0.,NA,NA,"",   757.529E-03,  -620.963E-03,  -433.885E-03,   28.2108E-03
C:/temp/dataset/9/31_7.odb,Step-1,Increment      1: Step Time =    1.000,"PART-1-1",           390,       9.13117,      -18.4822,            0.,NA,NA,"",   248.308E-03,  -236.302E-03,  -76.2784E-03,   7.43081E-03
C:/temp/dataset/9/31_7.odb,Step-1,Increment      1: Step Time =    1.000,"PART-1-1",           391,       10.1297,      -19.6034,            0.,NA,NA,"",   189.136E-03,  -187.339E-03,  -26.0091E-03,   2.74583E-03
C:/temp/dataset/9/31_7.odb,Step-1,Increment      1: Step Time =    1.000,"PART-1-1",           392,       11.1535,      -18.5257,            0.,NA,NA,"",   235.220E-03,  -234.529E-03,   18.0138E-03,   2.47704E-03
C:/temp/dataset/9/31_7.odb,Step-1,Increment      1: Step Time =    1.000,"PART-1-1",           393,       10.1550,      -17.4045,            0.,NA,NA,"",   288.348E-03,  -286.560E-03,  -32.0670E-03,   2.58600E-03
C:/temp/dataset/9/31_7.odb,Step-1,Increment      1: Step Time =    1.000,"PART-1-1",           394,       6.27183,       14.9637,            0.,NA,NA,"",       3.85110,      -3.77277,  -772.774E-03,   1.80334E-03
C:/temp/dataset/9/31_7.odb,Step-1,Increment      1: Step Time =    1.000,"PART-1-1",           395,       7.52438,       16.1859,            0.,NA,NA,"",       3.99268,      -3.94421,  -620.236E-03,   1.22388E-03
C:/temp/dataset/9/31_7.odb,Step-1,Increment      1: Step Time =    1.000,"PART-1-1",           396,            5.,         16.25,            0.,NA,NA,"",       4.04654,      -3.93244,  -954.142E-03,   2.13850E-03
C:/temp/dataset/9/31_7.odb,Step-1,Increment      1: Step Time =    1.000,"PART-1-1",           397,       2.56719,       21.1071,            0.,NA,NA,"",       4.74860,      -4.55804,      -1.33174,   771.532E-06
C:/temp/dataset/9/31_7.odb,Step-1,Increment      1: Step Time =    1.000,"PART-1-1",           398,       1.41709,       22.2600,            0.,NA,NA,"",       4.93439,      -4.70206,      -1.49629,   772.390E-06
C:/temp/dataset/9/31_7.odb,Step-1,Increment      1: Step Time =    1.000,"PART-1-1",           399,   99.9026E-03,       21.1528,            0.,NA,NA,"",       4.83834,      -4.54394,      -1.66198,   1.00067E-03
C:/temp/dataset/9/31_7.odb,Step-1,Increment      1: Step Time =    1.000,"PART-1-1",           400,          1.25,           20.,            0.,NA,NA,"",       4.64748,      -4.39958,      -1.49758,   1.08103E-03
C:/temp/dataset/9/31_7.odb,Step-1,Increment      1: Step Time =    1.000,"PART-1-1",           401,       7.55593,       13.6250,            0.,NA,NA,"",       3.65493,      -3.60684,  -590.980E-03,   1.45661E-03
C:/temp/dataset/9/31_7.odb,Step-1,Increment      1: Step Time =    1.000,"PART-1-1",           402,            5.,         13.75,            0.,NA,NA,"",       3.72080,      -3.60344,  -927.147E-03,   2.58094E-03
C:/temp/dataset/9/31_7.odb,Step-1,Increment      1: Step Time =    1.000,"PART-1-1",           403,       8.77818,       14.9146,            0.,NA,NA,"",       3.81250,      -3.78662,  -443.483E-03,   957.362E-06
C:/temp/dataset/9/31_7.odb,Step-1,Increment      1: Step Time =    1.000,"PART-1-1",           404,       10.0010,       16.1752,            0.,NA,NA,"",       3.97461,      -3.96367,  -294.651E-03,   809.468E-06
C:/temp/dataset/9/31_7.odb,Step-1,Increment      1: Step Time =    1.000,"PART-1-1",           405,       8.74716,       17.4465,            0.,NA,NA,"",       4.14842,      -4.12157,  -471.212E-03,   894.463E-06
C:/temp/dataset/9/31_7.odb,Step-1,Increment      1: Step Time =    1.000,"PART-1-1",           406,       10.1219,       5.90684,            0.,NA,NA,"",       2.63363,      -2.62678,  -189.796E-03,   1.90693E-03
C:/temp/dataset/9/31_7.odb,Step-1,Increment      1: Step Time =    1.000,"PART-1-1",           407,       8.94830,       5.07672,            0.,NA,NA,"",       2.53506,      -2.51356,  -329.455E-03,   3.73531E-03
C:/temp/dataset/9/31_7.odb,Step-1,Increment      1: Step Time =    1.000,"PART-1-1",           408,       9.72441,       3.42413,            0.,NA,NA,"",       2.31599,      -2.30597,  -215.214E-03,   4.74801E-03
C:/temp/dataset/9/31_7.odb,Step-1,Increment      1: Step Time =    1.000,"PART-1-1",           409,       10.8980,       4.25426,            0.,NA,NA,"",       2.42081,      -2.41956,  -77.7035E-03,   3.37842E-03
C:/temp/dataset/9/31_7.odb,Step-1,Increment      1: Step Time =    1.000,"PART-1-1",           410,       8.15250,       6.68373,            0.,NA,NA,"",       2.74960,      -2.71304,  -446.879E-03,   2.08399E-03
C:/temp/dataset/9/31_7.odb,Step-1,Increment      1: Step Time =    1.000,"PART-1-1",           411,       9.64075,       7.71724,            0.,NA,NA,"",       2.86802,      -2.85556,  -267.109E-03,   1.19993E-03
C:/temp/dataset/9/31_7.odb,Step-1,Increment      1: Step Time =    1.000,"PART-1-1",           412,       8.79696,       9.37373,            0.,NA,NA,"",       3.08716,      -3.06244,  -389.898E-03,   1.04213E-03
C:/temp/dataset/9/31_7.odb,Step-1,Increment      1: Step Time =    1.000,"PART-1-1",           413,   959.485E-03,       2.63099,            0.,NA,NA,"",       2.55221,      -2.16310,      -1.35454,   7.89185E-03
C:/temp/dataset/9/31_7.odb,Step-1,Increment      1: Step Time =    1.000,"PART-1-1",           414,       2.33358,       3.78125,            0.,NA,NA,"",       2.60506,      -2.32685,      -1.17137,   5.82268E-03
C:/temp/dataset/9/31_7.odb,Step-1,Increment      1: Step Time =    1.000,"PART-1-1",           415,          1.25,            5.,            0.,NA,NA,"",       2.82770,      -2.49006,      -1.33995,   5.89572E-03
C:/temp/dataset/9/31_7.odb,Step-1,Increment      1: Step Time =    1.000,"PART-1-1",           416,      -9.23288,       7.29816,            0.,NA,NA,"",       3.86539,      -2.68451,      -2.78112,   825.845E-06
C:/temp/dataset/9/31_7.odb,Step-1,Increment      1: Step Time =    1.000,"PART-1-1",           417,      -8.32915,       6.01548,            0.,NA,NA,"",       3.66384,      -2.52705,      -2.65288,   896.411E-06
C:/temp/dataset/9/31_7.odb,Step-1,Increment      1: Step Time =    1.000,"PART-1-1",           418,      -7.21136,       6.82340,            0.,NA,NA,"",       3.64648,      -2.64077,      -2.51458,   985.894E-06
C:/temp/dataset/9/31_7.odb,Step-1,Increment      1: Step Time =    1.000,"PART-1-1",           419,      -8.11509,       8.10607,            0.,NA,NA,"",       3.84872,      -2.79800,      -2.64269,   712.203E-06
C:/temp/dataset/9/31_7.odb,Step-1,Increment      1: Step Time =    1.000,"PART-1-1",           420,      -13.1318,       11.4675,            0.,NA,NA,"",       4.60315,      -3.18763,      -3.32085,   649.242E-06
C:/temp/dataset/9/31_7.odb,Step-1,Increment      1: Step Time =    1.000,"PART-1-1",           421,      -14.0901,       12.5242,            0.,NA,NA,"",       4.78705,      -3.31537,      -3.45314,   366.041E-06
C:/temp/dataset/9/31_7.odb,Step-1,Increment      1: Step Time =    1.000,"PART-1-1",           422,          -15.,       11.4063,            0.,NA,NA,"",       4.76376,      -3.16377,      -3.56146,   482.054E-06
C:/temp/dataset/9/31_7.odb,Step-1,Increment      1: Step Time =    1.000,"PART-1-1",           423,      -9.35396,       14.3983,            0.,NA,NA,"",       4.59194,      -3.59646,      -2.85507,   792.011E-06
C:/temp/dataset/9/31_7.odb,Step-1,Increment      1: Step Time =    1.000,"PART-1-1",           424,      -10.5094,       15.3924,            0.,NA,NA,"",       4.78284,      -3.71446,      -3.01302,   758.812E-06
C:/temp/dataset/9/31_7.odb,Step-1,Increment      1: Step Time =    1.000,"PART-1-1",           425,      -11.3610,       13.8160,            0.,NA,NA,"",       4.68590,      -3.50458,      -3.11056,   747.386E-06
C:/temp/dataset/9/31_7.odb,Step-1,Increment      1: Step Time =    1.000,"PART-1-1",           426,      -10.2056,       12.8219,            0.,NA,NA,"",       4.49307,      -3.38664,      -2.95268,   774.937E-06
C:/temp/dataset/9/31_7.odb,Step-1,Increment      1: Step Time =    1.000,"PART-1-1",           427,      -14.0810,       18.8007,            0.,NA,NA,"",       5.41287,      -4.12441,      -3.50548,   597.942E-06
C:/temp/dataset/9/31_7.odb,Step-1,Increment      1: Step Time =    1.000,"PART-1-1",           428,          -15.,       17.9688,            0.,NA,NA,"",       5.39981,      -4.00932,      -3.61708,   676.667E-06
C:/temp/dataset/9/31_7.odb,Step-1,Increment      1: Step Time =    1.000,"PART-1-1",           429,      -14.2329,       16.7349,            0.,NA,NA,"",       5.21242,      -3.85626,      -3.50693,   439.693E-06
C:/temp/dataset/9/31_7.odb,Step-1,Increment      1: Step Time =    1.000,"PART-1-1",           430,      -13.3139,       17.5668,            0.,NA,NA,"",       5.22470,      -3.97120,      -3.39515,   440.119E-06
C:/temp/dataset/9/31_7.odb,Step-1,Increment      1: Step Time =    1.000,"PART-1-1",           431,      -12.9537,       19.5700,            0.,NA,NA,"",       5.40837,      -4.23334,      -3.36591,   412.750E-06
C:/temp/dataset/9/31_7.odb,Step-1,Increment      1: Step Time =    1.000,"PART-1-1",           432,      -13.8727,       20.9255,            0.,NA,NA,"",       5.62213,      -4.40181,      -3.49749,   609.518E-06
C:/temp/dataset/9/31_7.odb,Step-1,Increment      1: Step Time =    1.000,"PART-1-1",           433,          -15.,       20.1563,            0.,NA,NA,"",       5.62631,      -4.29265,      -3.63709,   819.946E-06
C:/temp/dataset/9/31_7.odb,Step-1,Increment      1: Step Time =    1.000,"PART-1-1",           434,       1.76445,       24.7908,            0.,NA,NA,"",       5.25200,      -5.04125,      -1.47287,   643.637E-06
C:/temp/dataset/9/31_7.odb,Step-1,Increment      1: Step Time =    1.000,"PART-1-1",           435,       1.36974,       27.3866,            0.,NA,NA,"",       5.60071,      -5.38232,      -1.54872,   445.294E-06
C:/temp/dataset/9/31_7.odb,Step-1,Increment      1: Step Time =    1.000,"PART-1-1",           436,   176.493E-03,       26.0346,            0.,NA,NA,"",       5.46226,      -5.19231,      -1.69595,   515.118E-06
C:/temp/dataset/9/31_7.odb,Step-1,Increment      1: Step Time =    1.000,"PART-1-1",           437,       7.39460,       20.9669,            0.,NA,NA,"",       4.63014,      -4.57936,  -683.864E-03,   1.05344E-03
C:/temp/dataset/9/31_7.odb,Step-1,Increment      1: Step Time =    1.000,"PART-1-1",           438,       8.70526,       19.9066,            0.,NA,NA,"",       4.47683,      -4.44885,  -499.811E-03,   880.353E-06
C:/temp/dataset/9/31_7.odb,Step-1,Increment      1: Step Time =    1.000,"PART-1-1",           439,       9.85134,       21.1719,            0.,NA,NA,"",       4.64151,      -4.62755,  -359.736E-03,   748.557E-06
C:/temp/dataset/9/31_7.odb,Step-1,Increment      1: Step Time =    1.000,"PART-1-1",           440,       8.54068,       22.2321,            0.,NA,NA,"",       4.78894,      -4.75799,  -543.595E-03,   769.509E-06
C:/temp/dataset/9/31_7.odb,Step-1,Increment      1: Step Time =    1.000,"PART-1-1",           441,       4.10864,       24.1658,            0.,NA,NA,"",       5.11034,      -4.97842,      -1.15362,   692.897E-06
C:/temp/dataset/9/31_7.odb,Step-1,Increment      1: Step Time =    1.000,"PART-1-1",           442,       5.90921,       23.8009,            0.,NA,NA,"",       5.02809,      -4.94518,  -909.364E-03,   696.575E-06
C:/temp/dataset/9/31_7.odb,Step-1,Increment      1: Step Time =    1.000,"PART-1-1",           443,       6.25965,       24.9450,            0.,NA,NA,"",       5.17475,      -5.10054,  -873.230E-03,   531.511E-06
C:/temp/dataset/9/31_7.odb,Step-1,Increment      1: Step Time =    1.000,"PART-1-1",           444,   19.2837E-03,       28.6494,            0.,NA,NA,"",       5.80459,      -5.53772,      -1.73980,   444.210E-06
C:/temp/dataset/9/31_7.odb,Step-1,Increment      1: Step Time =    1.000,"PART-1-1",           445,       2.60045,       28.7372,            0.,NA,NA,"",       5.74530,      -5.57302,      -1.39639,   265.161E-06
C:/temp/dataset/9/31_7.odb,Step-1,Increment      1: Step Time =    1.000,"PART-1-1",           446,          1.25,           30.,            0.,NA,NA,"",       5.94478,      -5.72886,      -1.58762,   434.788E-06
C:/temp/dataset/9/31_7.odb,Step-1,Increment      1: Step Time =    1.000,"PART-1-1",           447,      -7.67774,       29.0428,            0.,NA,NA,"",       6.16980,      -5.51812,      -2.75985,   629.264E-06
C:/temp/dataset/9/31_7.odb,Step-1,Increment      1: Step Time =    1.000,"PART-1-1",           448,      -6.68998,       27.9093,            0.,NA,NA,"",       5.98264,      -5.37804,      -2.62080,   476.022E-06
C:/temp/dataset/9/31_7.odb,Step-1,Increment      1: Step Time =    1.000,"PART-1-1",           449,         -6.25,           30.,            0.,NA,NA,"",       6.21800,      -5.65723,      -2.58055,   895.914E-06
C:/temp/dataset/9/31_7.odb,Step-1,Increment      1: Step Time =    1.000,"PART-1-1",           450,      -12.1701,       26.6384,            0.,NA,NA,"",       6.14171,      -5.16300,      -3.32627,   418.595E-06
C:/temp/dataset/9/31_7.odb,Step-1,Increment      1: Step Time =    1.000,"PART-1-1",           451,      -13.7206,       27.8542,            0.,NA,NA,"",       6.38072,      -5.30908,      -3.53940,   178.476E-06
C:/temp/dataset/9/31_7.odb,Step-1,Increment      1: Step Time =    1.000,"PART-1-1",           452,          -15.,       26.7188,            0.,NA,NA,"",       6.33903,      -5.14940,      -3.69689,   212.609E-06
C:/temp/dataset/9/31_7.odb,Step-1,Increment      1: Step Time =    1.000,"PART-1-1",           453,        -13.75,           30.,            0.,NA,NA,"",       6.62802,      -5.58969,      -3.56174,   34.5373E-06
C:/temp/dataset/9/31_7.odb,Step-1,Increment      1: Step Time =    1.000,"PART-1-1",           454,          -15.,       28.9063,            0.,NA,NA,"",       6.58453,      -5.43583,      -3.71588,   31.1651E-06
C:/temp/dataset/9/31_7.odb,Step-1,Increment      1: Step Time =    1.000,"PART-1-1",           455,      -9.01567,       28.1413,            0.,NA,NA,"",       6.13157,      -5.38767,      -2.92731,   481.504E-06
C:/temp/dataset/9/31_7.odb,Step-1,Increment      1: Step Time =    1.000,"PART-1-1",           456,         -8.75,           30.,            0.,NA,NA,"",       6.34017,      -5.63384,      -2.90821,   627.947E-06
C:/temp/dataset/9/31_7.odb,Step-1,Increment      1: Step Time =    1.000,"PART-1-1",           457,      -10.9923,       18.6369,            0.,NA,NA,"",       5.16466,      -4.12869,      -3.10284,   499.057E-06
C:/temp/dataset/9/31_7.odb,Step-1,Increment      1: Step Time =    1.000,"PART-1-1",           458,      -11.7056,       20.1347,            0.,NA,NA,"",       5.37870,      -4.31690,      -3.20855,   376.760E-06
C:/temp/dataset/9/31_7.odb,Step-1,Increment      1: Step Time =    1.000,"PART-1-1",           459,      -12.2405,       18.0722,            0.,NA,NA,"",       5.19557,      -4.04537,      -3.26021,   477.615E-06
C:/temp/dataset/9/31_7.odb,Step-1,Increment      1: Step Time =    1.000,"PART-1-1",           460,      -11.7153,       17.0060,            0.,NA,NA,"",       5.04341,      -3.91213,      -3.18296,   565.651E-06
C:/temp/dataset/9/31_7.odb,Step-1,Increment      1: Step Time =    1.000,"PART-1-1",           461,      -12.7888,       16.5007,            0.,NA,NA,"",       5.07337,      -3.83802,      -3.31792,   485.162E-06
C:/temp/dataset/9/31_7.odb,Step-1,Increment      1: Step Time =    1.000,"PART-1-1",           462,      -13.2634,       13.5986,            0.,NA,NA,"",       4.81997,      -3.46054,      -3.35512,   498.197E-06
C:/temp/dataset/9/31_7.odb,Step-1,Increment      1: Step Time =    1.000,"PART-1-1",           463,      -14.1733,       14.6682,            0.,NA,NA,"",       5.00129,      -3.59051,      -3.48155,   252.278E-06
C:/temp/dataset/9/31_7.odb,Step-1,Increment      1: Step Time =    1.000,"PART-1-1",           464,          -15.,       13.5938,            0.,NA,NA,"",       4.96796,      -3.44534,      -3.57915,   43.6538E-06
C:/temp/dataset/9/31_7.odb,Step-1,Increment      1: Step Time =    1.000,"PART-1-1",           465,      -6.04154,       10.1420,            0.,NA,NA,"",       3.89743,      -3.07721,      -2.39180,   212.056E-06
C:/temp/dataset/9/31_7.odb,Step-1,Increment      1: Step Time =    1.000,"PART-1-1",           466,      -7.09581,       9.10381,            0.,NA,NA,"",       3.86777,      -2.93486,      -2.51918,   405.849E-06
C:/temp/dataset/9/31_7.odb,Step-1,Increment      1: Step Time =    1.000,"PART-1-1",           467,      -6.05428,       7.71180,            0.,NA,NA,"",       3.64311,      -2.76437,      -2.37287,   500.370E-06
C:/temp/dataset/9/31_7.odb,Step-1,Increment      1: Step Time =    1.000,"PART-1-1",           468,           -5.,          8.75,            0.,NA,NA,"",       3.67319,      -2.90668,      -2.24578,   277.012E-06
C:/temp/dataset/9/31_7.odb,Step-1,Increment      1: Step Time =    1.000,"PART-1-1",           469,      -6.15708,       5.36159,            0.,NA,NA,"",       3.41422,      -2.46232,      -2.36514,   1.46087E-03
C:/temp/dataset/9/31_7.odb,Step-1,Increment      1: Step Time =    1.000,"PART-1-1",           470,           -5.,          6.25,            0.,NA,NA,"",       3.41051,      -2.58490,      -2.22483,   298.613E-06
C:/temp/dataset/9/31_7.odb,Step-1,Increment      1: Step Time =    1.000,"PART-1-1",           471,      -13.8567,       3.63033,            0.,NA,NA,"",       3.99376,      -2.16633,      -3.35517,   1.31264E-03
C:/temp/dataset/9/31_7.odb,Step-1,Increment      1: Step Time =    1.000,"PART-1-1",           472,      -12.5372,       4.63979,            0.,NA,NA,"",       3.93921,      -2.31037,      -3.19054,   895.876E-06
C:/temp/dataset/9/31_7.odb,Step-1,Increment      1: Step Time =    1.000,"PART-1-1",           473,          -15.,       4.84375,            0.,NA,NA,"",       4.20702,      -2.31445,      -3.51317,   1.63506E-03
C:/temp/dataset/9/31_7.odb,Step-1,Increment      1: Step Time =    1.000,"PART-1-1",           474,      -12.7859,       2.45238,            0.,NA,NA,"",       3.79010,      -2.02141,      -3.20605,   984.727E-06
C:/temp/dataset/9/31_7.odb,Step-1,Increment      1: Step Time =    1.000,"PART-1-1",           475,          -15.,       2.65625,            0.,NA,NA,"",       4.04303,      -2.02783,      -3.49771,   1.56682E-03
C:/temp/dataset/9/31_7.odb,Step-1,Increment      1: Step Time =    1.000,"PART-1-1",           476,      -13.7683,      -2.81830,            0.,NA,NA,"",       3.54456,      -1.31478,      -3.29170,   429.862E-06
C:/temp/dataset/9/31_7.odb,Step-1,Increment      1: Step Time =    1.000,"PART-1-1",           477,          -15.,      -3.90625,            0.,NA,NA,"",       3.63493,      -1.16005,      -3.44485,   72.6711E-06
C:/temp/dataset/9/31_7.odb,Step-1,Increment      1: Step Time =    1.000,"PART-1-1",           478,        -13.75,           -5.,            0.,NA,NA,"",       3.42758,      -1.02654,      -3.27025,   84.5513E-06
C:/temp/dataset/9/31_7.odb,Step-1,Increment      1: Step Time =    1.000,"PART-1-1",           479,      -12.5183,      -3.91205,            0.,NA,NA,"",       3.33361,      -1.18079,      -3.11748,   453.969E-06
C:/temp/dataset/9/31_7.odb,Step-1,Increment      1: Step Time =    1.000,"PART-1-1",           480,      -3.91473,      -3.03803,            0.,NA,NA,"",       2.40656,      -1.36631,      -1.98108,   1.44465E-03
C:/temp/dataset/9/31_7.odb,Step-1,Increment      1: Step Time =    1.000,"PART-1-1",           481,      -5.07319,      -4.05962,            0.,NA,NA,"",       2.45292,      -1.21893,      -2.12862,   2.05214E-03
C:/temp/dataset/9/31_7.odb,Step-1,Increment      1: Step Time =    1.000,"PART-1-1",           482,         -3.75,           -5.,            0.,NA,NA,"",       2.22933,      -1.10087,      -1.93855,   2.42165E-03
C:/temp/dataset/9/31_7.odb,Step-1,Increment      1: Step Time =    1.000,"PART-1-1",           483,      -2.59153,      -3.97841,            0.,NA,NA,"",       2.18257,      -1.24987,      -1.78925,   1.59902E-03
C:/temp/dataset/9/31_7.odb,Step-1,Increment      1: Step Time =    1.000,"PART-1-1",           484,   563.435E-03,   72.7383E-03,            0.,NA,NA,"",       2.28929,      -1.82390,      -1.38356,   8.34440E-03
C:/temp/dataset/9/31_7.odb,Step-1,Increment      1: Step Time =    1.000,"PART-1-1",           485,  -536.863E-03,      -1.25885,            0.,NA,NA,"",       2.23897,      -1.63734,      -1.52711,   6.24583E-03
C:/temp/dataset/9/31_7.odb,Step-1,Increment      1: Step Time =    1.000,"PART-1-1",           486,       7.06616,      -9.87010,            0.,NA,NA,"",   855.918E-03,  -790.537E-03,  -328.096E-03,   18.3299E-03
C:/temp/dataset/9/31_7.odb,Step-1,Increment      1: Step Time =    1.000,"PART-1-1",           487,       6.02487,      -8.97716,            0.,NA,NA,"",   974.769E-03,  -870.913E-03,  -437.819E-03,   23.7624E-03
C:/temp/dataset/9/31_7.odb,Step-1,Increment      1: Step Time =    1.000,"PART-1-1",           488,            5.,      -10.2083,            0.,NA,NA,"",   920.630E-03,  -777.546E-03,  -492.933E-03,   28.1455E-03
C:/temp/dataset/9/31_7.odb,Step-1,Increment      1: Step Time =    1.000,"PART-1-1",           489,       13.0743,      -11.4048,            0.,NA,NA,"",   703.130E-03,  -682.421E-03,   169.392E-03,   12.3026E-03
C:/temp/dataset/9/31_7.odb,Step-1,Increment      1: Step Time =    1.000,"PART-1-1",           490,       14.0423,      -12.5586,            0.,NA,NA,"",   646.424E-03,  -604.244E-03,   229.678E-03,   17.1637E-03
C:/temp/dataset/9/31_7.odb,Step-1,Increment      1: Step Time =    1.000,"PART-1-1",           491,           15.,        -11.25,            0.,NA,NA,"",   783.954E-03,  -715.408E-03,   320.585E-03,   22.2270E-03
C:/temp/dataset/9/31_7.odb,Step-1,Increment      1: Step Time =    1.000,"PART-1-1",           492,       14.0319,      -10.0962,            0.,NA,NA,"",   839.931E-03,  -798.870E-03,   259.406E-03,   17.3710E-03
C:/temp/dataset/9/31_7.odb,Step-1,Increment      1: Step Time =    1.000,"PART-1-1",           493,       7.09943,      -16.3632,            0.,NA,NA,"",   405.953E-03,  -349.438E-03,  -206.617E-03,   17.3783E-03
C:/temp/dataset/9/31_7.odb,Step-1,Increment      1: Step Time =    1.000,"PART-1-1",           494,            5.,      -16.4583,            0.,NA,NA,"",   484.276E-03,  -362.593E-03,  -321.014E-03,   27.7125E-03
C:/temp/dataset/9/31_7.odb,Step-1,Increment      1: Step Time =    1.000,"PART-1-1",           495,       13.0966,      -13.8278,            0.,NA,NA,"",   528.792E-03,  -506.893E-03,   150.602E-03,   12.2162E-03
C:/temp/dataset/9/31_7.odb,Step-1,Increment      1: Step Time =    1.000,"PART-1-1",           496,       14.0543,      -15.0192,            0.,NA,NA,"",   481.340E-03,  -438.546E-03,   198.408E-03,   16.8503E-03
C:/temp/dataset/9/31_7.odb,Step-1,Increment      1: Step Time =    1.000,"PART-1-1",           497,           15.,        -13.75,            0.,NA,NA,"",   599.097E-03,  -530.827E-03,   277.740E-03,   21.7983E-03
C:/temp/dataset/9/31_7.odb,Step-1,Increment      1: Step Time =    1.000,"PART-1-1",           498,       13.0974,      -18.6352,            0.,NA,NA,"",   260.715E-03,  -237.943E-03,   106.561E-03,   11.6915E-03
C:/temp/dataset/9/31_7.odb,Step-1,Increment      1: Step Time =    1.000,"PART-1-1",           499,       14.0421,      -19.9133,            0.,NA,NA,"",   231.537E-03,  -190.336E-03,   131.839E-03,   16.0076E-03
C:/temp/dataset/9/31_7.odb,Step-1,Increment      1: Step Time =    1.000,"PART-1-1",           500,           15.,        -18.75,            0.,NA,NA,"",   312.799E-03,  -248.487E-03,   189.992E-03,   20.7918E-03
C:/temp/dataset/9/31_7.odb,Step-1,Increment      1: Step Time =    1.000,"PART-1-1",           501,       14.0553,      -17.4719,            0.,NA,NA,"",   343.398E-03,  -300.843E-03,   165.577E-03,   16.4680E-03
C:/temp/dataset/9/31_7.odb,Step-1,Increment      1: Step Time =    1.000,"PART-1-1",           502,       7.12541,      -22.7005,            0.,NA,NA,"",   140.043E-03,  -94.3595E-03,  -103.481E-03,   16.5791E-03
C:/temp/dataset/9/31_7.odb,Step-1,Increment      1: Step Time =    1.000,"PART-1-1",           503,       6.04628,      -21.6612,            0.,NA,NA,"",   204.345E-03,  -133.263E-03,  -154.913E-03,   21.7413E-03
C:/temp/dataset/9/31_7.odb,Step-1,Increment      1: Step Time =    1.000,"PART-1-1",           504,            5.,      -22.7083,            0.,NA,NA,"",   199.292E-03,  -113.974E-03,  -163.485E-03,   26.3761E-03
C:/temp/dataset/9/31_7.odb,Step-1,Increment      1: Step Time =    1.000,"PART-1-1",           505,       6.07914,      -23.7476,            0.,NA,NA,"",   136.775E-03,  -77.0212E-03,  -113.027E-03,   21.1858E-03
C:/temp/dataset/9/31_7.odb,Step-1,Increment      1: Step Time =    1.000,"PART-1-1",           506,       6.22304,      -27.8948,            0.,NA,NA,"",   36.4759E-03,  -13.6161E-03,  -33.8392E-03,   19.9562E-03
C:/temp/dataset/9/31_7.odb,Step-1,Increment      1: Step Time =    1.000,"PART-1-1",           507,            5.,      -28.9583,            0.,NA,NA,"",   27.4085E-03,  -16.6821E-03,  -21.7471E-03,   24.2103E-03
C:/temp/dataset/9/31_7.odb,Step-1,Increment      1: Step Time =    1.000,"PART-1-1",           508,          6.25,          -30.,            0.,NA,NA,"",            0.,   1.36313E-39,  -29.0503E-39,   17.6175E-03
C:/temp/dataset/9/31_7.odb,Step-1,Increment      1: Step Time =    1.000,"PART-1-1",           509,       9.78444,      -26.6535,            0.,NA,NA,"",   13.5958E-03,  -8.00797E-03,  -10.9872E-03,   4.28289E-03
C:/temp/dataset/9/31_7.odb,Step-1,Increment      1: Step Time =    1.000,"PART-1-1",           510,       8.47427,      -25.6871,            0.,NA,NA,"",   43.6227E-03,  -24.2599E-03,  -36.2546E-03,   10.3932E-03
C:/temp/dataset/9/31_7.odb,Step-1,Increment      1: Step Time =    1.000,"PART-1-1",           511,       7.37694,      -26.8334,            0.,NA,NA,"",   41.7381E-03,  -15.5350E-03,  -38.7393E-03,   15.1137E-03
C:/temp/dataset/9/31_7.odb,Step-1,Increment      1: Step Time =    1.000,"PART-1-1",           512,       13.7223,      -27.5034,            0.,NA,NA,"",   28.4620E-03,  -9.28962E-03,   26.9033E-03,   13.5901E-03
C:/temp/dataset/9/31_7.odb,Step-1,Increment      1: Step Time =    1.000,"PART-1-1",           513,       12.4723,      -28.7534,            0.,NA,NA,"",   7.50616E-03,   2.69676E-03,   7.00500E-03,   7.42335E-03
C:/temp/dataset/9/31_7.odb,Step-1,Increment      1: Step Time =    1.000,"PART-1-1",           514,         13.75,          -30.,            0.,NA,NA,"",            0.,   3.07302E-39,   18.4130E-39,   10.8847E-03
C:/temp/dataset/9/31_7.odb,Step-1,Increment      1: Step Time =    1.000,"PART-1-1",           515,           15.,        -28.75,            0.,NA,NA,"",   20.8583E-03,  -10.8095E-03,   17.8388E-03,   17.1532E-03
C:/temp/dataset/9/31_7.odb,Step-1,Increment      1: Step Time =    1.000,"PART-1-1",           516,         11.25,          -30.,            0.,NA,NA,"",            0.,   5.25090E-39,   3.37833E-39,   4.84852E-03
C:/temp/dataset/9/31_7.odb,Step-1,Increment      1: Step Time =    1.000,"PART-1-1",           517,       11.1864,      -27.6167,            0.,NA,NA,"",   4.11089E-03,   391.123E-06,   4.09225E-03,   2.68686E-03
C:/temp/dataset/9/31_7.odb,Step-1,Increment      1: Step Time =    1.000,"PART-1-1",           518,       9.10684,      -20.5966,            0.,NA,NA,"",   162.876E-03,  -150.830E-03,  -61.4733E-03,   7.50925E-03
C:/temp/dataset/9/31_7.odb,Step-1,Increment      1: Step Time =    1.000,"PART-1-1",           519,       11.0993,      -20.6881,            0.,NA,NA,"",   147.373E-03,  -146.766E-03,   13.3609E-03,   2.17323E-03
C:/temp/dataset/9/31_7.odb,Step-1,Increment      1: Step Time =    1.000,"PART-1-1",           520,       7.08739,      -20.6083,            0.,NA,NA,"",   210.757E-03,  -159.907E-03,  -137.289E-03,   16.9844E-03
C:/temp/dataset/9/31_7.odb,Step-1,Increment      1: Step Time =    1.000,"PART-1-1",           521,            5.,       -20.625,            0.,NA,NA,"",   279.080E-03,  -178.640E-03,  -214.414E-03,   26.9098E-03
C:/temp/dataset/9/31_7.odb,Step-1,Increment      1: Step Time =    1.000,"PART-1-1",           522,       9.14341,      -14.0595,            0.,NA,NA,"",   491.080E-03,  -478.170E-03,  -111.863E-03,   7.51581E-03
C:/temp/dataset/9/31_7.odb,Step-1,Increment      1: Step Time =    1.000,"PART-1-1",           523,       10.1582,      -15.1431,            0.,NA,NA,"",   412.710E-03,  -410.737E-03,  -40.3073E-03,   2.56093E-03
C:/temp/dataset/9/31_7.odb,Step-1,Increment      1: Step Time =    1.000,"PART-1-1",           524,       11.1509,      -13.9343,            0.,NA,NA,"",   489.278E-03,  -488.839E-03,   20.7148E-03,   2.59022E-03
C:/temp/dataset/9/31_7.odb,Step-1,Increment      1: Step Time =    1.000,"PART-1-1",           525,       10.1361,      -12.8507,            0.,NA,NA,"",   562.258E-03,  -559.868E-03,  -51.7831E-03,   2.63826E-03
C:/temp/dataset/9/31_7.odb,Step-1,Increment      1: Step Time =    1.000,"PART-1-1",           526,       9.12292,      -11.8044,            0.,NA,NA,"",   648.867E-03,  -634.869E-03,  -134.052E-03,   7.58391E-03
C:/temp/dataset/9/31_7.odb,Step-1,Increment      1: Step Time =    1.000,"PART-1-1",           527,       11.1213,      -11.5948,            0.,NA,NA,"",   655.169E-03,  -654.924E-03,   17.9076E-03,   2.60800E-03
C:/temp/dataset/9/31_7.odb,Step-1,Increment      1: Step Time =    1.000,"PART-1-1",           528,       10.1081,      -10.5485,            0.,NA,NA,"",   736.511E-03,  -733.574E-03,  -65.7057E-03,   2.60583E-03
C:/temp/dataset/9/31_7.odb,Step-1,Increment      1: Step Time =    1.000,"PART-1-1",           529,       13.8169,  -7.21098E-03,            0.,NA,NA,"",       1.92042,      -1.89651,   302.131E-03,   8.14846E-03
C:/temp/dataset/9/31_7.odb,Step-1,Increment      1: Step Time =    1.000,"PART-1-1",           530,           15.,          1.25,            0.,NA,NA,"",       2.11710,      -2.06944,   446.678E-03,   8.04754E-03
C:/temp/dataset/9/31_7.odb,Step-1,Increment      1: Step Time =    1.000,"PART-1-1",           531,       13.9075,       2.57030,            0.,NA,NA,"",       2.24802,      -2.22704,   306.438E-03,   5.03035E-03
C:/temp/dataset/9/31_7.odb,Step-1,Increment      1: Step Time =    1.000,"PART-1-1",           532,       10.8083,      -4.35361,            0.,NA,NA,"",       1.33990,      -1.33965,  -25.5852E-03,   6.65457E-03
C:/temp/dataset/9/31_7.odb,Step-1,Increment      1: Step Time =    1.000,"PART-1-1",           533,       9.68548,      -3.40243,            0.,NA,NA,"",       1.45019,      -1.44231,  -151.033E-03,   7.53568E-03
C:/temp/dataset/9/31_7.odb,Step-1,Increment      1: Step Time =    1.000,"PART-1-1",           534,       8.81587,      -4.92348,            0.,NA,NA,"",       1.28162,      -1.26078,  -230.180E-03,   6.60561E-03
C:/temp/dataset/9/31_7.odb,Step-1,Increment      1: Step Time =    1.000,"PART-1-1",           535,       9.93870,      -5.87466,            0.,NA,NA,"",       1.17016,      -1.16520,  -107.660E-03,   4.14309E-03
C:/temp/dataset/9/31_7.odb,Step-1,Increment      1: Step Time =    1.000,"PART-1-1",           536,       10.7940,       8.23694,            0.,NA,NA,"",       2.93419,      -2.93156,  -124.240E-03,   921.192E-06
C:/temp/dataset/9/31_7.odb,Step-1,Increment      1: Step Time =    1.000,"PART-1-1",           537,       11.2752,       6.42654,            0.,NA,NA,"",       2.70240,      -2.70196,  -48.4018E-03,   1.56877E-03
C:/temp/dataset/9/31_7.odb,Step-1,Increment      1: Step Time =    1.000,"PART-1-1",           538,       12.8821,       8.67106,            0.,NA,NA,"",       3.00887,      -3.00560,   140.195E-03,   1.70959E-03
C:/temp/dataset/9/31_7.odb,Step-1,Increment      1: Step Time =    1.000,"PART-1-1",           539,       14.0355,       7.50951,            0.,NA,NA,"",       2.88098,      -2.86573,   296.080E-03,   2.33738E-03
C:/temp/dataset/9/31_7.odb,Step-1,Increment      1: Step Time =    1.000,"PART-1-1",           540,           15.,          8.75,            0.,NA,NA,"",       3.06342,      -3.03549,   412.702E-03,   2.62153E-03
C:/temp/dataset/9/31_7.odb,Step-1,Increment      1: Step Time =    1.000,"PART-1-1",           541,       13.8467,       9.91155,            0.,NA,NA,"",       3.18581,      -3.17550,   256.111E-03,   1.93387E-03
C:/temp/dataset/9/31_7.odb,Step-1,Increment      1: Step Time =    1.000,"PART-1-1",           542,       12.4850,       16.2122,            0.,NA,NA,"",       3.99061,      -3.99049,   31.3160E-03,   945.259E-06
C:/temp/dataset/9/31_7.odb,Step-1,Increment      1: Step Time =    1.000,"PART-1-1",           543,       13.7431,       14.9727,            0.,NA,NA,"",       3.84355,      -3.83801,   206.408E-03,   1.35090E-03
C:/temp/dataset/9/31_7.odb,Step-1,Increment      1: Step Time =    1.000,"PART-1-1",           544,           15.,         16.25,            0.,NA,NA,"",       4.03507,      -4.01876,   362.467E-03,   1.57595E-03
C:/temp/dataset/9/31_7.odb,Step-1,Increment      1: Step Time =    1.000,"PART-1-1",           545,       13.7419,       17.4895,            0.,NA,NA,"",       4.17561,      -4.17143,   186.676E-03,   1.03455E-03
C:/temp/dataset/9/31_7.odb,Step-1,Increment      1: Step Time =    1.000,"PART-1-1",           546,       12.4991,       13.6576,            0.,NA,NA,"",       3.65365,      -3.65326,   53.5775E-03,   1.10326E-03
C:/temp/dataset/9/31_7.odb,Step-1,Increment      1: Step Time =    1.000,"PART-1-1",           547,       13.7559,       12.4349,            0.,NA,NA,"",       3.51150,      -3.50417,   226.778E-03,   1.64306E-03
C:/temp/dataset/9/31_7.odb,Step-1,Increment      1: Step Time =    1.000,"PART-1-1",           548,           15.,         13.75,            0.,NA,NA,"",       3.70818,      -3.68862,   380.293E-03,   1.98755E-03
C:/temp/dataset/9/31_7.odb,Step-1,Increment      1: Step Time =    1.000,"PART-1-1",           549,           15.,         21.25,            0.,NA,NA,"",       4.69505,      -4.68392,   323.073E-03,   674.734E-06
C:/temp/dataset/9/31_7.odb,Step-1,Increment      1: Step Time =    1.000,"PART-1-1",           550,       13.6875,       22.5045,            0.,NA,NA,"",       4.84137,      -4.83941,   137.626E-03,   414.039E-06
C:/temp/dataset/9/31_7.odb,Step-1,Increment      1: Step Time =    1.000,"PART-1-1",           551,       12.4125,       21.2511,            0.,NA,NA,"",       4.66063,      -4.66058,  -20.8959E-03,   613.382E-06
C:/temp/dataset/9/31_7.odb,Step-1,Increment      1: Step Time =    1.000,"PART-1-1",           552,       13.7250,       19.9966,            0.,NA,NA,"",       4.50801,      -4.50502,   163.953E-03,   708.279E-06
C:/temp/dataset/9/31_7.odb,Step-1,Increment      1: Step Time =    1.000,"PART-1-1",           553,       13.6481,       25.0064,            0.,NA,NA,"",       5.17436,      -5.17318,   110.494E-03,   201.588E-06
C:/temp/dataset/9/31_7.odb,Step-1,Increment      1: Step Time =    1.000,"PART-1-1",           554,       12.3356,       23.7609,            0.,NA,NA,"",       4.99539,      -4.99511,  -53.2200E-03,   410.046E-06
C:/temp/dataset/9/31_7.odb,Step-1,Increment      1: Step Time =    1.000,"PART-1-1",           555,           15.,         23.75,            0.,NA,NA,"",       5.02668,      -5.01761,   301.752E-03,   324.932E-06
C:/temp/dataset/9/31_7.odb,Step-1,Increment      1: Step Time =    1.000,"PART-1-1",           556,       13.7112,       27.5077,            0.,NA,NA,"",       5.50847,      -5.50763,   96.6999E-03,   69.9337E-06
C:/temp/dataset/9/31_7.odb,Step-1,Increment      1: Step Time =    1.000,"PART-1-1",           557,           15.,         28.75,            0.,NA,NA,"",       5.69069,      -5.68486,   257.485E-03,   10.7696E-06
C:/temp/dataset/9/31_7.odb,Step-1,Increment      1: Step Time =    1.000,"PART-1-1",           558,         13.75,           30.,            0.,NA,NA,"",       5.84093,      -5.84039,   79.6355E-03,   10.2892E-06
C:/temp/dataset/9/31_7.odb,Step-1,Increment      1: Step Time =    1.000,"PART-1-1",           559,            5.,      -24.7917,            0.,NA,NA,"",   132.345E-03,  -66.8725E-03,  -114.207E-03,   25.4968E-03
C:/temp/dataset/9/31_7.odb,Step-1,Increment      1: Step Time =    1.000,"PART-1-1",           560,       6.15390,      -25.8136,            0.,NA,NA,"",   82.1818E-03,  -38.2893E-03,  -72.7171E-03,   20.3935E-03
C:/temp/dataset/9/31_7.odb,Step-1,Increment      1: Step Time =    1.000,"PART-1-1",           561,       7.23304,      -24.7696,            0.,NA,NA,"",   84.2243E-03,  -46.6969E-03,  -70.0938E-03,   16.0520E-03
C:/temp/dataset/9/31_7.odb,Step-1,Increment      1: Step Time =    1.000,"PART-1-1",           562,       13.0086,      -21.0119,            0.,NA,NA,"",   163.607E-03,  -142.314E-03,   80.7099E-03,   10.9592E-03
C:/temp/dataset/9/31_7.odb,Step-1,Increment      1: Step Time =    1.000,"PART-1-1",           563,       13.9664,      -22.3485,            0.,NA,NA,"",   143.044E-03,  -105.601E-03,   96.4881E-03,   15.2528E-03
C:/temp/dataset/9/31_7.odb,Step-1,Increment      1: Step Time =    1.000,"PART-1-1",           564,           15.,        -21.25,            0.,NA,NA,"",   208.601E-03,  -149.188E-03,   145.799E-03,   20.3075E-03
C:/temp/dataset/9/31_7.odb,Step-1,Increment      1: Step Time =    1.000,"PART-1-1",           565,            5.,       -26.875,            0.,NA,NA,"",   76.8371E-03,  -36.4600E-03,  -67.6359E-03,   24.7725E-03
C:/temp/dataset/9/31_7.odb,Step-1,Increment      1: Step Time =    1.000,"PART-1-1",           566,       12.9745,      -6.51631,            0.,NA,NA,"",       1.14101,      -1.12444,   193.782E-03,   11.6628E-03
C:/temp/dataset/9/31_7.odb,Step-1,Increment      1: Step Time =    1.000,"PART-1-1",           567,       14.0104,      -7.62731,            0.,NA,NA,"",       1.06333,      -1.02435,   285.246E-03,   16.9837E-03
C:/temp/dataset/9/31_7.odb,Step-1,Increment      1: Step Time =    1.000,"PART-1-1",           568,           15.,         -6.25,            0.,NA,NA,"",       1.24303,      -1.17731,   398.853E-03,   20.7898E-03
C:/temp/dataset/9/31_7.odb,Step-1,Increment      1: Step Time =    1.000,"PART-1-1",           569,       13.9641,      -5.13900,            0.,NA,NA,"",       1.31827,      -1.28298,   302.982E-03,   15.2489E-03
C:/temp/dataset/9/31_7.odb,Step-1,Increment      1: Step Time =    1.000,"PART-1-1",           570,       11.1649,      -16.2543,            0.,NA,NA,"",   349.259E-03,  -348.649E-03,   20.6436E-03,   2.59893E-03
C:/temp/dataset/9/31_7.odb,Step-1,Increment      1: Step Time =    1.000,"PART-1-1",           571,       9.14831,      -16.2933,            0.,NA,NA,"",   357.449E-03,  -345.235E-03,  -92.6410E-03,   7.41763E-03
C:/temp/dataset/9/31_7.odb,Step-1,Increment      1: Step Time =    1.000,"PART-1-1",           572,            5.,        -8.125,            0.,NA,NA,"",       1.10108,  -952.667E-03,  -552.096E-03,   30.1538E-03
C:/temp/dataset/9/31_7.odb,Step-1,Increment      1: Step Time =    1.000,"PART-1-1",           573,       12.8519,      -3.99254,            0.,NA,NA,"",       1.41277,      -1.39991,   190.154E-03,   10.4709E-03
C:/temp/dataset/9/31_7.odb,Step-1,Increment      1: Step Time =    1.000,"PART-1-1",           574,           15.,         -3.75,            0.,NA,NA,"",       1.51578,      -1.45425,   427.510E-03,   17.4091E-03
C:/temp/dataset/9/31_7.odb,Step-1,Increment      1: Step Time =    1.000,"PART-1-1",           575,       13.8878,      -2.60354,            0.,NA,NA,"",       1.60536,      -1.57553,   308.042E-03,   11.9617E-03
C:/temp/dataset/9/31_7.odb,Step-1,Increment      1: Step Time =    1.000,"PART-1-1",           576,       13.0423,      -8.97351,            0.,NA,NA,"",   906.192E-03,  -887.085E-03,   185.105E-03,   12.2146E-03
C:/temp/dataset/9/31_7.odb,Step-1,Increment      1: Step Time =    1.000,"PART-1-1",           577,           15.,         -8.75,            0.,NA,NA,"",   998.372E-03,  -930.529E-03,   361.750E-03,   22.1764E-03
C:/temp/dataset/9/31_7.odb,Step-1,Increment      1: Step Time =    1.000,"PART-1-1",           578,       8.09346,      -21.6433,            0.,NA,NA,"",   148.063E-03,  -119.366E-03,  -87.6037E-03,   12.1873E-03
C:/temp/dataset/9/31_7.odb,Step-1,Increment      1: Step Time =    1.000,"PART-1-1",           579,       8.17438,      -23.6967,            0.,NA,NA,"",   88.9536E-03,  -63.3325E-03,  -62.4640E-03,   11.7431E-03
C:/temp/dataset/9/31_7.odb,Step-1,Increment      1: Step Time =    1.000,"PART-1-1",           580,       8.10077,      -19.5616,            0.,NA,NA,"",   223.547E-03,  -193.752E-03,  -111.506E-03,   12.2831E-03
C:/temp/dataset/9/31_7.odb,Step-1,Increment      1: Step Time =    1.000,"PART-1-1",           581,       8.11824,      -17.4194,            0.,NA,NA,"",   320.195E-03,  -289.630E-03,  -136.525E-03,   12.3475E-03
C:/temp/dataset/9/31_7.odb,Step-1,Increment      1: Step Time =    1.000,"PART-1-1",           582,          -15.,       22.3438,            0.,NA,NA,"",       5.85897,      -4.57727,      -3.65734,   746.676E-06
C:/temp/dataset/9/31_7.odb,Step-1,Increment      1: Step Time =    1.000,"PART-1-1",           583,      -12.5647,       21.7347,            0.,NA,NA,"",       5.61521,      -4.51796,      -3.33446,   398.096E-06
C:/temp/dataset/9/31_7.odb,Step-1,Increment      1: Step Time =    1.000,"PART-1-1",           584,      -4.95050,       22.5220,            0.,NA,NA,"",       5.23896,      -4.68402,      -2.34663,   756.895E-06
C:/temp/dataset/9/31_7.odb,Step-1,Increment      1: Step Time =    1.000,"PART-1-1",           585,      -3.93081,       23.1260,            0.,NA,NA,"",       5.26188,      -4.77217,      -2.21670,   714.730E-06
C:/temp/dataset/9/31_7.odb,Step-1,Increment      1: Step Time =    1.000,"PART-1-1",           586,      -4.22857,       24.4244,            0.,NA,NA,"",       5.43611,      -4.94075,      -2.26721,   430.651E-06
C:/temp/dataset/9/31_7.odb,Step-1,Increment      1: Step Time =    1.000,"PART-1-1",           587,      -5.24826,       23.8204,            0.,NA,NA,"",       5.41192,      -4.85228,      -2.39671,   472.723E-06
C:/temp/dataset/9/31_7.odb,Step-1,Increment      1: Step Time =    1.000,"PART-1-1",           588,      -10.1110,       10.4874,            0.,NA,NA,"",       4.25052,      -3.08743,      -2.92141,   776.637E-06
C:/temp/dataset/9/31_7.odb,Step-1,Increment      1: Step Time =    1.000,"PART-1-1",           589,      -9.15687,       11.6944,            0.,NA,NA,"",       4.29527,      -3.25067,      -2.80757,   742.557E-06
C:/temp/dataset/9/31_7.odb,Step-1,Increment      1: Step Time =    1.000,"PART-1-1",           590,      -11.1597,       11.6149,            0.,NA,NA,"",       4.44908,      -3.22342,      -3.06658,   809.283E-06
C:/temp/dataset/9/31_7.odb,Step-1,Increment      1: Step Time =    1.000,"PART-1-1",           591,      -6.07359,       12.6401,            0.,NA,NA,"",       4.16993,      -3.39829,      -2.41659,   305.431E-06
C:/temp/dataset/9/31_7.odb,Step-1,Increment      1: Step Time =    1.000,"PART-1-1",           592,      -7.11512,       11.5321,            0.,NA,NA,"",       4.12371,      -3.24704,      -2.54199,   449.999E-06
C:/temp/dataset/9/31_7.odb,Step-1,Increment      1: Step Time =    1.000,"PART-1-1",           593,           -5.,         11.25,            0.,NA,NA,"",       3.94482,      -3.22844,      -2.26689,   42.9220E-06
C:/temp/dataset/9/31_7.odb,Step-1,Increment      1: Step Time =    1.000,"PART-1-1",           594,      -10.0988,       8.37440,            0.,NA,NA,"",       4.04388,      -2.81570,      -2.90256,   808.115E-06
C:/temp/dataset/9/31_7.odb,Step-1,Increment      1: Step Time =    1.000,"PART-1-1",           595,      -9.11481,       9.38066,            0.,NA,NA,"",       4.05822,      -2.95357,      -2.78308,   756.418E-06
C:/temp/dataset/9/31_7.odb,Step-1,Increment      1: Step Time =    1.000,"PART-1-1",           596,      -11.0949,       9.48111,            0.,NA,NA,"",       4.23645,      -2.94960,      -3.04095,   841.942E-06
C:/temp/dataset/9/31_7.odb,Step-1,Increment      1: Step Time =    1.000,"PART-1-1",           597,      -11.8142,       15.6555,            0.,NA,NA,"",       4.91003,      -3.73732,      -3.18447,   638.214E-06
C:/temp/dataset/9/31_7.odb,Step-1,Increment      1: Step Time =    1.000,"PART-1-1",           598,      -13.4062,       15.6218,            0.,NA,NA,"",       5.03299,      -3.71966,      -3.39044,   422.231E-06
C:/temp/dataset/9/31_7.odb,Step-1,Increment      1: Step Time =    1.000,"PART-1-1",           599,      -12.4316,       14.7766,            0.,NA,NA,"",       4.86896,      -3.61904,      -3.25719,   578.153E-06
C:/temp/dataset/9/31_7.odb,Step-1,Increment      1: Step Time =    1.000,"PART-1-1",           600,      -5.72199,       20.2132,            0.,NA,NA,"",       5.00413,      -4.37498,      -2.42917,   1.89829E-03
C:/temp/dataset/9/31_7.odb,Step-1,Increment      1: Step Time =    1.000,"PART-1-1",           601,           -5.,         18.75,            0.,NA,NA,"",       4.79510,      -4.19370,      -2.32505,   2.01670E-03
C:/temp/dataset/9/31_7.odb,Step-1,Increment      1: Step Time =    1.000,"PART-1-1",           602,          -15.,       15.7813,            0.,NA,NA,"",       5.18017,      -3.72703,      -3.59770,   363.565E-06
C:/temp/dataset/9/31_7.odb,Step-1,Increment      1: Step Time =    1.000,"PART-1-1",           603,      -10.4105,       16.7429,            0.,NA,NA,"",       4.91868,      -3.88914,      -3.01132,   686.289E-06
C:/temp/dataset/9/31_7.odb,Step-1,Increment      1: Step Time =    1.000,"PART-1-1",           604,      -12.1928,       12.6381,            0.,NA,NA,"",       4.63600,      -3.34612,      -3.20874,   680.170E-06
C:/temp/dataset/9/31_7.odb,Step-1,Increment      1: Step Time =    1.000,"PART-1-1",           605,      -12.0987,       10.4443,            0.,NA,NA,"",       4.41576,      -3.06489,      -3.17890,   770.192E-06
C:/temp/dataset/9/31_7.odb,Step-1,Increment      1: Step Time =    1.000,"PART-1-1",           606,      -7.50325,       4.80693,            0.,NA,NA,"",       3.47633,      -2.37843,      -2.53534,   1.36179E-03
C:/temp/dataset/9/31_7.odb,Step-1,Increment      1: Step Time =    1.000,"PART-1-1",           607,      -9.63824,       5.46172,            0.,NA,NA,"",       3.73064,      -2.44366,      -2.81890,   804.303E-06
C:/temp/dataset/9/31_7.odb,Step-1,Increment      1: Step Time =    1.000,"PART-1-1",           608,      -8.81234,       4.25317,            0.,NA,NA,"",       3.54417,      -2.29427,      -2.70138,   1.06340E-03
C:/temp/dataset/9/31_7.odb,Step-1,Increment      1: Step Time =    1.000,"PART-1-1",           609,          -15.,      -1.71875,            0.,NA,NA,"",       3.75479,      -1.44951,      -3.46373,   489.040E-06
C:/temp/dataset/9/31_7.odb,Step-1,Increment      1: Step Time =    1.000,"PART-1-1",           610,      -12.5835,      -1.75493,            0.,NA,NA,"",       3.46990,      -1.46617,      -3.14493,   920.131E-06
C:/temp/dataset/9/31_7.odb,Step-1,Increment      1: Step Time =    1.000,"PART-1-1",           611,        -11.25,           -5.,            0.,NA,NA,"",       3.12187,      -1.04775,      -2.94080,   697.893E-06
C:/temp/dataset/9/31_7.odb,Step-1,Increment      1: Step Time =    1.000,"PART-1-1",           612,      -10.0144,      -3.91217,            0.,NA,NA,"",       3.03580,      -1.20133,      -2.78799,   1.05776E-03
C:/temp/dataset/9/31_7.odb,Step-1,Increment      1: Step Time =    1.000,"PART-1-1",           613,      -11.2827,      -2.82422,            0.,NA,NA,"",       3.25153,      -1.33534,      -2.96467,   1.02192E-03
C:/temp/dataset/9/31_7.odb,Step-1,Increment      1: Step Time =    1.000,"PART-1-1",           614,         -8.75,           -5.,            0.,NA,NA,"",       2.82047,      -1.06697,      -2.61087,   1.70559E-03
C:/temp/dataset/9/31_7.odb,Step-1,Increment      1: Step Time =    1.000,"PART-1-1",           615,      -7.54904,      -4.01671,            0.,NA,NA,"",       2.74080,      -1.20635,      -2.46103,   1.71309E-03
C:/temp/dataset/9/31_7.odb,Step-1,Increment      1: Step Time =    1.000,"PART-1-1",           616,      -8.81345,      -2.92887,            0.,NA,NA,"",       2.96029,      -1.34168,      -2.63879,   1.30089E-03
C:/temp/dataset/9/31_7.odb,Step-1,Increment      1: Step Time =    1.000,"PART-1-1",           617,  -969.738E-03,       22.2544,            0.,NA,NA,"",       5.02107,      -4.68157,      -1.81495,   967.963E-06
C:/temp/dataset/9/31_7.odb,Step-1,Increment      1: Step Time =    1.000,"PART-1-1",           618,      -2.31964,       21.1016,            0.,NA,NA,"",       4.93466,      -4.51806,      -1.98443,   1.25834E-03
C:/temp/dataset/9/31_7.odb,Step-1,Increment      1: Step Time =    1.000,"PART-1-1",           619,         -1.25,           20.,            0.,NA,NA,"",       4.74723,      -4.37982,      -1.83121,   1.37905E-03
C:/temp/dataset/9/31_7.odb,Step-1,Increment      1: Step Time =    1.000,"PART-1-1",           620,         -1.25,           30.,            0.,NA,NA,"",       6.01972,      -5.70525,      -1.92020,   745.708E-06
C:/temp/dataset/9/31_7.odb,Step-1,Increment      1: Step Time =    1.000,"PART-1-1",           621,      -1.44357,       27.1449,            0.,NA,NA,"",       5.66090,      -5.32486,      -1.92136,   425.238E-06
C:/temp/dataset/9/31_7.odb,Step-1,Increment      1: Step Time =    1.000,"PART-1-1",           622,      -4.58492,       21.1383,            0.,NA,NA,"",       5.05240,      -4.50518,      -2.28694,   1.78940E-03
C:/temp/dataset/9/31_7.odb,Step-1,Increment      1: Step Time =    1.000,"PART-1-1",           623,         -3.75,           20.,            0.,NA,NA,"",       4.86903,      -4.36135,      -2.16473,   2.36698E-03
C:/temp/dataset/9/31_7.odb,Step-1,Increment      1: Step Time =    1.000,"PART-1-1",           624,      -3.15456,       22.2398,            0.,NA,NA,"",       5.11554,      -4.66190,      -2.10607,   931.319E-06
C:/temp/dataset/9/31_7.odb,Step-1,Increment      1: Step Time =    1.000,"PART-1-1",           625,      -11.2479,       22.4027,            0.,NA,NA,"",       5.59904,      -4.61600,      -3.16887,   408.754E-06
C:/temp/dataset/9/31_7.odb,Step-1,Increment      1: Step Time =    1.000,"PART-1-1",           626,      -10.3888,       20.8027,            0.,NA,NA,"",       5.36170,      -4.41452,      -3.04299,   357.742E-06
C:/temp/dataset/9/31_7.odb,Step-1,Increment      1: Step Time =    1.000,"PART-1-1",           627,       9.41561,      -24.6142,            0.,NA,NA,"",   47.6211E-03,  -39.4925E-03,  -26.6103E-03,   6.07035E-03
C:/temp/dataset/9/31_7.odb,Step-1,Increment      1: Step Time =    1.000,"PART-1-1",           628,           15.,        -16.25,            0.,NA,NA,"",   442.470E-03,  -375.479E-03,   234.083E-03,   21.2950E-03
C:/temp/dataset/9/31_7.odb,Step-1,Increment      1: Step Time =    1.000,"PART-1-1",           629,       13.1096,      -16.2411,            0.,NA,NA,"",   381.669E-03,  -358.984E-03,   129.623E-03,   12.0247E-03
C:/temp/dataset/9/31_7.odb,Step-1,Increment      1: Step Time =    1.000,"PART-1-1",           630,           15.,          3.75,            0.,NA,NA,"",       2.43007,      -2.38994,   439.810E-03,   4.82593E-03
C:/temp/dataset/9/31_7.odb,Step-1,Increment      1: Step Time =    1.000,"PART-1-1",           631,       14.0093,       5.06690,            0.,NA,NA,"",       2.56838,      -2.54994,   307.221E-03,   3.12421E-03
C:/temp/dataset/9/31_7.odb,Step-1,Increment      1: Step Time =    1.000,"PART-1-1",           632,       12.9168,       3.88721,            0.,NA,NA,"",       2.39416,      -2.38766,   176.249E-03,   3.80244E-03
C:/temp/dataset/9/31_7.odb,Step-1,Increment      1: Step Time =    1.000,"PART-1-1",           633,       12.6026,       11.0965,            0.,NA,NA,"",       3.31968,      -3.31855,   86.5889E-03,   1.33474E-03
C:/temp/dataset/9/31_7.odb,Step-1,Increment      1: Step Time =    1.000,"PART-1-1",           634,           15.,         11.25,            0.,NA,NA,"",       3.38420,      -3.36084,   396.975E-03,   2.31100E-03
C:/temp/dataset/9/31_7.odb,Step-1,Increment      1: Step Time =    1.000,"PART-1-1",           635,       12.4669,       18.7361,            0.,NA,NA,"",       4.32565,      -4.32565,   7.93685E-03,   793.457E-06
C:/temp/dataset/9/31_7.odb,Step-1,Increment      1: Step Time =    1.000,"PART-1-1",           636,           15.,         18.75,            0.,NA,NA,"",       4.36427,      -4.35074,   343.384E-03,   1.11712E-03
C:/temp/dataset/9/31_7.odb,Step-1,Increment      1: Step Time =    1.000,"PART-1-1",           637,           15.,         26.25,            0.,NA,NA,"",       5.35864,      -5.35134,   279.774E-03,   102.353E-06
C:/temp/dataset/9/31_7.odb,Step-1,Increment      1: Step Time =    1.000,"PART-1-1",           638,          8.75,           30.,            0.,NA,NA,"",       5.82574,      -5.79610,  -586.891E-03,   145.884E-06
C:/temp/dataset/9/31_7.odb,Step-1,Increment      1: Step Time =    1.000,"PART-1-1",           639,       8.74802,       27.8391,            0.,NA,NA,"",       5.53711,      -5.50793,  -567.690E-03,   155.230E-06
C:/temp/dataset/9/31_7.odb,Step-1,Increment      1: Step Time =    1.000,"PART-1-1",           640,       11.0691,       22.4572,            0.,NA,NA,"",       4.81436,      -4.80978,  -209.865E-03,   543.006E-06
C:/temp/dataset/9/31_7.odb,Step-1,Increment      1: Step Time =    1.000,"PART-1-1",           641,       11.1947,       19.9658,            0.,NA,NA,"",       4.48151,      -4.47825,  -170.941E-03,   705.983E-06
C:/temp/dataset/9/31_7.odb,Step-1,Increment      1: Step Time =    1.000,"PART-1-1",           642,          3.75,           30.,            0.,NA,NA,"",       5.88694,      -5.75180,      -1.25415,   118.297E-06
C:/temp/dataset/9/31_7.odb,Step-1,Increment      1: Step Time =    1.000,"PART-1-1",           643,       6.12801,       21.9878,            0.,NA,NA,"",       4.78374,      -4.70530,  -862.762E-03,   1.00251E-03
C:/temp/dataset/9/31_7.odb,Step-1,Increment      1: Step Time =    1.000,"PART-1-1",           644,       7.06684,       23.0702,            0.,NA,NA,"",       4.91473,      -4.85750,  -747.827E-03,   771.264E-06
C:/temp/dataset/9/31_7.odb,Step-1,Increment      1: Step Time =    1.000,"PART-1-1",           645,       4.97038,       22.7185,            0.,NA,NA,"",       4.90141,      -4.79309,      -1.02473,   874.878E-06
C:/temp/dataset/9/31_7.odb,Step-1,Increment      1: Step Time =    1.000,"PART-1-1",           646,          3.75,           20.,            0.,NA,NA,"",       4.57022,      -4.41979,      -1.16290,   884.016E-06
C:/temp/dataset/9/31_7.odb,Step-1,Increment      1: Step Time =    1.000,"PART-1-1",           647,       4.96897,       20.9583,            0.,NA,NA,"",       4.66851,      -4.55842,      -1.00789,   1.13198E-03
C:/temp/dataset/9/31_7.odb,Step-1,Increment      1: Step Time =    1.000,"PART-1-1",           648,       3.78616,       22.0655,            0.,NA,NA,"",       4.84146,      -4.69615,      -1.17726,   804.564E-06
C:/temp/dataset/9/31_7.odb,Step-1,Increment      1: Step Time =    1.000,"PART-1-1",           649,           -5.,         13.75,            0.,NA,NA,"",       4.22317,      -3.55017,      -2.28724,   354.840E-06
C:/temp/dataset/9/31_7.odb,Step-1,Increment      1: Step Time =    1.000,"PART-1-1",           650,      -7.15256,       14.0792,            0.,NA,NA,"",       4.40078,      -3.57421,      -2.56747,   600.719E-06
C:/temp/dataset/9/31_7.odb,Step-1,Increment      1: Step Time =    1.000,"PART-1-1",           651,      -9.70164,       19.1500,            0.,NA,NA,"",       5.13102,      -4.20570,      -2.93930,   602.718E-06
C:/temp/dataset/9/31_7.odb,Step-1,Increment      1: Step Time =    1.000,"PART-1-1",           652,      -9.13060,       21.5024,            0.,NA,NA,"",       5.35889,      -4.51593,      -2.88515,   469.937E-06
C:/temp/dataset/9/31_7.odb,Step-1,Increment      1: Step Time =    1.000,"PART-1-1",           653,         -1.25,           -5.,            0.,NA,NA,"",       1.94678,      -1.12061,      -1.59192,   1.04703E-03
C:/temp/dataset/9/31_7.odb,Step-1,Increment      1: Step Time =    1.000,"PART-1-1",           654,      -1.47244,      -2.77860,            0.,NA,NA,"",       2.17554,      -1.42398,      -1.64477,   3.38282E-03
C:/temp/dataset/9/31_7.odb,Step-1,Increment      1: Step Time =    1.000,"PART-1-1",           655,      -9.96758,      -1.61086,            0.,NA,NA,"",       3.18262,      -1.50786,      -2.80275,   1.27878E-03
C:/temp/dataset/9/31_7.odb,Step-1,Increment      1: Step Time =    1.000,"PART-1-1",           656,      -6.37223,      -3.07632,            0.,NA,NA,"",       2.67398,      -1.34130,      -2.31323,   1.23416E-03
C:/temp/dataset/9/31_7.odb,Step-1,Increment      1: Step Time =    1.000,"PART-1-1",           657,         -6.25,           -5.,            0.,NA,NA,"",       2.52260,      -1.08417,      -2.27773,   2.57097E-03
C:/temp/dataset/9/31_7.odb,Step-1,Increment      1: Step Time =    1.000,"PART-1-1",           658,         -3.75,            5.,            0.,NA,NA,"",       3.19081,      -2.44151,      -2.05433,   6.50741E-03
C:/temp/dataset/9/31_7.odb,Step-1,Increment      1: Step Time =    1.000,"PART-1-1",           659,      -5.11170,       4.23117,            0.,NA,NA,"",       3.21774,      -2.32762,      -2.22172,   3.83484E-03
C:/temp/dataset/9/31_7.odb,Step-1,Increment      1: Step Time =    1.000,"PART-1-1",           660,      -3.95473,       3.29190,            0.,NA,NA,"",       3.02252,      -2.21308,      -2.05862,   4.84286E-03
C:/temp/dataset/9/31_7.odb,Step-1,Increment      1: Step Time =    1.000,"PART-1-1",           661,          3.75,           -5.,            0.,NA,NA,"",       1.47404,      -1.18692,  -874.082E-03,   16.6462E-03
C:/temp/dataset/9/31_7.odb,Step-1,Increment      1: Step Time =    1.000,"PART-1-1",           662,       4.69008,      -3.66648,            0.,NA,NA,"",       1.57069,      -1.38471,  -741.373E-03,   20.6858E-03
C:/temp/dataset/9/31_7.odb,Step-1,Increment      1: Step Time =    1.000,"PART-1-1",           663,       4.69636,       3.71818,            0.,NA,NA,"",       2.47948,      -2.32902,  -850.584E-03,   6.49693E-03
C:/temp/dataset/9/31_7.odb,Step-1,Increment      1: Step Time =    1.000,"PART-1-1",           664,          3.75,            5.,            0.,NA,NA,"",       2.68306,      -2.49315,  -991.454E-03,   10.1605E-03
C:/temp/dataset/9/31_7.odb,Step-1,Increment      1: Step Time =    1.000,"PART-1-1",           665,       8.42013,       25.7200,            0.,NA,NA,"",       5.25591,      -5.22245,  -592.124E-03,   325.872E-06
C:/temp/dataset/9/31_7.odb,Step-1,Increment      1: Step Time =    1.000,"PART-1-1",           666,       7.55622,       27.1849,            0.,NA,NA,"",       5.45805,      -5.41025,  -720.711E-03,   240.639E-06
C:/temp/dataset/9/31_7.odb,Step-1,Increment      1: Step Time =    1.000,"PART-1-1",           667,       6.61388,       26.0906,            0.,NA,NA,"",       5.32235,      -5.25621,  -836.497E-03,   369.713E-06
C:/temp/dataset/9/31_7.odb,Step-1,Increment      1: Step Time =    1.000,"PART-1-1",           668,       10.0237,       13.5556,            0.,NA,NA,"",       3.62806,      -3.61811,  -268.471E-03,   783.805E-06
C:/temp/dataset/9/31_7.odb,Step-1,Increment      1: Step Time =    1.000,"PART-1-1",           669,       8.80148,       12.2659,            0.,NA,NA,"",       3.46380,      -3.43875,  -415.855E-03,   1.02720E-03
C:/temp/dataset/9/31_7.odb,Step-1,Increment      1: Step Time =    1.000,"PART-1-1",           670,            5.,          6.25,            0.,NA,NA,"",       2.76963,      -2.63892,  -840.824E-03,   4.45316E-03
C:/temp/dataset/9/31_7.odb,Step-1,Increment      1: Step Time =    1.000,"PART-1-1",           671,       5.87545,       4.76801,            0.,NA,NA,"",       2.56513,      -2.46358,  -714.602E-03,   7.26811E-03
C:/temp/dataset/9/31_7.odb,Step-1,Increment      1: Step Time =    1.000,"PART-1-1",           672,       6.93940,       5.78737,            0.,NA,NA,"",       2.66015,      -2.59353,  -591.611E-03,   4.17307E-03
C:/temp/dataset/9/31_7.odb,Step-1,Increment      1: Step Time =    1.000,"PART-1-1",           673,       7.73520,       4.18036,            0.,NA,NA,"",       2.44034,      -2.39431,  -471.737E-03,   5.98771E-03
C:/temp/dataset/9/31_7.odb,Step-1,Increment      1: Step Time =    1.000,"PART-1-1",           674,       6.49581,       3.34316,            0.,NA,NA,"",       2.36635,      -2.28458,  -616.692E-03,   7.74800E-03
C:/temp/dataset/9/31_7.odb,Step-1,Increment      1: Step Time =    1.000,"PART-1-1",           675,       7.18979,       1.82766,            0.,NA,NA,"",       2.15283,      -2.09186,  -508.754E-03,   7.64073E-03
C:/temp/dataset/9/31_7.odb,Step-1,Increment      1: Step Time =    1.000,"PART-1-1",           676,       8.42918,       2.66485,            0.,NA,NA,"",       2.23331,      -2.20306,  -366.350E-03,   6.78355E-03
C:/temp/dataset/9/31_7.odb,Step-1,Increment      1: Step Time =    1.000,"PART-1-1",           677,  -530.051E-03,       1.39108,            0.,NA,NA,"",       2.52281,      -1.98686,      -1.55466,   8.02517E-03
C:/temp/dataset/9/31_7.odb,Step-1,Increment      1: Step Time =    1.000,"PART-1-1",           678,      -10.1792,       3.73358,            0.,NA,NA,"",       3.62891,      -2.21360,      -2.87557,   851.823E-06
C:/temp/dataset/9/31_7.odb,Step-1,Increment      1: Step Time =    1.000,"PART-1-1",           679,      -9.26781,       2.30942,            0.,NA,NA,"",       3.41706,      -2.03503,      -2.74499,   1.15795E-03
C:/temp/dataset/9/31_7.odb,Step-1,Increment      1: Step Time =    1.000,"PART-1-1",           680,      -7.90097,       2.82902,            0.,NA,NA,"",       3.32992,      -2.11645,      -2.57080,   1.38843E-03
C:/temp/dataset/9/31_7.odb,Step-1,Increment      1: Step Time =    1.000,"PART-1-1",           681,      -2.90861,       2.25641,            0.,NA,NA,"",       2.82081,      -2.08286,      -1.90228,   6.03477E-03
C:/temp/dataset/9/31_7.odb,Step-1,Increment      1: Step Time =    1.000,"PART-1-1",           682,      -1.97153,   737.020E-03,            0.,NA,NA,"",       2.57580,      -1.88843,      -1.75174,   6.04467E-03
C:/temp/dataset/9/31_7.odb,Step-1,Increment      1: Step Time =    1.000,"PART-1-1",           683,      -12.0057,       8.33468,            0.,NA,NA,"",       4.21066,      -2.79403,      -3.15009,   853.227E-06
C:/temp/dataset/9/31_7.odb,Step-1,Increment      1: Step Time =    1.000,"PART-1-1",           684,   257.111E-03,       23.5381,            0.,NA,NA,"",       5.13855,      -4.86204,      -1.66291,   715.226E-06
C:/temp/dataset/9/31_7.odb,Step-1,Increment      1: Step Time =    1.000,"PART-1-1",           685,       2.92443,       23.5127,            0.,NA,NA,"",       5.05316,      -4.88144,      -1.30613,   693.960E-06
C:/temp/dataset/9/31_7.odb,Step-1,Increment      1: Step Time =    1.000,"PART-1-1",           686,  -872.814E-03,       24.6452,            0.,NA,NA,"",       5.32127,      -4.99907,      -1.82352,   627.503E-06
C:/temp/dataset/9/31_7.odb,Step-1,Increment      1: Step Time =    1.000,"PART-1-1",           687,      -2.49287,       25.7554,            0.,NA,NA,"",       5.52553,      -5.13170,      -2.04870,   411.123E-06
C:/temp/dataset/9/31_7.odb,Step-1,Increment      1: Step Time =    1.000,"PART-1-1",           688,      -6.57000,       23.0679,            0.,NA,NA,"",       5.39080,      -4.74195,      -2.56411,   546.632E-06
C:/temp/dataset/9/31_7.odb,Step-1,Increment      1: Step Time =    1.000,"PART-1-1",           689,      -7.77911,       22.2181,            0.,NA,NA,"",       5.35908,      -4.62044,      -2.71501,   502.616E-06
C:/temp/dataset/9/31_7.odb,Step-1,Increment      1: Step Time =    1.000,"PART-1-1",           690,      -6.08757,       21.5970,            0.,NA,NA,"",       5.18870,      -4.55297,      -2.48860,   856.191E-06
C:/temp/dataset/9/31_7.odb,Step-1,Increment      1: Step Time =    1.000,"PART-1-1",           691,      -10.6596,       24.7502,            0.,NA,NA,"",       5.82893,      -4.92820,      -3.11276,   501.230E-06
C:/temp/dataset/9/31_7.odb,Step-1,Increment      1: Step Time =    1.000,"PART-1-1",           692,      -8.94190,       25.0911,            0.,NA,NA,"",       5.76515,      -4.98757,      -2.89157,   495.903E-06
C:/temp/dataset/9/31_7.odb,Step-1,Increment      1: Step Time =    1.000,"PART-1-1",           693,      -9.30563,       26.3338,            0.,NA,NA,"",       5.93294,      -5.14769,      -2.94976,   506.178E-06
C:/temp/dataset/9/31_7.odb,Step-1,Increment      1: Step Time =    1.000,"PART-1-1",           694,      -11.0233,       25.9928,            0.,NA,NA,"",       5.99537,      -5.08813,      -3.17102,   493.251E-06
C:/temp/dataset/9/31_7.odb,Step-1,Increment      1: Step Time =    1.000,"PART-1-1",           695,      -9.11986,       17.2561,            0.,NA,NA,"",       4.88264,      -3.96610,      -2.84785,   824.273E-06
C:/temp/dataset/9/31_7.odb,Step-1,Increment      1: Step Time =    1.000,"PART-1-1",           696,      -11.0116,       7.65423,            0.,NA,NA,"",       4.05755,      -2.71494,      -3.01543,   837.984E-06
C:/temp/dataset/9/31_7.odb,Step-1,Increment      1: Step Time =    1.000,"PART-1-1",           697,      -11.6541,       6.30856,            0.,NA,NA,"",       3.99572,      -2.53528,      -3.08838,   837.984E-06
C:/temp/dataset/9/31_7.odb,Step-1,Increment      1: Step Time =    1.000,"PART-1-1",           698,      -3.46647,   792.949E-03,            0.,NA,NA,"",       2.71877,      -1.88378,      -1.96039,   4.12693E-03
C:/temp/dataset/9/31_7.odb,Step-1,Increment      1: Step Time =    1.000,"PART-1-1",           699,      -4.27899,       1.61468,            0.,NA,NA,"",       2.87725,      -1.98699,      -2.08097,   3.45152E-03
C:/temp/dataset/9/31_7.odb,Step-1,Increment      1: Step Time =    1.000,"PART-1-1",           700,      -5.41602,       1.03976,            0.,NA,NA,"",       2.92798,      -1.90102,      -2.22693,   2.07470E-03
C:/temp/dataset/9/31_7.odb,Step-1,Increment      1: Step Time =    1.000,"PART-1-1",           701,      -4.60351,   218.037E-03,            0.,NA,NA,"",       2.77114,      -1.79784,      -2.10879,   2.42402E-03
C:/temp/dataset/9/31_7.odb,Step-1,Increment      1: Step Time =    1.000,"PART-1-1",           702,      -1.96165,  -510.209E-03,            0.,NA,NA,"",       2.44618,      -1.72313,      -1.73627,   5.16973E-03
C:/temp/dataset/9/31_7.odb,Step-1,Increment      1: Step Time =    1.000,"PART-1-1",           703,      -2.89723,      -2.02996,            0.,NA,NA,"",       2.38967,      -1.51133,      -1.85105,   2.65232E-03
C:/temp/dataset/9/31_7.odb,Step-1,Increment      1: Step Time =    1.000,"PART-1-1",           704,       6.46823,      -3.22891,            0.,NA,NA,"",       1.53598,      -1.44647,  -516.658E-03,   12.8230E-03
C:/temp/dataset/9/31_7.odb,Step-1,Increment      1: Step Time =    1.000,"PART-1-1",           705,       5.30305,      -2.18626,            0.,NA,NA,"",       1.71688,      -1.57352,  -686.818E-03,   12.1481E-03
C:/temp/dataset/9/31_7.odb,Step-1,Increment      1: Step Time =    1.000,"PART-1-1",           706,       8.11637,      -13.0290,            0.,NA,NA,"",   582.035E-03,  -548.867E-03,  -193.674E-03,   12.6628E-03
C:/temp/dataset/9/31_7.odb,Step-1,Increment      1: Step Time =    1.000,"PART-1-1",           707,       8.09759,      -10.8135,            0.,NA,NA,"",   746.961E-03,  -711.786E-03,  -226.520E-03,   12.7564E-03
C:/temp/dataset/9/31_7.odb,Step-1,Increment      1: Step Time =    1.000,"PART-1-1",           708,           15.,        -26.25,            0.,NA,NA,"",   66.8809E-03,  -31.8336E-03,   58.8190E-03,   18.9762E-03
C:/temp/dataset/9/31_7.odb,Step-1,Increment      1: Step Time =    1.000,"PART-1-1",           709,       13.6129,      -24.9005,            0.,NA,NA,"",   70.4855E-03,  -42.6217E-03,   56.1391E-03,   13.2285E-03
C:/temp/dataset/9/31_7.odb,Step-1,Increment      1: Step Time =    1.000,"PART-1-1",           710,       12.3352,      -26.1538,            0.,NA,NA,"",   28.8778E-03,  -16.8038E-03,   23.4853E-03,   7.51883E-03
C:/temp/dataset/9/31_7.odb,Step-1,Increment      1: Step Time =    1.000,"PART-1-1",           711,       11.5115,      -24.0900,            0.,NA,NA,"",   53.3056E-03,  -50.0092E-03,   18.4545E-03,   3.81242E-03
C:/temp/dataset/9/31_7.odb,Step-1,Increment      1: Step Time =    1.000,"PART-1-1",           712,       12.5793,      -23.4990,            0.,NA,NA,"",   81.7897E-03,  -66.9232E-03,   47.0195E-03,   8.76502E-03
C:/temp/dataset/9/31_7.odb,Step-1,Increment      1: Step Time =    1.000,"PART-1-1",           713,       11.9958,      -21.9645,            0.,NA,NA,"",   114.003E-03,  -106.684E-03,   40.1902E-03,   6.15510E-03
C:/temp/dataset/9/31_7.odb,Step-1,Increment      1: Step Time =    1.000,"PART-1-1",           714,           15.,        -23.75,            0.,NA,NA,"",   127.717E-03,  -77.1109E-03,   101.812E-03,   19.6984E-03
C:/temp/dataset/9/31_7.odb,Step-1,Increment      1: Step Time =    1.000,"PART-1-1",           715,       11.0775,      -9.24199,            0.,NA,NA,"",   847.912E-03,  -847.828E-03,   11.9396E-03,   3.08730E-03
C:/temp/dataset/9/31_7.odb,Step-1,Increment      1: Step Time =    1.000,"PART-1-1",           716,       10.0590,      -8.23408,            0.,NA,NA,"",   936.806E-03,  -933.140E-03,  -82.7993E-03,   2.19501E-03
C:/temp/dataset/9/31_7.odb,Step-1,Increment      1: Step Time =    1.000,"PART-1-1",           717,       9.08966,      -9.54059,            0.,NA,NA,"",   830.287E-03,  -814.868E-03,  -159.272E-03,   7.17818E-03
C:/temp/dataset/9/31_7.odb,Step-1,Increment      1: Step Time =    1.000,"PART-1-1",           718,           15.,         -1.25,            0.,NA,NA,"",       1.81004,      -1.75484,   443.617E-03,   12.6481E-03
C:/temp/dataset/9/31_7.odb,Step-1,Increment      1: Step Time =    1.000,"PART-1-1",           719,       12.7047,      -1.36075,            0.,NA,NA,"",       1.72411,      -1.71535,   173.522E-03,   8.65872E-03
C:/temp/dataset/9/31_7.odb,Step-1,Increment      1: Step Time =    1.000,"PART-1-1",           720,       10.4122,      -1.52824,            0.,NA,NA,"",       1.67871,      -1.67653,  -85.6354E-03,   7.76864E-03
C:/temp/dataset/9/31_7.odb,Step-1,Increment      1: Step Time =    1.000,"PART-1-1",           721,       11.7321,      -2.88547,            0.,NA,NA,"",       1.52135,      -1.51981,   68.3631E-03,   8.30768E-03
C:/temp/dataset/9/31_7.odb,Step-1,Increment      1: Step Time =    1.000,"PART-1-1",           722,       13.0447,       6.32641,            0.,NA,NA,"",       2.70953,      -2.70374,   176.943E-03,   2.35651E-03
C:/temp/dataset/9/31_7.odb,Step-1,Increment      1: Step Time =    1.000,"PART-1-1",           723,           15.,          6.25,            0.,NA,NA,"",       2.74561,      -2.71214,   427.401E-03,   3.21920E-03
C:/temp/dataset/9/31_7.odb,Step-1,Increment      1: Step Time =    1.000,"PART-1-1",           724,       12.2773,       7.44357,            0.,NA,NA,"",       2.84228,      -2.84139,   71.3949E-03,   1.50826E-03
C:/temp/dataset/9/31_7.odb,Step-1,Increment      1: Step Time =    1.000,"PART-1-1",           725,       11.3989,       9.46443,            0.,NA,NA,"",       3.09606,      -3.09555,  -56.4392E-03,   909.956E-06
C:/temp/dataset/9/31_7.odb,Step-1,Increment      1: Step Time =    1.000,"PART-1-1",           726,       10.0696,       10.6576,            0.,NA,NA,"",       3.24803,      -3.23934,  -237.454E-03,   748.494E-06
C:/temp/dataset/9/31_7.odb,Step-1,Increment      1: Step Time =    1.000,"PART-1-1",           727,       11.2733,       12.2896,            0.,NA,NA,"",       3.46407,      -3.46277,  -95.1781E-03,   824.163E-06
C:/temp/dataset/9/31_7.odb,Step-1,Increment      1: Step Time =    1.000,"PART-1-1",           728,       11.2495,       14.9235,            0.,NA,NA,"",       3.81089,      -3.80900,  -120.104E-03,   775.179E-06
C:/temp/dataset/9/31_7.odb,Step-1,Increment      1: Step Time =    1.000,"PART-1-1",           729,       11.2365,       17.4638,            0.,NA,NA,"",       4.14791,      -4.14543,  -143.503E-03,   761.677E-06
C:/temp/dataset/9/31_7.odb,Step-1,Increment      1: Step Time =    1.000,"PART-1-1",           730,       9.96430,       18.6935,            0.,NA,NA,"",       4.30997,      -4.29791,  -322.137E-03,   827.136E-06
C:/temp/dataset/9/31_7.odb,Step-1,Increment      1: Step Time =    1.000,"PART-1-1",           731,       8.12949,      -15.2371,            0.,NA,NA,"",   439.383E-03,  -407.865E-03,  -163.412E-03,   12.4394E-03
C:/temp/dataset/9/31_7.odb,Step-1,Increment      1: Step Time =    1.000,"PART-1-1",           732,       10.9896,      -6.85237,            0.,NA,NA,"",       1.07220,      -1.07220,  -51.7410E-06,   4.45217E-03
C:/temp/dataset/9/31_7.odb,Step-1,Increment      1: Step Time =    1.000,"PART-1-1",           733,       10.9332,      -25.1906,            0.,NA,NA,"",   28.3245E-03,  -27.9718E-03,   4.45593E-03,   1.36113E-03
C:/temp/dataset/9/31_7.odb,Step-1,Increment      1: Step Time =    1.000,"PART-1-1",           734,       11.9281,      -5.46067,            0.,NA,NA,"",       1.22944,      -1.22599,   92.0129E-03,   8.19722E-03
C:/temp/dataset/9/31_7.odb,Step-1,Increment      1: Step Time =    1.000,"PART-1-1",           735,      -11.5697,       3.18107,            0.,NA,NA,"",       3.72149,      -2.12834,      -3.05281,   937.320E-06
C:/temp/dataset/9/31_7.odb,Step-1,Increment      1: Step Time =    1.000,"PART-1-1",           736,      -10.7341,       2.09613,            0.,NA,NA,"",       3.54777,      -1.99327,      -2.93488,   1.04645E-03
C:/temp/dataset/9/31_7.odb,Step-1,Increment      1: Step Time =    1.000,"PART-1-1",           737,      -6.76822,       1.80268,            0.,NA,NA,"",       3.12882,      -1.99110,      -2.41351,   1.63716E-03
C:/temp/dataset/9/31_7.odb,Step-1,Increment      1: Step Time =    1.000,"PART-1-1",           738,      -5.32511,       2.65016,            0.,NA,NA,"",       3.07639,      -2.11662,      -2.23251,   2.94024E-03
C:/temp/dataset/9/31_7.odb,Step-1,Increment      1: Step Time =    1.000,"PART-1-1",           739,      -6.45786,       3.67650,            0.,NA,NA,"",       3.27705,      -2.24181,      -2.39026,   2.15849E-03
C:/temp/dataset/9/31_7.odb,Step-1,Increment      1: Step Time =    1.000,"PART-1-1",           740,      -10.1618,       27.4009,            0.,NA,NA,"",       6.10834,      -5.28038,      -3.07072,   473.258E-06
C:/temp/dataset/9/31_7.odb,Step-1,Increment      1: Step Time =    1.000,"PART-1-1",           741,      -8.15950,       27.0742,            0.,NA,NA,"",       5.95739,      -5.25504,      -2.80626,   483.118E-06
C:/temp/dataset/9/31_7.odb,Step-1,Increment      1: Step Time =    1.000,"PART-1-1",           742,      -8.41457,       23.7439,            0.,NA,NA,"",       5.57567,      -4.81515,      -2.81111,   501.901E-06
C:/temp/dataset/9/31_7.odb,Step-1,Increment      1: Step Time =    1.000,"PART-1-1",           743,      -9.76606,       23.0282,            0.,NA,NA,"",       5.57429,      -4.71008,      -2.98125,   437.132E-06
C:/temp/dataset/9/31_7.odb,Step-1,Increment      1: Step Time =    1.000,"PART-1-1",           744,      -10.1457,       6.57799,            0.,NA,NA,"",       3.87948,      -2.58358,      -2.89405,   844.060E-06
C:/temp/dataset/9/31_7.odb,Step-1,Increment      1: Step Time =    1.000,"PART-1-1",           745,      -11.1466,       5.19230,            0.,NA,NA,"",       3.84926,      -2.39498,      -3.01345,   821.924E-06
C:/temp/dataset/9/31_7.odb,Step-1,Increment      1: Step Time =    1.000,"PART-1-1",           746,       7.77017,   782.991E-03,            0.,NA,NA,"",       2.00409,      -1.95905,  -422.475E-03,   8.30389E-03
C:/temp/dataset/9/31_7.odb,Step-1,Increment      1: Step Time =    1.000,"PART-1-1",           747,       6.09501,       1.10589,            0.,NA,NA,"",       2.09483,      -1.99582,  -636.431E-03,   7.57774E-03
C:/temp/dataset/9/31_7.odb,Step-1,Increment      1: Step Time =    1.000,"PART-1-1",           748,       6.67539,   61.2235E-03,            0.,NA,NA,"",       1.94209,      -1.86333,  -547.455E-03,   8.25240E-03
C:/temp/dataset/9/31_7.odb,Step-1,Increment      1: Step Time =    1.000,"PART-1-1",           749,       5.31672,       2.29333,            0.,NA,NA,"",       2.27440,      -2.14627,  -752.605E-03,   6.08392E-03
C:/temp/dataset/9/31_7.odb,Step-1,Increment      1: Step Time =    1.000,"PART-1-1",           750,      -6.94695,       24.4689,            0.,NA,NA,"",       5.57921,      -4.92293,      -2.62534,   416.662E-06
C:/temp/dataset/9/31_7.odb,Step-1,Increment      1: Step Time =    1.000,"PART-1-1",           751,      -2.09966,       23.3616,            0.,NA,NA,"",       5.20800,      -4.81878,      -1.97551,   853.422E-06
C:/temp/dataset/9/31_7.odb,Step-1,Increment      1: Step Time =    1.000,"PART-1-1",           752,      -2.87591,       24.2478,            0.,NA,NA,"",       5.35259,      -4.92918,      -2.08648,   570.444E-06
C:/temp/dataset/9/31_7.odb,Step-1,Increment      1: Step Time =    1.000,"PART-1-1",           753,       9.53974,       23.7363,            0.,NA,NA,"",       4.98549,      -4.96736,  -424.763E-03,   525.970E-06
C:/temp/dataset/9/31_7.odb,Step-1,Increment      1: Step Time =    1.000,"PART-1-1",           754,      -5.22075,      -2.25347,            0.,NA,NA,"",       2.61327,      -1.46122,      -2.16657,   1.21307E-03
C:/temp/dataset/9/31_7.odb,Step-1,Increment      1: Step Time =    1.000,"PART-1-1",           755,      -7.55915,      -2.11026,            0.,NA,NA,"",       2.87905,      -1.46129,      -2.48063,   1.27389E-03
C:/temp/dataset/9/31_7.odb,Step-1,Increment      1: Step Time =    1.000,"PART-1-1",           756,      -4.20325,      -1.24540,            0.,NA,NA,"",       2.59481,      -1.60522,      -2.03870,   2.03357E-03
C:/temp/dataset/9/31_7.odb,Step-1,Increment      1: Step Time =    1.000,"PART-1-1",           757,       12.0426,       5.30937,            0.,NA,NA,"",       2.56460,      -2.56397,   57.1121E-03,   2.22543E-03
C:/temp/dataset/9/31_7.odb,Step-1,Increment      1: Step Time =    1.000,"PART-1-1",           758,      -8.17645,       12.8481,            0.,NA,NA,"",       4.34113,      -3.40724,      -2.69000,   633.531E-06
C:/temp/dataset/9/31_7.odb,Step-1,Increment      1: Step Time =    1.000,"PART-1-1",           759,      -8.09554,       10.3784,            0.,NA,NA,"",       4.07709,      -3.09046,      -2.65926,   564.570E-06
C:/temp/dataset/9/31_7.odb,Step-1,Increment      1: Step Time =    1.000,"PART-1-1",           760,      -8.33007,       15.6293,            0.,NA,NA,"",       4.65070,      -3.76348,      -2.73225,   779.329E-06
C:/temp/dataset/9/31_7.odb,Step-1,Increment      1: Step Time =    1.000,"PART-1-1",           761,       12.1122,      -19.7356,            0.,NA,NA,"",   194.100E-03,  -185.866E-03,   55.9338E-03,   6.88010E-03
C:/temp/dataset/9/31_7.odb,Step-1,Increment      1: Step Time =    1.000,"PART-1-1",           762,       12.1388,      -17.4254,            0.,NA,NA,"",   298.638E-03,  -290.478E-03,   69.3336E-03,   7.19721E-03
C:/temp/dataset/9/31_7.odb,Step-1,Increment      1: Step Time =    1.000,"PART-1-1",           763,       12.0361,      -7.90801,            0.,NA,NA,"",   982.075E-03,  -977.079E-03,   98.9288E-03,   7.78602E-03
C:/temp/dataset/9/31_7.odb,Step-1,Increment      1: Step Time =    1.000,"PART-1-1",           764,       12.0837,      -10.3075,            0.,NA,NA,"",   769.250E-03,  -763.191E-03,   96.3547E-03,   7.50296E-03
C:/temp/dataset/9/31_7.odb,Step-1,Increment      1: Step Time =    1.000,"PART-1-1",           765,       12.1118,      -12.6921,            0.,NA,NA,"",   585.696E-03,  -578.777E-03,   89.7596E-03,   7.39323E-03
C:/temp/dataset/9/31_7.odb,Step-1,Increment      1: Step Time =    1.000,"PART-1-1",           766,       12.1357,      -15.0700,            0.,NA,NA,"",   429.018E-03,  -421.329E-03,   80.8625E-03,   7.35033E-03
C:/temp/dataset/9/31_7.odb,Step-1,Increment      1: Step Time =    1.000,"PART-1-1",           767,      -8.71328,  -792.246E-03,            0.,NA,NA,"",       3.10598,      -1.62781,      -2.64525,   1.28880E-03
C:/temp/dataset/9/31_7.odb,Step-1,Increment      1: Step Time =    1.000,"PART-1-1",           768,      -7.47429,       25.8162,            0.,NA,NA,"",       5.76946,      -5.09558,      -2.70586,   425.784E-06
C:/temp/dataset/9/31_7.odb,Step-1,Increment      1: Step Time =    1.000,"PART-1-1",           769,       9.13729,   756.201E-03,            0.,NA,NA,"",       1.97705,      -1.96030,  -256.866E-03,   7.48273E-03
C:/temp/dataset/9/31_7.odb,Step-1,Increment      1: Step Time =    1.000,"PART-1-1",           770,       7.76646,  -679.521E-03,            0.,NA,NA,"",       1.81673,      -1.77166,  -402.120E-03,   9.15383E-03
C:/temp/dataset/9/31_7.odb,Step-1,Increment      1: Step Time =    1.000,"PART-1-1",           771,       9.13358,  -706.311E-03,            0.,NA,NA,"",       1.78949,      -1.77329,  -240.269E-03,   8.46025E-03
C:/temp/dataset/9/31_7.odb,Step-1,Increment      1: Step Time =    1.000,"PART-1-1",           772,       7.17869,      -1.72980,            0.,NA,NA,"",       1.69906,      -1.63645,  -456.981E-03,   10.4928E-03
C:/temp/dataset/9/31_7.odb,Step-1,Increment      1: Step Time =    1.000,"PART-1-1",           773,       6.08762,  -989.051E-03,            0.,NA,NA,"",       1.83032,      -1.72736,  -605.224E-03,   10.0537E-03
C:/temp/dataset/9/31_7.odb,Step-1,Increment      1: Step Time =    1.000,"PART-1-1",           774,       8.06590,       24.5744,            0.,NA,NA,"",       5.10545,      -5.06658,  -628.769E-03,   480.075E-06
C:/temp/dataset/9/31_7.odb,Step-1,Increment      1: Step Time =    1.000,"PART-1-1",           775,       7.69641,      -4.07963,            0.,NA,NA,"",       1.39760,      -1.35022,  -360.809E-03,   9.70207E-03
C:/temp/dataset/9/31_7.odb,Step-1,Increment      1: Step Time =    1.000,"PART-1-1",           776,       8.40687,      -2.58051,            0.,NA,NA,"",       1.56399,      -1.53469,  -301.300E-03,   9.11871E-03
C:/temp/dataset/9/31_7.odb,Step-1,Increment      1: Step Time =    1.000,"PART-1-1",           777,      -9.00797,   684.990E-03,            0.,NA,NA,"",       3.25493,      -1.82211,      -2.69712,   1.33003E-03
C:/temp/dataset/9/31_7.odb,Step-1,Increment      1: Step Time =    1.000,"PART-1-1",           778,       5.05143,   63.4436E-03,            0.,NA,NA,"",       2.00625,      -1.85793,  -757.033E-03,   7.23804E-03
C:/temp/dataset/9/31_7.odb,Step-1,Increment      1: Step Time =    1.000,"PART-1-1",           779,      -3.45659,  -454.281E-03,            0.,NA,NA,"",       2.59465,      -1.71754,      -1.94481,   3.16277E-03
C:/temp/dataset/9/31_7.odb,Step-1,Increment      1: Step Time =    1.000,"PART-1-1",           780,      -7.58605,   993.377E-03,            0.,NA,NA,"",       3.13629,      -1.87599,      -2.51337,   1.35949E-03
