ODB Name,Step,Frame,Part Instance Name,    êﬂì_ÉâÉxÉã,X,Y,Z,Section Name,Material Name,Section Point,   U-Magnitude,          U-U1,          U-U2,       S-Mises
C:/temp/dataset/9/5_6.odb,Step-1,Increment      4: Step Time =    1.000,"PART-1-1",             1,            5.,           20.,            0.,NA,NA,"",       22.6816,      -20.8835,      -8.85054,   22.3909E-03
C:/temp/dataset/9/5_6.odb,Step-1,Increment      4: Step Time =    1.000,"PART-1-1",             2,            0.,           20.,            0.,NA,NA,"",       23.2136,      -20.0190,      -11.7521,   5.18182E-03
C:/temp/dataset/9/5_6.odb,Step-1,Increment      4: Step Time =    1.000,"PART-1-1",             3,            5.,          12.5,            0.,NA,NA,"",       17.9161,      -16.3486,      -7.32877,   10.0209E-03
C:/temp/dataset/9/5_6.odb,Step-1,Increment      4: Step Time =    1.000,"PART-1-1",             4,            5.,            5.,            0.,NA,NA,"",       13.3474,      -12.0320,      -5.77778,   31.2045E-03
C:/temp/dataset/9/5_6.odb,Step-1,Increment      4: Step Time =    1.000,"PART-1-1",             5,            0.,            5.,            0.,NA,NA,"",       14.1841,      -11.2413,      -8.64987,   19.3317E-03
C:/temp/dataset/9/5_6.odb,Step-1,Increment      4: Step Time =    1.000,"PART-1-1",             6,           -5.,            5.,            0.,NA,NA,"",       15.5613,      -10.3362,      -11.6326,   8.36409E-03
C:/temp/dataset/9/5_6.odb,Step-1,Increment      4: Step Time =    1.000,"PART-1-1",             7,           -5.,          12.5,            0.,NA,NA,"",       19.7486,      -14.7557,      -13.1255,   6.88769E-03
C:/temp/dataset/9/5_6.odb,Step-1,Increment      4: Step Time =    1.000,"PART-1-1",             8,           -5.,           20.,            0.,NA,NA,"",       24.0681,      -19.1275,      -14.6086,   13.7185E-03
C:/temp/dataset/9/5_6.odb,Step-1,Increment      4: Step Time =    1.000,"PART-1-1",             9,           15.,           30.,            0.,NA,NA,"",       29.1910,      -28.7825,      -4.86644,   5.94043E-03
C:/temp/dataset/9/5_6.odb,Step-1,Increment      4: Step Time =    1.000,"PART-1-1",            10,           7.5,           30.,            0.,NA,NA,"",       28.8129,      -27.2785,      -9.27720,   11.3300E-03
C:/temp/dataset/9/5_6.odb,Step-1,Increment      4: Step Time =    1.000,"PART-1-1",            11,            0.,           30.,            0.,NA,NA,"",       29.1859,      -25.8219,      -13.6032,   6.15571E-03
C:/temp/dataset/9/5_6.odb,Step-1,Increment      4: Step Time =    1.000,"PART-1-1",            12,          -7.5,           30.,            0.,NA,NA,"",       30.3088,      -24.4457,      -17.9174,   1.61321E-03
C:/temp/dataset/9/5_6.odb,Step-1,Increment      4: Step Time =    1.000,"PART-1-1",            13,          -15.,           30.,            0.,NA,NA,"",       32.0570,      -23.0650,      -22.2633,   83.3532E-06
C:/temp/dataset/9/5_6.odb,Step-1,Increment      4: Step Time =    1.000,"PART-1-1",            14,          -15.,         21.25,            0.,NA,NA,"",       27.3884,      -17.9886,      -20.6527,   3.19081E-03
C:/temp/dataset/9/5_6.odb,Step-1,Increment      4: Step Time =    1.000,"PART-1-1",            15,          -15.,          12.5,            0.,NA,NA,"",       22.9501,      -12.8497,      -19.0156,   2.02183E-03
C:/temp/dataset/9/5_6.odb,Step-1,Increment      4: Step Time =    1.000,"PART-1-1",            16,          -15.,          3.75,            0.,NA,NA,"",       18.9477,      -7.67628,      -17.3231,   1.42924E-03
C:/temp/dataset/9/5_6.odb,Step-1,Increment      4: Step Time =    1.000,"PART-1-1",            17,          -15.,           -5.,            0.,NA,NA,"",       15.8251,      -2.50587,      -15.6254,   68.4657E-06
C:/temp/dataset/9/5_6.odb,Step-1,Increment      4: Step Time =    1.000,"PART-1-1",            18,          -10.,           -5.,            0.,NA,NA,"",       13.1347,      -3.47696,      -12.6662,   1.12303E-03
C:/temp/dataset/9/5_6.odb,Step-1,Increment      4: Step Time =    1.000,"PART-1-1",            19,           -5.,           -5.,            0.,NA,NA,"",       10.6883,      -4.45985,      -9.71337,   5.75839E-03
C:/temp/dataset/9/5_6.odb,Step-1,Increment      4: Step Time =    1.000,"PART-1-1",            20,            0.,           -5.,            0.,NA,NA,"",       8.70561,      -5.44992,      -6.78867,   9.17363E-03
C:/temp/dataset/9/5_6.odb,Step-1,Increment      4: Step Time =    1.000,"PART-1-1",            21,            5.,           -5.,            0.,NA,NA,"",       7.56002,      -6.53228,      -3.80568,   98.5020E-03
C:/temp/dataset/9/5_6.odb,Step-1,Increment      4: Step Time =    1.000,"PART-1-1",            22,            5.,        -11.25,            0.,NA,NA,"",       4.73641,      -3.93995,      -2.62876,   99.2259E-03
C:/temp/dataset/9/5_6.odb,Step-1,Increment      4: Step Time =    1.000,"PART-1-1",            23,            5.,         -17.5,            0.,NA,NA,"",       2.49985,      -1.88767,      -1.63889,   115.553E-03
C:/temp/dataset/9/5_6.odb,Step-1,Increment      4: Step Time =    1.000,"PART-1-1",            24,            5.,        -23.75,            0.,NA,NA,"",   972.200E-03,  -572.521E-03,  -785.743E-03,   131.632E-03
C:/temp/dataset/9/5_6.odb,Step-1,Increment      4: Step Time =    1.000,"PART-1-1",            25,            5.,          -30.,            0.,NA,NA,"",            0.,   1.27887E-39,   2.28616E-39,   156.016E-03
C:/temp/dataset/9/5_6.odb,Step-1,Increment      4: Step Time =    1.000,"PART-1-1",            26,           15.,          -30.,            0.,NA,NA,"",            0.,  -67.6365E-42,  -63.5881E-42,   169.643E-03
C:/temp/dataset/9/5_6.odb,Step-1,Increment      4: Step Time =    1.000,"PART-1-1",            27,           15.,         -22.5,            0.,NA,NA,"",       1.32208,  -984.426E-03,   882.501E-03,   133.979E-03
C:/temp/dataset/9/5_6.odb,Step-1,Increment      4: Step Time =    1.000,"PART-1-1",            28,           15.,          -15.,            0.,NA,NA,"",       3.54321,      -3.25855,       1.39148,   114.581E-03
C:/temp/dataset/9/5_6.odb,Step-1,Increment      4: Step Time =    1.000,"PART-1-1",            29,           15.,          -7.5,            0.,NA,NA,"",       6.80218,      -6.66828,       1.34305,   92.5650E-03
C:/temp/dataset/9/5_6.odb,Step-1,Increment      4: Step Time =    1.000,"PART-1-1",            30,           15.,            0.,            0.,NA,NA,"",       10.8700,      -10.8514,   636.117E-03,   48.1428E-03
C:/temp/dataset/9/5_6.odb,Step-1,Increment      4: Step Time =    1.000,"PART-1-1",            31,           15.,           7.5,            0.,NA,NA,"",       15.2879,      -15.2787,  -530.140E-03,   24.6895E-03
C:/temp/dataset/9/5_6.odb,Step-1,Increment      4: Step Time =    1.000,"PART-1-1",            32,           15.,           15.,            0.,NA,NA,"",       19.8945,      -19.8030,      -1.90570,   8.68159E-03
C:/temp/dataset/9/5_6.odb,Step-1,Increment      4: Step Time =    1.000,"PART-1-1",            33,           15.,          22.5,            0.,NA,NA,"",       24.5567,      -24.3205,      -3.39776,   3.48256E-03
C:/temp/dataset/9/5_6.odb,Step-1,Increment      4: Step Time =    1.000,"PART-1-1",            34,           2.5,           20.,            0.,NA,NA,"",       22.9109,      -20.4619,      -10.3063,   10.8714E-03
C:/temp/dataset/9/5_6.odb,Step-1,Increment      4: Step Time =    1.000,"PART-1-1",            35,            5.,           15.,            0.,NA,NA,"",       19.4872,      -17.8398,      -7.84178,   4.41056E-03
C:/temp/dataset/9/5_6.odb,Step-1,Increment      4: Step Time =    1.000,"PART-1-1",            36,            5.,          17.5,            0.,NA,NA,"",       21.0722,      -19.3466,      -8.35147,   5.01458E-03
C:/temp/dataset/9/5_6.odb,Step-1,Increment      4: Step Time =    1.000,"PART-1-1",            37,            5.,           7.5,            0.,NA,NA,"",       14.8327,      -13.4292,      -6.29813,   25.3259E-03
C:/temp/dataset/9/5_6.odb,Step-1,Increment      4: Step Time =    1.000,"PART-1-1",            38,            5.,           10.,            0.,NA,NA,"",       16.3629,      -14.8770,      -6.81314,   16.0589E-03
C:/temp/dataset/9/5_6.odb,Step-1,Increment      4: Step Time =    1.000,"PART-1-1",            39,           2.5,            5.,            0.,NA,NA,"",       13.6925,      -11.6566,      -7.18394,   23.3616E-03
C:/temp/dataset/9/5_6.odb,Step-1,Increment      4: Step Time =    1.000,"PART-1-1",            40,          -2.5,            5.,            0.,NA,NA,"",       14.8094,      -10.7984,      -10.1348,   14.1625E-03
C:/temp/dataset/9/5_6.odb,Step-1,Increment      4: Step Time =    1.000,"PART-1-1",            41,           -5.,           10.,            0.,NA,NA,"",       18.3340,      -13.2885,      -12.6314,   6.24793E-03
C:/temp/dataset/9/5_6.odb,Step-1,Increment      4: Step Time =    1.000,"PART-1-1",            42,           -5.,           7.5,            0.,NA,NA,"",       16.9386,      -11.8167,      -12.1360,   5.96759E-03
C:/temp/dataset/9/5_6.odb,Step-1,Increment      4: Step Time =    1.000,"PART-1-1",            43,           -5.,          17.5,            0.,NA,NA,"",       22.6172,      -17.6766,      -14.1095,   10.0174E-03
C:/temp/dataset/9/5_6.odb,Step-1,Increment      4: Step Time =    1.000,"PART-1-1",            44,           -5.,           15.,            0.,NA,NA,"",       21.1773,      -16.2181,      -13.6180,   7.65733E-03
C:/temp/dataset/9/5_6.odb,Step-1,Increment      4: Step Time =    1.000,"PART-1-1",            45,          -2.5,           20.,            0.,NA,NA,"",       23.6037,      -19.5740,      -13.1906,   2.97153E-03
C:/temp/dataset/9/5_6.odb,Step-1,Increment      4: Step Time =    1.000,"PART-1-1",            46,          12.5,           30.,            0.,NA,NA,"",       28.9855,      -28.2832,      -6.34181,   7.06655E-03
C:/temp/dataset/9/5_6.odb,Step-1,Increment      4: Step Time =    1.000,"PART-1-1",            47,           10.,           30.,            0.,NA,NA,"",       28.8587,      -27.7806,      -7.81402,   9.52309E-03
C:/temp/dataset/9/5_6.odb,Step-1,Increment      4: Step Time =    1.000,"PART-1-1",            48,            5.,           30.,            0.,NA,NA,"",       28.8510,      -26.7821,      -10.7285,   11.3984E-03
C:/temp/dataset/9/5_6.odb,Step-1,Increment      4: Step Time =    1.000,"PART-1-1",            49,           2.5,           30.,            0.,NA,NA,"",       28.9752,      -26.2960,      -12.1691,   9.45050E-03
C:/temp/dataset/9/5_6.odb,Step-1,Increment      4: Step Time =    1.000,"PART-1-1",            50,          -2.5,           30.,            0.,NA,NA,"",       29.4814,      -25.3584,      -15.0368,   2.60871E-03
C:/temp/dataset/9/5_6.odb,Step-1,Increment      4: Step Time =    1.000,"PART-1-1",            51,           -5.,           30.,            0.,NA,NA,"",       29.8574,      -24.9012,      -16.4741,   422.870E-06
C:/temp/dataset/9/5_6.odb,Step-1,Increment      4: Step Time =    1.000,"PART-1-1",            52,          -10.,           30.,            0.,NA,NA,"",       30.8292,      -23.9880,      -19.3654,   1.31536E-03
C:/temp/dataset/9/5_6.odb,Step-1,Increment      4: Step Time =    1.000,"PART-1-1",            53,         -12.5,           30.,            0.,NA,NA,"",       31.4132,      -23.5272,      -20.8149,   358.978E-06
C:/temp/dataset/9/5_6.odb,Step-1,Increment      4: Step Time =    1.000,"PART-1-1",            54,          -15.,       27.8125,            0.,NA,NA,"",       30.8706,      -21.7982,      -21.8593,   276.172E-06
C:/temp/dataset/9/5_6.odb,Step-1,Increment      4: Step Time =    1.000,"PART-1-1",            55,          -15.,        25.625,            0.,NA,NA,"",       29.6969,      -20.5310,      -21.4566,   1.22139E-03
C:/temp/dataset/9/5_6.odb,Step-1,Increment      4: Step Time =    1.000,"PART-1-1",            56,          -15.,       23.4375,            0.,NA,NA,"",       28.5362,      -19.2617,      -21.0546,   2.28612E-03
C:/temp/dataset/9/5_6.odb,Step-1,Increment      4: Step Time =    1.000,"PART-1-1",            57,          -15.,       19.0625,            0.,NA,NA,"",       26.2538,      -16.7106,      -20.2489,   3.66138E-03
C:/temp/dataset/9/5_6.odb,Step-1,Increment      4: Step Time =    1.000,"PART-1-1",            58,          -15.,        16.875,            0.,NA,NA,"",       25.1339,      -15.4276,      -19.8419,   3.51025E-03
C:/temp/dataset/9/5_6.odb,Step-1,Increment      4: Step Time =    1.000,"PART-1-1",            59,          -15.,       14.6875,            0.,NA,NA,"",       24.0313,      -14.1402,      -19.4309,   2.88296E-03
C:/temp/dataset/9/5_6.odb,Step-1,Increment      4: Step Time =    1.000,"PART-1-1",            60,          -15.,       10.3125,            0.,NA,NA,"",       21.8951,      -11.5570,      -18.5965,   1.04621E-03
C:/temp/dataset/9/5_6.odb,Step-1,Increment      4: Step Time =    1.000,"PART-1-1",            61,          -15.,         8.125,            0.,NA,NA,"",       20.8717,      -10.2631,      -18.1741,   76.4261E-06
C:/temp/dataset/9/5_6.odb,Step-1,Increment      4: Step Time =    1.000,"PART-1-1",            62,          -15.,        5.9375,            0.,NA,NA,"",       19.8867,      -8.96924,      -17.7492,   890.313E-06
C:/temp/dataset/9/5_6.odb,Step-1,Increment      4: Step Time =    1.000,"PART-1-1",            63,          -15.,        1.5625,            0.,NA,NA,"",       18.0632,      -6.38437,      -16.8973,   1.28932E-03
C:/temp/dataset/9/5_6.odb,Step-1,Increment      4: Step Time =    1.000,"PART-1-1",            64,          -15.,     -625.E-03,            0.,NA,NA,"",       17.2420,      -5.09263,      -16.4727,   646.636E-06
C:/temp/dataset/9/5_6.odb,Step-1,Increment      4: Step Time =    1.000,"PART-1-1",            65,          -15.,       -2.8125,            0.,NA,NA,"",       16.4928,      -3.79984,      -16.0491,   86.2718E-06
C:/temp/dataset/9/5_6.odb,Step-1,Increment      4: Step Time =    1.000,"PART-1-1",            66,         -12.5,           -5.,            0.,NA,NA,"",       14.4587,      -2.99047,      -14.1461,   113.244E-06
C:/temp/dataset/9/5_6.odb,Step-1,Increment      4: Step Time =    1.000,"PART-1-1",            67,          -7.5,           -5.,            0.,NA,NA,"",       11.8699,      -3.96673,      -11.1875,   3.14046E-03
C:/temp/dataset/9/5_6.odb,Step-1,Increment      4: Step Time =    1.000,"PART-1-1",            68,          -2.5,           -5.,            0.,NA,NA,"",       9.62150,      -4.95478,      -8.24763,   8.73716E-03
C:/temp/dataset/9/5_6.odb,Step-1,Increment      4: Step Time =    1.000,"PART-1-1",            69,           2.5,           -5.,            0.,NA,NA,"",       7.98442,      -5.94729,      -5.32735,   24.7469E-03
C:/temp/dataset/9/5_6.odb,Step-1,Increment      4: Step Time =    1.000,"PART-1-1",            70,            5.,      -7.08333,            0.,NA,NA,"",       6.57784,      -5.64518,      -3.37638,   103.306E-03
C:/temp/dataset/9/5_6.odb,Step-1,Increment      4: Step Time =    1.000,"PART-1-1",            71,            5.,      -9.16667,            0.,NA,NA,"",       5.62865,      -4.76511,      -2.99591,   92.3667E-03
C:/temp/dataset/9/5_6.odb,Step-1,Increment      4: Step Time =    1.000,"PART-1-1",            72,            5.,      -13.3333,            0.,NA,NA,"",       3.91384,      -3.18103,      -2.28017,   104.378E-03
C:/temp/dataset/9/5_6.odb,Step-1,Increment      4: Step Time =    1.000,"PART-1-1",            73,            5.,      -15.4167,            0.,NA,NA,"",       3.16748,      -2.49549,      -1.95075,   110.116E-03
C:/temp/dataset/9/5_6.odb,Step-1,Increment      4: Step Time =    1.000,"PART-1-1",            74,            5.,      -19.5833,            0.,NA,NA,"",       1.91241,      -1.36183,      -1.34265,   120.945E-03
C:/temp/dataset/9/5_6.odb,Step-1,Increment      4: Step Time =    1.000,"PART-1-1",            75,            5.,      -21.6667,            0.,NA,NA,"",       1.40435,  -921.816E-03,      -1.05945,   126.177E-03
C:/temp/dataset/9/5_6.odb,Step-1,Increment      4: Step Time =    1.000,"PART-1-1",            76,            5.,      -25.8333,            0.,NA,NA,"",   608.328E-03,  -314.978E-03,  -520.434E-03,   133.758E-03
C:/temp/dataset/9/5_6.odb,Step-1,Increment      4: Step Time =    1.000,"PART-1-1",            77,            5.,      -27.9167,            0.,NA,NA,"",   301.677E-03,  -151.216E-03,  -261.042E-03,   144.832E-03
C:/temp/dataset/9/5_6.odb,Step-1,Increment      4: Step Time =    1.000,"PART-1-1",            78,           7.5,          -30.,            0.,NA,NA,"",            0.,   11.8073E-39,  -113.479E-39,   52.6883E-03
C:/temp/dataset/9/5_6.odb,Step-1,Increment      4: Step Time =    1.000,"PART-1-1",            79,           10.,          -30.,            0.,NA,NA,"",            0.,   21.2432E-39,   13.1874E-39,   20.2288E-03
C:/temp/dataset/9/5_6.odb,Step-1,Increment      4: Step Time =    1.000,"PART-1-1",            80,          12.5,          -30.,            0.,NA,NA,"",            0.,  -46.1924E-39,   100.007E-39,   55.8014E-03
C:/temp/dataset/9/5_6.odb,Step-1,Increment      4: Step Time =    1.000,"PART-1-1",            81,           15.,         -27.5,            0.,NA,NA,"",   397.236E-03,  -231.116E-03,   323.081E-03,   145.940E-03
C:/temp/dataset/9/5_6.odb,Step-1,Increment      4: Step Time =    1.000,"PART-1-1",            82,           15.,          -25.,            0.,NA,NA,"",   811.359E-03,  -528.136E-03,   615.934E-03,   137.595E-03
C:/temp/dataset/9/5_6.odb,Step-1,Increment      4: Step Time =    1.000,"PART-1-1",            83,           15.,          -20.,            0.,NA,NA,"",       1.94356,      -1.59788,       1.10644,   127.505E-03
C:/temp/dataset/9/5_6.odb,Step-1,Increment      4: Step Time =    1.000,"PART-1-1",            84,           15.,         -17.5,            0.,NA,NA,"",       2.68364,      -2.35976,       1.27806,   121.184E-03
C:/temp/dataset/9/5_6.odb,Step-1,Increment      4: Step Time =    1.000,"PART-1-1",            85,           15.,         -12.5,            0.,NA,NA,"",       4.51946,      -4.28307,       1.44250,   108.049E-03
C:/temp/dataset/9/5_6.odb,Step-1,Increment      4: Step Time =    1.000,"PART-1-1",            86,           15.,          -10.,            0.,NA,NA,"",       5.60786,      -5.42306,       1.42778,   101.196E-03
C:/temp/dataset/9/5_6.odb,Step-1,Increment      4: Step Time =    1.000,"PART-1-1",            87,           15.,           -5.,            0.,NA,NA,"",       8.09125,      -8.00437,       1.18249,   79.9609E-03
C:/temp/dataset/9/5_6.odb,Step-1,Increment      4: Step Time =    1.000,"PART-1-1",            88,           15.,          -2.5,            0.,NA,NA,"",       9.45531,      -9.40808,   943.847E-03,   63.8328E-03
C:/temp/dataset/9/5_6.odb,Step-1,Increment      4: Step Time =    1.000,"PART-1-1",            89,           15.,           2.5,            0.,NA,NA,"",       12.3176,      -12.3145,   277.918E-03,   36.5300E-03
C:/temp/dataset/9/5_6.odb,Step-1,Increment      4: Step Time =    1.000,"PART-1-1",            90,           15.,            5.,            0.,NA,NA,"",       13.7906,      -13.7902,  -113.824E-03,   29.4706E-03
C:/temp/dataset/9/5_6.odb,Step-1,Increment      4: Step Time =    1.000,"PART-1-1",            91,           15.,           10.,            0.,NA,NA,"",       16.8077,      -16.7798,  -968.653E-03,   19.8433E-03
C:/temp/dataset/9/5_6.odb,Step-1,Increment      4: Step Time =    1.000,"PART-1-1",            92,           15.,          12.5,            0.,NA,NA,"",       18.3455,      -18.2898,      -1.42811,   14.3876E-03
C:/temp/dataset/9/5_6.odb,Step-1,Increment      4: Step Time =    1.000,"PART-1-1",            93,           15.,          17.5,            0.,NA,NA,"",       21.4479,      -21.3136,      -2.39670,   3.60225E-03
C:/temp/dataset/9/5_6.odb,Step-1,Increment      4: Step Time =    1.000,"PART-1-1",            94,           15.,           20.,            0.,NA,NA,"",       23.0005,      -22.8176,      -2.89529,   869.913E-06
C:/temp/dataset/9/5_6.odb,Step-1,Increment      4: Step Time =    1.000,"PART-1-1",            95,           15.,           25.,            0.,NA,NA,"",       26.1056,      -25.8129,      -3.89835,   5.84715E-03
C:/temp/dataset/9/5_6.odb,Step-1,Increment      4: Step Time =    1.000,"PART-1-1",            96,           15.,          27.5,            0.,NA,NA,"",       27.6465,      -27.2966,      -4.38467,   5.51288E-03
C:/temp/dataset/9/5_6.odb,Step-1,Increment      4: Step Time =    1.000,"PART-1-1",            97,       7.09255,      -21.6558,            0.,NA,NA,"",       1.06642,  -878.274E-03,  -604.888E-03,   69.5058E-03
C:/temp/dataset/9/5_6.odb,Step-1,Increment      4: Step Time =    1.000,"PART-1-1",            98,       7.09346,      -17.4368,            0.,NA,NA,"",       2.16187,      -1.91899,  -995.574E-03,   64.0923E-03
C:/temp/dataset/9/5_6.odb,Step-1,Increment      4: Step Time =    1.000,"PART-1-1",            99,       7.15828,      -23.7452,            0.,NA,NA,"",   658.961E-03,  -502.357E-03,  -426.459E-03,   70.1986E-03
C:/temp/dataset/9/5_6.odb,Step-1,Increment      4: Step Time =    1.000,"PART-1-1",           100,       7.44609,      -27.8729,            0.,NA,NA,"",   128.061E-03,  -52.7144E-03,  -116.708E-03,   69.1857E-03
C:/temp/dataset/9/5_6.odb,Step-1,Increment      4: Step Time =    1.000,"PART-1-1",           101,       7.30780,      -25.7939,            0.,NA,NA,"",   343.609E-03,  -226.954E-03,  -257.990E-03,   70.9355E-03
C:/temp/dataset/9/5_6.odb,Step-1,Increment      4: Step Time =    1.000,"PART-1-1",           102,       7.08258,      -10.9526,            0.,NA,NA,"",       4.54110,      -4.17782,      -1.77972,   55.6550E-03
C:/temp/dataset/9/5_6.odb,Step-1,Increment      4: Step Time =    1.000,"PART-1-1",           103,       7.09950,      -13.1236,            0.,NA,NA,"",       3.65576,      -3.34052,      -1.48510,   58.4046E-03
C:/temp/dataset/9/5_6.odb,Step-1,Increment      4: Step Time =    1.000,"PART-1-1",           104,       6.95448,      -6.62029,            0.,NA,NA,"",       6.54442,      -6.05103,      -2.49288,   47.6982E-03
C:/temp/dataset/9/5_6.odb,Step-1,Increment      4: Step Time =    1.000,"PART-1-1",           105,       7.04974,      -8.78764,            0.,NA,NA,"",       5.50260,      -5.08139,      -2.11141,   54.8258E-03
C:/temp/dataset/9/5_6.odb,Step-1,Increment      4: Step Time =    1.000,"PART-1-1",           106,       7.10540,      -15.2896,            0.,NA,NA,"",       2.85939,      -2.58446,      -1.22338,   61.0301E-03
C:/temp/dataset/9/5_6.odb,Step-1,Increment      4: Step Time =    1.000,"PART-1-1",           107,       7.08223,      -19.5608,            0.,NA,NA,"",       1.56452,      -1.34929,  -791.919E-03,   67.0842E-03
C:/temp/dataset/9/5_6.odb,Step-1,Increment      4: Step Time =    1.000,"PART-1-1",           108,      -11.8989,       25.3809,            0.,NA,NA,"",       28.7094,      -20.9650,      -19.6137,   1.40505E-03
C:/temp/dataset/9/5_6.odb,Step-1,Increment      4: Step Time =    1.000,"PART-1-1",           109,      -12.7134,       3.51066,            0.,NA,NA,"",       17.8092,      -7.97641,      -15.9231,   1.58026E-03
C:/temp/dataset/9/5_6.odb,Step-1,Increment      4: Step Time =    1.000,"PART-1-1",           110,      -13.0834,       10.3867,            0.,NA,NA,"",       21.1859,      -11.9703,      -17.4801,   1.24413E-03
C:/temp/dataset/9/5_6.odb,Step-1,Increment      4: Step Time =    1.000,"PART-1-1",           111,      -12.9355,       8.20912,            0.,NA,NA,"",       20.0681,      -10.7115,      -16.9704,   1.52959E-03
C:/temp/dataset/9/5_6.odb,Step-1,Increment      4: Step Time =    1.000,"PART-1-1",           112,      -13.1801,       12.5484,            0.,NA,NA,"",       22.3007,      -13.2280,      -17.9538,   1.16524E-03
C:/temp/dataset/9/5_6.odb,Step-1,Increment      4: Step Time =    1.000,"PART-1-1",           113,      -12.7454,       20.6010,            0.,NA,NA,"",       26.3567,      -18.0337,      -19.2215,   1.28336E-03
C:/temp/dataset/9/5_6.odb,Step-1,Increment      4: Step Time =    1.000,"PART-1-1",           114,      -13.1621,       18.5389,            0.,NA,NA,"",       25.3901,      -16.7517,      -19.0797,   1.50526E-03
C:/temp/dataset/9/5_6.odb,Step-1,Increment      4: Step Time =    1.000,"PART-1-1",           115,      -12.3840,       22.8683,            0.,NA,NA,"",       27.4715,      -19.4191,      -19.4315,   1.41992E-03
C:/temp/dataset/9/5_6.odb,Step-1,Increment      4: Step Time =    1.000,"PART-1-1",           116,      -13.4658,       16.5948,            0.,NA,NA,"",       24.4717,      -15.5550,      -18.8919,   1.66695E-03
C:/temp/dataset/9/5_6.odb,Step-1,Increment      4: Step Time =    1.000,"PART-1-1",           117,      -13.3466,       14.6489,            0.,NA,NA,"",       23.4278,      -14.4340,      -18.4533,   1.35644E-03
C:/temp/dataset/9/5_6.odb,Step-1,Increment      4: Step Time =    1.000,"PART-1-1",           118,      -12.3609,       5.76892,            0.,NA,NA,"",       18.6802,      -9.37897,      -16.1551,   1.86747E-03
C:/temp/dataset/9/5_6.odb,Step-1,Increment      4: Step Time =    1.000,"PART-1-1",           119,      -12.8583,       1.39410,            0.,NA,NA,"",       16.9747,      -6.69872,      -15.5970,   1.50215E-03
C:/temp/dataset/9/5_6.odb,Step-1,Increment      4: Step Time =    1.000,"PART-1-1",           120,      -12.6304,  -685.754E-03,            0.,NA,NA,"",       16.0369,      -5.51532,      -15.0586,   1.36511E-03
C:/temp/dataset/9/5_6.odb,Step-1,Increment      4: Step Time =    1.000,"PART-1-1",           121,   38.5673E-03,       27.2989,            0.,NA,NA,"",       27.5657,      -24.2612,      -13.0867,   6.10393E-03
C:/temp/dataset/9/5_6.odb,Step-1,Increment      4: Step Time =    1.000,"PART-1-1",           122,      -4.16985,       22.2766,            0.,NA,NA,"",       25.2156,      -20.5847,      -14.5634,   6.93966E-03
C:/temp/dataset/9/5_6.odb,Step-1,Increment      4: Step Time =    1.000,"PART-1-1",           123,      -7.85548,       28.0855,            0.,NA,NA,"",       29.2829,      -23.2748,      -17.7700,   851.132E-06
C:/temp/dataset/9/5_6.odb,Step-1,Increment      4: Step Time =    1.000,"PART-1-1",           124,       9.92813,      -27.7267,            0.,NA,NA,"",   39.8305E-03,  -39.4739E-03,   5.31815E-03,   14.0436E-03
C:/temp/dataset/9/5_6.odb,Step-1,Increment      4: Step Time =    1.000,"PART-1-1",           125,       13.1106,      -17.4438,            0.,NA,NA,"",       2.33681,      -2.21534,   743.606E-03,   78.2030E-03
C:/temp/dataset/9/5_6.odb,Step-1,Increment      4: Step Time =    1.000,"PART-1-1",           126,       12.8150,       2.64061,            0.,NA,NA,"",       12.0321,      -11.9937,  -959.540E-03,   24.8110E-03
C:/temp/dataset/9/5_6.odb,Step-1,Increment      4: Step Time =    1.000,"PART-1-1",           127,       7.56819,       12.3225,            0.,NA,NA,"",       17.7023,      -16.7376,      -5.76420,   9.04901E-03
C:/temp/dataset/9/5_6.odb,Step-1,Increment      4: Step Time =    1.000,"PART-1-1",           128,       7.47113,       19.8748,            0.,NA,NA,"",       22.5087,      -21.2735,      -7.35368,   9.52926E-03
C:/temp/dataset/9/5_6.odb,Step-1,Increment      4: Step Time =    1.000,"PART-1-1",           129,       12.4223,       27.5153,            0.,NA,NA,"",       27.4354,      -26.7912,      -5.91063,   6.74693E-03
C:/temp/dataset/9/5_6.odb,Step-1,Increment      4: Step Time =    1.000,"PART-1-1",           130,       12.3750,       22.5091,            0.,NA,NA,"",       24.3142,      -23.8017,      -4.96607,   3.47754E-03
C:/temp/dataset/9/5_6.odb,Step-1,Increment      4: Step Time =    1.000,"PART-1-1",           131,       7.58839,       27.9970,            0.,NA,NA,"",       27.5708,      -26.1122,      -8.84892,   7.58436E-03
C:/temp/dataset/9/5_6.odb,Step-1,Increment      4: Step Time =    1.000,"PART-1-1",           132,   199.805E-03,       22.3057,            0.,NA,NA,"",       24.5518,      -21.3837,      -12.0634,   5.82606E-03
C:/temp/dataset/9/5_6.odb,Step-1,Increment      4: Step Time =    1.000,"PART-1-1",           133,       12.6934,       9.82310,            0.,NA,NA,"",       16.3787,      -16.2188,      -2.28309,   14.2914E-03
C:/temp/dataset/9/5_6.odb,Step-1,Increment      4: Step Time =    1.000,"PART-1-1",           134,      -7.14717,       12.7802,            0.,NA,NA,"",       20.4787,      -14.5127,      -14.4484,   5.09616E-03
C:/temp/dataset/9/5_6.odb,Step-1,Increment      4: Step Time =    1.000,"PART-1-1",           135,      -6.86178,       17.9412,            0.,NA,NA,"",       23.3019,      -17.5857,      -15.2880,   7.23132E-03
C:/temp/dataset/9/5_6.odb,Step-1,Increment      4: Step Time =    1.000,"PART-1-1",           136,      -2.68307,      -2.95682,            0.,NA,NA,"",       10.6703,      -6.12257,      -8.73890,   6.42424E-03
C:/temp/dataset/9/5_6.odb,Step-1,Increment      4: Step Time =    1.000,"PART-1-1",           137,      -7.59808,      -3.03341,            0.,NA,NA,"",       12.6979,      -5.11095,      -11.6239,   3.37290E-03
C:/temp/dataset/9/5_6.odb,Step-1,Increment      4: Step Time =    1.000,"PART-1-1",           138,  -248.196E-03,       2.69947,            0.,NA,NA,"",       12.9376,      -9.87366,      -8.36016,   9.74644E-03
C:/temp/dataset/9/5_6.odb,Step-1,Increment      4: Step Time =    1.000,"PART-1-1",           139,       2.16631,      -2.47375,            0.,NA,NA,"",       9.48688,      -7.35313,      -5.99437,   19.9568E-03
C:/temp/dataset/9/5_6.odb,Step-1,Increment      4: Step Time =    1.000,"PART-1-1",           140,       4.39271,       2.43636,            0.,NA,NA,"",       11.9308,      -10.5191,      -5.62965,   23.5495E-03
C:/temp/dataset/9/5_6.odb,Step-1,Increment      4: Step Time =    1.000,"PART-1-1",           141,       12.9283,      -5.27800,            0.,NA,NA,"",       7.52405,      -7.52147,   197.120E-03,   52.5242E-03
C:/temp/dataset/9/5_6.odb,Step-1,Increment      4: Step Time =    1.000,"PART-1-1",           142,       13.0847,      -12.6172,            0.,NA,NA,"",       4.07845,      -4.01348,   725.079E-03,   69.2146E-03
C:/temp/dataset/9/5_6.odb,Step-1,Increment      4: Step Time =    1.000,"PART-1-1",           143,       12.4838,       17.4790,            0.,NA,NA,"",       21.1607,      -20.7992,      -3.89459,   6.93636E-03
C:/temp/dataset/9/5_6.odb,Step-1,Increment      4: Step Time =    1.000,"PART-1-1",           144,       2.63438,       22.2143,            0.,NA,NA,"",       24.2306,      -21.7684,      -10.6424,   9.41897E-03
C:/temp/dataset/9/5_6.odb,Step-1,Increment      4: Step Time =    1.000,"PART-1-1",           145,       7.54366,       14.9275,            0.,NA,NA,"",       19.3533,      -18.2971,      -6.30613,   8.61371E-03
C:/temp/dataset/9/5_6.odb,Step-1,Increment      4: Step Time =    1.000,"PART-1-1",           146,       7.50510,       17.4443,            0.,NA,NA,"",       20.9577,      -19.8099,      -6.84063,   11.5599E-03
C:/temp/dataset/9/5_6.odb,Step-1,Increment      4: Step Time =    1.000,"PART-1-1",           147,       7.12790,       7.03873,            0.,NA,NA,"",       14.4245,      -13.5425,      -4.96649,   13.9108E-03
C:/temp/dataset/9/5_6.odb,Step-1,Increment      4: Step Time =    1.000,"PART-1-1",           148,       7.48952,       9.64170,            0.,NA,NA,"",       16.0226,      -15.1308,      -5.27091,   11.3876E-03
C:/temp/dataset/9/5_6.odb,Step-1,Increment      4: Step Time =    1.000,"PART-1-1",           149,       2.16717,       2.56251,            0.,NA,NA,"",       12.3481,      -10.2236,      -6.92476,   9.74039E-03
C:/temp/dataset/9/5_6.odb,Step-1,Increment      4: Step Time =    1.000,"PART-1-1",           150,      -2.68606,       3.12146,            0.,NA,NA,"",       13.8241,      -9.66774,      -9.88133,   8.77976E-03
C:/temp/dataset/9/5_6.odb,Step-1,Increment      4: Step Time =    1.000,"PART-1-1",           151,      -7.08307,       10.2840,            0.,NA,NA,"",       19.0863,      -13.0576,      -13.9207,   4.56446E-03
C:/temp/dataset/9/5_6.odb,Step-1,Increment      4: Step Time =    1.000,"PART-1-1",           152,      -2.13928,       22.2031,            0.,NA,NA,"",       24.8251,      -20.9056,      -13.3879,   5.80759E-03
C:/temp/dataset/9/5_6.odb,Step-1,Increment      4: Step Time =    1.000,"PART-1-1",           153,       9.90766,       27.6812,            0.,NA,NA,"",       27.4116,      -26.3863,      -7.42686,   7.26338E-03
C:/temp/dataset/9/5_6.odb,Step-1,Increment      4: Step Time =    1.000,"PART-1-1",           154,       5.18317,       27.8350,            0.,NA,NA,"",       27.5146,      -25.5459,      -10.2207,   7.15270E-03
C:/temp/dataset/9/5_6.odb,Step-1,Increment      4: Step Time =    1.000,"PART-1-1",           155,       2.70091,       27.4744,            0.,NA,NA,"",       27.4285,      -24.8599,      -11.5891,   6.49146E-03
C:/temp/dataset/9/5_6.odb,Step-1,Increment      4: Step Time =    1.000,"PART-1-1",           156,      -2.92570,       26.9909,            0.,NA,NA,"",       27.7684,      -23.5401,      -14.7292,   5.01544E-03
C:/temp/dataset/9/5_6.odb,Step-1,Increment      4: Step Time =    1.000,"PART-1-1",           157,      -5.52449,       27.7330,            0.,NA,NA,"",       28.6312,      -23.4969,      -16.3598,   2.30313E-03
C:/temp/dataset/9/5_6.odb,Step-1,Increment      4: Step Time =    1.000,"PART-1-1",           158,      -10.1759,       28.1970,            0.,NA,NA,"",       29.8514,      -22.9127,      -19.1341,   989.962E-06
C:/temp/dataset/9/5_6.odb,Step-1,Increment      4: Step Time =    1.000,"PART-1-1",           159,      -7.15795,       15.3782,            0.,NA,NA,"",       21.9306,      -16.0331,      -14.9630,   5.82771E-03
C:/temp/dataset/9/5_6.odb,Step-1,Increment      4: Step Time =    1.000,"PART-1-1",           160,      -7.10855,       7.92361,            0.,NA,NA,"",       17.8172,      -11.6614,      -13.4710,   3.78957E-03
C:/temp/dataset/9/5_6.odb,Step-1,Increment      4: Step Time =    1.000,"PART-1-1",           161,      -7.31416,       5.72319,            0.,NA,NA,"",       16.7225,      -10.3208,      -13.1577,   4.51115E-03
C:/temp/dataset/9/5_6.odb,Step-1,Increment      4: Step Time =    1.000,"PART-1-1",           162,      -10.0288,      -2.82434,            0.,NA,NA,"",       13.9412,      -4.75868,      -13.1039,   2.04233E-03
C:/temp/dataset/9/5_6.odb,Step-1,Increment      4: Step Time =    1.000,"PART-1-1",           163,      -5.14639,      -3.11924,            0.,NA,NA,"",       11.5718,      -5.54244,      -10.1582,   5.01836E-03
C:/temp/dataset/9/5_6.odb,Step-1,Increment      4: Step Time =    1.000,"PART-1-1",           164,  -261.821E-03,      -2.60038,            0.,NA,NA,"",       10.0472,      -6.80827,      -7.38874,   10.1814E-03
C:/temp/dataset/9/5_6.odb,Step-1,Increment      4: Step Time =    1.000,"PART-1-1",           165,       4.38015,      -2.33295,            0.,NA,NA,"",       9.16633,      -7.85627,      -4.72236,   29.8677E-03
C:/temp/dataset/9/5_6.odb,Step-1,Increment      4: Step Time =    1.000,"PART-1-1",           166,       13.0639,      -10.1924,            0.,NA,NA,"",       5.11847,      -5.07975,   628.456E-03,   64.6508E-03
C:/temp/dataset/9/5_6.odb,Step-1,Increment      4: Step Time =    1.000,"PART-1-1",           167,       13.0843,      -19.8267,            0.,NA,NA,"",       1.64438,      -1.50274,   667.646E-03,   81.8400E-03
C:/temp/dataset/9/5_6.odb,Step-1,Increment      4: Step Time =    1.000,"PART-1-1",           168,       12.4446,      -27.5067,            0.,NA,NA,"",   187.841E-03,  -113.425E-03,   149.730E-03,   81.0611E-03
C:/temp/dataset/9/5_6.odb,Step-1,Increment      4: Step Time =    1.000,"PART-1-1",           169,       12.9329,      -22.1971,            0.,NA,NA,"",       1.05835,  -916.456E-03,   529.360E-03,   81.7922E-03
C:/temp/dataset/9/5_6.odb,Step-1,Increment      4: Step Time =    1.000,"PART-1-1",           170,       13.1086,      -15.0383,            0.,NA,NA,"",       3.14962,      -3.05533,   764.871E-03,   73.9598E-03
C:/temp/dataset/9/5_6.odb,Step-1,Increment      4: Step Time =    1.000,"PART-1-1",           171,       13.0208,      -7.75462,            0.,NA,NA,"",       6.26556,      -6.24865,   459.993E-03,   59.4534E-03
C:/temp/dataset/9/5_6.odb,Step-1,Increment      4: Step Time =    1.000,"PART-1-1",           172,       12.7756,      -2.70708,            0.,NA,NA,"",       8.91368,      -8.91185,  -180.509E-03,   43.1135E-03
C:/temp/dataset/9/5_6.odb,Step-1,Increment      4: Step Time =    1.000,"PART-1-1",           173,       12.6338,  -14.4220E-03,            0.,NA,NA,"",       10.4420,      -10.4225,  -638.401E-03,   32.5829E-03
C:/temp/dataset/9/5_6.odb,Step-1,Increment      4: Step Time =    1.000,"PART-1-1",           174,       13.0186,       5.13380,            0.,NA,NA,"",       13.5514,      -13.4926,      -1.26115,   20.7072E-03
C:/temp/dataset/9/5_6.odb,Step-1,Increment      4: Step Time =    1.000,"PART-1-1",           175,       13.0709,       7.51902,            0.,NA,NA,"",       15.0055,      -14.9149,      -1.64599,   17.6886E-03
C:/temp/dataset/9/5_6.odb,Step-1,Increment      4: Step Time =    1.000,"PART-1-1",           176,       12.5119,       12.3699,            0.,NA,NA,"",       17.9471,      -17.7159,      -2.87134,   11.7399E-03
C:/temp/dataset/9/5_6.odb,Step-1,Increment      4: Step Time =    1.000,"PART-1-1",           177,       12.4863,       14.9454,            0.,NA,NA,"",       19.5635,      -19.2676,      -3.38921,   9.49906E-03
C:/temp/dataset/9/5_6.odb,Step-1,Increment      4: Step Time =    1.000,"PART-1-1",           178,       12.4500,       19.9932,            0.,NA,NA,"",       22.7406,      -22.3071,      -4.41872,   4.31962E-03
C:/temp/dataset/9/5_6.odb,Step-1,Increment      4: Step Time =    1.000,"PART-1-1",           179,       9.19048,      -23.6482,            0.,NA,NA,"",   524.700E-03,  -511.796E-03,  -115.650E-03,   19.3212E-03
C:/temp/dataset/9/5_6.odb,Step-1,Increment      4: Step Time =    1.000,"PART-1-1",           180,       9.11932,      -19.5624,            0.,NA,NA,"",       1.41091,      -1.38279,  -280.267E-03,   19.7956E-03
C:/temp/dataset/9/5_6.odb,Step-1,Increment      4: Step Time =    1.000,"PART-1-1",           181,       9.13323,      -12.9344,            0.,NA,NA,"",       3.61021,      -3.53528,  -731.710E-03,   18.3915E-03
C:/temp/dataset/9/5_6.odb,Step-1,Increment      4: Step Time =    1.000,"PART-1-1",           182,       9.14303,      -17.4019,            0.,NA,NA,"",       2.02861,      -1.99058,  -390.960E-03,   19.0417E-03
C:/temp/dataset/9/5_6.odb,Step-1,Increment      4: Step Time =    1.000,"PART-1-1",           183,       9.11260,      -10.6744,            0.,NA,NA,"",       4.55433,      -4.45111,  -964.138E-03,   17.7911E-03
C:/temp/dataset/9/5_6.odb,Step-1,Increment      4: Step Time =    1.000,"PART-1-1",           184,       9.06671,      -8.40676,            0.,NA,NA,"",       5.59024,      -5.44965,      -1.24584,   16.3378E-03
C:/temp/dataset/9/5_6.odb,Step-1,Increment      4: Step Time =    1.000,"PART-1-1",           185,       9.15359,      -15.1846,            0.,NA,NA,"",       2.76428,      -2.71149,  -537.662E-03,   18.5328E-03
C:/temp/dataset/9/5_6.odb,Step-1,Increment      4: Step Time =    1.000,"PART-1-1",           186,       9.09437,      -21.6308,            0.,NA,NA,"",   915.843E-03,  -894.361E-03,  -197.199E-03,   20.5913E-03
C:/temp/dataset/9/5_6.odb,Step-1,Increment      4: Step Time =    1.000,"PART-1-1",           187,       8.94944,      -6.10597,            0.,NA,NA,"",       6.73453,      -6.54126,      -1.60183,   19.9104E-03
C:/temp/dataset/9/5_6.odb,Step-1,Increment      4: Step Time =    1.000,"PART-1-1",           188,      -11.3189,       17.6054,            0.,NA,NA,"",       24.3279,      -16.5536,      -17.8277,   971.213E-06
C:/temp/dataset/9/5_6.odb,Step-1,Increment      4: Step Time =    1.000,"PART-1-1",           189,      -10.4260,       2.85148,            0.,NA,NA,"",       16.5210,      -8.02819,      -14.4392,   2.84789E-03
C:/temp/dataset/9/5_6.odb,Step-1,Increment      4: Step Time =    1.000,"PART-1-1",           190,      -12.4413,       27.8959,            0.,NA,NA,"",       30.2327,      -22.3199,      -20.3921,   956.107E-06
C:/temp/dataset/9/5_6.odb,Step-1,Increment      4: Step Time =    1.000,"PART-1-1",           191,      -10.6658,       19.6683,            0.,NA,NA,"",       25.2555,      -17.8809,      -17.8358,   908.999E-06
C:/temp/dataset/9/5_6.odb,Step-1,Increment      4: Step Time =    1.000,"PART-1-1",           192,      -12.1118,       16.4066,            0.,NA,NA,"",       23.9341,      -15.7015,      -18.0640,   950.996E-06
C:/temp/dataset/9/5_6.odb,Step-1,Increment      4: Step Time =    1.000,"PART-1-1",           193,      -11.5166,       14.9043,            0.,NA,NA,"",       22.9508,      -14.9323,      -17.4288,   1.53076E-03
C:/temp/dataset/9/5_6.odb,Step-1,Increment      4: Step Time =    1.000,"PART-1-1",           194,      -11.2054,       12.7278,            0.,NA,NA,"",       21.7058,      -13.7110,      -16.8271,   2.05276E-03
C:/temp/dataset/9/5_6.odb,Step-1,Increment      4: Step Time =    1.000,"PART-1-1",           195,      -11.1139,       10.5020,            0.,NA,NA,"",       20.5234,      -12.4160,      -16.3417,   2.25552E-03
C:/temp/dataset/9/5_6.odb,Step-1,Increment      4: Step Time =    1.000,"PART-1-1",           196,      -9.42029,       24.1195,            0.,NA,NA,"",       27.3891,      -20.6945,      -17.9417,   1.65167E-03
C:/temp/dataset/9/5_6.odb,Step-1,Increment      4: Step Time =    1.000,"PART-1-1",           197,      -11.0759,       8.46025,            0.,NA,NA,"",       19.4761,      -11.2173,      -15.9214,   2.40562E-03
C:/temp/dataset/9/5_6.odb,Step-1,Increment      4: Step Time =    1.000,"PART-1-1",           198,      -10.9473,       6.84821,            0.,NA,NA,"",       18.6293,      -10.2889,      -15.5303,   2.50349E-03
C:/temp/dataset/9/5_6.odb,Step-1,Increment      4: Step Time =    1.000,"PART-1-1",           199,       9.64075,      -25.5803,            0.,NA,NA,"",   237.330E-03,  -236.177E-03,  -23.3609E-03,   13.4801E-03
C:/temp/dataset/9/5_6.odb,Step-1,Increment      4: Step Time =    1.000,"PART-1-1",           200,       6.22595,      -2.03957,            0.,NA,NA,"",       9.11241,      -8.31943,      -3.71795,   39.6924E-03
C:/temp/dataset/9/5_6.odb,Step-1,Increment      4: Step Time =    1.000,"PART-1-1",           201,       6.24072,       2.15031,            0.,NA,NA,"",       11.5685,      -10.6445,      -4.53064,   29.4260E-03
C:/temp/dataset/9/5_6.odb,Step-1,Increment      4: Step Time =    1.000,"PART-1-1",           202,      -7.69234,       3.89067,            0.,NA,NA,"",       15.9220,      -9.16551,      -13.0193,   5.72720E-03
C:/temp/dataset/9/5_6.odb,Step-1,Increment      4: Step Time =    1.000,"PART-1-1",           203,       7.31807,       22.0589,            0.,NA,NA,"",       23.8846,      -22.5482,      -7.87745,   3.10945E-03
C:/temp/dataset/9/5_6.odb,Step-1,Increment      4: Step Time =    1.000,"PART-1-1",           204,      -6.44398,       20.4265,            0.,NA,NA,"",       24.6194,      -19.1088,      -15.5231,   4.64241E-03
C:/temp/dataset/9/5_6.odb,Step-1,Increment      4: Step Time =    1.000,"PART-1-1",           205,       12.2962,       25.0128,            0.,NA,NA,"",       25.8723,      -25.2801,      -5.50364,   5.40578E-03
C:/temp/dataset/9/5_6.odb,Step-1,Increment      4: Step Time =    1.000,"PART-1-1",           206,       12.2257,      -24.8009,            0.,NA,NA,"",   498.547E-03,  -409.225E-03,   284.751E-03,   69.8297E-03
C:/temp/dataset/9/5_6.odb,Step-1,Increment      4: Step Time =    1.000,"PART-1-1",           207,      -2.06005,       24.5200,            0.,NA,NA,"",       26.1787,      -22.2627,      -13.7730,   6.67384E-03
C:/temp/dataset/9/5_6.odb,Step-1,Increment      4: Step Time =    1.000,"PART-1-1",           208,       9.31619,       25.0673,            0.,NA,NA,"",       25.7695,      -24.7207,      -7.27694,   4.07458E-03
C:/temp/dataset/9/5_6.odb,Step-1,Increment      4: Step Time =    1.000,"PART-1-1",           209,       3.21447,       24.8112,            0.,NA,NA,"",       25.7659,      -23.3951,      -10.7960,   6.34677E-03
C:/temp/dataset/9/5_6.odb,Step-1,Increment      4: Step Time =    1.000,"PART-1-1",           210,      -7.52022,      -1.18711,            0.,NA,NA,"",       13.4528,      -6.21395,      -11.9316,   4.13266E-03
C:/temp/dataset/9/5_6.odb,Step-1,Increment      4: Step Time =    1.000,"PART-1-1",           211,       10.0127,       14.9017,            0.,NA,NA,"",       19.3741,      -18.7595,      -4.84112,   10.5832E-03
C:/temp/dataset/9/5_6.odb,Step-1,Increment      4: Step Time =    1.000,"PART-1-1",           212,       10.7293,       3.02357,            0.,NA,NA,"",       12.0527,      -11.8538,      -2.18053,   15.2151E-03
C:/temp/dataset/9/5_6.odb,Step-1,Increment      4: Step Time =    1.000,"PART-1-1",           213,       11.4837,       7.36813,            0.,NA,NA,"",       14.7446,      -14.5260,      -2.52991,   13.2583E-03
C:/temp/dataset/9/5_6.odb,Step-1,Increment      4: Step Time =    1.000,"PART-1-1",           214,      -9.20573,       12.9161,            0.,NA,NA,"",       21.1612,      -14.2021,      -15.6875,   3.47317E-03
C:/temp/dataset/9/5_6.odb,Step-1,Increment      4: Step Time =    1.000,"PART-1-1",           215,   314.418E-03,       24.7704,            0.,NA,NA,"",       26.0150,      -22.8381,      -12.4579,   6.55624E-03
C:/temp/dataset/9/5_6.odb,Step-1,Increment      4: Step Time =    1.000,"PART-1-1",           216,       7.52406,       26.3727,            0.,NA,NA,"",       26.5643,      -25.1405,      -8.58005,   5.55017E-03
C:/temp/dataset/9/5_6.odb,Step-1,Increment      4: Step Time =    1.000,"PART-1-1",           217,  -811.906E-03,   82.6841E-03,            0.,NA,NA,"",       11.6427,      -8.26005,      -8.20515,   6.69951E-03
C:/temp/dataset/9/5_6.odb,Step-1,Increment      4: Step Time =    1.000,"PART-1-1",           218,       11.1400,      -19.6444,            0.,NA,NA,"",       1.45487,      -1.43949,   211.006E-03,   36.2803E-03
C:/temp/dataset/9/5_6.odb,Step-1,Increment      4: Step Time =    1.000,"PART-1-1",           219,       11.1036,      -10.4226,            0.,NA,NA,"",       4.75552,      -4.75264,  -165.274E-03,   29.2406E-03
C:/temp/dataset/9/5_6.odb,Step-1,Increment      4: Step Time =    1.000,"PART-1-1",           220,       10.9280,      -5.64335,            0.,NA,NA,"",       7.07783,      -7.04121,  -719.061E-03,   31.9779E-03
C:/temp/dataset/9/5_6.odb,Step-1,Increment      4: Step Time =    1.000,"PART-1-1",           221,       11.0667,       5.48495,            0.,NA,NA,"",       13.5609,      -13.3418,      -2.42761,   12.6322E-03
C:/temp/dataset/9/5_6.odb,Step-1,Increment      4: Step Time =    1.000,"PART-1-1",           222,       11.1390,      -12.7671,            0.,NA,NA,"",       3.76161,      -3.76160,   6.23964E-03,   30.8627E-03
C:/temp/dataset/9/5_6.odb,Step-1,Increment      4: Step Time =    1.000,"PART-1-1",           223,       11.1627,      -15.1016,            0.,NA,NA,"",       2.87342,      -2.87071,   124.863E-03,   33.0832E-03
C:/temp/dataset/9/5_6.odb,Step-1,Increment      4: Step Time =    1.000,"PART-1-1",           224,      -9.10801,       10.4728,            0.,NA,NA,"",       19.8244,      -12.7821,      -15.1534,   3.30262E-03
C:/temp/dataset/9/5_6.odb,Step-1,Increment      4: Step Time =    1.000,"PART-1-1",           225,      -9.12162,       8.28854,            0.,NA,NA,"",       18.6845,      -11.4905,      -14.7336,   3.17431E-03
C:/temp/dataset/9/5_6.odb,Step-1,Increment      4: Step Time =    1.000,"PART-1-1",           226,      -8.73753,       18.6317,            0.,NA,NA,"",       24.1639,      -17.6385,      -16.5159,   2.93716E-03
C:/temp/dataset/9/5_6.odb,Step-1,Increment      4: Step Time =    1.000,"PART-1-1",           227,      -9.90634,  -397.381E-03,            0.,NA,NA,"",       14.8612,      -6.21411,      -13.4997,   2.82945E-03
C:/temp/dataset/9/5_6.odb,Step-1,Increment      4: Step Time =    1.000,"PART-1-1",           228,       9.93939,       19.9385,            0.,NA,NA,"",       22.5706,      -21.7857,      -5.90071,   7.01483E-03
C:/temp/dataset/9/5_6.odb,Step-1,Increment      4: Step Time =    1.000,"PART-1-1",           229,       5.70370,       25.8085,            0.,NA,NA,"",       26.2481,      -24.4537,      -9.53822,   5.13042E-03
C:/temp/dataset/9/5_6.odb,Step-1,Increment      4: Step Time =    1.000,"PART-1-1",           230,       10.0348,       12.2094,            0.,NA,NA,"",       17.6699,      -17.1406,      -4.29215,   10.9402E-03
C:/temp/dataset/9/5_6.odb,Step-1,Increment      4: Step Time =    1.000,"PART-1-1",           231,       9.98921,       17.4486,            0.,NA,NA,"",       20.9929,      -20.2949,      -5.36851,   10.2148E-03
C:/temp/dataset/9/5_6.odb,Step-1,Increment      4: Step Time =    1.000,"PART-1-1",           232,       10.1044,       9.10575,            0.,NA,NA,"",       15.7277,      -15.2988,      -3.64819,   10.9450E-03
C:/temp/dataset/9/5_6.odb,Step-1,Increment      4: Step Time =    1.000,"PART-1-1",           233,      -3.11139,      -1.10310,            0.,NA,NA,"",       11.7454,      -7.12471,      -9.33777,   6.43678E-03
C:/temp/dataset/9/5_6.odb,Step-1,Increment      4: Step Time =    1.000,"PART-1-1",           234,      -6.48507,       25.5695,            0.,NA,NA,"",       27.5639,      -22.0708,      -16.5122,   2.99698E-03
C:/temp/dataset/9/5_6.odb,Step-1,Increment      4: Step Time =    1.000,"PART-1-1",           235,      -4.76537,       24.8732,            0.,NA,NA,"",       26.8330,      -21.9799,      -15.3915,   4.99568E-03
C:/temp/dataset/9/5_6.odb,Step-1,Increment      4: Step Time =    1.000,"PART-1-1",           236,      -8.46351,       26.0628,            0.,NA,NA,"",       28.2616,      -21.9941,      -17.7476,   1.30042E-03
C:/temp/dataset/9/5_6.odb,Step-1,Increment      4: Step Time =    1.000,"PART-1-1",           237,      -9.50218,       15.8804,            0.,NA,NA,"",       22.8582,      -15.8861,      -16.4356,   3.14283E-03
C:/temp/dataset/9/5_6.odb,Step-1,Increment      4: Step Time =    1.000,"PART-1-1",           238,      -5.29510,      -1.38770,            0.,NA,NA,"",       12.4290,      -6.53134,      -10.5745,   5.32604E-03
C:/temp/dataset/9/5_6.odb,Step-1,Increment      4: Step Time =    1.000,"PART-1-1",           239,       11.0587,      -21.7318,            0.,NA,NA,"",   947.704E-03,  -928.468E-03,   189.972E-03,   36.5098E-03
C:/temp/dataset/9/5_6.odb,Step-1,Increment      4: Step Time =    1.000,"PART-1-1",           240,       11.1670,      -17.4071,            0.,NA,NA,"",       2.10067,      -2.09190,   191.711E-03,   35.0885E-03
C:/temp/dataset/9/5_6.odb,Step-1,Increment      4: Step Time =    1.000,"PART-1-1",           241,       11.0513,      -8.06140,            0.,NA,NA,"",       5.85548,      -5.84212,  -395.362E-03,   29.8487E-03
C:/temp/dataset/9/5_6.odb,Step-1,Increment      4: Step Time =    1.000,"PART-1-1",           242,       10.1357,   7.39639E-03,            0.,NA,NA,"",       10.2263,      -10.0332,      -1.97802,   24.3093E-03
C:/temp/dataset/9/5_6.odb,Step-1,Increment      4: Step Time =    1.000,"PART-1-1",           243,       10.6886,      -3.06387,            0.,NA,NA,"",       8.47766,      -8.39394,      -1.18849,   31.7195E-03
C:/temp/dataset/9/5_6.odb,Step-1,Increment      4: Step Time =    1.000,"PART-1-1",           244,       9.76329,       22.4053,            0.,NA,NA,"",       24.1183,      -23.2269,      -6.49633,   2.12898E-03
C:/temp/dataset/9/5_6.odb,Step-1,Increment      4: Step Time =    1.000,"PART-1-1",           245,       8.68231,      -3.74099,            0.,NA,NA,"",       8.01930,      -7.74040,      -2.09654,   30.7954E-03
C:/temp/dataset/9/5_6.odb,Step-1,Increment      4: Step Time =    1.000,"PART-1-1",           246,      -9.34414,       6.30777,            0.,NA,NA,"",       17.7531,      -10.2770,      -14.4761,   3.34099E-03
C:/temp/dataset/9/5_6.odb,Step-1,Increment      4: Step Time =    1.000,"PART-1-1",           247,      -9.93235,       4.61568,            0.,NA,NA,"",       17.1464,      -9.16428,      -14.4919,   3.09515E-03
C:/temp/dataset/9/5_6.odb,Step-1,Increment      4: Step Time =    1.000,"PART-1-1",           248,      -8.14937,       21.0679,            0.,NA,NA,"",       25.3763,      -19.1641,      -16.6340,   2.95192E-03
C:/temp/dataset/9/5_6.odb,Step-1,Increment      4: Step Time =    1.000,"PART-1-1",           249,       10.7972,      -23.3791,            0.,NA,NA,"",   605.223E-03,  -591.194E-03,   129.555E-03,   31.2318E-03
C:/temp/dataset/9/5_6.odb,Step-1,Increment      4: Step Time =    1.000,"PART-1-1",           250,       4.15357,   65.4176E-03,            0.,NA,NA,"",       10.5821,      -9.15243,      -5.31163,   20.4286E-03
C:/temp/dataset/9/5_6.odb,Step-1,Increment      4: Step Time =    1.000,"PART-1-1",           251,       8.71950,       3.82470,            0.,NA,NA,"",       12.4642,      -11.9770,      -3.45086,   13.3760E-03
C:/temp/dataset/9/5_6.odb,Step-1,Increment      4: Step Time =    1.000,"PART-1-1",           252,       5.00281,       23.5204,            0.,NA,NA,"",       24.8639,      -22.9709,      -9.51574,   5.08542E-03
C:/temp/dataset/9/5_6.odb,Step-1,Increment      4: Step Time =    1.000,"PART-1-1",           253,       7.40149,   60.9774E-03,            0.,NA,NA,"",       10.2597,      -9.65317,      -3.47539,   29.6490E-03
C:/temp/dataset/9/5_6.odb,Step-1,Increment      4: Step Time =    1.000,"PART-1-1",           254,      -5.73116,       22.7675,            0.,NA,NA,"",       25.8024,      -20.5885,      -15.5525,   6.00657E-03
C:/temp/dataset/9/5_6.odb,Step-1,Increment      4: Step Time =    1.000,"PART-1-1",           255,      -5.42683,       1.83799,            0.,NA,NA,"",       14.0511,      -8.39495,      -11.2675,   7.08888E-03
C:/temp/dataset/9/5_6.odb,Step-1,Increment      4: Step Time =    1.000,"PART-1-1",           256,       6.81561,       24.0815,            0.,NA,NA,"",       25.1511,      -23.6490,      -8.56161,   3.60200E-03
C:/temp/dataset/9/5_6.odb,Step-1,Increment      4: Step Time =    1.000,"PART-1-1",           257,      -7.40884,       23.3683,            0.,NA,NA,"",       26.5019,      -20.6305,      -16.6353,   3.23725E-03
C:/temp/dataset/9/5_6.odb,Step-1,Increment      4: Step Time =    1.000,"PART-1-1",           258,      -3.69176,       23.9755,            0.,NA,NA,"",       26.1194,      -21.6532,      -14.6068,   6.12736E-03
C:/temp/dataset/9/5_6.odb,Step-1,Increment      4: Step Time =    1.000,"PART-1-1",           259,      -8.10961,       1.76736,            0.,NA,NA,"",       15.0524,      -7.83607,      -12.8518,   4.80585E-03
C:/temp/dataset/9/5_6.odb,Step-1,Increment      4: Step Time =    1.000,"PART-1-1",           260,       5.94930,   61.4696E-03,            0.,NA,NA,"",       10.3636,      -9.43557,      -4.28657,   28.9703E-03
C:/temp/dataset/9/5_6.odb,Step-1,Increment      4: Step Time =    1.000,"PART-1-1",           261,       1.93878,   62.7924E-03,            0.,NA,NA,"",       10.9668,      -8.76363,      -6.59310,   10.4843E-03
C:/temp/dataset/9/5_6.odb,Step-1,Increment      4: Step Time =    1.000,"PART-1-1",           262,       6.71051,      -4.41826,            0.,NA,NA,"",       7.70887,      -7.10462,      -2.99183,   40.6711E-03
C:/temp/dataset/9/5_6.odb,Step-1,Increment      4: Step Time =    1.000,"PART-1-1",           263,      -12.5366,      -2.82410,            0.,NA,NA,"",       15.2015,      -4.27051,      -14.5893,   828.599E-06
C:/temp/dataset/9/5_6.odb,Step-1,Increment      4: Step Time =    1.000,"PART-1-1",           264,       6.75090,       4.53602,            0.,NA,NA,"",       12.9384,      -12.0542,      -4.70080,   17.9448E-03
C:/temp/dataset/9/5_6.odb,Step-1,Increment      4: Step Time =    1.000,"PART-1-1",           265,      -5.22339,       3.46233,            0.,NA,NA,"",       14.8137,      -9.38580,      -11.4609,   8.57617E-03
C:/temp/dataset/9/5_6.odb,Step-1,Increment      4: Step Time =    1.000,"PART-1-1",           266,       4.93795,       21.9167,            0.,NA,NA,"",       23.8770,      -22.0122,      -9.25071,   7.06821E-03
C:/temp/dataset/9/5_6.odb,Step-1,Increment      4: Step Time =    1.000,"PART-1-1",           267,       8.13144,      -1.42002,            0.,NA,NA,"",       9.36283,      -8.93564,      -2.79587,   31.7115E-03
C:/temp/dataset/9/5_6.odb,Step-1,Increment      4: Step Time =    1.000,"PART-1-1",           268,      -3.13115,       1.39136,            0.,NA,NA,"",       13.0356,      -8.57605,      -9.81723,   7.27086E-03
C:/temp/dataset/9/5_6.odb,Step-1,Increment      4: Step Time =    1.000,"PART-1-1",           269,       9.17709,       6.32873,            0.,NA,NA,"",       13.9819,      -13.4954,      -3.65613,   8.76868E-03
C:/temp/dataset/9/5_6.odb,Step-1,Increment      4: Step Time =    1.000,"PART-1-1",           270,      -11.0423,       1.34077,            0.,NA,NA,"",       16.1187,      -7.01846,      -14.5105,   2.36918E-03
C:/temp/dataset/9/5_6.odb,Step-1,Increment      4: Step Time =    1.000,"PART-1-1",           271,      -10.1478,       26.6048,            0.,NA,NA,"",       28.9519,      -21.9972,      -18.8238,   1.11406E-03
C:/temp/dataset/9/5_6.odb,Step-1,Increment      4: Step Time =    1.000,"PART-1-1",           272,      -10.1118,       21.9370,            0.,NA,NA,"",       26.3506,      -19.3028,      -17.9375,   1.51574E-03
C:/temp/dataset/9/5_6.odb,Step-1,Increment      4: Step Time =    1.000,"PART-1-1",           273,       8.13886,       1.50501,            0.,NA,NA,"",       11.0883,      -10.5728,      -3.34180,   23.9191E-03
C:/temp/dataset/9/5_6.odb,Step-1,Increment      4: Step Time =    1.000,"PART-1-1",           274,      -7.06249,   219.393E-03,            0.,NA,NA,"",       13.8978,      -7.12955,      -11.9298,   5.10497E-03
C:/temp/dataset/9/5_6.odb,Step-1,Increment      4: Step Time =    1.000,"PART-1-1",           275,      -5.40522,   241.534E-03,            0.,NA,NA,"",       13.2517,      -7.46469,      -10.9492,   6.05373E-03
C:/temp/dataset/9/5_6.odb,Step-1,Increment      4: Step Time =    1.000,"PART-1-1",           276,      -3.80180,   194.541E-03,            0.,NA,NA,"",       12.6423,      -7.74865,      -9.98931,   6.66086E-03
C:/temp/dataset/9/5_6.odb,Step-1,Increment      4: Step Time =    1.000,"PART-1-1",           277,      -2.71285,       28.4954,            0.,NA,NA,"",       28.6248,      -24.4506,      -14.8845,   3.22841E-03
C:/temp/dataset/9/5_6.odb,Step-1,Increment      4: Step Time =    1.000,"PART-1-1",           278,         -3.75,           30.,            0.,NA,NA,"",       29.6596,      -25.1292,      -15.7548,   1.11145E-03
C:/temp/dataset/9/5_6.odb,Step-1,Increment      4: Step Time =    1.000,"PART-1-1",           279,      -5.26224,       28.8665,            0.,NA,NA,"",       29.2432,      -24.1997,      -16.4175,   1.25492E-03
C:/temp/dataset/9/5_6.odb,Step-1,Increment      4: Step Time =    1.000,"PART-1-1",           280,      -4.22509,       27.3619,            0.,NA,NA,"",       28.1912,      -23.5188,      -15.5438,   3.65829E-03
C:/temp/dataset/9/5_6.odb,Step-1,Increment      4: Step Time =    1.000,"PART-1-1",           281,      -3.84553,       25.9321,            0.,NA,NA,"",       27.2911,      -22.7593,      -15.0604,   4.78583E-03
C:/temp/dataset/9/5_6.odb,Step-1,Increment      4: Step Time =    1.000,"PART-1-1",           282,      -6.00478,       26.6512,            0.,NA,NA,"",       28.0937,      -22.7839,      -16.4362,   2.56578E-03
C:/temp/dataset/9/5_6.odb,Step-1,Increment      4: Step Time =    1.000,"PART-1-1",           283,      -5.62522,       25.2214,            0.,NA,NA,"",       27.1952,      -22.0257,      -15.9514,   3.93698E-03
C:/temp/dataset/9/5_6.odb,Step-1,Increment      4: Step Time =    1.000,"PART-1-1",           284,      -10.0879,       29.0985,            0.,NA,NA,"",       30.3391,      -23.4502,      -19.2496,   1.05716E-03
C:/temp/dataset/9/5_6.odb,Step-1,Increment      4: Step Time =    1.000,"PART-1-1",           285,        -11.25,           30.,            0.,NA,NA,"",       31.1135,      -23.7579,      -20.0902,   833.714E-06
C:/temp/dataset/9/5_6.odb,Step-1,Increment      4: Step Time =    1.000,"PART-1-1",           286,      -12.4706,       28.9480,            0.,NA,NA,"",       30.8217,      -22.9233,      -20.6033,   574.864E-06
C:/temp/dataset/9/5_6.odb,Step-1,Increment      4: Step Time =    1.000,"PART-1-1",           287,      -11.3086,       28.0465,            0.,NA,NA,"",       30.0347,      -22.6165,      -19.7630,   936.165E-06
C:/temp/dataset/9/5_6.odb,Step-1,Increment      4: Step Time =    1.000,"PART-1-1",           288,      -13.4495,       25.5029,            0.,NA,NA,"",       29.1923,      -20.7478,      -20.5357,   1.06241E-03
C:/temp/dataset/9/5_6.odb,Step-1,Increment      4: Step Time =    1.000,"PART-1-1",           289,          -15.,       24.5313,            0.,NA,NA,"",       29.1149,      -19.8967,      -21.2555,   1.75335E-03
C:/temp/dataset/9/5_6.odb,Step-1,Increment      4: Step Time =    1.000,"PART-1-1",           290,      -13.6920,       23.1529,            0.,NA,NA,"",       27.9974,      -19.3402,      -20.2438,   1.59139E-03
C:/temp/dataset/9/5_6.odb,Step-1,Increment      4: Step Time =    1.000,"PART-1-1",           291,      -12.1415,       24.1246,            0.,NA,NA,"",       28.0869,      -20.1925,      -19.5227,   1.40267E-03
C:/temp/dataset/9/5_6.odb,Step-1,Increment      4: Step Time =    1.000,"PART-1-1",           292,          8.75,          -30.,            0.,NA,NA,"",            0.,   390.012E-42,   575.658E-42,   31.8749E-03
C:/temp/dataset/9/5_6.odb,Step-1,Increment      4: Step Time =    1.000,"PART-1-1",           293,       9.96407,      -28.8633,            0.,NA,NA,"",   7.70638E-03,   7.20727E-03,   2.72828E-03,   6.14133E-03
C:/temp/dataset/9/5_6.odb,Step-1,Increment      4: Step Time =    1.000,"PART-1-1",           294,       8.68711,      -27.7998,            0.,NA,NA,"",   64.9604E-03,  -35.8599E-03,  -54.1656E-03,   33.0268E-03
C:/temp/dataset/9/5_6.odb,Step-1,Increment      4: Step Time =    1.000,"PART-1-1",           295,       7.47304,      -28.9365,            0.,NA,NA,"",   51.2636E-03,   1.49123E-03,  -51.2419E-03,   59.6210E-03
C:/temp/dataset/9/5_6.odb,Step-1,Increment      4: Step Time =    1.000,"PART-1-1",           296,       10.9279,      -22.5555,            0.,NA,NA,"",   768.255E-03,  -751.608E-03,   159.065E-03,   33.7923E-03
C:/temp/dataset/9/5_6.odb,Step-1,Increment      4: Step Time =    1.000,"PART-1-1",           297,       10.0765,      -21.6813,            0.,NA,NA,"",   906.251E-03,  -906.250E-03,  -1.54955E-03,   15.3277E-03
C:/temp/dataset/9/5_6.odb,Step-1,Increment      4: Step Time =    1.000,"PART-1-1",           298,       9.14242,      -22.6395,            0.,NA,NA,"",   708.356E-03,  -691.591E-03,  -153.201E-03,   19.8076E-03
C:/temp/dataset/9/5_6.odb,Step-1,Increment      4: Step Time =    1.000,"PART-1-1",           299,       9.99384,      -23.5137,            0.,NA,NA,"",   547.231E-03,  -547.205E-03,   5.37494E-03,   14.9237E-03
C:/temp/dataset/9/5_6.odb,Step-1,Increment      4: Step Time =    1.000,"PART-1-1",           300,       7.08785,      -18.4988,            0.,NA,NA,"",       1.85143,      -1.62283,  -891.196E-03,   65.5413E-03
C:/temp/dataset/9/5_6.odb,Step-1,Increment      4: Step Time =    1.000,"PART-1-1",           301,       6.04673,      -17.4684,            0.,NA,NA,"",       2.30671,      -1.89671,      -1.31280,   89.5913E-03
C:/temp/dataset/9/5_6.odb,Step-1,Increment      4: Step Time =    1.000,"PART-1-1",           302,            5.,      -18.5417,            0.,NA,NA,"",       2.19609,      -1.61425,      -1.48897,   118.159E-03
C:/temp/dataset/9/5_6.odb,Step-1,Increment      4: Step Time =    1.000,"PART-1-1",           303,       6.04112,      -19.5721,            0.,NA,NA,"",       1.71686,      -1.34847,      -1.06266,   93.7930E-03
C:/temp/dataset/9/5_6.odb,Step-1,Increment      4: Step Time =    1.000,"PART-1-1",           304,       7.10245,      -14.2066,            0.,NA,NA,"",       3.24654,      -2.95218,      -1.35080,   59.6811E-03
C:/temp/dataset/9/5_6.odb,Step-1,Increment      4: Step Time =    1.000,"PART-1-1",           305,       6.04975,      -13.2285,            0.,NA,NA,"",       3.75840,      -3.25484,      -1.87926,   81.1681E-03
C:/temp/dataset/9/5_6.odb,Step-1,Increment      4: Step Time =    1.000,"PART-1-1",           306,            5.,       -14.375,            0.,NA,NA,"",       3.53097,      -2.82881,      -2.11319,   107.186E-03
C:/temp/dataset/9/5_6.odb,Step-1,Increment      4: Step Time =    1.000,"PART-1-1",           307,       6.05270,      -15.3531,            0.,NA,NA,"",       2.98753,      -2.53364,      -1.58305,   85.3410E-03
C:/temp/dataset/9/5_6.odb,Step-1,Increment      4: Step Time =    1.000,"PART-1-1",           308,            5.,      -6.04167,            0.,NA,NA,"",       7.06961,      -6.08784,      -3.59410,   106.075E-03
C:/temp/dataset/9/5_6.odb,Step-1,Increment      4: Step Time =    1.000,"PART-1-1",           309,       5.97724,      -6.85181,            0.,NA,NA,"",       6.52877,      -5.82855,      -2.94157,   71.7106E-03
C:/temp/dataset/9/5_6.odb,Step-1,Increment      4: Step Time =    1.000,"PART-1-1",           310,       6.83249,      -5.51927,            0.,NA,NA,"",       7.10266,      -6.55557,      -2.73356,   35.7649E-03
C:/temp/dataset/9/5_6.odb,Step-1,Increment      4: Step Time =    1.000,"PART-1-1",           311,       5.85525,      -4.70913,            0.,NA,NA,"",       7.61521,      -6.82227,      -3.38350,   60.5594E-03
C:/temp/dataset/9/5_6.odb,Step-1,Increment      4: Step Time =    1.000,"PART-1-1",           312,       4.27314,       1.25089,            0.,NA,NA,"",       11.2541,      -9.83513,      -5.47037,   20.8410E-03
C:/temp/dataset/9/5_6.odb,Step-1,Increment      4: Step Time =    1.000,"PART-1-1",           313,       3.27994,       2.49943,            0.,NA,NA,"",       12.1257,      -10.3752,      -6.27605,   14.9172E-03
C:/temp/dataset/9/5_6.odb,Step-1,Increment      4: Step Time =    1.000,"PART-1-1",           314,       2.05297,       1.31265,            0.,NA,NA,"",       11.6548,      -9.49462,      -6.75910,   8.99130E-03
C:/temp/dataset/9/5_6.odb,Step-1,Increment      4: Step Time =    1.000,"PART-1-1",           315,       3.04617,   64.1050E-03,            0.,NA,NA,"",       10.7568,      -8.96104,      -5.95055,   14.7547E-03
C:/temp/dataset/9/5_6.odb,Step-1,Increment      4: Step Time =    1.000,"PART-1-1",           316,       6.28410,       12.4112,            0.,NA,NA,"",       17.7914,      -16.5446,      -6.54289,   8.07312E-03
C:/temp/dataset/9/5_6.odb,Step-1,Increment      4: Step Time =    1.000,"PART-1-1",           317,            5.,         11.25,            0.,NA,NA,"",       17.1369,      -15.6100,      -7.07104,   13.0801E-03
C:/temp/dataset/9/5_6.odb,Step-1,Increment      4: Step Time =    1.000,"PART-1-1",           318,       6.24476,       9.82085,            0.,NA,NA,"",       16.1746,      -15.0051,      -6.03845,   12.5249E-03
C:/temp/dataset/9/5_6.odb,Step-1,Increment      4: Step Time =    1.000,"PART-1-1",           319,       7.52885,       10.9821,            0.,NA,NA,"",       16.8598,      -15.9316,      -5.51697,   10.0025E-03
C:/temp/dataset/9/5_6.odb,Step-1,Increment      4: Step Time =    1.000,"PART-1-1",           320,       6.23557,       19.9374,            0.,NA,NA,"",       22.5822,      -21.0785,      -8.10265,   12.9703E-03
C:/temp/dataset/9/5_6.odb,Step-1,Increment      4: Step Time =    1.000,"PART-1-1",           321,            5.,         18.75,            0.,NA,NA,"",       21.8703,      -20.1087,      -8.59950,   11.8991E-03
C:/temp/dataset/9/5_6.odb,Step-1,Increment      4: Step Time =    1.000,"PART-1-1",           322,       6.25255,       17.4722,            0.,NA,NA,"",       21.0032,      -19.5830,      -7.59205,   5.81795E-03
C:/temp/dataset/9/5_6.odb,Step-1,Increment      4: Step Time =    1.000,"PART-1-1",           323,       7.48812,       18.6595,            0.,NA,NA,"",       21.7366,      -20.5451,      -7.09788,   10.0899E-03
C:/temp/dataset/9/5_6.odb,Step-1,Increment      4: Step Time =    1.000,"PART-1-1",           324,       12.4612,       28.7577,            0.,NA,NA,"",       28.2097,      -27.5365,      -6.12589,   6.80352E-03
C:/temp/dataset/9/5_6.odb,Step-1,Increment      4: Step Time =    1.000,"PART-1-1",           325,         11.25,           30.,            0.,NA,NA,"",       28.9121,      -28.0321,      -7.07872,   8.34838E-03
C:/temp/dataset/9/5_6.odb,Step-1,Increment      4: Step Time =    1.000,"PART-1-1",           326,       9.95383,       28.8406,            0.,NA,NA,"",       28.1343,      -27.0826,      -7.62021,   8.28280E-03
C:/temp/dataset/9/5_6.odb,Step-1,Increment      4: Step Time =    1.000,"PART-1-1",           327,       11.1650,       27.5983,            0.,NA,NA,"",       27.4122,      -26.5885,      -6.66937,   6.99494E-03
C:/temp/dataset/9/5_6.odb,Step-1,Increment      4: Step Time =    1.000,"PART-1-1",           328,       9.61193,       26.3742,            0.,NA,NA,"",       26.5901,      -25.5534,      -7.35228,   5.68929E-03
C:/temp/dataset/9/5_6.odb,Step-1,Increment      4: Step Time =    1.000,"PART-1-1",           329,       10.8062,       25.0400,            0.,NA,NA,"",       25.8034,      -24.9994,      -6.39108,   4.59177E-03
C:/temp/dataset/9/5_6.odb,Step-1,Increment      4: Step Time =    1.000,"PART-1-1",           330,       12.3592,       26.2641,            0.,NA,NA,"",       26.6544,      -26.0362,      -5.70764,   6.03018E-03
C:/temp/dataset/9/5_6.odb,Step-1,Increment      4: Step Time =    1.000,"PART-1-1",           331,       7.54419,       28.9985,            0.,NA,NA,"",       28.1915,      -26.6949,      -9.06326,   9.39638E-03
C:/temp/dataset/9/5_6.odb,Step-1,Increment      4: Step Time =    1.000,"PART-1-1",           332,          6.25,           30.,            0.,NA,NA,"",       28.8212,      -27.0292,      -10.0043,   11.3656E-03
C:/temp/dataset/9/5_6.odb,Step-1,Increment      4: Step Time =    1.000,"PART-1-1",           333,       5.09159,       28.9175,            0.,NA,NA,"",       28.1833,      -26.1642,      -10.4753,   9.19360E-03
C:/temp/dataset/9/5_6.odb,Step-1,Increment      4: Step Time =    1.000,"PART-1-1",           334,       6.38578,       27.9160,            0.,NA,NA,"",       27.5320,      -25.8278,      -9.53617,   7.32327E-03
C:/temp/dataset/9/5_6.odb,Step-1,Increment      4: Step Time =    1.000,"PART-1-1",           335,       2.95769,       26.1428,            0.,NA,NA,"",       26.5981,      -24.1283,      -11.1932,   6.07077E-03
C:/temp/dataset/9/5_6.odb,Step-1,Increment      4: Step Time =    1.000,"PART-1-1",           336,       4.45909,       25.3098,            0.,NA,NA,"",       25.9937,      -23.9222,      -10.1686,   5.16202E-03
C:/temp/dataset/9/5_6.odb,Step-1,Increment      4: Step Time =    1.000,"PART-1-1",           337,       5.44343,       26.8217,            0.,NA,NA,"",       26.8817,      -25.0002,      -9.87997,   6.11463E-03
C:/temp/dataset/9/5_6.odb,Step-1,Increment      4: Step Time =    1.000,"PART-1-1",           338,       3.94204,       27.6547,            0.,NA,NA,"",       27.4599,      -25.2012,      -10.9062,   6.67925E-03
C:/temp/dataset/9/5_6.odb,Step-1,Increment      4: Step Time =    1.000,"PART-1-1",           339,       6.06395,       7.26936,            0.,NA,NA,"",       14.6134,      -13.4875,      -5.62486,   17.8039E-03
C:/temp/dataset/9/5_6.odb,Step-1,Increment      4: Step Time =    1.000,"PART-1-1",           340,       7.30871,       8.34021,            0.,NA,NA,"",       15.2186,      -14.3325,      -5.11737,   12.7133E-03
C:/temp/dataset/9/5_6.odb,Step-1,Increment      4: Step Time =    1.000,"PART-1-1",           341,            5.,          8.75,            0.,NA,NA,"",       15.5951,      -14.1499,      -6.55645,   20.6119E-03
C:/temp/dataset/9/5_6.odb,Step-1,Increment      4: Step Time =    1.000,"PART-1-1",           342,      -13.9291,       1.47830,            0.,NA,NA,"",       17.5148,      -6.54143,      -16.2474,   1.33856E-03
C:/temp/dataset/9/5_6.odb,Step-1,Increment      4: Step Time =    1.000,"PART-1-1",           343,          -15.,    468.75E-03,            0.,NA,NA,"",       17.6441,      -5.73855,      -16.6849,   965.328E-06
C:/temp/dataset/9/5_6.odb,Step-1,Increment      4: Step Time =    1.000,"PART-1-1",           344,      -13.8152,  -655.377E-03,            0.,NA,NA,"",       16.6342,      -5.30373,      -15.7660,   926.141E-06
C:/temp/dataset/9/5_6.odb,Step-1,Increment      4: Step Time =    1.000,"PART-1-1",           345,      -12.7443,   354.171E-03,            0.,NA,NA,"",       16.4995,      -6.10704,      -15.3277,   1.40707E-03
C:/temp/dataset/9/5_6.odb,Step-1,Increment      4: Step Time =    1.000,"PART-1-1",           346,      -13.9678,       8.16706,            0.,NA,NA,"",       20.4637,      -10.4876,      -17.5720,   801.778E-06
C:/temp/dataset/9/5_6.odb,Step-1,Increment      4: Step Time =    1.000,"PART-1-1",           347,          -15.,       7.03125,            0.,NA,NA,"",       20.3740,      -9.61610,      -17.9619,   449.929E-06
C:/temp/dataset/9/5_6.odb,Step-1,Increment      4: Step Time =    1.000,"PART-1-1",           348,      -13.6804,       5.85321,            0.,NA,NA,"",       19.2753,      -9.17445,      -16.9519,   1.34242E-03
C:/temp/dataset/9/5_6.odb,Step-1,Increment      4: Step Time =    1.000,"PART-1-1",           349,      -12.6482,       6.98902,            0.,NA,NA,"",       19.3711,      -10.0452,      -16.5630,   1.67906E-03
C:/temp/dataset/9/5_6.odb,Step-1,Increment      4: Step Time =    1.000,"PART-1-1",           350,      -5.93089,       17.7206,            0.,NA,NA,"",       22.9555,      -17.6307,      -14.7009,   7.99682E-03
C:/temp/dataset/9/5_6.odb,Step-1,Increment      4: Step Time =    1.000,"PART-1-1",           351,      -7.00986,       16.6597,            0.,NA,NA,"",       22.6137,      -16.8104,      -15.1259,   6.22556E-03
C:/temp/dataset/9/5_6.odb,Step-1,Increment      4: Step Time =    1.000,"PART-1-1",           352,      -6.07897,       15.1891,            0.,NA,NA,"",       21.5468,      -16.1255,      -14.2909,   6.74183E-03
C:/temp/dataset/9/5_6.odb,Step-1,Increment      4: Step Time =    1.000,"PART-1-1",           353,           -5.,         16.25,            0.,NA,NA,"",       21.8953,      -16.9474,      -13.8633,   8.49279E-03
C:/temp/dataset/9/5_6.odb,Step-1,Increment      4: Step Time =    1.000,"PART-1-1",           354,      -7.79966,       18.2865,            0.,NA,NA,"",       23.7297,      -17.6124,      -15.9029,   4.88582E-03
C:/temp/dataset/9/5_6.odb,Step-1,Increment      4: Step Time =    1.000,"PART-1-1",           355,      -6.65288,       19.1839,            0.,NA,NA,"",       23.9602,      -18.3492,      -15.4077,   5.56361E-03
C:/temp/dataset/9/5_6.odb,Step-1,Increment      4: Step Time =    1.000,"PART-1-1",           356,      -7.29668,       20.7472,            0.,NA,NA,"",       24.9944,      -19.1366,      -16.0782,   3.72532E-03
C:/temp/dataset/9/5_6.odb,Step-1,Increment      4: Step Time =    1.000,"PART-1-1",           357,      -8.44345,       19.8498,            0.,NA,NA,"",       24.7670,      -18.4027,      -16.5755,   2.64974E-03
C:/temp/dataset/9/5_6.odb,Step-1,Increment      4: Step Time =    1.000,"PART-1-1",           358,      -2.59303,       4.06073,            0.,NA,NA,"",       14.3127,      -10.2329,      -10.0070,   10.9729E-03
C:/temp/dataset/9/5_6.odb,Step-1,Increment      4: Step Time =    1.000,"PART-1-1",           359,      -1.46713,       2.91047,            0.,NA,NA,"",       13.3655,      -9.77197,      -9.11846,   9.38151E-03
C:/temp/dataset/9/5_6.odb,Step-1,Increment      4: Step Time =    1.000,"PART-1-1",           360,  -124.098E-03,       3.84974,            0.,NA,NA,"",       13.5557,      -10.5573,      -8.50292,   13.9904E-03
C:/temp/dataset/9/5_6.odb,Step-1,Increment      4: Step Time =    1.000,"PART-1-1",           361,         -1.25,            5.,            0.,NA,NA,"",       14.4805,      -11.0225,      -9.39088,   16.5705E-03
C:/temp/dataset/9/5_6.odb,Step-1,Increment      4: Step Time =    1.000,"PART-1-1",           362,      -11.2683,  -541.568E-03,            0.,NA,NA,"",       15.4369,      -5.86460,      -14.2795,   2.05681E-03
C:/temp/dataset/9/5_6.odb,Step-1,Increment      4: Step Time =    1.000,"PART-1-1",           363,      -10.4743,   471.696E-03,            0.,NA,NA,"",       15.4890,      -6.61603,      -14.0049,   2.49405E-03
C:/temp/dataset/9/5_6.odb,Step-1,Increment      4: Step Time =    1.000,"PART-1-1",           364,      -11.9503,       1.36743,            0.,NA,NA,"",       16.5427,      -6.85858,      -15.0539,   1.91407E-03
C:/temp/dataset/9/5_6.odb,Step-1,Increment      4: Step Time =    1.000,"PART-1-1",           365,      -13.0095,       9.29789,            0.,NA,NA,"",       20.6238,      -11.3410,      -17.2256,   1.35229E-03
C:/temp/dataset/9/5_6.odb,Step-1,Increment      4: Step Time =    1.000,"PART-1-1",           366,      -14.0417,       10.3496,            0.,NA,NA,"",       21.5352,      -11.7640,      -18.0381,   770.760E-06
C:/temp/dataset/9/5_6.odb,Step-1,Increment      4: Step Time =    1.000,"PART-1-1",           367,          -15.,       9.21875,            0.,NA,NA,"",       21.3791,      -10.9101,      -18.3857,   536.064E-06
C:/temp/dataset/9/5_6.odb,Step-1,Increment      4: Step Time =    1.000,"PART-1-1",           368,      -6.40766,      -1.28741,            0.,NA,NA,"",       12.9318,      -6.37247,      -11.2527,   4.68333E-03
C:/temp/dataset/9/5_6.odb,Step-1,Increment      4: Step Time =    1.000,"PART-1-1",           369,      -5.35016,  -573.084E-03,            0.,NA,NA,"",       12.8370,      -6.99824,      -10.7617,   5.57009E-03
C:/temp/dataset/9/5_6.odb,Step-1,Increment      4: Step Time =    1.000,"PART-1-1",           370,      -6.23385,   230.463E-03,            0.,NA,NA,"",       13.5686,      -7.29713,      -11.4394,   5.55175E-03
C:/temp/dataset/9/5_6.odb,Step-1,Increment      4: Step Time =    1.000,"PART-1-1",           371,      -7.29135,  -483.859E-03,            0.,NA,NA,"",       13.6696,      -6.67205,      -11.9307,   4.52723E-03
C:/temp/dataset/9/5_6.odb,Step-1,Increment      4: Step Time =    1.000,"PART-1-1",           372,   952.242E-03,      -2.53706,            0.,NA,NA,"",       9.74332,      -7.08252,      -6.69105,   11.1874E-03
C:/temp/dataset/9/5_6.odb,Step-1,Increment      4: Step Time =    1.000,"PART-1-1",           373,  -130.910E-03,      -3.80019,            0.,NA,NA,"",       9.37185,      -6.12908,      -7.08986,   9.08973E-03
C:/temp/dataset/9/5_6.odb,Step-1,Increment      4: Step Time =    1.000,"PART-1-1",           374,          1.25,           -5.,            0.,NA,NA,"",       8.31575,      -5.69365,      -6.06086,   12.9082E-03
C:/temp/dataset/9/5_6.odb,Step-1,Increment      4: Step Time =    1.000,"PART-1-1",           375,       2.33315,      -3.73687,            0.,NA,NA,"",       8.74430,      -6.66300,      -5.66279,   14.5526E-03
C:/temp/dataset/9/5_6.odb,Step-1,Increment      4: Step Time =    1.000,"PART-1-1",           376,       4.26686,      -1.13377,            0.,NA,NA,"",       9.87086,      -8.50094,      -5.01675,   23.2821E-03
C:/temp/dataset/9/5_6.odb,Step-1,Increment      4: Step Time =    1.000,"PART-1-1",           377,       2.05254,      -1.20548,            0.,NA,NA,"",       10.2277,      -8.06186,      -6.29385,   11.7140E-03
C:/temp/dataset/9/5_6.odb,Step-1,Increment      4: Step Time =    1.000,"PART-1-1",           378,       3.27323,      -2.40335,            0.,NA,NA,"",       9.31099,      -7.61779,      -5.35385,   17.6666E-03
C:/temp/dataset/9/5_6.odb,Step-1,Increment      4: Step Time =    1.000,"PART-1-1",           379,       10.4325,       1.51548,            0.,NA,NA,"",       11.1347,      -10.9388,      -2.07982,   19.3892E-03
C:/temp/dataset/9/5_6.odb,Step-1,Increment      4: Step Time =    1.000,"PART-1-1",           380,       11.3847,  -3.51279E-03,            0.,NA,NA,"",       10.3065,      -10.2233,      -1.30736,   25.5034E-03
C:/temp/dataset/9/5_6.odb,Step-1,Increment      4: Step Time =    1.000,"PART-1-1",           381,       12.7244,       1.31309,            0.,NA,NA,"",       11.2336,      -11.2054,  -795.682E-03,   28.5730E-03
C:/temp/dataset/9/5_6.odb,Step-1,Increment      4: Step Time =    1.000,"PART-1-1",           382,       11.7722,       2.83209,            0.,NA,NA,"",       12.0246,      -11.9218,      -1.56884,   18.8647E-03
C:/temp/dataset/9/5_6.odb,Step-1,Increment      4: Step Time =    1.000,"PART-1-1",           383,       9.00808,      -7.25637,            0.,NA,NA,"",       6.15126,      -5.98534,      -1.41905,   17.3870E-03
C:/temp/dataset/9/5_6.odb,Step-1,Increment      4: Step Time =    1.000,"PART-1-1",           384,       7.95196,      -6.36313,            0.,NA,NA,"",       6.61405,      -6.28944,      -2.04661,   27.4403E-03
C:/temp/dataset/9/5_6.odb,Step-1,Increment      4: Step Time =    1.000,"PART-1-1",           385,       7.00211,      -7.70397,            0.,NA,NA,"",       6.01181,      -5.55497,      -2.29873,   49.9319E-03
C:/temp/dataset/9/5_6.odb,Step-1,Increment      4: Step Time =    1.000,"PART-1-1",           386,       8.05823,      -8.59720,            0.,NA,NA,"",       5.52077,      -5.25991,      -1.67697,   32.8026E-03
C:/temp/dataset/9/5_6.odb,Step-1,Increment      4: Step Time =    1.000,"PART-1-1",           387,       7.09104,      -12.0381,            0.,NA,NA,"",       4.08814,      -3.74965,      -1.62881,   56.9837E-03
C:/temp/dataset/9/5_6.odb,Step-1,Increment      4: Step Time =    1.000,"PART-1-1",           388,       6.04129,      -11.1013,            0.,NA,NA,"",       4.61192,      -4.05245,      -2.20169,   77.2235E-03
C:/temp/dataset/9/5_6.odb,Step-1,Increment      4: Step Time =    1.000,"PART-1-1",           389,            5.,      -12.2917,            0.,NA,NA,"",       4.31590,      -3.55176,      -2.45193,   101.768E-03
C:/temp/dataset/9/5_6.odb,Step-1,Increment      4: Step Time =    1.000,"PART-1-1",           390,       9.13117,      -18.4822,            0.,NA,NA,"",       1.70723,      -1.67456,  -332.376E-03,   19.4078E-03
C:/temp/dataset/9/5_6.odb,Step-1,Increment      4: Step Time =    1.000,"PART-1-1",           391,       10.1297,      -19.6034,            0.,NA,NA,"",       1.40638,      -1.40600,  -32.4155E-03,   15.5428E-03
C:/temp/dataset/9/5_6.odb,Step-1,Increment      4: Step Time =    1.000,"PART-1-1",           392,       11.1535,      -18.5257,            0.,NA,NA,"",       1.76426,      -1.75226,   205.473E-03,   35.6411E-03
C:/temp/dataset/9/5_6.odb,Step-1,Increment      4: Step Time =    1.000,"PART-1-1",           393,       10.1550,      -17.4045,            0.,NA,NA,"",       2.03860,      -2.03624,  -98.0574E-03,   15.3511E-03
C:/temp/dataset/9/5_6.odb,Step-1,Increment      4: Step Time =    1.000,"PART-1-1",           394,       6.27183,       14.9637,            0.,NA,NA,"",       19.4039,      -18.0697,      -7.07109,   4.82475E-03
C:/temp/dataset/9/5_6.odb,Step-1,Increment      4: Step Time =    1.000,"PART-1-1",           395,       7.52438,       16.1859,            0.,NA,NA,"",       20.1551,      -19.0531,      -6.57349,   9.38726E-03
C:/temp/dataset/9/5_6.odb,Step-1,Increment      4: Step Time =    1.000,"PART-1-1",           396,            5.,         16.25,            0.,NA,NA,"",       20.2769,      -18.5901,      -8.09692,   1.01758E-03
C:/temp/dataset/9/5_6.odb,Step-1,Increment      4: Step Time =    1.000,"PART-1-1",           397,       2.56719,       21.1071,            0.,NA,NA,"",       23.5657,      -21.1106,      -10.4732,   7.78832E-03
C:/temp/dataset/9/5_6.odb,Step-1,Increment      4: Step Time =    1.000,"PART-1-1",           398,       1.41709,       22.2600,            0.,NA,NA,"",       24.3808,      -21.5756,      -11.3540,   6.95766E-03
C:/temp/dataset/9/5_6.odb,Step-1,Increment      4: Step Time =    1.000,"PART-1-1",           399,   99.9026E-03,       21.1528,            0.,NA,NA,"",       23.8803,      -20.7000,      -11.9071,   4.63099E-03
C:/temp/dataset/9/5_6.odb,Step-1,Increment      4: Step Time =    1.000,"PART-1-1",           400,          1.25,           20.,            0.,NA,NA,"",       23.0517,      -20.2418,      -11.0294,   7.38123E-03
C:/temp/dataset/9/5_6.odb,Step-1,Increment      4: Step Time =    1.000,"PART-1-1",           401,       7.55593,       13.6250,            0.,NA,NA,"",       18.5261,      -17.5156,      -6.03492,   8.60558E-03
C:/temp/dataset/9/5_6.odb,Step-1,Increment      4: Step Time =    1.000,"PART-1-1",           402,            5.,         13.75,            0.,NA,NA,"",       18.6998,      -17.0921,      -7.58572,   7.18775E-03
C:/temp/dataset/9/5_6.odb,Step-1,Increment      4: Step Time =    1.000,"PART-1-1",           403,       8.77818,       14.9146,            0.,NA,NA,"",       19.3483,      -18.5284,      -5.57274,   9.65375E-03
C:/temp/dataset/9/5_6.odb,Step-1,Increment      4: Step Time =    1.000,"PART-1-1",           404,       10.0010,       16.1752,            0.,NA,NA,"",       20.1830,      -19.5270,      -5.10417,   10.4686E-03
C:/temp/dataset/9/5_6.odb,Step-1,Increment      4: Step Time =    1.000,"PART-1-1",           405,       8.74716,       17.4465,            0.,NA,NA,"",       20.9616,      -20.0533,      -6.10379,   10.3568E-03
C:/temp/dataset/9/5_6.odb,Step-1,Increment      4: Step Time =    1.000,"PART-1-1",           406,       10.1219,       5.90684,            0.,NA,NA,"",       13.7588,      -13.4187,      -3.04023,   9.83527E-03
C:/temp/dataset/9/5_6.odb,Step-1,Increment      4: Step Time =    1.000,"PART-1-1",           407,       8.94830,       5.07672,            0.,NA,NA,"",       13.2184,      -12.7317,      -3.55392,   9.86299E-03
C:/temp/dataset/9/5_6.odb,Step-1,Increment      4: Step Time =    1.000,"PART-1-1",           408,       9.72441,       3.42413,            0.,NA,NA,"",       12.2428,      -11.9152,      -2.81293,   12.5738E-03
C:/temp/dataset/9/5_6.odb,Step-1,Increment      4: Step Time =    1.000,"PART-1-1",           409,       10.8980,       4.25426,            0.,NA,NA,"",       12.8039,      -12.5950,      -2.30366,   13.6451E-03
C:/temp/dataset/9/5_6.odb,Step-1,Increment      4: Step Time =    1.000,"PART-1-1",           410,       8.15250,       6.68373,            0.,NA,NA,"",       14.1893,      -13.5192,      -4.30898,   9.72634E-03
C:/temp/dataset/9/5_6.odb,Step-1,Increment      4: Step Time =    1.000,"PART-1-1",           411,       9.64075,       7.71724,            0.,NA,NA,"",       14.8480,      -14.3920,      -3.65167,   9.97005E-03
C:/temp/dataset/9/5_6.odb,Step-1,Increment      4: Step Time =    1.000,"PART-1-1",           412,       8.79696,       9.37373,            0.,NA,NA,"",       15.8538,      -15.2144,      -4.45716,   9.88808E-03
C:/temp/dataset/9/5_6.odb,Step-1,Increment      4: Step Time =    1.000,"PART-1-1",           413,   959.485E-03,       2.63099,            0.,NA,NA,"",       12.6252,      -10.0517,      -7.63927,   9.87893E-03
C:/temp/dataset/9/5_6.odb,Step-1,Increment      4: Step Time =    1.000,"PART-1-1",           414,       2.33358,       3.78125,            0.,NA,NA,"",       13.0194,      -10.9421,      -7.05515,   15.7993E-03
C:/temp/dataset/9/5_6.odb,Step-1,Increment      4: Step Time =    1.000,"PART-1-1",           415,          1.25,            5.,            0.,NA,NA,"",       13.9201,      -11.4526,      -7.91253,   20.6831E-03
C:/temp/dataset/9/5_6.odb,Step-1,Increment      4: Step Time =    1.000,"PART-1-1",           416,      -9.23288,       7.29816,            0.,NA,NA,"",       18.2144,      -10.8839,      -14.6050,   3.25033E-03
C:/temp/dataset/9/5_6.odb,Step-1,Increment      4: Step Time =    1.000,"PART-1-1",           417,      -8.32915,       6.01548,            0.,NA,NA,"",       17.2333,      -10.2989,      -13.8174,   3.83684E-03
C:/temp/dataset/9/5_6.odb,Step-1,Increment      4: Step Time =    1.000,"PART-1-1",           418,      -7.21136,       6.82340,            0.,NA,NA,"",       17.2649,      -10.9910,      -13.3144,   3.74302E-03
C:/temp/dataset/9/5_6.odb,Step-1,Increment      4: Step Time =    1.000,"PART-1-1",           419,      -8.11509,       8.10607,            0.,NA,NA,"",       18.2451,      -11.5757,      -14.1027,   3.53520E-03
C:/temp/dataset/9/5_6.odb,Step-1,Increment      4: Step Time =    1.000,"PART-1-1",           420,      -13.1318,       11.4675,            0.,NA,NA,"",       21.7405,      -12.5994,      -17.7174,   1.16031E-03
C:/temp/dataset/9/5_6.odb,Step-1,Increment      4: Step Time =    1.000,"PART-1-1",           421,      -14.0901,       12.5242,            0.,NA,NA,"",       22.6208,      -13.0392,      -18.4846,   1.33569E-03
C:/temp/dataset/9/5_6.odb,Step-1,Increment      4: Step Time =    1.000,"PART-1-1",           422,          -15.,       11.4063,            0.,NA,NA,"",       22.4190,      -12.2035,      -18.8065,   1.53391E-03
C:/temp/dataset/9/5_6.odb,Step-1,Increment      4: Step Time =    1.000,"PART-1-1",           423,      -9.35396,       14.3983,            0.,NA,NA,"",       22.0078,      -15.0448,      -16.0623,   3.32444E-03
C:/temp/dataset/9/5_6.odb,Step-1,Increment      4: Step Time =    1.000,"PART-1-1",           424,      -10.5094,       15.3924,            0.,NA,NA,"",       22.8943,      -15.4097,      -16.9319,   2.24614E-03
C:/temp/dataset/9/5_6.odb,Step-1,Increment      4: Step Time =    1.000,"PART-1-1",           425,      -11.3610,       13.8160,            0.,NA,NA,"",       22.3272,      -14.3220,      -17.1285,   1.78225E-03
C:/temp/dataset/9/5_6.odb,Step-1,Increment      4: Step Time =    1.000,"PART-1-1",           426,      -10.2056,       12.8219,            0.,NA,NA,"",       21.4264,      -13.9567,      -16.2574,   2.69147E-03
C:/temp/dataset/9/5_6.odb,Step-1,Increment      4: Step Time =    1.000,"PART-1-1",           427,      -14.0810,       18.8007,            0.,NA,NA,"",       25.8192,      -16.7312,      -19.6647,   2.55930E-03
C:/temp/dataset/9/5_6.odb,Step-1,Increment      4: Step Time =    1.000,"PART-1-1",           428,          -15.,       17.9688,            0.,NA,NA,"",       25.6919,      -16.0697,      -20.0459,   3.58748E-03
C:/temp/dataset/9/5_6.odb,Step-1,Increment      4: Step Time =    1.000,"PART-1-1",           429,      -14.2329,       16.7349,            0.,NA,NA,"",       24.8005,      -15.4914,      -19.3670,   2.55541E-03
C:/temp/dataset/9/5_6.odb,Step-1,Increment      4: Step Time =    1.000,"PART-1-1",           430,      -13.3139,       17.5668,            0.,NA,NA,"",       24.9283,      -16.1539,      -18.9861,   1.57404E-03
C:/temp/dataset/9/5_6.odb,Step-1,Increment      4: Step Time =    1.000,"PART-1-1",           431,      -12.9537,       19.5700,            0.,NA,NA,"",       25.8705,      -17.3934,      -19.1509,   1.33313E-03
C:/temp/dataset/9/5_6.odb,Step-1,Increment      4: Step Time =    1.000,"PART-1-1",           432,      -13.8727,       20.9255,            0.,NA,NA,"",       26.8684,      -18.0110,      -19.9377,   2.15372E-03
C:/temp/dataset/9/5_6.odb,Step-1,Increment      4: Step Time =    1.000,"PART-1-1",           433,          -15.,       20.1563,            0.,NA,NA,"",       26.8194,      -17.3503,      -20.4511,   3.43220E-03
C:/temp/dataset/9/5_6.odb,Step-1,Increment      4: Step Time =    1.000,"PART-1-1",           434,       1.76445,       24.7908,            0.,NA,NA,"",       25.8751,      -23.1151,      -11.6281,   6.48971E-03
C:/temp/dataset/9/5_6.odb,Step-1,Increment      4: Step Time =    1.000,"PART-1-1",           435,       1.36974,       27.3866,            0.,NA,NA,"",       27.4845,      -24.5591,      -12.3388,   6.14645E-03
C:/temp/dataset/9/5_6.odb,Step-1,Increment      4: Step Time =    1.000,"PART-1-1",           436,   176.493E-03,       26.0346,            0.,NA,NA,"",       26.7909,      -23.5500,      -12.7729,   6.18859E-03
C:/temp/dataset/9/5_6.odb,Step-1,Increment      4: Step Time =    1.000,"PART-1-1",           437,       7.39460,       20.9669,            0.,NA,NA,"",       23.1996,      -21.9132,      -7.61813,   6.42070E-03
C:/temp/dataset/9/5_6.odb,Step-1,Increment      4: Step Time =    1.000,"PART-1-1",           438,       8.70526,       19.9066,            0.,NA,NA,"",       22.5255,      -21.5286,      -6.62719,   8.05036E-03
C:/temp/dataset/9/5_6.odb,Step-1,Increment      4: Step Time =    1.000,"PART-1-1",           439,       9.85134,       21.1719,            0.,NA,NA,"",       23.3460,      -22.5077,      -6.19976,   4.49420E-03
C:/temp/dataset/9/5_6.odb,Step-1,Increment      4: Step Time =    1.000,"PART-1-1",           440,       8.54068,       22.2321,            0.,NA,NA,"",       23.9885,      -22.8865,      -7.18714,   2.42445E-03
C:/temp/dataset/9/5_6.odb,Step-1,Increment      4: Step Time =    1.000,"PART-1-1",           441,       4.10864,       24.1658,            0.,NA,NA,"",       25.3107,      -23.1832,      -10.1573,   5.59028E-03
C:/temp/dataset/9/5_6.odb,Step-1,Increment      4: Step Time =    1.000,"PART-1-1",           442,       5.90921,       23.8009,            0.,NA,NA,"",       25.0003,      -23.3088,      -9.03956,   4.18971E-03
C:/temp/dataset/9/5_6.odb,Step-1,Increment      4: Step Time =    1.000,"PART-1-1",           443,       6.25965,       24.9450,            0.,NA,NA,"",       25.6983,      -24.0517,      -9.05093,   4.26132E-03
C:/temp/dataset/9/5_6.odb,Step-1,Increment      4: Step Time =    1.000,"PART-1-1",           444,   19.2837E-03,       28.6494,            0.,NA,NA,"",       28.3775,      -25.0430,      -13.3465,   5.44221E-03
C:/temp/dataset/9/5_6.odb,Step-1,Increment      4: Step Time =    1.000,"PART-1-1",           445,       2.60045,       28.7372,            0.,NA,NA,"",       28.2033,      -25.5790,      -11.8804,   7.59883E-03
C:/temp/dataset/9/5_6.odb,Step-1,Increment      4: Step Time =    1.000,"PART-1-1",           446,          1.25,           30.,            0.,NA,NA,"",       29.0699,      -26.0575,      -12.8866,   7.83298E-03
C:/temp/dataset/9/5_6.odb,Step-1,Increment      4: Step Time =    1.000,"PART-1-1",           447,      -7.67774,       29.0428,            0.,NA,NA,"",       29.7946,      -23.8604,      -17.8438,   1.16027E-03
C:/temp/dataset/9/5_6.odb,Step-1,Increment      4: Step Time =    1.000,"PART-1-1",           448,      -6.68998,       27.9093,            0.,NA,NA,"",       28.9499,      -23.3862,      -17.0642,   1.39631E-03
C:/temp/dataset/9/5_6.odb,Step-1,Increment      4: Step Time =    1.000,"PART-1-1",           449,         -6.25,           30.,            0.,NA,NA,"",       30.0741,      -24.6735,      -17.1950,   1.01124E-03
C:/temp/dataset/9/5_6.odb,Step-1,Increment      4: Step Time =    1.000,"PART-1-1",           450,      -12.1701,       26.6384,            0.,NA,NA,"",       29.4705,      -21.6424,      -20.0029,   1.16964E-03
C:/temp/dataset/9/5_6.odb,Step-1,Increment      4: Step Time =    1.000,"PART-1-1",           451,      -13.7206,       27.8542,            0.,NA,NA,"",       30.5435,      -22.0590,      -21.1260,   545.768E-06
C:/temp/dataset/9/5_6.odb,Step-1,Increment      4: Step Time =    1.000,"PART-1-1",           452,          -15.,       26.7188,            0.,NA,NA,"",       30.2821,      -21.1648,      -21.6578,   752.280E-06
C:/temp/dataset/9/5_6.odb,Step-1,Increment      4: Step Time =    1.000,"PART-1-1",           453,        -13.75,           30.,            0.,NA,NA,"",       31.7277,      -23.2961,      -21.5393,   128.450E-06
C:/temp/dataset/9/5_6.odb,Step-1,Increment      4: Step Time =    1.000,"PART-1-1",           454,          -15.,       28.9063,            0.,NA,NA,"",       31.4622,      -22.4316,      -22.0612,   113.403E-06
C:/temp/dataset/9/5_6.odb,Step-1,Increment      4: Step Time =    1.000,"PART-1-1",           455,      -9.01567,       28.1413,            0.,NA,NA,"",       29.5601,      -23.0940,      -18.4516,   755.793E-06
C:/temp/dataset/9/5_6.odb,Step-1,Increment      4: Step Time =    1.000,"PART-1-1",           456,         -8.75,           30.,            0.,NA,NA,"",       30.5607,      -24.2172,      -18.6410,   1.46938E-03
C:/temp/dataset/9/5_6.odb,Step-1,Increment      4: Step Time =    1.000,"PART-1-1",           457,      -10.9923,       18.6369,            0.,NA,NA,"",       24.7880,      -17.2180,      -17.8321,   790.653E-06
C:/temp/dataset/9/5_6.odb,Step-1,Increment      4: Step Time =    1.000,"PART-1-1",           458,      -11.7056,       20.1347,            0.,NA,NA,"",       25.8029,      -17.9573,      -18.5290,   675.535E-06
C:/temp/dataset/9/5_6.odb,Step-1,Increment      4: Step Time =    1.000,"PART-1-1",           459,      -12.2405,       18.0722,            0.,NA,NA,"",       24.8570,      -16.6527,      -18.4542,   759.039E-06
C:/temp/dataset/9/5_6.odb,Step-1,Increment      4: Step Time =    1.000,"PART-1-1",           460,      -11.7153,       17.0060,            0.,NA,NA,"",       24.1280,      -16.1278,      -17.9458,   871.239E-06
C:/temp/dataset/9/5_6.odb,Step-1,Increment      4: Step Time =    1.000,"PART-1-1",           461,      -12.7888,       16.5007,            0.,NA,NA,"",       24.2008,      -15.6283,      -18.4780,   1.13284E-03
C:/temp/dataset/9/5_6.odb,Step-1,Increment      4: Step Time =    1.000,"PART-1-1",           462,      -13.2634,       13.5986,            0.,NA,NA,"",       22.8625,      -13.8313,      -18.2040,   1.21555E-03
C:/temp/dataset/9/5_6.odb,Step-1,Increment      4: Step Time =    1.000,"PART-1-1",           463,      -14.1733,       14.6682,            0.,NA,NA,"",       23.7261,      -14.2873,      -18.9420,   2.01275E-03
C:/temp/dataset/9/5_6.odb,Step-1,Increment      4: Step Time =    1.000,"PART-1-1",           464,          -15.,       13.5938,            0.,NA,NA,"",       23.4878,      -13.4953,      -19.2237,   2.44995E-03
C:/temp/dataset/9/5_6.odb,Step-1,Increment      4: Step Time =    1.000,"PART-1-1",           465,      -6.04154,       10.1420,            0.,NA,NA,"",       18.7028,      -13.1730,      -13.2766,   5.38680E-03
C:/temp/dataset/9/5_6.odb,Step-1,Increment      4: Step Time =    1.000,"PART-1-1",           466,      -7.09581,       9.10381,            0.,NA,NA,"",       18.4485,      -12.3599,      -13.6960,   4.30949E-03
C:/temp/dataset/9/5_6.odb,Step-1,Increment      4: Step Time =    1.000,"PART-1-1",           467,      -6.05428,       7.71180,            0.,NA,NA,"",       17.3706,      -11.7389,      -12.8038,   4.71547E-03
C:/temp/dataset/9/5_6.odb,Step-1,Increment      4: Step Time =    1.000,"PART-1-1",           468,           -5.,          8.75,            0.,NA,NA,"",       17.6337,      -12.5532,      -12.3839,   5.91534E-03
C:/temp/dataset/9/5_6.odb,Step-1,Increment      4: Step Time =    1.000,"PART-1-1",           469,      -6.15708,       5.36159,            0.,NA,NA,"",       16.1363,      -10.3281,      -12.3981,   5.82176E-03
C:/temp/dataset/9/5_6.odb,Step-1,Increment      4: Step Time =    1.000,"PART-1-1",           470,           -5.,          6.25,            0.,NA,NA,"",       16.2493,      -11.0795,      -11.8863,   5.90380E-03
C:/temp/dataset/9/5_6.odb,Step-1,Increment      4: Step Time =    1.000,"PART-1-1",           471,      -13.8567,       3.63033,            0.,NA,NA,"",       18.3734,      -7.82641,      -16.6231,   1.47721E-03
C:/temp/dataset/9/5_6.odb,Step-1,Increment      4: Step Time =    1.000,"PART-1-1",           472,      -12.5372,       4.63979,            0.,NA,NA,"",       18.2359,      -8.67755,      -16.0389,   1.66617E-03
C:/temp/dataset/9/5_6.odb,Step-1,Increment      4: Step Time =    1.000,"PART-1-1",           473,          -15.,       4.84375,            0.,NA,NA,"",       19.4109,      -8.32260,      -17.5362,   1.17333E-03
C:/temp/dataset/9/5_6.odb,Step-1,Increment      4: Step Time =    1.000,"PART-1-1",           474,      -12.7859,       2.45238,            0.,NA,NA,"",       17.3842,      -7.33745,      -15.7598,   1.48505E-03
C:/temp/dataset/9/5_6.odb,Step-1,Increment      4: Step Time =    1.000,"PART-1-1",           475,          -15.,       2.65625,            0.,NA,NA,"",       18.4981,      -7.03022,      -17.1101,   1.36562E-03
C:/temp/dataset/9/5_6.odb,Step-1,Increment      4: Step Time =    1.000,"PART-1-1",           476,      -13.7683,      -2.81830,            0.,NA,NA,"",       15.8419,      -4.03497,      -15.3194,   408.415E-06
C:/temp/dataset/9/5_6.odb,Step-1,Increment      4: Step Time =    1.000,"PART-1-1",           477,          -15.,      -3.90625,            0.,NA,NA,"",       16.1481,      -3.15292,      -15.8373,   58.7496E-06
C:/temp/dataset/9/5_6.odb,Step-1,Increment      4: Step Time =    1.000,"PART-1-1",           478,        -13.75,           -5.,            0.,NA,NA,"",       15.1374,      -2.74806,      -14.8859,   48.8599E-06
C:/temp/dataset/9/5_6.odb,Step-1,Increment      4: Step Time =    1.000,"PART-1-1",           479,      -12.5183,      -3.91205,            0.,NA,NA,"",       14.8195,      -3.63073,      -14.3678,   411.476E-06
C:/temp/dataset/9/5_6.odb,Step-1,Increment      4: Step Time =    1.000,"PART-1-1",           480,      -3.91473,      -3.03803,            0.,NA,NA,"",       11.1030,      -5.83265,      -9.44763,   5.70591E-03
C:/temp/dataset/9/5_6.odb,Step-1,Increment      4: Step Time =    1.000,"PART-1-1",           481,      -5.07319,      -4.05962,            0.,NA,NA,"",       11.1241,      -5.00194,      -9.93615,   5.05228E-03
C:/temp/dataset/9/5_6.odb,Step-1,Increment      4: Step Time =    1.000,"PART-1-1",           482,         -3.75,           -5.,            0.,NA,NA,"",       10.1383,      -4.70722,      -8.97922,   7.27979E-03
C:/temp/dataset/9/5_6.odb,Step-1,Increment      4: Step Time =    1.000,"PART-1-1",           483,      -2.59153,      -3.97841,            0.,NA,NA,"",       10.1404,      -5.53989,      -8.49338,   7.36277E-03
C:/temp/dataset/9/5_6.odb,Step-1,Increment      4: Step Time =    1.000,"PART-1-1",           484,   563.435E-03,   72.7383E-03,            0.,NA,NA,"",       11.2790,      -8.51411,      -7.39775,   7.62512E-03
C:/temp/dataset/9/5_6.odb,Step-1,Increment      4: Step Time =    1.000,"PART-1-1",           485,  -536.863E-03,      -1.25885,            0.,NA,NA,"",       10.8422,      -7.53465,      -7.79630,   7.57386E-03
C:/temp/dataset/9/5_6.odb,Step-1,Increment      4: Step Time =    1.000,"PART-1-1",           486,       7.06616,      -9.87010,            0.,NA,NA,"",       5.01294,      -4.62162,      -1.94170,   54.9544E-03
C:/temp/dataset/9/5_6.odb,Step-1,Increment      4: Step Time =    1.000,"PART-1-1",           487,       6.02487,      -8.97716,            0.,NA,NA,"",       5.54186,      -4.91943,      -2.55174,   74.2104E-03
C:/temp/dataset/9/5_6.odb,Step-1,Increment      4: Step Time =    1.000,"PART-1-1",           488,            5.,      -10.2083,            0.,NA,NA,"",       5.17400,      -4.34429,      -2.81024,   95.4815E-03
C:/temp/dataset/9/5_6.odb,Step-1,Increment      4: Step Time =    1.000,"PART-1-1",           489,       13.0743,      -11.4048,            0.,NA,NA,"",       4.58514,      -4.53381,   684.172E-03,   66.8084E-03
C:/temp/dataset/9/5_6.odb,Step-1,Increment      4: Step Time =    1.000,"PART-1-1",           490,       14.0423,      -12.5586,            0.,NA,NA,"",       4.28312,      -4.14411,       1.08234,   88.5201E-03
C:/temp/dataset/9/5_6.odb,Step-1,Increment      4: Step Time =    1.000,"PART-1-1",           491,           15.,        -11.25,            0.,NA,NA,"",       5.04998,      -4.83924,       1.44361,   104.514E-03
C:/temp/dataset/9/5_6.odb,Step-1,Increment      4: Step Time =    1.000,"PART-1-1",           492,       14.0319,      -10.0962,            0.,NA,NA,"",       5.34628,      -5.24689,       1.02605,   82.7569E-03
C:/temp/dataset/9/5_6.odb,Step-1,Increment      4: Step Time =    1.000,"PART-1-1",           493,       7.09943,      -16.3632,            0.,NA,NA,"",       2.49913,      -2.24080,      -1.10654,   62.5273E-03
C:/temp/dataset/9/5_6.odb,Step-1,Increment      4: Step Time =    1.000,"PART-1-1",           494,            5.,      -16.4583,            0.,NA,NA,"",       2.82369,      -2.18160,      -1.79272,   112.759E-03
C:/temp/dataset/9/5_6.odb,Step-1,Increment      4: Step Time =    1.000,"PART-1-1",           495,       13.0966,      -13.8278,            0.,NA,NA,"",       3.60007,      -3.52064,   752.055E-03,   71.5060E-03
C:/temp/dataset/9/5_6.odb,Step-1,Increment      4: Step Time =    1.000,"PART-1-1",           496,       14.0543,      -15.0192,            0.,NA,NA,"",       3.33203,      -3.15309,       1.07727,   94.1715E-03
C:/temp/dataset/9/5_6.odb,Step-1,Increment      4: Step Time =    1.000,"PART-1-1",           497,           15.,        -13.75,            0.,NA,NA,"",       4.01702,      -3.75577,       1.42500,   111.199E-03
C:/temp/dataset/9/5_6.odb,Step-1,Increment      4: Step Time =    1.000,"PART-1-1",           498,       13.0974,      -18.6352,            0.,NA,NA,"",       1.97569,      -1.84331,   711.024E-03,   79.9274E-03
C:/temp/dataset/9/5_6.odb,Step-1,Increment      4: Step Time =    1.000,"PART-1-1",           499,       14.0421,      -19.9133,            0.,NA,NA,"",       1.78350,      -1.54672,   887.986E-03,   104.555E-03
C:/temp/dataset/9/5_6.odb,Step-1,Increment      4: Step Time =    1.000,"PART-1-1",           500,           15.,        -18.75,            0.,NA,NA,"",       2.29858,      -1.96099,       1.19915,   124.215E-03
C:/temp/dataset/9/5_6.odb,Step-1,Increment      4: Step Time =    1.000,"PART-1-1",           501,       14.0553,      -17.4719,            0.,NA,NA,"",       2.49749,      -2.28386,       1.01065,   99.5923E-03
C:/temp/dataset/9/5_6.odb,Step-1,Increment      4: Step Time =    1.000,"PART-1-1",           502,       7.12541,      -22.7005,            0.,NA,NA,"",   850.459E-03,  -678.263E-03,  -513.068E-03,   69.8328E-03
C:/temp/dataset/9/5_6.odb,Step-1,Increment      4: Step Time =    1.000,"PART-1-1",           503,       6.04628,      -21.6612,            0.,NA,NA,"",       1.21705,  -892.353E-03,  -827.600E-03,   97.5875E-03
C:/temp/dataset/9/5_6.odb,Step-1,Increment      4: Step Time =    1.000,"PART-1-1",           504,            5.,      -22.7083,            0.,NA,NA,"",       1.17913,  -735.536E-03,  -921.596E-03,   128.765E-03
C:/temp/dataset/9/5_6.odb,Step-1,Increment      4: Step Time =    1.000,"PART-1-1",           505,       6.07914,      -23.7476,            0.,NA,NA,"",   800.653E-03,  -528.166E-03,  -601.735E-03,   100.699E-03
C:/temp/dataset/9/5_6.odb,Step-1,Increment      4: Step Time =    1.000,"PART-1-1",           506,       6.22304,      -27.8948,            0.,NA,NA,"",   197.560E-03,  -83.8088E-03,  -178.902E-03,   105.140E-03
C:/temp/dataset/9/5_6.odb,Step-1,Increment      4: Step Time =    1.000,"PART-1-1",           507,            5.,      -28.9583,            0.,NA,NA,"",   156.864E-03,  -93.4639E-03,  -125.979E-03,   138.414E-03
C:/temp/dataset/9/5_6.odb,Step-1,Increment      4: Step Time =    1.000,"PART-1-1",           508,          6.25,          -30.,            0.,NA,NA,"",            0.,  -18.0978E-42,   2.58227E-39,   95.6471E-03
C:/temp/dataset/9/5_6.odb,Step-1,Increment      4: Step Time =    1.000,"PART-1-1",           509,       9.78444,      -26.6535,            0.,NA,NA,"",   123.389E-03,  -123.314E-03,  -4.31606E-03,   13.0799E-03
C:/temp/dataset/9/5_6.odb,Step-1,Increment      4: Step Time =    1.000,"PART-1-1",           510,       8.47427,      -25.6871,            0.,NA,NA,"",   263.296E-03,  -221.814E-03,  -141.856E-03,   37.8508E-03
C:/temp/dataset/9/5_6.odb,Step-1,Increment      4: Step Time =    1.000,"PART-1-1",           511,       7.37694,      -26.8334,            0.,NA,NA,"",   221.790E-03,  -124.600E-03,  -183.482E-03,   68.0722E-03
C:/temp/dataset/9/5_6.odb,Step-1,Increment      4: Step Time =    1.000,"PART-1-1",           512,       13.7223,      -27.5034,            0.,NA,NA,"",   278.263E-03,  -160.022E-03,   227.647E-03,   112.222E-03
C:/temp/dataset/9/5_6.odb,Step-1,Increment      4: Step Time =    1.000,"PART-1-1",           513,       12.4723,      -28.7534,            0.,NA,NA,"",   72.2979E-03,  -25.7016E-03,   67.5752E-03,   67.8350E-03
C:/temp/dataset/9/5_6.odb,Step-1,Increment      4: Step Time =    1.000,"PART-1-1",           514,         13.75,          -30.,            0.,NA,NA,"",            0.,  -182.309E-42,  -704.501E-42,   106.825E-03
C:/temp/dataset/9/5_6.odb,Step-1,Increment      4: Step Time =    1.000,"PART-1-1",           515,           15.,        -28.75,            0.,NA,NA,"",   208.792E-03,  -133.474E-03,   160.558E-03,   148.250E-03
C:/temp/dataset/9/5_6.odb,Step-1,Increment      4: Step Time =    1.000,"PART-1-1",           516,         11.25,          -30.,            0.,NA,NA,"",            0.,   70.8875E-42,  -296.690E-42,   31.9720E-03
C:/temp/dataset/9/5_6.odb,Step-1,Increment      4: Step Time =    1.000,"PART-1-1",           517,       11.1864,      -27.6167,            0.,NA,NA,"",   96.1676E-03,  -65.7376E-03,   70.1910E-03,   44.4259E-03
C:/temp/dataset/9/5_6.odb,Step-1,Increment      4: Step Time =    1.000,"PART-1-1",           518,       9.10684,      -20.5966,            0.,NA,NA,"",       1.15127,      -1.12678,  -236.225E-03,   20.2240E-03
C:/temp/dataset/9/5_6.odb,Step-1,Increment      4: Step Time =    1.000,"PART-1-1",           519,       11.0993,      -20.6881,            0.,NA,NA,"",       1.18896,      -1.17149,   203.064E-03,   36.3072E-03
C:/temp/dataset/9/5_6.odb,Step-1,Increment      4: Step Time =    1.000,"PART-1-1",           520,       7.08739,      -20.6083,            0.,NA,NA,"",       1.30362,      -1.10223,  -696.065E-03,   68.2434E-03
C:/temp/dataset/9/5_6.odb,Step-1,Increment      4: Step Time =    1.000,"PART-1-1",           521,            5.,       -20.625,            0.,NA,NA,"",       1.64861,      -1.13087,      -1.19960,   123.435E-03
C:/temp/dataset/9/5_6.odb,Step-1,Increment      4: Step Time =    1.000,"PART-1-1",           522,       9.14341,      -14.0595,            0.,NA,NA,"",       3.17519,      -3.11205,  -630.056E-03,   18.4467E-03
C:/temp/dataset/9/5_6.odb,Step-1,Increment      4: Step Time =    1.000,"PART-1-1",           523,       10.1582,      -15.1431,            0.,NA,NA,"",       2.79370,      -2.78613,  -205.594E-03,   14.8230E-03
C:/temp/dataset/9/5_6.odb,Step-1,Increment      4: Step Time =    1.000,"PART-1-1",           524,       11.1509,      -13.9343,            0.,NA,NA,"",       3.30439,      -3.30362,   71.3876E-03,   31.9351E-03
C:/temp/dataset/9/5_6.odb,Step-1,Increment      4: Step Time =    1.000,"PART-1-1",           525,       10.1361,      -12.8507,            0.,NA,NA,"",       3.66147,      -3.64349,  -362.452E-03,   14.1255E-03
C:/temp/dataset/9/5_6.odb,Step-1,Increment      4: Step Time =    1.000,"PART-1-1",           526,       9.12292,      -11.8044,            0.,NA,NA,"",       4.07086,      -3.98257,  -843.208E-03,   18.0302E-03
C:/temp/dataset/9/5_6.odb,Step-1,Increment      4: Step Time =    1.000,"PART-1-1",           527,       11.1213,      -11.5948,            0.,NA,NA,"",       4.24597,      -4.24533,  -73.3865E-03,   29.9878E-03
C:/temp/dataset/9/5_6.odb,Step-1,Increment      4: Step Time =    1.000,"PART-1-1",           528,       10.1081,      -10.5485,            0.,NA,NA,"",       4.63130,      -4.59671,  -564.992E-03,   13.8435E-03
C:/temp/dataset/9/5_6.odb,Step-1,Increment      4: Step Time =    1.000,"PART-1-1",           529,       13.8169,  -7.21098E-03,            0.,NA,NA,"",       10.6313,      -10.6313,  -4.56005E-03,   39.1021E-03
C:/temp/dataset/9/5_6.odb,Step-1,Increment      4: Step Time =    1.000,"PART-1-1",           530,           15.,          1.25,            0.,NA,NA,"",       11.5905,      -11.5812,   462.165E-03,   42.2447E-03
C:/temp/dataset/9/5_6.odb,Step-1,Increment      4: Step Time =    1.000,"PART-1-1",           531,       13.9075,       2.57030,            0.,NA,NA,"",       12.1556,      -12.1508,  -342.276E-03,   30.1108E-03
C:/temp/dataset/9/5_6.odb,Step-1,Increment      4: Step Time =    1.000,"PART-1-1",           532,       10.8083,      -4.35361,            0.,NA,NA,"",       7.76572,      -7.70809,  -944.262E-03,   31.2278E-03
C:/temp/dataset/9/5_6.odb,Step-1,Increment      4: Step Time =    1.000,"PART-1-1",           533,       9.68548,      -3.40243,            0.,NA,NA,"",       8.22983,      -8.06406,      -1.64347,   28.3528E-03
C:/temp/dataset/9/5_6.odb,Step-1,Increment      4: Step Time =    1.000,"PART-1-1",           534,       8.81587,      -4.92348,            0.,NA,NA,"",       7.36477,      -7.13120,      -1.84005,   25.2835E-03
C:/temp/dataset/9/5_6.odb,Step-1,Increment      4: Step Time =    1.000,"PART-1-1",           535,       9.93870,      -5.87466,            0.,NA,NA,"",       6.88658,      -6.78802,      -1.16093,   23.0202E-03
C:/temp/dataset/9/5_6.odb,Step-1,Increment      4: Step Time =    1.000,"PART-1-1",           536,       10.7940,       8.23694,            0.,NA,NA,"",       15.2280,      -14.9120,      -3.08625,   11.6640E-03
C:/temp/dataset/9/5_6.odb,Step-1,Increment      4: Step Time =    1.000,"PART-1-1",           537,       11.2752,       6.42654,            0.,NA,NA,"",       14.1507,      -13.9319,      -2.47837,   12.9631E-03
C:/temp/dataset/9/5_6.odb,Step-1,Increment      4: Step Time =    1.000,"PART-1-1",           538,       12.8821,       8.67106,            0.,NA,NA,"",       15.6888,      -15.5657,      -1.96192,   15.8983E-03
C:/temp/dataset/9/5_6.odb,Step-1,Increment      4: Step Time =    1.000,"PART-1-1",           539,       14.0355,       7.50951,            0.,NA,NA,"",       15.1344,      -15.0952,      -1.08890,   20.9565E-03
C:/temp/dataset/9/5_6.odb,Step-1,Increment      4: Step Time =    1.000,"PART-1-1",           540,           15.,          8.75,            0.,NA,NA,"",       16.0452,      -16.0278,  -746.619E-03,   22.3196E-03
C:/temp/dataset/9/5_6.odb,Step-1,Increment      4: Step Time =    1.000,"PART-1-1",           541,       13.8467,       9.91155,            0.,NA,NA,"",       16.5771,      -16.4970,      -1.62753,   16.5445E-03
C:/temp/dataset/9/5_6.odb,Step-1,Increment      4: Step Time =    1.000,"PART-1-1",           542,       12.4850,       16.2122,            0.,NA,NA,"",       20.3621,      -20.0339,      -3.64113,   8.16268E-03
C:/temp/dataset/9/5_6.odb,Step-1,Increment      4: Step Time =    1.000,"PART-1-1",           543,       13.7431,       14.9727,            0.,NA,NA,"",       19.7121,      -19.5332,      -2.64952,   8.24976E-03
C:/temp/dataset/9/5_6.odb,Step-1,Increment      4: Step Time =    1.000,"PART-1-1",           544,           15.,         16.25,            0.,NA,NA,"",       20.6710,      -20.5589,      -2.14991,   6.14413E-03
C:/temp/dataset/9/5_6.odb,Step-1,Increment      4: Step Time =    1.000,"PART-1-1",           545,       13.7419,       17.4895,            0.,NA,NA,"",       21.2886,      -21.0547,      -3.14750,   4.59746E-03
C:/temp/dataset/9/5_6.odb,Step-1,Increment      4: Step Time =    1.000,"PART-1-1",           546,       12.4991,       13.6576,            0.,NA,NA,"",       18.7541,      -18.4913,      -3.12875,   10.5323E-03
C:/temp/dataset/9/5_6.odb,Step-1,Increment      4: Step Time =    1.000,"PART-1-1",           547,       13.7559,       12.4349,            0.,NA,NA,"",       18.1286,      -18.0005,      -2.15174,   12.2866E-03
C:/temp/dataset/9/5_6.odb,Step-1,Increment      4: Step Time =    1.000,"PART-1-1",           548,           15.,         13.75,            0.,NA,NA,"",       19.1190,      -19.0464,      -1.66491,   11.5468E-03
C:/temp/dataset/9/5_6.odb,Step-1,Increment      4: Step Time =    1.000,"PART-1-1",           549,           15.,         21.25,            0.,NA,NA,"",       23.7767,      -23.5678,      -3.14502,   755.205E-06
C:/temp/dataset/9/5_6.odb,Step-1,Increment      4: Step Time =    1.000,"PART-1-1",           550,       13.6875,       22.5045,            0.,NA,NA,"",       24.4205,      -24.0593,      -4.18449,   3.43163E-03
C:/temp/dataset/9/5_6.odb,Step-1,Increment      4: Step Time =    1.000,"PART-1-1",           551,       12.4125,       21.2511,            0.,NA,NA,"",       23.5281,      -23.0553,      -4.69329,   3.70813E-03
C:/temp/dataset/9/5_6.odb,Step-1,Increment      4: Step Time =    1.000,"PART-1-1",           552,       13.7250,       19.9966,            0.,NA,NA,"",       22.8560,      -22.5613,      -3.65817,   1.96712E-03
C:/temp/dataset/9/5_6.odb,Step-1,Increment      4: Step Time =    1.000,"PART-1-1",           553,       13.6481,       25.0064,            0.,NA,NA,"",       25.9759,      -25.5470,      -4.70064,   5.43771E-03
C:/temp/dataset/9/5_6.odb,Step-1,Increment      4: Step Time =    1.000,"PART-1-1",           554,       12.3356,       23.7609,            0.,NA,NA,"",       25.0943,      -24.5420,      -5.23620,   3.91338E-03
C:/temp/dataset/9/5_6.odb,Step-1,Increment      4: Step Time =    1.000,"PART-1-1",           555,           15.,         23.75,            0.,NA,NA,"",       25.3343,      -25.0699,      -3.65073,   5.08304E-03
C:/temp/dataset/9/5_6.odb,Step-1,Increment      4: Step Time =    1.000,"PART-1-1",           556,       13.7112,       27.5077,            0.,NA,NA,"",       27.5300,      -27.0445,      -5.14716,   6.04112E-03
C:/temp/dataset/9/5_6.odb,Step-1,Increment      4: Step Time =    1.000,"PART-1-1",           557,           15.,         28.75,            0.,NA,NA,"",       28.4181,      -28.0391,      -4.62563,   5.71715E-03
C:/temp/dataset/9/5_6.odb,Step-1,Increment      4: Step Time =    1.000,"PART-1-1",           558,         13.75,           30.,            0.,NA,NA,"",       29.0783,      -28.5332,      -5.60411,   6.42581E-03
C:/temp/dataset/9/5_6.odb,Step-1,Increment      4: Step Time =    1.000,"PART-1-1",           559,            5.,      -24.7917,            0.,NA,NA,"",   782.247E-03,  -432.422E-03,  -651.860E-03,   132.414E-03
C:/temp/dataset/9/5_6.odb,Step-1,Increment      4: Step Time =    1.000,"PART-1-1",           560,       6.15390,      -25.8136,            0.,NA,NA,"",   466.595E-03,  -262.094E-03,  -386.028E-03,   102.108E-03
C:/temp/dataset/9/5_6.odb,Step-1,Increment      4: Step Time =    1.000,"PART-1-1",           561,       7.23304,      -24.7696,            0.,NA,NA,"",   489.376E-03,  -352.385E-03,  -339.578E-03,   70.3474E-03
C:/temp/dataset/9/5_6.odb,Step-1,Increment      4: Step Time =    1.000,"PART-1-1",           562,       13.0086,      -21.0119,            0.,NA,NA,"",       1.33575,      -1.19270,   601.409E-03,   81.7370E-03
C:/temp/dataset/9/5_6.odb,Step-1,Increment      4: Step Time =    1.000,"PART-1-1",           563,       13.9664,      -22.3485,            0.,NA,NA,"",       1.18169,  -945.862E-03,   708.326E-03,   107.785E-03
C:/temp/dataset/9/5_6.odb,Step-1,Increment      4: Step Time =    1.000,"PART-1-1",           564,           15.,        -21.25,            0.,NA,NA,"",       1.61827,      -1.27181,       1.00065,   130.555E-03
C:/temp/dataset/9/5_6.odb,Step-1,Increment      4: Step Time =    1.000,"PART-1-1",           565,            5.,       -26.875,            0.,NA,NA,"",   451.716E-03,  -225.054E-03,  -391.661E-03,   137.461E-03
C:/temp/dataset/9/5_6.odb,Step-1,Increment      4: Step Time =    1.000,"PART-1-1",           566,       12.9745,      -6.51631,            0.,NA,NA,"",       6.88280,      -6.87451,   337.698E-03,   55.8142E-03
C:/temp/dataset/9/5_6.odb,Step-1,Increment      4: Step Time =    1.000,"PART-1-1",           567,       14.0104,      -7.62731,            0.,NA,NA,"",       6.51570,      -6.45345,   898.470E-03,   75.6914E-03
C:/temp/dataset/9/5_6.odb,Step-1,Increment      4: Step Time =    1.000,"PART-1-1",           568,           15.,         -6.25,            0.,NA,NA,"",       7.43591,      -7.32620,       1.27260,   86.2804E-03
C:/temp/dataset/9/5_6.odb,Step-1,Increment      4: Step Time =    1.000,"PART-1-1",           569,       13.9641,      -5.13900,            0.,NA,NA,"",       7.78749,      -7.75726,   685.476E-03,   65.5762E-03
C:/temp/dataset/9/5_6.odb,Step-1,Increment      4: Step Time =    1.000,"PART-1-1",           570,       11.1649,      -16.2543,            0.,NA,NA,"",       2.47349,      -2.46808,   163.480E-03,   34.0383E-03
C:/temp/dataset/9/5_6.odb,Step-1,Increment      4: Step Time =    1.000,"PART-1-1",           571,       9.14831,      -16.2933,            0.,NA,NA,"",       2.38397,      -2.33909,  -460.368E-03,   18.7661E-03
C:/temp/dataset/9/5_6.odb,Step-1,Increment      4: Step Time =    1.000,"PART-1-1",           572,            5.,        -8.125,            0.,NA,NA,"",       6.10254,      -5.20527,      -3.18531,   94.7521E-03
C:/temp/dataset/9/5_6.odb,Step-1,Increment      4: Step Time =    1.000,"PART-1-1",           573,       12.8519,      -3.99254,            0.,NA,NA,"",       8.20862,      -8.20860,   17.8154E-03,   47.6509E-03
C:/temp/dataset/9/5_6.odb,Step-1,Increment      4: Step Time =    1.000,"PART-1-1",           574,           15.,         -3.75,            0.,NA,NA,"",       8.76539,      -8.69952,       1.07257,   71.9093E-03
C:/temp/dataset/9/5_6.odb,Step-1,Increment      4: Step Time =    1.000,"PART-1-1",           575,       13.8878,      -2.60354,            0.,NA,NA,"",       9.16148,      -9.15373,   376.829E-03,   52.2575E-03
C:/temp/dataset/9/5_6.odb,Step-1,Increment      4: Step Time =    1.000,"PART-1-1",           576,       13.0423,      -8.97351,            0.,NA,NA,"",       5.67925,      -5.65232,   552.359E-03,   61.8917E-03
C:/temp/dataset/9/5_6.odb,Step-1,Increment      4: Step Time =    1.000,"PART-1-1",           577,           15.,         -8.75,            0.,NA,NA,"",       6.19232,      -6.03324,       1.39457,   96.8145E-03
C:/temp/dataset/9/5_6.odb,Step-1,Increment      4: Step Time =    1.000,"PART-1-1",           578,       8.09346,      -21.6433,            0.,NA,NA,"",   966.184E-03,  -880.002E-03,  -398.884E-03,   43.8701E-03
C:/temp/dataset/9/5_6.odb,Step-1,Increment      4: Step Time =    1.000,"PART-1-1",           579,       8.17438,      -23.6967,            0.,NA,NA,"",   568.061E-03,  -499.988E-03,  -269.638E-03,   43.4756E-03
C:/temp/dataset/9/5_6.odb,Step-1,Increment      4: Step Time =    1.000,"PART-1-1",           580,       8.10077,      -19.5616,            0.,NA,NA,"",       1.46083,      -1.36005,  -533.191E-03,   42.2290E-03
C:/temp/dataset/9/5_6.odb,Step-1,Increment      4: Step Time =    1.000,"PART-1-1",           581,       8.11824,      -17.4194,            0.,NA,NA,"",       2.06780,      -1.94908,  -690.556E-03,   40.3490E-03
C:/temp/dataset/9/5_6.odb,Step-1,Increment      4: Step Time =    1.000,"PART-1-1",           582,          -15.,       22.3438,            0.,NA,NA,"",       27.9607,      -18.6257,      -20.8538,   2.74168E-03
C:/temp/dataset/9/5_6.odb,Step-1,Increment      4: Step Time =    1.000,"PART-1-1",           583,      -12.5647,       21.7347,            0.,NA,NA,"",       26.9114,      -18.7270,      -19.3267,   1.29719E-03
C:/temp/dataset/9/5_6.odb,Step-1,Increment      4: Step Time =    1.000,"PART-1-1",           584,      -4.95050,       22.5220,            0.,NA,NA,"",       25.5056,      -20.5871,      -15.0568,   6.56983E-03
C:/temp/dataset/9/5_6.odb,Step-1,Increment      4: Step Time =    1.000,"PART-1-1",           585,      -3.93081,       23.1260,            0.,NA,NA,"",       25.6657,      -21.1187,      -14.5853,   6.29191E-03
C:/temp/dataset/9/5_6.odb,Step-1,Increment      4: Step Time =    1.000,"PART-1-1",           586,      -4.22857,       24.4244,            0.,NA,NA,"",       26.4752,      -21.8167,      -14.9990,   5.62860E-03
C:/temp/dataset/9/5_6.odb,Step-1,Increment      4: Step Time =    1.000,"PART-1-1",           587,      -5.24826,       23.8204,            0.,NA,NA,"",       26.3131,      -21.2836,      -15.4722,   5.23111E-03
C:/temp/dataset/9/5_6.odb,Step-1,Increment      4: Step Time =    1.000,"PART-1-1",           588,      -10.1110,       10.4874,            0.,NA,NA,"",       20.1675,      -12.5991,      -15.7477,   2.74077E-03
C:/temp/dataset/9/5_6.odb,Step-1,Increment      4: Step Time =    1.000,"PART-1-1",           589,      -9.15687,       11.6944,            0.,NA,NA,"",       20.4902,      -13.4926,      -15.4207,   3.37786E-03
C:/temp/dataset/9/5_6.odb,Step-1,Increment      4: Step Time =    1.000,"PART-1-1",           590,      -11.1597,       11.6149,            0.,NA,NA,"",       21.1120,      -13.0638,      -16.5847,   2.15073E-03
C:/temp/dataset/9/5_6.odb,Step-1,Increment      4: Step Time =    1.000,"PART-1-1",           591,      -6.07359,       12.6401,            0.,NA,NA,"",       20.1060,      -14.6341,      -13.7875,   5.96192E-03
C:/temp/dataset/9/5_6.odb,Step-1,Increment      4: Step Time =    1.000,"PART-1-1",           592,      -7.11512,       11.5321,            0.,NA,NA,"",       19.7801,      -13.7857,      -14.1848,   4.83307E-03
C:/temp/dataset/9/5_6.odb,Step-1,Increment      4: Step Time =    1.000,"PART-1-1",           593,           -5.,         11.25,            0.,NA,NA,"",       19.0393,      -14.0227,      -12.8787,   6.56803E-03
C:/temp/dataset/9/5_6.odb,Step-1,Increment      4: Step Time =    1.000,"PART-1-1",           594,      -10.0988,       8.37440,            0.,NA,NA,"",       19.0748,      -11.3539,      -15.3277,   2.77048E-03
C:/temp/dataset/9/5_6.odb,Step-1,Increment      4: Step Time =    1.000,"PART-1-1",           595,      -9.11481,       9.38066,            0.,NA,NA,"",       19.2513,      -12.1367,      -14.9437,   3.21947E-03
C:/temp/dataset/9/5_6.odb,Step-1,Increment      4: Step Time =    1.000,"PART-1-1",           596,      -11.0949,       9.48111,            0.,NA,NA,"",       19.9968,      -11.8168,      -16.1318,   2.32770E-03
C:/temp/dataset/9/5_6.odb,Step-1,Increment      4: Step Time =    1.000,"PART-1-1",           597,      -11.8142,       15.6555,            0.,NA,NA,"",       23.4427,      -15.3171,      -17.7468,   1.19189E-03
C:/temp/dataset/9/5_6.odb,Step-1,Increment      4: Step Time =    1.000,"PART-1-1",           598,      -13.4062,       15.6218,            0.,NA,NA,"",       23.9484,      -14.9949,      -18.6730,   1.48470E-03
C:/temp/dataset/9/5_6.odb,Step-1,Increment      4: Step Time =    1.000,"PART-1-1",           599,      -12.4316,       14.7766,            0.,NA,NA,"",       23.1836,      -14.6834,      -17.9409,   1.12521E-03
C:/temp/dataset/9/5_6.odb,Step-1,Increment      4: Step Time =    1.000,"PART-1-1",           600,      -5.72199,       20.2132,            0.,NA,NA,"",       24.3416,      -19.1193,      -15.0654,   9.04462E-03
C:/temp/dataset/9/5_6.odb,Step-1,Increment      4: Step Time =    1.000,"PART-1-1",           601,           -5.,         18.75,            0.,NA,NA,"",       23.3401,      -18.4018,      -14.3575,   12.6301E-03
C:/temp/dataset/9/5_6.odb,Step-1,Increment      4: Step Time =    1.000,"PART-1-1",           602,          -15.,       15.7813,            0.,NA,NA,"",       24.5802,      -14.7844,      -19.6369,   3.19516E-03
C:/temp/dataset/9/5_6.odb,Step-1,Increment      4: Step Time =    1.000,"PART-1-1",           603,      -10.4105,       16.7429,            0.,NA,NA,"",       23.5928,      -16.2201,      -17.1327,   1.94306E-03
C:/temp/dataset/9/5_6.odb,Step-1,Increment      4: Step Time =    1.000,"PART-1-1",           604,      -12.1928,       12.6381,            0.,NA,NA,"",       21.9968,      -13.4698,      -17.3904,   1.41818E-03
C:/temp/dataset/9/5_6.odb,Step-1,Increment      4: Step Time =    1.000,"PART-1-1",           605,      -12.0987,       10.4443,            0.,NA,NA,"",       20.8484,      -12.1934,      -16.9109,   1.69011E-03
C:/temp/dataset/9/5_6.odb,Step-1,Increment      4: Step Time =    1.000,"PART-1-1",           606,      -7.50325,       4.80693,            0.,NA,NA,"",       16.3164,      -9.74267,      -13.0883,   5.16611E-03
C:/temp/dataset/9/5_6.odb,Step-1,Increment      4: Step Time =    1.000,"PART-1-1",           607,      -9.63824,       5.46172,            0.,NA,NA,"",       17.4434,      -9.72055,      -14.4838,   3.20280E-03
C:/temp/dataset/9/5_6.odb,Step-1,Increment      4: Step Time =    1.000,"PART-1-1",           608,      -8.81234,       4.25317,            0.,NA,NA,"",       16.5299,      -9.16505,      -13.7565,   4.22019E-03
C:/temp/dataset/9/5_6.odb,Step-1,Increment      4: Step Time =    1.000,"PART-1-1",           609,          -15.,      -1.71875,            0.,NA,NA,"",       16.8578,      -4.44641,      -16.2609,   350.736E-06
C:/temp/dataset/9/5_6.odb,Step-1,Increment      4: Step Time =    1.000,"PART-1-1",           610,      -12.5835,      -1.75493,            0.,NA,NA,"",       15.6106,      -4.89309,      -14.8239,   1.08265E-03
C:/temp/dataset/9/5_6.odb,Step-1,Increment      4: Step Time =    1.000,"PART-1-1",           611,        -11.25,           -5.,            0.,NA,NA,"",       13.7906,      -3.23336,      -13.4061,   607.551E-06
C:/temp/dataset/9/5_6.odb,Step-1,Increment      4: Step Time =    1.000,"PART-1-1",           612,      -10.0144,      -3.91217,            0.,NA,NA,"",       13.5275,      -4.11838,      -12.8853,   1.37289E-03
C:/temp/dataset/9/5_6.odb,Step-1,Increment      4: Step Time =    1.000,"PART-1-1",           613,      -11.2827,      -2.82422,            0.,NA,NA,"",       14.5640,      -4.51427,      -13.8467,   1.41719E-03
C:/temp/dataset/9/5_6.odb,Step-1,Increment      4: Step Time =    1.000,"PART-1-1",           614,         -8.75,           -5.,            0.,NA,NA,"",       12.4936,      -3.72141,      -11.9265,   2.12573E-03
C:/temp/dataset/9/5_6.odb,Step-1,Increment      4: Step Time =    1.000,"PART-1-1",           615,      -7.54904,      -4.01671,            0.,NA,NA,"",       12.2762,      -4.53963,      -11.4060,   2.93584E-03
C:/temp/dataset/9/5_6.odb,Step-1,Increment      4: Step Time =    1.000,"PART-1-1",           616,      -8.81345,      -2.92887,            0.,NA,NA,"",       13.3121,      -4.93450,      -12.3637,   2.68548E-03
C:/temp/dataset/9/5_6.odb,Step-1,Increment      4: Step Time =    1.000,"PART-1-1",           617,  -969.738E-03,       22.2544,            0.,NA,NA,"",       24.6791,      -21.1447,      -12.7262,   5.36530E-03
C:/temp/dataset/9/5_6.odb,Step-1,Increment      4: Step Time =    1.000,"PART-1-1",           618,      -2.31964,       21.1016,            0.,NA,NA,"",       24.2099,      -20.2377,      -13.2873,   2.63747E-03
C:/temp/dataset/9/5_6.odb,Step-1,Increment      4: Step Time =    1.000,"PART-1-1",           619,         -1.25,           20.,            0.,NA,NA,"",       23.3983,      -19.7966,      -12.4731,   3.38476E-03
C:/temp/dataset/9/5_6.odb,Step-1,Increment      4: Step Time =    1.000,"PART-1-1",           620,         -1.25,           30.,            0.,NA,NA,"",       29.3234,      -25.5891,      -14.3198,   4.35574E-03
C:/temp/dataset/9/5_6.odb,Step-1,Increment      4: Step Time =    1.000,"PART-1-1",           621,      -1.44357,       27.1449,            0.,NA,NA,"",       27.6518,      -23.8997,      -13.9079,   5.49073E-03
C:/temp/dataset/9/5_6.odb,Step-1,Increment      4: Step Time =    1.000,"PART-1-1",           622,      -4.58492,       21.1383,            0.,NA,NA,"",       24.6368,      -19.8548,      -14.5862,   8.50377E-03
C:/temp/dataset/9/5_6.odb,Step-1,Increment      4: Step Time =    1.000,"PART-1-1",           623,         -3.75,           20.,            0.,NA,NA,"",       23.8275,      -19.3494,      -13.9051,   4.28856E-03
C:/temp/dataset/9/5_6.odb,Step-1,Increment      4: Step Time =    1.000,"PART-1-1",           624,      -3.15456,       22.2398,            0.,NA,NA,"",       25.0130,      -20.7451,      -13.9747,   5.95733E-03
C:/temp/dataset/9/5_6.odb,Step-1,Increment      4: Step Time =    1.000,"PART-1-1",           625,      -11.2479,       22.4027,            0.,NA,NA,"",       26.9067,      -19.3610,      -18.6848,   1.22632E-03
C:/temp/dataset/9/5_6.odb,Step-1,Increment      4: Step Time =    1.000,"PART-1-1",           626,      -10.3888,       20.8027,            0.,NA,NA,"",       25.7998,      -18.5927,      -17.8870,   1.15281E-03
C:/temp/dataset/9/5_6.odb,Step-1,Increment      4: Step Time =    1.000,"PART-1-1",           627,       9.41561,      -24.6142,            0.,NA,NA,"",   368.739E-03,  -363.477E-03,  -62.0735E-03,   15.3788E-03
C:/temp/dataset/9/5_6.odb,Step-1,Increment      4: Step Time =    1.000,"PART-1-1",           628,           15.,        -16.25,            0.,NA,NA,"",       3.09862,      -2.79277,       1.34234,   117.752E-03
C:/temp/dataset/9/5_6.odb,Step-1,Increment      4: Step Time =    1.000,"PART-1-1",           629,       13.1096,      -16.2411,            0.,NA,NA,"",       2.72869,      -2.62054,   760.582E-03,   75.9981E-03
C:/temp/dataset/9/5_6.odb,Step-1,Increment      4: Step Time =    1.000,"PART-1-1",           630,           15.,          3.75,            0.,NA,NA,"",       13.0512,      -13.0509,   85.5412E-03,   32.9548E-03
C:/temp/dataset/9/5_6.odb,Step-1,Increment      4: Step Time =    1.000,"PART-1-1",           631,       14.0093,       5.06690,            0.,NA,NA,"",       13.6569,      -13.6395,  -688.220E-03,   24.8538E-03
C:/temp/dataset/9/5_6.odb,Step-1,Increment      4: Step Time =    1.000,"PART-1-1",           632,       12.9168,       3.88721,            0.,NA,NA,"",       12.7892,      -12.7411,      -1.10838,   22.7235E-03
C:/temp/dataset/9/5_6.odb,Step-1,Increment      4: Step Time =    1.000,"PART-1-1",           633,       12.6026,       11.0965,            0.,NA,NA,"",       17.1605,      -16.9662,      -2.57487,   12.9234E-03
C:/temp/dataset/9/5_6.odb,Step-1,Increment      4: Step Time =    1.000,"PART-1-1",           634,           15.,         11.25,            0.,NA,NA,"",       17.5747,      -17.5340,      -1.19589,   17.1376E-03
C:/temp/dataset/9/5_6.odb,Step-1,Increment      4: Step Time =    1.000,"PART-1-1",           635,       12.4669,       18.7361,            0.,NA,NA,"",       21.9513,      -21.5542,      -4.15649,   5.44282E-03
C:/temp/dataset/9/5_6.odb,Step-1,Increment      4: Step Time =    1.000,"PART-1-1",           636,           15.,         18.75,            0.,NA,NA,"",       22.2244,      -22.0664,      -2.64544,   1.88069E-03
C:/temp/dataset/9/5_6.odb,Step-1,Increment      4: Step Time =    1.000,"PART-1-1",           637,           15.,         26.25,            0.,NA,NA,"",       26.8761,      -26.5550,      -4.14246,   5.25611E-03
C:/temp/dataset/9/5_6.odb,Step-1,Increment      4: Step Time =    1.000,"PART-1-1",           638,          8.75,           30.,            0.,NA,NA,"",       28.8254,      -27.5291,      -8.54701,   10.4393E-03
C:/temp/dataset/9/5_6.odb,Step-1,Increment      4: Step Time =    1.000,"PART-1-1",           639,       8.74802,       27.8391,            0.,NA,NA,"",       27.4816,      -26.2487,      -8.13903,   7.37308E-03
C:/temp/dataset/9/5_6.odb,Step-1,Increment      4: Step Time =    1.000,"PART-1-1",           640,       11.0691,       22.4572,            0.,NA,NA,"",       24.2017,      -23.5133,      -5.73156,   2.33127E-03
C:/temp/dataset/9/5_6.odb,Step-1,Increment      4: Step Time =    1.000,"PART-1-1",           641,       11.1947,       19.9658,            0.,NA,NA,"",       22.6413,      -22.0454,      -5.16041,   5.82415E-03
C:/temp/dataset/9/5_6.odb,Step-1,Increment      4: Step Time =    1.000,"PART-1-1",           642,          3.75,           30.,            0.,NA,NA,"",       28.9023,      -26.5375,      -11.4499,   10.4445E-03
C:/temp/dataset/9/5_6.odb,Step-1,Increment      4: Step Time =    1.000,"PART-1-1",           643,       6.12801,       21.9878,            0.,NA,NA,"",       23.8688,      -22.2784,      -8.56695,   5.08166E-03
C:/temp/dataset/9/5_6.odb,Step-1,Increment      4: Step Time =    1.000,"PART-1-1",           644,       7.06684,       23.0702,            0.,NA,NA,"",       24.5185,      -23.0992,      -8.22094,   2.53958E-03
C:/temp/dataset/9/5_6.odb,Step-1,Increment      4: Step Time =    1.000,"PART-1-1",           645,       4.97038,       22.7185,            0.,NA,NA,"",       24.3709,      -22.4921,      -9.38333,   5.78368E-03
C:/temp/dataset/9/5_6.odb,Step-1,Increment      4: Step Time =    1.000,"PART-1-1",           646,          3.75,           20.,            0.,NA,NA,"",       22.7874,      -20.6774,      -9.57647,   17.1454E-03
C:/temp/dataset/9/5_6.odb,Step-1,Increment      4: Step Time =    1.000,"PART-1-1",           647,       4.96897,       20.9583,            0.,NA,NA,"",       23.2813,      -21.4492,      -9.05276,   13.0239E-03
C:/temp/dataset/9/5_6.odb,Step-1,Increment      4: Step Time =    1.000,"PART-1-1",           648,       3.78616,       22.0655,            0.,NA,NA,"",       24.0423,      -21.8873,      -9.94865,   7.61649E-03
C:/temp/dataset/9/5_6.odb,Step-1,Increment      4: Step Time =    1.000,"PART-1-1",           649,           -5.,         13.75,            0.,NA,NA,"",       20.4615,      -15.4875,      -13.3719,   7.24659E-03
C:/temp/dataset/9/5_6.odb,Step-1,Increment      4: Step Time =    1.000,"PART-1-1",           650,      -7.15256,       14.0792,            0.,NA,NA,"",       21.2025,      -15.2736,      -14.7059,   5.42326E-03
C:/temp/dataset/9/5_6.odb,Step-1,Increment      4: Step Time =    1.000,"PART-1-1",           651,      -9.70164,       19.1500,            0.,NA,NA,"",       24.7070,      -17.7599,      -17.1763,   1.81432E-03
C:/temp/dataset/9/5_6.odb,Step-1,Increment      4: Step Time =    1.000,"PART-1-1",           652,      -9.13060,       21.5024,            0.,NA,NA,"",       25.8598,      -19.2336,      -17.2858,   2.10030E-03
C:/temp/dataset/9/5_6.odb,Step-1,Increment      4: Step Time =    1.000,"PART-1-1",           653,         -1.25,           -5.,            0.,NA,NA,"",       9.14235,      -5.20244,      -7.51779,   8.99260E-03
C:/temp/dataset/9/5_6.odb,Step-1,Increment      4: Step Time =    1.000,"PART-1-1",           654,      -1.47244,      -2.77860,            0.,NA,NA,"",       10.3350,      -6.46549,      -8.06292,   7.76185E-03
C:/temp/dataset/9/5_6.odb,Step-1,Increment      4: Step Time =    1.000,"PART-1-1",           655,      -9.96758,      -1.61086,            0.,NA,NA,"",       14.3889,      -5.48685,      -13.3017,   2.32264E-03
C:/temp/dataset/9/5_6.odb,Step-1,Increment      4: Step Time =    1.000,"PART-1-1",           656,      -6.37223,      -3.07632,            0.,NA,NA,"",       12.1232,      -5.32650,      -10.8904,   4.16641E-03
C:/temp/dataset/9/5_6.odb,Step-1,Increment      4: Step Time =    1.000,"PART-1-1",           657,         -6.25,           -5.,            0.,NA,NA,"",       11.2670,      -4.21296,      -10.4497,   4.43824E-03
C:/temp/dataset/9/5_6.odb,Step-1,Increment      4: Step Time =    1.000,"PART-1-1",           658,         -3.75,            5.,            0.,NA,NA,"",       15.1702,      -10.5701,      -10.8814,   12.2685E-03
C:/temp/dataset/9/5_6.odb,Step-1,Increment      4: Step Time =    1.000,"PART-1-1",           659,      -5.11170,       4.23117,            0.,NA,NA,"",       15.1821,      -9.85921,      -11.5452,   8.44474E-03
C:/temp/dataset/9/5_6.odb,Step-1,Increment      4: Step Time =    1.000,"PART-1-1",           660,      -3.95473,       3.29190,            0.,NA,NA,"",       14.3046,      -9.52803,      -10.6696,   8.22032E-03
C:/temp/dataset/9/5_6.odb,Step-1,Increment      4: Step Time =    1.000,"PART-1-1",           661,          3.75,           -5.,            0.,NA,NA,"",       7.72792,      -6.21325,      -4.59525,   37.4756E-03
C:/temp/dataset/9/5_6.odb,Step-1,Increment      4: Step Time =    1.000,"PART-1-1",           662,       4.69008,      -3.66648,            0.,NA,NA,"",       8.36426,      -7.19076,      -4.27246,   51.2157E-03
C:/temp/dataset/9/5_6.odb,Step-1,Increment      4: Step Time =    1.000,"PART-1-1",           663,       4.69636,       3.71818,            0.,NA,NA,"",       12.6450,      -11.2844,      -5.70612,   25.5515E-03
C:/temp/dataset/9/5_6.odb,Step-1,Increment      4: Step Time =    1.000,"PART-1-1",           664,          3.75,            5.,            0.,NA,NA,"",       13.5008,      -11.8520,      -6.46530,   20.5388E-03
C:/temp/dataset/9/5_6.odb,Step-1,Increment      4: Step Time =    1.000,"PART-1-1",           665,       8.42013,       25.7200,            0.,NA,NA,"",       26.1614,      -24.9307,      -7.92982,   4.78472E-03
C:/temp/dataset/9/5_6.odb,Step-1,Increment      4: Step Time =    1.000,"PART-1-1",           666,       7.55622,       27.1849,            0.,NA,NA,"",       27.0675,      -25.6263,      -8.71457,   6.58713E-03
C:/temp/dataset/9/5_6.odb,Step-1,Increment      4: Step Time =    1.000,"PART-1-1",           667,       6.61388,       26.0906,            0.,NA,NA,"",       26.3995,      -24.7962,      -9.05990,   5.18296E-03
C:/temp/dataset/9/5_6.odb,Step-1,Increment      4: Step Time =    1.000,"PART-1-1",           668,       10.0237,       13.5556,            0.,NA,NA,"",       18.5205,      -17.9490,      -4.56548,   10.7736E-03
C:/temp/dataset/9/5_6.odb,Step-1,Increment      4: Step Time =    1.000,"PART-1-1",           669,       8.80148,       12.2659,            0.,NA,NA,"",       17.6692,      -16.9391,      -5.02664,   9.40788E-03
C:/temp/dataset/9/5_6.odb,Step-1,Increment      4: Step Time =    1.000,"PART-1-1",           670,            5.,          6.25,            0.,NA,NA,"",       14.0799,      -12.7209,      -6.03526,   31.2808E-03
C:/temp/dataset/9/5_6.odb,Step-1,Increment      4: Step Time =    1.000,"PART-1-1",           671,       5.87545,       4.76801,            0.,NA,NA,"",       13.1318,      -12.0396,      -5.24316,   25.2067E-03
C:/temp/dataset/9/5_6.odb,Step-1,Increment      4: Step Time =    1.000,"PART-1-1",           672,       6.93940,       5.78737,            0.,NA,NA,"",       13.6735,      -12.7915,      -4.83139,   12.8376E-03
C:/temp/dataset/9/5_6.odb,Step-1,Increment      4: Step Time =    1.000,"PART-1-1",           673,       7.73520,       4.18036,            0.,NA,NA,"",       12.6879,      -12.0159,      -4.07455,   14.8342E-03
C:/temp/dataset/9/5_6.odb,Step-1,Increment      4: Step Time =    1.000,"PART-1-1",           674,       6.49581,       3.34316,            0.,NA,NA,"",       12.2512,      -11.3477,      -4.61746,   25.1460E-03
C:/temp/dataset/9/5_6.odb,Step-1,Increment      4: Step Time =    1.000,"PART-1-1",           675,       7.18979,       1.82766,            0.,NA,NA,"",       11.3143,      -10.6085,      -3.93354,   26.0418E-03
C:/temp/dataset/9/5_6.odb,Step-1,Increment      4: Step Time =    1.000,"PART-1-1",           676,       8.42918,       2.66485,            0.,NA,NA,"",       11.7730,      -11.2719,      -3.39799,   18.8360E-03
C:/temp/dataset/9/5_6.odb,Step-1,Increment      4: Step Time =    1.000,"PART-1-1",           677,  -530.051E-03,       1.39108,            0.,NA,NA,"",       12.2811,      -9.06847,      -8.28178,   7.22335E-03
C:/temp/dataset/9/5_6.odb,Step-1,Increment      4: Step Time =    1.000,"PART-1-1",           678,      -10.1792,       3.73358,            0.,NA,NA,"",       16.8267,      -8.59609,      -14.4653,   2.92409E-03
C:/temp/dataset/9/5_6.odb,Step-1,Increment      4: Step Time =    1.000,"PART-1-1",           679,      -9.26781,       2.30942,            0.,NA,NA,"",       15.7836,      -7.93170,      -13.6459,   3.68317E-03
C:/temp/dataset/9/5_6.odb,Step-1,Increment      4: Step Time =    1.000,"PART-1-1",           680,      -7.90097,       2.82902,            0.,NA,NA,"",       15.4779,      -8.50048,      -12.9348,   5.04372E-03
C:/temp/dataset/9/5_6.odb,Step-1,Increment      4: Step Time =    1.000,"PART-1-1",           681,      -2.90861,       2.25641,            0.,NA,NA,"",       13.4243,      -9.12205,      -9.84886,   7.75368E-03
C:/temp/dataset/9/5_6.odb,Step-1,Increment      4: Step Time =    1.000,"PART-1-1",           682,      -1.97153,   737.020E-03,            0.,NA,NA,"",       12.3295,      -8.41750,      -9.00906,   6.95209E-03
C:/temp/dataset/9/5_6.odb,Step-1,Increment      4: Step Time =    1.000,"PART-1-1",           683,      -12.0057,       8.33468,            0.,NA,NA,"",       19.7658,      -10.9645,      -16.4458,   1.94534E-03
C:/temp/dataset/9/5_6.odb,Step-1,Increment      4: Step Time =    1.000,"PART-1-1",           684,   257.111E-03,       23.5381,            0.,NA,NA,"",       25.2820,      -22.1101,      -12.2606,   6.11901E-03
C:/temp/dataset/9/5_6.odb,Step-1,Increment      4: Step Time =    1.000,"PART-1-1",           685,       2.92443,       23.5127,            0.,NA,NA,"",       24.9952,      -22.5799,      -10.7196,   6.83050E-03
C:/temp/dataset/9/5_6.odb,Step-1,Increment      4: Step Time =    1.000,"PART-1-1",           686,  -872.814E-03,       24.6452,            0.,NA,NA,"",       26.0868,      -22.5498,      -13.1159,   6.61270E-03
C:/temp/dataset/9/5_6.odb,Step-1,Increment      4: Step Time =    1.000,"PART-1-1",           687,      -2.49287,       25.7554,            0.,NA,NA,"",       26.9740,      -22.9018,      -14.2514,   5.65764E-03
C:/temp/dataset/9/5_6.odb,Step-1,Increment      4: Step Time =    1.000,"PART-1-1",           688,      -6.57000,       23.0679,            0.,NA,NA,"",       26.1491,      -20.6101,      -16.0935,   4.49098E-03
C:/temp/dataset/9/5_6.odb,Step-1,Increment      4: Step Time =    1.000,"PART-1-1",           689,      -7.77911,       22.2181,            0.,NA,NA,"",       25.9355,      -19.8981,      -16.6347,   3.00143E-03
C:/temp/dataset/9/5_6.odb,Step-1,Increment      4: Step Time =    1.000,"PART-1-1",           690,      -6.08757,       21.5970,            0.,NA,NA,"",       25.2076,      -19.8495,      -15.5376,   5.33234E-03
C:/temp/dataset/9/5_6.odb,Step-1,Increment      4: Step Time =    1.000,"PART-1-1",           691,      -10.6596,       24.7502,            0.,NA,NA,"",       28.0445,      -20.8299,      -18.7779,   1.30967E-03
C:/temp/dataset/9/5_6.odb,Step-1,Increment      4: Step Time =    1.000,"PART-1-1",           692,      -8.94190,       25.0911,            0.,NA,NA,"",       27.8211,      -21.3445,      -17.8445,   1.43618E-03
C:/temp/dataset/9/5_6.odb,Step-1,Increment      4: Step Time =    1.000,"PART-1-1",           693,      -9.30563,       26.3338,            0.,NA,NA,"",       28.6038,      -21.9958,      -18.2855,   1.03954E-03
C:/temp/dataset/9/5_6.odb,Step-1,Increment      4: Step Time =    1.000,"PART-1-1",           694,      -11.0233,       25.9928,            0.,NA,NA,"",       28.8237,      -21.4814,      -19.2186,   1.16765E-03
C:/temp/dataset/9/5_6.odb,Step-1,Increment      4: Step Time =    1.000,"PART-1-1",           695,      -9.11986,       17.2561,            0.,NA,NA,"",       23.5047,      -16.7632,      -16.4762,   3.15583E-03
C:/temp/dataset/9/5_6.odb,Step-1,Increment      4: Step Time =    1.000,"PART-1-1",           696,      -11.0116,       7.65423,            0.,NA,NA,"",       19.0509,      -10.7531,      -15.7260,   2.44063E-03
C:/temp/dataset/9/5_6.odb,Step-1,Increment      4: Step Time =    1.000,"PART-1-1",           697,      -11.6541,       6.30856,            0.,NA,NA,"",       18.6466,      -9.83406,      -15.8426,   2.17339E-03
C:/temp/dataset/9/5_6.odb,Step-1,Increment      4: Step Time =    1.000,"PART-1-1",           698,      -3.46647,   792.949E-03,            0.,NA,NA,"",       12.8338,      -8.16271,      -9.90338,   6.86591E-03
C:/temp/dataset/9/5_6.odb,Step-1,Increment      4: Step Time =    1.000,"PART-1-1",           699,      -4.27899,       1.61468,            0.,NA,NA,"",       13.5324,      -8.48558,      -10.5413,   7.17773E-03
C:/temp/dataset/9/5_6.odb,Step-1,Increment      4: Step Time =    1.000,"PART-1-1",           700,      -5.41602,       1.03976,            0.,NA,NA,"",       13.6481,      -7.92985,      -11.1080,   6.43904E-03
C:/temp/dataset/9/5_6.odb,Step-1,Increment      4: Step Time =    1.000,"PART-1-1",           701,      -4.60351,   218.037E-03,            0.,NA,NA,"",       12.9407,      -7.60674,      -10.4689,   6.30460E-03
C:/temp/dataset/9/5_6.odb,Step-1,Increment      4: Step Time =    1.000,"PART-1-1",           702,      -1.96165,  -510.209E-03,            0.,NA,NA,"",       11.6678,      -7.69443,      -8.77118,   6.43769E-03
C:/temp/dataset/9/5_6.odb,Step-1,Increment      4: Step Time =    1.000,"PART-1-1",           703,      -2.89723,      -2.02996,            0.,NA,NA,"",       11.2061,      -6.62451,      -9.03842,   6.12697E-03
C:/temp/dataset/9/5_6.odb,Step-1,Increment      4: Step Time =    1.000,"PART-1-1",           704,       6.46823,      -3.22891,            0.,NA,NA,"",       8.40230,      -7.70708,      -3.34658,   40.0446E-03
C:/temp/dataset/9/5_6.odb,Step-1,Increment      4: Step Time =    1.000,"PART-1-1",           705,       5.30305,      -2.18626,            0.,NA,NA,"",       9.12663,      -8.09627,      -4.21257,   32.6108E-03
C:/temp/dataset/9/5_6.odb,Step-1,Increment      4: Step Time =    1.000,"PART-1-1",           706,       8.11637,      -13.0290,            0.,NA,NA,"",       3.60657,      -3.43254,      -1.10682,   37.2769E-03
C:/temp/dataset/9/5_6.odb,Step-1,Increment      4: Step Time =    1.000,"PART-1-1",           707,       8.09759,      -10.8135,            0.,NA,NA,"",       4.52151,      -4.30853,      -1.37138,   35.5988E-03
C:/temp/dataset/9/5_6.odb,Step-1,Increment      4: Step Time =    1.000,"PART-1-1",           708,           15.,        -26.25,            0.,NA,NA,"",   596.699E-03,  -364.237E-03,   472.632E-03,   140.528E-03
C:/temp/dataset/9/5_6.odb,Step-1,Increment      4: Step Time =    1.000,"PART-1-1",           709,       13.6129,      -24.9005,            0.,NA,NA,"",   646.480E-03,  -461.935E-03,   452.276E-03,   103.607E-03
C:/temp/dataset/9/5_6.odb,Step-1,Increment      4: Step Time =    1.000,"PART-1-1",           710,       12.3352,      -26.1538,            0.,NA,NA,"",   325.770E-03,  -236.882E-03,   223.635E-03,   72.9994E-03
C:/temp/dataset/9/5_6.odb,Step-1,Increment      4: Step Time =    1.000,"PART-1-1",           711,       11.5115,      -24.0900,            0.,NA,NA,"",   540.412E-03,  -493.127E-03,   221.067E-03,   49.6425E-03
C:/temp/dataset/9/5_6.odb,Step-1,Increment      4: Step Time =    1.000,"PART-1-1",           712,       12.5793,      -23.4990,            0.,NA,NA,"",   756.115E-03,  -640.354E-03,   402.066E-03,   75.7086E-03
C:/temp/dataset/9/5_6.odb,Step-1,Increment      4: Step Time =    1.000,"PART-1-1",           713,       11.9958,      -21.9645,            0.,NA,NA,"",   988.398E-03,  -918.729E-03,   364.510E-03,   58.8241E-03
C:/temp/dataset/9/5_6.odb,Step-1,Increment      4: Step Time =    1.000,"PART-1-1",           714,           15.,        -23.75,            0.,NA,NA,"",       1.05352,  -736.280E-03,   753.526E-03,   135.554E-03
C:/temp/dataset/9/5_6.odb,Step-1,Increment      4: Step Time =    1.000,"PART-1-1",           715,       11.0775,      -9.24199,            0.,NA,NA,"",       5.29276,      -5.28568,  -273.802E-03,   29.4341E-03
C:/temp/dataset/9/5_6.odb,Step-1,Increment      4: Step Time =    1.000,"PART-1-1",           716,       10.0590,      -8.23408,            0.,NA,NA,"",       5.70054,      -5.64116,  -820.622E-03,   16.0570E-03
C:/temp/dataset/9/5_6.odb,Step-1,Increment      4: Step Time =    1.000,"PART-1-1",           717,       9.08966,      -9.54059,            0.,NA,NA,"",       5.06135,      -4.94022,      -1.10064,   16.8894E-03
C:/temp/dataset/9/5_6.odb,Step-1,Increment      4: Step Time =    1.000,"PART-1-1",           718,           15.,         -1.25,            0.,NA,NA,"",       10.1576,      -10.1263,   797.442E-03,   55.9338E-03
C:/temp/dataset/9/5_6.odb,Step-1,Increment      4: Step Time =    1.000,"PART-1-1",           719,       12.7047,      -1.36075,            0.,NA,NA,"",       9.67085,      -9.66249,  -401.966E-03,   37.7359E-03
C:/temp/dataset/9/5_6.odb,Step-1,Increment      4: Step Time =    1.000,"PART-1-1",           720,       10.4122,      -1.52824,            0.,NA,NA,"",       9.34180,      -9.20853,      -1.57228,   27.4157E-03
C:/temp/dataset/9/5_6.odb,Step-1,Increment      4: Step Time =    1.000,"PART-1-1",           721,       11.7321,      -2.88547,            0.,NA,NA,"",       8.67600,      -8.64878,  -686.670E-03,   35.6349E-03
C:/temp/dataset/9/5_6.odb,Step-1,Increment      4: Step Time =    1.000,"PART-1-1",           722,       13.0447,       6.32641,            0.,NA,NA,"",       14.2760,      -14.2020,      -1.45149,   19.2168E-03
C:/temp/dataset/9/5_6.odb,Step-1,Increment      4: Step Time =    1.000,"PART-1-1",           723,           15.,          6.25,            0.,NA,NA,"",       14.5363,      -14.5328,  -319.088E-03,   27.1043E-03
C:/temp/dataset/9/5_6.odb,Step-1,Increment      4: Step Time =    1.000,"PART-1-1",           724,       12.2773,       7.44357,            0.,NA,NA,"",       14.8668,      -14.7194,      -2.08849,   15.2203E-03
C:/temp/dataset/9/5_6.odb,Step-1,Increment      4: Step Time =    1.000,"PART-1-1",           725,       11.3989,       9.46443,            0.,NA,NA,"",       16.0331,      -15.7561,      -2.96714,   11.9560E-03
C:/temp/dataset/9/5_6.odb,Step-1,Increment      4: Step Time =    1.000,"PART-1-1",           726,       10.0696,       10.6576,            0.,NA,NA,"",       16.6954,      -16.2171,      -3.96757,   10.9639E-03
C:/temp/dataset/9/5_6.odb,Step-1,Increment      4: Step Time =    1.000,"PART-1-1",           727,       11.2733,       12.2896,            0.,NA,NA,"",       17.7914,      -17.4270,      -3.58220,   10.8584E-03
C:/temp/dataset/9/5_6.odb,Step-1,Increment      4: Step Time =    1.000,"PART-1-1",           728,       11.2495,       14.9235,            0.,NA,NA,"",       19.4530,      -19.0126,      -4.11570,   9.84650E-03
C:/temp/dataset/9/5_6.odb,Step-1,Increment      4: Step Time =    1.000,"PART-1-1",           729,       11.2365,       17.4638,            0.,NA,NA,"",       21.0617,      -20.5460,      -4.63214,   8.29271E-03
C:/temp/dataset/9/5_6.odb,Step-1,Increment      4: Step Time =    1.000,"PART-1-1",           730,       9.96430,       18.6935,            0.,NA,NA,"",       21.7826,      -21.0411,      -5.63503,   8.56743E-03
C:/temp/dataset/9/5_6.odb,Step-1,Increment      4: Step Time =    1.000,"PART-1-1",           731,       8.12949,      -15.2371,            0.,NA,NA,"",       2.78461,      -2.64244,  -878.390E-03,   38.5705E-03
C:/temp/dataset/9/5_6.odb,Step-1,Increment      4: Step Time =    1.000,"PART-1-1",           732,       10.9896,      -6.85237,            0.,NA,NA,"",       6.45350,      -6.43008,  -549.353E-03,   30.4180E-03
C:/temp/dataset/9/5_6.odb,Step-1,Increment      4: Step Time =    1.000,"PART-1-1",           733,       10.9332,      -25.1906,            0.,NA,NA,"",   333.045E-03,  -310.835E-03,   119.584E-03,   36.0874E-03
C:/temp/dataset/9/5_6.odb,Step-1,Increment      4: Step Time =    1.000,"PART-1-1",           734,       11.9281,      -5.46067,            0.,NA,NA,"",       7.28207,      -7.27731,  -263.209E-03,   41.2282E-03
C:/temp/dataset/9/5_6.odb,Step-1,Increment      4: Step Time =    1.000,"PART-1-1",           735,      -11.5697,       3.18107,            0.,NA,NA,"",       17.1614,      -8.00232,      -15.1815,   2.16843E-03
C:/temp/dataset/9/5_6.odb,Step-1,Increment      4: Step Time =    1.000,"PART-1-1",           736,      -10.7341,       2.09613,            0.,NA,NA,"",       16.3130,      -7.52330,      -14.4746,   2.53497E-03
C:/temp/dataset/9/5_6.odb,Step-1,Increment      4: Step Time =    1.000,"PART-1-1",           737,      -6.76822,       1.80268,            0.,NA,NA,"",       14.5363,      -8.11551,      -12.0600,   5.96570E-03
C:/temp/dataset/9/5_6.odb,Step-1,Increment      4: Step Time =    1.000,"PART-1-1",           738,      -5.32511,       2.65016,            0.,NA,NA,"",       14.4278,      -8.89000,      -11.3636,   7.48919E-03
C:/temp/dataset/9/5_6.odb,Step-1,Increment      4: Step Time =    1.000,"PART-1-1",           739,      -6.45786,       3.67650,            0.,NA,NA,"",       15.3584,      -9.27551,      -12.2411,   7.20167E-03
C:/temp/dataset/9/5_6.odb,Step-1,Increment      4: Step Time =    1.000,"PART-1-1",           740,      -10.1618,       27.4009,            0.,NA,NA,"",       29.4011,      -22.4549,      -18.9790,   1.02321E-03
C:/temp/dataset/9/5_6.odb,Step-1,Increment      4: Step Time =    1.000,"PART-1-1",           741,      -8.15950,       27.0742,            0.,NA,NA,"",       28.7698,      -22.6345,      -17.7589,   1.03967E-03
C:/temp/dataset/9/5_6.odb,Step-1,Increment      4: Step Time =    1.000,"PART-1-1",           742,      -8.41457,       23.7439,            0.,NA,NA,"",       26.9414,      -20.6629,      -17.2883,   2.29634E-03
C:/temp/dataset/9/5_6.odb,Step-1,Increment      4: Step Time =    1.000,"PART-1-1",           743,      -9.76606,       23.0282,            0.,NA,NA,"",       26.8663,      -19.9992,      -17.9397,   1.58308E-03
C:/temp/dataset/9/5_6.odb,Step-1,Increment      4: Step Time =    1.000,"PART-1-1",           744,      -10.1457,       6.57799,            0.,NA,NA,"",       18.1891,      -10.2830,      -15.0034,   2.91822E-03
C:/temp/dataset/9/5_6.odb,Step-1,Increment      4: Step Time =    1.000,"PART-1-1",           745,      -11.1466,       5.19230,            0.,NA,NA,"",       17.9106,      -9.27171,      -15.3240,   2.42566E-03
C:/temp/dataset/9/5_6.odb,Step-1,Increment      4: Step Time =    1.000,"PART-1-1",           746,       7.77017,   782.991E-03,            0.,NA,NA,"",       10.6710,      -10.1117,      -3.40945,   26.6769E-03
C:/temp/dataset/9/5_6.odb,Step-1,Increment      4: Step Time =    1.000,"PART-1-1",           747,       6.09501,       1.10589,            0.,NA,NA,"",       10.9646,      -10.0392,      -4.40884,   28.7392E-03
C:/temp/dataset/9/5_6.odb,Step-1,Increment      4: Step Time =    1.000,"PART-1-1",           748,       6.67539,   61.2235E-03,            0.,NA,NA,"",       10.3036,      -9.54546,      -3.87921,   28.8786E-03
C:/temp/dataset/9/5_6.odb,Step-1,Increment      4: Step Time =    1.000,"PART-1-1",           749,       5.31672,       2.29333,            0.,NA,NA,"",       11.7388,      -10.5828,      -5.07967,   27.3144E-03
C:/temp/dataset/9/5_6.odb,Step-1,Increment      4: Step Time =    1.000,"PART-1-1",           750,      -6.94695,       24.4689,            0.,NA,NA,"",       27.0284,      -21.3506,      -16.5737,   2.99304E-03
C:/temp/dataset/9/5_6.odb,Step-1,Increment      4: Step Time =    1.000,"PART-1-1",           751,      -2.09966,       23.3616,            0.,NA,NA,"",       25.4999,      -21.5832,      -13.5798,   6.11778E-03
C:/temp/dataset/9/5_6.odb,Step-1,Increment      4: Step Time =    1.000,"PART-1-1",           752,      -2.87591,       24.2478,            0.,NA,NA,"",       26.1438,      -21.9578,      -14.1900,   6.33949E-03
C:/temp/dataset/9/5_6.odb,Step-1,Increment      4: Step Time =    1.000,"PART-1-1",           753,       9.53974,       23.7363,            0.,NA,NA,"",       24.9450,      -23.9750,      -6.88838,   2.02254E-03
C:/temp/dataset/9/5_6.odb,Step-1,Increment      4: Step Time =    1.000,"PART-1-1",           754,      -5.22075,      -2.25347,            0.,NA,NA,"",       11.9963,      -6.03730,      -10.3663,   4.96438E-03
C:/temp/dataset/9/5_6.odb,Step-1,Increment      4: Step Time =    1.000,"PART-1-1",           755,      -7.55915,      -2.11026,            0.,NA,NA,"",       13.0685,      -5.66296,      -11.7778,   3.60414E-03
C:/temp/dataset/9/5_6.odb,Step-1,Increment      4: Step Time =    1.000,"PART-1-1",           756,      -4.20325,      -1.24540,            0.,NA,NA,"",       12.0723,      -6.82831,      -9.95559,   5.80996E-03
C:/temp/dataset/9/5_6.odb,Step-1,Increment      4: Step Time =    1.000,"PART-1-1",           757,       12.0426,       5.30937,            0.,NA,NA,"",       13.5421,      -13.4159,      -1.84396,   16.2507E-03
C:/temp/dataset/9/5_6.odb,Step-1,Increment      4: Step Time =    1.000,"PART-1-1",           758,      -8.17645,       12.8481,            0.,NA,NA,"",       20.8132,      -14.3574,      -15.0683,   4.24866E-03
C:/temp/dataset/9/5_6.odb,Step-1,Increment      4: Step Time =    1.000,"PART-1-1",           759,      -8.09554,       10.3784,            0.,NA,NA,"",       19.4488,      -12.9198,      -14.5373,   3.87801E-03
C:/temp/dataset/9/5_6.odb,Step-1,Increment      4: Step Time =    1.000,"PART-1-1",           760,      -8.33007,       15.6293,            0.,NA,NA,"",       22.3875,      -15.9597,      -15.6999,   4.43138E-03
C:/temp/dataset/9/5_6.odb,Step-1,Increment      4: Step Time =    1.000,"PART-1-1",           761,       12.1122,      -19.7356,            0.,NA,NA,"",       1.53189,      -1.46693,   441.348E-03,   58.6910E-03
C:/temp/dataset/9/5_6.odb,Step-1,Increment      4: Step Time =    1.000,"PART-1-1",           762,       12.1388,      -17.4254,            0.,NA,NA,"",       2.19984,      -2.14943,   468.244E-03,   56.2784E-03
C:/temp/dataset/9/5_6.odb,Step-1,Increment      4: Step Time =    1.000,"PART-1-1",           763,       12.0361,      -7.90801,            0.,NA,NA,"",       6.04099,      -6.04091,   30.5711E-03,   44.0747E-03
C:/temp/dataset/9/5_6.odb,Step-1,Increment      4: Step Time =    1.000,"PART-1-1",           764,       12.0837,      -10.3075,            0.,NA,NA,"",       4.91695,      -4.91155,   230.307E-03,   46.5496E-03
C:/temp/dataset/9/5_6.odb,Step-1,Increment      4: Step Time =    1.000,"PART-1-1",           765,       12.1118,      -12.6921,            0.,NA,NA,"",       3.90014,      -3.88304,   364.872E-03,   49.6542E-03
C:/temp/dataset/9/5_6.odb,Step-1,Increment      4: Step Time =    1.000,"PART-1-1",           766,       12.1357,      -15.0700,            0.,NA,NA,"",       2.99189,      -2.95866,   444.658E-03,   53.1504E-03
C:/temp/dataset/9/5_6.odb,Step-1,Increment      4: Step Time =    1.000,"PART-1-1",           767,      -8.71328,  -792.246E-03,            0.,NA,NA,"",       14.1525,      -6.21364,      -12.7155,   3.46474E-03
C:/temp/dataset/9/5_6.odb,Step-1,Increment      4: Step Time =    1.000,"PART-1-1",           768,      -7.47429,       25.8162,            0.,NA,NA,"",       27.9082,      -22.0329,      -17.1295,   1.99653E-03
C:/temp/dataset/9/5_6.odb,Step-1,Increment      4: Step Time =    1.000,"PART-1-1",           769,       9.13729,   756.201E-03,            0.,NA,NA,"",       10.6397,      -10.3038,      -2.65221,   21.9728E-03
C:/temp/dataset/9/5_6.odb,Step-1,Increment      4: Step Time =    1.000,"PART-1-1",           770,       7.76646,  -679.521E-03,            0.,NA,NA,"",       9.80851,      -9.29476,      -3.13277,   30.1181E-03
C:/temp/dataset/9/5_6.odb,Step-1,Increment      4: Step Time =    1.000,"PART-1-1",           771,       9.13358,  -706.311E-03,            0.,NA,NA,"",       9.77626,      -9.47978,      -2.38936,   26.6228E-03
C:/temp/dataset/9/5_6.odb,Step-1,Increment      4: Step Time =    1.000,"PART-1-1",           772,       7.17869,      -1.72980,            0.,NA,NA,"",       9.22056,      -8.62786,      -3.25248,   33.6928E-03
C:/temp/dataset/9/5_6.odb,Step-1,Increment      4: Step Time =    1.000,"PART-1-1",           773,       6.08762,  -989.051E-03,            0.,NA,NA,"",       9.73590,      -8.87489,      -4.00301,   32.9703E-03
C:/temp/dataset/9/5_6.odb,Step-1,Increment      4: Step Time =    1.000,"PART-1-1",           774,       8.06590,       24.5744,            0.,NA,NA,"",       25.4473,      -24.1835,      -7.92007,   3.46001E-03
C:/temp/dataset/9/5_6.odb,Step-1,Increment      4: Step Time =    1.000,"PART-1-1",           775,       7.69641,      -4.07963,            0.,NA,NA,"",       7.84687,      -7.42409,      -2.54092,   32.0414E-03
C:/temp/dataset/9/5_6.odb,Step-1,Increment      4: Step Time =    1.000,"PART-1-1",           776,       8.40687,      -2.58051,            0.,NA,NA,"",       8.68315,      -8.33364,      -2.43875,   30.7474E-03
C:/temp/dataset/9/5_6.odb,Step-1,Increment      4: Step Time =    1.000,"PART-1-1",           777,      -9.00797,   684.990E-03,            0.,NA,NA,"",       14.9319,      -7.02573,      -13.1758,   3.66937E-03
C:/temp/dataset/9/5_6.odb,Step-1,Increment      4: Step Time =    1.000,"PART-1-1",           778,       5.05143,   63.4436E-03,            0.,NA,NA,"",       10.4615,      -9.29668,      -4.79732,   24.9349E-03
C:/temp/dataset/9/5_6.odb,Step-1,Increment      4: Step Time =    1.000,"PART-1-1",           779,      -3.45659,  -454.281E-03,            0.,NA,NA,"",       12.1936,      -7.43675,      -9.66322,   6.25287E-03
C:/temp/dataset/9/5_6.odb,Step-1,Increment      4: Step Time =    1.000,"PART-1-1",           780,      -7.58605,   993.377E-03,            0.,NA,NA,"",       14.4742,      -7.48243,      -12.3902,   4.78479E-03
