ODB Name,Step,Frame,Part Instance Name,    êﬂì_ÉâÉxÉã,X,Y,Z,Section Name,Material Name,Section Point,   U-Magnitude,          U-U1,          U-U2,       S-Mises
C:/temp/dataset/9/5_9.odb,Step-1,Increment      4: Step Time =    1.000,"PART-1-1",             1,            5.,           20.,            0.,NA,NA,"",       33.0287,      -28.4472,      -16.7824,   33.5370E-03
C:/temp/dataset/9/5_9.odb,Step-1,Increment      4: Step Time =    1.000,"PART-1-1",             2,            0.,           20.,            0.,NA,NA,"",       33.7266,      -26.5417,      -20.8092,   7.88996E-03
C:/temp/dataset/9/5_9.odb,Step-1,Increment      4: Step Time =    1.000,"PART-1-1",             3,            5.,          12.5,            0.,NA,NA,"",       26.0389,      -22.2534,      -13.5207,   15.1587E-03
C:/temp/dataset/9/5_9.odb,Step-1,Increment      4: Step Time =    1.000,"PART-1-1",             4,            5.,            5.,            0.,NA,NA,"",       19.3627,      -16.3845,      -10.3180,   46.8628E-03
C:/temp/dataset/9/5_9.odb,Step-1,Increment      4: Step Time =    1.000,"PART-1-1",             5,            0.,            5.,            0.,NA,NA,"",       20.4598,      -14.5971,      -14.3363,   28.8609E-03
C:/temp/dataset/9/5_9.odb,Step-1,Increment      4: Step Time =    1.000,"PART-1-1",             6,           -5.,            5.,            0.,NA,NA,"",       22.3470,      -12.5943,      -18.4600,   12.3793E-03
C:/temp/dataset/9/5_9.odb,Step-1,Increment      4: Step Time =    1.000,"PART-1-1",             7,           -5.,          12.5,            0.,NA,NA,"",       28.5506,      -18.6380,      -21.6278,   10.3589E-03
C:/temp/dataset/9/5_9.odb,Step-1,Increment      4: Step Time =    1.000,"PART-1-1",             8,           -5.,           20.,            0.,NA,NA,"",       34.9154,      -24.6187,      -24.7589,   20.3428E-03
C:/temp/dataset/9/5_9.odb,Step-1,Increment      4: Step Time =    1.000,"PART-1-1",             9,           15.,           30.,            0.,NA,NA,"",       42.7624,      -40.7898,      -12.8381,   8.84682E-03
C:/temp/dataset/9/5_9.odb,Step-1,Increment      4: Step Time =    1.000,"PART-1-1",            10,           7.5,           30.,            0.,NA,NA,"",       42.0767,      -37.6106,      -18.8652,   16.8983E-03
C:/temp/dataset/9/5_9.odb,Step-1,Increment      4: Step Time =    1.000,"PART-1-1",            11,            0.,           30.,            0.,NA,NA,"",       42.5152,      -34.5371,      -24.7938,   9.19313E-03
C:/temp/dataset/9/5_9.odb,Step-1,Increment      4: Step Time =    1.000,"PART-1-1",            12,          -7.5,           30.,            0.,NA,NA,"",       44.0744,      -31.5834,      -30.7415,   2.39150E-03
C:/temp/dataset/9/5_9.odb,Step-1,Increment      4: Step Time =    1.000,"PART-1-1",            13,          -15.,           30.,            0.,NA,NA,"",       46.5591,      -28.6094,      -36.7323,   123.946E-06
C:/temp/dataset/9/5_9.odb,Step-1,Increment      4: Step Time =    1.000,"PART-1-1",            14,          -15.,         21.25,            0.,NA,NA,"",       39.6646,      -21.6113,      -33.2600,   4.76889E-03
C:/temp/dataset/9/5_9.odb,Step-1,Increment      4: Step Time =    1.000,"PART-1-1",            15,          -15.,          12.5,            0.,NA,NA,"",       33.0863,      -14.5360,      -29.7222,   3.13606E-03
C:/temp/dataset/9/5_9.odb,Step-1,Increment      4: Step Time =    1.000,"PART-1-1",            16,          -15.,          3.75,            0.,NA,NA,"",       27.1279,      -7.43551,      -26.0890,   1.99164E-03
C:/temp/dataset/9/5_9.odb,Step-1,Increment      4: Step Time =    1.000,"PART-1-1",            17,          -15.,           -5.,            0.,NA,NA,"",       22.4505,  -341.209E-03,      -22.4479,   98.0588E-06
C:/temp/dataset/9/5_9.odb,Step-1,Increment      4: Step Time =    1.000,"PART-1-1",            18,          -10.,           -5.,            0.,NA,NA,"",       18.5472,      -2.42542,      -18.3880,   1.60948E-03
C:/temp/dataset/9/5_9.odb,Step-1,Increment      4: Step Time =    1.000,"PART-1-1",            19,           -5.,           -5.,            0.,NA,NA,"",       15.0385,      -4.52319,      -14.3421,   8.38687E-03
C:/temp/dataset/9/5_9.odb,Step-1,Increment      4: Step Time =    1.000,"PART-1-1",            20,            0.,           -5.,            0.,NA,NA,"",       12.2753,      -6.61847,      -10.3382,   13.2203E-03
C:/temp/dataset/9/5_9.odb,Step-1,Increment      4: Step Time =    1.000,"PART-1-1",            21,            5.,           -5.,            0.,NA,NA,"",       10.8728,      -8.87484,      -6.28141,   147.931E-03
C:/temp/dataset/9/5_9.odb,Step-1,Increment      4: Step Time =    1.000,"PART-1-1",            22,            5.,        -11.25,            0.,NA,NA,"",       6.80327,      -5.36726,      -4.18055,   147.724E-03
C:/temp/dataset/9/5_9.odb,Step-1,Increment      4: Step Time =    1.000,"PART-1-1",            23,            5.,         -17.5,            0.,NA,NA,"",       3.57004,      -2.55902,      -2.48931,   171.320E-03
C:/temp/dataset/9/5_9.odb,Step-1,Increment      4: Step Time =    1.000,"PART-1-1",            24,            5.,        -23.75,            0.,NA,NA,"",       1.37313,  -758.047E-03,      -1.14493,   193.600E-03
C:/temp/dataset/9/5_9.odb,Step-1,Increment      4: Step Time =    1.000,"PART-1-1",            25,            5.,          -30.,            0.,NA,NA,"",            0.,   3.40417E-39,   6.84208E-39,   219.106E-03
C:/temp/dataset/9/5_9.odb,Step-1,Increment      4: Step Time =    1.000,"PART-1-1",            26,           15.,          -30.,            0.,NA,NA,"",            0.,   513.364E-42,  -877.092E-42,   250.041E-03
C:/temp/dataset/9/5_9.odb,Step-1,Increment      4: Step Time =    1.000,"PART-1-1",            27,           15.,         -22.5,            0.,NA,NA,"",       1.94881,      -1.48674,       1.25995,   201.274E-03
C:/temp/dataset/9/5_9.odb,Step-1,Increment      4: Step Time =    1.000,"PART-1-1",            28,           15.,          -15.,            0.,NA,NA,"",       5.25015,      -4.93773,       1.78407,   174.098E-03
C:/temp/dataset/9/5_9.odb,Step-1,Increment      4: Step Time =    1.000,"PART-1-1",            29,           15.,          -7.5,            0.,NA,NA,"",       10.0808,      -10.0135,       1.16268,   141.397E-03
C:/temp/dataset/9/5_9.odb,Step-1,Increment      4: Step Time =    1.000,"PART-1-1",            30,           15.,            0.,            0.,NA,NA,"",       16.0561,      -16.0392,  -735.442E-03,   73.6796E-03
C:/temp/dataset/9/5_9.odb,Step-1,Increment      4: Step Time =    1.000,"PART-1-1",            31,           15.,           7.5,            0.,NA,NA,"",       22.5041,      -22.2414,      -3.42893,   37.4037E-03
C:/temp/dataset/9/5_9.odb,Step-1,Increment      4: Step Time =    1.000,"PART-1-1",            32,           15.,           15.,            0.,NA,NA,"",       29.2155,      -28.4891,      -6.47425,   13.2151E-03
C:/temp/dataset/9/5_9.odb,Step-1,Increment      4: Step Time =    1.000,"PART-1-1",            33,           15.,          22.5,            0.,NA,NA,"",       36.0009,      -34.6736,      -9.68526,   5.19058E-03
C:/temp/dataset/9/5_9.odb,Step-1,Increment      4: Step Time =    1.000,"PART-1-1",            34,           2.5,           20.,            0.,NA,NA,"",       33.3225,      -27.5072,      -18.8080,   16.3145E-03
C:/temp/dataset/9/5_9.odb,Step-1,Increment      4: Step Time =    1.000,"PART-1-1",            35,            5.,           15.,            0.,NA,NA,"",       28.3403,      -24.2862,      -14.6066,   6.71211E-03
C:/temp/dataset/9/5_9.odb,Step-1,Increment      4: Step Time =    1.000,"PART-1-1",            36,            5.,          17.5,            0.,NA,NA,"",       30.6640,      -26.3428,      -15.6951,   7.39139E-03
C:/temp/dataset/9/5_9.odb,Step-1,Increment      4: Step Time =    1.000,"PART-1-1",            37,            5.,           7.5,            0.,NA,NA,"",       21.5279,      -18.2797,      -11.3712,   38.2170E-03
C:/temp/dataset/9/5_9.odb,Step-1,Increment      4: Step Time =    1.000,"PART-1-1",            38,            5.,           10.,            0.,NA,NA,"",       23.7656,      -20.2497,      -12.4400,   24.2191E-03
C:/temp/dataset/9/5_9.odb,Step-1,Increment      4: Step Time =    1.000,"PART-1-1",            39,           2.5,            5.,            0.,NA,NA,"",       19.8094,      -15.5333,      -12.2934,   35.3668E-03
C:/temp/dataset/9/5_9.odb,Step-1,Increment      4: Step Time =    1.000,"PART-1-1",            40,          -2.5,            5.,            0.,NA,NA,"",       21.3084,      -13.6124,      -16.3936,   20.9704E-03
C:/temp/dataset/9/5_9.odb,Step-1,Increment      4: Step Time =    1.000,"PART-1-1",            41,           -5.,           10.,            0.,NA,NA,"",       26.4592,      -16.6302,      -20.5798,   9.41773E-03
C:/temp/dataset/9/5_9.odb,Step-1,Increment      4: Step Time =    1.000,"PART-1-1",            42,           -5.,           7.5,            0.,NA,NA,"",       24.3919,      -14.6165,      -19.5276,   9.00730E-03
C:/temp/dataset/9/5_9.odb,Step-1,Increment      4: Step Time =    1.000,"PART-1-1",            43,           -5.,          17.5,            0.,NA,NA,"",       32.7817,      -22.6363,      -23.7116,   14.9747E-03
C:/temp/dataset/9/5_9.odb,Step-1,Increment      4: Step Time =    1.000,"PART-1-1",            44,           -5.,           15.,            0.,NA,NA,"",       30.6593,      -20.6397,      -22.6714,   11.4788E-03
C:/temp/dataset/9/5_9.odb,Step-1,Increment      4: Step Time =    1.000,"PART-1-1",            45,          -2.5,           20.,            0.,NA,NA,"",       34.2631,      -25.5766,      -22.7990,   4.55713E-03
C:/temp/dataset/9/5_9.odb,Step-1,Increment      4: Step Time =    1.000,"PART-1-1",            46,          12.5,           30.,            0.,NA,NA,"",       42.4171,      -39.7307,      -14.8553,   10.5535E-03
C:/temp/dataset/9/5_9.odb,Step-1,Increment      4: Step Time =    1.000,"PART-1-1",            47,           10.,           30.,            0.,NA,NA,"",       42.1867,      -38.6683,      -16.8666,   14.2143E-03
C:/temp/dataset/9/5_9.odb,Step-1,Increment      4: Step Time =    1.000,"PART-1-1",            48,            5.,           30.,            0.,NA,NA,"",       42.0929,      -36.5665,      -20.8497,   16.9964E-03
C:/temp/dataset/9/5_9.odb,Step-1,Increment      4: Step Time =    1.000,"PART-1-1",            49,           2.5,           30.,            0.,NA,NA,"",       42.2390,      -35.5418,      -22.8235,   14.0970E-03
C:/temp/dataset/9/5_9.odb,Step-1,Increment      4: Step Time =    1.000,"PART-1-1",            50,          -2.5,           30.,            0.,NA,NA,"",       42.9182,      -33.5477,      -26.7679,   3.90891E-03
C:/temp/dataset/9/5_9.odb,Step-1,Increment      4: Step Time =    1.000,"PART-1-1",            51,           -5.,           30.,            0.,NA,NA,"",       43.4407,      -32.5657,      -28.7501,   613.733E-06
C:/temp/dataset/9/5_9.odb,Step-1,Increment      4: Step Time =    1.000,"PART-1-1",            52,          -10.,           30.,            0.,NA,NA,"",       44.8099,      -30.5958,      -32.7387,   1.95370E-03
C:/temp/dataset/9/5_9.odb,Step-1,Increment      4: Step Time =    1.000,"PART-1-1",            53,         -12.5,           30.,            0.,NA,NA,"",       45.6397,      -29.6033,      -34.7365,   533.084E-06
C:/temp/dataset/9/5_9.odb,Step-1,Increment      4: Step Time =    1.000,"PART-1-1",            54,          -15.,       27.8125,            0.,NA,NA,"",       44.8089,      -26.8637,      -35.8633,   409.973E-06
C:/temp/dataset/9/5_9.odb,Step-1,Increment      4: Step Time =    1.000,"PART-1-1",            55,          -15.,        25.625,            0.,NA,NA,"",       43.0764,      -25.1170,      -34.9960,   1.81743E-03
C:/temp/dataset/9/5_9.odb,Step-1,Increment      4: Step Time =    1.000,"PART-1-1",            56,          -15.,       23.4375,            0.,NA,NA,"",       41.3617,      -23.3668,      -34.1289,   3.40745E-03
C:/temp/dataset/9/5_9.odb,Step-1,Increment      4: Step Time =    1.000,"PART-1-1",            57,          -15.,       19.0625,            0.,NA,NA,"",       37.9854,      -19.8496,      -32.3864,   5.49411E-03
C:/temp/dataset/9/5_9.odb,Step-1,Increment      4: Step Time =    1.000,"PART-1-1",            58,          -15.,        16.875,            0.,NA,NA,"",       36.3262,      -18.0822,      -31.5060,   5.29895E-03
C:/temp/dataset/9/5_9.odb,Step-1,Increment      4: Step Time =    1.000,"PART-1-1",            59,          -15.,       14.6875,            0.,NA,NA,"",       34.6913,      -16.3105,      -30.6179,   4.39373E-03
C:/temp/dataset/9/5_9.odb,Step-1,Increment      4: Step Time =    1.000,"PART-1-1",            60,          -15.,       10.3125,            0.,NA,NA,"",       31.5185,      -12.7601,      -28.8201,   1.70287E-03
C:/temp/dataset/9/5_9.odb,Step-1,Increment      4: Step Time =    1.000,"PART-1-1",            61,          -15.,         8.125,            0.,NA,NA,"",       29.9960,      -10.9839,      -27.9127,   202.791E-06
C:/temp/dataset/9/5_9.odb,Step-1,Increment      4: Step Time =    1.000,"PART-1-1",            62,          -15.,        5.9375,            0.,NA,NA,"",       28.5287,      -9.20885,      -27.0015,   1.17139E-03
C:/temp/dataset/9/5_9.odb,Step-1,Increment      4: Step Time =    1.000,"PART-1-1",            63,          -15.,        1.5625,            0.,NA,NA,"",       25.8063,      -5.66349,      -25.1772,   1.82316E-03
C:/temp/dataset/9/5_9.odb,Step-1,Increment      4: Step Time =    1.000,"PART-1-1",            64,          -15.,     -625.E-03,            0.,NA,NA,"",       24.5771,      -3.89115,      -24.2671,   916.075E-06
C:/temp/dataset/9/5_9.odb,Step-1,Increment      4: Step Time =    1.000,"PART-1-1",            65,          -15.,       -2.8125,            0.,NA,NA,"",       23.4536,      -2.11698,      -23.3578,   121.365E-06
C:/temp/dataset/9/5_9.odb,Step-1,Increment      4: Step Time =    1.000,"PART-1-1",            66,         -12.5,           -5.,            0.,NA,NA,"",       20.4647,      -1.38187,      -20.4179,   158.030E-06
C:/temp/dataset/9/5_9.odb,Step-1,Increment      4: Step Time =    1.000,"PART-1-1",            67,          -7.5,           -5.,            0.,NA,NA,"",       16.7257,      -3.47294,      -16.3612,   4.54859E-03
C:/temp/dataset/9/5_9.odb,Step-1,Increment      4: Step Time =    1.000,"PART-1-1",            68,          -2.5,           -5.,            0.,NA,NA,"",       13.5357,      -5.57223,      -12.3356,   12.7537E-03
C:/temp/dataset/9/5_9.odb,Step-1,Increment      4: Step Time =    1.000,"PART-1-1",            69,           2.5,           -5.,            0.,NA,NA,"",       11.3282,      -7.66902,      -8.33752,   36.8555E-03
C:/temp/dataset/9/5_9.odb,Step-1,Increment      4: Step Time =    1.000,"PART-1-1",            70,            5.,      -7.08333,            0.,NA,NA,"",       9.46644,      -7.68730,      -5.52440,   154.807E-03
C:/temp/dataset/9/5_9.odb,Step-1,Increment      4: Step Time =    1.000,"PART-1-1",            71,            5.,      -9.16667,            0.,NA,NA,"",       8.09417,      -6.49143,      -4.83497,   137.401E-03
C:/temp/dataset/9/5_9.odb,Step-1,Increment      4: Step Time =    1.000,"PART-1-1",            72,            5.,      -13.3333,            0.,NA,NA,"",       5.61313,      -4.33074,      -3.57098,   155.267E-03
C:/temp/dataset/9/5_9.odb,Step-1,Increment      4: Step Time =    1.000,"PART-1-1",            73,            5.,      -15.4167,            0.,NA,NA,"",       4.53412,      -3.39232,      -3.00839,   163.568E-03
C:/temp/dataset/9/5_9.odb,Step-1,Increment      4: Step Time =    1.000,"PART-1-1",            74,            5.,      -19.5833,            0.,NA,NA,"",       2.72325,      -1.83773,      -2.00969,   178.892E-03
C:/temp/dataset/9/5_9.odb,Step-1,Increment      4: Step Time =    1.000,"PART-1-1",            75,            5.,      -21.6667,            0.,NA,NA,"",       1.99262,      -1.23468,      -1.56400,   186.184E-03
C:/temp/dataset/9/5_9.odb,Step-1,Increment      4: Step Time =    1.000,"PART-1-1",            76,            5.,      -25.8333,            0.,NA,NA,"",   853.707E-03,  -409.939E-03,  -748.843E-03,   196.048E-03
C:/temp/dataset/9/5_9.odb,Step-1,Increment      4: Step Time =    1.000,"PART-1-1",            77,            5.,      -27.9167,            0.,NA,NA,"",   417.773E-03,  -196.309E-03,  -368.778E-03,   209.838E-03
C:/temp/dataset/9/5_9.odb,Step-1,Increment      4: Step Time =    1.000,"PART-1-1",            78,           7.5,          -30.,            0.,NA,NA,"",            0.,   35.5829E-39,  -258.109E-39,   78.0648E-03
C:/temp/dataset/9/5_9.odb,Step-1,Increment      4: Step Time =    1.000,"PART-1-1",            79,           10.,          -30.,            0.,NA,NA,"",            0.,   50.0959E-39,   35.9914E-39,   32.2830E-03
C:/temp/dataset/9/5_9.odb,Step-1,Increment      4: Step Time =    1.000,"PART-1-1",            80,          12.5,          -30.,            0.,NA,NA,"",            0.,  -102.820E-39,   219.925E-39,   83.0935E-03
C:/temp/dataset/9/5_9.odb,Step-1,Increment      4: Step Time =    1.000,"PART-1-1",            81,           15.,         -27.5,            0.,NA,NA,"",   582.387E-03,  -344.879E-03,   469.290E-03,   213.992E-03
C:/temp/dataset/9/5_9.odb,Step-1,Increment      4: Step Time =    1.000,"PART-1-1",            82,           15.,          -25.,            0.,NA,NA,"",       1.19240,  -793.539E-03,   890.004E-03,   205.196E-03
C:/temp/dataset/9/5_9.odb,Step-1,Increment      4: Step Time =    1.000,"PART-1-1",            83,           15.,          -20.,            0.,NA,NA,"",       2.87178,      -2.42067,       1.54514,   192.622E-03
C:/temp/dataset/9/5_9.odb,Step-1,Increment      4: Step Time =    1.000,"PART-1-1",            84,           15.,         -17.5,            0.,NA,NA,"",       3.97217,      -3.57832,       1.72445,   183.701E-03
C:/temp/dataset/9/5_9.odb,Step-1,Increment      4: Step Time =    1.000,"PART-1-1",            85,           15.,         -12.5,            0.,NA,NA,"",       6.70020,      -6.47707,       1.71474,   164.448E-03
C:/temp/dataset/9/5_9.odb,Step-1,Increment      4: Step Time =    1.000,"PART-1-1",            86,           15.,          -10.,            0.,NA,NA,"",       8.31410,      -8.17586,       1.50982,   154.273E-03
C:/temp/dataset/9/5_9.odb,Step-1,Increment      4: Step Time =    1.000,"PART-1-1",            87,           15.,           -5.,            0.,NA,NA,"",       11.9815,      -11.9629,   666.923E-03,   122.382E-03
C:/temp/dataset/9/5_9.odb,Step-1,Increment      4: Step Time =    1.000,"PART-1-1",            88,           15.,          -2.5,            0.,NA,NA,"",       13.9852,      -13.9851,   26.2209E-03,   97.7882E-03
C:/temp/dataset/9/5_9.odb,Step-1,Increment      4: Step Time =    1.000,"PART-1-1",            89,           15.,           2.5,            0.,NA,NA,"",       18.1706,      -18.1016,      -1.58188,   55.7301E-03
C:/temp/dataset/9/5_9.odb,Step-1,Increment      4: Step Time =    1.000,"PART-1-1",            90,           15.,            5.,            0.,NA,NA,"",       20.3202,      -20.1677,      -2.48428,   44.7698E-03
C:/temp/dataset/9/5_9.odb,Step-1,Increment      4: Step Time =    1.000,"PART-1-1",            91,           15.,           10.,            0.,NA,NA,"",       24.7200,      -24.3231,      -4.41179,   30.0413E-03
C:/temp/dataset/9/5_9.odb,Step-1,Increment      4: Step Time =    1.000,"PART-1-1",            92,           15.,          12.5,            0.,NA,NA,"",       26.9603,      -26.4080,      -5.42915,   21.8066E-03
C:/temp/dataset/9/5_9.odb,Step-1,Increment      4: Step Time =    1.000,"PART-1-1",            93,           15.,          17.5,            0.,NA,NA,"",       31.4761,      -30.5603,      -7.53752,   5.56503E-03
C:/temp/dataset/9/5_9.odb,Step-1,Increment      4: Step Time =    1.000,"PART-1-1",            94,           15.,           20.,            0.,NA,NA,"",       33.7355,      -32.6186,      -8.60878,   1.35496E-03
C:/temp/dataset/9/5_9.odb,Step-1,Increment      4: Step Time =    1.000,"PART-1-1",            95,           15.,           25.,            0.,NA,NA,"",       38.2571,      -36.7145,      -10.7543,   8.74655E-03
C:/temp/dataset/9/5_9.odb,Step-1,Increment      4: Step Time =    1.000,"PART-1-1",            96,           15.,          27.5,            0.,NA,NA,"",       40.5062,      -38.7497,      -11.7990,   8.26878E-03
C:/temp/dataset/9/5_9.odb,Step-1,Increment      4: Step Time =    1.000,"PART-1-1",            97,       7.09255,      -21.6558,            0.,NA,NA,"",       1.49843,      -1.20592,  -889.403E-03,   98.7164E-03
C:/temp/dataset/9/5_9.odb,Step-1,Increment      4: Step Time =    1.000,"PART-1-1",            98,       7.09346,      -17.4368,            0.,NA,NA,"",       3.08804,      -2.67681,      -1.53969,   92.0042E-03
C:/temp/dataset/9/5_9.odb,Step-1,Increment      4: Step Time =    1.000,"PART-1-1",            99,       7.15828,      -23.7452,            0.,NA,NA,"",   913.243E-03,  -676.640E-03,  -613.329E-03,   98.8401E-03
C:/temp/dataset/9/5_9.odb,Step-1,Increment      4: Step Time =    1.000,"PART-1-1",           100,       7.44609,      -27.8729,            0.,NA,NA,"",   172.959E-03,  -56.3424E-03,  -163.525E-03,   95.9407E-03
C:/temp/dataset/9/5_9.odb,Step-1,Increment      4: Step Time =    1.000,"PART-1-1",           101,       7.30780,      -25.7939,            0.,NA,NA,"",   467.631E-03,  -292.679E-03,  -364.716E-03,   98.5652E-03
C:/temp/dataset/9/5_9.odb,Step-1,Increment      4: Step Time =    1.000,"PART-1-1",           102,       7.08258,      -10.9526,            0.,NA,NA,"",       6.55561,      -5.84827,      -2.96206,   80.9422E-03
C:/temp/dataset/9/5_9.odb,Step-1,Increment      4: Step Time =    1.000,"PART-1-1",           103,       7.09950,      -13.1236,            0.,NA,NA,"",       5.26509,      -4.67780,      -2.41647,   84.5308E-03
C:/temp/dataset/9/5_9.odb,Step-1,Increment      4: Step Time =    1.000,"PART-1-1",           104,       6.95448,      -6.62029,            0.,NA,NA,"",       9.47177,      -8.43983,      -4.29927,   70.3358E-03
C:/temp/dataset/9/5_9.odb,Step-1,Increment      4: Step Time =    1.000,"PART-1-1",           105,       7.04974,      -8.78764,            0.,NA,NA,"",       7.95520,      -7.10262,      -3.58301,   80.2559E-03
C:/temp/dataset/9/5_9.odb,Step-1,Increment      4: Step Time =    1.000,"PART-1-1",           106,       7.10540,      -15.2896,            0.,NA,NA,"",       4.10422,      -3.61565,      -1.94208,   87.9712E-03
C:/temp/dataset/9/5_9.odb,Step-1,Increment      4: Step Time =    1.000,"PART-1-1",           107,       7.08223,      -19.5608,            0.,NA,NA,"",       2.21957,      -1.87152,      -1.19328,   95.8674E-03
C:/temp/dataset/9/5_9.odb,Step-1,Increment      4: Step Time =    1.000,"PART-1-1",           108,      -11.8989,       25.3809,            0.,NA,NA,"",       41.6594,      -26.1585,      -32.4228,   2.09682E-03
C:/temp/dataset/9/5_9.odb,Step-1,Increment      4: Step Time =    1.000,"PART-1-1",           109,      -12.7134,       3.51066,            0.,NA,NA,"",       25.4837,      -8.19111,      -24.1313,   2.27920E-03
C:/temp/dataset/9/5_9.odb,Step-1,Increment      4: Step Time =    1.000,"PART-1-1",           110,      -13.0834,       10.3867,            0.,NA,NA,"",       30.5050,      -13.6133,      -27.2989,   1.81907E-03
C:/temp/dataset/9/5_9.odb,Step-1,Increment      4: Step Time =    1.000,"PART-1-1",           111,      -12.9355,       8.20912,            0.,NA,NA,"",       28.8460,      -11.9084,      -26.2732,   2.22127E-03
C:/temp/dataset/9/5_9.odb,Step-1,Increment      4: Step Time =    1.000,"PART-1-1",           112,      -13.1801,       12.5484,            0.,NA,NA,"",       32.1584,      -15.3255,      -28.2717,   1.73916E-03
C:/temp/dataset/9/5_9.odb,Step-1,Increment      4: Step Time =    1.000,"PART-1-1",           113,      -12.7454,       20.6010,            0.,NA,NA,"",       38.1728,      -21.9979,      -31.1970,   1.94370E-03
C:/temp/dataset/9/5_9.odb,Step-1,Increment      4: Step Time =    1.000,"PART-1-1",           114,      -13.1621,       18.5389,            0.,NA,NA,"",       36.7365,      -20.1725,      -30.7025,   2.27820E-03
C:/temp/dataset/9/5_9.odb,Step-1,Increment      4: Step Time =    1.000,"PART-1-1",           115,      -12.3840,       22.8683,            0.,NA,NA,"",       39.8253,      -23.9586,      -31.8126,   2.13316E-03
C:/temp/dataset/9/5_9.odb,Step-1,Increment      4: Step Time =    1.000,"PART-1-1",           116,      -13.4658,       16.5948,            0.,NA,NA,"",       35.3717,      -18.4815,      -30.1594,   2.52779E-03
C:/temp/dataset/9/5_9.odb,Step-1,Increment      4: Step Time =    1.000,"PART-1-1",           117,      -13.3466,       14.6489,            0.,NA,NA,"",       33.8270,      -16.9576,      -29.2696,   2.05780E-03
C:/temp/dataset/9/5_9.odb,Step-1,Increment      4: Step Time =    1.000,"PART-1-1",           118,      -12.3609,       5.76892,            0.,NA,NA,"",       26.7922,      -10.1673,      -24.7881,   2.72540E-03
C:/temp/dataset/9/5_9.odb,Step-1,Increment      4: Step Time =    1.000,"PART-1-1",           119,      -12.8583,       1.39410,            0.,NA,NA,"",       24.2322,      -6.41679,      -23.3671,   2.15474E-03
C:/temp/dataset/9/5_9.odb,Step-1,Increment      4: Step Time =    1.000,"PART-1-1",           120,      -12.6304,  -685.754E-03,            0.,NA,NA,"",       22.8334,      -4.82731,      -22.3173,   1.95869E-03
C:/temp/dataset/9/5_9.odb,Step-1,Increment      4: Step Time =    1.000,"PART-1-1",           121,   38.5673E-03,       27.2989,            0.,NA,NA,"",       40.1315,      -32.3897,      -23.6949,   9.09573E-03
C:/temp/dataset/9/5_9.odb,Step-1,Increment      4: Step Time =    1.000,"PART-1-1",           122,      -4.16985,       22.2766,            0.,NA,NA,"",       36.6154,      -26.7376,      -25.0157,   10.3774E-03
C:/temp/dataset/9/5_9.odb,Step-1,Increment      4: Step Time =    1.000,"PART-1-1",           123,      -7.85548,       28.0855,            0.,NA,NA,"",       42.5585,      -29.9191,      -30.2666,   1.27112E-03
C:/temp/dataset/9/5_9.odb,Step-1,Increment      4: Step Time =    1.000,"PART-1-1",           124,       9.92813,      -27.7267,            0.,NA,NA,"",   51.0861E-03,  -49.2189E-03,   13.6856E-03,   22.4945E-03
C:/temp/dataset/9/5_9.odb,Step-1,Increment      4: Step Time =    1.000,"PART-1-1",           125,       13.1106,      -17.4438,            0.,NA,NA,"",       3.45135,      -3.31328,   966.436E-03,   120.114E-03
C:/temp/dataset/9/5_9.odb,Step-1,Increment      4: Step Time =    1.000,"PART-1-1",           126,       12.8150,       2.64061,            0.,NA,NA,"",       17.6845,      -17.3734,      -3.30280,   37.8231E-03
C:/temp/dataset/9/5_9.odb,Step-1,Increment      4: Step Time =    1.000,"PART-1-1",           127,       7.56819,       12.3225,            0.,NA,NA,"",       25.8046,      -23.1768,      -11.3454,   13.6559E-03
C:/temp/dataset/9/5_9.odb,Step-1,Increment      4: Step Time =    1.000,"PART-1-1",           128,       7.47113,       19.8748,            0.,NA,NA,"",       32.8332,      -29.3572,      -14.7029,   14.2614E-03
C:/temp/dataset/9/5_9.odb,Step-1,Increment      4: Step Time =    1.000,"PART-1-1",           129,       12.4223,       27.5153,            0.,NA,NA,"",       40.1481,      -37.6696,      -13.8879,   10.0885E-03
C:/temp/dataset/9/5_9.odb,Step-1,Increment      4: Step Time =    1.000,"PART-1-1",           130,       12.3750,       22.5091,            0.,NA,NA,"",       35.5854,      -33.5609,      -11.8318,   5.27168E-03
C:/temp/dataset/9/5_9.odb,Step-1,Increment      4: Step Time =    1.000,"PART-1-1",           131,       7.58839,       27.9970,            0.,NA,NA,"",       40.2557,      -36.0181,      -17.9783,   11.2844E-03
C:/temp/dataset/9/5_9.odb,Step-1,Increment      4: Step Time =    1.000,"PART-1-1",           132,   199.805E-03,       22.3057,            0.,NA,NA,"",       35.6991,      -28.4501,      -21.5643,   8.71498E-03
C:/temp/dataset/9/5_9.odb,Step-1,Increment      4: Step Time =    1.000,"PART-1-1",           133,       12.6934,       9.82310,            0.,NA,NA,"",       24.0240,      -23.2148,      -6.18276,   21.6186E-03
C:/temp/dataset/9/5_9.odb,Step-1,Increment      4: Step Time =    1.000,"PART-1-1",           134,      -7.14717,       12.7802,            0.,NA,NA,"",       29.5822,      -17.9836,      -23.4883,   7.62963E-03
C:/temp/dataset/9/5_9.odb,Step-1,Increment      4: Step Time =    1.000,"PART-1-1",           135,      -6.86178,       17.9412,            0.,NA,NA,"",       33.7570,      -22.2367,      -25.3982,   10.7424E-03
C:/temp/dataset/9/5_9.odb,Step-1,Increment      4: Step Time =    1.000,"PART-1-1",           136,      -2.68307,      -2.95682,            0.,NA,NA,"",       15.1139,      -7.15309,      -13.3141,   9.40651E-03
C:/temp/dataset/9/5_9.odb,Step-1,Increment      4: Step Time =    1.000,"PART-1-1",           137,      -7.59808,      -3.03341,            0.,NA,NA,"",       17.9734,      -5.02962,      -17.2553,   4.92334E-03
C:/temp/dataset/9/5_9.odb,Step-1,Increment      4: Step Time =    1.000,"PART-1-1",           138,  -248.196E-03,       2.69947,            0.,NA,NA,"",       18.6034,      -12.6804,      -13.6122,   14.6555E-03
C:/temp/dataset/9/5_9.odb,Step-1,Increment      4: Step Time =    1.000,"PART-1-1",           139,       2.16631,      -2.47375,            0.,NA,NA,"",       13.5633,      -9.55767,      -9.62367,   30.1167E-03
C:/temp/dataset/9/5_9.odb,Step-1,Increment      4: Step Time =    1.000,"PART-1-1",           140,       4.39271,       2.43636,            0.,NA,NA,"",       17.2685,      -14.2293,      -9.78397,   35.2114E-03
C:/temp/dataset/9/5_9.odb,Step-1,Increment      4: Step Time =    1.000,"PART-1-1",           141,       12.9283,      -5.27800,            0.,NA,NA,"",       11.0970,      -11.0772,  -664.092E-03,   81.0137E-03
C:/temp/dataset/9/5_9.odb,Step-1,Increment      4: Step Time =    1.000,"PART-1-1",           142,       13.0847,      -12.6172,            0.,NA,NA,"",       6.02599,      -5.98350,   714.379E-03,   106.706E-03
C:/temp/dataset/9/5_9.odb,Step-1,Increment      4: Step Time =    1.000,"PART-1-1",           143,       12.4838,       17.4790,            0.,NA,NA,"",       30.9892,      -29.4703,      -9.58316,   10.4534E-03
C:/temp/dataset/9/5_9.odb,Step-1,Increment      4: Step Time =    1.000,"PART-1-1",           144,       2.63438,       22.2143,            0.,NA,NA,"",       35.2648,      -29.3246,      -19.5875,   14.0503E-03
C:/temp/dataset/9/5_9.odb,Step-1,Increment      4: Step Time =    1.000,"PART-1-1",           145,       7.54366,       14.9275,            0.,NA,NA,"",       28.2184,      -25.3030,      -12.4915,   12.9516E-03
C:/temp/dataset/9/5_9.odb,Step-1,Increment      4: Step Time =    1.000,"PART-1-1",           146,       7.50510,       17.4443,            0.,NA,NA,"",       30.5645,      -27.3630,      -13.6182,   17.2884E-03
C:/temp/dataset/9/5_9.odb,Step-1,Increment      4: Step Time =    1.000,"PART-1-1",           147,       7.12790,       7.03873,            0.,NA,NA,"",       20.9985,      -18.7446,      -9.46442,   20.8190E-03
C:/temp/dataset/9/5_9.odb,Step-1,Increment      4: Step Time =    1.000,"PART-1-1",           148,       7.48952,       9.64170,            0.,NA,NA,"",       23.3467,      -20.9700,      -10.2630,   17.1977E-03
C:/temp/dataset/9/5_9.odb,Step-1,Increment      4: Step Time =    1.000,"PART-1-1",           149,       2.16717,       2.56251,            0.,NA,NA,"",       17.8128,      -13.5132,      -11.6055,   14.5287E-03
C:/temp/dataset/9/5_9.odb,Step-1,Increment      4: Step Time =    1.000,"PART-1-1",           150,      -2.68606,       3.12146,            0.,NA,NA,"",       19.8374,      -12.0332,      -15.7711,   13.0663E-03
C:/temp/dataset/9/5_9.odb,Step-1,Increment      4: Step Time =    1.000,"PART-1-1",           151,      -7.08307,       10.2840,            0.,NA,NA,"",       27.5223,      -16.0002,      -22.3935,   6.85727E-03
C:/temp/dataset/9/5_9.odb,Step-1,Increment      4: Step Time =    1.000,"PART-1-1",           152,      -2.13928,       22.2031,            0.,NA,NA,"",       36.0675,      -27.4629,      -23.3806,   8.64182E-03
C:/temp/dataset/9/5_9.odb,Step-1,Increment      4: Step Time =    1.000,"PART-1-1",           153,       9.90766,       27.6812,            0.,NA,NA,"",       40.0648,      -36.7376,      -15.9856,   10.8255E-03
C:/temp/dataset/9/5_9.odb,Step-1,Increment      4: Step Time =    1.000,"PART-1-1",           154,       5.18317,       27.8350,            0.,NA,NA,"",       40.1324,      -34.8891,      -19.8332,   10.6291E-03
C:/temp/dataset/9/5_9.odb,Step-1,Increment      4: Step Time =    1.000,"PART-1-1",           155,       2.70091,       27.4744,            0.,NA,NA,"",       39.9672,      -33.5897,      -21.6590,   9.65658E-03
C:/temp/dataset/9/5_9.odb,Step-1,Increment      4: Step Time =    1.000,"PART-1-1",           156,      -2.92570,       26.9909,            0.,NA,NA,"",       40.3909,      -30.9806,      -25.9158,   7.48054E-03
C:/temp/dataset/9/5_9.odb,Step-1,Increment      4: Step Time =    1.000,"PART-1-1",           157,      -5.52449,       27.7330,            0.,NA,NA,"",       41.6282,      -30.5556,      -28.2713,   3.43817E-03
C:/temp/dataset/9/5_9.odb,Step-1,Increment      4: Step Time =    1.000,"PART-1-1",           158,      -10.1759,       28.1970,            0.,NA,NA,"",       43.3664,      -29.0891,      -32.1631,   1.47207E-03
C:/temp/dataset/9/5_9.odb,Step-1,Increment      4: Step Time =    1.000,"PART-1-1",           159,      -7.15795,       15.3782,            0.,NA,NA,"",       31.7278,      -20.0650,      -24.5774,   8.70099E-03
C:/temp/dataset/9/5_9.odb,Step-1,Increment      4: Step Time =    1.000,"PART-1-1",           160,      -7.10855,       7.92361,            0.,NA,NA,"",       25.6393,      -14.0844,      -21.4243,   5.70583E-03
C:/temp/dataset/9/5_9.odb,Step-1,Increment      4: Step Time =    1.000,"PART-1-1",           161,      -7.31416,       5.72319,            0.,NA,NA,"",       24.0062,      -12.2182,      -20.6643,   6.70783E-03
C:/temp/dataset/9/5_9.odb,Step-1,Increment      4: Step Time =    1.000,"PART-1-1",           162,      -10.0288,      -2.82434,            0.,NA,NA,"",       19.7628,      -4.18034,      -19.3156,   2.95967E-03
C:/temp/dataset/9/5_9.odb,Step-1,Increment      4: Step Time =    1.000,"PART-1-1",           163,      -5.14639,      -3.11924,            0.,NA,NA,"",       16.3694,      -5.98963,      -15.2342,   7.35119E-03
C:/temp/dataset/9/5_9.odb,Step-1,Increment      4: Step Time =    1.000,"PART-1-1",           164,  -261.821E-03,      -2.60038,            0.,NA,NA,"",       14.2863,      -8.45233,      -11.5176,   15.0757E-03
C:/temp/dataset/9/5_9.odb,Step-1,Increment      4: Step Time =    1.000,"PART-1-1",           165,       4.38015,      -2.33295,            0.,NA,NA,"",       13.1980,      -10.5771,      -7.89380,   45.7795E-03
C:/temp/dataset/9/5_9.odb,Step-1,Increment      4: Step Time =    1.000,"PART-1-1",           166,       13.0639,      -10.1924,            0.,NA,NA,"",       7.56096,      -7.54992,   408.335E-03,   99.8010E-03
C:/temp/dataset/9/5_9.odb,Step-1,Increment      4: Step Time =    1.000,"PART-1-1",           167,       13.0843,      -19.8267,            0.,NA,NA,"",       2.42760,      -2.24647,   920.123E-03,   125.353E-03
C:/temp/dataset/9/5_9.odb,Step-1,Increment      4: Step Time =    1.000,"PART-1-1",           168,       12.4446,      -27.5067,            0.,NA,NA,"",   279.600E-03,  -168.896E-03,   222.823E-03,   122.524E-03
C:/temp/dataset/9/5_9.odb,Step-1,Increment      4: Step Time =    1.000,"PART-1-1",           169,       12.9329,      -22.1971,            0.,NA,NA,"",       1.56199,      -1.36627,   757.063E-03,   125.005E-03
C:/temp/dataset/9/5_9.odb,Step-1,Increment      4: Step Time =    1.000,"PART-1-1",           170,       13.1086,      -15.0383,            0.,NA,NA,"",       4.65338,      -4.56514,   901.926E-03,   113.828E-03
C:/temp/dataset/9/5_9.odb,Step-1,Increment      4: Step Time =    1.000,"PART-1-1",           171,       13.0208,      -7.75462,            0.,NA,NA,"",       9.25009,      -9.25001,  -39.5129E-03,   91.8428E-03
C:/temp/dataset/9/5_9.odb,Step-1,Increment      4: Step Time =    1.000,"PART-1-1",           172,       12.7756,      -2.70708,            0.,NA,NA,"",       13.1285,      -13.0427,      -1.49801,   66.2077E-03
C:/temp/dataset/9/5_9.odb,Step-1,Increment      4: Step Time =    1.000,"PART-1-1",           173,       12.6338,  -14.4220E-03,            0.,NA,NA,"",       15.3575,      -15.1546,      -2.48865,   49.8509E-03
C:/temp/dataset/9/5_9.odb,Step-1,Increment      4: Step Time =    1.000,"PART-1-1",           174,       13.0186,       5.13380,            0.,NA,NA,"",       19.9088,      -19.4867,      -4.07772,   31.4688E-03
C:/temp/dataset/9/5_9.odb,Step-1,Increment      4: Step Time =    1.000,"PART-1-1",           175,       13.0709,       7.51902,            0.,NA,NA,"",       22.0324,      -21.4669,      -4.95977,   26.8249E-03
C:/temp/dataset/9/5_9.odb,Step-1,Increment      4: Step Time =    1.000,"PART-1-1",           176,       12.5119,       12.3699,            0.,NA,NA,"",       26.3057,      -25.2487,      -7.38208,   17.7065E-03
C:/temp/dataset/9/5_9.odb,Step-1,Increment      4: Step Time =    1.000,"PART-1-1",           177,       12.4863,       14.9454,            0.,NA,NA,"",       28.6613,      -27.3737,      -8.49392,   14.2998E-03
C:/temp/dataset/9/5_9.odb,Step-1,Increment      4: Step Time =    1.000,"PART-1-1",           178,       12.4500,       19.9932,            0.,NA,NA,"",       33.2915,      -31.5276,      -10.6929,   6.53503E-03
C:/temp/dataset/9/5_9.odb,Step-1,Increment      4: Step Time =    1.000,"PART-1-1",           179,       9.19048,      -23.6482,            0.,NA,NA,"",   735.389E-03,  -717.717E-03,  -160.247E-03,   25.9126E-03
C:/temp/dataset/9/5_9.odb,Step-1,Increment      4: Step Time =    1.000,"PART-1-1",           180,       9.11932,      -19.5624,            0.,NA,NA,"",       2.02478,      -1.97495,  -446.455E-03,   27.1218E-03
C:/temp/dataset/9/5_9.odb,Step-1,Increment      4: Step Time =    1.000,"PART-1-1",           181,       9.13323,      -12.9344,            0.,NA,NA,"",       5.24664,      -5.07303,      -1.33850,   25.7613E-03
C:/temp/dataset/9/5_9.odb,Step-1,Increment      4: Step Time =    1.000,"PART-1-1",           182,       9.14303,      -17.4019,            0.,NA,NA,"",       2.92913,      -2.85371,  -660.403E-03,   26.3257E-03
C:/temp/dataset/9/5_9.odb,Step-1,Increment      4: Step Time =    1.000,"PART-1-1",           183,       9.11260,      -10.6744,            0.,NA,NA,"",       6.62946,      -6.37787,      -1.80901,   25.1792E-03
C:/temp/dataset/9/5_9.odb,Step-1,Increment      4: Step Time =    1.000,"PART-1-1",           184,       9.06671,      -8.40676,            0.,NA,NA,"",       8.14501,      -7.78983,      -2.37902,   23.8837E-03
C:/temp/dataset/9/5_9.odb,Step-1,Increment      4: Step Time =    1.000,"PART-1-1",           185,       9.15359,      -15.1846,            0.,NA,NA,"",       4.00730,      -3.89268,  -951.568E-03,   25.8035E-03
C:/temp/dataset/9/5_9.odb,Step-1,Increment      4: Step Time =    1.000,"PART-1-1",           186,       9.09437,      -21.6308,            0.,NA,NA,"",       1.30193,      -1.26828,  -294.089E-03,   27.8774E-03
C:/temp/dataset/9/5_9.odb,Step-1,Increment      4: Step Time =    1.000,"PART-1-1",           187,       8.94944,      -6.10597,            0.,NA,NA,"",       9.81779,      -9.31880,      -3.09014,   31.2639E-03
C:/temp/dataset/9/5_9.odb,Step-1,Increment      4: Step Time =    1.000,"PART-1-1",           188,      -11.3189,       17.6054,            0.,NA,NA,"",       35.1960,      -20.1682,      -28.8444,   1.39322E-03
C:/temp/dataset/9/5_9.odb,Step-1,Increment      4: Step Time =    1.000,"PART-1-1",           189,      -10.4260,       2.85148,            0.,NA,NA,"",       23.6195,      -8.60686,      -21.9955,   4.17969E-03
C:/temp/dataset/9/5_9.odb,Step-1,Increment      4: Step Time =    1.000,"PART-1-1",           190,      -12.4413,       27.8959,            0.,NA,NA,"",       43.8996,      -27.9482,      -33.8537,   1.42129E-03
C:/temp/dataset/9/5_9.odb,Step-1,Increment      4: Step Time =    1.000,"PART-1-1",           191,      -10.6658,       19.6683,            0.,NA,NA,"",       36.5780,      -22.0886,      -29.1555,   1.35932E-03
C:/temp/dataset/9/5_9.odb,Step-1,Increment      4: Step Time =    1.000,"PART-1-1",           192,      -12.1118,       16.4066,            0.,NA,NA,"",       34.5995,      -18.8810,      -28.9937,   1.38160E-03
C:/temp/dataset/9/5_9.odb,Step-1,Increment      4: Step Time =    1.000,"PART-1-1",           193,      -11.5166,       14.9043,            0.,NA,NA,"",       33.1542,      -17.9116,      -27.8994,   2.22011E-03
C:/temp/dataset/9/5_9.odb,Step-1,Increment      4: Step Time =    1.000,"PART-1-1",           194,      -11.2054,       12.7278,            0.,NA,NA,"",       31.3155,      -16.2810,      -26.7505,   3.00202E-03
C:/temp/dataset/9/5_9.odb,Step-1,Increment      4: Step Time =    1.000,"PART-1-1",           195,      -11.1139,       10.5020,            0.,NA,NA,"",       29.5630,      -14.5182,      -25.7526,   3.31062E-03
C:/temp/dataset/9/5_9.odb,Step-1,Increment      4: Step Time =    1.000,"PART-1-1",           196,      -9.42029,       24.1195,            0.,NA,NA,"",       39.7459,      -26.1413,      -29.9395,   2.47934E-03
C:/temp/dataset/9/5_9.odb,Step-1,Increment      4: Step Time =    1.000,"PART-1-1",           197,      -11.0759,       8.46025,            0.,NA,NA,"",       28.0077,      -12.8802,      -24.8703,   3.53874E-03
C:/temp/dataset/9/5_9.odb,Step-1,Increment      4: Step Time =    1.000,"PART-1-1",           198,      -10.9473,       6.84821,            0.,NA,NA,"",       26.7508,      -11.6270,      -24.0918,   3.68696E-03
C:/temp/dataset/9/5_9.odb,Step-1,Increment      4: Step Time =    1.000,"PART-1-1",           199,       9.64075,      -25.5803,            0.,NA,NA,"",   327.534E-03,  -326.713E-03,  -23.1835E-03,   21.3424E-03
C:/temp/dataset/9/5_9.odb,Step-1,Increment      4: Step Time =    1.000,"PART-1-1",           200,       6.22595,      -2.03957,            0.,NA,NA,"",       13.2013,      -11.4724,      -6.53140,   61.1788E-03
C:/temp/dataset/9/5_9.odb,Step-1,Increment      4: Step Time =    1.000,"PART-1-1",           201,       6.24072,       2.15031,            0.,NA,NA,"",       16.7944,      -14.6523,      -8.20745,   44.4148E-03
C:/temp/dataset/9/5_9.odb,Step-1,Increment      4: Step Time =    1.000,"PART-1-1",           202,      -7.69234,       3.89067,            0.,NA,NA,"",       22.8027,      -10.5796,      -20.1999,   8.47643E-03
C:/temp/dataset/9/5_9.odb,Step-1,Increment      4: Step Time =    1.000,"PART-1-1",           203,       7.31807,       22.0589,            0.,NA,NA,"",       34.8445,      -31.0790,      -15.7555,   4.66912E-03
C:/temp/dataset/9/5_9.odb,Step-1,Increment      4: Step Time =    1.000,"PART-1-1",           204,      -6.44398,       20.4265,            0.,NA,NA,"",       35.7061,      -24.3871,      -26.0805,   6.92319E-03
C:/temp/dataset/9/5_9.odb,Step-1,Increment      4: Step Time =    1.000,"PART-1-1",           205,       12.2962,       25.0128,            0.,NA,NA,"",       37.8597,      -35.5756,      -12.9512,   8.07561E-03
C:/temp/dataset/9/5_9.odb,Step-1,Increment      4: Step Time =    1.000,"PART-1-1",           206,       12.2257,      -24.8009,            0.,NA,NA,"",   735.973E-03,  -604.009E-03,   420.511E-03,   107.121E-03
C:/temp/dataset/9/5_9.odb,Step-1,Increment      4: Step Time =    1.000,"PART-1-1",           207,      -2.06005,       24.5200,            0.,NA,NA,"",       38.0620,      -29.3430,      -24.2426,   9.95035E-03
C:/temp/dataset/9/5_9.odb,Step-1,Increment      4: Step Time =    1.000,"PART-1-1",           208,       9.31619,       25.0673,            0.,NA,NA,"",       37.6478,      -34.3603,      -15.3858,   6.03492E-03
C:/temp/dataset/9/5_9.odb,Step-1,Increment      4: Step Time =    1.000,"PART-1-1",           209,       3.21447,       24.8112,            0.,NA,NA,"",       37.5309,      -31.6455,      -20.1776,   9.41244E-03
C:/temp/dataset/9/5_9.odb,Step-1,Increment      4: Step Time =    1.000,"PART-1-1",           210,      -7.52022,      -1.18711,            0.,NA,NA,"",       19.1128,      -6.55662,      -17.9530,   6.06094E-03
C:/temp/dataset/9/5_9.odb,Step-1,Increment      4: Step Time =    1.000,"PART-1-1",           211,       10.0127,       14.9017,            0.,NA,NA,"",       28.3169,      -26.3072,      -10.4775,   15.8920E-03
C:/temp/dataset/9/5_9.odb,Step-1,Increment      4: Step Time =    1.000,"PART-1-1",           212,       10.7293,       3.02357,            0.,NA,NA,"",       17.6475,      -16.9111,      -5.04500,   23.1671E-03
C:/temp/dataset/9/5_9.odb,Step-1,Increment      4: Step Time =    1.000,"PART-1-1",           213,       11.4837,       7.36813,            0.,NA,NA,"",       21.6023,      -20.7080,      -6.15141,   20.0779E-03
C:/temp/dataset/9/5_9.odb,Step-1,Increment      4: Step Time =    1.000,"PART-1-1",           214,      -9.20573,       12.9161,            0.,NA,NA,"",       30.5491,      -17.2513,      -25.2119,   5.15756E-03
C:/temp/dataset/9/5_9.odb,Step-1,Increment      4: Step Time =    1.000,"PART-1-1",           215,   314.418E-03,       24.7704,            0.,NA,NA,"",       37.8536,      -30.4684,      -22.4628,   9.75865E-03
C:/temp/dataset/9/5_9.odb,Step-1,Increment      4: Step Time =    1.000,"PART-1-1",           216,       7.52406,       26.3727,            0.,NA,NA,"",       38.7781,      -34.6718,      -17.3668,   8.22869E-03
C:/temp/dataset/9/5_9.odb,Step-1,Increment      4: Step Time =    1.000,"PART-1-1",           217,  -811.906E-03,   82.6841E-03,            0.,NA,NA,"",       16.6535,      -10.3745,      -13.0272,   10.0827E-03
C:/temp/dataset/9/5_9.odb,Step-1,Increment      4: Step Time =    1.000,"PART-1-1",           218,       11.1400,      -19.6444,            0.,NA,NA,"",       2.12651,      -2.11007,   263.908E-03,   58.5203E-03
C:/temp/dataset/9/5_9.odb,Step-1,Increment      4: Step Time =    1.000,"PART-1-1",           219,       11.1036,      -10.4226,            0.,NA,NA,"",       6.98061,      -6.94622,  -691.994E-03,   46.9441E-03
C:/temp/dataset/9/5_9.odb,Step-1,Increment      4: Step Time =    1.000,"PART-1-1",           220,       10.9280,      -5.64335,            0.,NA,NA,"",       10.3847,      -10.2091,      -1.90133,   50.0436E-03
C:/temp/dataset/9/5_9.odb,Step-1,Increment      4: Step Time =    1.000,"PART-1-1",           221,       11.0667,       5.48495,            0.,NA,NA,"",       19.8606,      -19.0145,      -5.73512,   19.1651E-03
C:/temp/dataset/9/5_9.odb,Step-1,Increment      4: Step Time =    1.000,"PART-1-1",           222,       11.1390,      -12.7671,            0.,NA,NA,"",       5.51984,      -5.51200,  -294.059E-03,   49.6723E-03
C:/temp/dataset/9/5_9.odb,Step-1,Increment      4: Step Time =    1.000,"PART-1-1",           223,       11.1627,      -15.1016,            0.,NA,NA,"",       4.21330,      -4.21330,  -4.87245E-03,   53.2929E-03
C:/temp/dataset/9/5_9.odb,Step-1,Increment      4: Step Time =    1.000,"PART-1-1",           224,      -9.10801,       10.4728,            0.,NA,NA,"",       28.5700,      -15.3194,      -24.1155,   4.91364E-03
C:/temp/dataset/9/5_9.odb,Step-1,Increment      4: Step Time =    1.000,"PART-1-1",           225,      -9.12162,       8.28854,            0.,NA,NA,"",       26.8772,      -13.5475,      -23.2131,   4.71514E-03
C:/temp/dataset/9/5_9.odb,Step-1,Increment      4: Step Time =    1.000,"PART-1-1",           226,      -8.73753,       18.6317,            0.,NA,NA,"",       34.9971,      -22.0352,      -27.1892,   4.34032E-03
C:/temp/dataset/9/5_9.odb,Step-1,Increment      4: Step Time =    1.000,"PART-1-1",           227,      -9.90634,  -397.381E-03,            0.,NA,NA,"",       21.1496,      -6.19682,      -20.2214,   4.11803E-03
C:/temp/dataset/9/5_9.odb,Step-1,Increment      4: Step Time =    1.000,"PART-1-1",           228,       9.93939,       19.9385,            0.,NA,NA,"",       32.9823,      -30.4321,      -12.7170,   10.5758E-03
C:/temp/dataset/9/5_9.odb,Step-1,Increment      4: Step Time =    1.000,"PART-1-1",           229,       5.70370,       25.8085,            0.,NA,NA,"",       38.2811,      -33.4608,      -18.5962,   7.58958E-03
C:/temp/dataset/9/5_9.odb,Step-1,Increment      4: Step Time =    1.000,"PART-1-1",           230,       10.0348,       12.2094,            0.,NA,NA,"",       25.8293,      -24.0946,      -9.30598,   16.4607E-03
C:/temp/dataset/9/5_9.odb,Step-1,Increment      4: Step Time =    1.000,"PART-1-1",           231,       9.98921,       17.4486,            0.,NA,NA,"",       30.6797,      -28.4024,      -11.5995,   15.3321E-03
C:/temp/dataset/9/5_9.odb,Step-1,Increment      4: Step Time =    1.000,"PART-1-1",           232,       10.1044,       9.10575,            0.,NA,NA,"",       22.9955,      -21.5780,      -7.94872,   16.5145E-03
C:/temp/dataset/9/5_9.odb,Step-1,Increment      4: Step Time =    1.000,"PART-1-1",           233,      -3.11139,      -1.10310,            0.,NA,NA,"",       16.7139,      -8.46997,      -14.4089,   9.53292E-03
C:/temp/dataset/9/5_9.odb,Step-1,Increment      4: Step Time =    1.000,"PART-1-1",           234,      -6.48507,       25.5695,            0.,NA,NA,"",       40.0436,      -28.4554,      -28.1742,   4.48117E-03
C:/temp/dataset/9/5_9.odb,Step-1,Increment      4: Step Time =    1.000,"PART-1-1",           235,      -4.76537,       24.8732,            0.,NA,NA,"",       38.9897,      -28.5736,      -26.5282,   7.46084E-03
C:/temp/dataset/9/5_9.odb,Step-1,Increment      4: Step Time =    1.000,"PART-1-1",           236,      -8.46351,       26.0628,            0.,NA,NA,"",       41.0454,      -28.0681,      -29.9484,   1.94823E-03
C:/temp/dataset/9/5_9.odb,Step-1,Increment      4: Step Time =    1.000,"PART-1-1",           237,      -9.50218,       15.8804,            0.,NA,NA,"",       33.0546,      -19.5174,      -26.6772,   4.64260E-03
C:/temp/dataset/9/5_9.odb,Step-1,Increment      4: Step Time =    1.000,"PART-1-1",           238,      -5.29510,      -1.38770,            0.,NA,NA,"",       17.6550,      -7.32743,      -16.0626,   7.84904E-03
C:/temp/dataset/9/5_9.odb,Step-1,Increment      4: Step Time =    1.000,"PART-1-1",           239,       11.0587,      -21.7318,            0.,NA,NA,"",       1.38155,      -1.35562,   266.421E-03,   59.0074E-03
C:/temp/dataset/9/5_9.odb,Step-1,Increment      4: Step Time =    1.000,"PART-1-1",           240,       11.1670,      -17.4071,            0.,NA,NA,"",       3.07623,      -3.07106,   178.318E-03,   56.5330E-03
C:/temp/dataset/9/5_9.odb,Step-1,Increment      4: Step Time =    1.000,"PART-1-1",           241,       11.0513,      -8.06140,            0.,NA,NA,"",       8.59506,      -8.50959,      -1.20914,   47.4839E-03
C:/temp/dataset/9/5_9.odb,Step-1,Increment      4: Step Time =    1.000,"PART-1-1",           242,       10.1357,   7.39639E-03,            0.,NA,NA,"",       14.9624,      -14.3151,      -4.35356,   37.0254E-03
C:/temp/dataset/9/5_9.odb,Step-1,Increment      4: Step Time =    1.000,"PART-1-1",           243,       10.6886,      -3.06387,            0.,NA,NA,"",       12.4266,      -12.0939,      -2.85589,   48.8334E-03
C:/temp/dataset/9/5_9.odb,Step-1,Increment      4: Step Time =    1.000,"PART-1-1",           244,       9.76329,       22.4053,            0.,NA,NA,"",       35.2403,      -32.3778,      -13.9125,   3.28319E-03
C:/temp/dataset/9/5_9.odb,Step-1,Increment      4: Step Time =    1.000,"PART-1-1",           245,       8.68231,      -3.74099,            0.,NA,NA,"",       11.6906,      -10.9685,      -4.04495,   47.2698E-03
C:/temp/dataset/9/5_9.odb,Step-1,Increment      4: Step Time =    1.000,"PART-1-1",           246,      -9.34414,       6.30777,            0.,NA,NA,"",       25.4862,      -11.8516,      -22.5629,   4.95378E-03
C:/temp/dataset/9/5_9.odb,Step-1,Increment      4: Step Time =    1.000,"PART-1-1",           247,      -9.93235,       4.61568,            0.,NA,NA,"",       24.5666,      -10.2385,      -22.3314,   4.57069E-03
C:/temp/dataset/9/5_9.odb,Step-1,Increment      4: Step Time =    1.000,"PART-1-1",           248,      -8.14937,       21.0679,            0.,NA,NA,"",       36.7958,      -24.2177,      -27.7026,   4.42200E-03
C:/temp/dataset/9/5_9.odb,Step-1,Increment      4: Step Time =    1.000,"PART-1-1",           249,       10.7972,      -23.3791,            0.,NA,NA,"",   877.582E-03,  -856.091E-03,   193.023E-03,   51.3526E-03
C:/temp/dataset/9/5_9.odb,Step-1,Increment      4: Step Time =    1.000,"PART-1-1",           250,       4.15357,   65.4176E-03,            0.,NA,NA,"",       15.2760,      -12.3226,      -9.02833,   30.6732E-03
C:/temp/dataset/9/5_9.odb,Step-1,Increment      4: Step Time =    1.000,"PART-1-1",           251,       8.71950,       3.82470,            0.,NA,NA,"",       18.1831,      -16.8151,      -6.91941,   20.2241E-03
C:/temp/dataset/9/5_9.odb,Step-1,Increment      4: Step Time =    1.000,"PART-1-1",           252,       5.00281,       23.5204,            0.,NA,NA,"",       36.2357,      -31.3188,      -18.2253,   7.53679E-03
C:/temp/dataset/9/5_9.odb,Step-1,Increment      4: Step Time =    1.000,"PART-1-1",           253,       7.40149,   60.9774E-03,            0.,NA,NA,"",       14.9200,      -13.4504,      -6.45708,   44.7974E-03
C:/temp/dataset/9/5_9.odb,Step-1,Increment      4: Step Time =    1.000,"PART-1-1",           254,      -5.73116,       22.7675,            0.,NA,NA,"",       37.4590,      -26.5229,      -26.4520,   8.99561E-03
C:/temp/dataset/9/5_9.odb,Step-1,Increment      4: Step Time =    1.000,"PART-1-1",           255,      -5.42683,       1.83799,            0.,NA,NA,"",       20.0816,      -9.86896,      -17.4892,   10.5253E-03
C:/temp/dataset/9/5_9.odb,Step-1,Increment      4: Step Time =    1.000,"PART-1-1",           256,       6.81561,       24.0815,            0.,NA,NA,"",       36.6914,      -32.5163,      -16.9984,   5.28487E-03
C:/temp/dataset/9/5_9.odb,Step-1,Increment      4: Step Time =    1.000,"PART-1-1",           257,      -7.40884,       23.3683,            0.,NA,NA,"",       38.4662,      -26.3415,      -28.0317,   4.85143E-03
C:/temp/dataset/9/5_9.odb,Step-1,Increment      4: Step Time =    1.000,"PART-1-1",           258,      -3.69176,       23.9755,            0.,NA,NA,"",       37.9528,      -28.2752,      -25.3166,   9.14705E-03
C:/temp/dataset/9/5_9.odb,Step-1,Increment      4: Step Time =    1.000,"PART-1-1",           259,      -8.10961,       1.76736,            0.,NA,NA,"",       21.4915,      -8.69418,      -19.6544,   7.08452E-03
C:/temp/dataset/9/5_9.odb,Step-1,Increment      4: Step Time =    1.000,"PART-1-1",           260,       5.94930,   61.4696E-03,            0.,NA,NA,"",       15.0215,      -12.9599,      -7.59509,   43.9571E-03
C:/temp/dataset/9/5_9.odb,Step-1,Increment      4: Step Time =    1.000,"PART-1-1",           261,       1.93878,   62.7924E-03,            0.,NA,NA,"",       15.7578,      -11.4705,      -10.8045,   15.7645E-03
C:/temp/dataset/9/5_9.odb,Step-1,Increment      4: Step Time =    1.000,"PART-1-1",           262,       6.71051,      -4.41826,            0.,NA,NA,"",       11.1658,      -9.87024,      -5.22045,   62.3878E-03
C:/temp/dataset/9/5_9.odb,Step-1,Increment      4: Step Time =    1.000,"PART-1-1",           263,      -12.5366,      -2.82410,            0.,NA,NA,"",       21.5815,      -3.13299,      -21.3529,   1.18639E-03
C:/temp/dataset/9/5_9.odb,Step-1,Increment      4: Step Time =    1.000,"PART-1-1",           264,       6.75090,       4.53602,            0.,NA,NA,"",       18.8134,      -16.6524,      -8.75438,   27.2161E-03
C:/temp/dataset/9/5_9.odb,Step-1,Increment      4: Step Time =    1.000,"PART-1-1",           265,      -5.22339,       3.46233,            0.,NA,NA,"",       21.2266,      -11.2593,      -17.9943,   12.7596E-03
C:/temp/dataset/9/5_9.odb,Step-1,Increment      4: Step Time =    1.000,"PART-1-1",           266,       4.93795,       21.9167,            0.,NA,NA,"",       34.7847,      -29.9905,      -17.6224,   10.4747E-03
C:/temp/dataset/9/5_9.odb,Step-1,Increment      4: Step Time =    1.000,"PART-1-1",           267,       8.13144,      -1.42002,            0.,NA,NA,"",       13.6354,      -12.5576,      -5.31320,   48.3905E-03
C:/temp/dataset/9/5_9.odb,Step-1,Increment      4: Step Time =    1.000,"PART-1-1",           268,      -3.13115,       1.39136,            0.,NA,NA,"",       18.6456,      -10.4651,      -15.4317,   10.8656E-03
C:/temp/dataset/9/5_9.odb,Step-1,Increment      4: Step Time =    1.000,"PART-1-1",           269,       9.17709,       6.32873,            0.,NA,NA,"",       20.4159,      -18.9676,      -7.55229,   13.2162E-03
C:/temp/dataset/9/5_9.odb,Step-1,Increment      4: Step Time =    1.000,"PART-1-1",           270,      -11.0423,       1.34077,            0.,NA,NA,"",       23.0006,      -7.12906,      -21.8679,   3.44468E-03
C:/temp/dataset/9/5_9.odb,Step-1,Increment      4: Step Time =    1.000,"PART-1-1",           271,      -10.1478,       26.6048,            0.,NA,NA,"",       42.0406,      -27.8316,      -31.5089,   1.66247E-03
C:/temp/dataset/9/5_9.odb,Step-1,Increment      4: Step Time =    1.000,"PART-1-1",           272,      -10.1118,       21.9370,            0.,NA,NA,"",       38.2037,      -24.1256,      -29.6222,   2.28715E-03
C:/temp/dataset/9/5_9.odb,Step-1,Increment      4: Step Time =    1.000,"PART-1-1",           273,       8.13886,       1.50501,            0.,NA,NA,"",       16.1547,      -14.8078,      -6.45780,   36.2102E-03
C:/temp/dataset/9/5_9.odb,Step-1,Increment      4: Step Time =    1.000,"PART-1-1",           274,      -7.06249,   219.393E-03,            0.,NA,NA,"",       19.7966,      -7.88331,      -18.1593,   7.52286E-03
C:/temp/dataset/9/5_9.odb,Step-1,Increment      4: Step Time =    1.000,"PART-1-1",           275,      -5.40522,   241.534E-03,            0.,NA,NA,"",       18.8860,      -8.59422,      -16.8173,   8.96083E-03
C:/temp/dataset/9/5_9.odb,Step-1,Increment      4: Step Time =    1.000,"PART-1-1",           276,      -3.80180,   194.541E-03,            0.,NA,NA,"",       18.0321,      -9.22593,      -15.4932,   9.90708E-03
C:/temp/dataset/9/5_9.odb,Step-1,Increment      4: Step Time =    1.000,"PART-1-1",           277,      -2.71285,       28.4954,            0.,NA,NA,"",       41.6545,      -32.2654,      -26.3446,   4.81725E-03
C:/temp/dataset/9/5_9.odb,Step-1,Increment      4: Step Time =    1.000,"PART-1-1",           278,         -3.75,           30.,            0.,NA,NA,"",       43.1649,      -33.0562,      -27.7577,   1.67575E-03
C:/temp/dataset/9/5_9.odb,Step-1,Increment      4: Step Time =    1.000,"PART-1-1",           279,      -5.26224,       28.8665,            0.,NA,NA,"",       42.5328,      -31.5614,      -28.5118,   1.87157E-03
C:/temp/dataset/9/5_9.odb,Step-1,Increment      4: Step Time =    1.000,"PART-1-1",           280,      -4.22509,       27.3619,            0.,NA,NA,"",       40.9968,      -30.7689,      -27.0927,   5.45829E-03
C:/temp/dataset/9/5_9.odb,Step-1,Increment      4: Step Time =    1.000,"PART-1-1",           281,      -3.84553,       25.9321,            0.,NA,NA,"",       39.6762,      -29.7762,      -26.2217,   7.14117E-03
C:/temp/dataset/9/5_9.odb,Step-1,Increment      4: Step Time =    1.000,"PART-1-1",           282,      -6.00478,       26.6512,            0.,NA,NA,"",       40.8303,      -29.5054,      -28.2232,   3.83242E-03
C:/temp/dataset/9/5_9.odb,Step-1,Increment      4: Step Time =    1.000,"PART-1-1",           283,      -5.62522,       25.2214,            0.,NA,NA,"",       39.5118,      -28.5152,      -27.3508,   5.88199E-03
C:/temp/dataset/9/5_9.odb,Step-1,Increment      4: Step Time =    1.000,"PART-1-1",           284,      -10.0879,       29.0985,            0.,NA,NA,"",       44.0864,      -29.8424,      -32.4506,   1.57154E-03
C:/temp/dataset/9/5_9.odb,Step-1,Increment      4: Step Time =    1.000,"PART-1-1",           285,        -11.25,           30.,            0.,NA,NA,"",       45.2133,      -30.1000,      -33.7377,   1.23808E-03
C:/temp/dataset/9/5_9.odb,Step-1,Increment      4: Step Time =    1.000,"PART-1-1",           286,      -12.4706,       28.9480,            0.,NA,NA,"",       44.7679,      -28.7756,      -34.2948,   854.535E-06
C:/temp/dataset/9/5_9.odb,Step-1,Increment      4: Step Time =    1.000,"PART-1-1",           287,      -11.3086,       28.0465,            0.,NA,NA,"",       43.6221,      -28.5189,      -33.0084,   1.39164E-03
C:/temp/dataset/9/5_9.odb,Step-1,Increment      4: Step Time =    1.000,"PART-1-1",           288,      -13.4495,       25.5029,            0.,NA,NA,"",       42.3514,      -25.6372,      -33.7102,   1.58280E-03
C:/temp/dataset/9/5_9.odb,Step-1,Increment      4: Step Time =    1.000,"PART-1-1",           289,          -15.,       24.5313,            0.,NA,NA,"",       42.2169,      -24.2424,      -34.5625,   2.61158E-03
C:/temp/dataset/9/5_9.odb,Step-1,Increment      4: Step Time =    1.000,"PART-1-1",           290,      -13.6920,       23.1529,            0.,NA,NA,"",       40.5835,      -23.6620,      -32.9717,   2.37810E-03
C:/temp/dataset/9/5_9.odb,Step-1,Increment      4: Step Time =    1.000,"PART-1-1",           291,      -12.1415,       24.1246,            0.,NA,NA,"",       40.7374,      -25.0592,      -32.1180,   2.10004E-03
C:/temp/dataset/9/5_9.odb,Step-1,Increment      4: Step Time =    1.000,"PART-1-1",           292,          8.75,          -30.,            0.,NA,NA,"",            0.,   836.144E-42,   1.66640E-39,   48.3834E-03
C:/temp/dataset/9/5_9.odb,Step-1,Increment      4: Step Time =    1.000,"PART-1-1",           293,       9.96407,      -28.8633,            0.,NA,NA,"",   15.9123E-03,   14.7065E-03,   6.07617E-03,   13.0146E-03
C:/temp/dataset/9/5_9.odb,Step-1,Increment      4: Step Time =    1.000,"PART-1-1",           294,       8.68711,      -27.7998,            0.,NA,NA,"",   82.0399E-03,  -37.4068E-03,  -73.0156E-03,   43.4503E-03
C:/temp/dataset/9/5_9.odb,Step-1,Increment      4: Step Time =    1.000,"PART-1-1",           295,       7.47304,      -28.9365,            0.,NA,NA,"",   73.2572E-03,   12.8863E-03,  -72.1149E-03,   84.9380E-03
C:/temp/dataset/9/5_9.odb,Step-1,Increment      4: Step Time =    1.000,"PART-1-1",           296,       10.9279,      -22.5555,            0.,NA,NA,"",       1.11730,      -1.09339,   229.939E-03,   54.9879E-03
C:/temp/dataset/9/5_9.odb,Step-1,Increment      4: Step Time =    1.000,"PART-1-1",           297,       10.0765,      -21.6813,            0.,NA,NA,"",       1.30491,      -1.30487,  -10.1565E-03,   27.0775E-03
C:/temp/dataset/9/5_9.odb,Step-1,Increment      4: Step Time =    1.000,"PART-1-1",           298,       9.14242,      -22.6395,            0.,NA,NA,"",       1.00088,  -976.235E-03,  -220.756E-03,   26.6415E-03
C:/temp/dataset/9/5_9.odb,Step-1,Increment      4: Step Time =    1.000,"PART-1-1",           299,       9.99384,      -23.5137,            0.,NA,NA,"",   780.659E-03,  -780.525E-03,   14.4663E-03,   26.2957E-03
C:/temp/dataset/9/5_9.odb,Step-1,Increment      4: Step Time =    1.000,"PART-1-1",           300,       7.08785,      -18.4988,            0.,NA,NA,"",       2.63640,      -2.25831,      -1.36039,   93.7954E-03
C:/temp/dataset/9/5_9.odb,Step-1,Increment      4: Step Time =    1.000,"PART-1-1",           301,       6.04673,      -17.4684,            0.,NA,NA,"",       3.28990,      -2.60776,      -2.00575,   131.189E-03
C:/temp/dataset/9/5_9.odb,Step-1,Increment      4: Step Time =    1.000,"PART-1-1",           302,            5.,      -18.5417,            0.,NA,NA,"",       3.13197,      -2.18396,      -2.24489,   174.803E-03
C:/temp/dataset/9/5_9.odb,Step-1,Increment      4: Step Time =    1.000,"PART-1-1",           303,       6.04112,      -19.5721,            0.,NA,NA,"",       2.43617,      -1.84345,      -1.59267,   136.909E-03
C:/temp/dataset/9/5_9.odb,Step-1,Increment      4: Step Time =    1.000,"PART-1-1",           304,       7.10245,      -14.2066,            0.,NA,NA,"",       4.66851,      -4.13278,      -2.17144,   86.1415E-03
C:/temp/dataset/9/5_9.odb,Step-1,Increment      4: Step Time =    1.000,"PART-1-1",           305,       6.04975,      -13.2285,            0.,NA,NA,"",       5.39705,      -4.49555,      -2.98633,   119.463E-03
C:/temp/dataset/9/5_9.odb,Step-1,Increment      4: Step Time =    1.000,"PART-1-1",           306,            5.,       -14.375,            0.,NA,NA,"",       5.05950,      -3.84883,      -3.28405,   159.199E-03
C:/temp/dataset/9/5_9.odb,Step-1,Increment      4: Step Time =    1.000,"PART-1-1",           307,       6.05270,      -15.3531,            0.,NA,NA,"",       4.27753,      -3.49451,      -2.46691,   125.309E-03
C:/temp/dataset/9/5_9.odb,Step-1,Increment      4: Step Time =    1.000,"PART-1-1",           308,            5.,      -6.04167,            0.,NA,NA,"",       10.1702,      -8.27797,      -5.90831,   156.468E-03
C:/temp/dataset/9/5_9.odb,Step-1,Increment      4: Step Time =    1.000,"PART-1-1",           309,       5.97724,      -6.85181,            0.,NA,NA,"",       9.41539,      -8.03121,      -4.91420,   105.963E-03
C:/temp/dataset/9/5_9.odb,Step-1,Increment      4: Step Time =    1.000,"PART-1-1",           310,       6.83249,      -5.51927,            0.,NA,NA,"",       10.2821,      -9.12572,      -4.73730,   53.2510E-03
C:/temp/dataset/9/5_9.odb,Step-1,Increment      4: Step Time =    1.000,"PART-1-1",           311,       5.85525,      -4.70913,            0.,NA,NA,"",       10.9947,      -9.38352,      -5.73008,   91.5539E-03
C:/temp/dataset/9/5_9.odb,Step-1,Increment      4: Step Time =    1.000,"PART-1-1",           312,       4.27314,       1.25089,            0.,NA,NA,"",       16.2695,      -13.2752,      -9.40557,   31.2278E-03
C:/temp/dataset/9/5_9.odb,Step-1,Increment      4: Step Time =    1.000,"PART-1-1",           313,       3.27994,       2.49943,            0.,NA,NA,"",       17.5203,      -13.8774,      -10.6947,   22.1501E-03
C:/temp/dataset/9/5_9.odb,Step-1,Increment      4: Step Time =    1.000,"PART-1-1",           314,       2.05297,       1.31265,            0.,NA,NA,"",       16.7824,      -12.4933,      -11.2057,   13.4420E-03
C:/temp/dataset/9/5_9.odb,Step-1,Increment      4: Step Time =    1.000,"PART-1-1",           315,       3.04617,   64.1050E-03,            0.,NA,NA,"",       15.4906,      -11.9017,      -9.91517,   22.0626E-03
C:/temp/dataset/9/5_9.odb,Step-1,Increment      4: Step Time =    1.000,"PART-1-1",           316,       6.28410,       12.4112,            0.,NA,NA,"",       25.8963,      -22.7189,      -12.4285,   12.1978E-03
C:/temp/dataset/9/5_9.odb,Step-1,Increment      4: Step Time =    1.000,"PART-1-1",           317,            5.,         11.25,            0.,NA,NA,"",       24.8981,      -21.2476,      -12.9792,   19.7470E-03
C:/temp/dataset/9/5_9.odb,Step-1,Increment      4: Step Time =    1.000,"PART-1-1",           318,       6.24476,       9.82085,            0.,NA,NA,"",       23.5300,      -20.6133,      -11.3469,   18.8761E-03
C:/temp/dataset/9/5_9.odb,Step-1,Increment      4: Step Time =    1.000,"PART-1-1",           319,       7.52885,       10.9821,            0.,NA,NA,"",       24.5717,      -22.0699,      -10.8021,   15.1105E-03
C:/temp/dataset/9/5_9.odb,Step-1,Increment      4: Step Time =    1.000,"PART-1-1",           320,       6.23557,       19.9374,            0.,NA,NA,"",       32.9116,      -28.9019,      -15.7434,   19.4282E-03
C:/temp/dataset/9/5_9.odb,Step-1,Increment      4: Step Time =    1.000,"PART-1-1",           321,            5.,         18.75,            0.,NA,NA,"",       31.8365,      -27.3867,      -16.2338,   17.7898E-03
C:/temp/dataset/9/5_9.odb,Step-1,Increment      4: Step Time =    1.000,"PART-1-1",           322,       6.25255,       17.4722,            0.,NA,NA,"",       30.5984,      -26.8616,      -14.6532,   8.68115E-03
C:/temp/dataset/9/5_9.odb,Step-1,Increment      4: Step Time =    1.000,"PART-1-1",           323,       7.48812,       18.6595,            0.,NA,NA,"",       31.7039,      -28.3645,      -14.1631,   15.1127E-03
C:/temp/dataset/9/5_9.odb,Step-1,Increment      4: Step Time =    1.000,"PART-1-1",           324,       12.4612,       28.7577,            0.,NA,NA,"",       41.2814,      -38.6993,      -14.3708,   10.1707E-03
C:/temp/dataset/9/5_9.odb,Step-1,Increment      4: Step Time =    1.000,"PART-1-1",           325,         11.25,           30.,            0.,NA,NA,"",       42.2871,      -39.1994,      -15.8622,   12.4641E-03
C:/temp/dataset/9/5_9.odb,Step-1,Increment      4: Step Time =    1.000,"PART-1-1",           326,       9.95383,       28.8406,            0.,NA,NA,"",       41.1245,      -37.7019,      -16.4254,   12.3550E-03
C:/temp/dataset/9/5_9.odb,Step-1,Increment      4: Step Time =    1.000,"PART-1-1",           327,       11.1650,       27.5983,            0.,NA,NA,"",       40.0898,      -37.2030,      -14.9375,   10.4421E-03
C:/temp/dataset/9/5_9.odb,Step-1,Increment      4: Step Time =    1.000,"PART-1-1",           328,       9.61193,       26.3742,            0.,NA,NA,"",       38.8557,      -35.5486,      -15.6862,   8.46117E-03
C:/temp/dataset/9/5_9.odb,Step-1,Increment      4: Step Time =    1.000,"PART-1-1",           329,       10.8062,       25.0400,            0.,NA,NA,"",       37.7280,      -34.9662,      -14.1692,   6.83476E-03
C:/temp/dataset/9/5_9.odb,Step-1,Increment      4: Step Time =    1.000,"PART-1-1",           330,       12.3592,       26.2641,            0.,NA,NA,"",       39.0046,      -36.6230,      -13.4205,   9.00770E-03
C:/temp/dataset/9/5_9.odb,Step-1,Increment      4: Step Time =    1.000,"PART-1-1",           331,       7.54419,       28.9985,            0.,NA,NA,"",       41.1657,      -36.8137,      -18.4219,   14.0006E-03
C:/temp/dataset/9/5_9.odb,Step-1,Increment      4: Step Time =    1.000,"PART-1-1",           332,          6.25,           30.,            0.,NA,NA,"",       42.0687,      -37.0863,      -19.8590,   16.9493E-03
C:/temp/dataset/9/5_9.odb,Step-1,Increment      4: Step Time =    1.000,"PART-1-1",           333,       5.09159,       28.9175,            0.,NA,NA,"",       41.1132,      -35.7278,      -20.3425,   13.6894E-03
C:/temp/dataset/9/5_9.odb,Step-1,Increment      4: Step Time =    1.000,"PART-1-1",           334,       6.38578,       27.9160,            0.,NA,NA,"",       40.1780,      -35.4512,      -18.9071,   10.8916E-03
C:/temp/dataset/9/5_9.odb,Step-1,Increment      4: Step Time =    1.000,"PART-1-1",           335,       2.95769,       26.1428,            0.,NA,NA,"",       38.7503,      -32.6184,      -20.9196,   9.01137E-03
C:/temp/dataset/9/5_9.odb,Step-1,Increment      4: Step Time =    1.000,"PART-1-1",           336,       4.45909,       25.3098,            0.,NA,NA,"",       37.8861,      -32.5494,      -19.3880,   7.64776E-03
C:/temp/dataset/9/5_9.odb,Step-1,Increment      4: Step Time =    1.000,"PART-1-1",           337,       5.44343,       26.8217,            0.,NA,NA,"",       39.2071,      -34.1753,      -19.2156,   9.06953E-03
C:/temp/dataset/9/5_9.odb,Step-1,Increment      4: Step Time =    1.000,"PART-1-1",           338,       3.94204,       27.6547,            0.,NA,NA,"",       40.0322,      -34.2365,      -20.7472,   9.93281E-03
C:/temp/dataset/9/5_9.odb,Step-1,Increment      4: Step Time =    1.000,"PART-1-1",           339,       6.06395,       7.26936,            0.,NA,NA,"",       21.2423,      -18.5179,      -10.4078,   26.7457E-03
C:/temp/dataset/9/5_9.odb,Step-1,Increment      4: Step Time =    1.000,"PART-1-1",           340,       7.30871,       8.34021,            0.,NA,NA,"",       22.1657,      -19.8520,      -9.85987,   19.1468E-03
C:/temp/dataset/9/5_9.odb,Step-1,Increment      4: Step Time =    1.000,"PART-1-1",           341,            5.,          8.75,            0.,NA,NA,"",       22.6424,      -19.2598,      -11.9053,   31.0966E-03
C:/temp/dataset/9/5_9.odb,Step-1,Increment      4: Step Time =    1.000,"PART-1-1",           342,      -13.9291,       1.47830,            0.,NA,NA,"",       25.0126,      -6.03990,      -24.2724,   1.90932E-03
C:/temp/dataset/9/5_9.odb,Step-1,Increment      4: Step Time =    1.000,"PART-1-1",           343,          -15.,    468.75E-03,            0.,NA,NA,"",       25.1794,      -4.77745,      -24.7220,   1.36550E-03
C:/temp/dataset/9/5_9.odb,Step-1,Increment      4: Step Time =    1.000,"PART-1-1",           344,      -13.8152,  -655.377E-03,            0.,NA,NA,"",       23.6969,      -4.35876,      -23.2925,   1.32545E-03
C:/temp/dataset/9/5_9.odb,Step-1,Increment      4: Step Time =    1.000,"PART-1-1",           345,      -12.7443,   354.171E-03,            0.,NA,NA,"",       23.5237,      -5.62213,      -22.8420,   2.01774E-03
C:/temp/dataset/9/5_9.odb,Step-1,Increment      4: Step Time =    1.000,"PART-1-1",           346,      -13.9678,       8.16706,            0.,NA,NA,"",       29.4116,      -11.4468,      -27.0927,   1.13206E-03
C:/temp/dataset/9/5_9.odb,Step-1,Increment      4: Step Time =    1.000,"PART-1-1",           347,          -15.,       7.03125,            0.,NA,NA,"",       29.2548,      -10.0962,      -27.4574,   517.676E-06
C:/temp/dataset/9/5_9.odb,Step-1,Increment      4: Step Time =    1.000,"PART-1-1",           348,      -13.6804,       5.85321,            0.,NA,NA,"",       27.6479,      -9.68868,      -25.8947,   1.89909E-03
C:/temp/dataset/9/5_9.odb,Step-1,Increment      4: Step Time =    1.000,"PART-1-1",           349,      -12.6482,       6.98902,            0.,NA,NA,"",       27.8148,      -11.0377,      -25.5310,   2.44234E-03
C:/temp/dataset/9/5_9.odb,Step-1,Increment      4: Step Time =    1.000,"PART-1-1",           350,      -5.93089,       17.7206,            0.,NA,NA,"",       33.2626,      -22.4348,      -24.5577,   11.9307E-03
C:/temp/dataset/9/5_9.odb,Step-1,Increment      4: Step Time =    1.000,"PART-1-1",           351,      -7.00986,       16.6597,            0.,NA,NA,"",       32.7391,      -21.1520,      -24.9888,   9.27603E-03
C:/temp/dataset/9/5_9.odb,Step-1,Increment      4: Step Time =    1.000,"PART-1-1",           352,      -6.07897,       15.1891,            0.,NA,NA,"",       31.1824,      -20.3520,      -23.6250,   10.0911E-03
C:/temp/dataset/9/5_9.odb,Step-1,Increment      4: Step Time =    1.000,"PART-1-1",           353,           -5.,         16.25,            0.,NA,NA,"",       31.7180,      -21.6383,      -23.1909,   12.7123E-03
C:/temp/dataset/9/5_9.odb,Step-1,Increment      4: Step Time =    1.000,"PART-1-1",           354,      -7.79966,       18.2865,            0.,NA,NA,"",       34.3720,      -22.1359,      -26.2951,   7.24612E-03
C:/temp/dataset/9/5_9.odb,Step-1,Increment      4: Step Time =    1.000,"PART-1-1",           355,      -6.65288,       19.1839,            0.,NA,NA,"",       34.7311,      -23.3137,      -25.7433,   8.26310E-03
C:/temp/dataset/9/5_9.odb,Step-1,Increment      4: Step Time =    1.000,"PART-1-1",           356,      -7.29668,       20.7472,            0.,NA,NA,"",       36.2458,      -24.3028,      -26.8911,   5.56392E-03
C:/temp/dataset/9/5_9.odb,Step-1,Increment      4: Step Time =    1.000,"PART-1-1",           357,      -8.44345,       19.8498,            0.,NA,NA,"",       35.8924,      -23.1281,      -27.4472,   3.94300E-03
C:/temp/dataset/9/5_9.odb,Step-1,Increment      4: Step Time =    1.000,"PART-1-1",           358,      -2.59303,       4.06073,            0.,NA,NA,"",       20.5674,      -12.8230,      -16.0807,   16.2629E-03
C:/temp/dataset/9/5_9.odb,Step-1,Increment      4: Step Time =    1.000,"PART-1-1",           359,      -1.46713,       2.91047,            0.,NA,NA,"",       19.1971,      -12.3596,      -14.6890,   14.0216E-03
C:/temp/dataset/9/5_9.odb,Step-1,Increment      4: Step Time =    1.000,"PART-1-1",           360,  -124.098E-03,       3.84974,            0.,NA,NA,"",       19.5251,      -13.6394,      -13.9712,   20.9037E-03
C:/temp/dataset/9/5_9.odb,Step-1,Increment      4: Step Time =    1.000,"PART-1-1",           361,         -1.25,            5.,            0.,NA,NA,"",       20.8597,      -14.1092,      -15.3642,   24.6436E-03
C:/temp/dataset/9/5_9.odb,Step-1,Increment      4: Step Time =    1.000,"PART-1-1",           362,      -11.2683,  -541.568E-03,            0.,NA,NA,"",       21.9723,      -5.51174,      -21.2698,   2.97930E-03
C:/temp/dataset/9/5_9.odb,Step-1,Increment      4: Step Time =    1.000,"PART-1-1",           363,      -10.4743,   471.696E-03,            0.,NA,NA,"",       22.0738,      -6.66269,      -21.0442,   3.62674E-03
C:/temp/dataset/9/5_9.odb,Step-1,Increment      4: Step Time =    1.000,"PART-1-1",           364,      -11.9503,       1.36743,            0.,NA,NA,"",       23.6100,      -6.77284,      -22.6178,   2.76870E-03
C:/temp/dataset/9/5_9.odb,Step-1,Increment      4: Step Time =    1.000,"PART-1-1",           365,      -13.0095,       9.29789,            0.,NA,NA,"",       29.6709,      -12.7609,      -26.7865,   1.96659E-03
C:/temp/dataset/9/5_9.odb,Step-1,Increment      4: Step Time =    1.000,"PART-1-1",           366,      -14.0417,       10.3496,            0.,NA,NA,"",       31.0037,      -13.1873,      -28.0593,   1.20654E-03
C:/temp/dataset/9/5_9.odb,Step-1,Increment      4: Step Time =    1.000,"PART-1-1",           367,          -15.,       9.21875,            0.,NA,NA,"",       30.7511,      -11.8720,      -28.3670,   948.896E-06
C:/temp/dataset/9/5_9.odb,Step-1,Increment      4: Step Time =    1.000,"PART-1-1",           368,      -6.40766,      -1.28741,            0.,NA,NA,"",       18.3694,      -6.94195,      -17.0071,   6.88733E-03
C:/temp/dataset/9/5_9.odb,Step-1,Increment      4: Step Time =    1.000,"PART-1-1",           369,      -5.35016,  -573.084E-03,            0.,NA,NA,"",       18.2660,      -7.96123,      -16.4397,   8.22827E-03
C:/temp/dataset/9/5_9.odb,Step-1,Increment      4: Step Time =    1.000,"PART-1-1",           370,      -6.23385,   230.463E-03,            0.,NA,NA,"",       19.3316,      -8.23882,      -17.4881,   8.20195E-03
C:/temp/dataset/9/5_9.odb,Step-1,Increment      4: Step Time =    1.000,"PART-1-1",           371,      -7.29135,  -483.859E-03,            0.,NA,NA,"",       19.4464,      -7.22038,      -18.0563,   6.65694E-03
C:/temp/dataset/9/5_9.odb,Step-1,Increment      4: Step Time =    1.000,"PART-1-1",           372,   952.242E-03,      -2.53706,            0.,NA,NA,"",       13.8881,      -9.00772,      -10.5707,   16.5203E-03
C:/temp/dataset/9/5_9.odb,Step-1,Increment      4: Step Time =    1.000,"PART-1-1",           373,  -130.910E-03,      -3.80019,            0.,NA,NA,"",       13.2751,      -7.53477,      -10.9296,   13.2600E-03
C:/temp/dataset/9/5_9.odb,Step-1,Increment      4: Step Time =    1.000,"PART-1-1",           374,          1.25,           -5.,            0.,NA,NA,"",       11.7536,      -7.13540,      -9.33990,   18.4726E-03
C:/temp/dataset/9/5_9.odb,Step-1,Increment      4: Step Time =    1.000,"PART-1-1",           375,       2.33315,      -3.73687,            0.,NA,NA,"",       12.4614,      -8.63027,      -8.98910,   21.5358E-03
C:/temp/dataset/9/5_9.odb,Step-1,Increment      4: Step Time =    1.000,"PART-1-1",           376,       4.26686,      -1.13377,            0.,NA,NA,"",       14.2325,      -11.4453,      -8.45975,   35.2681E-03
C:/temp/dataset/9/5_9.odb,Step-1,Increment      4: Step Time =    1.000,"PART-1-1",           377,       2.05254,      -1.20548,            0.,NA,NA,"",       14.6635,      -10.5192,      -10.2159,   17.7318E-03
C:/temp/dataset/9/5_9.odb,Step-1,Increment      4: Step Time =    1.000,"PART-1-1",           378,       3.27323,      -2.40335,            0.,NA,NA,"",       13.3599,      -10.0887,      -8.75824,   26.6219E-03
C:/temp/dataset/9/5_9.odb,Step-1,Increment      4: Step Time =    1.000,"PART-1-1",           379,       10.4325,       1.51548,            0.,NA,NA,"",       16.2979,      -15.6061,      -4.69790,   29.5359E-03
C:/temp/dataset/9/5_9.odb,Step-1,Increment      4: Step Time =    1.000,"PART-1-1",           380,       11.3847,  -3.51279E-03,            0.,NA,NA,"",       15.1201,      -14.7287,      -3.41791,   39.0117E-03
C:/temp/dataset/9/5_9.odb,Step-1,Increment      4: Step Time =    1.000,"PART-1-1",           381,       12.7244,       1.31309,            0.,NA,NA,"",       16.5161,      -16.2614,      -2.88948,   43.6403E-03
C:/temp/dataset/9/5_9.odb,Step-1,Increment      4: Step Time =    1.000,"PART-1-1",           382,       11.7722,       2.83209,            0.,NA,NA,"",       17.6402,      -17.1400,      -4.17126,   28.7636E-03
C:/temp/dataset/9/5_9.odb,Step-1,Increment      4: Step Time =    1.000,"PART-1-1",           383,       9.00808,      -7.25637,            0.,NA,NA,"",       8.96507,      -8.54132,      -2.72367,   26.5146E-03
C:/temp/dataset/9/5_9.odb,Step-1,Increment      4: Step Time =    1.000,"PART-1-1",           384,       7.95196,      -6.36313,            0.,NA,NA,"",       9.60706,      -8.86966,      -3.69117,   40.3619E-03
C:/temp/dataset/9/5_9.odb,Step-1,Increment      4: Step Time =    1.000,"PART-1-1",           385,       7.00211,      -7.70397,            0.,NA,NA,"",       8.69569,      -7.75586,      -3.93213,   73.0238E-03
C:/temp/dataset/9/5_9.odb,Step-1,Increment      4: Step Time =    1.000,"PART-1-1",           386,       8.05823,      -8.59720,            0.,NA,NA,"",       8.01179,      -7.43838,      -2.97646,   47.2687E-03
C:/temp/dataset/9/5_9.odb,Step-1,Increment      4: Step Time =    1.000,"PART-1-1",           387,       7.09104,      -12.0381,            0.,NA,NA,"",       5.89541,      -5.25045,      -2.68116,   82.6034E-03
C:/temp/dataset/9/5_9.odb,Step-1,Increment      4: Step Time =    1.000,"PART-1-1",           388,       6.04129,      -11.1013,            0.,NA,NA,"",       6.63700,      -5.59844,      -3.56473,   113.927E-03
C:/temp/dataset/9/5_9.odb,Step-1,Increment      4: Step Time =    1.000,"PART-1-1",           389,            5.,      -12.2917,            0.,NA,NA,"",       6.19476,      -4.83742,      -3.86969,   151.346E-03
C:/temp/dataset/9/5_9.odb,Step-1,Increment      4: Step Time =    1.000,"PART-1-1",           390,       9.13117,      -18.4822,            0.,NA,NA,"",       2.45840,      -2.39700,  -546.015E-03,   26.6867E-03
C:/temp/dataset/9/5_9.odb,Step-1,Increment      4: Step Time =    1.000,"PART-1-1",           391,       10.1297,      -19.6034,            0.,NA,NA,"",       2.03740,      -2.03554,  -87.1685E-03,   27.2316E-03
C:/temp/dataset/9/5_9.odb,Step-1,Increment      4: Step Time =    1.000,"PART-1-1",           392,       11.1535,      -18.5257,            0.,NA,NA,"",       2.58131,      -2.57102,   230.163E-03,   57.3548E-03
C:/temp/dataset/9/5_9.odb,Step-1,Increment      4: Step Time =    1.000,"PART-1-1",           393,       10.1550,      -17.4045,            0.,NA,NA,"",       2.96510,      -2.95556,  -237.708E-03,   26.6074E-03
C:/temp/dataset/9/5_9.odb,Step-1,Increment      4: Step Time =    1.000,"PART-1-1",           394,       6.27183,       14.9637,            0.,NA,NA,"",       28.2561,      -24.7977,      -13.5455,   7.29210E-03
C:/temp/dataset/9/5_9.odb,Step-1,Increment      4: Step Time =    1.000,"PART-1-1",           395,       7.52438,       16.1859,            0.,NA,NA,"",       29.3908,      -26.3323,      -13.0548,   14.0882E-03
C:/temp/dataset/9/5_9.odb,Step-1,Increment      4: Step Time =    1.000,"PART-1-1",           396,            5.,         16.25,            0.,NA,NA,"",       29.4977,      -25.3100,      -15.1499,   1.58747E-03
C:/temp/dataset/9/5_9.odb,Step-1,Increment      4: Step Time =    1.000,"PART-1-1",           397,       2.56719,       21.1071,            0.,NA,NA,"",       34.2861,      -28.4100,      -19.1940,   11.7194E-03
C:/temp/dataset/9/5_9.odb,Step-1,Increment      4: Step Time =    1.000,"PART-1-1",           398,       1.41709,       22.2600,            0.,NA,NA,"",       35.4661,      -28.8862,      -20.5773,   10.4055E-03
C:/temp/dataset/9/5_9.odb,Step-1,Increment      4: Step Time =    1.000,"PART-1-1",           399,   99.9026E-03,       21.1528,            0.,NA,NA,"",       34.7095,      -27.4943,      -21.1852,   7.01931E-03
C:/temp/dataset/9/5_9.odb,Step-1,Increment      4: Step Time =    1.000,"PART-1-1",           400,          1.25,           20.,            0.,NA,NA,"",       33.5088,      -27.0264,      -19.8095,   11.1722E-03
C:/temp/dataset/9/5_9.odb,Step-1,Increment      4: Step Time =    1.000,"PART-1-1",           401,       7.55593,       13.6250,            0.,NA,NA,"",       27.0089,      -24.2376,      -11.9173,   12.9754E-03
C:/temp/dataset/9/5_9.odb,Step-1,Increment      4: Step Time =    1.000,"PART-1-1",           402,            5.,         13.75,            0.,NA,NA,"",       27.1866,      -23.2666,      -14.0633,   10.8955E-03
C:/temp/dataset/9/5_9.odb,Step-1,Increment      4: Step Time =    1.000,"PART-1-1",           403,       8.77818,       14.9146,            0.,NA,NA,"",       28.2453,      -25.8056,      -11.4833,   14.4954E-03
C:/temp/dataset/9/5_9.odb,Step-1,Increment      4: Step Time =    1.000,"PART-1-1",           404,       10.0010,       16.1752,            0.,NA,NA,"",       29.4975,      -27.3547,      -11.0375,   15.7129E-03
C:/temp/dataset/9/5_9.odb,Step-1,Increment      4: Step Time =    1.000,"PART-1-1",           405,       8.74716,       17.4465,            0.,NA,NA,"",       30.6022,      -27.8842,      -12.6081,   15.5214E-03
C:/temp/dataset/9/5_9.odb,Step-1,Increment      4: Step Time =    1.000,"PART-1-1",           406,       10.1219,       5.90684,            0.,NA,NA,"",       20.1197,      -18.9920,      -6.64133,   14.8811E-03
C:/temp/dataset/9/5_9.odb,Step-1,Increment      4: Step Time =    1.000,"PART-1-1",           407,       8.94830,       5.07672,            0.,NA,NA,"",       19.2925,      -17.8847,      -7.23449,   14.9357E-03
C:/temp/dataset/9/5_9.odb,Step-1,Increment      4: Step Time =    1.000,"PART-1-1",           408,       9.72441,       3.42413,            0.,NA,NA,"",       17.8923,      -16.8641,      -5.97807,   19.0684E-03
C:/temp/dataset/9/5_9.odb,Step-1,Increment      4: Step Time =    1.000,"PART-1-1",           409,       10.8980,       4.25426,            0.,NA,NA,"",       18.7499,      -17.9590,      -5.38820,   20.7687E-03
C:/temp/dataset/9/5_9.odb,Step-1,Increment      4: Step Time =    1.000,"PART-1-1",           410,       8.15250,       6.68373,            0.,NA,NA,"",       20.6869,      -18.8576,      -8.50513,   14.5634E-03
C:/temp/dataset/9/5_9.odb,Step-1,Increment      4: Step Time =    1.000,"PART-1-1",           411,       9.64075,       7.71724,            0.,NA,NA,"",       21.6961,      -20.2657,      -7.74748,   15.0449E-03
C:/temp/dataset/9/5_9.odb,Step-1,Increment      4: Step Time =    1.000,"PART-1-1",           412,       8.79696,       9.37373,            0.,NA,NA,"",       23.1399,      -21.2745,      -9.10220,   14.9051E-03
C:/temp/dataset/9/5_9.odb,Step-1,Increment      4: Step Time =    1.000,"PART-1-1",           413,   959.485E-03,       2.63099,            0.,NA,NA,"",       18.1820,      -13.1027,      -12.6057,   14.8534E-03
C:/temp/dataset/9/5_9.odb,Step-1,Increment      4: Step Time =    1.000,"PART-1-1",           414,       2.33358,       3.78125,            0.,NA,NA,"",       18.8103,      -14.5257,      -11.9513,   23.8599E-03
C:/temp/dataset/9/5_9.odb,Step-1,Increment      4: Step Time =    1.000,"PART-1-1",           415,          1.25,            5.,            0.,NA,NA,"",       20.1083,      -15.0725,      -13.3103,   31.0555E-03
C:/temp/dataset/9/5_9.odb,Step-1,Increment      4: Step Time =    1.000,"PART-1-1",           416,      -9.23288,       7.29816,            0.,NA,NA,"",       26.1754,      -12.6997,      -22.8882,   4.82329E-03
C:/temp/dataset/9/5_9.odb,Step-1,Increment      4: Step Time =    1.000,"PART-1-1",           417,      -8.32915,       6.01548,            0.,NA,NA,"",       24.7389,      -12.0347,      -21.6143,   5.69758E-03
C:/temp/dataset/9/5_9.odb,Step-1,Increment      4: Step Time =    1.000,"PART-1-1",           418,      -7.21136,       6.82340,            0.,NA,NA,"",       24.8158,      -13.1513,      -21.0444,   5.60440E-03
C:/temp/dataset/9/5_9.odb,Step-1,Increment      4: Step Time =    1.000,"PART-1-1",           419,      -8.11509,       8.10607,            0.,NA,NA,"",       26.2492,      -13.8155,      -22.3193,   5.29010E-03
C:/temp/dataset/9/5_9.odb,Step-1,Increment      4: Step Time =    1.000,"PART-1-1",           420,      -13.1318,       11.4675,            0.,NA,NA,"",       31.3278,      -14.4696,      -27.7860,   1.71270E-03
C:/temp/dataset/9/5_9.odb,Step-1,Increment      4: Step Time =    1.000,"PART-1-1",           421,      -14.0901,       12.5242,            0.,NA,NA,"",       32.6154,      -14.9313,      -28.9969,   2.07705E-03
C:/temp/dataset/9/5_9.odb,Step-1,Increment      4: Step Time =    1.000,"PART-1-1",           422,          -15.,       11.4063,            0.,NA,NA,"",       32.2973,      -13.6481,      -29.2719,   2.41928E-03
C:/temp/dataset/9/5_9.odb,Step-1,Increment      4: Step Time =    1.000,"PART-1-1",           423,      -9.35396,       14.3983,            0.,NA,NA,"",       31.7994,      -18.3849,      -25.9460,   4.92446E-03
C:/temp/dataset/9/5_9.odb,Step-1,Increment      4: Step Time =    1.000,"PART-1-1",           424,      -10.5094,       15.3924,            0.,NA,NA,"",       33.0894,      -18.7153,      -27.2882,   3.29357E-03
C:/temp/dataset/9/5_9.odb,Step-1,Increment      4: Step Time =    1.000,"PART-1-1",           425,      -11.3610,       13.8160,            0.,NA,NA,"",       32.2335,      -17.0966,      -27.3259,   2.59636E-03
C:/temp/dataset/9/5_9.odb,Step-1,Increment      4: Step Time =    1.000,"PART-1-1",           426,      -10.2056,       12.8219,            0.,NA,NA,"",       30.9216,      -16.7664,      -25.9814,   3.97122E-03
C:/temp/dataset/9/5_9.odb,Step-1,Increment      4: Step Time =    1.000,"PART-1-1",           427,      -14.0810,       18.8007,            0.,NA,NA,"",       37.3567,      -20.0109,      -31.5450,   3.85093E-03
C:/temp/dataset/9/5_9.odb,Step-1,Increment      4: Step Time =    1.000,"PART-1-1",           428,          -15.,       17.9688,            0.,NA,NA,"",       37.1531,      -18.9665,      -31.9472,   5.39901E-03
C:/temp/dataset/9/5_9.odb,Step-1,Increment      4: Step Time =    1.000,"PART-1-1",           429,      -14.2329,       16.7349,            0.,NA,NA,"",       35.8455,      -18.2820,      -30.8329,   3.86808E-03
C:/temp/dataset/9/5_9.odb,Step-1,Increment      4: Step Time =    1.000,"PART-1-1",           430,      -13.3139,       17.5668,            0.,NA,NA,"",       36.0505,      -19.3277,      -30.4316,   2.38439E-03
C:/temp/dataset/9/5_9.odb,Step-1,Increment      4: Step Time =    1.000,"PART-1-1",           431,      -12.9537,       19.5700,            0.,NA,NA,"",       37.4507,      -21.0860,      -30.9505,   2.02016E-03
C:/temp/dataset/9/5_9.odb,Step-1,Increment      4: Step Time =    1.000,"PART-1-1",           432,      -13.8727,       20.9255,            0.,NA,NA,"",       38.9121,      -21.8042,      -32.2294,   3.22840E-03
C:/temp/dataset/9/5_9.odb,Step-1,Increment      4: Step Time =    1.000,"PART-1-1",           433,          -15.,       20.1563,            0.,NA,NA,"",       38.8226,      -20.7312,      -32.8240,   5.14047E-03
C:/temp/dataset/9/5_9.odb,Step-1,Increment      4: Step Time =    1.000,"PART-1-1",           434,       1.76445,       24.7908,            0.,NA,NA,"",       37.6691,      -31.0543,      -21.3211,   9.65095E-03
C:/temp/dataset/9/5_9.odb,Step-1,Increment      4: Step Time =    1.000,"PART-1-1",           435,       1.36974,       27.3866,            0.,NA,NA,"",       40.0303,      -32.9872,      -22.6776,   9.15485E-03
C:/temp/dataset/9/5_9.odb,Step-1,Increment      4: Step Time =    1.000,"PART-1-1",           436,   176.493E-03,       26.0346,            0.,NA,NA,"",       38.9933,      -31.4292,      -23.0799,   9.21209E-03
C:/temp/dataset/9/5_9.odb,Step-1,Increment      4: Step Time =    1.000,"PART-1-1",           437,       7.39460,       20.9669,            0.,NA,NA,"",       33.8427,      -30.2202,      -15.2338,   9.67001E-03
C:/temp/dataset/9/5_9.odb,Step-1,Increment      4: Step Time =    1.000,"PART-1-1",           438,       8.70526,       19.9066,            0.,NA,NA,"",       32.8870,      -29.8932,      -13.7094,   12.1073E-03
C:/temp/dataset/9/5_9.odb,Step-1,Increment      4: Step Time =    1.000,"PART-1-1",           439,       9.85134,       21.1719,            0.,NA,NA,"",       34.1131,      -31.4064,      -13.3172,   6.81679E-03
C:/temp/dataset/9/5_9.odb,Step-1,Increment      4: Step Time =    1.000,"PART-1-1",           440,       8.54068,       22.2321,            0.,NA,NA,"",       35.0233,      -31.7268,      -14.8339,   3.70177E-03
C:/temp/dataset/9/5_9.odb,Step-1,Increment      4: Step Time =    1.000,"PART-1-1",           441,       4.10864,       24.1658,            0.,NA,NA,"",       36.8765,      -31.4818,      -19.2035,   8.28798E-03
C:/temp/dataset/9/5_9.odb,Step-1,Increment      4: Step Time =    1.000,"PART-1-1",           442,       5.90921,       23.8009,            0.,NA,NA,"",       36.4527,      -31.9155,      -17.6126,   6.18826E-03
C:/temp/dataset/9/5_9.odb,Step-1,Increment      4: Step Time =    1.000,"PART-1-1",           443,       6.25965,       24.9450,            0.,NA,NA,"",       37.4839,      -32.9885,      -17.7989,   6.28154E-03
C:/temp/dataset/9/5_9.odb,Step-1,Increment      4: Step Time =    1.000,"PART-1-1",           444,   19.2837E-03,       28.6494,            0.,NA,NA,"",       41.3258,      -33.4648,      -24.2472,   8.11261E-03
C:/temp/dataset/9/5_9.odb,Step-1,Increment      4: Step Time =    1.000,"PART-1-1",           445,       2.60045,       28.7372,            0.,NA,NA,"",       41.1051,      -34.5666,      -22.2436,   11.3166E-03
C:/temp/dataset/9/5_9.odb,Step-1,Increment      4: Step Time =    1.000,"PART-1-1",           446,          1.25,           30.,            0.,NA,NA,"",       42.3610,      -35.0372,      -23.8087,   11.6895E-03
C:/temp/dataset/9/5_9.odb,Step-1,Increment      4: Step Time =    1.000,"PART-1-1",           447,      -7.67774,       29.0428,            0.,NA,NA,"",       43.3147,      -30.7515,      -30.5043,   1.72362E-03
C:/temp/dataset/9/5_9.odb,Step-1,Increment      4: Step Time =    1.000,"PART-1-1",           448,      -6.68998,       27.9093,            0.,NA,NA,"",       42.0829,      -30.2381,      -29.2681,   2.08587E-03
C:/temp/dataset/9/5_9.odb,Step-1,Increment      4: Step Time =    1.000,"PART-1-1",           449,         -6.25,           30.,            0.,NA,NA,"",       43.7442,      -32.0750,      -29.7448,   1.49139E-03
C:/temp/dataset/9/5_9.odb,Step-1,Increment      4: Step Time =    1.000,"PART-1-1",           450,      -12.1701,       26.6384,            0.,NA,NA,"",       42.7788,      -27.0533,      -33.1383,   1.74243E-03
C:/temp/dataset/9/5_9.odb,Step-1,Increment      4: Step Time =    1.000,"PART-1-1",           451,      -13.7206,       27.8542,            0.,NA,NA,"",       44.3420,      -27.4057,      -34.8589,   811.082E-06
C:/temp/dataset/9/5_9.odb,Step-1,Increment      4: Step Time =    1.000,"PART-1-1",           452,          -15.,       26.7188,            0.,NA,NA,"",       43.9404,      -25.9906,      -35.4295,   1.11886E-03
C:/temp/dataset/9/5_9.odb,Step-1,Increment      4: Step Time =    1.000,"PART-1-1",           453,        -13.75,           30.,            0.,NA,NA,"",       46.0884,      -29.1063,      -35.7346,   190.716E-06
C:/temp/dataset/9/5_9.odb,Step-1,Increment      4: Step Time =    1.000,"PART-1-1",           454,          -15.,       28.9063,            0.,NA,NA,"",       45.6819,      -27.7365,      -36.2976,   168.428E-06
C:/temp/dataset/9/5_9.odb,Step-1,Increment      4: Step Time =    1.000,"PART-1-1",           455,      -9.01567,       28.1413,            0.,NA,NA,"",       42.9520,      -29.5047,      -31.2144,   1.12495E-03
C:/temp/dataset/9/5_9.odb,Step-1,Increment      4: Step Time =    1.000,"PART-1-1",           456,         -8.75,           30.,            0.,NA,NA,"",       44.4299,      -31.0903,      -31.7397,   2.18015E-03
C:/temp/dataset/9/5_9.odb,Step-1,Increment      4: Step Time =    1.000,"PART-1-1",           457,      -10.9923,       18.6369,            0.,NA,NA,"",       35.8817,      -21.1293,      -29.0008,   1.14446E-03
C:/temp/dataset/9/5_9.odb,Step-1,Increment      4: Step Time =    1.000,"PART-1-1",           458,      -11.7056,       20.1347,            0.,NA,NA,"",       37.3703,      -22.0431,      -30.1768,   1.03887E-03
C:/temp/dataset/9/5_9.odb,Step-1,Increment      4: Step Time =    1.000,"PART-1-1",           459,      -12.2405,       18.0722,            0.,NA,NA,"",       35.9630,      -20.1702,      -29.7741,   1.13273E-03
C:/temp/dataset/9/5_9.odb,Step-1,Increment      4: Step Time =    1.000,"PART-1-1",           460,      -11.7153,       17.0060,            0.,NA,NA,"",       34.8933,      -19.5250,      -28.9192,   1.24807E-03
C:/temp/dataset/9/5_9.odb,Step-1,Increment      4: Step Time =    1.000,"PART-1-1",           461,      -12.7888,       16.5007,            0.,NA,NA,"",       34.9824,      -18.6813,      -29.5767,   1.70279E-03
C:/temp/dataset/9/5_9.odb,Step-1,Increment      4: Step Time =    1.000,"PART-1-1",           462,      -13.2634,       13.5986,            0.,NA,NA,"",       32.9902,      -16.1418,      -28.7715,   1.83400E-03
C:/temp/dataset/9/5_9.odb,Step-1,Increment      4: Step Time =    1.000,"PART-1-1",           463,      -14.1733,       14.6682,            0.,NA,NA,"",       34.2539,      -16.6344,      -29.9437,   3.07792E-03
C:/temp/dataset/9/5_9.odb,Step-1,Increment      4: Step Time =    1.000,"PART-1-1",           464,          -15.,       13.5938,            0.,NA,NA,"",       33.8846,      -15.4235,      -30.1709,   3.76124E-03
C:/temp/dataset/9/5_9.odb,Step-1,Increment      4: Step Time =    1.000,"PART-1-1",           465,      -6.04154,       10.1420,            0.,NA,NA,"",       26.9793,      -16.3149,      -21.4873,   8.11091E-03
C:/temp/dataset/9/5_9.odb,Step-1,Increment      4: Step Time =    1.000,"PART-1-1",           466,      -7.09581,       9.10381,            0.,NA,NA,"",       26.5765,      -15.0429,      -21.9094,   6.47608E-03
C:/temp/dataset/9/5_9.odb,Step-1,Increment      4: Step Time =    1.000,"PART-1-1",           467,      -6.05428,       7.71180,            0.,NA,NA,"",       25.0041,      -14.3501,      -20.4763,   7.12232E-03
C:/temp/dataset/9/5_9.odb,Step-1,Increment      4: Step Time =    1.000,"PART-1-1",           468,           -5.,          8.75,            0.,NA,NA,"",       25.4222,      -15.6241,      -20.0543,   8.93664E-03
C:/temp/dataset/9/5_9.odb,Step-1,Increment      4: Step Time =    1.000,"PART-1-1",           469,      -6.15708,       5.36159,            0.,NA,NA,"",       23.1668,      -12.4043,      -19.5661,   8.66161E-03
C:/temp/dataset/9/5_9.odb,Step-1,Increment      4: Step Time =    1.000,"PART-1-1",           470,           -5.,          6.25,            0.,NA,NA,"",       23.3692,      -13.6086,      -18.9980,   8.95375E-03
C:/temp/dataset/9/5_9.odb,Step-1,Increment      4: Step Time =    1.000,"PART-1-1",           471,      -13.8567,       3.63033,            0.,NA,NA,"",       26.2978,      -7.81342,      -25.1102,   2.09464E-03
C:/temp/dataset/9/5_9.odb,Step-1,Increment      4: Step Time =    1.000,"PART-1-1",           472,      -12.5372,       4.63979,            0.,NA,NA,"",       26.1251,      -9.17910,      -24.4595,   2.41948E-03
C:/temp/dataset/9/5_9.odb,Step-1,Increment      4: Step Time =    1.000,"PART-1-1",           473,          -15.,       4.84375,            0.,NA,NA,"",       27.8192,      -8.32194,      -26.5453,   1.60089E-03
C:/temp/dataset/9/5_9.odb,Step-1,Increment      4: Step Time =    1.000,"PART-1-1",           474,      -12.7859,       2.45238,            0.,NA,NA,"",       24.8467,      -7.30388,      -23.7490,   2.13340E-03
C:/temp/dataset/9/5_9.odb,Step-1,Increment      4: Step Time =    1.000,"PART-1-1",           475,          -15.,       2.65625,            0.,NA,NA,"",       26.4564,      -6.54940,      -25.6329,   1.91675E-03
C:/temp/dataset/9/5_9.odb,Step-1,Increment      4: Step Time =    1.000,"PART-1-1",           476,      -13.7683,      -2.81830,            0.,NA,NA,"",       22.5091,      -2.62460,      -22.3555,   583.475E-06
C:/temp/dataset/9/5_9.odb,Step-1,Increment      4: Step Time =    1.000,"PART-1-1",           477,          -15.,      -3.90625,            0.,NA,NA,"",       22.9359,      -1.22917,      -22.9029,   84.4490E-06
C:/temp/dataset/9/5_9.odb,Step-1,Increment      4: Step Time =    1.000,"PART-1-1",           478,        -13.75,           -5.,            0.,NA,NA,"",       21.4503,  -861.360E-03,      -21.4330,   69.3095E-06
C:/temp/dataset/9/5_9.odb,Step-1,Increment      4: Step Time =    1.000,"PART-1-1",           479,      -12.5183,      -3.91205,            0.,NA,NA,"",       21.0074,      -2.25770,      -20.8857,   586.750E-06
C:/temp/dataset/9/5_9.odb,Step-1,Increment      4: Step Time =    1.000,"PART-1-1",           480,      -3.91473,      -3.03803,            0.,NA,NA,"",       15.7133,      -6.57197,      -14.2729,   8.35591E-03
C:/temp/dataset/9/5_9.odb,Step-1,Increment      4: Step Time =    1.000,"PART-1-1",           481,      -5.07319,      -4.05962,            0.,NA,NA,"",       15.6957,      -5.25736,      -14.7891,   7.36920E-03
C:/temp/dataset/9/5_9.odb,Step-1,Increment      4: Step Time =    1.000,"PART-1-1",           482,         -3.75,           -5.,            0.,NA,NA,"",       14.2604,      -5.04816,      -13.3370,   10.6148E-03
C:/temp/dataset/9/5_9.odb,Step-1,Increment      4: Step Time =    1.000,"PART-1-1",           483,      -2.59153,      -3.97841,            0.,NA,NA,"",       14.3177,      -6.36430,      -12.8255,   10.7565E-03
C:/temp/dataset/9/5_9.odb,Step-1,Increment      4: Step Time =    1.000,"PART-1-1",           484,   563.435E-03,   72.7383E-03,            0.,NA,NA,"",       16.1663,      -10.9262,      -11.9150,   11.5138E-03
C:/temp/dataset/9/5_9.odb,Step-1,Increment      4: Step Time =    1.000,"PART-1-1",           485,  -536.863E-03,      -1.25885,            0.,NA,NA,"",       15.4671,      -9.41447,      -12.2718,   11.2835E-03
C:/temp/dataset/9/5_9.odb,Step-1,Increment      4: Step Time =    1.000,"PART-1-1",           486,       7.06616,      -9.87010,            0.,NA,NA,"",       7.24269,      -6.46537,      -3.26428,   80.0877E-03
C:/temp/dataset/9/5_9.odb,Step-1,Increment      4: Step Time =    1.000,"PART-1-1",           487,       6.02487,      -8.97716,            0.,NA,NA,"",       7.98774,      -6.79159,      -4.20455,   109.701E-03
C:/temp/dataset/9/5_9.odb,Step-1,Increment      4: Step Time =    1.000,"PART-1-1",           488,            5.,      -10.2083,            0.,NA,NA,"",       7.43641,      -5.91847,      -4.50244,   141.912E-03
C:/temp/dataset/9/5_9.odb,Step-1,Increment      4: Step Time =    1.000,"PART-1-1",           489,       13.0743,      -11.4048,            0.,NA,NA,"",       6.77413,      -6.74955,   576.644E-03,   102.929E-03
C:/temp/dataset/9/5_9.odb,Step-1,Increment      4: Step Time =    1.000,"PART-1-1",           490,       14.0423,      -12.5586,            0.,NA,NA,"",       6.34166,      -6.22448,       1.21345,   135.412E-03
C:/temp/dataset/9/5_9.odb,Step-1,Increment      4: Step Time =    1.000,"PART-1-1",           491,           15.,        -11.25,            0.,NA,NA,"",       7.48729,      -7.30778,       1.62966,   159.024E-03
C:/temp/dataset/9/5_9.odb,Step-1,Increment      4: Step Time =    1.000,"PART-1-1",           492,       14.0319,      -10.0962,            0.,NA,NA,"",       7.91442,      -7.85631,   957.332E-03,   126.802E-03
C:/temp/dataset/9/5_9.odb,Step-1,Increment      4: Step Time =    1.000,"PART-1-1",           493,       7.09943,      -16.3632,            0.,NA,NA,"",       3.57920,      -3.13114,      -1.73396,   89.8753E-03
C:/temp/dataset/9/5_9.odb,Step-1,Increment      4: Step Time =    1.000,"PART-1-1",           494,            5.,      -16.4583,            0.,NA,NA,"",       4.03750,      -2.96210,      -2.74360,   167.184E-03
C:/temp/dataset/9/5_9.odb,Step-1,Increment      4: Step Time =    1.000,"PART-1-1",           495,       13.0966,      -13.8278,            0.,NA,NA,"",       5.31922,      -5.25519,   822.801E-03,   110.001E-03
C:/temp/dataset/9/5_9.odb,Step-1,Increment      4: Step Time =    1.000,"PART-1-1",           496,       14.0543,      -15.0192,            0.,NA,NA,"",       4.93254,      -4.74633,       1.34247,   143.809E-03
C:/temp/dataset/9/5_9.odb,Step-1,Increment      4: Step Time =    1.000,"PART-1-1",           497,           15.,        -13.75,            0.,NA,NA,"",       5.95416,      -5.68624,       1.76597,   168.899E-03
C:/temp/dataset/9/5_9.odb,Step-1,Increment      4: Step Time =    1.000,"PART-1-1",           498,       13.0974,      -18.6352,            0.,NA,NA,"",       2.91732,      -2.75667,   954.729E-03,   122.408E-03
C:/temp/dataset/9/5_9.odb,Step-1,Increment      4: Step Time =    1.000,"PART-1-1",           499,       14.0421,      -19.9133,            0.,NA,NA,"",       2.63641,      -2.32944,       1.23464,   158.794E-03
C:/temp/dataset/9/5_9.odb,Step-1,Increment      4: Step Time =    1.000,"PART-1-1",           500,           15.,        -18.75,            0.,NA,NA,"",       3.39957,      -2.97289,       1.64894,   187.703E-03
C:/temp/dataset/9/5_9.odb,Step-1,Increment      4: Step Time =    1.000,"PART-1-1",           501,       14.0553,      -17.4719,            0.,NA,NA,"",       3.69504,      -3.44122,       1.34585,   151.742E-03
C:/temp/dataset/9/5_9.odb,Step-1,Increment      4: Step Time =    1.000,"PART-1-1",           502,       7.12541,      -22.7005,            0.,NA,NA,"",       1.18746,  -924.065E-03,  -745.765E-03,   98.6733E-03
C:/temp/dataset/9/5_9.odb,Step-1,Increment      4: Step Time =    1.000,"PART-1-1",           503,       6.04628,      -21.6612,            0.,NA,NA,"",       1.71545,      -1.20783,      -1.21817,   141.910E-03
C:/temp/dataset/9/5_9.odb,Step-1,Increment      4: Step Time =    1.000,"PART-1-1",           504,            5.,      -22.7083,            0.,NA,NA,"",       1.66941,  -980.039E-03,      -1.35147,   189.467E-03
C:/temp/dataset/9/5_9.odb,Step-1,Increment      4: Step Time =    1.000,"PART-1-1",           505,       6.07914,      -23.7476,            0.,NA,NA,"",       1.11900,  -701.998E-03,  -871.414E-03,   145.716E-03
C:/temp/dataset/9/5_9.odb,Step-1,Increment      4: Step Time =    1.000,"PART-1-1",           506,       6.22304,      -27.8948,            0.,NA,NA,"",   271.777E-03,  -97.6846E-03,  -253.614E-03,   150.048E-03
C:/temp/dataset/9/5_9.odb,Step-1,Increment      4: Step Time =    1.000,"PART-1-1",           507,            5.,      -28.9583,            0.,NA,NA,"",   216.014E-03,  -124.349E-03,  -176.634E-03,   196.723E-03
C:/temp/dataset/9/5_9.odb,Step-1,Increment      4: Step Time =    1.000,"PART-1-1",           508,          6.25,          -30.,            0.,NA,NA,"",            0.,  -1.03753E-39,   7.94450E-39,   134.910E-03
C:/temp/dataset/9/5_9.odb,Step-1,Increment      4: Step Time =    1.000,"PART-1-1",           509,       9.78444,      -26.6535,            0.,NA,NA,"",   166.748E-03,  -166.727E-03,   2.65054E-03,   20.8031E-03
C:/temp/dataset/9/5_9.odb,Step-1,Increment      4: Step Time =    1.000,"PART-1-1",           510,       8.47427,      -25.6871,            0.,NA,NA,"",   353.603E-03,  -294.838E-03,  -195.206E-03,   50.6516E-03
C:/temp/dataset/9/5_9.odb,Step-1,Increment      4: Step Time =    1.000,"PART-1-1",           511,       7.37694,      -26.8334,            0.,NA,NA,"",   299.289E-03,  -152.175E-03,  -257.714E-03,   94.5957E-03
C:/temp/dataset/9/5_9.odb,Step-1,Increment      4: Step Time =    1.000,"PART-1-1",           512,       13.7223,      -27.5034,            0.,NA,NA,"",   412.470E-03,  -240.982E-03,   334.752E-03,   166.707E-03
C:/temp/dataset/9/5_9.odb,Step-1,Increment      4: Step Time =    1.000,"PART-1-1",           513,       12.4723,      -28.7534,            0.,NA,NA,"",   108.557E-03,  -40.4185E-03,   100.752E-03,   101.780E-03
C:/temp/dataset/9/5_9.odb,Step-1,Increment      4: Step Time =    1.000,"PART-1-1",           514,         13.75,          -30.,            0.,NA,NA,"",            0.,   112.014E-42,  -2.86969E-39,   158.037E-03
C:/temp/dataset/9/5_9.odb,Step-1,Increment      4: Step Time =    1.000,"PART-1-1",           515,           15.,        -28.75,            0.,NA,NA,"",   306.397E-03,  -197.820E-03,   233.979E-03,   218.909E-03
C:/temp/dataset/9/5_9.odb,Step-1,Increment      4: Step Time =    1.000,"PART-1-1",           516,         11.25,          -30.,            0.,NA,NA,"",            0.,   527.047E-42,  -1.14819E-39,   47.9368E-03
C:/temp/dataset/9/5_9.odb,Step-1,Increment      4: Step Time =    1.000,"PART-1-1",           517,       11.1864,      -27.6167,            0.,NA,NA,"",   143.102E-03,  -93.8966E-03,   107.989E-03,   69.3444E-03
C:/temp/dataset/9/5_9.odb,Step-1,Increment      4: Step Time =    1.000,"PART-1-1",           518,       9.10684,      -20.5966,            0.,NA,NA,"",       1.64534,      -1.60448,  -364.419E-03,   27.5338E-03
C:/temp/dataset/9/5_9.odb,Step-1,Increment      4: Step Time =    1.000,"PART-1-1",           519,       11.0993,      -20.6881,            0.,NA,NA,"",       1.73567,      -1.71434,   271.237E-03,   58.5518E-03
C:/temp/dataset/9/5_9.odb,Step-1,Increment      4: Step Time =    1.000,"PART-1-1",           520,       7.08739,      -20.6083,            0.,NA,NA,"",       1.84135,      -1.52236,      -1.03585,   97.1415E-03
C:/temp/dataset/9/5_9.odb,Step-1,Increment      4: Step Time =    1.000,"PART-1-1",           521,            5.,       -20.625,            0.,NA,NA,"",       2.34366,      -1.52107,      -1.78300,   182.154E-03
C:/temp/dataset/9/5_9.odb,Step-1,Increment      4: Step Time =    1.000,"PART-1-1",           522,       9.14341,      -14.0595,            0.,NA,NA,"",       4.60932,      -4.46740,      -1.13498,   25.7356E-03
C:/temp/dataset/9/5_9.odb,Step-1,Increment      4: Step Time =    1.000,"PART-1-1",           523,       10.1582,      -15.1431,            0.,NA,NA,"",       4.07394,      -4.04606,  -475.839E-03,   25.4180E-03
C:/temp/dataset/9/5_9.odb,Step-1,Increment      4: Step Time =    1.000,"PART-1-1",           524,       11.1509,      -13.9343,            0.,NA,NA,"",       4.84733,      -4.84539,  -137.140E-03,   51.3355E-03
C:/temp/dataset/9/5_9.odb,Step-1,Increment      4: Step Time =    1.000,"PART-1-1",           525,       10.1361,      -12.8507,            0.,NA,NA,"",       5.34788,      -5.28548,  -814.510E-03,   23.9294E-03
C:/temp/dataset/9/5_9.odb,Step-1,Increment      4: Step Time =    1.000,"PART-1-1",           526,       9.12292,      -11.8044,            0.,NA,NA,"",       5.92143,      -5.71130,      -1.56345,   25.3722E-03
C:/temp/dataset/9/5_9.odb,Step-1,Increment      4: Step Time =    1.000,"PART-1-1",           527,       11.1213,      -11.5948,            0.,NA,NA,"",       6.23188,      -6.21336,  -480.096E-03,   48.1211E-03
C:/temp/dataset/9/5_9.odb,Step-1,Increment      4: Step Time =    1.000,"PART-1-1",           528,       10.1081,      -10.5485,            0.,NA,NA,"",       6.77075,      -6.65449,      -1.24935,   23.1119E-03
C:/temp/dataset/9/5_9.odb,Step-1,Increment      4: Step Time =    1.000,"PART-1-1",           529,       13.8169,  -7.21098E-03,            0.,NA,NA,"",       15.6709,      -15.5875,      -1.61461,   59.9087E-03
C:/temp/dataset/9/5_9.odb,Step-1,Increment      4: Step Time =    1.000,"PART-1-1",           530,           15.,          1.25,            0.,NA,NA,"",       17.1088,      -17.0701,      -1.15014,   64.5565E-03
C:/temp/dataset/9/5_9.odb,Step-1,Increment      4: Step Time =    1.000,"PART-1-1",           531,       13.9075,       2.57030,            0.,NA,NA,"",       17.8996,      -17.7321,      -2.44301,   45.9352E-03
C:/temp/dataset/9/5_9.odb,Step-1,Increment      4: Step Time =    1.000,"PART-1-1",           532,       10.8083,      -4.35361,            0.,NA,NA,"",       11.3887,      -11.1414,      -2.36041,   48.2628E-03
C:/temp/dataset/9/5_9.odb,Step-1,Increment      4: Step Time =    1.000,"PART-1-1",           533,       9.68548,      -3.40243,            0.,NA,NA,"",       12.0318,      -11.5264,      -3.45073,   43.7193E-03
C:/temp/dataset/9/5_9.odb,Step-1,Increment      4: Step Time =    1.000,"PART-1-1",           534,       8.81587,      -4.92348,            0.,NA,NA,"",       10.7370,      -10.1332,      -3.54987,   38.8694E-03
C:/temp/dataset/9/5_9.odb,Step-1,Increment      4: Step Time =    1.000,"PART-1-1",           535,       9.93870,      -5.87466,            0.,NA,NA,"",       10.0732,      -9.75922,      -2.49540,   36.5485E-03
C:/temp/dataset/9/5_9.odb,Step-1,Increment      4: Step Time =    1.000,"PART-1-1",           536,       10.7940,       8.23694,            0.,NA,NA,"",       22.2868,      -21.1437,      -7.04582,   17.6266E-03
C:/temp/dataset/9/5_9.odb,Step-1,Increment      4: Step Time =    1.000,"PART-1-1",           537,       11.2752,       6.42654,            0.,NA,NA,"",       20.7285,      -19.8586,      -5.94181,   19.6591E-03
C:/temp/dataset/9/5_9.odb,Step-1,Increment      4: Step Time =    1.000,"PART-1-1",           538,       12.8821,       8.67106,            0.,NA,NA,"",       23.0235,      -22.3404,      -5.56693,   24.0801E-03
C:/temp/dataset/9/5_9.odb,Step-1,Increment      4: Step Time =    1.000,"PART-1-1",           539,       14.0355,       7.50951,            0.,NA,NA,"",       22.2505,      -21.8515,      -4.19483,   31.7710E-03
C:/temp/dataset/9/5_9.odb,Step-1,Increment      4: Step Time =    1.000,"PART-1-1",           540,           15.,          8.75,            0.,NA,NA,"",       23.6084,      -23.2814,      -3.91566,   33.8020E-03
C:/temp/dataset/9/5_9.odb,Step-1,Increment      4: Step Time =    1.000,"PART-1-1",           541,       13.8467,       9.91155,            0.,NA,NA,"",       24.3485,      -23.7650,      -5.29859,   25.0586E-03
C:/temp/dataset/9/5_9.odb,Step-1,Increment      4: Step Time =    1.000,"PART-1-1",           542,       12.4850,       16.2122,            0.,NA,NA,"",       29.8252,      -28.4230,      -9.03762,   12.2921E-03
C:/temp/dataset/9/5_9.odb,Step-1,Increment      4: Step Time =    1.000,"PART-1-1",           543,       13.7431,       14.9727,            0.,NA,NA,"",       28.9134,      -27.9275,      -7.48603,   12.5017E-03
C:/temp/dataset/9/5_9.odb,Step-1,Increment      4: Step Time =    1.000,"PART-1-1",           544,           15.,         16.25,            0.,NA,NA,"",       30.3455,      -29.5261,      -7.00427,   9.39364E-03
C:/temp/dataset/9/5_9.odb,Step-1,Increment      4: Step Time =    1.000,"PART-1-1",           545,       13.7419,       17.4895,            0.,NA,NA,"",       31.2094,      -30.0119,      -8.56216,   6.98833E-03
C:/temp/dataset/9/5_9.odb,Step-1,Increment      4: Step Time =    1.000,"PART-1-1",           546,       12.4991,       13.6576,            0.,NA,NA,"",       27.4819,      -26.3113,      -7.93557,   15.8683E-03
C:/temp/dataset/9/5_9.odb,Step-1,Increment      4: Step Time =    1.000,"PART-1-1",           547,       13.7559,       12.4349,            0.,NA,NA,"",       26.6070,      -25.8240,      -6.40737,   18.6046E-03
C:/temp/dataset/9/5_9.odb,Step-1,Increment      4: Step Time =    1.000,"PART-1-1",           548,           15.,         13.75,            0.,NA,NA,"",       28.0866,      -27.4494,      -5.94878,   17.5284E-03
C:/temp/dataset/9/5_9.odb,Step-1,Increment      4: Step Time =    1.000,"PART-1-1",           549,           15.,         21.25,            0.,NA,NA,"",       34.8656,      -33.6451,      -9.14427,   1.06560E-03
C:/temp/dataset/9/5_9.odb,Step-1,Increment      4: Step Time =    1.000,"PART-1-1",           550,       13.6875,       22.5045,            0.,NA,NA,"",       35.7706,      -34.1135,      -10.7614,   5.16394E-03
C:/temp/dataset/9/5_9.odb,Step-1,Increment      4: Step Time =    1.000,"PART-1-1",           551,       12.4125,       21.2511,            0.,NA,NA,"",       34.4392,      -32.5451,      -11.2640,   5.62369E-03
C:/temp/dataset/9/5_9.odb,Step-1,Increment      4: Step Time =    1.000,"PART-1-1",           552,       13.7250,       19.9966,            0.,NA,NA,"",       33.4920,      -32.0711,      -9.65199,   2.98172E-03
C:/temp/dataset/9/5_9.odb,Step-1,Increment      4: Step Time =    1.000,"PART-1-1",           553,       13.6481,       25.0064,            0.,NA,NA,"",       38.0396,      -36.1459,      -11.8525,   8.13400E-03
C:/temp/dataset/9/5_9.odb,Step-1,Increment      4: Step Time =    1.000,"PART-1-1",           554,       12.3356,       23.7609,            0.,NA,NA,"",       36.7237,      -34.5691,      -12.3939,   5.86963E-03
C:/temp/dataset/9/5_9.odb,Step-1,Increment      4: Step Time =    1.000,"PART-1-1",           555,           15.,         23.75,            0.,NA,NA,"",       37.1330,      -35.6974,      -10.2251,   7.59983E-03
C:/temp/dataset/9/5_9.odb,Step-1,Increment      4: Step Time =    1.000,"PART-1-1",           556,       13.7112,       27.5077,            0.,NA,NA,"",       40.3114,      -38.2108,      -12.8430,   9.04604E-03
C:/temp/dataset/9/5_9.odb,Step-1,Increment      4: Step Time =    1.000,"PART-1-1",           557,           15.,         28.75,            0.,NA,NA,"",       41.6333,      -39.7692,      -12.3185,   8.54956E-03
C:/temp/dataset/9/5_9.odb,Step-1,Increment      4: Step Time =    1.000,"PART-1-1",           558,         13.75,           30.,            0.,NA,NA,"",       42.5754,      -40.2608,      -13.8468,   9.58518E-03
C:/temp/dataset/9/5_9.odb,Step-1,Increment      4: Step Time =    1.000,"PART-1-1",           559,            5.,      -24.7917,            0.,NA,NA,"",       1.10174,  -568.122E-03,  -943.967E-03,   194.132E-03
C:/temp/dataset/9/5_9.odb,Step-1,Increment      4: Step Time =    1.000,"PART-1-1",           560,       6.15390,      -25.8136,            0.,NA,NA,"",   645.613E-03,  -335.955E-03,  -551.317E-03,   146.755E-03
C:/temp/dataset/9/5_9.odb,Step-1,Increment      4: Step Time =    1.000,"PART-1-1",           561,       7.23304,      -24.7696,            0.,NA,NA,"",   672.268E-03,  -466.863E-03,  -483.718E-03,   98.4111E-03
C:/temp/dataset/9/5_9.odb,Step-1,Increment      4: Step Time =    1.000,"PART-1-1",           562,       13.0086,      -21.0119,            0.,NA,NA,"",       1.97147,      -1.78079,   845.853E-03,   124.865E-03
C:/temp/dataset/9/5_9.odb,Step-1,Increment      4: Step Time =    1.000,"PART-1-1",           563,       13.9664,      -22.3485,            0.,NA,NA,"",       1.74521,      -1.42134,       1.01270,   162.946E-03
C:/temp/dataset/9/5_9.odb,Step-1,Increment      4: Step Time =    1.000,"PART-1-1",           564,           15.,        -21.25,            0.,NA,NA,"",       2.38850,      -1.92434,       1.41488,   196.360E-03
C:/temp/dataset/9/5_9.odb,Step-1,Increment      4: Step Time =    1.000,"PART-1-1",           565,            5.,       -26.875,            0.,NA,NA,"",   630.323E-03,  -291.075E-03,  -559.091E-03,   200.093E-03
C:/temp/dataset/9/5_9.odb,Step-1,Increment      4: Step Time =    1.000,"PART-1-1",           566,       12.9745,      -6.51631,            0.,NA,NA,"",       10.1567,      -10.1512,  -333.974E-03,   86.0250E-03
C:/temp/dataset/9/5_9.odb,Step-1,Increment      4: Step Time =    1.000,"PART-1-1",           567,       14.0104,      -7.62731,            0.,NA,NA,"",       9.64022,      -9.62401,   558.782E-03,   116.185E-03
C:/temp/dataset/9/5_9.odb,Step-1,Increment      4: Step Time =    1.000,"PART-1-1",           568,           15.,         -6.25,            0.,NA,NA,"",       11.0161,      -10.9765,   933.569E-03,   131.810E-03
C:/temp/dataset/9/5_9.odb,Step-1,Increment      4: Step Time =    1.000,"PART-1-1",           569,       13.9641,      -5.13900,            0.,NA,NA,"",       11.5107,      -11.5107,  -2.77266E-03,   100.786E-03
C:/temp/dataset/9/5_9.odb,Step-1,Increment      4: Step Time =    1.000,"PART-1-1",           570,       11.1649,      -16.2543,            0.,NA,NA,"",       3.62475,      -3.62343,   97.8241E-03,   54.7438E-03
C:/temp/dataset/9/5_9.odb,Step-1,Increment      4: Step Time =    1.000,"PART-1-1",           571,       9.14831,      -16.2933,            0.,NA,NA,"",       3.44983,      -3.35646,  -797.160E-03,   26.0089E-03
C:/temp/dataset/9/5_9.odb,Step-1,Increment      4: Step Time =    1.000,"PART-1-1",           572,            5.,        -8.125,            0.,NA,NA,"",       8.78098,      -7.09081,      -5.17938,   141.106E-03
C:/temp/dataset/9/5_9.odb,Step-1,Increment      4: Step Time =    1.000,"PART-1-1",           573,       12.8519,      -3.99254,            0.,NA,NA,"",       12.0985,      -12.0517,      -1.06336,   73.2294E-03
C:/temp/dataset/9/5_9.odb,Step-1,Increment      4: Step Time =    1.000,"PART-1-1",           574,           15.,         -3.75,            0.,NA,NA,"",       12.9727,      -12.9676,   363.533E-03,   110.044E-03
C:/temp/dataset/9/5_9.odb,Step-1,Increment      4: Step Time =    1.000,"PART-1-1",           575,       13.8878,      -2.60354,            0.,NA,NA,"",       13.5236,      -13.5033,  -740.393E-03,   80.2694E-03
C:/temp/dataset/9/5_9.odb,Step-1,Increment      4: Step Time =    1.000,"PART-1-1",           576,       13.0423,      -8.97351,            0.,NA,NA,"",       8.38723,      -8.38483,   200.861E-03,   95.4417E-03
C:/temp/dataset/9/5_9.odb,Step-1,Increment      4: Step Time =    1.000,"PART-1-1",           577,           15.,         -8.75,            0.,NA,NA,"",       9.17930,      -9.07880,       1.35457,   147.588E-03
C:/temp/dataset/9/5_9.odb,Step-1,Increment      4: Step Time =    1.000,"PART-1-1",           578,       8.09346,      -21.6433,            0.,NA,NA,"",       1.36098,      -1.22759,  -587.610E-03,   60.7251E-03
C:/temp/dataset/9/5_9.odb,Step-1,Increment      4: Step Time =    1.000,"PART-1-1",           579,       8.17438,      -23.6967,            0.,NA,NA,"",   786.546E-03,  -686.356E-03,  -384.149E-03,   59.4758E-03
C:/temp/dataset/9/5_9.odb,Step-1,Increment      4: Step Time =    1.000,"PART-1-1",           580,       8.10077,      -19.5616,            0.,NA,NA,"",       2.08046,      -1.91444,  -814.390E-03,   58.8971E-03
C:/temp/dataset/9/5_9.odb,Step-1,Increment      4: Step Time =    1.000,"PART-1-1",           581,       8.11824,      -17.4194,            0.,NA,NA,"",       2.96638,      -2.75702,      -1.09464,   56.6115E-03
C:/temp/dataset/9/5_9.odb,Step-1,Increment      4: Step Time =    1.000,"PART-1-1",           582,          -15.,       22.3438,            0.,NA,NA,"",       40.5110,      -22.4898,      -33.6949,   4.09277E-03
C:/temp/dataset/9/5_9.odb,Step-1,Increment      4: Step Time =    1.000,"PART-1-1",           583,      -12.5647,       21.7347,            0.,NA,NA,"",       38.9953,      -22.9791,      -31.5054,   1.95779E-03
C:/temp/dataset/9/5_9.odb,Step-1,Increment      4: Step Time =    1.000,"PART-1-1",           584,      -4.95050,       22.5220,            0.,NA,NA,"",       37.0323,      -26.6315,      -25.7324,   9.82325E-03
C:/temp/dataset/9/5_9.odb,Step-1,Increment      4: Step Time =    1.000,"PART-1-1",           585,      -3.93081,       23.1260,            0.,NA,NA,"",       37.2815,      -27.5059,      -25.1662,   9.39271E-03
C:/temp/dataset/9/5_9.odb,Step-1,Increment      4: Step Time =    1.000,"PART-1-1",           586,      -4.22857,       24.4244,            0.,NA,NA,"",       38.4698,      -28.4247,      -25.9222,   8.40433E-03
C:/temp/dataset/9/5_9.odb,Step-1,Increment      4: Step Time =    1.000,"PART-1-1",           587,      -5.24826,       23.8204,            0.,NA,NA,"",       38.2176,      -27.5474,      -26.4901,   7.81711E-03
C:/temp/dataset/9/5_9.odb,Step-1,Increment      4: Step Time =    1.000,"PART-1-1",           588,      -10.1110,       10.4874,            0.,NA,NA,"",       29.0567,      -14.9189,      -24.9343,   4.05184E-03
C:/temp/dataset/9/5_9.odb,Step-1,Increment      4: Step Time =    1.000,"PART-1-1",           589,      -9.15687,       11.6944,            0.,NA,NA,"",       29.5561,      -16.2859,      -24.6644,   5.02044E-03
C:/temp/dataset/9/5_9.odb,Step-1,Increment      4: Step Time =    1.000,"PART-1-1",           590,      -11.1597,       11.6149,            0.,NA,NA,"",       30.4357,      -15.3999,      -26.2522,   3.15128E-03
C:/temp/dataset/9/5_9.odb,Step-1,Increment      4: Step Time =    1.000,"PART-1-1",           591,      -6.07359,       12.6401,            0.,NA,NA,"",       29.0546,      -18.3104,      -22.5588,   8.95075E-03
C:/temp/dataset/9/5_9.odb,Step-1,Increment      4: Step Time =    1.000,"PART-1-1",           592,      -7.11512,       11.5321,            0.,NA,NA,"",       28.5492,      -16.9925,      -22.9415,   7.24678E-03
C:/temp/dataset/9/5_9.odb,Step-1,Increment      4: Step Time =    1.000,"PART-1-1",           593,           -5.,         11.25,            0.,NA,NA,"",       27.5024,      -17.6348,      -21.1043,   9.88936E-03
C:/temp/dataset/9/5_9.odb,Step-1,Increment      4: Step Time =    1.000,"PART-1-1",           594,      -10.0988,       8.37440,            0.,NA,NA,"",       27.4339,      -13.2138,      -24.0420,   4.09638E-03
C:/temp/dataset/9/5_9.odb,Step-1,Increment      4: Step Time =    1.000,"PART-1-1",           595,      -9.11481,       9.38066,            0.,NA,NA,"",       27.7193,      -14.4339,      -23.6648,   4.78885E-03
C:/temp/dataset/9/5_9.odb,Step-1,Increment      4: Step Time =    1.000,"PART-1-1",           596,      -11.0949,       9.48111,            0.,NA,NA,"",       28.7813,      -13.6994,      -25.3118,   3.42044E-03
C:/temp/dataset/9/5_9.odb,Step-1,Increment      4: Step Time =    1.000,"PART-1-1",           597,      -11.8142,       15.6555,            0.,NA,NA,"",       33.8773,      -18.3963,      -28.4472,   1.72140E-03
C:/temp/dataset/9/5_9.odb,Step-1,Increment      4: Step Time =    1.000,"PART-1-1",           598,      -13.4062,       15.6218,            0.,NA,NA,"",       34.5976,      -17.7199,      -29.7153,   2.25456E-03
C:/temp/dataset/9/5_9.odb,Step-1,Increment      4: Step Time =    1.000,"PART-1-1",           599,      -12.4316,       14.7766,            0.,NA,NA,"",       33.4821,      -17.4350,      -28.5845,   1.64827E-03
C:/temp/dataset/9/5_9.odb,Step-1,Increment      4: Step Time =    1.000,"PART-1-1",           600,      -5.72199,       20.2132,            0.,NA,NA,"",       35.3078,      -24.5047,      -25.4196,   13.4474E-03
C:/temp/dataset/9/5_9.odb,Step-1,Increment      4: Step Time =    1.000,"PART-1-1",           601,           -5.,         18.75,            0.,NA,NA,"",       33.8454,      -23.6278,      -24.2330,   18.7832E-03
C:/temp/dataset/9/5_9.odb,Step-1,Increment      4: Step Time =    1.000,"PART-1-1",           602,          -15.,       15.7813,            0.,NA,NA,"",       35.5054,      -17.1968,      -31.0629,   4.84423E-03
C:/temp/dataset/9/5_9.odb,Step-1,Increment      4: Step Time =    1.000,"PART-1-1",           603,      -10.4105,       16.7429,            0.,NA,NA,"",       34.1245,      -19.8426,      -27.7625,   2.84485E-03
C:/temp/dataset/9/5_9.odb,Step-1,Increment      4: Step Time =    1.000,"PART-1-1",           604,      -12.1928,       12.6381,            0.,NA,NA,"",       31.7272,      -15.8037,      -27.5111,   2.06254E-03
C:/temp/dataset/9/5_9.odb,Step-1,Increment      4: Step Time =    1.000,"PART-1-1",           605,      -12.0987,       10.4443,            0.,NA,NA,"",       30.0245,      -14.0661,      -26.5257,   2.46324E-03
C:/temp/dataset/9/5_9.odb,Step-1,Increment      4: Step Time =    1.000,"PART-1-1",           606,      -7.50325,       4.80693,            0.,NA,NA,"",       23.3960,      -11.3984,      -20.4317,   7.67066E-03
C:/temp/dataset/9/5_9.odb,Step-1,Increment      4: Step Time =    1.000,"PART-1-1",           607,      -9.63824,       5.46172,            0.,NA,NA,"",       25.0171,      -11.0451,      -22.4469,   4.73996E-03
C:/temp/dataset/9/5_9.odb,Step-1,Increment      4: Step Time =    1.000,"PART-1-1",           608,      -8.81234,       4.25317,            0.,NA,NA,"",       23.6776,      -10.4089,      -21.2669,   6.23979E-03
C:/temp/dataset/9/5_9.odb,Step-1,Increment      4: Step Time =    1.000,"PART-1-1",           609,          -15.,      -1.71875,            0.,NA,NA,"",       24.0013,      -3.00432,      -23.8125,   494.888E-06
C:/temp/dataset/9/5_9.odb,Step-1,Increment      4: Step Time =    1.000,"PART-1-1",           610,      -12.5835,      -1.75493,            0.,NA,NA,"",       22.1949,      -3.98041,      -21.8351,   1.55215E-03
C:/temp/dataset/9/5_9.odb,Step-1,Increment      4: Step Time =    1.000,"PART-1-1",           611,        -11.25,           -5.,            0.,NA,NA,"",       19.4959,      -1.90315,      -19.4028,   867.792E-06
C:/temp/dataset/9/5_9.odb,Step-1,Increment      4: Step Time =    1.000,"PART-1-1",           612,      -10.0144,      -3.91217,            0.,NA,NA,"",       19.1397,      -3.30352,      -18.8524,   1.98063E-03
C:/temp/dataset/9/5_9.odb,Step-1,Increment      4: Step Time =    1.000,"PART-1-1",           613,      -11.2827,      -2.82422,            0.,NA,NA,"",       20.6603,      -3.65616,      -20.3343,   2.04614E-03
C:/temp/dataset/9/5_9.odb,Step-1,Increment      4: Step Time =    1.000,"PART-1-1",           614,         -8.75,           -5.,            0.,NA,NA,"",       17.6224,      -2.94872,      -17.3739,   3.06967E-03
C:/temp/dataset/9/5_9.odb,Step-1,Increment      4: Step Time =    1.000,"PART-1-1",           615,      -7.54904,      -4.01671,            0.,NA,NA,"",       17.3386,      -4.25222,      -16.8091,   4.26455E-03
C:/temp/dataset/9/5_9.odb,Step-1,Increment      4: Step Time =    1.000,"PART-1-1",           616,      -8.81345,      -2.92887,            0.,NA,NA,"",       18.8560,      -4.60461,      -18.2851,   3.90906E-03
C:/temp/dataset/9/5_9.odb,Step-1,Increment      4: Step Time =    1.000,"PART-1-1",           617,  -969.738E-03,       22.2544,            0.,NA,NA,"",       35.8692,      -27.9563,      -22.4733,   8.01192E-03
C:/temp/dataset/9/5_9.odb,Step-1,Increment      4: Step Time =    1.000,"PART-1-1",           618,      -2.31964,       21.1016,            0.,NA,NA,"",       35.1590,      -26.5176,      -23.0861,   3.98739E-03
C:/temp/dataset/9/5_9.odb,Step-1,Increment      4: Step Time =    1.000,"PART-1-1",           619,         -1.25,           20.,            0.,NA,NA,"",       33.9790,      -26.0585,      -21.8066,   5.21356E-03
C:/temp/dataset/9/5_9.odb,Step-1,Increment      4: Step Time =    1.000,"PART-1-1",           620,         -1.25,           30.,            0.,NA,NA,"",       42.7013,      -34.0411,      -25.7800,   6.51196E-03
C:/temp/dataset/9/5_9.odb,Step-1,Increment      4: Step Time =    1.000,"PART-1-1",           621,      -1.44357,       27.1449,            0.,NA,NA,"",       40.2385,      -31.6838,      -24.8048,   8.18750E-03
C:/temp/dataset/9/5_9.odb,Step-1,Increment      4: Step Time =    1.000,"PART-1-1",           622,      -4.58492,       21.1383,            0.,NA,NA,"",       35.7578,      -25.6761,      -24.8870,   12.6507E-03
C:/temp/dataset/9/5_9.odb,Step-1,Increment      4: Step Time =    1.000,"PART-1-1",           623,         -3.75,           20.,            0.,NA,NA,"",       34.5753,      -25.0932,      -23.7862,   6.26172E-03
C:/temp/dataset/9/5_9.odb,Step-1,Increment      4: Step Time =    1.000,"PART-1-1",           624,      -3.15456,       22.2398,            0.,NA,NA,"",       36.3307,      -27.1006,      -24.1967,   8.88935E-03
C:/temp/dataset/9/5_9.odb,Step-1,Increment      4: Step Time =    1.000,"PART-1-1",           625,      -11.2479,       22.4027,            0.,NA,NA,"",       39.0077,      -24.0420,      -30.7178,   1.85265E-03
C:/temp/dataset/9/5_9.odb,Step-1,Increment      4: Step Time =    1.000,"PART-1-1",           626,      -10.3888,       20.8027,            0.,NA,NA,"",       37.3864,      -23.1081,      -29.3897,   1.74094E-03
C:/temp/dataset/9/5_9.odb,Step-1,Increment      4: Step Time =    1.000,"PART-1-1",           627,       9.41561,      -24.6142,            0.,NA,NA,"",   513.347E-03,  -507.112E-03,  -79.7650E-03,   21.5717E-03
C:/temp/dataset/9/5_9.odb,Step-1,Increment      4: Step Time =    1.000,"PART-1-1",           628,           15.,        -16.25,            0.,NA,NA,"",       4.58923,      -4.23422,       1.76988,   178.470E-03
C:/temp/dataset/9/5_9.odb,Step-1,Increment      4: Step Time =    1.000,"PART-1-1",           629,       13.1096,      -16.2411,            0.,NA,NA,"",       4.03090,      -3.91797,   947.470E-03,   116.684E-03
C:/temp/dataset/9/5_9.odb,Step-1,Increment      4: Step Time =    1.000,"PART-1-1",           630,           15.,          3.75,            0.,NA,NA,"",       19.2413,      -19.1342,      -2.02724,   50.1757E-03
C:/temp/dataset/9/5_9.odb,Step-1,Increment      4: Step Time =    1.000,"PART-1-1",           631,       14.0093,       5.06690,            0.,NA,NA,"",       20.0939,      -19.8242,      -3.28124,   37.7655E-03
C:/temp/dataset/9/5_9.odb,Step-1,Increment      4: Step Time =    1.000,"PART-1-1",           632,       12.9168,       3.88721,            0.,NA,NA,"",       18.7930,      -18.4279,      -3.68638,   34.6033E-03
C:/temp/dataset/9/5_9.odb,Step-1,Increment      4: Step Time =    1.000,"PART-1-1",           633,       12.6026,       11.0965,            0.,NA,NA,"",       25.1615,      -24.2312,      -6.77850,   19.5184E-03
C:/temp/dataset/9/5_9.odb,Step-1,Increment      4: Step Time =    1.000,"PART-1-1",           634,           15.,         11.25,            0.,NA,NA,"",       25.8376,      -25.3655,      -4.91648,   25.9564E-03
C:/temp/dataset/9/5_9.odb,Step-1,Increment      4: Step Time =    1.000,"PART-1-1",           635,       12.4669,       18.7361,            0.,NA,NA,"",       32.1413,      -30.5004,      -10.1382,   8.21796E-03
C:/temp/dataset/9/5_9.odb,Step-1,Increment      4: Step Time =    1.000,"PART-1-1",           636,           15.,         18.75,            0.,NA,NA,"",       32.6060,      -31.5909,      -8.07270,   2.96322E-03
C:/temp/dataset/9/5_9.odb,Step-1,Increment      4: Step Time =    1.000,"PART-1-1",           637,           15.,         26.25,            0.,NA,NA,"",       39.3815,      -37.7320,      -11.2781,   7.86994E-03
C:/temp/dataset/9/5_9.odb,Step-1,Increment      4: Step Time =    1.000,"PART-1-1",           638,          8.75,           30.,            0.,NA,NA,"",       42.1162,      -38.1382,      -17.8677,   15.5750E-03
C:/temp/dataset/9/5_9.odb,Step-1,Increment      4: Step Time =    1.000,"PART-1-1",           639,       8.74802,       27.8391,            0.,NA,NA,"",       40.1458,      -36.3766,      -16.9833,   10.9811E-03
C:/temp/dataset/9/5_9.odb,Step-1,Increment      4: Step Time =    1.000,"PART-1-1",           640,       11.0691,       22.4572,            0.,NA,NA,"",       35.3915,      -32.9676,      -12.8722,   3.57041E-03
C:/temp/dataset/9/5_9.odb,Step-1,Increment      4: Step Time =    1.000,"PART-1-1",           641,       11.1947,       19.9658,            0.,NA,NA,"",       33.1158,      -30.9780,      -11.7054,   8.79197E-03
C:/temp/dataset/9/5_9.odb,Step-1,Increment      4: Step Time =    1.000,"PART-1-1",           642,          3.75,           30.,            0.,NA,NA,"",       42.1496,      -36.0515,      -21.8375,   15.5765E-03
C:/temp/dataset/9/5_9.odb,Step-1,Increment      4: Step Time =    1.000,"PART-1-1",           643,       6.12801,       21.9878,            0.,NA,NA,"",       34.7960,      -30.5309,      -16.6921,   7.59410E-03
C:/temp/dataset/9/5_9.odb,Step-1,Increment      4: Step Time =    1.000,"PART-1-1",           644,       7.06684,       23.0702,            0.,NA,NA,"",       35.7685,      -31.7979,      -16.3793,   3.75107E-03
C:/temp/dataset/9/5_9.odb,Step-1,Increment      4: Step Time =    1.000,"PART-1-1",           645,       4.97038,       22.7185,            0.,NA,NA,"",       35.5109,      -30.6553,      -17.9242,   8.58631E-03
C:/temp/dataset/9/5_9.odb,Step-1,Increment      4: Step Time =    1.000,"PART-1-1",           646,          3.75,           20.,            0.,NA,NA,"",       33.1632,      -27.9848,      -17.7947,   25.8243E-03
C:/temp/dataset/9/5_9.odb,Step-1,Increment      4: Step Time =    1.000,"PART-1-1",           647,       4.96897,       20.9583,            0.,NA,NA,"",       33.9094,      -29.2198,      -17.2061,   19.5021E-03
C:/temp/dataset/9/5_9.odb,Step-1,Increment      4: Step Time =    1.000,"PART-1-1",           648,       3.78616,       22.0655,            0.,NA,NA,"",       35.0067,      -29.6524,      -18.6066,   11.3518E-03
C:/temp/dataset/9/5_9.odb,Step-1,Increment      4: Step Time =    1.000,"PART-1-1",           649,           -5.,         13.75,            0.,NA,NA,"",       29.6031,      -19.6396,      -22.1502,   10.8800E-03
C:/temp/dataset/9/5_9.odb,Step-1,Increment      4: Step Time =    1.000,"PART-1-1",           650,      -7.15256,       14.0792,            0.,NA,NA,"",       30.6523,      -19.0251,      -24.0335,   8.10774E-03
C:/temp/dataset/9/5_9.odb,Step-1,Increment      4: Step Time =    1.000,"PART-1-1",           651,      -9.70164,       19.1500,            0.,NA,NA,"",       35.7833,      -22.0619,      -28.1730,   2.68037E-03
C:/temp/dataset/9/5_9.odb,Step-1,Increment      4: Step Time =    1.000,"PART-1-1",           652,      -9.13060,       21.5024,            0.,NA,NA,"",       37.4942,      -24.1718,      -28.6625,   3.15329E-03
C:/temp/dataset/9/5_9.odb,Step-1,Increment      4: Step Time =    1.000,"PART-1-1",           653,         -1.25,           -5.,            0.,NA,NA,"",       12.8714,      -6.09564,      -11.3365,   13.0090E-03
C:/temp/dataset/9/5_9.odb,Step-1,Increment      4: Step Time =    1.000,"PART-1-1",           654,      -1.47244,      -2.77860,            0.,NA,NA,"",       14.6633,      -7.80316,      -12.4146,   11.4290E-03
C:/temp/dataset/9/5_9.odb,Step-1,Increment      4: Step Time =    1.000,"PART-1-1",           655,      -9.96758,      -1.61086,            0.,NA,NA,"",       20.4383,      -5.18926,      -19.7686,   3.37222E-03
C:/temp/dataset/9/5_9.odb,Step-1,Increment      4: Step Time =    1.000,"PART-1-1",           656,      -6.37223,      -3.07632,            0.,NA,NA,"",       17.1528,      -5.50961,      -16.2439,   6.09527E-03
C:/temp/dataset/9/5_9.odb,Step-1,Increment      4: Step Time =    1.000,"PART-1-1",           657,         -6.25,           -5.,            0.,NA,NA,"",       15.8625,      -3.99793,      -15.3505,   6.44906E-03
C:/temp/dataset/9/5_9.odb,Step-1,Increment      4: Step Time =    1.000,"PART-1-1",           658,         -3.75,            5.,            0.,NA,NA,"",       21.8050,      -13.1085,      -17.4249,   18.0934E-03
C:/temp/dataset/9/5_9.odb,Step-1,Increment      4: Step Time =    1.000,"PART-1-1",           659,      -5.11170,       4.23117,            0.,NA,NA,"",       21.7790,      -11.9249,      -18.2242,   12.5323E-03
C:/temp/dataset/9/5_9.odb,Step-1,Increment      4: Step Time =    1.000,"PART-1-1",           660,      -3.95473,       3.29190,            0.,NA,NA,"",       20.5101,      -11.6487,      -16.8811,   12.2320E-03
C:/temp/dataset/9/5_9.odb,Step-1,Increment      4: Step Time =    1.000,"PART-1-1",           661,          3.75,           -5.,            0.,NA,NA,"",       11.0192,      -8.21828,      -7.34042,   53.7267E-03
C:/temp/dataset/9/5_9.odb,Step-1,Increment      4: Step Time =    1.000,"PART-1-1",           662,       4.69008,      -3.66648,            0.,NA,NA,"",       12.0372,      -9.71879,      -7.10213,   77.6657E-03
C:/temp/dataset/9/5_9.odb,Step-1,Increment      4: Step Time =    1.000,"PART-1-1",           663,       4.69636,       3.71818,            0.,NA,NA,"",       18.3257,      -15.3187,      -10.0583,   38.3993E-03
C:/temp/dataset/9/5_9.odb,Step-1,Increment      4: Step Time =    1.000,"PART-1-1",           664,          3.75,            5.,            0.,NA,NA,"",       19.5616,      -15.9770,      -11.2867,   31.1750E-03
C:/temp/dataset/9/5_9.odb,Step-1,Increment      4: Step Time =    1.000,"PART-1-1",           665,       8.42013,       25.7200,            0.,NA,NA,"",       38.2043,      -34.5156,      -16.3782,   7.09210E-03
C:/temp/dataset/9/5_9.odb,Step-1,Increment      4: Step Time =    1.000,"PART-1-1",           666,       7.55622,       27.1849,            0.,NA,NA,"",       39.5169,      -35.3449,      -17.6726,   9.78756E-03
C:/temp/dataset/9/5_9.odb,Step-1,Increment      4: Step Time =    1.000,"PART-1-1",           667,       6.61388,       26.0906,            0.,NA,NA,"",       38.5196,      -34.0647,      -17.9822,   7.67672E-03
C:/temp/dataset/9/5_9.odb,Step-1,Increment      4: Step Time =    1.000,"PART-1-1",           668,       10.0237,       13.5556,            0.,NA,NA,"",       27.0709,      -25.1998,      -9.88955,   16.1888E-03
C:/temp/dataset/9/5_9.odb,Step-1,Increment      4: Step Time =    1.000,"PART-1-1",           669,       8.80148,       12.2659,            0.,NA,NA,"",       25.7926,      -23.6365,      -10.3235,   14.1631E-03
C:/temp/dataset/9/5_9.odb,Step-1,Increment      4: Step Time =    1.000,"PART-1-1",           670,            5.,          6.25,            0.,NA,NA,"",       20.4297,      -17.3192,      -10.8361,   46.8459E-03
C:/temp/dataset/9/5_9.odb,Step-1,Increment      4: Step Time =    1.000,"PART-1-1",           671,       5.87545,       4.76801,            0.,NA,NA,"",       19.0696,      -16.5117,      -9.54027,   37.9417E-03
C:/temp/dataset/9/5_9.odb,Step-1,Increment      4: Step Time =    1.000,"PART-1-1",           672,       6.93940,       5.78737,            0.,NA,NA,"",       19.8946,      -17.6897,      -9.10326,   19.3223E-03
C:/temp/dataset/9/5_9.odb,Step-1,Increment      4: Step Time =    1.000,"PART-1-1",           673,       7.73520,       4.18036,            0.,NA,NA,"",       18.4781,      -16.7348,      -7.83508,   22.4299E-03
C:/temp/dataset/9/5_9.odb,Step-1,Increment      4: Step Time =    1.000,"PART-1-1",           674,       6.49581,       3.34316,            0.,NA,NA,"",       17.8006,      -15.6494,      -8.48278,   37.9815E-03
C:/temp/dataset/9/5_9.odb,Step-1,Increment      4: Step Time =    1.000,"PART-1-1",           675,       7.18979,       1.82766,            0.,NA,NA,"",       16.4534,      -14.7312,      -7.32855,   39.2948E-03
C:/temp/dataset/9/5_9.odb,Step-1,Increment      4: Step Time =    1.000,"PART-1-1",           676,       8.42918,       2.66485,            0.,NA,NA,"",       17.1639,      -15.8066,      -6.68978,   28.5105E-03
C:/temp/dataset/9/5_9.odb,Step-1,Increment      4: Step Time =    1.000,"PART-1-1",           677,  -530.051E-03,       1.39108,            0.,NA,NA,"",       17.6167,      -11.5302,      -13.3192,   10.8597E-03
C:/temp/dataset/9/5_9.odb,Step-1,Increment      4: Step Time =    1.000,"PART-1-1",           678,      -10.1792,       3.73358,            0.,NA,NA,"",       24.0830,      -9.42261,      -22.1631,   4.30762E-03
C:/temp/dataset/9/5_9.odb,Step-1,Increment      4: Step Time =    1.000,"PART-1-1",           679,      -9.26781,       2.30942,            0.,NA,NA,"",       22.5502,      -8.64976,      -20.8253,   5.41416E-03
C:/temp/dataset/9/5_9.odb,Step-1,Increment      4: Step Time =    1.000,"PART-1-1",           680,      -7.90097,       2.82902,            0.,NA,NA,"",       22.1339,      -9.63682,      -19.9259,   7.45692E-03
C:/temp/dataset/9/5_9.odb,Step-1,Increment      4: Step Time =    1.000,"PART-1-1",           681,      -2.90861,       2.25641,            0.,NA,NA,"",       19.2338,      -11.2495,      -15.6009,   11.5658E-03
C:/temp/dataset/9/5_9.odb,Step-1,Increment      4: Step Time =    1.000,"PART-1-1",           682,      -1.97153,   737.020E-03,            0.,NA,NA,"",       17.6341,      -10.4200,      -14.2262,   10.4218E-03
C:/temp/dataset/9/5_9.odb,Step-1,Increment      4: Step Time =    1.000,"PART-1-1",           683,      -12.0057,       8.33468,            0.,NA,NA,"",       28.4172,      -12.3946,      -25.5717,   2.84285E-03
C:/temp/dataset/9/5_9.odb,Step-1,Increment      4: Step Time =    1.000,"PART-1-1",           684,   257.111E-03,       23.5381,            0.,NA,NA,"",       36.7744,      -29.4581,      -22.0131,   9.11996E-03
C:/temp/dataset/9/5_9.odb,Step-1,Increment      4: Step Time =    1.000,"PART-1-1",           685,       2.92443,       23.5127,            0.,NA,NA,"",       36.3933,      -30.4823,      -19.8823,   10.1684E-03
C:/temp/dataset/9/5_9.odb,Step-1,Increment      4: Step Time =    1.000,"PART-1-1",           686,  -872.814E-03,       24.6452,            0.,NA,NA,"",       37.9427,      -29.9046,      -23.3530,   9.85154E-03
C:/temp/dataset/9/5_9.odb,Step-1,Increment      4: Step Time =    1.000,"PART-1-1",           687,      -2.49287,       25.7554,            0.,NA,NA,"",       39.2270,      -30.1622,      -25.0798,   8.43544E-03
C:/temp/dataset/9/5_9.odb,Step-1,Increment      4: Step Time =    1.000,"PART-1-1",           688,      -6.57000,       23.0679,            0.,NA,NA,"",       37.9581,      -26.4333,      -27.2415,   6.72500E-03
C:/temp/dataset/9/5_9.odb,Step-1,Increment      4: Step Time =    1.000,"PART-1-1",           689,      -7.77911,       22.2181,            0.,NA,NA,"",       37.6260,      -25.2806,      -27.8676,   4.49792E-03
C:/temp/dataset/9/5_9.odb,Step-1,Increment      4: Step Time =    1.000,"PART-1-1",           690,      -6.08757,       21.5970,            0.,NA,NA,"",       36.5779,      -25.4563,      -26.2664,   7.96892E-03
C:/temp/dataset/9/5_9.odb,Step-1,Increment      4: Step Time =    1.000,"PART-1-1",           691,      -10.6596,       24.7502,            0.,NA,NA,"",       40.6953,      -26.1501,      -31.1815,   1.96246E-03
C:/temp/dataset/9/5_9.odb,Step-1,Increment      4: Step Time =    1.000,"PART-1-1",           692,      -8.94190,       25.0911,            0.,NA,NA,"",       40.3896,      -27.1050,      -29.9439,   2.15315E-03
C:/temp/dataset/9/5_9.odb,Step-1,Increment      4: Step Time =    1.000,"PART-1-1",           693,      -9.30563,       26.3338,            0.,NA,NA,"",       41.5386,      -27.9502,      -30.7285,   1.55538E-03
C:/temp/dataset/9/5_9.odb,Step-1,Increment      4: Step Time =    1.000,"PART-1-1",           694,      -11.0233,       25.9928,            0.,NA,NA,"",       41.8398,      -26.9956,      -31.9657,   1.74216E-03
C:/temp/dataset/9/5_9.odb,Step-1,Increment      4: Step Time =    1.000,"PART-1-1",           695,      -9.11986,       17.2561,            0.,NA,NA,"",       34.0170,      -20.7774,      -26.9342,   4.66352E-03
C:/temp/dataset/9/5_9.odb,Step-1,Increment      4: Step Time =    1.000,"PART-1-1",           696,      -11.0116,       7.65423,            0.,NA,NA,"",       27.3767,      -12.2536,      -24.4812,   3.59253E-03
C:/temp/dataset/9/5_9.odb,Step-1,Increment      4: Step Time =    1.000,"PART-1-1",           697,      -11.6541,       6.30856,            0.,NA,NA,"",       26.7593,      -10.8974,      -24.4398,   3.18849E-03
C:/temp/dataset/9/5_9.odb,Step-1,Increment      4: Step Time =    1.000,"PART-1-1",           698,      -3.46647,   792.949E-03,            0.,NA,NA,"",       18.3314,      -9.84601,      -15.4628,   10.2301E-03
C:/temp/dataset/9/5_9.odb,Step-1,Increment      4: Step Time =    1.000,"PART-1-1",           699,      -4.27899,       1.61468,            0.,NA,NA,"",       19.3464,      -10.1676,      -16.4591,   10.6921E-03
C:/temp/dataset/9/5_9.odb,Step-1,Increment      4: Step Time =    1.000,"PART-1-1",           700,      -5.41602,       1.03976,            0.,NA,NA,"",       19.4792,      -9.23182,      -17.1527,   9.55114E-03
C:/temp/dataset/9/5_9.odb,Step-1,Increment      4: Step Time =    1.000,"PART-1-1",           701,      -4.60351,   218.037E-03,            0.,NA,NA,"",       18.4491,      -8.91031,      -16.1548,   9.35601E-03
C:/temp/dataset/9/5_9.odb,Step-1,Increment      4: Step Time =    1.000,"PART-1-1",           702,      -1.96165,  -510.209E-03,            0.,NA,NA,"",       16.6443,      -9.42519,      -13.7186,   9.62388E-03
C:/temp/dataset/9/5_9.odb,Step-1,Increment      4: Step Time =    1.000,"PART-1-1",           703,      -2.89723,      -2.02996,            0.,NA,NA,"",       15.9120,      -7.81271,      -13.8620,   9.02860E-03
C:/temp/dataset/9/5_9.odb,Step-1,Increment      4: Step Time =    1.000,"PART-1-1",           704,       6.46823,      -3.22891,            0.,NA,NA,"",       12.1724,      -10.6686,      -5.86060,   61.0542E-03
C:/temp/dataset/9/5_9.odb,Step-1,Increment      4: Step Time =    1.000,"PART-1-1",           705,       5.30305,      -2.18626,            0.,NA,NA,"",       13.1838,      -11.0410,      -7.20481,   49.4739E-03
C:/temp/dataset/9/5_9.odb,Step-1,Increment      4: Step Time =    1.000,"PART-1-1",           706,       8.11637,      -13.0290,            0.,NA,NA,"",       5.21577,      -4.86769,      -1.87345,   52.9391E-03
C:/temp/dataset/9/5_9.odb,Step-1,Increment      4: Step Time =    1.000,"PART-1-1",           707,       8.09759,      -10.8135,            0.,NA,NA,"",       6.55280,      -6.10426,      -2.38269,   50.8687E-03
C:/temp/dataset/9/5_9.odb,Step-1,Increment      4: Step Time =    1.000,"PART-1-1",           708,           15.,        -26.25,            0.,NA,NA,"",   875.359E-03,  -545.177E-03,   684.861E-03,   207.984E-03
C:/temp/dataset/9/5_9.odb,Step-1,Increment      4: Step Time =    1.000,"PART-1-1",           709,       13.6129,      -24.9005,            0.,NA,NA,"",   955.114E-03,  -691.043E-03,   659.320E-03,   155.970E-03
C:/temp/dataset/9/5_9.odb,Step-1,Increment      4: Step Time =    1.000,"PART-1-1",           710,       12.3352,      -26.1538,            0.,NA,NA,"",   482.972E-03,  -350.301E-03,   332.492E-03,   111.079E-03
C:/temp/dataset/9/5_9.odb,Step-1,Increment      4: Step Time =    1.000,"PART-1-1",           711,       11.5115,      -24.0900,            0.,NA,NA,"",   792.012E-03,  -721.076E-03,   327.616E-03,   77.8829E-03
C:/temp/dataset/9/5_9.odb,Step-1,Increment      4: Step Time =    1.000,"PART-1-1",           712,       12.5793,      -23.4990,            0.,NA,NA,"",       1.11564,  -950.301E-03,   584.452E-03,   115.661E-03
C:/temp/dataset/9/5_9.odb,Step-1,Increment      4: Step Time =    1.000,"PART-1-1",           713,       11.9958,      -21.9645,            0.,NA,NA,"",       1.45277,      -1.35677,   519.322E-03,   91.5448E-03
C:/temp/dataset/9/5_9.odb,Step-1,Increment      4: Step Time =    1.000,"PART-1-1",           714,           15.,        -23.75,            0.,NA,NA,"",       1.55069,      -1.10931,       1.08354,   202.657E-03
C:/temp/dataset/9/5_9.odb,Step-1,Increment      4: Step Time =    1.000,"PART-1-1",           715,       11.0775,      -9.24199,            0.,NA,NA,"",       7.76936,      -7.71269,  -936.706E-03,   46.9274E-03
C:/temp/dataset/9/5_9.odb,Step-1,Increment      4: Step Time =    1.000,"PART-1-1",           716,       10.0590,      -8.23408,            0.,NA,NA,"",       8.33790,      -8.14294,      -1.79254,   26.3857E-03
C:/temp/dataset/9/5_9.odb,Step-1,Increment      4: Step Time =    1.000,"PART-1-1",           717,       9.08966,      -9.54059,            0.,NA,NA,"",       7.37121,      -7.07044,      -2.08414,   24.2553E-03
C:/temp/dataset/9/5_9.odb,Step-1,Increment      4: Step Time =    1.000,"PART-1-1",           718,           15.,         -1.25,            0.,NA,NA,"",       15.0139,      -15.0100,  -341.826E-03,   85.6279E-03
C:/temp/dataset/9/5_9.odb,Step-1,Increment      4: Step Time =    1.000,"PART-1-1",           719,       12.7047,      -1.36075,            0.,NA,NA,"",       14.2332,      -14.0948,      -1.97996,   57.7776E-03
C:/temp/dataset/9/5_9.odb,Step-1,Increment      4: Step Time =    1.000,"PART-1-1",           720,       10.4122,      -1.52824,            0.,NA,NA,"",       13.6803,      -13.2019,      -3.58599,   41.7894E-03
C:/temp/dataset/9/5_9.odb,Step-1,Increment      4: Step Time =    1.000,"PART-1-1",           721,       11.7321,      -2.88547,            0.,NA,NA,"",       12.7492,      -12.5616,      -2.17856,   54.9398E-03
C:/temp/dataset/9/5_9.odb,Step-1,Increment      4: Step Time =    1.000,"PART-1-1",           722,       13.0447,       6.32641,            0.,NA,NA,"",       20.9671,      -20.4752,      -4.51491,   29.1760E-03
C:/temp/dataset/9/5_9.odb,Step-1,Increment      4: Step Time =    1.000,"PART-1-1",           723,           15.,          6.25,            0.,NA,NA,"",       21.4080,      -21.2035,      -2.95161,   41.1201E-03
C:/temp/dataset/9/5_9.odb,Step-1,Increment      4: Step Time =    1.000,"PART-1-1",           724,       12.2773,       7.44357,            0.,NA,NA,"",       21.8054,      -21.0857,      -5.55589,   23.0735E-03
C:/temp/dataset/9/5_9.odb,Step-1,Increment      4: Step Time =    1.000,"PART-1-1",           725,       11.3989,       9.46443,            0.,NA,NA,"",       23.4805,      -22.3919,      -7.06668,   18.0745E-03
C:/temp/dataset/9/5_9.odb,Step-1,Increment      4: Step Time =    1.000,"PART-1-1",           726,       10.0696,       10.6576,            0.,NA,NA,"",       24.4075,      -22.8338,      -8.62236,   16.5148E-03
C:/temp/dataset/9/5_9.odb,Step-1,Increment      4: Step Time =    1.000,"PART-1-1",           727,       11.2733,       12.2896,            0.,NA,NA,"",       26.0426,      -24.6696,      -8.34409,   16.3514E-03
C:/temp/dataset/9/5_9.odb,Step-1,Increment      4: Step Time =    1.000,"PART-1-1",           728,       11.2495,       14.9235,            0.,NA,NA,"",       28.4658,      -26.8388,      -9.48601,   14.7962E-03
C:/temp/dataset/9/5_9.odb,Step-1,Increment      4: Step Time =    1.000,"PART-1-1",           729,       11.2365,       17.4638,            0.,NA,NA,"",       30.8122,      -28.9345,      -10.5917,   12.4663E-03
C:/temp/dataset/9/5_9.odb,Step-1,Increment      4: Step Time =    1.000,"PART-1-1",           730,       9.96430,       18.6935,            0.,NA,NA,"",       31.8320,      -29.4182,      -12.1592,   12.8839E-03
C:/temp/dataset/9/5_9.odb,Step-1,Increment      4: Step Time =    1.000,"PART-1-1",           731,       8.12949,      -15.2371,            0.,NA,NA,"",       4.01418,      -3.74620,      -1.44210,   54.4259E-03
C:/temp/dataset/9/5_9.odb,Step-1,Increment      4: Step Time =    1.000,"PART-1-1",           732,       10.9896,      -6.85237,            0.,NA,NA,"",       9.47096,      -9.34508,      -1.53904,   47.8273E-03
C:/temp/dataset/9/5_9.odb,Step-1,Increment      4: Step Time =    1.000,"PART-1-1",           733,       10.9332,      -25.1906,            0.,NA,NA,"",   483.941E-03,  -447.815E-03,   183.468E-03,   58.1867E-03
C:/temp/dataset/9/5_9.odb,Step-1,Increment      4: Step Time =    1.000,"PART-1-1",           734,       11.9281,      -5.46067,            0.,NA,NA,"",       10.7140,      -10.6367,      -1.28458,   64.0883E-03
C:/temp/dataset/9/5_9.odb,Step-1,Increment      4: Step Time =    1.000,"PART-1-1",           735,      -11.5697,       3.18107,            0.,NA,NA,"",       24.5456,      -8.39887,      -23.0639,   3.16182E-03
C:/temp/dataset/9/5_9.odb,Step-1,Increment      4: Step Time =    1.000,"PART-1-1",           736,      -10.7341,       2.09613,            0.,NA,NA,"",       23.3000,      -7.86804,      -21.9314,   3.70321E-03
C:/temp/dataset/9/5_9.odb,Step-1,Increment      4: Step Time =    1.000,"PART-1-1",           737,      -6.76822,       1.80268,            0.,NA,NA,"",       20.7623,      -9.28141,      -18.5723,   8.82842E-03
C:/temp/dataset/9/5_9.odb,Step-1,Increment      4: Step Time =    1.000,"PART-1-1",           738,      -5.32511,       2.65016,            0.,NA,NA,"",       20.6477,      -10.5639,      -17.7407,   11.1401E-03
C:/temp/dataset/9/5_9.odb,Step-1,Increment      4: Step Time =    1.000,"PART-1-1",           739,      -6.45786,       3.67650,            0.,NA,NA,"",       21.9994,      -10.9187,      -19.0985,   10.6896E-03
C:/temp/dataset/9/5_9.odb,Step-1,Increment      4: Step Time =    1.000,"PART-1-1",           740,      -10.1618,       27.4009,            0.,NA,NA,"",       42.7027,      -28.4603,      -31.8360,   1.52454E-03
C:/temp/dataset/9/5_9.odb,Step-1,Increment      4: Step Time =    1.000,"PART-1-1",           741,      -8.15950,       27.0742,            0.,NA,NA,"",       41.7984,      -28.9936,      -30.1077,   1.55570E-03
C:/temp/dataset/9/5_9.odb,Step-1,Increment      4: Step Time =    1.000,"PART-1-1",           742,      -8.41457,       23.7439,            0.,NA,NA,"",       39.0999,      -26.2420,      -28.9856,   3.44375E-03
C:/temp/dataset/9/5_9.odb,Step-1,Increment      4: Step Time =    1.000,"PART-1-1",           743,      -9.76606,       23.0282,            0.,NA,NA,"",       38.9698,      -25.1342,      -29.7812,   2.38129E-03
C:/temp/dataset/9/5_9.odb,Step-1,Increment      4: Step Time =    1.000,"PART-1-1",           744,      -10.1457,       6.57799,            0.,NA,NA,"",       26.1150,      -11.7393,      -23.3277,   4.31369E-03
C:/temp/dataset/9/5_9.odb,Step-1,Increment      4: Step Time =    1.000,"PART-1-1",           745,      -11.1466,       5.19230,            0.,NA,NA,"",       25.6748,      -10.2028,      -23.5605,   3.56300E-03
C:/temp/dataset/9/5_9.odb,Step-1,Increment      4: Step Time =    1.000,"PART-1-1",           746,       7.77017,   782.991E-03,            0.,NA,NA,"",       15.5331,      -14.1269,      -6.45813,   40.3538E-03
C:/temp/dataset/9/5_9.odb,Step-1,Increment      4: Step Time =    1.000,"PART-1-1",           747,       6.09501,       1.10589,            0.,NA,NA,"",       15.9061,      -13.8048,      -7.90132,   43.4323E-03
C:/temp/dataset/9/5_9.odb,Step-1,Increment      4: Step Time =    1.000,"PART-1-1",           748,       6.67539,   61.2235E-03,            0.,NA,NA,"",       14.9591,      -13.2075,      -7.02397,   43.7104E-03
C:/temp/dataset/9/5_9.odb,Step-1,Increment      4: Step Time =    1.000,"PART-1-1",           749,       5.31672,       2.29333,            0.,NA,NA,"",       17.0148,      -14.4426,      -8.99537,   41.0706E-03
C:/temp/dataset/9/5_9.odb,Step-1,Increment      4: Step Time =    1.000,"PART-1-1",           750,      -6.94695,       24.4689,            0.,NA,NA,"",       39.2485,      -27.3984,      -28.1029,   4.47776E-03
C:/temp/dataset/9/5_9.odb,Step-1,Increment      4: Step Time =    1.000,"PART-1-1",           751,      -2.09966,       23.3616,            0.,NA,NA,"",       37.0620,      -28.4019,      -23.8102,   9.11863E-03
C:/temp/dataset/9/5_9.odb,Step-1,Increment      4: Step Time =    1.000,"PART-1-1",           752,      -2.87591,       24.2478,            0.,NA,NA,"",       37.9997,      -28.8088,      -24.7796,   9.45721E-03
C:/temp/dataset/9/5_9.odb,Step-1,Increment      4: Step Time =    1.000,"PART-1-1",           753,       9.53974,       23.7363,            0.,NA,NA,"",       36.4451,      -33.3700,      -14.6522,   2.99961E-03
C:/temp/dataset/9/5_9.odb,Step-1,Increment      4: Step Time =    1.000,"PART-1-1",           754,      -5.22075,      -2.25347,            0.,NA,NA,"",       17.0065,      -6.65911,      -15.6486,   7.29290E-03
C:/temp/dataset/9/5_9.odb,Step-1,Increment      4: Step Time =    1.000,"PART-1-1",           755,      -7.55915,      -2.11026,            0.,NA,NA,"",       18.5333,      -5.79382,      -17.6045,   5.27407E-03
C:/temp/dataset/9/5_9.odb,Step-1,Increment      4: Step Time =    1.000,"PART-1-1",           756,      -4.20325,      -1.24540,            0.,NA,NA,"",       17.1612,      -7.89933,      -15.2351,   8.58265E-03
C:/temp/dataset/9/5_9.odb,Step-1,Increment      4: Step Time =    1.000,"PART-1-1",           757,       12.0426,       5.30937,            0.,NA,NA,"",       19.8642,      -19.2490,      -4.90522,   24.6861E-03
C:/temp/dataset/9/5_9.odb,Step-1,Increment      4: Step Time =    1.000,"PART-1-1",           758,      -8.17645,       12.8481,            0.,NA,NA,"",       30.0553,      -17.6173,      -24.3506,   6.34062E-03
C:/temp/dataset/9/5_9.odb,Step-1,Increment      4: Step Time =    1.000,"PART-1-1",           759,      -8.09554,       10.3784,            0.,NA,NA,"",       28.0360,      -15.6597,      -23.2550,   5.80200E-03
C:/temp/dataset/9/5_9.odb,Step-1,Increment      4: Step Time =    1.000,"PART-1-1",           760,      -8.33007,       15.6293,            0.,NA,NA,"",       32.3804,      -19.7910,      -25.6282,   6.59176E-03
C:/temp/dataset/9/5_9.odb,Step-1,Increment      4: Step Time =    1.000,"PART-1-1",           761,       12.1122,      -19.7356,            0.,NA,NA,"",       2.25327,      -2.17312,   595.632E-03,   91.3777E-03
C:/temp/dataset/9/5_9.odb,Step-1,Increment      4: Step Time =    1.000,"PART-1-1",           762,       12.1388,      -17.4254,            0.,NA,NA,"",       3.23802,      -3.18674,   574.027E-03,   87.7805E-03
C:/temp/dataset/9/5_9.odb,Step-1,Increment      4: Step Time =    1.000,"PART-1-1",           763,       12.0361,      -7.90801,            0.,NA,NA,"",       8.89502,      -8.87301,  -625.435E-03,   68.8436E-03
C:/temp/dataset/9/5_9.odb,Step-1,Increment      4: Step Time =    1.000,"PART-1-1",           764,       12.0837,      -10.3075,            0.,NA,NA,"",       7.24267,      -7.24128,  -142.371E-03,   72.8124E-03
C:/temp/dataset/9/5_9.odb,Step-1,Increment      4: Step Time =    1.000,"PART-1-1",           765,       12.1118,      -12.6921,            0.,NA,NA,"",       5.74524,      -5.74139,   210.148E-03,   77.6446E-03
C:/temp/dataset/9/5_9.odb,Step-1,Increment      4: Step Time =    1.000,"PART-1-1",           766,       12.1357,      -15.0700,            0.,NA,NA,"",       4.40625,      -4.38330,   449.176E-03,   83.0196E-03
C:/temp/dataset/9/5_9.odb,Step-1,Increment      4: Step Time =    1.000,"PART-1-1",           767,      -8.71328,  -792.246E-03,            0.,NA,NA,"",       20.1237,      -6.37622,      -19.0868,   5.06536E-03
C:/temp/dataset/9/5_9.odb,Step-1,Increment      4: Step Time =    1.000,"PART-1-1",           768,      -7.47429,       25.8162,            0.,NA,NA,"",       40.5378,      -28.2626,      -29.0609,   2.98750E-03
C:/temp/dataset/9/5_9.odb,Step-1,Increment      4: Step Time =    1.000,"PART-1-1",           769,       9.13729,   756.201E-03,            0.,NA,NA,"",       15.5329,      -14.5660,      -5.39453,   33.1903E-03
C:/temp/dataset/9/5_9.odb,Step-1,Increment      4: Step Time =    1.000,"PART-1-1",           770,       7.76646,  -679.521E-03,            0.,NA,NA,"",       14.2738,      -13.0059,      -5.88115,   45.6769E-03
C:/temp/dataset/9/5_9.odb,Step-1,Increment      4: Step Time =    1.000,"PART-1-1",           771,       9.13358,  -706.311E-03,            0.,NA,NA,"",       14.2726,      -13.4287,      -4.83504,   40.5967E-03
C:/temp/dataset/9/5_9.odb,Step-1,Increment      4: Step Time =    1.000,"PART-1-1",           772,       7.17869,      -1.72980,            0.,NA,NA,"",       13.3945,      -12.0174,      -5.91570,   51.4708E-03
C:/temp/dataset/9/5_9.odb,Step-1,Increment      4: Step Time =    1.000,"PART-1-1",           773,       6.08762,  -989.051E-03,            0.,NA,NA,"",       14.1075,      -12.2121,      -7.06305,   50.0884E-03
C:/temp/dataset/9/5_9.odb,Step-1,Increment      4: Step Time =    1.000,"PART-1-1",           774,       8.06590,       24.5744,            0.,NA,NA,"",       37.1506,      -33.4360,      -16.1926,   5.09585E-03
C:/temp/dataset/9/5_9.odb,Step-1,Increment      4: Step Time =    1.000,"PART-1-1",           775,       7.69641,      -4.07963,            0.,NA,NA,"",       11.4046,      -10.4230,      -4.62882,   49.2218E-03
C:/temp/dataset/9/5_9.odb,Step-1,Increment      4: Step Time =    1.000,"PART-1-1",           776,       8.40687,      -2.58051,            0.,NA,NA,"",       12.6518,      -11.7599,      -4.66612,   46.7721E-03
C:/temp/dataset/9/5_9.odb,Step-1,Increment      4: Step Time =    1.000,"PART-1-1",           777,      -9.00797,   684.990E-03,            0.,NA,NA,"",       21.2833,      -7.44642,      -19.9382,   5.38264E-03
C:/temp/dataset/9/5_9.odb,Step-1,Increment      4: Step Time =    1.000,"PART-1-1",           778,       5.05143,   63.4436E-03,            0.,NA,NA,"",       15.1322,      -12.6460,      -8.31033,   37.6732E-03
C:/temp/dataset/9/5_9.odb,Step-1,Increment      4: Step Time =    1.000,"PART-1-1",           779,      -3.45659,  -454.281E-03,            0.,NA,NA,"",       17.3727,      -8.84820,      -14.9506,   9.28701E-03
C:/temp/dataset/9/5_9.odb,Step-1,Increment      4: Step Time =    1.000,"PART-1-1",           780,      -7.58605,   993.377E-03,            0.,NA,NA,"",       20.6429,      -8.28849,      -18.9058,   7.05165E-03
