ODB Name,Step,Frame,Part Instance Name,    êﬂì_ÉâÉxÉã,X,Y,Z,Section Name,Material Name,Section Point,   U-Magnitude,          U-U1,          U-U2,       S-Mises
C:/temp/dataset/9/9_2.odb,Step-1,Increment      1: Step Time =    1.000,"PART-1-1",             1,            5.,           20.,            0.,NA,NA,"",       2.43037,      -2.40635,  -340.865E-03,   52.9726E-06
C:/temp/dataset/9/9_2.odb,Step-1,Increment      1: Step Time =    1.000,"PART-1-1",             2,            0.,           20.,            0.,NA,NA,"",       2.47808,      -2.39841,  -623.302E-03,   17.0191E-06
C:/temp/dataset/9/9_2.odb,Step-1,Increment      1: Step Time =    1.000,"PART-1-1",             3,            5.,          12.5,            0.,NA,NA,"",       2.01043,      -1.98342,  -328.442E-03,   81.7224E-06
C:/temp/dataset/9/9_2.odb,Step-1,Increment      1: Step Time =    1.000,"PART-1-1",             4,            5.,            5.,            0.,NA,NA,"",       1.59297,      -1.56128,  -316.152E-03,   74.5283E-06
C:/temp/dataset/9/9_2.odb,Step-1,Increment      1: Step Time =    1.000,"PART-1-1",             5,            0.,            5.,            0.,NA,NA,"",       1.66481,      -1.55332,  -599.006E-03,   62.1727E-06
C:/temp/dataset/9/9_2.odb,Step-1,Increment      1: Step Time =    1.000,"PART-1-1",             6,           -5.,            5.,            0.,NA,NA,"",       1.77885,      -1.54490,  -881.805E-03,   110.951E-06
C:/temp/dataset/9/9_2.odb,Step-1,Increment      1: Step Time =    1.000,"PART-1-1",             7,           -5.,          12.5,            0.,NA,NA,"",       2.16124,      -1.96773,  -893.868E-03,   2.43571E-06
C:/temp/dataset/9/9_2.odb,Step-1,Increment      1: Step Time =    1.000,"PART-1-1",             8,           -5.,           20.,            0.,NA,NA,"",       2.55638,      -2.39057,  -905.692E-03,   63.9711E-06
C:/temp/dataset/9/9_2.odb,Step-1,Increment      1: Step Time =    1.000,"PART-1-1",             9,           15.,           30.,            0.,NA,NA,"",       2.99398,      -2.98678,   207.526E-03,   626.495E-09
C:/temp/dataset/9/9_2.odb,Step-1,Increment      1: Step Time =    1.000,"PART-1-1",            10,           7.5,           30.,            0.,NA,NA,"",       2.98267,      -2.97485,  -215.817E-03,   13.8244E-06
C:/temp/dataset/9/9_2.odb,Step-1,Increment      1: Step Time =    1.000,"PART-1-1",            11,            0.,           30.,            0.,NA,NA,"",       3.03113,      -2.96295,  -639.278E-03,   2.14747E-06
C:/temp/dataset/9/9_2.odb,Step-1,Increment      1: Step Time =    1.000,"PART-1-1",            12,          -7.5,           30.,            0.,NA,NA,"",       3.13642,      -2.95092,      -1.06265,   13.4047E-06
C:/temp/dataset/9/9_2.odb,Step-1,Increment      1: Step Time =    1.000,"PART-1-1",            13,          -15.,           30.,            0.,NA,NA,"",       3.29318,      -2.93893,      -1.48583,   445.054E-09
C:/temp/dataset/9/9_2.odb,Step-1,Increment      1: Step Time =    1.000,"PART-1-1",            14,          -15.,         21.25,            0.,NA,NA,"",       2.85403,      -2.44523,      -1.47185,   13.2699E-06
C:/temp/dataset/9/9_2.odb,Step-1,Increment      1: Step Time =    1.000,"PART-1-1",            15,          -15.,          12.5,            0.,NA,NA,"",       2.43617,      -1.95179,      -1.45790,   14.8368E-06
C:/temp/dataset/9/9_2.odb,Step-1,Increment      1: Step Time =    1.000,"PART-1-1",            16,          -15.,          3.75,            0.,NA,NA,"",       2.05232,      -1.45817,      -1.44422,   38.3661E-06
C:/temp/dataset/9/9_2.odb,Step-1,Increment      1: Step Time =    1.000,"PART-1-1",            17,          -15.,           -5.,            0.,NA,NA,"",       1.72495,  -964.087E-03,      -1.43038,   1.18830E-06
C:/temp/dataset/9/9_2.odb,Step-1,Increment      1: Step Time =    1.000,"PART-1-1",            18,          -10.,           -5.,            0.,NA,NA,"",       1.50432,  -972.039E-03,      -1.14809,   19.2088E-06
C:/temp/dataset/9/9_2.odb,Step-1,Increment      1: Step Time =    1.000,"PART-1-1",            19,           -5.,           -5.,            0.,NA,NA,"",       1.30752,  -979.832E-03,  -865.756E-03,   63.0782E-06
C:/temp/dataset/9/9_2.odb,Step-1,Increment      1: Step Time =    1.000,"PART-1-1",            20,            0.,           -5.,            0.,NA,NA,"",       1.14672,  -987.394E-03,  -583.121E-03,   145.830E-06
C:/temp/dataset/9/9_2.odb,Step-1,Increment      1: Step Time =    1.000,"PART-1-1",            21,            5.,           -5.,            0.,NA,NA,"",       1.03774,  -993.847E-03,  -298.600E-03,   1.02847E-03
C:/temp/dataset/9/9_2.odb,Step-1,Increment      1: Step Time =    1.000,"PART-1-1",            22,            5.,        -11.25,            0.,NA,NA,"",   694.366E-03,  -641.012E-03,  -266.921E-03,   6.57662E-03
C:/temp/dataset/9/9_2.odb,Step-1,Increment      1: Step Time =    1.000,"PART-1-1",            23,            5.,         -17.5,            0.,NA,NA,"",   392.182E-03,  -333.713E-03,  -206.016E-03,   12.3369E-03
C:/temp/dataset/9/9_2.odb,Step-1,Increment      1: Step Time =    1.000,"PART-1-1",            24,            5.,        -23.75,            0.,NA,NA,"",   162.900E-03,  -113.394E-03,  -116.954E-03,   17.9707E-03
C:/temp/dataset/9/9_2.odb,Step-1,Increment      1: Step Time =    1.000,"PART-1-1",            25,            5.,          -30.,            0.,NA,NA,"",            0.,  -7.24587E-39,  -13.8174E-39,   27.1908E-03
C:/temp/dataset/9/9_2.odb,Step-1,Increment      1: Step Time =    1.000,"PART-1-1",            26,           15.,          -30.,            0.,NA,NA,"",            0.,  -8.05193E-39,   14.3739E-39,   27.1294E-03
C:/temp/dataset/9/9_2.odb,Step-1,Increment      1: Step Time =    1.000,"PART-1-1",            27,           15.,         -22.5,            0.,NA,NA,"",   203.720E-03,  -152.993E-03,   134.518E-03,   16.9356E-03
C:/temp/dataset/9/9_2.odb,Step-1,Increment      1: Step Time =    1.000,"PART-1-1",            28,           15.,          -15.,            0.,NA,NA,"",   508.615E-03,  -458.788E-03,   219.551E-03,   10.1922E-03
C:/temp/dataset/9/9_2.odb,Step-1,Increment      1: Step Time =    1.000,"PART-1-1",            29,           15.,          -7.5,            0.,NA,NA,"",   906.315E-03,  -869.499E-03,   255.693E-03,   3.81199E-03
C:/temp/dataset/9/9_2.odb,Step-1,Increment      1: Step Time =    1.000,"PART-1-1",            30,           15.,            0.,            0.,NA,NA,"",       1.32365,      -1.29952,   251.594E-03,   1.12523E-03
C:/temp/dataset/9/9_2.odb,Step-1,Increment      1: Step Time =    1.000,"PART-1-1",            31,           15.,           7.5,            0.,NA,NA,"",       1.73463,      -1.71761,   242.449E-03,   136.881E-06
C:/temp/dataset/9/9_2.odb,Step-1,Increment      1: Step Time =    1.000,"PART-1-1",            32,           15.,           15.,            0.,NA,NA,"",       2.15264,      -2.14020,   231.111E-03,   59.8113E-06
C:/temp/dataset/9/9_2.odb,Step-1,Increment      1: Step Time =    1.000,"PART-1-1",            33,           15.,          22.5,            0.,NA,NA,"",       2.57277,      -2.56339,   219.442E-03,   21.4366E-06
C:/temp/dataset/9/9_2.odb,Step-1,Increment      1: Step Time =    1.000,"PART-1-1",            34,           2.5,           20.,            0.,NA,NA,"",       2.45026,      -2.40236,  -482.112E-03,   15.3951E-06
C:/temp/dataset/9/9_2.odb,Step-1,Increment      1: Step Time =    1.000,"PART-1-1",            35,            5.,           15.,            0.,NA,NA,"",       2.15020,      -2.12433,  -332.591E-03,   73.0504E-06
C:/temp/dataset/9/9_2.odb,Step-1,Increment      1: Step Time =    1.000,"PART-1-1",            36,            5.,          17.5,            0.,NA,NA,"",       2.29020,      -2.26531,  -336.722E-03,   67.0638E-06
C:/temp/dataset/9/9_2.odb,Step-1,Increment      1: Step Time =    1.000,"PART-1-1",            37,            5.,           7.5,            0.,NA,NA,"",       1.73177,      -1.70192,  -320.148E-03,   54.3730E-06
C:/temp/dataset/9/9_2.odb,Step-1,Increment      1: Step Time =    1.000,"PART-1-1",            38,            5.,           10.,            0.,NA,NA,"",       1.87093,      -1.84261,  -324.285E-03,   82.4488E-06
C:/temp/dataset/9/9_2.odb,Step-1,Increment      1: Step Time =    1.000,"PART-1-1",            39,           2.5,            5.,            0.,NA,NA,"",       1.62323,      -1.55741,  -457.528E-03,   6.60926E-06
C:/temp/dataset/9/9_2.odb,Step-1,Increment      1: Step Time =    1.000,"PART-1-1",            40,          -2.5,            5.,            0.,NA,NA,"",       1.71700,      -1.54915,  -740.435E-03,   93.4366E-06
C:/temp/dataset/9/9_2.odb,Step-1,Increment      1: Step Time =    1.000,"PART-1-1",            41,           -5.,           10.,            0.,NA,NA,"",       2.03198,      -1.82676,  -889.876E-03,   9.63028E-06
C:/temp/dataset/9/9_2.odb,Step-1,Increment      1: Step Time =    1.000,"PART-1-1",            42,           -5.,           7.5,            0.,NA,NA,"",       1.90437,      -1.68579,  -885.868E-03,   29.9703E-06
C:/temp/dataset/9/9_2.odb,Step-1,Increment      1: Step Time =    1.000,"PART-1-1",            43,           -5.,          17.5,            0.,NA,NA,"",       2.42366,      -2.24965,  -901.795E-03,   25.3756E-06
C:/temp/dataset/9/9_2.odb,Step-1,Increment      1: Step Time =    1.000,"PART-1-1",            44,           -5.,           15.,            0.,NA,NA,"",       2.29188,      -2.10869,  -897.840E-03,   7.04797E-06
C:/temp/dataset/9/9_2.odb,Step-1,Increment      1: Step Time =    1.000,"PART-1-1",            45,          -2.5,           20.,            0.,NA,NA,"",       2.51354,      -2.39446,  -764.481E-03,   28.2473E-06
C:/temp/dataset/9/9_2.odb,Step-1,Increment      1: Step Time =    1.000,"PART-1-1",            46,          12.5,           30.,            0.,NA,NA,"",       2.98353,      -2.98279,   66.4098E-03,   1.55734E-06
C:/temp/dataset/9/9_2.odb,Step-1,Increment      1: Step Time =    1.000,"PART-1-1",            47,           10.,           30.,            0.,NA,NA,"",       2.97975,      -2.97881,  -74.6999E-03,   8.08625E-06
C:/temp/dataset/9/9_2.odb,Step-1,Increment      1: Step Time =    1.000,"PART-1-1",            48,            5.,           30.,            0.,NA,NA,"",       2.99227,      -2.97090,  -356.955E-03,   13.6264E-06
C:/temp/dataset/9/9_2.odb,Step-1,Increment      1: Step Time =    1.000,"PART-1-1",            49,           2.5,           30.,            0.,NA,NA,"",       3.00846,      -2.96694,  -498.114E-03,   7.28060E-06
C:/temp/dataset/9/9_2.odb,Step-1,Increment      1: Step Time =    1.000,"PART-1-1",            50,          -2.5,           30.,            0.,NA,NA,"",       3.06014,      -2.95895,  -780.431E-03,   9.93356E-06
C:/temp/dataset/9/9_2.odb,Step-1,Increment      1: Step Time =    1.000,"PART-1-1",            51,           -5.,           30.,            0.,NA,NA,"",       3.09530,      -2.95494,  -921.558E-03,   14.6531E-06
C:/temp/dataset/9/9_2.odb,Step-1,Increment      1: Step Time =    1.000,"PART-1-1",            52,          -10.,           30.,            0.,NA,NA,"",       3.18327,      -2.94691,      -1.20372,   7.87487E-06
C:/temp/dataset/9/9_2.odb,Step-1,Increment      1: Step Time =    1.000,"PART-1-1",            53,         -12.5,           30.,            0.,NA,NA,"",       3.23561,      -2.94292,      -1.34477,   1.82276E-06
C:/temp/dataset/9/9_2.odb,Step-1,Increment      1: Step Time =    1.000,"PART-1-1",            54,          -15.,       27.8125,            0.,NA,NA,"",       3.18189,      -2.81550,      -1.48235,   1.45334E-06
C:/temp/dataset/9/9_2.odb,Step-1,Increment      1: Step Time =    1.000,"PART-1-1",            55,          -15.,        25.625,            0.,NA,NA,"",       3.07152,      -2.69207,      -1.47886,   6.25712E-06
C:/temp/dataset/9/9_2.odb,Step-1,Increment      1: Step Time =    1.000,"PART-1-1",            56,          -15.,       23.4375,            0.,NA,NA,"",       2.96219,      -2.56864,      -1.47535,   11.0880E-06
C:/temp/dataset/9/9_2.odb,Step-1,Increment      1: Step Time =    1.000,"PART-1-1",            57,          -15.,       19.0625,            0.,NA,NA,"",       2.74718,      -2.32185,      -1.46834,   11.1146E-06
C:/temp/dataset/9/9_2.odb,Step-1,Increment      1: Step Time =    1.000,"PART-1-1",            58,          -15.,        16.875,            0.,NA,NA,"",       2.64180,      -2.19848,      -1.46484,   4.60598E-06
C:/temp/dataset/9/9_2.odb,Step-1,Increment      1: Step Time =    1.000,"PART-1-1",            59,          -15.,       14.6875,            0.,NA,NA,"",       2.53806,      -2.07513,      -1.46136,   4.61055E-06
C:/temp/dataset/9/9_2.odb,Step-1,Increment      1: Step Time =    1.000,"PART-1-1",            60,          -15.,       10.3125,            0.,NA,NA,"",       2.33636,      -1.82843,      -1.45446,   25.3255E-06
C:/temp/dataset/9/9_2.odb,Step-1,Increment      1: Step Time =    1.000,"PART-1-1",            61,          -15.,         8.125,            0.,NA,NA,"",       2.23890,      -1.70505,      -1.45103,   34.8851E-06
C:/temp/dataset/9/9_2.odb,Step-1,Increment      1: Step Time =    1.000,"PART-1-1",            62,          -15.,        5.9375,            0.,NA,NA,"",       2.14410,      -1.58163,      -1.44763,   39.6613E-06
C:/temp/dataset/9/9_2.odb,Step-1,Increment      1: Step Time =    1.000,"PART-1-1",            63,          -15.,        1.5625,            0.,NA,NA,"",       1.96398,      -1.33467,      -1.44080,   28.5595E-06
C:/temp/dataset/9/9_2.odb,Step-1,Increment      1: Step Time =    1.000,"PART-1-1",            64,          -15.,     -625.E-03,            0.,NA,NA,"",       1.87958,      -1.21114,      -1.43735,   14.0649E-06
C:/temp/dataset/9/9_2.odb,Step-1,Increment      1: Step Time =    1.000,"PART-1-1",            65,          -15.,       -2.8125,            0.,NA,NA,"",       1.79969,      -1.08760,      -1.43387,   2.43833E-06
C:/temp/dataset/9/9_2.odb,Step-1,Increment      1: Step Time =    1.000,"PART-1-1",            66,         -12.5,           -5.,            0.,NA,NA,"",       1.61223,  -968.074E-03,      -1.28923,   3.23334E-06
C:/temp/dataset/9/9_2.odb,Step-1,Increment      1: Step Time =    1.000,"PART-1-1",            67,          -7.5,           -5.,            0.,NA,NA,"",       1.40230,  -975.960E-03,      -1.00695,   40.6417E-06
C:/temp/dataset/9/9_2.odb,Step-1,Increment      1: Step Time =    1.000,"PART-1-1",            68,          -2.5,           -5.,            0.,NA,NA,"",       1.22167,  -983.661E-03,  -724.495E-03,   85.4165E-06
C:/temp/dataset/9/9_2.odb,Step-1,Increment      1: Step Time =    1.000,"PART-1-1",            69,           2.5,           -5.,            0.,NA,NA,"",       1.08497,  -991.028E-03,  -441.604E-03,   302.681E-06
C:/temp/dataset/9/9_2.odb,Step-1,Increment      1: Step Time =    1.000,"PART-1-1",            70,            5.,      -7.08333,            0.,NA,NA,"",   921.066E-03,  -873.882E-03,  -291.019E-03,   2.89084E-03
C:/temp/dataset/9/9_2.odb,Step-1,Increment      1: Step Time =    1.000,"PART-1-1",            71,            5.,      -9.16667,            0.,NA,NA,"",   806.190E-03,  -755.770E-03,  -280.631E-03,   4.64984E-03
C:/temp/dataset/9/9_2.odb,Step-1,Increment      1: Step Time =    1.000,"PART-1-1",            72,            5.,      -13.3333,            0.,NA,NA,"",   587.163E-03,  -531.350E-03,  -249.855E-03,   8.51913E-03
C:/temp/dataset/9/9_2.odb,Step-1,Increment      1: Step Time =    1.000,"PART-1-1",            73,            5.,      -15.4167,            0.,NA,NA,"",   486.023E-03,  -428.414E-03,  -229.520E-03,   10.4412E-03
C:/temp/dataset/9/9_2.odb,Step-1,Increment      1: Step Time =    1.000,"PART-1-1",            74,            5.,      -19.5833,            0.,NA,NA,"",   306.650E-03,  -248.694E-03,  -179.403E-03,   14.2215E-03
C:/temp/dataset/9/9_2.odb,Step-1,Increment      1: Step Time =    1.000,"PART-1-1",            75,            5.,      -21.6667,            0.,NA,NA,"",   230.124E-03,  -174.758E-03,  -149.723E-03,   16.0729E-03
C:/temp/dataset/9/9_2.odb,Step-1,Increment      1: Step Time =    1.000,"PART-1-1",            76,            5.,      -25.8333,            0.,NA,NA,"",   104.485E-03,  -65.4968E-03,  -81.4085E-03,   19.3359E-03
C:/temp/dataset/9/9_2.odb,Step-1,Increment      1: Step Time =    1.000,"PART-1-1",            77,            5.,      -27.9167,            0.,NA,NA,"",   53.7934E-03,  -31.7271E-03,  -43.4409E-03,   22.4943E-03
C:/temp/dataset/9/9_2.odb,Step-1,Increment      1: Step Time =    1.000,"PART-1-1",            78,           7.5,          -30.,            0.,NA,NA,"",            0.,  -2.58433E-39,  -19.0058E-39,   7.59310E-03
C:/temp/dataset/9/9_2.odb,Step-1,Increment      1: Step Time =    1.000,"PART-1-1",            79,           10.,          -30.,            0.,NA,NA,"",            0.,   1.84705E-39,  -308.799E-42,   1.15258E-03
C:/temp/dataset/9/9_2.odb,Step-1,Increment      1: Step Time =    1.000,"PART-1-1",            80,          12.5,          -30.,            0.,NA,NA,"",            0.,  -8.25566E-39,   19.6738E-39,   7.85721E-03
C:/temp/dataset/9/9_2.odb,Step-1,Increment      1: Step Time =    1.000,"PART-1-1",            81,           15.,         -27.5,            0.,NA,NA,"",   64.0223E-03,  -38.4448E-03,   51.1943E-03,   22.0533E-03
C:/temp/dataset/9/9_2.odb,Step-1,Increment      1: Step Time =    1.000,"PART-1-1",            82,           15.,          -25.,            0.,NA,NA,"",   127.839E-03,  -85.4369E-03,   95.0959E-03,   18.8331E-03
C:/temp/dataset/9/9_2.odb,Step-1,Increment      1: Step Time =    1.000,"PART-1-1",            83,           15.,          -20.,            0.,NA,NA,"",   292.692E-03,  -239.304E-03,   168.531E-03,   14.6437E-03
C:/temp/dataset/9/9_2.odb,Step-1,Increment      1: Step Time =    1.000,"PART-1-1",            84,           15.,         -17.5,            0.,NA,NA,"",   394.715E-03,  -342.121E-03,   196.859E-03,   12.4234E-03
C:/temp/dataset/9/9_2.odb,Step-1,Increment      1: Step Time =    1.000,"PART-1-1",            85,           15.,         -12.5,            0.,NA,NA,"",   632.748E-03,  -586.785E-03,   236.757E-03,   8.02184E-03
C:/temp/dataset/9/9_2.odb,Step-1,Increment      1: Step Time =    1.000,"PART-1-1",            86,           15.,          -10.,            0.,NA,NA,"",   765.318E-03,  -723.814E-03,   248.607E-03,   5.97640E-03
C:/temp/dataset/9/9_2.odb,Step-1,Increment      1: Step Time =    1.000,"PART-1-1",            87,           15.,           -5.,            0.,NA,NA,"",       1.04909,      -1.01721,   256.652E-03,   2.59207E-03
C:/temp/dataset/9/9_2.odb,Step-1,Increment      1: Step Time =    1.000,"PART-1-1",            88,           15.,          -2.5,            0.,NA,NA,"",       1.18863,      -1.16094,   255.065E-03,   2.04756E-03
C:/temp/dataset/9/9_2.odb,Step-1,Increment      1: Step Time =    1.000,"PART-1-1",            89,           15.,           2.5,            0.,NA,NA,"",       1.45840,      -1.43694,   249.246E-03,   542.379E-06
C:/temp/dataset/9/9_2.odb,Step-1,Increment      1: Step Time =    1.000,"PART-1-1",            90,           15.,            5.,            0.,NA,NA,"",       1.59608,      -1.57701,   245.980E-03,   237.420E-06
C:/temp/dataset/9/9_2.odb,Step-1,Increment      1: Step Time =    1.000,"PART-1-1",            91,           15.,           10.,            0.,NA,NA,"",       1.87366,      -1.85839,   238.728E-03,   92.5147E-06
C:/temp/dataset/9/9_2.odb,Step-1,Increment      1: Step Time =    1.000,"PART-1-1",            92,           15.,          12.5,            0.,NA,NA,"",       2.01301,      -1.99926,   234.940E-03,   72.6699E-06
C:/temp/dataset/9/9_2.odb,Step-1,Increment      1: Step Time =    1.000,"PART-1-1",            93,           15.,          17.5,            0.,NA,NA,"",       2.29250,      -2.28121,   227.253E-03,   48.2070E-06
C:/temp/dataset/9/9_2.odb,Step-1,Increment      1: Step Time =    1.000,"PART-1-1",            94,           15.,           20.,            0.,NA,NA,"",       2.43256,      -2.42228,   223.364E-03,   35.0658E-06
C:/temp/dataset/9/9_2.odb,Step-1,Increment      1: Step Time =    1.000,"PART-1-1",            95,           15.,           25.,            0.,NA,NA,"",       2.71309,      -2.70452,   215.488E-03,   9.53138E-06
C:/temp/dataset/9/9_2.odb,Step-1,Increment      1: Step Time =    1.000,"PART-1-1",            96,           15.,          27.5,            0.,NA,NA,"",       2.85350,      -2.84565,   211.512E-03,   1.62493E-06
C:/temp/dataset/9/9_2.odb,Step-1,Increment      1: Step Time =    1.000,"PART-1-1",            97,       7.09255,      -21.6558,            0.,NA,NA,"",   184.449E-03,  -164.175E-03,  -84.0700E-03,   9.70112E-03
C:/temp/dataset/9/9_2.odb,Step-1,Increment      1: Step Time =    1.000,"PART-1-1",            98,       7.09346,      -17.4368,            0.,NA,NA,"",   349.812E-03,  -329.157E-03,  -118.421E-03,   7.61570E-03
C:/temp/dataset/9/9_2.odb,Step-1,Increment      1: Step Time =    1.000,"PART-1-1",            99,       7.15828,      -23.7452,            0.,NA,NA,"",   118.666E-03,  -100.501E-03,  -63.0970E-03,   10.5140E-03
C:/temp/dataset/9/9_2.odb,Step-1,Increment      1: Step Time =    1.000,"PART-1-1",           100,       7.44609,      -27.8729,            0.,NA,NA,"",   24.9281E-03,  -16.4549E-03,  -18.7256E-03,   11.6670E-03
C:/temp/dataset/9/9_2.odb,Step-1,Increment      1: Step Time =    1.000,"PART-1-1",           101,       7.30780,      -25.7939,            0.,NA,NA,"",   64.8707E-03,  -51.0595E-03,  -40.0142E-03,   11.4235E-03
C:/temp/dataset/9/9_2.odb,Step-1,Increment      1: Step Time =    1.000,"PART-1-1",           102,       7.08258,      -10.9526,            0.,NA,NA,"",   674.302E-03,  -655.315E-03,  -158.889E-03,   4.63810E-03
C:/temp/dataset/9/9_2.odb,Step-1,Increment      1: Step Time =    1.000,"PART-1-1",           103,       7.09950,      -13.1236,            0.,NA,NA,"",   558.063E-03,  -538.496E-03,  -146.483E-03,   5.58989E-03
C:/temp/dataset/9/9_2.odb,Step-1,Increment      1: Step Time =    1.000,"PART-1-1",           104,       6.95448,      -6.62029,            0.,NA,NA,"",   920.082E-03,  -901.664E-03,  -183.173E-03,   2.69797E-03
C:/temp/dataset/9/9_2.odb,Step-1,Increment      1: Step Time =    1.000,"PART-1-1",           105,       7.04974,      -8.78764,            0.,NA,NA,"",   795.372E-03,  -776.933E-03,  -170.268E-03,   3.68985E-03
C:/temp/dataset/9/9_2.odb,Step-1,Increment      1: Step Time =    1.000,"PART-1-1",           106,       7.10540,      -15.2896,            0.,NA,NA,"",   449.116E-03,  -429.010E-03,  -132.874E-03,   6.57504E-03
C:/temp/dataset/9/9_2.odb,Step-1,Increment      1: Step Time =    1.000,"PART-1-1",           107,       7.08223,      -19.5608,            0.,NA,NA,"",   261.323E-03,  -240.452E-03,  -102.335E-03,   8.67648E-03
C:/temp/dataset/9/9_2.odb,Step-1,Increment      1: Step Time =    1.000,"PART-1-1",           108,      -11.8989,       25.3809,            0.,NA,NA,"",       2.98309,      -2.68323,      -1.30350,   7.98761E-06
C:/temp/dataset/9/9_2.odb,Step-1,Increment      1: Step Time =    1.000,"PART-1-1",           109,      -12.7134,       3.51066,            0.,NA,NA,"",       1.95610,      -1.44834,      -1.31478,   25.2152E-06
C:/temp/dataset/9/9_2.odb,Step-1,Increment      1: Step Time =    1.000,"PART-1-1",           110,      -13.0834,       10.3867,            0.,NA,NA,"",       2.27656,      -1.83568,      -1.34647,   20.9087E-06
C:/temp/dataset/9/9_2.odb,Step-1,Increment      1: Step Time =    1.000,"PART-1-1",           111,      -12.9355,       8.20912,            0.,NA,NA,"",       2.17167,      -1.71311,      -1.33470,   23.9150E-06
C:/temp/dataset/9/9_2.odb,Step-1,Increment      1: Step Time =    1.000,"PART-1-1",           112,      -13.1801,       12.5484,            0.,NA,NA,"",       2.38085,      -1.95742,      -1.35534,   16.6821E-06
C:/temp/dataset/9/9_2.odb,Step-1,Increment      1: Step Time =    1.000,"PART-1-1",           113,      -12.7454,       20.6010,            0.,NA,NA,"",       2.76117,      -2.41221,      -1.34362,   5.88235E-06
C:/temp/dataset/9/9_2.odb,Step-1,Increment      1: Step Time =    1.000,"PART-1-1",           114,      -13.1621,       18.5389,            0.,NA,NA,"",       2.66986,      -2.29524,      -1.36384,   7.89106E-06
C:/temp/dataset/9/9_2.odb,Step-1,Increment      1: Step Time =    1.000,"PART-1-1",           115,      -12.3840,       22.8683,            0.,NA,NA,"",       2.86629,      -2.54069,      -1.32686,   6.22407E-06
C:/temp/dataset/9/9_2.odb,Step-1,Increment      1: Step Time =    1.000,"PART-1-1",           116,      -13.4658,       16.5948,            0.,NA,NA,"",       2.58327,      -2.18512,      -1.37787,   8.78761E-06
C:/temp/dataset/9/9_2.odb,Step-1,Increment      1: Step Time =    1.000,"PART-1-1",           117,      -13.3466,       14.6489,            0.,NA,NA,"",       2.48589,      -2.07559,      -1.36805,   12.1217E-06
C:/temp/dataset/9/9_2.odb,Step-1,Increment      1: Step Time =    1.000,"PART-1-1",           118,      -12.3609,       5.76892,            0.,NA,NA,"",       2.04227,      -1.57636,      -1.29844,   22.9430E-06
C:/temp/dataset/9/9_2.odb,Step-1,Increment      1: Step Time =    1.000,"PART-1-1",           119,      -12.8583,       1.39410,            0.,NA,NA,"",       1.87259,      -1.32860,      -1.31963,   25.4237E-06
C:/temp/dataset/9/9_2.odb,Step-1,Increment      1: Step Time =    1.000,"PART-1-1",           120,      -12.6304,  -685.754E-03,            0.,NA,NA,"",       1.77954,      -1.21150,      -1.30347,   22.8086E-06
C:/temp/dataset/9/9_2.odb,Step-1,Increment      1: Step Time =    1.000,"PART-1-1",           121,   38.5673E-03,       27.2989,            0.,NA,NA,"",       2.88087,      -2.81052,  -632.792E-03,   13.0132E-06
C:/temp/dataset/9/9_2.odb,Step-1,Increment      1: Step Time =    1.000,"PART-1-1",           122,      -4.16985,       22.2766,            0.,NA,NA,"",       2.66381,      -2.52034,  -862.418E-03,   19.7905E-06
C:/temp/dataset/9/9_2.odb,Step-1,Increment      1: Step Time =    1.000,"PART-1-1",           123,      -7.85548,       28.0855,            0.,NA,NA,"",       3.04046,      -2.84231,      -1.07967,   7.51112E-06
C:/temp/dataset/9/9_2.odb,Step-1,Increment      1: Step Time =    1.000,"PART-1-1",           124,       9.92813,      -27.7267,            0.,NA,NA,"",   12.7522E-03,  -12.7477E-03,  -336.655E-06,   4.05333E-03
C:/temp/dataset/9/9_2.odb,Step-1,Increment      1: Step Time =    1.000,"PART-1-1",           125,       13.1106,      -17.4438,            0.,NA,NA,"",   354.748E-03,  -334.439E-03,   118.307E-03,   8.09699E-03
C:/temp/dataset/9/9_2.odb,Step-1,Increment      1: Step Time =    1.000,"PART-1-1",           126,       12.8150,       2.64061,            0.,NA,NA,"",       1.44664,      -1.44105,   127.090E-03,   184.922E-06
C:/temp/dataset/9/9_2.odb,Step-1,Increment      1: Step Time =    1.000,"PART-1-1",           127,       7.56819,       12.3225,            0.,NA,NA,"",       1.98591,      -1.97742,  -183.450E-03,   45.6865E-06
C:/temp/dataset/9/9_2.odb,Step-1,Increment      1: Step Time =    1.000,"PART-1-1",           128,       7.47113,       19.8748,            0.,NA,NA,"",       2.41160,      -2.40320,  -201.180E-03,   28.6983E-06
C:/temp/dataset/9/9_2.odb,Step-1,Increment      1: Step Time =    1.000,"PART-1-1",           129,       12.4223,       27.5153,            0.,NA,NA,"",       2.84317,      -2.84241,   65.9871E-03,   7.83229E-06
C:/temp/dataset/9/9_2.odb,Step-1,Increment      1: Step Time =    1.000,"PART-1-1",           130,       12.3750,       22.5091,            0.,NA,NA,"",       2.56069,      -2.55970,   71.2825E-03,   20.0741E-06
C:/temp/dataset/9/9_2.odb,Step-1,Increment      1: Step Time =    1.000,"PART-1-1",           131,       7.58839,       27.9970,            0.,NA,NA,"",       2.86944,      -2.86192,  -207.623E-03,   10.7161E-06
C:/temp/dataset/9/9_2.odb,Step-1,Increment      1: Step Time =    1.000,"PART-1-1",           132,   199.805E-03,       22.3057,            0.,NA,NA,"",       2.60278,      -2.52891,  -615.711E-03,   16.2126E-06
C:/temp/dataset/9/9_2.odb,Step-1,Increment      1: Step Time =    1.000,"PART-1-1",           133,       12.6934,       9.82310,            0.,NA,NA,"",       1.84792,      -1.84470,   109.134E-03,   52.3062E-06
C:/temp/dataset/9/9_2.odb,Step-1,Increment      1: Step Time =    1.000,"PART-1-1",           134,      -7.14717,       12.7802,            0.,NA,NA,"",       2.22528,      -1.98011,      -1.01540,   11.6499E-06
C:/temp/dataset/9/9_2.odb,Step-1,Increment      1: Step Time =    1.000,"PART-1-1",           135,      -6.86178,       17.9412,            0.,NA,NA,"",       2.48495,      -2.27156,      -1.00748,   28.2121E-06
C:/temp/dataset/9/9_2.odb,Step-1,Increment      1: Step Time =    1.000,"PART-1-1",           136,      -2.68307,      -2.95682,            0.,NA,NA,"",       1.32381,      -1.09890,  -738.167E-03,   55.2944E-06
C:/temp/dataset/9/9_2.odb,Step-1,Increment      1: Step Time =    1.000,"PART-1-1",           137,      -7.59808,      -3.03341,            0.,NA,NA,"",       1.48757,      -1.08688,      -1.01565,   34.7427E-06
C:/temp/dataset/9/9_2.odb,Step-1,Increment      1: Step Time =    1.000,"PART-1-1",           138,  -248.196E-03,       2.69947,            0.,NA,NA,"",       1.54781,      -1.42278,  -609.435E-03,   69.8045E-06
C:/temp/dataset/9/9_2.odb,Step-1,Increment      1: Step Time =    1.000,"PART-1-1",           139,       2.16631,      -2.47375,            0.,NA,NA,"",       1.22544,      -1.13391,  -464.704E-03,   129.137E-06
C:/temp/dataset/9/9_2.odb,Step-1,Increment      1: Step Time =    1.000,"PART-1-1",           140,       4.39271,       2.43636,            0.,NA,NA,"",       1.45738,      -1.41561,  -346.411E-03,   86.5838E-06
C:/temp/dataset/9/9_2.odb,Step-1,Increment      1: Step Time =    1.000,"PART-1-1",           141,       12.9283,      -5.27800,            0.,NA,NA,"",       1.00297,  -993.266E-03,   139.193E-03,   3.33747E-03
C:/temp/dataset/9/9_2.odb,Step-1,Increment      1: Step Time =    1.000,"PART-1-1",           142,       13.0847,      -12.6172,            0.,NA,NA,"",   589.036E-03,  -572.465E-03,   138.735E-03,   5.51697E-03
C:/temp/dataset/9/9_2.odb,Step-1,Increment      1: Step Time =    1.000,"PART-1-1",           143,       12.4838,       17.4790,            0.,NA,NA,"",       2.27758,      -2.27598,   85.3675E-03,   27.8580E-06
C:/temp/dataset/9/9_2.odb,Step-1,Increment      1: Step Time =    1.000,"PART-1-1",           144,       2.63438,       22.2143,            0.,NA,NA,"",       2.57243,      -2.52761,  -478.071E-03,   17.4328E-06
C:/temp/dataset/9/9_2.odb,Step-1,Increment      1: Step Time =    1.000,"PART-1-1",           145,       7.54366,       14.9275,            0.,NA,NA,"",       2.13262,      -2.12422,  -189.073E-03,   40.8433E-06
C:/temp/dataset/9/9_2.odb,Step-1,Increment      1: Step Time =    1.000,"PART-1-1",           146,       7.50510,       17.4443,            0.,NA,NA,"",       2.27451,      -2.26610,  -195.330E-03,   33.0493E-06
C:/temp/dataset/9/9_2.odb,Step-1,Increment      1: Step Time =    1.000,"PART-1-1",           147,       7.12790,       7.03873,            0.,NA,NA,"",       1.69109,      -1.67927,  -199.599E-03,   86.3659E-06
C:/temp/dataset/9/9_2.odb,Step-1,Increment      1: Step Time =    1.000,"PART-1-1",           148,       7.48952,       9.64170,            0.,NA,NA,"",       1.83551,      -1.82631,  -183.508E-03,   55.2254E-06
C:/temp/dataset/9/9_2.odb,Step-1,Increment      1: Step Time =    1.000,"PART-1-1",           149,       2.16717,       2.56251,            0.,NA,NA,"",       1.49565,      -1.41905,  -472.516E-03,   93.2095E-06
C:/temp/dataset/9/9_2.odb,Step-1,Increment      1: Step Time =    1.000,"PART-1-1",           150,      -2.68606,       3.12146,            0.,NA,NA,"",       1.62501,      -1.44262,  -747.999E-03,   62.6557E-06
C:/temp/dataset/9/9_2.odb,Step-1,Increment      1: Step Time =    1.000,"PART-1-1",           151,      -7.08307,       10.2840,            0.,NA,NA,"",       2.09745,      -1.83947,      -1.00781,   13.5919E-06
C:/temp/dataset/9/9_2.odb,Step-1,Increment      1: Step Time =    1.000,"PART-1-1",           152,      -2.13928,       22.2031,            0.,NA,NA,"",       2.62800,      -2.51941,  -747.639E-03,   24.5254E-06
C:/temp/dataset/9/9_2.odb,Step-1,Increment      1: Step Time =    1.000,"PART-1-1",           153,       9.90766,       27.6812,            0.,NA,NA,"",       2.84879,      -2.84777,  -76.2067E-03,   10.7785E-06
C:/temp/dataset/9/9_2.odb,Step-1,Increment      1: Step Time =    1.000,"PART-1-1",           154,       5.18317,       27.8350,            0.,NA,NA,"",       2.86955,      -2.84896,  -343.148E-03,   10.7638E-06
C:/temp/dataset/9/9_2.odb,Step-1,Increment      1: Step Time =    1.000,"PART-1-1",           155,       2.70091,       27.4744,            0.,NA,NA,"",       2.86561,      -2.82466,  -482.732E-03,   12.5728E-06
C:/temp/dataset/9/9_2.odb,Step-1,Increment      1: Step Time =    1.000,"PART-1-1",           156,      -2.92570,       26.9909,            0.,NA,NA,"",       2.90081,      -2.78840,  -799.676E-03,   9.82013E-06
C:/temp/dataset/9/9_2.odb,Step-1,Increment      1: Step Time =    1.000,"PART-1-1",           157,      -5.52449,       27.7330,            0.,NA,NA,"",       2.98076,      -2.82614,  -947.558E-03,   6.03199E-06
C:/temp/dataset/9/9_2.odb,Step-1,Increment      1: Step Time =    1.000,"PART-1-1",           158,      -10.1759,       28.1970,            0.,NA,NA,"",       3.09182,      -2.84489,      -1.21077,   7.33155E-06
C:/temp/dataset/9/9_2.odb,Step-1,Increment      1: Step Time =    1.000,"PART-1-1",           159,      -7.15795,       15.3782,            0.,NA,NA,"",       2.35860,      -2.12658,      -1.02013,   15.7094E-06
C:/temp/dataset/9/9_2.odb,Step-1,Increment      1: Step Time =    1.000,"PART-1-1",           160,      -7.10855,       7.92361,            0.,NA,NA,"",       1.98054,      -1.70632,      -1.00548,   26.2124E-06
C:/temp/dataset/9/9_2.odb,Step-1,Increment      1: Step Time =    1.000,"PART-1-1",           161,      -7.31416,       5.72319,            0.,NA,NA,"",       1.87876,      -1.58190,      -1.01357,   33.2244E-06
C:/temp/dataset/9/9_2.odb,Step-1,Increment      1: Step Time =    1.000,"PART-1-1",           162,      -10.0288,      -2.82434,            0.,NA,NA,"",       1.59015,      -1.09485,      -1.15321,   26.3956E-06
C:/temp/dataset/9/9_2.odb,Step-1,Increment      1: Step Time =    1.000,"PART-1-1",           163,      -5.14639,      -3.11924,            0.,NA,NA,"",       1.39584,      -1.08587,  -877.072E-03,   43.7127E-06
C:/temp/dataset/9/9_2.odb,Step-1,Increment      1: Step Time =    1.000,"PART-1-1",           164,  -261.821E-03,      -2.60038,            0.,NA,NA,"",       1.27399,      -1.12286,  -601.869E-03,   67.2235E-06
C:/temp/dataset/9/9_2.odb,Step-1,Increment      1: Step Time =    1.000,"PART-1-1",           165,       4.38015,      -2.33295,            0.,NA,NA,"",       1.19468,      -1.14546,  -339.376E-03,   151.482E-06
C:/temp/dataset/9/9_2.odb,Step-1,Increment      1: Step Time =    1.000,"PART-1-1",           166,       13.0639,      -10.1924,            0.,NA,NA,"",   720.253E-03,  -705.864E-03,   143.251E-03,   4.24337E-03
C:/temp/dataset/9/9_2.odb,Step-1,Increment      1: Step Time =    1.000,"PART-1-1",           167,       13.0843,      -19.8267,            0.,NA,NA,"",   255.600E-03,  -234.594E-03,   101.474E-03,   9.34317E-03
C:/temp/dataset/9/9_2.odb,Step-1,Increment      1: Step Time =    1.000,"PART-1-1",           168,       12.4446,      -27.5067,            0.,NA,NA,"",   30.6586E-03,  -21.8696E-03,   21.4866E-03,   11.6236E-03
C:/temp/dataset/9/9_2.odb,Step-1,Increment      1: Step Time =    1.000,"PART-1-1",           169,       12.9329,      -22.1971,            0.,NA,NA,"",   168.524E-03,  -149.296E-03,   78.1722E-03,   10.1536E-03
C:/temp/dataset/9/9_2.odb,Step-1,Increment      1: Step Time =    1.000,"PART-1-1",           170,       13.1086,      -15.0383,            0.,NA,NA,"",   466.510E-03,  -447.806E-03,   130.770E-03,   6.80780E-03
C:/temp/dataset/9/9_2.odb,Step-1,Increment      1: Step Time =    1.000,"PART-1-1",           171,       13.0208,      -7.75462,            0.,NA,NA,"",   859.188E-03,  -847.143E-03,   143.364E-03,   4.12145E-03
C:/temp/dataset/9/9_2.odb,Step-1,Increment      1: Step Time =    1.000,"PART-1-1",           172,       12.7756,      -2.70708,            0.,NA,NA,"",       1.14921,      -1.14181,   130.284E-03,   2.35930E-03
C:/temp/dataset/9/9_2.odb,Step-1,Increment      1: Step Time =    1.000,"PART-1-1",           173,       12.6338,  -14.4220E-03,            0.,NA,NA,"",       1.29862,      -1.29302,   120.518E-03,   1.11519E-03
C:/temp/dataset/9/9_2.odb,Step-1,Increment      1: Step Time =    1.000,"PART-1-1",           174,       13.0186,       5.13380,            0.,NA,NA,"",       1.58698,      -1.58126,   134.634E-03,   105.638E-06
C:/temp/dataset/9/9_2.odb,Step-1,Increment      1: Step Time =    1.000,"PART-1-1",           175,       13.0709,       7.51902,            0.,NA,NA,"",       1.72076,      -1.71554,   133.934E-03,   82.0864E-06
C:/temp/dataset/9/9_2.odb,Step-1,Increment      1: Step Time =    1.000,"PART-1-1",           176,       12.5119,       12.3699,            0.,NA,NA,"",       1.99018,      -1.98791,   94.9533E-03,   37.7149E-06
C:/temp/dataset/9/9_2.odb,Step-1,Increment      1: Step Time =    1.000,"PART-1-1",           177,       12.4863,       14.9454,            0.,NA,NA,"",       2.13495,      -2.13307,   89.4817E-03,   31.9558E-06
C:/temp/dataset/9/9_2.odb,Step-1,Increment      1: Step Time =    1.000,"PART-1-1",           178,       12.4500,       19.9932,            0.,NA,NA,"",       2.41911,      -2.41780,   79.4969E-03,   24.5146E-06
C:/temp/dataset/9/9_2.odb,Step-1,Increment      1: Step Time =    1.000,"PART-1-1",           179,       9.19048,      -23.6482,            0.,NA,NA,"",   99.4127E-03,  -97.7835E-03,  -17.9245E-03,   4.88334E-03
C:/temp/dataset/9/9_2.odb,Step-1,Increment      1: Step Time =    1.000,"PART-1-1",           180,       9.11932,      -19.5624,            0.,NA,NA,"",   238.919E-03,  -236.780E-03,  -31.8980E-03,   4.60194E-03
C:/temp/dataset/9/9_2.odb,Step-1,Increment      1: Step Time =    1.000,"PART-1-1",           181,       9.13323,      -12.9344,            0.,NA,NA,"",   550.199E-03,  -547.902E-03,  -50.2312E-03,   4.18950E-03
C:/temp/dataset/9/9_2.odb,Step-1,Increment      1: Step Time =    1.000,"PART-1-1",           182,       9.14303,      -17.4019,            0.,NA,NA,"",   330.250E-03,  -328.135E-03,  -37.3208E-03,   4.41969E-03
C:/temp/dataset/9/9_2.odb,Step-1,Increment      1: Step Time =    1.000,"PART-1-1",           183,       9.11260,      -10.6744,            0.,NA,NA,"",   673.641E-03,  -671.205E-03,  -57.2341E-03,   4.07320E-03
C:/temp/dataset/9/9_2.odb,Step-1,Increment      1: Step Time =    1.000,"PART-1-1",           184,       9.06671,      -8.40676,            0.,NA,NA,"",   802.964E-03,  -800.319E-03,  -65.1295E-03,   3.76837E-03
C:/temp/dataset/9/9_2.odb,Step-1,Increment      1: Step Time =    1.000,"PART-1-1",           185,       9.15359,      -15.1846,            0.,NA,NA,"",   434.748E-03,  -432.604E-03,  -43.1234E-03,   4.28565E-03
C:/temp/dataset/9/9_2.odb,Step-1,Increment      1: Step Time =    1.000,"PART-1-1",           186,       9.09437,      -21.6308,            0.,NA,NA,"",   162.629E-03,  -160.477E-03,  -26.3631E-03,   4.82095E-03
C:/temp/dataset/9/9_2.odb,Step-1,Increment      1: Step Time =    1.000,"PART-1-1",           187,       8.94944,      -6.10597,            0.,NA,NA,"",   937.168E-03,  -934.065E-03,  -76.2029E-03,   3.05402E-03
C:/temp/dataset/9/9_2.odb,Step-1,Increment      1: Step Time =    1.000,"PART-1-1",           188,      -11.3189,       17.6054,            0.,NA,NA,"",       2.57409,      -2.24553,      -1.25838,   14.5406E-06
C:/temp/dataset/9/9_2.odb,Step-1,Increment      1: Step Time =    1.000,"PART-1-1",           189,      -10.4260,       2.85148,            0.,NA,NA,"",       1.84528,      -1.41480,      -1.18465,   27.5398E-06
C:/temp/dataset/9/9_2.odb,Step-1,Increment      1: Step Time =    1.000,"PART-1-1",           190,      -12.4413,       27.8959,            0.,NA,NA,"",       3.12524,      -2.82429,      -1.33811,   5.66688E-06
C:/temp/dataset/9/9_2.odb,Step-1,Increment      1: Step Time =    1.000,"PART-1-1",           191,      -10.6658,       19.6683,            0.,NA,NA,"",       2.66148,      -2.36290,      -1.22482,   10.3724E-06
C:/temp/dataset/9/9_2.odb,Step-1,Increment      1: Step Time =    1.000,"PART-1-1",           192,      -12.1118,       16.4066,            0.,NA,NA,"",       2.53594,      -2.17667,      -1.30120,   13.9855E-06
C:/temp/dataset/9/9_2.odb,Step-1,Increment      1: Step Time =    1.000,"PART-1-1",           193,      -11.5166,       14.9043,            0.,NA,NA,"",       2.44563,      -2.09291,      -1.26524,   17.6996E-06
C:/temp/dataset/9/9_2.odb,Step-1,Increment      1: Step Time =    1.000,"PART-1-1",           194,      -11.2054,       12.7278,            0.,NA,NA,"",       2.33061,      -1.97069,      -1.24424,   19.7893E-06
C:/temp/dataset/9/9_2.odb,Step-1,Increment      1: Step Time =    1.000,"PART-1-1",           195,      -11.1139,       10.5020,            0.,NA,NA,"",       2.22077,      -1.84533,      -1.23555,   20.3839E-06
C:/temp/dataset/9/9_2.odb,Step-1,Increment      1: Step Time =    1.000,"PART-1-1",           196,      -9.42029,       24.1195,            0.,NA,NA,"",       2.86231,      -2.61599,      -1.16165,   7.27391E-06
C:/temp/dataset/9/9_2.odb,Step-1,Increment      1: Step Time =    1.000,"PART-1-1",           197,      -11.0759,       8.46025,            0.,NA,NA,"",       2.12299,      -1.73025,      -1.23018,   20.4623E-06
C:/temp/dataset/9/9_2.odb,Step-1,Increment      1: Step Time =    1.000,"PART-1-1",           198,      -10.9473,       6.84821,            0.,NA,NA,"",       2.04386,      -1.63953,      -1.22037,   20.4437E-06
C:/temp/dataset/9/9_2.odb,Step-1,Increment      1: Step Time =    1.000,"PART-1-1",           199,       9.64075,      -25.5803,            0.,NA,NA,"",   49.8939E-03,  -49.6090E-03,  -5.32418E-03,   4.24470E-03
C:/temp/dataset/9/9_2.odb,Step-1,Increment      1: Step Time =    1.000,"PART-1-1",           200,       6.22595,      -2.03957,            0.,NA,NA,"",       1.18853,      -1.16499,  -235.372E-03,   461.366E-06
C:/temp/dataset/9/9_2.odb,Step-1,Increment      1: Step Time =    1.000,"PART-1-1",           201,       6.24072,       2.15031,            0.,NA,NA,"",       1.42317,      -1.40252,  -241.600E-03,   93.1775E-06
C:/temp/dataset/9/9_2.odb,Step-1,Increment      1: Step Time =    1.000,"PART-1-1",           202,      -7.69234,       3.89067,            0.,NA,NA,"",       1.80256,      -1.47789,      -1.03201,   39.1374E-06
C:/temp/dataset/9/9_2.odb,Step-1,Increment      1: Step Time =    1.000,"PART-1-1",           203,       7.31807,       22.0589,            0.,NA,NA,"",       2.53525,      -2.52626,  -213.342E-03,   28.6547E-06
C:/temp/dataset/9/9_2.odb,Step-1,Increment      1: Step Time =    1.000,"PART-1-1",           204,      -6.44398,       20.4265,            0.,NA,NA,"",       2.60677,      -2.41235,  -987.845E-03,   23.1924E-06
C:/temp/dataset/9/9_2.odb,Step-1,Increment      1: Step Time =    1.000,"PART-1-1",           205,       12.2962,       25.0128,            0.,NA,NA,"",       2.70166,      -2.70093,   62.8556E-03,   14.7167E-06
C:/temp/dataset/9/9_2.odb,Step-1,Increment      1: Step Time =    1.000,"PART-1-1",           206,       12.2257,      -24.8009,            0.,NA,NA,"",   82.9672E-03,  -72.4169E-03,   40.4889E-03,   9.46584E-03
C:/temp/dataset/9/9_2.odb,Step-1,Increment      1: Step Time =    1.000,"PART-1-1",           207,      -2.06005,       24.5200,            0.,NA,NA,"",       2.75354,      -2.65032,  -746.865E-03,   16.2681E-06
C:/temp/dataset/9/9_2.odb,Step-1,Increment      1: Step Time =    1.000,"PART-1-1",           208,       9.31619,       25.0673,            0.,NA,NA,"",       2.70132,      -2.69926,  -105.409E-03,   16.8137E-06
C:/temp/dataset/9/9_2.odb,Step-1,Increment      1: Step Time =    1.000,"PART-1-1",           209,       3.21447,       24.8112,            0.,NA,NA,"",       2.71263,      -2.67514,  -449.468E-03,   18.3796E-06
C:/temp/dataset/9/9_2.odb,Step-1,Increment      1: Step Time =    1.000,"PART-1-1",           210,      -7.52022,      -1.18711,            0.,NA,NA,"",       1.56457,      -1.19131,      -1.01422,   35.6025E-06
C:/temp/dataset/9/9_2.odb,Step-1,Increment      1: Step Time =    1.000,"PART-1-1",           211,       10.0127,       14.9017,            0.,NA,NA,"",       2.12725,      -2.12667,  -49.8660E-03,   19.9154E-06
C:/temp/dataset/9/9_2.odb,Step-1,Increment      1: Step Time =    1.000,"PART-1-1",           212,       10.7293,       3.02357,            0.,NA,NA,"",       1.45916,      -1.45913,   9.58153E-03,   115.320E-06
C:/temp/dataset/9/9_2.odb,Step-1,Increment      1: Step Time =    1.000,"PART-1-1",           213,       11.4837,       7.36813,            0.,NA,NA,"",       1.70513,      -1.70454,   44.9478E-03,   53.5747E-06
C:/temp/dataset/9/9_2.odb,Step-1,Increment      1: Step Time =    1.000,"PART-1-1",           214,      -9.20573,       12.9161,            0.,NA,NA,"",       2.28452,      -1.98449,      -1.13173,   18.3870E-06
C:/temp/dataset/9/9_2.odb,Step-1,Increment      1: Step Time =    1.000,"PART-1-1",           215,   314.418E-03,       24.7704,            0.,NA,NA,"",       2.73778,      -2.66823,  -613.179E-03,   16.6949E-06
C:/temp/dataset/9/9_2.odb,Step-1,Increment      1: Step Time =    1.000,"PART-1-1",           216,       7.52406,       26.3727,            0.,NA,NA,"",       2.77797,      -2.77012,  -208.653E-03,   12.8309E-06
C:/temp/dataset/9/9_2.odb,Step-1,Increment      1: Step Time =    1.000,"PART-1-1",           217,  -811.906E-03,   82.6841E-03,            0.,NA,NA,"",       1.42435,      -1.27385,  -637.226E-03,   49.1232E-06
C:/temp/dataset/9/9_2.odb,Step-1,Increment      1: Step Time =    1.000,"PART-1-1",           218,       11.1400,      -19.6444,            0.,NA,NA,"",   237.928E-03,  -235.174E-03,   36.0942E-03,   5.04347E-03
C:/temp/dataset/9/9_2.odb,Step-1,Increment      1: Step Time =    1.000,"PART-1-1",           219,       11.1036,      -10.4226,            0.,NA,NA,"",   689.364E-03,  -688.064E-03,   42.3180E-03,   4.05807E-03
C:/temp/dataset/9/9_2.odb,Step-1,Increment      1: Step Time =    1.000,"PART-1-1",           220,       10.9280,      -5.64335,            0.,NA,NA,"",   965.893E-03,  -965.431E-03,   29.8690E-03,   3.32041E-03
C:/temp/dataset/9/9_2.odb,Step-1,Increment      1: Step Time =    1.000,"PART-1-1",           221,       11.0667,       5.48495,            0.,NA,NA,"",       1.59813,      -1.59794,   24.5492E-03,   79.7554E-06
C:/temp/dataset/9/9_2.odb,Step-1,Increment      1: Step Time =    1.000,"PART-1-1",           222,       11.1390,      -12.7671,            0.,NA,NA,"",   560.983E-03,  -559.229E-03,   44.3346E-03,   4.18139E-03
C:/temp/dataset/9/9_2.odb,Step-1,Increment      1: Step Time =    1.000,"PART-1-1",           223,       11.1627,      -15.1016,            0.,NA,NA,"",   441.133E-03,  -438.921E-03,   44.1175E-03,   4.45485E-03
C:/temp/dataset/9/9_2.odb,Step-1,Increment      1: Step Time =    1.000,"PART-1-1",           224,      -9.10801,       10.4728,            0.,NA,NA,"",       2.16116,      -1.84689,      -1.12234,   17.6184E-06
C:/temp/dataset/9/9_2.odb,Step-1,Increment      1: Step Time =    1.000,"PART-1-1",           225,      -9.12162,       8.28854,            0.,NA,NA,"",       2.05541,      -1.72369,      -1.11964,   21.3769E-06
C:/temp/dataset/9/9_2.odb,Step-1,Increment      1: Step Time =    1.000,"PART-1-1",           226,      -8.73753,       18.6317,            0.,NA,NA,"",       2.56250,      -2.30750,      -1.11439,   19.6537E-06
C:/temp/dataset/9/9_2.odb,Step-1,Increment      1: Step Time =    1.000,"PART-1-1",           227,      -9.90634,  -397.381E-03,            0.,NA,NA,"",       1.68554,      -1.23213,      -1.15017,   33.0167E-06
C:/temp/dataset/9/9_2.odb,Step-1,Increment      1: Step Time =    1.000,"PART-1-1",           228,       9.93939,       19.9385,            0.,NA,NA,"",       2.41151,      -2.41071,  -62.0388E-03,   23.7478E-06
C:/temp/dataset/9/9_2.odb,Step-1,Increment      1: Step Time =    1.000,"PART-1-1",           229,       5.70370,       25.8085,            0.,NA,NA,"",       2.75295,      -2.73538,  -310.513E-03,   13.8712E-06
C:/temp/dataset/9/9_2.odb,Step-1,Increment      1: Step Time =    1.000,"PART-1-1",           230,       10.0348,       12.2094,            0.,NA,NA,"",       1.97543,      -1.97493,  -44.3229E-03,   21.8022E-06
C:/temp/dataset/9/9_2.odb,Step-1,Increment      1: Step Time =    1.000,"PART-1-1",           231,       9.98921,       17.4486,            0.,NA,NA,"",       2.27095,      -2.27028,  -55.2546E-03,   20.3081E-06
C:/temp/dataset/9/9_2.odb,Step-1,Increment      1: Step Time =    1.000,"PART-1-1",           232,       10.1044,       9.10575,            0.,NA,NA,"",       1.80056,      -1.80021,  -35.4236E-03,   40.7130E-06
C:/temp/dataset/9/9_2.odb,Step-1,Increment      1: Step Time =    1.000,"PART-1-1",           233,      -3.11139,      -1.10310,            0.,NA,NA,"",       1.42587,      -1.20306,  -765.349E-03,   30.6902E-06
C:/temp/dataset/9/9_2.odb,Step-1,Increment      1: Step Time =    1.000,"PART-1-1",           234,      -6.48507,       25.5695,            0.,NA,NA,"",       2.88100,      -2.70250,  -998.333E-03,   5.32412E-06
C:/temp/dataset/9/9_2.odb,Step-1,Increment      1: Step Time =    1.000,"PART-1-1",           235,      -4.76537,       24.8732,            0.,NA,NA,"",       2.81382,      -2.66595,  -900.164E-03,   9.15211E-06
C:/temp/dataset/9/9_2.odb,Step-1,Increment      1: Step Time =    1.000,"PART-1-1",           236,      -8.46351,       26.0628,            0.,NA,NA,"",       2.94471,      -2.72718,      -1.11076,   6.98748E-06
C:/temp/dataset/9/9_2.odb,Step-1,Increment      1: Step Time =    1.000,"PART-1-1",           237,      -9.50218,       15.8804,            0.,NA,NA,"",       2.44075,      -2.15116,      -1.15316,   19.6012E-06
C:/temp/dataset/9/9_2.odb,Step-1,Increment      1: Step Time =    1.000,"PART-1-1",           238,      -5.29510,      -1.38770,            0.,NA,NA,"",       1.47976,      -1.18350,  -888.258E-03,   34.9403E-06
C:/temp/dataset/9/9_2.odb,Step-1,Increment      1: Step Time =    1.000,"PART-1-1",           239,       11.0587,      -21.7318,            0.,NA,NA,"",   160.803E-03,  -158.253E-03,   28.5193E-03,   5.24689E-03
C:/temp/dataset/9/9_2.odb,Step-1,Increment      1: Step Time =    1.000,"PART-1-1",           240,       11.1670,      -17.4071,            0.,NA,NA,"",   332.462E-03,  -329.877E-03,   41.3737E-03,   4.76984E-03
C:/temp/dataset/9/9_2.odb,Step-1,Increment      1: Step Time =    1.000,"PART-1-1",           241,       11.0513,      -8.06140,            0.,NA,NA,"",   824.702E-03,  -823.818E-03,   38.1817E-03,   3.99088E-03
C:/temp/dataset/9/9_2.odb,Step-1,Increment      1: Step Time =    1.000,"PART-1-1",           242,       10.1357,   7.39639E-03,            0.,NA,NA,"",       1.28869,      -1.28854,  -19.3270E-03,   638.309E-06
C:/temp/dataset/9/9_2.odb,Step-1,Increment      1: Step Time =    1.000,"PART-1-1",           243,       10.6886,      -3.06387,            0.,NA,NA,"",       1.11504,      -1.11494,   14.7297E-03,   2.01388E-03
C:/temp/dataset/9/9_2.odb,Step-1,Increment      1: Step Time =    1.000,"PART-1-1",           244,       9.76329,       22.4053,            0.,NA,NA,"",       2.55081,      -2.54968,  -75.9169E-03,   22.6485E-06
C:/temp/dataset/9/9_2.odb,Step-1,Increment      1: Step Time =    1.000,"PART-1-1",           245,       8.68231,      -3.74099,            0.,NA,NA,"",       1.07545,      -1.07124,  -95.0490E-03,   1.83641E-03
C:/temp/dataset/9/9_2.odb,Step-1,Increment      1: Step Time =    1.000,"PART-1-1",           246,      -9.34414,       6.30777,            0.,NA,NA,"",       1.96776,      -1.61162,      -1.12905,   20.9168E-06
C:/temp/dataset/9/9_2.odb,Step-1,Increment      1: Step Time =    1.000,"PART-1-1",           247,      -9.93235,       4.61568,            0.,NA,NA,"",       1.90799,      -1.51519,      -1.15958,   23.0187E-06
C:/temp/dataset/9/9_2.odb,Step-1,Increment      1: Step Time =    1.000,"PART-1-1",           248,      -8.14937,       21.0679,            0.,NA,NA,"",       2.67572,      -2.44583,      -1.08508,   12.4443E-06
C:/temp/dataset/9/9_2.odb,Step-1,Increment      1: Step Time =    1.000,"PART-1-1",           249,       10.7972,      -23.3791,            0.,NA,NA,"",   107.508E-03,  -106.024E-03,   17.7965E-03,   4.89788E-03
C:/temp/dataset/9/9_2.odb,Step-1,Increment      1: Step Time =    1.000,"PART-1-1",           250,       4.15357,   65.4176E-03,            0.,NA,NA,"",       1.32972,      -1.28114,  -356.164E-03,   88.7757E-06
C:/temp/dataset/9/9_2.odb,Step-1,Increment      1: Step Time =    1.000,"PART-1-1",           251,       8.71950,       3.82470,            0.,NA,NA,"",       1.50457,      -1.50092,  -104.673E-03,   80.0281E-06
C:/temp/dataset/9/9_2.odb,Step-1,Increment      1: Step Time =    1.000,"PART-1-1",           252,       5.00281,       23.5204,            0.,NA,NA,"",       2.62803,      -2.60510,  -346.408E-03,   20.5450E-06
C:/temp/dataset/9/9_2.odb,Step-1,Increment      1: Step Time =    1.000,"PART-1-1",           253,       7.40149,   60.9774E-03,            0.,NA,NA,"",       1.29790,      -1.28635,  -172.831E-03,   305.339E-06
C:/temp/dataset/9/9_2.odb,Step-1,Increment      1: Step Time =    1.000,"PART-1-1",           254,      -5.73116,       22.7675,            0.,NA,NA,"",       2.71753,      -2.54557,  -951.335E-03,   13.6221E-06
C:/temp/dataset/9/9_2.odb,Step-1,Increment      1: Step Time =    1.000,"PART-1-1",           255,      -5.42683,       1.83799,            0.,NA,NA,"",       1.63598,      -1.36561,  -900.858E-03,   30.2354E-06
C:/temp/dataset/9/9_2.odb,Step-1,Increment      1: Step Time =    1.000,"PART-1-1",           256,       6.81561,       24.0815,            0.,NA,NA,"",       2.65099,      -2.63965,  -244.964E-03,   19.5917E-06
C:/temp/dataset/9/9_2.odb,Step-1,Increment      1: Step Time =    1.000,"PART-1-1",           257,      -7.40884,       23.3683,            0.,NA,NA,"",       2.78137,      -2.57680,      -1.04696,   8.49298E-06
C:/temp/dataset/9/9_2.odb,Step-1,Increment      1: Step Time =    1.000,"PART-1-1",           258,      -3.69176,       23.9755,            0.,NA,NA,"",       2.74793,      -2.61699,  -838.129E-03,   14.4455E-06
C:/temp/dataset/9/9_2.odb,Step-1,Increment      1: Step Time =    1.000,"PART-1-1",           259,      -8.10961,       1.76736,            0.,NA,NA,"",       1.71738,      -1.35730,      -1.05220,   36.0314E-06
C:/temp/dataset/9/9_2.odb,Step-1,Increment      1: Step Time =    1.000,"PART-1-1",           260,       5.94930,   61.4696E-03,            0.,NA,NA,"",       1.30892,      -1.28391,  -254.661E-03,   181.138E-06
C:/temp/dataset/9/9_2.odb,Step-1,Increment      1: Step Time =    1.000,"PART-1-1",           261,       1.93878,   62.7924E-03,            0.,NA,NA,"",       1.36504,      -1.27728,  -481.543E-03,   95.4797E-06
C:/temp/dataset/9/9_2.odb,Step-1,Increment      1: Step Time =    1.000,"PART-1-1",           262,       6.71051,      -4.41826,            0.,NA,NA,"",       1.04898,      -1.02915,  -202.963E-03,   1.70158E-03
C:/temp/dataset/9/9_2.odb,Step-1,Increment      1: Step Time =    1.000,"PART-1-1",           263,      -12.5366,      -2.82410,            0.,NA,NA,"",       1.69306,      -1.09088,      -1.29477,   14.5071E-06
C:/temp/dataset/9/9_2.odb,Step-1,Increment      1: Step Time =    1.000,"PART-1-1",           264,       6.75090,       4.53602,            0.,NA,NA,"",       1.55305,      -1.53786,  -216.710E-03,   81.2490E-06
C:/temp/dataset/9/9_2.odb,Step-1,Increment      1: Step Time =    1.000,"PART-1-1",           265,      -5.22339,       3.46233,            0.,NA,NA,"",       1.70895,      -1.45772,  -891.959E-03,   38.0640E-06
C:/temp/dataset/9/9_2.odb,Step-1,Increment      1: Step Time =    1.000,"PART-1-1",           266,       4.93795,       21.9167,            0.,NA,NA,"",       2.53836,      -2.51447,  -347.484E-03,   30.0197E-06
C:/temp/dataset/9/9_2.odb,Step-1,Increment      1: Step Time =    1.000,"PART-1-1",           267,       8.13144,      -1.42002,            0.,NA,NA,"",       1.21046,      -1.20351,  -129.503E-03,   755.440E-06
C:/temp/dataset/9/9_2.odb,Step-1,Increment      1: Step Time =    1.000,"PART-1-1",           268,      -3.13115,       1.39136,            0.,NA,NA,"",       1.54923,      -1.34408,  -770.436E-03,   27.8321E-06
C:/temp/dataset/9/9_2.odb,Step-1,Increment      1: Step Time =    1.000,"PART-1-1",           269,       9.17709,       6.32873,            0.,NA,NA,"",       1.64459,      -1.64249,  -83.0708E-03,   83.9045E-06
C:/temp/dataset/9/9_2.odb,Step-1,Increment      1: Step Time =    1.000,"PART-1-1",           270,      -11.0423,       1.34077,            0.,NA,NA,"",       1.80169,      -1.32850,      -1.21704,   29.5543E-06
C:/temp/dataset/9/9_2.odb,Step-1,Increment      1: Step Time =    1.000,"PART-1-1",           271,      -10.1478,       26.6048,            0.,NA,NA,"",       3.00774,      -2.75508,      -1.20665,   7.87843E-06
C:/temp/dataset/9/9_2.odb,Step-1,Increment      1: Step Time =    1.000,"PART-1-1",           272,      -10.1118,       21.9370,            0.,NA,NA,"",       2.76443,      -2.49175,      -1.19719,   6.33301E-06
C:/temp/dataset/9/9_2.odb,Step-1,Increment      1: Step Time =    1.000,"PART-1-1",           273,       8.13886,       1.50501,            0.,NA,NA,"",       1.37580,      -1.36930,  -133.638E-03,   196.443E-06
C:/temp/dataset/9/9_2.odb,Step-1,Increment      1: Step Time =    1.000,"PART-1-1",           274,      -7.06249,   219.393E-03,            0.,NA,NA,"",       1.61187,      -1.27152,  -990.630E-03,   35.1682E-06
C:/temp/dataset/9/9_2.odb,Step-1,Increment      1: Step Time =    1.000,"PART-1-1",           275,      -5.40522,   241.534E-03,            0.,NA,NA,"",       1.55931,      -1.27542,  -897.087E-03,   30.0002E-06
C:/temp/dataset/9/9_2.odb,Step-1,Increment      1: Step Time =    1.000,"PART-1-1",           276,      -3.80180,   194.541E-03,            0.,NA,NA,"",       1.50891,      -1.27533,  -806.433E-03,   23.5411E-06
C:/temp/dataset/9/9_2.odb,Step-1,Increment      1: Step Time =    1.000,"PART-1-1",           277,      -2.71285,       28.4954,            0.,NA,NA,"",       2.98030,      -2.87367,  -790.054E-03,   7.80573E-06
C:/temp/dataset/9/9_2.odb,Step-1,Increment      1: Step Time =    1.000,"PART-1-1",           278,         -3.75,           30.,            0.,NA,NA,"",       3.07697,      -2.95694,  -850.998E-03,   12.4039E-06
C:/temp/dataset/9/9_2.odb,Step-1,Increment      1: Step Time =    1.000,"PART-1-1",           279,      -5.26224,       28.8665,            0.,NA,NA,"",       3.03786,      -2.89053,  -934.559E-03,   10.0765E-06
C:/temp/dataset/9/9_2.odb,Step-1,Increment      1: Step Time =    1.000,"PART-1-1",           280,      -4.22509,       27.3619,            0.,NA,NA,"",       2.94007,      -2.80727,  -873.623E-03,   6.67097E-06
C:/temp/dataset/9/9_2.odb,Step-1,Increment      1: Step Time =    1.000,"PART-1-1",           281,      -3.84553,       25.9321,            0.,NA,NA,"",       2.85654,      -2.72717,  -849.922E-03,   8.97749E-06
C:/temp/dataset/9/9_2.odb,Step-1,Increment      1: Step Time =    1.000,"PART-1-1",           282,      -6.00478,       26.6512,            0.,NA,NA,"",       2.93054,      -2.76432,  -972.946E-03,   5.12166E-06
C:/temp/dataset/9/9_2.odb,Step-1,Increment      1: Step Time =    1.000,"PART-1-1",           283,      -5.62522,       25.2214,            0.,NA,NA,"",       2.84713,      -2.68422,  -949.251E-03,   6.30961E-06
C:/temp/dataset/9/9_2.odb,Step-1,Increment      1: Step Time =    1.000,"PART-1-1",           284,      -10.0879,       29.0985,            0.,NA,NA,"",       3.13747,      -2.89590,      -1.20725,   6.82019E-06
C:/temp/dataset/9/9_2.odb,Step-1,Increment      1: Step Time =    1.000,"PART-1-1",           285,        -11.25,           30.,            0.,NA,NA,"",       3.20877,      -2.94491,      -1.27425,   4.86965E-06
C:/temp/dataset/9/9_2.odb,Step-1,Increment      1: Step Time =    1.000,"PART-1-1",           286,      -12.4706,       28.9480,            0.,NA,NA,"",       3.18035,      -2.88360,      -1.34144,   3.26278E-06
C:/temp/dataset/9/9_2.odb,Step-1,Increment      1: Step Time =    1.000,"PART-1-1",           287,      -11.3086,       28.0465,            0.,NA,NA,"",       3.10791,      -2.83459,      -1.27444,   6.35077E-06
C:/temp/dataset/9/9_2.odb,Step-1,Increment      1: Step Time =    1.000,"PART-1-1",           288,      -13.4495,       25.5029,            0.,NA,NA,"",       3.02635,      -2.68765,      -1.39118,   6.17734E-06
C:/temp/dataset/9/9_2.odb,Step-1,Increment      1: Step Time =    1.000,"PART-1-1",           289,          -15.,       24.5313,            0.,NA,NA,"",       3.01672,      -2.63035,      -1.47711,   8.72347E-06
C:/temp/dataset/9/9_2.odb,Step-1,Increment      1: Step Time =    1.000,"PART-1-1",           290,      -13.6920,       23.1529,            0.,NA,NA,"",       2.91366,      -2.55466,      -1.40110,   8.10645E-06
C:/temp/dataset/9/9_2.odb,Step-1,Increment      1: Step Time =    1.000,"PART-1-1",           291,      -12.1415,       24.1246,            0.,NA,NA,"",       2.92438,      -2.61195,      -1.31518,   6.85074E-06
C:/temp/dataset/9/9_2.odb,Step-1,Increment      1: Step Time =    1.000,"PART-1-1",           292,          8.75,          -30.,            0.,NA,NA,"",            0.,   1.06811E-39,  -8.50118E-39,   4.15787E-03
C:/temp/dataset/9/9_2.odb,Step-1,Increment      1: Step Time =    1.000,"PART-1-1",           293,       9.96407,      -28.8633,            0.,NA,NA,"",   2.27464E-03,  -2.27463E-03,  -6.49391E-06,   1.41508E-03
C:/temp/dataset/9/9_2.odb,Step-1,Increment      1: Step Time =    1.000,"PART-1-1",           294,       8.68711,      -27.7998,            0.,NA,NA,"",   16.0512E-03,  -13.2240E-03,  -9.09759E-03,   6.61698E-03
C:/temp/dataset/9/9_2.odb,Step-1,Increment      1: Step Time =    1.000,"PART-1-1",           295,       7.47304,      -28.9365,            0.,NA,NA,"",   9.11142E-03,  -3.92960E-03,  -8.22047E-03,   9.56678E-03
C:/temp/dataset/9/9_2.odb,Step-1,Increment      1: Step Time =    1.000,"PART-1-1",           296,       10.9279,      -22.5555,            0.,NA,NA,"",   133.116E-03,  -131.131E-03,   22.9048E-03,   5.06587E-03
C:/temp/dataset/9/9_2.odb,Step-1,Increment      1: Step Time =    1.000,"PART-1-1",           297,       10.0765,      -21.6813,            0.,NA,NA,"",   158.659E-03,  -158.655E-03,   1.21317E-03,   3.88188E-03
C:/temp/dataset/9/9_2.odb,Step-1,Increment      1: Step Time =    1.000,"PART-1-1",           298,       9.14242,      -22.6395,            0.,NA,NA,"",   129.490E-03,  -127.603E-03,  -22.0237E-03,   4.83633E-03
C:/temp/dataset/9/9_2.odb,Step-1,Increment      1: Step Time =    1.000,"PART-1-1",           299,       9.99384,      -23.5137,            0.,NA,NA,"",   101.363E-03,  -101.363E-03,  -321.711E-06,   3.96151E-03
C:/temp/dataset/9/9_2.odb,Step-1,Increment      1: Step Time =    1.000,"PART-1-1",           300,       7.08785,      -18.4988,            0.,NA,NA,"",   304.270E-03,  -283.458E-03,  -110.599E-03,   8.14381E-03
C:/temp/dataset/9/9_2.odb,Step-1,Increment      1: Step Time =    1.000,"PART-1-1",           301,       6.04673,      -17.4684,            0.,NA,NA,"",   368.095E-03,  -330.836E-03,  -161.374E-03,   9.82475E-03
C:/temp/dataset/9/9_2.odb,Step-1,Increment      1: Step Time =    1.000,"PART-1-1",           302,            5.,      -18.5417,            0.,NA,NA,"",   348.326E-03,  -289.904E-03,  -193.097E-03,   13.2793E-03
C:/temp/dataset/9/9_2.odb,Step-1,Increment      1: Step Time =    1.000,"PART-1-1",           303,       6.04112,      -19.5721,            0.,NA,NA,"",   281.203E-03,  -243.883E-03,  -139.988E-03,   11.3193E-03
C:/temp/dataset/9/9_2.odb,Step-1,Increment      1: Step Time =    1.000,"PART-1-1",           304,       7.10245,      -14.2066,            0.,NA,NA,"",   502.624E-03,  -482.762E-03,  -139.898E-03,   6.07734E-03
C:/temp/dataset/9/9_2.odb,Step-1,Increment      1: Step Time =    1.000,"PART-1-1",           305,       6.04975,      -13.2285,            0.,NA,NA,"",   569.789E-03,  -534.498E-03,  -197.413E-03,   6.84011E-03
C:/temp/dataset/9/9_2.odb,Step-1,Increment      1: Step Time =    1.000,"PART-1-1",           306,            5.,       -14.375,            0.,NA,NA,"",   535.754E-03,  -478.945E-03,  -240.092E-03,   9.48092E-03
C:/temp/dataset/9/9_2.odb,Step-1,Increment      1: Step Time =    1.000,"PART-1-1",           307,       6.05270,      -15.3531,            0.,NA,NA,"",   464.645E-03,  -428.197E-03,  -180.395E-03,   8.32848E-03
C:/temp/dataset/9/9_2.odb,Step-1,Increment      1: Step Time =    1.000,"PART-1-1",           308,            5.,      -6.04167,            0.,NA,NA,"",   979.159E-03,  -933.623E-03,  -295.131E-03,   2.15545E-03
C:/temp/dataset/9/9_2.odb,Step-1,Increment      1: Step Time =    1.000,"PART-1-1",           309,       5.97724,      -6.85181,            0.,NA,NA,"",   918.579E-03,  -887.593E-03,  -236.572E-03,   2.51278E-03
C:/temp/dataset/9/9_2.odb,Step-1,Increment      1: Step Time =    1.000,"PART-1-1",           310,       6.83249,      -5.51927,            0.,NA,NA,"",   984.607E-03,  -965.465E-03,  -193.205E-03,   2.21101E-03
C:/temp/dataset/9/9_2.odb,Step-1,Increment      1: Step Time =    1.000,"PART-1-1",           311,       5.85525,      -4.70913,            0.,NA,NA,"",       1.04201,      -1.01150,  -250.309E-03,   1.31823E-03
C:/temp/dataset/9/9_2.odb,Step-1,Increment      1: Step Time =    1.000,"PART-1-1",           312,       4.27314,       1.25089,            0.,NA,NA,"",       1.39342,      -1.34841,  -351.296E-03,   80.7640E-06
C:/temp/dataset/9/9_2.odb,Step-1,Increment      1: Step Time =    1.000,"PART-1-1",           313,       3.27994,       2.49943,            0.,NA,NA,"",       1.47528,      -1.41732,  -409.438E-03,   90.2854E-06
C:/temp/dataset/9/9_2.odb,Step-1,Increment      1: Step Time =    1.000,"PART-1-1",           314,       2.05297,       1.31265,            0.,NA,NA,"",       1.43009,      -1.34819,  -477.024E-03,   86.3676E-06
C:/temp/dataset/9/9_2.odb,Step-1,Increment      1: Step Time =    1.000,"PART-1-1",           315,       3.04617,   64.1050E-03,            0.,NA,NA,"",       1.34604,      -1.27922,  -418.854E-03,   85.2942E-06
C:/temp/dataset/9/9_2.odb,Step-1,Increment      1: Step Time =    1.000,"PART-1-1",           316,       6.28410,       12.4112,            0.,NA,NA,"",       1.99689,      -1.98042,  -255.941E-03,   62.9305E-06
C:/temp/dataset/9/9_2.odb,Step-1,Increment      1: Step Time =    1.000,"PART-1-1",           317,            5.,         11.25,            0.,NA,NA,"",       1.94064,      -1.91300,  -326.363E-03,   82.3888E-06
C:/temp/dataset/9/9_2.odb,Step-1,Increment      1: Step Time =    1.000,"PART-1-1",           318,       6.24476,       9.82085,            0.,NA,NA,"",       1.85195,      -1.83446,  -253.895E-03,   67.0011E-06
C:/temp/dataset/9/9_2.odb,Step-1,Increment      1: Step Time =    1.000,"PART-1-1",           319,       7.52885,       10.9821,            0.,NA,NA,"",       1.91068,      -1.90185,  -183.481E-03,   49.3993E-06
C:/temp/dataset/9/9_2.odb,Step-1,Increment      1: Step Time =    1.000,"PART-1-1",           320,       6.23557,       19.9374,            0.,NA,NA,"",       2.41999,      -2.40477,  -271.001E-03,   36.7394E-06
C:/temp/dataset/9/9_2.odb,Step-1,Increment      1: Step Time =    1.000,"PART-1-1",           321,            5.,         18.75,            0.,NA,NA,"",       2.36026,      -2.33582,  -338.794E-03,   66.9501E-06
C:/temp/dataset/9/9_2.odb,Step-1,Increment      1: Step Time =    1.000,"PART-1-1",           322,       6.25255,       17.4722,            0.,NA,NA,"",       2.28126,      -2.26570,  -266.026E-03,   48.8670E-06
C:/temp/dataset/9/9_2.odb,Step-1,Increment      1: Step Time =    1.000,"PART-1-1",           323,       7.48812,       18.6595,            0.,NA,NA,"",       2.34304,      -2.33464,  -198.258E-03,   28.4492E-06
C:/temp/dataset/9/9_2.odb,Step-1,Increment      1: Step Time =    1.000,"PART-1-1",           324,       12.4612,       28.7577,            0.,NA,NA,"",       2.91335,      -2.91260,   66.1987E-03,   4.21097E-06
C:/temp/dataset/9/9_2.odb,Step-1,Increment      1: Step Time =    1.000,"PART-1-1",           325,         11.25,           30.,            0.,NA,NA,"",       2.98080,      -2.98080,  -4.14523E-03,   4.77077E-06
C:/temp/dataset/9/9_2.odb,Step-1,Increment      1: Step Time =    1.000,"PART-1-1",           326,       9.95383,       28.8406,            0.,NA,NA,"",       2.91427,      -2.91330,  -75.4533E-03,   8.59143E-06
C:/temp/dataset/9/9_2.odb,Step-1,Increment      1: Step Time =    1.000,"PART-1-1",           327,       11.1650,       27.5983,            0.,NA,NA,"",       2.84509,      -2.84509,  -5.10994E-03,   9.18195E-06
C:/temp/dataset/9/9_2.odb,Step-1,Increment      1: Step Time =    1.000,"PART-1-1",           328,       9.61193,       26.3742,            0.,NA,NA,"",       2.77501,      -2.77352,  -90.8090E-03,   13.4889E-06
C:/temp/dataset/9/9_2.odb,Step-1,Increment      1: Step Time =    1.000,"PART-1-1",           329,       10.8062,       25.0400,            0.,NA,NA,"",       2.70018,      -2.70009,  -21.2761E-03,   14.8562E-06
C:/temp/dataset/9/9_2.odb,Step-1,Increment      1: Step Time =    1.000,"PART-1-1",           330,       12.3592,       26.2641,            0.,NA,NA,"",       2.77242,      -2.77167,   64.4221E-03,   11.1342E-06
C:/temp/dataset/9/9_2.odb,Step-1,Increment      1: Step Time =    1.000,"PART-1-1",           331,       7.54419,       28.9985,            0.,NA,NA,"",       2.92606,      -2.91839,  -211.720E-03,   11.9488E-06
C:/temp/dataset/9/9_2.odb,Step-1,Increment      1: Step Time =    1.000,"PART-1-1",           332,          6.25,           30.,            0.,NA,NA,"",       2.98664,      -2.97288,  -286.383E-03,   13.8177E-06
C:/temp/dataset/9/9_2.odb,Step-1,Increment      1: Step Time =    1.000,"PART-1-1",           333,       5.09159,       28.9175,            0.,NA,NA,"",       2.93091,      -2.90993,  -350.052E-03,   11.8768E-06
C:/temp/dataset/9/9_2.odb,Step-1,Increment      1: Step Time =    1.000,"PART-1-1",           334,       6.38578,       27.9160,            0.,NA,NA,"",       2.86869,      -2.85544,  -275.382E-03,   10.1334E-06
C:/temp/dataset/9/9_2.odb,Step-1,Increment      1: Step Time =    1.000,"PART-1-1",           335,       2.95769,       26.1428,            0.,NA,NA,"",       2.78912,      -2.74990,  -466.102E-03,   15.1456E-06
C:/temp/dataset/9/9_2.odb,Step-1,Increment      1: Step Time =    1.000,"PART-1-1",           336,       4.45909,       25.3098,            0.,NA,NA,"",       2.73182,      -2.70526,  -379.986E-03,   15.0267E-06
C:/temp/dataset/9/9_2.odb,Step-1,Increment      1: Step Time =    1.000,"PART-1-1",           337,       5.44343,       26.8217,            0.,NA,NA,"",       2.81123,      -2.79217,  -326.831E-03,   12.1797E-06
C:/temp/dataset/9/9_2.odb,Step-1,Increment      1: Step Time =    1.000,"PART-1-1",           338,       3.94204,       27.6547,            0.,NA,NA,"",       2.86671,      -2.83681,  -412.937E-03,   11.1622E-06
C:/temp/dataset/9/9_2.odb,Step-1,Increment      1: Step Time =    1.000,"PART-1-1",           339,       6.06395,       7.26936,            0.,NA,NA,"",       1.71046,      -1.69060,  -259.894E-03,   64.9479E-06
C:/temp/dataset/9/9_2.odb,Step-1,Increment      1: Step Time =    1.000,"PART-1-1",           340,       7.30871,       8.34021,            0.,NA,NA,"",       1.76321,      -1.75278,  -191.556E-03,   66.1740E-06
C:/temp/dataset/9/9_2.odb,Step-1,Increment      1: Step Time =    1.000,"PART-1-1",           341,            5.,          8.75,            0.,NA,NA,"",       1.80130,      -1.77225,  -322.210E-03,   70.2670E-06
C:/temp/dataset/9/9_2.odb,Step-1,Increment      1: Step Time =    1.000,"PART-1-1",           342,      -13.9291,       1.47830,            0.,NA,NA,"",       1.91787,      -1.33163,      -1.38021,   25.0868E-06
C:/temp/dataset/9/9_2.odb,Step-1,Increment      1: Step Time =    1.000,"PART-1-1",           343,          -15.,    468.75E-03,            0.,NA,NA,"",       1.92126,      -1.27290,      -1.43908,   21.3327E-06
C:/temp/dataset/9/9_2.odb,Step-1,Increment      1: Step Time =    1.000,"PART-1-1",           344,      -13.8152,  -655.377E-03,            0.,NA,NA,"",       1.82901,      -1.21132,      -1.37040,   16.3023E-06
C:/temp/dataset/9/9_2.odb,Step-1,Increment      1: Step Time =    1.000,"PART-1-1",           345,      -12.7443,   354.171E-03,            0.,NA,NA,"",       1.82570,      -1.27005,      -1.31155,   23.8037E-06
C:/temp/dataset/9/9_2.odb,Step-1,Increment      1: Step Time =    1.000,"PART-1-1",           346,      -13.9678,       8.16706,            0.,NA,NA,"",       2.20478,      -1.70908,      -1.39287,   28.5311E-06
C:/temp/dataset/9/9_2.odb,Step-1,Increment      1: Step Time =    1.000,"PART-1-1",           347,          -15.,       7.03125,            0.,NA,NA,"",       2.19115,      -1.64335,      -1.44933,   37.3244E-06
C:/temp/dataset/9/9_2.odb,Step-1,Increment      1: Step Time =    1.000,"PART-1-1",           348,      -13.6804,       5.85321,            0.,NA,NA,"",       2.09248,      -1.57900,      -1.37304,   31.0108E-06
C:/temp/dataset/9/9_2.odb,Step-1,Increment      1: Step Time =    1.000,"PART-1-1",           349,      -12.6482,       6.98902,            0.,NA,NA,"",       2.10678,      -1.64474,      -1.31657,   23.2487E-06
C:/temp/dataset/9/9_2.odb,Step-1,Increment      1: Step Time =    1.000,"PART-1-1",           350,      -5.93089,       17.7206,            0.,NA,NA,"",       2.45390,      -2.26060,  -954.628E-03,   20.1735E-06
C:/temp/dataset/9/9_2.odb,Step-1,Increment      1: Step Time =    1.000,"PART-1-1",           351,      -7.00986,       16.6597,            0.,NA,NA,"",       2.42151,      -2.19907,      -1.01381,   19.2890E-06
C:/temp/dataset/9/9_2.odb,Step-1,Increment      1: Step Time =    1.000,"PART-1-1",           352,      -6.07897,       15.1891,            0.,NA,NA,"",       2.32466,      -2.11764,  -958.982E-03,   9.93996E-06
C:/temp/dataset/9/9_2.odb,Step-1,Increment      1: Step Time =    1.000,"PART-1-1",           353,           -5.,         16.25,            0.,NA,NA,"",       2.35764,      -2.17917,  -899.820E-03,   12.4101E-06
C:/temp/dataset/9/9_2.odb,Step-1,Increment      1: Step Time =    1.000,"PART-1-1",           354,      -7.79966,       18.2865,            0.,NA,NA,"",       2.52339,      -2.28953,      -1.06093,   22.2882E-06
C:/temp/dataset/9/9_2.odb,Step-1,Increment      1: Step Time =    1.000,"PART-1-1",           355,      -6.65288,       19.1839,            0.,NA,NA,"",       2.54559,      -2.34194,  -997.658E-03,   23.9766E-06
C:/temp/dataset/9/9_2.odb,Step-1,Increment      1: Step Time =    1.000,"PART-1-1",           356,      -7.29668,       20.7472,            0.,NA,NA,"",       2.64097,      -2.42909,      -1.03647,   16.7640E-06
C:/temp/dataset/9/9_2.odb,Step-1,Increment      1: Step Time =    1.000,"PART-1-1",           357,      -8.44345,       19.8498,            0.,NA,NA,"",       2.61877,      -2.37666,      -1.09974,   14.6665E-06
C:/temp/dataset/9/9_2.odb,Step-1,Increment      1: Step Time =    1.000,"PART-1-1",           358,      -2.59303,       4.06073,            0.,NA,NA,"",       1.67078,      -1.49587,  -744.223E-03,   73.4545E-06
C:/temp/dataset/9/9_2.odb,Step-1,Increment      1: Step Time =    1.000,"PART-1-1",           359,      -1.46713,       2.91047,            0.,NA,NA,"",       1.58534,      -1.43270,  -678.731E-03,   61.8691E-06
C:/temp/dataset/9/9_2.odb,Step-1,Increment      1: Step Time =    1.000,"PART-1-1",           360,  -124.098E-03,       3.84974,            0.,NA,NA,"",       1.60603,      -1.48804,  -604.218E-03,   63.3135E-06
C:/temp/dataset/9/9_2.odb,Step-1,Increment      1: Step Time =    1.000,"PART-1-1",           361,         -1.25,            5.,            0.,NA,NA,"",       1.68964,      -1.55124,  -669.725E-03,   75.6573E-06
C:/temp/dataset/9/9_2.odb,Step-1,Increment      1: Step Time =    1.000,"PART-1-1",           362,      -11.2683,  -541.568E-03,            0.,NA,NA,"",       1.73145,      -1.22182,      -1.22681,   27.4043E-06
C:/temp/dataset/9/9_2.odb,Step-1,Increment      1: Step Time =    1.000,"PART-1-1",           363,      -10.4743,   471.696E-03,            0.,NA,NA,"",       1.74360,      -1.28032,      -1.18361,   30.3462E-06
C:/temp/dataset/9/9_2.odb,Step-1,Increment      1: Step Time =    1.000,"PART-1-1",           364,      -11.9503,       1.36743,            0.,NA,NA,"",       1.83676,      -1.32855,      -1.26833,   26.9556E-06
C:/temp/dataset/9/9_2.odb,Step-1,Increment      1: Step Time =    1.000,"PART-1-1",           365,      -13.0095,       9.29789,            0.,NA,NA,"",       2.22388,      -1.77440,      -1.34059,   22.2891E-06
C:/temp/dataset/9/9_2.odb,Step-1,Increment      1: Step Time =    1.000,"PART-1-1",           366,      -14.0417,       10.3496,            0.,NA,NA,"",       2.30602,      -1.83205,      -1.40047,   22.0228E-06
C:/temp/dataset/9/9_2.odb,Step-1,Increment      1: Step Time =    1.000,"PART-1-1",           367,          -15.,       9.21875,            0.,NA,NA,"",       2.28732,      -1.76674,      -1.45274,   29.9973E-06
C:/temp/dataset/9/9_2.odb,Step-1,Increment      1: Step Time =    1.000,"PART-1-1",           368,      -6.40766,      -1.28741,            0.,NA,NA,"",       1.52145,      -1.18741,  -951.247E-03,   34.8651E-06
C:/temp/dataset/9/9_2.odb,Step-1,Increment      1: Step Time =    1.000,"PART-1-1",           369,      -5.35016,  -573.084E-03,            0.,NA,NA,"",       1.51936,      -1.22946,  -892.674E-03,   31.3523E-06
C:/temp/dataset/9/9_2.odb,Step-1,Increment      1: Step Time =    1.000,"PART-1-1",           370,      -6.23385,   230.463E-03,            0.,NA,NA,"",       1.58512,      -1.27347,  -943.863E-03,   32.3376E-06
C:/temp/dataset/9/9_2.odb,Step-1,Increment      1: Step Time =    1.000,"PART-1-1",           371,      -7.29135,  -483.859E-03,            0.,NA,NA,"",       1.58784,      -1.23142,      -1.00243,   34.8661E-06
C:/temp/dataset/9/9_2.odb,Step-1,Increment      1: Step Time =    1.000,"PART-1-1",           372,   952.242E-03,      -2.53706,            0.,NA,NA,"",       1.24805,      -1.12837,  -533.308E-03,   95.9404E-06
C:/temp/dataset/9/9_2.odb,Step-1,Increment      1: Step Time =    1.000,"PART-1-1",           373,  -130.910E-03,      -3.80019,            0.,NA,NA,"",       1.21011,      -1.05512,  -592.519E-03,   96.2472E-06
C:/temp/dataset/9/9_2.odb,Step-1,Increment      1: Step Time =    1.000,"PART-1-1",           374,          1.25,           -5.,            0.,NA,NA,"",       1.11406,  -989.236E-03,  -512.384E-03,   185.133E-06
C:/temp/dataset/9/9_2.odb,Step-1,Increment      1: Step Time =    1.000,"PART-1-1",           375,       2.33315,      -3.73687,            0.,NA,NA,"",       1.15501,      -1.06240,  -453.161E-03,   175.543E-06
C:/temp/dataset/9/9_2.odb,Step-1,Increment      1: Step Time =    1.000,"PART-1-1",           376,       4.26686,      -1.13377,            0.,NA,NA,"",       1.26223,      -1.21336,  -347.808E-03,   102.795E-06
C:/temp/dataset/9/9_2.odb,Step-1,Increment      1: Step Time =    1.000,"PART-1-1",           377,       2.05254,      -1.20548,            0.,NA,NA,"",       1.29516,      -1.20565,  -473.134E-03,   66.3464E-06
C:/temp/dataset/9/9_2.odb,Step-1,Increment      1: Step Time =    1.000,"PART-1-1",           378,       3.27323,      -2.40335,            0.,NA,NA,"",       1.20851,      -1.13969,  -402.008E-03,   117.591E-06
C:/temp/dataset/9/9_2.odb,Step-1,Increment      1: Step Time =    1.000,"PART-1-1",           379,       10.4325,       1.51548,            0.,NA,NA,"",       1.37401,      -1.37400,  -4.76902E-03,   306.018E-06
C:/temp/dataset/9/9_2.odb,Step-1,Increment      1: Step Time =    1.000,"PART-1-1",           380,       11.3847,  -3.51279E-03,            0.,NA,NA,"",       1.29167,      -1.29068,   50.6365E-03,   797.363E-06
C:/temp/dataset/9/9_2.odb,Step-1,Increment      1: Step Time =    1.000,"PART-1-1",           381,       12.7244,       1.31309,            0.,NA,NA,"",       1.37262,      -1.36701,   124.005E-03,   449.762E-06
C:/temp/dataset/9/9_2.odb,Step-1,Increment      1: Step Time =    1.000,"PART-1-1",           382,       11.7722,       2.83209,            0.,NA,NA,"",       1.45172,      -1.45011,   68.3965E-03,   98.6216E-06
C:/temp/dataset/9/9_2.odb,Step-1,Increment      1: Step Time =    1.000,"PART-1-1",           383,       9.00808,      -7.25637,            0.,NA,NA,"",   869.900E-03,  -867.019E-03,  -70.7372E-03,   3.41345E-03
C:/temp/dataset/9/9_2.odb,Step-1,Increment      1: Step Time =    1.000,"PART-1-1",           384,       7.95196,      -6.36313,            0.,NA,NA,"",   926.731E-03,  -917.636E-03,  -129.516E-03,   2.77254E-03
C:/temp/dataset/9/9_2.odb,Step-1,Increment      1: Step Time =    1.000,"PART-1-1",           385,       7.00211,      -7.70397,            0.,NA,NA,"",   857.511E-03,  -839.058E-03,  -176.935E-03,   3.17817E-03
C:/temp/dataset/9/9_2.odb,Step-1,Increment      1: Step Time =    1.000,"PART-1-1",           386,       8.05823,      -8.59720,            0.,NA,NA,"",   797.055E-03,  -788.350E-03,  -117.482E-03,   3.54456E-03
C:/temp/dataset/9/9_2.odb,Step-1,Increment      1: Step Time =    1.000,"PART-1-1",           387,       7.09104,      -12.0381,            0.,NA,NA,"",   615.437E-03,  -596.139E-03,  -152.911E-03,   5.10631E-03
C:/temp/dataset/9/9_2.odb,Step-1,Increment      1: Step Time =    1.000,"PART-1-1",           388,       6.04129,      -11.1013,            0.,NA,NA,"",   681.690E-03,  -647.826E-03,  -212.185E-03,   5.35322E-03
C:/temp/dataset/9/9_2.odb,Step-1,Increment      1: Step Time =    1.000,"PART-1-1",           389,            5.,      -12.2917,            0.,NA,NA,"",   640.092E-03,  -585.439E-03,  -258.804E-03,   7.54959E-03
C:/temp/dataset/9/9_2.odb,Step-1,Increment      1: Step Time =    1.000,"PART-1-1",           390,       9.13117,      -18.4822,            0.,NA,NA,"",   283.195E-03,  -281.067E-03,  -34.6568E-03,   4.50771E-03
C:/temp/dataset/9/9_2.odb,Step-1,Increment      1: Step Time =    1.000,"PART-1-1",           391,       10.1297,      -19.6034,            0.,NA,NA,"",   235.333E-03,  -235.323E-03,   2.20292E-03,   3.87193E-03
C:/temp/dataset/9/9_2.odb,Step-1,Increment      1: Step Time =    1.000,"PART-1-1",           392,       11.1535,      -18.5257,            0.,NA,NA,"",   283.710E-03,  -281.033E-03,   38.8811E-03,   4.90441E-03
C:/temp/dataset/9/9_2.odb,Step-1,Increment      1: Step Time =    1.000,"PART-1-1",           393,       10.1550,      -17.4045,            0.,NA,NA,"",   328.447E-03,  -328.440E-03,   2.01895E-03,   3.86677E-03
C:/temp/dataset/9/9_2.odb,Step-1,Increment      1: Step Time =    1.000,"PART-1-1",           394,       6.27183,       14.9637,            0.,NA,NA,"",       2.14022,      -2.12427,  -260.825E-03,   56.5097E-06
C:/temp/dataset/9/9_2.odb,Step-1,Increment      1: Step Time =    1.000,"PART-1-1",           395,       7.52438,       16.1859,            0.,NA,NA,"",       2.20355,      -2.19515,  -192.203E-03,   36.9500E-06
C:/temp/dataset/9/9_2.odb,Step-1,Increment      1: Step Time =    1.000,"PART-1-1",           396,            5.,         16.25,            0.,NA,NA,"",       2.22018,      -2.19481,  -334.658E-03,   69.4399E-06
C:/temp/dataset/9/9_2.odb,Step-1,Increment      1: Step Time =    1.000,"PART-1-1",           397,       2.56719,       21.1071,            0.,NA,NA,"",       2.51131,      -2.46499,  -480.090E-03,   10.0582E-06
C:/temp/dataset/9/9_2.odb,Step-1,Increment      1: Step Time =    1.000,"PART-1-1",           398,       1.41709,       22.2600,            0.,NA,NA,"",       2.58673,      -2.52826,  -546.892E-03,   15.0853E-06
C:/temp/dataset/9/9_2.odb,Step-1,Increment      1: Step Time =    1.000,"PART-1-1",           399,   99.9026E-03,       21.1528,            0.,NA,NA,"",       2.54036,      -2.46366,  -619.507E-03,   15.1909E-06
C:/temp/dataset/9/9_2.odb,Step-1,Increment      1: Step Time =    1.000,"PART-1-1",           400,          1.25,           20.,            0.,NA,NA,"",       2.46319,      -2.40038,  -552.711E-03,   13.8217E-06
C:/temp/dataset/9/9_2.odb,Step-1,Increment      1: Step Time =    1.000,"PART-1-1",           401,       7.55593,       13.6250,            0.,NA,NA,"",       2.05925,      -2.05081,  -186.262E-03,   43.1274E-06
C:/temp/dataset/9/9_2.odb,Step-1,Increment      1: Step Time =    1.000,"PART-1-1",           402,            5.,         13.75,            0.,NA,NA,"",       2.08029,      -2.05386,  -330.518E-03,   77.2573E-06
C:/temp/dataset/9/9_2.odb,Step-1,Increment      1: Step Time =    1.000,"PART-1-1",           403,       8.77818,       14.9146,            0.,NA,NA,"",       2.12879,      -2.12544,  -119.467E-03,   26.8010E-06
C:/temp/dataset/9/9_2.odb,Step-1,Increment      1: Step Time =    1.000,"PART-1-1",           404,       10.0010,       16.1752,            0.,NA,NA,"",       2.19909,      -2.19847,  -52.5603E-03,   19.9430E-06
C:/temp/dataset/9/9_2.odb,Step-1,Increment      1: Step Time =    1.000,"PART-1-1",           405,       8.74716,       17.4465,            0.,NA,NA,"",       2.27165,      -2.26819,  -125.290E-03,   23.7227E-06
C:/temp/dataset/9/9_2.odb,Step-1,Increment      1: Step Time =    1.000,"PART-1-1",           406,       10.1219,       5.90684,            0.,NA,NA,"",       1.62048,      -1.62021,  -29.2364E-03,   74.3629E-06
C:/temp/dataset/9/9_2.odb,Step-1,Increment      1: Step Time =    1.000,"PART-1-1",           407,       8.94830,       5.07672,            0.,NA,NA,"",       1.57451,      -1.57171,  -93.8700E-03,   81.6688E-06
C:/temp/dataset/9/9_2.odb,Step-1,Increment      1: Step Time =    1.000,"PART-1-1",           408,       9.72441,       3.42413,            0.,NA,NA,"",       1.48076,      -1.48000,  -47.5150E-03,   87.5773E-06
C:/temp/dataset/9/9_2.odb,Step-1,Increment      1: Step Time =    1.000,"PART-1-1",           409,       10.8980,       4.25426,            0.,NA,NA,"",       1.52861,      -1.52851,   17.0759E-03,   59.8777E-06
C:/temp/dataset/9/9_2.odb,Step-1,Increment      1: Step Time =    1.000,"PART-1-1",           410,       8.15250,       6.68373,            0.,NA,NA,"",       1.66688,      -1.66088,  -141.323E-03,   82.0233E-06
C:/temp/dataset/9/9_2.odb,Step-1,Increment      1: Step Time =    1.000,"PART-1-1",           411,       9.64075,       7.71724,            0.,NA,NA,"",       1.72235,      -1.72133,  -59.2617E-03,   58.1382E-06
C:/temp/dataset/9/9_2.odb,Step-1,Increment      1: Step Time =    1.000,"PART-1-1",           412,       8.79696,       9.37373,            0.,NA,NA,"",       1.81656,      -1.81326,  -109.453E-03,   45.7807E-06
C:/temp/dataset/9/9_2.odb,Step-1,Increment      1: Step Time =    1.000,"PART-1-1",           413,   959.485E-03,       2.63099,            0.,NA,NA,"",       1.52041,      -1.42092,  -540.977E-03,   79.7117E-06
C:/temp/dataset/9/9_2.odb,Step-1,Increment      1: Step Time =    1.000,"PART-1-1",           414,       2.33358,       3.78125,            0.,NA,NA,"",       1.55916,      -1.48820,  -465.008E-03,   52.9393E-06
C:/temp/dataset/9/9_2.odb,Step-1,Increment      1: Step Time =    1.000,"PART-1-1",           415,          1.25,            5.,            0.,NA,NA,"",       1.64264,      -1.55538,  -528.273E-03,   35.5580E-06
C:/temp/dataset/9/9_2.odb,Step-1,Increment      1: Step Time =    1.000,"PART-1-1",           416,      -9.23288,       7.29816,            0.,NA,NA,"",       2.01128,      -1.66766,      -1.12434,   20.4174E-06
C:/temp/dataset/9/9_2.odb,Step-1,Increment      1: Step Time =    1.000,"PART-1-1",           417,      -8.32915,       6.01548,            0.,NA,NA,"",       1.92285,      -1.59676,      -1.07131,   25.4071E-06
C:/temp/dataset/9/9_2.odb,Step-1,Increment      1: Step Time =    1.000,"PART-1-1",           418,      -7.21136,       6.82340,            0.,NA,NA,"",       1.92932,      -1.64413,      -1.00952,   23.4495E-06
C:/temp/dataset/9/9_2.odb,Step-1,Increment      1: Step Time =    1.000,"PART-1-1",           419,      -8.11509,       8.10607,            0.,NA,NA,"",       2.01749,      -1.71501,      -1.06256,   20.4906E-06
C:/temp/dataset/9/9_2.odb,Step-1,Increment      1: Step Time =    1.000,"PART-1-1",           420,      -13.1318,       11.4675,            0.,NA,NA,"",       2.32849,      -1.89655,      -1.35091,   18.6635E-06
C:/temp/dataset/9/9_2.odb,Step-1,Increment      1: Step Time =    1.000,"PART-1-1",           421,      -14.0901,       12.5242,            0.,NA,NA,"",       2.40812,      -1.95460,      -1.40662,   14.5411E-06
C:/temp/dataset/9/9_2.odb,Step-1,Increment      1: Step Time =    1.000,"PART-1-1",           422,          -15.,       11.4063,            0.,NA,NA,"",       2.38599,      -1.89011,      -1.45617,   20.0566E-06
C:/temp/dataset/9/9_2.odb,Step-1,Increment      1: Step Time =    1.000,"PART-1-1",           423,      -9.35396,       14.3983,            0.,NA,NA,"",       2.36243,      -2.06783,      -1.14244,   19.0960E-06
C:/temp/dataset/9/9_2.odb,Step-1,Increment      1: Step Time =    1.000,"PART-1-1",           424,      -10.5094,       15.3924,            0.,NA,NA,"",       2.44237,      -2.12203,      -1.20920,   18.6267E-06
C:/temp/dataset/9/9_2.odb,Step-1,Increment      1: Step Time =    1.000,"PART-1-1",           425,      -11.3610,       13.8160,            0.,NA,NA,"",       2.38801,      -2.03180,      -1.25474,   18.6636E-06
C:/temp/dataset/9/9_2.odb,Step-1,Increment      1: Step Time =    1.000,"PART-1-1",           426,      -10.2056,       12.8219,            0.,NA,NA,"",       2.30698,      -1.97759,      -1.18798,   18.9404E-06
C:/temp/dataset/9/9_2.odb,Step-1,Increment      1: Step Time =    1.000,"PART-1-1",           427,      -14.0810,       18.8007,            0.,NA,NA,"",       2.70826,      -2.30854,      -1.41609,   8.10514E-06
C:/temp/dataset/9/9_2.odb,Step-1,Increment      1: Step Time =    1.000,"PART-1-1",           428,          -15.,       17.9688,            0.,NA,NA,"",       2.69429,      -2.26016,      -1.46659,   7.84609E-06
C:/temp/dataset/9/9_2.odb,Step-1,Increment      1: Step Time =    1.000,"PART-1-1",           429,      -14.2329,       16.7349,            0.,NA,NA,"",       2.61233,      -2.19180,      -1.42136,   5.05957E-06
C:/temp/dataset/9/9_2.odb,Step-1,Increment      1: Step Time =    1.000,"PART-1-1",           430,      -13.3139,       17.5668,            0.,NA,NA,"",       2.62634,      -2.24018,      -1.37085,   8.15300E-06
C:/temp/dataset/9/9_2.odb,Step-1,Increment      1: Step Time =    1.000,"PART-1-1",           431,      -12.9537,       19.5700,            0.,NA,NA,"",       2.71525,      -2.35372,      -1.35373,   6.53654E-06
C:/temp/dataset/9/9_2.odb,Step-1,Increment      1: Step Time =    1.000,"PART-1-1",           432,      -13.8727,       20.9255,            0.,NA,NA,"",       2.80720,      -2.42872,      -1.40773,   9.15635E-06
C:/temp/dataset/9/9_2.odb,Step-1,Increment      1: Step Time =    1.000,"PART-1-1",           433,          -15.,       20.1563,            0.,NA,NA,"",       2.80043,      -2.38354,      -1.47009,   12.2302E-06
C:/temp/dataset/9/9_2.odb,Step-1,Increment      1: Step Time =    1.000,"PART-1-1",           434,       1.76445,       24.7908,            0.,NA,NA,"",       2.72401,      -2.67169,  -531.323E-03,   17.4081E-06
C:/temp/dataset/9/9_2.odb,Step-1,Increment      1: Step Time =    1.000,"PART-1-1",           435,       1.36974,       27.3866,            0.,NA,NA,"",       2.87227,      -2.81759,  -557.762E-03,   12.4448E-06
C:/temp/dataset/9/9_2.odb,Step-1,Increment      1: Step Time =    1.000,"PART-1-1",           436,   176.493E-03,       26.0346,            0.,NA,NA,"",       2.80932,      -2.73937,  -622.986E-03,   14.8834E-06
C:/temp/dataset/9/9_2.odb,Step-1,Increment      1: Step Time =    1.000,"PART-1-1",           437,       7.39460,       20.9669,            0.,NA,NA,"",       2.47342,      -2.46472,  -207.260E-03,   29.0287E-06
C:/temp/dataset/9/9_2.odb,Step-1,Increment      1: Step Time =    1.000,"PART-1-1",           438,       8.70526,       19.9066,            0.,NA,NA,"",       2.41055,      -2.40695,  -131.605E-03,   23.2643E-06
C:/temp/dataset/9/9_2.odb,Step-1,Increment      1: Step Time =    1.000,"PART-1-1",           439,       9.85134,       21.1719,            0.,NA,NA,"",       2.48115,      -2.48019,  -68.9767E-03,   23.2963E-06
C:/temp/dataset/9/9_2.odb,Step-1,Increment      1: Step Time =    1.000,"PART-1-1",           440,       8.54068,       22.2321,            0.,NA,NA,"",       2.54208,      -2.53797,  -144.626E-03,   23.7669E-06
C:/temp/dataset/9/9_2.odb,Step-1,Increment      1: Step Time =    1.000,"PART-1-1",           441,       4.10864,       24.1658,            0.,NA,NA,"",       2.66994,      -2.64012,  -397.938E-03,   18.8044E-06
C:/temp/dataset/9/9_2.odb,Step-1,Increment      1: Step Time =    1.000,"PART-1-1",           442,       5.90921,       23.8009,            0.,NA,NA,"",       2.63899,      -2.62237,  -295.683E-03,   19.5660E-06
C:/temp/dataset/9/9_2.odb,Step-1,Increment      1: Step Time =    1.000,"PART-1-1",           443,       6.25965,       24.9450,            0.,NA,NA,"",       2.70183,      -2.68752,  -277.738E-03,   16.3505E-06
C:/temp/dataset/9/9_2.odb,Step-1,Increment      1: Step Time =    1.000,"PART-1-1",           444,   19.2837E-03,       28.6494,            0.,NA,NA,"",       2.95597,      -2.88673,  -636.036E-03,   6.98472E-06
C:/temp/dataset/9/9_2.odb,Step-1,Increment      1: Step Time =    1.000,"PART-1-1",           445,       2.60045,       28.7372,            0.,NA,NA,"",       2.93703,      -2.89580,  -490.423E-03,   9.01920E-06
C:/temp/dataset/9/9_2.odb,Step-1,Increment      1: Step Time =    1.000,"PART-1-1",           446,          1.25,           30.,            0.,NA,NA,"",       3.01899,      -2.96495,  -568.696E-03,   2.89427E-06
C:/temp/dataset/9/9_2.odb,Step-1,Increment      1: Step Time =    1.000,"PART-1-1",           447,      -7.67774,       29.0428,            0.,NA,NA,"",       3.08833,      -2.89661,      -1.07116,   9.97561E-06
C:/temp/dataset/9/9_2.odb,Step-1,Increment      1: Step Time =    1.000,"PART-1-1",           448,      -6.68998,       27.9093,            0.,NA,NA,"",       3.01002,      -2.83422,      -1.01362,   6.31811E-06
C:/temp/dataset/9/9_2.odb,Step-1,Increment      1: Step Time =    1.000,"PART-1-1",           449,         -6.25,           30.,            0.,NA,NA,"",       3.11513,      -2.95293,  -992.109E-03,   14.0459E-06
C:/temp/dataset/9/9_2.odb,Step-1,Increment      1: Step Time =    1.000,"PART-1-1",           450,      -12.1701,       26.6384,            0.,NA,NA,"",       3.05413,      -2.75376,      -1.32081,   6.80511E-06
C:/temp/dataset/9/9_2.odb,Step-1,Increment      1: Step Time =    1.000,"PART-1-1",           451,      -13.7206,       27.8542,            0.,NA,NA,"",       3.15286,      -2.81989,      -1.41023,   3.14791E-06
C:/temp/dataset/9/9_2.odb,Step-1,Increment      1: Step Time =    1.000,"PART-1-1",           452,          -15.,       26.7188,            0.,NA,NA,"",       3.12658,      -2.75379,      -1.48060,   3.84747E-06
C:/temp/dataset/9/9_2.odb,Step-1,Increment      1: Step Time =    1.000,"PART-1-1",           453,        -13.75,           30.,            0.,NA,NA,"",       3.26376,      -2.94092,      -1.41530,   666.803E-09
C:/temp/dataset/9/9_2.odb,Step-1,Increment      1: Step Time =    1.000,"PART-1-1",           454,          -15.,       28.9063,            0.,NA,NA,"",       3.23742,      -2.87722,      -1.48409,   590.678E-09
C:/temp/dataset/9/9_2.odb,Step-1,Increment      1: Step Time =    1.000,"PART-1-1",           455,      -9.01567,       28.1413,            0.,NA,NA,"",       3.06555,      -2.84360,      -1.14522,   7.27383E-06
C:/temp/dataset/9/9_2.odb,Step-1,Increment      1: Step Time =    1.000,"PART-1-1",           456,         -8.75,           30.,            0.,NA,NA,"",       3.15915,      -2.94891,      -1.13319,   10.6434E-06
C:/temp/dataset/9/9_2.odb,Step-1,Increment      1: Step Time =    1.000,"PART-1-1",           457,      -10.9923,       18.6369,            0.,NA,NA,"",       2.61743,      -2.30421,      -1.24160,   12.3209E-06
C:/temp/dataset/9/9_2.odb,Step-1,Increment      1: Step Time =    1.000,"PART-1-1",           458,      -11.7056,       20.1347,            0.,NA,NA,"",       2.71102,      -2.38755,      -1.28422,   7.40202E-06
C:/temp/dataset/9/9_2.odb,Step-1,Increment      1: Step Time =    1.000,"PART-1-1",           459,      -12.2405,       18.0722,            0.,NA,NA,"",       2.62176,      -2.27038,      -1.31111,   10.7683E-06
C:/temp/dataset/9/9_2.odb,Step-1,Increment      1: Step Time =    1.000,"PART-1-1",           460,      -11.7153,       17.0060,            0.,NA,NA,"",       2.55476,      -2.21110,      -1.27979,   14.0082E-06
C:/temp/dataset/9/9_2.odb,Step-1,Increment      1: Step Time =    1.000,"PART-1-1",           461,      -12.7888,       16.5007,            0.,NA,NA,"",       2.55942,      -2.18089,      -1.33953,   11.3057E-06
C:/temp/dataset/9/9_2.odb,Step-1,Increment      1: Step Time =    1.000,"PART-1-1",           462,      -13.2634,       13.5986,            0.,NA,NA,"",       2.43321,      -2.01651,      -1.36170,   14.2588E-06
C:/temp/dataset/9/9_2.odb,Step-1,Increment      1: Step Time =    1.000,"PART-1-1",           463,      -14.1733,       14.6682,            0.,NA,NA,"",       2.51168,      -2.07536,      -1.41471,   7.58609E-06
C:/temp/dataset/9/9_2.odb,Step-1,Increment      1: Step Time =    1.000,"PART-1-1",           464,          -15.,       13.5938,            0.,NA,NA,"",       2.48687,      -2.01346,      -1.45963,   9.72454E-06
C:/temp/dataset/9/9_2.odb,Step-1,Increment      1: Step Time =    1.000,"PART-1-1",           465,      -6.04154,       10.1420,            0.,NA,NA,"",       2.06412,      -1.83311,  -948.840E-03,   9.46204E-06
C:/temp/dataset/9/9_2.odb,Step-1,Increment      1: Step Time =    1.000,"PART-1-1",           466,      -7.09581,       9.10381,            0.,NA,NA,"",       2.03875,      -1.77290,      -1.00665,   16.3155E-06
C:/temp/dataset/9/9_2.odb,Step-1,Increment      1: Step Time =    1.000,"PART-1-1",           467,      -6.05428,       7.71180,            0.,NA,NA,"",       1.94188,      -1.69606,  -945.663E-03,   19.2943E-06
C:/temp/dataset/9/9_2.odb,Step-1,Increment      1: Step Time =    1.000,"PART-1-1",           468,           -5.,          8.75,            0.,NA,NA,"",       1.96794,      -1.75627,  -887.875E-03,   16.3897E-06
C:/temp/dataset/9/9_2.odb,Step-1,Increment      1: Step Time =    1.000,"PART-1-1",           469,      -6.15708,       5.36159,            0.,NA,NA,"",       1.82820,      -1.56339,  -947.688E-03,   57.5877E-06
C:/temp/dataset/9/9_2.odb,Step-1,Increment      1: Step Time =    1.000,"PART-1-1",           470,           -5.,          6.25,            0.,NA,NA,"",       1.84130,      -1.61530,  -883.845E-03,   47.3484E-06
C:/temp/dataset/9/9_2.odb,Step-1,Increment      1: Step Time =    1.000,"PART-1-1",           471,      -13.8567,       3.63033,            0.,NA,NA,"",       2.00374,      -1.45326,      -1.37950,   30.9493E-06
C:/temp/dataset/9/9_2.odb,Step-1,Increment      1: Step Time =    1.000,"PART-1-1",           472,      -12.5372,       4.63979,            0.,NA,NA,"",       1.99862,      -1.51236,      -1.30661,   23.2634E-06
C:/temp/dataset/9/9_2.odb,Step-1,Increment      1: Step Time =    1.000,"PART-1-1",           473,          -15.,       4.84375,            0.,NA,NA,"",       2.09781,      -1.51991,      -1.44592,   39.2171E-06
C:/temp/dataset/9/9_2.odb,Step-1,Increment      1: Step Time =    1.000,"PART-1-1",           474,      -12.7859,       2.45238,            0.,NA,NA,"",       1.91387,      -1.38847,      -1.31721,   24.8891E-06
C:/temp/dataset/9/9_2.odb,Step-1,Increment      1: Step Time =    1.000,"PART-1-1",           475,          -15.,       2.65625,            0.,NA,NA,"",       2.00769,      -1.39642,      -1.44251,   33.4982E-06
C:/temp/dataset/9/9_2.odb,Step-1,Increment      1: Step Time =    1.000,"PART-1-1",           476,      -13.7683,      -2.81830,            0.,NA,NA,"",       1.74580,      -1.08924,      -1.36432,   7.52023E-06
C:/temp/dataset/9/9_2.odb,Step-1,Increment      1: Step Time =    1.000,"PART-1-1",           477,          -15.,      -3.90625,            0.,NA,NA,"",       1.76163,      -1.02584,      -1.43213,   1.11329E-06
C:/temp/dataset/9/9_2.odb,Step-1,Increment      1: Step Time =    1.000,"PART-1-1",           478,        -13.75,           -5.,            0.,NA,NA,"",       1.66805,  -966.082E-03,      -1.35980,   1.17070E-06
C:/temp/dataset/9/9_2.odb,Step-1,Increment      1: Step Time =    1.000,"PART-1-1",           479,      -12.5183,      -3.91205,            0.,NA,NA,"",       1.65199,      -1.02947,      -1.29200,   7.85613E-06
C:/temp/dataset/9/9_2.odb,Step-1,Increment      1: Step Time =    1.000,"PART-1-1",           480,      -3.91473,      -3.03803,            0.,NA,NA,"",       1.35852,      -1.09238,  -807.628E-03,   49.3638E-06
C:/temp/dataset/9/9_2.odb,Step-1,Increment      1: Step Time =    1.000,"PART-1-1",           481,      -5.07319,      -4.05962,            0.,NA,NA,"",       1.35135,      -1.03285,  -871.417E-03,   51.7671E-06
C:/temp/dataset/9/9_2.odb,Step-1,Increment      1: Step Time =    1.000,"PART-1-1",           482,         -3.75,           -5.,            0.,NA,NA,"",       1.26336,  -981.753E-03,  -795.134E-03,   74.7528E-06
C:/temp/dataset/9/9_2.odb,Step-1,Increment      1: Step Time =    1.000,"PART-1-1",           483,      -2.59153,      -3.97841,            0.,NA,NA,"",       1.27243,      -1.04127,  -731.334E-03,   68.1269E-06
C:/temp/dataset/9/9_2.odb,Step-1,Increment      1: Step Time =    1.000,"PART-1-1",           484,   563.435E-03,   72.7383E-03,            0.,NA,NA,"",       1.39283,      -1.27555,  -559.404E-03,   70.5495E-06
C:/temp/dataset/9/9_2.odb,Step-1,Increment      1: Step Time =    1.000,"PART-1-1",           485,  -536.863E-03,      -1.25885,            0.,NA,NA,"",       1.34906,      -1.19838,  -619.559E-03,   42.0273E-06
C:/temp/dataset/9/9_2.odb,Step-1,Increment      1: Step Time =    1.000,"PART-1-1",           486,       7.06616,      -9.87010,            0.,NA,NA,"",   734.349E-03,  -715.617E-03,  -164.807E-03,   4.15615E-03
C:/temp/dataset/9/9_2.odb,Step-1,Increment      1: Step Time =    1.000,"PART-1-1",           487,       6.02487,      -8.97716,            0.,NA,NA,"",   798.397E-03,  -766.105E-03,  -224.769E-03,   3.89420E-03
C:/temp/dataset/9/9_2.odb,Step-1,Increment      1: Step Time =    1.000,"PART-1-1",           488,            5.,      -10.2083,            0.,NA,NA,"",   749.794E-03,  -697.860E-03,  -274.196E-03,   5.61554E-03
C:/temp/dataset/9/9_2.odb,Step-1,Increment      1: Step Time =    1.000,"PART-1-1",           489,       13.0743,      -11.4048,            0.,NA,NA,"",   653.710E-03,  -638.227E-03,   141.430E-03,   4.89355E-03
C:/temp/dataset/9/9_2.odb,Step-1,Increment      1: Step Time =    1.000,"PART-1-1",           490,       14.0423,      -12.5586,            0.,NA,NA,"",   608.677E-03,  -579.260E-03,   186.938E-03,   6.60877E-03
C:/temp/dataset/9/9_2.odb,Step-1,Increment      1: Step Time =    1.000,"PART-1-1",           491,           15.,        -11.25,            0.,NA,NA,"",   698.046E-03,  -654.263E-03,   243.329E-03,   6.96756E-03
C:/temp/dataset/9/9_2.odb,Step-1,Increment      1: Step Time =    1.000,"PART-1-1",           492,       14.0319,      -10.0962,            0.,NA,NA,"",   740.732E-03,  -714.562E-03,   195.151E-03,   4.84085E-03
C:/temp/dataset/9/9_2.odb,Step-1,Increment      1: Step Time =    1.000,"PART-1-1",           493,       7.09943,      -16.3632,            0.,NA,NA,"",   398.315E-03,  -377.903E-03,  -125.875E-03,   7.09218E-03
C:/temp/dataset/9/9_2.odb,Step-1,Increment      1: Step Time =    1.000,"PART-1-1",           494,            5.,      -16.4583,            0.,NA,NA,"",   438.123E-03,  -379.943E-03,  -218.161E-03,   11.3891E-03
C:/temp/dataset/9/9_2.odb,Step-1,Increment      1: Step Time =    1.000,"PART-1-1",           495,       13.0966,      -13.8278,            0.,NA,NA,"",   526.597E-03,  -508.944E-03,   135.207E-03,   6.15500E-03
C:/temp/dataset/9/9_2.odb,Step-1,Increment      1: Step Time =    1.000,"PART-1-1",           496,       14.0543,      -15.0192,            0.,NA,NA,"",   485.299E-03,  -452.865E-03,   174.436E-03,   8.37080E-03
C:/temp/dataset/9/9_2.odb,Step-1,Increment      1: Step Time =    1.000,"PART-1-1",           497,           15.,        -13.75,            0.,NA,NA,"",   569.507E-03,  -521.513E-03,   228.827E-03,   9.10804E-03
C:/temp/dataset/9/9_2.odb,Step-1,Increment      1: Step Time =    1.000,"PART-1-1",           498,       13.0974,      -18.6352,            0.,NA,NA,"",   303.556E-03,  -282.813E-03,   110.286E-03,   8.71637E-03
C:/temp/dataset/9/9_2.odb,Step-1,Increment      1: Step Time =    1.000,"PART-1-1",           499,       14.0421,      -19.9133,            0.,NA,NA,"",   271.925E-03,  -236.329E-03,   134.507E-03,   11.8949E-03
C:/temp/dataset/9/9_2.odb,Step-1,Increment      1: Step Time =    1.000,"PART-1-1",           500,           15.,        -18.75,            0.,NA,NA,"",   342.125E-03,  -288.818E-03,   183.394E-03,   13.5347E-03
C:/temp/dataset/9/9_2.odb,Step-1,Increment      1: Step Time =    1.000,"PART-1-1",           501,       14.0553,      -17.4719,            0.,NA,NA,"",   372.439E-03,  -337.758E-03,   156.940E-03,   10.1509E-03
C:/temp/dataset/9/9_2.odb,Step-1,Increment      1: Step Time =    1.000,"PART-1-1",           502,       7.12541,      -22.7005,            0.,NA,NA,"",   150.012E-03,  -130.671E-03,  -73.6789E-03,   10.1121E-03
C:/temp/dataset/9/9_2.odb,Step-1,Increment      1: Step Time =    1.000,"PART-1-1",           503,       6.04628,      -21.6612,            0.,NA,NA,"",   204.722E-03,  -168.687E-03,  -115.999E-03,   12.7664E-03
C:/temp/dataset/9/9_2.odb,Step-1,Increment      1: Step Time =    1.000,"PART-1-1",           504,            5.,      -22.7083,            0.,NA,NA,"",   195.366E-03,  -142.423E-03,  -133.729E-03,   17.0182E-03
C:/temp/dataset/9/9_2.odb,Step-1,Increment      1: Step Time =    1.000,"PART-1-1",           505,       6.07914,      -23.7476,            0.,NA,NA,"",   138.407E-03,  -105.948E-03,  -89.0599E-03,   14.1384E-03
C:/temp/dataset/9/9_2.odb,Step-1,Increment      1: Step Time =    1.000,"PART-1-1",           506,       6.22304,      -27.8948,            0.,NA,NA,"",   35.8155E-03,  -21.5355E-03,  -28.6177E-03,   16.6138E-03
C:/temp/dataset/9/9_2.odb,Step-1,Increment      1: Step Time =    1.000,"PART-1-1",           507,            5.,      -28.9583,            0.,NA,NA,"",   28.3843E-03,  -18.4920E-03,  -21.5340E-03,   22.9672E-03
C:/temp/dataset/9/9_2.odb,Step-1,Increment      1: Step Time =    1.000,"PART-1-1",           508,          6.25,          -30.,            0.,NA,NA,"",            0.,   458.782E-42,  -25.7123E-39,   16.4153E-03
C:/temp/dataset/9/9_2.odb,Step-1,Increment      1: Step Time =    1.000,"PART-1-1",           509,       9.78444,      -26.6535,            0.,NA,NA,"",   29.1001E-03,  -29.0108E-03,  -2.27721E-03,   4.13467E-03
C:/temp/dataset/9/9_2.odb,Step-1,Increment      1: Step Time =    1.000,"PART-1-1",           510,       8.47427,      -25.6871,            0.,NA,NA,"",   54.0925E-03,  -49.0831E-03,  -22.7343E-03,   7.10018E-03
C:/temp/dataset/9/9_2.odb,Step-1,Increment      1: Step Time =    1.000,"PART-1-1",           511,       7.37694,      -26.8334,            0.,NA,NA,"",   42.7932E-03,  -31.4531E-03,  -29.0165E-03,   11.1639E-03
C:/temp/dataset/9/9_2.odb,Step-1,Increment      1: Step Time =    1.000,"PART-1-1",           512,       13.7223,      -27.5034,            0.,NA,NA,"",   43.8298E-03,  -27.7309E-03,   33.9419E-03,   16.3482E-03
C:/temp/dataset/9/9_2.odb,Step-1,Increment      1: Step Time =    1.000,"PART-1-1",           513,       12.4723,      -28.7534,            0.,NA,NA,"",   11.2745E-03,  -5.75118E-03,   9.69739E-03,   9.75316E-03
C:/temp/dataset/9/9_2.odb,Step-1,Increment      1: Step Time =    1.000,"PART-1-1",           514,         13.75,          -30.,            0.,NA,NA,"",            0.,   1.17264E-39,   25.5477E-39,   16.6970E-03
C:/temp/dataset/9/9_2.odb,Step-1,Increment      1: Step Time =    1.000,"PART-1-1",           515,           15.,        -28.75,            0.,NA,NA,"",   33.7621E-03,  -21.9487E-03,   25.6542E-03,   22.8305E-03
C:/temp/dataset/9/9_2.odb,Step-1,Increment      1: Step Time =    1.000,"PART-1-1",           516,         11.25,          -30.,            0.,NA,NA,"",            0.,   1.06993E-39,   8.54551E-39,   4.22414E-03
C:/temp/dataset/9/9_2.odb,Step-1,Increment      1: Step Time =    1.000,"PART-1-1",           517,       11.1864,      -27.6167,            0.,NA,NA,"",   18.1979E-03,  -15.6840E-03,   9.22894E-03,   6.54722E-03
C:/temp/dataset/9/9_2.odb,Step-1,Increment      1: Step Time =    1.000,"PART-1-1",           518,       9.10684,      -20.5966,            0.,NA,NA,"",   199.320E-03,  -197.171E-03,  -29.1873E-03,   4.71139E-03
C:/temp/dataset/9/9_2.odb,Step-1,Increment      1: Step Time =    1.000,"PART-1-1",           519,       11.0993,      -20.6881,            0.,NA,NA,"",   197.889E-03,  -195.225E-03,   32.3577E-03,   5.13169E-03
C:/temp/dataset/9/9_2.odb,Step-1,Increment      1: Step Time =    1.000,"PART-1-1",           520,       7.08739,      -20.6083,            0.,NA,NA,"",   221.475E-03,  -200.822E-03,  -93.3910E-03,   9.18722E-03
C:/temp/dataset/9/9_2.odb,Step-1,Increment      1: Step Time =    1.000,"PART-1-1",           521,            5.,       -20.625,            0.,NA,NA,"",   267.232E-03,  -210.255E-03,  -164.942E-03,   15.1443E-03
C:/temp/dataset/9/9_2.odb,Step-1,Increment      1: Step Time =    1.000,"PART-1-1",           522,       9.14341,      -14.0595,            0.,NA,NA,"",   491.425E-03,  -489.202E-03,  -46.6862E-03,   4.23463E-03
C:/temp/dataset/9/9_2.odb,Step-1,Increment      1: Step Time =    1.000,"PART-1-1",           523,       10.1582,      -15.1431,            0.,NA,NA,"",   435.294E-03,  -435.293E-03,   397.468E-06,   3.85662E-03
C:/temp/dataset/9/9_2.odb,Step-1,Increment      1: Step Time =    1.000,"PART-1-1",           524,       11.1509,      -13.9343,            0.,NA,NA,"",   499.929E-03,  -497.949E-03,   44.4455E-03,   4.31098E-03
C:/temp/dataset/9/9_2.odb,Step-1,Increment      1: Step Time =    1.000,"PART-1-1",           525,       10.1361,      -12.8507,            0.,NA,NA,"",   553.194E-03,  -553.185E-03,  -3.10276E-03,   3.85622E-03
C:/temp/dataset/9/9_2.odb,Step-1,Increment      1: Step Time =    1.000,"PART-1-1",           526,       9.12292,      -11.8044,            0.,NA,NA,"",   611.110E-03,  -608.740E-03,  -53.7684E-03,   4.12649E-03
C:/temp/dataset/9/9_2.odb,Step-1,Increment      1: Step Time =    1.000,"PART-1-1",           527,       11.1213,      -11.5948,            0.,NA,NA,"",   624.277E-03,  -622.758E-03,   43.5231E-03,   4.10256E-03
C:/temp/dataset/9/9_2.odb,Step-1,Increment      1: Step Time =    1.000,"PART-1-1",           528,       10.1081,      -10.5485,            0.,NA,NA,"",   679.387E-03,  -679.344E-03,  -7.64051E-03,   3.88182E-03
C:/temp/dataset/9/9_2.odb,Step-1,Increment      1: Step Time =    1.000,"PART-1-1",           529,       13.8169,  -7.21098E-03,            0.,NA,NA,"",       1.30971,      -1.29632,   186.754E-03,   1.15122E-03
C:/temp/dataset/9/9_2.odb,Step-1,Increment      1: Step Time =    1.000,"PART-1-1",           530,           15.,          1.25,            0.,NA,NA,"",       1.39000,      -1.36725,   250.450E-03,   434.693E-06
C:/temp/dataset/9/9_2.odb,Step-1,Increment      1: Step Time =    1.000,"PART-1-1",           531,       13.9075,       2.57030,            0.,NA,NA,"",       1.45120,      -1.43895,   188.110E-03,   264.865E-06
C:/temp/dataset/9/9_2.odb,Step-1,Increment      1: Step Time =    1.000,"PART-1-1",           532,       10.8083,      -4.35361,            0.,NA,NA,"",       1.04076,      -1.04052,   22.3799E-03,   2.64227E-03
C:/temp/dataset/9/9_2.odb,Step-1,Increment      1: Step Time =    1.000,"PART-1-1",           533,       9.68548,      -3.40243,            0.,NA,NA,"",       1.09364,      -1.09290,  -40.2563E-03,   1.84601E-03
C:/temp/dataset/9/9_2.odb,Step-1,Increment      1: Step Time =    1.000,"PART-1-1",           534,       8.81587,      -4.92348,            0.,NA,NA,"",       1.00647,      -1.00282,  -85.6564E-03,   2.45212E-03
C:/temp/dataset/9/9_2.odb,Step-1,Increment      1: Step Time =    1.000,"PART-1-1",           535,       9.93870,      -5.87466,            0.,NA,NA,"",   949.758E-03,  -949.472E-03,  -23.3030E-03,   3.09130E-03
C:/temp/dataset/9/9_2.odb,Step-1,Increment      1: Step Time =    1.000,"PART-1-1",           536,       10.7940,       8.23694,            0.,NA,NA,"",       1.75238,      -1.75237,   4.77702E-03,   44.9201E-06
C:/temp/dataset/9/9_2.odb,Step-1,Increment      1: Step Time =    1.000,"PART-1-1",           537,       11.2752,       6.42654,            0.,NA,NA,"",       1.65159,      -1.65123,   34.7356E-03,   61.2479E-06
C:/temp/dataset/9/9_2.odb,Step-1,Increment      1: Step Time =    1.000,"PART-1-1",           538,       12.8821,       8.67106,            0.,NA,NA,"",       1.78425,      -1.78011,   121.542E-03,   66.9434E-06
C:/temp/dataset/9/9_2.odb,Step-1,Increment      1: Step Time =    1.000,"PART-1-1",           539,       14.0355,       7.50951,            0.,NA,NA,"",       1.72685,      -1.71656,   188.170E-03,   102.717E-06
C:/temp/dataset/9/9_2.odb,Step-1,Increment      1: Step Time =    1.000,"PART-1-1",           540,           15.,          8.75,            0.,NA,NA,"",       1.80410,      -1.78798,   240.602E-03,   114.848E-06
C:/temp/dataset/9/9_2.odb,Step-1,Increment      1: Step Time =    1.000,"PART-1-1",           541,       13.8467,       9.91155,            0.,NA,NA,"",       1.85968,      -1.85153,   173.920E-03,   69.5500E-06
C:/temp/dataset/9/9_2.odb,Step-1,Increment      1: Step Time =    1.000,"PART-1-1",           542,       12.4850,       16.2122,            0.,NA,NA,"",       2.20625,      -2.20452,   87.4266E-03,   29.8758E-06
C:/temp/dataset/9/9_2.odb,Step-1,Increment      1: Step Time =    1.000,"PART-1-1",           543,       13.7431,       14.9727,            0.,NA,NA,"",       2.14263,      -2.13663,   160.290E-03,   44.6250E-06
C:/temp/dataset/9/9_2.odb,Step-1,Increment      1: Step Time =    1.000,"PART-1-1",           544,           15.,         16.25,            0.,NA,NA,"",       2.22254,      -2.21070,   229.186E-03,   54.1196E-06
C:/temp/dataset/9/9_2.odb,Step-1,Increment      1: Step Time =    1.000,"PART-1-1",           545,       13.7419,       17.4895,            0.,NA,NA,"",       2.28395,      -2.27859,   156.304E-03,   36.2858E-06
C:/temp/dataset/9/9_2.odb,Step-1,Increment      1: Step Time =    1.000,"PART-1-1",           546,       12.4991,       13.6576,            0.,NA,NA,"",       2.06254,      -2.06048,   92.2195E-03,   34.9993E-06
C:/temp/dataset/9/9_2.odb,Step-1,Increment      1: Step Time =    1.000,"PART-1-1",           547,       13.7559,       12.4349,            0.,NA,NA,"",       2.00039,      -1.99358,   164.938E-03,   53.7480E-06
C:/temp/dataset/9/9_2.odb,Step-1,Increment      1: Step Time =    1.000,"PART-1-1",           548,           15.,         13.75,            0.,NA,NA,"",       2.08280,      -2.06972,   233.030E-03,   66.3701E-06
C:/temp/dataset/9/9_2.odb,Step-1,Increment      1: Step Time =    1.000,"PART-1-1",           549,           15.,         21.25,            0.,NA,NA,"",       2.50265,      -2.49283,   221.407E-03,   28.2800E-06
C:/temp/dataset/9/9_2.odb,Step-1,Increment      1: Step Time =    1.000,"PART-1-1",           550,       13.6875,       22.5045,            0.,NA,NA,"",       2.56567,      -2.56154,   145.355E-03,   18.1078E-06
C:/temp/dataset/9/9_2.odb,Step-1,Increment      1: Step Time =    1.000,"PART-1-1",           551,       12.4125,       21.2511,            0.,NA,NA,"",       2.48989,      -2.48875,   75.3919E-03,   22.1402E-06
C:/temp/dataset/9/9_2.odb,Step-1,Increment      1: Step Time =    1.000,"PART-1-1",           552,       13.7250,       19.9966,            0.,NA,NA,"",       2.42477,      -2.42004,   151.423E-03,   27.3717E-06
C:/temp/dataset/9/9_2.odb,Step-1,Increment      1: Step Time =    1.000,"PART-1-1",           553,       13.6481,       25.0064,            0.,NA,NA,"",       2.70630,      -2.70272,   139.167E-03,   10.2214E-06
C:/temp/dataset/9/9_2.odb,Step-1,Increment      1: Step Time =    1.000,"PART-1-1",           554,       12.3356,       23.7609,            0.,NA,NA,"",       2.63117,      -2.63031,   67.0707E-03,   17.3057E-06
C:/temp/dataset/9/9_2.odb,Step-1,Increment      1: Step Time =    1.000,"PART-1-1",           555,           15.,         23.75,            0.,NA,NA,"",       2.64292,      -2.63396,   217.468E-03,   15.4917E-06
C:/temp/dataset/9/9_2.odb,Step-1,Increment      1: Step Time =    1.000,"PART-1-1",           556,       13.7112,       27.5077,            0.,NA,NA,"",       2.84741,      -2.84403,   138.747E-03,   4.11968E-06
C:/temp/dataset/9/9_2.odb,Step-1,Increment      1: Step Time =    1.000,"PART-1-1",           557,           15.,         28.75,            0.,NA,NA,"",       2.92373,      -2.91622,   209.520E-03,   647.321E-09
C:/temp/dataset/9/9_2.odb,Step-1,Increment      1: Step Time =    1.000,"PART-1-1",           558,         13.75,           30.,            0.,NA,NA,"",       2.98792,      -2.98478,   136.967E-03,   626.882E-09
C:/temp/dataset/9/9_2.odb,Step-1,Increment      1: Step Time =    1.000,"PART-1-1",           559,            5.,      -24.7917,            0.,NA,NA,"",   132.618E-03,  -87.7349E-03,  -99.4494E-03,   18.6445E-03
C:/temp/dataset/9/9_2.odb,Step-1,Increment      1: Step Time =    1.000,"PART-1-1",           560,       6.15390,      -25.8136,            0.,NA,NA,"",   82.9081E-03,  -57.3893E-03,  -59.8349E-03,   15.2583E-03
C:/temp/dataset/9/9_2.odb,Step-1,Increment      1: Step Time =    1.000,"PART-1-1",           561,       7.23304,      -24.7696,            0.,NA,NA,"",   90.2023E-03,  -74.0133E-03,  -51.5605E-03,   10.9119E-03
C:/temp/dataset/9/9_2.odb,Step-1,Increment      1: Step Time =    1.000,"PART-1-1",           562,       13.0086,      -21.0119,            0.,NA,NA,"",   210.227E-03,  -190.001E-03,   89.9718E-03,   9.74541E-03
C:/temp/dataset/9/9_2.odb,Step-1,Increment      1: Step Time =    1.000,"PART-1-1",           563,       13.9664,      -22.3485,            0.,NA,NA,"",   183.869E-03,  -150.249E-03,   105.986E-03,   13.4515E-03
C:/temp/dataset/9/9_2.odb,Step-1,Increment      1: Step Time =    1.000,"PART-1-1",           564,           15.,        -21.25,            0.,NA,NA,"",   246.528E-03,  -193.904E-03,   152.241E-03,   15.7867E-03
C:/temp/dataset/9/9_2.odb,Step-1,Increment      1: Step Time =    1.000,"PART-1-1",           565,            5.,       -26.875,            0.,NA,NA,"",   78.9096E-03,  -47.4914E-03,  -63.0182E-03,   20.6441E-03
C:/temp/dataset/9/9_2.odb,Step-1,Increment      1: Step Time =    1.000,"PART-1-1",           566,       12.9745,      -6.51631,            0.,NA,NA,"",   931.110E-03,  -920.308E-03,   141.417E-03,   3.81995E-03
C:/temp/dataset/9/9_2.odb,Step-1,Increment      1: Step Time =    1.000,"PART-1-1",           567,       14.0104,      -7.62731,            0.,NA,NA,"",   880.604E-03,  -858.035E-03,   198.090E-03,   3.76456E-03
C:/temp/dataset/9/9_2.odb,Step-1,Increment      1: Step Time =    1.000,"PART-1-1",           568,           15.,         -6.25,            0.,NA,NA,"",   978.617E-03,  -944.369E-03,   256.629E-03,   3.15921E-03
C:/temp/dataset/9/9_2.odb,Step-1,Increment      1: Step Time =    1.000,"PART-1-1",           569,       13.9641,      -5.13900,            0.,NA,NA,"",       1.02444,      -1.00524,   197.415E-03,   2.81301E-03
C:/temp/dataset/9/9_2.odb,Step-1,Increment      1: Step Time =    1.000,"PART-1-1",           570,       11.1649,      -16.2543,            0.,NA,NA,"",   385.458E-03,  -383.058E-03,   42.9479E-03,   4.60714E-03
C:/temp/dataset/9/9_2.odb,Step-1,Increment      1: Step Time =    1.000,"PART-1-1",           571,       9.14831,      -16.2933,            0.,NA,NA,"",   381.254E-03,  -379.123E-03,  -40.2530E-03,   4.34951E-03
C:/temp/dataset/9/9_2.odb,Step-1,Increment      1: Step Time =    1.000,"PART-1-1",           572,            5.,        -8.125,            0.,NA,NA,"",   863.344E-03,  -814.521E-03,  -286.214E-03,   3.77739E-03
C:/temp/dataset/9/9_2.odb,Step-1,Increment      1: Step Time =    1.000,"PART-1-1",           573,       12.8519,      -3.99254,            0.,NA,NA,"",       1.07643,      -1.06794,   134.933E-03,   2.73403E-03
C:/temp/dataset/9/9_2.odb,Step-1,Increment      1: Step Time =    1.000,"PART-1-1",           574,           15.,         -3.75,            0.,NA,NA,"",       1.11924,      -1.08954,   256.110E-03,   2.10275E-03
C:/temp/dataset/9/9_2.odb,Step-1,Increment      1: Step Time =    1.000,"PART-1-1",           575,       13.8878,      -2.60354,            0.,NA,NA,"",       1.16735,      -1.15140,   192.310E-03,   2.14103E-03
C:/temp/dataset/9/9_2.odb,Step-1,Increment      1: Step Time =    1.000,"PART-1-1",           576,       13.0423,      -8.97351,            0.,NA,NA,"",   788.966E-03,  -775.785E-03,   143.613E-03,   4.02713E-03
C:/temp/dataset/9/9_2.odb,Step-1,Increment      1: Step Time =    1.000,"PART-1-1",           577,           15.,         -8.75,            0.,NA,NA,"",   834.353E-03,  -795.105E-03,   252.891E-03,   4.86567E-03
C:/temp/dataset/9/9_2.odb,Step-1,Increment      1: Step Time =    1.000,"PART-1-1",           578,       8.09346,      -21.6433,            0.,NA,NA,"",   170.652E-03,  -161.597E-03,  -54.8515E-03,   6.90804E-03
C:/temp/dataset/9/9_2.odb,Step-1,Increment      1: Step Time =    1.000,"PART-1-1",           579,       8.17438,      -23.6967,            0.,NA,NA,"",   106.174E-03,  -98.2783E-03,  -40.1774E-03,   7.33248E-03
C:/temp/dataset/9/9_2.odb,Step-1,Increment      1: Step Time =    1.000,"PART-1-1",           580,       8.10077,      -19.5616,            0.,NA,NA,"",   247.124E-03,  -237.958E-03,  -66.6799E-03,   6.27692E-03
C:/temp/dataset/9/9_2.odb,Step-1,Increment      1: Step Time =    1.000,"PART-1-1",           581,       8.11824,      -17.4194,            0.,NA,NA,"",   337.099E-03,  -328.073E-03,  -77.4858E-03,   5.65978E-03
C:/temp/dataset/9/9_2.odb,Step-1,Increment      1: Step Time =    1.000,"PART-1-1",           582,          -15.,       22.3438,            0.,NA,NA,"",       2.90796,      -2.50694,      -1.47360,   12.2268E-06
C:/temp/dataset/9/9_2.odb,Step-1,Increment      1: Step Time =    1.000,"PART-1-1",           583,      -12.5647,       21.7347,            0.,NA,NA,"",       2.81347,      -2.47644,      -1.33524,   5.22266E-06
C:/temp/dataset/9/9_2.odb,Step-1,Increment      1: Step Time =    1.000,"PART-1-1",           584,      -4.95050,       22.5220,            0.,NA,NA,"",       2.69041,      -2.53296,  -906.883E-03,   16.8452E-06
C:/temp/dataset/9/9_2.odb,Step-1,Increment      1: Step Time =    1.000,"PART-1-1",           585,      -3.93081,       23.1260,            0.,NA,NA,"",       2.70574,      -2.56867,  -850.273E-03,   16.8389E-06
C:/temp/dataset/9/9_2.odb,Step-1,Increment      1: Step Time =    1.000,"PART-1-1",           586,      -4.22857,       24.4244,            0.,NA,NA,"",       2.78079,      -2.64147,  -869.148E-03,   11.8670E-06
C:/temp/dataset/9/9_2.odb,Step-1,Increment      1: Step Time =    1.000,"PART-1-1",           587,      -5.24826,       23.8204,            0.,NA,NA,"",       2.76532,      -2.60575,  -925.750E-03,   10.9581E-06
C:/temp/dataset/9/9_2.odb,Step-1,Increment      1: Step Time =    1.000,"PART-1-1",           588,      -10.1110,       10.4874,            0.,NA,NA,"",       2.19044,      -1.84611,      -1.17894,   18.9844E-06
C:/temp/dataset/9/9_2.odb,Step-1,Increment      1: Step Time =    1.000,"PART-1-1",           589,      -9.15687,       11.6944,            0.,NA,NA,"",       2.22263,      -1.91569,      -1.12704,   18.1622E-06
C:/temp/dataset/9/9_2.odb,Step-1,Increment      1: Step Time =    1.000,"PART-1-1",           590,      -11.1597,       11.6149,            0.,NA,NA,"",       2.27549,      -1.90801,      -1.23989,   19.9860E-06
C:/temp/dataset/9/9_2.odb,Step-1,Increment      1: Step Time =    1.000,"PART-1-1",           591,      -6.07359,       12.6401,            0.,NA,NA,"",       2.19264,      -1.97392,  -954.631E-03,   5.88432E-06
C:/temp/dataset/9/9_2.odb,Step-1,Increment      1: Step Time =    1.000,"PART-1-1",           592,      -7.11512,       11.5321,            0.,NA,NA,"",       2.16117,      -1.90979,      -1.01161,   11.4686E-06
C:/temp/dataset/9/9_2.odb,Step-1,Increment      1: Step Time =    1.000,"PART-1-1",           593,           -5.,         11.25,            0.,NA,NA,"",       2.09642,      -1.89725,  -891.874E-03,   6.17197E-06
C:/temp/dataset/9/9_2.odb,Step-1,Increment      1: Step Time =    1.000,"PART-1-1",           594,      -10.0988,       8.37440,            0.,NA,NA,"",       2.08874,      -1.72697,      -1.17491,   19.8772E-06
C:/temp/dataset/9/9_2.odb,Step-1,Increment      1: Step Time =    1.000,"PART-1-1",           595,      -9.11481,       9.38066,            0.,NA,NA,"",       2.10805,      -1.78529,      -1.12099,   19.2122E-06
C:/temp/dataset/9/9_2.odb,Step-1,Increment      1: Step Time =    1.000,"PART-1-1",           596,      -11.0949,       9.48111,            0.,NA,NA,"",       2.17167,      -1.78779,      -1.23286,   20.3149E-06
C:/temp/dataset/9/9_2.odb,Step-1,Increment      1: Step Time =    1.000,"PART-1-1",           597,      -11.8142,       15.6555,            0.,NA,NA,"",       2.49078,      -2.13479,      -1.28322,   15.8928E-06
C:/temp/dataset/9/9_2.odb,Step-1,Increment      1: Step Time =    1.000,"PART-1-1",           598,      -13.4062,       15.6218,            0.,NA,NA,"",       2.53445,      -2.13036,      -1.37296,   10.1593E-06
C:/temp/dataset/9/9_2.odb,Step-1,Increment      1: Step Time =    1.000,"PART-1-1",           599,      -12.4316,       14.7766,            0.,NA,NA,"",       2.46529,      -2.08425,      -1.31665,   14.8633E-06
C:/temp/dataset/9/9_2.odb,Step-1,Increment      1: Step Time =    1.000,"PART-1-1",           600,      -5.72199,       20.2132,            0.,NA,NA,"",       2.58135,      -2.40145,  -946.768E-03,   38.0318E-06
C:/temp/dataset/9/9_2.odb,Step-1,Increment      1: Step Time =    1.000,"PART-1-1",           601,           -5.,         18.75,            0.,NA,NA,"",       2.48993,      -2.32013,  -903.750E-03,   39.2807E-06
C:/temp/dataset/9/9_2.odb,Step-1,Increment      1: Step Time =    1.000,"PART-1-1",           602,          -15.,       15.7813,            0.,NA,NA,"",       2.58971,      -2.13681,      -1.46310,   312.922E-09
C:/temp/dataset/9/9_2.odb,Step-1,Increment      1: Step Time =    1.000,"PART-1-1",           603,      -10.4105,       16.7429,            0.,NA,NA,"",       2.50730,      -2.19834,      -1.20577,   16.9622E-06
C:/temp/dataset/9/9_2.odb,Step-1,Increment      1: Step Time =    1.000,"PART-1-1",           604,      -12.1928,       12.6381,            0.,NA,NA,"",       2.35520,      -1.96405,      -1.29979,   17.8876E-06
C:/temp/dataset/9/9_2.odb,Step-1,Increment      1: Step Time =    1.000,"PART-1-1",           605,      -12.0987,       10.4443,            0.,NA,NA,"",       2.24815,      -1.84051,      -1.29101,   20.0672E-06
C:/temp/dataset/9/9_2.odb,Step-1,Increment      1: Step Time =    1.000,"PART-1-1",           606,      -7.50325,       4.80693,            0.,NA,NA,"",       1.84031,      -1.52991,      -1.02279,   32.2728E-06
C:/temp/dataset/9/9_2.odb,Step-1,Increment      1: Step Time =    1.000,"PART-1-1",           607,      -9.63824,       5.46172,            0.,NA,NA,"",       1.93745,      -1.56341,      -1.14431,   20.9883E-06
C:/temp/dataset/9/9_2.odb,Step-1,Increment      1: Step Time =    1.000,"PART-1-1",           608,      -8.81234,       4.25317,            0.,NA,NA,"",       1.85483,      -1.49654,      -1.09580,   29.3694E-06
C:/temp/dataset/9/9_2.odb,Step-1,Increment      1: Step Time =    1.000,"PART-1-1",           609,          -15.,      -1.71875,            0.,NA,NA,"",       1.83903,      -1.14937,      -1.43561,   8.18872E-06
C:/temp/dataset/9/9_2.odb,Step-1,Increment      1: Step Time =    1.000,"PART-1-1",           610,      -12.5835,      -1.75493,            0.,NA,NA,"",       1.73578,      -1.15119,      -1.29912,   18.3948E-06
C:/temp/dataset/9/9_2.odb,Step-1,Increment      1: Step Time =    1.000,"PART-1-1",           611,        -11.25,           -5.,            0.,NA,NA,"",       1.55761,  -970.061E-03,      -1.21866,   11.2109E-06
C:/temp/dataset/9/9_2.odb,Step-1,Increment      1: Step Time =    1.000,"PART-1-1",           612,      -10.0144,      -3.91217,            0.,NA,NA,"",       1.54661,      -1.03344,      -1.15065,   20.0746E-06
C:/temp/dataset/9/9_2.odb,Step-1,Increment      1: Step Time =    1.000,"PART-1-1",           613,      -11.2827,      -2.82422,            0.,NA,NA,"",       1.64089,      -1.09287,      -1.22399,   20.2661E-06
C:/temp/dataset/9/9_2.odb,Step-1,Increment      1: Step Time =    1.000,"PART-1-1",           614,         -8.75,           -5.,            0.,NA,NA,"",       1.45250,  -974.005E-03,      -1.07752,   30.0382E-06
C:/temp/dataset/9/9_2.odb,Step-1,Increment      1: Step Time =    1.000,"PART-1-1",           615,      -7.54904,      -4.01671,            0.,NA,NA,"",       1.44449,      -1.03141,      -1.01130,   35.0044E-06
C:/temp/dataset/9/9_2.odb,Step-1,Increment      1: Step Time =    1.000,"PART-1-1",           616,      -8.81345,      -2.92887,            0.,NA,NA,"",       1.53818,      -1.09087,      -1.08443,   30.3453E-06
C:/temp/dataset/9/9_2.odb,Step-1,Increment      1: Step Time =    1.000,"PART-1-1",           617,  -969.738E-03,       22.2544,            0.,NA,NA,"",       2.61459,      -2.52416,  -681.677E-03,   18.6190E-06
C:/temp/dataset/9/9_2.odb,Step-1,Increment      1: Step Time =    1.000,"PART-1-1",           618,      -2.31964,       21.1016,            0.,NA,NA,"",       2.57065,      -2.45695,  -756.065E-03,   22.0093E-06
C:/temp/dataset/9/9_2.odb,Step-1,Increment      1: Step Time =    1.000,"PART-1-1",           619,         -1.25,           20.,            0.,NA,NA,"",       2.49487,      -2.39643,  -693.889E-03,   22.1031E-06
C:/temp/dataset/9/9_2.odb,Step-1,Increment      1: Step Time =    1.000,"PART-1-1",           620,         -1.25,           30.,            0.,NA,NA,"",       3.04486,      -2.96095,  -709.857E-03,   6.06466E-06
C:/temp/dataset/9/9_2.odb,Step-1,Increment      1: Step Time =    1.000,"PART-1-1",           621,      -1.44357,       27.1449,            0.,NA,NA,"",       2.88963,      -2.79946,  -716.238E-03,   11.2879E-06
C:/temp/dataset/9/9_2.odb,Step-1,Increment      1: Step Time =    1.000,"PART-1-1",           622,      -4.58492,       21.1383,            0.,NA,NA,"",       2.60975,      -2.45545,  -884.054E-03,   36.0834E-06
C:/temp/dataset/9/9_2.odb,Step-1,Increment      1: Step Time =    1.000,"PART-1-1",           623,         -3.75,           20.,            0.,NA,NA,"",       2.53406,      -2.39251,  -835.071E-03,   44.1933E-06
C:/temp/dataset/9/9_2.odb,Step-1,Increment      1: Step Time =    1.000,"PART-1-1",           624,      -3.15456,       22.2398,            0.,NA,NA,"",       2.64535,      -2.51988,  -805.035E-03,   19.6566E-06
C:/temp/dataset/9/9_2.odb,Step-1,Increment      1: Step Time =    1.000,"PART-1-1",           625,      -11.2479,       22.4027,            0.,NA,NA,"",       2.81497,      -2.51622,      -1.26202,   5.70075E-06
C:/temp/dataset/9/9_2.odb,Step-1,Increment      1: Step Time =    1.000,"PART-1-1",           626,      -10.3888,       20.8027,            0.,NA,NA,"",       2.71264,      -2.42732,      -1.21100,   7.36645E-06
C:/temp/dataset/9/9_2.odb,Step-1,Increment      1: Step Time =    1.000,"PART-1-1",           627,       9.41561,      -24.6142,            0.,NA,NA,"",   72.9648E-03,  -72.1629E-03,  -10.7877E-03,   4.55397E-03
C:/temp/dataset/9/9_2.odb,Step-1,Increment      1: Step Time =    1.000,"PART-1-1",           628,           15.,        -16.25,            0.,NA,NA,"",   450.277E-03,  -398.884E-03,   208.903E-03,   11.3074E-03
C:/temp/dataset/9/9_2.odb,Step-1,Increment      1: Step Time =    1.000,"PART-1-1",           629,       13.1096,      -16.2411,            0.,NA,NA,"",   409.220E-03,  -389.670E-03,   124.974E-03,   7.44868E-03
C:/temp/dataset/9/9_2.odb,Step-1,Increment      1: Step Time =    1.000,"PART-1-1",           630,           15.,          3.75,            0.,NA,NA,"",       1.52706,      -1.50684,   247.666E-03,   309.682E-06
C:/temp/dataset/9/9_2.odb,Step-1,Increment      1: Step Time =    1.000,"PART-1-1",           631,       14.0093,       5.06690,            0.,NA,NA,"",       1.59054,      -1.57911,   190.305E-03,   161.439E-06
C:/temp/dataset/9/9_2.odb,Step-1,Increment      1: Step Time =    1.000,"PART-1-1",           632,       12.9168,       3.88721,            0.,NA,NA,"",       1.51674,      -1.51109,   130.850E-03,   106.190E-06
C:/temp/dataset/9/9_2.odb,Step-1,Increment      1: Step Time =    1.000,"PART-1-1",           633,       12.6026,       11.0965,            0.,NA,NA,"",       1.91901,      -1.91629,   102.048E-03,   44.8549E-06
C:/temp/dataset/9/9_2.odb,Step-1,Increment      1: Step Time =    1.000,"PART-1-1",           634,           15.,         11.25,            0.,NA,NA,"",       1.94330,      -1.92881,   236.840E-03,   82.7886E-06
C:/temp/dataset/9/9_2.odb,Step-1,Increment      1: Step Time =    1.000,"PART-1-1",           635,       12.4669,       18.7361,            0.,NA,NA,"",       2.34833,      -2.34689,   82.4343E-03,   26.0425E-06
C:/temp/dataset/9/9_2.odb,Step-1,Increment      1: Step Time =    1.000,"PART-1-1",           636,           15.,         18.75,            0.,NA,NA,"",       2.36251,      -2.35174,   225.313E-03,   41.7154E-06
C:/temp/dataset/9/9_2.odb,Step-1,Increment      1: Step Time =    1.000,"PART-1-1",           637,           15.,         26.25,            0.,NA,NA,"",       2.78329,      -2.77509,   213.502E-03,   5.53522E-06
C:/temp/dataset/9/9_2.odb,Step-1,Increment      1: Step Time =    1.000,"PART-1-1",           638,          8.75,           30.,            0.,NA,NA,"",       2.98037,      -2.97683,  -145.257E-03,   10.9957E-06
C:/temp/dataset/9/9_2.odb,Step-1,Increment      1: Step Time =    1.000,"PART-1-1",           639,       8.74802,       27.8391,            0.,NA,NA,"",       2.85837,      -2.85485,  -141.912E-03,   10.3458E-06
C:/temp/dataset/9/9_2.odb,Step-1,Increment      1: Step Time =    1.000,"PART-1-1",           640,       11.0691,       22.4572,            0.,NA,NA,"",       2.55469,      -2.55469,  -2.31853E-03,   19.8940E-06
C:/temp/dataset/9/9_2.odb,Step-1,Increment      1: Step Time =    1.000,"PART-1-1",           641,       11.1947,       19.9658,            0.,NA,NA,"",       2.41427,      -2.41425,   8.72759E-03,   21.7176E-06
C:/temp/dataset/9/9_2.odb,Step-1,Increment      1: Step Time =    1.000,"PART-1-1",           642,          3.75,           30.,            0.,NA,NA,"",       2.99954,      -2.96892,  -427.533E-03,   10.4907E-06
C:/temp/dataset/9/9_2.odb,Step-1,Increment      1: Step Time =    1.000,"PART-1-1",           643,       6.12801,       21.9878,            0.,NA,NA,"",       2.53591,      -2.52036,  -280.402E-03,   27.8918E-06
C:/temp/dataset/9/9_2.odb,Step-1,Increment      1: Step Time =    1.000,"PART-1-1",           644,       7.06684,       23.0702,            0.,NA,NA,"",       2.59310,      -2.58295,  -229.154E-03,   23.3537E-06
C:/temp/dataset/9/9_2.odb,Step-1,Increment      1: Step Time =    1.000,"PART-1-1",           645,       4.97038,       22.7185,            0.,NA,NA,"",       2.58319,      -2.55978,  -346.948E-03,   24.3168E-06
C:/temp/dataset/9/9_2.odb,Step-1,Increment      1: Step Time =    1.000,"PART-1-1",           646,          3.75,           20.,            0.,NA,NA,"",       2.43931,      -2.40435,  -411.512E-03,   15.2045E-06
C:/temp/dataset/9/9_2.odb,Step-1,Increment      1: Step Time =    1.000,"PART-1-1",           647,       4.96897,       20.9583,            0.,NA,NA,"",       2.48437,      -2.46041,  -344.176E-03,   35.7284E-06
C:/temp/dataset/9/9_2.odb,Step-1,Increment      1: Step Time =    1.000,"PART-1-1",           648,       3.78616,       22.0655,            0.,NA,NA,"",       2.55461,      -2.52104,  -412.774E-03,   20.9393E-06
C:/temp/dataset/9/9_2.odb,Step-1,Increment      1: Step Time =    1.000,"PART-1-1",           649,           -5.,         13.75,            0.,NA,NA,"",       2.22640,      -2.03821,  -895.856E-03,   2.18420E-06
C:/temp/dataset/9/9_2.odb,Step-1,Increment      1: Step Time =    1.000,"PART-1-1",           650,      -7.15256,       14.0792,            0.,NA,NA,"",       2.29174,      -2.05334,      -1.01777,   12.9037E-06
C:/temp/dataset/9/9_2.odb,Step-1,Increment      1: Step Time =    1.000,"PART-1-1",           651,      -9.70164,       19.1500,            0.,NA,NA,"",       2.61173,      -2.33520,      -1.16960,   14.4802E-06
C:/temp/dataset/9/9_2.odb,Step-1,Increment      1: Step Time =    1.000,"PART-1-1",           652,      -9.13060,       21.5024,            0.,NA,NA,"",       2.71977,      -2.46879,      -1.14114,   9.06656E-06
C:/temp/dataset/9/9_2.odb,Step-1,Increment      1: Step Time =    1.000,"PART-1-1",           653,         -1.25,           -5.,            0.,NA,NA,"",       1.18270,  -985.545E-03,  -653.829E-03,   116.925E-06
C:/temp/dataset/9/9_2.odb,Step-1,Increment      1: Step Time =    1.000,"PART-1-1",           654,      -1.47244,      -2.77860,            0.,NA,NA,"",       1.29729,      -1.11087,  -670.028E-03,   57.1939E-06
C:/temp/dataset/9/9_2.odb,Step-1,Increment      1: Step Time =    1.000,"PART-1-1",           655,      -9.96758,      -1.61086,            0.,NA,NA,"",       1.63710,      -1.16349,      -1.15169,   28.7668E-06
C:/temp/dataset/9/9_2.odb,Step-1,Increment      1: Step Time =    1.000,"PART-1-1",           656,      -6.37223,      -3.07632,            0.,NA,NA,"",       1.44077,      -1.08638,  -946.370E-03,   38.9138E-06
C:/temp/dataset/9/9_2.odb,Step-1,Increment      1: Step Time =    1.000,"PART-1-1",           657,         -6.25,           -5.,            0.,NA,NA,"",       1.35391,  -977.902E-03,  -936.360E-03,   52.2086E-06
C:/temp/dataset/9/9_2.odb,Step-1,Increment      1: Step Time =    1.000,"PART-1-1",           658,         -3.75,            5.,            0.,NA,NA,"",       1.74677,      -1.54703,  -811.110E-03,   108.679E-06
C:/temp/dataset/9/9_2.odb,Step-1,Increment      1: Step Time =    1.000,"PART-1-1",           659,      -5.11170,       4.23117,            0.,NA,NA,"",       1.74371,      -1.50132,  -886.887E-03,   70.3484E-06
C:/temp/dataset/9/9_2.odb,Step-1,Increment      1: Step Time =    1.000,"PART-1-1",           660,      -3.95473,       3.29190,            0.,NA,NA,"",       1.66594,      -1.45016,  -820.007E-03,   45.7844E-06
C:/temp/dataset/9/9_2.odb,Step-1,Increment      1: Step Time =    1.000,"PART-1-1",           661,          3.75,           -5.,            0.,NA,NA,"",       1.05943,  -992.499E-03,  -370.589E-03,   454.978E-06
C:/temp/dataset/9/9_2.odb,Step-1,Increment      1: Step Time =    1.000,"PART-1-1",           662,       4.69008,      -3.66648,            0.,NA,NA,"",       1.11666,      -1.07004,  -319.304E-03,   406.979E-06
C:/temp/dataset/9/9_2.odb,Step-1,Increment      1: Step Time =    1.000,"PART-1-1",           663,       4.69636,       3.71818,            0.,NA,NA,"",       1.52491,      -1.48849,  -331.265E-03,   38.4076E-06
C:/temp/dataset/9/9_2.odb,Step-1,Increment      1: Step Time =    1.000,"PART-1-1",           664,          3.75,            5.,            0.,NA,NA,"",       1.60663,      -1.55937,  -386.811E-03,   53.8022E-06
C:/temp/dataset/9/9_2.odb,Step-1,Increment      1: Step Time =    1.000,"PART-1-1",           665,       8.42013,       25.7200,            0.,NA,NA,"",       2.73920,      -2.73469,  -157.028E-03,   14.0887E-06
C:/temp/dataset/9/9_2.odb,Step-1,Increment      1: Step Time =    1.000,"PART-1-1",           666,       7.55622,       27.1849,            0.,NA,NA,"",       2.82370,      -2.81602,  -208.138E-03,   11.6707E-06
C:/temp/dataset/9/9_2.odb,Step-1,Increment      1: Step Time =    1.000,"PART-1-1",           667,       6.61388,       26.0906,            0.,NA,NA,"",       2.76496,      -2.75275,  -259.580E-03,   12.6112E-06
C:/temp/dataset/9/9_2.odb,Step-1,Increment      1: Step Time =    1.000,"PART-1-1",           668,       10.0237,       13.5556,            0.,NA,NA,"",       2.05133,      -2.05079,  -47.0954E-03,   20.6052E-06
C:/temp/dataset/9/9_2.odb,Step-1,Increment      1: Step Time =    1.000,"PART-1-1",           669,       8.80148,       12.2659,            0.,NA,NA,"",       1.97945,      -1.97617,  -113.884E-03,   31.2741E-06
C:/temp/dataset/9/9_2.odb,Step-1,Increment      1: Step Time =    1.000,"PART-1-1",           670,            5.,          6.25,            0.,NA,NA,"",       1.66232,      -1.63159,  -318.136E-03,   43.6780E-06
C:/temp/dataset/9/9_2.odb,Step-1,Increment      1: Step Time =    1.000,"PART-1-1",           671,       5.87545,       4.76801,            0.,NA,NA,"",       1.57231,      -1.54957,  -266.431E-03,   55.4356E-06
C:/temp/dataset/9/9_2.odb,Step-1,Increment      1: Step Time =    1.000,"PART-1-1",           672,       6.93940,       5.78737,            0.,NA,NA,"",       1.62200,      -1.60859,  -208.157E-03,   84.8934E-06
C:/temp/dataset/9/9_2.odb,Step-1,Increment      1: Step Time =    1.000,"PART-1-1",           673,       7.73520,       4.18036,            0.,NA,NA,"",       1.52785,      -1.51938,  -160.676E-03,   75.1552E-06
C:/temp/dataset/9/9_2.odb,Step-1,Increment      1: Step Time =    1.000,"PART-1-1",           674,       6.49581,       3.34316,            0.,NA,NA,"",       1.48799,      -1.47024,  -229.136E-03,   61.9803E-06
C:/temp/dataset/9/9_2.odb,Step-1,Increment      1: Step Time =    1.000,"PART-1-1",           675,       7.18979,       1.82766,            0.,NA,NA,"",       1.39852,      -1.38588,  -187.577E-03,   148.182E-06
C:/temp/dataset/9/9_2.odb,Step-1,Increment      1: Step Time =    1.000,"PART-1-1",           676,       8.42918,       2.66485,            0.,NA,NA,"",       1.44010,      -1.43516,  -119.147E-03,   116.770E-06
C:/temp/dataset/9/9_2.odb,Step-1,Increment      1: Step Time =    1.000,"PART-1-1",           677,  -530.051E-03,       1.39108,            0.,NA,NA,"",       1.48544,      -1.34833,  -623.334E-03,   55.8009E-06
C:/temp/dataset/9/9_2.odb,Step-1,Increment      1: Step Time =    1.000,"PART-1-1",           678,      -10.1792,       3.73358,            0.,NA,NA,"",       1.87619,      -1.46500,      -1.17211,   24.4013E-06
C:/temp/dataset/9/9_2.odb,Step-1,Increment      1: Step Time =    1.000,"PART-1-1",           679,      -9.26781,       2.30942,            0.,NA,NA,"",       1.78102,      -1.38605,      -1.11843,   31.5758E-06
C:/temp/dataset/9/9_2.odb,Step-1,Increment      1: Step Time =    1.000,"PART-1-1",           680,      -7.90097,       2.82902,            0.,NA,NA,"",       1.75943,      -1.41760,      -1.04211,   34.4834E-06
C:/temp/dataset/9/9_2.odb,Step-1,Increment      1: Step Time =    1.000,"PART-1-1",           681,      -2.90861,       2.25641,            0.,NA,NA,"",       1.58677,      -1.39335,  -759.222E-03,   45.2485E-06
C:/temp/dataset/9/9_2.odb,Step-1,Increment      1: Step Time =    1.000,"PART-1-1",           682,      -1.97153,   737.020E-03,            0.,NA,NA,"",       1.48620,      -1.30897,  -703.836E-03,   37.3379E-06
C:/temp/dataset/9/9_2.odb,Step-1,Increment      1: Step Time =    1.000,"PART-1-1",           683,      -12.0057,       8.33468,            0.,NA,NA,"",       2.14682,      -1.72168,      -1.28244,   21.6268E-06
C:/temp/dataset/9/9_2.odb,Step-1,Increment      1: Step Time =    1.000,"PART-1-1",           684,   257.111E-03,       23.5381,            0.,NA,NA,"",       2.67023,      -2.59857,  -614.446E-03,   16.4108E-06
C:/temp/dataset/9/9_2.odb,Step-1,Increment      1: Step Time =    1.000,"PART-1-1",           685,       2.92443,       23.5127,            0.,NA,NA,"",       2.64240,      -2.60138,  -463.768E-03,   17.8986E-06
C:/temp/dataset/9/9_2.odb,Step-1,Increment      1: Step Time =    1.000,"PART-1-1",           686,  -872.814E-03,       24.6452,            0.,NA,NA,"",       2.74485,      -2.65928,  -680.023E-03,   16.6918E-06
C:/temp/dataset/9/9_2.odb,Step-1,Increment      1: Step Time =    1.000,"PART-1-1",           687,      -2.49287,       25.7554,            0.,NA,NA,"",       2.82717,      -2.71936,  -773.272E-03,   12.2153E-06
C:/temp/dataset/9/9_2.odb,Step-1,Increment      1: Step Time =    1.000,"PART-1-1",           688,      -6.57000,       23.0679,            0.,NA,NA,"",       2.74918,      -2.56118,  -999.152E-03,   10.4276E-06
C:/temp/dataset/9/9_2.odb,Step-1,Increment      1: Step Time =    1.000,"PART-1-1",           689,      -7.77911,       22.2181,            0.,NA,NA,"",       2.72820,      -2.51131,      -1.06603,   9.13550E-06
C:/temp/dataset/9/9_2.odb,Step-1,Increment      1: Step Time =    1.000,"PART-1-1",           690,      -6.08757,       21.5970,            0.,NA,NA,"",       2.66182,      -2.47895,  -969.594E-03,   17.2275E-06
C:/temp/dataset/9/9_2.odb,Step-1,Increment      1: Step Time =    1.000,"PART-1-1",           691,      -10.6596,       24.7502,            0.,NA,NA,"",       2.92227,      -2.64961,      -1.23258,   7.29864E-06
C:/temp/dataset/9/9_2.odb,Step-1,Increment      1: Step Time =    1.000,"PART-1-1",           692,      -8.94190,       25.0911,            0.,NA,NA,"",       2.90316,      -2.67158,      -1.13621,   6.82048E-06
C:/temp/dataset/9/9_2.odb,Step-1,Increment      1: Step Time =    1.000,"PART-1-1",           693,      -9.30563,       26.3338,            0.,NA,NA,"",       2.97597,      -2.74113,      -1.15871,   7.28867E-06
C:/temp/dataset/9/9_2.odb,Step-1,Increment      1: Step Time =    1.000,"PART-1-1",           694,      -11.0233,       25.9928,            0.,NA,NA,"",       2.99483,      -2.71915,      -1.25508,   7.57236E-06
C:/temp/dataset/9/9_2.odb,Step-1,Increment      1: Step Time =    1.000,"PART-1-1",           695,      -9.11986,       17.2561,            0.,NA,NA,"",       2.50107,      -2.22933,      -1.13377,   19.5201E-06
C:/temp/dataset/9/9_2.odb,Step-1,Increment      1: Step Time =    1.000,"PART-1-1",           696,      -11.0116,       7.65423,            0.,NA,NA,"",       2.08330,      -1.68489,      -1.22527,   20.1289E-06
C:/temp/dataset/9/9_2.odb,Step-1,Increment      1: Step Time =    1.000,"PART-1-1",           697,      -11.6541,       6.30856,            0.,NA,NA,"",       2.04245,      -1.60795,      -1.25940,   21.1089E-06
C:/temp/dataset/9/9_2.odb,Step-1,Increment      1: Step Time =    1.000,"PART-1-1",           698,      -3.46647,   792.949E-03,            0.,NA,NA,"",       1.52871,      -1.30971,  -788.437E-03,   22.9991E-06
C:/temp/dataset/9/9_2.odb,Step-1,Increment      1: Step Time =    1.000,"PART-1-1",           699,      -4.27899,       1.61468,            0.,NA,NA,"",       1.59183,      -1.35484,  -835.659E-03,   25.2771E-06
C:/temp/dataset/9/9_2.odb,Step-1,Increment      1: Step Time =    1.000,"PART-1-1",           700,      -5.41602,       1.03976,            0.,NA,NA,"",       1.59747,      -1.32052,  -898.973E-03,   28.2781E-06
C:/temp/dataset/9/9_2.odb,Step-1,Increment      1: Step Time =    1.000,"PART-1-1",           701,      -4.60351,   218.037E-03,            0.,NA,NA,"",       1.53365,      -1.27537,  -851.766E-03,   26.0501E-06
C:/temp/dataset/9/9_2.odb,Step-1,Increment      1: Step Time =    1.000,"PART-1-1",           702,      -1.96165,  -510.209E-03,            0.,NA,NA,"",       1.42322,      -1.23844,  -701.307E-03,   30.3294E-06
C:/temp/dataset/9/9_2.odb,Step-1,Increment      1: Step Time =    1.000,"PART-1-1",           703,      -2.89723,      -2.02996,            0.,NA,NA,"",       1.37474,      -1.15098,  -751.762E-03,   39.0080E-06
C:/temp/dataset/9/9_2.odb,Step-1,Increment      1: Step Time =    1.000,"PART-1-1",           704,       6.46823,      -3.22891,            0.,NA,NA,"",       1.11905,      -1.09734,  -219.354E-03,   1.05736E-03
C:/temp/dataset/9/9_2.odb,Step-1,Increment      1: Step Time =    1.000,"PART-1-1",           705,       5.30305,      -2.18626,            0.,NA,NA,"",       1.19043,      -1.15524,  -287.324E-03,   264.391E-06
C:/temp/dataset/9/9_2.odb,Step-1,Increment      1: Step Time =    1.000,"PART-1-1",           706,       8.11637,      -13.0290,            0.,NA,NA,"",   551.601E-03,  -542.808E-03,  -98.0970E-03,   4.60084E-03
C:/temp/dataset/9/9_2.odb,Step-1,Increment      1: Step Time =    1.000,"PART-1-1",           707,       8.09759,      -10.8135,            0.,NA,NA,"",   671.656E-03,  -662.943E-03,  -107.833E-03,   4.11944E-03
C:/temp/dataset/9/9_2.odb,Step-1,Increment      1: Step Time =    1.000,"PART-1-1",           708,           15.,        -26.25,            0.,NA,NA,"",   95.2131E-03,  -60.0328E-03,   73.9027E-03,   20.1839E-03
C:/temp/dataset/9/9_2.odb,Step-1,Increment      1: Step Time =    1.000,"PART-1-1",           709,       13.6129,      -24.9005,            0.,NA,NA,"",   102.565E-03,  -77.6020E-03,   67.0632E-03,   13.9793E-03
C:/temp/dataset/9/9_2.odb,Step-1,Increment      1: Step Time =    1.000,"PART-1-1",           710,       12.3352,      -26.1538,            0.,NA,NA,"",   53.9004E-03,  -43.5603E-03,   31.7452E-03,   10.1351E-03
C:/temp/dataset/9/9_2.odb,Step-1,Increment      1: Step Time =    1.000,"PART-1-1",           711,       11.5115,      -24.0900,            0.,NA,NA,"",   93.2435E-03,  -87.9664E-03,   30.9235E-03,   6.83790E-03
C:/temp/dataset/9/9_2.odb,Step-1,Increment      1: Step Time =    1.000,"PART-1-1",           712,       12.5793,      -23.4990,            0.,NA,NA,"",   122.929E-03,  -108.187E-03,   58.3703E-03,   9.79758E-03
C:/temp/dataset/9/9_2.odb,Step-1,Increment      1: Step Time =    1.000,"PART-1-1",           713,       11.9958,      -21.9645,            0.,NA,NA,"",   162.198E-03,  -153.073E-03,   53.6364E-03,   7.42057E-03
C:/temp/dataset/9/9_2.odb,Step-1,Increment      1: Step Time =    1.000,"PART-1-1",           714,           15.,        -23.75,            0.,NA,NA,"",   164.167E-03,  -116.759E-03,   115.405E-03,   17.8677E-03
C:/temp/dataset/9/9_2.odb,Step-1,Increment      1: Step Time =    1.000,"PART-1-1",           715,       11.0775,      -9.24199,            0.,NA,NA,"",   756.444E-03,  -755.367E-03,   40.3419E-03,   4.01480E-03
C:/temp/dataset/9/9_2.odb,Step-1,Increment      1: Step Time =    1.000,"PART-1-1",           716,       10.0590,      -8.23408,            0.,NA,NA,"",   811.912E-03,  -811.797E-03,  -13.6225E-03,   3.76921E-03
C:/temp/dataset/9/9_2.odb,Step-1,Increment      1: Step Time =    1.000,"PART-1-1",           717,       9.08966,      -9.54059,            0.,NA,NA,"",   737.788E-03,  -735.241E-03,  -61.2517E-03,   3.91733E-03
C:/temp/dataset/9/9_2.odb,Step-1,Increment      1: Step Time =    1.000,"PART-1-1",           718,           15.,         -1.25,            0.,NA,NA,"",       1.25732,      -1.23154,   253.314E-03,   1.74322E-03
C:/temp/dataset/9/9_2.odb,Step-1,Increment      1: Step Time =    1.000,"PART-1-1",           719,       12.7047,      -1.36075,            0.,NA,NA,"",       1.22435,      -1.21789,   125.636E-03,   1.72640E-03
C:/temp/dataset/9/9_2.odb,Step-1,Increment      1: Step Time =    1.000,"PART-1-1",           720,       10.4122,      -1.52824,            0.,NA,NA,"",       1.20216,      -1.20216,  -2.08007E-03,   1.29611E-03
C:/temp/dataset/9/9_2.odb,Step-1,Increment      1: Step Time =    1.000,"PART-1-1",           721,       11.7321,      -2.88547,            0.,NA,NA,"",       1.13053,      -1.12821,   72.3605E-03,   2.10076E-03
C:/temp/dataset/9/9_2.odb,Step-1,Increment      1: Step Time =    1.000,"PART-1-1",           722,       13.0447,       6.32641,            0.,NA,NA,"",       1.65384,      -1.64838,   134.286E-03,   94.0746E-06
C:/temp/dataset/9/9_2.odb,Step-1,Increment      1: Step Time =    1.000,"PART-1-1",           723,           15.,          6.25,            0.,NA,NA,"",       1.66527,      -1.64726,   244.244E-03,   185.191E-06
C:/temp/dataset/9/9_2.odb,Step-1,Increment      1: Step Time =    1.000,"PART-1-1",           724,       12.2773,       7.44357,            0.,NA,NA,"",       1.71237,      -1.71003,   89.4387E-03,   57.6369E-06
C:/temp/dataset/9/9_2.odb,Step-1,Increment      1: Step Time =    1.000,"PART-1-1",           725,       11.3989,       9.46443,            0.,NA,NA,"",       1.82281,      -1.82244,   36.8499E-03,   30.9223E-06
C:/temp/dataset/9/9_2.odb,Step-1,Increment      1: Step Time =    1.000,"PART-1-1",           726,       10.0696,       10.6576,            0.,NA,NA,"",       1.88797,      -1.88755,  -39.8787E-03,   29.0826E-06
C:/temp/dataset/9/9_2.odb,Step-1,Increment      1: Step Time =    1.000,"PART-1-1",           727,       11.2733,       12.2896,            0.,NA,NA,"",       1.98158,      -1.98141,   25.3125E-03,   22.6762E-06
C:/temp/dataset/9/9_2.odb,Step-1,Increment      1: Step Time =    1.000,"PART-1-1",           728,       11.2495,       14.9235,            0.,NA,NA,"",       2.12996,      -2.12986,   19.8060E-03,   20.8717E-06
C:/temp/dataset/9/9_2.odb,Step-1,Increment      1: Step Time =    1.000,"PART-1-1",           729,       11.2365,       17.4638,            0.,NA,NA,"",       2.27318,      -2.27313,   15.0547E-03,   21.0913E-06
C:/temp/dataset/9/9_2.odb,Step-1,Increment      1: Step Time =    1.000,"PART-1-1",           730,       9.96430,       18.6935,            0.,NA,NA,"",       2.34122,      -2.34049,  -58.6457E-03,   22.0227E-06
C:/temp/dataset/9/9_2.odb,Step-1,Increment      1: Step Time =    1.000,"PART-1-1",           731,       8.12949,      -15.2371,            0.,NA,NA,"",   439.167E-03,  -430.325E-03,  -87.6823E-03,   5.09519E-03
C:/temp/dataset/9/9_2.odb,Step-1,Increment      1: Step Time =    1.000,"PART-1-1",           732,       10.9896,      -6.85237,            0.,NA,NA,"",   895.186E-03,  -894.539E-03,   34.0458E-03,   3.66559E-03
C:/temp/dataset/9/9_2.odb,Step-1,Increment      1: Step Time =    1.000,"PART-1-1",           733,       10.9332,      -25.1906,            0.,NA,NA,"",   61.4709E-03,  -59.4324E-03,   15.6989E-03,   5.38788E-03
C:/temp/dataset/9/9_2.odb,Step-1,Increment      1: Step Time =    1.000,"PART-1-1",           734,       11.9281,      -5.46067,            0.,NA,NA,"",   982.708E-03,  -979.099E-03,   84.1424E-03,   3.25483E-03
C:/temp/dataset/9/9_2.odb,Step-1,Increment      1: Step Time =    1.000,"PART-1-1",           735,      -11.5697,       3.18107,            0.,NA,NA,"",       1.90031,      -1.43157,      -1.24972,   25.5443E-06
C:/temp/dataset/9/9_2.odb,Step-1,Increment      1: Step Time =    1.000,"PART-1-1",           736,      -10.7341,       2.09613,            0.,NA,NA,"",       1.82304,      -1.37165,      -1.20085,   28.1628E-06
C:/temp/dataset/9/9_2.odb,Step-1,Increment      1: Step Time =    1.000,"PART-1-1",           737,      -6.76822,       1.80268,            0.,NA,NA,"",       1.67547,      -1.36145,  -976.542E-03,   33.3454E-06
C:/temp/dataset/9/9_2.odb,Step-1,Increment      1: Step Time =    1.000,"PART-1-1",           738,      -5.32511,       2.65016,            0.,NA,NA,"",       1.67223,      -1.41167,  -896.408E-03,   31.3437E-06
C:/temp/dataset/9/9_2.odb,Step-1,Increment      1: Step Time =    1.000,"PART-1-1",           739,      -6.45786,       3.67650,            0.,NA,NA,"",       1.75496,      -1.46780,  -962.000E-03,   39.1918E-06
C:/temp/dataset/9/9_2.odb,Step-1,Increment      1: Step Time =    1.000,"PART-1-1",           740,      -10.1618,       27.4009,            0.,NA,NA,"",       3.04974,      -2.79999,      -1.20871,   7.36450E-06
C:/temp/dataset/9/9_2.odb,Step-1,Increment      1: Step Time =    1.000,"PART-1-1",           741,      -8.15950,       27.0742,            0.,NA,NA,"",       2.99237,      -2.78474,      -1.09522,   6.71253E-06
C:/temp/dataset/9/9_2.odb,Step-1,Increment      1: Step Time =    1.000,"PART-1-1",           742,      -8.41457,       23.7439,            0.,NA,NA,"",       2.82148,      -2.59640,      -1.10431,   7.37981E-06
C:/temp/dataset/9/9_2.odb,Step-1,Increment      1: Step Time =    1.000,"PART-1-1",           743,      -9.76606,       23.0282,            0.,NA,NA,"",       2.81306,      -2.55387,      -1.17942,   6.11359E-06
C:/temp/dataset/9/9_2.odb,Step-1,Increment      1: Step Time =    1.000,"PART-1-1",           744,      -10.1457,       6.57799,            0.,NA,NA,"",       2.00560,      -1.62557,      -1.17471,   20.2206E-06
C:/temp/dataset/9/9_2.odb,Step-1,Increment      1: Step Time =    1.000,"PART-1-1",           745,      -11.1466,       5.19230,            0.,NA,NA,"",       1.97481,      -1.54578,      -1.22901,   22.0746E-06
C:/temp/dataset/9/9_2.odb,Step-1,Increment      1: Step Time =    1.000,"PART-1-1",           746,       7.77017,   782.991E-03,            0.,NA,NA,"",       1.33668,      -1.32786,  -153.236E-03,   252.988E-06
C:/temp/dataset/9/9_2.odb,Step-1,Increment      1: Step Time =    1.000,"PART-1-1",           747,       6.09501,       1.10589,            0.,NA,NA,"",       1.36599,      -1.34326,  -248.140E-03,   139.292E-06
C:/temp/dataset/9/9_2.odb,Step-1,Increment      1: Step Time =    1.000,"PART-1-1",           748,       6.67539,   61.2235E-03,            0.,NA,NA,"",       1.30277,      -1.28512,  -213.715E-03,   240.829E-06
C:/temp/dataset/9/9_2.odb,Step-1,Increment      1: Step Time =    1.000,"PART-1-1",           749,       5.31672,       2.29333,            0.,NA,NA,"",       1.43940,      -1.40906,  -293.974E-03,   80.7929E-06
C:/temp/dataset/9/9_2.odb,Step-1,Increment      1: Step Time =    1.000,"PART-1-1",           750,      -6.94695,       24.4689,            0.,NA,NA,"",       2.83082,      -2.63965,      -1.02265,   6.42710E-06
C:/temp/dataset/9/9_2.odb,Step-1,Increment      1: Step Time =    1.000,"PART-1-1",           751,      -2.09966,       23.3616,            0.,NA,NA,"",       2.69071,      -2.58487,  -747.254E-03,   19.0214E-06
C:/temp/dataset/9/9_2.odb,Step-1,Increment      1: Step Time =    1.000,"PART-1-1",           752,      -2.87591,       24.2478,            0.,NA,NA,"",       2.75031,      -2.63366,  -792.498E-03,   15.1088E-06
C:/temp/dataset/9/9_2.odb,Step-1,Increment      1: Step Time =    1.000,"PART-1-1",           753,       9.53974,       23.7363,            0.,NA,NA,"",       2.62604,      -2.62447,  -90.6617E-03,   19.7725E-06
C:/temp/dataset/9/9_2.odb,Step-1,Increment      1: Step Time =    1.000,"PART-1-1",           754,      -5.22075,      -2.25347,            0.,NA,NA,"",       1.43757,      -1.13468,  -882.667E-03,   37.8507E-06
C:/temp/dataset/9/9_2.odb,Step-1,Increment      1: Step Time =    1.000,"PART-1-1",           755,      -7.55915,      -2.11026,            0.,NA,NA,"",       1.52566,      -1.13909,      -1.01494,   33.9365E-06
C:/temp/dataset/9/9_2.odb,Step-1,Increment      1: Step Time =    1.000,"PART-1-1",           756,      -4.20325,      -1.24540,            0.,NA,NA,"",       1.45173,      -1.19328,  -826.813E-03,   32.2085E-06
C:/temp/dataset/9/9_2.odb,Step-1,Increment      1: Step Time =    1.000,"PART-1-1",           757,       12.0426,       5.30937,            0.,NA,NA,"",       1.59158,      -1.58959,   79.6177E-03,   73.9150E-06
C:/temp/dataset/9/9_2.odb,Step-1,Increment      1: Step Time =    1.000,"PART-1-1",           758,      -8.17645,       12.8481,            0.,NA,NA,"",       2.25434,      -1.98230,      -1.07356,   14.9344E-06
C:/temp/dataset/9/9_2.odb,Step-1,Increment      1: Step Time =    1.000,"PART-1-1",           759,      -8.09554,       10.3784,            0.,NA,NA,"",       2.12877,      -1.84318,      -1.06507,   15.3914E-06
C:/temp/dataset/9/9_2.odb,Step-1,Increment      1: Step Time =    1.000,"PART-1-1",           760,      -8.33007,       15.6293,            0.,NA,NA,"",       2.39907,      -2.13887,      -1.08664,   17.8505E-06
C:/temp/dataset/9/9_2.odb,Step-1,Increment      1: Step Time =    1.000,"PART-1-1",           761,       12.1122,      -19.7356,            0.,NA,NA,"",   244.093E-03,  -234.244E-03,   68.6378E-03,   6.91973E-03
C:/temp/dataset/9/9_2.odb,Step-1,Increment      1: Step Time =    1.000,"PART-1-1",           762,       12.1388,      -17.4254,            0.,NA,NA,"",   341.019E-03,  -331.625E-03,   79.4903E-03,   6.16016E-03
C:/temp/dataset/9/9_2.odb,Step-1,Increment      1: Step Time =    1.000,"PART-1-1",           763,       12.0361,      -7.90801,            0.,NA,NA,"",   840.086E-03,  -835.224E-03,   90.2471E-03,   3.89266E-03
C:/temp/dataset/9/9_2.odb,Step-1,Increment      1: Step Time =    1.000,"PART-1-1",           764,       12.0837,      -10.3075,            0.,NA,NA,"",   702.786E-03,  -696.710E-03,   92.2149E-03,   3.98996E-03
C:/temp/dataset/9/9_2.odb,Step-1,Increment      1: Step Time =    1.000,"PART-1-1",           765,       12.1118,      -12.6921,            0.,NA,NA,"",   572.757E-03,  -565.477E-03,   91.0248E-03,   4.58043E-03
C:/temp/dataset/9/9_2.odb,Step-1,Increment      1: Step Time =    1.000,"PART-1-1",           766,       12.1357,      -15.0700,            0.,NA,NA,"",   451.377E-03,  -442.914E-03,   86.9972E-03,   5.36032E-03
C:/temp/dataset/9/9_2.odb,Step-1,Increment      1: Step Time =    1.000,"PART-1-1",           767,      -8.71328,  -792.246E-03,            0.,NA,NA,"",       1.62464,      -1.21173,      -1.08220,   34.0354E-06
C:/temp/dataset/9/9_2.odb,Step-1,Increment      1: Step Time =    1.000,"PART-1-1",           768,      -7.47429,       25.8162,            0.,NA,NA,"",       2.91246,      -2.71484,      -1.05455,   5.51818E-06
C:/temp/dataset/9/9_2.odb,Step-1,Increment      1: Step Time =    1.000,"PART-1-1",           769,       9.13729,   756.201E-03,            0.,NA,NA,"",       1.33101,      -1.32882,  -76.3701E-03,   386.949E-06
C:/temp/dataset/9/9_2.odb,Step-1,Increment      1: Step Time =    1.000,"PART-1-1",           770,       7.76646,  -679.521E-03,            0.,NA,NA,"",       1.25414,      -1.24500,  -151.124E-03,   526.310E-06
C:/temp/dataset/9/9_2.odb,Step-1,Increment      1: Step Time =    1.000,"PART-1-1",           771,       9.13358,  -706.311E-03,            0.,NA,NA,"",       1.24829,      -1.24607,  -74.4871E-03,   658.978E-06
C:/temp/dataset/9/9_2.odb,Step-1,Increment      1: Step Time =    1.000,"PART-1-1",           772,       7.17869,      -1.72980,            0.,NA,NA,"",       1.19814,      -1.18418,  -182.359E-03,   594.214E-06
C:/temp/dataset/9/9_2.odb,Step-1,Increment      1: Step Time =    1.000,"PART-1-1",           773,       6.08762,  -989.051E-03,            0.,NA,NA,"",       1.24884,      -1.22456,  -245.089E-03,   307.841E-06
C:/temp/dataset/9/9_2.odb,Step-1,Increment      1: Step Time =    1.000,"PART-1-1",           774,       8.06590,       24.5744,            0.,NA,NA,"",       2.67519,      -2.66945,  -175.184E-03,   16.8627E-06
C:/temp/dataset/9/9_2.odb,Step-1,Increment      1: Step Time =    1.000,"PART-1-1",           775,       7.69641,      -4.07963,            0.,NA,NA,"",       1.06052,      -1.05001,  -148.880E-03,   1.64006E-03
C:/temp/dataset/9/9_2.odb,Step-1,Increment      1: Step Time =    1.000,"PART-1-1",           776,       8.40687,      -2.58051,            0.,NA,NA,"",       1.14314,      -1.13761,  -112.248E-03,   1.26667E-03
C:/temp/dataset/9/9_2.odb,Step-1,Increment      1: Step Time =    1.000,"PART-1-1",           777,      -9.00797,   684.990E-03,            0.,NA,NA,"",       1.69968,      -1.29471,      -1.10119,   33.5174E-06
C:/temp/dataset/9/9_2.odb,Step-1,Increment      1: Step Time =    1.000,"PART-1-1",           778,       5.05143,   63.4436E-03,            0.,NA,NA,"",       1.31838,      -1.28252,  -305.383E-03,   135.224E-06
C:/temp/dataset/9/9_2.odb,Step-1,Increment      1: Step Time =    1.000,"PART-1-1",           779,      -3.45659,  -454.281E-03,            0.,NA,NA,"",       1.46739,      -1.23920,  -785.892E-03,   24.3453E-06
C:/temp/dataset/9/9_2.odb,Step-1,Increment      1: Step Time =    1.000,"PART-1-1",           780,      -7.58605,   993.377E-03,            0.,NA,NA,"",       1.66463,      -1.31441,      -1.02142,   34.5928E-06
