ODB Name,Step,Frame,Part Instance Name,    êﬂì_ÉâÉxÉã,X,Y,Z,Section Name,Material Name,Section Point,   U-Magnitude,          U-U1,          U-U2,       S-Mises
C:/temp/dataset/9/9_9.odb,Step-1,Increment      1: Step Time =    1.000,"PART-1-1",             1,            5.,           20.,            0.,NA,NA,"",       10.9131,      -10.6235,      -2.49743,   237.800E-06
C:/temp/dataset/9/9_9.odb,Step-1,Increment      1: Step Time =    1.000,"PART-1-1",             2,            0.,           20.,            0.,NA,NA,"",       11.1166,      -10.4624,      -3.75729,   76.4983E-06
C:/temp/dataset/9/9_9.odb,Step-1,Increment      1: Step Time =    1.000,"PART-1-1",             3,            5.,          12.5,            0.,NA,NA,"",       9.02347,      -8.73739,      -2.25413,   366.949E-06
C:/temp/dataset/9/9_9.odb,Step-1,Increment      1: Step Time =    1.000,"PART-1-1",             4,            5.,            5.,            0.,NA,NA,"",       7.14383,      -6.85462,      -2.01211,   338.321E-06
C:/temp/dataset/9/9_9.odb,Step-1,Increment      1: Step Time =    1.000,"PART-1-1",             5,            0.,            5.,            0.,NA,NA,"",       7.45078,      -6.69302,      -3.27379,   279.776E-06
C:/temp/dataset/9/9_9.odb,Step-1,Increment      1: Step Time =    1.000,"PART-1-1",             6,           -5.,            5.,            0.,NA,NA,"",       7.94975,      -6.52947,      -4.53481,   497.781E-06
C:/temp/dataset/9/9_9.odb,Step-1,Increment      1: Step Time =    1.000,"PART-1-1",             7,           -5.,          12.5,            0.,NA,NA,"",       9.67651,      -8.41549,      -4.77644,   10.6955E-06
C:/temp/dataset/9/9_9.odb,Step-1,Increment      1: Step Time =    1.000,"PART-1-1",             8,           -5.,           20.,            0.,NA,NA,"",       11.4585,      -10.3018,      -5.01703,   287.516E-06
C:/temp/dataset/9/9_9.odb,Step-1,Increment      1: Step Time =    1.000,"PART-1-1",             9,           15.,           30.,            0.,NA,NA,"",       13.4669,      -13.4635,  -302.335E-03,   2.75304E-06
C:/temp/dataset/9/9_9.odb,Step-1,Increment      1: Step Time =    1.000,"PART-1-1",            10,           7.5,           30.,            0.,NA,NA,"",       13.4023,      -13.2220,      -2.19074,   62.0883E-06
C:/temp/dataset/9/9_9.odb,Step-1,Increment      1: Step Time =    1.000,"PART-1-1",            11,            0.,           30.,            0.,NA,NA,"",       13.6066,      -12.9806,      -4.07967,   9.67882E-06
C:/temp/dataset/9/9_9.odb,Step-1,Increment      1: Step Time =    1.000,"PART-1-1",            12,          -7.5,           30.,            0.,NA,NA,"",       14.0673,      -12.7386,      -5.96810,   60.2329E-06
C:/temp/dataset/9/9_9.odb,Step-1,Increment      1: Step Time =    1.000,"PART-1-1",            13,          -15.,           30.,            0.,NA,NA,"",       14.7610,      -12.4970,      -7.85574,   2.05170E-06
C:/temp/dataset/9/9_9.odb,Step-1,Increment      1: Step Time =    1.000,"PART-1-1",            14,          -15.,         21.25,            0.,NA,NA,"",       12.7807,      -10.2948,      -7.57386,   59.6617E-06
C:/temp/dataset/9/9_9.odb,Step-1,Increment      1: Step Time =    1.000,"PART-1-1",            15,          -15.,          12.5,            0.,NA,NA,"",       10.8943,      -8.09370,      -7.29238,   66.4579E-06
C:/temp/dataset/9/9_9.odb,Step-1,Increment      1: Step Time =    1.000,"PART-1-1",            16,          -15.,          3.75,            0.,NA,NA,"",       9.15852,      -5.89163,      -7.01193,   172.145E-06
C:/temp/dataset/9/9_9.odb,Step-1,Increment      1: Step Time =    1.000,"PART-1-1",            17,          -15.,           -5.,            0.,NA,NA,"",       7.67442,      -3.68763,      -6.73038,   5.27457E-06
C:/temp/dataset/9/9_9.odb,Step-1,Increment      1: Step Time =    1.000,"PART-1-1",            18,          -10.,           -5.,            0.,NA,NA,"",       6.68927,      -3.84868,      -5.47120,   86.2160E-06
C:/temp/dataset/9/9_9.odb,Step-1,Increment      1: Step Time =    1.000,"PART-1-1",            19,           -5.,           -5.,            0.,NA,NA,"",       5.81469,      -4.00907,      -4.21165,   282.880E-06
C:/temp/dataset/9/9_9.odb,Step-1,Increment      1: Step Time =    1.000,"PART-1-1",            20,            0.,           -5.,            0.,NA,NA,"",       5.10726,      -4.16871,      -2.95059,   652.397E-06
C:/temp/dataset/9/9_9.odb,Step-1,Increment      1: Step Time =    1.000,"PART-1-1",            21,            5.,           -5.,            0.,NA,NA,"",       4.64006,      -4.32511,      -1.68034,   4.55741E-03
C:/temp/dataset/9/9_9.odb,Step-1,Increment      1: Step Time =    1.000,"PART-1-1",            22,            5.,        -11.25,            0.,NA,NA,"",       3.09495,      -2.76835,      -1.38382,   29.3326E-03
C:/temp/dataset/9/9_9.odb,Step-1,Increment      1: Step Time =    1.000,"PART-1-1",            23,            5.,         -17.5,            0.,NA,NA,"",       1.74189,      -1.42989,  -994.775E-03,   55.1470E-03
C:/temp/dataset/9/9_9.odb,Step-1,Increment      1: Step Time =    1.000,"PART-1-1",            24,            5.,        -23.75,            0.,NA,NA,"",   720.115E-03,  -480.710E-03,  -536.175E-03,   80.5390E-03
C:/temp/dataset/9/9_9.odb,Step-1,Increment      1: Step Time =    1.000,"PART-1-1",            25,            5.,          -30.,            0.,NA,NA,"",            0.,  -30.5472E-39,  -58.7665E-39,   119.532E-03
C:/temp/dataset/9/9_9.odb,Step-1,Increment      1: Step Time =    1.000,"PART-1-1",            26,           15.,          -30.,            0.,NA,NA,"",            0.,  -37.5907E-39,   65.8689E-39,   124.372E-03
C:/temp/dataset/9/9_9.odb,Step-1,Increment      1: Step Time =    1.000,"PART-1-1",            27,           15.,         -22.5,            0.,NA,NA,"",   927.503E-03,  -719.938E-03,   584.767E-03,   77.1071E-03
C:/temp/dataset/9/9_9.odb,Step-1,Increment      1: Step Time =    1.000,"PART-1-1",            28,           15.,          -15.,            0.,NA,NA,"",       2.30951,      -2.13952,   869.647E-03,   46.3639E-03
C:/temp/dataset/9/9_9.odb,Step-1,Increment      1: Step Time =    1.000,"PART-1-1",            29,           15.,          -7.5,            0.,NA,NA,"",       4.09897,      -4.00898,   854.168E-03,   17.3298E-03
C:/temp/dataset/9/9_9.odb,Step-1,Increment      1: Step Time =    1.000,"PART-1-1",            30,           15.,            0.,            0.,NA,NA,"",       5.96831,      -5.93365,   642.238E-03,   5.06535E-03
C:/temp/dataset/9/9_9.odb,Step-1,Increment      1: Step Time =    1.000,"PART-1-1",            31,           15.,           7.5,            0.,NA,NA,"",       7.81252,      -7.80135,   417.590E-03,   613.932E-06
C:/temp/dataset/9/9_9.odb,Step-1,Increment      1: Step Time =    1.000,"PART-1-1",            32,           15.,           15.,            0.,NA,NA,"",       9.68862,      -9.68696,   179.357E-03,   268.509E-06
C:/temp/dataset/9/9_9.odb,Step-1,Increment      1: Step Time =    1.000,"PART-1-1",            33,           15.,          22.5,            0.,NA,NA,"",       11.5751,      -11.5749,  -60.8629E-03,   96.2745E-06
C:/temp/dataset/9/9_9.odb,Step-1,Increment      1: Step Time =    1.000,"PART-1-1",            34,           2.5,           20.,            0.,NA,NA,"",       10.9970,      -10.5429,      -3.12747,   69.1967E-06
C:/temp/dataset/9/9_9.odb,Step-1,Increment      1: Step Time =    1.000,"PART-1-1",            35,            5.,           15.,            0.,NA,NA,"",       9.65251,      -9.36578,      -2.33520,   327.955E-06
C:/temp/dataset/9/9_9.odb,Step-1,Increment      1: Step Time =    1.000,"PART-1-1",            36,            5.,          17.5,            0.,NA,NA,"",       10.2825,      -9.99452,      -2.41626,   301.069E-06
C:/temp/dataset/9/9_9.odb,Step-1,Increment      1: Step Time =    1.000,"PART-1-1",            37,            5.,           7.5,            0.,NA,NA,"",       7.76899,      -7.48195,      -2.09227,   244.516E-06
C:/temp/dataset/9/9_9.odb,Step-1,Increment      1: Step Time =    1.000,"PART-1-1",            38,            5.,           10.,            0.,NA,NA,"",       8.39556,      -8.10944,      -2.17311,   370.395E-06
C:/temp/dataset/9/9_9.odb,Step-1,Increment      1: Step Time =    1.000,"PART-1-1",            39,           2.5,            5.,            0.,NA,NA,"",       7.27163,      -6.77437,      -2.64283,   29.4440E-06
C:/temp/dataset/9/9_9.odb,Step-1,Increment      1: Step Time =    1.000,"PART-1-1",            40,          -2.5,            5.,            0.,NA,NA,"",       7.67824,      -6.61140,      -3.90447,   419.703E-06
C:/temp/dataset/9/9_9.odb,Step-1,Increment      1: Step Time =    1.000,"PART-1-1",            41,           -5.,           10.,            0.,NA,NA,"",       9.09311,      -7.78667,      -4.69600,   42.9779E-06
C:/temp/dataset/9/9_9.odb,Step-1,Increment      1: Step Time =    1.000,"PART-1-1",            42,           -5.,           7.5,            0.,NA,NA,"",       8.51691,      -7.15787,      -4.61549,   134.338E-06
C:/temp/dataset/9/9_9.odb,Step-1,Increment      1: Step Time =    1.000,"PART-1-1",            43,           -5.,          17.5,            0.,NA,NA,"",       10.8601,      -9.67306,      -4.93705,   114.147E-06
C:/temp/dataset/9/9_9.odb,Step-1,Increment      1: Step Time =    1.000,"PART-1-1",            44,           -5.,           15.,            0.,NA,NA,"",       10.2658,      -9.04429,      -4.85679,   31.8717E-06
C:/temp/dataset/9/9_9.odb,Step-1,Increment      1: Step Time =    1.000,"PART-1-1",            45,          -2.5,           20.,            0.,NA,NA,"",       11.2708,      -10.3820,      -4.38707,   126.933E-06
C:/temp/dataset/9/9_9.odb,Step-1,Increment      1: Step Time =    1.000,"PART-1-1",            46,          12.5,           30.,            0.,NA,NA,"",       13.4154,      -13.3830,  -931.799E-03,   7.01950E-06
C:/temp/dataset/9/9_9.odb,Step-1,Increment      1: Step Time =    1.000,"PART-1-1",            47,           10.,           30.,            0.,NA,NA,"",       13.3938,      -13.3025,      -1.56124,   36.3352E-06
C:/temp/dataset/9/9_9.odb,Step-1,Increment      1: Step Time =    1.000,"PART-1-1",            48,            5.,           30.,            0.,NA,NA,"",       13.4408,      -13.1416,      -2.82032,   61.1829E-06
C:/temp/dataset/9/9_9.odb,Step-1,Increment      1: Step Time =    1.000,"PART-1-1",            49,           2.5,           30.,            0.,NA,NA,"",       13.5091,      -13.0611,      -3.44999,   32.6705E-06
C:/temp/dataset/9/9_9.odb,Step-1,Increment      1: Step Time =    1.000,"PART-1-1",            50,          -2.5,           30.,            0.,NA,NA,"",       13.7326,      -12.8999,      -4.70928,   44.6574E-06
C:/temp/dataset/9/9_9.odb,Step-1,Increment      1: Step Time =    1.000,"PART-1-1",            51,           -5.,           30.,            0.,NA,NA,"",       13.8865,      -12.8192,      -5.33877,   65.8545E-06
C:/temp/dataset/9/9_9.odb,Step-1,Increment      1: Step Time =    1.000,"PART-1-1",            52,          -10.,           30.,            0.,NA,NA,"",       14.2741,      -12.6580,      -6.59733,   35.3703E-06
C:/temp/dataset/9/9_9.odb,Step-1,Increment      1: Step Time =    1.000,"PART-1-1",            53,         -12.5,           30.,            0.,NA,NA,"",       14.5057,      -12.5775,      -7.22652,   8.16689E-06
C:/temp/dataset/9/9_9.odb,Step-1,Increment      1: Step Time =    1.000,"PART-1-1",            54,          -15.,       27.8125,            0.,NA,NA,"",       14.2593,      -11.9464,      -7.78532,   6.50847E-06
C:/temp/dataset/9/9_9.odb,Step-1,Increment      1: Step Time =    1.000,"PART-1-1",            55,          -15.,        25.625,            0.,NA,NA,"",       13.7617,      -11.3958,      -7.71486,   28.1004E-06
C:/temp/dataset/9/9_9.odb,Step-1,Increment      1: Step Time =    1.000,"PART-1-1",            56,          -15.,       23.4375,            0.,NA,NA,"",       13.2686,      -10.8453,      -7.64437,   49.8271E-06
C:/temp/dataset/9/9_9.odb,Step-1,Increment      1: Step Time =    1.000,"PART-1-1",            57,          -15.,       19.0625,            0.,NA,NA,"",       12.2986,      -9.74445,      -7.50337,   50.0156E-06
C:/temp/dataset/9/9_9.odb,Step-1,Increment      1: Step Time =    1.000,"PART-1-1",            58,          -15.,        16.875,            0.,NA,NA,"",       11.8229,      -9.19417,      -7.43296,   20.8126E-06
C:/temp/dataset/9/9_9.odb,Step-1,Increment      1: Step Time =    1.000,"PART-1-1",            59,          -15.,       14.6875,            0.,NA,NA,"",       11.3546,      -8.64394,      -7.36262,   20.5545E-06
C:/temp/dataset/9/9_9.odb,Step-1,Increment      1: Step Time =    1.000,"PART-1-1",            60,          -15.,       10.3125,            0.,NA,NA,"",       10.4433,      -7.54340,      -7.22221,   113.543E-06
C:/temp/dataset/9/9_9.odb,Step-1,Increment      1: Step Time =    1.000,"PART-1-1",            61,          -15.,         8.125,            0.,NA,NA,"",       10.0027,      -6.99299,      -7.15211,   156.464E-06
C:/temp/dataset/9/9_9.odb,Step-1,Increment      1: Step Time =    1.000,"PART-1-1",            62,          -15.,        5.9375,            0.,NA,NA,"",       9.57392,      -6.44241,      -7.08204,   177.926E-06
C:/temp/dataset/9/9_9.odb,Step-1,Increment      1: Step Time =    1.000,"PART-1-1",            63,          -15.,        1.5625,            0.,NA,NA,"",       8.75845,      -5.34067,      -6.94173,   128.164E-06
C:/temp/dataset/9/9_9.odb,Step-1,Increment      1: Step Time =    1.000,"PART-1-1",            64,          -15.,     -625.E-03,            0.,NA,NA,"",       8.37594,      -4.78962,      -6.87138,   63.1381E-06
C:/temp/dataset/9/9_9.odb,Step-1,Increment      1: Step Time =    1.000,"PART-1-1",            65,          -15.,       -2.8125,            0.,NA,NA,"",       8.01361,      -4.23859,      -6.80090,   10.9655E-06
C:/temp/dataset/9/9_9.odb,Step-1,Increment      1: Step Time =    1.000,"PART-1-1",            66,         -12.5,           -5.,            0.,NA,NA,"",       7.17069,      -3.76821,      -6.10077,   14.5375E-06
C:/temp/dataset/9/9_9.odb,Step-1,Increment      1: Step Time =    1.000,"PART-1-1",            67,          -7.5,           -5.,            0.,NA,NA,"",       6.23517,      -3.92896,      -4.84155,   182.374E-06
C:/temp/dataset/9/9_9.odb,Step-1,Increment      1: Step Time =    1.000,"PART-1-1",            68,          -2.5,           -5.,            0.,NA,NA,"",       5.43570,      -4.08905,      -3.58141,   383.001E-06
C:/temp/dataset/9/9_9.odb,Step-1,Increment      1: Step Time =    1.000,"PART-1-1",            69,           2.5,           -5.,            0.,NA,NA,"",       4.83984,      -4.24806,      -2.31907,   1.35296E-03
C:/temp/dataset/9/9_9.odb,Step-1,Increment      1: Step Time =    1.000,"PART-1-1",            70,            5.,      -7.08333,            0.,NA,NA,"",       4.11435,      -3.79362,      -1.59258,   12.8291E-03
C:/temp/dataset/9/9_9.odb,Step-1,Increment      1: Step Time =    1.000,"PART-1-1",            71,            5.,      -9.16667,            0.,NA,NA,"",       3.59736,      -3.27242,      -1.49407,   20.7038E-03
C:/temp/dataset/9/9_9.odb,Step-1,Increment      1: Step Time =    1.000,"PART-1-1",            72,            5.,      -13.3333,            0.,NA,NA,"",       2.61415,      -2.28883,      -1.26295,   38.0405E-03
C:/temp/dataset/9/9_9.odb,Step-1,Increment      1: Step Time =    1.000,"PART-1-1",            73,            5.,      -15.4167,            0.,NA,NA,"",       2.16133,      -1.84063,      -1.13288,   46.6544E-03
C:/temp/dataset/9/9_9.odb,Step-1,Increment      1: Step Time =    1.000,"PART-1-1",            74,            5.,      -19.5833,            0.,NA,NA,"",       1.36020,      -1.06249,  -849.262E-03,   63.5958E-03
C:/temp/dataset/9/9_9.odb,Step-1,Increment      1: Step Time =    1.000,"PART-1-1",            75,            5.,      -21.6667,            0.,NA,NA,"",       1.01922,  -744.033E-03,  -696.574E-03,   71.9329E-03
C:/temp/dataset/9/9_9.odb,Step-1,Increment      1: Step Time =    1.000,"PART-1-1",            76,            5.,      -25.8333,            0.,NA,NA,"",   460.583E-03,  -275.803E-03,  -368.876E-03,   86.8069E-03
C:/temp/dataset/9/9_9.odb,Step-1,Increment      1: Step Time =    1.000,"PART-1-1",            77,            5.,      -27.9167,            0.,NA,NA,"",   235.480E-03,  -133.221E-03,  -194.172E-03,   101.478E-03
C:/temp/dataset/9/9_9.odb,Step-1,Increment      1: Step Time =    1.000,"PART-1-1",            78,           7.5,          -30.,            0.,NA,NA,"",            0.,  -12.4102E-39,  -117.288E-39,   33.3869E-03
C:/temp/dataset/9/9_9.odb,Step-1,Increment      1: Step Time =    1.000,"PART-1-1",            79,           10.,          -30.,            0.,NA,NA,"",            0.,   11.2706E-39,   110.462E-42,   5.53584E-03
C:/temp/dataset/9/9_9.odb,Step-1,Increment      1: Step Time =    1.000,"PART-1-1",            80,          12.5,          -30.,            0.,NA,NA,"",            0.,  -56.2677E-39,   124.598E-39,   36.4676E-03
C:/temp/dataset/9/9_9.odb,Step-1,Increment      1: Step Time =    1.000,"PART-1-1",            81,           15.,         -27.5,            0.,NA,NA,"",   292.569E-03,  -181.659E-03,   229.340E-03,   98.9156E-03
C:/temp/dataset/9/9_9.odb,Step-1,Increment      1: Step Time =    1.000,"PART-1-1",            82,           15.,          -25.,            0.,NA,NA,"",   582.430E-03,  -403.135E-03,   420.365E-03,   85.5980E-03
C:/temp/dataset/9/9_9.odb,Step-1,Increment      1: Step Time =    1.000,"PART-1-1",            83,           15.,          -20.,            0.,NA,NA,"",       1.33169,      -1.12322,   715.379E-03,   66.7216E-03
C:/temp/dataset/9/9_9.odb,Step-1,Increment      1: Step Time =    1.000,"PART-1-1",            84,           15.,         -17.5,            0.,NA,NA,"",       1.79428,      -1.60094,   810.209E-03,   56.5749E-03
C:/temp/dataset/9/9_9.odb,Step-1,Increment      1: Step Time =    1.000,"PART-1-1",            85,           15.,         -12.5,            0.,NA,NA,"",       2.86961,      -2.72635,   895.366E-03,   36.4542E-03
C:/temp/dataset/9/9_9.odb,Step-1,Increment      1: Step Time =    1.000,"PART-1-1",            86,           15.,          -10.,            0.,NA,NA,"",       3.46621,      -3.35018,   889.332E-03,   27.1421E-03
C:/temp/dataset/9/9_9.odb,Step-1,Increment      1: Step Time =    1.000,"PART-1-1",            87,           15.,           -5.,            0.,NA,NA,"",       4.73805,      -4.67171,   790.083E-03,   11.7603E-03
C:/temp/dataset/9/9_9.odb,Step-1,Increment      1: Step Time =    1.000,"PART-1-1",            88,           15.,          -2.5,            0.,NA,NA,"",       5.36312,      -5.31483,   718.115E-03,   9.21234E-03
C:/temp/dataset/9/9_9.odb,Step-1,Increment      1: Step Time =    1.000,"PART-1-1",            89,           15.,           2.5,            0.,NA,NA,"",       6.57322,      -6.54827,   572.120E-03,   2.43905E-03
C:/temp/dataset/9/9_9.odb,Step-1,Increment      1: Step Time =    1.000,"PART-1-1",            90,           15.,            5.,            0.,NA,NA,"",       7.19087,      -7.17376,   495.675E-03,   1.06607E-03
C:/temp/dataset/9/9_9.odb,Step-1,Increment      1: Step Time =    1.000,"PART-1-1",            91,           15.,           10.,            0.,NA,NA,"",       8.43637,      -8.42957,   338.507E-03,   415.090E-06
C:/temp/dataset/9/9_9.odb,Step-1,Increment      1: Step Time =    1.000,"PART-1-1",            92,           15.,          12.5,            0.,NA,NA,"",       9.06182,      -9.05812,   259.054E-03,   326.138E-06
C:/temp/dataset/9/9_9.odb,Step-1,Increment      1: Step Time =    1.000,"PART-1-1",            93,           15.,          17.5,            0.,NA,NA,"",       10.3166,      -10.3161,   99.4705E-03,   216.449E-06
C:/temp/dataset/9/9_9.odb,Step-1,Increment      1: Step Time =    1.000,"PART-1-1",            94,           15.,           20.,            0.,NA,NA,"",       10.9454,      -10.9454,   19.3946E-03,   157.462E-06
C:/temp/dataset/9/9_9.odb,Step-1,Increment      1: Step Time =    1.000,"PART-1-1",            95,           15.,           25.,            0.,NA,NA,"",       12.2053,      -12.2045,  -141.274E-03,   42.8237E-06
C:/temp/dataset/9/9_9.odb,Step-1,Increment      1: Step Time =    1.000,"PART-1-1",            96,           15.,          27.5,            0.,NA,NA,"",       12.8359,      -12.8340,  -221.786E-03,   7.32046E-06
C:/temp/dataset/9/9_9.odb,Step-1,Increment      1: Step Time =    1.000,"PART-1-1",            97,       7.09255,      -21.6558,            0.,NA,NA,"",   815.067E-03,  -713.390E-03,  -394.221E-03,   42.6305E-03
C:/temp/dataset/9/9_9.odb,Step-1,Increment      1: Step Time =    1.000,"PART-1-1",            98,       7.09346,      -17.4368,            0.,NA,NA,"",       1.55754,      -1.43916,  -595.598E-03,   33.7346E-03
C:/temp/dataset/9/9_9.odb,Step-1,Increment      1: Step Time =    1.000,"PART-1-1",            99,       7.15828,      -23.7452,            0.,NA,NA,"",   520.424E-03,  -433.873E-03,  -287.394E-03,   45.9558E-03
C:/temp/dataset/9/9_9.odb,Step-1,Increment      1: Step Time =    1.000,"PART-1-1",           100,       7.44609,      -27.8729,            0.,NA,NA,"",   105.589E-03,  -66.7445E-03,  -81.8177E-03,   50.2150E-03
C:/temp/dataset/9/9_9.odb,Step-1,Increment      1: Step Time =    1.000,"PART-1-1",           101,       7.30780,      -25.7939,            0.,NA,NA,"",   280.736E-03,  -217.339E-03,  -177.697E-03,   49.6417E-03
C:/temp/dataset/9/9_9.odb,Step-1,Increment      1: Step Time =    1.000,"PART-1-1",           102,       7.08258,      -10.9526,            0.,NA,NA,"",       3.01582,      -2.87734,  -903.381E-03,   20.7899E-03
C:/temp/dataset/9/9_9.odb,Step-1,Increment      1: Step Time =    1.000,"PART-1-1",           103,       7.09950,      -13.1236,            0.,NA,NA,"",       2.49333,      -2.36180,  -799.116E-03,   24.9652E-03
C:/temp/dataset/9/9_9.odb,Step-1,Increment      1: Step Time =    1.000,"PART-1-1",           104,       6.95448,      -6.62029,            0.,NA,NA,"",       4.12088,      -3.96534,      -1.12146,   12.1143E-03
C:/temp/dataset/9/9_9.odb,Step-1,Increment      1: Step Time =    1.000,"PART-1-1",           105,       7.04974,      -8.78764,            0.,NA,NA,"",       3.56017,      -3.41463,      -1.00754,   16.5706E-03
C:/temp/dataset/9/9_9.odb,Step-1,Increment      1: Step Time =    1.000,"PART-1-1",           106,       7.10540,      -15.2896,            0.,NA,NA,"",       2.00374,      -1.87912,  -695.606E-03,   29.2436E-03
C:/temp/dataset/9/9_9.odb,Step-1,Increment      1: Step Time =    1.000,"PART-1-1",           107,       7.08223,      -19.5608,            0.,NA,NA,"",       1.16008,      -1.04872,  -495.959E-03,   38.2860E-03
C:/temp/dataset/9/9_9.odb,Step-1,Increment      1: Step Time =    1.000,"PART-1-1",           108,      -11.8989,       25.3809,            0.,NA,NA,"",       13.3685,      -11.4342,      -6.92653,   35.9175E-06
C:/temp/dataset/9/9_9.odb,Step-1,Increment      1: Step Time =    1.000,"PART-1-1",           109,      -12.7134,       3.51066,            0.,NA,NA,"",       8.72913,      -5.90516,      -6.42859,   113.141E-06
C:/temp/dataset/9/9_9.odb,Step-1,Increment      1: Step Time =    1.000,"PART-1-1",           110,      -13.0834,       10.3867,            0.,NA,NA,"",       10.1775,      -7.62379,      -6.74241,   93.8051E-06
C:/temp/dataset/9/9_9.odb,Step-1,Increment      1: Step Time =    1.000,"PART-1-1",           111,      -12.9355,       8.20912,            0.,NA,NA,"",       9.70381,      -7.08071,      -6.63532,   107.308E-06
C:/temp/dataset/9/9_9.odb,Step-1,Increment      1: Step Time =    1.000,"PART-1-1",           112,      -13.1801,       12.5484,            0.,NA,NA,"",       10.6485,      -8.16444,      -6.83613,   74.8352E-06
C:/temp/dataset/9/9_9.odb,Step-1,Increment      1: Step Time =    1.000,"PART-1-1",           113,      -12.7454,       20.6010,            0.,NA,NA,"",       12.3661,      -10.2040,      -6.98561,   26.4370E-06
C:/temp/dataset/9/9_9.odb,Step-1,Increment      1: Step Time =    1.000,"PART-1-1",           114,      -13.1621,       18.5389,            0.,NA,NA,"",       11.9533,      -9.67182,      -7.02410,   35.4394E-06
C:/temp/dataset/9/9_9.odb,Step-1,Increment      1: Step Time =    1.000,"PART-1-1",           115,      -12.3840,       22.8683,            0.,NA,NA,"",       12.8410,      -10.7862,      -6.96768,   28.0017E-06
C:/temp/dataset/9/9_9.odb,Step-1,Increment      1: Step Time =    1.000,"PART-1-1",           116,      -13.4658,       16.5948,            0.,NA,NA,"",       11.5619,      -9.17301,      -7.03799,   39.4401E-06
C:/temp/dataset/9/9_9.odb,Step-1,Increment      1: Step Time =    1.000,"PART-1-1",           117,      -13.3466,       14.6489,            0.,NA,NA,"",       11.1225,      -8.68742,      -6.94546,   54.3754E-06
C:/temp/dataset/9/9_9.odb,Step-1,Increment      1: Step Time =    1.000,"PART-1-1",           118,      -12.3609,       5.76892,            0.,NA,NA,"",       9.12006,      -6.48512,      -6.41239,   102.961E-06
C:/temp/dataset/9/9_9.odb,Step-1,Increment      1: Step Time =    1.000,"PART-1-1",           119,      -12.8583,       1.39410,            0.,NA,NA,"",       8.35048,      -5.36737,      -6.39702,   114.072E-06
C:/temp/dataset/9/9_9.odb,Step-1,Increment      1: Step Time =    1.000,"PART-1-1",           120,      -12.6304,  -685.754E-03,            0.,NA,NA,"",       7.92944,      -4.85075,      -6.27267,   102.342E-06
C:/temp/dataset/9/9_9.odb,Step-1,Increment      1: Step Time =    1.000,"PART-1-1",           121,   38.5673E-03,       27.2989,            0.,NA,NA,"",       12.9303,      -12.3016,      -3.98290,   58.4546E-06
C:/temp/dataset/9/9_9.odb,Step-1,Increment      1: Step Time =    1.000,"PART-1-1",           122,      -4.16985,       22.2766,            0.,NA,NA,"",       11.9444,      -10.9015,      -4.88111,   88.9417E-06
C:/temp/dataset/9/9_9.odb,Step-1,Increment      1: Step Time =    1.000,"PART-1-1",           123,      -7.85548,       28.0855,            0.,NA,NA,"",       13.6344,      -12.2452,      -5.99597,   33.7615E-06
C:/temp/dataset/9/9_9.odb,Step-1,Increment      1: Step Time =    1.000,"PART-1-1",           124,       9.92813,      -27.7267,            0.,NA,NA,"",   56.4440E-03,  -56.4337E-03,   1.08187E-03,   18.1337E-03
C:/temp/dataset/9/9_9.odb,Step-1,Increment      1: Step Time =    1.000,"PART-1-1",           125,       13.1106,      -17.4438,            0.,NA,NA,"",       1.60956,      -1.54114,   464.298E-03,   37.1633E-03
C:/temp/dataset/9/9_9.odb,Step-1,Increment      1: Step Time =    1.000,"PART-1-1",           126,       12.8150,       2.64061,            0.,NA,NA,"",       6.51304,      -6.51300,   23.9209E-03,   830.019E-06
C:/temp/dataset/9/9_9.odb,Step-1,Increment      1: Step Time =    1.000,"PART-1-1",           127,       7.56819,       12.3225,            0.,NA,NA,"",       8.92008,      -8.77489,      -1.60284,   205.029E-06
C:/temp/dataset/9/9_9.odb,Step-1,Increment      1: Step Time =    1.000,"PART-1-1",           128,       7.47113,       19.8748,            0.,NA,NA,"",       10.8343,      -10.6715,      -1.87119,   128.824E-06
C:/temp/dataset/9/9_9.odb,Step-1,Increment      1: Step Time =    1.000,"PART-1-1",           129,       12.4223,       27.5153,            0.,NA,NA,"",       12.7846,      -12.7548,  -871.301E-03,   35.1802E-06
C:/temp/dataset/9/9_9.odb,Step-1,Increment      1: Step Time =    1.000,"PART-1-1",           130,       12.3750,       22.5091,            0.,NA,NA,"",       11.5152,      -11.4926,  -721.957E-03,   90.1320E-06
C:/temp/dataset/9/9_9.odb,Step-1,Increment      1: Step Time =    1.000,"PART-1-1",           131,       7.58839,       27.9970,            0.,NA,NA,"",       12.8933,      -12.7205,      -2.10389,   48.1215E-06
C:/temp/dataset/9/9_9.odb,Step-1,Increment      1: Step Time =    1.000,"PART-1-1",           132,   199.805E-03,       22.3057,            0.,NA,NA,"",       11.6786,      -11.0495,      -3.78135,   72.8502E-06
C:/temp/dataset/9/9_9.odb,Step-1,Increment      1: Step Time =    1.000,"PART-1-1",           133,       12.6934,       9.82310,            0.,NA,NA,"",       8.31421,      -8.31088,  -235.112E-03,   234.791E-06
C:/temp/dataset/9/9_9.odb,Step-1,Increment      1: Step Time =    1.000,"PART-1-1",           134,      -7.14717,       12.7802,            0.,NA,NA,"",       9.96023,      -8.41690,      -5.32559,   52.3118E-06
C:/temp/dataset/9/9_9.odb,Step-1,Increment      1: Step Time =    1.000,"PART-1-1",           135,      -6.86178,       17.9412,            0.,NA,NA,"",       11.1324,      -9.72415,      -5.41953,   126.784E-06
C:/temp/dataset/9/9_9.odb,Step-1,Increment      1: Step Time =    1.000,"PART-1-1",           136,      -2.68307,      -2.95682,            0.,NA,NA,"",       5.89829,      -4.59839,      -3.69386,   247.901E-06
C:/temp/dataset/9/9_9.odb,Step-1,Increment      1: Step Time =    1.000,"PART-1-1",           137,      -7.59808,      -3.03341,            0.,NA,NA,"",       6.62194,      -4.42121,      -4.92981,   155.861E-06
C:/temp/dataset/9/9_9.odb,Step-1,Increment      1: Step Time =    1.000,"PART-1-1",           138,  -248.196E-03,       2.69947,            0.,NA,NA,"",       6.92150,      -6.10447,      -3.26230,   313.143E-06
C:/temp/dataset/9/9_9.odb,Step-1,Increment      1: Step Time =    1.000,"PART-1-1",           139,       2.16631,      -2.47375,            0.,NA,NA,"",       5.47393,      -4.87674,      -2.48623,   581.213E-06
C:/temp/dataset/9/9_9.odb,Step-1,Increment      1: Step Time =    1.000,"PART-1-1",           140,       4.39271,       2.43636,            0.,NA,NA,"",       6.53055,      -6.18953,      -2.08273,   390.561E-06
C:/temp/dataset/9/9_9.odb,Step-1,Increment      1: Step Time =    1.000,"PART-1-1",           141,       12.9283,      -5.27800,            0.,NA,NA,"",       4.52090,      -4.51235,   277.839E-03,   15.0225E-03
C:/temp/dataset/9/9_9.odb,Step-1,Increment      1: Step Time =    1.000,"PART-1-1",           142,       13.0847,      -12.6172,            0.,NA,NA,"",       2.66398,      -2.62305,   465.187E-03,   25.1207E-03
C:/temp/dataset/9/9_9.odb,Step-1,Increment      1: Step Time =    1.000,"PART-1-1",           143,       12.4838,       17.4790,            0.,NA,NA,"",       10.2436,      -10.2297,  -532.876E-03,   125.076E-06
C:/temp/dataset/9/9_9.odb,Step-1,Increment      1: Step Time =    1.000,"PART-1-1",           144,       2.63438,       22.2143,            0.,NA,NA,"",       11.5472,      -11.1049,      -3.16508,   78.2925E-06
C:/temp/dataset/9/9_9.odb,Step-1,Increment      1: Step Time =    1.000,"PART-1-1",           145,       7.54366,       14.9275,            0.,NA,NA,"",       9.57981,      -9.42900,      -1.69313,   183.315E-06
C:/temp/dataset/9/9_9.odb,Step-1,Increment      1: Step Time =    1.000,"PART-1-1",           146,       7.50510,       17.4443,            0.,NA,NA,"",       10.2179,      -10.0609,      -1.78412,   148.328E-06
C:/temp/dataset/9/9_9.odb,Step-1,Increment      1: Step Time =    1.000,"PART-1-1",           147,       7.12790,       7.03873,            0.,NA,NA,"",       7.59250,      -7.43407,      -1.54294,   388.457E-06
C:/temp/dataset/9/9_9.odb,Step-1,Increment      1: Step Time =    1.000,"PART-1-1",           148,       7.48952,       9.64170,            0.,NA,NA,"",       8.24333,      -8.09894,      -1.53610,   247.789E-06
C:/temp/dataset/9/9_9.odb,Step-1,Increment      1: Step Time =    1.000,"PART-1-1",           149,       2.16717,       2.56251,            0.,NA,NA,"",       6.69483,      -6.14877,      -2.64827,   419.982E-06
C:/temp/dataset/9/9_9.odb,Step-1,Increment      1: Step Time =    1.000,"PART-1-1",           150,      -2.68606,       3.12146,            0.,NA,NA,"",       7.26183,      -6.13150,      -3.89087,   281.042E-06
C:/temp/dataset/9/9_9.odb,Step-1,Increment      1: Step Time =    1.000,"PART-1-1",           151,      -7.08307,       10.2840,            0.,NA,NA,"",       9.38330,      -7.79114,      -5.22919,   60.9310E-06
C:/temp/dataset/9/9_9.odb,Step-1,Increment      1: Step Time =    1.000,"PART-1-1",           152,      -2.13928,       22.2031,            0.,NA,NA,"",       11.7873,      -10.9484,      -4.36726,   110.204E-06
C:/temp/dataset/9/9_9.odb,Step-1,Increment      1: Step Time =    1.000,"PART-1-1",           153,       9.90766,       27.6812,            0.,NA,NA,"",       12.8050,      -12.7156,      -1.50975,   48.3998E-06
C:/temp/dataset/9/9_9.odb,Step-1,Increment      1: Step Time =    1.000,"PART-1-1",           154,       5.18317,       27.8350,            0.,NA,NA,"",       12.8892,      -12.6023,      -2.70436,   48.3393E-06
C:/temp/dataset/9/9_9.odb,Step-1,Increment      1: Step Time =    1.000,"PART-1-1",           155,       2.70091,       27.4744,            0.,NA,NA,"",       12.8667,      -12.4316,      -3.31795,   56.4707E-06
C:/temp/dataset/9/9_9.odb,Step-1,Increment      1: Step Time =    1.000,"PART-1-1",           156,      -2.92570,       26.9909,            0.,NA,NA,"",       13.0144,      -12.1285,      -4.71957,   44.1206E-06
C:/temp/dataset/9/9_9.odb,Step-1,Increment      1: Step Time =    1.000,"PART-1-1",           157,      -5.52449,       27.7330,            0.,NA,NA,"",       13.3696,      -12.2315,      -5.39783,   27.1171E-06
C:/temp/dataset/9/9_9.odb,Step-1,Increment      1: Step Time =    1.000,"PART-1-1",           158,      -10.1759,       28.1970,            0.,NA,NA,"",       13.8617,      -12.1985,      -6.58357,   32.9506E-06
C:/temp/dataset/9/9_9.odb,Step-1,Increment      1: Step Time =    1.000,"PART-1-1",           159,      -7.15795,       15.3782,            0.,NA,NA,"",       10.5618,      -9.07000,      -5.41176,   70.6066E-06
C:/temp/dataset/9/9_9.odb,Step-1,Increment      1: Step Time =    1.000,"PART-1-1",           160,      -7.10855,       7.92361,            0.,NA,NA,"",       8.85511,      -7.19659,      -5.15966,   117.545E-06
C:/temp/dataset/9/9_9.odb,Step-1,Increment      1: Step Time =    1.000,"PART-1-1",           161,      -7.31416,       5.72319,            0.,NA,NA,"",       8.39455,      -6.63646,      -5.14060,   149.132E-06
C:/temp/dataset/9/9_9.odb,Step-1,Increment      1: Step Time =    1.000,"PART-1-1",           162,      -10.0288,      -2.82434,            0.,NA,NA,"",       7.07886,      -4.39574,      -5.54867,   118.434E-06
C:/temp/dataset/9/9_9.odb,Step-1,Increment      1: Step Time =    1.000,"PART-1-1",           163,      -5.14639,      -3.11924,            0.,NA,NA,"",       6.21504,      -4.47833,      -4.30944,   196.117E-06
C:/temp/dataset/9/9_9.odb,Step-1,Increment      1: Step Time =    1.000,"PART-1-1",           164,  -261.821E-03,      -2.60038,            0.,NA,NA,"",       5.68287,      -4.76623,      -3.09484,   302.148E-06
C:/temp/dataset/9/9_9.odb,Step-1,Increment      1: Step Time =    1.000,"PART-1-1",           165,       4.38015,      -2.33295,            0.,NA,NA,"",       5.34531,      -4.98439,      -1.93084,   674.135E-06
C:/temp/dataset/9/9_9.odb,Step-1,Increment      1: Step Time =    1.000,"PART-1-1",           166,       13.0639,      -10.1924,            0.,NA,NA,"",       3.25322,      -3.22494,   428.047E-03,   19.2354E-03
C:/temp/dataset/9/9_9.odb,Step-1,Increment      1: Step Time =    1.000,"PART-1-1",           167,       13.0843,      -19.8267,            0.,NA,NA,"",       1.16238,      -1.08388,   419.913E-03,   43.0336E-03
C:/temp/dataset/9/9_9.odb,Step-1,Increment      1: Step Time =    1.000,"PART-1-1",           168,       12.4446,      -27.5067,            0.,NA,NA,"",   143.424E-03,  -104.198E-03,   98.5563E-03,   54.3534E-03
C:/temp/dataset/9/9_9.odb,Step-1,Increment      1: Step Time =    1.000,"PART-1-1",           169,       12.9329,      -22.1971,            0.,NA,NA,"",   769.041E-03,  -691.292E-03,   336.954E-03,   46.9482E-03
C:/temp/dataset/9/9_9.odb,Step-1,Increment      1: Step Time =    1.000,"PART-1-1",           170,       13.1086,      -15.0383,            0.,NA,NA,"",       2.11295,      -2.05786,   479.312E-03,   31.1281E-03
C:/temp/dataset/9/9_9.odb,Step-1,Increment      1: Step Time =    1.000,"PART-1-1",           171,       13.0208,      -7.75462,            0.,NA,NA,"",       3.87614,      -3.85899,   364.317E-03,   18.5796E-03
C:/temp/dataset/9/9_9.odb,Step-1,Increment      1: Step Time =    1.000,"PART-1-1",           172,       12.7756,      -2.70708,            0.,NA,NA,"",       5.17705,      -5.17425,   170.216E-03,   10.6018E-03
C:/temp/dataset/9/9_9.odb,Step-1,Increment      1: Step Time =    1.000,"PART-1-1",           173,       12.6338,  -14.4220E-03,            0.,NA,NA,"",       5.84780,      -5.84750,   59.4346E-03,   4.98984E-03
C:/temp/dataset/9/9_9.odb,Step-1,Increment      1: Step Time =    1.000,"PART-1-1",           174,       13.0186,       5.13380,            0.,NA,NA,"",       7.14364,      -7.14364,  -4.27699E-03,   475.600E-06
C:/temp/dataset/9/9_9.odb,Step-1,Increment      1: Step Time =    1.000,"PART-1-1",           175,       13.0709,       7.51902,            0.,NA,NA,"",       7.74436,      -7.74407,  -66.8988E-03,   368.645E-06
C:/temp/dataset/9/9_9.odb,Step-1,Increment      1: Step Time =    1.000,"PART-1-1",           176,       12.5119,       12.3699,            0.,NA,NA,"",       8.95260,      -8.94528,  -362.089E-03,   169.295E-06
C:/temp/dataset/9/9_9.odb,Step-1,Increment      1: Step Time =    1.000,"PART-1-1",           177,       12.4863,       14.9454,            0.,NA,NA,"",       9.60281,      -9.59222,  -451.003E-03,   143.466E-06
C:/temp/dataset/9/9_9.odb,Step-1,Increment      1: Step Time =    1.000,"PART-1-1",           178,       12.4500,       19.9932,            0.,NA,NA,"",       10.8793,      -10.8615,  -622.149E-03,   110.068E-06
C:/temp/dataset/9/9_9.odb,Step-1,Increment      1: Step Time =    1.000,"PART-1-1",           179,       9.19048,      -23.6482,            0.,NA,NA,"",   441.435E-03,  -433.569E-03,  -82.9623E-03,   21.0780E-03
C:/temp/dataset/9/9_9.odb,Step-1,Increment      1: Step Time =    1.000,"PART-1-1",           180,       9.11932,      -19.5624,            0.,NA,NA,"",       1.06861,      -1.05384,  -177.041E-03,   20.3064E-03
C:/temp/dataset/9/9_9.odb,Step-1,Increment      1: Step Time =    1.000,"PART-1-1",           181,       9.13323,      -12.9344,            0.,NA,NA,"",       2.46864,      -2.44073,  -370.156E-03,   18.8459E-03
C:/temp/dataset/9/9_9.odb,Step-1,Increment      1: Step Time =    1.000,"PART-1-1",           182,       9.14303,      -17.4019,            0.,NA,NA,"",       1.47962,      -1.46169,  -229.682E-03,   19.6738E-03
C:/temp/dataset/9/9_9.odb,Step-1,Increment      1: Step Time =    1.000,"PART-1-1",           183,       9.11260,      -10.6744,            0.,NA,NA,"",       3.02340,      -2.98916,  -453.735E-03,   18.3637E-03
C:/temp/dataset/9/9_9.odb,Step-1,Increment      1: Step Time =    1.000,"PART-1-1",           184,       9.06671,      -8.40676,            0.,NA,NA,"",       3.60449,      -3.56283,  -546.481E-03,   16.9850E-03
C:/temp/dataset/9/9_9.odb,Step-1,Increment      1: Step Time =    1.000,"PART-1-1",           185,       9.15359,      -15.1846,            0.,NA,NA,"",       1.94966,      -1.92754,  -292.891E-03,   19.2001E-03
C:/temp/dataset/9/9_9.odb,Step-1,Increment      1: Step Time =    1.000,"PART-1-1",           186,       9.09437,      -21.6308,            0.,NA,NA,"",   725.235E-03,  -712.986E-03,  -132.732E-03,   21.0358E-03
C:/temp/dataset/9/9_9.odb,Step-1,Increment      1: Step Time =    1.000,"PART-1-1",           187,       8.94944,      -6.10597,            0.,NA,NA,"",       4.20739,      -4.15577,  -657.034E-03,   13.7296E-03
C:/temp/dataset/9/9_9.odb,Step-1,Increment      1: Step Time =    1.000,"PART-1-1",           188,      -11.3189,       17.6054,            0.,NA,NA,"",       11.5249,      -9.49630,      -6.53029,   65.2628E-06
C:/temp/dataset/9/9_9.odb,Step-1,Increment      1: Step Time =    1.000,"PART-1-1",           189,      -10.4260,       2.85148,            0.,NA,NA,"",       8.23395,      -5.81295,      -5.83160,   123.572E-06
C:/temp/dataset/9/9_9.odb,Step-1,Increment      1: Step Time =    1.000,"PART-1-1",           190,      -12.4413,       27.8959,            0.,NA,NA,"",       14.0083,      -12.0498,      -7.14401,   25.4623E-06
C:/temp/dataset/9/9_9.odb,Step-1,Increment      1: Step Time =    1.000,"PART-1-1",           191,      -10.6658,       19.6683,            0.,NA,NA,"",       11.9206,      -10.0362,      -6.43228,   46.5584E-06
C:/temp/dataset/9/9_9.odb,Step-1,Increment      1: Step Time =    1.000,"PART-1-1",           192,      -12.1118,       16.4066,            0.,NA,NA,"",       11.3511,      -9.16924,      -6.69126,   62.7675E-06
C:/temp/dataset/9/9_9.odb,Step-1,Increment      1: Step Time =    1.000,"PART-1-1",           193,      -11.5166,       14.9043,            0.,NA,NA,"",       10.9448,      -8.81055,      -6.49324,   79.4439E-06
C:/temp/dataset/9/9_9.odb,Step-1,Increment      1: Step Time =    1.000,"PART-1-1",           194,      -11.2054,       12.7278,            0.,NA,NA,"",       10.4261,      -8.27313,      -6.34503,   88.8305E-06
C:/temp/dataset/9/9_9.odb,Step-1,Increment      1: Step Time =    1.000,"PART-1-1",           195,      -11.1139,       10.5020,            0.,NA,NA,"",       9.93021,      -7.71623,      -6.25052,   91.5039E-06
C:/temp/dataset/9/9_9.odb,Step-1,Increment      1: Step Time =    1.000,"PART-1-1",           196,      -9.42029,       24.1195,            0.,NA,NA,"",       12.8286,      -11.1964,      -6.26213,   32.7380E-06
C:/temp/dataset/9/9_9.odb,Step-1,Increment      1: Step Time =    1.000,"PART-1-1",           197,      -11.0759,       8.46025,            0.,NA,NA,"",       9.48844,      -7.20383,      -6.17538,   91.8588E-06
C:/temp/dataset/9/9_9.odb,Step-1,Increment      1: Step Time =    1.000,"PART-1-1",           198,      -10.9473,       6.84821,            0.,NA,NA,"",       9.13100,      -6.80236,      -6.09123,   91.7722E-06
C:/temp/dataset/9/9_9.odb,Step-1,Increment      1: Step Time =    1.000,"PART-1-1",           199,       9.64075,      -25.5803,            0.,NA,NA,"",   221.366E-03,  -220.350E-03,  -21.1847E-03,   18.6641E-03
C:/temp/dataset/9/9_9.odb,Step-1,Increment      1: Step Time =    1.000,"PART-1-1",           200,       6.22595,      -2.03957,            0.,NA,NA,"",       5.32620,      -5.11809,      -1.47430,   2.04828E-03
C:/temp/dataset/9/9_9.odb,Step-1,Increment      1: Step Time =    1.000,"PART-1-1",           201,       6.24072,       2.15031,            0.,NA,NA,"",       6.38343,      -6.17756,      -1.60812,   415.096E-06
C:/temp/dataset/9/9_9.odb,Step-1,Increment      1: Step Time =    1.000,"PART-1-1",           202,      -7.69234,       3.89067,            0.,NA,NA,"",       8.04876,      -6.16298,      -5.17689,   175.692E-06
C:/temp/dataset/9/9_9.odb,Step-1,Increment      1: Step Time =    1.000,"PART-1-1",           203,       7.31807,       22.0589,            0.,NA,NA,"",       11.3900,      -11.2165,      -1.98028,   128.648E-06
C:/temp/dataset/9/9_9.odb,Step-1,Increment      1: Step Time =    1.000,"PART-1-1",           204,      -6.44398,       20.4265,            0.,NA,NA,"",       11.6826,      -10.3627,      -5.39420,   104.201E-06
C:/temp/dataset/9/9_9.odb,Step-1,Increment      1: Step Time =    1.000,"PART-1-1",           205,       12.2962,       25.0128,            0.,NA,NA,"",       12.1484,      -12.1206,  -822.424E-03,   66.0811E-06
C:/temp/dataset/9/9_9.odb,Step-1,Increment      1: Step Time =    1.000,"PART-1-1",           206,       12.2257,      -24.8009,            0.,NA,NA,"",   381.283E-03,  -335.284E-03,   181.553E-03,   44.2532E-03
C:/temp/dataset/9/9_9.odb,Step-1,Increment      1: Step Time =    1.000,"PART-1-1",           207,      -2.06005,       24.5200,            0.,NA,NA,"",       12.3529,      -11.5343,      -4.42198,   73.0897E-06
C:/temp/dataset/9/9_9.odb,Step-1,Increment      1: Step Time =    1.000,"PART-1-1",           208,       9.31619,       25.0673,            0.,NA,NA,"",       12.1409,      -12.0384,      -1.57437,   75.4828E-06
C:/temp/dataset/9/9_9.odb,Step-1,Increment      1: Step Time =    1.000,"PART-1-1",           209,       3.21447,       24.8112,            0.,NA,NA,"",       12.1794,      -11.7775,      -3.10270,   82.5512E-06
C:/temp/dataset/9/9_9.odb,Step-1,Increment      1: Step Time =    1.000,"PART-1-1",           210,      -7.52022,      -1.18711,            0.,NA,NA,"",       6.97150,      -4.88900,      -4.96985,   159.739E-06
C:/temp/dataset/9/9_9.odb,Step-1,Increment      1: Step Time =    1.000,"PART-1-1",           211,       10.0127,       14.9017,            0.,NA,NA,"",       9.56195,      -9.50173,      -1.07150,   89.3572E-06
C:/temp/dataset/9/9_9.odb,Step-1,Increment      1: Step Time =    1.000,"PART-1-1",           212,       10.7293,       3.02357,            0.,NA,NA,"",       6.56189,      -6.54206,  -509.711E-03,   514.592E-06
C:/temp/dataset/9/9_9.odb,Step-1,Increment      1: Step Time =    1.000,"PART-1-1",           213,       11.4837,       7.36813,            0.,NA,NA,"",       7.66929,      -7.65547,  -460.107E-03,   240.835E-06
C:/temp/dataset/9/9_9.odb,Step-1,Increment      1: Step Time =    1.000,"PART-1-1",           214,      -9.20573,       12.9161,            0.,NA,NA,"",       10.2227,      -8.38486,      -5.84790,   82.5519E-06
C:/temp/dataset/9/9_9.odb,Step-1,Increment      1: Step Time =    1.000,"PART-1-1",           215,   314.418E-03,       24.7704,            0.,NA,NA,"",       12.2867,      -11.6738,      -3.83194,   74.9973E-06
C:/temp/dataset/9/9_9.odb,Step-1,Increment      1: Step Time =    1.000,"PART-1-1",           216,       7.52406,       26.3727,            0.,NA,NA,"",       12.4819,      -12.3094,      -2.06770,   57.6065E-06
C:/temp/dataset/9/9_9.odb,Step-1,Increment      1: Step Time =    1.000,"PART-1-1",           217,  -811.906E-03,   82.6841E-03,            0.,NA,NA,"",       6.36118,      -5.42589,      -3.32028,   220.313E-06
C:/temp/dataset/9/9_9.odb,Step-1,Increment      1: Step Time =    1.000,"PART-1-1",           218,       11.1400,      -19.6444,            0.,NA,NA,"",       1.07506,      -1.06738,   128.300E-03,   23.4918E-03
C:/temp/dataset/9/9_9.odb,Step-1,Increment      1: Step Time =    1.000,"PART-1-1",           219,       11.1036,      -10.4226,            0.,NA,NA,"",       3.10423,      -3.10420,  -15.1329E-03,   18.3231E-03
C:/temp/dataset/9/9_9.odb,Step-1,Increment      1: Step Time =    1.000,"PART-1-1",           220,       10.9280,      -5.64335,            0.,NA,NA,"",       4.34540,      -4.34093,  -197.112E-03,   14.9346E-03
C:/temp/dataset/9/9_9.odb,Step-1,Increment      1: Step Time =    1.000,"PART-1-1",           221,       11.0667,       5.48495,            0.,NA,NA,"",       7.18732,      -7.16962,  -504.152E-03,   359.925E-06
C:/temp/dataset/9/9_9.odb,Step-1,Increment      1: Step Time =    1.000,"PART-1-1",           222,       11.1390,      -12.7671,            0.,NA,NA,"",       2.52780,      -2.52732,   48.9995E-03,   18.9667E-03
C:/temp/dataset/9/9_9.odb,Step-1,Increment      1: Step Time =    1.000,"PART-1-1",           223,       11.1627,      -15.1016,            0.,NA,NA,"",       1.98925,      -1.98695,   95.8209E-03,   20.3601E-03
C:/temp/dataset/9/9_9.odb,Step-1,Increment      1: Step Time =    1.000,"PART-1-1",           224,      -9.10801,       10.4728,            0.,NA,NA,"",       9.66590,      -7.77347,      -5.74480,   79.0929E-06
C:/temp/dataset/9/9_9.odb,Step-1,Increment      1: Step Time =    1.000,"PART-1-1",           225,      -9.12162,       8.28854,            0.,NA,NA,"",       9.18805,      -7.22360,      -5.67801,   95.9576E-06
C:/temp/dataset/9/9_9.odb,Step-1,Increment      1: Step Time =    1.000,"PART-1-1",           226,      -8.73753,       18.6317,            0.,NA,NA,"",       11.4781,      -9.83747,      -5.91371,   88.2523E-06
C:/temp/dataset/9/9_9.odb,Step-1,Increment      1: Step Time =    1.000,"PART-1-1",           227,      -9.90634,  -397.381E-03,            0.,NA,NA,"",       7.51190,      -5.01118,      -5.59613,   148.132E-06
C:/temp/dataset/9/9_9.odb,Step-1,Increment      1: Step Time =    1.000,"PART-1-1",           228,       9.93939,       19.9385,            0.,NA,NA,"",       10.8395,      -10.7669,      -1.25211,   106.604E-06
C:/temp/dataset/9/9_9.odb,Step-1,Increment      1: Step Time =    1.000,"PART-1-1",           229,       5.70370,       25.8085,            0.,NA,NA,"",       12.3658,      -12.1088,      -2.50790,   62.2875E-06
C:/temp/dataset/9/9_9.odb,Step-1,Increment      1: Step Time =    1.000,"PART-1-1",           230,       10.0348,       12.2094,            0.,NA,NA,"",       8.87962,      -8.82545,  -979.358E-03,   97.7541E-06
C:/temp/dataset/9/9_9.odb,Step-1,Increment      1: Step Time =    1.000,"PART-1-1",           231,       9.98921,       17.4486,            0.,NA,NA,"",       10.2078,      -10.1418,      -1.15938,   91.1498E-06
C:/temp/dataset/9/9_9.odb,Step-1,Increment      1: Step Time =    1.000,"PART-1-1",           232,       10.1044,       9.10575,            0.,NA,NA,"",       8.09387,      -8.04783,  -862.062E-03,   182.741E-06
C:/temp/dataset/9/9_9.odb,Step-1,Increment      1: Step Time =    1.000,"PART-1-1",           233,      -3.11139,      -1.10310,            0.,NA,NA,"",       6.35914,      -5.05222,      -3.86183,   137.731E-06
C:/temp/dataset/9/9_9.odb,Step-1,Increment      1: Step Time =    1.000,"PART-1-1",           234,      -6.48507,       25.5695,            0.,NA,NA,"",       12.9184,      -11.6559,      -5.57002,   23.9720E-06
C:/temp/dataset/9/9_9.odb,Step-1,Increment      1: Step Time =    1.000,"PART-1-1",           235,      -4.76537,       24.8732,            0.,NA,NA,"",       12.6190,      -11.5360,      -5.11465,   41.1414E-06
C:/temp/dataset/9/9_9.odb,Step-1,Increment      1: Step Time =    1.000,"PART-1-1",           236,      -8.46351,       26.0628,            0.,NA,NA,"",       13.2018,      -11.7164,      -6.08389,   31.4377E-06
C:/temp/dataset/9/9_9.odb,Step-1,Increment      1: Step Time =    1.000,"PART-1-1",           237,      -9.50218,       15.8804,            0.,NA,NA,"",       10.9272,      -9.12087,      -6.01772,   88.0044E-06
C:/temp/dataset/9/9_9.odb,Step-1,Increment      1: Step Time =    1.000,"PART-1-1",           238,      -5.29510,      -1.38770,            0.,NA,NA,"",       6.59503,      -4.91006,      -4.40292,   156.772E-06
C:/temp/dataset/9/9_9.odb,Step-1,Increment      1: Step Time =    1.000,"PART-1-1",           239,       11.0587,      -21.7318,            0.,NA,NA,"",   727.572E-03,  -718.610E-03,   113.849E-03,   24.6967E-03
C:/temp/dataset/9/9_9.odb,Step-1,Increment      1: Step Time =    1.000,"PART-1-1",           240,       11.1670,      -17.4071,            0.,NA,NA,"",       1.50054,      -1.49553,   122.585E-03,   21.9978E-03
C:/temp/dataset/9/9_9.odb,Step-1,Increment      1: Step Time =    1.000,"PART-1-1",           241,       11.0513,      -8.06140,            0.,NA,NA,"",       3.71166,      -3.71045,  -94.7203E-03,   17.9867E-03
C:/temp/dataset/9/9_9.odb,Step-1,Increment      1: Step Time =    1.000,"PART-1-1",           242,       10.1357,   7.39639E-03,            0.,NA,NA,"",       5.79346,      -5.76600,  -563.438E-03,   2.85100E-03
C:/temp/dataset/9/9_9.odb,Step-1,Increment      1: Step Time =    1.000,"PART-1-1",           243,       10.6886,      -3.06387,            0.,NA,NA,"",       5.01485,      -5.00377,  -333.290E-03,   9.03198E-03
C:/temp/dataset/9/9_9.odb,Step-1,Increment      1: Step Time =    1.000,"PART-1-1",           244,       9.76329,       22.4053,            0.,NA,NA,"",       11.4652,      -11.3824,      -1.37596,   101.675E-06
C:/temp/dataset/9/9_9.odb,Step-1,Increment      1: Step Time =    1.000,"PART-1-1",           245,       8.68231,      -3.74099,            0.,NA,NA,"",       4.82820,      -4.76077,  -804.092E-03,   8.22531E-03
C:/temp/dataset/9/9_9.odb,Step-1,Increment      1: Step Time =    1.000,"PART-1-1",           246,      -9.34414,       6.30777,            0.,NA,NA,"",       8.79121,      -6.71807,      -5.67036,   93.8959E-06
C:/temp/dataset/9/9_9.odb,Step-1,Increment      1: Step Time =    1.000,"PART-1-1",           247,      -9.93235,       4.61568,            0.,NA,NA,"",       8.51920,      -6.27316,      -5.76405,   103.314E-06
C:/temp/dataset/9/9_9.odb,Step-1,Increment      1: Step Time =    1.000,"PART-1-1",           248,      -8.14937,       21.0679,            0.,NA,NA,"",       11.9899,      -10.4693,      -5.84404,   55.9175E-06
C:/temp/dataset/9/9_9.odb,Step-1,Increment      1: Step Time =    1.000,"PART-1-1",           249,       10.7972,      -23.3791,            0.,NA,NA,"",   486.465E-03,  -480.505E-03,   75.9158E-03,   23.2934E-03
C:/temp/dataset/9/9_9.odb,Step-1,Increment      1: Step Time =    1.000,"PART-1-1",           250,       4.15357,   65.4176E-03,            0.,NA,NA,"",       5.95382,      -5.58369,      -2.06649,   398.815E-06
C:/temp/dataset/9/9_9.odb,Step-1,Increment      1: Step Time =    1.000,"PART-1-1",           251,       8.71950,       3.82470,            0.,NA,NA,"",       6.75882,      -6.67844,      -1.03930,   360.826E-06
C:/temp/dataset/9/9_9.odb,Step-1,Increment      1: Step Time =    1.000,"PART-1-1",           252,       5.00281,       23.5204,            0.,NA,NA,"",       11.8024,      -11.5101,      -2.61057,   92.2571E-06
C:/temp/dataset/9/9_9.odb,Step-1,Increment      1: Step Time =    1.000,"PART-1-1",           253,       7.40149,   60.9774E-03,            0.,NA,NA,"",       5.82391,      -5.68845,      -1.24882,   1.35978E-03
C:/temp/dataset/9/9_9.odb,Step-1,Increment      1: Step Time =    1.000,"PART-1-1",           254,      -5.73116,       22.7675,            0.,NA,NA,"",       12.1832,      -10.9748,      -5.29006,   61.2572E-06
C:/temp/dataset/9/9_9.odb,Step-1,Increment      1: Step Time =    1.000,"PART-1-1",           255,      -5.42683,       1.83799,            0.,NA,NA,"",       7.30217,      -5.71903,      -4.54031,   135.739E-06
C:/temp/dataset/9/9_9.odb,Step-1,Increment      1: Step Time =    1.000,"PART-1-1",           256,       6.81561,       24.0815,            0.,NA,NA,"",       11.9094,      -11.7097,      -2.17213,   87.9618E-06
C:/temp/dataset/9/9_9.odb,Step-1,Increment      1: Step Time =    1.000,"PART-1-1",           257,      -7.40884,       23.3683,            0.,NA,NA,"",       12.4677,      -11.0721,      -5.73170,   38.2188E-06
C:/temp/dataset/9/9_9.odb,Step-1,Increment      1: Step Time =    1.000,"PART-1-1",           258,      -3.69176,       23.9755,            0.,NA,NA,"",       12.3243,      -11.3446,      -4.81541,   64.9184E-06
C:/temp/dataset/9/9_9.odb,Step-1,Increment      1: Step Time =    1.000,"PART-1-1",           259,      -8.10961,       1.76736,            0.,NA,NA,"",       7.66193,      -5.61459,      -5.21359,   161.702E-06
C:/temp/dataset/9/9_9.odb,Step-1,Increment      1: Step Time =    1.000,"PART-1-1",           260,       5.94930,   61.4696E-03,            0.,NA,NA,"",       5.86751,      -5.64124,      -1.61373,   805.847E-06
C:/temp/dataset/9/9_9.odb,Step-1,Increment      1: Step Time =    1.000,"PART-1-1",           261,       1.93878,   62.7924E-03,            0.,NA,NA,"",       6.10408,      -5.51058,      -2.62551,   430.674E-06
C:/temp/dataset/9/9_9.odb,Step-1,Increment      1: Step Time =    1.000,"PART-1-1",           262,       6.71051,      -4.41826,            0.,NA,NA,"",       4.69991,      -4.52562,      -1.26803,   7.60168E-03
C:/temp/dataset/9/9_9.odb,Step-1,Increment      1: Step Time =    1.000,"PART-1-1",           263,      -12.5366,      -2.82410,            0.,NA,NA,"",       7.53751,      -4.31507,      -6.18015,   65.1069E-06
C:/temp/dataset/9/9_9.odb,Step-1,Increment      1: Step Time =    1.000,"PART-1-1",           264,       6.75090,       4.53602,            0.,NA,NA,"",       6.97008,      -6.79398,      -1.55686,   367.215E-06
C:/temp/dataset/9/9_9.odb,Step-1,Increment      1: Step Time =    1.000,"PART-1-1",           265,      -5.22339,       3.46233,            0.,NA,NA,"",       7.63302,      -6.13498,      -4.54147,   170.865E-06
C:/temp/dataset/9/9_9.odb,Step-1,Increment      1: Step Time =    1.000,"PART-1-1",           266,       4.93795,       21.9167,            0.,NA,NA,"",       11.3988,      -11.1042,      -2.57510,   134.801E-06
C:/temp/dataset/9/9_9.odb,Step-1,Increment      1: Step Time =    1.000,"PART-1-1",           267,       8.13144,      -1.42002,            0.,NA,NA,"",       5.43333,      -5.33711,      -1.01798,   3.37056E-03
C:/temp/dataset/9/9_9.odb,Step-1,Increment      1: Step Time =    1.000,"PART-1-1",           268,      -3.13115,       1.39136,            0.,NA,NA,"",       6.91755,      -5.68074,      -3.94736,   124.641E-06
C:/temp/dataset/9/9_9.odb,Step-1,Increment      1: Step Time =    1.000,"PART-1-1",           269,       9.17709,       6.32873,            0.,NA,NA,"",       7.38992,      -7.32122,      -1.00534,   377.838E-06
C:/temp/dataset/9/9_9.odb,Step-1,Increment      1: Step Time =    1.000,"PART-1-1",           270,      -11.0423,       1.34077,            0.,NA,NA,"",       8.03470,      -5.41250,      -5.93811,   132.602E-06
C:/temp/dataset/9/9_9.odb,Step-1,Increment      1: Step Time =    1.000,"PART-1-1",           271,      -10.1478,       26.6048,            0.,NA,NA,"",       13.4828,      -11.7986,      -6.52523,   35.4275E-06
C:/temp/dataset/9/9_9.odb,Step-1,Increment      1: Step Time =    1.000,"PART-1-1",           272,      -10.1118,       21.9370,            0.,NA,NA,"",       12.3860,      -10.6249,      -6.36590,   28.4828E-06
C:/temp/dataset/9/9_9.odb,Step-1,Increment      1: Step Time =    1.000,"PART-1-1",           273,       8.13886,       1.50501,            0.,NA,NA,"",       6.17745,      -6.07682,      -1.11047,   875.264E-06
C:/temp/dataset/9/9_9.odb,Step-1,Increment      1: Step Time =    1.000,"PART-1-1",           274,      -7.06249,   219.393E-03,            0.,NA,NA,"",       7.18743,      -5.25825,      -4.90000,   157.829E-06
C:/temp/dataset/9/9_9.odb,Step-1,Increment      1: Step Time =    1.000,"PART-1-1",           275,      -5.40522,   241.534E-03,            0.,NA,NA,"",       6.95511,      -5.31728,      -4.48331,   134.636E-06
C:/temp/dataset/9/9_9.odb,Step-1,Increment      1: Step Time =    1.000,"PART-1-1",           276,      -3.80180,   194.541E-03,            0.,NA,NA,"",       6.73259,      -5.35720,      -4.07777,   105.578E-06
C:/temp/dataset/9/9_9.odb,Step-1,Increment      1: Step Time =    1.000,"PART-1-1",           277,      -2.71285,       28.4954,            0.,NA,NA,"",       13.3728,      -12.5142,      -4.71442,   35.0832E-06
C:/temp/dataset/9/9_9.odb,Step-1,Increment      1: Step Time =    1.000,"PART-1-1",           278,         -3.75,           30.,            0.,NA,NA,"",       13.8062,      -12.8596,      -5.02404,   55.7525E-06
C:/temp/dataset/9/9_9.odb,Step-1,Increment      1: Step Time =    1.000,"PART-1-1",           279,      -5.26224,       28.8665,            0.,NA,NA,"",       13.6273,      -12.5254,      -5.36830,   45.2883E-06
C:/temp/dataset/9/9_9.odb,Step-1,Increment      1: Step Time =    1.000,"PART-1-1",           280,      -4.22509,       27.3619,            0.,NA,NA,"",       13.1888,      -12.1800,      -5.05873,   29.9789E-06
C:/temp/dataset/9/9_9.odb,Step-1,Increment      1: Step Time =    1.000,"PART-1-1",           281,      -3.84553,       25.9321,            0.,NA,NA,"",       12.8133,      -11.8323,      -4.91712,   40.3450E-06
C:/temp/dataset/9/9_9.odb,Step-1,Increment      1: Step Time =    1.000,"PART-1-1",           282,      -6.00478,       26.6512,            0.,NA,NA,"",       13.1425,      -11.9437,      -5.48393,   23.0438E-06
C:/temp/dataset/9/9_9.odb,Step-1,Increment      1: Step Time =    1.000,"PART-1-1",           283,      -5.62522,       25.2214,            0.,NA,NA,"",       12.7674,      -11.5960,      -5.34235,   28.3850E-06
C:/temp/dataset/9/9_9.odb,Step-1,Increment      1: Step Time =    1.000,"PART-1-1",           284,      -10.0879,       29.0985,            0.,NA,NA,"",       14.0675,      -12.4282,      -6.59045,   30.6384E-06
C:/temp/dataset/9/9_9.odb,Step-1,Increment      1: Step Time =    1.000,"PART-1-1",           285,        -11.25,           30.,            0.,NA,NA,"",       14.3869,      -12.6177,      -6.91193,   21.8617E-06
C:/temp/dataset/9/9_9.odb,Step-1,Increment      1: Step Time =    1.000,"PART-1-1",           286,      -12.4706,       28.9480,            0.,NA,NA,"",       14.2567,      -12.3136,      -7.18527,   14.6491E-06
C:/temp/dataset/9/9_9.odb,Step-1,Increment      1: Step Time =    1.000,"PART-1-1",           287,      -11.3086,       28.0465,            0.,NA,NA,"",       13.9322,      -12.1241,      -6.86379,   28.5395E-06
C:/temp/dataset/9/9_9.odb,Step-1,Increment      1: Step Time =    1.000,"PART-1-1",           288,      -13.4495,       25.5029,            0.,NA,NA,"",       13.5608,      -11.4150,      -7.32068,   27.7586E-06
C:/temp/dataset/9/9_9.odb,Step-1,Increment      1: Step Time =    1.000,"PART-1-1",           289,          -15.,       24.5313,            0.,NA,NA,"",       13.5145,      -11.1205,      -7.67962,   39.1925E-06
C:/temp/dataset/9/9_9.odb,Step-1,Increment      1: Step Time =    1.000,"PART-1-1",           290,      -13.6920,       23.1529,            0.,NA,NA,"",       13.0521,      -10.8157,      -7.30601,   36.4360E-06
C:/temp/dataset/9/9_9.odb,Step-1,Increment      1: Step Time =    1.000,"PART-1-1",           291,      -12.1415,       24.1246,            0.,NA,NA,"",       13.1033,      -11.1102,      -6.94710,   30.8155E-06
C:/temp/dataset/9/9_9.odb,Step-1,Increment      1: Step Time =    1.000,"PART-1-1",           292,          8.75,          -30.,            0.,NA,NA,"",            0.,   5.83266E-39,  -38.2712E-39,   18.4576E-03
C:/temp/dataset/9/9_9.odb,Step-1,Increment      1: Step Time =    1.000,"PART-1-1",           293,       9.96407,      -28.8633,            0.,NA,NA,"",   9.84921E-03,  -9.79843E-03,   998.864E-06,   6.35381E-03
C:/temp/dataset/9/9_9.odb,Step-1,Increment      1: Step Time =    1.000,"PART-1-1",           294,       8.68711,      -27.7998,            0.,NA,NA,"",   67.2290E-03,  -55.2218E-03,  -38.3445E-03,   27.5578E-03
C:/temp/dataset/9/9_9.odb,Step-1,Increment      1: Step Time =    1.000,"PART-1-1",           295,       7.47304,      -28.9365,            0.,NA,NA,"",   38.2255E-03,  -13.3761E-03,  -35.8088E-03,   41.2900E-03
C:/temp/dataset/9/9_9.odb,Step-1,Increment      1: Step Time =    1.000,"PART-1-1",           296,       10.9279,      -22.5555,            0.,NA,NA,"",   602.364E-03,  -594.932E-03,   94.3261E-03,   23.9732E-03
C:/temp/dataset/9/9_9.odb,Step-1,Increment      1: Step Time =    1.000,"PART-1-1",           297,       10.0765,      -21.6813,            0.,NA,NA,"",   712.747E-03,  -712.696E-03,  -8.48248E-03,   17.7715E-03
C:/temp/dataset/9/9_9.odb,Step-1,Increment      1: Step Time =    1.000,"PART-1-1",           298,       9.14242,      -22.6395,            0.,NA,NA,"",   576.398E-03,  -566.483E-03,  -106.451E-03,   20.9613E-03
C:/temp/dataset/9/9_9.odb,Step-1,Increment      1: Step Time =    1.000,"PART-1-1",           299,       9.99384,      -23.5137,            0.,NA,NA,"",   454.549E-03,  -454.527E-03,  -4.45173E-03,   18.1039E-03
C:/temp/dataset/9/9_9.odb,Step-1,Increment      1: Step Time =    1.000,"PART-1-1",           300,       7.08785,      -18.4988,            0.,NA,NA,"",       1.35297,      -1.23798,  -545.836E-03,   36.0047E-03
C:/temp/dataset/9/9_9.odb,Step-1,Increment      1: Step Time =    1.000,"PART-1-1",           301,       6.04673,      -17.4684,            0.,NA,NA,"",       1.63599,      -1.43220,  -790.733E-03,   43.6809E-03
C:/temp/dataset/9/9_9.odb,Step-1,Increment      1: Step Time =    1.000,"PART-1-1",           302,            5.,      -18.5417,            0.,NA,NA,"",       1.54610,      -1.24042,  -922.928E-03,   59.3621E-03
C:/temp/dataset/9/9_9.odb,Step-1,Increment      1: Step Time =    1.000,"PART-1-1",           303,       6.04112,      -19.5721,            0.,NA,NA,"",       1.24673,      -1.05271,  -667.923E-03,   50.2733E-03
C:/temp/dataset/9/9_9.odb,Step-1,Increment      1: Step Time =    1.000,"PART-1-1",           304,       7.10245,      -14.2066,            0.,NA,NA,"",       2.24418,      -2.11602,  -747.524E-03,   27.0910E-03
C:/temp/dataset/9/9_9.odb,Step-1,Increment      1: Step Time =    1.000,"PART-1-1",           305,       6.04975,      -13.2285,            0.,NA,NA,"",       2.54084,      -2.32397,      -1.02716,   30.4746E-03
C:/temp/dataset/9/9_9.odb,Step-1,Increment      1: Step Time =    1.000,"PART-1-1",           306,            5.,       -14.375,            0.,NA,NA,"",       2.38389,      -2.06042,      -1.19899,   42.3476E-03
C:/temp/dataset/9/9_9.odb,Step-1,Increment      1: Step Time =    1.000,"PART-1-1",           307,       6.05270,      -15.3531,            0.,NA,NA,"",       2.06895,      -1.85804,  -910.067E-03,   37.0689E-03
C:/temp/dataset/9/9_9.odb,Step-1,Increment      1: Step Time =    1.000,"PART-1-1",           308,            5.,      -6.04167,            0.,NA,NA,"",       4.37604,      -4.05806,      -1.63765,   9.55024E-03
C:/temp/dataset/9/9_9.odb,Step-1,Increment      1: Step Time =    1.000,"PART-1-1",           309,       5.97724,      -6.85181,            0.,NA,NA,"",       4.10886,      -3.87918,      -1.35451,   11.1969E-03
C:/temp/dataset/9/9_9.odb,Step-1,Increment      1: Step Time =    1.000,"PART-1-1",           310,       6.83249,      -5.51927,            0.,NA,NA,"",       4.41072,      -4.24564,      -1.19540,   9.91129E-03
C:/temp/dataset/9/9_9.odb,Step-1,Increment      1: Step Time =    1.000,"PART-1-1",           311,       5.85525,      -4.70913,            0.,NA,NA,"",       4.66418,      -4.42578,      -1.47211,   5.86868E-03
C:/temp/dataset/9/9_9.odb,Step-1,Increment      1: Step Time =    1.000,"PART-1-1",           312,       4.27314,       1.25089,            0.,NA,NA,"",       6.24167,      -5.88678,      -2.07468,   364.042E-06
C:/temp/dataset/9/9_9.odb,Step-1,Increment      1: Step Time =    1.000,"PART-1-1",           313,       3.27994,       2.49943,            0.,NA,NA,"",       6.60707,      -6.16915,      -2.36538,   407.240E-06
C:/temp/dataset/9/9_9.odb,Step-1,Increment      1: Step Time =    1.000,"PART-1-1",           314,       2.05297,       1.31265,            0.,NA,NA,"",       6.39839,      -5.82978,      -2.63689,   389.203E-06
C:/temp/dataset/9/9_9.odb,Step-1,Increment      1: Step Time =    1.000,"PART-1-1",           315,       3.04617,   64.1050E-03,            0.,NA,NA,"",       6.02285,      -5.54716,      -2.34601,   385.437E-06
C:/temp/dataset/9/9_9.odb,Step-1,Increment      1: Step Time =    1.000,"PART-1-1",           316,       6.28410,       12.4112,            0.,NA,NA,"",       8.96597,      -8.75612,      -1.92846,   282.513E-06
C:/temp/dataset/9/9_9.odb,Step-1,Increment      1: Step Time =    1.000,"PART-1-1",           317,            5.,         11.25,            0.,NA,NA,"",       8.70936,      -8.42336,      -2.21360,   370.031E-06
C:/temp/dataset/9/9_9.odb,Step-1,Increment      1: Step Time =    1.000,"PART-1-1",           318,       6.24476,       9.82085,            0.,NA,NA,"",       8.31367,      -8.10417,      -1.85459,   300.816E-06
C:/temp/dataset/9/9_9.odb,Step-1,Increment      1: Step Time =    1.000,"PART-1-1",           319,       7.52885,       10.9821,            0.,NA,NA,"",       8.58158,      -8.43684,      -1.56947,   221.666E-06
C:/temp/dataset/9/9_9.odb,Step-1,Increment      1: Step Time =    1.000,"PART-1-1",           320,       6.23557,       19.9374,            0.,NA,NA,"",       10.8692,      -10.6475,      -2.18421,   164.915E-06
C:/temp/dataset/9/9_9.odb,Step-1,Increment      1: Step Time =    1.000,"PART-1-1",           321,            5.,         18.75,            0.,NA,NA,"",       10.5977,      -10.3090,      -2.45685,   300.542E-06
C:/temp/dataset/9/9_9.odb,Step-1,Increment      1: Step Time =    1.000,"PART-1-1",           322,       6.25255,       17.4722,            0.,NA,NA,"",       10.2452,      -10.0277,      -2.10019,   219.356E-06
C:/temp/dataset/9/9_9.odb,Step-1,Increment      1: Step Time =    1.000,"PART-1-1",           323,       7.48812,       18.6595,            0.,NA,NA,"",       10.5260,      -10.3661,      -1.82766,   127.693E-06
C:/temp/dataset/9/9_9.odb,Step-1,Increment      1: Step Time =    1.000,"PART-1-1",           324,       12.4612,       28.7577,            0.,NA,NA,"",       13.1000,      -13.0689,  -901.552E-03,   18.9264E-06
C:/temp/dataset/9/9_9.odb,Step-1,Increment      1: Step Time =    1.000,"PART-1-1",           325,         11.25,           30.,            0.,NA,NA,"",       13.4008,      -13.3427,      -1.24652,   21.4483E-06
C:/temp/dataset/9/9_9.odb,Step-1,Increment      1: Step Time =    1.000,"PART-1-1",           326,       9.95383,       28.8406,            0.,NA,NA,"",       13.0994,      -13.0091,      -1.53550,   38.5932E-06
C:/temp/dataset/9/9_9.odb,Step-1,Increment      1: Step Time =    1.000,"PART-1-1",           327,       11.1650,       27.5983,            0.,NA,NA,"",       12.7908,      -12.7352,      -1.19052,   41.2356E-06
C:/temp/dataset/9/9_9.odb,Step-1,Increment      1: Step Time =    1.000,"PART-1-1",           328,       9.61193,       26.3742,            0.,NA,NA,"",       12.4727,      -12.3770,      -1.54206,   60.5614E-06
C:/temp/dataset/9/9_9.odb,Step-1,Increment      1: Step Time =    1.000,"PART-1-1",           329,       10.8062,       25.0400,            0.,NA,NA,"",       12.1388,      -12.0795,      -1.19839,   66.6999E-06
C:/temp/dataset/9/9_9.odb,Step-1,Increment      1: Step Time =    1.000,"PART-1-1",           330,       12.3592,       26.2641,            0.,NA,NA,"",       12.4665,      -12.4377,  -846.860E-03,   50.0004E-06
C:/temp/dataset/9/9_9.odb,Step-1,Increment      1: Step Time =    1.000,"PART-1-1",           331,       7.54419,       28.9985,            0.,NA,NA,"",       13.1478,      -12.9713,      -2.14731,   53.6639E-06
C:/temp/dataset/9/9_9.odb,Step-1,Increment      1: Step Time =    1.000,"PART-1-1",           332,          6.25,           30.,            0.,NA,NA,"",       13.4178,      -13.1818,      -2.50552,   62.0499E-06
C:/temp/dataset/9/9_9.odb,Step-1,Increment      1: Step Time =    1.000,"PART-1-1",           333,       5.09159,       28.9175,            0.,NA,NA,"",       13.1650,      -12.8720,      -2.76234,   53.3308E-06
C:/temp/dataset/9/9_9.odb,Step-1,Increment      1: Step Time =    1.000,"PART-1-1",           334,       6.38578,       27.9160,            0.,NA,NA,"",       12.8876,      -12.6614,      -2.40411,   45.5064E-06
C:/temp/dataset/9/9_9.odb,Step-1,Increment      1: Step Time =    1.000,"PART-1-1",           335,       2.95769,       26.1428,            0.,NA,NA,"",       12.5230,      -12.1045,      -3.21033,   68.0260E-06
C:/temp/dataset/9/9_9.odb,Step-1,Increment      1: Step Time =    1.000,"PART-1-1",           336,       4.45909,       25.3098,            0.,NA,NA,"",       12.2682,      -11.9432,      -2.80528,   67.4869E-06
C:/temp/dataset/9/9_9.odb,Step-1,Increment      1: Step Time =    1.000,"PART-1-1",           337,       5.44343,       26.8217,            0.,NA,NA,"",       12.6274,      -12.3555,      -2.60613,   54.6937E-06
C:/temp/dataset/9/9_9.odb,Step-1,Increment      1: Step Time =    1.000,"PART-1-1",           338,       3.94204,       27.6547,            0.,NA,NA,"",       12.8740,      -12.5170,      -3.01115,   50.1319E-06
C:/temp/dataset/9/9_9.odb,Step-1,Increment      1: Step Time =    1.000,"PART-1-1",           339,       6.06395,       7.26936,            0.,NA,NA,"",       7.67633,      -7.45802,      -1.81770,   291.741E-06
C:/temp/dataset/9/9_9.odb,Step-1,Increment      1: Step Time =    1.000,"PART-1-1",           340,       7.30871,       8.34021,            0.,NA,NA,"",       7.91757,      -7.76646,      -1.53953,   297.237E-06
C:/temp/dataset/9/9_9.odb,Step-1,Increment      1: Step Time =    1.000,"PART-1-1",           341,            5.,          8.75,            0.,NA,NA,"",       8.08207,      -7.79562,      -2.13264,   315.685E-06
C:/temp/dataset/9/9_9.odb,Step-1,Increment      1: Step Time =    1.000,"PART-1-1",           342,      -13.9291,       1.47830,            0.,NA,NA,"",       8.55254,      -5.35403,      -6.66935,   112.577E-06
C:/temp/dataset/9/9_9.odb,Step-1,Increment      1: Step Time =    1.000,"PART-1-1",           343,          -15.,    468.75E-03,            0.,NA,NA,"",       8.56484,      -5.06515,      -6.90657,   95.7440E-06
C:/temp/dataset/9/9_9.odb,Step-1,Increment      1: Step Time =    1.000,"PART-1-1",           344,      -13.8152,  -655.377E-03,            0.,NA,NA,"",       8.15018,      -4.82020,      -6.57199,   73.1651E-06
C:/temp/dataset/9/9_9.odb,Step-1,Increment      1: Step Time =    1.000,"PART-1-1",           345,      -12.7443,   354.171E-03,            0.,NA,NA,"",       8.13836,      -5.10906,      -6.33485,   106.804E-06
C:/temp/dataset/9/9_9.odb,Step-1,Increment      1: Step Time =    1.000,"PART-1-1",           346,      -13.9678,       8.16706,            0.,NA,NA,"",       9.85093,      -7.03685,      -6.89373,   127.983E-06
C:/temp/dataset/9/9_9.odb,Step-1,Increment      1: Step Time =    1.000,"PART-1-1",           347,          -15.,       7.03125,            0.,NA,NA,"",       9.78676,      -6.71773,      -7.11707,   167.424E-06
C:/temp/dataset/9/9_9.odb,Step-1,Increment      1: Step Time =    1.000,"PART-1-1",           348,      -13.6804,       5.85321,            0.,NA,NA,"",       9.34373,      -6.46377,      -6.74722,   139.136E-06
C:/temp/dataset/9/9_9.odb,Step-1,Increment      1: Step Time =    1.000,"PART-1-1",           349,      -12.6482,       6.98902,            0.,NA,NA,"",       9.41112,      -6.78294,      -6.52386,   104.326E-06
C:/temp/dataset/9/9_9.odb,Step-1,Increment      1: Step Time =    1.000,"PART-1-1",           350,      -5.93089,       17.7206,            0.,NA,NA,"",       10.9944,      -9.69861,      -5.17824,   90.7508E-06
C:/temp/dataset/9/9_9.odb,Step-1,Increment      1: Step Time =    1.000,"PART-1-1",           351,      -7.00986,       16.6597,            0.,NA,NA,"",       10.8459,      -9.39707,      -5.41565,   86.6987E-06
C:/temp/dataset/9/9_9.odb,Step-1,Increment      1: Step Time =    1.000,"PART-1-1",           352,      -6.07897,       15.1891,            0.,NA,NA,"",       10.4112,      -9.05715,      -5.13426,   44.7753E-06
C:/temp/dataset/9/9_9.odb,Step-1,Increment      1: Step Time =    1.000,"PART-1-1",           353,           -5.,         16.25,            0.,NA,NA,"",       10.5624,      -9.35869,      -4.89693,   55.9530E-06
C:/temp/dataset/9/9_9.odb,Step-1,Increment      1: Step Time =    1.000,"PART-1-1",           354,      -7.79966,       18.2865,            0.,NA,NA,"",       11.3037,      -9.78080,      -5.66660,   100.125E-06
C:/temp/dataset/9/9_9.odb,Step-1,Increment      1: Step Time =    1.000,"PART-1-1",           355,      -6.65288,       19.1839,            0.,NA,NA,"",       11.4063,      -10.0434,      -5.40683,   107.735E-06
C:/temp/dataset/9/9_9.odb,Step-1,Increment      1: Step Time =    1.000,"PART-1-1",           356,      -7.29668,       20.7472,            0.,NA,NA,"",       11.8350,      -10.4160,      -5.61912,   75.3254E-06
C:/temp/dataset/9/9_9.odb,Step-1,Increment      1: Step Time =    1.000,"PART-1-1",           357,      -8.44345,       19.8498,            0.,NA,NA,"",       11.7325,      -10.1533,      -5.87887,   65.8664E-06
C:/temp/dataset/9/9_9.odb,Step-1,Increment      1: Step Time =    1.000,"PART-1-1",           358,      -2.59303,       4.06073,            0.,NA,NA,"",       7.46903,      -6.37138,      -3.89768,   329.801E-06
C:/temp/dataset/9/9_9.odb,Step-1,Increment      1: Step Time =    1.000,"PART-1-1",           359,      -1.46713,       2.91047,            0.,NA,NA,"",       7.08674,      -6.11797,      -3.57665,   277.606E-06
C:/temp/dataset/9/9_9.odb,Step-1,Increment      1: Step Time =    1.000,"PART-1-1",           360,  -124.098E-03,       3.84974,            0.,NA,NA,"",       7.18495,      -6.39871,      -3.26803,   284.370E-06
C:/temp/dataset/9/9_9.odb,Step-1,Increment      1: Step Time =    1.000,"PART-1-1",           361,         -1.25,            5.,            0.,NA,NA,"",       7.55872,      -6.65223,      -3.58915,   340.032E-06
C:/temp/dataset/9/9_9.odb,Step-1,Increment      1: Step Time =    1.000,"PART-1-1",           362,      -11.2683,  -541.568E-03,            0.,NA,NA,"",       7.71566,      -4.93097,      -5.93439,   122.954E-06
C:/temp/dataset/9/9_9.odb,Step-1,Increment      1: Step Time =    1.000,"PART-1-1",           363,      -10.4743,   471.696E-03,            0.,NA,NA,"",       7.77324,      -5.21186,      -5.76713,   136.150E-06
C:/temp/dataset/9/9_9.odb,Step-1,Increment      1: Step Time =    1.000,"PART-1-1",           364,      -11.9503,       1.36743,            0.,NA,NA,"",       8.19086,      -5.38994,      -6.16756,   120.944E-06
C:/temp/dataset/9/9_9.odb,Step-1,Increment      1: Step Time =    1.000,"PART-1-1",           365,      -13.0095,       9.29789,            0.,NA,NA,"",       9.93966,      -7.35227,      -6.68886,   100.005E-06
C:/temp/dataset/9/9_9.odb,Step-1,Increment      1: Step Time =    1.000,"PART-1-1",           366,      -14.0417,       10.3496,            0.,NA,NA,"",       10.3084,      -7.58360,      -6.98233,   98.7603E-06
C:/temp/dataset/9/9_9.odb,Step-1,Increment      1: Step Time =    1.000,"PART-1-1",           367,          -15.,       9.21875,            0.,NA,NA,"",       10.2217,      -7.26822,      -7.18715,   134.518E-06
C:/temp/dataset/9/9_9.odb,Step-1,Increment      1: Step Time =    1.000,"PART-1-1",           368,      -6.40766,      -1.28741,            0.,NA,NA,"",       6.77996,      -4.89953,      -4.68642,   156.426E-06
C:/temp/dataset/9/9_9.odb,Step-1,Increment      1: Step Time =    1.000,"PART-1-1",           369,      -5.35016,  -573.084E-03,            0.,NA,NA,"",       6.77429,      -5.11367,      -4.44312,   140.711E-06
C:/temp/dataset/9/9_9.odb,Step-1,Increment      1: Step Time =    1.000,"PART-1-1",           370,      -6.23385,   230.463E-03,            0.,NA,NA,"",       7.06910,      -5.28776,      -4.69168,   145.131E-06
C:/temp/dataset/9/9_9.odb,Step-1,Increment      1: Step Time =    1.000,"PART-1-1",           371,      -7.29135,  -483.859E-03,            0.,NA,NA,"",       7.07779,      -5.07362,      -4.93493,   156.449E-06
C:/temp/dataset/9/9_9.odb,Step-1,Increment      1: Step Time =    1.000,"PART-1-1",           372,   952.242E-03,      -2.53706,            0.,NA,NA,"",       5.57078,      -4.82141,      -2.79062,   431.746E-06
C:/temp/dataset/9/9_9.odb,Step-1,Increment      1: Step Time =    1.000,"PART-1-1",           373,  -130.910E-03,      -3.80019,            0.,NA,NA,"",       5.39400,      -4.46742,      -3.02282,   431.436E-06
C:/temp/dataset/9/9_9.odb,Step-1,Increment      1: Step Time =    1.000,"PART-1-1",           374,          1.25,           -5.,            0.,NA,NA,"",       4.96530,      -4.20848,      -2.63495,   830.243E-06
C:/temp/dataset/9/9_9.odb,Step-1,Increment      1: Step Time =    1.000,"PART-1-1",           375,       2.33315,      -3.73687,            0.,NA,NA,"",       5.15608,      -4.56209,      -2.40262,   786.359E-06
C:/temp/dataset/9/9_9.odb,Step-1,Increment      1: Step Time =    1.000,"PART-1-1",           376,       4.26686,      -1.13377,            0.,NA,NA,"",       5.64971,      -5.28429,      -1.99888,   456.789E-06
C:/temp/dataset/9/9_9.odb,Step-1,Increment      1: Step Time =    1.000,"PART-1-1",           377,       2.05254,      -1.20548,            0.,NA,NA,"",       5.78872,      -5.19388,      -2.55596,   298.908E-06
C:/temp/dataset/9/9_9.odb,Step-1,Increment      1: Step Time =    1.000,"PART-1-1",           378,       3.27323,      -2.40335,            0.,NA,NA,"",       5.40258,      -4.93060,      -2.20840,   529.698E-06
C:/temp/dataset/9/9_9.odb,Step-1,Increment      1: Step Time =    1.000,"PART-1-1",           379,       10.4325,       1.51548,            0.,NA,NA,"",       6.17816,      -6.15485,  -536.266E-03,   1.36470E-03
C:/temp/dataset/9/9_9.odb,Step-1,Increment      1: Step Time =    1.000,"PART-1-1",           380,       11.3847,  -3.51279E-03,            0.,NA,NA,"",       5.81179,      -5.80633,  -251.730E-03,   3.56720E-03
C:/temp/dataset/9/9_9.odb,Step-1,Increment      1: Step Time =    1.000,"PART-1-1",           381,       12.7244,       1.31309,            0.,NA,NA,"",       6.18047,      -6.18032,   42.5839E-03,   2.00508E-03
C:/temp/dataset/9/9_9.odb,Step-1,Increment      1: Step Time =    1.000,"PART-1-1",           382,       11.7722,       2.83209,            0.,NA,NA,"",       6.53217,      -6.52766,  -242.641E-03,   439.422E-06
C:/temp/dataset/9/9_9.odb,Step-1,Increment      1: Step Time =    1.000,"PART-1-1",           383,       9.00808,      -7.25637,            0.,NA,NA,"",       3.90516,      -3.85850,  -601.892E-03,   15.3730E-03
C:/temp/dataset/9/9_9.odb,Step-1,Increment      1: Step Time =    1.000,"PART-1-1",           384,       7.95196,      -6.36313,            0.,NA,NA,"",       4.15575,      -4.05971,  -888.272E-03,   12.4544E-03
C:/temp/dataset/9/9_9.odb,Step-1,Increment      1: Step Time =    1.000,"PART-1-1",           385,       7.00211,      -7.70397,            0.,NA,NA,"",       3.83952,      -3.68879,      -1.06523,   14.2770E-03
C:/temp/dataset/9/9_9.odb,Step-1,Increment      1: Step Time =    1.000,"PART-1-1",           386,       8.05823,      -8.59720,            0.,NA,NA,"",       3.57295,      -3.48771,  -775.785E-03,   15.9482E-03
C:/temp/dataset/9/9_9.odb,Step-1,Increment      1: Step Time =    1.000,"PART-1-1",           387,       7.09104,      -12.0381,            0.,NA,NA,"",       2.75120,      -2.61609,  -851.582E-03,   22.8534E-03
C:/temp/dataset/9/9_9.odb,Step-1,Increment      1: Step Time =    1.000,"PART-1-1",           388,       6.04129,      -11.1013,            0.,NA,NA,"",       3.04351,      -2.82194,      -1.14000,   23.8668E-03
C:/temp/dataset/9/9_9.odb,Step-1,Increment      1: Step Time =    1.000,"PART-1-1",           389,            5.,      -12.2917,            0.,NA,NA,"",       2.85143,      -2.52509,      -1.32462,   33.6928E-03
C:/temp/dataset/9/9_9.odb,Step-1,Increment      1: Step Time =    1.000,"PART-1-1",           390,       9.13117,      -18.4822,            0.,NA,NA,"",       1.26788,      -1.25159,  -202.565E-03,   19.9794E-03
C:/temp/dataset/9/9_9.odb,Step-1,Increment      1: Step Time =    1.000,"PART-1-1",           391,       10.1297,      -19.6034,            0.,NA,NA,"",       1.05802,      -1.05776,  -23.4928E-03,   17.6882E-03
C:/temp/dataset/9/9_9.odb,Step-1,Increment      1: Step Time =    1.000,"PART-1-1",           392,       11.1535,      -18.5257,            0.,NA,NA,"",       1.28114,      -1.27481,   127.196E-03,   22.7093E-03
C:/temp/dataset/9/9_9.odb,Step-1,Increment      1: Step Time =    1.000,"PART-1-1",           393,       10.1550,      -17.4045,            0.,NA,NA,"",       1.47706,      -1.47610,  -53.1708E-03,   17.5962E-03
C:/temp/dataset/9/9_9.odb,Step-1,Increment      1: Step Time =    1.000,"PART-1-1",           394,       6.27183,       14.9637,            0.,NA,NA,"",       9.61080,      -9.39738,      -2.01414,   253.670E-06
C:/temp/dataset/9/9_9.odb,Step-1,Increment      1: Step Time =    1.000,"PART-1-1",           395,       7.52438,       16.1859,            0.,NA,NA,"",       9.89878,      -9.74490,      -1.73862,   165.840E-06
C:/temp/dataset/9/9_9.odb,Step-1,Increment      1: Step Time =    1.000,"PART-1-1",           396,            5.,         16.25,            0.,NA,NA,"",       9.96739,      -9.68012,      -2.37574,   311.740E-06
C:/temp/dataset/9/9_9.odb,Step-1,Increment      1: Step Time =    1.000,"PART-1-1",           397,       2.56719,       21.1071,            0.,NA,NA,"",       11.2719,      -10.8239,      -3.14628,   45.2197E-06
C:/temp/dataset/9/9_9.odb,Step-1,Increment      1: Step Time =    1.000,"PART-1-1",           398,       1.41709,       22.2600,            0.,NA,NA,"",       11.6089,      -11.0772,      -3.47321,   67.7719E-06
C:/temp/dataset/9/9_9.odb,Step-1,Increment      1: Step Time =    1.000,"PART-1-1",           399,   99.9026E-03,       21.1528,            0.,NA,NA,"",       11.3973,      -10.7560,      -3.76932,   68.2784E-06
C:/temp/dataset/9/9_9.odb,Step-1,Increment      1: Step Time =    1.000,"PART-1-1",           400,          1.25,           20.,            0.,NA,NA,"",       11.0524,      -10.5026,      -3.44240,   62.1440E-06
C:/temp/dataset/9/9_9.odb,Step-1,Increment      1: Step Time =    1.000,"PART-1-1",           401,       7.55593,       13.6250,            0.,NA,NA,"",       9.24988,      -9.10189,      -1.64798,   193.559E-06
C:/temp/dataset/9/9_9.odb,Step-1,Increment      1: Step Time =    1.000,"PART-1-1",           402,            5.,         13.75,            0.,NA,NA,"",       9.33786,      -9.05153,      -2.29466,   346.870E-06
C:/temp/dataset/9/9_9.odb,Step-1,Increment      1: Step Time =    1.000,"PART-1-1",           403,       8.77818,       14.9146,            0.,NA,NA,"",       9.56575,      -9.46535,      -1.38230,   120.256E-06
C:/temp/dataset/9/9_9.odb,Step-1,Increment      1: Step Time =    1.000,"PART-1-1",           404,       10.0010,       16.1752,            0.,NA,NA,"",       9.88484,      -9.82171,      -1.11543,   89.4979E-06
C:/temp/dataset/9/9_9.odb,Step-1,Increment      1: Step Time =    1.000,"PART-1-1",           405,       8.74716,       17.4465,            0.,NA,NA,"",       10.2080,      -10.1013,      -1.47174,   106.461E-06
C:/temp/dataset/9/9_9.odb,Step-1,Increment      1: Step Time =    1.000,"PART-1-1",           406,       10.1219,       5.90684,            0.,NA,NA,"",       7.28462,      -7.24543,  -754.639E-03,   335.014E-06
C:/temp/dataset/9/9_9.odb,Step-1,Increment      1: Step Time =    1.000,"PART-1-1",           407,       8.94830,       5.07672,            0.,NA,NA,"",       7.07411,      -6.99985,      -1.02232,   368.789E-06
C:/temp/dataset/9/9_9.odb,Step-1,Increment      1: Step Time =    1.000,"PART-1-1",           408,       9.72441,       3.42413,            0.,NA,NA,"",       6.65535,      -6.61015,  -774.342E-03,   392.571E-06
C:/temp/dataset/9/9_9.odb,Step-1,Increment      1: Step Time =    1.000,"PART-1-1",           409,       10.8980,       4.25426,            0.,NA,NA,"",       6.87444,      -6.85573,  -506.861E-03,   269.995E-06
C:/temp/dataset/9/9_9.odb,Step-1,Increment      1: Step Time =    1.000,"PART-1-1",           410,       8.15250,       6.68373,            0.,NA,NA,"",       7.48689,      -7.37768,      -1.27409,   369.040E-06
C:/temp/dataset/9/9_9.odb,Step-1,Increment      1: Step Time =    1.000,"PART-1-1",           411,       9.64075,       7.71724,            0.,NA,NA,"",       7.74093,      -7.68441,  -933.747E-03,   261.491E-06
C:/temp/dataset/9/9_9.odb,Step-1,Increment      1: Step Time =    1.000,"PART-1-1",           412,       8.79696,       9.37373,            0.,NA,NA,"",       8.16194,      -8.07339,      -1.19903,   205.424E-06
C:/temp/dataset/9/9_9.odb,Step-1,Increment      1: Step Time =    1.000,"PART-1-1",           413,   959.485E-03,       2.63099,            0.,NA,NA,"",       6.80214,      -6.12661,      -2.95529,   358.407E-06
C:/temp/dataset/9/9_9.odb,Step-1,Increment      1: Step Time =    1.000,"PART-1-1",           414,       2.33358,       3.78125,            0.,NA,NA,"",       6.98204,      -6.46146,      -2.64547,   238.397E-06
C:/temp/dataset/9/9_9.odb,Step-1,Increment      1: Step Time =    1.000,"PART-1-1",           415,          1.25,            5.,            0.,NA,NA,"",       7.35495,      -6.73375,      -2.95835,   159.977E-06
C:/temp/dataset/9/9_9.odb,Step-1,Increment      1: Step Time =    1.000,"PART-1-1",           416,      -9.23288,       7.29816,            0.,NA,NA,"",       8.98828,      -6.97085,      -5.67419,   91.6580E-06
C:/temp/dataset/9/9_9.odb,Step-1,Increment      1: Step Time =    1.000,"PART-1-1",           417,      -8.32915,       6.01548,            0.,NA,NA,"",       8.59098,      -6.67725,      -5.40549,   114.039E-06
C:/temp/dataset/9/9_9.odb,Step-1,Increment      1: Step Time =    1.000,"PART-1-1",           418,      -7.21136,       6.82340,            0.,NA,NA,"",       8.62339,      -6.91659,      -5.15010,   105.203E-06
C:/temp/dataset/9/9_9.odb,Step-1,Increment      1: Step Time =    1.000,"PART-1-1",           419,      -8.11509,       8.10607,            0.,NA,NA,"",       9.01939,      -7.21011,      -5.41882,   91.9350E-06
C:/temp/dataset/9/9_9.odb,Step-1,Increment      1: Step Time =    1.000,"PART-1-1",           420,      -13.1318,       11.4675,            0.,NA,NA,"",       10.4121,      -7.89413,      -6.78926,   83.7272E-06
C:/temp/dataset/9/9_9.odb,Step-1,Increment      1: Step Time =    1.000,"PART-1-1",           421,      -14.0901,       12.5242,            0.,NA,NA,"",       10.7697,      -8.12907,      -7.06427,   65.1774E-06
C:/temp/dataset/9/9_9.odb,Step-1,Increment      1: Step Time =    1.000,"PART-1-1",           422,          -15.,       11.4063,            0.,NA,NA,"",       10.6676,      -7.81856,      -7.25729,   89.8901E-06
C:/temp/dataset/9/9_9.odb,Step-1,Increment      1: Step Time =    1.000,"PART-1-1",           423,      -9.35396,       14.3983,            0.,NA,NA,"",       10.5741,      -8.75286,      -5.93281,   85.7363E-06
C:/temp/dataset/9/9_9.odb,Step-1,Increment      1: Step Time =    1.000,"PART-1-1",           424,      -10.5094,       15.3924,            0.,NA,NA,"",       10.9323,      -8.96571,      -6.25548,   83.6184E-06
C:/temp/dataset/9/9_9.odb,Step-1,Increment      1: Step Time =    1.000,"PART-1-1",           425,      -11.3610,       13.8160,            0.,NA,NA,"",       10.6850,      -8.54184,      -6.41913,   83.7739E-06
C:/temp/dataset/9/9_9.odb,Step-1,Increment      1: Step Time =    1.000,"PART-1-1",           426,      -10.2056,       12.8219,            0.,NA,NA,"",       10.3218,      -8.32899,      -6.09646,   85.0305E-06
C:/temp/dataset/9/9_9.odb,Step-1,Increment      1: Step Time =    1.000,"PART-1-1",           427,      -14.0810,       18.8007,            0.,NA,NA,"",       12.1248,      -9.70813,      -7.26374,   36.4640E-06
C:/temp/dataset/9/9_9.odb,Step-1,Increment      1: Step Time =    1.000,"PART-1-1",           428,          -15.,       17.9688,            0.,NA,NA,"",       12.0599,      -9.46930,      -7.46816,   35.3505E-06
C:/temp/dataset/9/9_9.odb,Step-1,Increment      1: Step Time =    1.000,"PART-1-1",           429,      -14.2329,       16.7349,            0.,NA,NA,"",       11.6915,      -9.18359,      -7.23548,   22.7573E-06
C:/temp/dataset/9/9_9.odb,Step-1,Increment      1: Step Time =    1.000,"PART-1-1",           430,      -13.3139,       17.5668,            0.,NA,NA,"",       11.7566,      -9.42241,      -7.03104,   36.6046E-06
C:/temp/dataset/9/9_9.odb,Step-1,Increment      1: Step Time =    1.000,"PART-1-1",           431,      -12.9537,       19.5700,            0.,NA,NA,"",       12.1585,      -9.93791,      -7.00485,   29.3639E-06
C:/temp/dataset/9/9_9.odb,Step-1,Increment      1: Step Time =    1.000,"PART-1-1",           432,      -13.8727,       20.9255,            0.,NA,NA,"",       12.5716,      -10.2494,      -7.27973,   41.1692E-06
C:/temp/dataset/9/9_9.odb,Step-1,Increment      1: Step Time =    1.000,"PART-1-1",           433,          -15.,       20.1563,            0.,NA,NA,"",       12.5389,      -10.0196,      -7.53861,   55.0089E-06
C:/temp/dataset/9/9_9.odb,Step-1,Increment      1: Step Time =    1.000,"PART-1-1",           434,       1.76445,       24.7908,            0.,NA,NA,"",       12.2276,      -11.7257,      -3.46732,   78.1939E-06
C:/temp/dataset/9/9_9.odb,Step-1,Increment      1: Step Time =    1.000,"PART-1-1",           435,       1.36974,       27.3866,            0.,NA,NA,"",       12.8941,      -12.3666,      -3.65043,   55.8991E-06
C:/temp/dataset/9/9_9.odb,Step-1,Increment      1: Step Time =    1.000,"PART-1-1",           436,   176.493E-03,       26.0346,            0.,NA,NA,"",       12.6085,      -11.9877,      -3.90742,   66.8564E-06
C:/temp/dataset/9/9_9.odb,Step-1,Increment      1: Step Time =    1.000,"PART-1-1",           437,       7.39460,       20.9669,            0.,NA,NA,"",       11.1121,      -10.9440,      -1.92573,   130.314E-06
C:/temp/dataset/9/9_9.odb,Step-1,Increment      1: Step Time =    1.000,"PART-1-1",           438,       8.70526,       19.9066,            0.,NA,NA,"",       10.8324,      -10.7192,      -1.56163,   104.426E-06
C:/temp/dataset/9/9_9.odb,Step-1,Increment      1: Step Time =    1.000,"PART-1-1",           439,       9.85134,       21.1719,            0.,NA,NA,"",       11.1523,      -11.0746,      -1.31403,   104.579E-06
C:/temp/dataset/9/9_9.odb,Step-1,Increment      1: Step Time =    1.000,"PART-1-1",           440,       8.54068,       22.2321,            0.,NA,NA,"",       11.4234,      -11.2994,      -1.67810,   106.695E-06
C:/temp/dataset/9/9_9.odb,Step-1,Increment      1: Step Time =    1.000,"PART-1-1",           441,       4.10864,       24.1658,            0.,NA,NA,"",       11.9891,      -11.6438,      -2.85663,   84.4501E-06
C:/temp/dataset/9/9_9.odb,Step-1,Increment      1: Step Time =    1.000,"PART-1-1",           442,       5.90921,       23.8009,            0.,NA,NA,"",       11.8536,      -11.6099,      -2.39133,   87.8543E-06
C:/temp/dataset/9/9_9.odb,Step-1,Increment      1: Step Time =    1.000,"PART-1-1",           443,       6.25965,       24.9450,            0.,NA,NA,"",       12.1369,      -11.9092,      -2.34002,   73.4124E-06
C:/temp/dataset/9/9_9.odb,Step-1,Increment      1: Step Time =    1.000,"PART-1-1",           444,   19.2837E-03,       28.6494,            0.,NA,NA,"",       13.2683,      -12.6411,      -4.03129,   31.3754E-06
C:/temp/dataset/9/9_9.odb,Step-1,Increment      1: Step Time =    1.000,"PART-1-1",           445,       2.60045,       28.7372,            0.,NA,NA,"",       13.1879,      -12.7463,      -3.38397,   40.4960E-06
C:/temp/dataset/9/9_9.odb,Step-1,Increment      1: Step Time =    1.000,"PART-1-1",           446,          1.25,           30.,            0.,NA,NA,"",       13.5542,      -13.0209,      -3.76484,   12.9676E-06
C:/temp/dataset/9/9_9.odb,Step-1,Increment      1: Step Time =    1.000,"PART-1-1",           447,      -7.67774,       29.0428,            0.,NA,NA,"",       13.8503,      -12.4919,      -5.98204,   44.8264E-06
C:/temp/dataset/9/9_9.odb,Step-1,Increment      1: Step Time =    1.000,"PART-1-1",           448,      -6.68998,       27.9093,            0.,NA,NA,"",       13.4993,      -12.2384,      -5.69692,   28.4021E-06
C:/temp/dataset/9/9_9.odb,Step-1,Increment      1: Step Time =    1.000,"PART-1-1",           449,         -6.25,           30.,            0.,NA,NA,"",       13.9736,      -12.7789,      -5.65345,   63.1201E-06
C:/temp/dataset/9/9_9.odb,Step-1,Increment      1: Step Time =    1.000,"PART-1-1",           450,      -12.1701,       26.6384,            0.,NA,NA,"",       13.6883,      -11.7420,      -7.03527,   30.5909E-06
C:/temp/dataset/9/9_9.odb,Step-1,Increment      1: Step Time =    1.000,"PART-1-1",           451,      -13.7206,       27.8542,            0.,NA,NA,"",       14.1306,      -11.9981,      -7.46465,   14.1334E-06
C:/temp/dataset/9/9_9.odb,Step-1,Increment      1: Step Time =    1.000,"PART-1-1",           452,          -15.,       26.7188,            0.,NA,NA,"",       14.0099,      -11.6711,      -7.75009,   17.2685E-06
C:/temp/dataset/9/9_9.odb,Step-1,Increment      1: Step Time =    1.000,"PART-1-1",           453,        -13.75,           30.,            0.,NA,NA,"",       14.6305,      -12.5372,      -7.54113,   2.98189E-06
C:/temp/dataset/9/9_9.odb,Step-1,Increment      1: Step Time =    1.000,"PART-1-1",           454,          -15.,       28.9063,            0.,NA,NA,"",       14.5097,      -12.2217,      -7.82053,   2.64681E-06
C:/temp/dataset/9/9_9.odb,Step-1,Increment      1: Step Time =    1.000,"PART-1-1",           455,      -9.01567,       28.1413,            0.,NA,NA,"",       13.7453,      -12.2218,      -6.28977,   32.6930E-06
C:/temp/dataset/9/9_9.odb,Step-1,Increment      1: Step Time =    1.000,"PART-1-1",           456,         -8.75,           30.,            0.,NA,NA,"",       14.1675,      -12.6983,      -6.28273,   47.8179E-06
C:/temp/dataset/9/9_9.odb,Step-1,Increment      1: Step Time =    1.000,"PART-1-1",           457,      -10.9923,       18.6369,            0.,NA,NA,"",       11.7212,      -9.76626,      -6.48128,   55.2987E-06
C:/temp/dataset/9/9_9.odb,Step-1,Increment      1: Step Time =    1.000,"PART-1-1",           458,      -11.7056,       20.1347,            0.,NA,NA,"",       12.1419,      -10.1201,      -6.70895,   33.2321E-06
C:/temp/dataset/9/9_9.odb,Step-1,Increment      1: Step Time =    1.000,"PART-1-1",           459,      -12.2405,       18.0722,            0.,NA,NA,"",       11.7382,      -9.58405,      -6.77720,   48.3321E-06
C:/temp/dataset/9/9_9.odb,Step-1,Increment      1: Step Time =    1.000,"PART-1-1",           460,      -11.7153,       17.0060,            0.,NA,NA,"",       11.4369,      -9.33277,      -6.61078,   62.8704E-06
C:/temp/dataset/9/9_9.odb,Step-1,Increment      1: Step Time =    1.000,"PART-1-1",           461,      -12.7888,       16.5007,            0.,NA,NA,"",       11.4557,      -9.17112,      -6.86463,   50.7386E-06
C:/temp/dataset/9/9_9.odb,Step-1,Increment      1: Step Time =    1.000,"PART-1-1",           462,      -13.2634,       13.5986,            0.,NA,NA,"",       10.8848,      -8.42593,      -6.89079,   63.9609E-06
C:/temp/dataset/9/9_9.odb,Step-1,Increment      1: Step Time =    1.000,"PART-1-1",           463,      -14.1733,       14.6682,            0.,NA,NA,"",       11.2372,      -8.66568,      -7.15405,   33.9789E-06
C:/temp/dataset/9/9_9.odb,Step-1,Increment      1: Step Time =    1.000,"PART-1-1",           464,          -15.,       13.5938,            0.,NA,NA,"",       11.1234,      -8.36882,      -7.32749,   43.5100E-06
C:/temp/dataset/9/9_9.odb,Step-1,Increment      1: Step Time =    1.000,"PART-1-1",           465,      -6.04154,       10.1420,            0.,NA,NA,"",       9.23550,      -7.78891,      -4.96259,   42.2960E-06
C:/temp/dataset/9/9_9.odb,Step-1,Increment      1: Step Time =    1.000,"PART-1-1",           466,      -7.09581,       9.10381,            0.,NA,NA,"",       9.11813,      -7.49388,      -5.19443,   73.1375E-06
C:/temp/dataset/9/9_9.odb,Step-1,Increment      1: Step Time =    1.000,"PART-1-1",           467,      -6.05428,       7.71180,            0.,NA,NA,"",       8.68338,      -7.17727,      -4.88753,   86.4238E-06
C:/temp/dataset/9/9_9.odb,Step-1,Increment      1: Step Time =    1.000,"PART-1-1",           468,           -5.,          8.75,            0.,NA,NA,"",       8.80401,      -7.47225,      -4.65576,   73.3172E-06
C:/temp/dataset/9/9_9.odb,Step-1,Increment      1: Step Time =    1.000,"PART-1-1",           469,      -6.15708,       5.36159,            0.,NA,NA,"",       8.16936,      -6.58293,      -4.83771,   258.379E-06
C:/temp/dataset/9/9_9.odb,Step-1,Increment      1: Step Time =    1.000,"PART-1-1",           470,           -5.,          6.25,            0.,NA,NA,"",       8.23197,      -6.84349,      -4.57515,   212.181E-06
C:/temp/dataset/9/9_9.odb,Step-1,Increment      1: Step Time =    1.000,"PART-1-1",           471,      -13.8567,       3.63033,            0.,NA,NA,"",       8.94164,      -5.89840,      -6.72026,   138.872E-06
C:/temp/dataset/9/9_9.odb,Step-1,Increment      1: Step Time =    1.000,"PART-1-1",           472,      -12.5372,       4.63979,            0.,NA,NA,"",       8.92205,      -6.19517,      -6.42050,   104.389E-06
C:/temp/dataset/9/9_9.odb,Step-1,Increment      1: Step Time =    1.000,"PART-1-1",           473,          -15.,       4.84375,            0.,NA,NA,"",       9.36443,      -6.16705,      -7.04699,   175.948E-06
C:/temp/dataset/9/9_9.odb,Step-1,Increment      1: Step Time =    1.000,"PART-1-1",           474,      -12.7859,       2.45238,            0.,NA,NA,"",       8.53767,      -5.63628,      -6.41282,   111.674E-06
C:/temp/dataset/9/9_9.odb,Step-1,Increment      1: Step Time =    1.000,"PART-1-1",           475,          -15.,       2.65625,            0.,NA,NA,"",       8.95644,      -5.61617,      -6.97685,   150.313E-06
C:/temp/dataset/9/9_9.odb,Step-1,Increment      1: Step Time =    1.000,"PART-1-1",           476,      -13.7683,      -2.81830,            0.,NA,NA,"",       7.77290,      -4.27684,      -6.49051,   33.7635E-06
C:/temp/dataset/9/9_9.odb,Step-1,Increment      1: Step Time =    1.000,"PART-1-1",           477,          -15.,      -3.90625,            0.,NA,NA,"",       7.84093,      -3.96310,      -6.76564,   4.99574E-06
C:/temp/dataset/9/9_9.odb,Step-1,Increment      1: Step Time =    1.000,"PART-1-1",           478,        -13.75,           -5.,            0.,NA,NA,"",       7.42004,      -3.72793,      -6.41557,   5.26506E-06
C:/temp/dataset/9/9_9.odb,Step-1,Increment      1: Step Time =    1.000,"PART-1-1",           479,      -12.5183,      -3.91205,            0.,NA,NA,"",       7.35118,      -4.04162,      -6.14045,   35.2716E-06
C:/temp/dataset/9/9_9.odb,Step-1,Increment      1: Step Time =    1.000,"PART-1-1",           480,      -3.91473,      -3.03803,            0.,NA,NA,"",       6.05063,      -4.53835,      -4.00169,   221.376E-06
C:/temp/dataset/9/9_9.odb,Step-1,Increment      1: Step Time =    1.000,"PART-1-1",           481,      -5.07319,      -4.05962,            0.,NA,NA,"",       6.01340,      -4.24367,      -4.26055,   232.201E-06
C:/temp/dataset/9/9_9.odb,Step-1,Increment      1: Step Time =    1.000,"PART-1-1",           482,         -3.75,           -5.,            0.,NA,NA,"",       5.61946,      -4.04908,      -3.89657,   335.240E-06
C:/temp/dataset/9/9_9.odb,Step-1,Increment      1: Step Time =    1.000,"PART-1-1",           483,      -2.59153,      -3.97841,            0.,NA,NA,"",       5.66567,      -4.34366,      -3.63764,   305.548E-06
C:/temp/dataset/9/9_9.odb,Step-1,Increment      1: Step Time =    1.000,"PART-1-1",           484,   563.435E-03,   72.7383E-03,            0.,NA,NA,"",       6.22409,      -5.46816,      -2.97297,   317.158E-06
C:/temp/dataset/9/9_9.odb,Step-1,Increment      1: Step Time =    1.000,"PART-1-1",           485,  -536.863E-03,      -1.25885,            0.,NA,NA,"",       6.02159,      -5.09614,      -3.20762,   188.860E-06
C:/temp/dataset/9/9_9.odb,Step-1,Increment      1: Step Time =    1.000,"PART-1-1",           486,       7.06616,      -9.87010,            0.,NA,NA,"",       3.28578,      -3.14362,  -956.013E-03,   18.6541E-03
C:/temp/dataset/9/9_9.odb,Step-1,Increment      1: Step Time =    1.000,"PART-1-1",           487,       6.02487,      -8.97716,            0.,NA,NA,"",       3.56823,      -3.34305,      -1.24751,   17.3642E-03
C:/temp/dataset/9/9_9.odb,Step-1,Increment      1: Step Time =    1.000,"PART-1-1",           488,            5.,      -10.2083,            0.,NA,NA,"",       3.34388,      -3.01777,      -1.44035,   25.0275E-03
C:/temp/dataset/9/9_9.odb,Step-1,Increment      1: Step Time =    1.000,"PART-1-1",           489,       13.0743,      -11.4048,            0.,NA,NA,"",       2.95451,      -2.92013,   449.418E-03,   22.2274E-03
C:/temp/dataset/9/9_9.odb,Step-1,Increment      1: Step Time =    1.000,"PART-1-1",           490,       14.0423,      -12.5586,            0.,NA,NA,"",       2.75696,      -2.67253,   677.073E-03,   30.1079E-03
C:/temp/dataset/9/9_9.odb,Step-1,Increment      1: Step Time =    1.000,"PART-1-1",           491,           15.,        -11.25,            0.,NA,NA,"",       3.16366,      -3.03408,   896.165E-03,   31.6423E-03
C:/temp/dataset/9/9_9.odb,Step-1,Increment      1: Step Time =    1.000,"PART-1-1",           492,       14.0319,      -10.0962,            0.,NA,NA,"",       3.35049,      -3.28573,   655.540E-03,   22.0266E-03
C:/temp/dataset/9/9_9.odb,Step-1,Increment      1: Step Time =    1.000,"PART-1-1",           493,       7.09943,      -16.3632,            0.,NA,NA,"",       1.77546,      -1.65388,  -645.717E-03,   31.4833E-03
C:/temp/dataset/9/9_9.odb,Step-1,Increment      1: Step Time =    1.000,"PART-1-1",           494,            5.,      -16.4583,            0.,NA,NA,"",       1.94714,      -1.63021,      -1.06479,   50.8949E-03
C:/temp/dataset/9/9_9.odb,Step-1,Increment      1: Step Time =    1.000,"PART-1-1",           495,       13.0966,      -13.8278,            0.,NA,NA,"",       2.38327,      -2.33540,   475.308E-03,   28.0713E-03
C:/temp/dataset/9/9_9.odb,Step-1,Increment      1: Step Time =    1.000,"PART-1-1",           496,       14.0543,      -15.0192,            0.,NA,NA,"",       2.20137,      -2.09640,   671.671E-03,   38.2064E-03
C:/temp/dataset/9/9_9.odb,Step-1,Increment      1: Step Time =    1.000,"PART-1-1",           497,           15.,        -13.75,            0.,NA,NA,"",       2.58443,      -2.42760,   886.590E-03,   41.4071E-03
C:/temp/dataset/9/9_9.odb,Step-1,Increment      1: Step Time =    1.000,"PART-1-1",           498,       13.0974,      -18.6352,            0.,NA,NA,"",       1.37873,      -1.30491,   445.099E-03,   40.0568E-03
C:/temp/dataset/9/9_9.odb,Step-1,Increment      1: Step Time =    1.000,"PART-1-1",           499,       14.0421,      -19.9133,            0.,NA,NA,"",       1.23779,      -1.10083,   565.940E-03,   54.4708E-03
C:/temp/dataset/9/9_9.odb,Step-1,Increment      1: Step Time =    1.000,"PART-1-1",           500,           15.,        -18.75,            0.,NA,NA,"",       1.55594,      -1.35363,   767.232E-03,   61.6375E-03
C:/temp/dataset/9/9_9.odb,Step-1,Increment      1: Step Time =    1.000,"PART-1-1",           501,       14.0553,      -17.4719,            0.,NA,NA,"",       1.69213,      -1.56852,   634.845E-03,   46.4162E-03
C:/temp/dataset/9/9_9.odb,Step-1,Increment      1: Step Time =    1.000,"PART-1-1",           502,       7.12541,      -22.7005,            0.,NA,NA,"",   660.732E-03,  -566.331E-03,  -340.348E-03,   44.3003E-03
C:/temp/dataset/9/9_9.odb,Step-1,Increment      1: Step Time =    1.000,"PART-1-1",           503,       6.04628,      -21.6612,            0.,NA,NA,"",   904.501E-03,  -725.209E-03,  -540.551E-03,   56.6433E-03
C:/temp/dataset/9/9_9.odb,Step-1,Increment      1: Step Time =    1.000,"PART-1-1",           504,            5.,      -22.7083,            0.,NA,NA,"",   864.487E-03,  -605.126E-03,  -617.382E-03,   76.2027E-03
C:/temp/dataset/9/9_9.odb,Step-1,Increment      1: Step Time =    1.000,"PART-1-1",           505,       6.07914,      -23.7476,            0.,NA,NA,"",   608.362E-03,  -452.511E-03,  -406.617E-03,   62.6813E-03
C:/temp/dataset/9/9_9.odb,Step-1,Increment      1: Step Time =    1.000,"PART-1-1",           506,       6.22304,      -27.8948,            0.,NA,NA,"",   153.533E-03,  -87.3897E-03,  -126.235E-03,   73.3790E-03
C:/temp/dataset/9/9_9.odb,Step-1,Increment      1: Step Time =    1.000,"PART-1-1",           507,            5.,      -28.9583,            0.,NA,NA,"",   123.350E-03,  -78.1401E-03,  -95.4430E-03,   101.542E-03
C:/temp/dataset/9/9_9.odb,Step-1,Increment      1: Step Time =    1.000,"PART-1-1",           508,          6.25,          -30.,            0.,NA,NA,"",            0.,   3.64410E-39,  -114.435E-39,   71.5804E-03
C:/temp/dataset/9/9_9.odb,Step-1,Increment      1: Step Time =    1.000,"PART-1-1",           509,       9.78444,      -26.6535,            0.,NA,NA,"",   128.903E-03,  -128.708E-03,  -7.08031E-03,   18.2540E-03
C:/temp/dataset/9/9_9.odb,Step-1,Increment      1: Step Time =    1.000,"PART-1-1",           510,       8.47427,      -25.6871,            0.,NA,NA,"",   234.962E-03,  -212.889E-03,  -99.4255E-03,   30.1932E-03
C:/temp/dataset/9/9_9.odb,Step-1,Increment      1: Step Time =    1.000,"PART-1-1",           511,       7.37694,      -26.8334,            0.,NA,NA,"",   183.170E-03,  -131.602E-03,  -127.405E-03,   48.2082E-03
C:/temp/dataset/9/9_9.odb,Step-1,Increment      1: Step Time =    1.000,"PART-1-1",           512,       13.7223,      -27.5034,            0.,NA,NA,"",   203.537E-03,  -133.064E-03,   154.018E-03,   74.7547E-03
C:/temp/dataset/9/9_9.odb,Step-1,Increment      1: Step Time =    1.000,"PART-1-1",           513,       12.4723,      -28.7534,            0.,NA,NA,"",   53.6553E-03,  -29.6143E-03,   44.7424E-03,   45.5372E-03
C:/temp/dataset/9/9_9.odb,Step-1,Increment      1: Step Time =    1.000,"PART-1-1",           514,         13.75,          -30.,            0.,NA,NA,"",            0.,   3.63760E-39,   114.802E-39,   77.1113E-03
C:/temp/dataset/9/9_9.odb,Step-1,Increment      1: Step Time =    1.000,"PART-1-1",           515,           15.,        -28.75,            0.,NA,NA,"",   155.030E-03,  -103.033E-03,   115.838E-03,   104.287E-03
C:/temp/dataset/9/9_9.odb,Step-1,Increment      1: Step Time =    1.000,"PART-1-1",           516,         11.25,          -30.,            0.,NA,NA,"",            0.,   4.26705E-39,   38.0613E-39,   19.5825E-03
C:/temp/dataset/9/9_9.odb,Step-1,Increment      1: Step Time =    1.000,"PART-1-1",           517,       11.1864,      -27.6167,            0.,NA,NA,"",   85.3345E-03,  -73.1261E-03,   43.9836E-03,   31.5244E-03
C:/temp/dataset/9/9_9.odb,Step-1,Increment      1: Step Time =    1.000,"PART-1-1",           518,       9.10684,      -20.5966,            0.,NA,NA,"",   890.370E-03,  -876.916E-03,  -154.198E-03,   20.6709E-03
C:/temp/dataset/9/9_9.odb,Step-1,Increment      1: Step Time =    1.000,"PART-1-1",           519,       11.0993,      -20.6881,            0.,NA,NA,"",   894.685E-03,  -886.290E-03,   122.273E-03,   24.0223E-03
C:/temp/dataset/9/9_9.odb,Step-1,Increment      1: Step Time =    1.000,"PART-1-1",           520,       7.08739,      -20.6083,            0.,NA,NA,"",   981.205E-03,  -874.484E-03,  -445.018E-03,   40.4522E-03
C:/temp/dataset/9/9_9.odb,Step-1,Increment      1: Step Time =    1.000,"PART-1-1",           521,            5.,       -20.625,            0.,NA,NA,"",       1.18451,  -896.811E-03,  -773.813E-03,   67.7346E-03
C:/temp/dataset/9/9_9.odb,Step-1,Increment      1: Step Time =    1.000,"PART-1-1",           522,       9.14341,      -14.0595,            0.,NA,NA,"",       2.20445,      -2.17951,  -330.663E-03,   19.0140E-03
C:/temp/dataset/9/9_9.odb,Step-1,Increment      1: Step Time =    1.000,"PART-1-1",           523,       10.1582,      -15.1431,            0.,NA,NA,"",       1.95759,      -1.95511,  -98.6031E-03,   17.4843E-03
C:/temp/dataset/9/9_9.odb,Step-1,Increment      1: Step Time =    1.000,"PART-1-1",           524,       11.1509,      -13.9343,            0.,NA,NA,"",       2.25350,      -2.25227,   74.3668E-03,   19.6078E-03
C:/temp/dataset/9/9_9.odb,Step-1,Increment      1: Step Time =    1.000,"PART-1-1",           525,       10.1361,      -12.8507,            0.,NA,NA,"",       2.48745,      -2.48224,  -160.937E-03,   17.4329E-03
C:/temp/dataset/9/9_9.odb,Step-1,Increment      1: Step Time =    1.000,"PART-1-1",           526,       9.12292,      -11.8044,            0.,NA,NA,"",       2.74239,      -2.71136,  -411.370E-03,   18.5896E-03
C:/temp/dataset/9/9_9.odb,Step-1,Increment      1: Step Time =    1.000,"PART-1-1",           527,       11.1213,      -11.5948,            0.,NA,NA,"",       2.81203,      -2.81197,   18.6250E-03,   18.5509E-03
C:/temp/dataset/9/9_9.odb,Step-1,Increment      1: Step Time =    1.000,"PART-1-1",           528,       10.1081,      -10.5485,            0.,NA,NA,"",       3.05431,      -3.04526,  -234.981E-03,   17.5229E-03
C:/temp/dataset/9/9_9.odb,Step-1,Increment      1: Step Time =    1.000,"PART-1-1",           529,       13.8169,  -7.21098E-03,            0.,NA,NA,"",       5.90201,      -5.89139,   353.844E-03,   5.16577E-03
C:/temp/dataset/9/9_9.odb,Step-1,Increment      1: Step Time =    1.000,"PART-1-1",           530,           15.,          1.25,            0.,NA,NA,"",       6.26624,      -6.23666,   608.163E-03,   1.95614E-03
C:/temp/dataset/9/9_9.odb,Step-1,Increment      1: Step Time =    1.000,"PART-1-1",           531,       13.9075,       2.57030,            0.,NA,NA,"",       6.53719,      -6.53040,   297.806E-03,   1.19186E-03
C:/temp/dataset/9/9_9.odb,Step-1,Increment      1: Step Time =    1.000,"PART-1-1",           532,       10.8083,      -4.35361,            0.,NA,NA,"",       4.68140,      -4.67389,  -265.124E-03,   11.8738E-03
C:/temp/dataset/9/9_9.odb,Step-1,Increment      1: Step Time =    1.000,"PART-1-1",           533,       9.68548,      -3.40243,            0.,NA,NA,"",       4.91439,      -4.88135,  -568.937E-03,   8.27473E-03
C:/temp/dataset/9/9_9.odb,Step-1,Increment      1: Step Time =    1.000,"PART-1-1",           534,       8.81587,      -4.92348,            0.,NA,NA,"",       4.51849,      -4.45899,  -730.834E-03,   11.0090E-03
C:/temp/dataset/9/9_9.odb,Step-1,Increment      1: Step Time =    1.000,"PART-1-1",           535,       9.93870,      -5.87466,            0.,NA,NA,"",       4.26847,      -4.24702,  -427.415E-03,   13.9037E-03
C:/temp/dataset/9/9_9.odb,Step-1,Increment      1: Step Time =    1.000,"PART-1-1",           536,       10.7940,       8.23694,            0.,NA,NA,"",       7.87941,      -7.85164,  -661.014E-03,   201.847E-06
C:/temp/dataset/9/9_9.odb,Step-1,Increment      1: Step Time =    1.000,"PART-1-1",           537,       11.2752,       6.42654,            0.,NA,NA,"",       7.42814,      -7.41247,  -482.173E-03,   276.222E-06
C:/temp/dataset/9/9_9.odb,Step-1,Increment      1: Step Time =    1.000,"PART-1-1",           538,       12.8821,       8.67106,            0.,NA,NA,"",       8.02886,      -8.02744,  -150.961E-03,   300.585E-06
C:/temp/dataset/9/9_9.odb,Step-1,Increment      1: Step Time =    1.000,"PART-1-1",           539,       14.0355,       7.50951,            0.,NA,NA,"",       7.77462,      -7.77264,   175.262E-03,   460.988E-06
C:/temp/dataset/9/9_9.odb,Step-1,Increment      1: Step Time =    1.000,"PART-1-1",           540,           15.,          8.75,            0.,NA,NA,"",       8.12422,      -8.11542,   378.119E-03,   515.221E-06
C:/temp/dataset/9/9_9.odb,Step-1,Increment      1: Step Time =    1.000,"PART-1-1",           541,       13.8467,       9.91155,            0.,NA,NA,"",       8.37034,      -8.37018,   51.6551E-03,   312.122E-06
C:/temp/dataset/9/9_9.odb,Step-1,Increment      1: Step Time =    1.000,"PART-1-1",           542,       12.4850,       16.2122,            0.,NA,NA,"",       9.92311,      -9.91091,  -491.923E-03,   134.131E-06
C:/temp/dataset/9/9_9.odb,Step-1,Increment      1: Step Time =    1.000,"PART-1-1",           543,       13.7431,       14.9727,            0.,NA,NA,"",       9.64052,      -9.63956,  -135.846E-03,   200.349E-06
C:/temp/dataset/9/9_9.odb,Step-1,Increment      1: Step Time =    1.000,"PART-1-1",           544,           15.,         16.25,            0.,NA,NA,"",       10.0025,      -10.0015,   139.438E-03,   242.975E-06
C:/temp/dataset/9/9_9.odb,Step-1,Increment      1: Step Time =    1.000,"PART-1-1",           545,       13.7419,       17.4895,            0.,NA,NA,"",       10.2751,      -10.2729,  -216.727E-03,   162.929E-06
C:/temp/dataset/9/9_9.odb,Step-1,Increment      1: Step Time =    1.000,"PART-1-1",           546,       12.4991,       13.6576,            0.,NA,NA,"",       9.27762,      -9.26871,  -406.529E-03,   157.119E-06
C:/temp/dataset/9/9_9.odb,Step-1,Increment      1: Step Time =    1.000,"PART-1-1",           547,       13.7559,       12.4349,            0.,NA,NA,"",       9.00181,      -9.00166,  -51.5508E-03,   241.254E-06
C:/temp/dataset/9/9_9.odb,Step-1,Increment      1: Step Time =    1.000,"PART-1-1",           548,           15.,         13.75,            0.,NA,NA,"",       9.37507,      -9.37251,   219.233E-03,   297.907E-06
C:/temp/dataset/9/9_9.odb,Step-1,Increment      1: Step Time =    1.000,"PART-1-1",           549,           15.,         21.25,            0.,NA,NA,"",       11.2602,      -11.2602,  -20.7131E-03,   126.997E-06
C:/temp/dataset/9/9_9.odb,Step-1,Increment      1: Step Time =    1.000,"PART-1-1",           550,       13.6875,       22.5045,            0.,NA,NA,"",       11.5404,      -11.5337,  -391.438E-03,   81.3211E-06
C:/temp/dataset/9/9_9.odb,Step-1,Increment      1: Step Time =    1.000,"PART-1-1",           551,       12.4125,       21.2511,            0.,NA,NA,"",       11.1972,      -11.1770,  -672.040E-03,   99.4068E-06
C:/temp/dataset/9/9_9.odb,Step-1,Increment      1: Step Time =    1.000,"PART-1-1",           552,       13.7250,       19.9966,            0.,NA,NA,"",       10.9076,      -10.9034,  -301.405E-03,   122.913E-06
C:/temp/dataset/9/9_9.odb,Step-1,Increment      1: Step Time =    1.000,"PART-1-1",           553,       13.6481,       25.0064,            0.,NA,NA,"",       12.1721,      -12.1625,  -481.872E-03,   45.9122E-06
C:/temp/dataset/9/9_9.odb,Step-1,Increment      1: Step Time =    1.000,"PART-1-1",           554,       12.3356,       23.7609,            0.,NA,NA,"",       11.8318,      -11.8066,  -772.183E-03,   77.7037E-06
C:/temp/dataset/9/9_9.odb,Step-1,Increment      1: Step Time =    1.000,"PART-1-1",           555,           15.,         23.75,            0.,NA,NA,"",       11.8901,      -11.8897,  -101.053E-03,   69.5840E-06
C:/temp/dataset/9/9_9.odb,Step-1,Increment      1: Step Time =    1.000,"PART-1-1",           556,       13.7112,       27.5077,            0.,NA,NA,"",       12.8061,      -12.7944,  -546.555E-03,   18.5166E-06
C:/temp/dataset/9/9_9.odb,Step-1,Increment      1: Step Time =    1.000,"PART-1-1",           557,           15.,         28.75,            0.,NA,NA,"",       13.1514,      -13.1488,  -262.059E-03,   2.91634E-06
C:/temp/dataset/9/9_9.odb,Step-1,Increment      1: Step Time =    1.000,"PART-1-1",           558,         13.75,           30.,            0.,NA,NA,"",       13.4374,      -13.4232,  -617.070E-03,   2.82378E-06
C:/temp/dataset/9/9_9.odb,Step-1,Increment      1: Step Time =    1.000,"PART-1-1",           559,            5.,      -24.7917,            0.,NA,NA,"",   585.584E-03,  -370.916E-03,  -453.134E-03,   83.5471E-03
C:/temp/dataset/9/9_9.odb,Step-1,Increment      1: Step Time =    1.000,"PART-1-1",           560,       6.15390,      -25.8136,            0.,NA,NA,"",   361.399E-03,  -242.006E-03,  -268.406E-03,   67.5297E-03
C:/temp/dataset/9/9_9.odb,Step-1,Increment      1: Step Time =    1.000,"PART-1-1",           561,       7.23304,      -24.7696,            0.,NA,NA,"",   393.346E-03,  -317.806E-03,  -231.776E-03,   47.5335E-03
C:/temp/dataset/9/9_9.odb,Step-1,Increment      1: Step Time =    1.000,"PART-1-1",           562,       13.0086,      -21.0119,            0.,NA,NA,"",   957.453E-03,  -878.680E-03,   380.314E-03,   44.9616E-03
C:/temp/dataset/9/9_9.odb,Step-1,Increment      1: Step Time =    1.000,"PART-1-1",           563,       13.9664,      -22.3485,            0.,NA,NA,"",   839.152E-03,  -701.947E-03,   459.833E-03,   61.6444E-03
C:/temp/dataset/9/9_9.odb,Step-1,Increment      1: Step Time =    1.000,"PART-1-1",           564,           15.,        -21.25,            0.,NA,NA,"",       1.12206,  -911.351E-03,   654.569E-03,   71.8746E-03
C:/temp/dataset/9/9_9.odb,Step-1,Increment      1: Step Time =    1.000,"PART-1-1",           565,            5.,       -26.875,            0.,NA,NA,"",   346.993E-03,  -199.533E-03,  -283.885E-03,   92.7866E-03
C:/temp/dataset/9/9_9.odb,Step-1,Increment      1: Step Time =    1.000,"PART-1-1",           566,       12.9745,      -6.51631,            0.,NA,NA,"",       4.19855,      -4.18622,   321.638E-03,   17.2197E-03
C:/temp/dataset/9/9_9.odb,Step-1,Increment      1: Step Time =    1.000,"PART-1-1",           567,       14.0104,      -7.62731,            0.,NA,NA,"",       3.97745,      -3.93144,   603.245E-03,   17.1008E-03
C:/temp/dataset/9/9_9.odb,Step-1,Increment      1: Step Time =    1.000,"PART-1-1",           568,           15.,         -6.25,            0.,NA,NA,"",       4.42247,      -4.34517,   823.227E-03,   14.3489E-03
C:/temp/dataset/9/9_9.odb,Step-1,Increment      1: Step Time =    1.000,"PART-1-1",           569,       13.9641,      -5.13900,            0.,NA,NA,"",       4.62225,      -4.59156,   531.728E-03,   12.7170E-03
C:/temp/dataset/9/9_9.odb,Step-1,Increment      1: Step Time =    1.000,"PART-1-1",           570,       11.1649,      -16.2543,            0.,NA,NA,"",       1.73891,      -1.73535,   111.189E-03,   21.1295E-03
C:/temp/dataset/9/9_9.odb,Step-1,Increment      1: Step Time =    1.000,"PART-1-1",           571,       9.14831,      -16.2933,            0.,NA,NA,"",       1.70906,      -1.68910,  -260.432E-03,   19.4269E-03
C:/temp/dataset/9/9_9.odb,Step-1,Increment      1: Step Time =    1.000,"PART-1-1",           572,            5.,        -8.125,            0.,NA,NA,"",       3.85449,      -3.53139,      -1.54478,   16.7985E-03
C:/temp/dataset/9/9_9.odb,Step-1,Increment      1: Step Time =    1.000,"PART-1-1",           573,       12.8519,      -3.99254,            0.,NA,NA,"",       4.85044,      -4.84524,   224.537E-03,   12.3004E-03
C:/temp/dataset/9/9_9.odb,Step-1,Increment      1: Step Time =    1.000,"PART-1-1",           574,           15.,         -3.75,            0.,NA,NA,"",       5.05223,      -4.99552,   754.816E-03,   9.50819E-03
C:/temp/dataset/9/9_9.odb,Step-1,Increment      1: Step Time =    1.000,"PART-1-1",           575,       13.8878,      -2.60354,            0.,NA,NA,"",       5.26294,      -5.24431,   442.528E-03,   9.63362E-03
C:/temp/dataset/9/9_9.odb,Step-1,Increment      1: Step Time =    1.000,"PART-1-1",           576,       13.0423,      -8.97351,            0.,NA,NA,"",       3.56133,      -3.53900,   398.221E-03,   18.1860E-03
C:/temp/dataset/9/9_9.odb,Step-1,Increment      1: Step Time =    1.000,"PART-1-1",           577,           15.,         -8.75,            0.,NA,NA,"",       3.77643,      -3.67331,   876.464E-03,   22.0884E-03
C:/temp/dataset/9/9_9.odb,Step-1,Increment      1: Step Time =    1.000,"PART-1-1",           578,       8.09346,      -21.6433,            0.,NA,NA,"",   756.483E-03,  -709.897E-03,  -261.366E-03,   30.0124E-03
C:/temp/dataset/9/9_9.odb,Step-1,Increment      1: Step Time =    1.000,"PART-1-1",           579,       8.17438,      -23.6967,            0.,NA,NA,"",   467.163E-03,  -429.715E-03,  -183.267E-03,   31.5661E-03
C:/temp/dataset/9/9_9.odb,Step-1,Increment      1: Step Time =    1.000,"PART-1-1",           580,       8.10077,      -19.5616,            0.,NA,NA,"",       1.10037,      -1.04844,  -334.049E-03,   27.4864E-03
C:/temp/dataset/9/9_9.odb,Step-1,Increment      1: Step Time =    1.000,"PART-1-1",           581,       8.11824,      -17.4194,            0.,NA,NA,"",       1.50507,      -1.44803,  -410.438E-03,   24.9700E-03
C:/temp/dataset/9/9_9.odb,Step-1,Increment      1: Step Time =    1.000,"PART-1-1",           582,          -15.,       22.3438,            0.,NA,NA,"",       13.0240,      -10.5700,      -7.60911,   54.9594E-06
C:/temp/dataset/9/9_9.odb,Step-1,Increment      1: Step Time =    1.000,"PART-1-1",           583,      -12.5647,       21.7347,            0.,NA,NA,"",       12.6024,      -10.4951,      -6.97664,   23.4932E-06
C:/temp/dataset/9/9_9.odb,Step-1,Increment      1: Step Time =    1.000,"PART-1-1",           584,      -4.95050,       22.5220,            0.,NA,NA,"",       12.0626,      -10.9382,      -5.08561,   75.7247E-06
C:/temp/dataset/9/9_9.odb,Step-1,Increment      1: Step Time =    1.000,"PART-1-1",           585,      -3.93081,       23.1260,            0.,NA,NA,"",       12.1338,      -11.1231,      -4.84825,   75.6764E-06
C:/temp/dataset/9/9_9.odb,Step-1,Increment      1: Step Time =    1.000,"PART-1-1",           586,      -4.22857,       24.4244,            0.,NA,NA,"",       12.4713,      -11.4403,      -4.96503,   53.3342E-06
C:/temp/dataset/9/9_9.odb,Step-1,Increment      1: Step Time =    1.000,"PART-1-1",           587,      -5.24826,       23.8204,            0.,NA,NA,"",       12.3996,      -11.2554,      -5.20235,   49.2761E-06
C:/temp/dataset/9/9_9.odb,Step-1,Increment      1: Step Time =    1.000,"PART-1-1",           588,      -10.1110,       10.4874,            0.,NA,NA,"",       9.79564,      -7.74485,      -5.99766,   85.2294E-06
C:/temp/dataset/9/9_9.odb,Step-1,Increment      1: Step Time =    1.000,"PART-1-1",           589,      -9.15687,       11.6944,            0.,NA,NA,"",       9.94337,      -8.07917,      -5.79635,   81.5375E-06
C:/temp/dataset/9/9_9.odb,Step-1,Increment      1: Step Time =    1.000,"PART-1-1",           590,      -11.1597,       11.6149,            0.,NA,NA,"",       10.1773,      -7.99468,      -6.29777,   89.7154E-06
C:/temp/dataset/9/9_9.odb,Step-1,Increment      1: Step Time =    1.000,"PART-1-1",           591,      -6.07359,       12.6401,            0.,NA,NA,"",       9.81555,      -8.41620,      -5.05100,   26.3978E-06
C:/temp/dataset/9/9_9.odb,Step-1,Increment      1: Step Time =    1.000,"PART-1-1",           592,      -7.11512,       11.5321,            0.,NA,NA,"",       9.67089,      -8.10403,      -5.27740,   51.4492E-06
C:/temp/dataset/9/9_9.odb,Step-1,Increment      1: Step Time =    1.000,"PART-1-1",           593,           -5.,         11.25,            0.,NA,NA,"",       9.38400,      -8.10108,      -4.73623,   27.4494E-06
C:/temp/dataset/9/9_9.odb,Step-1,Increment      1: Step Time =    1.000,"PART-1-1",           594,      -10.0988,       8.37440,            0.,NA,NA,"",       9.33614,      -7.21372,      -5.92670,   89.2374E-06
C:/temp/dataset/9/9_9.odb,Step-1,Increment      1: Step Time =    1.000,"PART-1-1",           595,      -9.11481,       9.38066,            0.,NA,NA,"",       9.42594,      -7.49854,      -5.71141,   86.2392E-06
C:/temp/dataset/9/9_9.odb,Step-1,Increment      1: Step Time =    1.000,"PART-1-1",           596,      -11.0949,       9.48111,            0.,NA,NA,"",       9.70840,      -7.46004,      -6.21295,   91.1959E-06
C:/temp/dataset/9/9_9.odb,Step-1,Increment      1: Step Time =    1.000,"PART-1-1",           597,      -11.8142,       15.6555,            0.,NA,NA,"",       11.1479,      -8.98989,      -6.59225,   71.3309E-06
C:/temp/dataset/9/9_9.odb,Step-1,Increment      1: Step Time =    1.000,"PART-1-1",           598,      -13.4062,       15.6218,            0.,NA,NA,"",       11.3416,      -8.93021,      -6.99172,   45.5781E-06
C:/temp/dataset/9/9_9.odb,Step-1,Increment      1: Step Time =    1.000,"PART-1-1",           599,      -12.4316,       14.7766,            0.,NA,NA,"",       11.0315,      -8.74898,      -6.71936,   66.7010E-06
C:/temp/dataset/9/9_9.odb,Step-1,Increment      1: Step Time =    1.000,"PART-1-1",           600,      -5.72199,       20.2132,            0.,NA,NA,"",       11.5695,      -10.3322,      -5.20561,   170.939E-06
C:/temp/dataset/9/9_9.odb,Step-1,Increment      1: Step Time =    1.000,"PART-1-1",           601,           -5.,         18.75,            0.,NA,NA,"",       11.1589,      -9.98748,      -4.97708,   176.657E-06
C:/temp/dataset/9/9_9.odb,Step-1,Increment      1: Step Time =    1.000,"PART-1-1",           602,          -15.,       15.7813,            0.,NA,NA,"",       11.5878,      -8.91905,      -7.39778,   1.40008E-06
C:/temp/dataset/9/9_9.odb,Step-1,Increment      1: Step Time =    1.000,"PART-1-1",           603,      -10.4105,       16.7429,            0.,NA,NA,"",       11.2255,      -9.30857,      -6.27400,   76.1416E-06
C:/temp/dataset/9/9_9.odb,Step-1,Increment      1: Step Time =    1.000,"PART-1-1",           604,      -12.1928,       12.6381,            0.,NA,NA,"",       10.5349,      -8.21879,      -6.59058,   80.2761E-06
C:/temp/dataset/9/9_9.odb,Step-1,Increment      1: Step Time =    1.000,"PART-1-1",           605,      -12.0987,       10.4443,            0.,NA,NA,"",       10.0515,      -7.67001,      -6.49647,   90.0614E-06
C:/temp/dataset/9/9_9.odb,Step-1,Increment      1: Step Time =    1.000,"PART-1-1",           606,      -7.50325,       4.80693,            0.,NA,NA,"",       8.22009,      -6.39979,      -5.15875,   144.855E-06
C:/temp/dataset/9/9_9.odb,Step-1,Increment      1: Step Time =    1.000,"PART-1-1",           607,      -9.63824,       5.46172,            0.,NA,NA,"",       8.65331,      -6.49564,      -5.71721,   94.2133E-06
C:/temp/dataset/9/9_9.odb,Step-1,Increment      1: Step Time =    1.000,"PART-1-1",           608,      -8.81234,       4.25317,            0.,NA,NA,"",       8.28193,      -6.21806,      -5.47048,   131.821E-06
C:/temp/dataset/9/9_9.odb,Step-1,Increment      1: Step Time =    1.000,"PART-1-1",           609,          -15.,      -1.71875,            0.,NA,NA,"",       8.19207,      -4.51410,      -6.83615,   36.7712E-06
C:/temp/dataset/9/9_9.odb,Step-1,Increment      1: Step Time =    1.000,"PART-1-1",           610,      -12.5835,      -1.75493,            0.,NA,NA,"",       7.73118,      -4.58290,      -6.22641,   82.5438E-06
C:/temp/dataset/9/9_9.odb,Step-1,Increment      1: Step Time =    1.000,"PART-1-1",           611,        -11.25,           -5.,            0.,NA,NA,"",       6.92690,      -3.80846,      -5.78598,   50.3313E-06
C:/temp/dataset/9/9_9.odb,Step-1,Increment      1: Step Time =    1.000,"PART-1-1",           612,      -10.0144,      -3.91217,            0.,NA,NA,"",       6.88125,      -4.12217,      -5.50993,   90.0904E-06
C:/temp/dataset/9/9_9.odb,Step-1,Increment      1: Step Time =    1.000,"PART-1-1",           613,      -11.2827,      -2.82422,            0.,NA,NA,"",       7.30485,      -4.35542,      -5.86440,   90.9386E-06
C:/temp/dataset/9/9_9.odb,Step-1,Increment      1: Step Time =    1.000,"PART-1-1",           614,         -8.75,           -5.,            0.,NA,NA,"",       6.45844,      -3.88884,      -5.15639,   134.800E-06
C:/temp/dataset/9/9_9.odb,Step-1,Increment      1: Step Time =    1.000,"PART-1-1",           615,      -7.54904,      -4.01671,            0.,NA,NA,"",       6.42658,      -4.17505,      -4.88568,   157.072E-06
C:/temp/dataset/9/9_9.odb,Step-1,Increment      1: Step Time =    1.000,"PART-1-1",           616,      -8.81345,      -2.92887,            0.,NA,NA,"",       6.84723,      -4.40849,      -5.23925,   136.141E-06
C:/temp/dataset/9/9_9.odb,Step-1,Increment      1: Step Time =    1.000,"PART-1-1",           617,  -969.738E-03,       22.2544,            0.,NA,NA,"",       11.7293,      -10.9989,      -4.07431,   83.6659E-06
C:/temp/dataset/9/9_9.odb,Step-1,Increment      1: Step Time =    1.000,"PART-1-1",           618,      -2.31964,       21.1016,            0.,NA,NA,"",       11.5285,      -10.6652,      -4.37719,   98.9060E-06
C:/temp/dataset/9/9_9.odb,Step-1,Increment      1: Step Time =    1.000,"PART-1-1",           619,         -1.25,           20.,            0.,NA,NA,"",       11.1895,      -10.4222,      -4.07216,   99.3328E-06
C:/temp/dataset/9/9_9.odb,Step-1,Increment      1: Step Time =    1.000,"PART-1-1",           620,         -1.25,           30.,            0.,NA,NA,"",       13.6661,      -12.9403,      -4.39449,   27.2783E-06
C:/temp/dataset/9/9_9.odb,Step-1,Increment      1: Step Time =    1.000,"PART-1-1",           621,      -1.44357,       27.1449,            0.,NA,NA,"",       12.9669,      -12.2150,      -4.35126,   50.7087E-06
C:/temp/dataset/9/9_9.odb,Step-1,Increment      1: Step Time =    1.000,"PART-1-1",           622,      -4.58492,       21.1383,            0.,NA,NA,"",       11.6999,      -10.6016,      -4.94906,   162.175E-06
C:/temp/dataset/9/9_9.odb,Step-1,Increment      1: Step Time =    1.000,"PART-1-1",           623,         -3.75,           20.,            0.,NA,NA,"",       11.3606,      -10.3418,      -4.70197,   198.601E-06
C:/temp/dataset/9/9_9.odb,Step-1,Increment      1: Step Time =    1.000,"PART-1-1",           624,      -3.15456,       22.2398,            0.,NA,NA,"",       11.8633,      -10.9250,      -4.62422,   88.3316E-06
C:/temp/dataset/9/9_9.odb,Step-1,Increment      1: Step Time =    1.000,"PART-1-1",           625,      -11.2479,       22.4027,            0.,NA,NA,"",       12.6117,      -10.7055,      -6.66679,   25.6503E-06
C:/temp/dataset/9/9_9.odb,Step-1,Increment      1: Step Time =    1.000,"PART-1-1",           626,      -10.3888,       20.8027,            0.,NA,NA,"",       12.1519,      -10.3305,      -6.39909,   33.0828E-06
C:/temp/dataset/9/9_9.odb,Step-1,Increment      1: Step Time =    1.000,"PART-1-1",           627,       9.41561,      -24.6142,            0.,NA,NA,"",   323.756E-03,  -320.239E-03,  -47.5894E-03,   19.6861E-03
C:/temp/dataset/9/9_9.odb,Step-1,Increment      1: Step Time =    1.000,"PART-1-1",           628,           15.,        -16.25,            0.,NA,NA,"",       2.04577,      -1.86343,   844.275E-03,   51.4559E-03
C:/temp/dataset/9/9_9.odb,Step-1,Increment      1: Step Time =    1.000,"PART-1-1",           629,       13.1096,      -16.2411,            0.,NA,NA,"",       1.85499,      -1.79316,   474.913E-03,   34.1071E-03
C:/temp/dataset/9/9_9.odb,Step-1,Increment      1: Step Time =    1.000,"PART-1-1",           630,           15.,          3.75,            0.,NA,NA,"",       6.88124,      -6.86047,   534.252E-03,   1.39141E-03
C:/temp/dataset/9/9_9.odb,Step-1,Increment      1: Step Time =    1.000,"PART-1-1",           631,       14.0093,       5.06690,            0.,NA,NA,"",       7.16282,      -7.15861,   245.707E-03,   725.444E-06
C:/temp/dataset/9/9_9.odb,Step-1,Increment      1: Step Time =    1.000,"PART-1-1",           632,       12.9168,       3.88721,            0.,NA,NA,"",       6.82802,      -6.82801,   9.82896E-03,   479.988E-06
C:/temp/dataset/9/9_9.odb,Step-1,Increment      1: Step Time =    1.000,"PART-1-1",           633,       12.6026,       11.0965,            0.,NA,NA,"",       8.63321,      -8.62804,  -298.574E-03,   201.350E-06
C:/temp/dataset/9/9_9.odb,Step-1,Increment      1: Step Time =    1.000,"PART-1-1",           634,           15.,         11.25,            0.,NA,NA,"",       8.74891,      -8.74381,   298.818E-03,   371.496E-06
C:/temp/dataset/9/9_9.odb,Step-1,Increment      1: Step Time =    1.000,"PART-1-1",           635,       12.4669,       18.7361,            0.,NA,NA,"",       10.5614,      -10.5456,  -577.497E-03,   116.925E-06
C:/temp/dataset/9/9_9.odb,Step-1,Increment      1: Step Time =    1.000,"PART-1-1",           636,           15.,         18.75,            0.,NA,NA,"",       10.6309,      -10.6307,   59.4561E-03,   187.310E-06
C:/temp/dataset/9/9_9.odb,Step-1,Increment      1: Step Time =    1.000,"PART-1-1",           637,           15.,         26.25,            0.,NA,NA,"",       12.5206,      -12.5193,  -181.522E-03,   24.8798E-06
C:/temp/dataset/9/9_9.odb,Step-1,Increment      1: Step Time =    1.000,"PART-1-1",           638,          8.75,           30.,            0.,NA,NA,"",       13.3943,      -13.2623,      -1.87598,   49.3933E-06
C:/temp/dataset/9/9_9.odb,Step-1,Increment      1: Step Time =    1.000,"PART-1-1",           639,       8.74802,       27.8391,            0.,NA,NA,"",       12.8458,      -12.7181,      -1.80681,   46.4579E-06
C:/temp/dataset/9/9_9.odb,Step-1,Increment      1: Step Time =    1.000,"PART-1-1",           640,       11.0691,       22.4572,            0.,NA,NA,"",       11.4855,      -11.4375,      -1.04896,   89.3150E-06
C:/temp/dataset/9/9_9.odb,Step-1,Increment      1: Step Time =    1.000,"PART-1-1",           641,       11.1947,       19.9658,            0.,NA,NA,"",       10.8547,      -10.8142,  -937.135E-03,   97.4996E-06
C:/temp/dataset/9/9_9.odb,Step-1,Increment      1: Step Time =    1.000,"PART-1-1",           642,          3.75,           30.,            0.,NA,NA,"",       13.4713,      -13.1014,      -3.13515,   47.0934E-06
C:/temp/dataset/9/9_9.odb,Step-1,Increment      1: Step Time =    1.000,"PART-1-1",           643,       6.12801,       21.9878,            0.,NA,NA,"",       11.3904,      -11.1604,      -2.27764,   125.228E-06
C:/temp/dataset/9/9_9.odb,Step-1,Increment      1: Step Time =    1.000,"PART-1-1",           644,       7.06684,       23.0702,            0.,NA,NA,"",       11.6496,      -11.4631,      -2.07621,   104.844E-06
C:/temp/dataset/9/9_9.odb,Step-1,Increment      1: Step Time =    1.000,"PART-1-1",           645,       4.97038,       22.7185,            0.,NA,NA,"",       11.6006,      -11.3071,      -2.59284,   109.192E-06
C:/temp/dataset/9/9_9.odb,Step-1,Increment      1: Step Time =    1.000,"PART-1-1",           646,          3.75,           20.,            0.,NA,NA,"",       10.9505,      -10.5831,      -2.81255,   68.2437E-06
C:/temp/dataset/9/9_9.odb,Step-1,Increment      1: Step Time =    1.000,"PART-1-1",           647,       4.96897,       20.9583,            0.,NA,NA,"",       11.1560,      -10.8639,      -2.53627,   160.408E-06
C:/temp/dataset/9/9_9.odb,Step-1,Increment      1: Step Time =    1.000,"PART-1-1",           648,       3.78616,       22.0655,            0.,NA,NA,"",       11.4695,      -11.1046,      -2.87007,   94.0339E-06
C:/temp/dataset/9/9_9.odb,Step-1,Increment      1: Step Time =    1.000,"PART-1-1",           649,           -5.,         13.75,            0.,NA,NA,"",       9.97050,      -8.72989,      -4.81663,   10.0439E-06
C:/temp/dataset/9/9_9.odb,Step-1,Increment      1: Step Time =    1.000,"PART-1-1",           650,      -7.15256,       14.0792,            0.,NA,NA,"",       10.2602,      -8.74345,      -5.36868,   57.9821E-06
C:/temp/dataset/9/9_9.odb,Step-1,Increment      1: Step Time =    1.000,"PART-1-1",           651,      -9.70164,       19.1500,            0.,NA,NA,"",       11.6982,      -9.93685,      -6.17299,   65.0089E-06
C:/temp/dataset/9/9_9.odb,Step-1,Increment      1: Step Time =    1.000,"PART-1-1",           652,      -9.13060,       21.5024,            0.,NA,NA,"",       12.1865,      -10.5471,      -6.10498,   40.7470E-06
C:/temp/dataset/9/9_9.odb,Step-1,Increment      1: Step Time =    1.000,"PART-1-1",           653,         -1.25,           -5.,            0.,NA,NA,"",       5.26456,      -4.12893,      -3.26611,   523.674E-06
C:/temp/dataset/9/9_9.odb,Step-1,Increment      1: Step Time =    1.000,"PART-1-1",           654,      -1.47244,      -2.77860,            0.,NA,NA,"",       5.78320,      -4.68226,      -3.39438,   256.634E-06
C:/temp/dataset/9/9_9.odb,Step-1,Increment      1: Step Time =    1.000,"PART-1-1",           655,      -9.96758,      -1.61086,            0.,NA,NA,"",       7.29206,      -4.70344,      -5.57241,   129.069E-06
C:/temp/dataset/9/9_9.odb,Step-1,Increment      1: Step Time =    1.000,"PART-1-1",           656,      -6.37223,      -3.07632,            0.,NA,NA,"",       6.41418,      -4.44978,      -4.61965,   174.581E-06
C:/temp/dataset/9/9_9.odb,Step-1,Increment      1: Step Time =    1.000,"PART-1-1",           657,         -6.25,           -5.,            0.,NA,NA,"",       6.02027,      -3.96903,      -4.52664,   234.191E-06
C:/temp/dataset/9/9_9.odb,Step-1,Increment      1: Step Time =    1.000,"PART-1-1",           658,         -3.75,            5.,            0.,NA,NA,"",       7.80873,      -6.57048,      -4.21960,   487.816E-06
C:/temp/dataset/9/9_9.odb,Step-1,Increment      1: Step Time =    1.000,"PART-1-1",           659,      -5.11170,       4.23117,            0.,NA,NA,"",       7.79056,      -6.33227,      -4.53818,   315.649E-06
C:/temp/dataset/9/9_9.odb,Step-1,Increment      1: Step Time =    1.000,"PART-1-1",           660,      -3.95473,       3.29190,            0.,NA,NA,"",       7.44264,      -6.13317,      -4.21629,   205.390E-06
C:/temp/dataset/9/9_9.odb,Step-1,Increment      1: Step Time =    1.000,"PART-1-1",           661,          3.75,           -5.,            0.,NA,NA,"",       4.73085,      -4.28643,      -2.00188,   2.04280E-03
C:/temp/dataset/9/9_9.odb,Step-1,Increment      1: Step Time =    1.000,"PART-1-1",           662,       4.69008,      -3.66648,            0.,NA,NA,"",       4.99461,      -4.65615,      -1.80731,   1.79890E-03
C:/temp/dataset/9/9_9.odb,Step-1,Increment      1: Step Time =    1.000,"PART-1-1",           663,       4.69636,       3.71818,            0.,NA,NA,"",       6.83609,      -6.52230,      -2.04738,   174.689E-06
C:/temp/dataset/9/9_9.odb,Step-1,Increment      1: Step Time =    1.000,"PART-1-1",           664,          3.75,            5.,            0.,NA,NA,"",       7.20109,      -6.81462,      -2.32736,   243.890E-06
C:/temp/dataset/9/9_9.odb,Step-1,Increment      1: Step Time =    1.000,"PART-1-1",           665,       8.42013,       25.7200,            0.,NA,NA,"",       12.3094,      -12.1739,      -1.82102,   63.2490E-06
C:/temp/dataset/9/9_9.odb,Step-1,Increment      1: Step Time =    1.000,"PART-1-1",           666,       7.55622,       27.1849,            0.,NA,NA,"",       12.6876,      -12.5150,      -2.08579,   52.4020E-06
C:/temp/dataset/9/9_9.odb,Step-1,Increment      1: Step Time =    1.000,"PART-1-1",           667,       6.61388,       26.0906,            0.,NA,NA,"",       12.4216,      -12.2091,      -2.28779,   56.6244E-06
C:/temp/dataset/9/9_9.odb,Step-1,Increment      1: Step Time =    1.000,"PART-1-1",           668,       10.0237,       13.5556,            0.,NA,NA,"",       9.22073,      -9.16354,      -1.02542,   92.4253E-06
C:/temp/dataset/9/9_9.odb,Step-1,Increment      1: Step Time =    1.000,"PART-1-1",           669,       8.80148,       12.2659,            0.,NA,NA,"",       8.89436,      -8.80015,      -1.29109,   140.289E-06
C:/temp/dataset/9/9_9.odb,Step-1,Increment      1: Step Time =    1.000,"PART-1-1",           670,            5.,          6.25,            0.,NA,NA,"",       7.45621,      -7.16826,      -2.05212,   197.097E-06
C:/temp/dataset/9/9_9.odb,Step-1,Increment      1: Step Time =    1.000,"PART-1-1",           671,       5.87545,       4.76801,            0.,NA,NA,"",       7.05377,      -6.82432,      -1.78449,   251.341E-06
C:/temp/dataset/9/9_9.odb,Step-1,Increment      1: Step Time =    1.000,"PART-1-1",           672,       6.93940,       5.78737,            0.,NA,NA,"",       7.28103,      -7.11415,      -1.54994,   382.881E-06
C:/temp/dataset/9/9_9.odb,Step-1,Increment      1: Step Time =    1.000,"PART-1-1",           673,       7.73520,       4.18036,            0.,NA,NA,"",       6.86008,      -6.73616,      -1.29800,   339.570E-06
C:/temp/dataset/9/9_9.odb,Step-1,Increment      1: Step Time =    1.000,"PART-1-1",           674,       6.49581,       3.34316,            0.,NA,NA,"",       6.67626,      -6.48601,      -1.58245,   277.600E-06
C:/temp/dataset/9/9_9.odb,Step-1,Increment      1: Step Time =    1.000,"PART-1-1",           675,       7.18979,       1.82766,            0.,NA,NA,"",       6.27606,      -6.12713,      -1.35909,   660.186E-06
C:/temp/dataset/9/9_9.odb,Step-1,Increment      1: Step Time =    1.000,"PART-1-1",           676,       8.42918,       2.66485,            0.,NA,NA,"",       6.46782,      -6.37788,      -1.07489,   521.236E-06
C:/temp/dataset/9/9_9.odb,Step-1,Increment      1: Step Time =    1.000,"PART-1-1",           677,  -530.051E-03,       1.39108,            0.,NA,NA,"",       6.63856,      -5.76522,      -3.29131,   250.388E-06
C:/temp/dataset/9/9_9.odb,Step-1,Increment      1: Step Time =    1.000,"PART-1-1",           678,      -10.1792,       3.73358,            0.,NA,NA,"",       8.37458,      -6.04308,      -5.79783,   109.498E-06
C:/temp/dataset/9/9_9.odb,Step-1,Increment      1: Step Time =    1.000,"PART-1-1",           679,      -9.26781,       2.30942,            0.,NA,NA,"",       7.94648,      -5.71378,      -5.52261,   141.690E-06
C:/temp/dataset/9/9_9.odb,Step-1,Increment      1: Step Time =    1.000,"PART-1-1",           680,      -7.90097,       2.82902,            0.,NA,NA,"",       7.85295,      -5.88882,      -5.19526,   154.770E-06
C:/temp/dataset/9/9_9.odb,Step-1,Increment      1: Step Time =    1.000,"PART-1-1",           681,      -2.90861,       2.25641,            0.,NA,NA,"",       7.08813,      -5.90610,      -3.91913,   202.853E-06
C:/temp/dataset/9/9_9.odb,Step-1,Increment      1: Step Time =    1.000,"PART-1-1",           682,      -1.97153,   737.020E-03,            0.,NA,NA,"",       6.63658,      -5.55333,      -3.63385,   167.292E-06
C:/temp/dataset/9/9_9.odb,Step-1,Increment      1: Step Time =    1.000,"PART-1-1",           683,      -12.0057,       8.33468,            0.,NA,NA,"",       9.59378,      -7.14227,      -6.40535,   97.0646E-06
C:/temp/dataset/9/9_9.odb,Step-1,Increment      1: Step Time =    1.000,"PART-1-1",           684,   257.111E-03,       23.5381,            0.,NA,NA,"",       11.9824,      -11.3617,      -3.80665,   73.7283E-06
C:/temp/dataset/9/9_9.odb,Step-1,Increment      1: Step Time =    1.000,"PART-1-1",           685,       2.92443,       23.5127,            0.,NA,NA,"",       11.8627,      -11.4412,      -3.13388,   80.3914E-06
C:/temp/dataset/9/9_9.odb,Step-1,Increment      1: Step Time =    1.000,"PART-1-1",           686,  -872.814E-03,       24.6452,            0.,NA,NA,"",       12.3161,      -11.6041,      -4.12696,   74.9898E-06
C:/temp/dataset/9/9_9.odb,Step-1,Increment      1: Step Time =    1.000,"PART-1-1",           687,      -2.49287,       25.7554,            0.,NA,NA,"",       12.6836,      -11.8314,      -4.57078,   54.8804E-06
C:/temp/dataset/9/9_9.odb,Step-1,Increment      1: Step Time =    1.000,"PART-1-1",           688,      -6.57000,       23.0679,            0.,NA,NA,"",       12.3242,      -11.0234,      -5.51089,   46.9080E-06
C:/temp/dataset/9/9_9.odb,Step-1,Increment      1: Step Time =    1.000,"PART-1-1",           689,      -7.77911,       22.2181,            0.,NA,NA,"",       12.2273,      -10.7706,      -5.78787,   41.0844E-06
C:/temp/dataset/9/9_9.odb,Step-1,Increment      1: Step Time =    1.000,"PART-1-1",           690,      -6.08757,       21.5970,            0.,NA,NA,"",       11.9315,      -10.6687,      -5.34214,   77.4478E-06
C:/temp/dataset/9/9_9.odb,Step-1,Increment      1: Step Time =    1.000,"PART-1-1",           691,      -10.6596,       24.7502,            0.,NA,NA,"",       13.0966,      -11.3153,      -6.59433,   32.8361E-06
C:/temp/dataset/9/9_9.odb,Step-1,Increment      1: Step Time =    1.000,"PART-1-1",           692,      -8.94190,       25.0911,            0.,NA,NA,"",       13.0136,      -11.4564,      -6.17301,   30.6960E-06
C:/temp/dataset/9/9_9.odb,Step-1,Increment      1: Step Time =    1.000,"PART-1-1",           693,      -9.30563,       26.3338,            0.,NA,NA,"",       13.3412,      -11.7575,      -6.30457,   32.7838E-06
C:/temp/dataset/9/9_9.odb,Step-1,Increment      1: Step Time =    1.000,"PART-1-1",           694,      -11.0233,       25.9928,            0.,NA,NA,"",       13.4230,      -11.6164,      -6.72588,   34.0515E-06
C:/temp/dataset/9/9_9.odb,Step-1,Increment      1: Step Time =    1.000,"PART-1-1",           695,      -9.11986,       17.2561,            0.,NA,NA,"",       11.2002,      -9.47917,      -5.96571,   87.6493E-06
C:/temp/dataset/9/9_9.odb,Step-1,Increment      1: Step Time =    1.000,"PART-1-1",           696,      -11.0116,       7.65423,            0.,NA,NA,"",       9.30918,      -7.00311,      -6.13330,   90.3611E-06
C:/temp/dataset/9/9_9.odb,Step-1,Increment      1: Step Time =    1.000,"PART-1-1",           697,      -11.6541,       6.30856,            0.,NA,NA,"",       9.12274,      -6.64375,      -6.25181,   94.7427E-06
C:/temp/dataset/9/9_9.odb,Step-1,Increment      1: Step Time =    1.000,"PART-1-1",           698,      -3.46647,   792.949E-03,            0.,NA,NA,"",       6.82347,      -5.51897,      -4.01258,   103.071E-06
C:/temp/dataset/9/9_9.odb,Step-1,Increment      1: Step Time =    1.000,"PART-1-1",           699,      -4.27899,       1.61468,            0.,NA,NA,"",       7.10627,      -5.69987,      -4.24389,   113.377E-06
C:/temp/dataset/9/9_9.odb,Step-1,Increment      1: Step Time =    1.000,"PART-1-1",           700,      -5.41602,       1.03976,            0.,NA,NA,"",       7.12787,      -5.51816,      -4.51181,   126.932E-06
C:/temp/dataset/9/9_9.odb,Step-1,Increment      1: Step Time =    1.000,"PART-1-1",           701,      -4.60351,   218.037E-03,            0.,NA,NA,"",       6.84173,      -5.33723,      -4.28057,   116.899E-06
C:/temp/dataset/9/9_9.odb,Step-1,Increment      1: Step Time =    1.000,"PART-1-1",           702,      -1.96165,  -510.209E-03,            0.,NA,NA,"",       6.35160,      -5.23896,      -3.59112,   135.932E-06
C:/temp/dataset/9/9_9.odb,Step-1,Increment      1: Step Time =    1.000,"PART-1-1",           703,      -2.89723,      -2.02996,            0.,NA,NA,"",       6.12828,      -4.82530,      -3.77787,   174.984E-06
C:/temp/dataset/9/9_9.odb,Step-1,Increment      1: Step Time =    1.000,"PART-1-1",           704,       6.46823,      -3.22891,            0.,NA,NA,"",       5.01431,      -4.82289,      -1.37223,   4.71489E-03
C:/temp/dataset/9/9_9.odb,Step-1,Increment      1: Step Time =    1.000,"PART-1-1",           705,       5.30305,      -2.18626,            0.,NA,NA,"",       5.33048,      -5.05133,      -1.70236,   1.17166E-03
C:/temp/dataset/9/9_9.odb,Step-1,Increment      1: Step Time =    1.000,"PART-1-1",           706,       8.11637,      -13.0290,            0.,NA,NA,"",       2.46955,      -2.39972,  -583.113E-03,   20.5741E-03
C:/temp/dataset/9/9_9.odb,Step-1,Increment      1: Step Time =    1.000,"PART-1-1",           707,       8.09759,      -10.8135,            0.,NA,NA,"",       3.00924,      -2.93204,  -677.240E-03,   18.5043E-03
C:/temp/dataset/9/9_9.odb,Step-1,Increment      1: Step Time =    1.000,"PART-1-1",           708,           15.,        -26.25,            0.,NA,NA,"",   434.015E-03,  -283.431E-03,   328.688E-03,   91.2982E-03
C:/temp/dataset/9/9_9.odb,Step-1,Increment      1: Step Time =    1.000,"PART-1-1",           709,       13.6129,      -24.9005,            0.,NA,NA,"",   470.806E-03,  -363.970E-03,   298.636E-03,   64.2568E-03
C:/temp/dataset/9/9_9.odb,Step-1,Increment      1: Step Time =    1.000,"PART-1-1",           710,       12.3352,      -26.1538,            0.,NA,NA,"",   249.800E-03,  -203.677E-03,   144.622E-03,   47.4049E-03
C:/temp/dataset/9/9_9.odb,Step-1,Increment      1: Step Time =    1.000,"PART-1-1",           711,       11.5115,      -24.0900,            0.,NA,NA,"",   425.527E-03,  -402.818E-03,   137.153E-03,   32.2933E-03
C:/temp/dataset/9/9_9.odb,Step-1,Increment      1: Step Time =    1.000,"PART-1-1",           712,       12.5793,      -23.4990,            0.,NA,NA,"",   562.502E-03,  -500.671E-03,   256.392E-03,   45.5424E-03
C:/temp/dataset/9/9_9.odb,Step-1,Increment      1: Step Time =    1.000,"PART-1-1",           713,       11.9958,      -21.9645,            0.,NA,NA,"",   737.935E-03,  -702.134E-03,   227.060E-03,   34.6786E-03
C:/temp/dataset/9/9_9.odb,Step-1,Increment      1: Step Time =    1.000,"PART-1-1",           714,           15.,        -23.75,            0.,NA,NA,"",   747.608E-03,  -550.038E-03,   506.336E-03,   81.2788E-03
C:/temp/dataset/9/9_9.odb,Step-1,Increment      1: Step Time =    1.000,"PART-1-1",           715,       11.0775,      -9.24199,            0.,NA,NA,"",       3.40528,      -3.40486,  -53.9682E-03,   18.1108E-03
C:/temp/dataset/9/9_9.odb,Step-1,Increment      1: Step Time =    1.000,"PART-1-1",           716,       10.0590,      -8.23408,            0.,NA,NA,"",       3.64948,      -3.63533,  -321.006E-03,   16.9962E-03
C:/temp/dataset/9/9_9.odb,Step-1,Increment      1: Step Time =    1.000,"PART-1-1",           717,       9.08966,      -9.54059,            0.,NA,NA,"",       3.31162,      -3.27367,  -499.926E-03,   17.6673E-03
C:/temp/dataset/9/9_9.odb,Step-1,Increment      1: Step Time =    1.000,"PART-1-1",           718,           15.,         -1.25,            0.,NA,NA,"",       5.67077,      -5.62998,   678.996E-03,   7.82546E-03
C:/temp/dataset/9/9_9.odb,Step-1,Increment      1: Step Time =    1.000,"PART-1-1",           719,       12.7047,      -1.36075,            0.,NA,NA,"",       5.51440,      -5.51319,   115.445E-03,   7.74337E-03
C:/temp/dataset/9/9_9.odb,Step-1,Increment      1: Step Time =    1.000,"PART-1-1",           720,       10.4122,      -1.52824,            0.,NA,NA,"",       5.40548,      -5.38690,  -447.765E-03,   5.80638E-03
C:/temp/dataset/9/9_9.odb,Step-1,Increment      1: Step Time =    1.000,"PART-1-1",           721,       11.7321,      -2.88547,            0.,NA,NA,"",       5.08884,      -5.08818,  -82.0356E-03,   9.43122E-03
C:/temp/dataset/9/9_9.odb,Step-1,Increment      1: Step Time =    1.000,"PART-1-1",           722,       13.0447,       6.32641,            0.,NA,NA,"",       7.44384,      -7.44376,  -35.5599E-03,   423.287E-06
C:/temp/dataset/9/9_9.odb,Step-1,Increment      1: Step Time =    1.000,"PART-1-1",           723,           15.,          6.25,            0.,NA,NA,"",       7.50132,      -7.48740,   456.801E-03,   831.238E-06
C:/temp/dataset/9/9_9.odb,Step-1,Increment      1: Step Time =    1.000,"PART-1-1",           724,       12.2773,       7.44357,            0.,NA,NA,"",       7.70425,      -7.69974,  -263.507E-03,   259.141E-06
C:/temp/dataset/9/9_9.odb,Step-1,Increment      1: Step Time =    1.000,"PART-1-1",           725,       11.3989,       9.46443,            0.,NA,NA,"",       8.19766,      -8.17929,  -548.598E-03,   138.797E-06
C:/temp/dataset/9/9_9.odb,Step-1,Increment      1: Step Time =    1.000,"PART-1-1",           726,       10.0696,       10.6576,            0.,NA,NA,"",       8.48664,      -8.43655,  -920.718E-03,   130.470E-06
C:/temp/dataset/9/9_9.odb,Step-1,Increment      1: Step Time =    1.000,"PART-1-1",           727,       11.2733,       12.2896,            0.,NA,NA,"",       8.91061,      -8.88533,  -670.730E-03,   101.787E-06
C:/temp/dataset/9/9_9.odb,Step-1,Increment      1: Step Time =    1.000,"PART-1-1",           728,       11.2495,       14.9235,            0.,NA,NA,"",       9.57725,      -9.54695,  -761.253E-03,   93.6973E-06
C:/temp/dataset/9/9_9.odb,Step-1,Increment      1: Step Time =    1.000,"PART-1-1",           729,       11.2365,       17.4638,            0.,NA,NA,"",       10.2208,      -10.1857,  -846.131E-03,   94.6880E-06
C:/temp/dataset/9/9_9.odb,Step-1,Increment      1: Step Time =    1.000,"PART-1-1",           730,       9.96430,       18.6935,            0.,NA,NA,"",       10.5236,      -10.4543,      -1.20573,   98.8531E-06
C:/temp/dataset/9/9_9.odb,Step-1,Increment      1: Step Time =    1.000,"PART-1-1",           731,       8.12949,      -15.2371,            0.,NA,NA,"",       1.96409,      -1.90136,  -492.405E-03,   22.6418E-03
C:/temp/dataset/9/9_9.odb,Step-1,Increment      1: Step Time =    1.000,"PART-1-1",           732,       10.9896,      -6.85237,            0.,NA,NA,"",       4.02796,      -4.02532,  -145.715E-03,   16.5117E-03
C:/temp/dataset/9/9_9.odb,Step-1,Increment      1: Step Time =    1.000,"PART-1-1",           733,       10.9332,      -25.1906,            0.,NA,NA,"",   280.026E-03,  -270.552E-03,   72.2219E-03,   25.9305E-03
C:/temp/dataset/9/9_9.odb,Step-1,Increment      1: Step Time =    1.000,"PART-1-1",           734,       11.9281,      -5.46067,            0.,NA,NA,"",       4.42537,      -4.42520,   38.8864E-03,   14.6507E-03
C:/temp/dataset/9/9_9.odb,Step-1,Increment      1: Step Time =    1.000,"PART-1-1",           735,      -11.5697,       3.18107,            0.,NA,NA,"",       8.47977,      -5.85905,      -6.13009,   114.618E-06
C:/temp/dataset/9/9_9.odb,Step-1,Increment      1: Step Time =    1.000,"PART-1-1",           736,      -10.7341,       2.09613,            0.,NA,NA,"",       8.13230,      -5.61274,      -5.88486,   126.360E-06
C:/temp/dataset/9/9_9.odb,Step-1,Increment      1: Step Time =    1.000,"PART-1-1",           737,      -6.76822,       1.80268,            0.,NA,NA,"",       7.47647,      -5.66679,      -4.87699,   149.688E-06
C:/temp/dataset/9/9_9.odb,Step-1,Increment      1: Step Time =    1.000,"PART-1-1",           738,      -5.32511,       2.65016,            0.,NA,NA,"",       7.46655,      -5.92703,      -4.54089,   140.701E-06
C:/temp/dataset/9/9_9.odb,Step-1,Increment      1: Step Time =    1.000,"PART-1-1",           739,      -6.45786,       3.67650,            0.,NA,NA,"",       7.83723,      -6.14898,      -4.85925,   175.930E-06
C:/temp/dataset/9/9_9.odb,Step-1,Increment      1: Step Time =    1.000,"PART-1-1",           740,      -10.1618,       27.4009,            0.,NA,NA,"",       13.6721,      -11.9986,      -6.55440,   33.1080E-06
C:/temp/dataset/9/9_9.odb,Step-1,Increment      1: Step Time =    1.000,"PART-1-1",           741,      -8.15950,       27.0742,            0.,NA,NA,"",       13.4172,      -11.9808,      -6.03993,   30.1876E-06
C:/temp/dataset/9/9_9.odb,Step-1,Increment      1: Step Time =    1.000,"PART-1-1",           742,      -8.41457,       23.7439,            0.,NA,NA,"",       12.6465,      -11.1342,      -5.99692,   33.2166E-06
C:/temp/dataset/9/9_9.odb,Step-1,Increment      1: Step Time =    1.000,"PART-1-1",           743,      -9.76606,       23.0282,            0.,NA,NA,"",       12.6059,      -10.9106,      -6.31402,   27.5217E-06
C:/temp/dataset/9/9_9.odb,Step-1,Increment      1: Step Time =    1.000,"PART-1-1",           744,      -10.1457,       6.57799,            0.,NA,NA,"",       8.96015,      -6.76021,      -5.88080,   90.7733E-06
C:/temp/dataset/9/9_9.odb,Step-1,Increment      1: Step Time =    1.000,"PART-1-1",           745,      -11.1466,       5.19230,            0.,NA,NA,"",       8.81816,      -6.37914,      -6.08823,   99.0701E-06
C:/temp/dataset/9/9_9.odb,Step-1,Increment      1: Step Time =    1.000,"PART-1-1",           746,       7.77017,   782.991E-03,            0.,NA,NA,"",       5.99994,      -5.88282,      -1.17969,   1.12687E-03
C:/temp/dataset/9/9_9.odb,Step-1,Increment      1: Step Time =    1.000,"PART-1-1",           747,       6.09501,       1.10589,            0.,NA,NA,"",       6.12527,      -5.90961,      -1.61101,   619.886E-06
C:/temp/dataset/9/9_9.odb,Step-1,Increment      1: Step Time =    1.000,"PART-1-1",           748,       6.67539,   61.2235E-03,            0.,NA,NA,"",       5.84282,      -5.66484,      -1.43113,   1.07171E-03
C:/temp/dataset/9/9_9.odb,Step-1,Increment      1: Step Time =    1.000,"PART-1-1",           749,       5.31672,       2.29333,            0.,NA,NA,"",       6.45303,      -6.18357,      -1.84528,   361.489E-06
C:/temp/dataset/9/9_9.odb,Step-1,Increment      1: Step Time =    1.000,"PART-1-1",           750,      -6.94695,       24.4689,            0.,NA,NA,"",       12.6914,      -11.3640,      -5.65086,   28.9384E-06
C:/temp/dataset/9/9_9.odb,Step-1,Increment      1: Step Time =    1.000,"PART-1-1",           751,      -2.09966,       23.3616,            0.,NA,NA,"",       12.0698,      -11.2413,      -4.39463,   85.4687E-06
C:/temp/dataset/9/9_9.odb,Step-1,Increment      1: Step Time =    1.000,"PART-1-1",           752,      -2.87591,       24.2478,            0.,NA,NA,"",       12.3367,      -11.4395,      -4.61869,   67.8900E-06
C:/temp/dataset/9/9_9.odb,Step-1,Increment      1: Step Time =    1.000,"PART-1-1",           753,       9.53974,       23.7363,            0.,NA,NA,"",       11.8029,      -11.7104,      -1.47516,   88.7639E-06
C:/temp/dataset/9/9_9.odb,Step-1,Increment      1: Step Time =    1.000,"PART-1-1",           754,      -5.22075,      -2.25347,            0.,NA,NA,"",       6.40404,      -4.69419,      -4.35618,   169.839E-06
C:/temp/dataset/9/9_9.odb,Step-1,Increment      1: Step Time =    1.000,"PART-1-1",           755,      -7.55915,      -2.11026,            0.,NA,NA,"",       6.79490,      -4.65509,      -4.94983,   152.256E-06
C:/temp/dataset/9/9_9.odb,Step-1,Increment      1: Step Time =    1.000,"PART-1-1",           756,      -4.20325,      -1.24540,            0.,NA,NA,"",       6.47212,      -4.98111,      -4.13241,   144.533E-06
C:/temp/dataset/9/9_9.odb,Step-1,Increment      1: Step Time =    1.000,"PART-1-1",           757,       12.0426,       5.30937,            0.,NA,NA,"",       7.16109,      -7.15658,  -254.086E-03,   333.246E-06
C:/temp/dataset/9/9_9.odb,Step-1,Increment      1: Step Time =    1.000,"PART-1-1",           758,      -8.17645,       12.8481,            0.,NA,NA,"",       10.0889,      -8.40088,      -5.58673,   67.0590E-06
C:/temp/dataset/9/9_9.odb,Step-1,Increment      1: Step Time =    1.000,"PART-1-1",           759,      -8.09554,       10.3784,            0.,NA,NA,"",       9.52215,      -7.78231,      -5.48699,   69.0653E-06
C:/temp/dataset/9/9_9.odb,Step-1,Increment      1: Step Time =    1.000,"PART-1-1",           760,      -8.33007,       15.6293,            0.,NA,NA,"",       10.7417,      -9.09544,      -5.71473,   80.1759E-06
C:/temp/dataset/9/9_9.odb,Step-1,Increment      1: Step Time =    1.000,"PART-1-1",           761,       12.1122,      -19.7356,            0.,NA,NA,"",       1.10726,      -1.07286,   273.870E-03,   32.1255E-03
C:/temp/dataset/9/9_9.odb,Step-1,Increment      1: Step Time =    1.000,"PART-1-1",           762,       12.1388,      -17.4254,            0.,NA,NA,"",       1.54378,      -1.51586,   292.285E-03,   28.4266E-03
C:/temp/dataset/9/9_9.odb,Step-1,Increment      1: Step Time =    1.000,"PART-1-1",           763,       12.0361,      -7.90801,            0.,NA,NA,"",       3.78547,      -3.78315,   132.729E-03,   17.5748E-03
C:/temp/dataset/9/9_9.odb,Step-1,Increment      1: Step Time =    1.000,"PART-1-1",           764,       12.0837,      -10.3075,            0.,NA,NA,"",       3.16958,      -3.16300,   204.177E-03,   18.0659E-03
C:/temp/dataset/9/9_9.odb,Step-1,Increment      1: Step Time =    1.000,"PART-1-1",           765,       12.1118,      -12.6921,            0.,NA,NA,"",       2.58582,      -2.57320,   255.166E-03,   20.8716E-03
C:/temp/dataset/9/9_9.odb,Step-1,Increment      1: Step Time =    1.000,"PART-1-1",           766,       12.1357,      -15.0700,            0.,NA,NA,"",       2.04031,      -2.02017,   285.954E-03,   24.5814E-03
C:/temp/dataset/9/9_9.odb,Step-1,Increment      1: Step Time =    1.000,"PART-1-1",           767,      -8.71328,  -792.246E-03,            0.,NA,NA,"",       7.23973,      -4.95010,      -5.28301,   152.702E-06
C:/temp/dataset/9/9_9.odb,Step-1,Increment      1: Step Time =    1.000,"PART-1-1",           768,      -7.47429,       25.8162,            0.,NA,NA,"",       13.0583,      -11.6862,      -5.82696,   24.8437E-06
C:/temp/dataset/9/9_9.odb,Step-1,Increment      1: Step Time =    1.000,"PART-1-1",           769,       9.13729,   756.201E-03,            0.,NA,NA,"",       5.97987,      -5.92109,  -836.374E-03,   1.72616E-03
C:/temp/dataset/9/9_9.odb,Step-1,Increment      1: Step Time =    1.000,"PART-1-1",           770,       7.76646,  -679.521E-03,            0.,NA,NA,"",       5.62839,      -5.51312,      -1.13327,   2.34685E-03
C:/temp/dataset/9/9_9.odb,Step-1,Increment      1: Step Time =    1.000,"PART-1-1",           771,       9.13358,  -706.311E-03,            0.,NA,NA,"",       5.60775,      -5.55168,  -791.061E-03,   2.94161E-03
C:/temp/dataset/9/9_9.odb,Step-1,Increment      1: Step Time =    1.000,"PART-1-1",           772,       7.17869,      -1.72980,            0.,NA,NA,"",       5.37374,      -5.22736,      -1.24573,   2.64710E-03
C:/temp/dataset/9/9_9.odb,Step-1,Increment      1: Step Time =    1.000,"PART-1-1",           773,       6.08762,  -989.051E-03,            0.,NA,NA,"",       5.59738,      -5.38009,      -1.54443,   1.36740E-03
C:/temp/dataset/9/9_9.odb,Step-1,Increment      1: Step Time =    1.000,"PART-1-1",           774,       8.06590,       24.5744,            0.,NA,NA,"",       12.0209,      -11.8740,      -1.87324,   75.7028E-06
C:/temp/dataset/9/9_9.odb,Step-1,Increment      1: Step Time =    1.000,"PART-1-1",           775,       7.69641,      -4.07963,            0.,NA,NA,"",       4.75654,      -4.64250,      -1.03533,   7.33600E-03
C:/temp/dataset/9/9_9.odb,Step-1,Increment      1: Step Time =    1.000,"PART-1-1",           776,       8.40687,      -2.58051,            0.,NA,NA,"",       5.13155,      -5.05002,  -911.123E-03,   5.66720E-03
C:/temp/dataset/9/9_9.odb,Step-1,Increment      1: Step Time =    1.000,"PART-1-1",           777,      -9.00797,   684.990E-03,            0.,NA,NA,"",       7.57886,      -5.31287,      -5.40486,   150.400E-06
C:/temp/dataset/9/9_9.odb,Step-1,Increment      1: Step Time =    1.000,"PART-1-1",           778,       5.05143,   63.4436E-03,            0.,NA,NA,"",       5.90639,      -5.61248,      -1.83998,   603.227E-06
C:/temp/dataset/9/9_9.odb,Step-1,Increment      1: Step Time =    1.000,"PART-1-1",           779,      -3.45659,  -454.281E-03,            0.,NA,NA,"",       6.54588,      -5.20473,      -3.96981,   109.159E-06
C:/temp/dataset/9/9_9.odb,Step-1,Increment      1: Step Time =    1.000,"PART-1-1",           780,      -7.58605,   993.377E-03,            0.,NA,NA,"",       7.42470,      -5.43644,      -5.05681,   155.237E-06
