ODB Name,Step,Frame,Part Instance Name,    êﬂì_ÉâÉxÉã,X,Y,Z,Section Name,Material Name,Section Point,   U-Magnitude,          U-U1,          U-U2,       S-Mises
C:/temp/dataset/test2/14_3.odb,Step-1,Increment      1: Step Time =    1.000,"PART-1-1",             1,            5.,           30.,            0.,NA,NA,"",   357.143E-03,  -355.851E-03,   30.3413E-03,   1.45255E-09
C:/temp/dataset/test2/14_3.odb,Step-1,Increment      1: Step Time =    1.000,"PART-1-1",             2,            3.,           30.,            0.,NA,NA,"",   356.316E-03,  -355.818E-03,   18.8196E-03,   1.40430E-09
C:/temp/dataset/test2/14_3.odb,Step-1,Increment      1: Step Time =    1.000,"PART-1-1",             3,            1.,           30.,            0.,NA,NA,"",   355.860E-03,  -355.785E-03,   7.29797E-03,   1.42881E-09
C:/temp/dataset/test2/14_3.odb,Step-1,Increment      1: Step Time =    1.000,"PART-1-1",             4,           -1.,           30.,            0.,NA,NA,"",   355.777E-03,  -355.752E-03,  -4.22369E-03,   1.78696E-09
C:/temp/dataset/test2/14_3.odb,Step-1,Increment      1: Step Time =    1.000,"PART-1-1",             5,           -3.,           30.,            0.,NA,NA,"",   356.067E-03,  -355.719E-03,  -15.7453E-03,   2.25685E-09
C:/temp/dataset/test2/14_3.odb,Step-1,Increment      1: Step Time =    1.000,"PART-1-1",             6,           -5.,           30.,            0.,NA,NA,"",   356.729E-03,  -355.685E-03,  -27.2670E-03,   1.54432E-09
C:/temp/dataset/test2/14_3.odb,Step-1,Increment      1: Step Time =    1.000,"PART-1-1",             7,            5.,        28.125,            0.,NA,NA,"",   346.384E-03,  -345.050E-03,   30.3724E-03,   2.36645E-09
C:/temp/dataset/test2/14_3.odb,Step-1,Increment      1: Step Time =    1.000,"PART-1-1",             8,            3.,        28.125,            0.,NA,NA,"",   345.531E-03,  -345.017E-03,   18.8507E-03,   1.67458E-09
C:/temp/dataset/test2/14_3.odb,Step-1,Increment      1: Step Time =    1.000,"PART-1-1",             9,            1.,        28.125,            0.,NA,NA,"",   345.061E-03,  -344.984E-03,   7.32908E-03,   1.91168E-09
C:/temp/dataset/test2/14_3.odb,Step-1,Increment      1: Step Time =    1.000,"PART-1-1",            10,           -1.,        28.125,            0.,NA,NA,"",   344.976E-03,  -344.950E-03,  -4.19257E-03,   1.89104E-09
C:/temp/dataset/test2/14_3.odb,Step-1,Increment      1: Step Time =    1.000,"PART-1-1",            11,           -3.,        28.125,            0.,NA,NA,"",   345.275E-03,  -344.917E-03,  -15.7142E-03,   1.42399E-09
C:/temp/dataset/test2/14_3.odb,Step-1,Increment      1: Step Time =    1.000,"PART-1-1",            12,           -5.,        28.125,            0.,NA,NA,"",   345.958E-03,  -344.884E-03,  -27.2359E-03,   1.45227E-09
C:/temp/dataset/test2/14_3.odb,Step-1,Increment      1: Step Time =    1.000,"PART-1-1",            13,            5.,         26.25,            0.,NA,NA,"",   335.628E-03,  -334.248E-03,   30.4035E-03,   2.70604E-09
C:/temp/dataset/test2/14_3.odb,Step-1,Increment      1: Step Time =    1.000,"PART-1-1",            14,            3.,         26.25,            0.,NA,NA,"",   334.748E-03,  -334.215E-03,   18.8818E-03,   2.07257E-09
C:/temp/dataset/test2/14_3.odb,Step-1,Increment      1: Step Time =    1.000,"PART-1-1",            15,            1.,         26.25,            0.,NA,NA,"",   334.263E-03,  -334.182E-03,   7.36020E-03,   1.99749E-09
C:/temp/dataset/test2/14_3.odb,Step-1,Increment      1: Step Time =    1.000,"PART-1-1",            16,           -1.,         26.25,            0.,NA,NA,"",   334.175E-03,  -334.149E-03,  -4.16146E-03,   1.79119E-09
C:/temp/dataset/test2/14_3.odb,Step-1,Increment      1: Step Time =    1.000,"PART-1-1",            17,           -3.,         26.25,            0.,NA,NA,"",   334.483E-03,  -334.116E-03,  -15.6831E-03,   1.31247E-09
C:/temp/dataset/test2/14_3.odb,Step-1,Increment      1: Step Time =    1.000,"PART-1-1",            18,           -5.,         26.25,            0.,NA,NA,"",   335.188E-03,  -334.082E-03,  -27.2048E-03,   1.62594E-09
C:/temp/dataset/test2/14_3.odb,Step-1,Increment      1: Step Time =    1.000,"PART-1-1",            19,            5.,        24.375,            0.,NA,NA,"",   324.875E-03,  -323.447E-03,   30.4346E-03,   3.32352E-09
C:/temp/dataset/test2/14_3.odb,Step-1,Increment      1: Step Time =    1.000,"PART-1-1",            20,            3.,        24.375,            0.,NA,NA,"",   323.966E-03,  -323.414E-03,   18.9130E-03,   2.47686E-09
C:/temp/dataset/test2/14_3.odb,Step-1,Increment      1: Step Time =    1.000,"PART-1-1",            21,            1.,        24.375,            0.,NA,NA,"",   323.465E-03,  -323.380E-03,   7.39131E-03,   2.05462E-09
C:/temp/dataset/test2/14_3.odb,Step-1,Increment      1: Step Time =    1.000,"PART-1-1",            22,           -1.,        24.375,            0.,NA,NA,"",   323.374E-03,  -323.347E-03,  -4.13034E-03,   1.71456E-09
C:/temp/dataset/test2/14_3.odb,Step-1,Increment      1: Step Time =    1.000,"PART-1-1",            23,           -3.,        24.375,            0.,NA,NA,"",   323.693E-03,  -323.314E-03,  -15.6520E-03,   1.49034E-09
C:/temp/dataset/test2/14_3.odb,Step-1,Increment      1: Step Time =    1.000,"PART-1-1",            24,           -5.,        24.375,            0.,NA,NA,"",   324.421E-03,  -323.281E-03,  -27.1736E-03,   2.10543E-09
C:/temp/dataset/test2/14_3.odb,Step-1,Increment      1: Step Time =    1.000,"PART-1-1",            25,            5.,          22.5,            0.,NA,NA,"",   314.126E-03,  -312.645E-03,   30.4657E-03,   4.01687E-09
C:/temp/dataset/test2/14_3.odb,Step-1,Increment      1: Step Time =    1.000,"PART-1-1",            26,            3.,          22.5,            0.,NA,NA,"",   313.186E-03,  -312.612E-03,   18.9441E-03,   2.87979E-09
C:/temp/dataset/test2/14_3.odb,Step-1,Increment      1: Step Time =    1.000,"PART-1-1",            27,            1.,          22.5,            0.,NA,NA,"",   312.667E-03,  -312.579E-03,   7.42243E-03,   2.13531E-09
C:/temp/dataset/test2/14_3.odb,Step-1,Increment      1: Step Time =    1.000,"PART-1-1",            28,           -1.,          22.5,            0.,NA,NA,"",   312.573E-03,  -312.546E-03,  -4.09923E-03,   1.68561E-09
C:/temp/dataset/test2/14_3.odb,Step-1,Increment      1: Step Time =    1.000,"PART-1-1",            29,           -3.,          22.5,            0.,NA,NA,"",   312.903E-03,  -312.512E-03,  -15.6209E-03,   1.77283E-09
C:/temp/dataset/test2/14_3.odb,Step-1,Increment      1: Step Time =    1.000,"PART-1-1",            30,           -5.,          22.5,            0.,NA,NA,"",   313.656E-03,  -312.479E-03,  -27.1425E-03,   2.73133E-09
C:/temp/dataset/test2/14_3.odb,Step-1,Increment      1: Step Time =    1.000,"PART-1-1",            31,            5.,        20.625,            0.,NA,NA,"",   303.380E-03,  -301.844E-03,   30.4969E-03,   4.71746E-09
C:/temp/dataset/test2/14_3.odb,Step-1,Increment      1: Step Time =    1.000,"PART-1-1",            32,            3.,        20.625,            0.,NA,NA,"",   302.406E-03,  -301.811E-03,   18.9752E-03,   3.28235E-09
C:/temp/dataset/test2/14_3.odb,Step-1,Increment      1: Step Time =    1.000,"PART-1-1",            33,            1.,        20.625,            0.,NA,NA,"",   301.869E-03,  -301.777E-03,   7.45354E-03,   2.23339E-09
C:/temp/dataset/test2/14_3.odb,Step-1,Increment      1: Step Time =    1.000,"PART-1-1",            34,           -1.,        20.625,            0.,NA,NA,"",   301.772E-03,  -301.744E-03,  -4.06812E-03,   1.67813E-09
C:/temp/dataset/test2/14_3.odb,Step-1,Increment      1: Step Time =    1.000,"PART-1-1",            35,           -3.,        20.625,            0.,NA,NA,"",   302.113E-03,  -301.711E-03,  -15.5898E-03,   2.11590E-09
C:/temp/dataset/test2/14_3.odb,Step-1,Increment      1: Step Time =    1.000,"PART-1-1",            36,           -5.,        20.625,            0.,NA,NA,"",   302.894E-03,  -301.678E-03,  -27.1114E-03,   3.45078E-09
C:/temp/dataset/test2/14_3.odb,Step-1,Increment      1: Step Time =    1.000,"PART-1-1",            37,            5.,         18.75,            0.,NA,NA,"",   292.639E-03,  -291.042E-03,   30.5280E-03,   5.36983E-09
C:/temp/dataset/test2/14_3.odb,Step-1,Increment      1: Step Time =    1.000,"PART-1-1",            38,            3.,         18.75,            0.,NA,NA,"",   291.629E-03,  -291.009E-03,   19.0063E-03,   3.68572E-09
C:/temp/dataset/test2/14_3.odb,Step-1,Increment      1: Step Time =    1.000,"PART-1-1",            39,            1.,         18.75,            0.,NA,NA,"",   291.072E-03,  -290.976E-03,   7.48466E-03,   2.36222E-09
C:/temp/dataset/test2/14_3.odb,Step-1,Increment      1: Step Time =    1.000,"PART-1-1",            40,           -1.,         18.75,            0.,NA,NA,"",   290.971E-03,  -290.943E-03,  -4.03700E-03,   1.68469E-09
C:/temp/dataset/test2/14_3.odb,Step-1,Increment      1: Step Time =    1.000,"PART-1-1",            41,           -3.,         18.75,            0.,NA,NA,"",   291.325E-03,  -290.909E-03,  -15.5587E-03,   2.51163E-09
C:/temp/dataset/test2/14_3.odb,Step-1,Increment      1: Step Time =    1.000,"PART-1-1",            42,           -5.,         18.75,            0.,NA,NA,"",   292.134E-03,  -290.876E-03,  -27.0803E-03,   4.26094E-09
C:/temp/dataset/test2/14_3.odb,Step-1,Increment      1: Step Time =    1.000,"PART-1-1",            43,            5.,        16.875,            0.,NA,NA,"",   281.902E-03,  -280.241E-03,   30.5591E-03,   5.90242E-09
C:/temp/dataset/test2/14_3.odb,Step-1,Increment      1: Step Time =    1.000,"PART-1-1",            44,            3.,        16.875,            0.,NA,NA,"",   280.853E-03,  -280.207E-03,   19.0374E-03,   4.09432E-09
C:/temp/dataset/test2/14_3.odb,Step-1,Increment      1: Step Time =    1.000,"PART-1-1",            45,            1.,        16.875,            0.,NA,NA,"",   280.275E-03,  -280.174E-03,   7.51577E-03,   2.55715E-09
C:/temp/dataset/test2/14_3.odb,Step-1,Increment      1: Step Time =    1.000,"PART-1-1",            46,           -1.,        16.875,            0.,NA,NA,"",   280.170E-03,  -280.141E-03,  -4.00589E-03,   1.71514E-09
C:/temp/dataset/test2/14_3.odb,Step-1,Increment      1: Step Time =    1.000,"PART-1-1",            47,           -3.,        16.875,            0.,NA,NA,"",   280.538E-03,  -280.108E-03,  -15.5276E-03,   2.95530E-09
C:/temp/dataset/test2/14_3.odb,Step-1,Increment      1: Step Time =    1.000,"PART-1-1",            48,           -5.,        16.875,            0.,NA,NA,"",   281.378E-03,  -280.075E-03,  -27.0492E-03,   5.21411E-09
C:/temp/dataset/test2/14_3.odb,Step-1,Increment      1: Step Time =    1.000,"PART-1-1",            49,            5.,           15.,            0.,NA,NA,"",   271.170E-03,  -269.439E-03,   30.5902E-03,   6.22598E-09
C:/temp/dataset/test2/14_3.odb,Step-1,Increment      1: Step Time =    1.000,"PART-1-1",            50,            3.,           15.,            0.,NA,NA,"",   270.080E-03,  -269.406E-03,   19.0686E-03,   4.52954E-09
C:/temp/dataset/test2/14_3.odb,Step-1,Increment      1: Step Time =    1.000,"PART-1-1",            51,            1.,           15.,            0.,NA,NA,"",   269.478E-03,  -269.373E-03,   7.54689E-03,   2.85124E-09
C:/temp/dataset/test2/14_3.odb,Step-1,Increment      1: Step Time =    1.000,"PART-1-1",            52,           -1.,           15.,            0.,NA,NA,"",   269.369E-03,  -269.339E-03,  -3.97478E-03,   1.79410E-09
C:/temp/dataset/test2/14_3.odb,Step-1,Increment      1: Step Time =    1.000,"PART-1-1",            53,           -3.,           15.,            0.,NA,NA,"",   269.752E-03,  -269.306E-03,  -15.4964E-03,   3.43252E-09
C:/temp/dataset/test2/14_3.odb,Step-1,Increment      1: Step Time =    1.000,"PART-1-1",            54,           -5.,           15.,            0.,NA,NA,"",   270.625E-03,  -269.273E-03,  -27.0181E-03,   6.39101E-09
C:/temp/dataset/test2/14_3.odb,Step-1,Increment      1: Step Time =    1.000,"PART-1-1",            55,            5.,        13.125,            0.,NA,NA,"",   260.444E-03,  -258.637E-03,   30.6213E-03,   6.31066E-09
C:/temp/dataset/test2/14_3.odb,Step-1,Increment      1: Step Time =    1.000,"PART-1-1",            56,            3.,        13.125,            0.,NA,NA,"",   259.309E-03,  -258.604E-03,   19.0997E-03,   5.03233E-09
C:/temp/dataset/test2/14_3.odb,Step-1,Increment      1: Step Time =    1.000,"PART-1-1",            57,            1.,        13.125,            0.,NA,NA,"",   258.682E-03,  -258.571E-03,   7.57801E-03,   3.20968E-09
C:/temp/dataset/test2/14_3.odb,Step-1,Increment      1: Step Time =    1.000,"PART-1-1",            58,           -1.,        13.125,            0.,NA,NA,"",   258.568E-03,  -258.538E-03,  -3.94366E-03,   1.98606E-09
C:/temp/dataset/test2/14_3.odb,Step-1,Increment      1: Step Time =    1.000,"PART-1-1",            59,           -3.,        13.125,            0.,NA,NA,"",   258.967E-03,  -258.505E-03,  -15.4653E-03,   3.86093E-09
C:/temp/dataset/test2/14_3.odb,Step-1,Increment      1: Step Time =    1.000,"PART-1-1",            60,           -5.,        13.125,            0.,NA,NA,"",   259.877E-03,  -258.472E-03,  -26.9870E-03,   7.81512E-09
C:/temp/dataset/test2/14_3.odb,Step-1,Increment      1: Step Time =    1.000,"PART-1-1",            61,            5.,         11.25,            0.,NA,NA,"",   249.724E-03,  -247.836E-03,   30.6525E-03,   6.45891E-09
C:/temp/dataset/test2/14_3.odb,Step-1,Increment      1: Step Time =    1.000,"PART-1-1",            62,            3.,         11.25,            0.,NA,NA,"",   248.540E-03,  -247.803E-03,   19.1308E-03,   5.82502E-09
C:/temp/dataset/test2/14_3.odb,Step-1,Increment      1: Step Time =    1.000,"PART-1-1",            63,            1.,         11.25,            0.,NA,NA,"",   247.886E-03,  -247.770E-03,   7.60913E-03,   3.91371E-09
C:/temp/dataset/test2/14_3.odb,Step-1,Increment      1: Step Time =    1.000,"PART-1-1",            64,           -1.,         11.25,            0.,NA,NA,"",   247.767E-03,  -247.736E-03,  -3.91255E-03,   3.14283E-09
C:/temp/dataset/test2/14_3.odb,Step-1,Increment      1: Step Time =    1.000,"PART-1-1",            65,           -3.,         11.25,            0.,NA,NA,"",   248.184E-03,  -247.703E-03,  -15.4342E-03,   4.18706E-09
C:/temp/dataset/test2/14_3.odb,Step-1,Increment      1: Step Time =    1.000,"PART-1-1",            66,           -5.,         11.25,            0.,NA,NA,"",   249.133E-03,  -247.670E-03,  -26.9559E-03,   9.16457E-09
C:/temp/dataset/test2/14_3.odb,Step-1,Increment      1: Step Time =    1.000,"PART-1-1",            67,            5.,         9.375,            0.,NA,NA,"",   239.012E-03,  -237.034E-03,   30.6836E-03,   8.05606E-09
C:/temp/dataset/test2/14_3.odb,Step-1,Increment      1: Step Time =    1.000,"PART-1-1",            68,            3.,         9.375,            0.,NA,NA,"",   237.775E-03,  -237.001E-03,   19.1619E-03,   8.78764E-09
C:/temp/dataset/test2/14_3.odb,Step-1,Increment      1: Step Time =    1.000,"PART-1-1",            69,            1.,         9.375,            0.,NA,NA,"",   237.091E-03,  -236.968E-03,   7.64024E-03,   8.14151E-09
C:/temp/dataset/test2/14_3.odb,Step-1,Increment      1: Step Time =    1.000,"PART-1-1",            70,           -1.,         9.375,            0.,NA,NA,"",   236.967E-03,  -236.935E-03,  -3.88144E-03,   8.55103E-09
C:/temp/dataset/test2/14_3.odb,Step-1,Increment      1: Step Time =    1.000,"PART-1-1",            71,           -3.,         9.375,            0.,NA,NA,"",   237.402E-03,  -236.902E-03,  -15.4031E-03,   6.47261E-09
C:/temp/dataset/test2/14_3.odb,Step-1,Increment      1: Step Time =    1.000,"PART-1-1",            72,           -5.,         9.375,            0.,NA,NA,"",   238.394E-03,  -236.868E-03,  -26.9248E-03,   9.02824E-09
C:/temp/dataset/test2/14_3.odb,Step-1,Increment      1: Step Time =    1.000,"PART-1-1",            73,            5.,           7.5,            0.,NA,NA,"",   228.308E-03,  -226.233E-03,   30.7147E-03,   15.3315E-09
C:/temp/dataset/test2/14_3.odb,Step-1,Increment      1: Step Time =    1.000,"PART-1-1",            74,            3.,           7.5,            0.,NA,NA,"",   227.012E-03,  -226.200E-03,   19.1930E-03,   19.8771E-09
C:/temp/dataset/test2/14_3.odb,Step-1,Increment      1: Step Time =    1.000,"PART-1-1",            75,            1.,           7.5,            0.,NA,NA,"",   226.296E-03,  -226.166E-03,   7.67134E-03,   22.2087E-09
C:/temp/dataset/test2/14_3.odb,Step-1,Increment      1: Step Time =    1.000,"PART-1-1",            76,           -1.,           7.5,            0.,NA,NA,"",   226.166E-03,  -226.133E-03,  -3.85035E-03,   23.4136E-09
C:/temp/dataset/test2/14_3.odb,Step-1,Increment      1: Step Time =    1.000,"PART-1-1",            77,           -3.,           7.5,            0.,NA,NA,"",   226.622E-03,  -226.100E-03,  -15.3720E-03,   17.6207E-09
C:/temp/dataset/test2/14_3.odb,Step-1,Increment      1: Step Time =    1.000,"PART-1-1",            78,           -5.,           7.5,            0.,NA,NA,"",   227.661E-03,  -226.067E-03,  -26.8937E-03,   3.64181E-09
C:/temp/dataset/test2/14_3.odb,Step-1,Increment      1: Step Time =    1.000,"PART-1-1",            79,            5.,         5.625,            0.,NA,NA,"",   217.614E-03,  -215.431E-03,   30.7459E-03,   38.2220E-09
C:/temp/dataset/test2/14_3.odb,Step-1,Increment      1: Step Time =    1.000,"PART-1-1",            80,            3.,         5.625,            0.,NA,NA,"",   216.254E-03,  -215.398E-03,   19.2242E-03,   47.4120E-09
C:/temp/dataset/test2/14_3.odb,Step-1,Increment      1: Step Time =    1.000,"PART-1-1",            81,            1.,         5.625,            0.,NA,NA,"",   215.503E-03,  -215.365E-03,   7.70242E-03,   53.8001E-09
C:/temp/dataset/test2/14_3.odb,Step-1,Increment      1: Step Time =    1.000,"PART-1-1",            82,           -1.,         5.625,            0.,NA,NA,"",   215.365E-03,  -215.332E-03,  -3.81928E-03,   55.5533E-09
C:/temp/dataset/test2/14_3.odb,Step-1,Increment      1: Step Time =    1.000,"PART-1-1",            83,           -3.,         5.625,            0.,NA,NA,"",   215.844E-03,  -215.298E-03,  -15.3409E-03,   45.3282E-09
C:/temp/dataset/test2/14_3.odb,Step-1,Increment      1: Step Time =    1.000,"PART-1-1",            84,           -5.,         5.625,            0.,NA,NA,"",   216.935E-03,  -215.265E-03,  -26.8626E-03,   18.6069E-09
C:/temp/dataset/test2/14_3.odb,Step-1,Increment      1: Step Time =    1.000,"PART-1-1",            85,            5.,          3.75,            0.,NA,NA,"",   206.931E-03,  -204.630E-03,   30.7771E-03,   95.9339E-09
C:/temp/dataset/test2/14_3.odb,Step-1,Increment      1: Step Time =    1.000,"PART-1-1",            86,            3.,          3.75,            0.,NA,NA,"",   205.501E-03,  -204.597E-03,   19.2553E-03,   100.228E-09
C:/temp/dataset/test2/14_3.odb,Step-1,Increment      1: Step Time =    1.000,"PART-1-1",            87,            1.,          3.75,            0.,NA,NA,"",   204.709E-03,  -204.563E-03,   7.73344E-03,   110.449E-09
C:/temp/dataset/test2/14_3.odb,Step-1,Increment      1: Step Time =    1.000,"PART-1-1",            88,           -1.,          3.75,            0.,NA,NA,"",   204.565E-03,  -204.530E-03,  -3.78826E-03,   112.693E-09
C:/temp/dataset/test2/14_3.odb,Step-1,Increment      1: Step Time =    1.000,"PART-1-1",            89,           -3.,          3.75,            0.,NA,NA,"",   205.069E-03,  -204.497E-03,  -15.3098E-03,   98.2275E-09
C:/temp/dataset/test2/14_3.odb,Step-1,Increment      1: Step Time =    1.000,"PART-1-1",            90,           -5.,          3.75,            0.,NA,NA,"",   206.216E-03,  -204.463E-03,  -26.8314E-03,   74.6729E-09
C:/temp/dataset/test2/14_3.odb,Step-1,Increment      1: Step Time =    1.000,"PART-1-1",            91,            5.,         1.875,            0.,NA,NA,"",   196.261E-03,  -193.828E-03,   30.8085E-03,   218.021E-09
C:/temp/dataset/test2/14_3.odb,Step-1,Increment      1: Step Time =    1.000,"PART-1-1",            92,            3.,         1.875,            0.,NA,NA,"",   194.752E-03,  -193.795E-03,   19.2864E-03,   177.185E-09
C:/temp/dataset/test2/14_3.odb,Step-1,Increment      1: Step Time =    1.000,"PART-1-1",            93,            1.,         1.875,            0.,NA,NA,"",   193.917E-03,  -193.762E-03,   7.76437E-03,   185.827E-09
C:/temp/dataset/test2/14_3.odb,Step-1,Increment      1: Step Time =    1.000,"PART-1-1",            94,           -1.,         1.875,            0.,NA,NA,"",   193.765E-03,  -193.728E-03,  -3.75734E-03,   188.551E-09
C:/temp/dataset/test2/14_3.odb,Step-1,Increment      1: Step Time =    1.000,"PART-1-1",            95,           -3.,         1.875,            0.,NA,NA,"",   194.297E-03,  -193.695E-03,  -15.2787E-03,   175.067E-09
C:/temp/dataset/test2/14_3.odb,Step-1,Increment      1: Step Time =    1.000,"PART-1-1",            96,           -5.,         1.875,            0.,NA,NA,"",   195.507E-03,  -193.662E-03,  -26.8001E-03,   195.066E-09
C:/temp/dataset/test2/14_3.odb,Step-1,Increment      1: Step Time =    1.000,"PART-1-1",            97,            5.,            0.,            0.,NA,NA,"",   185.606E-03,  -183.026E-03,   30.8401E-03,   430.121E-09
C:/temp/dataset/test2/14_3.odb,Step-1,Increment      1: Step Time =    1.000,"PART-1-1",            98,            3.,            0.,            0.,NA,NA,"",   184.010E-03,  -182.993E-03,   19.3176E-03,   231.056E-09
C:/temp/dataset/test2/14_3.odb,Step-1,Increment      1: Step Time =    1.000,"PART-1-1",            99,            1.,            0.,            0.,NA,NA,"",   183.126E-03,  -182.960E-03,   7.79521E-03,   229.849E-09
C:/temp/dataset/test2/14_3.odb,Step-1,Increment      1: Step Time =    1.000,"PART-1-1",           100,           -1.,            0.,            0.,NA,NA,"",   182.965E-03,  -182.927E-03,  -3.72651E-03,   232.955E-09
C:/temp/dataset/test2/14_3.odb,Step-1,Increment      1: Step Time =    1.000,"PART-1-1",           101,           -3.,            0.,            0.,NA,NA,"",   183.528E-03,  -182.893E-03,  -15.2476E-03,   228.259E-09
C:/temp/dataset/test2/14_3.odb,Step-1,Increment      1: Step Time =    1.000,"PART-1-1",           102,           -5.,            0.,            0.,NA,NA,"",   184.809E-03,  -182.860E-03,  -26.7685E-03,   404.746E-09
C:/temp/dataset/test2/14_3.odb,Step-1,Increment      1: Step Time =    1.000,"PART-1-1",           103,            5.,        -1.875,            0.,NA,NA,"",   174.969E-03,  -172.224E-03,   30.8722E-03,   692.237E-09
C:/temp/dataset/test2/14_3.odb,Step-1,Increment      1: Step Time =    1.000,"PART-1-1",           104,            3.,        -1.875,            0.,NA,NA,"",   173.275E-03,  -172.191E-03,   19.3487E-03,   132.177E-09
C:/temp/dataset/test2/14_3.odb,Step-1,Increment      1: Step Time =    1.000,"PART-1-1",           105,            1.,        -1.875,            0.,NA,NA,"",   172.336E-03,  -172.158E-03,   7.82611E-03,   327.505E-09
C:/temp/dataset/test2/14_3.odb,Step-1,Increment      1: Step Time =    1.000,"PART-1-1",           106,           -1.,        -1.875,            0.,NA,NA,"",   172.165E-03,  -172.125E-03,  -3.69561E-03,   328.856E-09
C:/temp/dataset/test2/14_3.odb,Step-1,Increment      1: Step Time =    1.000,"PART-1-1",           107,           -3.,        -1.875,            0.,NA,NA,"",   172.764E-03,  -172.093E-03,  -15.2164E-03,   131.455E-09
C:/temp/dataset/test2/14_3.odb,Step-1,Increment      1: Step Time =    1.000,"PART-1-1",           108,           -5.,        -1.875,            0.,NA,NA,"",   174.125E-03,  -172.060E-03,  -26.7365E-03,   661.448E-09
C:/temp/dataset/test2/14_3.odb,Step-1,Increment      1: Step Time =    1.000,"PART-1-1",           109,            5.,         -3.75,            0.,NA,NA,"",   164.351E-03,  -161.420E-03,   30.9046E-03,   720.760E-09
C:/temp/dataset/test2/14_3.odb,Step-1,Increment      1: Step Time =    1.000,"PART-1-1",           110,            3.,         -3.75,            0.,NA,NA,"",   162.546E-03,  -161.387E-03,   19.3799E-03,   905.844E-09
C:/temp/dataset/test2/14_3.odb,Step-1,Increment      1: Step Time =    1.000,"PART-1-1",           111,            1.,         -3.75,            0.,NA,NA,"",   161.547E-03,  -161.355E-03,   7.85773E-03,   1.51168E-06
C:/temp/dataset/test2/14_3.odb,Step-1,Increment      1: Step Time =    1.000,"PART-1-1",           112,           -1.,         -3.75,            0.,NA,NA,"",   161.367E-03,  -161.325E-03,  -3.66401E-03,   1.51034E-06
C:/temp/dataset/test2/14_3.odb,Step-1,Increment      1: Step Time =    1.000,"PART-1-1",           113,           -3.,         -3.75,            0.,NA,NA,"",   162.007E-03,  -161.294E-03,  -15.1853E-03,   918.727E-09
C:/temp/dataset/test2/14_3.odb,Step-1,Increment      1: Step Time =    1.000,"PART-1-1",           114,           -5.,         -3.75,            0.,NA,NA,"",   163.457E-03,  -161.261E-03,  -26.7041E-03,   675.227E-09
C:/temp/dataset/test2/14_3.odb,Step-1,Increment      1: Step Time =    1.000,"PART-1-1",           115,            5.,        -5.625,            0.,NA,NA,"",   153.756E-03,  -150.612E-03,   30.9365E-03,   544.738E-09
C:/temp/dataset/test2/14_3.odb,Step-1,Increment      1: Step Time =    1.000,"PART-1-1",           116,            3.,        -5.625,            0.,NA,NA,"",   151.825E-03,  -150.579E-03,   19.4110E-03,   3.81481E-06
C:/temp/dataset/test2/14_3.odb,Step-1,Increment      1: Step Time =    1.000,"PART-1-1",           117,            1.,        -5.625,            0.,NA,NA,"",   150.757E-03,  -150.551E-03,   7.89194E-03,   5.12001E-06
C:/temp/dataset/test2/14_3.odb,Step-1,Increment      1: Step Time =    1.000,"PART-1-1",           118,           -1.,        -5.625,            0.,NA,NA,"",   150.570E-03,  -150.526E-03,  -3.62985E-03,   5.10115E-06
C:/temp/dataset/test2/14_3.odb,Step-1,Increment      1: Step Time =    1.000,"PART-1-1",           119,           -3.,        -5.625,            0.,NA,NA,"",   151.259E-03,  -150.498E-03,  -15.1543E-03,   3.81646E-06
C:/temp/dataset/test2/14_3.odb,Step-1,Increment      1: Step Time =    1.000,"PART-1-1",           120,           -5.,        -5.625,            0.,NA,NA,"",   152.811E-03,  -150.465E-03,  -26.6724E-03,   608.771E-09
C:/temp/dataset/test2/14_3.odb,Step-1,Increment      1: Step Time =    1.000,"PART-1-1",           121,            5.,          -7.5,            0.,NA,NA,"",   143.186E-03,  -139.798E-03,   30.9640E-03,   5.39094E-06
C:/temp/dataset/test2/14_3.odb,Step-1,Increment      1: Step Time =    1.000,"PART-1-1",           122,            3.,          -7.5,            0.,NA,NA,"",   141.109E-03,  -139.763E-03,   19.4419E-03,   11.0797E-06
C:/temp/dataset/test2/14_3.odb,Step-1,Increment      1: Step Time =    1.000,"PART-1-1",           123,            1.,          -7.5,            0.,NA,NA,"",   139.968E-03,  -139.743E-03,   7.93301E-03,   13.5498E-06
C:/temp/dataset/test2/14_3.odb,Step-1,Increment      1: Step Time =    1.000,"PART-1-1",           124,           -1.,          -7.5,            0.,NA,NA,"",   139.777E-03,  -139.731E-03,  -3.58902E-03,   13.4350E-06
C:/temp/dataset/test2/14_3.odb,Step-1,Increment      1: Step Time =    1.000,"PART-1-1",           125,           -3.,          -7.5,            0.,NA,NA,"",   140.527E-03,  -139.710E-03,  -15.1236E-03,   10.9038E-06
C:/temp/dataset/test2/14_3.odb,Step-1,Increment      1: Step Time =    1.000,"PART-1-1",           126,           -5.,          -7.5,            0.,NA,NA,"",   142.194E-03,  -139.675E-03,  -26.6451E-03,   5.44660E-06
C:/temp/dataset/test2/14_3.odb,Step-1,Increment      1: Step Time =    1.000,"PART-1-1",           127,            5.,        -9.375,            0.,NA,NA,"",   132.645E-03,  -128.977E-03,   30.9777E-03,   19.3542E-06
C:/temp/dataset/test2/14_3.odb,Step-1,Increment      1: Step Time =    1.000,"PART-1-1",           128,            3.,        -9.375,            0.,NA,NA,"",   130.399E-03,  -128.937E-03,   19.4726E-03,   26.4001E-06
C:/temp/dataset/test2/14_3.odb,Step-1,Increment      1: Step Time =    1.000,"PART-1-1",           129,            1.,        -9.375,            0.,NA,NA,"",   129.179E-03,  -128.931E-03,   7.98956E-03,   30.1290E-06
C:/temp/dataset/test2/14_3.odb,Step-1,Increment      1: Step Time =    1.000,"PART-1-1",           130,           -1.,        -9.375,            0.,NA,NA,"",   128.990E-03,  -128.941E-03,  -3.53373E-03,   29.4566E-06
C:/temp/dataset/test2/14_3.odb,Step-1,Increment      1: Step Time =    1.000,"PART-1-1",           131,           -3.,        -9.375,            0.,NA,NA,"",   129.813E-03,  -128.932E-03,  -15.0939E-03,   25.0829E-06
C:/temp/dataset/test2/14_3.odb,Step-1,Increment      1: Step Time =    1.000,"PART-1-1",           132,           -5.,        -9.375,            0.,NA,NA,"",   131.614E-03,  -128.892E-03,  -26.6317E-03,   18.9857E-06
C:/temp/dataset/test2/14_3.odb,Step-1,Increment      1: Step Time =    1.000,"PART-1-1",           133,            5.,        -11.25,            0.,NA,NA,"",   122.144E-03,  -118.157E-03,   30.9518E-03,   53.5765E-06
C:/temp/dataset/test2/14_3.odb,Step-1,Increment      1: Step Time =    1.000,"PART-1-1",           134,            3.,        -11.25,            0.,NA,NA,"",   119.704E-03,  -118.104E-03,   19.5029E-03,   53.0365E-06
C:/temp/dataset/test2/14_3.odb,Step-1,Increment      1: Step Time =    1.000,"PART-1-1",           135,            1.,        -11.25,            0.,NA,NA,"",   118.395E-03,  -118.120E-03,   8.07475E-03,   56.1946E-06
C:/temp/dataset/test2/14_3.odb,Step-1,Increment      1: Step Time =    1.000,"PART-1-1",           136,           -1.,        -11.25,            0.,NA,NA,"",   118.207E-03,  -118.156E-03,  -3.45375E-03,   53.4971E-06
C:/temp/dataset/test2/14_3.odb,Step-1,Increment      1: Step Time =    1.000,"PART-1-1",           137,           -3.,        -11.25,            0.,NA,NA,"",   119.116E-03,  -118.159E-03,  -15.0671E-03,   47.2389E-06
C:/temp/dataset/test2/14_3.odb,Step-1,Increment      1: Step Time =    1.000,"PART-1-1",           138,           -5.,        -11.25,            0.,NA,NA,"",   121.074E-03,  -118.104E-03,  -26.6532E-03,   49.0988E-06
C:/temp/dataset/test2/14_3.odb,Step-1,Increment      1: Step Time =    1.000,"PART-1-1",           139,            5.,       -13.125,            0.,NA,NA,"",   111.717E-03,  -107.374E-03,   30.8477E-03,   122.385E-06
C:/temp/dataset/test2/14_3.odb,Step-1,Increment      1: Step Time =    1.000,"PART-1-1",           140,            3.,       -13.125,            0.,NA,NA,"",   109.063E-03,  -107.299E-03,   19.5399E-03,   89.5038E-06
C:/temp/dataset/test2/14_3.odb,Step-1,Increment      1: Step Time =    1.000,"PART-1-1",           141,            1.,       -13.125,            0.,NA,NA,"",   107.641E-03,  -107.328E-03,   8.20157E-03,   83.6530E-06
C:/temp/dataset/test2/14_3.odb,Step-1,Increment      1: Step Time =    1.000,"PART-1-1",           142,           -1.,       -13.125,            0.,NA,NA,"",   107.415E-03,  -107.363E-03,  -3.34443E-03,   74.5796E-06
C:/temp/dataset/test2/14_3.odb,Step-1,Increment      1: Step Time =    1.000,"PART-1-1",           143,           -3.,       -13.125,            0.,NA,NA,"",   108.406E-03,  -107.356E-03,  -15.0474E-03,   67.2879E-06
C:/temp/dataset/test2/14_3.odb,Step-1,Increment      1: Step Time =    1.000,"PART-1-1",           144,           -5.,       -13.125,            0.,NA,NA,"",   110.558E-03,  -107.274E-03,  -26.7440E-03,   101.985E-06
C:/temp/dataset/test2/14_3.odb,Step-1,Increment      1: Step Time =    1.000,"PART-1-1",           145,            5.,          -15.,            0.,NA,NA,"",   101.488E-03,  -96.7819E-03,   30.5455E-03,   261.590E-06
C:/temp/dataset/test2/14_3.odb,Step-1,Increment      1: Step Time =    1.000,"PART-1-1",           146,            3.,          -15.,            0.,NA,NA,"",   98.6119E-03,  -96.6474E-03,   19.5856E-03,   87.7783E-06
C:/temp/dataset/test2/14_3.odb,Step-1,Increment      1: Step Time =    1.000,"PART-1-1",           147,            1.,          -15.,            0.,NA,NA,"",   96.9654E-03,  -96.6053E-03,   8.34862E-03,   98.8190E-06
C:/temp/dataset/test2/14_3.odb,Step-1,Increment      1: Step Time =    1.000,"PART-1-1",           148,           -1.,          -15.,            0.,NA,NA,"",   96.5635E-03,  -96.5093E-03,  -3.23668E-03,   72.2189E-06
C:/temp/dataset/test2/14_3.odb,Step-1,Increment      1: Step Time =    1.000,"PART-1-1",           149,           -3.,          -15.,            0.,NA,NA,"",   97.5902E-03,  -96.4239E-03,  -15.0423E-03,   51.5903E-06
C:/temp/dataset/test2/14_3.odb,Step-1,Increment      1: Step Time =    1.000,"PART-1-1",           150,           -5.,          -15.,            0.,NA,NA,"",   99.9992E-03,  -96.3016E-03,  -26.9412E-03,   167.262E-06
C:/temp/dataset/test2/14_3.odb,Step-1,Increment      1: Step Time =    1.000,"PART-1-1",           151,            5.,       -16.875,            0.,NA,NA,"",   91.8375E-03,  -86.7852E-03,   30.0409E-03,   594.316E-06
C:/temp/dataset/test2/14_3.odb,Step-1,Increment      1: Step Time =    1.000,"PART-1-1",           152,            3.,       -16.875,            0.,NA,NA,"",   88.6714E-03,  -86.4560E-03,   19.6972E-03,   375.082E-06
C:/temp/dataset/test2/14_3.odb,Step-1,Increment      1: Step Time =    1.000,"PART-1-1",           153,            1.,       -16.875,            0.,NA,NA,"",   86.3927E-03,  -85.9882E-03,   8.34998E-03,   356.030E-06
C:/temp/dataset/test2/14_3.odb,Step-1,Increment      1: Step Time =    1.000,"PART-1-1",           154,           -1.,       -16.875,            0.,NA,NA,"",   85.4822E-03,  -85.4210E-03,  -3.23344E-03,   256.018E-06
C:/temp/dataset/test2/14_3.odb,Step-1,Increment      1: Step Time =    1.000,"PART-1-1",           155,           -3.,       -16.875,            0.,NA,NA,"",   86.4604E-03,  -85.1408E-03,  -15.0483E-03,   115.877E-06
C:/temp/dataset/test2/14_3.odb,Step-1,Increment      1: Step Time =    1.000,"PART-1-1",           156,           -5.,       -16.875,            0.,NA,NA,"",   89.2509E-03,  -84.9941E-03,  -27.2345E-03,   188.970E-06
C:/temp/dataset/test2/14_3.odb,Step-1,Increment      1: Step Time =    1.000,"PART-1-1",           157,            5.,        -18.75,            0.,NA,NA,"",   84.8888E-03,  -79.8278E-03,   28.8727E-03,   1.62716E-03
C:/temp/dataset/test2/14_3.odb,Step-1,Increment      1: Step Time =    1.000,"PART-1-1",           158,            3.,        -18.75,            0.,NA,NA,"",   79.7082E-03,  -77.3770E-03,   19.1360E-03,   1.74156E-03
C:/temp/dataset/test2/14_3.odb,Step-1,Increment      1: Step Time =    1.000,"PART-1-1",           159,            1.,        -18.75,            0.,NA,NA,"",   75.4826E-03,  -75.0865E-03,   7.72300E-03,   1.12775E-03
C:/temp/dataset/test2/14_3.odb,Step-1,Increment      1: Step Time =    1.000,"PART-1-1",           160,           -1.,        -18.75,            0.,NA,NA,"",   73.7640E-03,  -73.6818E-03,  -3.48021E-03,   783.684E-06
C:/temp/dataset/test2/14_3.odb,Step-1,Increment      1: Step Time =    1.000,"PART-1-1",           161,           -3.,        -18.75,            0.,NA,NA,"",   74.6886E-03,  -73.1673E-03,  -14.9974E-03,   468.828E-06
C:/temp/dataset/test2/14_3.odb,Step-1,Increment      1: Step Time =    1.000,"PART-1-1",           162,           -5.,        -18.75,            0.,NA,NA,"",   78.0876E-03,  -73.0972E-03,  -27.4677E-03,   52.4866E-06
C:/temp/dataset/test2/14_3.odb,Step-1,Increment      1: Step Time =    1.000,"PART-1-1",           163,            5.,       -20.625,            0.,NA,NA,"",   76.9866E-03,  -71.1359E-03,   29.4384E-03,   3.19832E-03
C:/temp/dataset/test2/14_3.odb,Step-1,Increment      1: Step Time =    1.000,"PART-1-1",           164,            3.,       -20.625,            0.,NA,NA,"",   68.5871E-03,  -66.4696E-03,   16.9110E-03,   3.23732E-03
C:/temp/dataset/test2/14_3.odb,Step-1,Increment      1: Step Time =    1.000,"PART-1-1",           165,            1.,       -20.625,            0.,NA,NA,"",   62.9049E-03,  -62.5991E-03,   6.19562E-03,   2.17201E-03
C:/temp/dataset/test2/14_3.odb,Step-1,Increment      1: Step Time =    1.000,"PART-1-1",           166,           -1.,       -20.625,            0.,NA,NA,"",   60.8426E-03,  -60.7157E-03,  -3.92730E-03,   1.56098E-03
C:/temp/dataset/test2/14_3.odb,Step-1,Increment      1: Step Time =    1.000,"PART-1-1",           167,           -3.,       -20.625,            0.,NA,NA,"",   61.9782E-03,  -60.2161E-03,  -14.6739E-03,   1.03792E-03
C:/temp/dataset/test2/14_3.odb,Step-1,Increment      1: Step Time =    1.000,"PART-1-1",           168,           -5.,       -20.625,            0.,NA,NA,"",   66.3065E-03,  -60.4519E-03,  -27.2421E-03,   400.181E-06
C:/temp/dataset/test2/14_3.odb,Step-1,Increment      1: Step Time =    1.000,"PART-1-1",           169,            5.,         -22.5,            0.,NA,NA,"",   61.2433E-03,  -53.9440E-03,   28.9964E-03,   2.21543E-03
C:/temp/dataset/test2/14_3.odb,Step-1,Increment      1: Step Time =    1.000,"PART-1-1",           170,            3.,         -22.5,            0.,NA,NA,"",   52.4710E-03,  -50.5497E-03,   14.0687E-03,   3.47067E-03
C:/temp/dataset/test2/14_3.odb,Step-1,Increment      1: Step Time =    1.000,"PART-1-1",           171,            1.,         -22.5,            0.,NA,NA,"",   48.0199E-03,  -47.8120E-03,   4.46431E-03,   2.93178E-03
C:/temp/dataset/test2/14_3.odb,Step-1,Increment      1: Step Time =    1.000,"PART-1-1",           172,           -1.,         -22.5,            0.,NA,NA,"",   46.6118E-03,  -46.4268E-03,  -4.14808E-03,   2.31706E-03
C:/temp/dataset/test2/14_3.odb,Step-1,Increment      1: Step Time =    1.000,"PART-1-1",           173,           -3.,         -22.5,            0.,NA,NA,"",   48.3686E-03,  -46.3881E-03,  -13.6992E-03,   1.71549E-03
C:/temp/dataset/test2/14_3.odb,Step-1,Increment      1: Step Time =    1.000,"PART-1-1",           174,           -5.,         -22.5,            0.,NA,NA,"",   53.8895E-03,  -47.2254E-03,  -25.9584E-03,   1.20322E-03
C:/temp/dataset/test2/14_3.odb,Step-1,Increment      1: Step Time =    1.000,"PART-1-1",           175,            5.,       -24.375,            0.,NA,NA,"",   43.4890E-03,  -35.7880E-03,   24.7086E-03,   2.95485E-03
C:/temp/dataset/test2/14_3.odb,Step-1,Increment      1: Step Time =    1.000,"PART-1-1",           176,            3.,       -24.375,            0.,NA,NA,"",   35.5743E-03,  -33.6159E-03,   11.6407E-03,   2.56580E-03
C:/temp/dataset/test2/14_3.odb,Step-1,Increment      1: Step Time =    1.000,"PART-1-1",           177,            1.,       -24.375,            0.,NA,NA,"",   32.4180E-03,  -32.2568E-03,   3.22867E-03,   3.09438E-03
C:/temp/dataset/test2/14_3.odb,Step-1,Increment      1: Step Time =    1.000,"PART-1-1",           178,           -1.,       -24.375,            0.,NA,NA,"",   31.9416E-03,  -31.7221E-03,  -3.73853E-03,   2.82523E-03
C:/temp/dataset/test2/14_3.odb,Step-1,Increment      1: Step Time =    1.000,"PART-1-1",           179,           -3.,       -24.375,            0.,NA,NA,"",   34.4374E-03,  -32.3785E-03,  -11.7288E-03,   2.37640E-03
C:/temp/dataset/test2/14_3.odb,Step-1,Increment      1: Step Time =    1.000,"PART-1-1",           180,           -5.,       -24.375,            0.,NA,NA,"",   41.1048E-03,  -34.0543E-03,  -23.0198E-03,   2.32679E-03
C:/temp/dataset/test2/14_3.odb,Step-1,Increment      1: Step Time =    1.000,"PART-1-1",           181,            5.,        -26.25,            0.,NA,NA,"",   29.1267E-03,  -22.1147E-03,   18.9553E-03,   3.93602E-03
C:/temp/dataset/test2/14_3.odb,Step-1,Increment      1: Step Time =    1.000,"PART-1-1",           182,            3.,        -26.25,            0.,NA,NA,"",   21.0994E-03,  -19.3209E-03,   8.47850E-03,   3.05028E-03
C:/temp/dataset/test2/14_3.odb,Step-1,Increment      1: Step Time =    1.000,"PART-1-1",           183,            1.,        -26.25,            0.,NA,NA,"",   18.1889E-03,  -18.0589E-03,   2.17095E-03,   2.91481E-03
C:/temp/dataset/test2/14_3.odb,Step-1,Increment      1: Step Time =    1.000,"PART-1-1",           184,           -1.,        -26.25,            0.,NA,NA,"",   18.1919E-03,  -17.9999E-03,  -2.63634E-03,   2.94156E-03
C:/temp/dataset/test2/14_3.odb,Step-1,Increment      1: Step Time =    1.000,"PART-1-1",           185,           -3.,        -26.25,            0.,NA,NA,"",   20.9622E-03,  -19.1865E-03,  -8.44359E-03,   3.13229E-03
C:/temp/dataset/test2/14_3.odb,Step-1,Increment      1: Step Time =    1.000,"PART-1-1",           186,           -5.,        -26.25,            0.,NA,NA,"",   28.2673E-03,  -21.7207E-03,  -18.0901E-03,   3.47628E-03
C:/temp/dataset/test2/14_3.odb,Step-1,Increment      1: Step Time =    1.000,"PART-1-1",           187,            5.,       -28.125,            0.,NA,NA,"",   15.8189E-03,  -11.0122E-03,   11.3564E-03,   5.70866E-03
C:/temp/dataset/test2/14_3.odb,Step-1,Increment      1: Step Time =    1.000,"PART-1-1",           188,            3.,       -28.125,            0.,NA,NA,"",   9.08273E-03,  -7.90517E-03,   4.47261E-03,   3.74739E-03
C:/temp/dataset/test2/14_3.odb,Step-1,Increment      1: Step Time =    1.000,"PART-1-1",           189,            1.,       -28.125,            0.,NA,NA,"",   6.79513E-03,  -6.71240E-03,   1.05711E-03,   2.64652E-03
C:/temp/dataset/test2/14_3.odb,Step-1,Increment      1: Step Time =    1.000,"PART-1-1",           190,           -1.,       -28.125,            0.,NA,NA,"",   6.89021E-03,  -6.77456E-03,  -1.25710E-03,   2.73063E-03
C:/temp/dataset/test2/14_3.odb,Step-1,Increment      1: Step Time =    1.000,"PART-1-1",           191,           -3.,       -28.125,            0.,NA,NA,"",   9.16467E-03,  -8.02159E-03,  -4.43229E-03,   3.81072E-03
C:/temp/dataset/test2/14_3.odb,Step-1,Increment      1: Step Time =    1.000,"PART-1-1",           192,           -5.,       -28.125,            0.,NA,NA,"",   15.6004E-03,  -10.9834E-03,  -11.0787E-03,   5.43674E-03
C:/temp/dataset/test2/14_3.odb,Step-1,Increment      1: Step Time =    1.000,"PART-1-1",           193,            5.,          -30.,            0.,NA,NA,"",            0.,  -2.11128E-39,   3.68604E-39,   8.85531E-03
C:/temp/dataset/test2/14_3.odb,Step-1,Increment      1: Step Time =    1.000,"PART-1-1",           194,            3.,          -30.,            0.,NA,NA,"",            0.,  -1.79207E-39,   2.88777E-39,   2.40013E-03
C:/temp/dataset/test2/14_3.odb,Step-1,Increment      1: Step Time =    1.000,"PART-1-1",           195,            1.,          -30.,            0.,NA,NA,"",            0.,  -839.924E-42,   989.041E-42,   1.52271E-03
C:/temp/dataset/test2/14_3.odb,Step-1,Increment      1: Step Time =    1.000,"PART-1-1",           196,           -1.,          -30.,            0.,NA,NA,"",            0.,  -561.635E-42,  -504.358E-42,   1.61563E-03
C:/temp/dataset/test2/14_3.odb,Step-1,Increment      1: Step Time =    1.000,"PART-1-1",           197,           -3.,          -30.,            0.,NA,NA,"",            0.,  -1.57063E-39,  -2.31261E-39,   2.41258E-03
C:/temp/dataset/test2/14_3.odb,Step-1,Increment      1: Step Time =    1.000,"PART-1-1",           198,           -5.,          -30.,            0.,NA,NA,"",            0.,  -2.08575E-39,  -3.61345E-39,   8.72609E-03
C:/temp/dataset/test2/14_3.odb,Step-1,Increment      1: Step Time =    1.000,"PART-1-1",           199,            4.,           30.,            0.,NA,NA,"",   356.683E-03,  -355.835E-03,   24.5804E-03,   1.29623E-09
C:/temp/dataset/test2/14_3.odb,Step-1,Increment      1: Step Time =    1.000,"PART-1-1",           200,            3.,       29.0625,            0.,NA,NA,"",   350.923E-03,  -350.417E-03,   18.8352E-03,   1.46241E-09
C:/temp/dataset/test2/14_3.odb,Step-1,Increment      1: Step Time =    1.000,"PART-1-1",           201,            4.,        28.125,            0.,NA,NA,"",   345.910E-03,  -345.033E-03,   24.6116E-03,   1.87485E-09
C:/temp/dataset/test2/14_3.odb,Step-1,Increment      1: Step Time =    1.000,"PART-1-1",           202,            5.,       29.0625,            0.,NA,NA,"",   351.763E-03,  -350.451E-03,   30.3568E-03,   1.95784E-09
C:/temp/dataset/test2/14_3.odb,Step-1,Increment      1: Step Time =    1.000,"PART-1-1",           203,            2.,           30.,            0.,NA,NA,"",   356.041E-03,  -355.802E-03,   13.0588E-03,   1.38330E-09
C:/temp/dataset/test2/14_3.odb,Step-1,Increment      1: Step Time =    1.000,"PART-1-1",           204,            1.,       29.0625,            0.,NA,NA,"",   350.461E-03,  -350.384E-03,   7.31352E-03,   1.66546E-09
C:/temp/dataset/test2/14_3.odb,Step-1,Increment      1: Step Time =    1.000,"PART-1-1",           205,            2.,        28.125,            0.,NA,NA,"",   345.248E-03,  -345.000E-03,   13.0899E-03,   1.77830E-09
C:/temp/dataset/test2/14_3.odb,Step-1,Increment      1: Step Time =    1.000,"PART-1-1",           206,            0.,           30.,            0.,NA,NA,"",   355.772E-03,  -355.768E-03,   1.53714E-03,   1.56930E-09
C:/temp/dataset/test2/14_3.odb,Step-1,Increment      1: Step Time =    1.000,"PART-1-1",           207,           -1.,       29.0625,            0.,NA,NA,"",   350.376E-03,  -350.351E-03,  -4.20813E-03,   1.81747E-09
C:/temp/dataset/test2/14_3.odb,Step-1,Increment      1: Step Time =    1.000,"PART-1-1",           208,            0.,        28.125,            0.,NA,NA,"",   344.970E-03,  -344.967E-03,   1.56826E-03,   1.90014E-09
C:/temp/dataset/test2/14_3.odb,Step-1,Increment      1: Step Time =    1.000,"PART-1-1",           209,           -2.,           30.,            0.,NA,NA,"",   355.875E-03,  -355.735E-03,  -9.98451E-03,   1.92792E-09
C:/temp/dataset/test2/14_3.odb,Step-1,Increment      1: Step Time =    1.000,"PART-1-1",           210,           -3.,       29.0625,            0.,NA,NA,"",   350.671E-03,  -350.318E-03,  -15.7298E-03,   1.83176E-09
C:/temp/dataset/test2/14_3.odb,Step-1,Increment      1: Step Time =    1.000,"PART-1-1",           211,           -2.,        28.125,            0.,NA,NA,"",   345.077E-03,  -344.934E-03,  -9.95340E-03,   1.67374E-09
C:/temp/dataset/test2/14_3.odb,Step-1,Increment      1: Step Time =    1.000,"PART-1-1",           212,           -4.,           30.,            0.,NA,NA,"",   356.352E-03,  -355.702E-03,  -21.5062E-03,   1.95238E-09
C:/temp/dataset/test2/14_3.odb,Step-1,Increment      1: Step Time =    1.000,"PART-1-1",           213,           -5.,       29.0625,            0.,NA,NA,"",   351.343E-03,  -350.285E-03,  -27.2514E-03,   1.34050E-09
C:/temp/dataset/test2/14_3.odb,Step-1,Increment      1: Step Time =    1.000,"PART-1-1",           214,           -4.,        28.125,            0.,NA,NA,"",   345.568E-03,  -344.901E-03,  -21.4750E-03,   1.15098E-09
C:/temp/dataset/test2/14_3.odb,Step-1,Increment      1: Step Time =    1.000,"PART-1-1",           215,            3.,       27.1875,            0.,NA,NA,"",   340.140E-03,  -339.616E-03,   18.8663E-03,   1.85527E-09
C:/temp/dataset/test2/14_3.odb,Step-1,Increment      1: Step Time =    1.000,"PART-1-1",           216,            4.,         26.25,            0.,NA,NA,"",   335.139E-03,  -334.232E-03,   24.6427E-03,   2.31331E-09
C:/temp/dataset/test2/14_3.odb,Step-1,Increment      1: Step Time =    1.000,"PART-1-1",           217,            5.,       27.1875,            0.,NA,NA,"",   341.006E-03,  -339.649E-03,   30.3879E-03,   2.45002E-09
C:/temp/dataset/test2/14_3.odb,Step-1,Increment      1: Step Time =    1.000,"PART-1-1",           218,            1.,       27.1875,            0.,NA,NA,"",   339.662E-03,  -339.583E-03,   7.34464E-03,   1.94644E-09
C:/temp/dataset/test2/14_3.odb,Step-1,Increment      1: Step Time =    1.000,"PART-1-1",           219,            2.,         26.25,            0.,NA,NA,"",   334.456E-03,  -334.199E-03,   13.1210E-03,   1.97863E-09
C:/temp/dataset/test2/14_3.odb,Step-1,Increment      1: Step Time =    1.000,"PART-1-1",           220,           -1.,       27.1875,            0.,NA,NA,"",   339.575E-03,  -339.550E-03,  -4.17701E-03,   1.83584E-09
C:/temp/dataset/test2/14_3.odb,Step-1,Increment      1: Step Time =    1.000,"PART-1-1",           221,            0.,         26.25,            0.,NA,NA,"",   334.169E-03,  -334.165E-03,   1.59937E-03,   1.88323E-09
C:/temp/dataset/test2/14_3.odb,Step-1,Increment      1: Step Time =    1.000,"PART-1-1",           222,           -3.,       27.1875,            0.,NA,NA,"",   339.879E-03,  -339.516E-03,  -15.6987E-03,   1.31386E-09
C:/temp/dataset/test2/14_3.odb,Step-1,Increment      1: Step Time =    1.000,"PART-1-1",           223,           -2.,         26.25,            0.,NA,NA,"",   334.279E-03,  -334.132E-03,  -9.92228E-03,   1.49217E-09
C:/temp/dataset/test2/14_3.odb,Step-1,Increment      1: Step Time =    1.000,"PART-1-1",           224,           -5.,       27.1875,            0.,NA,NA,"",   340.573E-03,  -339.483E-03,  -27.2203E-03,   1.51879E-09
C:/temp/dataset/test2/14_3.odb,Step-1,Increment      1: Step Time =    1.000,"PART-1-1",           225,           -4.,         26.25,            0.,NA,NA,"",   334.786E-03,  -334.099E-03,  -21.4439E-03,   1.31777E-09
C:/temp/dataset/test2/14_3.odb,Step-1,Increment      1: Step Time =    1.000,"PART-1-1",           226,            3.,       25.3125,            0.,NA,NA,"",   329.357E-03,  -328.814E-03,   18.8974E-03,   2.26983E-09
C:/temp/dataset/test2/14_3.odb,Step-1,Increment      1: Step Time =    1.000,"PART-1-1",           227,            4.,        24.375,            0.,NA,NA,"",   324.370E-03,  -323.430E-03,   24.6738E-03,   2.83798E-09
C:/temp/dataset/test2/14_3.odb,Step-1,Increment      1: Step Time =    1.000,"PART-1-1",           228,            5.,       25.3125,            0.,NA,NA,"",   330.251E-03,  -328.848E-03,   30.4191E-03,   3.00708E-09
C:/temp/dataset/test2/14_3.odb,Step-1,Increment      1: Step Time =    1.000,"PART-1-1",           229,            1.,       25.3125,            0.,NA,NA,"",   328.864E-03,  -328.781E-03,   7.37575E-03,   2.02253E-09
C:/temp/dataset/test2/14_3.odb,Step-1,Increment      1: Step Time =    1.000,"PART-1-1",           230,            2.,        24.375,            0.,NA,NA,"",   323.664E-03,  -323.397E-03,   13.1521E-03,   2.20456E-09
C:/temp/dataset/test2/14_3.odb,Step-1,Increment      1: Step Time =    1.000,"PART-1-1",           231,           -1.,       25.3125,            0.,NA,NA,"",   328.774E-03,  -328.748E-03,  -4.14590E-03,   1.74639E-09
C:/temp/dataset/test2/14_3.odb,Step-1,Increment      1: Step Time =    1.000,"PART-1-1",           232,            0.,        24.375,            0.,NA,NA,"",   323.368E-03,  -323.364E-03,   1.63048E-03,   1.84279E-09
C:/temp/dataset/test2/14_3.odb,Step-1,Increment      1: Step Time =    1.000,"PART-1-1",           233,           -3.,       25.3125,            0.,NA,NA,"",   329.088E-03,  -328.715E-03,  -15.6676E-03,   1.38518E-09
C:/temp/dataset/test2/14_3.odb,Step-1,Increment      1: Step Time =    1.000,"PART-1-1",           234,           -2.,        24.375,            0.,NA,NA,"",   323.482E-03,  -323.331E-03,  -9.89117E-03,   1.50456E-09
C:/temp/dataset/test2/14_3.odb,Step-1,Increment      1: Step Time =    1.000,"PART-1-1",           235,           -5.,       25.3125,            0.,NA,NA,"",   329.804E-03,  -328.682E-03,  -27.1892E-03,   1.84880E-09
C:/temp/dataset/test2/14_3.odb,Step-1,Increment      1: Step Time =    1.000,"PART-1-1",           236,           -4.,        24.375,            0.,NA,NA,"",   324.006E-03,  -323.297E-03,  -21.4128E-03,   1.67002E-09
C:/temp/dataset/test2/14_3.odb,Step-1,Increment      1: Step Time =    1.000,"PART-1-1",           237,            3.,       23.4375,            0.,NA,NA,"",   318.576E-03,  -318.013E-03,   18.9285E-03,   2.67489E-09
C:/temp/dataset/test2/14_3.odb,Step-1,Increment      1: Step Time =    1.000,"PART-1-1",           238,            4.,          22.5,            0.,NA,NA,"",   313.603E-03,  -312.629E-03,   24.7049E-03,   3.39408E-09
C:/temp/dataset/test2/14_3.odb,Step-1,Increment      1: Step Time =    1.000,"PART-1-1",           239,            5.,       23.4375,            0.,NA,NA,"",   319.500E-03,  -318.046E-03,   30.4502E-03,   3.66786E-09
C:/temp/dataset/test2/14_3.odb,Step-1,Increment      1: Step Time =    1.000,"PART-1-1",           240,            1.,       23.4375,            0.,NA,NA,"",   318.066E-03,  -317.980E-03,   7.40687E-03,   2.09262E-09
C:/temp/dataset/test2/14_3.odb,Step-1,Increment      1: Step Time =    1.000,"PART-1-1",           241,            2.,          22.5,            0.,NA,NA,"",   312.873E-03,  -312.595E-03,   13.1833E-03,   2.44267E-09
C:/temp/dataset/test2/14_3.odb,Step-1,Increment      1: Step Time =    1.000,"PART-1-1",           242,           -1.,       23.4375,            0.,NA,NA,"",   317.973E-03,  -317.946E-03,  -4.11479E-03,   1.69866E-09
C:/temp/dataset/test2/14_3.odb,Step-1,Increment      1: Step Time =    1.000,"PART-1-1",           243,            0.,          22.5,            0.,NA,NA,"",   312.567E-03,  -312.562E-03,   1.66160E-03,   1.82479E-09
C:/temp/dataset/test2/14_3.odb,Step-1,Increment      1: Step Time =    1.000,"PART-1-1",           244,           -3.,       23.4375,            0.,NA,NA,"",   318.298E-03,  -317.913E-03,  -15.6364E-03,   1.62061E-09
C:/temp/dataset/test2/14_3.odb,Step-1,Increment      1: Step Time =    1.000,"PART-1-1",           245,           -2.,          22.5,            0.,NA,NA,"",   312.685E-03,  -312.529E-03,  -9.86006E-03,   1.58520E-09
C:/temp/dataset/test2/14_3.odb,Step-1,Increment      1: Step Time =    1.000,"PART-1-1",           246,           -5.,       23.4375,            0.,NA,NA,"",   319.038E-03,  -317.880E-03,  -27.1581E-03,   2.40970E-09
C:/temp/dataset/test2/14_3.odb,Step-1,Increment      1: Step Time =    1.000,"PART-1-1",           247,           -4.,          22.5,            0.,NA,NA,"",   313.227E-03,  -312.496E-03,  -21.3817E-03,   2.14304E-09
C:/temp/dataset/test2/14_3.odb,Step-1,Increment      1: Step Time =    1.000,"PART-1-1",           248,            3.,       21.5625,            0.,NA,NA,"",   307.796E-03,  -307.211E-03,   18.9596E-03,   3.07863E-09
C:/temp/dataset/test2/14_3.odb,Step-1,Increment      1: Step Time =    1.000,"PART-1-1",           249,            4.,        20.625,            0.,NA,NA,"",   302.839E-03,  -301.827E-03,   24.7360E-03,   3.95441E-09
C:/temp/dataset/test2/14_3.odb,Step-1,Increment      1: Step Time =    1.000,"PART-1-1",           250,            5.,       21.5625,            0.,NA,NA,"",   308.753E-03,  -307.244E-03,   30.4813E-03,   4.36557E-09
C:/temp/dataset/test2/14_3.odb,Step-1,Increment      1: Step Time =    1.000,"PART-1-1",           251,            1.,       21.5625,            0.,NA,NA,"",   307.268E-03,  -307.178E-03,   7.43798E-03,   2.18264E-09
C:/temp/dataset/test2/14_3.odb,Step-1,Increment      1: Step Time =    1.000,"PART-1-1",           252,            2.,        20.625,            0.,NA,NA,"",   302.083E-03,  -301.794E-03,   13.2144E-03,   2.69268E-09
C:/temp/dataset/test2/14_3.odb,Step-1,Increment      1: Step Time =    1.000,"PART-1-1",           253,           -1.,       21.5625,            0.,NA,NA,"",   307.172E-03,  -307.145E-03,  -4.08367E-03,   1.68116E-09
C:/temp/dataset/test2/14_3.odb,Step-1,Increment      1: Step Time =    1.000,"PART-1-1",           254,            0.,        20.625,            0.,NA,NA,"",   301.766E-03,  -301.761E-03,   1.69271E-03,   1.81942E-09
C:/temp/dataset/test2/14_3.odb,Step-1,Increment      1: Step Time =    1.000,"PART-1-1",           255,           -3.,       21.5625,            0.,NA,NA,"",   307.508E-03,  -307.112E-03,  -15.6053E-03,   1.93754E-09
C:/temp/dataset/test2/14_3.odb,Step-1,Increment      1: Step Time =    1.000,"PART-1-1",           256,           -2.,        20.625,            0.,NA,NA,"",   301.888E-03,  -301.728E-03,  -9.82895E-03,   1.71005E-09
C:/temp/dataset/test2/14_3.odb,Step-1,Increment      1: Step Time =    1.000,"PART-1-1",           257,           -5.,       21.5625,            0.,NA,NA,"",   308.274E-03,  -307.079E-03,  -27.1270E-03,   3.08698E-09
C:/temp/dataset/test2/14_3.odb,Step-1,Increment      1: Step Time =    1.000,"PART-1-1",           258,           -4.,        20.625,            0.,NA,NA,"",   302.449E-03,  -301.694E-03,  -21.3506E-03,   2.68890E-09
C:/temp/dataset/test2/14_3.odb,Step-1,Increment      1: Step Time =    1.000,"PART-1-1",           259,            3.,       19.6875,            0.,NA,NA,"",   297.017E-03,  -296.410E-03,   18.9908E-03,   3.48224E-09
C:/temp/dataset/test2/14_3.odb,Step-1,Increment      1: Step Time =    1.000,"PART-1-1",           260,            4.,         18.75,            0.,NA,NA,"",   292.078E-03,  -291.026E-03,   24.7671E-03,   4.49151E-09
C:/temp/dataset/test2/14_3.odb,Step-1,Increment      1: Step Time =    1.000,"PART-1-1",           261,            5.,       19.6875,            0.,NA,NA,"",   298.009E-03,  -296.443E-03,   30.5124E-03,   5.04219E-09
C:/temp/dataset/test2/14_3.odb,Step-1,Increment      1: Step Time =    1.000,"PART-1-1",           262,            1.,       19.6875,            0.,NA,NA,"",   296.471E-03,  -296.377E-03,   7.46910E-03,   2.29540E-09
C:/temp/dataset/test2/14_3.odb,Step-1,Increment      1: Step Time =    1.000,"PART-1-1",           263,            2.,         18.75,            0.,NA,NA,"",   291.294E-03,  -290.992E-03,   13.2455E-03,   2.96359E-09
C:/temp/dataset/test2/14_3.odb,Step-1,Increment      1: Step Time =    1.000,"PART-1-1",           264,           -1.,       19.6875,            0.,NA,NA,"",   296.371E-03,  -296.343E-03,  -4.05256E-03,   1.68102E-09
C:/temp/dataset/test2/14_3.odb,Step-1,Increment      1: Step Time =    1.000,"PART-1-1",           265,            0.,         18.75,            0.,NA,NA,"",   290.964E-03,  -290.959E-03,   1.72383E-03,   1.82991E-09
C:/temp/dataset/test2/14_3.odb,Step-1,Increment      1: Step Time =    1.000,"PART-1-1",           266,           -3.,       19.6875,            0.,NA,NA,"",   296.719E-03,  -296.310E-03,  -15.5742E-03,   2.30959E-09
C:/temp/dataset/test2/14_3.odb,Step-1,Increment      1: Step Time =    1.000,"PART-1-1",           267,           -2.,         18.75,            0.,NA,NA,"",   291.091E-03,  -290.926E-03,  -9.79783E-03,   1.86810E-09
C:/temp/dataset/test2/14_3.odb,Step-1,Increment      1: Step Time =    1.000,"PART-1-1",           268,           -5.,       19.6875,            0.,NA,NA,"",   297.513E-03,  -296.277E-03,  -27.0959E-03,   3.85356E-09
C:/temp/dataset/test2/14_3.odb,Step-1,Increment      1: Step Time =    1.000,"PART-1-1",           269,           -4.,         18.75,            0.,NA,NA,"",   291.673E-03,  -290.893E-03,  -21.3195E-03,   3.29941E-09
C:/temp/dataset/test2/14_3.odb,Step-1,Increment      1: Step Time =    1.000,"PART-1-1",           270,            3.,       17.8125,            0.,NA,NA,"",   286.241E-03,  -285.608E-03,   19.0219E-03,   3.88870E-09
C:/temp/dataset/test2/14_3.odb,Step-1,Increment      1: Step Time =    1.000,"PART-1-1",           271,            4.,        16.875,            0.,NA,NA,"",   281.319E-03,  -280.224E-03,   24.7983E-03,   4.97115E-09
C:/temp/dataset/test2/14_3.odb,Step-1,Increment      1: Step Time =    1.000,"PART-1-1",           272,            5.,       17.8125,            0.,NA,NA,"",   287.270E-03,  -285.641E-03,   30.5435E-03,   5.63625E-09
C:/temp/dataset/test2/14_3.odb,Step-1,Increment      1: Step Time =    1.000,"PART-1-1",           273,            1.,       17.8125,            0.,NA,NA,"",   285.673E-03,  -285.575E-03,   7.50022E-03,   2.45550E-09
C:/temp/dataset/test2/14_3.odb,Step-1,Increment      1: Step Time =    1.000,"PART-1-1",           274,            2.,        16.875,            0.,NA,NA,"",   280.505E-03,  -280.191E-03,   13.2766E-03,   3.27469E-09
C:/temp/dataset/test2/14_3.odb,Step-1,Increment      1: Step Time =    1.000,"PART-1-1",           275,           -1.,       17.8125,            0.,NA,NA,"",   285.570E-03,  -285.542E-03,  -4.02145E-03,   1.69927E-09
C:/temp/dataset/test2/14_3.odb,Step-1,Increment      1: Step Time =    1.000,"PART-1-1",           276,            0.,        16.875,            0.,NA,NA,"",   280.163E-03,  -280.158E-03,   1.75494E-03,   1.88374E-09
C:/temp/dataset/test2/14_3.odb,Step-1,Increment      1: Step Time =    1.000,"PART-1-1",           277,           -3.,       17.8125,            0.,NA,NA,"",   285.931E-03,  -285.509E-03,  -15.5431E-03,   2.73003E-09
C:/temp/dataset/test2/14_3.odb,Step-1,Increment      1: Step Time =    1.000,"PART-1-1",           278,           -2.,        16.875,            0.,NA,NA,"",   280.295E-03,  -280.124E-03,  -9.76672E-03,   2.05332E-09
C:/temp/dataset/test2/14_3.odb,Step-1,Increment      1: Step Time =    1.000,"PART-1-1",           279,           -5.,       17.8125,            0.,NA,NA,"",   286.756E-03,  -285.475E-03,  -27.0648E-03,   4.73486E-09
C:/temp/dataset/test2/14_3.odb,Step-1,Increment      1: Step Time =    1.000,"PART-1-1",           280,           -4.,        16.875,            0.,NA,NA,"",   280.899E-03,  -280.091E-03,  -21.2884E-03,   3.99596E-09
C:/temp/dataset/test2/14_3.odb,Step-1,Increment      1: Step Time =    1.000,"PART-1-1",           281,            3.,       15.9375,            0.,NA,NA,"",   275.466E-03,  -274.807E-03,   19.0530E-03,   4.31210E-09
C:/temp/dataset/test2/14_3.odb,Step-1,Increment      1: Step Time =    1.000,"PART-1-1",           282,            4.,           15.,            0.,NA,NA,"",   270.564E-03,  -269.422E-03,   24.8294E-03,   5.35907E-09
C:/temp/dataset/test2/14_3.odb,Step-1,Increment      1: Step Time =    1.000,"PART-1-1",           283,            5.,       15.9375,            0.,NA,NA,"",   276.535E-03,  -274.840E-03,   30.5747E-03,   6.06990E-09
C:/temp/dataset/test2/14_3.odb,Step-1,Increment      1: Step Time =    1.000,"PART-1-1",           284,            1.,       15.9375,            0.,NA,NA,"",   274.877E-03,  -274.773E-03,   7.53133E-03,   2.69761E-09
C:/temp/dataset/test2/14_3.odb,Step-1,Increment      1: Step Time =    1.000,"PART-1-1",           285,            2.,           15.,            0.,NA,NA,"",   269.718E-03,  -269.389E-03,   13.3077E-03,   3.64484E-09
C:/temp/dataset/test2/14_3.odb,Step-1,Increment      1: Step Time =    1.000,"PART-1-1",           286,           -1.,       15.9375,            0.,NA,NA,"",   274.769E-03,  -274.740E-03,  -3.99033E-03,   1.75326E-09
C:/temp/dataset/test2/14_3.odb,Step-1,Increment      1: Step Time =    1.000,"PART-1-1",           287,            0.,           15.,            0.,NA,NA,"",   269.362E-03,  -269.356E-03,   1.78606E-03,   2.02041E-09
C:/temp/dataset/test2/14_3.odb,Step-1,Increment      1: Step Time =    1.000,"PART-1-1",           288,           -3.,       15.9375,            0.,NA,NA,"",   275.145E-03,  -274.707E-03,  -15.5120E-03,   3.18945E-09
C:/temp/dataset/test2/14_3.odb,Step-1,Increment      1: Step Time =    1.000,"PART-1-1",           289,           -2.,           15.,            0.,NA,NA,"",   269.499E-03,  -269.323E-03,  -9.73561E-03,   2.26817E-09
C:/temp/dataset/test2/14_3.odb,Step-1,Increment      1: Step Time =    1.000,"PART-1-1",           290,           -5.,       15.9375,            0.,NA,NA,"",   276.001E-03,  -274.674E-03,  -27.0337E-03,   5.79544E-09
C:/temp/dataset/test2/14_3.odb,Step-1,Increment      1: Step Time =    1.000,"PART-1-1",           291,           -4.,           15.,            0.,NA,NA,"",   270.127E-03,  -269.290E-03,  -21.2573E-03,   4.81221E-09
C:/temp/dataset/test2/14_3.odb,Step-1,Increment      1: Step Time =    1.000,"PART-1-1",           292,            3.,       14.0625,            0.,NA,NA,"",   264.694E-03,  -264.005E-03,   19.0841E-03,   4.78492E-09
C:/temp/dataset/test2/14_3.odb,Step-1,Increment      1: Step Time =    1.000,"PART-1-1",           293,            4.,        13.125,            0.,NA,NA,"",   259.813E-03,  -258.621E-03,   24.8605E-03,   5.66602E-09
C:/temp/dataset/test2/14_3.odb,Step-1,Increment      1: Step Time =    1.000,"PART-1-1",           294,            5.,       14.0625,            0.,NA,NA,"",   265.806E-03,  -264.038E-03,   30.6058E-03,   6.28954E-09
C:/temp/dataset/test2/14_3.odb,Step-1,Increment      1: Step Time =    1.000,"PART-1-1",           295,            1.,       14.0625,            0.,NA,NA,"",   264.080E-03,  -263.972E-03,   7.56245E-03,   3.01415E-09
C:/temp/dataset/test2/14_3.odb,Step-1,Increment      1: Step Time =    1.000,"PART-1-1",           296,            2.,        13.125,            0.,NA,NA,"",   258.931E-03,  -258.588E-03,   13.3388E-03,   4.05198E-09
C:/temp/dataset/test2/14_3.odb,Step-1,Increment      1: Step Time =    1.000,"PART-1-1",           297,           -1.,       14.0625,            0.,NA,NA,"",   263.968E-03,  -263.939E-03,  -3.95922E-03,   1.87798E-09
C:/temp/dataset/test2/14_3.odb,Step-1,Increment      1: Step Time =    1.000,"PART-1-1",           298,            0.,        13.125,            0.,NA,NA,"",   258.561E-03,  -258.554E-03,   1.81717E-03,   2.26286E-09
C:/temp/dataset/test2/14_3.odb,Step-1,Increment      1: Step Time =    1.000,"PART-1-1",           299,           -3.,       14.0625,            0.,NA,NA,"",   264.359E-03,  -263.905E-03,  -15.4809E-03,   3.63806E-09
C:/temp/dataset/test2/14_3.odb,Step-1,Increment      1: Step Time =    1.000,"PART-1-1",           300,           -2.,        13.125,            0.,NA,NA,"",   258.703E-03,  -258.521E-03,  -9.70450E-03,   2.54489E-09
C:/temp/dataset/test2/14_3.odb,Step-1,Increment      1: Step Time =    1.000,"PART-1-1",           301,           -5.,       14.0625,            0.,NA,NA,"",   265.250E-03,  -263.872E-03,  -27.0026E-03,   7.08229E-09
C:/temp/dataset/test2/14_3.odb,Step-1,Increment      1: Step Time =    1.000,"PART-1-1",           302,           -4.,        13.125,            0.,NA,NA,"",   259.358E-03,  -258.488E-03,  -21.2262E-03,   5.73011E-09
C:/temp/dataset/test2/14_3.odb,Step-1,Increment      1: Step Time =    1.000,"PART-1-1",           303,            3.,       12.1875,            0.,NA,NA,"",   253.924E-03,  -253.203E-03,   19.1152E-03,   5.41515E-09
C:/temp/dataset/test2/14_3.odb,Step-1,Increment      1: Step Time =    1.000,"PART-1-1",           304,            4.,         11.25,            0.,NA,NA,"",   249.066E-03,  -247.819E-03,   24.8916E-03,   6.12391E-09
C:/temp/dataset/test2/14_3.odb,Step-1,Increment      1: Step Time =    1.000,"PART-1-1",           305,            5.,       12.1875,            0.,NA,NA,"",   255.083E-03,  -253.237E-03,   30.6369E-03,   6.44187E-09
C:/temp/dataset/test2/14_3.odb,Step-1,Increment      1: Step Time =    1.000,"PART-1-1",           306,            1.,       12.1875,            0.,NA,NA,"",   253.284E-03,  -253.170E-03,   7.59357E-03,   3.44543E-09
C:/temp/dataset/test2/14_3.odb,Step-1,Increment      1: Step Time =    1.000,"PART-1-1",           307,            2.,         11.25,            0.,NA,NA,"",   248.147E-03,  -247.786E-03,   13.3700E-03,   4.61023E-09
C:/temp/dataset/test2/14_3.odb,Step-1,Increment      1: Step Time =    1.000,"PART-1-1",           308,           -1.,       12.1875,            0.,NA,NA,"",   253.168E-03,  -253.137E-03,  -3.92811E-03,   2.45666E-09
C:/temp/dataset/test2/14_3.odb,Step-1,Increment      1: Step Time =    1.000,"PART-1-1",           309,            0.,         11.25,            0.,NA,NA,"",   247.760E-03,  -247.753E-03,   1.84829E-03,   3.14268E-09
C:/temp/dataset/test2/14_3.odb,Step-1,Increment      1: Step Time =    1.000,"PART-1-1",           310,           -3.,       12.1875,            0.,NA,NA,"",   253.575E-03,  -253.104E-03,  -15.4498E-03,   3.97061E-09
C:/temp/dataset/test2/14_3.odb,Step-1,Increment      1: Step Time =    1.000,"PART-1-1",           311,           -2.,         11.25,            0.,NA,NA,"",   247.909E-03,  -247.720E-03,  -9.67339E-03,   3.39706E-09
C:/temp/dataset/test2/14_3.odb,Step-1,Increment      1: Step Time =    1.000,"PART-1-1",           312,           -5.,       12.1875,            0.,NA,NA,"",   254.504E-03,  -253.071E-03,  -26.9715E-03,   8.43663E-09
C:/temp/dataset/test2/14_3.odb,Step-1,Increment      1: Step Time =    1.000,"PART-1-1",           313,           -4.,         11.25,            0.,NA,NA,"",   248.592E-03,  -247.687E-03,  -21.1951E-03,   6.52892E-09
C:/temp/dataset/test2/14_3.odb,Step-1,Increment      1: Step Time =    1.000,"PART-1-1",           314,            3.,       10.3125,            0.,NA,NA,"",   243.157E-03,  -242.402E-03,   19.1464E-03,   7.13524E-09
C:/temp/dataset/test2/14_3.odb,Step-1,Increment      1: Step Time =    1.000,"PART-1-1",           315,            4.,         9.375,            0.,NA,NA,"",   238.324E-03,  -237.018E-03,   24.9228E-03,   7.96805E-09
C:/temp/dataset/test2/14_3.odb,Step-1,Increment      1: Step Time =    1.000,"PART-1-1",           316,            5.,       10.3125,            0.,NA,NA,"",   244.367E-03,  -242.435E-03,   30.6680E-03,   7.37800E-09
C:/temp/dataset/test2/14_3.odb,Step-1,Increment      1: Step Time =    1.000,"PART-1-1",           317,            1.,       10.3125,            0.,NA,NA,"",   242.489E-03,  -242.369E-03,   7.62468E-03,   5.68713E-09
C:/temp/dataset/test2/14_3.odb,Step-1,Increment      1: Step Time =    1.000,"PART-1-1",           318,            2.,         9.375,            0.,NA,NA,"",   237.363E-03,  -236.985E-03,   13.4011E-03,   7.44856E-09
C:/temp/dataset/test2/14_3.odb,Step-1,Increment      1: Step Time =    1.000,"PART-1-1",           319,           -1.,       10.3125,            0.,NA,NA,"",   242.367E-03,  -242.336E-03,  -3.89700E-03,   5.73824E-09
C:/temp/dataset/test2/14_3.odb,Step-1,Increment      1: Step Time =    1.000,"PART-1-1",           320,            0.,         9.375,            0.,NA,NA,"",   236.959E-03,  -236.951E-03,   1.87940E-03,   7.67436E-09
C:/temp/dataset/test2/14_3.odb,Step-1,Increment      1: Step Time =    1.000,"PART-1-1",           321,           -3.,       10.3125,            0.,NA,NA,"",   242.792E-03,  -242.302E-03,  -15.4187E-03,   4.98574E-09
C:/temp/dataset/test2/14_3.odb,Step-1,Increment      1: Step Time =    1.000,"PART-1-1",           322,           -2.,         9.375,            0.,NA,NA,"",   237.114E-03,  -236.918E-03,  -9.64228E-03,   7.49727E-09
C:/temp/dataset/test2/14_3.odb,Step-1,Increment      1: Step Time =    1.000,"PART-1-1",           323,           -5.,       10.3125,            0.,NA,NA,"",   243.762E-03,  -242.269E-03,  -26.9404E-03,   8.97816E-09
C:/temp/dataset/test2/14_3.odb,Step-1,Increment      1: Step Time =    1.000,"PART-1-1",           324,           -4.,         9.375,            0.,NA,NA,"",   237.828E-03,  -236.885E-03,  -21.1640E-03,   6.83527E-09
C:/temp/dataset/test2/14_3.odb,Step-1,Increment      1: Step Time =    1.000,"PART-1-1",           325,            3.,        8.4375,            0.,NA,NA,"",   232.393E-03,  -231.600E-03,   19.1775E-03,   14.0817E-09
C:/temp/dataset/test2/14_3.odb,Step-1,Increment      1: Step Time =    1.000,"PART-1-1",           326,            4.,           7.5,            0.,NA,NA,"",   227.588E-03,  -226.216E-03,   24.9539E-03,   15.2573E-09
C:/temp/dataset/test2/14_3.odb,Step-1,Increment      1: Step Time =    1.000,"PART-1-1",           327,            5.,        8.4375,            0.,NA,NA,"",   233.659E-03,  -231.634E-03,   30.6992E-03,   11.8997E-09
C:/temp/dataset/test2/14_3.odb,Step-1,Increment      1: Step Time =    1.000,"PART-1-1",           328,            1.,        8.4375,            0.,NA,NA,"",   231.694E-03,  -231.567E-03,   7.65579E-03,   14.9576E-09
C:/temp/dataset/test2/14_3.odb,Step-1,Increment      1: Step Time =    1.000,"PART-1-1",           329,            2.,           7.5,            0.,NA,NA,"",   226.581E-03,  -226.183E-03,   13.4322E-03,   18.5054E-09
C:/temp/dataset/test2/14_3.odb,Step-1,Increment      1: Step Time =    1.000,"PART-1-1",           330,           -1.,        8.4375,            0.,NA,NA,"",   231.566E-03,  -231.534E-03,  -3.86589E-03,   15.9304E-09
C:/temp/dataset/test2/14_3.odb,Step-1,Increment      1: Step Time =    1.000,"PART-1-1",           331,            0.,           7.5,            0.,NA,NA,"",   226.158E-03,  -226.150E-03,   1.91049E-03,   20.9330E-09
C:/temp/dataset/test2/14_3.odb,Step-1,Increment      1: Step Time =    1.000,"PART-1-1",           332,           -3.,        8.4375,            0.,NA,NA,"",   232.012E-03,  -231.501E-03,  -15.3876E-03,   11.7578E-09
C:/temp/dataset/test2/14_3.odb,Step-1,Increment      1: Step Time =    1.000,"PART-1-1",           333,           -2.,           7.5,            0.,NA,NA,"",   226.321E-03,  -226.117E-03,  -9.61118E-03,   19.6565E-09
C:/temp/dataset/test2/14_3.odb,Step-1,Increment      1: Step Time =    1.000,"PART-1-1",           334,           -5.,        8.4375,            0.,NA,NA,"",   233.026E-03,  -231.468E-03,  -26.9093E-03,   6.00232E-09
C:/temp/dataset/test2/14_3.odb,Step-1,Increment      1: Step Time =    1.000,"PART-1-1",           335,           -4.,           7.5,            0.,NA,NA,"",   227.069E-03,  -226.083E-03,  -21.1329E-03,   9.54308E-09
C:/temp/dataset/test2/14_3.odb,Step-1,Increment      1: Step Time =    1.000,"PART-1-1",           336,            3.,        6.5625,            0.,NA,NA,"",   221.633E-03,  -220.799E-03,   19.2086E-03,   33.3745E-09
C:/temp/dataset/test2/14_3.odb,Step-1,Increment      1: Step Time =    1.000,"PART-1-1",           337,            4.,         5.625,            0.,NA,NA,"",   216.859E-03,  -215.415E-03,   24.9850E-03,   35.3799E-09
C:/temp/dataset/test2/14_3.odb,Step-1,Increment      1: Step Time =    1.000,"PART-1-1",           338,            5.,        6.5625,            0.,NA,NA,"",   222.960E-03,  -220.832E-03,   30.7303E-03,   27.0678E-09
C:/temp/dataset/test2/14_3.odb,Step-1,Increment      1: Step Time =    1.000,"PART-1-1",           339,            1.,        6.5625,            0.,NA,NA,"",   220.899E-03,  -220.766E-03,   7.68689E-03,   37.7178E-09
C:/temp/dataset/test2/14_3.odb,Step-1,Increment      1: Step Time =    1.000,"PART-1-1",           340,            2.,         5.625,            0.,NA,NA,"",   215.802E-03,  -215.381E-03,   13.4633E-03,   44.6160E-09
C:/temp/dataset/test2/14_3.odb,Step-1,Increment      1: Step Time =    1.000,"PART-1-1",           341,           -1.,        6.5625,            0.,NA,NA,"",   220.766E-03,  -220.732E-03,  -3.83481E-03,   39.2788E-09
C:/temp/dataset/test2/14_3.odb,Step-1,Increment      1: Step Time =    1.000,"PART-1-1",           342,            0.,         5.625,            0.,NA,NA,"",   215.357E-03,  -215.348E-03,   1.94156E-03,   49.8959E-09
C:/temp/dataset/test2/14_3.odb,Step-1,Increment      1: Step Time =    1.000,"PART-1-1",           343,           -3.,        6.5625,            0.,NA,NA,"",   221.233E-03,  -220.699E-03,  -15.3565E-03,   31.2414E-09
C:/temp/dataset/test2/14_3.odb,Step-1,Increment      1: Step Time =    1.000,"PART-1-1",           344,           -2.,         5.625,            0.,NA,NA,"",   215.528E-03,  -215.315E-03,  -9.58010E-03,   46.4737E-09
C:/temp/dataset/test2/14_3.odb,Step-1,Increment      1: Step Time =    1.000,"PART-1-1",           345,           -5.,        6.5625,            0.,NA,NA,"",   222.297E-03,  -220.666E-03,  -26.8782E-03,   8.33166E-09
C:/temp/dataset/test2/14_3.odb,Step-1,Increment      1: Step Time =    1.000,"PART-1-1",           346,           -4.,         5.625,            0.,NA,NA,"",   216.313E-03,  -215.282E-03,  -21.1017E-03,   26.2505E-09
C:/temp/dataset/test2/14_3.odb,Step-1,Increment      1: Step Time =    1.000,"PART-1-1",           347,            3.,        4.6875,            0.,NA,NA,"",   210.877E-03,  -209.997E-03,   19.2397E-03,   73.0626E-09
C:/temp/dataset/test2/14_3.odb,Step-1,Increment      1: Step Time =    1.000,"PART-1-1",           348,            4.,          3.75,            0.,NA,NA,"",   206.137E-03,  -204.613E-03,   25.0162E-03,   79.1702E-09
C:/temp/dataset/test2/14_3.odb,Step-1,Increment      1: Step Time =    1.000,"PART-1-1",           349,            5.,        4.6875,            0.,NA,NA,"",   212.271E-03,  -210.030E-03,   30.7615E-03,   67.2187E-09
C:/temp/dataset/test2/14_3.odb,Step-1,Increment      1: Step Time =    1.000,"PART-1-1",           350,            1.,        4.6875,            0.,NA,NA,"",   210.106E-03,  -209.964E-03,   7.71794E-03,   81.2300E-09
C:/temp/dataset/test2/14_3.odb,Step-1,Increment      1: Step Time =    1.000,"PART-1-1",           351,            2.,          3.75,            0.,NA,NA,"",   205.024E-03,  -204.580E-03,   13.4944E-03,   92.0427E-09
C:/temp/dataset/test2/14_3.odb,Step-1,Increment      1: Step Time =    1.000,"PART-1-1",           352,           -1.,        4.6875,            0.,NA,NA,"",   209.965E-03,  -209.931E-03,  -3.80376E-03,   83.2805E-09
C:/temp/dataset/test2/14_3.odb,Step-1,Increment      1: Step Time =    1.000,"PART-1-1",           353,            0.,          3.75,            0.,NA,NA,"",   204.556E-03,  -204.547E-03,   1.97256E-03,   101.353E-09
C:/temp/dataset/test2/14_3.odb,Step-1,Increment      1: Step Time =    1.000,"PART-1-1",           354,           -3.,        4.6875,            0.,NA,NA,"",   210.456E-03,  -209.897E-03,  -15.3254E-03,   71.0497E-09
C:/temp/dataset/test2/14_3.odb,Step-1,Increment      1: Step Time =    1.000,"PART-1-1",           355,           -2.,          3.75,            0.,NA,NA,"",   204.736E-03,  -204.513E-03,  -9.54904E-03,   94.4834E-09
C:/temp/dataset/test2/14_3.odb,Step-1,Increment      1: Step Time =    1.000,"PART-1-1",           356,           -5.,        4.6875,            0.,NA,NA,"",   211.575E-03,  -209.864E-03,  -26.8470E-03,   46.7406E-09
C:/temp/dataset/test2/14_3.odb,Step-1,Increment      1: Step Time =    1.000,"PART-1-1",           357,           -4.,          3.75,            0.,NA,NA,"",   205.563E-03,  -204.480E-03,  -21.0706E-03,   67.7293E-09
C:/temp/dataset/test2/14_3.odb,Step-1,Increment      1: Step Time =    1.000,"PART-1-1",           358,            3.,        2.8125,            0.,NA,NA,"",   200.126E-03,  -199.196E-03,   19.2709E-03,   136.453E-09
C:/temp/dataset/test2/14_3.odb,Step-1,Increment      1: Step Time =    1.000,"PART-1-1",           359,            4.,         1.875,            0.,NA,NA,"",   195.423E-03,  -193.812E-03,   25.0475E-03,   157.922E-09
C:/temp/dataset/test2/14_3.odb,Step-1,Increment      1: Step Time =    1.000,"PART-1-1",           360,            5.,        2.8125,            0.,NA,NA,"",   201.595E-03,  -199.229E-03,   30.7928E-03,   156.088E-09
C:/temp/dataset/test2/14_3.odb,Step-1,Increment      1: Step Time =    1.000,"PART-1-1",           361,            1.,        2.8125,            0.,NA,NA,"",   199.313E-03,  -199.162E-03,   7.74892E-03,   145.362E-09
C:/temp/dataset/test2/14_3.odb,Step-1,Increment      1: Step Time =    1.000,"PART-1-1",           362,            2.,         1.875,            0.,NA,NA,"",   194.250E-03,  -193.778E-03,   13.5254E-03,   155.054E-09
C:/temp/dataset/test2/14_3.odb,Step-1,Increment      1: Step Time =    1.000,"PART-1-1",           363,           -1.,        2.8125,            0.,NA,NA,"",   199.165E-03,  -199.129E-03,  -3.77279E-03,   147.885E-09
C:/temp/dataset/test2/14_3.odb,Step-1,Increment      1: Step Time =    1.000,"PART-1-1",           364,            0.,         1.875,            0.,NA,NA,"",   193.755E-03,  -193.745E-03,   2.00346E-03,   169.464E-09
C:/temp/dataset/test2/14_3.odb,Step-1,Increment      1: Step Time =    1.000,"PART-1-1",           365,           -3.,        2.8125,            0.,NA,NA,"",   199.682E-03,  -199.096E-03,  -15.2942E-03,   134.430E-09
C:/temp/dataset/test2/14_3.odb,Step-1,Increment      1: Step Time =    1.000,"PART-1-1",           366,           -2.,         1.875,            0.,NA,NA,"",   193.945E-03,  -193.712E-03,  -9.51804E-03,   158.043E-09
C:/temp/dataset/test2/14_3.odb,Step-1,Increment      1: Step Time =    1.000,"PART-1-1",           367,           -5.,        2.8125,            0.,NA,NA,"",   200.861E-03,  -199.063E-03,  -26.8158E-03,   133.947E-09
C:/temp/dataset/test2/14_3.odb,Step-1,Increment      1: Step Time =    1.000,"PART-1-1",           368,           -4.,         1.875,            0.,NA,NA,"",   194.818E-03,  -193.678E-03,  -21.0393E-03,   144.137E-09
C:/temp/dataset/test2/14_3.odb,Step-1,Increment      1: Step Time =    1.000,"PART-1-1",           369,            3.,     937.5E-03,            0.,NA,NA,"",   189.380E-03,  -188.394E-03,   19.3020E-03,   198.223E-09
C:/temp/dataset/test2/14_3.odb,Step-1,Increment      1: Step Time =    1.000,"PART-1-1",           370,            4.,            0.,            0.,NA,NA,"",   184.720E-03,  -183.010E-03,   25.0789E-03,   266.100E-09
C:/temp/dataset/test2/14_3.odb,Step-1,Increment      1: Step Time =    1.000,"PART-1-1",           371,            5.,     937.5E-03,            0.,NA,NA,"",   190.932E-03,  -188.427E-03,   30.8242E-03,   319.740E-09
C:/temp/dataset/test2/14_3.odb,Step-1,Increment      1: Step Time =    1.000,"PART-1-1",           372,            1.,     937.5E-03,            0.,NA,NA,"",   188.521E-03,  -188.361E-03,   7.77980E-03,   198.513E-09
C:/temp/dataset/test2/14_3.odb,Step-1,Increment      1: Step Time =    1.000,"PART-1-1",           373,            2.,            0.,            0.,NA,NA,"",   183.478E-03,  -182.977E-03,   13.5563E-03,   184.674E-09
C:/temp/dataset/test2/14_3.odb,Step-1,Increment      1: Step Time =    1.000,"PART-1-1",           374,           -1.,     937.5E-03,            0.,NA,NA,"",   188.365E-03,  -188.327E-03,  -3.74192E-03,   201.485E-09
C:/temp/dataset/test2/14_3.odb,Step-1,Increment      1: Step Time =    1.000,"PART-1-1",           375,            0.,            0.,            0.,NA,NA,"",   182.955E-03,  -182.943E-03,   2.03426E-03,   211.125E-09
C:/temp/dataset/test2/14_3.odb,Step-1,Increment      1: Step Time =    1.000,"PART-1-1",           376,           -3.,     937.5E-03,            0.,NA,NA,"",   188.912E-03,  -188.294E-03,  -15.2631E-03,   195.833E-09
C:/temp/dataset/test2/14_3.odb,Step-1,Increment      1: Step Time =    1.000,"PART-1-1",           377,           -2.,            0.,            0.,NA,NA,"",   183.156E-03,  -182.910E-03,  -9.48710E-03,   188.324E-09
C:/temp/dataset/test2/14_3.odb,Step-1,Increment      1: Step Time =    1.000,"PART-1-1",           378,           -5.,     937.5E-03,            0.,NA,NA,"",   190.157E-03,  -188.261E-03,  -26.7843E-03,   295.520E-09
C:/temp/dataset/test2/14_3.odb,Step-1,Increment      1: Step Time =    1.000,"PART-1-1",           379,           -4.,            0.,            0.,NA,NA,"",   184.080E-03,  -182.877E-03,  -21.0080E-03,   249.088E-09
C:/temp/dataset/test2/14_3.odb,Step-1,Increment      1: Step Time =    1.000,"PART-1-1",           380,            3.,    -937.5E-03,            0.,NA,NA,"",   178.641E-03,  -177.592E-03,   19.3332E-03,   149.664E-09
C:/temp/dataset/test2/14_3.odb,Step-1,Increment      1: Step Time =    1.000,"PART-1-1",           381,            4.,        -1.875,            0.,NA,NA,"",   174.029E-03,  -172.207E-03,   25.1105E-03,   342.199E-09
C:/temp/dataset/test2/14_3.odb,Step-1,Increment      1: Step Time =    1.000,"PART-1-1",           382,            5.,    -937.5E-03,            0.,NA,NA,"",   180.285E-03,  -177.625E-03,   30.8561E-03,   547.968E-09
C:/temp/dataset/test2/14_3.odb,Step-1,Increment      1: Step Time =    1.000,"PART-1-1",           383,            1.,    -937.5E-03,            0.,NA,NA,"",   177.731E-03,  -177.559E-03,   7.81062E-03,   212.079E-09
C:/temp/dataset/test2/14_3.odb,Step-1,Increment      1: Step Time =    1.000,"PART-1-1",           384,            2.,        -1.875,            0.,NA,NA,"",   172.710E-03,  -172.174E-03,   13.5873E-03,   202.153E-09
C:/temp/dataset/test2/14_3.odb,Step-1,Increment      1: Step Time =    1.000,"PART-1-1",           385,           -1.,    -937.5E-03,            0.,NA,NA,"",   177.565E-03,  -177.526E-03,  -3.71110E-03,   214.573E-09
C:/temp/dataset/test2/14_3.odb,Step-1,Increment      1: Step Time =    1.000,"PART-1-1",           386,            0.,        -1.875,            0.,NA,NA,"",   172.154E-03,  -172.142E-03,   2.06513E-03,   320.116E-09
C:/temp/dataset/test2/14_3.odb,Step-1,Increment      1: Step Time =    1.000,"PART-1-1",           387,           -3.,    -937.5E-03,            0.,NA,NA,"",   178.145E-03,  -177.493E-03,  -15.2320E-03,   147.359E-09
C:/temp/dataset/test2/14_3.odb,Step-1,Increment      1: Step Time =    1.000,"PART-1-1",           388,           -2.,        -1.875,            0.,NA,NA,"",   172.369E-03,  -172.109E-03,  -9.45616E-03,   206.026E-09
C:/temp/dataset/test2/14_3.odb,Step-1,Increment      1: Step Time =    1.000,"PART-1-1",           389,           -5.,    -937.5E-03,            0.,NA,NA,"",   179.465E-03,  -177.460E-03,  -26.7525E-03,   519.832E-09
C:/temp/dataset/test2/14_3.odb,Step-1,Increment      1: Step Time =    1.000,"PART-1-1",           390,           -4.,        -1.875,            0.,NA,NA,"",   173.350E-03,  -172.076E-03,  -20.9765E-03,   320.176E-09
C:/temp/dataset/test2/14_3.odb,Step-1,Increment      1: Step Time =    1.000,"PART-1-1",           391,            3.,       -2.8125,            0.,NA,NA,"",   167.910E-03,  -166.789E-03,   19.3643E-03,   455.567E-09
C:/temp/dataset/test2/14_3.odb,Step-1,Increment      1: Step Time =    1.000,"PART-1-1",           392,            4.,         -3.75,            0.,NA,NA,"",   163.350E-03,  -161.403E-03,   25.1420E-03,   449.212E-09
C:/temp/dataset/test2/14_3.odb,Step-1,Increment      1: Step Time =    1.000,"PART-1-1",           393,            5.,       -2.8125,            0.,NA,NA,"",   169.658E-03,  -166.822E-03,   30.8884E-03,   672.461E-09
C:/temp/dataset/test2/14_3.odb,Step-1,Increment      1: Step Time =    1.000,"PART-1-1",           394,            1.,       -2.8125,            0.,NA,NA,"",   166.941E-03,  -166.757E-03,   7.84174E-03,   884.379E-09
C:/temp/dataset/test2/14_3.odb,Step-1,Increment      1: Step Time =    1.000,"PART-1-1",           395,            2.,         -3.75,            0.,NA,NA,"",   161.944E-03,  -161.371E-03,   13.6186E-03,   1.16431E-06
C:/temp/dataset/test2/14_3.odb,Step-1,Increment      1: Step Time =    1.000,"PART-1-1",           396,           -1.,       -2.8125,            0.,NA,NA,"",   166.766E-03,  -166.725E-03,  -3.67999E-03,   883.716E-09
C:/temp/dataset/test2/14_3.odb,Step-1,Increment      1: Step Time =    1.000,"PART-1-1",           397,            0.,         -3.75,            0.,NA,NA,"",   161.354E-03,  -161.340E-03,   2.09686E-03,   1.41549E-06
C:/temp/dataset/test2/14_3.odb,Step-1,Increment      1: Step Time =    1.000,"PART-1-1",           398,           -3.,       -2.8125,            0.,NA,NA,"",   167.384E-03,  -166.693E-03,  -15.2009E-03,   464.523E-09
C:/temp/dataset/test2/14_3.odb,Step-1,Increment      1: Step Time =    1.000,"PART-1-1",           399,           -2.,         -3.75,            0.,NA,NA,"",   161.585E-03,  -161.309E-03,  -9.42487E-03,   1.16725E-06
C:/temp/dataset/test2/14_3.odb,Step-1,Increment      1: Step Time =    1.000,"PART-1-1",           400,           -5.,       -2.8125,            0.,NA,NA,"",   168.788E-03,  -166.660E-03,  -26.7203E-03,   635.781E-09
C:/temp/dataset/test2/14_3.odb,Step-1,Increment      1: Step Time =    1.000,"PART-1-1",           401,           -4.,         -3.75,            0.,NA,NA,"",   162.631E-03,  -161.277E-03,  -20.9450E-03,   443.937E-09
C:/temp/dataset/test2/14_3.odb,Step-1,Increment      1: Step Time =    1.000,"PART-1-1",           402,            3.,       -4.6875,            0.,NA,NA,"",   157.185E-03,  -155.983E-03,   19.3955E-03,   2.37638E-06
C:/temp/dataset/test2/14_3.odb,Step-1,Increment      1: Step Time =    1.000,"PART-1-1",           403,            4.,        -5.625,            0.,NA,NA,"",   152.684E-03,  -150.595E-03,   25.1725E-03,   1.95195E-06
C:/temp/dataset/test2/14_3.odb,Step-1,Increment      1: Step Time =    1.000,"PART-1-1",           404,            5.,       -4.6875,            0.,NA,NA,"",   159.051E-03,  -156.016E-03,   30.9209E-03,   149.165E-09
C:/temp/dataset/test2/14_3.odb,Step-1,Increment      1: Step Time =    1.000,"PART-1-1",           405,            1.,       -4.6875,            0.,NA,NA,"",   156.152E-03,  -155.953E-03,   7.87426E-03,   3.31324E-06
C:/temp/dataset/test2/14_3.odb,Step-1,Increment      1: Step Time =    1.000,"PART-1-1",           406,            2.,        -5.625,            0.,NA,NA,"",   151.182E-03,  -150.564E-03,   13.6513E-03,   4.14026E-06
C:/temp/dataset/test2/14_3.odb,Step-1,Increment      1: Step Time =    1.000,"PART-1-1",           407,           -1.,       -4.6875,            0.,NA,NA,"",   155.968E-03,  -155.925E-03,  -3.64749E-03,   3.30194E-06
C:/temp/dataset/test2/14_3.odb,Step-1,Increment      1: Step Time =    1.000,"PART-1-1",           408,            0.,        -5.625,            0.,NA,NA,"",   150.554E-03,  -150.539E-03,   2.13154E-03,   4.70825E-06
C:/temp/dataset/test2/14_3.odb,Step-1,Increment      1: Step Time =    1.000,"PART-1-1",           409,           -3.,       -4.6875,            0.,NA,NA,"",   156.632E-03,  -155.895E-03,  -15.1698E-03,   2.37389E-06
C:/temp/dataset/test2/14_3.odb,Step-1,Increment      1: Step Time =    1.000,"PART-1-1",           410,           -2.,        -5.625,            0.,NA,NA,"",   150.806E-03,  -150.513E-03,  -9.39228E-03,   4.13150E-06
C:/temp/dataset/test2/14_3.odb,Step-1,Increment      1: Step Time =    1.000,"PART-1-1",           411,           -5.,       -4.6875,            0.,NA,NA,"",   158.131E-03,  -155.862E-03,  -26.6879E-03,   137.150E-09
C:/temp/dataset/test2/14_3.odb,Step-1,Increment      1: Step Time =    1.000,"PART-1-1",           412,           -4.,        -5.625,            0.,NA,NA,"",   151.928E-03,  -150.482E-03,  -20.9146E-03,   1.96379E-06
C:/temp/dataset/test2/14_3.odb,Step-1,Increment      1: Step Time =    1.000,"PART-1-1",           413,            3.,       -6.5625,            0.,NA,NA,"",   146.466E-03,  -145.172E-03,   19.4265E-03,   7.43728E-06
C:/temp/dataset/test2/14_3.odb,Step-1,Increment      1: Step Time =    1.000,"PART-1-1",           414,            4.,          -7.5,            0.,NA,NA,"",   142.033E-03,  -139.779E-03,   25.1997E-03,   6.71724E-06
C:/temp/dataset/test2/14_3.odb,Step-1,Increment      1: Step Time =    1.000,"PART-1-1",           415,            5.,       -6.5625,            0.,NA,NA,"",   148.468E-03,  -145.206E-03,   30.9514E-03,   3.05143E-06
C:/temp/dataset/test2/14_3.odb,Step-1,Increment      1: Step Time =    1.000,"PART-1-1",           416,            1.,       -6.5625,            0.,NA,NA,"",   145.363E-03,  -145.147E-03,   7.91106E-03,   9.30533E-06
C:/temp/dataset/test2/14_3.odb,Step-1,Increment      1: Step Time =    1.000,"PART-1-1",           417,            2.,          -7.5,            0.,NA,NA,"",   140.420E-03,  -139.751E-03,   13.6877E-03,   11.1973E-06
C:/temp/dataset/test2/14_3.odb,Step-1,Increment      1: Step Time =    1.000,"PART-1-1",           418,           -1.,       -6.5625,            0.,NA,NA,"",   145.173E-03,  -145.128E-03,  -3.61079E-03,   9.23126E-06
C:/temp/dataset/test2/14_3.odb,Step-1,Increment      1: Step Time =    1.000,"PART-1-1",           419,            0.,          -7.5,            0.,NA,NA,"",   139.754E-03,  -139.737E-03,   2.17411E-03,   12.3457E-06
C:/temp/dataset/test2/14_3.odb,Step-1,Increment      1: Step Time =    1.000,"PART-1-1",           420,           -3.,       -6.5625,            0.,NA,NA,"",   145.891E-03,  -145.103E-03,  -15.1389E-03,   7.33440E-06
C:/temp/dataset/test2/14_3.odb,Step-1,Increment      1: Step Time =    1.000,"PART-1-1",           421,           -2.,          -7.5,            0.,NA,NA,"",   140.036E-03,  -139.723E-03,  -9.35614E-03,   11.0457E-06
C:/temp/dataset/test2/14_3.odb,Step-1,Increment      1: Step Time =    1.000,"PART-1-1",           422,           -5.,       -6.5625,            0.,NA,NA,"",   147.498E-03,  -145.069E-03,  -26.6576E-03,   3.08130E-06
C:/temp/dataset/test2/14_3.odb,Step-1,Increment      1: Step Time =    1.000,"PART-1-1",           423,           -4.,          -7.5,            0.,NA,NA,"",   141.247E-03,  -139.694E-03,  -20.8876E-03,   6.66417E-06
C:/temp/dataset/test2/14_3.odb,Step-1,Increment      1: Step Time =    1.000,"PART-1-1",           424,            3.,       -8.4375,            0.,NA,NA,"",   135.753E-03,  -134.351E-03,   19.4573E-03,   18.6658E-06
C:/temp/dataset/test2/14_3.odb,Step-1,Increment      1: Step Time =    1.000,"PART-1-1",           425,            4.,        -9.375,            0.,NA,NA,"",   131.396E-03,  -128.954E-03,   25.2170E-03,   18.2432E-06
C:/temp/dataset/test2/14_3.odb,Step-1,Increment      1: Step Time =    1.000,"PART-1-1",           426,            5.,       -8.4375,            0.,NA,NA,"",   137.912E-03,  -134.388E-03,   30.9740E-03,   12.5102E-06
C:/temp/dataset/test2/14_3.odb,Step-1,Increment      1: Step Time =    1.000,"PART-1-1",           427,            1.,       -8.4375,            0.,NA,NA,"",   134.573E-03,  -134.338E-03,   7.95833E-03,   21.6751E-06
C:/temp/dataset/test2/14_3.odb,Step-1,Increment      1: Step Time =    1.000,"PART-1-1",           428,            2.,        -9.375,            0.,NA,NA,"",   129.659E-03,  -128.930E-03,   13.7329E-03,   25.1426E-06
C:/temp/dataset/test2/14_3.odb,Step-1,Increment      1: Step Time =    1.000,"PART-1-1",           429,           -1.,       -8.4375,            0.,NA,NA,"",   134.383E-03,  -134.336E-03,  -3.56403E-03,   21.2523E-06
C:/temp/dataset/test2/14_3.odb,Step-1,Increment      1: Step Time =    1.000,"PART-1-1",           430,            0.,        -9.375,            0.,NA,NA,"",   128.956E-03,  -128.937E-03,   2.23383E-03,   27.0964E-06
C:/temp/dataset/test2/14_3.odb,Step-1,Increment      1: Step Time =    1.000,"PART-1-1",           431,           -3.,       -8.4375,            0.,NA,NA,"",   135.167E-03,  -134.320E-03,  -15.1085E-03,   17.8448E-06
C:/temp/dataset/test2/14_3.odb,Step-1,Increment      1: Step Time =    1.000,"PART-1-1",           432,           -2.,        -9.375,            0.,NA,NA,"",   129.277E-03,  -128.941E-03,  -9.31230E-03,   24.3293E-06
C:/temp/dataset/test2/14_3.odb,Step-1,Increment      1: Step Time =    1.000,"PART-1-1",           433,           -5.,       -8.4375,            0.,NA,NA,"",   136.899E-03,  -134.283E-03,  -26.6354E-03,   12.2538E-06
C:/temp/dataset/test2/14_3.odb,Step-1,Increment      1: Step Time =    1.000,"PART-1-1",           434,           -4.,        -9.375,            0.,NA,NA,"",   130.593E-03,  -128.915E-03,  -20.8703E-03,   17.5584E-06
C:/temp/dataset/test2/14_3.odb,Step-1,Increment      1: Step Time =    1.000,"PART-1-1",           435,            3.,      -10.3125,            0.,NA,NA,"",   125.048E-03,  -123.521E-03,   19.4875E-03,   39.0637E-06
C:/temp/dataset/test2/14_3.odb,Step-1,Increment      1: Step Time =    1.000,"PART-1-1",           436,            4.,        -11.25,            0.,NA,NA,"",   120.784E-03,  -118.123E-03,   25.2132E-03,   41.7095E-06
C:/temp/dataset/test2/14_3.odb,Step-1,Increment      1: Step Time =    1.000,"PART-1-1",           437,            5.,      -10.3125,            0.,NA,NA,"",   127.388E-03,  -123.566E-03,   30.9722E-03,   36.6755E-06
C:/temp/dataset/test2/14_3.odb,Step-1,Increment      1: Step Time =    1.000,"PART-1-1",           438,            1.,      -10.3125,            0.,NA,NA,"",   123.785E-03,  -123.525E-03,   8.02709E-03,   42.5437E-06
C:/temp/dataset/test2/14_3.odb,Step-1,Increment      1: Step Time =    1.000,"PART-1-1",           439,            2.,        -11.25,            0.,NA,NA,"",   118.908E-03,  -118.105E-03,   13.7964E-03,   47.9436E-06
C:/temp/dataset/test2/14_3.odb,Step-1,Increment      1: Step Time =    1.000,"PART-1-1",           440,           -1.,      -10.3125,            0.,NA,NA,"",   123.598E-03,  -123.548E-03,  -3.49772E-03,   40.7935E-06
C:/temp/dataset/test2/14_3.odb,Step-1,Increment      1: Step Time =    1.000,"PART-1-1",           441,            0.,        -11.25,            0.,NA,NA,"",   118.162E-03,  -118.139E-03,   2.32430E-03,   49.7069E-06
C:/temp/dataset/test2/14_3.odb,Step-1,Increment      1: Step Time =    1.000,"PART-1-1",           442,           -3.,      -10.3125,            0.,NA,NA,"",   124.463E-03,  -123.546E-03,  -15.0800E-03,   35.7315E-06
C:/temp/dataset/test2/14_3.odb,Step-1,Increment      1: Step Time =    1.000,"PART-1-1",           443,           -2.,        -11.25,            0.,NA,NA,"",   118.526E-03,  -118.164E-03,  -9.25533E-03,   44.0451E-06
C:/temp/dataset/test2/14_3.odb,Step-1,Increment      1: Step Time =    1.000,"PART-1-1",           444,           -5.,      -10.3125,            0.,NA,NA,"",   126.339E-03,  -123.500E-03,  -26.6361E-03,   33.8205E-06
C:/temp/dataset/test2/14_3.odb,Step-1,Increment      1: Step Time =    1.000,"PART-1-1",           445,           -4.,        -11.25,            0.,NA,NA,"",   119.968E-03,  -118.138E-03,  -20.8737E-03,   38.2413E-06
C:/temp/dataset/test2/14_3.odb,Step-1,Increment      1: Step Time =    1.000,"PART-1-1",           446,            3.,      -12.1875,            0.,NA,NA,"",   114.371E-03,  -112.693E-03,   19.5195E-03,   69.7500E-06
C:/temp/dataset/test2/14_3.odb,Step-1,Increment      1: Step Time =    1.000,"PART-1-1",           447,            4.,       -13.125,            0.,NA,NA,"",   110.232E-03,  -107.321E-03,   25.1644E-03,   81.3772E-06
C:/temp/dataset/test2/14_3.odb,Step-1,Increment      1: Step Time =    1.000,"PART-1-1",           448,            5.,      -12.1875,            0.,NA,NA,"",   116.919E-03,  -112.758E-03,   30.9143E-03,   86.8048E-06
C:/temp/dataset/test2/14_3.odb,Step-1,Increment      1: Step Time =    1.000,"PART-1-1",           449,            1.,      -12.1875,            0.,NA,NA,"",   113.011E-03,  -112.718E-03,   8.13222E-03,   67.5768E-06
C:/temp/dataset/test2/14_3.odb,Step-1,Increment      1: Step Time =    1.000,"PART-1-1",           450,            2.,       -13.125,            0.,NA,NA,"",   108.201E-03,  -107.306E-03,   13.8910E-03,   70.9355E-06
C:/temp/dataset/test2/14_3.odb,Step-1,Increment      1: Step Time =    1.000,"PART-1-1",           451,           -1.,      -12.1875,            0.,NA,NA,"",   112.814E-03,  -112.763E-03,  -3.40216E-03,   62.1075E-06
C:/temp/dataset/test2/14_3.odb,Step-1,Increment      1: Step Time =    1.000,"PART-1-1",           452,            0.,       -13.125,            0.,NA,NA,"",   107.376E-03,  -107.348E-03,   2.45421E-03,   71.2447E-06
C:/temp/dataset/test2/14_3.odb,Step-1,Increment      1: Step Time =    1.000,"PART-1-1",           453,           -3.,      -12.1875,            0.,NA,NA,"",   113.767E-03,  -112.766E-03,  -15.0563E-03,   56.4026E-06
C:/temp/dataset/test2/14_3.odb,Step-1,Increment      1: Step Time =    1.000,"PART-1-1",           454,           -2.,       -13.125,            0.,NA,NA,"",   107.760E-03,  -107.368E-03,  -9.18443E-03,   59.9720E-06
C:/temp/dataset/test2/14_3.odb,Step-1,Increment      1: Step Time =    1.000,"PART-1-1",           455,           -5.,      -12.1875,            0.,NA,NA,"",   115.816E-03,  -112.699E-03,  -26.6879E-03,   74.7606E-06
C:/temp/dataset/test2/14_3.odb,Step-1,Increment      1: Step Time =    1.000,"PART-1-1",           456,           -4.,       -13.125,            0.,NA,NA,"",   109.345E-03,  -107.326E-03,  -20.9140E-03,   68.7294E-06
C:/temp/dataset/test2/14_3.odb,Step-1,Increment      1: Step Time =    1.000,"PART-1-1",           457,            3.,      -14.0625,            0.,NA,NA,"",   103.797E-03,  -101.938E-03,   19.5567E-03,   84.4401E-06
C:/temp/dataset/test2/14_3.odb,Step-1,Increment      1: Step Time =    1.000,"PART-1-1",           458,            4.,          -15.,            0.,NA,NA,"",   99.8745E-03,  -96.6777E-03,   25.0666E-03,   129.044E-06
C:/temp/dataset/test2/14_3.odb,Step-1,Increment      1: Step Time =    1.000,"PART-1-1",           459,            5.,      -14.0625,            0.,NA,NA,"",   106.560E-03,  -102.035E-03,   30.7234E-03,   187.864E-06
C:/temp/dataset/test2/14_3.odb,Step-1,Increment      1: Step Time =    1.000,"PART-1-1",           460,            1.,      -14.0625,            0.,NA,NA,"",   102.289E-03,  -101.953E-03,   8.27747E-03,   79.4454E-06
C:/temp/dataset/test2/14_3.odb,Step-1,Increment      1: Step Time =    1.000,"PART-1-1",           461,            2.,          -15.,            0.,NA,NA,"",   97.6391E-03,  -96.6268E-03,   14.0232E-03,   72.6136E-06
C:/temp/dataset/test2/14_3.odb,Step-1,Increment      1: Step Time =    1.000,"PART-1-1",           462,           -1.,      -14.0625,            0.,NA,NA,"",   102.005E-03,  -101.952E-03,  -3.28470E-03,   64.2188E-06
C:/temp/dataset/test2/14_3.odb,Step-1,Increment      1: Step Time =    1.000,"PART-1-1",           463,            0.,          -15.,            0.,NA,NA,"",   96.5980E-03,  -96.5632E-03,   2.59087E-03,   82.5335E-06
C:/temp/dataset/test2/14_3.odb,Step-1,Increment      1: Step Time =    1.000,"PART-1-1",           464,           -3.,      -14.0625,            0.,NA,NA,"",   103.023E-03,  -101.918E-03,  -15.0442E-03,   57.1142E-06
C:/temp/dataset/test2/14_3.odb,Step-1,Increment      1: Step Time =    1.000,"PART-1-1",           465,           -2.,          -15.,            0.,NA,NA,"",   96.8969E-03,  -96.4670E-03,  -9.11723E-03,   49.5318E-06
C:/temp/dataset/test2/14_3.odb,Step-1,Increment      1: Step Time =    1.000,"PART-1-1",           466,           -5.,      -14.0625,            0.,NA,NA,"",   105.291E-03,  -101.815E-03,  -26.8303E-03,   133.102E-06
C:/temp/dataset/test2/14_3.odb,Step-1,Increment      1: Step Time =    1.000,"PART-1-1",           467,           -4.,          -15.,            0.,NA,NA,"",   98.6383E-03,  -96.3766E-03,  -21.0014E-03,   96.0710E-06
C:/temp/dataset/test2/14_3.odb,Step-1,Increment      1: Step Time =    1.000,"PART-1-1",           468,            3.,      -15.9375,            0.,NA,NA,"",   93.5451E-03,  -91.4605E-03,   19.6383E-03,   105.500E-06
C:/temp/dataset/test2/14_3.odb,Step-1,Increment      1: Step Time =    1.000,"PART-1-1",           469,            4.,       -16.875,            0.,NA,NA,"",   90.1164E-03,  -86.6115E-03,   24.8879E-03,   227.970E-06
C:/temp/dataset/test2/14_3.odb,Step-1,Increment      1: Step Time =    1.000,"PART-1-1",           470,            5.,      -15.9375,            0.,NA,NA,"",   96.5263E-03,  -91.6420E-03,   30.3161E-03,   308.410E-06
C:/temp/dataset/test2/14_3.odb,Step-1,Increment      1: Step Time =    1.000,"PART-1-1",           471,            1.,      -15.9375,            0.,NA,NA,"",   91.6729E-03,  -91.2875E-03,   8.39690E-03,   185.973E-06
C:/temp/dataset/test2/14_3.odb,Step-1,Increment      1: Step Time =    1.000,"PART-1-1",           472,            2.,       -16.875,            0.,NA,NA,"",   87.4267E-03,  -86.2839E-03,   14.0891E-03,   328.512E-06
C:/temp/dataset/test2/14_3.odb,Step-1,Increment      1: Step Time =    1.000,"PART-1-1",           473,           -1.,      -15.9375,            0.,NA,NA,"",   91.0757E-03,  -91.0191E-03,  -3.21132E-03,   137.532E-06
C:/temp/dataset/test2/14_3.odb,Step-1,Increment      1: Step Time =    1.000,"PART-1-1",           474,            0.,       -16.875,            0.,NA,NA,"",   85.7233E-03,  -85.6845E-03,   2.57838E-03,   284.501E-06
C:/temp/dataset/test2/14_3.odb,Step-1,Increment      1: Step Time =    1.000,"PART-1-1",           475,           -3.,      -15.9375,            0.,NA,NA,"",   92.0855E-03,  -90.8475E-03,  -15.0490E-03,   46.4246E-06
C:/temp/dataset/test2/14_3.odb,Step-1,Increment      1: Step Time =    1.000,"PART-1-1",           476,           -2.,       -16.875,            0.,NA,NA,"",   85.7332E-03,  -85.2488E-03,  -9.10091E-03,   181.155E-06
C:/temp/dataset/test2/14_3.odb,Step-1,Increment      1: Step Time =    1.000,"PART-1-1",           477,           -5.,      -15.9375,            0.,NA,NA,"",   94.6630E-03,  -90.7052E-03,  -27.0861E-03,   176.663E-06
C:/temp/dataset/test2/14_3.odb,Step-1,Increment      1: Step Time =    1.000,"PART-1-1",           478,           -4.,       -16.875,            0.,NA,NA,"",   87.6552E-03,  -85.0764E-03,  -21.1054E-03,   103.939E-06
C:/temp/dataset/test2/14_3.odb,Step-1,Increment      1: Step Time =    1.000,"PART-1-1",           479,            3.,      -17.8125,            0.,NA,NA,"",   84.2635E-03,  -81.9497E-03,   19.6108E-03,   886.169E-06
C:/temp/dataset/test2/14_3.odb,Step-1,Increment      1: Step Time =    1.000,"PART-1-1",           480,            4.,        -18.75,            0.,NA,NA,"",   82.5357E-03,  -78.6643E-03,   24.9815E-03,   1.73839E-03
C:/temp/dataset/test2/14_3.odb,Step-1,Increment      1: Step Time =    1.000,"PART-1-1",           481,            5.,      -17.8125,            0.,NA,NA,"",   87.3752E-03,  -82.2704E-03,   29.4281E-03,   402.471E-06
C:/temp/dataset/test2/14_3.odb,Step-1,Increment      1: Step Time =    1.000,"PART-1-1",           482,            1.,      -17.8125,            0.,NA,NA,"",   81.0517E-03,  -80.6408E-03,   8.15113E-03,   702.823E-06
C:/temp/dataset/test2/14_3.odb,Step-1,Increment      1: Step Time =    1.000,"PART-1-1",           483,            2.,        -18.75,            0.,NA,NA,"",   77.3287E-03,  -76.1551E-03,   13.4208E-03,   1.29070E-03
C:/temp/dataset/test2/14_3.odb,Step-1,Increment      1: Step Time =    1.000,"PART-1-1",           484,           -1.,      -17.8125,            0.,NA,NA,"",   79.7428E-03,  -79.6735E-03,  -3.32446E-03,   502.587E-06
C:/temp/dataset/test2/14_3.odb,Step-1,Increment      1: Step Time =    1.000,"PART-1-1",           485,            0.,        -18.75,            0.,NA,NA,"",   74.2903E-03,  -74.2602E-03,   2.11433E-03,   904.942E-06
C:/temp/dataset/test2/14_3.odb,Step-1,Increment      1: Step Time =    1.000,"PART-1-1",           486,           -3.,      -17.8125,            0.,NA,NA,"",   80.6786E-03,  -79.2637E-03,  -15.0432E-03,   285.921E-06
C:/temp/dataset/test2/14_3.odb,Step-1,Increment      1: Step Time =    1.000,"PART-1-1",           487,           -2.,        -18.75,            0.,NA,NA,"",   73.9014E-03,  -73.3315E-03,  -9.15984E-03,   600.803E-06
C:/temp/dataset/test2/14_3.odb,Step-1,Increment      1: Step Time =    1.000,"PART-1-1",           488,           -5.,      -17.8125,            0.,NA,NA,"",   83.7391E-03,  -79.1350E-03,  -27.3842E-03,   119.704E-06
C:/temp/dataset/test2/14_3.odb,Step-1,Increment      1: Step Time =    1.000,"PART-1-1",           489,           -4.,        -18.75,            0.,NA,NA,"",   76.1051E-03,  -73.1245E-03,  -21.0902E-03,   229.332E-06
C:/temp/dataset/test2/14_3.odb,Step-1,Increment      1: Step Time =    1.000,"PART-1-1",           490,            3.,      -19.6875,            0.,NA,NA,"",   74.6254E-03,  -72.3584E-03,   18.2539E-03,   2.39187E-03
C:/temp/dataset/test2/14_3.odb,Step-1,Increment      1: Step Time =    1.000,"PART-1-1",           491,            4.,       -20.625,            0.,NA,NA,"",   72.5627E-03,  -68.8642E-03,   22.8707E-03,   3.02884E-03
C:/temp/dataset/test2/14_3.odb,Step-1,Increment      1: Step Time =    1.000,"PART-1-1",           492,            5.,      -19.6875,            0.,NA,NA,"",   82.3320E-03,  -76.9881E-03,   29.1786E-03,   2.47640E-03
C:/temp/dataset/test2/14_3.odb,Step-1,Increment      1: Step Time =    1.000,"PART-1-1",           493,            1.,      -19.6875,            0.,NA,NA,"",   69.4899E-03,  -69.1319E-03,   7.04426E-03,   1.61382E-03
C:/temp/dataset/test2/14_3.odb,Step-1,Increment      1: Step Time =    1.000,"PART-1-1",           494,            2.,       -20.625,            0.,NA,NA,"",   65.2542E-03,  -64.2502E-03,   11.4028E-03,   2.56607E-03
C:/temp/dataset/test2/14_3.odb,Step-1,Increment      1: Step Time =    1.000,"PART-1-1",           495,           -1.,      -19.6875,            0.,NA,NA,"",   67.4708E-03,  -67.3691E-03,  -3.70274E-03,   1.15907E-03
C:/temp/dataset/test2/14_3.odb,Step-1,Increment      1: Step Time =    1.000,"PART-1-1",           496,            0.,       -20.625,            0.,NA,NA,"",   61.4516E-03,  -61.4411E-03,   1.13624E-03,   1.81209E-03
C:/temp/dataset/test2/14_3.odb,Step-1,Increment      1: Step Time =    1.000,"PART-1-1",           497,           -3.,      -19.6875,            0.,NA,NA,"",   68.4573E-03,  -66.8178E-03,  -14.8926E-03,   748.604E-06
C:/temp/dataset/test2/14_3.odb,Step-1,Increment      1: Step Time =    1.000,"PART-1-1",           498,           -2.,       -20.625,            0.,NA,NA,"",   61.0114E-03,  -60.3219E-03,  -9.14658E-03,   1.25206E-03
C:/temp/dataset/test2/14_3.odb,Step-1,Increment      1: Step Time =    1.000,"PART-1-1",           499,           -5.,      -19.6875,            0.,NA,NA,"",   72.2842E-03,  -66.8691E-03,  -27.4505E-03,   175.050E-06
C:/temp/dataset/test2/14_3.odb,Step-1,Increment      1: Step Time =    1.000,"PART-1-1",           500,           -4.,       -20.625,            0.,NA,NA,"",   63.7400E-03,  -60.3003E-03,  -20.6558E-03,   633.172E-06
C:/temp/dataset/test2/14_3.odb,Step-1,Increment      1: Step Time =    1.000,"PART-1-1",           501,            3.,      -21.5625,            0.,NA,NA,"",   60.8769E-03,  -58.8927E-03,   15.4159E-03,   3.34469E-03
C:/temp/dataset/test2/14_3.odb,Step-1,Increment      1: Step Time =    1.000,"PART-1-1",           502,            4.,         -22.5,            0.,NA,NA,"",   55.9190E-03,  -52.2381E-03,   19.9528E-03,   2.87831E-03
C:/temp/dataset/test2/14_3.odb,Step-1,Increment      1: Step Time =    1.000,"PART-1-1",           503,            5.,      -21.5625,            0.,NA,NA,"",   70.4448E-03,  -63.9983E-03,   29.4396E-03,   2.60063E-03
C:/temp/dataset/test2/14_3.odb,Step-1,Increment      1: Step Time =    1.000,"PART-1-1",           504,            1.,      -21.5625,            0.,NA,NA,"",   55.6968E-03,  -55.4445E-03,   5.29587E-03,   2.52037E-03
C:/temp/dataset/test2/14_3.odb,Step-1,Increment      1: Step Time =    1.000,"PART-1-1",           505,            2.,         -22.5,            0.,NA,NA,"",   49.8615E-03,  -49.0470E-03,   8.97596E-03,   3.04848E-03
C:/temp/dataset/test2/14_3.odb,Step-1,Increment      1: Step Time =    1.000,"PART-1-1",           506,           -1.,      -21.5625,            0.,NA,NA,"",   53.8478E-03,  -53.6919E-03,  -4.09467E-03,   1.93255E-03
C:/temp/dataset/test2/14_3.odb,Step-1,Increment      1: Step Time =    1.000,"PART-1-1",           507,            0.,         -22.5,            0.,NA,NA,"",   46.9406E-03,  -46.9403E-03,   168.655E-06,   2.57266E-03
C:/temp/dataset/test2/14_3.odb,Step-1,Increment      1: Step Time =    1.000,"PART-1-1",           508,           -3.,      -21.5625,            0.,NA,NA,"",   55.2586E-03,  -53.3784E-03,  -14.2918E-03,   1.37283E-03
C:/temp/dataset/test2/14_3.odb,Step-1,Increment      1: Step Time =    1.000,"PART-1-1",           509,           -2.,         -22.5,            0.,NA,NA,"",   47.0709E-03,  -46.2602E-03,  -8.69861E-03,   1.94717E-03
C:/temp/dataset/test2/14_3.odb,Step-1,Increment      1: Step Time =    1.000,"PART-1-1",           510,           -5.,      -21.5625,            0.,NA,NA,"",   60.1667E-03,  -53.8840E-03,  -26.7684E-03,   798.400E-06
C:/temp/dataset/test2/14_3.odb,Step-1,Increment      1: Step Time =    1.000,"PART-1-1",           511,           -4.,         -22.5,            0.,NA,NA,"",   50.6039E-03,  -46.7501E-03,  -19.3697E-03,   1.29251E-03
C:/temp/dataset/test2/14_3.odb,Step-1,Increment      1: Step Time =    1.000,"PART-1-1",           512,            3.,      -23.4375,            0.,NA,NA,"",   43.8820E-03,  -41.9673E-03,   12.8209E-03,   2.94012E-03
C:/temp/dataset/test2/14_3.odb,Step-1,Increment      1: Step Time =    1.000,"PART-1-1",           513,            4.,       -24.375,            0.,NA,NA,"",   38.7581E-03,  -34.5608E-03,   17.5427E-03,   2.30122E-03
C:/temp/dataset/test2/14_3.odb,Step-1,Increment      1: Step Time =    1.000,"PART-1-1",           514,            5.,      -23.4375,            0.,NA,NA,"",   51.4400E-03,  -43.6819E-03,   27.1655E-03,   2.24205E-03
C:/temp/dataset/test2/14_3.odb,Step-1,Increment      1: Step Time =    1.000,"PART-1-1",           515,            1.,      -23.4375,            0.,NA,NA,"",   40.1636E-03,  -39.9848E-03,   3.78531E-03,   2.98919E-03
C:/temp/dataset/test2/14_3.odb,Step-1,Increment      1: Step Time =    1.000,"PART-1-1",           516,            2.,       -24.375,            0.,NA,NA,"",   33.6206E-03,  -32.8751E-03,   7.04055E-03,   2.85973E-03
C:/temp/dataset/test2/14_3.odb,Step-1,Increment      1: Step Time =    1.000,"PART-1-1",           517,           -1.,      -23.4375,            0.,NA,NA,"",   39.2518E-03,  -39.0444E-03,  -4.03029E-03,   2.56363E-03
C:/temp/dataset/test2/14_3.odb,Step-1,Increment      1: Step Time =    1.000,"PART-1-1",           518,            0.,       -24.375,            0.,NA,NA,"",   31.8503E-03,  -31.8491E-03,  -271.746E-06,   2.88898E-03
C:/temp/dataset/test2/14_3.odb,Step-1,Increment      1: Step Time =    1.000,"PART-1-1",           519,           -3.,      -23.4375,            0.,NA,NA,"",   41.3933E-03,  -39.3474E-03,  -12.8527E-03,   2.04035E-03
C:/temp/dataset/test2/14_3.odb,Step-1,Increment      1: Step Time =    1.000,"PART-1-1",           520,           -2.,       -24.375,            0.,NA,NA,"",   32.7569E-03,  -31.9006E-03,  -7.44100E-03,   2.49868E-03
C:/temp/dataset/test2/14_3.odb,Step-1,Increment      1: Step Time =    1.000,"PART-1-1",           521,           -5.,      -23.4375,            0.,NA,NA,"",   47.5185E-03,  -40.5805E-03,  -24.7230E-03,   1.76566E-03
C:/temp/dataset/test2/14_3.odb,Step-1,Increment      1: Step Time =    1.000,"PART-1-1",           522,           -4.,       -24.375,            0.,NA,NA,"",   37.1196E-03,  -33.1023E-03,  -16.7960E-03,   2.15234E-03
C:/temp/dataset/test2/14_3.odb,Step-1,Increment      1: Step Time =    1.000,"PART-1-1",           523,            3.,      -25.3125,            0.,NA,NA,"",   28.0728E-03,  -26.1410E-03,   10.2339E-03,   2.72212E-03
C:/temp/dataset/test2/14_3.odb,Step-1,Increment      1: Step Time =    1.000,"PART-1-1",           524,            4.,        -26.25,            0.,NA,NA,"",   24.4242E-03,  -20.5873E-03,   13.1417E-03,   3.28588E-03
C:/temp/dataset/test2/14_3.odb,Step-1,Increment      1: Step Time =    1.000,"PART-1-1",           525,            5.,      -25.3125,            0.,NA,NA,"",   36.1090E-03,  -28.5899E-03,   22.0563E-03,   3.42396E-03
C:/temp/dataset/test2/14_3.odb,Step-1,Increment      1: Step Time =    1.000,"PART-1-1",           526,            1.,      -25.3125,            0.,NA,NA,"",   25.0228E-03,  -24.8773E-03,   2.69411E-03,   3.00260E-03
C:/temp/dataset/test2/14_3.odb,Step-1,Increment      1: Step Time =    1.000,"PART-1-1",           527,            2.,        -26.25,            0.,NA,NA,"",   19.1956E-03,  -18.5257E-03,   5.02694E-03,   2.84271E-03
C:/temp/dataset/test2/14_3.odb,Step-1,Increment      1: Step Time =    1.000,"PART-1-1",           528,           -1.,      -25.3125,            0.,NA,NA,"",   24.8584E-03,  -24.6450E-03,  -3.25033E-03,   2.88645E-03
C:/temp/dataset/test2/14_3.odb,Step-1,Increment      1: Step Time =    1.000,"PART-1-1",           529,            0.,        -26.25,            0.,NA,NA,"",   17.8836E-03,  -17.8817E-03,  -262.689E-06,   2.87157E-03
C:/temp/dataset/test2/14_3.odb,Step-1,Increment      1: Step Time =    1.000,"PART-1-1",           530,           -3.,      -25.3125,            0.,NA,NA,"",   27.5883E-03,  -25.6140E-03,  -10.2488E-03,   2.71330E-03
C:/temp/dataset/test2/14_3.odb,Step-1,Increment      1: Step Time =    1.000,"PART-1-1",           531,           -2.,        -26.25,            0.,NA,NA,"",   19.1841E-03,  -18.4331E-03,  -5.31515E-03,   2.91944E-03
C:/temp/dataset/test2/14_3.odb,Step-1,Increment      1: Step Time =    1.000,"PART-1-1",           532,           -5.,      -25.3125,            0.,NA,NA,"",   34.6601E-03,  -27.7280E-03,  -20.7961E-03,   2.90741E-03
C:/temp/dataset/test2/14_3.odb,Step-1,Increment      1: Step Time =    1.000,"PART-1-1",           533,           -4.,        -26.25,            0.,NA,NA,"",   24.0064E-03,  -20.3827E-03,  -12.6828E-03,   3.10282E-03
C:/temp/dataset/test2/14_3.odb,Step-1,Increment      1: Step Time =    1.000,"PART-1-1",           534,            3.,      -27.1875,            0.,NA,NA,"",   14.6993E-03,  -13.1666E-03,   6.53538E-03,   3.26441E-03
C:/temp/dataset/test2/14_3.odb,Step-1,Increment      1: Step Time =    1.000,"PART-1-1",           535,            4.,       -28.125,            0.,NA,NA,"",   11.1998E-03,  -8.85836E-03,   6.85315E-03,   4.35298E-03
C:/temp/dataset/test2/14_3.odb,Step-1,Increment      1: Step Time =    1.000,"PART-1-1",           536,            5.,      -27.1875,            0.,NA,NA,"",   22.5944E-03,  -16.4433E-03,   15.4960E-03,   4.72862E-03
C:/temp/dataset/test2/14_3.odb,Step-1,Increment      1: Step Time =    1.000,"PART-1-1",           537,            1.,      -27.1875,            0.,NA,NA,"",   12.0764E-03,  -11.9645E-03,   1.64034E-03,   2.80310E-03
C:/temp/dataset/test2/14_3.odb,Step-1,Increment      1: Step Time =    1.000,"PART-1-1",           538,            2.,       -28.125,            0.,NA,NA,"",   7.48025E-03,  -7.07729E-03,   2.42202E-03,   2.94434E-03
C:/temp/dataset/test2/14_3.odb,Step-1,Increment      1: Step Time =    1.000,"PART-1-1",           539,           -1.,      -27.1875,            0.,NA,NA,"",   12.1608E-03,  -11.9989E-03,  -1.97759E-03,   2.86271E-03
C:/temp/dataset/test2/14_3.odb,Step-1,Increment      1: Step Time =    1.000,"PART-1-1",           540,            0.,       -28.125,            0.,NA,NA,"",   6.65853E-03,  -6.65750E-03,  -116.931E-06,   2.50960E-03
C:/temp/dataset/test2/14_3.odb,Step-1,Increment      1: Step Time =    1.000,"PART-1-1",           541,           -3.,      -27.1875,            0.,NA,NA,"",   14.7309E-03,  -13.2280E-03,  -6.48229E-03,   3.33824E-03
C:/temp/dataset/test2/14_3.odb,Step-1,Increment      1: Step Time =    1.000,"PART-1-1",           542,           -2.,       -28.125,            0.,NA,NA,"",   7.62102E-03,  -7.19117E-03,  -2.52329E-03,   3.04436E-03
C:/temp/dataset/test2/14_3.odb,Step-1,Increment      1: Step Time =    1.000,"PART-1-1",           543,           -5.,      -27.1875,            0.,NA,NA,"",   22.1336E-03,  -16.3121E-03,  -14.9603E-03,   4.36465E-03
C:/temp/dataset/test2/14_3.odb,Step-1,Increment      1: Step Time =    1.000,"PART-1-1",           544,           -4.,       -28.125,            0.,NA,NA,"",   11.1229E-03,  -8.93183E-03,  -6.62885E-03,   4.22182E-03
C:/temp/dataset/test2/14_3.odb,Step-1,Increment      1: Step Time =    1.000,"PART-1-1",           545,            3.,      -29.0625,            0.,NA,NA,"",   3.59343E-03,  -2.97543E-03,   2.01485E-03,   3.18094E-03
C:/temp/dataset/test2/14_3.odb,Step-1,Increment      1: Step Time =    1.000,"PART-1-1",           546,            4.,          -30.,            0.,NA,NA,"",            0.,  -341.499E-42,   5.98210E-39,   5.43873E-03
C:/temp/dataset/test2/14_3.odb,Step-1,Increment      1: Step Time =    1.000,"PART-1-1",           547,            5.,      -29.0625,            0.,NA,NA,"",   8.54272E-03,  -6.14369E-03,   5.93575E-03,   6.67327E-03
C:/temp/dataset/test2/14_3.odb,Step-1,Increment      1: Step Time =    1.000,"PART-1-1",           548,            1.,      -29.0625,            0.,NA,NA,"",   2.72239E-03,  -2.66841E-03,   539.468E-06,   2.03664E-03
C:/temp/dataset/test2/14_3.odb,Step-1,Increment      1: Step Time =    1.000,"PART-1-1",           549,            2.,          -30.,            0.,NA,NA,"",            0.,  -1.02163E-39,   2.48319E-39,   2.03598E-03
C:/temp/dataset/test2/14_3.odb,Step-1,Increment      1: Step Time =    1.000,"PART-1-1",           550,           -1.,      -29.0625,            0.,NA,NA,"",   2.79394E-03,  -2.72394E-03,  -621.474E-06,   2.11852E-03
C:/temp/dataset/test2/14_3.odb,Step-1,Increment      1: Step Time =    1.000,"PART-1-1",           551,            0.,          -30.,            0.,NA,NA,"",            0.,  -1.00984E-39,  -77.0266E-42,   1.36534E-03
C:/temp/dataset/test2/14_3.odb,Step-1,Increment      1: Step Time =    1.000,"PART-1-1",           552,           -3.,      -29.0625,            0.,NA,NA,"",   3.66402E-03,  -3.07781E-03,  -1.98799E-03,   3.21968E-03
C:/temp/dataset/test2/14_3.odb,Step-1,Increment      1: Step Time =    1.000,"PART-1-1",           553,           -2.,          -30.,            0.,NA,NA,"",            0.,  -1.10263E-39,  -2.54602E-39,   2.11097E-03
C:/temp/dataset/test2/14_3.odb,Step-1,Increment      1: Step Time =    1.000,"PART-1-1",           554,           -5.,      -29.0625,            0.,NA,NA,"",   8.44623E-03,  -6.11914E-03,  -5.82193E-03,   6.47165E-03
C:/temp/dataset/test2/14_3.odb,Step-1,Increment      1: Step Time =    1.000,"PART-1-1",           555,           -4.,          -30.,            0.,NA,NA,"",            0.,  -393.796E-42,  -5.86949E-39,   5.37111E-03
