ODB Name,Step,Frame,Part Instance Name,    êﬂì_ÉâÉxÉã,X,Y,Z,Section Name,Material Name,Section Point,   U-Magnitude,          U-U1,          U-U2,       S-Mises
C:/temp/dataset/test2/15_2.odb,Step-1,Increment      1: Step Time =    1.000,"PART-1-1",             1,            5.,           30.,            0.,NA,NA,"",   105.771E-03,  -105.328E-03,   9.67056E-03,   9.79202E-12
C:/temp/dataset/test2/15_2.odb,Step-1,Increment      1: Step Time =    1.000,"PART-1-1",             2,            3.,           30.,            0.,NA,NA,"",   105.521E-03,  -105.325E-03,   6.43120E-03,   16.7419E-12
C:/temp/dataset/test2/15_2.odb,Step-1,Increment      1: Step Time =    1.000,"PART-1-1",             3,            1.,           30.,            0.,NA,NA,"",   105.371E-03,  -105.322E-03,   3.19183E-03,   12.5668E-12
C:/temp/dataset/test2/15_2.odb,Step-1,Increment      1: Step Time =    1.000,"PART-1-1",             4,           -1.,           30.,            0.,NA,NA,"",   105.320E-03,  -105.320E-03,  -47.5293E-06,   9.52128E-12
C:/temp/dataset/test2/15_2.odb,Step-1,Increment      1: Step Time =    1.000,"PART-1-1",             5,           -3.,           30.,            0.,NA,NA,"",   105.368E-03,  -105.317E-03,  -3.28689E-03,   10.5256E-12
C:/temp/dataset/test2/15_2.odb,Step-1,Increment      1: Step Time =    1.000,"PART-1-1",             6,           -5.,           30.,            0.,NA,NA,"",   105.517E-03,  -105.315E-03,  -6.52626E-03,   9.01787E-12
C:/temp/dataset/test2/15_2.odb,Step-1,Increment      1: Step Time =    1.000,"PART-1-1",             7,            5.,        28.125,            0.,NA,NA,"",   102.747E-03,  -102.291E-03,   9.67302E-03,   11.2788E-12
C:/temp/dataset/test2/15_2.odb,Step-1,Increment      1: Step Time =    1.000,"PART-1-1",             8,            3.,        28.125,            0.,NA,NA,"",   102.490E-03,  -102.288E-03,   6.43366E-03,   8.88325E-12
C:/temp/dataset/test2/15_2.odb,Step-1,Increment      1: Step Time =    1.000,"PART-1-1",             9,            1.,        28.125,            0.,NA,NA,"",   102.335E-03,  -102.285E-03,   3.19429E-03,   13.9694E-12
C:/temp/dataset/test2/15_2.odb,Step-1,Increment      1: Step Time =    1.000,"PART-1-1",            10,           -1.,        28.125,            0.,NA,NA,"",   102.283E-03,  -102.283E-03,  -45.0699E-06,   14.5291E-12
C:/temp/dataset/test2/15_2.odb,Step-1,Increment      1: Step Time =    1.000,"PART-1-1",            11,           -3.,        28.125,            0.,NA,NA,"",   102.333E-03,  -102.280E-03,  -3.28443E-03,   11.4541E-12
C:/temp/dataset/test2/15_2.odb,Step-1,Increment      1: Step Time =    1.000,"PART-1-1",            12,           -5.,        28.125,            0.,NA,NA,"",   102.485E-03,  -102.278E-03,  -6.52380E-03,   17.7808E-12
C:/temp/dataset/test2/15_2.odb,Step-1,Increment      1: Step Time =    1.000,"PART-1-1",            13,            5.,         26.25,            0.,NA,NA,"",   99.7243E-03,  -99.2538E-03,   9.67548E-03,   13.1956E-12
C:/temp/dataset/test2/15_2.odb,Step-1,Increment      1: Step Time =    1.000,"PART-1-1",            14,            3.,         26.25,            0.,NA,NA,"",   99.4597E-03,  -99.2512E-03,   6.43612E-03,   8.78618E-12
C:/temp/dataset/test2/15_2.odb,Step-1,Increment      1: Step Time =    1.000,"PART-1-1",            15,            1.,         26.25,            0.,NA,NA,"",   99.3001E-03,  -99.2486E-03,   3.19675E-03,   13.0886E-12
C:/temp/dataset/test2/15_2.odb,Step-1,Increment      1: Step Time =    1.000,"PART-1-1",            16,           -1.,         26.25,            0.,NA,NA,"",   99.2460E-03,  -99.2460E-03,  -42.6105E-06,   15.0934E-12
C:/temp/dataset/test2/15_2.odb,Step-1,Increment      1: Step Time =    1.000,"PART-1-1",            17,           -3.,         26.25,            0.,NA,NA,"",   99.2976E-03,  -99.2433E-03,  -3.28197E-03,   15.2453E-12
C:/temp/dataset/test2/15_2.odb,Step-1,Increment      1: Step Time =    1.000,"PART-1-1",            18,           -5.,         26.25,            0.,NA,NA,"",   99.4548E-03,  -99.2407E-03,  -6.52134E-03,   21.5725E-12
C:/temp/dataset/test2/15_2.odb,Step-1,Increment      1: Step Time =    1.000,"PART-1-1",            19,            5.,        24.375,            0.,NA,NA,"",   96.7024E-03,  -96.2169E-03,   9.67794E-03,   17.4614E-12
C:/temp/dataset/test2/15_2.odb,Step-1,Increment      1: Step Time =    1.000,"PART-1-1",            20,            3.,        24.375,            0.,NA,NA,"",   96.4295E-03,  -96.2143E-03,   6.43858E-03,   11.5440E-12
C:/temp/dataset/test2/15_2.odb,Step-1,Increment      1: Step Time =    1.000,"PART-1-1",            21,            1.,        24.375,            0.,NA,NA,"",   96.2649E-03,  -96.2117E-03,   3.19921E-03,   12.4870E-12
C:/temp/dataset/test2/15_2.odb,Step-1,Increment      1: Step Time =    1.000,"PART-1-1",            22,           -1.,        24.375,            0.,NA,NA,"",   96.2091E-03,  -96.2091E-03,  -40.1510E-06,   15.1369E-12
C:/temp/dataset/test2/15_2.odb,Step-1,Increment      1: Step Time =    1.000,"PART-1-1",            23,           -3.,        24.375,            0.,NA,NA,"",   96.2623E-03,  -96.2064E-03,  -3.27952E-03,   19.1873E-12
C:/temp/dataset/test2/15_2.odb,Step-1,Increment      1: Step Time =    1.000,"PART-1-1",            24,           -5.,        24.375,            0.,NA,NA,"",   96.4244E-03,  -96.2038E-03,  -6.51888E-03,   28.4609E-12
C:/temp/dataset/test2/15_2.odb,Step-1,Increment      1: Step Time =    1.000,"PART-1-1",            25,            5.,          22.5,            0.,NA,NA,"",   93.6815E-03,  -93.1800E-03,   9.68040E-03,   22.3141E-12
C:/temp/dataset/test2/15_2.odb,Step-1,Increment      1: Step Time =    1.000,"PART-1-1",            26,            3.,          22.5,            0.,NA,NA,"",   93.3998E-03,  -93.1774E-03,   6.44104E-03,   15.0748E-12
C:/temp/dataset/test2/15_2.odb,Step-1,Increment      1: Step Time =    1.000,"PART-1-1",            27,            1.,          22.5,            0.,NA,NA,"",   93.2298E-03,  -93.1748E-03,   3.20167E-03,   12.3215E-12
C:/temp/dataset/test2/15_2.odb,Step-1,Increment      1: Step Time =    1.000,"PART-1-1",            28,           -1.,          22.5,            0.,NA,NA,"",   93.1722E-03,  -93.1722E-03,  -37.6916E-06,   15.0050E-12
C:/temp/dataset/test2/15_2.odb,Step-1,Increment      1: Step Time =    1.000,"PART-1-1",            29,           -3.,          22.5,            0.,NA,NA,"",   93.2271E-03,  -93.1695E-03,  -3.27706E-03,   22.6505E-12
C:/temp/dataset/test2/15_2.odb,Step-1,Increment      1: Step Time =    1.000,"PART-1-1",            30,           -5.,          22.5,            0.,NA,NA,"",   93.3945E-03,  -93.1669E-03,  -6.51642E-03,   36.3658E-12
C:/temp/dataset/test2/15_2.odb,Step-1,Increment      1: Step Time =    1.000,"PART-1-1",            31,            5.,        20.625,            0.,NA,NA,"",   90.6617E-03,  -90.1431E-03,   9.68286E-03,   28.4087E-12
C:/temp/dataset/test2/15_2.odb,Step-1,Increment      1: Step Time =    1.000,"PART-1-1",            32,            3.,        20.625,            0.,NA,NA,"",   90.3705E-03,  -90.1405E-03,   6.44350E-03,   19.9373E-12
C:/temp/dataset/test2/15_2.odb,Step-1,Increment      1: Step Time =    1.000,"PART-1-1",            33,            1.,        20.625,            0.,NA,NA,"",   90.1948E-03,  -90.1379E-03,   3.20413E-03,   13.3459E-12
C:/temp/dataset/test2/15_2.odb,Step-1,Increment      1: Step Time =    1.000,"PART-1-1",            34,           -1.,        20.625,            0.,NA,NA,"",   90.1353E-03,  -90.1353E-03,  -35.2322E-06,   15.8423E-12
C:/temp/dataset/test2/15_2.odb,Step-1,Increment      1: Step Time =    1.000,"PART-1-1",            35,           -3.,        20.625,            0.,NA,NA,"",   90.1921E-03,  -90.1326E-03,  -3.27460E-03,   25.2649E-12
C:/temp/dataset/test2/15_2.odb,Step-1,Increment      1: Step Time =    1.000,"PART-1-1",            36,           -5.,        20.625,            0.,NA,NA,"",   90.3651E-03,  -90.1300E-03,  -6.51396E-03,   43.6536E-12
C:/temp/dataset/test2/15_2.odb,Step-1,Increment      1: Step Time =    1.000,"PART-1-1",            37,            5.,         18.75,            0.,NA,NA,"",   87.6430E-03,  -87.1062E-03,   9.68532E-03,   39.7416E-12
C:/temp/dataset/test2/15_2.odb,Step-1,Increment      1: Step Time =    1.000,"PART-1-1",            38,            3.,         18.75,            0.,NA,NA,"",   87.3418E-03,  -87.1036E-03,   6.44596E-03,   30.8985E-12
C:/temp/dataset/test2/15_2.odb,Step-1,Increment      1: Step Time =    1.000,"PART-1-1",            39,            1.,         18.75,            0.,NA,NA,"",   87.1600E-03,  -87.1010E-03,   3.20659E-03,   24.3550E-12
C:/temp/dataset/test2/15_2.odb,Step-1,Increment      1: Step Time =    1.000,"PART-1-1",            40,           -1.,         18.75,            0.,NA,NA,"",   87.0984E-03,  -87.0983E-03,  -32.7727E-06,   27.4401E-12
C:/temp/dataset/test2/15_2.odb,Step-1,Increment      1: Step Time =    1.000,"PART-1-1",            41,           -3.,         18.75,            0.,NA,NA,"",   87.1572E-03,  -87.0957E-03,  -3.27214E-03,   29.7507E-12
C:/temp/dataset/test2/15_2.odb,Step-1,Increment      1: Step Time =    1.000,"PART-1-1",            42,           -5.,         18.75,            0.,NA,NA,"",   87.3362E-03,  -87.0931E-03,  -6.51150E-03,   45.9788E-12
C:/temp/dataset/test2/15_2.odb,Step-1,Increment      1: Step Time =    1.000,"PART-1-1",            43,            5.,        16.875,            0.,NA,NA,"",   84.6257E-03,  -84.0693E-03,   9.68778E-03,   67.7812E-12
C:/temp/dataset/test2/15_2.odb,Step-1,Increment      1: Step Time =    1.000,"PART-1-1",            44,            3.,        16.875,            0.,NA,NA,"",   84.3136E-03,  -84.0667E-03,   6.44841E-03,   61.3378E-12
C:/temp/dataset/test2/15_2.odb,Step-1,Increment      1: Step Time =    1.000,"PART-1-1",            45,            1.,        16.875,            0.,NA,NA,"",   84.1253E-03,  -84.0641E-03,   3.20905E-03,   60.9361E-12
C:/temp/dataset/test2/15_2.odb,Step-1,Increment      1: Step Time =    1.000,"PART-1-1",            46,           -1.,        16.875,            0.,NA,NA,"",   84.0615E-03,  -84.0614E-03,  -30.3133E-06,   65.8646E-12
C:/temp/dataset/test2/15_2.odb,Step-1,Increment      1: Step Time =    1.000,"PART-1-1",            47,           -3.,        16.875,            0.,NA,NA,"",   84.1224E-03,  -84.0588E-03,  -3.26968E-03,   52.7812E-12
C:/temp/dataset/test2/15_2.odb,Step-1,Increment      1: Step Time =    1.000,"PART-1-1",            48,           -5.,        16.875,            0.,NA,NA,"",   84.3078E-03,  -84.0562E-03,  -6.50904E-03,   32.9262E-12
C:/temp/dataset/test2/15_2.odb,Step-1,Increment      1: Step Time =    1.000,"PART-1-1",            49,            5.,           15.,            0.,NA,NA,"",   81.6098E-03,  -81.0324E-03,   9.69024E-03,   137.791E-12
C:/temp/dataset/test2/15_2.odb,Step-1,Increment      1: Step Time =    1.000,"PART-1-1",            50,            3.,           15.,            0.,NA,NA,"",   81.2862E-03,  -81.0298E-03,   6.45087E-03,   130.009E-12
C:/temp/dataset/test2/15_2.odb,Step-1,Increment      1: Step Time =    1.000,"PART-1-1",            51,            1.,           15.,            0.,NA,NA,"",   81.0908E-03,  -81.0272E-03,   3.21151E-03,   137.964E-12
C:/temp/dataset/test2/15_2.odb,Step-1,Increment      1: Step Time =    1.000,"PART-1-1",            52,           -1.,           15.,            0.,NA,NA,"",   81.0245E-03,  -81.0245E-03,  -27.8537E-06,   145.577E-12
C:/temp/dataset/test2/15_2.odb,Step-1,Increment      1: Step Time =    1.000,"PART-1-1",            53,           -3.,           15.,            0.,NA,NA,"",   81.0878E-03,  -81.0219E-03,  -3.26722E-03,   118.086E-12
C:/temp/dataset/test2/15_2.odb,Step-1,Increment      1: Step Time =    1.000,"PART-1-1",            54,           -5.,           15.,            0.,NA,NA,"",   81.2801E-03,  -81.0193E-03,  -6.50658E-03,   32.6420E-12
C:/temp/dataset/test2/15_2.odb,Step-1,Increment      1: Step Time =    1.000,"PART-1-1",            55,            5.,        13.125,            0.,NA,NA,"",   78.5955E-03,  -77.9955E-03,   9.69270E-03,   294.603E-12
C:/temp/dataset/test2/15_2.odb,Step-1,Increment      1: Step Time =    1.000,"PART-1-1",            56,            3.,        13.125,            0.,NA,NA,"",   78.2594E-03,  -77.9929E-03,   6.45333E-03,   250.176E-12
C:/temp/dataset/test2/15_2.odb,Step-1,Increment      1: Step Time =    1.000,"PART-1-1",            57,            1.,        13.125,            0.,NA,NA,"",   78.0565E-03,  -77.9903E-03,   3.21397E-03,   262.822E-12
C:/temp/dataset/test2/15_2.odb,Step-1,Increment      1: Step Time =    1.000,"PART-1-1",            58,           -1.,        13.125,            0.,NA,NA,"",   77.9876E-03,  -77.9876E-03,  -25.3940E-06,   273.877E-12
C:/temp/dataset/test2/15_2.odb,Step-1,Increment      1: Step Time =    1.000,"PART-1-1",            59,           -3.,        13.125,            0.,NA,NA,"",   78.0533E-03,  -77.9850E-03,  -3.26476E-03,   237.203E-12
C:/temp/dataset/test2/15_2.odb,Step-1,Increment      1: Step Time =    1.000,"PART-1-1",            60,           -5.,        13.125,            0.,NA,NA,"",   78.2532E-03,  -77.9824E-03,  -6.50412E-03,   171.803E-12
C:/temp/dataset/test2/15_2.odb,Step-1,Increment      1: Step Time =    1.000,"PART-1-1",            61,            5.,         11.25,            0.,NA,NA,"",   75.5830E-03,  -74.9586E-03,   9.69516E-03,   596.358E-12
C:/temp/dataset/test2/15_2.odb,Step-1,Increment      1: Step Time =    1.000,"PART-1-1",            62,            3.,         11.25,            0.,NA,NA,"",   75.2335E-03,  -74.9560E-03,   6.45579E-03,   394.688E-12
C:/temp/dataset/test2/15_2.odb,Step-1,Increment      1: Step Time =    1.000,"PART-1-1",            63,            1.,         11.25,            0.,NA,NA,"",   75.0223E-03,  -74.9534E-03,   3.21643E-03,   395.958E-12
C:/temp/dataset/test2/15_2.odb,Step-1,Increment      1: Step Time =    1.000,"PART-1-1",            64,           -1.,         11.25,            0.,NA,NA,"",   74.9507E-03,  -74.9507E-03,  -22.9341E-06,   411.784E-12
C:/temp/dataset/test2/15_2.odb,Step-1,Increment      1: Step Time =    1.000,"PART-1-1",            65,           -3.,         11.25,            0.,NA,NA,"",   75.0191E-03,  -74.9481E-03,  -3.26230E-03,   382.023E-12
C:/temp/dataset/test2/15_2.odb,Step-1,Increment      1: Step Time =    1.000,"PART-1-1",            66,           -5.,         11.25,            0.,NA,NA,"",   75.2270E-03,  -74.9455E-03,  -6.50166E-03,   459.102E-12
C:/temp/dataset/test2/15_2.odb,Step-1,Increment      1: Step Time =    1.000,"PART-1-1",            67,            5.,         9.375,            0.,NA,NA,"",   72.5725E-03,  -71.9217E-03,   9.69761E-03,   1.05988E-09
C:/temp/dataset/test2/15_2.odb,Step-1,Increment      1: Step Time =    1.000,"PART-1-1",            68,            3.,         9.375,            0.,NA,NA,"",   72.2085E-03,  -71.9191E-03,   6.45825E-03,   399.956E-12
C:/temp/dataset/test2/15_2.odb,Step-1,Increment      1: Step Time =    1.000,"PART-1-1",            69,            1.,         9.375,            0.,NA,NA,"",   71.9885E-03,  -71.9165E-03,   3.21889E-03,   424.925E-12
C:/temp/dataset/test2/15_2.odb,Step-1,Increment      1: Step Time =    1.000,"PART-1-1",            70,           -1.,         9.375,            0.,NA,NA,"",   71.9138E-03,  -71.9138E-03,  -20.4742E-06,   446.883E-12
C:/temp/dataset/test2/15_2.odb,Step-1,Increment      1: Step Time =    1.000,"PART-1-1",            71,           -3.,         9.375,            0.,NA,NA,"",   71.9851E-03,  -71.9112E-03,  -3.25984E-03,   391.195E-12
C:/temp/dataset/test2/15_2.odb,Step-1,Increment      1: Step Time =    1.000,"PART-1-1",            72,           -5.,         9.375,            0.,NA,NA,"",   72.2017E-03,  -71.9086E-03,  -6.49921E-03,   908.383E-12
C:/temp/dataset/test2/15_2.odb,Step-1,Increment      1: Step Time =    1.000,"PART-1-1",            73,            5.,           7.5,            0.,NA,NA,"",   69.5644E-03,  -68.8848E-03,   9.70007E-03,   1.47124E-09
C:/temp/dataset/test2/15_2.odb,Step-1,Increment      1: Step Time =    1.000,"PART-1-1",            74,            3.,           7.5,            0.,NA,NA,"",   69.1845E-03,  -68.8822E-03,   6.46071E-03,   488.472E-12
C:/temp/dataset/test2/15_2.odb,Step-1,Increment      1: Step Time =    1.000,"PART-1-1",            75,            1.,           7.5,            0.,NA,NA,"",   68.9548E-03,  -68.8796E-03,   3.22135E-03,   1.19980E-09
C:/temp/dataset/test2/15_2.odb,Step-1,Increment      1: Step Time =    1.000,"PART-1-1",            76,           -1.,           7.5,            0.,NA,NA,"",   68.8769E-03,  -68.8769E-03,  -18.0147E-06,   1.20190E-09
C:/temp/dataset/test2/15_2.odb,Step-1,Increment      1: Step Time =    1.000,"PART-1-1",            77,           -3.,           7.5,            0.,NA,NA,"",   68.9513E-03,  -68.8743E-03,  -3.25738E-03,   511.922E-12
C:/temp/dataset/test2/15_2.odb,Step-1,Increment      1: Step Time =    1.000,"PART-1-1",            78,           -5.,           7.5,            0.,NA,NA,"",   69.1774E-03,  -68.8717E-03,  -6.49675E-03,   1.30541E-09
C:/temp/dataset/test2/15_2.odb,Step-1,Increment      1: Step Time =    1.000,"PART-1-1",            79,            5.,         5.625,            0.,NA,NA,"",   66.5589E-03,  -65.8479E-03,   9.70253E-03,   911.059E-12
C:/temp/dataset/test2/15_2.odb,Step-1,Increment      1: Step Time =    1.000,"PART-1-1",            80,            3.,         5.625,            0.,NA,NA,"",   66.1617E-03,  -65.8453E-03,   6.46317E-03,   3.37183E-09
C:/temp/dataset/test2/15_2.odb,Step-1,Increment      1: Step Time =    1.000,"PART-1-1",            81,            1.,         5.625,            0.,NA,NA,"",   65.9215E-03,  -65.8427E-03,   3.22381E-03,   4.95371E-09
C:/temp/dataset/test2/15_2.odb,Step-1,Increment      1: Step Time =    1.000,"PART-1-1",            82,           -1.,         5.625,            0.,NA,NA,"",   65.8400E-03,  -65.8400E-03,  -15.5576E-06,   4.94394E-09
C:/temp/dataset/test2/15_2.odb,Step-1,Increment      1: Step Time =    1.000,"PART-1-1",            83,           -3.,         5.625,            0.,NA,NA,"",   65.9178E-03,  -65.8374E-03,  -3.25492E-03,   3.39297E-09
C:/temp/dataset/test2/15_2.odb,Step-1,Increment      1: Step Time =    1.000,"PART-1-1",            84,           -5.,         5.625,            0.,NA,NA,"",   66.1543E-03,  -65.8348E-03,  -6.49429E-03,   734.848E-12
C:/temp/dataset/test2/15_2.odb,Step-1,Increment      1: Step Time =    1.000,"PART-1-1",            85,            5.,          3.75,            0.,NA,NA,"",   63.5564E-03,  -62.8110E-03,   9.70499E-03,   3.56269E-09
C:/temp/dataset/test2/15_2.odb,Step-1,Increment      1: Step Time =    1.000,"PART-1-1",            86,            3.,          3.75,            0.,NA,NA,"",   63.1403E-03,  -62.8084E-03,   6.46563E-03,   11.5575E-09
C:/temp/dataset/test2/15_2.odb,Step-1,Increment      1: Step Time =    1.000,"PART-1-1",            87,            1.,          3.75,            0.,NA,NA,"",   62.8886E-03,  -62.8057E-03,   3.22626E-03,   14.8260E-09
C:/temp/dataset/test2/15_2.odb,Step-1,Increment      1: Step Time =    1.000,"PART-1-1",            88,           -1.,          3.75,            0.,NA,NA,"",   62.8031E-03,  -62.8031E-03,  -13.1079E-06,   14.8105E-09
C:/temp/dataset/test2/15_2.odb,Step-1,Increment      1: Step Time =    1.000,"PART-1-1",            89,           -3.,          3.75,            0.,NA,NA,"",   62.8846E-03,  -62.8005E-03,  -3.25246E-03,   11.5784E-09
C:/temp/dataset/test2/15_2.odb,Step-1,Increment      1: Step Time =    1.000,"PART-1-1",            90,           -5.,          3.75,            0.,NA,NA,"",   63.1325E-03,  -62.7978E-03,  -6.49183E-03,   3.75103E-09
C:/temp/dataset/test2/15_2.odb,Step-1,Increment      1: Step Time =    1.000,"PART-1-1",            91,            5.,         1.875,            0.,NA,NA,"",   60.5573E-03,  -59.7741E-03,   9.70746E-03,   18.1981E-09
C:/temp/dataset/test2/15_2.odb,Step-1,Increment      1: Step Time =    1.000,"PART-1-1",            92,            3.,         1.875,            0.,NA,NA,"",   60.1205E-03,  -59.7715E-03,   6.46809E-03,   30.2004E-09
C:/temp/dataset/test2/15_2.odb,Step-1,Increment      1: Step Time =    1.000,"PART-1-1",            93,            1.,         1.875,            0.,NA,NA,"",   59.8560E-03,  -59.7689E-03,   3.22869E-03,   36.0945E-09
C:/temp/dataset/test2/15_2.odb,Step-1,Increment      1: Step Time =    1.000,"PART-1-1",            94,           -1.,         1.875,            0.,NA,NA,"",   59.7662E-03,  -59.7662E-03,  -10.6764E-06,   36.0718E-09
C:/temp/dataset/test2/15_2.odb,Step-1,Increment      1: Step Time =    1.000,"PART-1-1",            95,           -3.,         1.875,            0.,NA,NA,"",   59.8518E-03,  -59.7635E-03,  -3.25000E-03,   30.2179E-09
C:/temp/dataset/test2/15_2.odb,Step-1,Increment      1: Step Time =    1.000,"PART-1-1",            96,           -5.,         1.875,            0.,NA,NA,"",   60.1122E-03,  -59.7609E-03,  -6.48936E-03,   18.4107E-09
C:/temp/dataset/test2/15_2.odb,Step-1,Increment      1: Step Time =    1.000,"PART-1-1",            97,            5.,            0.,            0.,NA,NA,"",   57.5622E-03,  -56.7373E-03,   9.70998E-03,   55.8877E-09
C:/temp/dataset/test2/15_2.odb,Step-1,Increment      1: Step Time =    1.000,"PART-1-1",            98,            3.,            0.,            0.,NA,NA,"",   57.1025E-03,  -56.7347E-03,   6.47055E-03,   65.4149E-09
C:/temp/dataset/test2/15_2.odb,Step-1,Increment      1: Step Time =    1.000,"PART-1-1",            99,            1.,            0.,            0.,NA,NA,"",   56.8239E-03,  -56.7320E-03,   3.23108E-03,   73.9514E-09
C:/temp/dataset/test2/15_2.odb,Step-1,Increment      1: Step Time =    1.000,"PART-1-1",           100,           -1.,            0.,            0.,NA,NA,"",   56.7293E-03,  -56.7293E-03,  -8.28173E-06,   73.9096E-09
C:/temp/dataset/test2/15_2.odb,Step-1,Increment      1: Step Time =    1.000,"PART-1-1",           101,           -3.,            0.,            0.,NA,NA,"",   56.8195E-03,  -56.7266E-03,  -3.24754E-03,   65.4063E-09
C:/temp/dataset/test2/15_2.odb,Step-1,Increment      1: Step Time =    1.000,"PART-1-1",           102,           -5.,            0.,            0.,NA,NA,"",   57.0937E-03,  -56.7240E-03,  -6.48684E-03,   56.1100E-09
C:/temp/dataset/test2/15_2.odb,Step-1,Increment      1: Step Time =    1.000,"PART-1-1",           103,            5.,        -1.875,            0.,NA,NA,"",   54.5717E-03,  -53.7004E-03,   9.71259E-03,   136.252E-09
C:/temp/dataset/test2/15_2.odb,Step-1,Increment      1: Step Time =    1.000,"PART-1-1",           104,            3.,        -1.875,            0.,NA,NA,"",   54.0866E-03,  -53.6978E-03,   6.47302E-03,   116.651E-09
C:/temp/dataset/test2/15_2.odb,Step-1,Increment      1: Step Time =    1.000,"PART-1-1",           105,            1.,        -1.875,            0.,NA,NA,"",   53.7924E-03,  -53.6951E-03,   3.23342E-03,   124.368E-09
C:/temp/dataset/test2/15_2.odb,Step-1,Increment      1: Step Time =    1.000,"PART-1-1",           106,           -1.,        -1.875,            0.,NA,NA,"",   53.6923E-03,  -53.6923E-03,  -5.94670E-06,   124.241E-09
C:/temp/dataset/test2/15_2.odb,Step-1,Increment      1: Step Time =    1.000,"PART-1-1",           107,           -3.,        -1.875,            0.,NA,NA,"",   53.7876E-03,  -53.6896E-03,  -3.24507E-03,   116.473E-09
C:/temp/dataset/test2/15_2.odb,Step-1,Increment      1: Step Time =    1.000,"PART-1-1",           108,           -5.,        -1.875,            0.,NA,NA,"",   54.0772E-03,  -53.6871E-03,  -6.48423E-03,   136.413E-09
C:/temp/dataset/test2/15_2.odb,Step-1,Increment      1: Step Time =    1.000,"PART-1-1",           109,            5.,         -3.75,            0.,NA,NA,"",   51.5865E-03,  -50.6633E-03,   9.71538E-03,   276.389E-09
C:/temp/dataset/test2/15_2.odb,Step-1,Increment      1: Step Time =    1.000,"PART-1-1",           110,            3.,         -3.75,            0.,NA,NA,"",   51.0730E-03,  -50.6608E-03,   6.47549E-03,   152.870E-09
C:/temp/dataset/test2/15_2.odb,Step-1,Increment      1: Step Time =    1.000,"PART-1-1",           111,            1.,         -3.75,            0.,NA,NA,"",   50.7614E-03,  -50.6582E-03,   3.23569E-03,   154.400E-09
C:/temp/dataset/test2/15_2.odb,Step-1,Increment      1: Step Time =    1.000,"PART-1-1",           112,           -1.,         -3.75,            0.,NA,NA,"",   50.6555E-03,  -50.6555E-03,  -3.67304E-06,   153.959E-09
C:/temp/dataset/test2/15_2.odb,Step-1,Increment      1: Step Time =    1.000,"PART-1-1",           113,           -3.,         -3.75,            0.,NA,NA,"",   50.7565E-03,  -50.6528E-03,  -3.24260E-03,   152.026E-09
C:/temp/dataset/test2/15_2.odb,Step-1,Increment      1: Step Time =    1.000,"PART-1-1",           114,           -5.,         -3.75,            0.,NA,NA,"",   51.0633E-03,  -50.6503E-03,  -6.48144E-03,   275.999E-09
C:/temp/dataset/test2/15_2.odb,Step-1,Increment      1: Step Time =    1.000,"PART-1-1",           115,            5.,        -5.625,            0.,NA,NA,"",   48.6073E-03,  -47.6259E-03,   9.71846E-03,   450.046E-09
C:/temp/dataset/test2/15_2.odb,Step-1,Increment      1: Step Time =    1.000,"PART-1-1",           116,            3.,        -5.625,            0.,NA,NA,"",   48.0620E-03,  -47.6234E-03,   6.47797E-03,   88.7732E-09
C:/temp/dataset/test2/15_2.odb,Step-1,Increment      1: Step Time =    1.000,"PART-1-1",           117,            1.,        -5.625,            0.,NA,NA,"",   47.7310E-03,  -47.6210E-03,   3.23801E-03,   217.983E-09
C:/temp/dataset/test2/15_2.odb,Step-1,Increment      1: Step Time =    1.000,"PART-1-1",           118,           -1.,        -5.625,            0.,NA,NA,"",   47.6188E-03,  -47.6188E-03,  -1.35511E-06,   217.578E-09
C:/temp/dataset/test2/15_2.odb,Step-1,Increment      1: Step Time =    1.000,"PART-1-1",           119,           -3.,        -5.625,            0.,NA,NA,"",   47.7265E-03,  -47.6164E-03,  -3.24012E-03,   87.7364E-09
C:/temp/dataset/test2/15_2.odb,Step-1,Increment      1: Step Time =    1.000,"PART-1-1",           120,           -5.,        -5.625,            0.,NA,NA,"",   48.0527E-03,  -47.6140E-03,  -6.47836E-03,   447.140E-09
C:/temp/dataset/test2/15_2.odb,Step-1,Increment      1: Step Time =    1.000,"PART-1-1",           121,            5.,          -7.5,            0.,NA,NA,"",   45.6348E-03,  -44.5872E-03,   9.72179E-03,   469.850E-09
C:/temp/dataset/test2/15_2.odb,Step-1,Increment      1: Step Time =    1.000,"PART-1-1",           122,            3.,          -7.5,            0.,NA,NA,"",   45.0534E-03,  -44.5849E-03,   6.48044E-03,   599.060E-09
C:/temp/dataset/test2/15_2.odb,Step-1,Increment      1: Step Time =    1.000,"PART-1-1",           123,            1.,          -7.5,            0.,NA,NA,"",   44.7010E-03,  -44.5834E-03,   3.24079E-03,   998.826E-09
C:/temp/dataset/test2/15_2.odb,Step-1,Increment      1: Step Time =    1.000,"PART-1-1",           124,           -1.,          -7.5,            0.,NA,NA,"",   44.5826E-03,  -44.5826E-03,   1.43509E-06,   998.827E-09
C:/temp/dataset/test2/15_2.odb,Step-1,Increment      1: Step Time =    1.000,"PART-1-1",           125,           -3.,          -7.5,            0.,NA,NA,"",   44.6986E-03,  -44.5812E-03,  -3.23765E-03,   605.508E-09
C:/temp/dataset/test2/15_2.odb,Step-1,Increment      1: Step Time =    1.000,"PART-1-1",           126,           -5.,          -7.5,            0.,NA,NA,"",   45.0466E-03,  -44.5788E-03,  -6.47505E-03,   458.165E-09
C:/temp/dataset/test2/15_2.odb,Step-1,Increment      1: Step Time =    1.000,"PART-1-1",           127,            5.,        -9.375,            0.,NA,NA,"",   42.6692E-03,  -41.5462E-03,   9.72473E-03,   364.235E-09
C:/temp/dataset/test2/15_2.odb,Step-1,Increment      1: Step Time =    1.000,"PART-1-1",           128,            3.,        -9.375,            0.,NA,NA,"",   42.0464E-03,  -41.5436E-03,   6.48287E-03,   2.52377E-06
C:/temp/dataset/test2/15_2.odb,Step-1,Increment      1: Step Time =    1.000,"PART-1-1",           129,            1.,        -9.375,            0.,NA,NA,"",   41.6711E-03,  -41.5445E-03,   3.24528E-03,   3.38659E-06
C:/temp/dataset/test2/15_2.odb,Step-1,Increment      1: Step Time =    1.000,"PART-1-1",           130,           -1.,        -9.375,            0.,NA,NA,"",   41.5477E-03,  -41.5477E-03,   5.91403E-06,   3.37579E-06
C:/temp/dataset/test2/15_2.odb,Step-1,Increment      1: Step Time =    1.000,"PART-1-1",           131,           -3.,        -9.375,            0.,NA,NA,"",   41.6743E-03,  -41.5485E-03,  -3.23523E-03,   2.52297E-06
C:/temp/dataset/test2/15_2.odb,Step-1,Increment      1: Step Time =    1.000,"PART-1-1",           132,           -5.,        -9.375,            0.,NA,NA,"",   42.0470E-03,  -41.5459E-03,  -6.47217E-03,   390.408E-09
C:/temp/dataset/test2/15_2.odb,Step-1,Increment      1: Step Time =    1.000,"PART-1-1",           133,            5.,        -11.25,            0.,NA,NA,"",   39.7105E-03,  -38.5013E-03,   9.72478E-03,   3.57073E-06
C:/temp/dataset/test2/15_2.odb,Step-1,Increment      1: Step Time =    1.000,"PART-1-1",           134,            3.,        -11.25,            0.,NA,NA,"",   39.0399E-03,  -38.4975E-03,   6.48512E-03,   7.33554E-06
C:/temp/dataset/test2/15_2.odb,Step-1,Increment      1: Step Time =    1.000,"PART-1-1",           135,            1.,        -11.25,            0.,NA,NA,"",   38.6408E-03,  -38.5035E-03,   3.25431E-03,   8.97055E-06
C:/temp/dataset/test2/15_2.odb,Step-1,Increment      1: Step Time =    1.000,"PART-1-1",           136,           -1.,        -11.25,            0.,NA,NA,"",   38.5151E-03,  -38.5151E-03,   14.8253E-06,   8.89560E-06
C:/temp/dataset/test2/15_2.odb,Step-1,Increment      1: Step Time =    1.000,"PART-1-1",           137,           -3.,        -11.25,            0.,NA,NA,"",   38.6562E-03,  -38.5207E-03,  -3.23301E-03,   7.21582E-06
C:/temp/dataset/test2/15_2.odb,Step-1,Increment      1: Step Time =    1.000,"PART-1-1",           138,           -5.,        -11.25,            0.,NA,NA,"",   39.0569E-03,  -38.5169E-03,  -6.47214E-03,   3.58751E-06
C:/temp/dataset/test2/15_2.odb,Step-1,Increment      1: Step Time =    1.000,"PART-1-1",           139,            5.,       -13.125,            0.,NA,NA,"",   36.7587E-03,  -35.4515E-03,   9.71560E-03,   12.8178E-06
C:/temp/dataset/test2/15_2.odb,Step-1,Increment      1: Step Time =    1.000,"PART-1-1",           140,            3.,       -13.125,            0.,NA,NA,"",   36.0331E-03,  -35.4443E-03,   6.48725E-03,   17.4893E-06
C:/temp/dataset/test2/15_2.odb,Step-1,Increment      1: Step Time =    1.000,"PART-1-1",           141,            1.,       -13.125,            0.,NA,NA,"",   35.6107E-03,  -35.4599E-03,   3.27358E-03,   19.9593E-06
C:/temp/dataset/test2/15_2.odb,Step-1,Increment      1: Step Time =    1.000,"PART-1-1",           142,           -1.,       -13.125,            0.,NA,NA,"",   35.4859E-03,  -35.4859E-03,   33.3235E-06,   19.5174E-06
C:/temp/dataset/test2/15_2.odb,Step-1,Increment      1: Step Time =    1.000,"PART-1-1",           143,           -3.,       -13.125,            0.,NA,NA,"",   35.6462E-03,  -35.4995E-03,  -3.23142E-03,   16.6121E-06
C:/temp/dataset/test2/15_2.odb,Step-1,Increment      1: Step Time =    1.000,"PART-1-1",           144,           -5.,       -13.125,            0.,NA,NA,"",   36.0789E-03,  -35.4920E-03,  -6.48137E-03,   12.5450E-06
C:/temp/dataset/test2/15_2.odb,Step-1,Increment      1: Step Time =    1.000,"PART-1-1",           145,            5.,          -15.,            0.,NA,NA,"",   33.8180E-03,  -32.4030E-03,   9.68025E-03,   35.4871E-06
C:/temp/dataset/test2/15_2.odb,Step-1,Increment      1: Step Time =    1.000,"PART-1-1",           146,            3.,          -15.,            0.,NA,NA,"",   33.0307E-03,  -32.3870E-03,   6.48905E-03,   35.1620E-06
C:/temp/dataset/test2/15_2.odb,Step-1,Increment      1: Step Time =    1.000,"PART-1-1",           147,            1.,          -15.,            0.,NA,NA,"",   32.5850E-03,  -32.4162E-03,   3.31185E-03,   37.2618E-06
C:/temp/dataset/test2/15_2.odb,Step-1,Increment      1: Step Time =    1.000,"PART-1-1",           148,           -1.,          -15.,            0.,NA,NA,"",   32.4598E-03,  -32.4597E-03,   68.2079E-06,   35.4658E-06
C:/temp/dataset/test2/15_2.odb,Step-1,Increment      1: Step Time =    1.000,"PART-1-1",           149,           -3.,          -15.,            0.,NA,NA,"",   32.6416E-03,  -32.4812E-03,  -3.23170E-03,   31.3092E-06
C:/temp/dataset/test2/15_2.odb,Step-1,Increment      1: Step Time =    1.000,"PART-1-1",           150,           -5.,          -15.,            0.,NA,NA,"",   33.1117E-03,  -32.4647E-03,  -6.51364E-03,   32.4942E-06
C:/temp/dataset/test2/15_2.odb,Step-1,Increment      1: Step Time =    1.000,"PART-1-1",           151,            5.,       -16.875,            0.,NA,NA,"",   30.9048E-03,  -29.3782E-03,   9.59319E-03,   81.1401E-06
C:/temp/dataset/test2/15_2.odb,Step-1,Increment      1: Step Time =    1.000,"PART-1-1",           152,            3.,       -16.875,            0.,NA,NA,"",   30.0573E-03,  -29.3471E-03,   6.49546E-03,   59.3901E-06
C:/temp/dataset/test2/15_2.odb,Step-1,Increment      1: Step Time =    1.000,"PART-1-1",           153,            1.,       -16.875,            0.,NA,NA,"",   29.5789E-03,  -29.3854E-03,   3.37780E-03,   55.4930E-06
C:/temp/dataset/test2/15_2.odb,Step-1,Increment      1: Step Time =    1.000,"PART-1-1",           154,           -1.,       -16.875,            0.,NA,NA,"",   29.4288E-03,  -29.4286E-03,   122.595E-06,   49.5241E-06
C:/temp/dataset/test2/15_2.odb,Step-1,Increment      1: Step Time =    1.000,"PART-1-1",           155,           -3.,       -16.875,            0.,NA,NA,"",   29.6215E-03,  -29.4441E-03,  -3.23679E-03,   44.6701E-06
C:/temp/dataset/test2/15_2.odb,Step-1,Increment      1: Step Time =    1.000,"PART-1-1",           156,           -5.,       -16.875,            0.,NA,NA,"",   30.1394E-03,  -29.4097E-03,  -6.59198E-03,   67.5212E-06
C:/temp/dataset/test2/15_2.odb,Step-1,Increment      1: Step Time =    1.000,"PART-1-1",           157,            5.,        -18.75,            0.,NA,NA,"",   28.0916E-03,  -26.4810E-03,   9.37515E-03,   173.440E-06
C:/temp/dataset/test2/15_2.odb,Step-1,Increment      1: Step Time =    1.000,"PART-1-1",           158,            3.,        -18.75,            0.,NA,NA,"",   27.1996E-03,  -26.4096E-03,   6.50783E-03,   58.1990E-06
C:/temp/dataset/test2/15_2.odb,Step-1,Increment      1: Step Time =    1.000,"PART-1-1",           159,            1.,        -18.75,            0.,NA,NA,"",   26.6258E-03,  -26.4004E-03,   3.45741E-03,   65.4648E-06
C:/temp/dataset/test2/15_2.odb,Step-1,Increment      1: Step Time =    1.000,"PART-1-1",           160,           -1.,        -18.75,            0.,NA,NA,"",   26.3574E-03,  -26.3568E-03,   175.967E-06,   47.8406E-06
C:/temp/dataset/test2/15_2.odb,Step-1,Increment      1: Step Time =    1.000,"PART-1-1",           161,           -3.,        -18.75,            0.,NA,NA,"",   26.5211E-03,  -26.3210E-03,  -3.25186E-03,   34.4333E-06
C:/temp/dataset/test2/15_2.odb,Step-1,Increment      1: Step Time =    1.000,"PART-1-1",           162,           -5.,        -18.75,            0.,NA,NA,"",   27.1119E-03,  -26.2604E-03,  -6.74130E-03,   111.020E-06
C:/temp/dataset/test2/15_2.odb,Step-1,Increment      1: Step Time =    1.000,"PART-1-1",           163,            5.,       -20.625,            0.,NA,NA,"",   25.6215E-03,  -23.9795E-03,   9.02462E-03,   395.148E-06
C:/temp/dataset/test2/15_2.odb,Step-1,Increment      1: Step Time =    1.000,"PART-1-1",           164,            3.,       -20.625,            0.,NA,NA,"",   24.6665E-03,  -23.7766E-03,   6.56567E-03,   249.628E-06
C:/temp/dataset/test2/15_2.odb,Step-1,Increment      1: Step Time =    1.000,"PART-1-1",           165,            1.,       -20.625,            0.,NA,NA,"",   23.7359E-03,  -23.4852E-03,   3.44092E-03,   235.899E-06
C:/temp/dataset/test2/15_2.odb,Step-1,Increment      1: Step Time =    1.000,"PART-1-1",           166,           -1.,       -20.625,            0.,NA,NA,"",   23.1307E-03,  -23.1302E-03,   160.224E-06,   168.698E-06
C:/temp/dataset/test2/15_2.odb,Step-1,Increment      1: Step Time =    1.000,"PART-1-1",           167,           -3.,       -20.625,            0.,NA,NA,"",   23.1988E-03,  -22.9664E-03,  -3.27532E-03,   75.5258E-06
C:/temp/dataset/test2/15_2.odb,Step-1,Increment      1: Step Time =    1.000,"PART-1-1",           168,           -5.,       -20.625,            0.,NA,NA,"",   23.9240E-03,  -22.8905E-03,  -6.95577E-03,   125.693E-06
C:/temp/dataset/test2/15_2.odb,Step-1,Increment      1: Step Time =    1.000,"PART-1-1",           169,            5.,         -22.5,            0.,NA,NA,"",   24.9019E-03,  -23.4992E-03,   8.23979E-03,   1.08078E-03
C:/temp/dataset/test2/15_2.odb,Step-1,Increment      1: Step Time =    1.000,"PART-1-1",           170,            3.,         -22.5,            0.,NA,NA,"",   22.7348E-03,  -21.8803E-03,   6.17440E-03,   1.16084E-03
C:/temp/dataset/test2/15_2.odb,Step-1,Increment      1: Step Time =    1.000,"PART-1-1",           171,            1.,         -22.5,            0.,NA,NA,"",   20.5995E-03,  -20.3789E-03,   3.00659E-03,   747.073E-06
C:/temp/dataset/test2/15_2.odb,Step-1,Increment      1: Step Time =    1.000,"PART-1-1",           172,           -1.,         -22.5,            0.,NA,NA,"",   19.4716E-03,  -19.4716E-03,  -20.0575E-06,   517.487E-06
C:/temp/dataset/test2/15_2.odb,Step-1,Increment      1: Step Time =    1.000,"PART-1-1",           173,           -3.,         -22.5,            0.,NA,NA,"",   19.4294E-03,  -19.1539E-03,  -3.25996E-03,   307.484E-06
C:/temp/dataset/test2/15_2.odb,Step-1,Increment      1: Step Time =    1.000,"PART-1-1",           174,           -5.,         -22.5,            0.,NA,NA,"",   20.4159E-03,  -19.1286E-03,  -7.13479E-03,   38.7341E-06
C:/temp/dataset/test2/15_2.odb,Step-1,Increment      1: Step Time =    1.000,"PART-1-1",           175,            5.,       -24.375,            0.,NA,NA,"",   23.4848E-03,  -21.8512E-03,   8.60598E-03,   2.15672E-03
C:/temp/dataset/test2/15_2.odb,Step-1,Increment      1: Step Time =    1.000,"PART-1-1",           176,            3.,       -24.375,            0.,NA,NA,"",   19.3337E-03,  -18.7584E-03,   4.68119E-03,   2.15512E-03
C:/temp/dataset/test2/15_2.odb,Step-1,Increment      1: Step Time =    1.000,"PART-1-1",           177,            1.,       -24.375,            0.,NA,NA,"",   16.3464E-03,  -16.2252E-03,   1.98649E-03,   1.44026E-03
C:/temp/dataset/test2/15_2.odb,Step-1,Increment      1: Step Time =    1.000,"PART-1-1",           178,           -1.,       -24.375,            0.,NA,NA,"",   15.0139E-03,  -15.0101E-03,  -338.132E-06,   1.03301E-03
C:/temp/dataset/test2/15_2.odb,Step-1,Increment      1: Step Time =    1.000,"PART-1-1",           179,           -3.,       -24.375,            0.,NA,NA,"",   15.0122E-03,  -14.6935E-03,  -3.07675E-03,   681.568E-06
C:/temp/dataset/test2/15_2.odb,Step-1,Increment      1: Step Time =    1.000,"PART-1-1",           180,           -5.,       -24.375,            0.,NA,NA,"",   16.4433E-03,  -14.8707E-03,  -7.01740E-03,   264.440E-06
C:/temp/dataset/test2/15_2.odb,Step-1,Increment      1: Step Time =    1.000,"PART-1-1",           181,            5.,        -26.25,            0.,NA,NA,"",   16.6420E-03,  -14.4447E-03,   8.26461E-03,   1.43057E-03
C:/temp/dataset/test2/15_2.odb,Step-1,Increment      1: Step Time =    1.000,"PART-1-1",           182,            3.,        -26.25,            0.,NA,NA,"",   12.5432E-03,  -12.2427E-03,   2.72892E-03,   2.40215E-03
C:/temp/dataset/test2/15_2.odb,Step-1,Increment      1: Step Time =    1.000,"PART-1-1",           183,            1.,        -26.25,            0.,NA,NA,"",   10.6045E-03,  -10.5703E-03,   851.283E-06,   1.87099E-03
C:/temp/dataset/test2/15_2.odb,Step-1,Increment      1: Step Time =    1.000,"PART-1-1",           184,           -1.,        -26.25,            0.,NA,NA,"",   9.72188E-03,  -9.70885E-03,  -503.237E-06,   1.46632E-03
C:/temp/dataset/test2/15_2.odb,Step-1,Increment      1: Step Time =    1.000,"PART-1-1",           185,           -3.,        -26.25,            0.,NA,NA,"",   9.92155E-03,  -9.61816E-03,  -2.43478E-03,   1.18639E-03
C:/temp/dataset/test2/15_2.odb,Step-1,Increment      1: Step Time =    1.000,"PART-1-1",           186,           -5.,        -26.25,            0.,NA,NA,"",   11.9050E-03,  -10.1536E-03,  -6.21554E-03,   752.004E-06
C:/temp/dataset/test2/15_2.odb,Step-1,Increment      1: Step Time =    1.000,"PART-1-1",           187,            5.,       -28.125,            0.,NA,NA,"",   8.17630E-03,  -6.24554E-03,   5.27685E-03,   2.37909E-03
C:/temp/dataset/test2/15_2.odb,Step-1,Increment      1: Step Time =    1.000,"PART-1-1",           188,            3.,       -28.125,            0.,NA,NA,"",   5.26172E-03,  -5.07963E-03,   1.37222E-03,   1.98016E-03
C:/temp/dataset/test2/15_2.odb,Step-1,Increment      1: Step Time =    1.000,"PART-1-1",           189,            1.,       -28.125,            0.,NA,NA,"",   4.57906E-03,  -4.57382E-03,   218.966E-06,   1.80030E-03
C:/temp/dataset/test2/15_2.odb,Step-1,Increment      1: Step Time =    1.000,"PART-1-1",           190,           -1.,       -28.125,            0.,NA,NA,"",   4.31036E-03,  -4.29515E-03,  -361.846E-06,   1.61730E-03
C:/temp/dataset/test2/15_2.odb,Step-1,Increment      1: Step Time =    1.000,"PART-1-1",           191,           -3.,       -28.125,            0.,NA,NA,"",   4.65903E-03,  -4.43566E-03,  -1.42530E-03,   1.71018E-03
C:/temp/dataset/test2/15_2.odb,Step-1,Increment      1: Step Time =    1.000,"PART-1-1",           192,           -5.,       -28.125,            0.,NA,NA,"",   6.83736E-03,  -5.28883E-03,  -4.33333E-03,   1.82832E-03
C:/temp/dataset/test2/15_2.odb,Step-1,Increment      1: Step Time =    1.000,"PART-1-1",           193,            5.,          -30.,            0.,NA,NA,"",            0.,  -1.05503E-39,   1.79305E-39,   4.30193E-03
C:/temp/dataset/test2/15_2.odb,Step-1,Increment      1: Step Time =    1.000,"PART-1-1",           194,            3.,          -30.,            0.,NA,NA,"",            0.,  -1.06642E-39,   979.201E-42,   1.12644E-03
C:/temp/dataset/test2/15_2.odb,Step-1,Increment      1: Step Time =    1.000,"PART-1-1",           195,            1.,          -30.,            0.,NA,NA,"",            0.,  -707.807E-42,   316.175E-42,   1.25294E-03
C:/temp/dataset/test2/15_2.odb,Step-1,Increment      1: Step Time =    1.000,"PART-1-1",           196,           -1.,          -30.,            0.,NA,NA,"",            0.,  -576.968E-42,  -68.9060E-42,   1.25644E-03
C:/temp/dataset/test2/15_2.odb,Step-1,Increment      1: Step Time =    1.000,"PART-1-1",           197,           -3.,          -30.,            0.,NA,NA,"",            0.,  -940.978E-42,  -657.568E-42,   1.16846E-03
C:/temp/dataset/test2/15_2.odb,Step-1,Increment      1: Step Time =    1.000,"PART-1-1",           198,           -5.,          -30.,            0.,NA,NA,"",            0.,  -910.202E-42,  -1.53171E-39,   3.71203E-03
C:/temp/dataset/test2/15_2.odb,Step-1,Increment      1: Step Time =    1.000,"PART-1-1",           199,            4.,           30.,            0.,NA,NA,"",   105.634E-03,  -105.326E-03,   8.05088E-03,   13.6927E-12
C:/temp/dataset/test2/15_2.odb,Step-1,Increment      1: Step Time =    1.000,"PART-1-1",           200,            3.,       29.0625,            0.,NA,NA,"",   104.006E-03,  -103.807E-03,   6.43243E-03,   12.7159E-12
C:/temp/dataset/test2/15_2.odb,Step-1,Increment      1: Step Time =    1.000,"PART-1-1",           201,            4.,        28.125,            0.,NA,NA,"",   102.606E-03,  -102.289E-03,   8.05334E-03,   6.80823E-12
C:/temp/dataset/test2/15_2.odb,Step-1,Increment      1: Step Time =    1.000,"PART-1-1",           202,            5.,       29.0625,            0.,NA,NA,"",   104.259E-03,  -103.809E-03,   9.67179E-03,   9.01728E-12
C:/temp/dataset/test2/15_2.odb,Step-1,Increment      1: Step Time =    1.000,"PART-1-1",           203,            2.,           30.,            0.,NA,NA,"",   105.434E-03,  -105.324E-03,   4.81152E-03,   13.7874E-12
C:/temp/dataset/test2/15_2.odb,Step-1,Increment      1: Step Time =    1.000,"PART-1-1",           204,            1.,       29.0625,            0.,NA,NA,"",   103.853E-03,  -103.804E-03,   3.19306E-03,   13.0443E-12
C:/temp/dataset/test2/15_2.odb,Step-1,Increment      1: Step Time =    1.000,"PART-1-1",           205,            2.,        28.125,            0.,NA,NA,"",   102.400E-03,  -102.287E-03,   4.81398E-03,   11.6234E-12
C:/temp/dataset/test2/15_2.odb,Step-1,Increment      1: Step Time =    1.000,"PART-1-1",           206,            0.,           30.,            0.,NA,NA,"",   105.333E-03,  -105.321E-03,   1.57215E-03,   10.5757E-12
C:/temp/dataset/test2/15_2.odb,Step-1,Increment      1: Step Time =    1.000,"PART-1-1",           207,           -1.,       29.0625,            0.,NA,NA,"",   103.801E-03,  -103.801E-03,  -46.2996E-06,   12.0149E-12
C:/temp/dataset/test2/15_2.odb,Step-1,Increment      1: Step Time =    1.000,"PART-1-1",           208,            0.,        28.125,            0.,NA,NA,"",   102.296E-03,  -102.284E-03,   1.57461E-03,   14.2350E-12
C:/temp/dataset/test2/15_2.odb,Step-1,Increment      1: Step Time =    1.000,"PART-1-1",           209,           -2.,           30.,            0.,NA,NA,"",   105.332E-03,  -105.318E-03,  -1.66721E-03,   9.33945E-12
C:/temp/dataset/test2/15_2.odb,Step-1,Increment      1: Step Time =    1.000,"PART-1-1",           210,           -3.,       29.0625,            0.,NA,NA,"",   103.851E-03,  -103.799E-03,  -3.28566E-03,   10.1020E-12
C:/temp/dataset/test2/15_2.odb,Step-1,Increment      1: Step Time =    1.000,"PART-1-1",           211,           -2.,        28.125,            0.,NA,NA,"",   102.295E-03,  -102.282E-03,  -1.66475E-03,   12.9420E-12
C:/temp/dataset/test2/15_2.odb,Step-1,Increment      1: Step Time =    1.000,"PART-1-1",           212,           -4.,           30.,            0.,NA,NA,"",   105.430E-03,  -105.316E-03,  -4.90658E-03,   8.55137E-12
C:/temp/dataset/test2/15_2.odb,Step-1,Increment      1: Step Time =    1.000,"PART-1-1",           213,           -5.,       29.0625,            0.,NA,NA,"",   104.001E-03,  -103.796E-03,  -6.52503E-03,   13.8049E-12
C:/temp/dataset/test2/15_2.odb,Step-1,Increment      1: Step Time =    1.000,"PART-1-1",           214,           -4.,        28.125,            0.,NA,NA,"",   102.396E-03,  -102.279E-03,  -4.90412E-03,   12.7849E-12
C:/temp/dataset/test2/15_2.odb,Step-1,Increment      1: Step Time =    1.000,"PART-1-1",           215,            3.,       27.1875,            0.,NA,NA,"",   100.975E-03,  -100.770E-03,   6.43489E-03,   8.19723E-12
C:/temp/dataset/test2/15_2.odb,Step-1,Increment      1: Step Time =    1.000,"PART-1-1",           216,            4.,         26.25,            0.,NA,NA,"",   99.5789E-03,  -99.2525E-03,   8.05580E-03,   9.74442E-12
C:/temp/dataset/test2/15_2.odb,Step-1,Increment      1: Step Time =    1.000,"PART-1-1",           217,            5.,       27.1875,            0.,NA,NA,"",   101.236E-03,  -100.772E-03,   9.67425E-03,   11.8579E-12
C:/temp/dataset/test2/15_2.odb,Step-1,Increment      1: Step Time =    1.000,"PART-1-1",           218,            1.,       27.1875,            0.,NA,NA,"",   100.818E-03,  -100.767E-03,   3.19552E-03,   13.4638E-12
C:/temp/dataset/test2/15_2.odb,Step-1,Increment      1: Step Time =    1.000,"PART-1-1",           219,            2.,         26.25,            0.,NA,NA,"",   99.3667E-03,  -99.2499E-03,   4.81644E-03,   10.2568E-12
C:/temp/dataset/test2/15_2.odb,Step-1,Increment      1: Step Time =    1.000,"PART-1-1",           220,           -1.,       27.1875,            0.,NA,NA,"",   100.764E-03,  -100.764E-03,  -43.8402E-06,   14.7223E-12
C:/temp/dataset/test2/15_2.odb,Step-1,Increment      1: Step Time =    1.000,"PART-1-1",           221,            0.,         26.25,            0.,NA,NA,"",   99.2598E-03,  -99.2473E-03,   1.57707E-03,   13.9661E-12
C:/temp/dataset/test2/15_2.odb,Step-1,Increment      1: Step Time =    1.000,"PART-1-1",           222,           -3.,       27.1875,            0.,NA,NA,"",   100.815E-03,  -100.762E-03,  -3.28320E-03,   13.0970E-12
C:/temp/dataset/test2/15_2.odb,Step-1,Increment      1: Step Time =    1.000,"PART-1-1",           223,           -2.,         26.25,            0.,NA,NA,"",   99.2586E-03,  -99.2447E-03,  -1.66229E-03,   14.5101E-12
C:/temp/dataset/test2/15_2.odb,Step-1,Increment      1: Step Time =    1.000,"PART-1-1",           224,           -5.,       27.1875,            0.,NA,NA,"",   100.970E-03,  -100.759E-03,  -6.52257E-03,   18.9036E-12
C:/temp/dataset/test2/15_2.odb,Step-1,Increment      1: Step Time =    1.000,"PART-1-1",           225,           -4.,         26.25,            0.,NA,NA,"",   99.3630E-03,  -99.2420E-03,  -4.90166E-03,   17.4687E-12
C:/temp/dataset/test2/15_2.odb,Step-1,Increment      1: Step Time =    1.000,"PART-1-1",           226,            3.,       25.3125,            0.,NA,NA,"",   97.9445E-03,  -97.7328E-03,   6.43735E-03,   10.0445E-12
C:/temp/dataset/test2/15_2.odb,Step-1,Increment      1: Step Time =    1.000,"PART-1-1",           227,            4.,        24.375,            0.,NA,NA,"",   96.5525E-03,  -96.2156E-03,   8.05826E-03,   13.6705E-12
C:/temp/dataset/test2/15_2.odb,Step-1,Increment      1: Step Time =    1.000,"PART-1-1",           228,            5.,       25.3125,            0.,NA,NA,"",   98.2133E-03,  -97.7354E-03,   9.67671E-03,   15.2620E-12
C:/temp/dataset/test2/15_2.odb,Step-1,Increment      1: Step Time =    1.000,"PART-1-1",           229,            1.,       25.3125,            0.,NA,NA,"",   97.7824E-03,  -97.7301E-03,   3.19798E-03,   12.7117E-12
C:/temp/dataset/test2/15_2.odb,Step-1,Increment      1: Step Time =    1.000,"PART-1-1",           230,            2.,        24.375,            0.,NA,NA,"",   96.3336E-03,  -96.2130E-03,   4.81890E-03,   11.0170E-12
C:/temp/dataset/test2/15_2.odb,Step-1,Increment      1: Step Time =    1.000,"PART-1-1",           231,           -1.,       25.3125,            0.,NA,NA,"",   97.7275E-03,  -97.7275E-03,  -41.3807E-06,   15.0727E-12
C:/temp/dataset/test2/15_2.odb,Step-1,Increment      1: Step Time =    1.000,"PART-1-1",           232,            0.,        24.375,            0.,NA,NA,"",   96.2233E-03,  -96.2104E-03,   1.57953E-03,   13.3137E-12
C:/temp/dataset/test2/15_2.odb,Step-1,Increment      1: Step Time =    1.000,"PART-1-1",           233,           -3.,       25.3125,            0.,NA,NA,"",   97.7799E-03,  -97.7249E-03,  -3.28074E-03,   17.1663E-12
C:/temp/dataset/test2/15_2.odb,Step-1,Increment      1: Step Time =    1.000,"PART-1-1",           234,           -2.,        24.375,            0.,NA,NA,"",   96.2221E-03,  -96.2077E-03,  -1.65983E-03,   16.3994E-12
C:/temp/dataset/test2/15_2.odb,Step-1,Increment      1: Step Time =    1.000,"PART-1-1",           235,           -5.,       25.3125,            0.,NA,NA,"",   97.9395E-03,  -97.7223E-03,  -6.52011E-03,   24.9363E-12
C:/temp/dataset/test2/15_2.odb,Step-1,Increment      1: Step Time =    1.000,"PART-1-1",           236,           -4.,        24.375,            0.,NA,NA,"",   96.3298E-03,  -96.2051E-03,  -4.89920E-03,   23.0485E-12
C:/temp/dataset/test2/15_2.odb,Step-1,Increment      1: Step Time =    1.000,"PART-1-1",           237,            3.,       23.4375,            0.,NA,NA,"",   94.9146E-03,  -94.6959E-03,   6.43981E-03,   13.2553E-12
C:/temp/dataset/test2/15_2.odb,Step-1,Increment      1: Step Time =    1.000,"PART-1-1",           238,            4.,          22.5,            0.,NA,NA,"",   93.5267E-03,  -93.1787E-03,   8.06072E-03,   18.0149E-12
C:/temp/dataset/test2/15_2.odb,Step-1,Increment      1: Step Time =    1.000,"PART-1-1",           239,            5.,       23.4375,            0.,NA,NA,"",   95.1918E-03,  -94.6985E-03,   9.67917E-03,   19.9043E-12
C:/temp/dataset/test2/15_2.odb,Step-1,Increment      1: Step Time =    1.000,"PART-1-1",           240,            1.,       23.4375,            0.,NA,NA,"",   94.7473E-03,  -94.6932E-03,   3.20044E-03,   12.3779E-12
C:/temp/dataset/test2/15_2.odb,Step-1,Increment      1: Step Time =    1.000,"PART-1-1",           241,            2.,          22.5,            0.,NA,NA,"",   93.3007E-03,  -93.1761E-03,   4.82135E-03,   12.4104E-12
C:/temp/dataset/test2/15_2.odb,Step-1,Increment      1: Step Time =    1.000,"PART-1-1",           242,           -1.,       23.4375,            0.,NA,NA,"",   94.6906E-03,  -94.6906E-03,  -38.9213E-06,   15.0232E-12
C:/temp/dataset/test2/15_2.odb,Step-1,Increment      1: Step Time =    1.000,"PART-1-1",           243,            0.,          22.5,            0.,NA,NA,"",   93.1869E-03,  -93.1735E-03,   1.58199E-03,   12.5906E-12
C:/temp/dataset/test2/15_2.odb,Step-1,Increment      1: Step Time =    1.000,"PART-1-1",           244,           -3.,       23.4375,            0.,NA,NA,"",   94.7447E-03,  -94.6880E-03,  -3.27829E-03,   20.8511E-12
C:/temp/dataset/test2/15_2.odb,Step-1,Increment      1: Step Time =    1.000,"PART-1-1",           245,           -2.,          22.5,            0.,NA,NA,"",   93.1856E-03,  -93.1708E-03,  -1.65737E-03,   18.0797E-12
C:/temp/dataset/test2/15_2.odb,Step-1,Increment      1: Step Time =    1.000,"PART-1-1",           246,           -5.,       23.4375,            0.,NA,NA,"",   94.9094E-03,  -94.6854E-03,  -6.51765E-03,   32.3390E-12
C:/temp/dataset/test2/15_2.odb,Step-1,Increment      1: Step Time =    1.000,"PART-1-1",           247,           -4.,          22.5,            0.,NA,NA,"",   93.2968E-03,  -93.1682E-03,  -4.89674E-03,   28.8855E-12
C:/temp/dataset/test2/15_2.odb,Step-1,Increment      1: Step Time =    1.000,"PART-1-1",           248,            3.,       21.5625,            0.,NA,NA,"",   91.8851E-03,  -91.6589E-03,   6.44227E-03,   17.4380E-12
C:/temp/dataset/test2/15_2.odb,Step-1,Increment      1: Step Time =    1.000,"PART-1-1",           249,            4.,        20.625,            0.,NA,NA,"",   90.5017E-03,  -90.1418E-03,   8.06318E-03,   23.2737E-12
C:/temp/dataset/test2/15_2.odb,Step-1,Increment      1: Step Time =    1.000,"PART-1-1",           250,            5.,       21.5625,            0.,NA,NA,"",   92.1715E-03,  -91.6616E-03,   9.68163E-03,   25.4627E-12
C:/temp/dataset/test2/15_2.odb,Step-1,Increment      1: Step Time =    1.000,"PART-1-1",           251,            1.,       21.5625,            0.,NA,NA,"",   91.7123E-03,  -91.6563E-03,   3.20290E-03,   12.6036E-12
C:/temp/dataset/test2/15_2.odb,Step-1,Increment      1: Step Time =    1.000,"PART-1-1",           252,            2.,        20.625,            0.,NA,NA,"",   90.2682E-03,  -90.1392E-03,   4.82381E-03,   14.5884E-12
C:/temp/dataset/test2/15_2.odb,Step-1,Increment      1: Step Time =    1.000,"PART-1-1",           253,           -1.,       21.5625,            0.,NA,NA,"",   91.6537E-03,  -91.6537E-03,  -36.4619E-06,   15.1162E-12
C:/temp/dataset/test2/15_2.odb,Step-1,Increment      1: Step Time =    1.000,"PART-1-1",           254,            0.,        20.625,            0.,NA,NA,"",   90.1505E-03,  -90.1366E-03,   1.58445E-03,   12.7559E-12
C:/temp/dataset/test2/15_2.odb,Step-1,Increment      1: Step Time =    1.000,"PART-1-1",           255,           -3.,       21.5625,            0.,NA,NA,"",   91.7096E-03,  -91.6511E-03,  -3.27583E-03,   23.7917E-12
C:/temp/dataset/test2/15_2.odb,Step-1,Increment      1: Step Time =    1.000,"PART-1-1",           256,           -2.,        20.625,            0.,NA,NA,"",   90.1491E-03,  -90.1339E-03,  -1.65491E-03,   20.0868E-12
C:/temp/dataset/test2/15_2.odb,Step-1,Increment      1: Step Time =    1.000,"PART-1-1",           257,           -5.,       21.5625,            0.,NA,NA,"",   91.8797E-03,  -91.6485E-03,  -6.51519E-03,   39.8554E-12
C:/temp/dataset/test2/15_2.odb,Step-1,Increment      1: Step Time =    1.000,"PART-1-1",           258,           -4.,        20.625,            0.,NA,NA,"",   90.2641E-03,  -90.1313E-03,  -4.89428E-03,   34.0604E-12
C:/temp/dataset/test2/15_2.odb,Step-1,Increment      1: Step Time =    1.000,"PART-1-1",           259,            3.,       19.6875,            0.,NA,NA,"",   88.8561E-03,  -88.6220E-03,   6.44473E-03,   25.0815E-12
C:/temp/dataset/test2/15_2.odb,Step-1,Increment      1: Step Time =    1.000,"PART-1-1",           260,            4.,         18.75,            0.,NA,NA,"",   87.4775E-03,  -87.1049E-03,   8.06564E-03,   32.7314E-12
C:/temp/dataset/test2/15_2.odb,Step-1,Increment      1: Step Time =    1.000,"PART-1-1",           261,            5.,       19.6875,            0.,NA,NA,"",   89.1522E-03,  -88.6247E-03,   9.68409E-03,   34.2965E-12
C:/temp/dataset/test2/15_2.odb,Step-1,Increment      1: Step Time =    1.000,"PART-1-1",           262,            1.,       19.6875,            0.,NA,NA,"",   88.6774E-03,  -88.6194E-03,   3.20536E-03,   18.0046E-12
C:/temp/dataset/test2/15_2.odb,Step-1,Increment      1: Step Time =    1.000,"PART-1-1",           263,            2.,         18.75,            0.,NA,NA,"",   87.2359E-03,  -87.1023E-03,   4.82627E-03,   22.8983E-12
C:/temp/dataset/test2/15_2.odb,Step-1,Increment      1: Step Time =    1.000,"PART-1-1",           264,           -1.,       19.6875,            0.,NA,NA,"",   88.6168E-03,  -88.6168E-03,  -34.0025E-06,   20.7215E-12
C:/temp/dataset/test2/15_2.odb,Step-1,Increment      1: Step Time =    1.000,"PART-1-1",           265,            0.,         18.75,            0.,NA,NA,"",   87.1141E-03,  -87.0997E-03,   1.58691E-03,   22.9729E-12
C:/temp/dataset/test2/15_2.odb,Step-1,Increment      1: Step Time =    1.000,"PART-1-1",           266,           -3.,       19.6875,            0.,NA,NA,"",   88.6746E-03,  -88.6142E-03,  -3.27337E-03,   26.7463E-12
C:/temp/dataset/test2/15_2.odb,Step-1,Increment      1: Step Time =    1.000,"PART-1-1",           267,           -2.,         18.75,            0.,NA,NA,"",   87.1127E-03,  -87.0970E-03,  -1.65245E-03,   28.2070E-12
C:/temp/dataset/test2/15_2.odb,Step-1,Increment      1: Step Time =    1.000,"PART-1-1",           268,           -5.,       19.6875,            0.,NA,NA,"",   88.8506E-03,  -88.6116E-03,  -6.51273E-03,   44.5006E-12
C:/temp/dataset/test2/15_2.odb,Step-1,Increment      1: Step Time =    1.000,"PART-1-1",           269,           -4.,         18.75,            0.,NA,NA,"",   87.2317E-03,  -87.0944E-03,  -4.89182E-03,   36.7512E-12
C:/temp/dataset/test2/15_2.odb,Step-1,Increment      1: Step Time =    1.000,"PART-1-1",           270,            3.,       17.8125,            0.,NA,NA,"",   85.8276E-03,  -85.5851E-03,   6.44719E-03,   45.4677E-12
C:/temp/dataset/test2/15_2.odb,Step-1,Increment      1: Step Time =    1.000,"PART-1-1",           271,            4.,        16.875,            0.,NA,NA,"",   84.4543E-03,  -84.0680E-03,   8.06810E-03,   56.2071E-12
C:/temp/dataset/test2/15_2.odb,Step-1,Increment      1: Step Time =    1.000,"PART-1-1",           272,            5.,       17.8125,            0.,NA,NA,"",   86.1342E-03,  -85.5878E-03,   9.68655E-03,   54.1314E-12
C:/temp/dataset/test2/15_2.odb,Step-1,Increment      1: Step Time =    1.000,"PART-1-1",           273,            1.,       17.8125,            0.,NA,NA,"",   85.6426E-03,  -85.5825E-03,   3.20782E-03,   42.1094E-12
C:/temp/dataset/test2/15_2.odb,Step-1,Increment      1: Step Time =    1.000,"PART-1-1",           274,            2.,        16.875,            0.,NA,NA,"",   84.2039E-03,  -84.0654E-03,   4.82873E-03,   51.3764E-12
C:/temp/dataset/test2/15_2.odb,Step-1,Increment      1: Step Time =    1.000,"PART-1-1",           275,           -1.,       17.8125,            0.,NA,NA,"",   85.5799E-03,  -85.5799E-03,  -31.5430E-06,   46.1938E-12
C:/temp/dataset/test2/15_2.odb,Step-1,Increment      1: Step Time =    1.000,"PART-1-1",           276,            0.,        16.875,            0.,NA,NA,"",   84.0778E-03,  -84.0628E-03,   1.58937E-03,   57.4688E-12
C:/temp/dataset/test2/15_2.odb,Step-1,Increment      1: Step Time =    1.000,"PART-1-1",           277,           -3.,       17.8125,            0.,NA,NA,"",   85.6398E-03,  -85.5773E-03,  -3.27091E-03,   39.4007E-12
C:/temp/dataset/test2/15_2.odb,Step-1,Increment      1: Step Time =    1.000,"PART-1-1",           278,           -2.,        16.875,            0.,NA,NA,"",   84.0763E-03,  -84.0601E-03,  -1.65000E-03,   57.4782E-12
C:/temp/dataset/test2/15_2.odb,Step-1,Increment      1: Step Time =    1.000,"PART-1-1",           279,           -5.,       17.8125,            0.,NA,NA,"",   85.8219E-03,  -85.5746E-03,  -6.51027E-03,   38.7690E-12
C:/temp/dataset/test2/15_2.odb,Step-1,Increment      1: Step Time =    1.000,"PART-1-1",           280,           -4.,        16.875,            0.,NA,NA,"",   84.1996E-03,  -84.0575E-03,  -4.88936E-03,   38.0163E-12
C:/temp/dataset/test2/15_2.odb,Step-1,Increment      1: Step Time =    1.000,"PART-1-1",           281,            3.,       15.9375,            0.,NA,NA,"",   82.7998E-03,  -82.5482E-03,   6.44964E-03,   94.7155E-12
C:/temp/dataset/test2/15_2.odb,Step-1,Increment      1: Step Time =    1.000,"PART-1-1",           282,            4.,           15.,            0.,NA,NA,"",   81.4320E-03,  -81.0311E-03,   8.07056E-03,   111.836E-12
C:/temp/dataset/test2/15_2.odb,Step-1,Increment      1: Step Time =    1.000,"PART-1-1",           283,            5.,       15.9375,            0.,NA,NA,"",   83.1175E-03,  -82.5509E-03,   9.68901E-03,   103.197E-12
C:/temp/dataset/test2/15_2.odb,Step-1,Increment      1: Step Time =    1.000,"PART-1-1",           284,            1.,       15.9375,            0.,NA,NA,"",   82.6080E-03,  -82.5456E-03,   3.21028E-03,   98.6341E-12
C:/temp/dataset/test2/15_2.odb,Step-1,Increment      1: Step Time =    1.000,"PART-1-1",           285,            2.,           15.,            0.,NA,NA,"",   81.1724E-03,  -81.0285E-03,   4.83119E-03,   114.507E-12
C:/temp/dataset/test2/15_2.odb,Step-1,Increment      1: Step Time =    1.000,"PART-1-1",           286,           -1.,       15.9375,            0.,NA,NA,"",   82.5430E-03,  -82.5430E-03,  -29.0835E-06,   105.071E-12
C:/temp/dataset/test2/15_2.odb,Step-1,Increment      1: Step Time =    1.000,"PART-1-1",           287,            0.,           15.,            0.,NA,NA,"",   81.0415E-03,  -81.0259E-03,   1.59183E-03,   128.830E-12
C:/temp/dataset/test2/15_2.odb,Step-1,Increment      1: Step Time =    1.000,"PART-1-1",           288,           -3.,       15.9375,            0.,NA,NA,"",   82.6051E-03,  -82.5404E-03,  -3.26845E-03,   83.8932E-12
C:/temp/dataset/test2/15_2.odb,Step-1,Increment      1: Step Time =    1.000,"PART-1-1",           289,           -2.,           15.,            0.,NA,NA,"",   81.0400E-03,  -81.0232E-03,  -1.64754E-03,   122.876E-12
C:/temp/dataset/test2/15_2.odb,Step-1,Increment      1: Step Time =    1.000,"PART-1-1",           290,           -5.,       15.9375,            0.,NA,NA,"",   82.7939E-03,  -82.5377E-03,  -6.50781E-03,   16.1787E-12
C:/temp/dataset/test2/15_2.odb,Step-1,Increment      1: Step Time =    1.000,"PART-1-1",           291,           -4.,           15.,            0.,NA,NA,"",   81.1678E-03,  -81.0206E-03,  -4.88690E-03,   64.6029E-12
C:/temp/dataset/test2/15_2.odb,Step-1,Increment      1: Step Time =    1.000,"PART-1-1",           292,            3.,       14.0625,            0.,NA,NA,"",   79.7727E-03,  -79.5113E-03,   6.45210E-03,   187.718E-12
C:/temp/dataset/test2/15_2.odb,Step-1,Increment      1: Step Time =    1.000,"PART-1-1",           293,            4.,        13.125,            0.,NA,NA,"",   78.4109E-03,  -77.9942E-03,   8.07302E-03,   222.878E-12
C:/temp/dataset/test2/15_2.odb,Step-1,Increment      1: Step Time =    1.000,"PART-1-1",           294,            5.,       14.0625,            0.,NA,NA,"",   80.1024E-03,  -79.5140E-03,   9.69147E-03,   215.868E-12
C:/temp/dataset/test2/15_2.odb,Step-1,Increment      1: Step Time =    1.000,"PART-1-1",           295,            1.,       14.0625,            0.,NA,NA,"",   79.5736E-03,  -79.5087E-03,   3.21274E-03,   197.751E-12
C:/temp/dataset/test2/15_2.odb,Step-1,Increment      1: Step Time =    1.000,"PART-1-1",           296,            2.,        13.125,            0.,NA,NA,"",   78.1412E-03,  -77.9916E-03,   4.83365E-03,   218.423E-12
C:/temp/dataset/test2/15_2.odb,Step-1,Increment      1: Step Time =    1.000,"PART-1-1",           297,           -1.,       14.0625,            0.,NA,NA,"",   79.5061E-03,  -79.5061E-03,  -26.6239E-06,   207.287E-12
C:/temp/dataset/test2/15_2.odb,Step-1,Increment      1: Step Time =    1.000,"PART-1-1",           298,            0.,        13.125,            0.,NA,NA,"",   78.0052E-03,  -77.9889E-03,   1.59429E-03,   243.370E-12
C:/temp/dataset/test2/15_2.odb,Step-1,Increment      1: Step Time =    1.000,"PART-1-1",           299,           -3.,       14.0625,            0.,NA,NA,"",   79.5705E-03,  -79.5035E-03,  -3.26599E-03,   175.229E-12
C:/temp/dataset/test2/15_2.odb,Step-1,Increment      1: Step Time =    1.000,"PART-1-1",           300,           -2.,        13.125,            0.,NA,NA,"",   78.0037E-03,  -77.9863E-03,  -1.64508E-03,   230.293E-12
C:/temp/dataset/test2/15_2.odb,Step-1,Increment      1: Step Time =    1.000,"PART-1-1",           301,           -5.,       14.0625,            0.,NA,NA,"",   79.7666E-03,  -79.5008E-03,  -6.50535E-03,   100.533E-12
C:/temp/dataset/test2/15_2.odb,Step-1,Increment      1: Step Time =    1.000,"PART-1-1",           302,           -4.,        13.125,            0.,NA,NA,"",   78.1365E-03,  -77.9837E-03,  -4.88444E-03,   155.576E-12
C:/temp/dataset/test2/15_2.odb,Step-1,Increment      1: Step Time =    1.000,"PART-1-1",           303,            3.,       12.1875,            0.,NA,NA,"",   76.7463E-03,  -76.4744E-03,   6.45456E-03,   316.044E-12
C:/temp/dataset/test2/15_2.odb,Step-1,Increment      1: Step Time =    1.000,"PART-1-1",           304,            4.,         11.25,            0.,NA,NA,"",   75.3910E-03,  -74.9573E-03,   8.07547E-03,   403.302E-12
C:/temp/dataset/test2/15_2.odb,Step-1,Increment      1: Step Time =    1.000,"PART-1-1",           305,            5.,       12.1875,            0.,NA,NA,"",   77.0890E-03,  -76.4771E-03,   9.69393E-03,   441.806E-12
C:/temp/dataset/test2/15_2.odb,Step-1,Increment      1: Step Time =    1.000,"PART-1-1",           306,            1.,       12.1875,            0.,NA,NA,"",   76.5394E-03,  -76.4718E-03,   3.21520E-03,   321.144E-12
C:/temp/dataset/test2/15_2.odb,Step-1,Increment      1: Step Time =    1.000,"PART-1-1",           307,            2.,         11.25,            0.,NA,NA,"",   75.1105E-03,  -74.9547E-03,   4.83611E-03,   326.807E-12
C:/temp/dataset/test2/15_2.odb,Step-1,Increment      1: Step Time =    1.000,"PART-1-1",           308,           -1.,       12.1875,            0.,NA,NA,"",   76.4692E-03,  -76.4692E-03,  -24.1641E-06,   334.846E-12
C:/temp/dataset/test2/15_2.odb,Step-1,Increment      1: Step Time =    1.000,"PART-1-1",           309,            0.,         11.25,            0.,NA,NA,"",   74.9691E-03,  -74.9520E-03,   1.59675E-03,   366.044E-12
C:/temp/dataset/test2/15_2.odb,Step-1,Increment      1: Step Time =    1.000,"PART-1-1",           310,           -3.,       12.1875,            0.,NA,NA,"",   76.5362E-03,  -76.4666E-03,  -3.26353E-03,   303.453E-12
C:/temp/dataset/test2/15_2.odb,Step-1,Increment      1: Step Time =    1.000,"PART-1-1",           311,           -2.,         11.25,            0.,NA,NA,"",   74.9674E-03,  -74.9494E-03,  -1.64262E-03,   344.020E-12
C:/temp/dataset/test2/15_2.odb,Step-1,Increment      1: Step Time =    1.000,"PART-1-1",           312,           -5.,       12.1875,            0.,NA,NA,"",   76.7400E-03,  -76.4639E-03,  -6.50289E-03,   311.690E-12
C:/temp/dataset/test2/15_2.odb,Step-1,Increment      1: Step Time =    1.000,"PART-1-1",           313,           -4.,         11.25,            0.,NA,NA,"",   75.1056E-03,  -74.9468E-03,  -4.88198E-03,   318.028E-12
C:/temp/dataset/test2/15_2.odb,Step-1,Increment      1: Step Time =    1.000,"PART-1-1",           314,            3.,       10.3125,            0.,NA,NA,"",   73.7208E-03,  -73.4375E-03,   6.45702E-03,   380.140E-12
C:/temp/dataset/test2/15_2.odb,Step-1,Increment      1: Step Time =    1.000,"PART-1-1",           315,            4.,         9.375,            0.,NA,NA,"",   72.3726E-03,  -71.9204E-03,   8.07793E-03,   608.063E-12
C:/temp/dataset/test2/15_2.odb,Step-1,Increment      1: Step Time =    1.000,"PART-1-1",           316,            5.,       10.3125,            0.,NA,NA,"",   74.0775E-03,  -73.4401E-03,   9.69638E-03,   814.589E-12
C:/temp/dataset/test2/15_2.odb,Step-1,Increment      1: Step Time =    1.000,"PART-1-1",           317,            1.,       10.3125,            0.,NA,NA,"",   73.5054E-03,  -73.4349E-03,   3.21766E-03,   373.003E-12
C:/temp/dataset/test2/15_2.odb,Step-1,Increment      1: Step Time =    1.000,"PART-1-1",           318,            2.,         9.375,            0.,NA,NA,"",   72.0804E-03,  -71.9178E-03,   4.83857E-03,   305.781E-12
C:/temp/dataset/test2/15_2.odb,Step-1,Increment      1: Step Time =    1.000,"PART-1-1",           319,           -1.,       10.3125,            0.,NA,NA,"",   73.4323E-03,  -73.4323E-03,  -21.7042E-06,   393.038E-12
C:/temp/dataset/test2/15_2.odb,Step-1,Increment      1: Step Time =    1.000,"PART-1-1",           320,            0.,         9.375,            0.,NA,NA,"",   71.9329E-03,  -71.9151E-03,   1.59921E-03,   409.818E-12
C:/temp/dataset/test2/15_2.odb,Step-1,Increment      1: Step Time =    1.000,"PART-1-1",           321,           -3.,       10.3125,            0.,NA,NA,"",   73.5020E-03,  -73.4297E-03,  -3.26107E-03,   369.819E-12
C:/temp/dataset/test2/15_2.odb,Step-1,Increment      1: Step Time =    1.000,"PART-1-1",           322,           -2.,         9.375,            0.,NA,NA,"",   71.9312E-03,  -71.9125E-03,  -1.64016E-03,   333.438E-12
C:/temp/dataset/test2/15_2.odb,Step-1,Increment      1: Step Time =    1.000,"PART-1-1",           323,           -5.,       10.3125,            0.,NA,NA,"",   73.7142E-03,  -73.4270E-03,  -6.50043E-03,   670.198E-12
C:/temp/dataset/test2/15_2.odb,Step-1,Increment      1: Step Time =    1.000,"PART-1-1",           324,           -4.,         9.375,            0.,NA,NA,"",   72.0753E-03,  -71.9099E-03,  -4.87952E-03,   500.732E-12
C:/temp/dataset/test2/15_2.odb,Step-1,Increment      1: Step Time =    1.000,"PART-1-1",           325,            3.,        8.4375,            0.,NA,NA,"",   70.6963E-03,  -70.4006E-03,   6.45948E-03,   216.723E-12
C:/temp/dataset/test2/15_2.odb,Step-1,Increment      1: Step Time =    1.000,"PART-1-1",           326,            4.,           7.5,            0.,NA,NA,"",   69.3558E-03,  -68.8835E-03,   8.08039E-03,   686.473E-12
C:/temp/dataset/test2/15_2.odb,Step-1,Increment      1: Step Time =    1.000,"PART-1-1",           327,            5.,        8.4375,            0.,NA,NA,"",   71.0682E-03,  -70.4032E-03,   9.69884E-03,   1.22839E-09
C:/temp/dataset/test2/15_2.odb,Step-1,Increment      1: Step Time =    1.000,"PART-1-1",           328,            1.,        8.4375,            0.,NA,NA,"",   70.4716E-03,  -70.3980E-03,   3.22012E-03,   664.178E-12
C:/temp/dataset/test2/15_2.odb,Step-1,Increment      1: Step Time =    1.000,"PART-1-1",           329,            2.,           7.5,            0.,NA,NA,"",   69.0508E-03,  -68.8809E-03,   4.84103E-03,   847.183E-12
C:/temp/dataset/test2/15_2.odb,Step-1,Increment      1: Step Time =    1.000,"PART-1-1",           330,           -1.,        8.4375,            0.,NA,NA,"",   70.3954E-03,  -70.3954E-03,  -19.2443E-06,   672.627E-12
C:/temp/dataset/test2/15_2.odb,Step-1,Increment      1: Step Time =    1.000,"PART-1-1",           331,            0.,           7.5,            0.,NA,NA,"",   68.8969E-03,  -68.8782E-03,   1.60167E-03,   1.14932E-09
C:/temp/dataset/test2/15_2.odb,Step-1,Increment      1: Step Time =    1.000,"PART-1-1",           332,           -3.,        8.4375,            0.,NA,NA,"",   70.4681E-03,  -70.3928E-03,  -3.25861E-03,   237.602E-12
C:/temp/dataset/test2/15_2.odb,Step-1,Increment      1: Step Time =    1.000,"PART-1-1",           333,           -2.,           7.5,            0.,NA,NA,"",   68.8951E-03,  -68.8756E-03,  -1.63770E-03,   850.480E-12
C:/temp/dataset/test2/15_2.odb,Step-1,Increment      1: Step Time =    1.000,"PART-1-1",           334,           -5.,        8.4375,            0.,NA,NA,"",   70.6894E-03,  -70.3901E-03,  -6.49798E-03,   1.06965E-09
C:/temp/dataset/test2/15_2.odb,Step-1,Increment      1: Step Time =    1.000,"PART-1-1",           335,           -4.,           7.5,            0.,NA,NA,"",   69.0455E-03,  -68.8730E-03,  -4.87706E-03,   556.852E-12
C:/temp/dataset/test2/15_2.odb,Step-1,Increment      1: Step Time =    1.000,"PART-1-1",           336,            3.,        6.5625,            0.,NA,NA,"",   67.6729E-03,  -67.3637E-03,   6.46194E-03,   1.92652E-09
C:/temp/dataset/test2/15_2.odb,Step-1,Increment      1: Step Time =    1.000,"PART-1-1",           337,            4.,         5.625,            0.,NA,NA,"",   66.3408E-03,  -65.8466E-03,   8.08285E-03,   1.55581E-09
C:/temp/dataset/test2/15_2.odb,Step-1,Increment      1: Step Time =    1.000,"PART-1-1",           338,            5.,        6.5625,            0.,NA,NA,"",   68.0613E-03,  -67.3663E-03,   9.70130E-03,   1.09943E-09
C:/temp/dataset/test2/15_2.odb,Step-1,Increment      1: Step Time =    1.000,"PART-1-1",           339,            1.,        6.5625,            0.,NA,NA,"",   67.4381E-03,  -67.3611E-03,   3.22258E-03,   3.05427E-09
C:/temp/dataset/test2/15_2.odb,Step-1,Increment      1: Step Time =    1.000,"PART-1-1",           340,            2.,         5.625,            0.,NA,NA,"",   66.0219E-03,  -65.8440E-03,   4.84349E-03,   3.93522E-09
C:/temp/dataset/test2/15_2.odb,Step-1,Increment      1: Step Time =    1.000,"PART-1-1",           341,           -1.,        6.5625,            0.,NA,NA,"",   67.3585E-03,  -67.3585E-03,  -16.7855E-06,   3.04672E-09
C:/temp/dataset/test2/15_2.odb,Step-1,Increment      1: Step Time =    1.000,"PART-1-1",           342,            0.,         5.625,            0.,NA,NA,"",   65.8609E-03,  -65.8413E-03,   1.60412E-03,   4.59399E-09
C:/temp/dataset/test2/15_2.odb,Step-1,Increment      1: Step Time =    1.000,"PART-1-1",           343,           -3.,        6.5625,            0.,NA,NA,"",   67.4345E-03,  -67.3558E-03,  -3.25615E-03,   1.94850E-09
C:/temp/dataset/test2/15_2.odb,Step-1,Increment      1: Step Time =    1.000,"PART-1-1",           344,           -2.,         5.625,            0.,NA,NA,"",   65.8590E-03,  -65.8387E-03,  -1.63524E-03,   3.92436E-09
C:/temp/dataset/test2/15_2.odb,Step-1,Increment      1: Step Time =    1.000,"PART-1-1",           345,           -5.,        6.5625,            0.,NA,NA,"",   67.6657E-03,  -67.3532E-03,  -6.49552E-03,   926.163E-12
C:/temp/dataset/test2/15_2.odb,Step-1,Increment      1: Step Time =    1.000,"PART-1-1",           346,           -4.,         5.625,            0.,NA,NA,"",   66.0163E-03,  -65.8361E-03,  -4.87460E-03,   1.55047E-09
C:/temp/dataset/test2/15_2.odb,Step-1,Increment      1: Step Time =    1.000,"PART-1-1",           347,            3.,        4.6875,            0.,NA,NA,"",   64.6508E-03,  -64.3268E-03,   6.46440E-03,   7.47532E-09
C:/temp/dataset/test2/15_2.odb,Step-1,Increment      1: Step Time =    1.000,"PART-1-1",           348,            4.,          3.75,            0.,NA,NA,"",   63.3280E-03,  -62.8097E-03,   8.08531E-03,   6.40598E-09
C:/temp/dataset/test2/15_2.odb,Step-1,Increment      1: Step Time =    1.000,"PART-1-1",           349,            5.,        4.6875,            0.,NA,NA,"",   65.0572E-03,  -64.3295E-03,   9.70376E-03,   1.50880E-09
C:/temp/dataset/test2/15_2.odb,Step-1,Increment      1: Step Time =    1.000,"PART-1-1",           350,            1.,        4.6875,            0.,NA,NA,"",   64.4050E-03,  -64.3242E-03,   3.22503E-03,   9.87732E-09
C:/temp/dataset/test2/15_2.odb,Step-1,Increment      1: Step Time =    1.000,"PART-1-1",           351,            2.,          3.75,            0.,NA,NA,"",   62.9937E-03,  -62.8071E-03,   4.84594E-03,   12.1192E-09
C:/temp/dataset/test2/15_2.odb,Step-1,Increment      1: Step Time =    1.000,"PART-1-1",           352,           -1.,        4.6875,            0.,NA,NA,"",   64.3216E-03,  -64.3216E-03,  -14.3312E-06,   9.86340E-09
C:/temp/dataset/test2/15_2.odb,Step-1,Increment      1: Step Time =    1.000,"PART-1-1",           353,            0.,          3.75,            0.,NA,NA,"",   62.8250E-03,  -62.8044E-03,   1.60657E-03,   13.6053E-09
C:/temp/dataset/test2/15_2.odb,Step-1,Increment      1: Step Time =    1.000,"PART-1-1",           354,           -3.,        4.6875,            0.,NA,NA,"",   64.4012E-03,  -64.3189E-03,  -3.25369E-03,   7.49565E-09
C:/temp/dataset/test2/15_2.odb,Step-1,Increment      1: Step Time =    1.000,"PART-1-1",           355,           -2.,          3.75,            0.,NA,NA,"",   62.8230E-03,  -62.8018E-03,  -1.63278E-03,   12.1022E-09
C:/temp/dataset/test2/15_2.odb,Step-1,Increment      1: Step Time =    1.000,"PART-1-1",           356,           -5.,        4.6875,            0.,NA,NA,"",   64.6432E-03,  -64.3163E-03,  -6.49306E-03,   1.68659E-09
C:/temp/dataset/test2/15_2.odb,Step-1,Increment      1: Step Time =    1.000,"PART-1-1",           357,           -4.,          3.75,            0.,NA,NA,"",   62.9879E-03,  -62.7992E-03,  -4.87214E-03,   6.47263E-09
C:/temp/dataset/test2/15_2.odb,Step-1,Increment      1: Step Time =    1.000,"PART-1-1",           358,            3.,        2.8125,            0.,NA,NA,"",   61.6302E-03,  -61.2900E-03,   6.46686E-03,   20.7866E-09
C:/temp/dataset/test2/15_2.odb,Step-1,Increment      1: Step Time =    1.000,"PART-1-1",           359,            4.,         1.875,            0.,NA,NA,"",   60.3175E-03,  -59.7728E-03,   8.08779E-03,   19.4762E-09
C:/temp/dataset/test2/15_2.odb,Step-1,Increment      1: Step Time =    1.000,"PART-1-1",           360,            5.,        2.8125,            0.,NA,NA,"",   62.0563E-03,  -61.2926E-03,   9.70622E-03,   11.0589E-09
C:/temp/dataset/test2/15_2.odb,Step-1,Increment      1: Step Time =    1.000,"PART-1-1",           361,            1.,        2.8125,            0.,NA,NA,"",   61.3722E-03,  -61.2873E-03,   3.22748E-03,   25.3336E-09
C:/temp/dataset/test2/15_2.odb,Step-1,Increment      1: Step Time =    1.000,"PART-1-1",           362,            2.,         1.875,            0.,NA,NA,"",   59.9665E-03,  -59.7702E-03,   4.84839E-03,   29.8806E-09
C:/temp/dataset/test2/15_2.odb,Step-1,Increment      1: Step Time =    1.000,"PART-1-1",           363,           -1.,        2.8125,            0.,NA,NA,"",   61.2846E-03,  -61.2846E-03,  -11.8886E-06,   25.3135E-09
C:/temp/dataset/test2/15_2.odb,Step-1,Increment      1: Step Time =    1.000,"PART-1-1",           364,            0.,         1.875,            0.,NA,NA,"",   59.7892E-03,  -59.7675E-03,   1.60900E-03,   32.9306E-09
C:/temp/dataset/test2/15_2.odb,Step-1,Increment      1: Step Time =    1.000,"PART-1-1",           365,           -3.,        2.8125,            0.,NA,NA,"",   61.3682E-03,  -61.2820E-03,  -3.25123E-03,   20.8043E-09
C:/temp/dataset/test2/15_2.odb,Step-1,Increment      1: Step Time =    1.000,"PART-1-1",           366,           -2.,         1.875,            0.,NA,NA,"",   59.7871E-03,  -59.7649E-03,  -1.63034E-03,   29.8565E-09
C:/temp/dataset/test2/15_2.odb,Step-1,Increment      1: Step Time =    1.000,"PART-1-1",           367,           -5.,        2.8125,            0.,NA,NA,"",   61.6222E-03,  -61.2794E-03,  -6.49060E-03,   11.2606E-09
C:/temp/dataset/test2/15_2.odb,Step-1,Increment      1: Step Time =    1.000,"PART-1-1",           368,           -4.,         1.875,            0.,NA,NA,"",   59.9603E-03,  -59.7622E-03,  -4.86967E-03,   19.5730E-09
C:/temp/dataset/test2/15_2.odb,Step-1,Increment      1: Step Time =    1.000,"PART-1-1",           369,            3.,     937.5E-03,            0.,NA,NA,"",   58.6112E-03,  -58.2531E-03,   6.46932E-03,   47.3478E-09
C:/temp/dataset/test2/15_2.odb,Step-1,Increment      1: Step Time =    1.000,"PART-1-1",           370,            4.,            0.,            0.,NA,NA,"",   57.3099E-03,  -56.7360E-03,   8.09028E-03,   48.0023E-09
C:/temp/dataset/test2/15_2.odb,Step-1,Increment      1: Step Time =    1.000,"PART-1-1",           371,            5.,     937.5E-03,            0.,NA,NA,"",   59.0592E-03,  -58.2557E-03,   9.70871E-03,   37.1327E-09
C:/temp/dataset/test2/15_2.odb,Step-1,Increment      1: Step Time =    1.000,"PART-1-1",           372,            1.,     937.5E-03,            0.,NA,NA,"",   58.3399E-03,  -58.2504E-03,   3.22989E-03,   54.4720E-09
C:/temp/dataset/test2/15_2.odb,Step-1,Increment      1: Step Time =    1.000,"PART-1-1",           373,            2.,            0.,            0.,NA,NA,"",   56.9403E-03,  -56.7333E-03,   4.85081E-03,   61.6688E-09
C:/temp/dataset/test2/15_2.odb,Step-1,Increment      1: Step Time =    1.000,"PART-1-1",           374,           -1.,     937.5E-03,            0.,NA,NA,"",   58.2477E-03,  -58.2477E-03,  -9.47242E-06,   54.4376E-09
C:/temp/dataset/test2/15_2.odb,Step-1,Increment      1: Step Time =    1.000,"PART-1-1",           375,            0.,            0.,            0.,NA,NA,"",   56.7535E-03,  -56.7306E-03,   1.61138E-03,   67.1714E-09
C:/temp/dataset/test2/15_2.odb,Step-1,Increment      1: Step Time =    1.000,"PART-1-1",           376,           -3.,     937.5E-03,            0.,NA,NA,"",   58.3356E-03,  -58.2451E-03,  -3.24877E-03,   47.3478E-09
C:/temp/dataset/test2/15_2.odb,Step-1,Increment      1: Step Time =    1.000,"PART-1-1",           377,           -2.,            0.,            0.,NA,NA,"",   56.7513E-03,  -56.7279E-03,  -1.62792E-03,   61.6197E-09
C:/temp/dataset/test2/15_2.odb,Step-1,Increment      1: Step Time =    1.000,"PART-1-1",           378,           -5.,     937.5E-03,            0.,NA,NA,"",   58.6027E-03,  -58.2424E-03,  -6.48811E-03,   37.3451E-09
C:/temp/dataset/test2/15_2.odb,Step-1,Increment      1: Step Time =    1.000,"PART-1-1",           379,           -4.,            0.,            0.,NA,NA,"",   56.9337E-03,  -56.7253E-03,  -4.86717E-03,   48.1076E-09
C:/temp/dataset/test2/15_2.odb,Step-1,Increment      1: Step Time =    1.000,"PART-1-1",           380,            3.,    -937.5E-03,            0.,NA,NA,"",   55.5942E-03,  -55.2162E-03,   6.47179E-03,   89.5710E-09
C:/temp/dataset/test2/15_2.odb,Step-1,Increment      1: Step Time =    1.000,"PART-1-1",           381,            4.,        -1.875,            0.,NA,NA,"",   54.3055E-03,  -53.6991E-03,   8.09284E-03,   99.5768E-09
C:/temp/dataset/test2/15_2.odb,Step-1,Increment      1: Step Time =    1.000,"PART-1-1",           382,            5.,    -937.5E-03,            0.,NA,NA,"",   56.0663E-03,  -55.2188E-03,   9.71126E-03,   95.4832E-09
C:/temp/dataset/test2/15_2.odb,Step-1,Increment      1: Step Time =    1.000,"PART-1-1",           383,            1.,    -937.5E-03,            0.,NA,NA,"",   55.3081E-03,  -55.2135E-03,   3.23226E-03,   97.3599E-09
C:/temp/dataset/test2/15_2.odb,Step-1,Increment      1: Step Time =    1.000,"PART-1-1",           384,            2.,        -1.875,            0.,NA,NA,"",   53.9153E-03,  -53.6965E-03,   4.85320E-03,   103.891E-09
C:/temp/dataset/test2/15_2.odb,Step-1,Increment      1: Step Time =    1.000,"PART-1-1",           385,           -1.,    -937.5E-03,            0.,NA,NA,"",   55.2108E-03,  -55.2108E-03,  -7.10482E-06,   97.2686E-09
C:/temp/dataset/test2/15_2.odb,Step-1,Increment      1: Step Time =    1.000,"PART-1-1",           386,            0.,        -1.875,            0.,NA,NA,"",   53.7180E-03,  -53.6937E-03,   1.61370E-03,   112.567E-09
C:/temp/dataset/test2/15_2.odb,Step-1,Increment      1: Step Time =    1.000,"PART-1-1",           387,           -3.,    -937.5E-03,            0.,NA,NA,"",   55.3035E-03,  -55.2081E-03,  -3.24630E-03,   89.4737E-09
C:/temp/dataset/test2/15_2.odb,Step-1,Increment      1: Step Time =    1.000,"PART-1-1",           388,           -2.,        -1.875,            0.,NA,NA,"",   53.7156E-03,  -53.6910E-03,  -1.62553E-03,   103.730E-09
C:/temp/dataset/test2/15_2.odb,Step-1,Increment      1: Step Time =    1.000,"PART-1-1",           389,           -5.,    -937.5E-03,            0.,NA,NA,"",   55.5852E-03,  -55.2055E-03,  -6.48555E-03,   95.6555E-09
C:/temp/dataset/test2/15_2.odb,Step-1,Increment      1: Step Time =    1.000,"PART-1-1",           390,           -4.,        -1.875,            0.,NA,NA,"",   53.9083E-03,  -53.6883E-03,  -4.86462E-03,   99.6249E-09
C:/temp/dataset/test2/15_2.odb,Step-1,Increment      1: Step Time =    1.000,"PART-1-1",           391,            3.,       -2.8125,            0.,NA,NA,"",   52.5795E-03,  -52.1794E-03,   6.47426E-03,   130.890E-09
C:/temp/dataset/test2/15_2.odb,Step-1,Increment      1: Step Time =    1.000,"PART-1-1",           392,            4.,         -3.75,            0.,NA,NA,"",   51.3048E-03,  -50.6621E-03,   8.09548E-03,   170.563E-09
C:/temp/dataset/test2/15_2.odb,Step-1,Increment      1: Step Time =    1.000,"PART-1-1",           393,            5.,       -2.8125,            0.,NA,NA,"",   53.0783E-03,  -52.1819E-03,   9.71396E-03,   203.459E-09
C:/temp/dataset/test2/15_2.odb,Step-1,Increment      1: Step Time =    1.000,"PART-1-1",           394,            1.,       -2.8125,            0.,NA,NA,"",   52.2768E-03,  -52.1766E-03,   3.23456E-03,   133.277E-09
C:/temp/dataset/test2/15_2.odb,Step-1,Increment      1: Step Time =    1.000,"PART-1-1",           395,            2.,         -3.75,            0.,NA,NA,"",   50.8917E-03,  -50.6595E-03,   4.85555E-03,   124.431E-09
C:/temp/dataset/test2/15_2.odb,Step-1,Increment      1: Step Time =    1.000,"PART-1-1",           396,           -1.,       -2.8125,            0.,NA,NA,"",   52.1739E-03,  -52.1739E-03,  -4.80447E-06,   132.977E-09
C:/temp/dataset/test2/15_2.odb,Step-1,Increment      1: Step Time =    1.000,"PART-1-1",           397,            0.,         -3.75,            0.,NA,NA,"",   50.6826E-03,  -50.6568E-03,   1.61595E-03,   140.728E-09
C:/temp/dataset/test2/15_2.odb,Step-1,Increment      1: Step Time =    1.000,"PART-1-1",           398,           -3.,       -2.8125,            0.,NA,NA,"",   52.2719E-03,  -52.1712E-03,  -3.24383E-03,   130.382E-09
C:/temp/dataset/test2/15_2.odb,Step-1,Increment      1: Step Time =    1.000,"PART-1-1",           399,           -2.,         -3.75,            0.,NA,NA,"",   50.6801E-03,  -50.6541E-03,  -1.62318E-03,   123.918E-09
C:/temp/dataset/test2/15_2.odb,Step-1,Increment      1: Step Time =    1.000,"PART-1-1",           400,           -5.,       -2.8125,            0.,NA,NA,"",   52.5699E-03,  -52.1686E-03,  -6.48286E-03,   203.308E-09
C:/temp/dataset/test2/15_2.odb,Step-1,Increment      1: Step Time =    1.000,"PART-1-1",           401,           -4.,         -3.75,            0.,NA,NA,"",   50.8843E-03,  -50.6515E-03,  -4.86198E-03,   170.276E-09
C:/temp/dataset/test2/15_2.odb,Step-1,Increment      1: Step Time =    1.000,"PART-1-1",           402,            3.,       -4.6875,            0.,NA,NA,"",   49.5672E-03,  -49.1422E-03,   6.47673E-03,   99.8960E-09
C:/temp/dataset/test2/15_2.odb,Step-1,Increment      1: Step Time =    1.000,"PART-1-1",           403,            4.,        -5.625,            0.,NA,NA,"",   48.3083E-03,  -47.6247E-03,   8.09821E-03,   220.134E-09
C:/temp/dataset/test2/15_2.odb,Step-1,Increment      1: Step Time =    1.000,"PART-1-1",           404,            5.,       -4.6875,            0.,NA,NA,"",   50.0961E-03,  -49.1447E-03,   9.71689E-03,   354.475E-09
C:/temp/dataset/test2/15_2.odb,Step-1,Increment      1: Step Time =    1.000,"PART-1-1",           405,            1.,       -4.6875,            0.,NA,NA,"",   49.2461E-03,  -49.1396E-03,   3.23682E-03,   142.597E-09
C:/temp/dataset/test2/15_2.odb,Step-1,Increment      1: Step Time =    1.000,"PART-1-1",           406,            2.,        -5.625,            0.,NA,NA,"",   47.8694E-03,  -47.6222E-03,   4.85790E-03,   135.459E-09
C:/temp/dataset/test2/15_2.odb,Step-1,Increment      1: Step Time =    1.000,"PART-1-1",           407,           -1.,       -4.6875,            0.,NA,NA,"",   49.1371E-03,  -49.1371E-03,  -2.53801E-06,   142.027E-09
C:/temp/dataset/test2/15_2.odb,Step-1,Increment      1: Step Time =    1.000,"PART-1-1",           408,            0.,        -5.625,            0.,NA,NA,"",   47.6474E-03,  -47.6199E-03,   1.61825E-03,   212.466E-09
C:/temp/dataset/test2/15_2.odb,Step-1,Increment      1: Step Time =    1.000,"PART-1-1",           409,           -3.,       -4.6875,            0.,NA,NA,"",   49.2413E-03,  -49.1345E-03,  -3.24136E-03,   98.5404E-09
C:/temp/dataset/test2/15_2.odb,Step-1,Increment      1: Step Time =    1.000,"PART-1-1",           410,           -2.,        -5.625,            0.,NA,NA,"",   47.6452E-03,  -47.6176E-03,  -1.62082E-03,   135.902E-09
C:/temp/dataset/test2/15_2.odb,Step-1,Increment      1: Step Time =    1.000,"PART-1-1",           411,           -5.,       -4.6875,            0.,NA,NA,"",   49.5575E-03,  -49.1320E-03,  -6.47993E-03,   352.799E-09
C:/temp/dataset/test2/15_2.odb,Step-1,Increment      1: Step Time =    1.000,"PART-1-1",           412,           -4.,        -5.625,            0.,NA,NA,"",   47.8624E-03,  -47.6151E-03,  -4.85924E-03,   219.062E-09
C:/temp/dataset/test2/15_2.odb,Step-1,Increment      1: Step Time =    1.000,"PART-1-1",           413,            3.,       -6.5625,            0.,NA,NA,"",   46.5574E-03,  -46.1044E-03,   6.47922E-03,   301.719E-09
C:/temp/dataset/test2/15_2.odb,Step-1,Increment      1: Step Time =    1.000,"PART-1-1",           414,            4.,          -7.5,            0.,NA,NA,"",   45.3160E-03,  -44.5861E-03,   8.10092E-03,   293.010E-09
C:/temp/dataset/test2/15_2.odb,Step-1,Increment      1: Step Time =    1.000,"PART-1-1",           415,            5.,       -6.5625,            0.,NA,NA,"",   47.1202E-03,  -46.1067E-03,   9.72014E-03,   437.405E-09
C:/temp/dataset/test2/15_2.odb,Step-1,Increment      1: Step Time =    1.000,"PART-1-1",           416,            1.,       -6.5625,            0.,NA,NA,"",   46.2160E-03,  -46.1023E-03,   3.23928E-03,   584.275E-09
C:/temp/dataset/test2/15_2.odb,Step-1,Increment      1: Step Time =    1.000,"PART-1-1",           417,            2.,          -7.5,            0.,NA,NA,"",   44.8481E-03,  -44.5840E-03,   4.86048E-03,   768.924E-09
C:/temp/dataset/test2/15_2.odb,Step-1,Increment      1: Step Time =    1.000,"PART-1-1",           418,           -1.,       -6.5625,            0.,NA,NA,"",   46.1006E-03,  -46.1006E-03,  -82.2414E-09,   584.420E-09
C:/temp/dataset/test2/15_2.odb,Step-1,Increment      1: Step Time =    1.000,"PART-1-1",           419,            0.,          -7.5,            0.,NA,NA,"",   44.6125E-03,  -44.5830E-03,   1.62111E-03,   935.826E-09
C:/temp/dataset/test2/15_2.odb,Step-1,Increment      1: Step Time =    1.000,"PART-1-1",           420,           -3.,       -6.5625,            0.,NA,NA,"",   46.2122E-03,  -46.0985E-03,  -3.23887E-03,   305.306E-09
C:/temp/dataset/test2/15_2.odb,Step-1,Increment      1: Step Time =    1.000,"PART-1-1",           421,           -2.,          -7.5,            0.,NA,NA,"",   44.6114E-03,  -44.5820E-03,  -1.61824E-03,   771.962E-09
C:/temp/dataset/test2/15_2.odb,Step-1,Increment      1: Step Time =    1.000,"PART-1-1",           422,           -5.,       -6.5625,            0.,NA,NA,"",   46.5490E-03,  -46.0962E-03,  -6.47669E-03,   431.118E-09
C:/temp/dataset/test2/15_2.odb,Step-1,Increment      1: Step Time =    1.000,"PART-1-1",           423,           -4.,          -7.5,            0.,NA,NA,"",   44.8437E-03,  -44.5800E-03,  -4.85655E-03,   297.492E-09
C:/temp/dataset/test2/15_2.odb,Step-1,Increment      1: Step Time =    1.000,"PART-1-1",           424,            3.,       -8.4375,            0.,NA,NA,"",   43.5498E-03,  -43.0647E-03,   6.48168E-03,   1.57199E-06
C:/temp/dataset/test2/15_2.odb,Step-1,Increment      1: Step Time =    1.000,"PART-1-1",           425,            4.,        -9.375,            0.,NA,NA,"",   42.3276E-03,  -41.5448E-03,   8.10300E-03,   1.29233E-06
C:/temp/dataset/test2/15_2.odb,Step-1,Increment      1: Step Time =    1.000,"PART-1-1",           426,            5.,       -8.4375,            0.,NA,NA,"",   44.1511E-03,  -43.0671E-03,   9.72346E-03,   95.0526E-09
C:/temp/dataset/test2/15_2.odb,Step-1,Increment      1: Step Time =    1.000,"PART-1-1",           427,            1.,       -8.4375,            0.,NA,NA,"",   43.1861E-03,  -43.0642E-03,   3.24266E-03,   2.19080E-06
C:/temp/dataset/test2/15_2.odb,Step-1,Increment      1: Step Time =    1.000,"PART-1-1",           428,            2.,        -9.375,            0.,NA,NA,"",   41.8274E-03,  -41.5436E-03,   4.86393E-03,   2.73815E-06
C:/temp/dataset/test2/15_2.odb,Step-1,Increment      1: Step Time =    1.000,"PART-1-1",           429,           -1.,       -8.4375,            0.,NA,NA,"",   43.0650E-03,  -43.0650E-03,   3.30143E-06,   2.18481E-06
C:/temp/dataset/test2/15_2.odb,Step-1,Increment      1: Step Time =    1.000,"PART-1-1",           430,            0.,        -9.375,            0.,NA,NA,"",   41.5779E-03,  -41.5461E-03,   1.62593E-03,   3.11515E-06
C:/temp/dataset/test2/15_2.odb,Step-1,Increment      1: Step Time =    1.000,"PART-1-1",           431,           -3.,       -8.4375,            0.,NA,NA,"",   43.1858E-03,  -43.0644E-03,  -3.23640E-03,   1.56844E-06
C:/temp/dataset/test2/15_2.odb,Step-1,Increment      1: Step Time =    1.000,"PART-1-1",           432,           -2.,        -9.375,            0.,NA,NA,"",   41.5800E-03,  -41.5486E-03,  -1.61479E-03,   2.73408E-06
C:/temp/dataset/test2/15_2.odb,Step-1,Increment      1: Step Time =    1.000,"PART-1-1",           433,           -5.,       -8.4375,            0.,NA,NA,"",   43.5458E-03,  -43.0620E-03,  -6.47340E-03,   92.1328E-09
C:/temp/dataset/test2/15_2.odb,Step-1,Increment      1: Step Time =    1.000,"PART-1-1",           434,           -4.,        -9.375,            0.,NA,NA,"",   41.8300E-03,  -41.5474E-03,  -4.85448E-03,   1.29545E-06
C:/temp/dataset/test2/15_2.odb,Step-1,Increment      1: Step Time =    1.000,"PART-1-1",           435,            3.,      -10.3125,            0.,NA,NA,"",   40.5433E-03,  -40.0214E-03,   6.48405E-03,   4.92309E-06
C:/temp/dataset/test2/15_2.odb,Step-1,Increment      1: Step Time =    1.000,"PART-1-1",           436,            4.,        -11.25,            0.,NA,NA,"",   39.3421E-03,  -38.4987E-03,   8.10277E-03,   4.44856E-06
C:/temp/dataset/test2/15_2.odb,Step-1,Increment      1: Step Time =    1.000,"PART-1-1",           437,            5.,      -10.3125,            0.,NA,NA,"",   41.1890E-03,  -40.0243E-03,   9.72553E-03,   2.02371E-06
C:/temp/dataset/test2/15_2.odb,Step-1,Increment      1: Step Time =    1.000,"PART-1-1",           438,            1.,      -10.3125,            0.,NA,NA,"",   40.1560E-03,  -40.0244E-03,   3.24886E-03,   6.15900E-06
C:/temp/dataset/test2/15_2.odb,Step-1,Increment      1: Step Time =    1.000,"PART-1-1",           439,            2.,        -11.25,            0.,NA,NA,"",   38.8061E-03,  -38.4993E-03,   4.86987E-03,   7.41241E-06
C:/temp/dataset/test2/15_2.odb,Step-1,Increment      1: Step Time =    1.000,"PART-1-1",           440,           -1.,      -10.3125,            0.,NA,NA,"",   40.0310E-03,  -40.0310E-03,   9.47180E-06,   6.11142E-06
C:/temp/dataset/test2/15_2.odb,Step-1,Increment      1: Step Time =    1.000,"PART-1-1",           441,            0.,        -11.25,            0.,NA,NA,"",   38.5441E-03,  -38.5093E-03,   1.63596E-03,   8.17411E-06
C:/temp/dataset/test2/15_2.odb,Step-1,Increment      1: Step Time =    1.000,"PART-1-1",           442,           -3.,      -10.3125,            0.,NA,NA,"",   40.1642E-03,  -40.0338E-03,  -3.23404E-03,   4.85246E-06
C:/temp/dataset/test2/15_2.odb,Step-1,Increment      1: Step Time =    1.000,"PART-1-1",           443,           -2.,        -11.25,            0.,NA,NA,"",   38.5527E-03,  -38.5191E-03,  -1.60896E-03,   7.31379E-06
C:/temp/dataset/test2/15_2.odb,Step-1,Increment      1: Step Time =    1.000,"PART-1-1",           444,           -5.,      -10.3125,            0.,NA,NA,"",   40.5506E-03,  -40.0309E-03,  -6.47139E-03,   2.02362E-06
C:/temp/dataset/test2/15_2.odb,Step-1,Increment      1: Step Time =    1.000,"PART-1-1",           445,           -4.,        -11.25,            0.,NA,NA,"",   38.8242E-03,  -38.5195E-03,  -4.85475E-03,   4.40413E-06
C:/temp/dataset/test2/15_2.odb,Step-1,Increment      1: Step Time =    1.000,"PART-1-1",           446,            3.,      -12.1875,            0.,NA,NA,"",   37.5366E-03,  -36.9719E-03,   6.48623E-03,   12.3635E-06
C:/temp/dataset/test2/15_2.odb,Step-1,Increment      1: Step Time =    1.000,"PART-1-1",           447,            4.,       -13.125,            0.,NA,NA,"",   36.3587E-03,  -35.4459E-03,   8.09601E-03,   12.0856E-06
C:/temp/dataset/test2/15_2.odb,Step-1,Increment      1: Step Time =    1.000,"PART-1-1",           448,            5.,      -12.1875,            0.,NA,NA,"",   38.2338E-03,  -36.9770E-03,   9.72230E-03,   8.28578E-06
C:/temp/dataset/test2/15_2.odb,Step-1,Increment      1: Step Time =    1.000,"PART-1-1",           449,            1.,      -12.1875,            0.,NA,NA,"",   37.1256E-03,  -36.9820E-03,   3.26199E-03,   14.3563E-06
C:/temp/dataset/test2/15_2.odb,Step-1,Increment      1: Step Time =    1.000,"PART-1-1",           450,            2.,       -13.125,            0.,NA,NA,"",   35.7840E-03,  -35.4495E-03,   4.88163E-03,   16.6566E-06
C:/temp/dataset/test2/15_2.odb,Step-1,Increment      1: Step Time =    1.000,"PART-1-1",           451,           -1.,      -12.1875,            0.,NA,NA,"",   37.0000E-03,  -37.0000E-03,   22.3114E-06,   14.0786E-06
C:/temp/dataset/test2/15_2.odb,Step-1,Increment      1: Step Time =    1.000,"PART-1-1",           452,            0.,       -13.125,            0.,NA,NA,"",   35.5118E-03,  -35.4731E-03,   1.65737E-03,   17.9522E-06
C:/temp/dataset/test2/15_2.odb,Step-1,Increment      1: Step Time =    1.000,"PART-1-1",           453,           -3.,      -12.1875,            0.,NA,NA,"",   37.1501E-03,  -37.0092E-03,  -3.23205E-03,   11.8161E-06
C:/temp/dataset/test2/15_2.odb,Step-1,Increment      1: Step Time =    1.000,"PART-1-1",           454,           -2.,       -13.125,            0.,NA,NA,"",   35.5312E-03,  -35.4953E-03,  -1.59802E-03,   16.1185E-06
C:/temp/dataset/test2/15_2.odb,Step-1,Increment      1: Step Time =    1.000,"PART-1-1",           455,           -5.,      -12.1875,            0.,NA,NA,"",   37.5662E-03,  -37.0040E-03,  -6.47476E-03,   8.09155E-06
C:/temp/dataset/test2/15_2.odb,Step-1,Increment      1: Step Time =    1.000,"PART-1-1",           456,           -4.,       -13.125,            0.,NA,NA,"",   35.8289E-03,  -35.4976E-03,  -4.86131E-03,   11.6176E-06
C:/temp/dataset/test2/15_2.odb,Step-1,Increment      1: Step Time =    1.000,"PART-1-1",           457,            3.,      -14.0625,            0.,NA,NA,"",   34.5306E-03,  -33.9156E-03,   6.48796E-03,   25.8910E-06
C:/temp/dataset/test2/15_2.odb,Step-1,Increment      1: Step Time =    1.000,"PART-1-1",           458,            4.,          -15.,            0.,NA,NA,"",   33.3812E-03,  -32.3898E-03,   8.07529E-03,   27.6406E-06
C:/temp/dataset/test2/15_2.odb,Step-1,Increment      1: Step Time =    1.000,"PART-1-1",           459,            5.,      -14.0625,            0.,NA,NA,"",   35.2864E-03,  -33.9261E-03,   9.70291E-03,   24.2930E-06
C:/temp/dataset/test2/15_2.odb,Step-1,Increment      1: Step Time =    1.000,"PART-1-1",           460,            1.,      -14.0625,            0.,NA,NA,"",   34.0965E-03,  -33.9375E-03,   3.28935E-03,   28.2009E-06
C:/temp/dataset/test2/15_2.odb,Step-1,Increment      1: Step Time =    1.000,"PART-1-1",           461,            2.,          -15.,            0.,NA,NA,"",   32.7664E-03,  -32.3971E-03,   4.90542E-03,   31.7878E-06
C:/temp/dataset/test2/15_2.odb,Step-1,Increment      1: Step Time =    1.000,"PART-1-1",           462,           -1.,      -14.0625,            0.,NA,NA,"",   33.9728E-03,  -33.9727E-03,   48.1257E-06,   27.0396E-06
C:/temp/dataset/test2/15_2.odb,Step-1,Increment      1: Step Time =    1.000,"PART-1-1",           463,            0.,          -15.,            0.,NA,NA,"",   32.4832E-03,  -32.4387E-03,   1.69918E-03,   32.9571E-06
C:/temp/dataset/test2/15_2.odb,Step-1,Increment      1: Step Time =    1.000,"PART-1-1",           464,           -3.,      -14.0625,            0.,NA,NA,"",   34.1439E-03,  -33.9907E-03,  -3.23123E-03,   23.6774E-06
C:/temp/dataset/test2/15_2.odb,Step-1,Increment      1: Step Time =    1.000,"PART-1-1",           465,           -2.,          -15.,            0.,NA,NA,"",   32.5133E-03,  -32.4749E-03,  -1.57836E-03,   29.2033E-06
C:/temp/dataset/test2/15_2.odb,Step-1,Increment      1: Step Time =    1.000,"PART-1-1",           466,           -5.,      -14.0625,            0.,NA,NA,"",   34.5943E-03,  -33.9794E-03,  -6.49326E-03,   22.3738E-06
C:/temp/dataset/test2/15_2.odb,Step-1,Increment      1: Step Time =    1.000,"PART-1-1",           467,           -4.,          -15.,            0.,NA,NA,"",   32.8419E-03,  -32.4771E-03,  -4.88163E-03,   25.3258E-06
C:/temp/dataset/test2/15_2.odb,Step-1,Increment      1: Step Time =    1.000,"PART-1-1",           468,            3.,      -15.9375,            0.,NA,NA,"",   31.5366E-03,  -30.8613E-03,   6.49100E-03,   46.2683E-06
C:/temp/dataset/test2/15_2.odb,Step-1,Increment      1: Step Time =    1.000,"PART-1-1",           469,            4.,       -16.875,            0.,NA,NA,"",   30.4298E-03,  -29.3526E-03,   8.02478E-03,   53.9725E-06
C:/temp/dataset/test2/15_2.odb,Step-1,Increment      1: Step Time =    1.000,"PART-1-1",           470,            5.,      -15.9375,            0.,NA,NA,"",   32.3571E-03,  -30.8857E-03,   9.64636E-03,   57.5304E-06
C:/temp/dataset/test2/15_2.odb,Step-1,Increment      1: Step Time =    1.000,"PART-1-1",           471,            1.,      -15.9375,            0.,NA,NA,"",   31.0773E-03,  -30.8972E-03,   3.34087E-03,   44.8230E-06
C:/temp/dataset/test2/15_2.odb,Step-1,Increment      1: Step Time =    1.000,"PART-1-1",           472,            2.,       -16.875,            0.,NA,NA,"",   29.7755E-03,  -29.3612E-03,   4.95004E-03,   47.0769E-06
C:/temp/dataset/test2/15_2.odb,Step-1,Increment      1: Step Time =    1.000,"PART-1-1",           473,           -1.,      -15.9375,            0.,NA,NA,"",   30.9465E-03,  -30.9463E-03,   93.3592E-06,   41.2195E-06
C:/temp/dataset/test2/15_2.odb,Step-1,Increment      1: Step Time =    1.000,"PART-1-1",           474,            0.,       -16.875,            0.,NA,NA,"",   29.4619E-03,  -29.4088E-03,   1.76719E-03,   47.2837E-06
C:/temp/dataset/test2/15_2.odb,Step-1,Increment      1: Step Time =    1.000,"PART-1-1",           475,           -3.,      -15.9375,            0.,NA,NA,"",   31.1364E-03,  -30.9681E-03,  -3.23360E-03,   37.4237E-06
C:/temp/dataset/test2/15_2.odb,Step-1,Increment      1: Step Time =    1.000,"PART-1-1",           476,           -2.,       -16.875,            0.,NA,NA,"",   29.4825E-03,  -29.4418E-03,  -1.54948E-03,   39.8260E-06
C:/temp/dataset/test2/15_2.odb,Step-1,Increment      1: Step Time =    1.000,"PART-1-1",           477,           -5.,      -15.9375,            0.,NA,NA,"",   31.6281E-03,  -30.9434E-03,  -6.54567E-03,   49.4975E-06
C:/temp/dataset/test2/15_2.odb,Step-1,Increment      1: Step Time =    1.000,"PART-1-1",           478,           -4.,       -16.875,            0.,NA,NA,"",   29.8435E-03,  -29.4341E-03,  -4.92654E-03,   45.5511E-06
C:/temp/dataset/test2/15_2.odb,Step-1,Increment      1: Step Time =    1.000,"PART-1-1",           479,            3.,      -17.8125,            0.,NA,NA,"",   28.6030E-03,  -27.8553E-03,   6.49758E-03,   56.0448E-06
C:/temp/dataset/test2/15_2.odb,Step-1,Increment      1: Step Time =    1.000,"PART-1-1",           480,            4.,        -18.75,            0.,NA,NA,"",   27.5888E-03,  -26.4209E-03,   7.94221E-03,   85.5834E-06
C:/temp/dataset/test2/15_2.odb,Step-1,Increment      1: Step Time =    1.000,"PART-1-1",           481,            5.,      -17.8125,            0.,NA,NA,"",   29.4744E-03,  -27.9008E-03,   9.50181E-03,   124.551E-06
C:/temp/dataset/test2/15_2.odb,Step-1,Increment      1: Step Time =    1.000,"PART-1-1",           482,            1.,      -17.8125,            0.,NA,NA,"",   28.0930E-03,  -27.8842E-03,   3.41912E-03,   52.7040E-06
C:/temp/dataset/test2/15_2.odb,Step-1,Increment      1: Step Time =    1.000,"PART-1-1",           483,            2.,        -18.75,            0.,NA,NA,"",   26.8781E-03,  -26.4052E-03,   5.01987E-03,   48.1641E-06
C:/temp/dataset/test2/15_2.odb,Step-1,Increment      1: Step Time =    1.000,"PART-1-1",           484,           -1.,      -17.8125,            0.,NA,NA,"",   27.9038E-03,  -27.9034E-03,   153.158E-06,   42.6637E-06
C:/temp/dataset/test2/15_2.odb,Step-1,Increment      1: Step Time =    1.000,"PART-1-1",           485,            0.,        -18.75,            0.,NA,NA,"",   26.4466E-03,  -26.3825E-03,   1.83988E-03,   54.6617E-06
C:/temp/dataset/test2/15_2.odb,Step-1,Increment      1: Step Time =    1.000,"PART-1-1",           486,           -3.,      -17.8125,            0.,NA,NA,"",   28.0890E-03,  -27.9011E-03,  -3.24384E-03,   38.0415E-06
C:/temp/dataset/test2/15_2.odb,Step-1,Increment      1: Step Time =    1.000,"PART-1-1",           487,           -2.,        -18.75,            0.,NA,NA,"",   26.3832E-03,  -26.3392E-03,  -1.52318E-03,   32.8286E-06
C:/temp/dataset/test2/15_2.odb,Step-1,Increment      1: Step Time =    1.000,"PART-1-1",           488,           -5.,      -17.8125,            0.,NA,NA,"",   28.6378E-03,  -27.8530E-03,  -6.65834E-03,   88.2714E-06
C:/temp/dataset/test2/15_2.odb,Step-1,Increment      1: Step Time =    1.000,"PART-1-1",           489,           -4.,        -18.75,            0.,NA,NA,"",   26.7717E-03,  -26.3000E-03,  -5.00309E-03,   63.8064E-06
C:/temp/dataset/test2/15_2.odb,Step-1,Increment      1: Step Time =    1.000,"PART-1-1",           490,            3.,      -19.6875,            0.,NA,NA,"",   25.8716E-03,  -25.0328E-03,   6.53448E-03,   70.0711E-06
C:/temp/dataset/test2/15_2.odb,Step-1,Increment      1: Step Time =    1.000,"PART-1-1",           491,            4.,       -20.625,            0.,NA,NA,"",   25.1159E-03,  -23.8717E-03,   7.80710E-03,   151.967E-06
C:/temp/dataset/test2/15_2.odb,Step-1,Increment      1: Step Time =    1.000,"PART-1-1",           492,            5.,      -19.6875,            0.,NA,NA,"",   26.7720E-03,  -25.1362E-03,   9.21486E-03,   204.714E-06
C:/temp/dataset/test2/15_2.odb,Step-1,Increment      1: Step Time =    1.000,"PART-1-1",           493,            1.,      -19.6875,            0.,NA,NA,"",   25.1784E-03,  -24.9366E-03,   3.48075E-03,   123.029E-06
C:/temp/dataset/test2/15_2.odb,Step-1,Increment      1: Step Time =    1.000,"PART-1-1",           494,            2.,       -20.625,            0.,NA,NA,"",   24.2033E-03,  -23.6714E-03,   5.04619E-03,   217.871E-06
C:/temp/dataset/test2/15_2.odb,Step-1,Increment      1: Step Time =    1.000,"PART-1-1",           495,           -1.,      -19.6875,            0.,NA,NA,"",   24.7799E-03,  -24.7792E-03,   183.735E-06,   90.5452E-06
C:/temp/dataset/test2/15_2.odb,Step-1,Increment      1: Step Time =    1.000,"PART-1-1",           496,            0.,       -20.625,            0.,NA,NA,"",   23.3641E-03,  -23.2936E-03,   1.81388E-03,   188.018E-06
C:/temp/dataset/test2/15_2.odb,Step-1,Increment      1: Step Time =    1.000,"PART-1-1",           497,           -3.,      -19.6875,            0.,NA,NA,"",   24.9019E-03,  -24.6868E-03,  -3.26585E-03,   30.1230E-06
C:/temp/dataset/test2/15_2.odb,Step-1,Increment      1: Step Time =    1.000,"PART-1-1",           498,           -2.,       -20.625,            0.,NA,NA,"",   23.0776E-03,  -23.0268E-03,  -1.53060E-03,   119.027E-06
C:/temp/dataset/test2/15_2.odb,Step-1,Increment      1: Step Time =    1.000,"PART-1-1",           499,           -5.,      -19.6875,            0.,NA,NA,"",   25.5480E-03,  -24.6133E-03,  -6.84714E-03,   117.413E-06
C:/temp/dataset/test2/15_2.odb,Step-1,Increment      1: Step Time =    1.000,"PART-1-1",           500,           -4.,       -20.625,            0.,NA,NA,"",   23.4926E-03,  -22.9341E-03,  -5.09181E-03,   68.7536E-06
C:/temp/dataset/test2/15_2.odb,Step-1,Increment      1: Step Time =    1.000,"PART-1-1",           501,            3.,      -21.5625,            0.,NA,NA,"",   23.7578E-03,  -22.8513E-03,   6.49999E-03,   589.399E-06
C:/temp/dataset/test2/15_2.odb,Step-1,Increment      1: Step Time =    1.000,"PART-1-1",           502,            4.,         -22.5,            0.,NA,NA,"",   24.0509E-03,  -22.7306E-03,   7.85912E-03,   1.15809E-03
C:/temp/dataset/test2/15_2.odb,Step-1,Increment      1: Step Time =    1.000,"PART-1-1",           503,            5.,      -21.5625,            0.,NA,NA,"",   24.6052E-03,  -23.0495E-03,   8.61022E-03,   266.089E-06
C:/temp/dataset/test2/15_2.odb,Step-1,Increment      1: Step Time =    1.000,"PART-1-1",           504,            1.,      -21.5625,            0.,NA,NA,"",   22.2469E-03,  -22.0008E-03,   3.29956E-03,   465.324E-06
C:/temp/dataset/test2/15_2.odb,Step-1,Increment      1: Step Time =    1.000,"PART-1-1",           505,            2.,         -22.5,            0.,NA,NA,"",   21.5713E-03,  -21.0783E-03,   4.58570E-03,   857.955E-06
C:/temp/dataset/test2/15_2.odb,Step-1,Increment      1: Step Time =    1.000,"PART-1-1",           506,           -1.,      -21.5625,            0.,NA,NA,"",   21.3817E-03,  -21.3816E-03,   91.5039E-06,   331.627E-06
C:/temp/dataset/test2/15_2.odb,Step-1,Increment      1: Step Time =    1.000,"PART-1-1",           507,            0.,         -22.5,            0.,NA,NA,"",   19.8997E-03,  -19.8439E-03,   1.48910E-03,   599.190E-06
C:/temp/dataset/test2/15_2.odb,Step-1,Increment      1: Step Time =    1.000,"PART-1-1",           508,           -3.,      -21.5625,            0.,NA,NA,"",   21.3860E-03,  -21.1328E-03,  -3.28124E-03,   187.386E-06
C:/temp/dataset/test2/15_2.odb,Step-1,Increment      1: Step Time =    1.000,"PART-1-1",           509,           -2.,         -22.5,            0.,NA,NA,"",   19.3173E-03,  -19.2519E-03,  -1.58884E-03,   396.047E-06
C:/temp/dataset/test2/15_2.odb,Step-1,Increment      1: Step Time =    1.000,"PART-1-1",           510,           -5.,      -21.5625,            0.,NA,NA,"",   22.2222E-03,  -21.0689E-03,  -7.06593E-03,   81.8319E-06
C:/temp/dataset/test2/15_2.odb,Step-1,Increment      1: Step Time =    1.000,"PART-1-1",           511,           -4.,         -22.5,            0.,NA,NA,"",   19.8072E-03,  -19.1380E-03,  -5.10514E-03,   149.094E-06
C:/temp/dataset/test2/15_2.odb,Step-1,Increment      1: Step Time =    1.000,"PART-1-1",           512,            3.,      -23.4375,            0.,NA,NA,"",   21.3549E-03,  -20.6127E-03,   5.58116E-03,   1.58991E-03
C:/temp/dataset/test2/15_2.odb,Step-1,Increment      1: Step Time =    1.000,"PART-1-1",           513,            4.,       -24.375,            0.,NA,NA,"",   21.3286E-03,  -20.3364E-03,   6.42946E-03,   2.02384E-03
C:/temp/dataset/test2/15_2.odb,Step-1,Increment      1: Step Time =    1.000,"PART-1-1",           514,            5.,      -23.4375,            0.,NA,NA,"",   25.1428E-03,  -23.6817E-03,   8.44592E-03,   1.65988E-03
C:/temp/dataset/test2/15_2.odb,Step-1,Increment      1: Step Time =    1.000,"PART-1-1",           515,            1.,      -23.4375,            0.,NA,NA,"",   18.6677E-03,  -18.4926E-03,   2.55093E-03,   1.06704E-03
C:/temp/dataset/test2/15_2.odb,Step-1,Increment      1: Step Time =    1.000,"PART-1-1",           516,            2.,       -24.375,            0.,NA,NA,"",   17.5953E-03,  -17.2976E-03,   3.22254E-03,   1.70491E-03
C:/temp/dataset/test2/15_2.odb,Step-1,Increment      1: Step Time =    1.000,"PART-1-1",           517,           -1.,      -23.4375,            0.,NA,NA,"",   17.3521E-03,  -17.3512E-03,  -178.255E-06,   765.281E-06
C:/temp/dataset/test2/15_2.odb,Step-1,Increment      1: Step Time =    1.000,"PART-1-1",           518,            0.,       -24.375,            0.,NA,NA,"",   15.4961E-03,  -15.4740E-03,   827.083E-06,   1.19528E-03
C:/temp/dataset/test2/15_2.odb,Step-1,Increment      1: Step Time =    1.000,"PART-1-1",           519,           -3.,      -23.4375,            0.,NA,NA,"",   17.3082E-03,  -17.0090E-03,  -3.20444E-03,   492.352E-06
C:/temp/dataset/test2/15_2.odb,Step-1,Increment      1: Step Time =    1.000,"PART-1-1",           520,           -2.,       -24.375,            0.,NA,NA,"",   14.8411E-03,  -14.7551E-03,  -1.59554E-03,   824.362E-06
C:/temp/dataset/test2/15_2.odb,Step-1,Increment      1: Step Time =    1.000,"PART-1-1",           521,           -5.,      -23.4375,            0.,NA,NA,"",   18.4971E-03,  -17.0634E-03,  -7.14040E-03,   114.008E-06
C:/temp/dataset/test2/15_2.odb,Step-1,Increment      1: Step Time =    1.000,"PART-1-1",           522,           -4.,       -24.375,            0.,NA,NA,"",   15.5268E-03,  -14.7524E-03,  -4.84240E-03,   417.062E-06
C:/temp/dataset/test2/15_2.odb,Step-1,Increment      1: Step Time =    1.000,"PART-1-1",           523,            3.,      -25.3125,            0.,NA,NA,"",   16.1828E-03,  -15.7643E-03,   3.65673E-03,   2.25223E-03
C:/temp/dataset/test2/15_2.odb,Step-1,Increment      1: Step Time =    1.000,"PART-1-1",           524,            4.,        -26.25,            0.,NA,NA,"",   14.0901E-03,  -13.3719E-03,   4.44129E-03,   1.94942E-03
C:/temp/dataset/test2/15_2.odb,Step-1,Increment      1: Step Time =    1.000,"PART-1-1",           525,            5.,      -25.3125,            0.,NA,NA,"",   20.9740E-03,  -19.1359E-03,   8.58638E-03,   1.70767E-03
C:/temp/dataset/test2/15_2.odb,Step-1,Increment      1: Step Time =    1.000,"PART-1-1",           526,            1.,      -25.3125,            0.,NA,NA,"",   13.6150E-03,  -13.5446E-03,   1.38246E-03,   1.63859E-03
C:/temp/dataset/test2/15_2.odb,Step-1,Increment      1: Step Time =    1.000,"PART-1-1",           527,            2.,        -26.25,            0.,NA,NA,"",   11.4350E-03,  -11.3165E-03,   1.64235E-03,   2.02896E-03
C:/temp/dataset/test2/15_2.odb,Step-1,Increment      1: Step Time =    1.000,"PART-1-1",           528,           -1.,      -25.3125,            0.,NA,NA,"",   12.4341E-03,  -12.4259E-03,  -450.842E-06,   1.25029E-03
C:/temp/dataset/test2/15_2.odb,Step-1,Increment      1: Step Time =    1.000,"PART-1-1",           529,            0.,        -26.25,            0.,NA,NA,"",   10.0371E-03,  -10.0354E-03,   188.331E-06,   1.65075E-03
C:/temp/dataset/test2/15_2.odb,Step-1,Increment      1: Step Time =    1.000,"PART-1-1",           530,           -3.,      -25.3125,            0.,NA,NA,"",   12.5354E-03,  -12.2130E-03,  -2.82474E-03,   914.811E-06
C:/temp/dataset/test2/15_2.odb,Step-1,Increment      1: Step Time =    1.000,"PART-1-1",           531,           -2.,        -26.25,            0.,NA,NA,"",   9.66678E-03,  -9.57112E-03,  -1.35655E-03,   1.29328E-03
C:/temp/dataset/test2/15_2.odb,Step-1,Increment      1: Step Time =    1.000,"PART-1-1",           532,           -5.,      -25.3125,            0.,NA,NA,"",   14.2410E-03,  -12.5555E-03,  -6.72045E-03,   508.451E-06
C:/temp/dataset/test2/15_2.odb,Step-1,Increment      1: Step Time =    1.000,"PART-1-1",           533,           -4.,        -26.25,            0.,NA,NA,"",   10.6695E-03,  -9.87667E-03,  -4.03601E-03,   853.886E-06
C:/temp/dataset/test2/15_2.odb,Step-1,Increment      1: Step Time =    1.000,"PART-1-1",           534,            3.,      -27.1875,            0.,NA,NA,"",   8.76309E-03,  -8.54102E-03,   1.96026E-03,   2.05892E-03
C:/temp/dataset/test2/15_2.odb,Step-1,Increment      1: Step Time =    1.000,"PART-1-1",           535,            4.,       -28.125,            0.,NA,NA,"",   5.96622E-03,  -5.35803E-03,   2.62436E-03,   1.69789E-03
C:/temp/dataset/test2/15_2.odb,Step-1,Increment      1: Step Time =    1.000,"PART-1-1",           536,            5.,      -27.1875,            0.,NA,NA,"",   11.9730E-03,  -9.67584E-03,   7.05201E-03,   1.66821E-03
C:/temp/dataset/test2/15_2.odb,Step-1,Increment      1: Step Time =    1.000,"PART-1-1",           537,            1.,      -27.1875,            0.,NA,NA,"",   7.53108E-03,  -7.51620E-03,   473.122E-06,   1.83059E-03
C:/temp/dataset/test2/15_2.odb,Step-1,Increment      1: Step Time =    1.000,"PART-1-1",           538,            2.,       -28.125,            0.,NA,NA,"",   4.83268E-03,  -4.79787E-03,   578.982E-06,   1.83905E-03
C:/temp/dataset/test2/15_2.odb,Step-1,Increment      1: Step Time =    1.000,"PART-1-1",           539,           -1.,      -27.1875,            0.,NA,NA,"",   6.97447E-03,  -6.95813E-03,  -477.130E-06,   1.55705E-03
C:/temp/dataset/test2/15_2.odb,Step-1,Increment      1: Step Time =    1.000,"PART-1-1",           540,            0.,       -28.125,            0.,NA,NA,"",   4.42770E-03,  -4.42716E-03,  -69.4042E-06,   1.65560E-03
C:/temp/dataset/test2/15_2.odb,Step-1,Increment      1: Step Time =    1.000,"PART-1-1",           541,           -3.,      -27.1875,            0.,NA,NA,"",   7.24057E-03,  -6.96991E-03,  -1.96116E-03,   1.39585E-03
C:/temp/dataset/test2/15_2.odb,Step-1,Increment      1: Step Time =    1.000,"PART-1-1",           542,           -2.,       -28.125,            0.,NA,NA,"",   4.34988E-03,  -4.28752E-03,  -733.915E-06,   1.55405E-03
C:/temp/dataset/test2/15_2.odb,Step-1,Increment      1: Step Time =    1.000,"PART-1-1",           543,           -5.,      -27.1875,            0.,NA,NA,"",   9.53532E-03,  -7.80005E-03,  -5.48465E-03,   1.24885E-03
C:/temp/dataset/test2/15_2.odb,Step-1,Increment      1: Step Time =    1.000,"PART-1-1",           544,           -4.,       -28.125,            0.,NA,NA,"",   5.14160E-03,  -4.61668E-03,  -2.26326E-03,   1.49815E-03
C:/temp/dataset/test2/15_2.odb,Step-1,Increment      1: Step Time =    1.000,"PART-1-1",           545,            3.,      -29.0625,            0.,NA,NA,"",   2.11633E-03,  -2.02325E-03,   620.713E-06,   1.58502E-03
C:/temp/dataset/test2/15_2.odb,Step-1,Increment      1: Step Time =    1.000,"PART-1-1",           546,            4.,          -30.,            0.,NA,NA,"",            0.,  -236.664E-42,   2.49167E-39,   2.53936E-03
C:/temp/dataset/test2/15_2.odb,Step-1,Increment      1: Step Time =    1.000,"PART-1-1",           547,            5.,      -29.0625,            0.,NA,NA,"",   4.29972E-03,  -3.22891E-03,   2.83932E-03,   3.07097E-03
C:/temp/dataset/test2/15_2.odb,Step-1,Increment      1: Step Time =    1.000,"PART-1-1",           548,            1.,      -29.0625,            0.,NA,NA,"",   2.05553E-03,  -2.05334E-03,   94.8788E-06,   1.50113E-03
C:/temp/dataset/test2/15_2.odb,Step-1,Increment      1: Step Time =    1.000,"PART-1-1",           549,            2.,          -30.,            0.,NA,NA,"",            0.,  -901.294E-42,   706.504E-42,   1.21609E-03
C:/temp/dataset/test2/15_2.odb,Step-1,Increment      1: Step Time =    1.000,"PART-1-1",           550,           -1.,      -29.0625,            0.,NA,NA,"",   1.97319E-03,  -1.96147E-03,  -214.752E-06,   1.41509E-03
C:/temp/dataset/test2/15_2.odb,Step-1,Increment      1: Step Time =    1.000,"PART-1-1",           551,            0.,          -30.,            0.,NA,NA,"",            0.,  -952.716E-42,  -154.495E-42,   1.23079E-03
C:/temp/dataset/test2/15_2.odb,Step-1,Increment      1: Step Time =    1.000,"PART-1-1",           552,           -3.,      -29.0625,            0.,NA,NA,"",   1.98208E-03,  -1.87279E-03,  -649.084E-06,   1.49652E-03
C:/temp/dataset/test2/15_2.odb,Step-1,Increment      1: Step Time =    1.000,"PART-1-1",           553,           -2.,          -30.,            0.,NA,NA,"",            0.,  -887.964E-42,  -906.525E-42,   1.25504E-03
C:/temp/dataset/test2/15_2.odb,Step-1,Increment      1: Step Time =    1.000,"PART-1-1",           554,           -5.,      -29.0625,            0.,NA,NA,"",   3.70705E-03,  -2.84895E-03,  -2.37186E-03,   2.52551E-03
C:/temp/dataset/test2/15_2.odb,Step-1,Increment      1: Step Time =    1.000,"PART-1-1",           555,           -4.,          -30.,            0.,NA,NA,"",            0.,  -331.435E-42,  -2.20722E-39,   2.29966E-03
