ODB Name,Step,Frame,Part Instance Name,    êﬂì_ÉâÉxÉã,X,Y,Z,Section Name,Material Name,Section Point,   U-Magnitude,          U-U1,          U-U2,       S-Mises
C:/temp/dataset/test2/15_6.odb,Step-1,Increment      1: Step Time =    1.000,"PART-1-1",             1,            5.,           30.,            0.,NA,NA,"",   316.945E-03,  -315.665E-03,   28.4582E-03,   1.35353E-12
C:/temp/dataset/test2/15_6.odb,Step-1,Increment      1: Step Time =    1.000,"PART-1-1",             2,            3.,           30.,            0.,NA,NA,"",   316.198E-03,  -315.642E-03,   18.7524E-03,   1.07087E-12
C:/temp/dataset/test2/15_6.odb,Step-1,Increment      1: Step Time =    1.000,"PART-1-1",             3,            1.,           30.,            0.,NA,NA,"",   315.748E-03,  -315.618E-03,   9.04663E-03,   1.44997E-12
C:/temp/dataset/test2/15_6.odb,Step-1,Increment      1: Step Time =    1.000,"PART-1-1",             4,           -1.,           30.,            0.,NA,NA,"",   315.595E-03,  -315.595E-03,  -659.174E-06,   1.45075E-12
C:/temp/dataset/test2/15_6.odb,Step-1,Increment      1: Step Time =    1.000,"PART-1-1",             5,           -3.,           30.,            0.,NA,NA,"",   315.741E-03,  -315.571E-03,  -10.3650E-03,   1.06949E-12
C:/temp/dataset/test2/15_6.odb,Step-1,Increment      1: Step Time =    1.000,"PART-1-1",             6,           -5.,           30.,            0.,NA,NA,"",   316.185E-03,  -315.548E-03,  -20.0708E-03,   1.35361E-12
C:/temp/dataset/test2/15_6.odb,Step-1,Increment      1: Step Time =    1.000,"PART-1-1",             7,            5.,        28.125,            0.,NA,NA,"",   307.886E-03,  -306.566E-03,   28.4803E-03,   1.11709E-12
C:/temp/dataset/test2/15_6.odb,Step-1,Increment      1: Step Time =    1.000,"PART-1-1",             8,            3.,        28.125,            0.,NA,NA,"",   307.117E-03,  -306.543E-03,   18.7745E-03,   1.82028E-12
C:/temp/dataset/test2/15_6.odb,Step-1,Increment      1: Step Time =    1.000,"PART-1-1",             9,            1.,        28.125,            0.,NA,NA,"",   306.653E-03,  -306.519E-03,   9.06871E-03,   1.79865E-12
C:/temp/dataset/test2/15_6.odb,Step-1,Increment      1: Step Time =    1.000,"PART-1-1",            10,           -1.,        28.125,            0.,NA,NA,"",   306.496E-03,  -306.495E-03,  -637.095E-06,   1.79647E-12
C:/temp/dataset/test2/15_6.odb,Step-1,Increment      1: Step Time =    1.000,"PART-1-1",            11,           -3.,        28.125,            0.,NA,NA,"",   306.646E-03,  -306.472E-03,  -10.3429E-03,   1.81843E-12
C:/temp/dataset/test2/15_6.odb,Step-1,Increment      1: Step Time =    1.000,"PART-1-1",            12,           -5.,        28.125,            0.,NA,NA,"",   307.103E-03,  -306.448E-03,  -20.0487E-03,   1.11847E-12
C:/temp/dataset/test2/15_6.odb,Step-1,Increment      1: Step Time =    1.000,"PART-1-1",            13,            5.,         26.25,            0.,NA,NA,"",   298.829E-03,  -297.467E-03,   28.5024E-03,   2.16422E-12
C:/temp/dataset/test2/15_6.odb,Step-1,Increment      1: Step Time =    1.000,"PART-1-1",            14,            3.,         26.25,            0.,NA,NA,"",   298.037E-03,  -297.443E-03,   18.7966E-03,   2.94098E-12
C:/temp/dataset/test2/15_6.odb,Step-1,Increment      1: Step Time =    1.000,"PART-1-1",            15,            1.,         26.25,            0.,NA,NA,"",   297.559E-03,  -297.420E-03,   9.09079E-03,   2.99912E-12
C:/temp/dataset/test2/15_6.odb,Step-1,Increment      1: Step Time =    1.000,"PART-1-1",            16,           -1.,         26.25,            0.,NA,NA,"",   297.397E-03,  -297.396E-03,  -615.016E-06,   2.99740E-12
C:/temp/dataset/test2/15_6.odb,Step-1,Increment      1: Step Time =    1.000,"PART-1-1",            17,           -3.,         26.25,            0.,NA,NA,"",   297.552E-03,  -297.373E-03,  -10.3208E-03,   2.93955E-12
C:/temp/dataset/test2/15_6.odb,Step-1,Increment      1: Step Time =    1.000,"PART-1-1",            18,           -5.,         26.25,            0.,NA,NA,"",   298.023E-03,  -297.349E-03,  -20.0266E-03,   2.15903E-12
C:/temp/dataset/test2/15_6.odb,Step-1,Increment      1: Step Time =    1.000,"PART-1-1",            19,            5.,        24.375,            0.,NA,NA,"",   289.775E-03,  -288.368E-03,   28.5245E-03,   5.30372E-12
C:/temp/dataset/test2/15_6.odb,Step-1,Increment      1: Step Time =    1.000,"PART-1-1",            20,            3.,        24.375,            0.,NA,NA,"",   288.958E-03,  -288.344E-03,   18.8187E-03,   3.88010E-12
C:/temp/dataset/test2/15_6.odb,Step-1,Increment      1: Step Time =    1.000,"PART-1-1",            21,            1.,        24.375,            0.,NA,NA,"",   288.465E-03,  -288.321E-03,   9.11287E-03,   4.17205E-12
C:/temp/dataset/test2/15_6.odb,Step-1,Increment      1: Step Time =    1.000,"PART-1-1",            22,           -1.,        24.375,            0.,NA,NA,"",   288.298E-03,  -288.297E-03,  -592.937E-06,   4.17203E-12
C:/temp/dataset/test2/15_6.odb,Step-1,Increment      1: Step Time =    1.000,"PART-1-1",            23,           -3.,        24.375,            0.,NA,NA,"",   288.457E-03,  -288.274E-03,  -10.2987E-03,   3.87864E-12
C:/temp/dataset/test2/15_6.odb,Step-1,Increment      1: Step Time =    1.000,"PART-1-1",            24,           -5.,        24.375,            0.,NA,NA,"",   288.943E-03,  -288.250E-03,  -20.0045E-03,   5.29446E-12
C:/temp/dataset/test2/15_6.odb,Step-1,Increment      1: Step Time =    1.000,"PART-1-1",            25,            5.,          22.5,            0.,NA,NA,"",   280.724E-03,  -279.269E-03,   28.5466E-03,   9.44915E-12
C:/temp/dataset/test2/15_6.odb,Step-1,Increment      1: Step Time =    1.000,"PART-1-1",            26,            3.,          22.5,            0.,NA,NA,"",   279.880E-03,  -279.245E-03,   18.8408E-03,   3.14370E-12
C:/temp/dataset/test2/15_6.odb,Step-1,Increment      1: Step Time =    1.000,"PART-1-1",            27,            1.,          22.5,            0.,NA,NA,"",   279.371E-03,  -279.221E-03,   9.13495E-03,   5.59644E-12
C:/temp/dataset/test2/15_6.odb,Step-1,Increment      1: Step Time =    1.000,"PART-1-1",            28,           -1.,          22.5,            0.,NA,NA,"",   279.198E-03,  -279.198E-03,  -570.858E-06,   5.59804E-12
C:/temp/dataset/test2/15_6.odb,Step-1,Increment      1: Step Time =    1.000,"PART-1-1",            29,           -3.,          22.5,            0.,NA,NA,"",   279.363E-03,  -279.174E-03,  -10.2767E-03,   3.14417E-12
C:/temp/dataset/test2/15_6.odb,Step-1,Increment      1: Step Time =    1.000,"PART-1-1",            30,           -5.,          22.5,            0.,NA,NA,"",   279.865E-03,  -279.151E-03,  -19.9825E-03,   9.43674E-12
C:/temp/dataset/test2/15_6.odb,Step-1,Increment      1: Step Time =    1.000,"PART-1-1",            31,            5.,        20.625,            0.,NA,NA,"",   271.676E-03,  -270.169E-03,   28.5686E-03,   10.8283E-12
C:/temp/dataset/test2/15_6.odb,Step-1,Increment      1: Step Time =    1.000,"PART-1-1",            32,            3.,        20.625,            0.,NA,NA,"",   270.804E-03,  -270.146E-03,   18.8628E-03,   11.6834E-12
C:/temp/dataset/test2/15_6.odb,Step-1,Increment      1: Step Time =    1.000,"PART-1-1",            33,            1.,        20.625,            0.,NA,NA,"",   270.277E-03,  -270.122E-03,   9.15703E-03,   20.1816E-12
C:/temp/dataset/test2/15_6.odb,Step-1,Increment      1: Step Time =    1.000,"PART-1-1",            34,           -1.,        20.625,            0.,NA,NA,"",   270.099E-03,  -270.099E-03,  -548.779E-06,   20.1823E-12
C:/temp/dataset/test2/15_6.odb,Step-1,Increment      1: Step Time =    1.000,"PART-1-1",            35,           -3.,        20.625,            0.,NA,NA,"",   270.270E-03,  -270.075E-03,  -10.2546E-03,   11.6871E-12
C:/temp/dataset/test2/15_6.odb,Step-1,Increment      1: Step Time =    1.000,"PART-1-1",            36,           -5.,        20.625,            0.,NA,NA,"",   270.788E-03,  -270.052E-03,  -19.9604E-03,   10.8126E-12
C:/temp/dataset/test2/15_6.odb,Step-1,Increment      1: Step Time =    1.000,"PART-1-1",            37,            5.,         18.75,            0.,NA,NA,"",   262.631E-03,  -261.070E-03,   28.5907E-03,   5.24323E-12
C:/temp/dataset/test2/15_6.odb,Step-1,Increment      1: Step Time =    1.000,"PART-1-1",            38,            3.,         18.75,            0.,NA,NA,"",   261.729E-03,  -261.047E-03,   18.8849E-03,   51.0087E-12
C:/temp/dataset/test2/15_6.odb,Step-1,Increment      1: Step Time =    1.000,"PART-1-1",            39,            1.,         18.75,            0.,NA,NA,"",   261.184E-03,  -261.023E-03,   9.17911E-03,   69.2913E-12
C:/temp/dataset/test2/15_6.odb,Step-1,Increment      1: Step Time =    1.000,"PART-1-1",            40,           -1.,         18.75,            0.,NA,NA,"",   261.000E-03,  -260.999E-03,  -526.701E-06,   69.2913E-12
C:/temp/dataset/test2/15_6.odb,Step-1,Increment      1: Step Time =    1.000,"PART-1-1",            41,           -3.,         18.75,            0.,NA,NA,"",   261.176E-03,  -260.976E-03,  -10.2325E-03,   51.0123E-12
C:/temp/dataset/test2/15_6.odb,Step-1,Increment      1: Step Time =    1.000,"PART-1-1",            42,           -5.,         18.75,            0.,NA,NA,"",   261.713E-03,  -260.952E-03,  -19.9383E-03,   5.25243E-12
C:/temp/dataset/test2/15_6.odb,Step-1,Increment      1: Step Time =    1.000,"PART-1-1",            43,            5.,        16.875,            0.,NA,NA,"",   253.590E-03,  -251.971E-03,   28.6128E-03,   68.9242E-12
C:/temp/dataset/test2/15_6.odb,Step-1,Increment      1: Step Time =    1.000,"PART-1-1",            44,            3.,        16.875,            0.,NA,NA,"",   252.656E-03,  -251.947E-03,   18.9070E-03,   151.467E-12
C:/temp/dataset/test2/15_6.odb,Step-1,Increment      1: Step Time =    1.000,"PART-1-1",            45,            1.,        16.875,            0.,NA,NA,"",   252.092E-03,  -251.924E-03,   9.20118E-03,   187.407E-12
C:/temp/dataset/test2/15_6.odb,Step-1,Increment      1: Step Time =    1.000,"PART-1-1",            46,           -1.,        16.875,            0.,NA,NA,"",   251.901E-03,  -251.900E-03,  -504.622E-06,   187.406E-12
C:/temp/dataset/test2/15_6.odb,Step-1,Increment      1: Step Time =    1.000,"PART-1-1",            47,           -3.,        16.875,            0.,NA,NA,"",   252.084E-03,  -251.877E-03,  -10.2104E-03,   151.471E-12
C:/temp/dataset/test2/15_6.odb,Step-1,Increment      1: Step Time =    1.000,"PART-1-1",            48,           -5.,        16.875,            0.,NA,NA,"",   252.639E-03,  -251.853E-03,  -19.9162E-03,   68.9463E-12
C:/temp/dataset/test2/15_6.odb,Step-1,Increment      1: Step Time =    1.000,"PART-1-1",            49,            5.,           15.,            0.,NA,NA,"",   244.554E-03,  -242.872E-03,   28.6349E-03,   259.198E-12
C:/temp/dataset/test2/15_6.odb,Step-1,Increment      1: Step Time =    1.000,"PART-1-1",            50,            3.,           15.,            0.,NA,NA,"",   243.585E-03,  -242.848E-03,   18.9291E-03,   363.075E-12
C:/temp/dataset/test2/15_6.odb,Step-1,Increment      1: Step Time =    1.000,"PART-1-1",            51,            1.,           15.,            0.,NA,NA,"",   243.000E-03,  -242.825E-03,   9.22326E-03,   422.992E-12
C:/temp/dataset/test2/15_6.odb,Step-1,Increment      1: Step Time =    1.000,"PART-1-1",            52,           -1.,           15.,            0.,NA,NA,"",   242.802E-03,  -242.801E-03,  -482.542E-06,   422.990E-12
C:/temp/dataset/test2/15_6.odb,Step-1,Increment      1: Step Time =    1.000,"PART-1-1",            53,           -3.,           15.,            0.,NA,NA,"",   242.991E-03,  -242.778E-03,  -10.1883E-03,   363.079E-12
C:/temp/dataset/test2/15_6.odb,Step-1,Increment      1: Step Time =    1.000,"PART-1-1",            54,           -5.,           15.,            0.,NA,NA,"",   243.568E-03,  -242.754E-03,  -19.8942E-03,   259.225E-12
C:/temp/dataset/test2/15_6.odb,Step-1,Increment      1: Step Time =    1.000,"PART-1-1",            55,            5.,        13.125,            0.,NA,NA,"",   235.522E-03,  -233.773E-03,   28.6570E-03,   708.995E-12
C:/temp/dataset/test2/15_6.odb,Step-1,Increment      1: Step Time =    1.000,"PART-1-1",            56,            3.,        13.125,            0.,NA,NA,"",   234.516E-03,  -233.749E-03,   18.9511E-03,   726.223E-12
C:/temp/dataset/test2/15_6.odb,Step-1,Increment      1: Step Time =    1.000,"PART-1-1",            57,            1.,        13.125,            0.,NA,NA,"",   233.908E-03,  -233.725E-03,   9.24534E-03,   801.077E-12
C:/temp/dataset/test2/15_6.odb,Step-1,Increment      1: Step Time =    1.000,"PART-1-1",            58,           -1.,        13.125,            0.,NA,NA,"",   233.702E-03,  -233.702E-03,  -460.463E-06,   801.074E-12
C:/temp/dataset/test2/15_6.odb,Step-1,Increment      1: Step Time =    1.000,"PART-1-1",            59,           -3.,        13.125,            0.,NA,NA,"",   233.899E-03,  -233.678E-03,  -10.1663E-03,   726.227E-12
C:/temp/dataset/test2/15_6.odb,Step-1,Increment      1: Step Time =    1.000,"PART-1-1",            60,           -5.,        13.125,            0.,NA,NA,"",   234.498E-03,  -233.655E-03,  -19.8721E-03,   709.026E-12
C:/temp/dataset/test2/15_6.odb,Step-1,Increment      1: Step Time =    1.000,"PART-1-1",            61,            5.,         11.25,            0.,NA,NA,"",   226.496E-03,  -224.673E-03,   28.6790E-03,   1.59314E-09
C:/temp/dataset/test2/15_6.odb,Step-1,Increment      1: Step Time =    1.000,"PART-1-1",            62,            3.,         11.25,            0.,NA,NA,"",   225.450E-03,  -224.650E-03,   18.9732E-03,   1.16145E-09
C:/temp/dataset/test2/15_6.odb,Step-1,Increment      1: Step Time =    1.000,"PART-1-1",            63,            1.,         11.25,            0.,NA,NA,"",   224.817E-03,  -224.626E-03,   9.26742E-03,   1.20407E-09
C:/temp/dataset/test2/15_6.odb,Step-1,Increment      1: Step Time =    1.000,"PART-1-1",            64,           -1.,         11.25,            0.,NA,NA,"",   224.603E-03,  -224.603E-03,  -438.383E-06,   1.20405E-09
C:/temp/dataset/test2/15_6.odb,Step-1,Increment      1: Step Time =    1.000,"PART-1-1",            65,           -3.,         11.25,            0.,NA,NA,"",   224.808E-03,  -224.579E-03,  -10.1442E-03,   1.16143E-09
C:/temp/dataset/test2/15_6.odb,Step-1,Increment      1: Step Time =    1.000,"PART-1-1",            66,           -5.,         11.25,            0.,NA,NA,"",   225.431E-03,  -224.556E-03,  -19.8500E-03,   1.59318E-09
C:/temp/dataset/test2/15_6.odb,Step-1,Increment      1: Step Time =    1.000,"PART-1-1",            67,            5.,         9.375,            0.,NA,NA,"",   217.476E-03,  -215.574E-03,   28.7011E-03,   2.96348E-09
C:/temp/dataset/test2/15_6.odb,Step-1,Increment      1: Step Time =    1.000,"PART-1-1",            68,            3.,         9.375,            0.,NA,NA,"",   216.386E-03,  -215.551E-03,   18.9953E-03,   1.17974E-09
C:/temp/dataset/test2/15_6.odb,Step-1,Increment      1: Step Time =    1.000,"PART-1-1",            69,            1.,         9.375,            0.,NA,NA,"",   215.727E-03,  -215.527E-03,   9.28950E-03,   1.28773E-09
C:/temp/dataset/test2/15_6.odb,Step-1,Increment      1: Step Time =    1.000,"PART-1-1",            70,           -1.,         9.375,            0.,NA,NA,"",   215.504E-03,  -215.504E-03,  -416.302E-06,   1.28768E-09
C:/temp/dataset/test2/15_6.odb,Step-1,Increment      1: Step Time =    1.000,"PART-1-1",            71,           -3.,         9.375,            0.,NA,NA,"",   215.718E-03,  -215.480E-03,  -10.1221E-03,   1.17964E-09
C:/temp/dataset/test2/15_6.odb,Step-1,Increment      1: Step Time =    1.000,"PART-1-1",            72,           -5.,         9.375,            0.,NA,NA,"",   216.367E-03,  -215.456E-03,  -19.8279E-03,   2.96345E-09
C:/temp/dataset/test2/15_6.odb,Step-1,Increment      1: Step Time =    1.000,"PART-1-1",            73,            5.,           7.5,            0.,NA,NA,"",   208.463E-03,  -206.475E-03,   28.7232E-03,   4.18215E-09
C:/temp/dataset/test2/15_6.odb,Step-1,Increment      1: Step Time =    1.000,"PART-1-1",            74,            3.,           7.5,            0.,NA,NA,"",   207.325E-03,  -206.451E-03,   19.0174E-03,   1.46332E-09
C:/temp/dataset/test2/15_6.odb,Step-1,Increment      1: Step Time =    1.000,"PART-1-1",            75,            1.,           7.5,            0.,NA,NA,"",   206.638E-03,  -206.428E-03,   9.31158E-03,   3.56736E-09
C:/temp/dataset/test2/15_6.odb,Step-1,Increment      1: Step Time =    1.000,"PART-1-1",            76,           -1.,           7.5,            0.,NA,NA,"",   206.405E-03,  -206.404E-03,  -394.223E-06,   3.56751E-09
C:/temp/dataset/test2/15_6.odb,Step-1,Increment      1: Step Time =    1.000,"PART-1-1",            77,           -3.,           7.5,            0.,NA,NA,"",   206.628E-03,  -206.381E-03,  -10.1000E-03,   1.46383E-09
C:/temp/dataset/test2/15_6.odb,Step-1,Increment      1: Step Time =    1.000,"PART-1-1",            78,           -5.,           7.5,            0.,NA,NA,"",   207.306E-03,  -206.357E-03,  -19.8059E-03,   4.18180E-09
C:/temp/dataset/test2/15_6.odb,Step-1,Increment      1: Step Time =    1.000,"PART-1-1",            79,            5.,         5.625,            0.,NA,NA,"",   199.458E-03,  -197.376E-03,   28.7452E-03,   2.50722E-09
C:/temp/dataset/test2/15_6.odb,Step-1,Increment      1: Step Time =    1.000,"PART-1-1",            80,            3.,         5.625,            0.,NA,NA,"",   198.269E-03,  -197.352E-03,   19.0395E-03,   10.0956E-09
C:/temp/dataset/test2/15_6.odb,Step-1,Increment      1: Step Time =    1.000,"PART-1-1",            81,            1.,         5.625,            0.,NA,NA,"",   197.549E-03,  -197.329E-03,   9.33365E-03,   14.7896E-09
C:/temp/dataset/test2/15_6.odb,Step-1,Increment      1: Step Time =    1.000,"PART-1-1",            82,           -1.,         5.625,            0.,NA,NA,"",   197.305E-03,  -197.305E-03,  -372.151E-06,   14.7901E-09
C:/temp/dataset/test2/15_6.odb,Step-1,Increment      1: Step Time =    1.000,"PART-1-1",            83,           -3.,         5.625,            0.,NA,NA,"",   197.539E-03,  -197.282E-03,  -10.0780E-03,   10.0975E-09
C:/temp/dataset/test2/15_6.odb,Step-1,Increment      1: Step Time =    1.000,"PART-1-1",            84,           -5.,         5.625,            0.,NA,NA,"",   198.248E-03,  -197.258E-03,  -19.7838E-03,   2.50539E-09
C:/temp/dataset/test2/15_6.odb,Step-1,Increment      1: Step Time =    1.000,"PART-1-1",            85,            5.,          3.75,            0.,NA,NA,"",   190.462E-03,  -188.277E-03,   28.7673E-03,   10.8865E-09
C:/temp/dataset/test2/15_6.odb,Step-1,Increment      1: Step Time =    1.000,"PART-1-1",            86,            3.,          3.75,            0.,NA,NA,"",   189.216E-03,  -188.253E-03,   19.0615E-03,   34.6030E-09
C:/temp/dataset/test2/15_6.odb,Step-1,Increment      1: Step Time =    1.000,"PART-1-1",            87,            1.,          3.75,            0.,NA,NA,"",   188.462E-03,  -188.230E-03,   9.35570E-03,   44.3471E-09
C:/temp/dataset/test2/15_6.odb,Step-1,Increment      1: Step Time =    1.000,"PART-1-1",            88,           -1.,          3.75,            0.,NA,NA,"",   188.206E-03,  -188.206E-03,  -350.102E-06,   44.3479E-09
C:/temp/dataset/test2/15_6.odb,Step-1,Increment      1: Step Time =    1.000,"PART-1-1",            89,           -3.,          3.75,            0.,NA,NA,"",   188.451E-03,  -188.182E-03,  -10.0559E-03,   34.6081E-09
C:/temp/dataset/test2/15_6.odb,Step-1,Increment      1: Step Time =    1.000,"PART-1-1",            90,           -5.,          3.75,            0.,NA,NA,"",   189.194E-03,  -188.159E-03,  -19.7617E-03,   10.8930E-09
C:/temp/dataset/test2/15_6.odb,Step-1,Increment      1: Step Time =    1.000,"PART-1-1",            91,            5.,         1.875,            0.,NA,NA,"",   181.476E-03,  -179.178E-03,   28.7895E-03,   54.7065E-09
C:/temp/dataset/test2/15_6.odb,Step-1,Increment      1: Step Time =    1.000,"PART-1-1",            92,            3.,         1.875,            0.,NA,NA,"",   180.168E-03,  -179.154E-03,   19.0836E-03,   90.4534E-09
C:/temp/dataset/test2/15_6.odb,Step-1,Increment      1: Step Time =    1.000,"PART-1-1",            93,            1.,         1.875,            0.,NA,NA,"",   179.376E-03,  -179.130E-03,   9.37770E-03,   108.071E-09
C:/temp/dataset/test2/15_6.odb,Step-1,Increment      1: Step Time =    1.000,"PART-1-1",            94,           -1.,         1.875,            0.,NA,NA,"",   179.107E-03,  -179.107E-03,  -328.106E-06,   108.064E-09
C:/temp/dataset/test2/15_6.odb,Step-1,Increment      1: Step Time =    1.000,"PART-1-1",            95,           -3.,         1.875,            0.,NA,NA,"",   179.364E-03,  -179.083E-03,  -10.0338E-03,   90.4502E-09
C:/temp/dataset/test2/15_6.odb,Step-1,Increment      1: Step Time =    1.000,"PART-1-1",            96,           -5.,         1.875,            0.,NA,NA,"",   180.144E-03,  -179.059E-03,  -19.7396E-03,   54.7291E-09
C:/temp/dataset/test2/15_6.odb,Step-1,Increment      1: Step Time =    1.000,"PART-1-1",            97,            5.,            0.,            0.,NA,NA,"",   172.502E-03,  -170.078E-03,   28.8117E-03,   167.592E-09
C:/temp/dataset/test2/15_6.odb,Step-1,Increment      1: Step Time =    1.000,"PART-1-1",            98,            3.,            0.,            0.,NA,NA,"",   171.125E-03,  -170.055E-03,   19.1057E-03,   196.025E-09
C:/temp/dataset/test2/15_6.odb,Step-1,Increment      1: Step Time =    1.000,"PART-1-1",            99,            1.,            0.,            0.,NA,NA,"",   170.291E-03,  -170.031E-03,   9.39958E-03,   221.587E-09
C:/temp/dataset/test2/15_6.odb,Step-1,Increment      1: Step Time =    1.000,"PART-1-1",           100,           -1.,            0.,            0.,NA,NA,"",   170.008E-03,  -170.007E-03,  -306.221E-06,   221.537E-09
C:/temp/dataset/test2/15_6.odb,Step-1,Increment      1: Step Time =    1.000,"PART-1-1",           101,           -3.,            0.,            0.,NA,NA,"",   170.278E-03,  -169.984E-03,  -10.0117E-03,   195.946E-09
C:/temp/dataset/test2/15_6.odb,Step-1,Increment      1: Step Time =    1.000,"PART-1-1",           102,           -5.,            0.,            0.,NA,NA,"",   171.100E-03,  -169.960E-03,  -19.7173E-03,   167.599E-09
C:/temp/dataset/test2/15_6.odb,Step-1,Increment      1: Step Time =    1.000,"PART-1-1",           103,            5.,        -1.875,            0.,NA,NA,"",   163.541E-03,  -160.979E-03,   28.8342E-03,   408.424E-09
C:/temp/dataset/test2/15_6.odb,Step-1,Increment      1: Step Time =    1.000,"PART-1-1",           104,            3.,        -1.875,            0.,NA,NA,"",   162.089E-03,  -160.956E-03,   19.1278E-03,   349.822E-09
C:/temp/dataset/test2/15_6.odb,Step-1,Increment      1: Step Time =    1.000,"PART-1-1",           105,            1.,        -1.875,            0.,NA,NA,"",   161.208E-03,  -160.932E-03,   9.42129E-03,   372.985E-09
C:/temp/dataset/test2/15_6.odb,Step-1,Increment      1: Step Time =    1.000,"PART-1-1",           106,           -1.,        -1.875,            0.,NA,NA,"",   160.908E-03,  -160.908E-03,  -284.515E-06,   372.697E-09
C:/temp/dataset/test2/15_6.odb,Step-1,Increment      1: Step Time =    1.000,"PART-1-1",           107,           -3.,        -1.875,            0.,NA,NA,"",   161.194E-03,  -160.884E-03,  -9.98960E-03,   349.241E-09
C:/temp/dataset/test2/15_6.odb,Step-1,Increment      1: Step Time =    1.000,"PART-1-1",           108,           -5.,        -1.875,            0.,NA,NA,"",   162.062E-03,  -160.861E-03,  -19.6948E-03,   408.206E-09
C:/temp/dataset/test2/15_6.odb,Step-1,Increment      1: Step Time =    1.000,"PART-1-1",           109,            5.,         -3.75,            0.,NA,NA,"",   154.597E-03,  -151.880E-03,   28.8573E-03,   828.721E-09
C:/temp/dataset/test2/15_6.odb,Step-1,Increment      1: Step Time =    1.000,"PART-1-1",           110,            3.,         -3.75,            0.,NA,NA,"",   153.059E-03,  -151.857E-03,   19.1499E-03,   459.163E-09
C:/temp/dataset/test2/15_6.odb,Step-1,Increment      1: Step Time =    1.000,"PART-1-1",           111,            1.,         -3.75,            0.,NA,NA,"",   152.126E-03,  -151.833E-03,   9.44281E-03,   463.685E-09
C:/temp/dataset/test2/15_6.odb,Step-1,Increment      1: Step Time =    1.000,"PART-1-1",           112,           -1.,         -3.75,            0.,NA,NA,"",   151.809E-03,  -151.809E-03,  -262.994E-06,   462.480E-09
C:/temp/dataset/test2/15_6.odb,Step-1,Increment      1: Step Time =    1.000,"PART-1-1",           113,           -3.,         -3.75,            0.,NA,NA,"",   152.112E-03,  -151.785E-03,  -9.96749E-03,   456.594E-09
C:/temp/dataset/test2/15_6.odb,Step-1,Increment      1: Step Time =    1.000,"PART-1-1",           114,           -5.,         -3.75,            0.,NA,NA,"",   153.032E-03,  -151.762E-03,  -19.6717E-03,   826.812E-09
C:/temp/dataset/test2/15_6.odb,Step-1,Increment      1: Step Time =    1.000,"PART-1-1",           115,            5.,        -5.625,            0.,NA,NA,"",   145.671E-03,  -142.779E-03,   28.8813E-03,   1.35053E-06
C:/temp/dataset/test2/15_6.odb,Step-1,Increment      1: Step Time =    1.000,"PART-1-1",           116,            3.,        -5.625,            0.,NA,NA,"",   144.038E-03,  -142.756E-03,   19.1721E-03,   267.258E-09
C:/temp/dataset/test2/15_6.odb,Step-1,Increment      1: Step Time =    1.000,"PART-1-1",           117,            1.,        -5.625,            0.,NA,NA,"",   143.046E-03,  -142.733E-03,   9.46446E-03,   651.669E-09
C:/temp/dataset/test2/15_6.odb,Step-1,Increment      1: Step Time =    1.000,"PART-1-1",           118,           -1.,        -5.625,            0.,NA,NA,"",   142.711E-03,  -142.711E-03,  -241.344E-06,   650.490E-09
C:/temp/dataset/test2/15_6.odb,Step-1,Increment      1: Step Time =    1.000,"PART-1-1",           119,           -3.,        -5.625,            0.,NA,NA,"",   143.034E-03,  -142.688E-03,  -9.94536E-03,   264.088E-09
C:/temp/dataset/test2/15_6.odb,Step-1,Increment      1: Step Time =    1.000,"PART-1-1",           120,           -5.,        -5.625,            0.,NA,NA,"",   144.011E-03,  -142.665E-03,  -19.6478E-03,   1.34104E-06
C:/temp/dataset/test2/15_6.odb,Step-1,Increment      1: Step Time =    1.000,"PART-1-1",           121,            5.,          -7.5,            0.,NA,NA,"",   136.764E-03,  -133.674E-03,   28.9060E-03,   1.41382E-06
C:/temp/dataset/test2/15_6.odb,Step-1,Increment      1: Step Time =    1.000,"PART-1-1",           122,            3.,          -7.5,            0.,NA,NA,"",   135.023E-03,  -133.652E-03,   19.1942E-03,   1.78789E-06
C:/temp/dataset/test2/15_6.odb,Step-1,Increment      1: Step Time =    1.000,"PART-1-1",           123,            1.,          -7.5,            0.,NA,NA,"",   133.968E-03,  -133.631E-03,   9.48752E-03,   2.98529E-06
C:/temp/dataset/test2/15_6.odb,Step-1,Increment      1: Step Time =    1.000,"PART-1-1",           124,           -1.,          -7.5,            0.,NA,NA,"",   133.614E-03,  -133.614E-03,  -218.289E-06,   2.98525E-06
C:/temp/dataset/test2/15_6.odb,Step-1,Increment      1: Step Time =    1.000,"PART-1-1",           125,           -3.,          -7.5,            0.,NA,NA,"",   133.961E-03,  -133.593E-03,  -9.92326E-03,   1.80730E-06
C:/temp/dataset/test2/15_6.odb,Step-1,Increment      1: Step Time =    1.000,"PART-1-1",           126,           -5.,          -7.5,            0.,NA,NA,"",   135.004E-03,  -133.571E-03,  -19.6232E-03,   1.37801E-06
C:/temp/dataset/test2/15_6.odb,Step-1,Increment      1: Step Time =    1.000,"PART-1-1",           127,            5.,        -9.375,            0.,NA,NA,"",   127.878E-03,  -124.563E-03,   28.9295E-03,   1.07911E-06
C:/temp/dataset/test2/15_6.odb,Step-1,Increment      1: Step Time =    1.000,"PART-1-1",           128,            3.,        -9.375,            0.,NA,NA,"",   126.013E-03,  -124.540E-03,   19.2162E-03,   7.54816E-06
C:/temp/dataset/test2/15_6.odb,Step-1,Increment      1: Step Time =    1.000,"PART-1-1",           129,            1.,        -9.375,            0.,NA,NA,"",   124.890E-03,  -124.526E-03,   9.51568E-03,   10.1331E-06
C:/temp/dataset/test2/15_6.odb,Step-1,Increment      1: Step Time =    1.000,"PART-1-1",           130,           -1.,        -9.375,            0.,NA,NA,"",   124.520E-03,  -124.520E-03,  -190.193E-06,   10.1007E-06
C:/temp/dataset/test2/15_6.odb,Step-1,Increment      1: Step Time =    1.000,"PART-1-1",           131,           -3.,        -9.375,            0.,NA,NA,"",   124.900E-03,  -124.507E-03,  -9.90133E-03,   7.54591E-06
C:/temp/dataset/test2/15_6.odb,Step-1,Increment      1: Step Time =    1.000,"PART-1-1",           132,           -5.,        -9.375,            0.,NA,NA,"",   126.017E-03,  -124.484E-03,  -19.5999E-03,   1.15763E-06
C:/temp/dataset/test2/15_6.odb,Step-1,Increment      1: Step Time =    1.000,"PART-1-1",           133,            5.,        -11.25,            0.,NA,NA,"",   119.013E-03,  -115.440E-03,   28.9445E-03,   10.6671E-06
C:/temp/dataset/test2/15_6.odb,Step-1,Increment      1: Step Time =    1.000,"PART-1-1",           134,            3.,        -11.25,            0.,NA,NA,"",   117.005E-03,  -115.413E-03,   19.2378E-03,   21.9587E-06
C:/temp/dataset/test2/15_6.odb,Step-1,Increment      1: Step Time =    1.000,"PART-1-1",           135,            1.,        -11.25,            0.,NA,NA,"",   115.810E-03,  -115.415E-03,   9.55745E-03,   26.8597E-06
C:/temp/dataset/test2/15_6.odb,Step-1,Increment      1: Step Time =    1.000,"PART-1-1",           136,           -1.,        -11.25,            0.,NA,NA,"",   115.434E-03,  -115.434E-03,  -148.847E-06,   26.6353E-06
C:/temp/dataset/test2/15_6.odb,Step-1,Increment      1: Step Time =    1.000,"PART-1-1",           137,           -3.,        -11.25,            0.,NA,NA,"",   115.857E-03,  -115.435E-03,  -9.88007E-03,   21.6008E-06
C:/temp/dataset/test2/15_6.odb,Step-1,Increment      1: Step Time =    1.000,"PART-1-1",           138,           -5.,        -11.25,            0.,NA,NA,"",   117.058E-03,  -115.408E-03,  -19.5851E-03,   10.7183E-06
C:/temp/dataset/test2/15_6.odb,Step-1,Increment      1: Step Time =    1.000,"PART-1-1",           139,            5.,       -13.125,            0.,NA,NA,"",   110.169E-03,  -106.302E-03,   28.9319E-03,   38.3486E-06
C:/temp/dataset/test2/15_6.odb,Step-1,Increment      1: Step Time =    1.000,"PART-1-1",           140,            3.,       -13.125,            0.,NA,NA,"",   107.996E-03,  -106.265E-03,   19.2590E-03,   52.3873E-06
C:/temp/dataset/test2/15_6.odb,Step-1,Increment      1: Step Time =    1.000,"PART-1-1",           141,            1.,       -13.125,            0.,NA,NA,"",   106.731E-03,  -106.296E-03,   9.62996E-03,   59.7977E-06
C:/temp/dataset/test2/15_6.odb,Step-1,Increment      1: Step Time =    1.000,"PART-1-1",           142,           -1.,       -13.125,            0.,NA,NA,"",   106.358E-03,  -106.358E-03,  -78.8138E-06,   58.4750E-06
C:/temp/dataset/test2/15_6.odb,Step-1,Increment      1: Step Time =    1.000,"PART-1-1",           143,           -3.,       -13.125,            0.,NA,NA,"",   106.839E-03,  -106.383E-03,  -9.86074E-03,   49.7618E-06
C:/temp/dataset/test2/15_6.odb,Step-1,Increment      1: Step Time =    1.000,"PART-1-1",           144,           -5.,       -13.125,            0.,NA,NA,"",   108.135E-03,  -106.345E-03,  -19.5981E-03,   37.5347E-06
C:/temp/dataset/test2/15_6.odb,Step-1,Increment      1: Step Time =    1.000,"PART-1-1",           145,            5.,          -15.,            0.,NA,NA,"",   101.357E-03,  -97.1671E-03,   28.8409E-03,   106.256E-06
C:/temp/dataset/test2/15_6.odb,Step-1,Increment      1: Step Time =    1.000,"PART-1-1",           146,            3.,          -15.,            0.,NA,NA,"",   98.9994E-03,  -97.1040E-03,   19.2793E-03,   105.386E-06
C:/temp/dataset/test2/15_6.odb,Step-1,Increment      1: Step Time =    1.000,"PART-1-1",           147,            1.,          -15.,            0.,NA,NA,"",   97.6655E-03,  -97.1767E-03,   9.75940E-03,   111.715E-06
C:/temp/dataset/test2/15_6.odb,Step-1,Increment      1: Step Time =    1.000,"PART-1-1",           148,           -1.,          -15.,            0.,NA,NA,"",   97.2915E-03,  -97.2915E-03,   40.3373E-06,   106.335E-06
C:/temp/dataset/test2/15_6.odb,Step-1,Increment      1: Step Time =    1.000,"PART-1-1",           149,           -3.,          -15.,            0.,NA,NA,"",   97.8365E-03,  -97.3397E-03,  -9.84705E-03,   93.8546E-06
C:/temp/dataset/test2/15_6.odb,Step-1,Increment      1: Step Time =    1.000,"PART-1-1",           150,           -5.,          -15.,            0.,NA,NA,"",   99.2450E-03,  -97.2742E-03,  -19.6801E-03,   97.2988E-06
C:/temp/dataset/test2/15_6.odb,Step-1,Increment      1: Step Time =    1.000,"PART-1-1",           151,            5.,       -16.875,            0.,NA,NA,"",   92.6271E-03,  -88.1030E-03,   28.5947E-03,   243.085E-06
C:/temp/dataset/test2/15_6.odb,Step-1,Increment      1: Step Time =    1.000,"PART-1-1",           152,            3.,       -16.875,            0.,NA,NA,"",   90.0900E-03,  -87.9955E-03,   19.3132E-03,   178.177E-06
C:/temp/dataset/test2/15_6.odb,Step-1,Increment      1: Step Time =    1.000,"PART-1-1",           153,            1.,       -16.875,            0.,NA,NA,"",   88.6588E-03,  -88.0962E-03,   9.97181E-03,   166.538E-06
C:/temp/dataset/test2/15_6.odb,Step-1,Increment      1: Step Time =    1.000,"PART-1-1",           154,           -1.,       -16.875,            0.,NA,NA,"",   88.2104E-03,  -88.2102E-03,   218.128E-06,   148.696E-06
C:/temp/dataset/test2/15_6.odb,Step-1,Increment      1: Step Time =    1.000,"PART-1-1",           155,           -3.,       -16.875,            0.,NA,NA,"",   88.7880E-03,  -88.2403E-03,  -9.84761E-03,   134.095E-06
C:/temp/dataset/test2/15_6.odb,Step-1,Increment      1: Step Time =    1.000,"PART-1-1",           156,           -5.,       -16.875,            0.,NA,NA,"",   90.3392E-03,  -88.1202E-03,  -19.8998E-03,   202.325E-06
C:/temp/dataset/test2/15_6.odb,Step-1,Increment      1: Step Time =    1.000,"PART-1-1",           157,            5.,        -18.75,            0.,NA,NA,"",   84.1955E-03,  -79.4192E-03,   27.9549E-03,   519.964E-06
C:/temp/dataset/test2/15_6.odb,Step-1,Increment      1: Step Time =    1.000,"PART-1-1",           158,            3.,        -18.75,            0.,NA,NA,"",   81.5261E-03,  -79.1930E-03,   19.3641E-03,   175.098E-06
C:/temp/dataset/test2/15_6.odb,Step-1,Increment      1: Step Time =    1.000,"PART-1-1",           159,            1.,        -18.75,            0.,NA,NA,"",   79.8103E-03,  -79.1526E-03,   10.2254E-03,   196.375E-06
C:/temp/dataset/test2/15_6.odb,Step-1,Increment      1: Step Time =    1.000,"PART-1-1",           160,           -1.,        -18.75,            0.,NA,NA,"",   79.0085E-03,  -79.0075E-03,   393.801E-06,   143.497E-06
C:/temp/dataset/test2/15_6.odb,Step-1,Increment      1: Step Time =    1.000,"PART-1-1",           161,           -3.,        -18.75,            0.,NA,NA,"",   79.4996E-03,  -78.8837E-03,  -9.87725E-03,   103.823E-06
C:/temp/dataset/test2/15_6.odb,Step-1,Increment      1: Step Time =    1.000,"PART-1-1",           162,           -5.,        -18.75,            0.,NA,NA,"",   81.2682E-03,  -78.6838E-03,  -20.3316E-03,   333.020E-06
C:/temp/dataset/test2/15_6.odb,Step-1,Increment      1: Step Time =    1.000,"PART-1-1",           163,            5.,       -20.625,            0.,NA,NA,"",   76.7897E-03,  -71.9192E-03,   26.9126E-03,   1.18567E-03
C:/temp/dataset/test2/15_6.odb,Step-1,Increment      1: Step Time =    1.000,"PART-1-1",           164,            3.,       -20.625,            0.,NA,NA,"",   73.9330E-03,  -71.3019E-03,   19.5481E-03,   745.931E-06
C:/temp/dataset/test2/15_6.odb,Step-1,Increment      1: Step Time =    1.000,"PART-1-1",           165,            1.,       -20.625,            0.,NA,NA,"",   71.1511E-03,  -70.4174E-03,   10.1914E-03,   704.931E-06
C:/temp/dataset/test2/15_6.odb,Step-1,Increment      1: Step Time =    1.000,"PART-1-1",           166,           -1.,       -20.625,            0.,NA,NA,"",   69.3420E-03,  -69.3410E-03,   364.792E-06,   503.586E-06
C:/temp/dataset/test2/15_6.odb,Step-1,Increment      1: Step Time =    1.000,"PART-1-1",           167,           -3.,       -20.625,            0.,NA,NA,"",   69.5467E-03,  -68.8342E-03,  -9.92979E-03,   224.638E-06
C:/temp/dataset/test2/15_6.odb,Step-1,Increment      1: Step Time =    1.000,"PART-1-1",           168,           -5.,       -20.625,            0.,NA,NA,"",   71.7164E-03,  -68.5859E-03,  -20.9574E-03,   377.958E-06
C:/temp/dataset/test2/15_6.odb,Step-1,Increment      1: Step Time =    1.000,"PART-1-1",           169,            5.,         -22.5,            0.,NA,NA,"",   74.6264E-03,  -70.4692E-03,   24.5599E-03,   3.23945E-03
C:/temp/dataset/test2/15_6.odb,Step-1,Increment      1: Step Time =    1.000,"PART-1-1",           170,            3.,         -22.5,            0.,NA,NA,"",   68.1415E-03,  -65.6152E-03,   18.3822E-03,   3.47323E-03
C:/temp/dataset/test2/15_6.odb,Step-1,Increment      1: Step Time =    1.000,"PART-1-1",           171,            1.,         -22.5,            0.,NA,NA,"",   61.7528E-03,  -61.1067E-03,   8.90894E-03,   2.23517E-03
C:/temp/dataset/test2/15_6.odb,Step-1,Increment      1: Step Time =    1.000,"PART-1-1",           172,           -1.,         -22.5,            0.,NA,NA,"",   58.3791E-03,  -58.3789E-03,  -152.006E-06,   1.54792E-03
C:/temp/dataset/test2/15_6.odb,Step-1,Increment      1: Step Time =    1.000,"PART-1-1",           173,           -3.,         -22.5,            0.,NA,NA,"",   58.2540E-03,  -57.4132E-03,  -9.86132E-03,   918.499E-06
C:/temp/dataset/test2/15_6.odb,Step-1,Increment      1: Step Time =    1.000,"PART-1-1",           174,           -5.,         -22.5,            0.,NA,NA,"",   61.2045E-03,  -57.3134E-03,  -21.4748E-03,   119.166E-06
C:/temp/dataset/test2/15_6.odb,Step-1,Increment      1: Step Time =    1.000,"PART-1-1",           175,            5.,       -24.375,            0.,NA,NA,"",   70.3565E-03,  -65.5244E-03,   25.6240E-03,   6.45452E-03
C:/temp/dataset/test2/15_6.odb,Step-1,Increment      1: Step Time =    1.000,"PART-1-1",           176,            3.,       -24.375,            0.,NA,NA,"",   57.9409E-03,  -56.2445E-03,   13.9176E-03,   6.45303E-03
C:/temp/dataset/test2/15_6.odb,Step-1,Increment      1: Step Time =    1.000,"PART-1-1",           177,            1.,       -24.375,            0.,NA,NA,"",   49.0067E-03,  -48.6529E-03,   5.87805E-03,   4.31459E-03
C:/temp/dataset/test2/15_6.odb,Step-1,Increment      1: Step Time =    1.000,"PART-1-1",           178,           -1.,       -24.375,            0.,NA,NA,"",   45.0206E-03,  -45.0077E-03,  -1.07549E-03,   3.09419E-03
C:/temp/dataset/test2/15_6.odb,Step-1,Increment      1: Step Time =    1.000,"PART-1-1",           179,           -3.,       -24.375,            0.,NA,NA,"",   45.0172E-03,  -44.0495E-03,  -9.28382E-03,   2.04012E-03
C:/temp/dataset/test2/15_6.odb,Step-1,Increment      1: Step Time =    1.000,"PART-1-1",           180,           -5.,       -24.375,            0.,NA,NA,"",   49.2993E-03,  -44.5547E-03,  -21.1021E-03,   786.950E-06
C:/temp/dataset/test2/15_6.odb,Step-1,Increment      1: Step Time =    1.000,"PART-1-1",           181,            5.,        -26.25,            0.,NA,NA,"",   49.8622E-03,  -43.3511E-03,   24.6359E-03,   4.30021E-03
C:/temp/dataset/test2/15_6.odb,Step-1,Increment      1: Step Time =    1.000,"PART-1-1",           182,            3.,        -26.25,            0.,NA,NA,"",   37.5901E-03,  -36.7039E-03,   8.11450E-03,   7.18955E-03
C:/temp/dataset/test2/15_6.odb,Step-1,Increment      1: Step Time =    1.000,"PART-1-1",           183,            1.,        -26.25,            0.,NA,NA,"",   31.7951E-03,  -31.6958E-03,   2.51122E-03,   5.60780E-03
C:/temp/dataset/test2/15_6.odb,Step-1,Increment      1: Step Time =    1.000,"PART-1-1",           184,           -1.,        -26.25,            0.,NA,NA,"",   29.1555E-03,  -29.1149E-03,  -1.53788E-03,   4.39661E-03
C:/temp/dataset/test2/15_6.odb,Step-1,Increment      1: Step Time =    1.000,"PART-1-1",           185,           -3.,        -26.25,            0.,NA,NA,"",   29.7545E-03,  -28.8385E-03,  -7.32594E-03,   3.55830E-03
C:/temp/dataset/test2/15_6.odb,Step-1,Increment      1: Step Time =    1.000,"PART-1-1",           186,           -5.,        -26.25,            0.,NA,NA,"",   35.6946E-03,  -30.4180E-03,  -18.6775E-03,   2.24551E-03
C:/temp/dataset/test2/15_6.odb,Step-1,Increment      1: Step Time =    1.000,"PART-1-1",           187,            5.,       -28.125,            0.,NA,NA,"",   24.5111E-03,  -18.7568E-03,   15.7790E-03,   7.12599E-03
C:/temp/dataset/test2/15_6.odb,Step-1,Increment      1: Step Time =    1.000,"PART-1-1",           188,            3.,       -28.125,            0.,NA,NA,"",   15.7766E-03,  -15.2342E-03,   4.10124E-03,   5.92361E-03
C:/temp/dataset/test2/15_6.odb,Step-1,Increment      1: Step Time =    1.000,"PART-1-1",           189,            1.,       -28.125,            0.,NA,NA,"",   13.7321E-03,  -13.7169E-03,   645.942E-06,   5.39701E-03
C:/temp/dataset/test2/15_6.odb,Step-1,Increment      1: Step Time =    1.000,"PART-1-1",           190,           -1.,       -28.125,            0.,NA,NA,"",   12.9270E-03,  -12.8809E-03,  -1.09177E-03,   4.85173E-03
C:/temp/dataset/test2/15_6.odb,Step-1,Increment      1: Step Time =    1.000,"PART-1-1",           191,           -3.,       -28.125,            0.,NA,NA,"",   13.9679E-03,  -13.2966E-03,  -4.27818E-03,   5.13232E-03
C:/temp/dataset/test2/15_6.odb,Step-1,Increment      1: Step Time =    1.000,"PART-1-1",           192,           -5.,       -28.125,            0.,NA,NA,"",   20.4980E-03,  -15.8374E-03,  -13.0133E-03,   5.48292E-03
C:/temp/dataset/test2/15_6.odb,Step-1,Increment      1: Step Time =    1.000,"PART-1-1",           193,            5.,          -30.,            0.,NA,NA,"",            0.,  -3.16420E-39,   5.39143E-39,   12.9050E-03
C:/temp/dataset/test2/15_6.odb,Step-1,Increment      1: Step Time =    1.000,"PART-1-1",           194,            3.,          -30.,            0.,NA,NA,"",            0.,  -4.27624E-39,   4.30609E-39,   3.38718E-03
C:/temp/dataset/test2/15_6.odb,Step-1,Increment      1: Step Time =    1.000,"PART-1-1",           195,            1.,          -30.,            0.,NA,NA,"",            0.,  -2.90467E-39,   1.75539E-39,   3.75821E-03
C:/temp/dataset/test2/15_6.odb,Step-1,Increment      1: Step Time =    1.000,"PART-1-1",           196,           -1.,          -30.,            0.,NA,NA,"",            0.,  -2.17949E-39,   201.567E-42,   3.76703E-03
C:/temp/dataset/test2/15_6.odb,Step-1,Increment      1: Step Time =    1.000,"PART-1-1",           197,           -3.,          -30.,            0.,NA,NA,"",            0.,  -3.71978E-39,  -2.23736E-39,   3.49616E-03
C:/temp/dataset/test2/15_6.odb,Step-1,Increment      1: Step Time =    1.000,"PART-1-1",           198,           -5.,          -30.,            0.,NA,NA,"",            0.,  -2.72853E-39,  -4.58146E-39,   11.1198E-03
C:/temp/dataset/test2/15_6.odb,Step-1,Increment      1: Step Time =    1.000,"PART-1-1",           199,            4.,           30.,            0.,NA,NA,"",   316.535E-03,  -315.654E-03,   23.6053E-03,   1.18596E-12
C:/temp/dataset/test2/15_6.odb,Step-1,Increment      1: Step Time =    1.000,"PART-1-1",           200,            3.,       29.0625,            0.,NA,NA,"",   311.657E-03,  -311.092E-03,   18.7635E-03,   1.30313E-12
C:/temp/dataset/test2/15_6.odb,Step-1,Increment      1: Step Time =    1.000,"PART-1-1",           201,            4.,        28.125,            0.,NA,NA,"",   307.463E-03,  -306.554E-03,   23.6274E-03,   1.28302E-12
C:/temp/dataset/test2/15_6.odb,Step-1,Increment      1: Step Time =    1.000,"PART-1-1",           202,            5.,       29.0625,            0.,NA,NA,"",   312.416E-03,  -311.116E-03,   28.4693E-03,   1.18970E-12
C:/temp/dataset/test2/15_6.odb,Step-1,Increment      1: Step Time =    1.000,"PART-1-1",           203,            2.,           30.,            0.,NA,NA,"",   315.936E-03,  -315.630E-03,   13.8995E-03,   1.16402E-12
C:/temp/dataset/test2/15_6.odb,Step-1,Increment      1: Step Time =    1.000,"PART-1-1",           204,            1.,       29.0625,            0.,NA,NA,"",   311.200E-03,  -311.069E-03,   9.05767E-03,   1.53969E-12
C:/temp/dataset/test2/15_6.odb,Step-1,Increment      1: Step Time =    1.000,"PART-1-1",           205,            2.,        28.125,            0.,NA,NA,"",   306.847E-03,  -306.531E-03,   13.9216E-03,   1.74955E-12
C:/temp/dataset/test2/15_6.odb,Step-1,Increment      1: Step Time =    1.000,"PART-1-1",           206,            0.,           30.,            0.,NA,NA,"",   315.634E-03,  -315.606E-03,   4.19373E-03,   1.47236E-12
C:/temp/dataset/test2/15_6.odb,Step-1,Increment      1: Step Time =    1.000,"PART-1-1",           207,           -1.,       29.0625,            0.,NA,NA,"",   311.046E-03,  -311.045E-03,  -648.134E-06,   1.53888E-12
C:/temp/dataset/test2/15_6.odb,Step-1,Increment      1: Step Time =    1.000,"PART-1-1",           208,            0.,        28.125,            0.,NA,NA,"",   306.536E-03,  -306.507E-03,   4.21581E-03,   1.57781E-12
C:/temp/dataset/test2/15_6.odb,Step-1,Increment      1: Step Time =    1.000,"PART-1-1",           209,           -2.,           30.,            0.,NA,NA,"",   315.631E-03,  -315.583E-03,  -5.51208E-03,   1.16499E-12
C:/temp/dataset/test2/15_6.odb,Step-1,Increment      1: Step Time =    1.000,"PART-1-1",           210,           -3.,       29.0625,            0.,NA,NA,"",   311.194E-03,  -311.021E-03,  -10.3539E-03,   1.30077E-12
C:/temp/dataset/test2/15_6.odb,Step-1,Increment      1: Step Time =    1.000,"PART-1-1",           211,           -2.,        28.125,            0.,NA,NA,"",   306.533E-03,  -306.484E-03,  -5.49000E-03,   1.74707E-12
C:/temp/dataset/test2/15_6.odb,Step-1,Increment      1: Step Time =    1.000,"PART-1-1",           212,           -4.,           30.,            0.,NA,NA,"",   315.926E-03,  -315.559E-03,  -15.2179E-03,   1.18468E-12
C:/temp/dataset/test2/15_6.odb,Step-1,Increment      1: Step Time =    1.000,"PART-1-1",           213,           -5.,       29.0625,            0.,NA,NA,"",   311.644E-03,  -310.998E-03,  -20.0597E-03,   1.19100E-12
C:/temp/dataset/test2/15_6.odb,Step-1,Increment      1: Step Time =    1.000,"PART-1-1",           214,           -4.,        28.125,            0.,NA,NA,"",   306.837E-03,  -306.460E-03,  -15.1958E-03,   1.28430E-12
C:/temp/dataset/test2/15_6.odb,Step-1,Increment      1: Step Time =    1.000,"PART-1-1",           215,            3.,       27.1875,            0.,NA,NA,"",   302.577E-03,  -301.993E-03,   18.7856E-03,   2.32591E-12
C:/temp/dataset/test2/15_6.odb,Step-1,Increment      1: Step Time =    1.000,"PART-1-1",           216,            4.,         26.25,            0.,NA,NA,"",   298.394E-03,  -297.455E-03,   23.6495E-03,   2.01044E-12
C:/temp/dataset/test2/15_6.odb,Step-1,Increment      1: Step Time =    1.000,"PART-1-1",           217,            5.,       27.1875,            0.,NA,NA,"",   303.357E-03,  -302.016E-03,   28.4914E-03,   1.43060E-12
C:/temp/dataset/test2/15_6.odb,Step-1,Increment      1: Step Time =    1.000,"PART-1-1",           218,            1.,       27.1875,            0.,NA,NA,"",   302.106E-03,  -301.969E-03,   9.07975E-03,   2.37111E-12
C:/temp/dataset/test2/15_6.odb,Step-1,Increment      1: Step Time =    1.000,"PART-1-1",           219,            2.,         26.25,            0.,NA,NA,"",   297.758E-03,  -297.432E-03,   13.9437E-03,   2.69325E-12
C:/temp/dataset/test2/15_6.odb,Step-1,Increment      1: Step Time =    1.000,"PART-1-1",           220,           -1.,       27.1875,            0.,NA,NA,"",   301.946E-03,  -301.946E-03,  -626.056E-06,   2.36933E-12
C:/temp/dataset/test2/15_6.odb,Step-1,Increment      1: Step Time =    1.000,"PART-1-1",           221,            0.,         26.25,            0.,NA,NA,"",   297.438E-03,  -297.408E-03,   4.23789E-03,   2.67972E-12
C:/temp/dataset/test2/15_6.odb,Step-1,Increment      1: Step Time =    1.000,"PART-1-1",           222,           -3.,       27.1875,            0.,NA,NA,"",   302.099E-03,  -301.922E-03,  -10.3319E-03,   2.32451E-12
C:/temp/dataset/test2/15_6.odb,Step-1,Increment      1: Step Time =    1.000,"PART-1-1",           223,           -2.,         26.25,            0.,NA,NA,"",   297.435E-03,  -297.384E-03,  -5.46792E-03,   2.69172E-12
C:/temp/dataset/test2/15_6.odb,Step-1,Increment      1: Step Time =    1.000,"PART-1-1",           224,           -5.,       27.1875,            0.,NA,NA,"",   302.563E-03,  -301.899E-03,  -20.0377E-03,   1.42759E-12
C:/temp/dataset/test2/15_6.odb,Step-1,Increment      1: Step Time =    1.000,"PART-1-1",           225,           -4.,         26.25,            0.,NA,NA,"",   297.748E-03,  -297.361E-03,  -15.1737E-03,   2.00873E-12
C:/temp/dataset/test2/15_6.odb,Step-1,Increment      1: Step Time =    1.000,"PART-1-1",           226,            3.,       25.3125,            0.,NA,NA,"",   293.497E-03,  -292.894E-03,   18.8076E-03,   3.34105E-12
C:/temp/dataset/test2/15_6.odb,Step-1,Increment      1: Step Time =    1.000,"PART-1-1",           227,            4.,        24.375,            0.,NA,NA,"",   289.326E-03,  -288.356E-03,   23.6716E-03,   3.45311E-12
C:/temp/dataset/test2/15_6.odb,Step-1,Increment      1: Step Time =    1.000,"PART-1-1",           228,            5.,       25.3125,            0.,NA,NA,"",   294.302E-03,  -292.917E-03,   28.5134E-03,   3.64469E-12
C:/temp/dataset/test2/15_6.odb,Step-1,Increment      1: Step Time =    1.000,"PART-1-1",           229,            1.,       25.3125,            0.,NA,NA,"",   293.012E-03,  -292.870E-03,   9.10183E-03,   3.49447E-12
C:/temp/dataset/test2/15_6.odb,Step-1,Increment      1: Step Time =    1.000,"PART-1-1",           230,            2.,        24.375,            0.,NA,NA,"",   288.670E-03,  -288.332E-03,   13.9658E-03,   3.49078E-12
C:/temp/dataset/test2/15_6.odb,Step-1,Increment      1: Step Time =    1.000,"PART-1-1",           231,           -1.,       25.3125,            0.,NA,NA,"",   292.847E-03,  -292.847E-03,  -603.977E-06,   3.49366E-12
C:/temp/dataset/test2/15_6.odb,Step-1,Increment      1: Step Time =    1.000,"PART-1-1",           232,            0.,        24.375,            0.,NA,NA,"",   288.340E-03,  -288.309E-03,   4.25997E-03,   3.84573E-12
C:/temp/dataset/test2/15_6.odb,Step-1,Increment      1: Step Time =    1.000,"PART-1-1",           233,           -3.,       25.3125,            0.,NA,NA,"",   293.005E-03,  -292.823E-03,  -10.3098E-03,   3.33969E-12
C:/temp/dataset/test2/15_6.odb,Step-1,Increment      1: Step Time =    1.000,"PART-1-1",           234,           -2.,        24.375,            0.,NA,NA,"",   288.337E-03,  -288.285E-03,  -5.44584E-03,   3.49058E-12
C:/temp/dataset/test2/15_6.odb,Step-1,Increment      1: Step Time =    1.000,"PART-1-1",           235,           -5.,       25.3125,            0.,NA,NA,"",   293.483E-03,  -292.800E-03,  -20.0156E-03,   3.63725E-12
C:/temp/dataset/test2/15_6.odb,Step-1,Increment      1: Step Time =    1.000,"PART-1-1",           236,           -4.,        24.375,            0.,NA,NA,"",   288.660E-03,  -288.262E-03,  -15.1516E-03,   3.44783E-12
C:/temp/dataset/test2/15_6.odb,Step-1,Increment      1: Step Time =    1.000,"PART-1-1",           237,            3.,       23.4375,            0.,NA,NA,"",   284.419E-03,  -283.795E-03,   18.8297E-03,   3.21363E-12
C:/temp/dataset/test2/15_6.odb,Step-1,Increment      1: Step Time =    1.000,"PART-1-1",           238,            4.,          22.5,            0.,NA,NA,"",   280.260E-03,  -279.257E-03,   23.6937E-03,   4.74610E-12
C:/temp/dataset/test2/15_6.odb,Step-1,Increment      1: Step Time =    1.000,"PART-1-1",           239,            5.,       23.4375,            0.,NA,NA,"",   285.249E-03,  -283.818E-03,   28.5355E-03,   7.19521E-12
C:/temp/dataset/test2/15_6.odb,Step-1,Increment      1: Step Time =    1.000,"PART-1-1",           240,            1.,       23.4375,            0.,NA,NA,"",   283.918E-03,  -283.771E-03,   9.12391E-03,   4.27568E-12
C:/temp/dataset/test2/15_6.odb,Step-1,Increment      1: Step Time =    1.000,"PART-1-1",           241,            2.,          22.5,            0.,NA,NA,"",   279.583E-03,  -279.233E-03,   13.9878E-03,   3.93641E-12
C:/temp/dataset/test2/15_6.odb,Step-1,Increment      1: Step Time =    1.000,"PART-1-1",           242,           -1.,       23.4375,            0.,NA,NA,"",   283.748E-03,  -283.747E-03,  -581.898E-06,   4.27672E-12
C:/temp/dataset/test2/15_6.odb,Step-1,Increment      1: Step Time =    1.000,"PART-1-1",           243,            0.,          22.5,            0.,NA,NA,"",   279.242E-03,  -279.210E-03,   4.28204E-03,   5.50080E-12
C:/temp/dataset/test2/15_6.odb,Step-1,Increment      1: Step Time =    1.000,"PART-1-1",           244,           -3.,       23.4375,            0.,NA,NA,"",   283.910E-03,  -283.724E-03,  -10.2877E-03,   3.21310E-12
C:/temp/dataset/test2/15_6.odb,Step-1,Increment      1: Step Time =    1.000,"PART-1-1",           245,           -2.,          22.5,            0.,NA,NA,"",   279.239E-03,  -279.186E-03,  -5.42376E-03,   3.93808E-12
C:/temp/dataset/test2/15_6.odb,Step-1,Increment      1: Step Time =    1.000,"PART-1-1",           246,           -5.,       23.4375,            0.,NA,NA,"",   284.404E-03,  -283.700E-03,  -19.9935E-03,   7.18442E-12
C:/temp/dataset/test2/15_6.odb,Step-1,Increment      1: Step Time =    1.000,"PART-1-1",           247,           -4.,          22.5,            0.,NA,NA,"",   279.572E-03,  -279.163E-03,  -15.1296E-03,   4.73716E-12
C:/temp/dataset/test2/15_6.odb,Step-1,Increment      1: Step Time =    1.000,"PART-1-1",           248,            3.,       21.5625,            0.,NA,NA,"",   275.341E-03,  -274.695E-03,   18.8518E-03,   6.04417E-12
C:/temp/dataset/test2/15_6.odb,Step-1,Increment      1: Step Time =    1.000,"PART-1-1",           249,            4.,        20.625,            0.,NA,NA,"",   271.196E-03,  -270.158E-03,   23.7157E-03,   6.14643E-12
C:/temp/dataset/test2/15_6.odb,Step-1,Increment      1: Step Time =    1.000,"PART-1-1",           250,            5.,       21.5625,            0.,NA,NA,"",   276.199E-03,  -274.719E-03,   28.5576E-03,   9.68848E-12
C:/temp/dataset/test2/15_6.odb,Step-1,Increment      1: Step Time =    1.000,"PART-1-1",           251,            1.,       21.5625,            0.,NA,NA,"",   274.824E-03,  -274.672E-03,   9.14599E-03,   12.0400E-12
C:/temp/dataset/test2/15_6.odb,Step-1,Increment      1: Step Time =    1.000,"PART-1-1",           252,            2.,        20.625,            0.,NA,NA,"",   270.497E-03,  -270.134E-03,   14.0099E-03,   15.4820E-12
C:/temp/dataset/test2/15_6.odb,Step-1,Increment      1: Step Time =    1.000,"PART-1-1",           253,           -1.,       21.5625,            0.,NA,NA,"",   274.649E-03,  -274.648E-03,  -559.819E-06,   12.0412E-12
C:/temp/dataset/test2/15_6.odb,Step-1,Increment      1: Step Time =    1.000,"PART-1-1",           254,            0.,        20.625,            0.,NA,NA,"",   270.145E-03,  -270.110E-03,   4.30412E-03,   19.0572E-12
C:/temp/dataset/test2/15_6.odb,Step-1,Increment      1: Step Time =    1.000,"PART-1-1",           255,           -3.,       21.5625,            0.,NA,NA,"",   274.816E-03,  -274.625E-03,  -10.2656E-03,   6.04796E-12
C:/temp/dataset/test2/15_6.odb,Step-1,Increment      1: Step Time =    1.000,"PART-1-1",           256,           -2.,        20.625,            0.,NA,NA,"",   270.141E-03,  -270.087E-03,  -5.40168E-03,   15.4832E-12
C:/temp/dataset/test2/15_6.odb,Step-1,Increment      1: Step Time =    1.000,"PART-1-1",           257,           -5.,       21.5625,            0.,NA,NA,"",   275.326E-03,  -274.601E-03,  -19.9714E-03,   9.67428E-12
C:/temp/dataset/test2/15_6.odb,Step-1,Increment      1: Step Time =    1.000,"PART-1-1",           258,           -4.,        20.625,            0.,NA,NA,"",   270.486E-03,  -270.063E-03,  -15.1075E-03,   6.13887E-12
C:/temp/dataset/test2/15_6.odb,Step-1,Increment      1: Step Time =    1.000,"PART-1-1",           259,            3.,       19.6875,            0.,NA,NA,"",   266.266E-03,  -265.596E-03,   18.8739E-03,   31.4170E-12
C:/temp/dataset/test2/15_6.odb,Step-1,Increment      1: Step Time =    1.000,"PART-1-1",           260,            4.,         18.75,            0.,NA,NA,"",   262.135E-03,  -261.058E-03,   23.7378E-03,   25.6177E-12
C:/temp/dataset/test2/15_6.odb,Step-1,Increment      1: Step Time =    1.000,"PART-1-1",           261,            5.,       19.6875,            0.,NA,NA,"",   267.153E-03,  -265.620E-03,   28.5797E-03,   2.87278E-12
C:/temp/dataset/test2/15_6.odb,Step-1,Increment      1: Step Time =    1.000,"PART-1-1",           262,            1.,       19.6875,            0.,NA,NA,"",   265.731E-03,  -265.573E-03,   9.16807E-03,   44.5824E-12
C:/temp/dataset/test2/15_6.odb,Step-1,Increment      1: Step Time =    1.000,"PART-1-1",           263,            2.,         18.75,            0.,NA,NA,"",   261.412E-03,  -261.035E-03,   14.0320E-03,   56.0046E-12
C:/temp/dataset/test2/15_6.odb,Step-1,Increment      1: Step Time =    1.000,"PART-1-1",           264,           -1.,       19.6875,            0.,NA,NA,"",   265.550E-03,  -265.549E-03,  -537.740E-06,   44.5826E-12
C:/temp/dataset/test2/15_6.odb,Step-1,Increment      1: Step Time =    1.000,"PART-1-1",           265,            0.,         18.75,            0.,NA,NA,"",   261.047E-03,  -261.011E-03,   4.32620E-03,   64.0017E-12
C:/temp/dataset/test2/15_6.odb,Step-1,Increment      1: Step Time =    1.000,"PART-1-1",           266,           -3.,       19.6875,            0.,NA,NA,"",   265.723E-03,  -265.526E-03,  -10.2435E-03,   31.4205E-12
C:/temp/dataset/test2/15_6.odb,Step-1,Increment      1: Step Time =    1.000,"PART-1-1",           267,           -2.,         18.75,            0.,NA,NA,"",   261.043E-03,  -260.988E-03,  -5.37960E-03,   56.0048E-12
C:/temp/dataset/test2/15_6.odb,Step-1,Increment      1: Step Time =    1.000,"PART-1-1",           268,           -5.,       19.6875,            0.,NA,NA,"",   266.250E-03,  -265.502E-03,  -19.9494E-03,   2.85548E-12
C:/temp/dataset/test2/15_6.odb,Step-1,Increment      1: Step Time =    1.000,"PART-1-1",           269,           -4.,         18.75,            0.,NA,NA,"",   261.400E-03,  -260.964E-03,  -15.0854E-03,   25.6218E-12
C:/temp/dataset/test2/15_6.odb,Step-1,Increment      1: Step Time =    1.000,"PART-1-1",           270,            3.,       17.8125,            0.,NA,NA,"",   257.192E-03,  -256.497E-03,   18.8960E-03,   101.088E-12
C:/temp/dataset/test2/15_6.odb,Step-1,Increment      1: Step Time =    1.000,"PART-1-1",           271,            4.,        16.875,            0.,NA,NA,"",   253.077E-03,  -251.959E-03,   23.7599E-03,   90.6869E-12
C:/temp/dataset/test2/15_6.odb,Step-1,Increment      1: Step Time =    1.000,"PART-1-1",           272,            5.,       17.8125,            0.,NA,NA,"",   258.110E-03,  -256.521E-03,   28.6018E-03,   37.8271E-12
C:/temp/dataset/test2/15_6.odb,Step-1,Increment      1: Step Time =    1.000,"PART-1-1",           273,            1.,       17.8125,            0.,NA,NA,"",   256.638E-03,  -256.473E-03,   9.19014E-03,   127.964E-12
C:/temp/dataset/test2/15_6.odb,Step-1,Increment      1: Step Time =    1.000,"PART-1-1",           274,            2.,        16.875,            0.,NA,NA,"",   252.327E-03,  -251.936E-03,   14.0541E-03,   154.262E-12
C:/temp/dataset/test2/15_6.odb,Step-1,Increment      1: Step Time =    1.000,"PART-1-1",           275,           -1.,       17.8125,            0.,NA,NA,"",   256.450E-03,  -256.450E-03,  -515.661E-06,   127.964E-12
C:/temp/dataset/test2/15_6.odb,Step-1,Increment      1: Step Time =    1.000,"PART-1-1",           276,            0.,        16.875,            0.,NA,NA,"",   251.950E-03,  -251.912E-03,   4.34828E-03,   171.594E-12
C:/temp/dataset/test2/15_6.odb,Step-1,Increment      1: Step Time =    1.000,"PART-1-1",           277,           -3.,       17.8125,            0.,NA,NA,"",   256.630E-03,  -256.426E-03,  -10.2215E-03,   101.092E-12
C:/temp/dataset/test2/15_6.odb,Step-1,Increment      1: Step Time =    1.000,"PART-1-1",           278,           -2.,        16.875,            0.,NA,NA,"",   251.945E-03,  -251.889E-03,  -5.35752E-03,   154.262E-12
C:/temp/dataset/test2/15_6.odb,Step-1,Increment      1: Step Time =    1.000,"PART-1-1",           279,           -5.,       17.8125,            0.,NA,NA,"",   257.176E-03,  -256.403E-03,  -19.9273E-03,   37.8472E-12
C:/temp/dataset/test2/15_6.odb,Step-1,Increment      1: Step Time =    1.000,"PART-1-1",           280,           -4.,        16.875,            0.,NA,NA,"",   252.315E-03,  -251.865E-03,  -15.0633E-03,   90.6963E-12
C:/temp/dataset/test2/15_6.odb,Step-1,Increment      1: Step Time =    1.000,"PART-1-1",           281,            3.,       15.9375,            0.,NA,NA,"",   248.120E-03,  -247.398E-03,   18.9180E-03,   255.539E-12
C:/temp/dataset/test2/15_6.odb,Step-1,Increment      1: Step Time =    1.000,"PART-1-1",           282,            4.,           15.,            0.,NA,NA,"",   244.022E-03,  -242.860E-03,   23.7820E-03,   248.316E-12
C:/temp/dataset/test2/15_6.odb,Step-1,Increment      1: Step Time =    1.000,"PART-1-1",           283,            5.,       15.9375,            0.,NA,NA,"",   249.072E-03,  -247.421E-03,   28.6238E-03,   165.576E-12
C:/temp/dataset/test2/15_6.odb,Step-1,Increment      1: Step Time =    1.000,"PART-1-1",           284,            1.,       15.9375,            0.,NA,NA,"",   247.546E-03,  -247.374E-03,   9.21222E-03,   303.041E-12
C:/temp/dataset/test2/15_6.odb,Step-1,Increment      1: Step Time =    1.000,"PART-1-1",           285,            2.,           15.,            0.,NA,NA,"",   243.244E-03,  -242.836E-03,   14.0762E-03,   351.530E-12
C:/temp/dataset/test2/15_6.odb,Step-1,Increment      1: Step Time =    1.000,"PART-1-1",           286,           -1.,       15.9375,            0.,NA,NA,"",   247.351E-03,  -247.351E-03,  -493.582E-06,   303.040E-12
C:/temp/dataset/test2/15_6.odb,Step-1,Increment      1: Step Time =    1.000,"PART-1-1",           287,            0.,           15.,            0.,NA,NA,"",   242.852E-03,  -242.813E-03,   4.37036E-03,   385.258E-12
C:/temp/dataset/test2/15_6.odb,Step-1,Increment      1: Step Time =    1.000,"PART-1-1",           288,           -3.,       15.9375,            0.,NA,NA,"",   247.537E-03,  -247.327E-03,  -10.1994E-03,   255.543E-12
C:/temp/dataset/test2/15_6.odb,Step-1,Increment      1: Step Time =    1.000,"PART-1-1",           289,           -2.,           15.,            0.,NA,NA,"",   242.848E-03,  -242.789E-03,  -5.33545E-03,   351.529E-12
C:/temp/dataset/test2/15_6.odb,Step-1,Increment      1: Step Time =    1.000,"PART-1-1",           290,           -5.,       15.9375,            0.,NA,NA,"",   248.103E-03,  -247.304E-03,  -19.9052E-03,   165.601E-12
C:/temp/dataset/test2/15_6.odb,Step-1,Increment      1: Step Time =    1.000,"PART-1-1",           291,           -4.,           15.,            0.,NA,NA,"",   243.231E-03,  -242.766E-03,  -15.0413E-03,   248.329E-12
C:/temp/dataset/test2/15_6.odb,Step-1,Increment      1: Step Time =    1.000,"PART-1-1",           292,            3.,       14.0625,            0.,NA,NA,"",   239.050E-03,  -238.299E-03,   18.9401E-03,   538.029E-12
C:/temp/dataset/test2/15_6.odb,Step-1,Increment      1: Step Time =    1.000,"PART-1-1",           293,            4.,        13.125,            0.,NA,NA,"",   234.970E-03,  -233.761E-03,   23.8040E-03,   566.355E-12
C:/temp/dataset/test2/15_6.odb,Step-1,Increment      1: Step Time =    1.000,"PART-1-1",           294,            5.,       14.0625,            0.,NA,NA,"",   240.038E-03,  -238.322E-03,   28.6459E-03,   483.308E-12
C:/temp/dataset/test2/15_6.odb,Step-1,Increment      1: Step Time =    1.000,"PART-1-1",           295,            1.,       14.0625,            0.,NA,NA,"",   238.454E-03,  -238.275E-03,   9.23430E-03,   604.115E-12
C:/temp/dataset/test2/15_6.odb,Step-1,Increment      1: Step Time =    1.000,"PART-1-1",           296,            2.,        13.125,            0.,NA,NA,"",   234.162E-03,  -233.737E-03,   14.0982E-03,   669.259E-12
C:/temp/dataset/test2/15_6.odb,Step-1,Increment      1: Step Time =    1.000,"PART-1-1",           297,           -1.,       14.0625,            0.,NA,NA,"",   238.252E-03,  -238.251E-03,  -471.503E-06,   604.112E-12
C:/temp/dataset/test2/15_6.odb,Step-1,Increment      1: Step Time =    1.000,"PART-1-1",           298,            0.,        13.125,            0.,NA,NA,"",   233.755E-03,  -233.714E-03,   4.39244E-03,   726.625E-12
C:/temp/dataset/test2/15_6.odb,Step-1,Increment      1: Step Time =    1.000,"PART-1-1",           299,           -3.,       14.0625,            0.,NA,NA,"",   238.445E-03,  -238.228E-03,  -10.1773E-03,   538.032E-12
C:/temp/dataset/test2/15_6.odb,Step-1,Increment      1: Step Time =    1.000,"PART-1-1",           300,           -2.,        13.125,            0.,NA,NA,"",   233.751E-03,  -233.690E-03,  -5.31337E-03,   669.255E-12
C:/temp/dataset/test2/15_6.odb,Step-1,Increment      1: Step Time =    1.000,"PART-1-1",           301,           -5.,       14.0625,            0.,NA,NA,"",   239.033E-03,  -238.204E-03,  -19.8831E-03,   483.336E-12
C:/temp/dataset/test2/15_6.odb,Step-1,Increment      1: Step Time =    1.000,"PART-1-1",           302,           -4.,        13.125,            0.,NA,NA,"",   234.149E-03,  -233.667E-03,  -15.0192E-03,   566.371E-12
C:/temp/dataset/test2/15_6.odb,Step-1,Increment      1: Step Time =    1.000,"PART-1-1",           303,            3.,       12.1875,            0.,NA,NA,"",   229.982E-03,  -229.199E-03,   18.9622E-03,   924.870E-12
C:/temp/dataset/test2/15_6.odb,Step-1,Increment      1: Step Time =    1.000,"PART-1-1",           304,            4.,         11.25,            0.,NA,NA,"",   225.921E-03,  -224.662E-03,   23.8261E-03,   1.08668E-09
C:/temp/dataset/test2/15_6.odb,Step-1,Increment      1: Step Time =    1.000,"PART-1-1",           305,            5.,       12.1875,            0.,NA,NA,"",   231.009E-03,  -229.223E-03,   28.6680E-03,   1.14016E-09
C:/temp/dataset/test2/15_6.odb,Step-1,Increment      1: Step Time =    1.000,"PART-1-1",           306,            1.,       12.1875,            0.,NA,NA,"",   229.363E-03,  -229.176E-03,   9.25638E-03,   977.757E-12
C:/temp/dataset/test2/15_6.odb,Step-1,Increment      1: Step Time =    1.000,"PART-1-1",           307,            2.,         11.25,            0.,NA,NA,"",   225.081E-03,  -224.638E-03,   14.1203E-03,   1.00063E-09
C:/temp/dataset/test2/15_6.odb,Step-1,Increment      1: Step Time =    1.000,"PART-1-1",           308,           -1.,       12.1875,            0.,NA,NA,"",   229.153E-03,  -229.152E-03,  -449.423E-06,   977.745E-12
C:/temp/dataset/test2/15_6.odb,Step-1,Increment      1: Step Time =    1.000,"PART-1-1",           309,            0.,         11.25,            0.,NA,NA,"",   224.658E-03,  -224.614E-03,   4.41452E-03,   1.09034E-09
C:/temp/dataset/test2/15_6.odb,Step-1,Increment      1: Step Time =    1.000,"PART-1-1",           310,           -3.,       12.1875,            0.,NA,NA,"",   229.354E-03,  -229.129E-03,  -10.1552E-03,   924.859E-12
C:/temp/dataset/test2/15_6.odb,Step-1,Increment      1: Step Time =    1.000,"PART-1-1",           311,           -2.,         11.25,            0.,NA,NA,"",   224.653E-03,  -224.591E-03,  -5.29129E-03,   1.00062E-09
C:/temp/dataset/test2/15_6.odb,Step-1,Increment      1: Step Time =    1.000,"PART-1-1",           312,           -5.,       12.1875,            0.,NA,NA,"",   229.964E-03,  -229.105E-03,  -19.8610E-03,   1.14020E-09
C:/temp/dataset/test2/15_6.odb,Step-1,Increment      1: Step Time =    1.000,"PART-1-1",           313,           -4.,         11.25,            0.,NA,NA,"",   225.068E-03,  -224.567E-03,  -14.9971E-03,   1.08669E-09
C:/temp/dataset/test2/15_6.odb,Step-1,Increment      1: Step Time =    1.000,"PART-1-1",           314,            3.,       10.3125,            0.,NA,NA,"",   220.917E-03,  -220.100E-03,   18.9843E-03,   1.11924E-09
C:/temp/dataset/test2/15_6.odb,Step-1,Increment      1: Step Time =    1.000,"PART-1-1",           315,            4.,         9.375,            0.,NA,NA,"",   216.878E-03,  -215.562E-03,   23.8482E-03,   1.67197E-09
C:/temp/dataset/test2/15_6.odb,Step-1,Increment      1: Step Time =    1.000,"PART-1-1",           316,            5.,       10.3125,            0.,NA,NA,"",   221.986E-03,  -220.124E-03,   28.6901E-03,   2.23780E-09
C:/temp/dataset/test2/15_6.odb,Step-1,Increment      1: Step Time =    1.000,"PART-1-1",           317,            1.,       10.3125,            0.,NA,NA,"",   220.272E-03,  -220.077E-03,   9.27846E-03,   1.13468E-09
C:/temp/dataset/test2/15_6.odb,Step-1,Increment      1: Step Time =    1.000,"PART-1-1",           318,            2.,         9.375,            0.,NA,NA,"",   216.002E-03,  -215.539E-03,   14.1424E-03,   941.939E-12
C:/temp/dataset/test2/15_6.odb,Step-1,Increment      1: Step Time =    1.000,"PART-1-1",           319,           -1.,       10.3125,            0.,NA,NA,"",   220.054E-03,  -220.053E-03,  -427.342E-06,   1.13464E-09
C:/temp/dataset/test2/15_6.odb,Step-1,Increment      1: Step Time =    1.000,"PART-1-1",           320,            0.,         9.375,            0.,NA,NA,"",   215.561E-03,  -215.515E-03,   4.43660E-03,   1.20844E-09
C:/temp/dataset/test2/15_6.odb,Step-1,Increment      1: Step Time =    1.000,"PART-1-1",           321,           -3.,       10.3125,            0.,NA,NA,"",   220.263E-03,  -220.030E-03,  -10.1332E-03,   1.11918E-09
C:/temp/dataset/test2/15_6.odb,Step-1,Increment      1: Step Time =    1.000,"PART-1-1",           322,           -2.,         9.375,            0.,NA,NA,"",   215.556E-03,  -215.492E-03,  -5.26921E-03,   941.880E-12
C:/temp/dataset/test2/15_6.odb,Step-1,Increment      1: Step Time =    1.000,"PART-1-1",           323,           -5.,       10.3125,            0.,NA,NA,"",   220.899E-03,  -220.006E-03,  -19.8390E-03,   2.23779E-09
C:/temp/dataset/test2/15_6.odb,Step-1,Increment      1: Step Time =    1.000,"PART-1-1",           324,           -4.,         9.375,            0.,NA,NA,"",   215.988E-03,  -215.468E-03,  -14.9750E-03,   1.67194E-09
C:/temp/dataset/test2/15_6.odb,Step-1,Increment      1: Step Time =    1.000,"PART-1-1",           325,            3.,        8.4375,            0.,NA,NA,"",   211.855E-03,  -211.001E-03,   19.0063E-03,   641.692E-12
C:/temp/dataset/test2/15_6.odb,Step-1,Increment      1: Step Time =    1.000,"PART-1-1",           326,            4.,           7.5,            0.,NA,NA,"",   207.839E-03,  -206.463E-03,   23.8703E-03,   1.87398E-09
C:/temp/dataset/test2/15_6.odb,Step-1,Increment      1: Step Time =    1.000,"PART-1-1",           327,            5.,        8.4375,            0.,NA,NA,"",   212.969E-03,  -211.025E-03,   28.7121E-03,   3.46132E-09
C:/temp/dataset/test2/15_6.odb,Step-1,Increment      1: Step Time =    1.000,"PART-1-1",           328,            1.,        8.4375,            0.,NA,NA,"",   211.182E-03,  -210.977E-03,   9.30054E-03,   1.97292E-09
C:/temp/dataset/test2/15_6.odb,Step-1,Increment      1: Step Time =    1.000,"PART-1-1",           329,            2.,           7.5,            0.,NA,NA,"",   206.925E-03,  -206.440E-03,   14.1645E-03,   2.51242E-09
C:/temp/dataset/test2/15_6.odb,Step-1,Increment      1: Step Time =    1.000,"PART-1-1",           330,           -1.,        8.4375,            0.,NA,NA,"",   210.954E-03,  -210.954E-03,  -405.262E-06,   1.97296E-09
C:/temp/dataset/test2/15_6.odb,Step-1,Increment      1: Step Time =    1.000,"PART-1-1",           331,            0.,           7.5,            0.,NA,NA,"",   206.464E-03,  -206.416E-03,   4.45868E-03,   3.41406E-09
C:/temp/dataset/test2/15_6.odb,Step-1,Increment      1: Step Time =    1.000,"PART-1-1",           332,           -3.,        8.4375,            0.,NA,NA,"",   211.173E-03,  -210.930E-03,  -10.1111E-03,   641.740E-12
C:/temp/dataset/test2/15_6.odb,Step-1,Increment      1: Step Time =    1.000,"PART-1-1",           333,           -2.,           7.5,            0.,NA,NA,"",   206.459E-03,  -206.393E-03,  -5.24713E-03,   2.51273E-09
C:/temp/dataset/test2/15_6.odb,Step-1,Increment      1: Step Time =    1.000,"PART-1-1",           334,           -5.,        8.4375,            0.,NA,NA,"",   211.836E-03,  -210.907E-03,  -19.8169E-03,   3.46111E-09
C:/temp/dataset/test2/15_6.odb,Step-1,Increment      1: Step Time =    1.000,"PART-1-1",           335,           -4.,           7.5,            0.,NA,NA,"",   206.910E-03,  -206.369E-03,  -14.9529E-03,   1.87400E-09
C:/temp/dataset/test2/15_6.odb,Step-1,Increment      1: Step Time =    1.000,"PART-1-1",           336,            3.,        6.5625,            0.,NA,NA,"",   202.797E-03,  -201.902E-03,   19.0284E-03,   5.77222E-09
C:/temp/dataset/test2/15_6.odb,Step-1,Increment      1: Step Time =    1.000,"PART-1-1",           337,            4.,         5.625,            0.,NA,NA,"",   198.805E-03,  -197.364E-03,   23.8924E-03,   4.62700E-09
C:/temp/dataset/test2/15_6.odb,Step-1,Increment      1: Step Time =    1.000,"PART-1-1",           338,            5.,        6.5625,            0.,NA,NA,"",   203.960E-03,  -201.925E-03,   28.7342E-03,   3.06677E-09
C:/temp/dataset/test2/15_6.odb,Step-1,Increment      1: Step Time =    1.000,"PART-1-1",           339,            1.,        6.5625,            0.,NA,NA,"",   202.093E-03,  -201.878E-03,   9.32262E-03,   9.10786E-09
C:/temp/dataset/test2/15_6.odb,Step-1,Increment      1: Step Time =    1.000,"PART-1-1",           340,            2.,         5.625,            0.,NA,NA,"",   197.850E-03,  -197.340E-03,   14.1866E-03,   11.7390E-09
C:/temp/dataset/test2/15_6.odb,Step-1,Increment      1: Step Time =    1.000,"PART-1-1",           341,           -1.,        6.5625,            0.,NA,NA,"",   201.855E-03,  -201.855E-03,  -383.185E-06,   9.10815E-09
C:/temp/dataset/test2/15_6.odb,Step-1,Increment      1: Step Time =    1.000,"PART-1-1",           342,            0.,         5.625,            0.,NA,NA,"",   197.368E-03,  -197.317E-03,   4.48075E-03,   13.7292E-09
C:/temp/dataset/test2/15_6.odb,Step-1,Increment      1: Step Time =    1.000,"PART-1-1",           343,           -3.,        6.5625,            0.,NA,NA,"",   202.083E-03,  -201.831E-03,  -10.0890E-03,   5.77327E-09
C:/temp/dataset/test2/15_6.odb,Step-1,Increment      1: Step Time =    1.000,"PART-1-1",           344,           -2.,         5.625,            0.,NA,NA,"",   197.363E-03,  -197.293E-03,  -5.22505E-03,   11.7402E-09
C:/temp/dataset/test2/15_6.odb,Step-1,Increment      1: Step Time =    1.000,"PART-1-1",           345,           -5.,        6.5625,            0.,NA,NA,"",   202.776E-03,  -201.808E-03,  -19.7948E-03,   3.06552E-09
C:/temp/dataset/test2/15_6.odb,Step-1,Increment      1: Step Time =    1.000,"PART-1-1",           346,           -4.,         5.625,            0.,NA,NA,"",   197.834E-03,  -197.270E-03,  -14.9309E-03,   4.62826E-09
C:/temp/dataset/test2/15_6.odb,Step-1,Increment      1: Step Time =    1.000,"PART-1-1",           347,            3.,        4.6875,            0.,NA,NA,"",   193.742E-03,  -192.803E-03,   19.0505E-03,   22.3820E-09
C:/temp/dataset/test2/15_6.odb,Step-1,Increment      1: Step Time =    1.000,"PART-1-1",           348,            4.,          3.75,            0.,NA,NA,"",   189.778E-03,  -188.265E-03,   23.9144E-03,   19.2426E-09
C:/temp/dataset/test2/15_6.odb,Step-1,Increment      1: Step Time =    1.000,"PART-1-1",           349,            5.,        4.6875,            0.,NA,NA,"",   194.959E-03,  -192.826E-03,   28.7563E-03,   4.73563E-09
C:/temp/dataset/test2/15_6.odb,Step-1,Increment      1: Step Time =    1.000,"PART-1-1",           350,            1.,        4.6875,            0.,NA,NA,"",   193.005E-03,  -192.779E-03,   9.34468E-03,   29.5305E-09
C:/temp/dataset/test2/15_6.odb,Step-1,Increment      1: Step Time =    1.000,"PART-1-1",           351,            2.,          3.75,            0.,NA,NA,"",   188.777E-03,  -188.241E-03,   14.2086E-03,   36.2387E-09
C:/temp/dataset/test2/15_6.odb,Step-1,Increment      1: Step Time =    1.000,"PART-1-1",           352,           -1.,        4.6875,            0.,NA,NA,"",   192.756E-03,  -192.756E-03,  -361.122E-06,   29.5310E-09
C:/temp/dataset/test2/15_6.odb,Step-1,Increment      1: Step Time =    1.000,"PART-1-1",           353,            0.,          3.75,            0.,NA,NA,"",   188.272E-03,  -188.218E-03,   4.50280E-03,   40.7178E-09
C:/temp/dataset/test2/15_6.odb,Step-1,Increment      1: Step Time =    1.000,"PART-1-1",           354,           -3.,        4.6875,            0.,NA,NA,"",   192.995E-03,  -192.732E-03,  -10.0669E-03,   22.3845E-09
C:/temp/dataset/test2/15_6.odb,Step-1,Increment      1: Step Time =    1.000,"PART-1-1",           355,           -2.,          3.75,            0.,NA,NA,"",   188.266E-03,  -188.194E-03,  -5.20299E-03,   36.2406E-09
C:/temp/dataset/test2/15_6.odb,Step-1,Increment      1: Step Time =    1.000,"PART-1-1",           356,           -5.,        4.6875,            0.,NA,NA,"",   193.720E-03,  -192.708E-03,  -19.7727E-03,   4.73954E-09
C:/temp/dataset/test2/15_6.odb,Step-1,Increment      1: Step Time =    1.000,"PART-1-1",           357,           -4.,          3.75,            0.,NA,NA,"",   188.760E-03,  -188.171E-03,  -14.9088E-03,   19.2465E-09
C:/temp/dataset/test2/15_6.odb,Step-1,Increment      1: Step Time =    1.000,"PART-1-1",           358,            3.,        2.8125,            0.,NA,NA,"",   184.691E-03,  -183.704E-03,   19.0726E-03,   62.2529E-09
C:/temp/dataset/test2/15_6.odb,Step-1,Increment      1: Step Time =    1.000,"PART-1-1",           359,            4.,         1.875,            0.,NA,NA,"",   180.758E-03,  -179.166E-03,   23.9366E-03,   58.4242E-09
C:/temp/dataset/test2/15_6.odb,Step-1,Increment      1: Step Time =    1.000,"PART-1-1",           360,            5.,        2.8125,            0.,NA,NA,"",   185.967E-03,  -183.727E-03,   28.7784E-03,   33.3345E-09
C:/temp/dataset/test2/15_6.odb,Step-1,Increment      1: Step Time =    1.000,"PART-1-1",           361,            1.,        2.8125,            0.,NA,NA,"",   183.919E-03,  -183.680E-03,   9.36671E-03,   75.8307E-09
C:/temp/dataset/test2/15_6.odb,Step-1,Increment      1: Step Time =    1.000,"PART-1-1",           362,            2.,         1.875,            0.,NA,NA,"",   179.707E-03,  -179.142E-03,   14.2307E-03,   89.4515E-09
C:/temp/dataset/test2/15_6.odb,Step-1,Increment      1: Step Time =    1.000,"PART-1-1",           363,           -1.,        2.8125,            0.,NA,NA,"",   183.657E-03,  -183.656E-03,  -339.093E-06,   75.8267E-09
C:/temp/dataset/test2/15_6.odb,Step-1,Increment      1: Step Time =    1.000,"PART-1-1",           364,            0.,         1.875,            0.,NA,NA,"",   179.176E-03,  -179.119E-03,   4.52478E-03,   98.6271E-09
C:/temp/dataset/test2/15_6.odb,Step-1,Increment      1: Step Time =    1.000,"PART-1-1",           365,           -3.,        2.8125,            0.,NA,NA,"",   183.907E-03,  -183.633E-03,  -10.0448E-03,   62.2500E-09
C:/temp/dataset/test2/15_6.odb,Step-1,Increment      1: Step Time =    1.000,"PART-1-1",           366,           -2.,         1.875,            0.,NA,NA,"",   179.170E-03,  -179.095E-03,  -5.18095E-03,   89.4475E-09
C:/temp/dataset/test2/15_6.odb,Step-1,Increment      1: Step Time =    1.000,"PART-1-1",           367,           -5.,        2.8125,            0.,NA,NA,"",   184.668E-03,  -183.609E-03,  -19.7506E-03,   33.3460E-09
C:/temp/dataset/test2/15_6.odb,Step-1,Increment      1: Step Time =    1.000,"PART-1-1",           368,           -4.,         1.875,            0.,NA,NA,"",   179.689E-03,  -179.071E-03,  -14.8867E-03,   58.4284E-09
C:/temp/dataset/test2/15_6.odb,Step-1,Increment      1: Step Time =    1.000,"PART-1-1",           369,            3.,     937.5E-03,            0.,NA,NA,"",   175.645E-03,  -174.605E-03,   19.0947E-03,   141.864E-09
C:/temp/dataset/test2/15_6.odb,Step-1,Increment      1: Step Time =    1.000,"PART-1-1",           370,            4.,            0.,            0.,NA,NA,"",   171.746E-03,  -170.067E-03,   23.9588E-03,   143.928E-09
C:/temp/dataset/test2/15_6.odb,Step-1,Increment      1: Step Time =    1.000,"PART-1-1",           371,            5.,     937.5E-03,            0.,NA,NA,"",   176.987E-03,  -174.628E-03,   28.8005E-03,   111.422E-09
C:/temp/dataset/test2/15_6.odb,Step-1,Increment      1: Step Time =    1.000,"PART-1-1",           372,            1.,     937.5E-03,            0.,NA,NA,"",   174.833E-03,  -174.581E-03,   9.38866E-03,   163.181E-09
C:/temp/dataset/test2/15_6.odb,Step-1,Increment      1: Step Time =    1.000,"PART-1-1",           373,            2.,            0.,            0.,NA,NA,"",   170.639E-03,  -170.043E-03,   14.2526E-03,   184.767E-09
C:/temp/dataset/test2/15_6.odb,Step-1,Increment      1: Step Time =    1.000,"PART-1-1",           374,           -1.,     937.5E-03,            0.,NA,NA,"",   174.557E-03,  -174.557E-03,  -317.144E-06,   163.148E-09
C:/temp/dataset/test2/15_6.odb,Step-1,Increment      1: Step Time =    1.000,"PART-1-1",           375,            0.,            0.,            0.,NA,NA,"",   170.080E-03,  -170.019E-03,   4.54663E-03,   201.309E-09
C:/temp/dataset/test2/15_6.odb,Step-1,Increment      1: Step Time =    1.000,"PART-1-1",           376,           -3.,     937.5E-03,            0.,NA,NA,"",   174.821E-03,  -174.533E-03,  -10.0227E-03,   141.810E-09
C:/temp/dataset/test2/15_6.odb,Step-1,Increment      1: Step Time =    1.000,"PART-1-1",           377,           -2.,            0.,            0.,NA,NA,"",   170.074E-03,  -169.996E-03,  -5.15898E-03,   184.704E-09
C:/temp/dataset/test2/15_6.odb,Step-1,Increment      1: Step Time =    1.000,"PART-1-1",           378,           -5.,     937.5E-03,            0.,NA,NA,"",   175.621E-03,  -174.510E-03,  -19.7285E-03,   111.421E-09
C:/temp/dataset/test2/15_6.odb,Step-1,Increment      1: Step Time =    1.000,"PART-1-1",           379,           -4.,            0.,            0.,NA,NA,"",   170.621E-03,  -169.972E-03,  -14.8645E-03,   143.891E-09
C:/temp/dataset/test2/15_6.odb,Step-1,Increment      1: Step Time =    1.000,"PART-1-1",           380,            3.,    -937.5E-03,            0.,NA,NA,"",   166.606E-03,  -165.505E-03,   19.1168E-03,   268.548E-09
C:/temp/dataset/test2/15_6.odb,Step-1,Increment      1: Step Time =    1.000,"PART-1-1",           381,            4.,        -1.875,            0.,NA,NA,"",   162.744E-03,  -160.968E-03,   23.9811E-03,   298.605E-09
C:/temp/dataset/test2/15_6.odb,Step-1,Increment      1: Step Time =    1.000,"PART-1-1",           382,            5.,    -937.5E-03,            0.,NA,NA,"",   168.020E-03,  -165.529E-03,   28.8229E-03,   286.259E-09
C:/temp/dataset/test2/15_6.odb,Step-1,Increment      1: Step Time =    1.000,"PART-1-1",           383,            1.,    -937.5E-03,            0.,NA,NA,"",   165.749E-03,  -165.482E-03,   9.41046E-03,   291.901E-09
C:/temp/dataset/test2/15_6.odb,Step-1,Increment      1: Step Time =    1.000,"PART-1-1",           384,            2.,        -1.875,            0.,NA,NA,"",   161.576E-03,  -160.944E-03,   14.2745E-03,   311.561E-09
C:/temp/dataset/test2/15_6.odb,Step-1,Increment      1: Step Time =    1.000,"PART-1-1",           385,           -1.,    -937.5E-03,            0.,NA,NA,"",   165.458E-03,  -165.458E-03,  -295.340E-06,   291.713E-09
C:/temp/dataset/test2/15_6.odb,Step-1,Increment      1: Step Time =    1.000,"PART-1-1",           386,            0.,        -1.875,            0.,NA,NA,"",   160.985E-03,  -160.920E-03,   4.56828E-03,   337.639E-09
C:/temp/dataset/test2/15_6.odb,Step-1,Increment      1: Step Time =    1.000,"PART-1-1",           387,           -3.,    -937.5E-03,            0.,NA,NA,"",   165.736E-03,  -165.434E-03,  -10.0007E-03,   268.206E-09
C:/temp/dataset/test2/15_6.odb,Step-1,Increment      1: Step Time =    1.000,"PART-1-1",           388,           -2.,        -1.875,            0.,NA,NA,"",   160.978E-03,  -160.896E-03,  -5.13711E-03,   311.185E-09
C:/temp/dataset/test2/15_6.odb,Step-1,Increment      1: Step Time =    1.000,"PART-1-1",           389,           -5.,    -937.5E-03,            0.,NA,NA,"",   166.580E-03,  -165.411E-03,  -19.7061E-03,   286.095E-09
C:/temp/dataset/test2/15_6.odb,Step-1,Increment      1: Step Time =    1.000,"PART-1-1",           390,           -4.,        -1.875,            0.,NA,NA,"",   161.556E-03,  -160.873E-03,  -14.8421E-03,   298.331E-09
C:/temp/dataset/test2/15_6.odb,Step-1,Increment      1: Step Time =    1.000,"PART-1-1",           391,            3.,       -2.8125,            0.,NA,NA,"",   157.573E-03,  -156.406E-03,   19.1389E-03,   392.904E-09
C:/temp/dataset/test2/15_6.odb,Step-1,Increment      1: Step Time =    1.000,"PART-1-1",           392,            4.,         -3.75,            0.,NA,NA,"",   153.754E-03,  -151.868E-03,   24.0037E-03,   511.776E-09
C:/temp/dataset/test2/15_6.odb,Step-1,Increment      1: Step Time =    1.000,"PART-1-1",           393,            5.,       -2.8125,            0.,NA,NA,"",   159.067E-03,  -156.430E-03,   28.8457E-03,   610.017E-09
C:/temp/dataset/test2/15_6.odb,Step-1,Increment      1: Step Time =    1.000,"PART-1-1",           394,            1.,       -2.8125,            0.,NA,NA,"",   156.667E-03,  -156.383E-03,   9.43206E-03,   400.088E-09
C:/temp/dataset/test2/15_6.odb,Step-1,Increment      1: Step Time =    1.000,"PART-1-1",           395,            2.,         -3.75,            0.,NA,NA,"",   152.516E-03,  -151.845E-03,   14.2962E-03,   373.804E-09
C:/temp/dataset/test2/15_6.odb,Step-1,Increment      1: Step Time =    1.000,"PART-1-1",           396,           -1.,       -2.8125,            0.,NA,NA,"",   156.359E-03,  -156.359E-03,  -273.738E-06,   399.297E-09
C:/temp/dataset/test2/15_6.odb,Step-1,Increment      1: Step Time =    1.000,"PART-1-1",           397,            0.,         -3.75,            0.,NA,NA,"",   151.890E-03,  -151.821E-03,   4.58972E-03,   422.633E-09
C:/temp/dataset/test2/15_6.odb,Step-1,Increment      1: Step Time =    1.000,"PART-1-1",           398,           -3.,       -2.8125,            0.,NA,NA,"",   156.653E-03,  -156.335E-03,  -9.97854E-03,   391.340E-09
C:/temp/dataset/test2/15_6.odb,Step-1,Increment      1: Step Time =    1.000,"PART-1-1",           399,           -2.,         -3.75,            0.,NA,NA,"",   151.883E-03,  -151.797E-03,  -5.11537E-03,   372.407E-09
C:/temp/dataset/test2/15_6.odb,Step-1,Increment      1: Step Time =    1.000,"PART-1-1",           400,           -5.,       -2.8125,            0.,NA,NA,"",   157.546E-03,  -156.311E-03,  -19.6833E-03,   608.844E-09
C:/temp/dataset/test2/15_6.odb,Step-1,Increment      1: Step Time =    1.000,"PART-1-1",           401,           -4.,         -3.75,            0.,NA,NA,"",   152.495E-03,  -151.774E-03,  -14.8195E-03,   510.421E-09
C:/temp/dataset/test2/15_6.odb,Step-1,Increment      1: Step Time =    1.000,"PART-1-1",           402,            3.,       -4.6875,            0.,NA,NA,"",   148.547E-03,  -147.306E-03,   19.1610E-03,   301.135E-09
C:/temp/dataset/test2/15_6.odb,Step-1,Increment      1: Step Time =    1.000,"PART-1-1",           403,            4.,        -5.625,            0.,NA,NA,"",   144.775E-03,  -142.767E-03,   24.0267E-03,   661.320E-09
C:/temp/dataset/test2/15_6.odb,Step-1,Increment      1: Step Time =    1.000,"PART-1-1",           404,            5.,       -4.6875,            0.,NA,NA,"",   150.131E-03,  -147.330E-03,   28.8692E-03,   1.06346E-06
C:/temp/dataset/test2/15_6.odb,Step-1,Increment      1: Step Time =    1.000,"PART-1-1",           405,            1.,       -4.6875,            0.,NA,NA,"",   147.586E-03,  -147.283E-03,   9.45356E-03,   427.425E-09
C:/temp/dataset/test2/15_6.odb,Step-1,Increment      1: Step Time =    1.000,"PART-1-1",           406,            2.,        -5.625,            0.,NA,NA,"",   143.461E-03,  -142.744E-03,   14.3180E-03,   404.717E-09
C:/temp/dataset/test2/15_6.odb,Step-1,Increment      1: Step Time =    1.000,"PART-1-1",           407,           -1.,       -4.6875,            0.,NA,NA,"",   147.260E-03,  -147.260E-03,  -252.240E-06,   425.806E-09
C:/temp/dataset/test2/15_6.odb,Step-1,Increment      1: Step Time =    1.000,"PART-1-1",           408,            0.,        -5.625,            0.,NA,NA,"",   142.796E-03,  -142.722E-03,   4.61133E-03,   635.230E-09
C:/temp/dataset/test2/15_6.odb,Step-1,Increment      1: Step Time =    1.000,"PART-1-1",           409,           -3.,       -4.6875,            0.,NA,NA,"",   147.572E-03,  -147.236E-03,  -9.95641E-03,   297.058E-09
C:/temp/dataset/test2/15_6.odb,Step-1,Increment      1: Step Time =    1.000,"PART-1-1",           410,           -2.,        -5.625,            0.,NA,NA,"",   142.790E-03,  -142.699E-03,  -5.09361E-03,   406.103E-09
C:/temp/dataset/test2/15_6.odb,Step-1,Increment      1: Step Time =    1.000,"PART-1-1",           411,           -5.,       -4.6875,            0.,NA,NA,"",   148.520E-03,  -147.213E-03,  -19.6598E-03,   1.05767E-06
C:/temp/dataset/test2/15_6.odb,Step-1,Increment      1: Step Time =    1.000,"PART-1-1",           412,           -4.,        -5.625,            0.,NA,NA,"",   143.441E-03,  -142.676E-03,  -14.7966E-03,   657.490E-09
C:/temp/dataset/test2/15_6.odb,Step-1,Increment      1: Step Time =    1.000,"PART-1-1",           413,            3.,       -6.5625,            0.,NA,NA,"",   139.529E-03,  -138.204E-03,   19.1832E-03,   899.128E-09
C:/temp/dataset/test2/15_6.odb,Step-1,Increment      1: Step Time =    1.000,"PART-1-1",           414,            4.,          -7.5,            0.,NA,NA,"",   135.809E-03,  -133.663E-03,   24.0495E-03,   876.768E-09
C:/temp/dataset/test2/15_6.odb,Step-1,Increment      1: Step Time =    1.000,"PART-1-1",           415,            5.,       -6.5625,            0.,NA,NA,"",   141.215E-03,  -138.227E-03,   28.8937E-03,   1.31468E-06
C:/temp/dataset/test2/15_6.odb,Step-1,Increment      1: Step Time =    1.000,"PART-1-1",           416,            1.,       -6.5625,            0.,NA,NA,"",   138.507E-03,  -138.183E-03,   9.47562E-03,   1.74547E-06
C:/temp/dataset/test2/15_6.odb,Step-1,Increment      1: Step Time =    1.000,"PART-1-1",           417,            2.,          -7.5,            0.,NA,NA,"",   134.408E-03,  -133.641E-03,   14.3404E-03,   2.29742E-06
C:/temp/dataset/test2/15_6.odb,Step-1,Increment      1: Step Time =    1.000,"PART-1-1",           418,           -1.,       -6.5625,            0.,NA,NA,"",   138.162E-03,  -138.162E-03,  -230.181E-06,   1.74587E-06
C:/temp/dataset/test2/15_6.odb,Step-1,Increment      1: Step Time =    1.000,"PART-1-1",           419,            0.,          -7.5,            0.,NA,NA,"",   133.703E-03,  -133.623E-03,   4.63459E-03,   2.79725E-06
C:/temp/dataset/test2/15_6.odb,Step-1,Increment      1: Step Time =    1.000,"PART-1-1",           420,           -3.,       -6.5625,            0.,NA,NA,"",   138.497E-03,  -138.140E-03,  -9.93427E-03,   909.967E-09
C:/temp/dataset/test2/15_6.odb,Step-1,Increment      1: Step Time =    1.000,"PART-1-1",           421,           -2.,          -7.5,            0.,NA,NA,"",   133.700E-03,  -133.604E-03,  -5.07117E-03,   2.30647E-06
C:/temp/dataset/test2/15_6.odb,Step-1,Increment      1: Step Time =    1.000,"PART-1-1",           422,           -5.,       -6.5625,            0.,NA,NA,"",   139.506E-03,  -138.117E-03,  -19.6354E-03,   1.29504E-06
C:/temp/dataset/test2/15_6.odb,Step-1,Increment      1: Step Time =    1.000,"PART-1-1",           423,           -4.,          -7.5,            0.,NA,NA,"",   134.397E-03,  -133.582E-03,  -14.7738E-03,   889.740E-09
C:/temp/dataset/test2/15_6.odb,Step-1,Increment      1: Step Time =    1.000,"PART-1-1",           424,            3.,       -8.4375,            0.,NA,NA,"",   130.518E-03,  -129.097E-03,   19.2053E-03,   4.69973E-06
C:/temp/dataset/test2/15_6.odb,Step-1,Increment      1: Step Time =    1.000,"PART-1-1",           425,            4.,        -9.375,            0.,NA,NA,"",   126.855E-03,  -124.551E-03,   24.0705E-03,   3.86219E-06
C:/temp/dataset/test2/15_6.odb,Step-1,Increment      1: Step Time =    1.000,"PART-1-1",           426,            5.,       -8.4375,            0.,NA,NA,"",   132.319E-03,  -129.120E-03,   28.9184E-03,   288.547E-09
C:/temp/dataset/test2/15_6.odb,Step-1,Increment      1: Step Time =    1.000,"PART-1-1",           427,            1.,       -8.4375,            0.,NA,NA,"",   129.429E-03,  -129.080E-03,   9.50046E-03,   6.55344E-06
C:/temp/dataset/test2/15_6.odb,Step-1,Increment      1: Step Time =    1.000,"PART-1-1",           428,            2.,        -9.375,            0.,NA,NA,"",   125.357E-03,  -124.532E-03,   14.3655E-03,   8.19211E-06
C:/temp/dataset/test2/15_6.odb,Step-1,Increment      1: Step Time =    1.000,"PART-1-1",           429,           -1.,       -8.4375,            0.,NA,NA,"",   129.066E-03,  -129.066E-03,  -205.355E-06,   6.53545E-06
C:/temp/dataset/test2/15_6.odb,Step-1,Increment      1: Step Time =    1.000,"PART-1-1",           430,            0.,        -9.375,            0.,NA,NA,"",   124.611E-03,  -124.523E-03,   4.66373E-03,   9.32119E-06
C:/temp/dataset/test2/15_6.odb,Step-1,Increment      1: Step Time =    1.000,"PART-1-1",           431,           -3.,       -8.4375,            0.,NA,NA,"",   129.429E-03,  -129.049E-03,  -9.91219E-03,   4.68923E-06
C:/temp/dataset/test2/15_6.odb,Step-1,Increment      1: Step Time =    1.000,"PART-1-1",           432,           -2.,        -9.375,            0.,NA,NA,"",   124.617E-03,  -124.515E-03,  -5.04615E-03,   8.17992E-06
C:/temp/dataset/test2/15_6.odb,Step-1,Increment      1: Step Time =    1.000,"PART-1-1",           433,           -5.,       -8.4375,            0.,NA,NA,"",   130.508E-03,  -129.026E-03,  -19.6109E-03,   277.637E-09
C:/temp/dataset/test2/15_6.odb,Step-1,Increment      1: Step Time =    1.000,"PART-1-1",           434,           -4.,        -9.375,            0.,NA,NA,"",   125.367E-03,  -124.496E-03,  -14.7529E-03,   3.87181E-06
C:/temp/dataset/test2/15_6.odb,Step-1,Increment      1: Step Time =    1.000,"PART-1-1",           435,            3.,      -10.3125,            0.,NA,NA,"",   121.509E-03,  -119.979E-03,   19.2272E-03,   14.7342E-06
C:/temp/dataset/test2/15_6.odb,Step-1,Increment      1: Step Time =    1.000,"PART-1-1",           436,            4.,        -11.25,            0.,NA,NA,"",   117.910E-03,  -115.424E-03,   24.0846E-03,   13.3100E-06
C:/temp/dataset/test2/15_6.odb,Step-1,Increment      1: Step Time =    1.000,"PART-1-1",           437,            5.,      -10.3125,            0.,NA,NA,"",   123.443E-03,  -120.003E-03,   28.9393E-03,   6.04033E-06
C:/temp/dataset/test2/15_6.odb,Step-1,Increment      1: Step Time =    1.000,"PART-1-1",           438,            1.,      -10.3125,            0.,NA,NA,"",   120.350E-03,  -119.972E-03,   9.53376E-03,   18.4381E-06
C:/temp/dataset/test2/15_6.odb,Step-1,Increment      1: Step Time =    1.000,"PART-1-1",           439,            2.,        -11.25,            0.,NA,NA,"",   116.305E-03,  -115.410E-03,   14.3981E-03,   22.1934E-06
C:/temp/dataset/test2/15_6.odb,Step-1,Increment      1: Step Time =    1.000,"PART-1-1",           440,           -1.,      -10.3125,            0.,NA,NA,"",   119.976E-03,  -119.976E-03,  -172.205E-06,   18.2956E-06
C:/temp/dataset/test2/15_6.odb,Step-1,Increment      1: Step Time =    1.000,"PART-1-1",           441,            0.,        -11.25,            0.,NA,NA,"",   115.521E-03,  -115.425E-03,   4.70848E-03,   24.4755E-06
C:/temp/dataset/test2/15_6.odb,Step-1,Increment      1: Step Time =    1.000,"PART-1-1",           442,           -3.,      -10.3125,            0.,NA,NA,"",   120.376E-03,  -119.969E-03,  -9.89047E-03,   14.5230E-06
C:/temp/dataset/test2/15_6.odb,Step-1,Increment      1: Step Time =    1.000,"PART-1-1",           443,           -2.,        -11.25,            0.,NA,NA,"",   115.547E-03,  -115.438E-03,  -5.01408E-03,   21.8982E-06
C:/temp/dataset/test2/15_6.odb,Step-1,Increment      1: Step Time =    1.000,"PART-1-1",           444,           -5.,      -10.3125,            0.,NA,NA,"",   121.533E-03,  -119.944E-03,  -19.5902E-03,   6.04111E-06
C:/temp/dataset/test2/15_6.odb,Step-1,Increment      1: Step Time =    1.000,"PART-1-1",           445,           -4.,        -11.25,            0.,NA,NA,"",   116.361E-03,  -115.424E-03,  -14.7391E-03,   13.1774E-06
C:/temp/dataset/test2/15_6.odb,Step-1,Increment      1: Step Time =    1.000,"PART-1-1",           446,            3.,      -12.1875,            0.,NA,NA,"",   112.501E-03,  -110.842E-03,   19.2485E-03,   37.0272E-06
C:/temp/dataset/test2/15_6.odb,Step-1,Increment      1: Step Time =    1.000,"PART-1-1",           447,            4.,       -13.125,            0.,NA,NA,"",   108.971E-03,  -106.277E-03,   24.0793E-03,   36.1848E-06
C:/temp/dataset/test2/15_6.odb,Step-1,Increment      1: Step Time =    1.000,"PART-1-1",           448,            5.,      -12.1875,            0.,NA,NA,"",   114.588E-03,  -110.872E-03,   28.9445E-03,   24.7828E-06
C:/temp/dataset/test2/15_6.odb,Step-1,Increment      1: Step Time =    1.000,"PART-1-1",           449,            1.,      -12.1875,            0.,NA,NA,"",   111.270E-03,  -110.856E-03,   9.58784E-03,   43.0040E-06
C:/temp/dataset/test2/15_6.odb,Step-1,Increment      1: Step Time =    1.000,"PART-1-1",           450,            2.,       -13.125,            0.,NA,NA,"",   107.250E-03,  -106.272E-03,   14.4481E-03,   49.9015E-06
C:/temp/dataset/test2/15_6.odb,Step-1,Increment      1: Step Time =    1.000,"PART-1-1",           451,           -1.,      -12.1875,            0.,NA,NA,"",   110.895E-03,  -110.895E-03,  -119.110E-06,   42.1729E-06
C:/temp/dataset/test2/15_6.odb,Step-1,Increment      1: Step Time =    1.000,"PART-1-1",           452,            0.,       -13.125,            0.,NA,NA,"",   106.435E-03,  -106.328E-03,   4.78729E-03,   53.7858E-06
C:/temp/dataset/test2/15_6.odb,Step-1,Increment      1: Step Time =    1.000,"PART-1-1",           453,           -3.,      -12.1875,            0.,NA,NA,"",   111.345E-03,  -110.906E-03,  -9.86991E-03,   35.3889E-06
C:/temp/dataset/test2/15_6.odb,Step-1,Increment      1: Step Time =    1.000,"PART-1-1",           454,           -2.,       -13.125,            0.,NA,NA,"",   106.494E-03,  -106.378E-03,  -4.96673E-03,   48.2907E-06
C:/temp/dataset/test2/15_6.odb,Step-1,Increment      1: Step Time =    1.000,"PART-1-1",           455,           -5.,      -12.1875,            0.,NA,NA,"",   112.592E-03,  -110.875E-03,  -19.5856E-03,   24.2031E-06
C:/temp/dataset/test2/15_6.odb,Step-1,Increment      1: Step Time =    1.000,"PART-1-1",           456,           -4.,       -13.125,            0.,NA,NA,"",   107.386E-03,  -106.369E-03,  -14.7442E-03,   34.7851E-06
C:/temp/dataset/test2/15_6.odb,Step-1,Increment      1: Step Time =    1.000,"PART-1-1",           457,            3.,      -14.0625,            0.,NA,NA,"",   103.494E-03,  -101.684E-03,   19.2686E-03,   77.5892E-06
C:/temp/dataset/test2/15_6.odb,Step-1,Increment      1: Step Time =    1.000,"PART-1-1",           458,            4.,          -15.,            0.,NA,NA,"",   100.049E-03,  -97.1199E-03,   24.0321E-03,   82.8096E-06
C:/temp/dataset/test2/15_6.odb,Step-1,Increment      1: Step Time =    1.000,"PART-1-1",           459,            5.,      -14.0625,            0.,NA,NA,"",   105.757E-03,  -101.731E-03,   28.9014E-03,   72.7258E-06
C:/temp/dataset/test2/15_6.odb,Step-1,Increment      1: Step Time =    1.000,"PART-1-1",           460,            1.,      -14.0625,            0.,NA,NA,"",   102.194E-03,  -101.735E-03,   9.68459E-03,   84.5321E-06
C:/temp/dataset/test2/15_6.odb,Step-1,Increment      1: Step Time =    1.000,"PART-1-1",           461,            2.,          -15.,            0.,NA,NA,"",   98.2085E-03,  -97.1270E-03,   14.5343E-03,   95.2964E-06
C:/temp/dataset/test2/15_6.odb,Step-1,Increment      1: Step Time =    1.000,"PART-1-1",           462,           -1.,      -14.0625,            0.,NA,NA,"",   101.824E-03,  -101.824E-03,  -27.1590E-06,   81.0537E-06
C:/temp/dataset/test2/15_6.odb,Step-1,Increment      1: Step Time =    1.000,"PART-1-1",           463,            0.,          -15.,            0.,NA,NA,"",   97.3612E-03,  -97.2364E-03,   4.92725E-03,   98.8115E-06
C:/temp/dataset/test2/15_6.odb,Step-1,Increment      1: Step Time =    1.000,"PART-1-1",           464,           -3.,      -14.0625,            0.,NA,NA,"",   102.338E-03,  -101.862E-03,  -9.85292E-03,   70.9616E-06
C:/temp/dataset/test2/15_6.odb,Step-1,Increment      1: Step Time =    1.000,"PART-1-1",           465,           -2.,          -15.,            0.,NA,NA,"",   97.4519E-03,  -97.3290E-03,  -4.89327E-03,   87.5597E-06
C:/temp/dataset/test2/15_6.odb,Step-1,Increment      1: Step Time =    1.000,"PART-1-1",           466,           -5.,      -14.0625,            0.,NA,NA,"",   103.687E-03,  -101.813E-03,  -19.6264E-03,   66.9825E-06
C:/temp/dataset/test2/15_6.odb,Step-1,Increment      1: Step Time =    1.000,"PART-1-1",           467,           -4.,          -15.,            0.,NA,NA,"",   98.4368E-03,  -97.3193E-03,  -14.7905E-03,   75.8776E-06
C:/temp/dataset/test2/15_6.odb,Step-1,Increment      1: Step Time =    1.000,"PART-1-1",           468,            3.,      -15.9375,            0.,NA,NA,"",   94.5225E-03,  -92.5327E-03,   19.2926E-03,   138.765E-06
C:/temp/dataset/test2/15_6.odb,Step-1,Increment      1: Step Time =    1.000,"PART-1-1",           469,            4.,       -16.875,            0.,NA,NA,"",   91.2049E-03,  -88.0190E-03,   23.8955E-03,   161.802E-06
C:/temp/dataset/test2/15_6.odb,Step-1,Increment      1: Step Time =    1.000,"PART-1-1",           470,            5.,      -15.9375,            0.,NA,NA,"",   96.9792E-03,  -92.6207E-03,   28.7468E-03,   172.335E-06
C:/temp/dataset/test2/15_6.odb,Step-1,Increment      1: Step Time =    1.000,"PART-1-1",           471,            1.,      -15.9375,            0.,NA,NA,"",   93.1483E-03,  -92.6257E-03,   9.85374E-03,   134.479E-06
C:/temp/dataset/test2/15_6.odb,Step-1,Increment      1: Step Time =    1.000,"PART-1-1",           472,            2.,       -16.875,            0.,NA,NA,"",   89.2468E-03,  -88.0307E-03,   14.6827E-03,   141.306E-06
C:/temp/dataset/test2/15_6.odb,Step-1,Increment      1: Step Time =    1.000,"PART-1-1",           473,           -1.,      -15.9375,            0.,NA,NA,"",   92.7574E-03,  -92.7573E-03,   123.051E-06,   123.697E-06
C:/temp/dataset/test2/15_6.odb,Step-1,Increment      1: Step Time =    1.000,"PART-1-1",           474,            0.,       -16.875,            0.,NA,NA,"",   88.3089E-03,  -88.1589E-03,   5.14593E-03,   141.926E-06
C:/temp/dataset/test2/15_6.odb,Step-1,Increment      1: Step Time =    1.000,"PART-1-1",           475,           -3.,      -15.9375,            0.,NA,NA,"",   93.3269E-03,  -92.8062E-03,  -9.84545E-03,   112.281E-06
C:/temp/dataset/test2/15_6.odb,Step-1,Increment      1: Step Time =    1.000,"PART-1-1",           476,           -2.,       -16.875,            0.,NA,NA,"",   88.3716E-03,  -88.2416E-03,  -4.79198E-03,   119.583E-06
C:/temp/dataset/test2/15_6.odb,Step-1,Increment      1: Step Time =    1.000,"PART-1-1",           477,           -5.,      -15.9375,            0.,NA,NA,"",   94.7998E-03,  -92.7157E-03,  -19.7686E-03,   148.287E-06
C:/temp/dataset/test2/15_6.odb,Step-1,Increment      1: Step Time =    1.000,"PART-1-1",           478,           -4.,       -16.875,            0.,NA,NA,"",   89.4531E-03,  -88.2017E-03,  -14.9103E-03,   136.581E-06
C:/temp/dataset/test2/15_6.odb,Step-1,Increment      1: Step Time =    1.000,"PART-1-1",           479,            3.,      -17.8125,            0.,NA,NA,"",   85.7320E-03,  -83.5252E-03,   19.3267E-03,   168.463E-06
C:/temp/dataset/test2/15_6.odb,Step-1,Increment      1: Step Time =    1.000,"PART-1-1",           480,            4.,        -18.75,            0.,NA,NA,"",   82.6905E-03,  -79.2329E-03,   23.6614E-03,   256.930E-06
C:/temp/dataset/test2/15_6.odb,Step-1,Increment      1: Step Time =    1.000,"PART-1-1",           481,            5.,      -17.8125,            0.,NA,NA,"",   88.3403E-03,  -83.6751E-03,   28.3281E-03,   373.323E-06
C:/temp/dataset/test2/15_6.odb,Step-1,Increment      1: Step Time =    1.000,"PART-1-1",           482,            1.,      -17.8125,            0.,NA,NA,"",   84.2065E-03,  -83.5982E-03,   10.1031E-03,   158.313E-06
C:/temp/dataset/test2/15_6.odb,Step-1,Increment      1: Step Time =    1.000,"PART-1-1",           483,            2.,        -18.75,            0.,NA,NA,"",   80.5645E-03,  -79.1735E-03,   14.9062E-03,   144.670E-06
C:/temp/dataset/test2/15_6.odb,Step-1,Increment      1: Step Time =    1.000,"PART-1-1",           484,           -1.,      -17.8125,            0.,NA,NA,"",   83.6416E-03,  -83.6410E-03,   317.385E-06,   128.203E-06
C:/temp/dataset/test2/15_6.odb,Step-1,Increment      1: Step Time =    1.000,"PART-1-1",           485,            0.,        -18.75,            0.,NA,NA,"",   79.2748E-03,  -79.0921E-03,   5.37914E-03,   163.917E-06
C:/temp/dataset/test2/15_6.odb,Step-1,Increment      1: Step Time =    1.000,"PART-1-1",           486,           -3.,      -17.8125,            0.,NA,NA,"",   84.1969E-03,  -83.6174E-03,  -9.86116E-03,   114.467E-06
C:/temp/dataset/test2/15_6.odb,Step-1,Increment      1: Step Time =    1.000,"PART-1-1",           487,           -2.,        -18.75,            0.,NA,NA,"",   79.0865E-03,  -78.9469E-03,  -4.69749E-03,   98.6458E-06
C:/temp/dataset/test2/15_6.odb,Step-1,Increment      1: Step Time =    1.000,"PART-1-1",           488,           -5.,      -17.8125,            0.,NA,NA,"",   85.8402E-03,  -83.4559E-03,  -20.0910E-03,   264.680E-06
C:/temp/dataset/test2/15_6.odb,Step-1,Increment      1: Step Time =    1.000,"PART-1-1",           489,           -4.,        -18.75,            0.,NA,NA,"",   80.2498E-03,  -78.8117E-03,  -15.1243E-03,   191.558E-06
C:/temp/dataset/test2/15_6.odb,Step-1,Increment      1: Step Time =    1.000,"PART-1-1",           490,            3.,      -19.6875,            0.,NA,NA,"",   77.5458E-03,  -75.0671E-03,   19.4497E-03,   209.315E-06
C:/temp/dataset/test2/15_6.odb,Step-1,Increment      1: Step Time =    1.000,"PART-1-1",           491,            4.,       -20.625,            0.,NA,NA,"",   75.2770E-03,  -71.5912E-03,   23.2663E-03,   455.374E-06
C:/temp/dataset/test2/15_6.odb,Step-1,Increment      1: Step Time =    1.000,"PART-1-1",           492,            5.,      -19.6875,            0.,NA,NA,"",   80.2396E-03,  -75.3874E-03,   27.4797E-03,   614.409E-06
C:/temp/dataset/test2/15_6.odb,Step-1,Increment      1: Step Time =    1.000,"PART-1-1",           493,            1.,      -19.6875,            0.,NA,NA,"",   75.4734E-03,  -74.7669E-03,   10.3029E-03,   367.474E-06
C:/temp/dataset/test2/15_6.odb,Step-1,Increment      1: Step Time =    1.000,"PART-1-1",           494,            2.,       -20.625,            0.,NA,NA,"",   72.5488E-03,  -70.9815E-03,   14.9985E-03,   650.569E-06
C:/temp/dataset/test2/15_6.odb,Step-1,Increment      1: Step Time =    1.000,"PART-1-1",           495,           -1.,      -19.6875,            0.,NA,NA,"",   74.2826E-03,  -74.2814E-03,   425.652E-06,   270.148E-06
C:/temp/dataset/test2/15_6.odb,Step-1,Increment      1: Step Time =    1.000,"PART-1-1",           496,            0.,       -20.625,            0.,NA,NA,"",   70.0395E-03,  -69.8372E-03,   5.31861E-03,   561.558E-06
C:/temp/dataset/test2/15_6.odb,Step-1,Increment      1: Step Time =    1.000,"PART-1-1",           497,           -3.,      -19.6875,            0.,NA,NA,"",   74.6488E-03,  -73.9880E-03,  -9.91071E-03,   89.4461E-06
C:/temp/dataset/test2/15_6.odb,Step-1,Increment      1: Step Time =    1.000,"PART-1-1",           498,           -2.,       -20.625,            0.,NA,NA,"",   69.1838E-03,  -69.0239E-03,  -4.70143E-03,   355.017E-06
C:/temp/dataset/test2/15_6.odb,Step-1,Increment      1: Step Time =    1.000,"PART-1-1",           499,           -5.,      -19.6875,            0.,NA,NA,"",   76.5822E-03,  -73.7483E-03,  -20.6405E-03,   352.645E-06
C:/temp/dataset/test2/15_6.odb,Step-1,Increment      1: Step Time =    1.000,"PART-1-1",           500,           -4.,       -20.625,            0.,NA,NA,"",   70.4258E-03,  -68.7275E-03,  -15.3731E-03,   206.393E-06
C:/temp/dataset/test2/15_6.odb,Step-1,Increment      1: Step Time =    1.000,"PART-1-1",           501,            3.,      -21.5625,            0.,NA,NA,"",   71.2081E-03,  -68.5272E-03,   19.3550E-03,   1.76132E-03
C:/temp/dataset/test2/15_6.odb,Step-1,Increment      1: Step Time =    1.000,"PART-1-1",           502,            4.,         -22.5,            0.,NA,NA,"",   72.0775E-03,  -68.1668E-03,   23.4192E-03,   3.46722E-03
C:/temp/dataset/test2/15_6.odb,Step-1,Increment      1: Step Time =    1.000,"PART-1-1",           503,            5.,      -21.5625,            0.,NA,NA,"",   73.7423E-03,  -69.1290E-03,   25.6732E-03,   798.098E-06
C:/temp/dataset/test2/15_6.odb,Step-1,Increment      1: Step Time =    1.000,"PART-1-1",           504,            1.,      -21.5625,            0.,NA,NA,"",   66.6894E-03,  -65.9689E-03,   9.77654E-03,   1.39145E-03
C:/temp/dataset/test2/15_6.odb,Step-1,Increment      1: Step Time =    1.000,"PART-1-1",           505,            2.,         -22.5,            0.,NA,NA,"",   64.6602E-03,  -63.2070E-03,   13.6317E-03,   2.56770E-03
C:/temp/dataset/test2/15_6.odb,Step-1,Increment      1: Step Time =    1.000,"PART-1-1",           506,           -1.,      -21.5625,            0.,NA,NA,"",   64.1022E-03,  -64.1019E-03,   169.772E-06,   991.349E-06
C:/temp/dataset/test2/15_6.odb,Step-1,Increment      1: Step Time =    1.000,"PART-1-1",           507,            0.,         -22.5,            0.,NA,NA,"",   59.6596E-03,  -59.4995E-03,   4.36720E-03,   1.79250E-03
C:/temp/dataset/test2/15_6.odb,Step-1,Increment      1: Step Time =    1.000,"PART-1-1",           508,           -3.,      -21.5625,            0.,NA,NA,"",   64.1161E-03,  -63.3414E-03,  -9.93706E-03,   559.170E-06
C:/temp/dataset/test2/15_6.odb,Step-1,Increment      1: Step Time =    1.000,"PART-1-1",           509,           -2.,         -22.5,            0.,NA,NA,"",   57.9181E-03,  -57.7145E-03,  -4.85256E-03,   1.18410E-03
C:/temp/dataset/test2/15_6.odb,Step-1,Increment      1: Step Time =    1.000,"PART-1-1",           510,           -5.,      -21.5625,            0.,NA,NA,"",   66.6172E-03,  -63.1275E-03,  -21.2782E-03,   247.464E-06
C:/temp/dataset/test2/15_6.odb,Step-1,Increment      1: Step Time =    1.000,"PART-1-1",           511,           -4.,         -22.5,            0.,NA,NA,"",   59.3847E-03,  -57.3551E-03,  -15.3925E-03,   444.939E-06
C:/temp/dataset/test2/15_6.odb,Step-1,Increment      1: Step Time =    1.000,"PART-1-1",           512,            3.,      -23.4375,            0.,NA,NA,"",   64.0025E-03,  -61.8105E-03,   16.6065E-03,   4.75794E-03
C:/temp/dataset/test2/15_6.odb,Step-1,Increment      1: Step Time =    1.000,"PART-1-1",           513,            4.,       -24.375,            0.,NA,NA,"",   63.9059E-03,  -60.9760E-03,   19.1284E-03,   6.06302E-03
C:/temp/dataset/test2/15_6.odb,Step-1,Increment      1: Step Time =    1.000,"PART-1-1",           514,            5.,      -23.4375,            0.,NA,NA,"",   75.3394E-03,  -71.0143E-03,   25.1592E-03,   4.96539E-03
C:/temp/dataset/test2/15_6.odb,Step-1,Increment      1: Step Time =    1.000,"PART-1-1",           515,            1.,      -23.4375,            0.,NA,NA,"",   55.9637E-03,  -55.4514E-03,   7.55538E-03,   3.19498E-03
C:/temp/dataset/test2/15_6.odb,Step-1,Increment      1: Step Time =    1.000,"PART-1-1",           516,            2.,       -24.375,            0.,NA,NA,"",   52.7424E-03,  -51.8672E-03,   9.56824E-03,   5.10627E-03
C:/temp/dataset/test2/15_6.odb,Step-1,Increment      1: Step Time =    1.000,"PART-1-1",           517,           -1.,      -23.4375,            0.,NA,NA,"",   52.0282E-03,  -52.0246E-03,  -611.915E-06,   2.29120E-03
C:/temp/dataset/test2/15_6.odb,Step-1,Increment      1: Step Time =    1.000,"PART-1-1",           518,            0.,       -24.375,            0.,NA,NA,"",   46.4628E-03,  -46.4001E-03,   2.41250E-03,   3.58051E-03
C:/temp/dataset/test2/15_6.odb,Step-1,Increment      1: Step Time =    1.000,"PART-1-1",           519,           -3.,      -23.4375,            0.,NA,NA,"",   51.8984E-03,  -50.9874E-03,  -9.68153E-03,   1.47274E-03
C:/temp/dataset/test2/15_6.odb,Step-1,Increment      1: Step Time =    1.000,"PART-1-1",           520,           -2.,       -24.375,            0.,NA,NA,"",   44.5045E-03,  -44.2403E-03,  -4.84247E-03,   2.46859E-03
C:/temp/dataset/test2/15_6.odb,Step-1,Increment      1: Step Time =    1.000,"PART-1-1",           521,           -5.,      -23.4375,            0.,NA,NA,"",   55.4546E-03,  -51.1249E-03,  -21.4816E-03,   337.325E-06
C:/temp/dataset/test2/15_6.odb,Step-1,Increment      1: Step Time =    1.000,"PART-1-1",           522,           -4.,       -24.375,            0.,NA,NA,"",   46.5580E-03,  -44.2163E-03,  -14.5795E-03,   1.24639E-03
C:/temp/dataset/test2/15_6.odb,Step-1,Increment      1: Step Time =    1.000,"PART-1-1",           523,            3.,      -25.3125,            0.,NA,NA,"",   48.4967E-03,  -47.2632E-03,   10.8683E-03,   6.74305E-03
C:/temp/dataset/test2/15_6.odb,Step-1,Increment      1: Step Time =    1.000,"PART-1-1",           524,            4.,        -26.25,            0.,NA,NA,"",   42.2106E-03,  -40.0857E-03,   13.2238E-03,   5.84619E-03
C:/temp/dataset/test2/15_6.odb,Step-1,Increment      1: Step Time =    1.000,"PART-1-1",           525,            5.,      -25.3125,            0.,NA,NA,"",   62.8327E-03,  -57.3995E-03,   25.5586E-03,   5.11403E-03
C:/temp/dataset/test2/15_6.odb,Step-1,Increment      1: Step Time =    1.000,"PART-1-1",           526,            1.,      -25.3125,            0.,NA,NA,"",   40.8194E-03,  -40.6145E-03,   4.08510E-03,   4.91054E-03
C:/temp/dataset/test2/15_6.odb,Step-1,Increment      1: Step Time =    1.000,"PART-1-1",           527,            2.,        -26.25,            0.,NA,NA,"",   34.2781E-03,  -33.9300E-03,   4.87257E-03,   6.08049E-03
C:/temp/dataset/test2/15_6.odb,Step-1,Increment      1: Step Time =    1.000,"PART-1-1",           528,           -1.,      -25.3125,            0.,NA,NA,"",   37.2875E-03,  -37.2614E-03,  -1.39640E-03,   3.74759E-03
C:/temp/dataset/test2/15_6.odb,Step-1,Increment      1: Step Time =    1.000,"PART-1-1",           529,            0.,        -26.25,            0.,NA,NA,"",   30.0986E-03,  -30.0939E-03,   530.727E-06,   4.94911E-03
C:/temp/dataset/test2/15_6.odb,Step-1,Increment      1: Step Time =    1.000,"PART-1-1",           530,           -3.,      -25.3125,            0.,NA,NA,"",   37.5925E-03,  -36.6162E-03,  -8.51195E-03,   2.74131E-03
C:/temp/dataset/test2/15_6.odb,Step-1,Increment      1: Step Time =    1.000,"PART-1-1",           531,           -2.,        -26.25,            0.,NA,NA,"",   28.9910E-03,  -28.7005E-03,  -4.09403E-03,   3.87816E-03
C:/temp/dataset/test2/15_6.odb,Step-1,Increment      1: Step Time =    1.000,"PART-1-1",           532,           -5.,      -25.3125,            0.,NA,NA,"",   42.6984E-03,  -37.6172E-03,  -20.2014E-03,   1.51669E-03
C:/temp/dataset/test2/15_6.odb,Step-1,Increment      1: Step Time =    1.000,"PART-1-1",           533,           -4.,        -26.25,            0.,NA,NA,"",   31.9957E-03,  -29.6059E-03,  -12.1332E-03,   2.55514E-03
C:/temp/dataset/test2/15_6.odb,Step-1,Increment      1: Step Time =    1.000,"PART-1-1",           534,            3.,      -27.1875,            0.,NA,NA,"",   26.2644E-03,  -25.6066E-03,   5.84129E-03,   6.16150E-03
C:/temp/dataset/test2/15_6.odb,Step-1,Increment      1: Step Time =    1.000,"PART-1-1",           535,            4.,       -28.125,            0.,NA,NA,"",   17.8967E-03,  -16.0798E-03,   7.85699E-03,   5.09187E-03
C:/temp/dataset/test2/15_6.odb,Step-1,Increment      1: Step Time =    1.000,"PART-1-1",           536,            5.,      -27.1875,            0.,NA,NA,"",   35.8836E-03,  -29.0502E-03,   21.0645E-03,   5.00045E-03
C:/temp/dataset/test2/15_6.odb,Step-1,Increment      1: Step Time =    1.000,"PART-1-1",           537,            1.,      -27.1875,            0.,NA,NA,"",   22.5819E-03,  -22.5389E-03,   1.39423E-03,   5.48778E-03
C:/temp/dataset/test2/15_6.odb,Step-1,Increment      1: Step Time =    1.000,"PART-1-1",           538,            2.,       -28.125,            0.,NA,NA,"",   14.4900E-03,  -14.3870E-03,   1.72433E-03,   5.51096E-03
C:/temp/dataset/test2/15_6.odb,Step-1,Increment      1: Step Time =    1.000,"PART-1-1",           539,           -1.,      -27.1875,            0.,NA,NA,"",   20.9171E-03,  -20.8670E-03,  -1.44687E-03,   4.67009E-03
C:/temp/dataset/test2/15_6.odb,Step-1,Increment      1: Step Time =    1.000,"PART-1-1",           540,            0.,       -28.125,            0.,NA,NA,"",   13.2792E-03,  -13.2774E-03,  -217.627E-06,   4.96498E-03
C:/temp/dataset/test2/15_6.odb,Step-1,Increment      1: Step Time =    1.000,"PART-1-1",           541,           -3.,      -27.1875,            0.,NA,NA,"",   21.7120E-03,  -20.8971E-03,  -5.89226E-03,   4.18795E-03
C:/temp/dataset/test2/15_6.odb,Step-1,Increment      1: Step Time =    1.000,"PART-1-1",           542,           -2.,       -28.125,            0.,NA,NA,"",   13.0446E-03,  -12.8570E-03,  -2.20473E-03,   4.66030E-03
C:/temp/dataset/test2/15_6.odb,Step-1,Increment      1: Step Time =    1.000,"PART-1-1",           543,           -5.,      -27.1875,            0.,NA,NA,"",   28.5913E-03,  -23.3655E-03,  -16.4777E-03,   3.73856E-03
C:/temp/dataset/test2/15_6.odb,Step-1,Increment      1: Step Time =    1.000,"PART-1-1",           544,           -4.,       -28.125,            0.,NA,NA,"",   15.4091E-03,  -13.8340E-03,  -6.78663E-03,   4.48790E-03
C:/temp/dataset/test2/15_6.odb,Step-1,Increment      1: Step Time =    1.000,"PART-1-1",           545,            3.,      -29.0625,            0.,NA,NA,"",   6.35220E-03,  -6.07378E-03,   1.86001E-03,   4.75179E-03
C:/temp/dataset/test2/15_6.odb,Step-1,Increment      1: Step Time =    1.000,"PART-1-1",           546,            4.,          -30.,            0.,NA,NA,"",            0.,  -726.526E-42,   7.43744E-39,   7.62857E-03
C:/temp/dataset/test2/15_6.odb,Step-1,Increment      1: Step Time =    1.000,"PART-1-1",           547,            5.,      -29.0625,            0.,NA,NA,"",   12.8993E-03,  -9.70194E-03,   8.50077E-03,   9.21426E-03
C:/temp/dataset/test2/15_6.odb,Step-1,Increment      1: Step Time =    1.000,"PART-1-1",           548,            1.,      -29.0625,            0.,NA,NA,"",   6.16500E-03,  -6.15860E-03,   280.992E-06,   4.50150E-03
C:/temp/dataset/test2/15_6.odb,Step-1,Increment      1: Step Time =    1.000,"PART-1-1",           549,            2.,          -30.,            0.,NA,NA,"",            0.,  -2.70460E-39,   2.10326E-39,   3.65140E-03
C:/temp/dataset/test2/15_6.odb,Step-1,Increment      1: Step Time =    1.000,"PART-1-1",           550,           -1.,      -29.0625,            0.,NA,NA,"",   5.91774E-03,  -5.88236E-03,  -646.084E-06,   4.24424E-03
C:/temp/dataset/test2/15_6.odb,Step-1,Increment      1: Step Time =    1.000,"PART-1-1",           551,            0.,          -30.,            0.,NA,NA,"",            0.,  -2.85790E-39,  -473.168E-42,   3.69116E-03
C:/temp/dataset/test2/15_6.odb,Step-1,Increment      1: Step Time =    1.000,"PART-1-1",           552,           -3.,      -29.0625,            0.,NA,NA,"",   5.93899E-03,  -5.61138E-03,  -1.94526E-03,   4.48575E-03
C:/temp/dataset/test2/15_6.odb,Step-1,Increment      1: Step Time =    1.000,"PART-1-1",           553,           -2.,          -30.,            0.,NA,NA,"",            0.,  -2.66231E-39,  -2.72676E-39,   3.75952E-03
C:/temp/dataset/test2/15_6.odb,Step-1,Increment      1: Step Time =    1.000,"PART-1-1",           554,           -5.,      -29.0625,            0.,NA,NA,"",   11.1070E-03,  -8.52747E-03,  -7.11673E-03,   7.56276E-03
C:/temp/dataset/test2/15_6.odb,Step-1,Increment      1: Step Time =    1.000,"PART-1-1",           555,           -4.,          -30.,            0.,NA,NA,"",            0.,  -982.128E-42,  -6.63405E-39,   6.88183E-03
