ODB Name,Step,Frame,Part Instance Name,    êﬂì_ÉâÉxÉã,X,Y,Z,Section Name,Material Name,Section Point,   U-Magnitude,          U-U1,          U-U2,       S-Mises
C:/temp/dataset/test2/15_7.odb,Step-1,Increment      1: Step Time =    1.000,"PART-1-1",             1,            5.,           30.,            0.,NA,NA,"",   369.666E-03,  -368.187E-03,   33.0406E-03,   3.32145E-12
C:/temp/dataset/test2/15_7.odb,Step-1,Increment      1: Step Time =    1.000,"PART-1-1",             2,            3.,           30.,            0.,NA,NA,"",   368.795E-03,  -368.155E-03,   21.7207E-03,   2.91498E-12
C:/temp/dataset/test2/15_7.odb,Step-1,Increment      1: Step Time =    1.000,"PART-1-1",             3,            1.,           30.,            0.,NA,NA,"",   368.270E-03,  -368.123E-03,   10.4007E-03,   2.69105E-12
C:/temp/dataset/test2/15_7.odb,Step-1,Increment      1: Step Time =    1.000,"PART-1-1",             4,           -1.,           30.,            0.,NA,NA,"",   368.092E-03,  -368.091E-03,  -919.289E-06,   2.69086E-12
C:/temp/dataset/test2/15_7.odb,Step-1,Increment      1: Step Time =    1.000,"PART-1-1",             5,           -3.,           30.,            0.,NA,NA,"",   368.262E-03,  -368.059E-03,  -12.2393E-03,   2.90946E-12
C:/temp/dataset/test2/15_7.odb,Step-1,Increment      1: Step Time =    1.000,"PART-1-1",             6,           -5.,           30.,            0.,NA,NA,"",   368.780E-03,  -368.027E-03,  -23.5592E-03,   3.32082E-12
C:/temp/dataset/test2/15_7.odb,Step-1,Increment      1: Step Time =    1.000,"PART-1-1",             7,            5.,        28.125,            0.,NA,NA,"",   359.101E-03,  -357.574E-03,   33.0707E-03,   2.97049E-12
C:/temp/dataset/test2/15_7.odb,Step-1,Increment      1: Step Time =    1.000,"PART-1-1",             8,            3.,        28.125,            0.,NA,NA,"",   358.203E-03,  -357.542E-03,   21.7507E-03,   3.32423E-12
C:/temp/dataset/test2/15_7.odb,Step-1,Increment      1: Step Time =    1.000,"PART-1-1",             9,            1.,        28.125,            0.,NA,NA,"",   357.663E-03,  -357.510E-03,   10.4307E-03,   3.33462E-12
C:/temp/dataset/test2/15_7.odb,Step-1,Increment      1: Step Time =    1.000,"PART-1-1",            10,           -1.,        28.125,            0.,NA,NA,"",   357.479E-03,  -357.478E-03,  -889.255E-06,   3.33054E-12
C:/temp/dataset/test2/15_7.odb,Step-1,Increment      1: Step Time =    1.000,"PART-1-1",            11,           -3.,        28.125,            0.,NA,NA,"",   357.655E-03,  -357.446E-03,  -12.2092E-03,   3.32165E-12
C:/temp/dataset/test2/15_7.odb,Step-1,Increment      1: Step Time =    1.000,"PART-1-1",            12,           -5.,        28.125,            0.,NA,NA,"",   358.188E-03,  -357.414E-03,  -23.5292E-03,   2.97745E-12
C:/temp/dataset/test2/15_7.odb,Step-1,Increment      1: Step Time =    1.000,"PART-1-1",            13,            5.,         26.25,            0.,NA,NA,"",   348.537E-03,  -346.962E-03,   33.1007E-03,   3.09141E-12
C:/temp/dataset/test2/15_7.odb,Step-1,Increment      1: Step Time =    1.000,"PART-1-1",            14,            3.,         26.25,            0.,NA,NA,"",   347.613E-03,  -346.930E-03,   21.7807E-03,   4.25205E-12
C:/temp/dataset/test2/15_7.odb,Step-1,Increment      1: Step Time =    1.000,"PART-1-1",            15,            1.,         26.25,            0.,NA,NA,"",   347.056E-03,  -346.898E-03,   10.4607E-03,   4.61101E-12
C:/temp/dataset/test2/15_7.odb,Step-1,Increment      1: Step Time =    1.000,"PART-1-1",            16,           -1.,         26.25,            0.,NA,NA,"",   346.867E-03,  -346.866E-03,  -859.222E-06,   4.60816E-12
C:/temp/dataset/test2/15_7.odb,Step-1,Increment      1: Step Time =    1.000,"PART-1-1",            17,           -3.,         26.25,            0.,NA,NA,"",   347.048E-03,  -346.834E-03,  -12.1792E-03,   4.25081E-12
C:/temp/dataset/test2/15_7.odb,Step-1,Increment      1: Step Time =    1.000,"PART-1-1",            18,           -5.,         26.25,            0.,NA,NA,"",   347.597E-03,  -346.802E-03,  -23.4992E-03,   3.08462E-12
C:/temp/dataset/test2/15_7.odb,Step-1,Increment      1: Step Time =    1.000,"PART-1-1",            19,            5.,        24.375,            0.,NA,NA,"",   337.977E-03,  -336.350E-03,   33.1307E-03,   5.88253E-12
C:/temp/dataset/test2/15_7.odb,Step-1,Increment      1: Step Time =    1.000,"PART-1-1",            20,            3.,        24.375,            0.,NA,NA,"",   337.024E-03,  -336.318E-03,   21.8108E-03,   5.24043E-12
C:/temp/dataset/test2/15_7.odb,Step-1,Increment      1: Step Time =    1.000,"PART-1-1",            21,            1.,        24.375,            0.,NA,NA,"",   336.449E-03,  -336.285E-03,   10.4908E-03,   6.13850E-12
C:/temp/dataset/test2/15_7.odb,Step-1,Increment      1: Step Time =    1.000,"PART-1-1",            22,           -1.,        24.375,            0.,NA,NA,"",   336.254E-03,  -336.253E-03,  -829.188E-06,   6.13911E-12
C:/temp/dataset/test2/15_7.odb,Step-1,Increment      1: Step Time =    1.000,"PART-1-1",            23,           -3.,        24.375,            0.,NA,NA,"",   336.441E-03,  -336.221E-03,  -12.1492E-03,   5.23944E-12
C:/temp/dataset/test2/15_7.odb,Step-1,Increment      1: Step Time =    1.000,"PART-1-1",            24,           -5.,        24.375,            0.,NA,NA,"",   337.008E-03,  -336.189E-03,  -23.4691E-03,   5.85812E-12
C:/temp/dataset/test2/15_7.odb,Step-1,Increment      1: Step Time =    1.000,"PART-1-1",            25,            5.,          22.5,            0.,NA,NA,"",   327.421E-03,  -325.737E-03,   33.1608E-03,   10.4240E-12
C:/temp/dataset/test2/15_7.odb,Step-1,Increment      1: Step Time =    1.000,"PART-1-1",            26,            3.,          22.5,            0.,NA,NA,"",   326.436E-03,  -325.705E-03,   21.8408E-03,   5.03654E-12
C:/temp/dataset/test2/15_7.odb,Step-1,Increment      1: Step Time =    1.000,"PART-1-1",            27,            1.,          22.5,            0.,NA,NA,"",   325.843E-03,  -325.673E-03,   10.5208E-03,   8.24081E-12
C:/temp/dataset/test2/15_7.odb,Step-1,Increment      1: Step Time =    1.000,"PART-1-1",            28,           -1.,          22.5,            0.,NA,NA,"",   325.642E-03,  -325.641E-03,  -799.155E-06,   8.24484E-12
C:/temp/dataset/test2/15_7.odb,Step-1,Increment      1: Step Time =    1.000,"PART-1-1",            29,           -3.,          22.5,            0.,NA,NA,"",   325.834E-03,  -325.609E-03,  -12.1191E-03,   5.04127E-12
C:/temp/dataset/test2/15_7.odb,Step-1,Increment      1: Step Time =    1.000,"PART-1-1",            30,           -5.,          22.5,            0.,NA,NA,"",   326.420E-03,  -325.577E-03,  -23.4391E-03,   10.3880E-12
C:/temp/dataset/test2/15_7.odb,Step-1,Increment      1: Step Time =    1.000,"PART-1-1",            31,            5.,        20.625,            0.,NA,NA,"",   316.868E-03,  -315.125E-03,   33.1908E-03,   11.9068E-12
C:/temp/dataset/test2/15_7.odb,Step-1,Increment      1: Step Time =    1.000,"PART-1-1",            32,            3.,        20.625,            0.,NA,NA,"",   315.851E-03,  -315.093E-03,   21.8708E-03,   14.6400E-12
C:/temp/dataset/test2/15_7.odb,Step-1,Increment      1: Step Time =    1.000,"PART-1-1",            33,            1.,        20.625,            0.,NA,NA,"",   315.237E-03,  -315.061E-03,   10.5508E-03,   24.5251E-12
C:/temp/dataset/test2/15_7.odb,Step-1,Increment      1: Step Time =    1.000,"PART-1-1",            34,           -1.,        20.625,            0.,NA,NA,"",   315.029E-03,  -315.028E-03,  -769.121E-06,   24.5278E-12
C:/temp/dataset/test2/15_7.odb,Step-1,Increment      1: Step Time =    1.000,"PART-1-1",            35,           -3.,        20.625,            0.,NA,NA,"",   315.228E-03,  -314.996E-03,  -12.0891E-03,   14.6517E-12
C:/temp/dataset/test2/15_7.odb,Step-1,Increment      1: Step Time =    1.000,"PART-1-1",            36,           -5.,        20.625,            0.,NA,NA,"",   315.833E-03,  -314.964E-03,  -23.4091E-03,   11.8605E-12
C:/temp/dataset/test2/15_7.odb,Step-1,Increment      1: Step Time =    1.000,"PART-1-1",            37,            5.,         18.75,            0.,NA,NA,"",   306.319E-03,  -304.512E-03,   33.2208E-03,   6.05852E-12
C:/temp/dataset/test2/15_7.odb,Step-1,Increment      1: Step Time =    1.000,"PART-1-1",            38,            3.,         18.75,            0.,NA,NA,"",   305.267E-03,  -304.480E-03,   21.9009E-03,   60.0764E-12
C:/temp/dataset/test2/15_7.odb,Step-1,Increment      1: Step Time =    1.000,"PART-1-1",            39,            1.,         18.75,            0.,NA,NA,"",   304.632E-03,  -304.448E-03,   10.5809E-03,   81.3094E-12
C:/temp/dataset/test2/15_7.odb,Step-1,Increment      1: Step Time =    1.000,"PART-1-1",            40,           -1.,         18.75,            0.,NA,NA,"",   304.417E-03,  -304.416E-03,  -739.088E-06,   81.3093E-12
C:/temp/dataset/test2/15_7.odb,Step-1,Increment      1: Step Time =    1.000,"PART-1-1",            41,           -3.,         18.75,            0.,NA,NA,"",   304.623E-03,  -304.384E-03,  -12.0591E-03,   60.0870E-12
C:/temp/dataset/test2/15_7.odb,Step-1,Increment      1: Step Time =    1.000,"PART-1-1",            42,           -5.,         18.75,            0.,NA,NA,"",   305.249E-03,  -304.352E-03,  -23.3790E-03,   6.09397E-12
C:/temp/dataset/test2/15_7.odb,Step-1,Increment      1: Step Time =    1.000,"PART-1-1",            43,            5.,        16.875,            0.,NA,NA,"",   295.775E-03,  -293.900E-03,   33.2509E-03,   81.0427E-12
C:/temp/dataset/test2/15_7.odb,Step-1,Increment      1: Step Time =    1.000,"PART-1-1",            44,            3.,        16.875,            0.,NA,NA,"",   294.685E-03,  -293.868E-03,   21.9309E-03,   177.089E-12
C:/temp/dataset/test2/15_7.odb,Step-1,Increment      1: Step Time =    1.000,"PART-1-1",            45,            1.,        16.875,            0.,NA,NA,"",   294.027E-03,  -293.836E-03,   10.6109E-03,   218.813E-12
C:/temp/dataset/test2/15_7.odb,Step-1,Increment      1: Step Time =    1.000,"PART-1-1",            46,           -1.,        16.875,            0.,NA,NA,"",   293.804E-03,  -293.804E-03,  -709.054E-06,   218.810E-12
C:/temp/dataset/test2/15_7.odb,Step-1,Increment      1: Step Time =    1.000,"PART-1-1",            47,           -3.,        16.875,            0.,NA,NA,"",   294.018E-03,  -293.772E-03,  -12.0290E-03,   177.100E-12
C:/temp/dataset/test2/15_7.odb,Step-1,Increment      1: Step Time =    1.000,"PART-1-1",            48,           -5.,        16.875,            0.,NA,NA,"",   294.666E-03,  -293.739E-03,  -23.3490E-03,   81.1077E-12
C:/temp/dataset/test2/15_7.odb,Step-1,Increment      1: Step Time =    1.000,"PART-1-1",            49,            5.,           15.,            0.,NA,NA,"",   285.235E-03,  -283.287E-03,   33.2809E-03,   302.954E-12
C:/temp/dataset/test2/15_7.odb,Step-1,Increment      1: Step Time =    1.000,"PART-1-1",            50,            3.,           15.,            0.,NA,NA,"",   284.105E-03,  -283.255E-03,   21.9609E-03,   423.816E-12
C:/temp/dataset/test2/15_7.odb,Step-1,Increment      1: Step Time =    1.000,"PART-1-1",            51,            1.,           15.,            0.,NA,NA,"",   283.423E-03,  -283.223E-03,   10.6409E-03,   493.417E-12
C:/temp/dataset/test2/15_7.odb,Step-1,Increment      1: Step Time =    1.000,"PART-1-1",            52,           -1.,           15.,            0.,NA,NA,"",   283.192E-03,  -283.191E-03,  -679.020E-06,   493.412E-12
C:/temp/dataset/test2/15_7.odb,Step-1,Increment      1: Step Time =    1.000,"PART-1-1",            53,           -3.,           15.,            0.,NA,NA,"",   283.413E-03,  -283.159E-03,  -11.9990E-03,   423.827E-12
C:/temp/dataset/test2/15_7.odb,Step-1,Increment      1: Step Time =    1.000,"PART-1-1",            54,           -5.,           15.,            0.,NA,NA,"",   284.086E-03,  -283.127E-03,  -23.3190E-03,   303.030E-12
C:/temp/dataset/test2/15_7.odb,Step-1,Increment      1: Step Time =    1.000,"PART-1-1",            55,            5.,        13.125,            0.,NA,NA,"",   274.702E-03,  -272.675E-03,   33.3109E-03,   827.541E-12
C:/temp/dataset/test2/15_7.odb,Step-1,Increment      1: Step Time =    1.000,"PART-1-1",            56,            3.,        13.125,            0.,NA,NA,"",   273.528E-03,  -272.643E-03,   21.9910E-03,   847.388E-12
C:/temp/dataset/test2/15_7.odb,Step-1,Increment      1: Step Time =    1.000,"PART-1-1",            57,            1.,        13.125,            0.,NA,NA,"",   272.819E-03,  -272.611E-03,   10.6710E-03,   934.320E-12
C:/temp/dataset/test2/15_7.odb,Step-1,Increment      1: Step Time =    1.000,"PART-1-1",            58,           -1.,        13.125,            0.,NA,NA,"",   272.579E-03,  -272.579E-03,  -648.986E-06,   934.312E-12
C:/temp/dataset/test2/15_7.odb,Step-1,Increment      1: Step Time =    1.000,"PART-1-1",            59,           -3.,        13.125,            0.,NA,NA,"",   272.809E-03,  -272.547E-03,  -11.9690E-03,   847.398E-12
C:/temp/dataset/test2/15_7.odb,Step-1,Increment      1: Step Time =    1.000,"PART-1-1",            60,           -5.,        13.125,            0.,NA,NA,"",   273.508E-03,  -272.515E-03,  -23.2889E-03,   827.629E-12
C:/temp/dataset/test2/15_7.odb,Step-1,Increment      1: Step Time =    1.000,"PART-1-1",            61,            5.,         11.25,            0.,NA,NA,"",   264.175E-03,  -262.062E-03,   33.3410E-03,   1.85885E-09
C:/temp/dataset/test2/15_7.odb,Step-1,Increment      1: Step Time =    1.000,"PART-1-1",            62,            3.,         11.25,            0.,NA,NA,"",   262.954E-03,  -262.030E-03,   22.0210E-03,   1.35526E-09
C:/temp/dataset/test2/15_7.odb,Step-1,Increment      1: Step Time =    1.000,"PART-1-1",            63,            1.,         11.25,            0.,NA,NA,"",   262.217E-03,  -261.998E-03,   10.7010E-03,   1.40442E-09
C:/temp/dataset/test2/15_7.odb,Step-1,Increment      1: Step Time =    1.000,"PART-1-1",            64,           -1.,         11.25,            0.,NA,NA,"",   261.967E-03,  -261.966E-03,  -618.951E-06,   1.40439E-09
C:/temp/dataset/test2/15_7.odb,Step-1,Increment      1: Step Time =    1.000,"PART-1-1",            65,           -3.,         11.25,            0.,NA,NA,"",   262.206E-03,  -261.934E-03,  -11.9389E-03,   1.35525E-09
C:/temp/dataset/test2/15_7.odb,Step-1,Increment      1: Step Time =    1.000,"PART-1-1",            66,           -5.,         11.25,            0.,NA,NA,"",   262.933E-03,  -261.902E-03,  -23.2589E-03,   1.85895E-09
C:/temp/dataset/test2/15_7.odb,Step-1,Increment      1: Step Time =    1.000,"PART-1-1",            67,            5.,         9.375,            0.,NA,NA,"",   253.655E-03,  -251.450E-03,   33.3710E-03,   3.45771E-09
C:/temp/dataset/test2/15_7.odb,Step-1,Increment      1: Step Time =    1.000,"PART-1-1",            68,            3.,         9.375,            0.,NA,NA,"",   252.383E-03,  -251.418E-03,   22.0510E-03,   1.37720E-09
C:/temp/dataset/test2/15_7.odb,Step-1,Increment      1: Step Time =    1.000,"PART-1-1",            69,            1.,         9.375,            0.,NA,NA,"",   251.615E-03,  -251.386E-03,   10.7311E-03,   1.50142E-09
C:/temp/dataset/test2/15_7.odb,Step-1,Increment      1: Step Time =    1.000,"PART-1-1",            70,           -1.,         9.375,            0.,NA,NA,"",   251.354E-03,  -251.354E-03,  -588.916E-06,   1.50136E-09
C:/temp/dataset/test2/15_7.odb,Step-1,Increment      1: Step Time =    1.000,"PART-1-1",            71,           -3.,         9.375,            0.,NA,NA,"",   251.604E-03,  -251.322E-03,  -11.9089E-03,   1.37709E-09
C:/temp/dataset/test2/15_7.odb,Step-1,Increment      1: Step Time =    1.000,"PART-1-1",            72,           -5.,         9.375,            0.,NA,NA,"",   252.361E-03,  -251.290E-03,  -23.2289E-03,   3.45773E-09
C:/temp/dataset/test2/15_7.odb,Step-1,Increment      1: Step Time =    1.000,"PART-1-1",            73,            5.,           7.5,            0.,NA,NA,"",   243.142E-03,  -240.837E-03,   33.4010E-03,   4.88098E-09
C:/temp/dataset/test2/15_7.odb,Step-1,Increment      1: Step Time =    1.000,"PART-1-1",            74,            3.,           7.5,            0.,NA,NA,"",   241.816E-03,  -240.805E-03,   22.0811E-03,   1.70261E-09
C:/temp/dataset/test2/15_7.odb,Step-1,Increment      1: Step Time =    1.000,"PART-1-1",            75,            1.,           7.5,            0.,NA,NA,"",   241.014E-03,  -240.773E-03,   10.7611E-03,   4.15609E-09
C:/temp/dataset/test2/15_7.odb,Step-1,Increment      1: Step Time =    1.000,"PART-1-1",            76,           -1.,           7.5,            0.,NA,NA,"",   240.742E-03,  -240.741E-03,  -558.882E-06,   4.15626E-09
C:/temp/dataset/test2/15_7.odb,Step-1,Increment      1: Step Time =    1.000,"PART-1-1",            77,           -3.,           7.5,            0.,NA,NA,"",   241.002E-03,  -240.709E-03,  -11.8789E-03,   1.70319E-09
C:/temp/dataset/test2/15_7.odb,Step-1,Increment      1: Step Time =    1.000,"PART-1-1",            78,           -5.,           7.5,            0.,NA,NA,"",   241.793E-03,  -240.677E-03,  -23.1988E-03,   4.88064E-09
C:/temp/dataset/test2/15_7.odb,Step-1,Increment      1: Step Time =    1.000,"PART-1-1",            79,            5.,         5.625,            0.,NA,NA,"",   232.639E-03,  -230.225E-03,   33.4310E-03,   2.93208E-09
C:/temp/dataset/test2/15_7.odb,Step-1,Increment      1: Step Time =    1.000,"PART-1-1",            80,            3.,         5.625,            0.,NA,NA,"",   231.252E-03,  -230.193E-03,   22.1111E-03,   11.7662E-09
C:/temp/dataset/test2/15_7.odb,Step-1,Increment      1: Step Time =    1.000,"PART-1-1",            81,            1.,         5.625,            0.,NA,NA,"",   230.414E-03,  -230.161E-03,   10.7911E-03,   17.2404E-09
C:/temp/dataset/test2/15_7.odb,Step-1,Increment      1: Step Time =    1.000,"PART-1-1",            82,           -1.,         5.625,            0.,NA,NA,"",   230.129E-03,  -230.129E-03,  -528.857E-06,   17.2409E-09
C:/temp/dataset/test2/15_7.odb,Step-1,Increment      1: Step Time =    1.000,"PART-1-1",            83,           -3.,         5.625,            0.,NA,NA,"",   230.402E-03,  -230.097E-03,  -11.8488E-03,   11.7684E-09
C:/temp/dataset/test2/15_7.odb,Step-1,Increment      1: Step Time =    1.000,"PART-1-1",            84,           -5.,         5.625,            0.,NA,NA,"",   231.228E-03,  -230.065E-03,  -23.1688E-03,   2.93002E-09
C:/temp/dataset/test2/15_7.odb,Step-1,Increment      1: Step Time =    1.000,"PART-1-1",            85,            5.,          3.75,            0.,NA,NA,"",   222.147E-03,  -219.612E-03,   33.4611E-03,   12.6798E-09
C:/temp/dataset/test2/15_7.odb,Step-1,Increment      1: Step Time =    1.000,"PART-1-1",            86,            3.,          3.75,            0.,NA,NA,"",   220.694E-03,  -219.580E-03,   22.1411E-03,   40.3438E-09
C:/temp/dataset/test2/15_7.odb,Step-1,Increment      1: Step Time =    1.000,"PART-1-1",            87,            1.,          3.75,            0.,NA,NA,"",   219.815E-03,  -219.548E-03,   10.8211E-03,   51.7087E-09
C:/temp/dataset/test2/15_7.odb,Step-1,Increment      1: Step Time =    1.000,"PART-1-1",            88,           -1.,          3.75,            0.,NA,NA,"",   219.517E-03,  -219.516E-03,  -498.858E-06,   51.7097E-09
C:/temp/dataset/test2/15_7.odb,Step-1,Increment      1: Step Time =    1.000,"PART-1-1",            89,           -3.,          3.75,            0.,NA,NA,"",   219.802E-03,  -219.484E-03,  -11.8188E-03,   40.3497E-09
C:/temp/dataset/test2/15_7.odb,Step-1,Increment      1: Step Time =    1.000,"PART-1-1",            90,           -5.,          3.75,            0.,NA,NA,"",   220.669E-03,  -219.452E-03,  -23.1388E-03,   12.6873E-09
C:/temp/dataset/test2/15_7.odb,Step-1,Increment      1: Step Time =    1.000,"PART-1-1",            91,            5.,         1.875,            0.,NA,NA,"",   211.666E-03,  -209.000E-03,   33.4912E-03,   63.7708E-09
C:/temp/dataset/test2/15_7.odb,Step-1,Increment      1: Step Time =    1.000,"PART-1-1",            92,            3.,         1.875,            0.,NA,NA,"",   210.141E-03,  -208.968E-03,   22.1712E-03,   105.480E-09
C:/temp/dataset/test2/15_7.odb,Step-1,Increment      1: Step Time =    1.000,"PART-1-1",            93,            1.,         1.875,            0.,NA,NA,"",   209.217E-03,  -208.936E-03,   10.8510E-03,   126.031E-09
C:/temp/dataset/test2/15_7.odb,Step-1,Increment      1: Step Time =    1.000,"PART-1-1",            94,           -1.,         1.875,            0.,NA,NA,"",   208.904E-03,  -208.904E-03,  -468.921E-06,   126.023E-09
C:/temp/dataset/test2/15_7.odb,Step-1,Increment      1: Step Time =    1.000,"PART-1-1",            95,           -3.,         1.875,            0.,NA,NA,"",   209.204E-03,  -208.872E-03,  -11.7888E-03,   105.476E-09
C:/temp/dataset/test2/15_7.odb,Step-1,Increment      1: Step Time =    1.000,"PART-1-1",            96,           -5.,         1.875,            0.,NA,NA,"",   210.114E-03,  -208.840E-03,  -23.1087E-03,   63.7970E-09
C:/temp/dataset/test2/15_7.odb,Step-1,Increment      1: Step Time =    1.000,"PART-1-1",            97,            5.,            0.,            0.,NA,NA,"",   201.200E-03,  -198.388E-03,   33.5214E-03,   195.411E-09
C:/temp/dataset/test2/15_7.odb,Step-1,Increment      1: Step Time =    1.000,"PART-1-1",            98,            3.,            0.,            0.,NA,NA,"",   199.594E-03,  -198.356E-03,   22.2012E-03,   228.626E-09
C:/temp/dataset/test2/15_7.odb,Step-1,Increment      1: Step Time =    1.000,"PART-1-1",            99,            1.,            0.,            0.,NA,NA,"",   198.622E-03,  -198.324E-03,   10.8809E-03,   258.453E-09
C:/temp/dataset/test2/15_7.odb,Step-1,Increment      1: Step Time =    1.000,"PART-1-1",           100,           -1.,            0.,            0.,NA,NA,"",   198.292E-03,  -198.291E-03,  -439.114E-06,   258.394E-09
C:/temp/dataset/test2/15_7.odb,Step-1,Increment      1: Step Time =    1.000,"PART-1-1",           101,           -3.,            0.,            0.,NA,NA,"",   198.607E-03,  -198.259E-03,  -11.7587E-03,   228.534E-09
C:/temp/dataset/test2/15_7.odb,Step-1,Increment      1: Step Time =    1.000,"PART-1-1",           102,           -5.,            0.,            0.,NA,NA,"",   199.566E-03,  -198.227E-03,  -23.0785E-03,   195.420E-09
C:/temp/dataset/test2/15_7.odb,Step-1,Increment      1: Step Time =    1.000,"PART-1-1",           103,            5.,        -1.875,            0.,NA,NA,"",   190.749E-03,  -187.775E-03,   33.5519E-03,   476.302E-09
C:/temp/dataset/test2/15_7.odb,Step-1,Increment      1: Step Time =    1.000,"PART-1-1",           104,            3.,        -1.875,            0.,NA,NA,"",   189.055E-03,  -187.743E-03,   22.2313E-03,   408.082E-09
C:/temp/dataset/test2/15_7.odb,Step-1,Increment      1: Step Time =    1.000,"PART-1-1",           105,            1.,        -1.875,            0.,NA,NA,"",   188.028E-03,  -187.711E-03,   10.9105E-03,   435.128E-09
C:/temp/dataset/test2/15_7.odb,Step-1,Increment      1: Step Time =    1.000,"PART-1-1",           106,           -1.,        -1.875,            0.,NA,NA,"",   187.679E-03,  -187.679E-03,  -409.515E-06,   434.792E-09
C:/temp/dataset/test2/15_7.odb,Step-1,Increment      1: Step Time =    1.000,"PART-1-1",           107,           -3.,        -1.875,            0.,NA,NA,"",   188.012E-03,  -187.646E-03,  -11.7286E-03,   407.405E-09
C:/temp/dataset/test2/15_7.odb,Step-1,Increment      1: Step Time =    1.000,"PART-1-1",           108,           -5.,        -1.875,            0.,NA,NA,"",   189.025E-03,  -187.614E-03,  -23.0479E-03,   476.048E-09
C:/temp/dataset/test2/15_7.odb,Step-1,Increment      1: Step Time =    1.000,"PART-1-1",           109,            5.,         -3.75,            0.,NA,NA,"",   180.317E-03,  -177.162E-03,   33.5831E-03,   966.610E-09
C:/temp/dataset/test2/15_7.odb,Step-1,Increment      1: Step Time =    1.000,"PART-1-1",           110,            3.,         -3.75,            0.,NA,NA,"",   178.524E-03,  -177.131E-03,   22.2613E-03,   535.845E-09
C:/temp/dataset/test2/15_7.odb,Step-1,Increment      1: Step Time =    1.000,"PART-1-1",           111,            1.,         -3.75,            0.,NA,NA,"",   177.436E-03,  -177.099E-03,   10.9398E-03,   541.120E-09
C:/temp/dataset/test2/15_7.odb,Step-1,Increment      1: Step Time =    1.000,"PART-1-1",           112,           -1.,         -3.75,            0.,NA,NA,"",   177.067E-03,  -177.066E-03,  -380.133E-06,   539.716E-09
C:/temp/dataset/test2/15_7.odb,Step-1,Increment      1: Step Time =    1.000,"PART-1-1",           113,           -3.,         -3.75,            0.,NA,NA,"",   177.420E-03,  -177.034E-03,  -11.6986E-03,   532.848E-09
C:/temp/dataset/test2/15_7.odb,Step-1,Increment      1: Step Time =    1.000,"PART-1-1",           114,           -5.,         -3.75,            0.,NA,NA,"",   178.493E-03,  -177.002E-03,  -23.0167E-03,   964.385E-09
C:/temp/dataset/test2/15_7.odb,Step-1,Increment      1: Step Time =    1.000,"PART-1-1",           115,            5.,        -5.625,            0.,NA,NA,"",   169.906E-03,  -166.548E-03,   33.6154E-03,   1.57562E-06
C:/temp/dataset/test2/15_7.odb,Step-1,Increment      1: Step Time =    1.000,"PART-1-1",           116,            3.,        -5.625,            0.,NA,NA,"",   168.002E-03,  -166.517E-03,   22.2914E-03,   312.077E-09
C:/temp/dataset/test2/15_7.odb,Step-1,Increment      1: Step Time =    1.000,"PART-1-1",           117,            1.,        -5.625,            0.,NA,NA,"",   166.846E-03,  -166.485E-03,   10.9694E-03,   759.632E-09
C:/temp/dataset/test2/15_7.odb,Step-1,Increment      1: Step Time =    1.000,"PART-1-1",           118,           -1.,        -5.625,            0.,NA,NA,"",   166.455E-03,  -166.455E-03,  -350.601E-06,   758.251E-09
C:/temp/dataset/test2/15_7.odb,Step-1,Increment      1: Step Time =    1.000,"PART-1-1",           119,           -3.,        -5.625,            0.,NA,NA,"",   166.832E-03,  -166.423E-03,  -11.6685E-03,   308.355E-09
C:/temp/dataset/test2/15_7.odb,Step-1,Increment      1: Step Time =    1.000,"PART-1-1",           120,           -5.,        -5.625,            0.,NA,NA,"",   167.972E-03,  -166.392E-03,  -22.9845E-03,   1.56455E-06
C:/temp/dataset/test2/15_7.odb,Step-1,Increment      1: Step Time =    1.000,"PART-1-1",           121,            5.,          -7.5,            0.,NA,NA,"",   159.519E-03,  -155.929E-03,   33.6485E-03,   1.65057E-06
C:/temp/dataset/test2/15_7.odb,Step-1,Increment      1: Step Time =    1.000,"PART-1-1",           122,            3.,          -7.5,            0.,NA,NA,"",   157.488E-03,  -155.898E-03,   22.3215E-03,   2.08322E-06
C:/temp/dataset/test2/15_7.odb,Step-1,Increment      1: Step Time =    1.000,"PART-1-1",           123,            1.,          -7.5,            0.,NA,NA,"",   156.258E-03,  -155.870E-03,   11.0005E-03,   3.47962E-06
C:/temp/dataset/test2/15_7.odb,Step-1,Increment      1: Step Time =    1.000,"PART-1-1",           124,           -1.,          -7.5,            0.,NA,NA,"",   155.845E-03,  -155.845E-03,  -319.433E-06,   3.47958E-06
C:/temp/dataset/test2/15_7.odb,Step-1,Increment      1: Step Time =    1.000,"PART-1-1",           125,           -3.,          -7.5,            0.,NA,NA,"",   156.251E-03,  -155.817E-03,  -11.6384E-03,   2.10585E-06
C:/temp/dataset/test2/15_7.odb,Step-1,Increment      1: Step Time =    1.000,"PART-1-1",           126,           -5.,          -7.5,            0.,NA,NA,"",   157.467E-03,  -155.786E-03,  -22.9515E-03,   1.60881E-06
C:/temp/dataset/test2/15_7.odb,Step-1,Increment      1: Step Time =    1.000,"PART-1-1",           127,            5.,        -9.375,            0.,NA,NA,"",   149.155E-03,  -145.303E-03,   33.6802E-03,   1.25516E-06
C:/temp/dataset/test2/15_7.odb,Step-1,Increment      1: Step Time =    1.000,"PART-1-1",           128,            3.,        -9.375,            0.,NA,NA,"",   146.980E-03,  -145.271E-03,   22.3515E-03,   8.79956E-06
C:/temp/dataset/test2/15_7.odb,Step-1,Increment      1: Step Time =    1.000,"PART-1-1",           129,            1.,        -9.375,            0.,NA,NA,"",   145.670E-03,  -145.251E-03,   11.0377E-03,   11.8143E-06
C:/temp/dataset/test2/15_7.odb,Step-1,Increment      1: Step Time =    1.000,"PART-1-1",           130,           -1.,        -9.375,            0.,NA,NA,"",   145.239E-03,  -145.239E-03,  -282.392E-06,   11.7765E-06
C:/temp/dataset/test2/15_7.odb,Step-1,Increment      1: Step Time =    1.000,"PART-1-1",           131,           -3.,        -9.375,            0.,NA,NA,"",   145.682E-03,  -145.219E-03,  -11.6086E-03,   8.79695E-06
C:/temp/dataset/test2/15_7.odb,Step-1,Increment      1: Step Time =    1.000,"PART-1-1",           132,           -5.,        -9.375,            0.,NA,NA,"",   146.985E-03,  -145.187E-03,  -22.9200E-03,   1.34657E-06
C:/temp/dataset/test2/15_7.odb,Step-1,Increment      1: Step Time =    1.000,"PART-1-1",           133,            5.,        -11.25,            0.,NA,NA,"",   138.815E-03,  -134.662E-03,   33.7020E-03,   12.4321E-06
C:/temp/dataset/test2/15_7.odb,Step-1,Increment      1: Step Time =    1.000,"PART-1-1",           134,            3.,        -11.25,            0.,NA,NA,"",   136.474E-03,  -134.626E-03,   22.3810E-03,   25.6048E-06
C:/temp/dataset/test2/15_7.odb,Step-1,Increment      1: Step Time =    1.000,"PART-1-1",           135,            1.,        -11.25,            0.,NA,NA,"",   135.080E-03,  -134.624E-03,   11.0907E-03,   31.3213E-06
C:/temp/dataset/test2/15_7.odb,Step-1,Increment      1: Step Time =    1.000,"PART-1-1",           136,           -1.,        -11.25,            0.,NA,NA,"",   134.642E-03,  -134.642E-03,  -229.906E-06,   31.0598E-06
C:/temp/dataset/test2/15_7.odb,Step-1,Increment      1: Step Time =    1.000,"PART-1-1",           137,           -3.,        -11.25,            0.,NA,NA,"",   135.135E-03,  -134.638E-03,  -11.5795E-03,   25.1875E-06
C:/temp/dataset/test2/15_7.odb,Step-1,Increment      1: Step Time =    1.000,"PART-1-1",           138,           -5.,        -11.25,            0.,NA,NA,"",   136.536E-03,  -134.602E-03,  -22.8986E-03,   12.4919E-06
C:/temp/dataset/test2/15_7.odb,Step-1,Increment      1: Step Time =    1.000,"PART-1-1",           139,            5.,       -13.125,            0.,NA,NA,"",   128.500E-03,  -124.004E-03,   33.6917E-03,   44.7101E-06
C:/temp/dataset/test2/15_7.odb,Step-1,Increment      1: Step Time =    1.000,"PART-1-1",           140,            3.,       -13.125,            0.,NA,NA,"",   125.966E-03,  -123.956E-03,   22.4101E-03,   61.0954E-06
C:/temp/dataset/test2/15_7.odb,Step-1,Increment      1: Step Time =    1.000,"PART-1-1",           141,            1.,       -13.125,            0.,NA,NA,"",   124.492E-03,  -123.989E-03,   11.1795E-03,   69.7409E-06
C:/temp/dataset/test2/15_7.odb,Step-1,Increment      1: Step Time =    1.000,"PART-1-1",           142,           -1.,       -13.125,            0.,NA,NA,"",   124.057E-03,  -124.057E-03,  -143.972E-06,   68.1988E-06
C:/temp/dataset/test2/15_7.odb,Step-1,Increment      1: Step Time =    1.000,"PART-1-1",           143,           -3.,       -13.125,            0.,NA,NA,"",   124.617E-03,  -124.081E-03,  -11.5527E-03,   58.0341E-06
C:/temp/dataset/test2/15_7.odb,Step-1,Increment      1: Step Time =    1.000,"PART-1-1",           144,           -5.,       -13.125,            0.,NA,NA,"",   126.130E-03,  -124.032E-03,  -22.9094E-03,   43.7615E-06
C:/temp/dataset/test2/15_7.odb,Step-1,Increment      1: Step Time =    1.000,"PART-1-1",           145,            5.,          -15.,            0.,NA,NA,"",   118.223E-03,  -113.350E-03,   33.5899E-03,   123.906E-06
C:/temp/dataset/test2/15_7.odb,Step-1,Increment      1: Step Time =    1.000,"PART-1-1",           146,            3.,          -15.,            0.,NA,NA,"",   115.473E-03,  -113.272E-03,   22.4381E-03,   122.922E-06
C:/temp/dataset/test2/15_7.odb,Step-1,Increment      1: Step Time =    1.000,"PART-1-1",           147,            1.,          -15.,            0.,NA,NA,"",   113.918E-03,  -113.353E-03,   11.3348E-03,   130.314E-06
C:/temp/dataset/test2/15_7.odb,Step-1,Increment      1: Step Time =    1.000,"PART-1-1",           148,           -1.,          -15.,            0.,NA,NA,"",   113.482E-03,  -113.482E-03,  -746.443E-09,   124.040E-06
C:/temp/dataset/test2/15_7.odb,Step-1,Increment      1: Step Time =    1.000,"PART-1-1",           149,           -3.,          -15.,            0.,NA,NA,"",   114.118E-03,  -113.534E-03,  -11.5326E-03,   109.476E-06
C:/temp/dataset/test2/15_7.odb,Step-1,Increment      1: Step Time =    1.000,"PART-1-1",           150,           -5.,          -15.,            0.,NA,NA,"",   115.761E-03,  -113.453E-03,  -23.0008E-03,   113.462E-06
C:/temp/dataset/test2/15_7.odb,Step-1,Increment      1: Step Time =    1.000,"PART-1-1",           151,            5.,       -16.875,            0.,NA,NA,"",   108.040E-03,  -102.778E-03,   33.3071E-03,   283.503E-06
C:/temp/dataset/test2/15_7.odb,Step-1,Increment      1: Step Time =    1.000,"PART-1-1",           152,            3.,       -16.875,            0.,NA,NA,"",   105.082E-03,  -102.649E-03,   22.4819E-03,   207.875E-06
C:/temp/dataset/test2/15_7.odb,Step-1,Increment      1: Step Time =    1.000,"PART-1-1",           153,            1.,       -16.875,            0.,NA,NA,"",   103.413E-03,  -102.762E-03,   11.5869E-03,   194.312E-06
C:/temp/dataset/test2/15_7.odb,Step-1,Increment      1: Step Time =    1.000,"PART-1-1",           154,           -1.,       -16.875,            0.,NA,NA,"",   102.891E-03,  -102.891E-03,   210.930E-06,   173.514E-06
C:/temp/dataset/test2/15_7.odb,Step-1,Increment      1: Step Time =    1.000,"PART-1-1",           155,           -3.,       -16.875,            0.,NA,NA,"",   103.565E-03,  -102.921E-03,  -11.5289E-03,   156.469E-06
C:/temp/dataset/test2/15_7.odb,Step-1,Increment      1: Step Time =    1.000,"PART-1-1",           156,           -5.,       -16.875,            0.,NA,NA,"",   105.374E-03,  -102.776E-03,  -23.2527E-03,   235.978E-06
C:/temp/dataset/test2/15_7.odb,Step-1,Increment      1: Step Time =    1.000,"PART-1-1",           157,            5.,        -18.75,            0.,NA,NA,"",   98.2059E-03,  -92.6495E-03,   32.5648E-03,   606.526E-06
C:/temp/dataset/test2/15_7.odb,Step-1,Increment      1: Step Time =    1.000,"PART-1-1",           158,            3.,        -18.75,            0.,NA,NA,"",   95.0933E-03,  -92.3821E-03,   22.5452E-03,   204.426E-06
C:/temp/dataset/test2/15_7.odb,Step-1,Increment      1: Step Time =    1.000,"PART-1-1",           159,            1.,        -18.75,            0.,NA,NA,"",   93.0933E-03,  -92.3312E-03,   11.8870E-03,   229.099E-06
C:/temp/dataset/test2/15_7.odb,Step-1,Increment      1: Step Time =    1.000,"PART-1-1",           160,           -1.,        -18.75,            0.,NA,NA,"",   92.1588E-03,  -92.1579E-03,   420.404E-06,   167.408E-06
C:/temp/dataset/test2/15_7.odb,Step-1,Increment      1: Step Time =    1.000,"PART-1-1",           161,           -3.,        -18.75,            0.,NA,NA,"",   92.7317E-03,  -92.0085E-03,  -11.5590E-03,   121.278E-06
C:/temp/dataset/test2/15_7.odb,Step-1,Increment      1: Step Time =    1.000,"PART-1-1",           162,           -5.,        -18.75,            0.,NA,NA,"",   94.7940E-03,  -91.7701E-03,  -23.7518E-03,   388.512E-06
C:/temp/dataset/test2/15_7.odb,Step-1,Increment      1: Step Time =    1.000,"PART-1-1",           163,            5.,       -20.625,            0.,NA,NA,"",   89.5670E-03,  -83.9007E-03,   31.3513E-03,   1.38336E-03
C:/temp/dataset/test2/15_7.odb,Step-1,Increment      1: Step Time =    1.000,"PART-1-1",           164,            3.,       -20.625,            0.,NA,NA,"",   86.2365E-03,  -83.1780E-03,   22.7630E-03,   869.406E-06
C:/temp/dataset/test2/15_7.odb,Step-1,Increment      1: Step Time =    1.000,"PART-1-1",           165,            1.,       -20.625,            0.,NA,NA,"",   82.9937E-03,  -82.1431E-03,   11.8518E-03,   821.626E-06
C:/temp/dataset/test2/15_7.odb,Step-1,Increment      1: Step Time =    1.000,"PART-1-1",           166,           -1.,       -20.625,            0.,NA,NA,"",   80.8850E-03,  -80.8840E-03,   391.854E-06,   586.795E-06
C:/temp/dataset/test2/15_7.odb,Step-1,Increment      1: Step Time =    1.000,"PART-1-1",           167,           -3.,       -20.625,            0.,NA,NA,"",   81.1240E-03,  -80.2882E-03,  -11.6151E-03,   261.518E-06
C:/temp/dataset/test2/15_7.odb,Step-1,Increment      1: Step Time =    1.000,"PART-1-1",           168,           -5.,       -20.625,            0.,NA,NA,"",   83.6536E-03,  -79.9926E-03,  -24.4767E-03,   441.205E-06
C:/temp/dataset/test2/15_7.odb,Step-1,Increment      1: Step Time =    1.000,"PART-1-1",           169,            5.,         -22.5,            0.,NA,NA,"",   87.0417E-03,  -82.2064E-03,   28.6072E-03,   3.77859E-03
C:/temp/dataset/test2/15_7.odb,Step-1,Increment      1: Step Time =    1.000,"PART-1-1",           170,            3.,         -22.5,            0.,NA,NA,"",   79.4806E-03,  -76.5441E-03,   21.4050E-03,   4.04943E-03
C:/temp/dataset/test2/15_7.odb,Step-1,Increment      1: Step Time =    1.000,"PART-1-1",           171,            1.,         -22.5,            0.,NA,NA,"",   72.0321E-03,  -71.2830E-03,   10.3616E-03,   2.60596E-03
C:/temp/dataset/test2/15_7.odb,Step-1,Increment      1: Step Time =    1.000,"PART-1-1",           172,           -1.,         -22.5,            0.,NA,NA,"",   68.0991E-03,  -68.0988E-03,  -204.091E-06,   1.80460E-03
C:/temp/dataset/test2/15_7.odb,Step-1,Increment      1: Step Time =    1.000,"PART-1-1",           173,           -3.,         -22.5,            0.,NA,NA,"",   67.9535E-03,  -66.9684E-03,  -11.5287E-03,   1.07044E-03
C:/temp/dataset/test2/15_7.odb,Step-1,Increment      1: Step Time =    1.000,"PART-1-1",           174,           -5.,         -22.5,            0.,NA,NA,"",   71.3933E-03,  -66.8450E-03,  -25.0747E-03,   139.887E-06
C:/temp/dataset/test2/15_7.odb,Step-1,Increment      1: Step Time =    1.000,"PART-1-1",           175,            5.,       -24.375,            0.,NA,NA,"",   82.0546E-03,  -76.4370E-03,   29.8386E-03,   7.52578E-03
C:/temp/dataset/test2/15_7.odb,Step-1,Increment      1: Step Time =    1.000,"PART-1-1",           176,            3.,       -24.375,            0.,NA,NA,"",   67.5806E-03,  -65.6101E-03,   16.2008E-03,   7.52498E-03
C:/temp/dataset/test2/15_7.odb,Step-1,Increment      1: Step Time =    1.000,"PART-1-1",           177,            1.,       -24.375,            0.,NA,NA,"",   57.1655E-03,  -56.7555E-03,   6.83407E-03,   5.03192E-03
C:/temp/dataset/test2/15_7.odb,Step-1,Increment      1: Step Time =    1.000,"PART-1-1",           178,           -1.,       -24.375,            0.,NA,NA,"",   52.5182E-03,  -52.5028E-03,  -1.27256E-03,   3.60850E-03
C:/temp/dataset/test2/15_7.odb,Step-1,Increment      1: Step Time =    1.000,"PART-1-1",           179,           -3.,       -24.375,            0.,NA,NA,"",   52.5149E-03,  -51.3825E-03,  -10.8468E-03,   2.37882E-03
C:/temp/dataset/test2/15_7.odb,Step-1,Increment      1: Step Time =    1.000,"PART-1-1",           180,           -5.,       -24.375,            0.,NA,NA,"",   57.5074E-03,  -51.9642E-03,  -24.6338E-03,   916.269E-06
C:/temp/dataset/test2/15_7.odb,Step-1,Increment      1: Step Time =    1.000,"PART-1-1",           181,            5.,        -26.25,            0.,NA,NA,"",   58.1544E-03,  -50.5813E-03,   28.6962E-03,   5.01943E-03
C:/temp/dataset/test2/15_7.odb,Step-1,Increment      1: Step Time =    1.000,"PART-1-1",           182,            3.,        -26.25,            0.,NA,NA,"",   43.8439E-03,  -42.8143E-03,   9.44598E-03,   8.38297E-03
C:/temp/dataset/test2/15_7.odb,Step-1,Increment      1: Step Time =    1.000,"PART-1-1",           183,            1.,        -26.25,            0.,NA,NA,"",   37.0891E-03,  -36.9742E-03,   2.91736E-03,   6.54098E-03
C:/temp/dataset/test2/15_7.odb,Step-1,Increment      1: Step Time =    1.000,"PART-1-1",           184,           -1.,        -26.25,            0.,NA,NA,"",   34.0120E-03,  -33.9642E-03,  -1.80241E-03,   5.12873E-03
C:/temp/dataset/test2/15_7.odb,Step-1,Increment      1: Step Time =    1.000,"PART-1-1",           185,           -3.,        -26.25,            0.,NA,NA,"",   34.7108E-03,  -33.6405E-03,  -8.55330E-03,   4.15113E-03
C:/temp/dataset/test2/15_7.odb,Step-1,Increment      1: Step Time =    1.000,"PART-1-1",           186,           -5.,        -26.25,            0.,NA,NA,"",   41.6381E-03,  -35.4755E-03,  -21.7995E-03,   2.61673E-03
C:/temp/dataset/test2/15_7.odb,Step-1,Increment      1: Step Time =    1.000,"PART-1-1",           187,            5.,       -28.125,            0.,NA,NA,"",   28.5913E-03,  -21.8889E-03,   18.3940E-03,   8.31045E-03
C:/temp/dataset/test2/15_7.odb,Step-1,Increment      1: Step Time =    1.000,"PART-1-1",           188,            3.,       -28.125,            0.,NA,NA,"",   18.4036E-03,  -17.7719E-03,   4.78033E-03,   6.90604E-03
C:/temp/dataset/test2/15_7.odb,Step-1,Increment      1: Step Time =    1.000,"PART-1-1",           189,            1.,       -28.125,            0.,NA,NA,"",   16.0194E-03,  -16.0018E-03,   750.415E-06,   6.29543E-03
C:/temp/dataset/test2/15_7.odb,Step-1,Increment      1: Step Time =    1.000,"PART-1-1",           190,           -1.,       -28.125,            0.,NA,NA,"",   15.0804E-03,  -15.0264E-03,  -1.27556E-03,   5.66035E-03
C:/temp/dataset/test2/15_7.odb,Step-1,Increment      1: Step Time =    1.000,"PART-1-1",           191,           -3.,       -28.125,            0.,NA,NA,"",   16.2934E-03,  -15.5098E-03,  -4.99192E-03,   5.98828E-03
C:/temp/dataset/test2/15_7.odb,Step-1,Increment      1: Step Time =    1.000,"PART-1-1",           192,           -5.,       -28.125,            0.,NA,NA,"",   23.9104E-03,  -18.4686E-03,  -15.1861E-03,   6.39620E-03
C:/temp/dataset/test2/15_7.odb,Step-1,Increment      1: Step Time =    1.000,"PART-1-1",           193,            5.,          -30.,            0.,NA,NA,"",            0.,  -3.69127E-39,   6.29350E-39,   15.0557E-03
C:/temp/dataset/test2/15_7.odb,Step-1,Increment      1: Step Time =    1.000,"PART-1-1",           194,            3.,          -30.,            0.,NA,NA,"",            0.,  -4.98751E-39,   5.02612E-39,   3.95402E-03
C:/temp/dataset/test2/15_7.odb,Step-1,Increment      1: Step Time =    1.000,"PART-1-1",           195,            1.,          -30.,            0.,NA,NA,"",            0.,  -3.38842E-39,   2.04808E-39,   4.38442E-03
C:/temp/dataset/test2/15_7.odb,Step-1,Increment      1: Step Time =    1.000,"PART-1-1",           196,           -1.,          -30.,            0.,NA,NA,"",            0.,  -2.54253E-39,   236.095E-42,   4.39422E-03
C:/temp/dataset/test2/15_7.odb,Step-1,Increment      1: Step Time =    1.000,"PART-1-1",           197,           -3.,          -30.,            0.,NA,NA,"",            0.,  -4.34122E-39,  -2.60696E-39,   4.07620E-03
C:/temp/dataset/test2/15_7.odb,Step-1,Increment      1: Step Time =    1.000,"PART-1-1",           198,           -5.,          -30.,            0.,NA,NA,"",            0.,  -3.18271E-39,  -5.34109E-39,   12.9684E-03
C:/temp/dataset/test2/15_7.odb,Step-1,Increment      1: Step Time =    1.000,"PART-1-1",           199,            4.,           30.,            0.,NA,NA,"",   369.188E-03,  -368.171E-03,   27.3806E-03,   3.11410E-12
C:/temp/dataset/test2/15_7.odb,Step-1,Increment      1: Step Time =    1.000,"PART-1-1",           200,            3.,       29.0625,            0.,NA,NA,"",   363.499E-03,  -362.849E-03,   21.7357E-03,   3.01171E-12
C:/temp/dataset/test2/15_7.odb,Step-1,Increment      1: Step Time =    1.000,"PART-1-1",           201,            4.,        28.125,            0.,NA,NA,"",   358.608E-03,  -357.558E-03,   27.4107E-03,   3.00618E-12
C:/temp/dataset/test2/15_7.odb,Step-1,Increment      1: Step Time =    1.000,"PART-1-1",           202,            5.,       29.0625,            0.,NA,NA,"",   364.383E-03,  -362.881E-03,   33.0556E-03,   3.11486E-12
C:/temp/dataset/test2/15_7.odb,Step-1,Increment      1: Step Time =    1.000,"PART-1-1",           203,            2.,           30.,            0.,NA,NA,"",   368.489E-03,  -368.139E-03,   16.0607E-03,   2.74399E-12
C:/temp/dataset/test2/15_7.odb,Step-1,Increment      1: Step Time =    1.000,"PART-1-1",           204,            1.,       29.0625,            0.,NA,NA,"",   362.966E-03,  -362.817E-03,   10.4157E-03,   2.96792E-12
C:/temp/dataset/test2/15_7.odb,Step-1,Increment      1: Step Time =    1.000,"PART-1-1",           205,            2.,        28.125,            0.,NA,NA,"",   357.888E-03,  -357.526E-03,   16.0907E-03,   3.29023E-12
C:/temp/dataset/test2/15_7.odb,Step-1,Increment      1: Step Time =    1.000,"PART-1-1",           206,            0.,           30.,            0.,NA,NA,"",   368.137E-03,  -368.107E-03,   4.74070E-03,   2.67837E-12
C:/temp/dataset/test2/15_7.odb,Step-1,Increment      1: Step Time =    1.000,"PART-1-1",           207,           -1.,       29.0625,            0.,NA,NA,"",   362.786E-03,  -362.785E-03,  -904.272E-06,   2.96570E-12
C:/temp/dataset/test2/15_7.odb,Step-1,Increment      1: Step Time =    1.000,"PART-1-1",           208,            0.,        28.125,            0.,NA,NA,"",   357.526E-03,  -357.494E-03,   4.77073E-03,   3.17823E-12
C:/temp/dataset/test2/15_7.odb,Step-1,Increment      1: Step Time =    1.000,"PART-1-1",           209,           -2.,           30.,            0.,NA,NA,"",   368.134E-03,  -368.075E-03,  -6.57927E-03,   2.74248E-12
C:/temp/dataset/test2/15_7.odb,Step-1,Increment      1: Step Time =    1.000,"PART-1-1",           210,           -3.,       29.0625,            0.,NA,NA,"",   362.958E-03,  -362.753E-03,  -12.2242E-03,   3.00692E-12
C:/temp/dataset/test2/15_7.odb,Step-1,Increment      1: Step Time =    1.000,"PART-1-1",           211,           -2.,        28.125,            0.,NA,NA,"",   357.522E-03,  -357.462E-03,  -6.54924E-03,   3.28607E-12
C:/temp/dataset/test2/15_7.odb,Step-1,Increment      1: Step Time =    1.000,"PART-1-1",           212,           -4.,           30.,            0.,NA,NA,"",   368.478E-03,  -368.043E-03,  -17.8992E-03,   3.11004E-12
C:/temp/dataset/test2/15_7.odb,Step-1,Increment      1: Step Time =    1.000,"PART-1-1",           213,           -5.,       29.0625,            0.,NA,NA,"",   363.484E-03,  -362.721E-03,  -23.5442E-03,   3.11915E-12
C:/temp/dataset/test2/15_7.odb,Step-1,Increment      1: Step Time =    1.000,"PART-1-1",           214,           -4.,        28.125,            0.,NA,NA,"",   357.877E-03,  -357.430E-03,  -17.8692E-03,   3.01113E-12
C:/temp/dataset/test2/15_7.odb,Step-1,Increment      1: Step Time =    1.000,"PART-1-1",           215,            3.,       27.1875,            0.,NA,NA,"",   352.908E-03,  -352.236E-03,   21.7657E-03,   3.71890E-12
C:/temp/dataset/test2/15_7.odb,Step-1,Increment      1: Step Time =    1.000,"PART-1-1",           216,            4.,         26.25,            0.,NA,NA,"",   348.029E-03,  -346.946E-03,   27.4407E-03,   3.19398E-12
C:/temp/dataset/test2/15_7.odb,Step-1,Increment      1: Step Time =    1.000,"PART-1-1",           217,            5.,       27.1875,            0.,NA,NA,"",   353.819E-03,  -352.268E-03,   33.0857E-03,   2.82695E-12
C:/temp/dataset/test2/15_7.odb,Step-1,Increment      1: Step Time =    1.000,"PART-1-1",           218,            1.,       27.1875,            0.,NA,NA,"",   352.359E-03,  -352.204E-03,   10.4457E-03,   3.93985E-12
C:/temp/dataset/test2/15_7.odb,Step-1,Increment      1: Step Time =    1.000,"PART-1-1",           219,            2.,         26.25,            0.,NA,NA,"",   347.288E-03,  -346.914E-03,   16.1207E-03,   4.19125E-12
C:/temp/dataset/test2/15_7.odb,Step-1,Increment      1: Step Time =    1.000,"PART-1-1",           220,           -1.,       27.1875,            0.,NA,NA,"",   352.173E-03,  -352.172E-03,  -874.239E-06,   3.93649E-12
C:/temp/dataset/test2/15_7.odb,Step-1,Increment      1: Step Time =    1.000,"PART-1-1",           221,            0.,         26.25,            0.,NA,NA,"",   346.915E-03,  -346.882E-03,   4.80076E-03,   4.33434E-12
C:/temp/dataset/test2/15_7.odb,Step-1,Increment      1: Step Time =    1.000,"PART-1-1",           222,           -3.,       27.1875,            0.,NA,NA,"",   352.351E-03,  -352.140E-03,  -12.1942E-03,   3.71756E-12
C:/temp/dataset/test2/15_7.odb,Step-1,Increment      1: Step Time =    1.000,"PART-1-1",           223,           -2.,         26.25,            0.,NA,NA,"",   346.911E-03,  -346.850E-03,  -6.51921E-03,   4.18953E-12
C:/temp/dataset/test2/15_7.odb,Step-1,Increment      1: Step Time =    1.000,"PART-1-1",           224,           -5.,       27.1875,            0.,NA,NA,"",   352.892E-03,  -352.108E-03,  -23.5142E-03,   2.82709E-12
C:/temp/dataset/test2/15_7.odb,Step-1,Increment      1: Step Time =    1.000,"PART-1-1",           225,           -4.,         26.25,            0.,NA,NA,"",   347.276E-03,  -346.818E-03,  -17.8392E-03,   3.19455E-12
C:/temp/dataset/test2/15_7.odb,Step-1,Increment      1: Step Time =    1.000,"PART-1-1",           226,            3.,       25.3125,            0.,NA,NA,"",   342.318E-03,  -341.624E-03,   21.7957E-03,   4.68317E-12
C:/temp/dataset/test2/15_7.odb,Step-1,Increment      1: Step Time =    1.000,"PART-1-1",           227,            4.,        24.375,            0.,NA,NA,"",   337.454E-03,  -336.334E-03,   27.4707E-03,   4.22807E-12
C:/temp/dataset/test2/15_7.odb,Step-1,Increment      1: Step Time =    1.000,"PART-1-1",           228,            5.,       25.3125,            0.,NA,NA,"",   343.257E-03,  -341.656E-03,   33.1157E-03,   4.23925E-12
C:/temp/dataset/test2/15_7.odb,Step-1,Increment      1: Step Time =    1.000,"PART-1-1",           229,            1.,       25.3125,            0.,NA,NA,"",   341.752E-03,  -341.592E-03,   10.4758E-03,   5.29722E-12
C:/temp/dataset/test2/15_7.odb,Step-1,Increment      1: Step Time =    1.000,"PART-1-1",           230,            2.,        24.375,            0.,NA,NA,"",   336.689E-03,  -336.301E-03,   16.1508E-03,   5.20321E-12
C:/temp/dataset/test2/15_7.odb,Step-1,Increment      1: Step Time =    1.000,"PART-1-1",           231,           -1.,       25.3125,            0.,NA,NA,"",   341.561E-03,  -341.560E-03,  -844.205E-06,   5.29644E-12
C:/temp/dataset/test2/15_7.odb,Step-1,Increment      1: Step Time =    1.000,"PART-1-1",           232,            0.,        24.375,            0.,NA,NA,"",   336.304E-03,  -336.269E-03,   4.83080E-03,   5.83133E-12
C:/temp/dataset/test2/15_7.odb,Step-1,Increment      1: Step Time =    1.000,"PART-1-1",           233,           -3.,       25.3125,            0.,NA,NA,"",   341.744E-03,  -341.528E-03,  -12.1642E-03,   4.68215E-12
C:/temp/dataset/test2/15_7.odb,Step-1,Increment      1: Step Time =    1.000,"PART-1-1",           234,           -2.,        24.375,            0.,NA,NA,"",   336.300E-03,  -336.237E-03,  -6.48917E-03,   5.20445E-12
C:/temp/dataset/test2/15_7.odb,Step-1,Increment      1: Step Time =    1.000,"PART-1-1",           235,           -5.,       25.3125,            0.,NA,NA,"",   342.302E-03,  -341.496E-03,  -23.4841E-03,   4.22210E-12
C:/temp/dataset/test2/15_7.odb,Step-1,Increment      1: Step Time =    1.000,"PART-1-1",           236,           -4.,        24.375,            0.,NA,NA,"",   336.677E-03,  -336.205E-03,  -17.8091E-03,   4.21780E-12
C:/temp/dataset/test2/15_7.odb,Step-1,Increment      1: Step Time =    1.000,"PART-1-1",           237,            3.,       23.4375,            0.,NA,NA,"",   331.730E-03,  -331.011E-03,   21.8258E-03,   4.87267E-12
C:/temp/dataset/test2/15_7.odb,Step-1,Increment      1: Step Time =    1.000,"PART-1-1",           238,            4.,          22.5,            0.,NA,NA,"",   326.880E-03,  -325.721E-03,   27.5008E-03,   5.51472E-12
C:/temp/dataset/test2/15_7.odb,Step-1,Increment      1: Step Time =    1.000,"PART-1-1",           239,            5.,       23.4375,            0.,NA,NA,"",   332.699E-03,  -331.043E-03,   33.1457E-03,   7.91984E-12
C:/temp/dataset/test2/15_7.odb,Step-1,Increment      1: Step Time =    1.000,"PART-1-1",           240,            1.,       23.4375,            0.,NA,NA,"",   331.146E-03,  -330.979E-03,   10.5058E-03,   6.65503E-12
C:/temp/dataset/test2/15_7.odb,Step-1,Increment      1: Step Time =    1.000,"PART-1-1",           241,            2.,          22.5,            0.,NA,NA,"",   326.091E-03,  -325.689E-03,   16.1808E-03,   6.29043E-12
C:/temp/dataset/test2/15_7.odb,Step-1,Increment      1: Step Time =    1.000,"PART-1-1",           242,           -1.,       23.4375,            0.,NA,NA,"",   330.948E-03,  -330.947E-03,  -814.172E-06,   6.65788E-12
C:/temp/dataset/test2/15_7.odb,Step-1,Increment      1: Step Time =    1.000,"PART-1-1",           243,            0.,          22.5,            0.,NA,NA,"",   325.693E-03,  -325.657E-03,   4.86083E-03,   8.13242E-12
C:/temp/dataset/test2/15_7.odb,Step-1,Increment      1: Step Time =    1.000,"PART-1-1",           244,           -3.,       23.4375,            0.,NA,NA,"",   331.138E-03,  -330.915E-03,  -12.1341E-03,   4.87499E-12
C:/temp/dataset/test2/15_7.odb,Step-1,Increment      1: Step Time =    1.000,"PART-1-1",           245,           -2.,          22.5,            0.,NA,NA,"",   325.689E-03,  -325.625E-03,  -6.45914E-03,   6.29629E-12
C:/temp/dataset/test2/15_7.odb,Step-1,Increment      1: Step Time =    1.000,"PART-1-1",           246,           -5.,       23.4375,            0.,NA,NA,"",   331.713E-03,  -330.883E-03,  -23.4541E-03,   7.88938E-12
C:/temp/dataset/test2/15_7.odb,Step-1,Increment      1: Step Time =    1.000,"PART-1-1",           247,           -4.,          22.5,            0.,NA,NA,"",   326.078E-03,  -325.593E-03,  -17.7791E-03,   5.49267E-12
C:/temp/dataset/test2/15_7.odb,Step-1,Increment      1: Step Time =    1.000,"PART-1-1",           248,            3.,       21.5625,            0.,NA,NA,"",   321.143E-03,  -320.399E-03,   21.8558E-03,   8.39391E-12
C:/temp/dataset/test2/15_7.odb,Step-1,Increment      1: Step Time =    1.000,"PART-1-1",           249,            4.,        20.625,            0.,NA,NA,"",   316.309E-03,  -315.109E-03,   27.5308E-03,   7.59032E-12
C:/temp/dataset/test2/15_7.odb,Step-1,Increment      1: Step Time =    1.000,"PART-1-1",           250,            5.,       21.5625,            0.,NA,NA,"",   322.144E-03,  -320.431E-03,   33.1758E-03,   10.6631E-12
C:/temp/dataset/test2/15_7.odb,Step-1,Increment      1: Step Time =    1.000,"PART-1-1",           251,            1.,       21.5625,            0.,NA,NA,"",   320.540E-03,  -320.367E-03,   10.5358E-03,   15.2625E-12
C:/temp/dataset/test2/15_7.odb,Step-1,Increment      1: Step Time =    1.000,"PART-1-1",           252,            2.,        20.625,            0.,NA,NA,"",   315.493E-03,  -315.077E-03,   16.2108E-03,   19.0706E-12
C:/temp/dataset/test2/15_7.odb,Step-1,Increment      1: Step Time =    1.000,"PART-1-1",           253,           -1.,       21.5625,            0.,NA,NA,"",   320.336E-03,  -320.335E-03,  -784.138E-06,   15.2659E-12
C:/temp/dataset/test2/15_7.odb,Step-1,Increment      1: Step Time =    1.000,"PART-1-1",           254,            0.,        20.625,            0.,NA,NA,"",   315.082E-03,  -315.045E-03,   4.89086E-03,   23.2528E-12
C:/temp/dataset/test2/15_7.odb,Step-1,Increment      1: Step Time =    1.000,"PART-1-1",           255,           -3.,       21.5625,            0.,NA,NA,"",   320.531E-03,  -320.303E-03,  -12.1041E-03,   8.40600E-12
C:/temp/dataset/test2/15_7.odb,Step-1,Increment      1: Step Time =    1.000,"PART-1-1",           256,           -2.,        20.625,            0.,NA,NA,"",   315.078E-03,  -315.012E-03,  -6.42911E-03,   19.0748E-12
C:/temp/dataset/test2/15_7.odb,Step-1,Increment      1: Step Time =    1.000,"PART-1-1",           257,           -5.,       21.5625,            0.,NA,NA,"",   321.126E-03,  -320.271E-03,  -23.4241E-03,   10.6220E-12
C:/temp/dataset/test2/15_7.odb,Step-1,Increment      1: Step Time =    1.000,"PART-1-1",           258,           -4.,        20.625,            0.,NA,NA,"",   315.480E-03,  -314.980E-03,  -17.7491E-03,   7.57312E-12
C:/temp/dataset/test2/15_7.odb,Step-1,Increment      1: Step Time =    1.000,"PART-1-1",           259,            3.,       19.6875,            0.,NA,NA,"",   310.558E-03,  -309.786E-03,   21.8858E-03,   37.3157E-12
C:/temp/dataset/test2/15_7.odb,Step-1,Increment      1: Step Time =    1.000,"PART-1-1",           260,            4.,         18.75,            0.,NA,NA,"",   305.741E-03,  -304.496E-03,   27.5608E-03,   30.5375E-12
C:/temp/dataset/test2/15_7.odb,Step-1,Increment      1: Step Time =    1.000,"PART-1-1",           261,            5.,       19.6875,            0.,NA,NA,"",   311.593E-03,  -309.818E-03,   33.2058E-03,   2.68170E-12
C:/temp/dataset/test2/15_7.odb,Step-1,Increment      1: Step Time =    1.000,"PART-1-1",           262,            1.,       19.6875,            0.,NA,NA,"",   309.934E-03,  -309.754E-03,   10.5659E-03,   52.5947E-12
C:/temp/dataset/test2/15_7.odb,Step-1,Increment      1: Step Time =    1.000,"PART-1-1",           263,            2.,         18.75,            0.,NA,NA,"",   304.897E-03,  -304.464E-03,   16.2409E-03,   65.8853E-12
C:/temp/dataset/test2/15_7.odb,Step-1,Increment      1: Step Time =    1.000,"PART-1-1",           264,           -1.,       19.6875,            0.,NA,NA,"",   309.723E-03,  -309.722E-03,  -754.105E-06,   52.5955E-12
C:/temp/dataset/test2/15_7.odb,Step-1,Increment      1: Step Time =    1.000,"PART-1-1",           265,            0.,         18.75,            0.,NA,NA,"",   304.472E-03,  -304.432E-03,   4.92090E-03,   75.1726E-12
C:/temp/dataset/test2/15_7.odb,Step-1,Increment      1: Step Time =    1.000,"PART-1-1",           266,           -3.,       19.6875,            0.,NA,NA,"",   309.925E-03,  -309.690E-03,  -12.0741E-03,   37.3266E-12
C:/temp/dataset/test2/15_7.odb,Step-1,Increment      1: Step Time =    1.000,"PART-1-1",           267,           -2.,         18.75,            0.,NA,NA,"",   304.467E-03,  -304.400E-03,  -6.39907E-03,   65.8861E-12
C:/temp/dataset/test2/15_7.odb,Step-1,Increment      1: Step Time =    1.000,"PART-1-1",           268,           -5.,       19.6875,            0.,NA,NA,"",   310.541E-03,  -309.658E-03,  -23.3940E-03,   2.63348E-12
C:/temp/dataset/test2/15_7.odb,Step-1,Increment      1: Step Time =    1.000,"PART-1-1",           269,           -4.,         18.75,            0.,NA,NA,"",   304.883E-03,  -304.368E-03,  -17.7190E-03,   30.5505E-12
C:/temp/dataset/test2/15_7.odb,Step-1,Increment      1: Step Time =    1.000,"PART-1-1",           270,            3.,       17.8125,            0.,NA,NA,"",   299.976E-03,  -299.174E-03,   21.9159E-03,   118.373E-12
C:/temp/dataset/test2/15_7.odb,Step-1,Increment      1: Step Time =    1.000,"PART-1-1",           271,            4.,        16.875,            0.,NA,NA,"",   295.176E-03,  -293.884E-03,   27.5909E-03,   106.427E-12
C:/temp/dataset/test2/15_7.odb,Step-1,Increment      1: Step Time =    1.000,"PART-1-1",           272,            5.,       17.8125,            0.,NA,NA,"",   301.046E-03,  -299.206E-03,   33.2358E-03,   44.8122E-12
C:/temp/dataset/test2/15_7.odb,Step-1,Increment      1: Step Time =    1.000,"PART-1-1",           273,            1.,       17.8125,            0.,NA,NA,"",   299.329E-03,  -299.142E-03,   10.5959E-03,   149.547E-12
C:/temp/dataset/test2/15_7.odb,Step-1,Increment      1: Step Time =    1.000,"PART-1-1",           274,            2.,        16.875,            0.,NA,NA,"",   294.302E-03,  -293.852E-03,   16.2709E-03,   180.276E-12
C:/temp/dataset/test2/15_7.odb,Step-1,Increment      1: Step Time =    1.000,"PART-1-1",           275,           -1.,       17.8125,            0.,NA,NA,"",   299.111E-03,  -299.110E-03,  -724.071E-06,   149.546E-12
C:/temp/dataset/test2/15_7.odb,Step-1,Increment      1: Step Time =    1.000,"PART-1-1",           276,            0.,        16.875,            0.,NA,NA,"",   293.861E-03,  -293.820E-03,   4.95093E-03,   200.391E-12
C:/temp/dataset/test2/15_7.odb,Step-1,Increment      1: Step Time =    1.000,"PART-1-1",           277,           -3.,       17.8125,            0.,NA,NA,"",   299.320E-03,  -299.078E-03,  -12.0440E-03,   118.384E-12
C:/temp/dataset/test2/15_7.odb,Step-1,Increment      1: Step Time =    1.000,"PART-1-1",           278,           -2.,        16.875,            0.,NA,NA,"",   293.857E-03,  -293.788E-03,  -6.36904E-03,   180.275E-12
C:/temp/dataset/test2/15_7.odb,Step-1,Increment      1: Step Time =    1.000,"PART-1-1",           279,           -5.,       17.8125,            0.,NA,NA,"",   299.957E-03,  -299.046E-03,  -23.3640E-03,   44.8723E-12
C:/temp/dataset/test2/15_7.odb,Step-1,Increment      1: Step Time =    1.000,"PART-1-1",           280,           -4.,        16.875,            0.,NA,NA,"",   294.288E-03,  -293.756E-03,  -17.6890E-03,   106.455E-12
C:/temp/dataset/test2/15_7.odb,Step-1,Increment      1: Step Time =    1.000,"PART-1-1",           281,            3.,       15.9375,            0.,NA,NA,"",   289.395E-03,  -288.561E-03,   21.9459E-03,   298.415E-12
C:/temp/dataset/test2/15_7.odb,Step-1,Increment      1: Step Time =    1.000,"PART-1-1",           282,            4.,           15.,            0.,NA,NA,"",   284.615E-03,  -283.271E-03,   27.6209E-03,   290.262E-12
C:/temp/dataset/test2/15_7.odb,Step-1,Increment      1: Step Time =    1.000,"PART-1-1",           283,            5.,       15.9375,            0.,NA,NA,"",   290.504E-03,  -288.593E-03,   33.2659E-03,   193.792E-12
C:/temp/dataset/test2/15_7.odb,Step-1,Increment      1: Step Time =    1.000,"PART-1-1",           284,            1.,       15.9375,            0.,NA,NA,"",   288.725E-03,  -288.529E-03,   10.6259E-03,   353.559E-12
C:/temp/dataset/test2/15_7.odb,Step-1,Increment      1: Step Time =    1.000,"PART-1-1",           285,            2.,           15.,            0.,NA,NA,"",   283.708E-03,  -283.239E-03,   16.3009E-03,   410.229E-12
C:/temp/dataset/test2/15_7.odb,Step-1,Increment      1: Step Time =    1.000,"PART-1-1",           286,           -1.,       15.9375,            0.,NA,NA,"",   288.498E-03,  -288.497E-03,  -694.037E-06,   353.555E-12
C:/temp/dataset/test2/15_7.odb,Step-1,Increment      1: Step Time =    1.000,"PART-1-1",           287,            0.,           15.,            0.,NA,NA,"",   283.251E-03,  -283.207E-03,   4.98096E-03,   449.415E-12
C:/temp/dataset/test2/15_7.odb,Step-1,Increment      1: Step Time =    1.000,"PART-1-1",           288,           -3.,       15.9375,            0.,NA,NA,"",   288.715E-03,  -288.465E-03,  -12.0140E-03,   298.425E-12
C:/temp/dataset/test2/15_7.odb,Step-1,Increment      1: Step Time =    1.000,"PART-1-1",           289,           -2.,           15.,            0.,NA,NA,"",   283.246E-03,  -283.175E-03,  -6.33901E-03,   410.225E-12
C:/temp/dataset/test2/15_7.odb,Step-1,Increment      1: Step Time =    1.000,"PART-1-1",           290,           -5.,       15.9375,            0.,NA,NA,"",   289.376E-03,  -288.433E-03,  -23.3340E-03,   193.863E-12
C:/temp/dataset/test2/15_7.odb,Step-1,Increment      1: Step Time =    1.000,"PART-1-1",           291,           -4.,           15.,            0.,NA,NA,"",   283.693E-03,  -283.143E-03,  -17.6590E-03,   290.300E-12
C:/temp/dataset/test2/15_7.odb,Step-1,Increment      1: Step Time =    1.000,"PART-1-1",           292,            3.,       14.0625,            0.,NA,NA,"",   278.816E-03,  -277.949E-03,   21.9759E-03,   627.867E-12
C:/temp/dataset/test2/15_7.odb,Step-1,Increment      1: Step Time =    1.000,"PART-1-1",           293,            4.,        13.125,            0.,NA,NA,"",   274.057E-03,  -272.659E-03,   27.6509E-03,   661.224E-12
C:/temp/dataset/test2/15_7.odb,Step-1,Increment      1: Step Time =    1.000,"PART-1-1",           294,            5.,       14.0625,            0.,NA,NA,"",   279.968E-03,  -277.981E-03,   33.2959E-03,   564.340E-12
C:/temp/dataset/test2/15_7.odb,Step-1,Increment      1: Step Time =    1.000,"PART-1-1",           295,            1.,       14.0625,            0.,NA,NA,"",   278.121E-03,  -277.917E-03,   10.6560E-03,   704.602E-12
C:/temp/dataset/test2/15_7.odb,Step-1,Increment      1: Step Time =    1.000,"PART-1-1",           296,            2.,        13.125,            0.,NA,NA,"",   273.115E-03,  -272.627E-03,   16.3310E-03,   780.769E-12
C:/temp/dataset/test2/15_7.odb,Step-1,Increment      1: Step Time =    1.000,"PART-1-1",           297,           -1.,       14.0625,            0.,NA,NA,"",   277.886E-03,  -277.885E-03,  -664.003E-06,   704.595E-12
C:/temp/dataset/test2/15_7.odb,Step-1,Increment      1: Step Time =    1.000,"PART-1-1",           298,            0.,        13.125,            0.,NA,NA,"",   272.641E-03,  -272.595E-03,   5.01100E-03,   847.464E-12
C:/temp/dataset/test2/15_7.odb,Step-1,Increment      1: Step Time =    1.000,"PART-1-1",           299,           -3.,       14.0625,            0.,NA,NA,"",   278.111E-03,  -277.853E-03,  -11.9840E-03,   627.877E-12
C:/temp/dataset/test2/15_7.odb,Step-1,Increment      1: Step Time =    1.000,"PART-1-1",           300,           -2.,        13.125,            0.,NA,NA,"",   272.636E-03,  -272.563E-03,  -6.30897E-03,   780.760E-12
C:/temp/dataset/test2/15_7.odb,Step-1,Increment      1: Step Time =    1.000,"PART-1-1",           301,           -5.,       14.0625,            0.,NA,NA,"",   278.796E-03,  -277.821E-03,  -23.3039E-03,   564.421E-12
C:/temp/dataset/test2/15_7.odb,Step-1,Increment      1: Step Time =    1.000,"PART-1-1",           302,           -4.,        13.125,            0.,NA,NA,"",   273.100E-03,  -272.531E-03,  -17.6289E-03,   661.272E-12
C:/temp/dataset/test2/15_7.odb,Step-1,Increment      1: Step Time =    1.000,"PART-1-1",           303,            3.,       12.1875,            0.,NA,NA,"",   268.241E-03,  -267.336E-03,   22.0060E-03,   1.07919E-09
C:/temp/dataset/test2/15_7.odb,Step-1,Increment      1: Step Time =    1.000,"PART-1-1",           304,            4.,         11.25,            0.,NA,NA,"",   263.504E-03,  -262.046E-03,   27.6810E-03,   1.26826E-09
C:/temp/dataset/test2/15_7.odb,Step-1,Increment      1: Step Time =    1.000,"PART-1-1",           305,            5.,       12.1875,            0.,NA,NA,"",   269.437E-03,  -267.368E-03,   33.3259E-03,   1.33049E-09
C:/temp/dataset/test2/15_7.odb,Step-1,Increment      1: Step Time =    1.000,"PART-1-1",           306,            1.,       12.1875,            0.,NA,NA,"",   267.518E-03,  -267.304E-03,   10.6860E-03,   1.14040E-09
C:/temp/dataset/test2/15_7.odb,Step-1,Increment      1: Step Time =    1.000,"PART-1-1",           307,            2.,         11.25,            0.,NA,NA,"",   262.525E-03,  -262.014E-03,   16.3610E-03,   1.16737E-09
C:/temp/dataset/test2/15_7.odb,Step-1,Increment      1: Step Time =    1.000,"PART-1-1",           308,           -1.,       12.1875,            0.,NA,NA,"",   267.273E-03,  -267.272E-03,  -633.969E-06,   1.14038E-09
C:/temp/dataset/test2/15_7.odb,Step-1,Increment      1: Step Time =    1.000,"PART-1-1",           309,            0.,         11.25,            0.,NA,NA,"",   262.031E-03,  -261.982E-03,   5.04103E-03,   1.27168E-09
C:/temp/dataset/test2/15_7.odb,Step-1,Increment      1: Step Time =    1.000,"PART-1-1",           310,           -3.,       12.1875,            0.,NA,NA,"",   267.508E-03,  -267.240E-03,  -11.9539E-03,   1.07918E-09
C:/temp/dataset/test2/15_7.odb,Step-1,Increment      1: Step Time =    1.000,"PART-1-1",           311,           -2.,         11.25,            0.,NA,NA,"",   262.025E-03,  -261.950E-03,  -6.27894E-03,   1.16735E-09
C:/temp/dataset/test2/15_7.odb,Step-1,Increment      1: Step Time =    1.000,"PART-1-1",           312,           -5.,       12.1875,            0.,NA,NA,"",   268.220E-03,  -267.208E-03,  -23.2739E-03,   1.33058E-09
C:/temp/dataset/test2/15_7.odb,Step-1,Increment      1: Step Time =    1.000,"PART-1-1",           313,           -4.,         11.25,            0.,NA,NA,"",   262.509E-03,  -261.918E-03,  -17.5989E-03,   1.26831E-09
C:/temp/dataset/test2/15_7.odb,Step-1,Increment      1: Step Time =    1.000,"PART-1-1",           314,            3.,       10.3125,            0.,NA,NA,"",   257.668E-03,  -256.724E-03,   22.0360E-03,   1.30634E-09
C:/temp/dataset/test2/15_7.odb,Step-1,Increment      1: Step Time =    1.000,"PART-1-1",           315,            4.,         9.375,            0.,NA,NA,"",   252.956E-03,  -251.434E-03,   27.7110E-03,   1.95142E-09
C:/temp/dataset/test2/15_7.odb,Step-1,Increment      1: Step Time =    1.000,"PART-1-1",           316,            5.,       10.3125,            0.,NA,NA,"",   258.914E-03,  -256.756E-03,   33.3560E-03,   2.61105E-09
C:/temp/dataset/test2/15_7.odb,Step-1,Increment      1: Step Time =    1.000,"PART-1-1",           317,            1.,       10.3125,            0.,NA,NA,"",   256.916E-03,  -256.692E-03,   10.7160E-03,   1.32329E-09
C:/temp/dataset/test2/15_7.odb,Step-1,Increment      1: Step Time =    1.000,"PART-1-1",           318,            2.,         9.375,            0.,NA,NA,"",   251.936E-03,  -251.402E-03,   16.3910E-03,   1.09861E-09
C:/temp/dataset/test2/15_7.odb,Step-1,Increment      1: Step Time =    1.000,"PART-1-1",           319,           -1.,       10.3125,            0.,NA,NA,"",   256.661E-03,  -256.660E-03,  -603.934E-06,   1.32324E-09
C:/temp/dataset/test2/15_7.odb,Step-1,Increment      1: Step Time =    1.000,"PART-1-1",           320,            0.,         9.375,            0.,NA,NA,"",   251.421E-03,  -251.370E-03,   5.07107E-03,   1.40871E-09
C:/temp/dataset/test2/15_7.odb,Step-1,Increment      1: Step Time =    1.000,"PART-1-1",           321,           -3.,       10.3125,            0.,NA,NA,"",   256.905E-03,  -256.628E-03,  -11.9239E-03,   1.30628E-09
C:/temp/dataset/test2/15_7.odb,Step-1,Increment      1: Step Time =    1.000,"PART-1-1",           322,           -2.,         9.375,            0.,NA,NA,"",   251.415E-03,  -251.338E-03,  -6.24890E-03,   1.09853E-09
C:/temp/dataset/test2/15_7.odb,Step-1,Increment      1: Step Time =    1.000,"PART-1-1",           323,           -5.,       10.3125,            0.,NA,NA,"",   257.646E-03,  -256.596E-03,  -23.2439E-03,   2.61109E-09
C:/temp/dataset/test2/15_7.odb,Step-1,Increment      1: Step Time =    1.000,"PART-1-1",           324,           -4.,         9.375,            0.,NA,NA,"",   251.919E-03,  -251.306E-03,  -17.5689E-03,   1.95143E-09
C:/temp/dataset/test2/15_7.odb,Step-1,Increment      1: Step Time =    1.000,"PART-1-1",           325,            3.,        8.4375,            0.,NA,NA,"",   247.099E-03,  -246.111E-03,   22.0660E-03,   746.599E-12
C:/temp/dataset/test2/15_7.odb,Step-1,Increment      1: Step Time =    1.000,"PART-1-1",           326,            4.,           7.5,            0.,NA,NA,"",   242.414E-03,  -240.821E-03,   27.7410E-03,   2.18735E-09
C:/temp/dataset/test2/15_7.odb,Step-1,Increment      1: Step Time =    1.000,"PART-1-1",           327,            5.,        8.4375,            0.,NA,NA,"",   248.397E-03,  -246.144E-03,   33.3860E-03,   4.03932E-09
C:/temp/dataset/test2/15_7.odb,Step-1,Increment      1: Step Time =    1.000,"PART-1-1",           328,            1.,        8.4375,            0.,NA,NA,"",   246.314E-03,  -246.079E-03,   10.7461E-03,   2.29777E-09
C:/temp/dataset/test2/15_7.odb,Step-1,Increment      1: Step Time =    1.000,"PART-1-1",           329,            2.,           7.5,            0.,NA,NA,"",   241.349E-03,  -240.789E-03,   16.4211E-03,   2.92606E-09
C:/temp/dataset/test2/15_7.odb,Step-1,Increment      1: Step Time =    1.000,"PART-1-1",           330,           -1.,        8.4375,            0.,NA,NA,"",   246.048E-03,  -246.047E-03,  -573.898E-06,   2.29782E-09
C:/temp/dataset/test2/15_7.odb,Step-1,Increment      1: Step Time =    1.000,"PART-1-1",           331,            0.,           7.5,            0.,NA,NA,"",   240.811E-03,  -240.757E-03,   5.10110E-03,   3.97759E-09
C:/temp/dataset/test2/15_7.odb,Step-1,Increment      1: Step Time =    1.000,"PART-1-1",           332,           -3.,        8.4375,            0.,NA,NA,"",   246.303E-03,  -246.015E-03,  -11.8939E-03,   746.646E-12
C:/temp/dataset/test2/15_7.odb,Step-1,Increment      1: Step Time =    1.000,"PART-1-1",           333,           -2.,           7.5,            0.,NA,NA,"",   240.805E-03,  -240.725E-03,  -6.21887E-03,   2.92642E-09
C:/temp/dataset/test2/15_7.odb,Step-1,Increment      1: Step Time =    1.000,"PART-1-1",           334,           -5.,        8.4375,            0.,NA,NA,"",   247.076E-03,  -245.983E-03,  -23.2139E-03,   4.03915E-09
C:/temp/dataset/test2/15_7.odb,Step-1,Increment      1: Step Time =    1.000,"PART-1-1",           335,           -4.,           7.5,            0.,NA,NA,"",   241.331E-03,  -240.693E-03,  -17.5388E-03,   2.18742E-09
C:/temp/dataset/test2/15_7.odb,Step-1,Increment      1: Step Time =    1.000,"PART-1-1",           336,            3.,        6.5625,            0.,NA,NA,"",   236.533E-03,  -235.499E-03,   22.0961E-03,   6.72583E-09
C:/temp/dataset/test2/15_7.odb,Step-1,Increment      1: Step Time =    1.000,"PART-1-1",           337,            4.,         5.625,            0.,NA,NA,"",   231.878E-03,  -230.209E-03,   27.7711E-03,   5.39194E-09
C:/temp/dataset/test2/15_7.odb,Step-1,Increment      1: Step Time =    1.000,"PART-1-1",           338,            5.,        6.5625,            0.,NA,NA,"",   237.890E-03,  -235.531E-03,   33.4160E-03,   3.58249E-09
C:/temp/dataset/test2/15_7.odb,Step-1,Increment      1: Step Time =    1.000,"PART-1-1",           339,            1.,        6.5625,            0.,NA,NA,"",   235.713E-03,  -235.467E-03,   10.7761E-03,   10.6158E-09
C:/temp/dataset/test2/15_7.odb,Step-1,Increment      1: Step Time =    1.000,"PART-1-1",           340,            2.,         5.625,            0.,NA,NA,"",   230.764E-03,  -230.177E-03,   16.4511E-03,   13.6836E-09
C:/temp/dataset/test2/15_7.odb,Step-1,Increment      1: Step Time =    1.000,"PART-1-1",           341,           -1.,        6.5625,            0.,NA,NA,"",   235.436E-03,  -235.435E-03,  -543.868E-06,   10.6162E-09
C:/temp/dataset/test2/15_7.odb,Step-1,Increment      1: Step Time =    1.000,"PART-1-1",           342,            0.,         5.625,            0.,NA,NA,"",   230.202E-03,  -230.145E-03,   5.13113E-03,   16.0044E-09
C:/temp/dataset/test2/15_7.odb,Step-1,Increment      1: Step Time =    1.000,"PART-1-1",           343,           -3.,        6.5625,            0.,NA,NA,"",   235.702E-03,  -235.403E-03,  -11.8638E-03,   6.72704E-09
C:/temp/dataset/test2/15_7.odb,Step-1,Increment      1: Step Time =    1.000,"PART-1-1",           344,           -2.,         5.625,            0.,NA,NA,"",   230.196E-03,  -230.113E-03,  -6.18884E-03,   13.6850E-09
C:/temp/dataset/test2/15_7.odb,Step-1,Increment      1: Step Time =    1.000,"PART-1-1",           345,           -5.,        6.5625,            0.,NA,NA,"",   236.510E-03,  -235.371E-03,  -23.1838E-03,   3.58111E-09
C:/temp/dataset/test2/15_7.odb,Step-1,Increment      1: Step Time =    1.000,"PART-1-1",           346,           -4.,         5.625,            0.,NA,NA,"",   230.746E-03,  -230.081E-03,  -17.5088E-03,   5.39342E-09
C:/temp/dataset/test2/15_7.odb,Step-1,Increment      1: Step Time =    1.000,"PART-1-1",           347,            3.,        4.6875,            0.,NA,NA,"",   225.972E-03,  -224.887E-03,   22.1261E-03,   26.0932E-09
C:/temp/dataset/test2/15_7.odb,Step-1,Increment      1: Step Time =    1.000,"PART-1-1",           348,            4.,          3.75,            0.,NA,NA,"",   221.349E-03,  -219.596E-03,   27.8011E-03,   22.4312E-09
C:/temp/dataset/test2/15_7.odb,Step-1,Increment      1: Step Time =    1.000,"PART-1-1",           349,            5.,        4.6875,            0.,NA,NA,"",   227.392E-03,  -224.919E-03,   33.4460E-03,   5.51107E-09
C:/temp/dataset/test2/15_7.odb,Step-1,Increment      1: Step Time =    1.000,"PART-1-1",           350,            1.,        4.6875,            0.,NA,NA,"",   225.114E-03,  -224.855E-03,   10.8061E-03,   34.4305E-09
C:/temp/dataset/test2/15_7.odb,Step-1,Increment      1: Step Time =    1.000,"PART-1-1",           351,            2.,          3.75,            0.,NA,NA,"",   220.182E-03,  -219.564E-03,   16.4811E-03,   42.2535E-09
C:/temp/dataset/test2/15_7.odb,Step-1,Increment      1: Step Time =    1.000,"PART-1-1",           352,           -1.,        4.6875,            0.,NA,NA,"",   224.823E-03,  -224.822E-03,  -513.852E-06,   34.4311E-09
C:/temp/dataset/test2/15_7.odb,Step-1,Increment      1: Step Time =    1.000,"PART-1-1",           353,            0.,          3.75,            0.,NA,NA,"",   219.593E-03,  -219.532E-03,   5.16112E-03,   47.4772E-09
C:/temp/dataset/test2/15_7.odb,Step-1,Increment      1: Step Time =    1.000,"PART-1-1",           354,           -3.,        4.6875,            0.,NA,NA,"",   225.102E-03,  -224.790E-03,  -11.8338E-03,   26.0962E-09
C:/temp/dataset/test2/15_7.odb,Step-1,Increment      1: Step Time =    1.000,"PART-1-1",           355,           -2.,          3.75,            0.,NA,NA,"",   219.587E-03,  -219.500E-03,  -6.15882E-03,   42.2558E-09
C:/temp/dataset/test2/15_7.odb,Step-1,Increment      1: Step Time =    1.000,"PART-1-1",           356,           -5.,        4.6875,            0.,NA,NA,"",   225.948E-03,  -224.758E-03,  -23.1538E-03,   5.51556E-09
C:/temp/dataset/test2/15_7.odb,Step-1,Increment      1: Step Time =    1.000,"PART-1-1",           357,           -4.,          3.75,            0.,NA,NA,"",   220.163E-03,  -219.468E-03,  -17.4788E-03,   22.4357E-09
C:/temp/dataset/test2/15_7.odb,Step-1,Increment      1: Step Time =    1.000,"PART-1-1",           358,            3.,        2.8125,            0.,NA,NA,"",   215.417E-03,  -214.274E-03,   22.1561E-03,   72.5912E-09
C:/temp/dataset/test2/15_7.odb,Step-1,Increment      1: Step Time =    1.000,"PART-1-1",           359,            4.,         1.875,            0.,NA,NA,"",   210.829E-03,  -208.984E-03,   27.8312E-03,   68.1217E-09
C:/temp/dataset/test2/15_7.odb,Step-1,Increment      1: Step Time =    1.000,"PART-1-1",           360,            5.,        2.8125,            0.,NA,NA,"",   216.905E-03,  -214.306E-03,   33.4761E-03,   38.8530E-09
C:/temp/dataset/test2/15_7.odb,Step-1,Increment      1: Step Time =    1.000,"PART-1-1",           361,            1.,        2.8125,            0.,NA,NA,"",   214.516E-03,  -214.242E-03,   10.8361E-03,   88.4292E-09
C:/temp/dataset/test2/15_7.odb,Step-1,Increment      1: Step Time =    1.000,"PART-1-1",           362,            2.,         1.875,            0.,NA,NA,"",   209.603E-03,  -208.952E-03,   16.5111E-03,   104.316E-09
C:/temp/dataset/test2/15_7.odb,Step-1,Increment      1: Step Time =    1.000,"PART-1-1",           363,           -1.,        2.8125,            0.,NA,NA,"",   214.210E-03,  -214.210E-03,  -483.877E-06,   88.4246E-09
C:/temp/dataset/test2/15_7.odb,Step-1,Increment      1: Step Time =    1.000,"PART-1-1",           364,            0.,         1.875,            0.,NA,NA,"",   208.984E-03,  -208.920E-03,   5.19104E-03,   115.018E-09
C:/temp/dataset/test2/15_7.odb,Step-1,Increment      1: Step Time =    1.000,"PART-1-1",           365,           -3.,        2.8125,            0.,NA,NA,"",   214.503E-03,  -214.178E-03,  -11.8038E-03,   72.5879E-09
C:/temp/dataset/test2/15_7.odb,Step-1,Increment      1: Step Time =    1.000,"PART-1-1",           366,           -2.,         1.875,            0.,NA,NA,"",   208.977E-03,  -208.888E-03,  -6.12884E-03,   104.312E-09
C:/temp/dataset/test2/15_7.odb,Step-1,Increment      1: Step Time =    1.000,"PART-1-1",           367,           -5.,        2.8125,            0.,NA,NA,"",   215.391E-03,  -214.146E-03,  -23.1237E-03,   38.8663E-09
C:/temp/dataset/test2/15_7.odb,Step-1,Increment      1: Step Time =    1.000,"PART-1-1",           368,           -4.,         1.875,            0.,NA,NA,"",   209.583E-03,  -208.856E-03,  -17.4487E-03,   68.1266E-09
C:/temp/dataset/test2/15_7.odb,Step-1,Increment      1: Step Time =    1.000,"PART-1-1",           369,            3.,     937.5E-03,            0.,NA,NA,"",   204.867E-03,  -203.662E-03,   22.1862E-03,   165.450E-09
C:/temp/dataset/test2/15_7.odb,Step-1,Increment      1: Step Time =    1.000,"PART-1-1",           370,            4.,            0.,            0.,NA,NA,"",   200.319E-03,  -198.372E-03,   27.8614E-03,   167.845E-09
C:/temp/dataset/test2/15_7.odb,Step-1,Increment      1: Step Time =    1.000,"PART-1-1",           371,            5.,     937.5E-03,            0.,NA,NA,"",   206.431E-03,  -203.694E-03,   33.5062E-03,   129.910E-09
C:/temp/dataset/test2/15_7.odb,Step-1,Increment      1: Step Time =    1.000,"PART-1-1",           372,            1.,     937.5E-03,            0.,NA,NA,"",   203.919E-03,  -203.630E-03,   10.8660E-03,   190.321E-09
C:/temp/dataset/test2/15_7.odb,Step-1,Increment      1: Step Time =    1.000,"PART-1-1",           373,            2.,            0.,            0.,NA,NA,"",   199.028E-03,  -198.340E-03,   16.5410E-03,   215.505E-09
C:/temp/dataset/test2/15_7.odb,Step-1,Increment      1: Step Time =    1.000,"PART-1-1",           374,           -1.,     937.5E-03,            0.,NA,NA,"",   203.598E-03,  -203.597E-03,  -453.994E-06,   190.283E-09
C:/temp/dataset/test2/15_7.odb,Step-1,Increment      1: Step Time =    1.000,"PART-1-1",           375,            0.,            0.,            0.,NA,NA,"",   198.376E-03,  -198.307E-03,   5.22081E-03,   234.802E-09
C:/temp/dataset/test2/15_7.odb,Step-1,Increment      1: Step Time =    1.000,"PART-1-1",           376,           -3.,     937.5E-03,            0.,NA,NA,"",   203.905E-03,  -203.565E-03,  -11.7737E-03,   165.388E-09
C:/temp/dataset/test2/15_7.odb,Step-1,Increment      1: Step Time =    1.000,"PART-1-1",           377,           -2.,            0.,            0.,NA,NA,"",   198.369E-03,  -198.275E-03,  -6.09893E-03,   215.432E-09
C:/temp/dataset/test2/15_7.odb,Step-1,Increment      1: Step Time =    1.000,"PART-1-1",           378,           -5.,     937.5E-03,            0.,NA,NA,"",   204.839E-03,  -203.533E-03,  -23.0936E-03,   129.909E-09
C:/temp/dataset/test2/15_7.odb,Step-1,Increment      1: Step Time =    1.000,"PART-1-1",           379,           -4.,            0.,            0.,NA,NA,"",   199.007E-03,  -198.243E-03,  -17.4185E-03,   167.802E-09
C:/temp/dataset/test2/15_7.odb,Step-1,Increment      1: Step Time =    1.000,"PART-1-1",           380,            3.,    -937.5E-03,            0.,NA,NA,"",   194.324E-03,  -193.050E-03,   22.2162E-03,   313.253E-09
C:/temp/dataset/test2/15_7.odb,Step-1,Increment      1: Step Time =    1.000,"PART-1-1",           381,            4.,        -1.875,            0.,NA,NA,"",   189.820E-03,  -187.759E-03,   27.8917E-03,   348.279E-09
C:/temp/dataset/test2/15_7.odb,Step-1,Increment      1: Step Time =    1.000,"PART-1-1",           382,            5.,    -937.5E-03,            0.,NA,NA,"",   195.972E-03,  -193.082E-03,   33.5366E-03,   333.820E-09
C:/temp/dataset/test2/15_7.odb,Step-1,Increment      1: Step Time =    1.000,"PART-1-1",           383,            1.,    -937.5E-03,            0.,NA,NA,"",   193.325E-03,  -193.017E-03,   10.8957E-03,   340.512E-09
C:/temp/dataset/test2/15_7.odb,Step-1,Increment      1: Step Time =    1.000,"PART-1-1",           384,            2.,        -1.875,            0.,NA,NA,"",   188.457E-03,  -187.727E-03,   16.5708E-03,   363.471E-09
C:/temp/dataset/test2/15_7.odb,Step-1,Increment      1: Step Time =    1.000,"PART-1-1",           385,           -1.,    -937.5E-03,            0.,NA,NA,"",   192.985E-03,  -192.985E-03,  -424.282E-06,   340.293E-09
C:/temp/dataset/test2/15_7.odb,Step-1,Increment      1: Step Time =    1.000,"PART-1-1",           386,            0.,        -1.875,            0.,NA,NA,"",   187.768E-03,  -187.695E-03,   5.25035E-03,   393.893E-09
C:/temp/dataset/test2/15_7.odb,Step-1,Increment      1: Step Time =    1.000,"PART-1-1",           387,           -3.,    -937.5E-03,            0.,NA,NA,"",   193.310E-03,  -192.953E-03,  -11.7437E-03,   312.855E-09
C:/temp/dataset/test2/15_7.odb,Step-1,Increment      1: Step Time =    1.000,"PART-1-1",           388,           -2.,        -1.875,            0.,NA,NA,"",   187.760E-03,  -187.662E-03,  -6.06914E-03,   363.033E-09
C:/temp/dataset/test2/15_7.odb,Step-1,Increment      1: Step Time =    1.000,"PART-1-1",           389,           -5.,    -937.5E-03,            0.,NA,NA,"",   194.294E-03,  -192.921E-03,  -23.0632E-03,   333.629E-09
C:/temp/dataset/test2/15_7.odb,Step-1,Increment      1: Step Time =    1.000,"PART-1-1",           390,           -4.,        -1.875,            0.,NA,NA,"",   188.434E-03,  -187.630E-03,  -17.3882E-03,   347.960E-09
C:/temp/dataset/test2/15_7.odb,Step-1,Increment      1: Step Time =    1.000,"PART-1-1",           391,            3.,       -2.8125,            0.,NA,NA,"",   183.789E-03,  -182.437E-03,   22.2463E-03,   458.451E-09
C:/temp/dataset/test2/15_7.odb,Step-1,Increment      1: Step Time =    1.000,"PART-1-1",           392,            4.,         -3.75,            0.,NA,NA,"",   179.334E-03,  -177.147E-03,   27.9224E-03,   597.029E-09
C:/temp/dataset/test2/15_7.odb,Step-1,Increment      1: Step Time =    1.000,"PART-1-1",           393,            5.,       -2.8125,            0.,NA,NA,"",   185.531E-03,  -182.469E-03,   33.5674E-03,   711.482E-09
C:/temp/dataset/test2/15_7.odb,Step-1,Increment      1: Step Time =    1.000,"PART-1-1",           394,            1.,       -2.8125,            0.,NA,NA,"",   182.732E-03,  -182.405E-03,   10.9252E-03,   466.858E-09
C:/temp/dataset/test2/15_7.odb,Step-1,Increment      1: Step Time =    1.000,"PART-1-1",           395,            2.,         -3.75,            0.,NA,NA,"",   177.891E-03,  -177.115E-03,   16.6004E-03,   436.272E-09
C:/temp/dataset/test2/15_7.odb,Step-1,Increment      1: Step Time =    1.000,"PART-1-1",           396,           -1.,       -2.8125,            0.,NA,NA,"",   182.373E-03,  -182.372E-03,  -394.805E-06,   465.935E-09
C:/temp/dataset/test2/15_7.odb,Step-1,Increment      1: Step Time =    1.000,"PART-1-1",           397,            0.,         -3.75,            0.,NA,NA,"",   177.161E-03,  -177.082E-03,   5.27964E-03,   493.199E-09
C:/temp/dataset/test2/15_7.odb,Step-1,Increment      1: Step Time =    1.000,"PART-1-1",           398,           -3.,       -2.8125,            0.,NA,NA,"",   182.716E-03,  -182.340E-03,  -11.7136E-03,   456.627E-09
C:/temp/dataset/test2/15_7.odb,Step-1,Increment      1: Step Time =    1.000,"PART-1-1",           399,           -2.,         -3.75,            0.,NA,NA,"",   177.153E-03,  -177.050E-03,  -6.03950E-03,   434.642E-09
C:/temp/dataset/test2/15_7.odb,Step-1,Increment      1: Step Time =    1.000,"PART-1-1",           400,           -5.,       -2.8125,            0.,NA,NA,"",   183.757E-03,  -182.308E-03,  -23.0324E-03,   710.115E-09
C:/temp/dataset/test2/15_7.odb,Step-1,Increment      1: Step Time =    1.000,"PART-1-1",           401,           -4.,         -3.75,            0.,NA,NA,"",   177.867E-03,  -177.018E-03,  -17.3575E-03,   595.450E-09
C:/temp/dataset/test2/15_7.odb,Step-1,Increment      1: Step Time =    1.000,"PART-1-1",           402,            3.,       -4.6875,            0.,NA,NA,"",   173.262E-03,  -171.824E-03,   22.2764E-03,   351.741E-09
C:/temp/dataset/test2/15_7.odb,Step-1,Increment      1: Step Time =    1.000,"PART-1-1",           403,            4.,        -5.625,            0.,NA,NA,"",   168.862E-03,  -166.532E-03,   27.9534E-03,   771.721E-09
C:/temp/dataset/test2/15_7.odb,Step-1,Increment      1: Step Time =    1.000,"PART-1-1",           404,            5.,       -4.6875,            0.,NA,NA,"",   175.109E-03,  -171.855E-03,   33.5992E-03,   1.24061E-06
C:/temp/dataset/test2/15_7.odb,Step-1,Increment      1: Step Time =    1.000,"PART-1-1",           405,            1.,       -4.6875,            0.,NA,NA,"",   172.141E-03,  -171.792E-03,   10.9545E-03,   498.570E-09
C:/temp/dataset/test2/15_7.odb,Step-1,Increment      1: Step Time =    1.000,"PART-1-1",           406,            2.,        -5.625,            0.,NA,NA,"",   167.329E-03,  -166.501E-03,   16.6301E-03,   471.706E-09
C:/temp/dataset/test2/15_7.odb,Step-1,Increment      1: Step Time =    1.000,"PART-1-1",           407,           -1.,       -4.6875,            0.,NA,NA,"",   171.761E-03,  -171.760E-03,  -365.450E-06,   496.678E-09
C:/temp/dataset/test2/15_7.odb,Step-1,Increment      1: Step Time =    1.000,"PART-1-1",           408,            0.,        -5.625,            0.,NA,NA,"",   166.555E-03,  -166.470E-03,   5.30912E-03,   740.477E-09
C:/temp/dataset/test2/15_7.odb,Step-1,Increment      1: Step Time =    1.000,"PART-1-1",           409,           -3.,       -4.6875,            0.,NA,NA,"",   172.125E-03,  -171.728E-03,  -11.6835E-03,   346.981E-09
C:/temp/dataset/test2/15_7.odb,Step-1,Increment      1: Step Time =    1.000,"PART-1-1",           410,           -2.,        -5.625,            0.,NA,NA,"",   166.547E-03,  -166.439E-03,  -6.00984E-03,   473.311E-09
C:/temp/dataset/test2/15_7.odb,Step-1,Increment      1: Step Time =    1.000,"PART-1-1",           411,           -5.,       -4.6875,            0.,NA,NA,"",   173.231E-03,  -171.697E-03,  -23.0007E-03,   1.23386E-06
C:/temp/dataset/test2/15_7.odb,Step-1,Increment      1: Step Time =    1.000,"PART-1-1",           412,           -4.,        -5.625,            0.,NA,NA,"",   167.307E-03,  -166.407E-03,  -17.3265E-03,   767.252E-09
C:/temp/dataset/test2/15_7.odb,Step-1,Increment      1: Step Time =    1.000,"PART-1-1",           413,            3.,       -6.5625,            0.,NA,NA,"",   162.744E-03,  -161.208E-03,   22.3065E-03,   1.04726E-06
C:/temp/dataset/test2/15_7.odb,Step-1,Increment      1: Step Time =    1.000,"PART-1-1",           414,            4.,          -7.5,            0.,NA,NA,"",   158.405E-03,  -155.914E-03,   27.9843E-03,   1.02220E-06
C:/temp/dataset/test2/15_7.odb,Step-1,Increment      1: Step Time =    1.000,"PART-1-1",           415,            5.,       -6.5625,            0.,NA,NA,"",   164.710E-03,  -161.239E-03,   33.6320E-03,   1.53439E-06
C:/temp/dataset/test2/15_7.odb,Step-1,Increment      1: Step Time =    1.000,"PART-1-1",           416,            1.,       -6.5625,            0.,NA,NA,"",   161.552E-03,  -161.178E-03,   10.9845E-03,   2.03426E-06
C:/temp/dataset/test2/15_7.odb,Step-1,Increment      1: Step Time =    1.000,"PART-1-1",           417,            2.,          -7.5,            0.,NA,NA,"",   156.771E-03,  -155.884E-03,   16.6606E-03,   2.67762E-06
C:/temp/dataset/test2/15_7.odb,Step-1,Increment      1: Step Time =    1.000,"PART-1-1",           418,           -1.,       -6.5625,            0.,NA,NA,"",   161.150E-03,  -161.149E-03,  -335.442E-06,   2.03473E-06
C:/temp/dataset/test2/15_7.odb,Step-1,Increment      1: Step Time =    1.000,"PART-1-1",           419,            0.,          -7.5,            0.,NA,NA,"",   155.949E-03,  -155.857E-03,   5.34053E-03,   3.26052E-06
C:/temp/dataset/test2/15_7.odb,Step-1,Increment      1: Step Time =    1.000,"PART-1-1",           420,           -3.,       -6.5625,            0.,NA,NA,"",   161.540E-03,  -161.119E-03,  -11.6534E-03,   1.05990E-06
C:/temp/dataset/test2/15_7.odb,Step-1,Increment      1: Step Time =    1.000,"PART-1-1",           421,           -2.,          -7.5,            0.,NA,NA,"",   155.946E-03,  -155.831E-03,  -5.97940E-03,   2.68818E-06
C:/temp/dataset/test2/15_7.odb,Step-1,Increment      1: Step Time =    1.000,"PART-1-1",           422,           -5.,       -6.5625,            0.,NA,NA,"",   162.717E-03,  -161.088E-03,  -22.9680E-03,   1.51149E-06
C:/temp/dataset/test2/15_7.odb,Step-1,Increment      1: Step Time =    1.000,"PART-1-1",           423,           -4.,          -7.5,            0.,NA,NA,"",   156.758E-03,  -155.801E-03,  -17.2957E-03,   1.03730E-06
C:/temp/dataset/test2/15_7.odb,Step-1,Increment      1: Step Time =    1.000,"PART-1-1",           424,            3.,       -8.4375,            0.,NA,NA,"",   152.234E-03,  -150.586E-03,   22.3366E-03,   5.47837E-06
C:/temp/dataset/test2/15_7.odb,Step-1,Increment      1: Step Time =    1.000,"PART-1-1",           425,            4.,        -9.375,            0.,NA,NA,"",   147.962E-03,  -145.286E-03,   28.0131E-03,   4.50167E-06
C:/temp/dataset/test2/15_7.odb,Step-1,Increment      1: Step Time =    1.000,"PART-1-1",           426,            5.,       -8.4375,            0.,NA,NA,"",   154.334E-03,  -150.617E-03,   33.6651E-03,   337.622E-09
C:/temp/dataset/test2/15_7.odb,Step-1,Increment      1: Step Time =    1.000,"PART-1-1",           427,            1.,       -8.4375,            0.,NA,NA,"",   150.964E-03,  -150.561E-03,   11.0178E-03,   7.64023E-06
C:/temp/dataset/test2/15_7.odb,Step-1,Increment      1: Step Time =    1.000,"PART-1-1",           428,            2.,        -9.375,            0.,NA,NA,"",   146.215E-03,  -145.259E-03,   16.6941E-03,   9.55104E-06
C:/temp/dataset/test2/15_7.odb,Step-1,Increment      1: Step Time =    1.000,"PART-1-1",           429,           -1.,       -8.4375,            0.,NA,NA,"",   150.541E-03,  -150.541E-03,  -302.211E-06,   7.61925E-06
C:/temp/dataset/test2/15_7.odb,Step-1,Increment      1: Step Time =    1.000,"PART-1-1",           430,            0.,        -9.375,            0.,NA,NA,"",   145.345E-03,  -145.245E-03,   5.37879E-03,   10.8678E-06
C:/temp/dataset/test2/15_7.odb,Step-1,Increment      1: Step Time =    1.000,"PART-1-1",           431,           -3.,       -8.4375,            0.,NA,NA,"",   150.964E-03,  -150.516E-03,  -11.6234E-03,   5.46614E-06
C:/temp/dataset/test2/15_7.odb,Step-1,Increment      1: Step Time =    1.000,"PART-1-1",           432,           -2.,        -9.375,            0.,NA,NA,"",   145.352E-03,  -145.231E-03,  -5.94595E-03,   9.53685E-06
C:/temp/dataset/test2/15_7.odb,Step-1,Increment      1: Step Time =    1.000,"PART-1-1",           433,           -5.,       -8.4375,            0.,NA,NA,"",   152.223E-03,  -150.485E-03,  -22.9351E-03,   324.368E-09
C:/temp/dataset/test2/15_7.odb,Step-1,Increment      1: Step Time =    1.000,"PART-1-1",           434,           -4.,        -9.375,            0.,NA,NA,"",   146.227E-03,  -145.204E-03,  -17.2671E-03,   4.51290E-06
C:/temp/dataset/test2/15_7.odb,Step-1,Increment      1: Step Time =    1.000,"PART-1-1",           435,            3.,      -10.3125,            0.,NA,NA,"",   141.727E-03,  -139.951E-03,   22.3664E-03,   17.1798E-06
C:/temp/dataset/test2/15_7.odb,Step-1,Increment      1: Step Time =    1.000,"PART-1-1",           436,            4.,        -11.25,            0.,NA,NA,"",   137.529E-03,  -134.641E-03,   28.0339E-03,   15.5181E-06
C:/temp/dataset/test2/15_7.odb,Step-1,Increment      1: Step Time =    1.000,"PART-1-1",           437,            5.,      -10.3125,            0.,NA,NA,"",   143.982E-03,  -139.984E-03,   33.6938E-03,   7.03833E-06
C:/temp/dataset/test2/15_7.odb,Step-1,Increment      1: Step Time =    1.000,"PART-1-1",           438,            1.,      -10.3125,            0.,NA,NA,"",   140.375E-03,  -139.939E-03,   11.0609E-03,   21.4999E-06
C:/temp/dataset/test2/15_7.odb,Step-1,Increment      1: Step Time =    1.000,"PART-1-1",           439,            2.,        -11.25,            0.,NA,NA,"",   135.657E-03,  -134.621E-03,   16.7364E-03,   25.8797E-06
C:/temp/dataset/test2/15_7.odb,Step-1,Increment      1: Step Time =    1.000,"PART-1-1",           440,           -1.,      -10.3125,            0.,NA,NA,"",   139.939E-03,  -139.939E-03,  -259.279E-06,   21.3339E-06
C:/temp/dataset/test2/15_7.odb,Step-1,Increment      1: Step Time =    1.000,"PART-1-1",           441,            0.,        -11.25,            0.,NA,NA,"",   134.743E-03,  -134.633E-03,   5.43526E-03,   28.5413E-06
C:/temp/dataset/test2/15_7.odb,Step-1,Increment      1: Step Time =    1.000,"PART-1-1",           442,           -3.,      -10.3125,            0.,NA,NA,"",   140.405E-03,  -139.926E-03,  -11.5938E-03,   16.9336E-06
C:/temp/dataset/test2/15_7.odb,Step-1,Increment      1: Step Time =    1.000,"PART-1-1",           443,           -2.,        -11.25,            0.,NA,NA,"",   134.774E-03,  -134.644E-03,  -5.90428E-03,   25.5356E-06
C:/temp/dataset/test2/15_7.odb,Step-1,Increment      1: Step Time =    1.000,"PART-1-1",           444,           -5.,      -10.3125,            0.,NA,NA,"",   141.756E-03,  -139.893E-03,  -22.9067E-03,   7.03929E-06
C:/temp/dataset/test2/15_7.odb,Step-1,Increment      1: Step Time =    1.000,"PART-1-1",           445,           -4.,        -11.25,            0.,NA,NA,"",   135.723E-03,  -134.623E-03,  -17.2467E-03,   15.3635E-06
C:/temp/dataset/test2/15_7.odb,Step-1,Increment      1: Step Time =    1.000,"PART-1-1",           446,            3.,      -12.1875,            0.,NA,NA,"",   131.220E-03,  -129.295E-03,   22.3957E-03,   43.1802E-06
C:/temp/dataset/test2/15_7.odb,Step-1,Increment      1: Step Time =    1.000,"PART-1-1",           447,            4.,       -13.125,            0.,NA,NA,"",   127.103E-03,  -123.973E-03,   28.0320E-03,   42.1949E-06
C:/temp/dataset/test2/15_7.odb,Step-1,Increment      1: Step Time =    1.000,"PART-1-1",           448,            5.,      -12.1875,            0.,NA,NA,"",   133.655E-03,  -129.335E-03,   33.7042E-03,   28.8920E-06
C:/temp/dataset/test2/15_7.odb,Step-1,Increment      1: Step Time =    1.000,"PART-1-1",           449,            1.,      -12.1875,            0.,NA,NA,"",   129.785E-03,  -129.307E-03,   11.1283E-03,   50.1527E-06
C:/temp/dataset/test2/15_7.odb,Step-1,Increment      1: Step Time =    1.000,"PART-1-1",           450,            2.,       -13.125,            0.,NA,NA,"",   125.096E-03,  -123.963E-03,   16.7991E-03,   58.1989E-06
C:/temp/dataset/test2/15_7.odb,Step-1,Increment      1: Step Time =    1.000,"PART-1-1",           451,           -1.,      -12.1875,            0.,NA,NA,"",   129.348E-03,  -129.347E-03,  -193.095E-06,   49.1837E-06
C:/temp/dataset/test2/15_7.odb,Step-1,Increment      1: Step Time =    1.000,"PART-1-1",           452,            0.,       -13.125,            0.,NA,NA,"",   124.146E-03,  -124.023E-03,   5.53144E-03,   62.7299E-06
C:/temp/dataset/test2/15_7.odb,Step-1,Increment      1: Step Time =    1.000,"PART-1-1",           453,           -3.,      -12.1875,            0.,NA,NA,"",   129.872E-03,  -129.356E-03,  -11.5656E-03,   41.2701E-06
C:/temp/dataset/test2/15_7.odb,Step-1,Increment      1: Step Time =    1.000,"PART-1-1",           454,           -2.,       -13.125,            0.,NA,NA,"",   124.215E-03,  -124.078E-03,  -5.84481E-03,   56.3207E-06
C:/temp/dataset/test2/15_7.odb,Step-1,Increment      1: Step Time =    1.000,"PART-1-1",           455,           -5.,      -12.1875,            0.,NA,NA,"",   131.327E-03,  -129.315E-03,  -22.8970E-03,   28.2163E-06
C:/temp/dataset/test2/15_7.odb,Step-1,Increment      1: Step Time =    1.000,"PART-1-1",           456,           -4.,       -13.125,            0.,NA,NA,"",   125.256E-03,  -124.062E-03,  -17.2483E-03,   40.5632E-06
C:/temp/dataset/test2/15_7.odb,Step-1,Increment      1: Step Time =    1.000,"PART-1-1",           457,            3.,      -14.0625,            0.,NA,NA,"",   120.715E-03,  -118.614E-03,   22.4234E-03,   90.4968E-06
C:/temp/dataset/test2/15_7.odb,Step-1,Increment      1: Step Time =    1.000,"PART-1-1",           458,            4.,          -15.,            0.,NA,NA,"",   116.697E-03,  -113.293E-03,   27.9813E-03,   96.5792E-06
C:/temp/dataset/test2/15_7.odb,Step-1,Increment      1: Step Time =    1.000,"PART-1-1",           459,            5.,      -14.0625,            0.,NA,NA,"",   123.354E-03,  -118.674E-03,   33.6583E-03,   84.8030E-06
C:/temp/dataset/test2/15_7.odb,Step-1,Increment      1: Step Time =    1.000,"PART-1-1",           460,            1.,      -14.0625,            0.,NA,NA,"",   119.200E-03,  -118.669E-03,   11.2454E-03,   98.6006E-06
C:/temp/dataset/test2/15_7.odb,Step-1,Increment      1: Step Time =    1.000,"PART-1-1",           461,            2.,          -15.,            0.,NA,NA,"",   114.551E-03,  -113.297E-03,   16.9039E-03,   111.160E-06
C:/temp/dataset/test2/15_7.odb,Step-1,Increment      1: Step Time =    1.000,"PART-1-1",           462,           -1.,      -14.0625,            0.,NA,NA,"",   118.769E-03,  -118.769E-03,  -81.6003E-06,   94.5440E-06
C:/temp/dataset/test2/15_7.odb,Step-1,Increment      1: Step Time =    1.000,"PART-1-1",           463,            0.,          -15.,            0.,NA,NA,"",   113.563E-03,  -113.420E-03,   5.69897E-03,   115.263E-06
C:/temp/dataset/test2/15_7.odb,Step-1,Increment      1: Step Time =    1.000,"PART-1-1",           464,           -3.,      -14.0625,            0.,NA,NA,"",   119.368E-03,  -118.808E-03,  -11.5415E-03,   82.7684E-06
C:/temp/dataset/test2/15_7.odb,Step-1,Increment      1: Step Time =    1.000,"PART-1-1",           465,           -2.,          -15.,            0.,NA,NA,"",   113.669E-03,  -113.524E-03,  -5.75490E-03,   102.139E-06
C:/temp/dataset/test2/15_7.odb,Step-1,Increment      1: Step Time =    1.000,"PART-1-1",           466,           -5.,      -14.0625,            0.,NA,NA,"",   120.941E-03,  -118.746E-03,  -22.9403E-03,   78.1064E-06
C:/temp/dataset/test2/15_7.odb,Step-1,Increment      1: Step Time =    1.000,"PART-1-1",           467,           -4.,          -15.,            0.,NA,NA,"",   114.818E-03,  -113.507E-03,  -17.2981E-03,   88.4952E-06
C:/temp/dataset/test2/15_7.odb,Step-1,Increment      1: Step Time =    1.000,"PART-1-1",           468,            3.,      -15.9375,            0.,NA,NA,"",   110.252E-03,  -107.941E-03,   22.4557E-03,   161.881E-06
C:/temp/dataset/test2/15_7.odb,Step-1,Increment      1: Step Time =    1.000,"PART-1-1",           469,            4.,       -16.875,            0.,NA,NA,"",   106.382E-03,  -102.678E-03,   27.8263E-03,   188.736E-06
C:/temp/dataset/test2/15_7.odb,Step-1,Increment      1: Step Time =    1.000,"PART-1-1",           470,            5.,      -15.9375,            0.,NA,NA,"",   113.117E-03,  -108.048E-03,   33.4823E-03,   200.985E-06
C:/temp/dataset/test2/15_7.odb,Step-1,Increment      1: Step Time =    1.000,"PART-1-1",           471,            1.,      -15.9375,            0.,NA,NA,"",   108.650E-03,  -108.045E-03,   11.4470E-03,   156.895E-06
C:/temp/dataset/test2/15_7.odb,Step-1,Increment      1: Step Time =    1.000,"PART-1-1",           472,            2.,       -16.875,            0.,NA,NA,"",   104.099E-03,  -102.688E-03,   17.0813E-03,   164.878E-06
C:/temp/dataset/test2/15_7.odb,Step-1,Increment      1: Step Time =    1.000,"PART-1-1",           473,           -1.,      -15.9375,            0.,NA,NA,"",   108.194E-03,  -108.194E-03,   97.8633E-06,   144.325E-06
C:/temp/dataset/test2/15_7.odb,Step-1,Increment      1: Step Time =    1.000,"PART-1-1",           474,            0.,       -16.875,            0.,NA,NA,"",   103.006E-03,  -102.833E-03,   5.95834E-03,   165.603E-06
C:/temp/dataset/test2/15_7.odb,Step-1,Increment      1: Step Time =    1.000,"PART-1-1",           475,           -3.,      -15.9375,            0.,NA,NA,"",   108.858E-03,  -108.246E-03,  -11.5286E-03,   130.997E-06
C:/temp/dataset/test2/15_7.odb,Step-1,Increment      1: Step Time =    1.000,"PART-1-1",           476,           -2.,       -16.875,            0.,NA,NA,"",   103.079E-03,  -102.925E-03,  -5.63247E-03,   139.544E-06
C:/temp/dataset/test2/15_7.odb,Step-1,Increment      1: Step Time =    1.000,"PART-1-1",           477,           -5.,      -15.9375,            0.,NA,NA,"",   110.576E-03,  -108.136E-03,  -23.1019E-03,   172.943E-06
C:/temp/dataset/test2/15_7.odb,Step-1,Increment      1: Step Time =    1.000,"PART-1-1",           478,           -4.,       -16.875,            0.,NA,NA,"",   104.340E-03,  -102.874E-03,  -17.4335E-03,   159.324E-06
C:/temp/dataset/test2/15_7.odb,Step-1,Increment      1: Step Time =    1.000,"PART-1-1",           479,            3.,      -17.8125,            0.,NA,NA,"",   99.9990E-03,  -97.4349E-03,   22.4997E-03,   196.635E-06
C:/temp/dataset/test2/15_7.odb,Step-1,Increment      1: Step Time =    1.000,"PART-1-1",           480,            4.,        -18.75,            0.,NA,NA,"",   96.4509E-03,  -92.4304E-03,   27.5571E-03,   299.805E-06
C:/temp/dataset/test2/15_7.odb,Step-1,Increment      1: Step Time =    1.000,"PART-1-1",           481,            5.,      -17.8125,            0.,NA,NA,"",   103.040E-03,  -97.6137E-03,   32.9981E-03,   435.450E-06
C:/temp/dataset/test2/15_7.odb,Step-1,Increment      1: Step Time =    1.000,"PART-1-1",           482,            1.,      -17.8125,            0.,NA,NA,"",   98.2206E-03,  -97.5162E-03,   11.7422E-03,   184.756E-06
C:/temp/dataset/test2/15_7.odb,Step-1,Increment      1: Step Time =    1.000,"PART-1-1",           483,            2.,        -18.75,            0.,NA,NA,"",   93.9723E-03,  -92.3575E-03,   17.3461E-03,   168.834E-06
C:/temp/dataset/test2/15_7.odb,Step-1,Increment      1: Step Time =    1.000,"PART-1-1",           484,           -1.,      -17.8125,            0.,NA,NA,"",   97.5623E-03,  -97.5618E-03,   328.930E-06,   149.633E-06
C:/temp/dataset/test2/15_7.odb,Step-1,Increment      1: Step Time =    1.000,"PART-1-1",           485,            0.,        -18.75,            0.,NA,NA,"",   92.4691E-03,  -92.2587E-03,   6.23483E-03,   191.218E-06
C:/temp/dataset/test2/15_7.odb,Step-1,Increment      1: Step Time =    1.000,"PART-1-1",           486,           -3.,      -17.8125,            0.,NA,NA,"",   98.2100E-03,  -97.5294E-03,  -11.5425E-03,   133.643E-06
C:/temp/dataset/test2/15_7.odb,Step-1,Increment      1: Step Time =    1.000,"PART-1-1",           487,           -2.,        -18.75,            0.,NA,NA,"",   92.2500E-03,  -92.0848E-03,  -5.51771E-03,   115.134E-06
C:/temp/dataset/test2/15_7.odb,Step-1,Increment      1: Step Time =    1.000,"PART-1-1",           488,           -5.,      -17.8125,            0.,NA,NA,"",   100.126E-03,  -97.3359E-03,  -23.4734E-03,   308.756E-06
C:/temp/dataset/test2/15_7.odb,Step-1,Increment      1: Step Time =    1.000,"PART-1-1",           489,           -4.,        -18.75,            0.,NA,NA,"",   93.6064E-03,  -91.9219E-03,  -17.6786E-03,   223.526E-06
C:/temp/dataset/test2/15_7.odb,Step-1,Increment      1: Step Time =    1.000,"PART-1-1",           490,            3.,      -19.6875,            0.,NA,NA,"",   90.4507E-03,  -87.5697E-03,   22.6468E-03,   243.944E-06
C:/temp/dataset/test2/15_7.odb,Step-1,Increment      1: Step Time =    1.000,"PART-1-1",           491,            4.,       -20.625,            0.,NA,NA,"",   87.8033E-03,  -83.5168E-03,   27.0991E-03,   531.124E-06
C:/temp/dataset/test2/15_7.odb,Step-1,Increment      1: Step Time =    1.000,"PART-1-1",           492,            5.,      -19.6875,            0.,NA,NA,"",   93.5914E-03,  -87.9464E-03,   32.0120E-03,   716.888E-06
C:/temp/dataset/test2/15_7.odb,Step-1,Increment      1: Step Time =    1.000,"PART-1-1",           493,            1.,      -19.6875,            0.,NA,NA,"",   88.0350E-03,  -87.2161E-03,   11.9796E-03,   428.257E-06
C:/temp/dataset/test2/15_7.odb,Step-1,Increment      1: Step Time =    1.000,"PART-1-1",           494,            2.,       -20.625,            0.,NA,NA,"",   84.6230E-03,  -82.8027E-03,   17.4576E-03,   758.122E-06
C:/temp/dataset/test2/15_7.odb,Step-1,Increment      1: Step Time =    1.000,"PART-1-1",           495,           -1.,      -19.6875,            0.,NA,NA,"",   86.6471E-03,  -86.6458E-03,   460.046E-06,   314.745E-06
C:/temp/dataset/test2/15_7.odb,Step-1,Increment      1: Step Time =    1.000,"PART-1-1",           496,            0.,       -20.625,            0.,NA,NA,"",   81.6979E-03,  -81.4647E-03,   6.16928E-03,   654.434E-06
C:/temp/dataset/test2/15_7.odb,Step-1,Increment      1: Step Time =    1.000,"PART-1-1",           497,           -3.,      -19.6875,            0.,NA,NA,"",   87.0744E-03,  -86.2988E-03,  -11.5955E-03,   104.090E-06
C:/temp/dataset/test2/15_7.odb,Step-1,Increment      1: Step Time =    1.000,"PART-1-1",           498,           -2.,       -20.625,            0.,NA,NA,"",   80.7007E-03,  -80.5119E-03,  -5.51698E-03,   413.592E-06
C:/temp/dataset/test2/15_7.odb,Step-1,Increment      1: Step Time =    1.000,"PART-1-1",           499,           -5.,      -19.6875,            0.,NA,NA,"",   89.3287E-03,  -86.0136E-03,  -24.1096E-03,   411.538E-06
C:/temp/dataset/test2/15_7.odb,Step-1,Increment      1: Step Time =    1.000,"PART-1-1",           500,           -4.,       -20.625,            0.,NA,NA,"",   82.1490E-03,  -80.1608E-03,  -17.9638E-03,   240.832E-06
C:/temp/dataset/test2/15_7.odb,Step-1,Increment      1: Step Time =    1.000,"PART-1-1",           501,            3.,      -21.5625,            0.,NA,NA,"",   83.0578E-03,  -79.9412E-03,   22.5388E-03,   2.05288E-03
C:/temp/dataset/test2/15_7.odb,Step-1,Increment      1: Step Time =    1.000,"PART-1-1",           502,            4.,         -22.5,            0.,NA,NA,"",   84.0692E-03,  -79.5211E-03,   27.2766E-03,   4.04308E-03
C:/temp/dataset/test2/15_7.odb,Step-1,Increment      1: Step Time =    1.000,"PART-1-1",           503,            5.,      -21.5625,            0.,NA,NA,"",   86.0121E-03,  -80.6454E-03,   29.9065E-03,   931.083E-06
C:/temp/dataset/test2/15_7.odb,Step-1,Increment      1: Step Time =    1.000,"PART-1-1",           504,            1.,      -21.5625,            0.,NA,NA,"",   77.7900E-03,  -76.9545E-03,   11.3705E-03,   1.62206E-03
C:/temp/dataset/test2/15_7.odb,Step-1,Increment      1: Step Time =    1.000,"PART-1-1",           505,            2.,         -22.5,            0.,NA,NA,"",   75.4218E-03,  -73.7338E-03,   15.8672E-03,   2.99388E-03
C:/temp/dataset/test2/15_7.odb,Step-1,Increment      1: Step Time =    1.000,"PART-1-1",           506,           -1.,      -21.5625,            0.,NA,NA,"",   74.7739E-03,  -74.7737E-03,   167.567E-06,   1.15556E-03
C:/temp/dataset/test2/15_7.odb,Step-1,Increment      1: Step Time =    1.000,"PART-1-1",           507,            0.,         -22.5,            0.,NA,NA,"",   69.5918E-03,  -69.4072E-03,   5.06596E-03,   2.08979E-03
C:/temp/dataset/test2/15_7.odb,Step-1,Increment      1: Step Time =    1.000,"PART-1-1",           508,           -3.,      -21.5625,            0.,NA,NA,"",   74.7905E-03,  -73.8822E-03,  -11.6205E-03,   651.503E-06
C:/temp/dataset/test2/15_7.odb,Step-1,Increment      1: Step Time =    1.000,"PART-1-1",           509,           -2.,         -22.5,            0.,NA,NA,"",   67.5618E-03,  -67.3221E-03,  -5.68644E-03,   1.38029E-03
C:/temp/dataset/test2/15_7.odb,Step-1,Increment      1: Step Time =    1.000,"PART-1-1",           510,           -5.,      -21.5625,            0.,NA,NA,"",   77.7062E-03,  -73.6262E-03,  -24.8483E-03,   289.278E-06
C:/temp/dataset/test2/15_7.odb,Step-1,Increment      1: Step Time =    1.000,"PART-1-1",           511,           -4.,         -22.5,            0.,NA,NA,"",   69.2719E-03,  -66.8976E-03,  -17.9806E-03,   518.420E-06
C:/temp/dataset/test2/15_7.odb,Step-1,Increment      1: Step Time =    1.000,"PART-1-1",           512,            3.,      -23.4375,            0.,NA,NA,"",   74.6519E-03,  -72.1047E-03,   19.3346E-03,   5.54753E-03
C:/temp/dataset/test2/15_7.odb,Step-1,Increment      1: Step Time =    1.000,"PART-1-1",           513,            4.,       -24.375,            0.,NA,NA,"",   74.5341E-03,  -71.1293E-03,   22.2701E-03,   7.07108E-03
C:/temp/dataset/test2/15_7.odb,Step-1,Increment      1: Step Time =    1.000,"PART-1-1",           514,            5.,      -23.4375,            0.,NA,NA,"",   87.8706E-03,  -82.8415E-03,   29.3008E-03,   5.78885E-03
C:/temp/dataset/test2/15_7.odb,Step-1,Increment      1: Step Time =    1.000,"PART-1-1",           515,            1.,      -23.4375,            0.,NA,NA,"",   65.2800E-03,  -64.6860E-03,   8.78633E-03,   3.72572E-03
C:/temp/dataset/test2/15_7.odb,Step-1,Increment      1: Step Time =    1.000,"PART-1-1",           516,            2.,       -24.375,            0.,NA,NA,"",   61.5205E-03,  -60.5046E-03,   11.1341E-03,   5.95490E-03
C:/temp/dataset/test2/15_7.odb,Step-1,Increment      1: Step Time =    1.000,"PART-1-1",           517,           -1.,      -23.4375,            0.,NA,NA,"",   60.6918E-03,  -60.6873E-03,  -736.383E-06,   2.67173E-03
C:/temp/dataset/test2/15_7.odb,Step-1,Increment      1: Step Time =    1.000,"PART-1-1",           518,            0.,       -24.375,            0.,NA,NA,"",   54.1996E-03,  -54.1275E-03,   2.79458E-03,   4.17574E-03
C:/temp/dataset/test2/15_7.odb,Step-1,Increment      1: Step Time =    1.000,"PART-1-1",           519,           -3.,      -23.4375,            0.,NA,NA,"",   60.5409E-03,  -59.4741E-03,  -11.3151E-03,   1.71695E-03
C:/temp/dataset/test2/15_7.odb,Step-1,Increment      1: Step Time =    1.000,"PART-1-1",           520,           -2.,       -24.375,            0.,NA,NA,"",   51.9168E-03,  -51.6067E-03,  -5.66588E-03,   2.87874E-03
C:/temp/dataset/test2/15_7.odb,Step-1,Increment      1: Step Time =    1.000,"PART-1-1",           521,           -5.,      -23.4375,            0.,NA,NA,"",   64.6868E-03,  -59.6271E-03,  -25.0796E-03,   392.188E-06
C:/temp/dataset/test2/15_7.odb,Step-1,Increment      1: Step Time =    1.000,"PART-1-1",           522,           -4.,       -24.375,            0.,NA,NA,"",   54.3114E-03,  -51.5741E-03,  -17.0249E-03,   1.45274E-03
C:/temp/dataset/test2/15_7.odb,Step-1,Increment      1: Step Time =    1.000,"PART-1-1",           523,            3.,      -25.3125,            0.,NA,NA,"",   56.5648E-03,  -55.1321E-03,   12.6502E-03,   7.86298E-03
C:/temp/dataset/test2/15_7.odb,Step-1,Increment      1: Step Time =    1.000,"PART-1-1",           524,            4.,        -26.25,            0.,NA,NA,"",   49.2286E-03,  -46.7582E-03,   15.3989E-03,   6.82000E-03
C:/temp/dataset/test2/15_7.odb,Step-1,Increment      1: Step Time =    1.000,"PART-1-1",           525,            5.,      -25.3125,            0.,NA,NA,"",   73.2793E-03,  -66.9640E-03,   29.7603E-03,   5.96380E-03
C:/temp/dataset/test2/15_7.odb,Step-1,Increment      1: Step Time =    1.000,"PART-1-1",           526,            1.,      -25.3125,            0.,NA,NA,"",   47.6155E-03,  -47.3782E-03,   4.74787E-03,   5.72748E-03
C:/temp/dataset/test2/15_7.odb,Step-1,Increment      1: Step Time =    1.000,"PART-1-1",           527,            2.,        -26.25,            0.,NA,NA,"",   39.9835E-03,  -39.5796E-03,   5.66885E-03,   7.09210E-03
C:/temp/dataset/test2/15_7.odb,Step-1,Increment      1: Step Time =    1.000,"PART-1-1",           528,           -1.,      -25.3125,            0.,NA,NA,"",   43.4981E-03,  -43.4671E-03,  -1.64194E-03,   4.37126E-03
C:/temp/dataset/test2/15_7.odb,Step-1,Increment      1: Step Time =    1.000,"PART-1-1",           529,            0.,        -26.25,            0.,NA,NA,"",   35.1115E-03,  -35.1063E-03,   609.203E-06,   5.77309E-03
C:/temp/dataset/test2/15_7.odb,Step-1,Increment      1: Step Time =    1.000,"PART-1-1",           530,           -3.,      -25.3125,            0.,NA,NA,"",   43.8542E-03,  -42.7125E-03,  -9.94169E-03,   3.19731E-03
C:/temp/dataset/test2/15_7.odb,Step-1,Increment      1: Step Time =    1.000,"PART-1-1",           531,           -2.,        -26.25,            0.,NA,NA,"",   33.8203E-03,  -33.4803E-03,  -4.78351E-03,   4.52406E-03
C:/temp/dataset/test2/15_7.odb,Step-1,Increment      1: Step Time =    1.000,"PART-1-1",           532,           -5.,      -25.3125,            0.,NA,NA,"",   49.8079E-03,  -43.8726E-03,  -23.5802E-03,   1.76696E-03
C:/temp/dataset/test2/15_7.odb,Step-1,Increment      1: Step Time =    1.000,"PART-1-1",           533,           -4.,        -26.25,            0.,NA,NA,"",   37.3248E-03,  -34.5334E-03,  -14.1628E-03,   2.97913E-03
C:/temp/dataset/test2/15_7.odb,Step-1,Increment      1: Step Time =    1.000,"PART-1-1",           534,            3.,      -27.1875,            0.,NA,NA,"",   30.6347E-03,  -29.8697E-03,   6.80341E-03,   7.18403E-03
C:/temp/dataset/test2/15_7.odb,Step-1,Increment      1: Step Time =    1.000,"PART-1-1",           535,            4.,       -28.125,            0.,NA,NA,"",   20.8790E-03,  -18.7615E-03,   9.16184E-03,   5.94005E-03
C:/temp/dataset/test2/15_7.odb,Step-1,Increment      1: Step Time =    1.000,"PART-1-1",           536,            5.,      -27.1875,            0.,NA,NA,"",   41.8541E-03,  -33.8987E-03,   24.5488E-03,   5.83270E-03
C:/temp/dataset/test2/15_7.odb,Step-1,Increment      1: Step Time =    1.000,"PART-1-1",           537,            1.,      -27.1875,            0.,NA,NA,"",   26.3425E-03,  -26.2926E-03,   1.61930E-03,   6.40130E-03
C:/temp/dataset/test2/15_7.odb,Step-1,Increment      1: Step Time =    1.000,"PART-1-1",           538,            2.,       -28.125,            0.,NA,NA,"",   16.9027E-03,  -16.7830E-03,   2.00807E-03,   6.42769E-03
C:/temp/dataset/test2/15_7.odb,Step-1,Increment      1: Step Time =    1.000,"PART-1-1",           539,           -1.,      -27.1875,            0.,NA,NA,"",   24.4016E-03,  -24.3429E-03,  -1.69254E-03,   5.44817E-03
C:/temp/dataset/test2/15_7.odb,Step-1,Increment      1: Step Time =    1.000,"PART-1-1",           540,            0.,       -28.125,            0.,NA,NA,"",   15.4913E-03,  -15.4891E-03,  -256.643E-06,   5.79197E-03
C:/temp/dataset/test2/15_7.odb,Step-1,Increment      1: Step Time =    1.000,"PART-1-1",           541,           -3.,      -27.1875,            0.,NA,NA,"",   25.3280E-03,  -24.3765E-03,  -6.87692E-03,   4.88609E-03
C:/temp/dataset/test2/15_7.odb,Step-1,Increment      1: Step Time =    1.000,"PART-1-1",           542,           -2.,       -28.125,            0.,NA,NA,"",   15.2173E-03,  -14.9982E-03,  -2.57308E-03,   5.43652E-03
C:/temp/dataset/test2/15_7.odb,Step-1,Increment      1: Step Time =    1.000,"PART-1-1",           543,           -5.,      -27.1875,            0.,NA,NA,"",   33.3525E-03,  -27.2499E-03,  -19.2311E-03,   4.35937E-03
C:/temp/dataset/test2/15_7.odb,Step-1,Increment      1: Step Time =    1.000,"PART-1-1",           544,           -4.,       -28.125,            0.,NA,NA,"",   17.9728E-03,  -16.1352E-03,  -7.91687E-03,   5.23402E-03
C:/temp/dataset/test2/15_7.odb,Step-1,Increment      1: Step Time =    1.000,"PART-1-1",           545,            3.,      -29.0625,            0.,NA,NA,"",   7.41186E-03,  -7.08727E-03,   2.16940E-03,   5.54286E-03
C:/temp/dataset/test2/15_7.odb,Step-1,Increment      1: Step Time =    1.000,"PART-1-1",           546,            4.,          -30.,            0.,NA,NA,"",            0.,  -852.481E-42,   8.66606E-39,   8.90311E-03
C:/temp/dataset/test2/15_7.odb,Step-1,Increment      1: Step Time =    1.000,"PART-1-1",           547,            5.,      -29.0625,            0.,NA,NA,"",   15.0492E-03,  -11.3234E-03,   9.91261E-03,   10.7505E-03
C:/temp/dataset/test2/15_7.odb,Step-1,Increment      1: Step Time =    1.000,"PART-1-1",           548,            1.,      -29.0625,            0.,NA,NA,"",   7.19207E-03,  -7.18465E-03,   326.766E-06,   5.25123E-03
C:/temp/dataset/test2/15_7.odb,Step-1,Increment      1: Step Time =    1.000,"PART-1-1",           549,            2.,          -30.,            0.,NA,NA,"",            0.,  -3.15559E-39,   2.44912E-39,   4.26091E-03
C:/temp/dataset/test2/15_7.odb,Step-1,Increment      1: Step Time =    1.000,"PART-1-1",           550,           -1.,      -29.0625,            0.,NA,NA,"",   6.90352E-03,  -6.86219E-03,  -754.304E-06,   4.95134E-03
C:/temp/dataset/test2/15_7.odb,Step-1,Increment      1: Step Time =    1.000,"PART-1-1",           551,            0.,          -30.,            0.,NA,NA,"",            0.,  -3.33416E-39,  -554.843E-42,   4.30601E-03
C:/temp/dataset/test2/15_7.odb,Step-1,Increment      1: Step Time =    1.000,"PART-1-1",           552,           -3.,      -29.0625,            0.,NA,NA,"",   6.92675E-03,  -6.54461E-03,  -2.26890E-03,   5.23231E-03
C:/temp/dataset/test2/15_7.odb,Step-1,Increment      1: Step Time =    1.000,"PART-1-1",           553,           -2.,          -30.,            0.,NA,NA,"",            0.,  -3.10558E-39,  -3.18335E-39,   4.38451E-03
C:/temp/dataset/test2/15_7.odb,Step-1,Increment      1: Step Time =    1.000,"PART-1-1",           554,           -5.,      -29.0625,            0.,NA,NA,"",   12.9541E-03,  -9.94312E-03,  -8.30324E-03,   8.81929E-03
C:/temp/dataset/test2/15_7.odb,Step-1,Increment      1: Step Time =    1.000,"PART-1-1",           555,           -4.,          -30.,            0.,NA,NA,"",            0.,  -1.14224E-39,  -7.74340E-39,   8.02386E-03
