ODB Name,Step,Frame,Part Instance Name,    êﬂì_ÉâÉxÉã,X,Y,Z,Section Name,Material Name,Section Point,   U-Magnitude,          U-U1,          U-U2,       S-Mises
C:/temp/dataset/test2/16_5.odb,Step-1,Increment      1: Step Time =    1.000,"PART-1-1",             1,            5.,           30.,            0.,NA,NA,"",   76.8601E-03,  -76.4066E-03,   8.33735E-03,   40.9325E-12
C:/temp/dataset/test2/16_5.odb,Step-1,Increment      1: Step Time =    1.000,"PART-1-1",             2,            3.,           30.,            0.,NA,NA,"",   76.6447E-03,  -76.4053E-03,   6.05392E-03,   38.8064E-12
C:/temp/dataset/test2/16_5.odb,Step-1,Increment      1: Step Time =    1.000,"PART-1-1",             3,            1.,           30.,            0.,NA,NA,"",   76.4970E-03,  -76.4040E-03,   3.77050E-03,   39.9833E-12
C:/temp/dataset/test2/16_5.odb,Step-1,Increment      1: Step Time =    1.000,"PART-1-1",             4,           -1.,           30.,            0.,NA,NA,"",   76.4171E-03,  -76.4027E-03,   1.48707E-03,   49.5256E-12
C:/temp/dataset/test2/16_5.odb,Step-1,Increment      1: Step Time =    1.000,"PART-1-1",             5,           -3.,           30.,            0.,NA,NA,"",   76.4055E-03,  -76.4014E-03,  -796.355E-06,   61.9576E-12
C:/temp/dataset/test2/16_5.odb,Step-1,Increment      1: Step Time =    1.000,"PART-1-1",             6,           -5.,           30.,            0.,NA,NA,"",   76.4621E-03,  -76.4001E-03,  -3.07978E-03,   43.3741E-12
C:/temp/dataset/test2/16_5.odb,Step-1,Increment      1: Step Time =    1.000,"PART-1-1",             7,            5.,        28.125,            0.,NA,NA,"",   74.7325E-03,  -74.2659E-03,   8.33857E-03,   64.8269E-12
C:/temp/dataset/test2/16_5.odb,Step-1,Increment      1: Step Time =    1.000,"PART-1-1",             8,            3.,        28.125,            0.,NA,NA,"",   74.5110E-03,  -74.2646E-03,   6.05515E-03,   46.6158E-12
C:/temp/dataset/test2/16_5.odb,Step-1,Increment      1: Step Time =    1.000,"PART-1-1",             9,            1.,        28.125,            0.,NA,NA,"",   74.3590E-03,  -74.2633E-03,   3.77172E-03,   52.4262E-12
C:/temp/dataset/test2/16_5.odb,Step-1,Increment      1: Step Time =    1.000,"PART-1-1",            10,           -1.,        28.125,            0.,NA,NA,"",   74.2769E-03,  -74.2620E-03,   1.48829E-03,   52.0250E-12
C:/temp/dataset/test2/16_5.odb,Step-1,Increment      1: Step Time =    1.000,"PART-1-1",            11,           -3.,        28.125,            0.,NA,NA,"",   74.2649E-03,  -74.2607E-03,  -795.133E-06,   40.0912E-12
C:/temp/dataset/test2/16_5.odb,Step-1,Increment      1: Step Time =    1.000,"PART-1-1",            12,           -5.,        28.125,            0.,NA,NA,"",   74.3231E-03,  -74.2593E-03,  -3.07856E-03,   39.9100E-12
C:/temp/dataset/test2/16_5.odb,Step-1,Increment      1: Step Time =    1.000,"PART-1-1",            13,            5.,         26.25,            0.,NA,NA,"",   72.6057E-03,  -72.1252E-03,   8.33979E-03,   73.4575E-12
C:/temp/dataset/test2/16_5.odb,Step-1,Increment      1: Step Time =    1.000,"PART-1-1",            14,            3.,         26.25,            0.,NA,NA,"",   72.3777E-03,  -72.1239E-03,   6.05637E-03,   57.0077E-12
C:/temp/dataset/test2/16_5.odb,Step-1,Increment      1: Step Time =    1.000,"PART-1-1",            15,            1.,         26.25,            0.,NA,NA,"",   72.2212E-03,  -72.1226E-03,   3.77294E-03,   54.7826E-12
C:/temp/dataset/test2/16_5.odb,Step-1,Increment      1: Step Time =    1.000,"PART-1-1",            16,           -1.,         26.25,            0.,NA,NA,"",   72.1366E-03,  -72.1212E-03,   1.48952E-03,   49.4038E-12
C:/temp/dataset/test2/16_5.odb,Step-1,Increment      1: Step Time =    1.000,"PART-1-1",            17,           -3.,         26.25,            0.,NA,NA,"",   72.1243E-03,  -72.1199E-03,  -793.911E-06,   36.7893E-12
C:/temp/dataset/test2/16_5.odb,Step-1,Increment      1: Step Time =    1.000,"PART-1-1",            18,           -5.,         26.25,            0.,NA,NA,"",   72.1843E-03,  -72.1186E-03,  -3.07734E-03,   44.1828E-12
C:/temp/dataset/test2/16_5.odb,Step-1,Increment      1: Step Time =    1.000,"PART-1-1",            19,            5.,        24.375,            0.,NA,NA,"",   70.4798E-03,  -69.9844E-03,   8.34102E-03,   89.0801E-12
C:/temp/dataset/test2/16_5.odb,Step-1,Increment      1: Step Time =    1.000,"PART-1-1",            20,            3.,        24.375,            0.,NA,NA,"",   70.2448E-03,  -69.9831E-03,   6.05759E-03,   67.4871E-12
C:/temp/dataset/test2/16_5.odb,Step-1,Increment      1: Step Time =    1.000,"PART-1-1",            21,            1.,        24.375,            0.,NA,NA,"",   70.0835E-03,  -69.9818E-03,   3.77416E-03,   56.5071E-12
C:/temp/dataset/test2/16_5.odb,Step-1,Increment      1: Step Time =    1.000,"PART-1-1",            22,           -1.,        24.375,            0.,NA,NA,"",   69.9964E-03,  -69.9805E-03,   1.49074E-03,   47.4150E-12
C:/temp/dataset/test2/16_5.odb,Step-1,Increment      1: Step Time =    1.000,"PART-1-1",            23,           -3.,        24.375,            0.,NA,NA,"",   69.9837E-03,  -69.9792E-03,  -792.689E-06,   40.9591E-12
C:/temp/dataset/test2/16_5.odb,Step-1,Increment      1: Step Time =    1.000,"PART-1-1",            24,           -5.,        24.375,            0.,NA,NA,"",   70.0455E-03,  -69.9779E-03,  -3.07612E-03,   56.7017E-12
C:/temp/dataset/test2/16_5.odb,Step-1,Increment      1: Step Time =    1.000,"PART-1-1",            25,            5.,          22.5,            0.,NA,NA,"",   68.3547E-03,  -67.8437E-03,   8.34224E-03,   106.356E-12
C:/temp/dataset/test2/16_5.odb,Step-1,Increment      1: Step Time =    1.000,"PART-1-1",            26,            3.,          22.5,            0.,NA,NA,"",   68.1124E-03,  -67.8424E-03,   6.05881E-03,   78.0837E-12
C:/temp/dataset/test2/16_5.odb,Step-1,Increment      1: Step Time =    1.000,"PART-1-1",            27,            1.,          22.5,            0.,NA,NA,"",   67.9461E-03,  -67.8411E-03,   3.77539E-03,   59.0732E-12
C:/temp/dataset/test2/16_5.odb,Step-1,Increment      1: Step Time =    1.000,"PART-1-1",            28,           -1.,          22.5,            0.,NA,NA,"",   67.8562E-03,  -67.8398E-03,   1.49196E-03,   46.7523E-12
C:/temp/dataset/test2/16_5.odb,Step-1,Increment      1: Step Time =    1.000,"PART-1-1",            29,           -3.,          22.5,            0.,NA,NA,"",   67.8431E-03,  -67.8385E-03,  -791.467E-06,   47.9702E-12
C:/temp/dataset/test2/16_5.odb,Step-1,Increment      1: Step Time =    1.000,"PART-1-1",            30,           -5.,          22.5,            0.,NA,NA,"",   67.9069E-03,  -67.8372E-03,  -3.07489E-03,   73.6881E-12
C:/temp/dataset/test2/16_5.odb,Step-1,Increment      1: Step Time =    1.000,"PART-1-1",            31,            5.,        20.625,            0.,NA,NA,"",   66.2307E-03,  -65.7030E-03,   8.34346E-03,   123.694E-12
C:/temp/dataset/test2/16_5.odb,Step-1,Increment      1: Step Time =    1.000,"PART-1-1",            32,            3.,        20.625,            0.,NA,NA,"",   65.9806E-03,  -65.7017E-03,   6.06003E-03,   89.1115E-12
C:/temp/dataset/test2/16_5.odb,Step-1,Increment      1: Step Time =    1.000,"PART-1-1",            33,            1.,        20.625,            0.,NA,NA,"",   65.8089E-03,  -65.7004E-03,   3.77661E-03,   62.4232E-12
C:/temp/dataset/test2/16_5.odb,Step-1,Increment      1: Step Time =    1.000,"PART-1-1",            34,           -1.,        20.625,            0.,NA,NA,"",   65.7161E-03,  -65.6991E-03,   1.49318E-03,   46.9303E-12
C:/temp/dataset/test2/16_5.odb,Step-1,Increment      1: Step Time =    1.000,"PART-1-1",            35,           -3.,        20.625,            0.,NA,NA,"",   65.7026E-03,  -65.6978E-03,  -790.245E-06,   56.5003E-12
C:/temp/dataset/test2/16_5.odb,Step-1,Increment      1: Step Time =    1.000,"PART-1-1",            36,           -5.,        20.625,            0.,NA,NA,"",   65.7684E-03,  -65.6965E-03,  -3.07367E-03,   93.4572E-12
C:/temp/dataset/test2/16_5.odb,Step-1,Increment      1: Step Time =    1.000,"PART-1-1",            37,            5.,         18.75,            0.,NA,NA,"",   64.1077E-03,  -63.5623E-03,   8.34468E-03,   141.044E-12
C:/temp/dataset/test2/16_5.odb,Step-1,Increment      1: Step Time =    1.000,"PART-1-1",            38,            3.,         18.75,            0.,NA,NA,"",   63.8494E-03,  -63.5610E-03,   6.06126E-03,   101.189E-12
C:/temp/dataset/test2/16_5.odb,Step-1,Increment      1: Step Time =    1.000,"PART-1-1",            39,            1.,         18.75,            0.,NA,NA,"",   63.6719E-03,  -63.5597E-03,   3.77783E-03,   66.6419E-12
C:/temp/dataset/test2/16_5.odb,Step-1,Increment      1: Step Time =    1.000,"PART-1-1",            40,           -1.,         18.75,            0.,NA,NA,"",   63.5760E-03,  -63.5584E-03,   1.49440E-03,   48.4051E-12
C:/temp/dataset/test2/16_5.odb,Step-1,Increment      1: Step Time =    1.000,"PART-1-1",            41,           -3.,         18.75,            0.,NA,NA,"",   63.5620E-03,  -63.5571E-03,  -789.023E-06,   65.8334E-12
C:/temp/dataset/test2/16_5.odb,Step-1,Increment      1: Step Time =    1.000,"PART-1-1",            42,           -5.,         18.75,            0.,NA,NA,"",   63.6300E-03,  -63.5558E-03,  -3.07245E-03,   114.416E-12
C:/temp/dataset/test2/16_5.odb,Step-1,Increment      1: Step Time =    1.000,"PART-1-1",            43,            5.,        16.875,            0.,NA,NA,"",   61.9860E-03,  -61.4216E-03,   8.34590E-03,   161.099E-12
C:/temp/dataset/test2/16_5.odb,Step-1,Increment      1: Step Time =    1.000,"PART-1-1",            44,            3.,        16.875,            0.,NA,NA,"",   61.7188E-03,  -61.4203E-03,   6.06248E-03,   115.924E-12
C:/temp/dataset/test2/16_5.odb,Step-1,Increment      1: Step Time =    1.000,"PART-1-1",            45,            1.,        16.875,            0.,NA,NA,"",   61.5351E-03,  -61.4190E-03,   3.77905E-03,   72.5917E-12
C:/temp/dataset/test2/16_5.odb,Step-1,Increment      1: Step Time =    1.000,"PART-1-1",            46,           -1.,        16.875,            0.,NA,NA,"",   61.4359E-03,  -61.4177E-03,   1.49563E-03,   54.7890E-12
C:/temp/dataset/test2/16_5.odb,Step-1,Increment      1: Step Time =    1.000,"PART-1-1",            47,           -3.,        16.875,            0.,NA,NA,"",   61.4214E-03,  -61.4164E-03,  -787.800E-06,   75.5420E-12
C:/temp/dataset/test2/16_5.odb,Step-1,Increment      1: Step Time =    1.000,"PART-1-1",            48,           -5.,        16.875,            0.,NA,NA,"",   61.4918E-03,  -61.4151E-03,  -3.07123E-03,   133.261E-12
C:/temp/dataset/test2/16_5.odb,Step-1,Increment      1: Step Time =    1.000,"PART-1-1",            49,            5.,           15.,            0.,NA,NA,"",   59.8657E-03,  -59.2809E-03,   8.34712E-03,   193.116E-12
C:/temp/dataset/test2/16_5.odb,Step-1,Increment      1: Step Time =    1.000,"PART-1-1",            50,            3.,           15.,            0.,NA,NA,"",   59.5889E-03,  -59.2796E-03,   6.06370E-03,   139.503E-12
C:/temp/dataset/test2/16_5.odb,Step-1,Increment      1: Step Time =    1.000,"PART-1-1",            51,            1.,           15.,            0.,NA,NA,"",   59.3987E-03,  -59.2783E-03,   3.78027E-03,   88.4833E-12
C:/temp/dataset/test2/16_5.odb,Step-1,Increment      1: Step Time =    1.000,"PART-1-1",            52,           -1.,           15.,            0.,NA,NA,"",   59.2959E-03,  -59.2770E-03,   1.49685E-03,   80.7809E-12
C:/temp/dataset/test2/16_5.odb,Step-1,Increment      1: Step Time =    1.000,"PART-1-1",            53,           -3.,           15.,            0.,NA,NA,"",   59.2809E-03,  -59.2757E-03,  -786.578E-06,   90.4013E-12
C:/temp/dataset/test2/16_5.odb,Step-1,Increment      1: Step Time =    1.000,"PART-1-1",            54,           -5.,           15.,            0.,NA,NA,"",   59.3538E-03,  -59.2744E-03,  -3.07000E-03,   140.544E-12
C:/temp/dataset/test2/16_5.odb,Step-1,Increment      1: Step Time =    1.000,"PART-1-1",            55,            5.,        13.125,            0.,NA,NA,"",   57.7468E-03,  -57.1402E-03,   8.34835E-03,   260.945E-12
C:/temp/dataset/test2/16_5.odb,Step-1,Increment      1: Step Time =    1.000,"PART-1-1",            56,            3.,        13.125,            0.,NA,NA,"",   57.4598E-03,  -57.1389E-03,   6.06492E-03,   192.407E-12
C:/temp/dataset/test2/16_5.odb,Step-1,Increment      1: Step Time =    1.000,"PART-1-1",            57,            1.,        13.125,            0.,NA,NA,"",   57.2626E-03,  -57.1376E-03,   3.78150E-03,   144.490E-12
C:/temp/dataset/test2/16_5.odb,Step-1,Increment      1: Step Time =    1.000,"PART-1-1",            58,           -1.,        13.125,            0.,NA,NA,"",   57.1559E-03,  -57.1363E-03,   1.49807E-03,   155.056E-12
C:/temp/dataset/test2/16_5.odb,Step-1,Increment      1: Step Time =    1.000,"PART-1-1",            59,           -3.,        13.125,            0.,NA,NA,"",   57.1404E-03,  -57.1350E-03,  -785.356E-06,   136.025E-12
C:/temp/dataset/test2/16_5.odb,Step-1,Increment      1: Step Time =    1.000,"PART-1-1",            60,           -5.,        13.125,            0.,NA,NA,"",   57.2160E-03,  -57.1337E-03,  -3.06878E-03,   113.870E-12
C:/temp/dataset/test2/16_5.odb,Step-1,Increment      1: Step Time =    1.000,"PART-1-1",            61,            5.,         11.25,            0.,NA,NA,"",   55.6296E-03,  -54.9995E-03,   8.34957E-03,   414.853E-12
C:/temp/dataset/test2/16_5.odb,Step-1,Increment      1: Step Time =    1.000,"PART-1-1",            62,            3.,         11.25,            0.,NA,NA,"",   55.3317E-03,  -54.9982E-03,   6.06614E-03,   312.988E-12
C:/temp/dataset/test2/16_5.odb,Step-1,Increment      1: Step Time =    1.000,"PART-1-1",            63,            1.,         11.25,            0.,NA,NA,"",   55.1268E-03,  -54.9969E-03,   3.78272E-03,   278.034E-12
C:/temp/dataset/test2/16_5.odb,Step-1,Increment      1: Step Time =    1.000,"PART-1-1",            64,           -1.,         11.25,            0.,NA,NA,"",   55.0160E-03,  -54.9956E-03,   1.49929E-03,   305.359E-12
C:/temp/dataset/test2/16_5.odb,Step-1,Increment      1: Step Time =    1.000,"PART-1-1",            65,           -3.,         11.25,            0.,NA,NA,"",   54.9998E-03,  -54.9942E-03,  -784.134E-06,   257.062E-12
C:/temp/dataset/test2/16_5.odb,Step-1,Increment      1: Step Time =    1.000,"PART-1-1",            66,           -5.,         11.25,            0.,NA,NA,"",   55.0784E-03,  -54.9929E-03,  -3.06756E-03,   48.8853E-12
C:/temp/dataset/test2/16_5.odb,Step-1,Increment      1: Step Time =    1.000,"PART-1-1",            67,            5.,         9.375,            0.,NA,NA,"",   53.5143E-03,  -52.8588E-03,   8.35079E-03,   739.015E-12
C:/temp/dataset/test2/16_5.odb,Step-1,Increment      1: Step Time =    1.000,"PART-1-1",            68,            3.,         9.375,            0.,NA,NA,"",   53.2045E-03,  -52.8574E-03,   6.06736E-03,   522.333E-12
C:/temp/dataset/test2/16_5.odb,Step-1,Increment      1: Step Time =    1.000,"PART-1-1",            69,            1.,         9.375,            0.,NA,NA,"",   52.9914E-03,  -52.8561E-03,   3.78394E-03,   488.805E-12
C:/temp/dataset/test2/16_5.odb,Step-1,Increment      1: Step Time =    1.000,"PART-1-1",            70,           -1.,         9.375,            0.,NA,NA,"",   52.8761E-03,  -52.8548E-03,   1.50051E-03,   531.496E-12
C:/temp/dataset/test2/16_5.odb,Step-1,Increment      1: Step Time =    1.000,"PART-1-1",            71,           -3.,         9.375,            0.,NA,NA,"",   52.8593E-03,  -52.8535E-03,  -782.912E-06,   470.235E-12
C:/temp/dataset/test2/16_5.odb,Step-1,Increment      1: Step Time =    1.000,"PART-1-1",            72,           -5.,         9.375,            0.,NA,NA,"",   52.9411E-03,  -52.8522E-03,  -3.06634E-03,   299.802E-12
C:/temp/dataset/test2/16_5.odb,Step-1,Increment      1: Step Time =    1.000,"PART-1-1",            73,            5.,           7.5,            0.,NA,NA,"",   51.4011E-03,  -50.7180E-03,   8.35201E-03,   1.32754E-09
C:/temp/dataset/test2/16_5.odb,Step-1,Increment      1: Step Time =    1.000,"PART-1-1",            74,            3.,           7.5,            0.,NA,NA,"",   51.0785E-03,  -50.7167E-03,   6.06859E-03,   736.009E-12
C:/temp/dataset/test2/16_5.odb,Step-1,Increment      1: Step Time =    1.000,"PART-1-1",            75,            1.,           7.5,            0.,NA,NA,"",   50.8565E-03,  -50.7154E-03,   3.78516E-03,   664.751E-12
C:/temp/dataset/test2/16_5.odb,Step-1,Increment      1: Step Time =    1.000,"PART-1-1",            76,           -1.,           7.5,            0.,NA,NA,"",   50.7364E-03,  -50.7141E-03,   1.50174E-03,   726.365E-12
C:/temp/dataset/test2/16_5.odb,Step-1,Increment      1: Step Time =    1.000,"PART-1-1",            77,           -3.,           7.5,            0.,NA,NA,"",   50.7189E-03,  -50.7128E-03,  -781.690E-06,   689.165E-12
C:/temp/dataset/test2/16_5.odb,Step-1,Increment      1: Step Time =    1.000,"PART-1-1",            78,           -5.,           7.5,            0.,NA,NA,"",   50.8041E-03,  -50.7115E-03,  -3.06512E-03,   845.587E-12
C:/temp/dataset/test2/16_5.odb,Step-1,Increment      1: Step Time =    1.000,"PART-1-1",            79,            5.,         5.625,            0.,NA,NA,"",   49.2903E-03,  -48.5773E-03,   8.35323E-03,   2.15311E-09
C:/temp/dataset/test2/16_5.odb,Step-1,Increment      1: Step Time =    1.000,"PART-1-1",            80,            3.,         5.625,            0.,NA,NA,"",   48.9538E-03,  -48.5760E-03,   6.06981E-03,   581.514E-12
C:/temp/dataset/test2/16_5.odb,Step-1,Increment      1: Step Time =    1.000,"PART-1-1",            81,            1.,         5.625,            0.,NA,NA,"",   48.7221E-03,  -48.5747E-03,   3.78639E-03,   693.697E-12
C:/temp/dataset/test2/16_5.odb,Step-1,Increment      1: Step Time =    1.000,"PART-1-1",            82,           -1.,         5.625,            0.,NA,NA,"",   48.5967E-03,  -48.5734E-03,   1.50296E-03,   763.619E-12
C:/temp/dataset/test2/16_5.odb,Step-1,Increment      1: Step Time =    1.000,"PART-1-1",            83,           -3.,         5.625,            0.,NA,NA,"",   48.5784E-03,  -48.5721E-03,  -780.467E-06,   554.663E-12
C:/temp/dataset/test2/16_5.odb,Step-1,Increment      1: Step Time =    1.000,"PART-1-1",            84,           -5.,         5.625,            0.,NA,NA,"",   48.6674E-03,  -48.5708E-03,  -3.06390E-03,   1.62957E-09
C:/temp/dataset/test2/16_5.odb,Step-1,Increment      1: Step Time =    1.000,"PART-1-1",            85,            5.,          3.75,            0.,NA,NA,"",   47.1822E-03,  -46.4366E-03,   8.35445E-03,   2.65343E-09
C:/temp/dataset/test2/16_5.odb,Step-1,Increment      1: Step Time =    1.000,"PART-1-1",            86,            3.,          3.75,            0.,NA,NA,"",   46.8305E-03,  -46.4353E-03,   6.07103E-03,   1.49746E-09
C:/temp/dataset/test2/16_5.odb,Step-1,Increment      1: Step Time =    1.000,"PART-1-1",            87,            1.,          3.75,            0.,NA,NA,"",   46.5882E-03,  -46.4340E-03,   3.78761E-03,   2.98652E-09
C:/temp/dataset/test2/16_5.odb,Step-1,Increment      1: Step Time =    1.000,"PART-1-1",            88,           -1.,          3.75,            0.,NA,NA,"",   46.4571E-03,  -46.4327E-03,   1.50418E-03,   2.97407E-09
C:/temp/dataset/test2/16_5.odb,Step-1,Increment      1: Step Time =    1.000,"PART-1-1",            89,           -3.,          3.75,            0.,NA,NA,"",   46.4379E-03,  -46.4314E-03,  -779.245E-06,   1.56704E-09
C:/temp/dataset/test2/16_5.odb,Step-1,Increment      1: Step Time =    1.000,"PART-1-1",            90,           -5.,          3.75,            0.,NA,NA,"",   46.5310E-03,  -46.4301E-03,  -3.06268E-03,   2.08859E-09
C:/temp/dataset/test2/16_5.odb,Step-1,Increment      1: Step Time =    1.000,"PART-1-1",            91,            5.,         1.875,            0.,NA,NA,"",   45.0771E-03,  -44.2959E-03,   8.35566E-03,   932.623E-12
C:/temp/dataset/test2/16_5.odb,Step-1,Increment      1: Step Time =    1.000,"PART-1-1",            92,            3.,         1.875,            0.,NA,NA,"",   44.7089E-03,  -44.2946E-03,   6.07225E-03,   8.03274E-09
C:/temp/dataset/test2/16_5.odb,Step-1,Increment      1: Step Time =    1.000,"PART-1-1",            93,            1.,         1.875,            0.,NA,NA,"",   44.4551E-03,  -44.2933E-03,   3.78882E-03,   11.2846E-09
C:/temp/dataset/test2/16_5.odb,Step-1,Increment      1: Step Time =    1.000,"PART-1-1",            94,           -1.,         1.875,            0.,NA,NA,"",   44.3176E-03,  -44.2920E-03,   1.50540E-03,   11.2424E-09
C:/temp/dataset/test2/16_5.odb,Step-1,Increment      1: Step Time =    1.000,"PART-1-1",            95,           -3.,         1.875,            0.,NA,NA,"",   44.2975E-03,  -44.2907E-03,  -778.023E-06,   8.09540E-09
C:/temp/dataset/test2/16_5.odb,Step-1,Increment      1: Step Time =    1.000,"PART-1-1",            96,           -5.,         1.875,            0.,NA,NA,"",   44.3951E-03,  -44.2894E-03,  -3.06146E-03,   793.136E-12
C:/temp/dataset/test2/16_5.odb,Step-1,Increment      1: Step Time =    1.000,"PART-1-1",            97,            5.,            0.,            0.,NA,NA,"",   42.9756E-03,  -42.1553E-03,   8.35689E-03,   9.82939E-09
C:/temp/dataset/test2/16_5.odb,Step-1,Increment      1: Step Time =    1.000,"PART-1-1",            98,            3.,            0.,            0.,NA,NA,"",   42.5892E-03,  -42.1540E-03,   6.07347E-03,   25.2938E-09
C:/temp/dataset/test2/16_5.odb,Step-1,Increment      1: Step Time =    1.000,"PART-1-1",            99,            1.,            0.,            0.,NA,NA,"",   42.3227E-03,  -42.1526E-03,   3.79002E-03,   31.8011E-09
C:/temp/dataset/test2/16_5.odb,Step-1,Increment      1: Step Time =    1.000,"PART-1-1",           100,           -1.,            0.,            0.,NA,NA,"",   42.1782E-03,  -42.1513E-03,   1.50660E-03,   31.7429E-09
C:/temp/dataset/test2/16_5.odb,Step-1,Increment      1: Step Time =    1.000,"PART-1-1",           101,           -3.,            0.,            0.,NA,NA,"",   42.1571E-03,  -42.1499E-03,  -776.800E-06,   25.3565E-09
C:/temp/dataset/test2/16_5.odb,Step-1,Increment      1: Step Time =    1.000,"PART-1-1",           102,           -5.,            0.,            0.,NA,NA,"",   42.2596E-03,  -42.1486E-03,  -3.06023E-03,   10.4644E-09
C:/temp/dataset/test2/16_5.odb,Step-1,Increment      1: Step Time =    1.000,"PART-1-1",           103,            5.,        -1.875,            0.,NA,NA,"",   40.8782E-03,  -40.0146E-03,   8.35815E-03,   41.7640E-09
C:/temp/dataset/test2/16_5.odb,Step-1,Increment      1: Step Time =    1.000,"PART-1-1",           104,            3.,        -1.875,            0.,NA,NA,"",   40.4718E-03,  -40.0133E-03,   6.07470E-03,   62.7929E-09
C:/temp/dataset/test2/16_5.odb,Step-1,Increment      1: Step Time =    1.000,"PART-1-1",           105,            1.,        -1.875,            0.,NA,NA,"",   40.1911E-03,  -40.0119E-03,   3.79118E-03,   73.9800E-09
C:/temp/dataset/test2/16_5.odb,Step-1,Increment      1: Step Time =    1.000,"PART-1-1",           106,           -1.,        -1.875,            0.,NA,NA,"",   40.0389E-03,  -40.0105E-03,   1.50776E-03,   73.9006E-09
C:/temp/dataset/test2/16_5.odb,Step-1,Increment      1: Step Time =    1.000,"PART-1-1",           107,           -3.,        -1.875,            0.,NA,NA,"",   40.0167E-03,  -40.0092E-03,  -775.575E-06,   62.8456E-09
C:/temp/dataset/test2/16_5.odb,Step-1,Increment      1: Step Time =    1.000,"PART-1-1",           108,           -5.,        -1.875,            0.,NA,NA,"",   40.1246E-03,  -40.0079E-03,  -3.05897E-03,   42.4652E-09
C:/temp/dataset/test2/16_5.odb,Step-1,Increment      1: Step Time =    1.000,"PART-1-1",           109,            5.,         -3.75,            0.,NA,NA,"",   38.7855E-03,  -37.8739E-03,   8.35949E-03,   119.846E-09
C:/temp/dataset/test2/16_5.odb,Step-1,Increment      1: Step Time =    1.000,"PART-1-1",           110,            3.,         -3.75,            0.,NA,NA,"",   38.3570E-03,  -37.8727E-03,   6.07592E-03,   129.801E-09
C:/temp/dataset/test2/16_5.odb,Step-1,Increment      1: Step Time =    1.000,"PART-1-1",           111,            1.,         -3.75,            0.,NA,NA,"",   38.0607E-03,  -37.8713E-03,   3.79228E-03,   144.705E-09
C:/temp/dataset/test2/16_5.odb,Step-1,Increment      1: Step Time =    1.000,"PART-1-1",           112,           -1.,         -3.75,            0.,NA,NA,"",   37.8998E-03,  -37.8698E-03,   1.50885E-03,   144.585E-09
C:/temp/dataset/test2/16_5.odb,Step-1,Increment      1: Step Time =    1.000,"PART-1-1",           113,           -3.,         -3.75,            0.,NA,NA,"",   37.8763E-03,  -37.8684E-03,  -774.347E-06,   129.806E-09
C:/temp/dataset/test2/16_5.odb,Step-1,Increment      1: Step Time =    1.000,"PART-1-1",           114,           -5.,         -3.75,            0.,NA,NA,"",   37.9903E-03,  -37.8671E-03,  -3.05763E-03,   120.565E-09
C:/temp/dataset/test2/16_5.odb,Step-1,Increment      1: Step Time =    1.000,"PART-1-1",           115,            5.,        -5.625,            0.,NA,NA,"",   36.6984E-03,  -35.7332E-03,   8.36103E-03,   278.543E-09
C:/temp/dataset/test2/16_5.odb,Step-1,Increment      1: Step Time =    1.000,"PART-1-1",           116,            3.,        -5.625,            0.,NA,NA,"",   36.2451E-03,  -35.7320E-03,   6.07716E-03,   217.632E-09
C:/temp/dataset/test2/16_5.odb,Step-1,Increment      1: Step Time =    1.000,"PART-1-1",           117,            1.,        -5.625,            0.,NA,NA,"",   35.9314E-03,  -35.7306E-03,   3.79326E-03,   228.222E-09
C:/temp/dataset/test2/16_5.odb,Step-1,Increment      1: Step Time =    1.000,"PART-1-1",           118,           -1.,        -5.625,            0.,NA,NA,"",   35.7609E-03,  -35.7290E-03,   1.50984E-03,   227.882E-09
C:/temp/dataset/test2/16_5.odb,Step-1,Increment      1: Step Time =    1.000,"PART-1-1",           119,           -3.,        -5.625,            0.,NA,NA,"",   35.7359E-03,  -35.7276E-03,  -773.111E-06,   217.221E-09
C:/temp/dataset/test2/16_5.odb,Step-1,Increment      1: Step Time =    1.000,"PART-1-1",           120,           -5.,        -5.625,            0.,NA,NA,"",   35.8569E-03,  -35.7264E-03,  -3.05609E-03,   279.194E-09
C:/temp/dataset/test2/16_5.odb,Step-1,Increment      1: Step Time =    1.000,"PART-1-1",           121,            5.,          -7.5,            0.,NA,NA,"",   34.6175E-03,  -33.5922E-03,   8.36292E-03,   537.728E-09
C:/temp/dataset/test2/16_5.odb,Step-1,Increment      1: Step Time =    1.000,"PART-1-1",           122,            3.,          -7.5,            0.,NA,NA,"",   34.1366E-03,  -33.5911E-03,   6.07840E-03,   249.228E-09
C:/temp/dataset/test2/16_5.odb,Step-1,Increment      1: Step Time =    1.000,"PART-1-1",           123,            1.,          -7.5,            0.,NA,NA,"",   33.8034E-03,  -33.5898E-03,   3.79416E-03,   257.055E-09
C:/temp/dataset/test2/16_5.odb,Step-1,Increment      1: Step Time =    1.000,"PART-1-1",           124,           -1.,          -7.5,            0.,NA,NA,"",   33.6224E-03,  -33.5884E-03,   1.51074E-03,   256.122E-09
C:/temp/dataset/test2/16_5.odb,Step-1,Increment      1: Step Time =    1.000,"PART-1-1",           125,           -3.,          -7.5,            0.,NA,NA,"",   33.5960E-03,  -33.5871E-03,  -771.865E-06,   247.480E-09
C:/temp/dataset/test2/16_5.odb,Step-1,Increment      1: Step Time =    1.000,"PART-1-1",           126,           -5.,          -7.5,            0.,NA,NA,"",   33.7246E-03,  -33.5860E-03,  -3.05419E-03,   536.969E-09
C:/temp/dataset/test2/16_5.odb,Step-1,Increment      1: Step Time =    1.000,"PART-1-1",           127,            5.,        -9.375,            0.,NA,NA,"",   32.5436E-03,  -31.4501E-03,   8.36532E-03,   809.744E-09
C:/temp/dataset/test2/16_5.odb,Step-1,Increment      1: Step Time =    1.000,"PART-1-1",           128,            3.,        -9.375,            0.,NA,NA,"",   32.0315E-03,  -31.4492E-03,   6.07966E-03,   183.498E-09
C:/temp/dataset/test2/16_5.odb,Step-1,Increment      1: Step Time =    1.000,"PART-1-1",           129,            1.,        -9.375,            0.,NA,NA,"",   31.6767E-03,  -31.4485E-03,   3.79524E-03,   537.395E-09
C:/temp/dataset/test2/16_5.odb,Step-1,Increment      1: Step Time =    1.000,"PART-1-1",           130,           -1.,        -9.375,            0.,NA,NA,"",   31.4846E-03,  -31.4483E-03,   1.51182E-03,   537.847E-09
C:/temp/dataset/test2/16_5.odb,Step-1,Increment      1: Step Time =    1.000,"PART-1-1",           131,           -3.,        -9.375,            0.,NA,NA,"",   31.4570E-03,  -31.4476E-03,  -770.609E-06,   187.546E-09
C:/temp/dataset/test2/16_5.odb,Step-1,Increment      1: Step Time =    1.000,"PART-1-1",           132,           -5.,        -9.375,            0.,NA,NA,"",   31.5944E-03,  -31.4467E-03,  -3.05180E-03,   803.920E-09
C:/temp/dataset/test2/16_5.odb,Step-1,Increment      1: Step Time =    1.000,"PART-1-1",           133,            5.,        -11.25,            0.,NA,NA,"",   30.4770E-03,  -29.3057E-03,   8.36799E-03,   655.478E-09
C:/temp/dataset/test2/16_5.odb,Step-1,Increment      1: Step Time =    1.000,"PART-1-1",           134,            3.,        -11.25,            0.,NA,NA,"",   29.9291E-03,  -29.3048E-03,   6.08088E-03,   1.54313E-06
C:/temp/dataset/test2/16_5.odb,Step-1,Increment      1: Step Time =    1.000,"PART-1-1",           135,            1.,        -11.25,            0.,NA,NA,"",   29.5511E-03,  -29.3061E-03,   3.79746E-03,   2.36604E-06
C:/temp/dataset/test2/16_5.odb,Step-1,Increment      1: Step Time =    1.000,"PART-1-1",           136,           -1.,        -11.25,            0.,NA,NA,"",   29.3483E-03,  -29.3092E-03,   1.51406E-03,   2.36582E-06
C:/temp/dataset/test2/16_5.odb,Step-1,Increment      1: Step Time =    1.000,"PART-1-1",           137,           -3.,        -11.25,            0.,NA,NA,"",   29.3206E-03,  -29.3105E-03,  -769.378E-06,   1.55822E-06
C:/temp/dataset/test2/16_5.odb,Step-1,Increment      1: Step Time =    1.000,"PART-1-1",           138,           -5.,        -11.25,            0.,NA,NA,"",   29.4678E-03,  -29.3096E-03,  -3.04917E-03,   628.690E-09
C:/temp/dataset/test2/16_5.odb,Step-1,Increment      1: Step Time =    1.000,"PART-1-1",           139,            5.,       -13.125,            0.,NA,NA,"",   28.4171E-03,  -27.1567E-03,   8.36937E-03,   1.39777E-06
C:/temp/dataset/test2/16_5.odb,Step-1,Increment      1: Step Time =    1.000,"PART-1-1",           140,            3.,       -13.125,            0.,NA,NA,"",   27.8279E-03,  -27.1552E-03,   6.08201E-03,   5.69480E-06
C:/temp/dataset/test2/16_5.odb,Step-1,Increment      1: Step Time =    1.000,"PART-1-1",           141,            1.,       -13.125,            0.,NA,NA,"",   27.4264E-03,  -27.1614E-03,   3.80344E-03,   7.43144E-06
C:/temp/dataset/test2/16_5.odb,Step-1,Increment      1: Step Time =    1.000,"PART-1-1",           142,           -1.,       -13.125,            0.,NA,NA,"",   27.2151E-03,  -27.1726E-03,   1.52003E-03,   7.41522E-06
C:/temp/dataset/test2/16_5.odb,Step-1,Increment      1: Step Time =    1.000,"PART-1-1",           143,           -3.,       -13.125,            0.,NA,NA,"",   27.1896E-03,  -27.1787E-03,  -768.247E-06,   5.69943E-06
C:/temp/dataset/test2/16_5.odb,Step-1,Increment      1: Step Time =    1.000,"PART-1-1",           144,           -5.,       -13.125,            0.,NA,NA,"",   27.3475E-03,  -27.1771E-03,  -3.04788E-03,   1.46084E-06
C:/temp/dataset/test2/16_5.odb,Step-1,Increment      1: Step Time =    1.000,"PART-1-1",           145,            5.,          -15.,            0.,NA,NA,"",   26.3624E-03,  -25.0005E-03,   8.36393E-03,   8.63634E-06
C:/temp/dataset/test2/16_5.odb,Step-1,Increment      1: Step Time =    1.000,"PART-1-1",           146,            3.,          -15.,            0.,NA,NA,"",   25.7256E-03,  -24.9962E-03,   6.08271E-03,   15.5839E-06
C:/temp/dataset/test2/16_5.odb,Step-1,Increment      1: Step Time =    1.000,"PART-1-1",           147,            1.,          -15.,            0.,NA,NA,"",   25.3025E-03,  -25.0126E-03,   3.81887E-03,   18.7553E-06
C:/temp/dataset/test2/16_5.odb,Step-1,Increment      1: Step Time =    1.000,"PART-1-1",           148,           -1.,          -15.,            0.,NA,NA,"",   25.0873E-03,  -25.0403E-03,   1.53520E-03,   18.5666E-06
C:/temp/dataset/test2/16_5.odb,Step-1,Increment      1: Step Time =    1.000,"PART-1-1",           149,           -3.,          -15.,            0.,NA,NA,"",   25.0677E-03,  -25.0559E-03,  -767.602E-06,   15.3197E-06
C:/temp/dataset/test2/16_5.odb,Step-1,Increment      1: Step Time =    1.000,"PART-1-1",           150,           -5.,          -15.,            0.,NA,NA,"",   25.2370E-03,  -25.0516E-03,  -3.05339E-03,   8.71909E-06
C:/temp/dataset/test2/16_5.odb,Step-1,Increment      1: Step Time =    1.000,"PART-1-1",           151,            5.,       -16.875,            0.,NA,NA,"",   24.3115E-03,  -22.8368E-03,   8.33847E-03,   28.2869E-06
C:/temp/dataset/test2/16_5.odb,Step-1,Increment      1: Step Time =    1.000,"PART-1-1",           152,            3.,       -16.875,            0.,NA,NA,"",   23.6220E-03,  -22.8253E-03,   6.08333E-03,   35.5182E-06
C:/temp/dataset/test2/16_5.odb,Step-1,Increment      1: Step Time =    1.000,"PART-1-1",           153,            1.,       -16.875,            0.,NA,NA,"",   23.1826E-03,  -22.8598E-03,   3.85493E-03,   39.9012E-06
C:/temp/dataset/test2/16_5.odb,Step-1,Increment      1: Step Time =    1.000,"PART-1-1",           154,           -1.,       -16.875,            0.,NA,NA,"",   22.9679E-03,  -22.9142E-03,   1.56956E-03,   39.0014E-06
C:/temp/dataset/test2/16_5.odb,Step-1,Increment      1: Step Time =    1.000,"PART-1-1",           155,           -3.,       -16.875,            0.,NA,NA,"",   22.9569E-03,  -22.9440E-03,  -768.162E-06,   33.5663E-06
C:/temp/dataset/test2/16_5.odb,Step-1,Increment      1: Step Time =    1.000,"PART-1-1",           156,           -5.,       -16.875,            0.,NA,NA,"",   23.1375E-03,  -22.9318E-03,  -3.07894E-03,   27.6016E-06
C:/temp/dataset/test2/16_5.odb,Step-1,Increment      1: Step Time =    1.000,"PART-1-1",           157,            5.,        -18.75,            0.,NA,NA,"",   22.2694E-03,  -20.6816E-03,   8.25814E-03,   74.0466E-06
C:/temp/dataset/test2/16_5.odb,Step-1,Increment      1: Step Time =    1.000,"PART-1-1",           158,            3.,        -18.75,            0.,NA,NA,"",   21.5291E-03,  -20.6519E-03,   6.08283E-03,   68.2989E-06
C:/temp/dataset/test2/16_5.odb,Step-1,Increment      1: Step Time =    1.000,"PART-1-1",           159,            1.,        -18.75,            0.,NA,NA,"",   21.0786E-03,  -20.7097E-03,   3.92644E-03,   71.1051E-06
C:/temp/dataset/test2/16_5.odb,Step-1,Increment      1: Step Time =    1.000,"PART-1-1",           160,           -1.,        -18.75,            0.,NA,NA,"",   20.8552E-03,  -20.7911E-03,   1.63346E-03,   66.7289E-06
C:/temp/dataset/test2/16_5.odb,Step-1,Increment      1: Step Time =    1.000,"PART-1-1",           161,           -3.,        -18.75,            0.,NA,NA,"",   20.8459E-03,  -20.8315E-03,  -772.879E-06,   59.7112E-06
C:/temp/dataset/test2/16_5.odb,Step-1,Increment      1: Step Time =    1.000,"PART-1-1",           162,           -5.,        -18.75,            0.,NA,NA,"",   21.0385E-03,  -20.8010E-03,  -3.15219E-03,   67.7810E-06
C:/temp/dataset/test2/16_5.odb,Step-1,Increment      1: Step Time =    1.000,"PART-1-1",           163,            5.,       -20.625,            0.,NA,NA,"",   20.2654E-03,  -18.5863E-03,   8.07700E-03,   164.708E-06
C:/temp/dataset/test2/16_5.odb,Step-1,Increment      1: Step Time =    1.000,"PART-1-1",           164,            3.,       -20.625,            0.,NA,NA,"",   19.5055E-03,  -18.5282E-03,   6.09669E-03,   108.940E-06
C:/temp/dataset/test2/16_5.odb,Step-1,Increment      1: Step Time =    1.000,"PART-1-1",           165,            1.,       -20.625,            0.,NA,NA,"",   19.0305E-03,  -18.5950E-03,   4.04800E-03,   98.5080E-06
C:/temp/dataset/test2/16_5.odb,Step-1,Increment      1: Step Time =    1.000,"PART-1-1",           166,           -1.,       -20.625,            0.,NA,NA,"",   18.7334E-03,  -18.6535E-03,   1.72810E-03,   84.8915E-06
C:/temp/dataset/test2/16_5.odb,Step-1,Increment      1: Step Time =    1.000,"PART-1-1",           167,           -3.,       -20.625,            0.,NA,NA,"",   18.6837E-03,  -18.6671E-03,  -787.521E-06,   75.2753E-06
C:/temp/dataset/test2/16_5.odb,Step-1,Increment      1: Step Time =    1.000,"PART-1-1",           168,           -5.,       -20.625,            0.,NA,NA,"",   18.8945E-03,  -18.6015E-03,  -3.31480E-03,   132.380E-06
C:/temp/dataset/test2/16_5.odb,Step-1,Increment      1: Step Time =    1.000,"PART-1-1",           169,            5.,         -22.5,            0.,NA,NA,"",   18.4265E-03,  -16.7731E-03,   7.62865E-03,   339.338E-06
C:/temp/dataset/test2/16_5.odb,Step-1,Increment      1: Step Time =    1.000,"PART-1-1",           170,            3.,         -22.5,            0.,NA,NA,"",   17.7234E-03,  -16.6355E-03,   6.11368E-03,   92.3416E-06
C:/temp/dataset/test2/16_5.odb,Step-1,Increment      1: Step Time =    1.000,"PART-1-1",           171,            1.,         -22.5,            0.,NA,NA,"",   17.0968E-03,  -16.5815E-03,   4.16561E-03,   137.598E-06
C:/temp/dataset/test2/16_5.odb,Step-1,Increment      1: Step Time =    1.000,"PART-1-1",           172,           -1.,         -22.5,            0.,NA,NA,"",   16.5176E-03,  -16.4205E-03,   1.78879E-03,   105.598E-06
C:/temp/dataset/test2/16_5.odb,Step-1,Increment      1: Step Time =    1.000,"PART-1-1",           173,           -3.,         -22.5,            0.,NA,NA,"",   16.3237E-03,  -16.3030E-03,  -821.856E-06,   45.7123E-06
C:/temp/dataset/test2/16_5.odb,Step-1,Increment      1: Step Time =    1.000,"PART-1-1",           174,           -5.,         -22.5,            0.,NA,NA,"",   16.5875E-03,  -16.1917E-03,  -3.60168E-03,   201.288E-06
C:/temp/dataset/test2/16_5.odb,Step-1,Increment      1: Step Time =    1.000,"PART-1-1",           175,            5.,       -24.375,            0.,NA,NA,"",   17.3027E-03,  -15.8359E-03,   6.97205E-03,   863.017E-06
C:/temp/dataset/test2/16_5.odb,Step-1,Increment      1: Step Time =    1.000,"PART-1-1",           176,            3.,       -24.375,            0.,NA,NA,"",   16.6439E-03,  -15.4057E-03,   6.29939E-03,   661.737E-06
C:/temp/dataset/test2/16_5.odb,Step-1,Increment      1: Step Time =    1.000,"PART-1-1",           177,            1.,       -24.375,            0.,NA,NA,"",   15.2823E-03,  -14.7307E-03,   4.06889E-03,   576.763E-06
C:/temp/dataset/test2/16_5.odb,Step-1,Increment      1: Step Time =    1.000,"PART-1-1",           178,           -1.,       -24.375,            0.,NA,NA,"",   13.9618E-03,  -13.8629E-03,   1.65887E-03,   436.503E-06
C:/temp/dataset/test2/16_5.odb,Step-1,Increment      1: Step Time =    1.000,"PART-1-1",           179,           -3.,       -24.375,            0.,NA,NA,"",   13.4750E-03,  -13.4460E-03,  -883.311E-06,   243.200E-06
C:/temp/dataset/test2/16_5.odb,Step-1,Increment      1: Step Time =    1.000,"PART-1-1",           180,           -5.,       -24.375,            0.,NA,NA,"",   13.9053E-03,  -13.3298E-03,  -3.95886E-03,   169.398E-06
C:/temp/dataset/test2/16_5.odb,Step-1,Increment      1: Step Time =    1.000,"PART-1-1",           181,            5.,        -26.25,            0.,NA,NA,"",   20.1355E-03,  -19.4221E-03,   5.31203E-03,   2.58172E-03
C:/temp/dataset/test2/16_5.odb,Step-1,Increment      1: Step Time =    1.000,"PART-1-1",           182,            3.,        -26.25,            0.,NA,NA,"",   16.4426E-03,  -15.6020E-03,   5.19009E-03,   2.86282E-03
C:/temp/dataset/test2/16_5.odb,Step-1,Increment      1: Step Time =    1.000,"PART-1-1",           183,            1.,        -26.25,            0.,NA,NA,"",   12.6818E-03,  -12.3285E-03,   2.97267E-03,   1.59377E-03
C:/temp/dataset/test2/16_5.odb,Step-1,Increment      1: Step Time =    1.000,"PART-1-1",           184,           -1.,        -26.25,            0.,NA,NA,"",   10.5097E-03,  -10.4475E-03,   1.14224E-03,   1.12362E-03
C:/temp/dataset/test2/16_5.odb,Step-1,Increment      1: Step Time =    1.000,"PART-1-1",           185,           -3.,        -26.25,            0.,NA,NA,"",   9.71257E-03,  -9.67695E-03,  -831.026E-06,   804.160E-06
C:/temp/dataset/test2/16_5.odb,Step-1,Increment      1: Step Time =    1.000,"PART-1-1",           186,           -5.,        -26.25,            0.,NA,NA,"",   10.5211E-03,  -9.68811E-03,  -4.10294E-03,   107.752E-06
C:/temp/dataset/test2/16_5.odb,Step-1,Increment      1: Step Time =    1.000,"PART-1-1",           187,            5.,       -28.125,            0.,NA,NA,"",   19.9139E-03,  -18.6808E-03,   6.89877E-03,   6.45803E-03
C:/temp/dataset/test2/16_5.odb,Step-1,Increment      1: Step Time =    1.000,"PART-1-1",           188,            3.,       -28.125,            0.,NA,NA,"",   12.4410E-03,  -12.1653E-03,   2.60458E-03,   4.94527E-03
C:/temp/dataset/test2/16_5.odb,Step-1,Increment      1: Step Time =    1.000,"PART-1-1",           189,            1.,       -28.125,            0.,NA,NA,"",   7.58330E-03,  -7.50945E-03,   1.05573E-03,   2.68892E-03
C:/temp/dataset/test2/16_5.odb,Step-1,Increment      1: Step Time =    1.000,"PART-1-1",           190,           -1.,       -28.125,            0.,NA,NA,"",   5.62978E-03,  -5.61963E-03,   337.929E-06,   1.87083E-03
C:/temp/dataset/test2/16_5.odb,Step-1,Increment      1: Step Time =    1.000,"PART-1-1",           191,           -3.,       -28.125,            0.,NA,NA,"",   4.96044E-03,  -4.91223E-03,  -689.879E-06,   1.64743E-03
C:/temp/dataset/test2/16_5.odb,Step-1,Increment      1: Step Time =    1.000,"PART-1-1",           192,           -5.,       -28.125,            0.,NA,NA,"",   6.23363E-03,  -5.20978E-03,  -3.42292E-03,   1.15991E-03
C:/temp/dataset/test2/16_5.odb,Step-1,Increment      1: Step Time =    1.000,"PART-1-1",           193,            5.,          -30.,            0.,NA,NA,"",            0.,  -2.73062E-39,   3.76888E-39,   11.6618E-03
C:/temp/dataset/test2/16_5.odb,Step-1,Increment      1: Step Time =    1.000,"PART-1-1",           194,            3.,          -30.,            0.,NA,NA,"",            0.,  -3.40035E-39,   267.109E-42,   4.40690E-03
C:/temp/dataset/test2/16_5.odb,Step-1,Increment      1: Step Time =    1.000,"PART-1-1",           195,            1.,          -30.,            0.,NA,NA,"",            0.,  -1.53361E-39,   480.574E-42,   2.89810E-03
C:/temp/dataset/test2/16_5.odb,Step-1,Increment      1: Step Time =    1.000,"PART-1-1",           196,           -1.,          -30.,            0.,NA,NA,"",            0.,  -1.01110E-39,   254.289E-42,   1.90196E-03
C:/temp/dataset/test2/16_5.odb,Step-1,Increment      1: Step Time =    1.000,"PART-1-1",           197,           -3.,          -30.,            0.,NA,NA,"",            0.,  -1.10007E-39,  -222.504E-42,   1.32818E-03
C:/temp/dataset/test2/16_5.odb,Step-1,Increment      1: Step Time =    1.000,"PART-1-1",           198,           -5.,          -30.,            0.,NA,NA,"",            0.,  -815.885E-42,  -1.33287E-39,   3.24556E-03
C:/temp/dataset/test2/16_5.odb,Step-1,Increment      1: Step Time =    1.000,"PART-1-1",           199,            4.,           30.,            0.,NA,NA,"",   76.7440E-03,  -76.4059E-03,   7.19564E-03,   36.4389E-12
C:/temp/dataset/test2/16_5.odb,Step-1,Increment      1: Step Time =    1.000,"PART-1-1",           200,            3.,       29.0625,            0.,NA,NA,"",   75.5778E-03,  -75.3349E-03,   6.05453E-03,   40.7852E-12
C:/temp/dataset/test2/16_5.odb,Step-1,Increment      1: Step Time =    1.000,"PART-1-1",           201,            4.,        28.125,            0.,NA,NA,"",   74.6131E-03,  -74.2652E-03,   7.19686E-03,   52.0893E-12
C:/temp/dataset/test2/16_5.odb,Step-1,Increment      1: Step Time =    1.000,"PART-1-1",           202,            5.,       29.0625,            0.,NA,NA,"",   75.7962E-03,  -75.3362E-03,   8.33796E-03,   54.1697E-12
C:/temp/dataset/test2/16_5.odb,Step-1,Increment      1: Step Time =    1.000,"PART-1-1",           203,            2.,           30.,            0.,NA,NA,"",   76.5624E-03,  -76.4046E-03,   4.91221E-03,   38.6951E-12
C:/temp/dataset/test2/16_5.odb,Step-1,Increment      1: Step Time =    1.000,"PART-1-1",           204,            1.,       29.0625,            0.,NA,NA,"",   75.4279E-03,  -75.3336E-03,   3.77111E-03,   46.0713E-12
C:/temp/dataset/test2/16_5.odb,Step-1,Increment      1: Step Time =    1.000,"PART-1-1",           205,            2.,        28.125,            0.,NA,NA,"",   74.4263E-03,  -74.2639E-03,   4.91343E-03,   49.1036E-12
C:/temp/dataset/test2/16_5.odb,Step-1,Increment      1: Step Time =    1.000,"PART-1-1",           206,            0.,           30.,            0.,NA,NA,"",   76.4485E-03,  -76.4033E-03,   2.62878E-03,   43.7868E-12
C:/temp/dataset/test2/16_5.odb,Step-1,Increment      1: Step Time =    1.000,"PART-1-1",           207,           -1.,       29.0625,            0.,NA,NA,"",   75.3470E-03,  -75.3323E-03,   1.48768E-03,   50.2219E-12
C:/temp/dataset/test2/16_5.odb,Step-1,Increment      1: Step Time =    1.000,"PART-1-1",           208,            0.,        28.125,            0.,NA,NA,"",   74.3092E-03,  -74.2626E-03,   2.63001E-03,   52.1947E-12
C:/temp/dataset/test2/16_5.odb,Step-1,Increment      1: Step Time =    1.000,"PART-1-1",           209,           -2.,           30.,            0.,NA,NA,"",   76.4028E-03,  -76.4020E-03,   345.358E-06,   53.2731E-12
C:/temp/dataset/test2/16_5.odb,Step-1,Increment      1: Step Time =    1.000,"PART-1-1",           210,           -3.,       29.0625,            0.,NA,NA,"",   75.3352E-03,  -75.3310E-03,  -795.744E-06,   50.8041E-12
C:/temp/dataset/test2/16_5.odb,Step-1,Increment      1: Step Time =    1.000,"PART-1-1",           211,           -2.,        28.125,            0.,NA,NA,"",   74.2621E-03,  -74.2613E-03,   346.580E-06,   46.4717E-12
C:/temp/dataset/test2/16_5.odb,Step-1,Increment      1: Step Time =    1.000,"PART-1-1",           212,           -4.,           30.,            0.,NA,NA,"",   76.4253E-03,  -76.4007E-03,  -1.93807E-03,   54.0544E-12
C:/temp/dataset/test2/16_5.odb,Step-1,Increment      1: Step Time =    1.000,"PART-1-1",           213,           -5.,       29.0625,            0.,NA,NA,"",   75.3926E-03,  -75.3297E-03,  -3.07917E-03,   37.5722E-12
C:/temp/dataset/test2/16_5.odb,Step-1,Increment      1: Step Time =    1.000,"PART-1-1",           214,           -4.,        28.125,            0.,NA,NA,"",   74.2853E-03,  -74.2600E-03,  -1.93685E-03,   32.7878E-12
C:/temp/dataset/test2/16_5.odb,Step-1,Increment      1: Step Time =    1.000,"PART-1-1",           215,            3.,       27.1875,            0.,NA,NA,"",   73.4443E-03,  -73.1942E-03,   6.05576E-03,   51.3649E-12
C:/temp/dataset/test2/16_5.odb,Step-1,Increment      1: Step Time =    1.000,"PART-1-1",           216,            4.,         26.25,            0.,NA,NA,"",   72.4828E-03,  -72.1245E-03,   7.19808E-03,   63.3390E-12
C:/temp/dataset/test2/16_5.odb,Step-1,Increment      1: Step Time =    1.000,"PART-1-1",           217,            5.,       27.1875,            0.,NA,NA,"",   73.6690E-03,  -73.1955E-03,   8.33918E-03,   66.8634E-12
C:/temp/dataset/test2/16_5.odb,Step-1,Increment      1: Step Time =    1.000,"PART-1-1",           218,            1.,       27.1875,            0.,NA,NA,"",   73.2901E-03,  -73.1929E-03,   3.77233E-03,   53.3962E-12
C:/temp/dataset/test2/16_5.odb,Step-1,Increment      1: Step Time =    1.000,"PART-1-1",           219,            2.,         26.25,            0.,NA,NA,"",   72.2905E-03,  -72.1232E-03,   4.91465E-03,   54.4781E-12
C:/temp/dataset/test2/16_5.odb,Step-1,Increment      1: Step Time =    1.000,"PART-1-1",           220,           -1.,       27.1875,            0.,NA,NA,"",   73.2068E-03,  -73.1916E-03,   1.48890E-03,   50.5833E-12
C:/temp/dataset/test2/16_5.odb,Step-1,Increment      1: Step Time =    1.000,"PART-1-1",           221,            0.,         26.25,            0.,NA,NA,"",   72.1699E-03,  -72.1219E-03,   2.63123E-03,   51.8098E-12
C:/temp/dataset/test2/16_5.odb,Step-1,Increment      1: Step Time =    1.000,"PART-1-1",           222,           -3.,       27.1875,            0.,NA,NA,"",   73.1946E-03,  -73.1903E-03,  -794.522E-06,   37.0704E-12
C:/temp/dataset/test2/16_5.odb,Step-1,Increment      1: Step Time =    1.000,"PART-1-1",           223,           -2.,         26.25,            0.,NA,NA,"",   72.1214E-03,  -72.1206E-03,   347.802E-06,   41.5830E-12
C:/temp/dataset/test2/16_5.odb,Step-1,Increment      1: Step Time =    1.000,"PART-1-1",           224,           -5.,       27.1875,            0.,NA,NA,"",   73.2537E-03,  -73.1890E-03,  -3.07795E-03,   41.6182E-12
C:/temp/dataset/test2/16_5.odb,Step-1,Increment      1: Step Time =    1.000,"PART-1-1",           225,           -4.,         26.25,            0.,NA,NA,"",   72.1453E-03,  -72.1193E-03,  -1.93562E-03,   36.4960E-12
C:/temp/dataset/test2/16_5.odb,Step-1,Increment      1: Step Time =    1.000,"PART-1-1",           226,            3.,       25.3125,            0.,NA,NA,"",   71.3112E-03,  -71.0535E-03,   6.05698E-03,   62.1190E-12
C:/temp/dataset/test2/16_5.odb,Step-1,Increment      1: Step Time =    1.000,"PART-1-1",           227,            4.,        24.375,            0.,NA,NA,"",   70.3531E-03,  -69.9838E-03,   7.19930E-03,   76.7502E-12
C:/temp/dataset/test2/16_5.odb,Step-1,Increment      1: Step Time =    1.000,"PART-1-1",           228,            5.,       25.3125,            0.,NA,NA,"",   71.5426E-03,  -71.0548E-03,   8.34040E-03,   81.0702E-12
C:/temp/dataset/test2/16_5.odb,Step-1,Increment      1: Step Time =    1.000,"PART-1-1",           229,            1.,       25.3125,            0.,NA,NA,"",   71.1523E-03,  -71.0522E-03,   3.77355E-03,   55.5529E-12
C:/temp/dataset/test2/16_5.odb,Step-1,Increment      1: Step Time =    1.000,"PART-1-1",           230,            2.,        24.375,            0.,NA,NA,"",   70.1549E-03,  -69.9825E-03,   4.91588E-03,   60.4793E-12
C:/temp/dataset/test2/16_5.odb,Step-1,Increment      1: Step Time =    1.000,"PART-1-1",           231,           -1.,       25.3125,            0.,NA,NA,"",   71.0665E-03,  -71.0509E-03,   1.49013E-03,   48.2472E-12
C:/temp/dataset/test2/16_5.odb,Step-1,Increment      1: Step Time =    1.000,"PART-1-1",           232,            0.,        24.375,            0.,NA,NA,"",   70.0307E-03,  -69.9812E-03,   2.63245E-03,   50.9048E-12
C:/temp/dataset/test2/16_5.odb,Step-1,Increment      1: Step Time =    1.000,"PART-1-1",           233,           -3.,       25.3125,            0.,NA,NA,"",   71.0540E-03,  -71.0496E-03,  -793.300E-06,   38.4496E-12
C:/temp/dataset/test2/16_5.odb,Step-1,Increment      1: Step Time =    1.000,"PART-1-1",           234,           -2.,        24.375,            0.,NA,NA,"",   69.9808E-03,  -69.9799E-03,   349.024E-06,   41.6626E-12
C:/temp/dataset/test2/16_5.odb,Step-1,Increment      1: Step Time =    1.000,"PART-1-1",           235,           -5.,       25.3125,            0.,NA,NA,"",   71.1149E-03,  -71.0483E-03,  -3.07673E-03,   49.9428E-12
C:/temp/dataset/test2/16_5.odb,Step-1,Increment      1: Step Time =    1.000,"PART-1-1",           236,           -4.,        24.375,            0.,NA,NA,"",   70.0053E-03,  -69.9786E-03,  -1.93440E-03,   45.2756E-12
C:/temp/dataset/test2/16_5.odb,Step-1,Increment      1: Step Time =    1.000,"PART-1-1",           237,            3.,       23.4375,            0.,NA,NA,"",   69.1786E-03,  -68.9128E-03,   6.05820E-03,   72.7055E-12
C:/temp/dataset/test2/16_5.odb,Step-1,Increment      1: Step Time =    1.000,"PART-1-1",           238,            4.,          22.5,            0.,NA,NA,"",   68.2241E-03,  -67.8431E-03,   7.20052E-03,   90.8885E-12
C:/temp/dataset/test2/16_5.odb,Step-1,Increment      1: Step Time =    1.000,"PART-1-1",           239,            5.,       23.4375,            0.,NA,NA,"",   69.4171E-03,  -68.9141E-03,   8.34163E-03,   97.6797E-12
C:/temp/dataset/test2/16_5.odb,Step-1,Increment      1: Step Time =    1.000,"PART-1-1",           240,            1.,       23.4375,            0.,NA,NA,"",   69.0148E-03,  -68.9115E-03,   3.77477E-03,   57.7259E-12
C:/temp/dataset/test2/16_5.odb,Step-1,Increment      1: Step Time =    1.000,"PART-1-1",           241,            2.,          22.5,            0.,NA,NA,"",   68.0197E-03,  -67.8418E-03,   4.91710E-03,   66.9672E-12
C:/temp/dataset/test2/16_5.odb,Step-1,Increment      1: Step Time =    1.000,"PART-1-1",           242,           -1.,       23.4375,            0.,NA,NA,"",   68.9263E-03,  -68.9102E-03,   1.49135E-03,   47.0470E-12
C:/temp/dataset/test2/16_5.odb,Step-1,Increment      1: Step Time =    1.000,"PART-1-1",           243,            0.,          22.5,            0.,NA,NA,"",   67.8916E-03,  -67.8405E-03,   2.63367E-03,   50.7728E-12
C:/temp/dataset/test2/16_5.odb,Step-1,Increment      1: Step Time =    1.000,"PART-1-1",           244,           -3.,       23.4375,            0.,NA,NA,"",   68.9134E-03,  -68.9089E-03,  -792.078E-06,   44.1613E-12
C:/temp/dataset/test2/16_5.odb,Step-1,Increment      1: Step Time =    1.000,"PART-1-1",           245,           -2.,          22.5,            0.,NA,NA,"",   67.8401E-03,  -67.8392E-03,   350.246E-06,   43.5378E-12
C:/temp/dataset/test2/16_5.odb,Step-1,Increment      1: Step Time =    1.000,"PART-1-1",           246,           -5.,       23.4375,            0.,NA,NA,"",   68.9762E-03,  -68.9076E-03,  -3.07550E-03,   64.9079E-12
C:/temp/dataset/test2/16_5.odb,Step-1,Increment      1: Step Time =    1.000,"PART-1-1",           247,           -4.,          22.5,            0.,NA,NA,"",   67.8654E-03,  -67.8379E-03,  -1.93318E-03,   57.6873E-12
C:/temp/dataset/test2/16_5.odb,Step-1,Increment      1: Step Time =    1.000,"PART-1-1",           248,            3.,       21.5625,            0.,NA,NA,"",   67.0464E-03,  -66.7721E-03,   6.05942E-03,   83.5654E-12
C:/temp/dataset/test2/16_5.odb,Step-1,Increment      1: Step Time =    1.000,"PART-1-1",           249,            4.,        20.625,            0.,NA,NA,"",   66.0959E-03,  -65.7024E-03,   7.20175E-03,   105.252E-12
C:/temp/dataset/test2/16_5.odb,Step-1,Increment      1: Step Time =    1.000,"PART-1-1",           250,            5.,       21.5625,            0.,NA,NA,"",   67.2925E-03,  -66.7734E-03,   8.34285E-03,   115.049E-12
C:/temp/dataset/test2/16_5.odb,Step-1,Increment      1: Step Time =    1.000,"PART-1-1",           251,            1.,       21.5625,            0.,NA,NA,"",   66.8775E-03,  -66.7708E-03,   3.77600E-03,   60.7086E-12
C:/temp/dataset/test2/16_5.odb,Step-1,Increment      1: Step Time =    1.000,"PART-1-1",           252,            2.,        20.625,            0.,NA,NA,"",   65.8849E-03,  -65.7011E-03,   4.91832E-03,   74.0295E-12
C:/temp/dataset/test2/16_5.odb,Step-1,Increment      1: Step Time =    1.000,"PART-1-1",           253,           -1.,       21.5625,            0.,NA,NA,"",   66.7861E-03,  -66.7695E-03,   1.49257E-03,   46.7996E-12
C:/temp/dataset/test2/16_5.odb,Step-1,Increment      1: Step Time =    1.000,"PART-1-1",           254,            0.,        20.625,            0.,NA,NA,"",   65.7526E-03,  -65.6998E-03,   2.63489E-03,   51.3260E-12
C:/temp/dataset/test2/16_5.odb,Step-1,Increment      1: Step Time =    1.000,"PART-1-1",           255,           -3.,       21.5625,            0.,NA,NA,"",   66.7728E-03,  -66.7682E-03,  -790.856E-06,   52.0331E-12
C:/temp/dataset/test2/16_5.odb,Step-1,Increment      1: Step Time =    1.000,"PART-1-1",           256,           -2.,        20.625,            0.,NA,NA,"",   65.6994E-03,  -65.6985E-03,   351.468E-06,   46.7842E-12
C:/temp/dataset/test2/16_5.odb,Step-1,Increment      1: Step Time =    1.000,"PART-1-1",           257,           -5.,       21.5625,            0.,NA,NA,"",   66.8376E-03,  -66.7669E-03,  -3.07428E-03,   83.3931E-12
C:/temp/dataset/test2/16_5.odb,Step-1,Increment      1: Step Time =    1.000,"PART-1-1",           258,           -4.,        20.625,            0.,NA,NA,"",   65.7256E-03,  -65.6972E-03,  -1.93196E-03,   72.2490E-12
C:/temp/dataset/test2/16_5.odb,Step-1,Increment      1: Step Time =    1.000,"PART-1-1",           259,            3.,       19.6875,            0.,NA,NA,"",   64.9149E-03,  -64.6314E-03,   6.06064E-03,   95.1685E-12
C:/temp/dataset/test2/16_5.odb,Step-1,Increment      1: Step Time =    1.000,"PART-1-1",           260,            4.,         18.75,            0.,NA,NA,"",   63.9685E-03,  -63.5617E-03,   7.20297E-03,   120.046E-12
C:/temp/dataset/test2/16_5.odb,Step-1,Increment      1: Step Time =    1.000,"PART-1-1",           261,            5.,       19.6875,            0.,NA,NA,"",   65.1690E-03,  -64.6327E-03,   8.34407E-03,   132.483E-12
C:/temp/dataset/test2/16_5.odb,Step-1,Increment      1: Step Time =    1.000,"PART-1-1",           262,            1.,       19.6875,            0.,NA,NA,"",   64.7403E-03,  -64.6301E-03,   3.77722E-03,   64.4793E-12
C:/temp/dataset/test2/16_5.odb,Step-1,Increment      1: Step Time =    1.000,"PART-1-1",           263,            2.,         18.75,            0.,NA,NA,"",   63.7505E-03,  -63.5604E-03,   4.91954E-03,   81.8058E-12
C:/temp/dataset/test2/16_5.odb,Step-1,Increment      1: Step Time =    1.000,"PART-1-1",           264,           -1.,       19.6875,            0.,NA,NA,"",   64.6460E-03,  -64.6288E-03,   1.49379E-03,   47.5523E-12
C:/temp/dataset/test2/16_5.odb,Step-1,Increment      1: Step Time =    1.000,"PART-1-1",           265,            0.,         18.75,            0.,NA,NA,"",   63.6137E-03,  -63.5590E-03,   2.63612E-03,   52.8215E-12
C:/temp/dataset/test2/16_5.odb,Step-1,Increment      1: Step Time =    1.000,"PART-1-1",           266,           -3.,       19.6875,            0.,NA,NA,"",   64.6323E-03,  -64.6275E-03,  -789.634E-06,   61.0138E-12
C:/temp/dataset/test2/16_5.odb,Step-1,Increment      1: Step Time =    1.000,"PART-1-1",           267,           -2.,         18.75,            0.,NA,NA,"",   63.5587E-03,  -63.5577E-03,   352.690E-06,   51.7017E-12
C:/temp/dataset/test2/16_5.odb,Step-1,Increment      1: Step Time =    1.000,"PART-1-1",           268,           -5.,       19.6875,            0.,NA,NA,"",   64.6992E-03,  -64.6261E-03,  -3.07306E-03,   103.750E-12
C:/temp/dataset/test2/16_5.odb,Step-1,Increment      1: Step Time =    1.000,"PART-1-1",           269,           -4.,         18.75,            0.,NA,NA,"",   63.5858E-03,  -63.5564E-03,  -1.93074E-03,   87.8045E-12
C:/temp/dataset/test2/16_5.odb,Step-1,Increment      1: Step Time =    1.000,"PART-1-1",           270,            3.,       17.8125,            0.,NA,NA,"",   62.7840E-03,  -62.4906E-03,   6.06187E-03,   108.569E-12
C:/temp/dataset/test2/16_5.odb,Step-1,Increment      1: Step Time =    1.000,"PART-1-1",           271,            4.,        16.875,            0.,NA,NA,"",   61.8420E-03,  -61.4209E-03,   7.20419E-03,   137.153E-12
C:/temp/dataset/test2/16_5.odb,Step-1,Increment      1: Step Time =    1.000,"PART-1-1",           272,            5.,       17.8125,            0.,NA,NA,"",   63.0467E-03,  -62.4920E-03,   8.34529E-03,   151.364E-12
C:/temp/dataset/test2/16_5.odb,Step-1,Increment      1: Step Time =    1.000,"PART-1-1",           273,            1.,       17.8125,            0.,NA,NA,"",   62.6035E-03,  -62.4893E-03,   3.77844E-03,   69.3387E-12
C:/temp/dataset/test2/16_5.odb,Step-1,Increment      1: Step Time =    1.000,"PART-1-1",           274,            2.,        16.875,            0.,NA,NA,"",   61.6164E-03,  -61.4196E-03,   4.92076E-03,   90.7794E-12
C:/temp/dataset/test2/16_5.odb,Step-1,Increment      1: Step Time =    1.000,"PART-1-1",           275,           -1.,       17.8125,            0.,NA,NA,"",   62.5059E-03,  -62.4880E-03,   1.49501E-03,   51.0804E-12
C:/temp/dataset/test2/16_5.odb,Step-1,Increment      1: Step Time =    1.000,"PART-1-1",           276,            0.,        16.875,            0.,NA,NA,"",   61.4749E-03,  -61.4183E-03,   2.63734E-03,   57.2743E-12
C:/temp/dataset/test2/16_5.odb,Step-1,Increment      1: Step Time =    1.000,"PART-1-1",           277,           -3.,       17.8125,            0.,NA,NA,"",   62.4917E-03,  -62.4867E-03,  -788.412E-06,   70.4213E-12
C:/temp/dataset/test2/16_5.odb,Step-1,Increment      1: Step Time =    1.000,"PART-1-1",           278,           -2.,        16.875,            0.,NA,NA,"",   61.4181E-03,  -61.4170E-03,   353.912E-06,   60.5967E-12
C:/temp/dataset/test2/16_5.odb,Step-1,Increment      1: Step Time =    1.000,"PART-1-1",           279,           -5.,       17.8125,            0.,NA,NA,"",   62.5609E-03,  -62.4854E-03,  -3.07184E-03,   123.541E-12
C:/temp/dataset/test2/16_5.odb,Step-1,Increment      1: Step Time =    1.000,"PART-1-1",           280,           -4.,        16.875,            0.,NA,NA,"",   61.4460E-03,  -61.4157E-03,  -1.92951E-03,   102.376E-12
C:/temp/dataset/test2/16_5.odb,Step-1,Increment      1: Step Time =    1.000,"PART-1-1",           281,            3.,       15.9375,            0.,NA,NA,"",   60.6537E-03,  -60.3499E-03,   6.06309E-03,   127.327E-12
C:/temp/dataset/test2/16_5.odb,Step-1,Increment      1: Step Time =    1.000,"PART-1-1",           282,            4.,           15.,            0.,NA,NA,"",   59.7165E-03,  -59.2802E-03,   7.20541E-03,   162.946E-12
C:/temp/dataset/test2/16_5.odb,Step-1,Increment      1: Step Time =    1.000,"PART-1-1",           283,            5.,       15.9375,            0.,NA,NA,"",   60.9257E-03,  -60.3512E-03,   8.34651E-03,   177.674E-12
C:/temp/dataset/test2/16_5.odb,Step-1,Increment      1: Step Time =    1.000,"PART-1-1",           284,            1.,       15.9375,            0.,NA,NA,"",   60.4669E-03,  -60.3486E-03,   3.77966E-03,   79.0111E-12
C:/temp/dataset/test2/16_5.odb,Step-1,Increment      1: Step Time =    1.000,"PART-1-1",           285,            2.,           15.,            0.,NA,NA,"",   59.4829E-03,  -59.2789E-03,   4.92199E-03,   105.411E-12
C:/temp/dataset/test2/16_5.odb,Step-1,Increment      1: Step Time =    1.000,"PART-1-1",           286,           -1.,       15.9375,            0.,NA,NA,"",   60.3659E-03,  -60.3473E-03,   1.49624E-03,   66.2772E-12
C:/temp/dataset/test2/16_5.odb,Step-1,Increment      1: Step Time =    1.000,"PART-1-1",           287,            0.,           15.,            0.,NA,NA,"",   59.3363E-03,  -59.2776E-03,   2.63856E-03,   75.4723E-12
C:/temp/dataset/test2/16_5.odb,Step-1,Increment      1: Step Time =    1.000,"PART-1-1",           288,           -3.,       15.9375,            0.,NA,NA,"",   60.3512E-03,  -60.3460E-03,  -787.189E-06,   81.8716E-12
C:/temp/dataset/test2/16_5.odb,Step-1,Increment      1: Step Time =    1.000,"PART-1-1",           289,           -2.,           15.,            0.,NA,NA,"",   59.2774E-03,  -59.2763E-03,   355.135E-06,   83.3994E-12
C:/temp/dataset/test2/16_5.odb,Step-1,Increment      1: Step Time =    1.000,"PART-1-1",           290,           -5.,       15.9375,            0.,NA,NA,"",   60.4228E-03,  -60.3447E-03,  -3.07062E-03,   136.380E-12
C:/temp/dataset/test2/16_5.odb,Step-1,Increment      1: Step Time =    1.000,"PART-1-1",           291,           -4.,           15.,            0.,NA,NA,"",   59.3064E-03,  -59.2750E-03,  -1.92829E-03,   112.091E-12
C:/temp/dataset/test2/16_5.odb,Step-1,Increment      1: Step Time =    1.000,"PART-1-1",           292,            3.,       14.0625,            0.,NA,NA,"",   58.5243E-03,  -58.2092E-03,   6.06431E-03,   164.131E-12
C:/temp/dataset/test2/16_5.odb,Step-1,Increment      1: Step Time =    1.000,"PART-1-1",           293,            4.,        13.125,            0.,NA,NA,"",   57.5922E-03,  -57.1395E-03,   7.20663E-03,   214.650E-12
C:/temp/dataset/test2/16_5.odb,Step-1,Increment      1: Step Time =    1.000,"PART-1-1",           294,            5.,       14.0625,            0.,NA,NA,"",   58.8060E-03,  -58.2105E-03,   8.34774E-03,   227.846E-12
C:/temp/dataset/test2/16_5.odb,Step-1,Increment      1: Step Time =    1.000,"PART-1-1",           295,            1.,       14.0625,            0.,NA,NA,"",   58.3306E-03,  -58.2079E-03,   3.78088E-03,   112.831E-12
C:/temp/dataset/test2/16_5.odb,Step-1,Increment      1: Step Time =    1.000,"PART-1-1",           296,            2.,        13.125,            0.,NA,NA,"",   57.3499E-03,  -57.1382E-03,   4.92321E-03,   145.948E-12
C:/temp/dataset/test2/16_5.odb,Step-1,Increment      1: Step Time =    1.000,"PART-1-1",           297,           -1.,       14.0625,            0.,NA,NA,"",   58.2259E-03,  -58.2066E-03,   1.49746E-03,   116.044E-12
C:/temp/dataset/test2/16_5.odb,Step-1,Increment      1: Step Time =    1.000,"PART-1-1",           298,            0.,        13.125,            0.,NA,NA,"",   57.1979E-03,  -57.1369E-03,   2.63978E-03,   135.054E-12
C:/temp/dataset/test2/16_5.odb,Step-1,Increment      1: Step Time =    1.000,"PART-1-1",           299,           -3.,       14.0625,            0.,NA,NA,"",   58.2106E-03,  -58.2053E-03,  -785.967E-06,   109.948E-12
C:/temp/dataset/test2/16_5.odb,Step-1,Increment      1: Step Time =    1.000,"PART-1-1",           300,           -2.,        13.125,            0.,NA,NA,"",   57.1367E-03,  -57.1356E-03,   356.357E-06,   143.714E-12
C:/temp/dataset/test2/16_5.odb,Step-1,Increment      1: Step Time =    1.000,"PART-1-1",           301,           -5.,       14.0625,            0.,NA,NA,"",   58.2849E-03,  -58.2040E-03,  -3.06939E-03,   126.293E-12
C:/temp/dataset/test2/16_5.odb,Step-1,Increment      1: Step Time =    1.000,"PART-1-1",           302,           -4.,        13.125,            0.,NA,NA,"",   57.1668E-03,  -57.1343E-03,  -1.92707E-03,   115.474E-12
C:/temp/dataset/test2/16_5.odb,Step-1,Increment      1: Step Time =    1.000,"PART-1-1",           303,            3.,       12.1875,            0.,NA,NA,"",   56.3956E-03,  -56.0685E-03,   6.06553E-03,   248.906E-12
C:/temp/dataset/test2/16_5.odb,Step-1,Increment      1: Step Time =    1.000,"PART-1-1",           304,            4.,         11.25,            0.,NA,NA,"",   55.4691E-03,  -54.9988E-03,   7.20786E-03,   327.057E-12
C:/temp/dataset/test2/16_5.odb,Step-1,Increment      1: Step Time =    1.000,"PART-1-1",           305,            5.,       12.1875,            0.,NA,NA,"",   56.6880E-03,  -56.0698E-03,   8.34896E-03,   338.494E-12
C:/temp/dataset/test2/16_5.odb,Step-1,Increment      1: Step Time =    1.000,"PART-1-1",           306,            1.,       12.1875,            0.,NA,NA,"",   56.1946E-03,  -56.0672E-03,   3.78211E-03,   206.811E-12
C:/temp/dataset/test2/16_5.odb,Step-1,Increment      1: Step Time =    1.000,"PART-1-1",           307,            2.,         11.25,            0.,NA,NA,"",   55.2175E-03,  -54.9975E-03,   4.92443E-03,   248.416E-12
C:/temp/dataset/test2/16_5.odb,Step-1,Increment      1: Step Time =    1.000,"PART-1-1",           308,           -1.,       12.1875,            0.,NA,NA,"",   56.0859E-03,  -56.0659E-03,   1.49868E-03,   227.620E-12
C:/temp/dataset/test2/16_5.odb,Step-1,Increment      1: Step Time =    1.000,"PART-1-1",           309,            0.,         11.25,            0.,NA,NA,"",   55.0596E-03,  -54.9962E-03,   2.64100E-03,   263.988E-12
C:/temp/dataset/test2/16_5.odb,Step-1,Increment      1: Step Time =    1.000,"PART-1-1",           310,           -3.,       12.1875,            0.,NA,NA,"",   56.0701E-03,  -56.0646E-03,  -784.745E-06,   192.327E-12
C:/temp/dataset/test2/16_5.odb,Step-1,Increment      1: Step Time =    1.000,"PART-1-1",           311,           -2.,         11.25,            0.,NA,NA,"",   54.9961E-03,  -54.9949E-03,   357.579E-06,   268.485E-12
C:/temp/dataset/test2/16_5.odb,Step-1,Increment      1: Step Time =    1.000,"PART-1-1",           312,           -5.,       12.1875,            0.,NA,NA,"",   56.1472E-03,  -56.0633E-03,  -3.06817E-03,   65.5961E-12
C:/temp/dataset/test2/16_5.odb,Step-1,Increment      1: Step Time =    1.000,"PART-1-1",           313,           -4.,         11.25,            0.,NA,NA,"",   55.0273E-03,  -54.9936E-03,  -1.92585E-03,   147.433E-12
C:/temp/dataset/test2/16_5.odb,Step-1,Increment      1: Step Time =    1.000,"PART-1-1",           314,            3.,       10.3125,            0.,NA,NA,"",   54.2680E-03,  -53.9278E-03,   6.06675E-03,   410.998E-12
C:/temp/dataset/test2/16_5.odb,Step-1,Increment      1: Step Time =    1.000,"PART-1-1",           315,            4.,         9.375,            0.,NA,NA,"",   53.3474E-03,  -52.8581E-03,   7.20908E-03,   544.180E-12
C:/temp/dataset/test2/16_5.odb,Step-1,Increment      1: Step Time =    1.000,"PART-1-1",           316,            5.,       10.3125,            0.,NA,NA,"",   54.5717E-03,  -53.9291E-03,   8.35018E-03,   575.459E-12
C:/temp/dataset/test2/16_5.odb,Step-1,Increment      1: Step Time =    1.000,"PART-1-1",           317,            1.,       10.3125,            0.,NA,NA,"",   54.0590E-03,  -53.9265E-03,   3.78333E-03,   375.711E-12
C:/temp/dataset/test2/16_5.odb,Step-1,Increment      1: Step Time =    1.000,"PART-1-1",           318,            2.,         9.375,            0.,NA,NA,"",   53.0858E-03,  -52.8568E-03,   4.92565E-03,   418.904E-12
C:/temp/dataset/test2/16_5.odb,Step-1,Increment      1: Step Time =    1.000,"PART-1-1",           319,           -1.,       10.3125,            0.,NA,NA,"",   53.9461E-03,  -53.9252E-03,   1.49990E-03,   411.959E-12
C:/temp/dataset/test2/16_5.odb,Step-1,Increment      1: Step Time =    1.000,"PART-1-1",           320,            0.,         9.375,            0.,NA,NA,"",   52.9215E-03,  -52.8555E-03,   2.64223E-03,   460.653E-12
C:/temp/dataset/test2/16_5.odb,Step-1,Increment      1: Step Time =    1.000,"PART-1-1",           321,           -3.,       10.3125,            0.,NA,NA,"",   53.9296E-03,  -53.9239E-03,  -783.523E-06,   357.585E-12
C:/temp/dataset/test2/16_5.odb,Step-1,Increment      1: Step Time =    1.000,"PART-1-1",           322,           -2.,         9.375,            0.,NA,NA,"",   52.8554E-03,  -52.8542E-03,   358.801E-06,   458.914E-12
C:/temp/dataset/test2/16_5.odb,Step-1,Increment      1: Step Time =    1.000,"PART-1-1",           323,           -5.,       10.3125,            0.,NA,NA,"",   54.0097E-03,  -53.9226E-03,  -3.06695E-03,   159.653E-12
C:/temp/dataset/test2/16_5.odb,Step-1,Increment      1: Step Time =    1.000,"PART-1-1",           324,           -4.,         9.375,            0.,NA,NA,"",   52.8879E-03,  -52.8529E-03,  -1.92462E-03,   295.426E-12
C:/temp/dataset/test2/16_5.odb,Step-1,Increment      1: Step Time =    1.000,"PART-1-1",           325,            3.,        8.4375,            0.,NA,NA,"",   52.1414E-03,  -51.7871E-03,   6.06797E-03,   614.711E-12
C:/temp/dataset/test2/16_5.odb,Step-1,Increment      1: Step Time =    1.000,"PART-1-1",           326,            4.,           7.5,            0.,NA,NA,"",   51.2274E-03,  -50.7174E-03,   7.21030E-03,   877.891E-12
C:/temp/dataset/test2/16_5.odb,Step-1,Increment      1: Step Time =    1.000,"PART-1-1",           327,            5.,        8.4375,            0.,NA,NA,"",   52.4574E-03,  -51.7884E-03,   8.35140E-03,   1.02415E-09
C:/temp/dataset/test2/16_5.odb,Step-1,Increment      1: Step Time =    1.000,"PART-1-1",           328,            1.,        8.4375,            0.,NA,NA,"",   51.9239E-03,  -51.7858E-03,   3.78455E-03,   556.298E-12
C:/temp/dataset/test2/16_5.odb,Step-1,Increment      1: Step Time =    1.000,"PART-1-1",           329,            2.,           7.5,            0.,NA,NA,"",   50.9548E-03,  -50.7161E-03,   4.92687E-03,   553.670E-12
C:/temp/dataset/test2/16_5.odb,Step-1,Increment      1: Step Time =    1.000,"PART-1-1",           330,           -1.,        8.4375,            0.,NA,NA,"",   51.8062E-03,  -51.7845E-03,   1.50113E-03,   609.624E-12
C:/temp/dataset/test2/16_5.odb,Step-1,Increment      1: Step Time =    1.000,"PART-1-1",           331,            0.,           7.5,            0.,NA,NA,"",   50.7836E-03,  -50.7148E-03,   2.64345E-03,   627.816E-12
C:/temp/dataset/test2/16_5.odb,Step-1,Increment      1: Step Time =    1.000,"PART-1-1",           332,           -3.,        8.4375,            0.,NA,NA,"",   51.7891E-03,  -51.7832E-03,  -782.301E-06,   566.157E-12
C:/temp/dataset/test2/16_5.odb,Step-1,Increment      1: Step Time =    1.000,"PART-1-1",           333,           -2.,           7.5,            0.,NA,NA,"",   50.7148E-03,  -50.7135E-03,   360.024E-06,   616.926E-12
C:/temp/dataset/test2/16_5.odb,Step-1,Increment      1: Step Time =    1.000,"PART-1-1",           334,           -5.,        8.4375,            0.,NA,NA,"",   51.8726E-03,  -51.7819E-03,  -3.06573E-03,   563.133E-12
C:/temp/dataset/test2/16_5.odb,Step-1,Increment      1: Step Time =    1.000,"PART-1-1",           335,           -4.,           7.5,            0.,NA,NA,"",   50.7486E-03,  -50.7122E-03,  -1.92340E-03,   568.060E-12
C:/temp/dataset/test2/16_5.odb,Step-1,Increment      1: Step Time =    1.000,"PART-1-1",           336,            3.,        6.5625,            0.,NA,NA,"",   50.0160E-03,  -49.6464E-03,   6.06920E-03,   617.240E-12
C:/temp/dataset/test2/16_5.odb,Step-1,Increment      1: Step Time =    1.000,"PART-1-1",           337,            4.,         5.625,            0.,NA,NA,"",   49.1091E-03,  -48.5767E-03,   7.21152E-03,   1.20540E-09
C:/temp/dataset/test2/16_5.odb,Step-1,Increment      1: Step Time =    1.000,"PART-1-1",           338,            5.,        6.5625,            0.,NA,NA,"",   50.3454E-03,  -49.6477E-03,   8.35262E-03,   1.71012E-09
C:/temp/dataset/test2/16_5.odb,Step-1,Increment      1: Step Time =    1.000,"PART-1-1",           339,            1.,        6.5625,            0.,NA,NA,"",   49.7892E-03,  -49.6451E-03,   3.78577E-03,   557.942E-12
C:/temp/dataset/test2/16_5.odb,Step-1,Increment      1: Step Time =    1.000,"PART-1-1",           340,            2.,         5.625,            0.,NA,NA,"",   48.8247E-03,  -48.5754E-03,   4.92810E-03,   427.650E-12
C:/temp/dataset/test2/16_5.odb,Step-1,Increment      1: Step Time =    1.000,"PART-1-1",           341,           -1.,        6.5625,            0.,NA,NA,"",   49.6665E-03,  -49.6438E-03,   1.50235E-03,   633.359E-12
C:/temp/dataset/test2/16_5.odb,Step-1,Increment      1: Step Time =    1.000,"PART-1-1",           342,            0.,         5.625,            0.,NA,NA,"",   48.6460E-03,  -48.5741E-03,   2.64467E-03,   700.242E-12
C:/temp/dataset/test2/16_5.odb,Step-1,Increment      1: Step Time =    1.000,"PART-1-1",           343,           -3.,        6.5625,            0.,NA,NA,"",   49.6486E-03,  -49.6425E-03,  -781.078E-06,   580.387E-12
C:/temp/dataset/test2/16_5.odb,Step-1,Increment      1: Step Time =    1.000,"PART-1-1",           344,           -2.,         5.625,            0.,NA,NA,"",   48.5741E-03,  -48.5728E-03,   361.247E-06,   523.613E-12
C:/temp/dataset/test2/16_5.odb,Step-1,Increment      1: Step Time =    1.000,"PART-1-1",           345,           -5.,        6.5625,            0.,NA,NA,"",   49.7357E-03,  -49.6412E-03,  -3.06451E-03,   1.20726E-09
C:/temp/dataset/test2/16_5.odb,Step-1,Increment      1: Step Time =    1.000,"PART-1-1",           346,           -4.,         5.625,            0.,NA,NA,"",   48.6095E-03,  -48.5715E-03,  -1.92218E-03,   818.174E-12
C:/temp/dataset/test2/16_5.odb,Step-1,Increment      1: Step Time =    1.000,"PART-1-1",           347,            3.,        4.6875,            0.,NA,NA,"",   47.8919E-03,  -47.5057E-03,   6.07042E-03,   613.299E-12
C:/temp/dataset/test2/16_5.odb,Step-1,Increment      1: Step Time =    1.000,"PART-1-1",           348,            4.,          3.75,            0.,NA,NA,"",   46.9928E-03,  -46.4360E-03,   7.21274E-03,   1.31113E-09
C:/temp/dataset/test2/16_5.odb,Step-1,Increment      1: Step Time =    1.000,"PART-1-1",           349,            5.,        4.6875,            0.,NA,NA,"",   48.2359E-03,  -47.5070E-03,   8.35384E-03,   2.32454E-09
C:/temp/dataset/test2/16_5.odb,Step-1,Increment      1: Step Time =    1.000,"PART-1-1",           350,            1.,        4.6875,            0.,NA,NA,"",   47.6551E-03,  -47.5044E-03,   3.78700E-03,   1.65905E-09
C:/temp/dataset/test2/16_5.odb,Step-1,Increment      1: Step Time =    1.000,"PART-1-1",           351,            2.,          3.75,            0.,NA,NA,"",   46.6956E-03,  -46.4347E-03,   4.92932E-03,   2.21950E-09
C:/temp/dataset/test2/16_5.odb,Step-1,Increment      1: Step Time =    1.000,"PART-1-1",           352,           -1.,        4.6875,            0.,NA,NA,"",   47.5269E-03,  -47.5031E-03,   1.50357E-03,   1.66164E-09
C:/temp/dataset/test2/16_5.odb,Step-1,Increment      1: Step Time =    1.000,"PART-1-1",           353,            0.,          3.75,            0.,NA,NA,"",   46.5087E-03,  -46.4334E-03,   2.64589E-03,   2.81649E-09
C:/temp/dataset/test2/16_5.odb,Step-1,Increment      1: Step Time =    1.000,"PART-1-1",           354,           -3.,        4.6875,            0.,NA,NA,"",   47.5082E-03,  -47.5018E-03,  -779.856E-06,   693.950E-12
C:/temp/dataset/test2/16_5.odb,Step-1,Increment      1: Step Time =    1.000,"PART-1-1",           355,           -2.,          3.75,            0.,NA,NA,"",   46.4335E-03,  -46.4321E-03,   362.469E-06,   2.20416E-09
C:/temp/dataset/test2/16_5.odb,Step-1,Increment      1: Step Time =    1.000,"PART-1-1",           356,           -5.,        4.6875,            0.,NA,NA,"",   47.5991E-03,  -47.5005E-03,  -3.06329E-03,   1.77988E-09
C:/temp/dataset/test2/16_5.odb,Step-1,Increment      1: Step Time =    1.000,"PART-1-1",           357,           -4.,          3.75,            0.,NA,NA,"",   46.4705E-03,  -46.4307E-03,  -1.92096E-03,   913.245E-12
C:/temp/dataset/test2/16_5.odb,Step-1,Increment      1: Step Time =    1.000,"PART-1-1",           358,            3.,        2.8125,            0.,NA,NA,"",   45.7695E-03,  -45.3650E-03,   6.07164E-03,   4.78864E-09
C:/temp/dataset/test2/16_5.odb,Step-1,Increment      1: Step Time =    1.000,"PART-1-1",           359,            4.,         1.875,            0.,NA,NA,"",   44.8789E-03,  -44.2953E-03,   7.21396E-03,   3.83777E-09
C:/temp/dataset/test2/16_5.odb,Step-1,Increment      1: Step Time =    1.000,"PART-1-1",           360,            5.,        2.8125,            0.,NA,NA,"",   46.1292E-03,  -45.3663E-03,   8.35506E-03,   1.52740E-09
C:/temp/dataset/test2/16_5.odb,Step-1,Increment      1: Step Time =    1.000,"PART-1-1",           361,            1.,        2.8125,            0.,NA,NA,"",   45.5216E-03,  -45.3637E-03,   3.78822E-03,   7.12443E-09
C:/temp/dataset/test2/16_5.odb,Step-1,Increment      1: Step Time =    1.000,"PART-1-1",           362,            2.,         1.875,            0.,NA,NA,"",   44.5675E-03,  -44.2940E-03,   4.93054E-03,   9.05896E-09
C:/temp/dataset/test2/16_5.odb,Step-1,Increment      1: Step Time =    1.000,"PART-1-1",           363,           -1.,        2.8125,            0.,NA,NA,"",   45.3873E-03,  -45.3623E-03,   1.50479E-03,   7.08827E-09
C:/temp/dataset/test2/16_5.odb,Step-1,Increment      1: Step Time =    1.000,"PART-1-1",           364,            0.,         1.875,            0.,NA,NA,"",   44.3717E-03,  -44.2926E-03,   2.64711E-03,   10.4145E-09
C:/temp/dataset/test2/16_5.odb,Step-1,Increment      1: Step Time =    1.000,"PART-1-1",           365,           -3.,        2.8125,            0.,NA,NA,"",   45.3677E-03,  -45.3610E-03,  -778.634E-06,   4.85266E-09
C:/temp/dataset/test2/16_5.odb,Step-1,Increment      1: Step Time =    1.000,"PART-1-1",           366,           -2.,         1.875,            0.,NA,NA,"",   44.2928E-03,  -44.2913E-03,   363.688E-06,   9.01107E-09
C:/temp/dataset/test2/16_5.odb,Step-1,Increment      1: Step Time =    1.000,"PART-1-1",           367,           -5.,        2.8125,            0.,NA,NA,"",   45.4630E-03,  -45.3597E-03,  -3.06207E-03,   952.709E-12
C:/temp/dataset/test2/16_5.odb,Step-1,Increment      1: Step Time =    1.000,"PART-1-1",           368,           -4.,         1.875,            0.,NA,NA,"",   44.3316E-03,  -44.2900E-03,  -1.91974E-03,   3.90760E-09
C:/temp/dataset/test2/16_5.odb,Step-1,Increment      1: Step Time =    1.000,"PART-1-1",           369,            3.,     937.5E-03,            0.,NA,NA,"",   43.6488E-03,  -43.2243E-03,   6.07286E-03,   16.6606E-09
C:/temp/dataset/test2/16_5.odb,Step-1,Increment      1: Step Time =    1.000,"PART-1-1",           370,            4.,            0.,            0.,NA,NA,"",   42.7676E-03,  -42.1546E-03,   7.21519E-03,   14.5865E-09
C:/temp/dataset/test2/16_5.odb,Step-1,Increment      1: Step Time =    1.000,"PART-1-1",           371,            5.,     937.5E-03,            0.,NA,NA,"",   44.0259E-03,  -43.2256E-03,   8.35628E-03,   4.89387E-09
C:/temp/dataset/test2/16_5.odb,Step-1,Increment      1: Step Time =    1.000,"PART-1-1",           372,            1.,     937.5E-03,            0.,NA,NA,"",   43.3888E-03,  -43.2230E-03,   3.78943E-03,   21.5019E-09
C:/temp/dataset/test2/16_5.odb,Step-1,Increment      1: Step Time =    1.000,"PART-1-1",           373,            2.,            0.,            0.,NA,NA,"",   42.4408E-03,  -42.1533E-03,   4.93175E-03,   26.1019E-09
C:/temp/dataset/test2/16_5.odb,Step-1,Increment      1: Step Time =    1.000,"PART-1-1",           374,           -1.,     937.5E-03,            0.,NA,NA,"",   43.2479E-03,  -43.2216E-03,   1.50600E-03,   21.4481E-09
C:/temp/dataset/test2/16_5.odb,Step-1,Increment      1: Step Time =    1.000,"PART-1-1",           375,            0.,            0.,            0.,NA,NA,"",   42.2351E-03,  -42.1519E-03,   2.64831E-03,   29.1167E-09
C:/temp/dataset/test2/16_5.odb,Step-1,Increment      1: Step Time =    1.000,"PART-1-1",           376,           -3.,     937.5E-03,            0.,NA,NA,"",   43.2273E-03,  -43.2203E-03,  -777.412E-06,   16.7219E-09
C:/temp/dataset/test2/16_5.odb,Step-1,Increment      1: Step Time =    1.000,"PART-1-1",           377,           -2.,            0.,            0.,NA,NA,"",   42.1522E-03,  -42.1506E-03,   364.899E-06,   26.0362E-09
C:/temp/dataset/test2/16_5.odb,Step-1,Increment      1: Step Time =    1.000,"PART-1-1",           378,           -5.,     937.5E-03,            0.,NA,NA,"",   43.3273E-03,  -43.2190E-03,  -3.06085E-03,   5.50369E-09
C:/temp/dataset/test2/16_5.odb,Step-1,Increment      1: Step Time =    1.000,"PART-1-1",           379,           -4.,            0.,            0.,NA,NA,"",   42.1929E-03,  -42.1493E-03,  -1.91851E-03,   14.8341E-09
C:/temp/dataset/test2/16_5.odb,Step-1,Increment      1: Step Time =    1.000,"PART-1-1",           380,            3.,    -937.5E-03,            0.,NA,NA,"",   41.5302E-03,  -41.0836E-03,   6.07408E-03,   43.7894E-09
C:/temp/dataset/test2/16_5.odb,Step-1,Increment      1: Step Time =    1.000,"PART-1-1",           381,            4.,        -1.875,            0.,NA,NA,"",   40.6595E-03,  -40.0140E-03,   7.21644E-03,   41.8054E-09
C:/temp/dataset/test2/16_5.odb,Step-1,Increment      1: Step Time =    1.000,"PART-1-1",           382,            5.,    -937.5E-03,            0.,NA,NA,"",   41.9263E-03,  -41.0849E-03,   8.35751E-03,   26.1014E-09
C:/temp/dataset/test2/16_5.odb,Step-1,Increment      1: Step Time =    1.000,"PART-1-1",           383,            1.,    -937.5E-03,            0.,NA,NA,"",   41.2568E-03,  -41.0823E-03,   3.79061E-03,   52.5673E-09
C:/temp/dataset/test2/16_5.odb,Step-1,Increment      1: Step Time =    1.000,"PART-1-1",           384,            2.,        -1.875,            0.,NA,NA,"",   40.3156E-03,  -40.0126E-03,   4.93294E-03,   61.3826E-09
C:/temp/dataset/test2/16_5.odb,Step-1,Increment      1: Step Time =    1.000,"PART-1-1",           385,           -1.,    -937.5E-03,            0.,NA,NA,"",   41.1085E-03,  -41.0809E-03,   1.50719E-03,   52.4955E-09
C:/temp/dataset/test2/16_5.odb,Step-1,Increment      1: Step Time =    1.000,"PART-1-1",           386,            0.,        -1.875,            0.,NA,NA,"",   40.0989E-03,  -40.0112E-03,   2.64946E-03,   67.3957E-09
C:/temp/dataset/test2/16_5.odb,Step-1,Increment      1: Step Time =    1.000,"PART-1-1",           387,           -3.,    -937.5E-03,            0.,NA,NA,"",   41.0869E-03,  -41.0795E-03,  -776.188E-06,   43.8426E-09
C:/temp/dataset/test2/16_5.odb,Step-1,Increment      1: Step Time =    1.000,"PART-1-1",           388,           -2.,        -1.875,            0.,NA,NA,"",   40.0115E-03,  -40.0098E-03,   366.090E-06,   61.2982E-09
C:/temp/dataset/test2/16_5.odb,Step-1,Increment      1: Step Time =    1.000,"PART-1-1",           389,           -5.,    -937.5E-03,            0.,NA,NA,"",   41.1920E-03,  -41.0782E-03,  -3.05961E-03,   26.7715E-09
C:/temp/dataset/test2/16_5.odb,Step-1,Increment      1: Step Time =    1.000,"PART-1-1",           390,           -4.,        -1.875,            0.,NA,NA,"",   40.0544E-03,  -40.0085E-03,  -1.91725E-03,   42.1382E-09
C:/temp/dataset/test2/16_5.odb,Step-1,Increment      1: Step Time =    1.000,"PART-1-1",           391,            3.,       -2.8125,            0.,NA,NA,"",   39.4140E-03,  -38.9430E-03,   6.07531E-03,   95.2326E-09
C:/temp/dataset/test2/16_5.odb,Step-1,Increment      1: Step Time =    1.000,"PART-1-1",           392,            4.,         -3.75,            0.,NA,NA,"",   38.5550E-03,  -37.8733E-03,   7.21775E-03,   98.5446E-09
C:/temp/dataset/test2/16_5.odb,Step-1,Increment      1: Step Time =    1.000,"PART-1-1",           393,            5.,       -2.8125,            0.,NA,NA,"",   39.8312E-03,  -38.9443E-03,   8.35880E-03,   80.7998E-09
C:/temp/dataset/test2/16_5.odb,Step-1,Increment      1: Step Time =    1.000,"PART-1-1",           394,            1.,       -2.8125,            0.,NA,NA,"",   39.1258E-03,  -38.9416E-03,   3.79174E-03,   108.070E-09
C:/temp/dataset/test2/16_5.odb,Step-1,Increment      1: Step Time =    1.000,"PART-1-1",           395,            2.,         -3.75,            0.,NA,NA,"",   38.1921E-03,  -37.8720E-03,   4.93409E-03,   120.818E-09
C:/temp/dataset/test2/16_5.odb,Step-1,Increment      1: Step Time =    1.000,"PART-1-1",           396,           -1.,       -2.8125,            0.,NA,NA,"",   38.9693E-03,  -38.9401E-03,   1.50832E-03,   107.965E-09
C:/temp/dataset/test2/16_5.odb,Step-1,Increment      1: Step Time =    1.000,"PART-1-1",           397,            0.,         -3.75,            0.,NA,NA,"",   37.9632E-03,  -37.8705E-03,   2.65053E-03,   131.288E-09
C:/temp/dataset/test2/16_5.odb,Step-1,Increment      1: Step Time =    1.000,"PART-1-1",           398,           -3.,       -2.8125,            0.,NA,NA,"",   38.9465E-03,  -38.9388E-03,  -774.961E-06,   95.2529E-09
C:/temp/dataset/test2/16_5.odb,Step-1,Increment      1: Step Time =    1.000,"PART-1-1",           399,           -2.,         -3.75,            0.,NA,NA,"",   37.8708E-03,  -37.8690E-03,   367.239E-06,   120.669E-09
C:/temp/dataset/test2/16_5.odb,Step-1,Increment      1: Step Time =    1.000,"PART-1-1",           400,           -5.,       -2.8125,            0.,NA,NA,"",   39.0574E-03,  -38.9375E-03,  -3.05832E-03,   81.4963E-09
C:/temp/dataset/test2/16_5.odb,Step-1,Increment      1: Step Time =    1.000,"PART-1-1",           401,           -4.,         -3.75,            0.,NA,NA,"",   37.9161E-03,  -37.8677E-03,  -1.91595E-03,   98.9172E-09
C:/temp/dataset/test2/16_5.odb,Step-1,Increment      1: Step Time =    1.000,"PART-1-1",           402,            3.,       -4.6875,            0.,NA,NA,"",   37.3007E-03,  -36.8024E-03,   6.07654E-03,   170.537E-09
C:/temp/dataset/test2/16_5.odb,Step-1,Increment      1: Step Time =    1.000,"PART-1-1",           403,            4.,        -5.625,            0.,NA,NA,"",   36.4546E-03,  -35.7327E-03,   7.21916E-03,   195.411E-09
C:/temp/dataset/test2/16_5.odb,Step-1,Increment      1: Step Time =    1.000,"PART-1-1",           404,            5.,       -4.6875,            0.,NA,NA,"",   37.7412E-03,  -36.8036E-03,   8.36023E-03,   197.586E-09
C:/temp/dataset/test2/16_5.odb,Step-1,Increment      1: Step Time =    1.000,"PART-1-1",           405,            1.,       -4.6875,            0.,NA,NA,"",   36.9959E-03,  -36.8009E-03,   3.79278E-03,   182.429E-09
C:/temp/dataset/test2/16_5.odb,Step-1,Increment      1: Step Time =    1.000,"PART-1-1",           406,            2.,        -5.625,            0.,NA,NA,"",   36.0705E-03,  -35.7313E-03,   4.93517E-03,   190.233E-09
C:/temp/dataset/test2/16_5.odb,Step-1,Increment      1: Step Time =    1.000,"PART-1-1",           407,           -1.,       -4.6875,            0.,NA,NA,"",   36.8303E-03,  -36.7994E-03,   1.50936E-03,   182.181E-09
C:/temp/dataset/test2/16_5.odb,Step-1,Increment      1: Step Time =    1.000,"PART-1-1",           408,            0.,        -5.625,            0.,NA,NA,"",   35.8281E-03,  -35.7298E-03,   2.65148E-03,   206.473E-09
C:/temp/dataset/test2/16_5.odb,Step-1,Increment      1: Step Time =    1.000,"PART-1-1",           409,           -3.,       -4.6875,            0.,NA,NA,"",   36.8061E-03,  -36.7980E-03,  -773.729E-06,   170.314E-09
C:/temp/dataset/test2/16_5.odb,Step-1,Increment      1: Step Time =    1.000,"PART-1-1",           410,           -2.,        -5.625,            0.,NA,NA,"",   35.7302E-03,  -35.7283E-03,   368.325E-06,   189.845E-09
C:/temp/dataset/test2/16_5.odb,Step-1,Increment      1: Step Time =    1.000,"PART-1-1",           411,           -5.,       -4.6875,            0.,NA,NA,"",   36.9235E-03,  -36.7967E-03,  -3.05689E-03,   198.234E-09
C:/temp/dataset/test2/16_5.odb,Step-1,Increment      1: Step Time =    1.000,"PART-1-1",           412,           -4.,        -5.625,            0.,NA,NA,"",   35.7782E-03,  -35.7270E-03,  -1.91454E-03,   195.687E-09
C:/temp/dataset/test2/16_5.odb,Step-1,Increment      1: Step Time =    1.000,"PART-1-1",           413,            3.,       -6.5625,            0.,NA,NA,"",   35.1905E-03,  -34.6616E-03,   6.07778E-03,   225.048E-09
C:/temp/dataset/test2/16_5.odb,Step-1,Increment      1: Step Time =    1.000,"PART-1-1",           414,            4.,          -7.5,            0.,NA,NA,"",   34.3590E-03,  -33.5917E-03,   7.22073E-03,   314.984E-09
C:/temp/dataset/test2/16_5.odb,Step-1,Increment      1: Step Time =    1.000,"PART-1-1",           415,            5.,       -6.5625,            0.,NA,NA,"",   35.6571E-03,  -34.6628E-03,   8.36193E-03,   401.571E-09
C:/temp/dataset/test2/16_5.odb,Step-1,Increment      1: Step Time =    1.000,"PART-1-1",           416,            1.,       -6.5625,            0.,NA,NA,"",   34.8672E-03,  -34.6602E-03,   3.79371E-03,   226.959E-09
C:/temp/dataset/test2/16_5.odb,Step-1,Increment      1: Step Time =    1.000,"PART-1-1",           417,            2.,          -7.5,            0.,NA,NA,"",   33.9512E-03,  -33.5904E-03,   4.93619E-03,   198.331E-09
C:/temp/dataset/test2/16_5.odb,Step-1,Increment      1: Step Time =    1.000,"PART-1-1",           418,           -1.,       -6.5625,            0.,NA,NA,"",   34.6916E-03,  -34.6587E-03,   1.51029E-03,   226.268E-09
C:/temp/dataset/test2/16_5.odb,Step-1,Increment      1: Step Time =    1.000,"PART-1-1",           419,            0.,          -7.5,            0.,NA,NA,"",   33.6937E-03,  -33.5891E-03,   2.65233E-03,   237.267E-09
C:/temp/dataset/test2/16_5.odb,Step-1,Increment      1: Step Time =    1.000,"PART-1-1",           420,           -3.,       -6.5625,            0.,NA,NA,"",   34.6659E-03,  -34.6573E-03,  -772.486E-06,   223.973E-09
C:/temp/dataset/test2/16_5.odb,Step-1,Increment      1: Step Time =    1.000,"PART-1-1",           421,           -2.,          -7.5,            0.,NA,NA,"",   33.5898E-03,  -33.5878E-03,   369.350E-06,   197.219E-09
C:/temp/dataset/test2/16_5.odb,Step-1,Increment      1: Step Time =    1.000,"PART-1-1",           422,           -5.,       -6.5625,            0.,NA,NA,"",   34.7906E-03,  -34.6562E-03,  -3.05519E-03,   401.405E-09
C:/temp/dataset/test2/16_5.odb,Step-1,Increment      1: Step Time =    1.000,"PART-1-1",           423,           -4.,          -7.5,            0.,NA,NA,"",   33.6410E-03,  -33.5865E-03,  -1.91297E-03,   314.538E-09
C:/temp/dataset/test2/16_5.odb,Step-1,Increment      1: Step Time =    1.000,"PART-1-1",           424,            3.,       -8.4375,            0.,NA,NA,"",   33.0836E-03,  -32.5203E-03,   6.07904E-03,   125.549E-09
C:/temp/dataset/test2/16_5.odb,Step-1,Increment      1: Step Time =    1.000,"PART-1-1",           425,            4.,        -9.375,            0.,NA,NA,"",   32.2684E-03,  -31.4497E-03,   7.22244E-03,   371.510E-09
C:/temp/dataset/test2/16_5.odb,Step-1,Increment      1: Step Time =    1.000,"PART-1-1",           426,            5.,       -8.4375,            0.,NA,NA,"",   33.5797E-03,  -32.5213E-03,   8.36408E-03,   654.931E-09
C:/temp/dataset/test2/16_5.odb,Step-1,Increment      1: Step Time =    1.000,"PART-1-1",           427,            1.,       -8.4375,            0.,NA,NA,"",   32.7399E-03,  -32.5192E-03,   3.79463E-03,   305.448E-09
C:/temp/dataset/test2/16_5.odb,Step-1,Increment      1: Step Time =    1.000,"PART-1-1",           428,            2.,        -9.375,            0.,NA,NA,"",   31.8340E-03,  -31.4488E-03,   4.93728E-03,   358.923E-09
C:/temp/dataset/test2/16_5.odb,Step-1,Increment      1: Step Time =    1.000,"PART-1-1",           429,           -1.,       -8.4375,            0.,NA,NA,"",   32.5533E-03,  -32.5182E-03,   1.51121E-03,   305.038E-09
C:/temp/dataset/test2/16_5.odb,Step-1,Increment      1: Step Time =    1.000,"PART-1-1",           430,            0.,        -9.375,            0.,NA,NA,"",   31.5601E-03,  -31.4484E-03,   2.65341E-03,   519.027E-09
C:/temp/dataset/test2/16_5.odb,Step-1,Increment      1: Step Time =    1.000,"PART-1-1",           431,           -3.,       -8.4375,            0.,NA,NA,"",   32.5263E-03,  -32.5171E-03,  -771.227E-06,   124.108E-09
C:/temp/dataset/test2/16_5.odb,Step-1,Increment      1: Step Time =    1.000,"PART-1-1",           432,           -2.,        -9.375,            0.,NA,NA,"",   31.4502E-03,  -31.4480E-03,   370.443E-06,   361.648E-09
C:/temp/dataset/test2/16_5.odb,Step-1,Increment      1: Step Time =    1.000,"PART-1-1",           433,           -5.,       -8.4375,            0.,NA,NA,"",   32.6592E-03,  -32.5162E-03,  -3.05304E-03,   651.634E-09
C:/temp/dataset/test2/16_5.odb,Step-1,Increment      1: Step Time =    1.000,"PART-1-1",           434,           -4.,        -9.375,            0.,NA,NA,"",   31.5051E-03,  -31.4471E-03,  -1.91126E-03,   370.337E-09
C:/temp/dataset/test2/16_5.odb,Step-1,Increment      1: Step Time =    1.000,"PART-1-1",           435,            3.,      -10.3125,            0.,NA,NA,"",   30.9800E-03,  -30.3775E-03,   6.08030E-03,   847.194E-09
C:/temp/dataset/test2/16_5.odb,Step-1,Increment      1: Step Time =    1.000,"PART-1-1",           436,            4.,        -11.25,            0.,NA,NA,"",   30.1825E-03,  -29.3053E-03,   7.22394E-03,   695.329E-09
C:/temp/dataset/test2/16_5.odb,Step-1,Increment      1: Step Time =    1.000,"PART-1-1",           437,            5.,      -10.3125,            0.,NA,NA,"",   31.5094E-03,  -30.3783E-03,   8.36673E-03,   685.027E-09
C:/temp/dataset/test2/16_5.odb,Step-1,Increment      1: Step Time =    1.000,"PART-1-1",           438,            1.,      -10.3125,            0.,NA,NA,"",   30.6138E-03,  -30.3775E-03,   3.79607E-03,   1.42945E-06
C:/temp/dataset/test2/16_5.odb,Step-1,Increment      1: Step Time =    1.000,"PART-1-1",           439,            2.,        -11.25,            0.,NA,NA,"",   29.7184E-03,  -29.3052E-03,   4.93893E-03,   1.85682E-06
C:/temp/dataset/test2/16_5.odb,Step-1,Increment      1: Step Time =    1.000,"PART-1-1",           440,           -1.,      -10.3125,            0.,NA,NA,"",   30.4161E-03,  -30.3785E-03,   1.51266E-03,   1.42993E-06
C:/temp/dataset/test2/16_5.odb,Step-1,Increment      1: Step Time =    1.000,"PART-1-1",           441,            0.,        -11.25,            0.,NA,NA,"",   29.4278E-03,  -29.3077E-03,   2.65584E-03,   2.20353E-06
C:/temp/dataset/test2/16_5.odb,Step-1,Increment      1: Step Time =    1.000,"PART-1-1",           442,           -3.,      -10.3125,            0.,NA,NA,"",   30.3883E-03,  -30.3786E-03,  -769.965E-06,   855.850E-09
C:/temp/dataset/test2/16_5.odb,Step-1,Increment      1: Step Time =    1.000,"PART-1-1",           443,           -2.,        -11.25,            0.,NA,NA,"",   29.3126E-03,  -29.3102E-03,   372.109E-06,   1.86461E-06
C:/temp/dataset/test2/16_5.odb,Step-1,Increment      1: Step Time =    1.000,"PART-1-1",           444,           -5.,      -10.3125,            0.,NA,NA,"",   30.5305E-03,  -30.3777E-03,  -3.05041E-03,   670.414E-09
C:/temp/dataset/test2/16_5.odb,Step-1,Increment      1: Step Time =    1.000,"PART-1-1",           445,           -4.,        -11.25,            0.,NA,NA,"",   29.3723E-03,  -29.3101E-03,  -1.90977E-03,   709.054E-09
C:/temp/dataset/test2/16_5.odb,Step-1,Increment      1: Step Time =    1.000,"PART-1-1",           446,            3.,      -12.1875,            0.,NA,NA,"",   28.8786E-03,  -28.2310E-03,   6.08151E-03,   3.63832E-06
C:/temp/dataset/test2/16_5.odb,Step-1,Increment      1: Step Time =    1.000,"PART-1-1",           447,            4.,       -13.125,            0.,NA,NA,"",   28.1000E-03,  -27.1555E-03,   7.22389E-03,   3.07176E-06
C:/temp/dataset/test2/16_5.odb,Step-1,Increment      1: Step Time =    1.000,"PART-1-1",           448,            5.,      -12.1875,            0.,NA,NA,"",   29.4464E-03,  -28.2320E-03,   8.36919E-03,   479.312E-09
C:/temp/dataset/test2/16_5.odb,Step-1,Increment      1: Step Time =    1.000,"PART-1-1",           449,            1.,      -12.1875,            0.,NA,NA,"",   28.4887E-03,  -28.2342E-03,   3.79964E-03,   4.89468E-06
C:/temp/dataset/test2/16_5.odb,Step-1,Increment      1: Step Time =    1.000,"PART-1-1",           450,            2.,       -13.125,            0.,NA,NA,"",   27.6034E-03,  -27.1573E-03,   4.94253E-03,   6.04619E-06
C:/temp/dataset/test2/16_5.odb,Step-1,Increment      1: Step Time =    1.000,"PART-1-1",           451,           -1.,      -12.1875,            0.,NA,NA,"",   28.2811E-03,  -28.2405E-03,   1.51624E-03,   4.88462E-06
C:/temp/dataset/test2/16_5.odb,Step-1,Increment      1: Step Time =    1.000,"PART-1-1",           452,            0.,       -13.125,            0.,NA,NA,"",   27.2972E-03,  -27.1670E-03,   2.66258E-03,   6.82315E-06
C:/temp/dataset/test2/16_5.odb,Step-1,Increment      1: Step Time =    1.000,"PART-1-1",           453,           -3.,      -12.1875,            0.,NA,NA,"",   28.2541E-03,  -28.2437E-03,  -768.744E-06,   3.63299E-06
C:/temp/dataset/test2/16_5.odb,Step-1,Increment      1: Step Time =    1.000,"PART-1-1",           454,           -2.,       -13.125,            0.,NA,NA,"",   27.1793E-03,  -27.1767E-03,   375.714E-06,   6.03899E-06
C:/temp/dataset/test2/16_5.odb,Step-1,Increment      1: Step Time =    1.000,"PART-1-1",           455,           -5.,      -12.1875,            0.,NA,NA,"",   28.4066E-03,  -28.2426E-03,  -3.04801E-03,   515.464E-09
C:/temp/dataset/test2/16_5.odb,Step-1,Increment      1: Step Time =    1.000,"PART-1-1",           456,           -4.,       -13.125,            0.,NA,NA,"",   27.2453E-03,  -27.1783E-03,  -1.90984E-03,   3.08071E-06
C:/temp/dataset/test2/16_5.odb,Step-1,Increment      1: Step Time =    1.000,"PART-1-1",           457,            3.,      -14.0625,            0.,NA,NA,"",   26.7772E-03,  -26.0772E-03,   6.08247E-03,   10.6097E-06
C:/temp/dataset/test2/16_5.odb,Step-1,Increment      1: Step Time =    1.000,"PART-1-1",           458,            4.,          -15.,            0.,NA,NA,"",   26.0183E-03,  -24.9968E-03,   7.21875E-03,   9.78324E-06
C:/temp/dataset/test2/16_5.odb,Step-1,Increment      1: Step Time =    1.000,"PART-1-1",           459,            5.,      -14.0625,            0.,NA,NA,"",   27.3893E-03,  -26.0796E-03,   8.36836E-03,   5.15164E-06
C:/temp/dataset/test2/16_5.odb,Step-1,Increment      1: Step Time =    1.000,"PART-1-1",           460,            1.,      -14.0625,            0.,NA,NA,"",   26.3643E-03,  -26.0876E-03,   3.80924E-03,   13.0379E-06
C:/temp/dataset/test2/16_5.odb,Step-1,Increment      1: Step Time =    1.000,"PART-1-1",           461,            2.,          -15.,            0.,NA,NA,"",   25.4875E-03,  -25.0019E-03,   4.95137E-03,   15.5324E-06
C:/temp/dataset/test2/16_5.odb,Step-1,Increment      1: Step Time =    1.000,"PART-1-1",           462,           -1.,      -14.0625,            0.,NA,NA,"",   26.1503E-03,  -26.1057E-03,   1.52578E-03,   12.9236E-06
C:/temp/dataset/test2/16_5.odb,Step-1,Increment      1: Step Time =    1.000,"PART-1-1",           463,            0.,          -15.,            0.,NA,NA,"",   25.1697E-03,  -25.0266E-03,   2.68022E-03,   17.0512E-06
C:/temp/dataset/test2/16_5.odb,Step-1,Increment      1: Step Time =    1.000,"PART-1-1",           464,           -3.,      -14.0625,            0.,NA,NA,"",   26.1271E-03,  -26.1158E-03,  -767.778E-06,   10.4561E-06
C:/temp/dataset/test2/16_5.odb,Step-1,Increment      1: Step Time =    1.000,"PART-1-1",           465,           -2.,          -15.,            0.,NA,NA,"",   25.0536E-03,  -25.0506E-03,   384.329E-06,   15.3152E-06
C:/temp/dataset/test2/16_5.odb,Step-1,Increment      1: Step Time =    1.000,"PART-1-1",           466,           -5.,      -14.0625,            0.,NA,NA,"",   26.2908E-03,  -26.1134E-03,  -3.04896E-03,   5.16583E-06
C:/temp/dataset/test2/16_5.odb,Step-1,Increment      1: Step Time =    1.000,"PART-1-1",           467,           -4.,          -15.,            0.,NA,NA,"",   25.1283E-03,  -25.0553E-03,  -1.91506E-03,   9.69987E-06
C:/temp/dataset/test2/16_5.odb,Step-1,Increment      1: Step Time =    1.000,"PART-1-1",           468,            3.,      -15.9375,            0.,NA,NA,"",   24.6739E-03,  -23.9123E-03,   6.08307E-03,   25.4367E-06
C:/temp/dataset/test2/16_5.odb,Step-1,Increment      1: Step Time =    1.000,"PART-1-1",           469,            4.,       -16.875,            0.,NA,NA,"",   23.9352E-03,  -22.8267E-03,   7.19979E-03,   25.3792E-06
C:/temp/dataset/test2/16_5.odb,Step-1,Increment      1: Step Time =    1.000,"PART-1-1",           470,            5.,      -15.9375,            0.,NA,NA,"",   25.3369E-03,  -23.9194E-03,   8.35565E-03,   18.6111E-06
C:/temp/dataset/test2/16_5.odb,Step-1,Increment      1: Step Time =    1.000,"PART-1-1",           471,            1.,      -15.9375,            0.,NA,NA,"",   24.2415E-03,  -23.9365E-03,   3.83307E-03,   29.0718E-06
C:/temp/dataset/test2/16_5.odb,Step-1,Increment      1: Step Time =    1.000,"PART-1-1",           472,            2.,       -16.875,            0.,NA,NA,"",   23.3723E-03,  -22.8373E-03,   4.97190E-03,   33.3990E-06
C:/temp/dataset/test2/16_5.odb,Step-1,Increment      1: Step Time =    1.000,"PART-1-1",           473,           -1.,      -15.9375,            0.,NA,NA,"",   24.0264E-03,  -23.9764E-03,   1.54897E-03,   28.4772E-06
C:/temp/dataset/test2/16_5.odb,Step-1,Increment      1: Step Time =    1.000,"PART-1-1",           474,            0.,       -16.875,            0.,NA,NA,"",   23.0483E-03,  -22.8872E-03,   2.72038E-03,   35.8328E-06
C:/temp/dataset/test2/16_5.odb,Step-1,Increment      1: Step Time =    1.000,"PART-1-1",           475,           -3.,      -15.9375,            0.,NA,NA,"",   24.0110E-03,  -23.9987E-03,  -767.572E-06,   24.2056E-06
C:/temp/dataset/test2/16_5.odb,Step-1,Increment      1: Step Time =    1.000,"PART-1-1",           476,           -2.,       -16.875,            0.,NA,NA,"",   22.9376E-03,  -22.9341E-03,   403.082E-06,   32.2097E-06
C:/temp/dataset/test2/16_5.odb,Step-1,Increment      1: Step Time =    1.000,"PART-1-1",           477,           -5.,      -15.9375,            0.,NA,NA,"",   24.1859E-03,  -23.9913E-03,  -3.06201E-03,   18.1682E-06
C:/temp/dataset/test2/16_5.odb,Step-1,Increment      1: Step Time =    1.000,"PART-1-1",           478,           -4.,       -16.875,            0.,NA,NA,"",   23.0231E-03,  -22.9418E-03,  -1.93349E-03,   24.3163E-06
C:/temp/dataset/test2/16_5.odb,Step-1,Increment      1: Step Time =    1.000,"PART-1-1",           479,            3.,      -17.8125,            0.,NA,NA,"",   22.5724E-03,  -21.7374E-03,   6.08260E-03,   50.9322E-06
C:/temp/dataset/test2/16_5.odb,Step-1,Increment      1: Step Time =    1.000,"PART-1-1",           480,            4.,        -18.75,            0.,NA,NA,"",   21.8600E-03,  -20.6564E-03,   7.15329E-03,   55.5062E-06
C:/temp/dataset/test2/16_5.odb,Step-1,Increment      1: Step Time =    1.000,"PART-1-1",           481,            5.,      -17.8125,            0.,NA,NA,"",   23.2882E-03,  -21.7558E-03,   8.30831E-03,   51.4340E-06
C:/temp/dataset/test2/16_5.odb,Step-1,Increment      1: Step Time =    1.000,"PART-1-1",           482,            1.,      -17.8125,            0.,NA,NA,"",   22.1265E-03,  -21.7829E-03,   3.88444E-03,   54.5425E-06
C:/temp/dataset/test2/16_5.odb,Step-1,Increment      1: Step Time =    1.000,"PART-1-1",           483,            2.,        -18.75,            0.,NA,NA,"",   21.2727E-03,  -20.6728E-03,   5.01620E-03,   60.7170E-06
C:/temp/dataset/test2/16_5.odb,Step-1,Increment      1: Step Time =    1.000,"PART-1-1",           484,           -1.,      -17.8125,            0.,NA,NA,"",   21.9112E-03,  -21.8529E-03,   1.59698E-03,   51.8103E-06
C:/temp/dataset/test2/16_5.odb,Step-1,Increment      1: Step Time =    1.000,"PART-1-1",           485,            0.,        -18.75,            0.,NA,NA,"",   20.9404E-03,  -20.7525E-03,   2.79896E-03,   62.3829E-06
C:/temp/dataset/test2/16_5.odb,Step-1,Increment      1: Step Time =    1.000,"PART-1-1",           486,           -3.,      -17.8125,            0.,NA,NA,"",   21.9033E-03,  -21.8898E-03,  -769.913E-06,   45.9844E-06
C:/temp/dataset/test2/16_5.odb,Step-1,Increment      1: Step Time =    1.000,"PART-1-1",           487,           -2.,        -18.75,            0.,NA,NA,"",   20.8243E-03,  -20.8197E-03,   438.021E-06,   54.8730E-06
C:/temp/dataset/test2/16_5.odb,Step-1,Increment      1: Step Time =    1.000,"PART-1-1",           488,           -5.,      -17.8125,            0.,NA,NA,"",   22.0893E-03,  -21.8697E-03,  -3.10714E-03,   47.2263E-06
C:/temp/dataset/test2/16_5.odb,Step-1,Increment      1: Step Time =    1.000,"PART-1-1",           489,           -4.,        -18.75,            0.,NA,NA,"",   20.9185E-03,  -20.8247E-03,  -1.97928E-03,   50.5560E-06
C:/temp/dataset/test2/16_5.odb,Step-1,Increment      1: Step Time =    1.000,"PART-1-1",           490,            3.,      -19.6875,            0.,NA,NA,"",   20.5004E-03,  -19.5760E-03,   6.08647E-03,   86.6244E-06
C:/temp/dataset/test2/16_5.odb,Step-1,Increment      1: Step Time =    1.000,"PART-1-1",           491,            4.,       -20.625,            0.,NA,NA,"",   19.8307E-03,  -18.5361E-03,   7.04764E-03,   104.879E-06
C:/temp/dataset/test2/16_5.odb,Step-1,Increment      1: Step Time =    1.000,"PART-1-1",           492,            5.,      -19.6875,            0.,NA,NA,"",   21.2621E-03,  -19.6229E-03,   8.18662E-03,   117.546E-06
C:/temp/dataset/test2/16_5.odb,Step-1,Increment      1: Step Time =    1.000,"PART-1-1",           493,            1.,      -19.6875,            0.,NA,NA,"",   20.0428E-03,  -19.6435E-03,   3.98112E-03,   81.1753E-06
C:/temp/dataset/test2/16_5.odb,Step-1,Increment      1: Step Time =    1.000,"PART-1-1",           494,            2.,       -20.625,            0.,NA,NA,"",   19.2408E-03,  -18.5531E-03,   5.09815E-03,   83.0255E-06
C:/temp/dataset/test2/16_5.odb,Step-1,Increment      1: Step Time =    1.000,"PART-1-1",           495,           -1.,      -19.6875,            0.,NA,NA,"",   19.7990E-03,  -19.7277E-03,   1.67892E-03,   72.7392E-06
C:/temp/dataset/test2/16_5.odb,Step-1,Increment      1: Step Time =    1.000,"PART-1-1",           496,            0.,       -20.625,            0.,NA,NA,"",   18.8543E-03,  -18.6271E-03,   2.91847E-03,   82.6582E-06
C:/temp/dataset/test2/16_5.odb,Step-1,Increment      1: Step Time =    1.000,"PART-1-1",           497,           -3.,      -19.6875,            0.,NA,NA,"",   19.7783E-03,  -19.7630E-03,  -778.821E-06,   66.2551E-06
C:/temp/dataset/test2/16_5.odb,Step-1,Increment      1: Step Time =    1.000,"PART-1-1",           498,           -2.,       -20.625,            0.,NA,NA,"",   18.6746E-03,  -18.6683E-03,   485.061E-06,   66.9294E-06
C:/temp/dataset/test2/16_5.odb,Step-1,Increment      1: Step Time =    1.000,"PART-1-1",           499,           -5.,      -19.6875,            0.,NA,NA,"",   19.9771E-03,  -19.7158E-03,  -3.22059E-03,   98.9337E-06
C:/temp/dataset/test2/16_5.odb,Step-1,Increment      1: Step Time =    1.000,"PART-1-1",           500,           -4.,       -20.625,            0.,NA,NA,"",   18.7619E-03,  -18.6473E-03,  -2.07086E-03,   85.5344E-06
C:/temp/dataset/test2/16_5.odb,Step-1,Increment      1: Step Time =    1.000,"PART-1-1",           501,            3.,      -21.5625,            0.,NA,NA,"",   18.5607E-03,  -17.5309E-03,   6.09638E-03,   92.7348E-06
C:/temp/dataset/test2/16_5.odb,Step-1,Increment      1: Step Time =    1.000,"PART-1-1",           502,            4.,         -22.5,            0.,NA,NA,"",   18.0331E-03,  -16.6618E-03,   6.89770E-03,   152.264E-06
C:/temp/dataset/test2/16_5.odb,Step-1,Increment      1: Step Time =    1.000,"PART-1-1",           503,            5.,      -21.5625,            0.,NA,NA,"",   19.2985E-03,  -17.6143E-03,   7.88471E-03,   245.343E-06
C:/temp/dataset/test2/16_5.odb,Step-1,Increment      1: Step Time =    1.000,"PART-1-1",           504,            1.,      -21.5625,            0.,NA,NA,"",   18.0441E-03,  -17.5688E-03,   4.11410E-03,   95.1338E-06
C:/temp/dataset/test2/16_5.odb,Step-1,Increment      1: Step Time =    1.000,"PART-1-1",           505,            2.,         -22.5,            0.,NA,NA,"",   17.4223E-03,  -16.6190E-03,   5.22933E-03,   89.4330E-06
C:/temp/dataset/test2/16_5.odb,Step-1,Increment      1: Step Time =    1.000,"PART-1-1",           506,           -1.,      -21.5625,            0.,NA,NA,"",   17.6498E-03,  -17.5606E-03,   1.77225E-03,   73.7292E-06
C:/temp/dataset/test2/16_5.odb,Step-1,Increment      1: Step Time =    1.000,"PART-1-1",           507,            0.,         -22.5,            0.,NA,NA,"",   16.7881E-03,  -16.5141E-03,   3.02089E-03,   113.996E-06
C:/temp/dataset/test2/16_5.odb,Step-1,Increment      1: Step Time =    1.000,"PART-1-1",           508,           -3.,      -21.5625,            0.,NA,NA,"",   17.5447E-03,  -17.5263E-03,  -804.150E-06,   51.9502E-06
C:/temp/dataset/test2/16_5.odb,Step-1,Increment      1: Step Time =    1.000,"PART-1-1",           509,           -2.,         -22.5,            0.,NA,NA,"",   16.3641E-03,  -16.3562E-03,   510.490E-06,   66.8361E-06
C:/temp/dataset/test2/16_5.odb,Step-1,Increment      1: Step Time =    1.000,"PART-1-1",           510,           -5.,      -21.5625,            0.,NA,NA,"",   17.7729E-03,  -17.4356E-03,  -3.44589E-03,   164.343E-06
C:/temp/dataset/test2/16_5.odb,Step-1,Increment      1: Step Time =    1.000,"PART-1-1",           511,           -4.,         -22.5,            0.,NA,NA,"",   16.4129E-03,  -16.2631E-03,  -2.21309E-03,   110.264E-06
C:/temp/dataset/test2/16_5.odb,Step-1,Increment      1: Step Time =    1.000,"PART-1-1",           512,            3.,      -23.4375,            0.,NA,NA,"",   17.0623E-03,  -15.8974E-03,   6.19649E-03,   186.443E-06
C:/temp/dataset/test2/16_5.odb,Step-1,Increment      1: Step Time =    1.000,"PART-1-1",           513,            4.,       -24.375,            0.,NA,NA,"",   16.9435E-03,  -15.5892E-03,   6.63760E-03,   354.378E-06
C:/temp/dataset/test2/16_5.odb,Step-1,Increment      1: Step Time =    1.000,"PART-1-1",           514,            5.,      -23.4375,            0.,NA,NA,"",   17.6904E-03,  -16.0994E-03,   7.33214E-03,   400.530E-06
C:/temp/dataset/test2/16_5.odb,Step-1,Increment      1: Step Time =    1.000,"PART-1-1",           515,            1.,      -23.4375,            0.,NA,NA,"",   16.1959E-03,  -15.6438E-03,   4.19275E-03,   306.905E-06
C:/temp/dataset/test2/16_5.odb,Step-1,Increment      1: Step Time =    1.000,"PART-1-1",           516,            2.,       -24.375,            0.,NA,NA,"",   16.0328E-03,  -15.1588E-03,   5.22115E-03,   557.089E-06
C:/temp/dataset/test2/16_5.odb,Step-1,Increment      1: Step Time =    1.000,"PART-1-1",           517,           -1.,      -23.4375,            0.,NA,NA,"",   15.3189E-03,  -15.2169E-03,   1.76445E-03,   241.915E-06
C:/temp/dataset/test2/16_5.odb,Step-1,Increment      1: Step Time =    1.000,"PART-1-1",           518,            0.,       -24.375,            0.,NA,NA,"",   14.5426E-03,  -14.2600E-03,   2.85287E-03,   471.698E-06
C:/temp/dataset/test2/16_5.odb,Step-1,Increment      1: Step Time =    1.000,"PART-1-1",           519,           -3.,      -23.4375,            0.,NA,NA,"",   14.9893E-03,  -14.9648E-03,  -855.949E-06,   119.787E-06
C:/temp/dataset/test2/16_5.odb,Step-1,Increment      1: Step Time =    1.000,"PART-1-1",           520,           -2.,       -24.375,            0.,NA,NA,"",   13.6039E-03,  -13.5968E-03,   438.856E-06,   321.061E-06
C:/temp/dataset/test2/16_5.odb,Step-1,Increment      1: Step Time =    1.000,"PART-1-1",           521,           -5.,      -23.4375,            0.,NA,NA,"",   15.3134E-03,  -14.8365E-03,  -3.79206E-03,   181.730E-06
C:/temp/dataset/test2/16_5.odb,Step-1,Increment      1: Step Time =    1.000,"PART-1-1",           522,           -4.,       -24.375,            0.,NA,NA,"",   13.5835E-03,  -13.3804E-03,  -2.34031E-03,   136.869E-06
C:/temp/dataset/test2/16_5.odb,Step-1,Increment      1: Step Time =    1.000,"PART-1-1",           523,            3.,      -25.3125,            0.,NA,NA,"",   16.7792E-03,  -15.6397E-03,   6.07806E-03,   1.43396E-03
C:/temp/dataset/test2/16_5.odb,Step-1,Increment      1: Step Time =    1.000,"PART-1-1",           524,            4.,        -26.25,            0.,NA,NA,"",   19.0670E-03,  -17.7452E-03,   6.97562E-03,   2.91158E-03
C:/temp/dataset/test2/16_5.odb,Step-1,Increment      1: Step Time =    1.000,"PART-1-1",           525,            5.,      -25.3125,            0.,NA,NA,"",   17.0931E-03,  -15.9869E-03,   6.04937E-03,   408.833E-06
C:/temp/dataset/test2/16_5.odb,Step-1,Increment      1: Step Time =    1.000,"PART-1-1",           526,            1.,      -25.3125,            0.,NA,NA,"",   14.1819E-03,  -13.7009E-03,   3.66222E-03,   1.03832E-03
C:/temp/dataset/test2/16_5.odb,Step-1,Increment      1: Step Time =    1.000,"PART-1-1",           527,            2.,        -26.25,            0.,NA,NA,"",   14.4549E-03,  -13.8364E-03,   4.18329E-03,   1.88804E-03
C:/temp/dataset/test2/16_5.odb,Step-1,Increment      1: Step Time =    1.000,"PART-1-1",           528,           -1.,      -25.3125,            0.,NA,NA,"",   12.3839E-03,  -12.2985E-03,   1.45162E-03,   750.604E-06
C:/temp/dataset/test2/16_5.odb,Step-1,Increment      1: Step Time =    1.000,"PART-1-1",           529,            0.,        -26.25,            0.,NA,NA,"",   11.4019E-03,  -11.2194E-03,   2.03172E-03,   1.29364E-03
C:/temp/dataset/test2/16_5.odb,Step-1,Increment      1: Step Time =    1.000,"PART-1-1",           530,           -3.,      -25.3125,            0.,NA,NA,"",   11.7331E-03,  -11.6998E-03,  -883.665E-06,   499.291E-06
C:/temp/dataset/test2/16_5.odb,Step-1,Increment      1: Step Time =    1.000,"PART-1-1",           531,           -2.,        -26.25,            0.,NA,NA,"",   9.93139E-03,  -9.92942E-03,   198.137E-06,   936.616E-06
C:/temp/dataset/test2/16_5.odb,Step-1,Increment      1: Step Time =    1.000,"PART-1-1",           532,           -5.,      -25.3125,            0.,NA,NA,"",   12.3187E-03,  -11.6196E-03,  -4.09087E-03,   50.9844E-06
C:/temp/dataset/test2/16_5.odb,Step-1,Increment      1: Step Time =    1.000,"PART-1-1",           533,           -4.,        -26.25,            0.,NA,NA,"",   9.93878E-03,  -9.67881E-03,  -2.25834E-03,   408.186E-06
C:/temp/dataset/test2/16_5.odb,Step-1,Increment      1: Step Time =    1.000,"PART-1-1",           534,            3.,      -27.1875,            0.,NA,NA,"",   15.1300E-03,  -14.5778E-03,   4.05019E-03,   3.38562E-03
C:/temp/dataset/test2/16_5.odb,Step-1,Increment      1: Step Time =    1.000,"PART-1-1",           535,            4.,       -28.125,            0.,NA,NA,"",   15.1084E-03,  -14.8329E-03,   2.87189E-03,   4.95783E-03
C:/temp/dataset/test2/16_5.odb,Step-1,Increment      1: Step Time =    1.000,"PART-1-1",           536,            5.,      -27.1875,            0.,NA,NA,"",   23.1148E-03,  -22.2104E-03,   6.40236E-03,   4.59370E-03
C:/temp/dataset/test2/16_5.odb,Step-1,Increment      1: Step Time =    1.000,"PART-1-1",           537,            1.,      -27.1875,            0.,NA,NA,"",   10.6062E-03,  -10.4021E-03,   2.07037E-03,   2.07208E-03
C:/temp/dataset/test2/16_5.odb,Step-1,Increment      1: Step Time =    1.000,"PART-1-1",           538,            2.,       -28.125,            0.,NA,NA,"",   9.47936E-03,  -9.36089E-03,   1.49400E-03,   3.51230E-03
C:/temp/dataset/test2/16_5.odb,Step-1,Increment      1: Step Time =    1.000,"PART-1-1",           539,           -1.,      -27.1875,            0.,NA,NA,"",   8.22034E-03,  -8.18892E-03,   718.035E-06,   1.48713E-03
C:/temp/dataset/test2/16_5.odb,Step-1,Increment      1: Step Time =    1.000,"PART-1-1",           540,            0.,       -28.125,            0.,NA,NA,"",   6.40762E-03,  -6.37147E-03,   679.636E-06,   2.18947E-03
C:/temp/dataset/test2/16_5.odb,Step-1,Increment      1: Step Time =    1.000,"PART-1-1",           541,           -3.,      -27.1875,            0.,NA,NA,"",   7.40945E-03,  -7.36900E-03,  -773.246E-06,   1.18336E-03
C:/temp/dataset/test2/16_5.odb,Step-1,Increment      1: Step Time =    1.000,"PART-1-1",           542,           -2.,       -28.125,            0.,NA,NA,"",   5.11887E-03,  -5.11867E-03,  -45.5958E-06,   1.63141E-03
C:/temp/dataset/test2/16_5.odb,Step-1,Increment      1: Step Time =    1.000,"PART-1-1",           543,           -5.,      -27.1875,            0.,NA,NA,"",   8.59053E-03,  -7.61707E-03,  -3.97209E-03,   587.285E-06
C:/temp/dataset/test2/16_5.odb,Step-1,Increment      1: Step Time =    1.000,"PART-1-1",           544,           -4.,       -28.125,            0.,NA,NA,"",   5.02225E-03,  -4.81878E-03,  -1.41506E-03,   1.09861E-03
C:/temp/dataset/test2/16_5.odb,Step-1,Increment      1: Step Time =    1.000,"PART-1-1",           545,            3.,      -29.0625,            0.,NA,NA,"",   6.24083E-03,  -6.21741E-03,   540.125E-06,   4.48776E-03
C:/temp/dataset/test2/16_5.odb,Step-1,Increment      1: Step Time =    1.000,"PART-1-1",           546,            4.,          -30.,            0.,NA,NA,"",            0.,  -2.33824E-39,   362.730E-42,   7.38842E-03
C:/temp/dataset/test2/16_5.odb,Step-1,Increment      1: Step Time =    1.000,"PART-1-1",           547,            5.,      -29.0625,            0.,NA,NA,"",   13.1907E-03,  -12.4940E-03,   4.23028E-03,   5.69115E-03
C:/temp/dataset/test2/16_5.odb,Step-1,Increment      1: Step Time =    1.000,"PART-1-1",           548,            1.,      -29.0625,            0.,NA,NA,"",   4.00955E-03,  -3.99454E-03,   346.614E-06,   2.61276E-03
C:/temp/dataset/test2/16_5.odb,Step-1,Increment      1: Step Time =    1.000,"PART-1-1",           549,            2.,          -30.,            0.,NA,NA,"",            0.,  -2.81354E-39,   123.400E-42,   3.64751E-03
C:/temp/dataset/test2/16_5.odb,Step-1,Increment      1: Step Time =    1.000,"PART-1-1",           550,           -1.,      -29.0625,            0.,NA,NA,"",   2.79979E-03,  -2.79951E-03,   39.7537E-06,   1.86443E-03
C:/temp/dataset/test2/16_5.odb,Step-1,Increment      1: Step Time =    1.000,"PART-1-1",           551,            0.,          -30.,            0.,NA,NA,"",            0.,  -1.69615E-39,  -96.2888E-42,   2.37590E-03
C:/temp/dataset/test2/16_5.odb,Step-1,Increment      1: Step Time =    1.000,"PART-1-1",           552,           -3.,      -29.0625,            0.,NA,NA,"",   2.23596E-03,  -2.21150E-03,  -329.823E-06,   1.53659E-03
C:/temp/dataset/test2/16_5.odb,Step-1,Increment      1: Step Time =    1.000,"PART-1-1",           553,           -2.,          -30.,            0.,NA,NA,"",            0.,  -1.23559E-39,  -512.652E-42,   1.65108E-03
C:/temp/dataset/test2/16_5.odb,Step-1,Increment      1: Step Time =    1.000,"PART-1-1",           554,           -5.,      -29.0625,            0.,NA,NA,"",   3.35900E-03,  -2.72330E-03,  -1.96635E-03,   2.01019E-03
C:/temp/dataset/test2/16_5.odb,Step-1,Increment      1: Step Time =    1.000,"PART-1-1",           555,           -4.,          -30.,            0.,NA,NA,"",            0.,  -444.645E-42,  -1.62724E-39,   2.05929E-03
