ODB Name,Step,Frame,Part Instance Name,    êﬂì_ÉâÉxÉã,X,Y,Z,Section Name,Material Name,Section Point,   U-Magnitude,          U-U1,          U-U2,       S-Mises
C:/temp/dataset/test2/1_3.odb,Step-1,Increment      1: Step Time =    1.000,"PART-1-1",             1,            5.,           30.,            0.,NA,NA,"",       8.53023,      -8.52425,   319.374E-03,   3.00506E-03
C:/temp/dataset/test2/1_3.odb,Step-1,Increment      1: Step Time =    1.000,"PART-1-1",             2,            3.,           30.,            0.,NA,NA,"",       8.47700,      -8.47654,  -88.0494E-03,   3.19097E-03
C:/temp/dataset/test2/1_3.odb,Step-1,Increment      1: Step Time =    1.000,"PART-1-1",             3,            1.,           30.,            0.,NA,NA,"",       8.44408,      -8.42966,  -493.395E-03,   2.43582E-03
C:/temp/dataset/test2/1_3.odb,Step-1,Increment      1: Step Time =    1.000,"PART-1-1",             4,           -1.,           30.,            0.,NA,NA,"",       8.43311,      -8.38523,  -897.341E-03,   1.09536E-03
C:/temp/dataset/test2/1_3.odb,Step-1,Increment      1: Step Time =    1.000,"PART-1-1",             5,           -3.,           30.,            0.,NA,NA,"",       8.44390,      -8.34295,      -1.30178,   144.063E-06
C:/temp/dataset/test2/1_3.odb,Step-1,Increment      1: Step Time =    1.000,"PART-1-1",             6,           -5.,           30.,            0.,NA,NA,"",       8.47519,      -8.30140,      -1.70753,   74.3639E-06
C:/temp/dataset/test2/1_3.odb,Step-1,Increment      1: Step Time =    1.000,"PART-1-1",             7,            5.,        28.125,            0.,NA,NA,"",       8.14803,      -8.14022,   356.779E-03,   3.18151E-03
C:/temp/dataset/test2/1_3.odb,Step-1,Increment      1: Step Time =    1.000,"PART-1-1",             8,            3.,        28.125,            0.,NA,NA,"",       8.09311,      -8.09295,  -51.1297E-03,   2.97154E-03
C:/temp/dataset/test2/1_3.odb,Step-1,Increment      1: Step Time =    1.000,"PART-1-1",             9,            1.,        28.125,            0.,NA,NA,"",       8.06037,      -8.04747,  -455.847E-03,   2.37532E-03
C:/temp/dataset/test2/1_3.odb,Step-1,Increment      1: Step Time =    1.000,"PART-1-1",            10,           -1.,        28.125,            0.,NA,NA,"",       8.05006,      -8.00410,  -859.003E-03,   1.83300E-03
C:/temp/dataset/test2/1_3.odb,Step-1,Increment      1: Step Time =    1.000,"PART-1-1",            11,           -3.,        28.125,            0.,NA,NA,"",       8.06154,      -7.96204,      -1.26273,   961.305E-06
C:/temp/dataset/test2/1_3.odb,Step-1,Increment      1: Step Time =    1.000,"PART-1-1",            12,           -5.,        28.125,            0.,NA,NA,"",       8.09429,      -7.92046,      -1.66847,   124.527E-06
C:/temp/dataset/test2/1_3.odb,Step-1,Increment      1: Step Time =    1.000,"PART-1-1",            13,            5.,         26.25,            0.,NA,NA,"",       7.76246,      -7.75238,   395.544E-03,   2.53304E-03
C:/temp/dataset/test2/1_3.odb,Step-1,Increment      1: Step Time =    1.000,"PART-1-1",            14,            3.,         26.25,            0.,NA,NA,"",       7.70652,      -7.70651,  -13.5816E-03,   3.16389E-03
C:/temp/dataset/test2/1_3.odb,Step-1,Increment      1: Step Time =    1.000,"PART-1-1",            15,            1.,         26.25,            0.,NA,NA,"",       7.67414,      -7.66279,  -417.374E-03,   2.86451E-03
C:/temp/dataset/test2/1_3.odb,Step-1,Increment      1: Step Time =    1.000,"PART-1-1",            16,           -1.,         26.25,            0.,NA,NA,"",       7.66461,      -7.62066,  -819.608E-03,   2.50754E-03
C:/temp/dataset/test2/1_3.odb,Step-1,Increment      1: Step Time =    1.000,"PART-1-1",            17,           -3.,         26.25,            0.,NA,NA,"",       7.67753,      -7.57955,      -1.22261,   1.80734E-03
C:/temp/dataset/test2/1_3.odb,Step-1,Increment      1: Step Time =    1.000,"PART-1-1",            18,           -5.,         26.25,            0.,NA,NA,"",       7.71254,      -7.53866,      -1.62846,   925.916E-06
C:/temp/dataset/test2/1_3.odb,Step-1,Increment      1: Step Time =    1.000,"PART-1-1",            19,            5.,        24.375,            0.,NA,NA,"",       7.37644,      -7.36383,   431.145E-03,   3.16304E-03
C:/temp/dataset/test2/1_3.odb,Step-1,Increment      1: Step Time =    1.000,"PART-1-1",            20,            3.,        24.375,            0.,NA,NA,"",       7.31980,      -7.31976,   24.2323E-03,   2.39445E-03
C:/temp/dataset/test2/1_3.odb,Step-1,Increment      1: Step Time =    1.000,"PART-1-1",            21,            1.,        24.375,            0.,NA,NA,"",       7.28747,      -7.27764,  -378.369E-03,   2.98553E-03
C:/temp/dataset/test2/1_3.odb,Step-1,Increment      1: Step Time =    1.000,"PART-1-1",            22,           -1.,        24.375,            0.,NA,NA,"",       7.27855,      -7.23671,  -779.328E-03,   2.92867E-03
C:/temp/dataset/test2/1_3.odb,Step-1,Increment      1: Step Time =    1.000,"PART-1-1",            23,           -3.,        24.375,            0.,NA,NA,"",       7.29296,      -7.19667,      -1.18122,   2.48060E-03
C:/temp/dataset/test2/1_3.odb,Step-1,Increment      1: Step Time =    1.000,"PART-1-1",            24,           -5.,        24.375,            0.,NA,NA,"",       7.33057,      -7.15682,      -1.58658,   2.17079E-03
C:/temp/dataset/test2/1_3.odb,Step-1,Increment      1: Step Time =    1.000,"PART-1-1",            25,            5.,          22.5,            0.,NA,NA,"",       6.99528,      -6.97983,   464.672E-03,   4.13013E-03
C:/temp/dataset/test2/1_3.odb,Step-1,Increment      1: Step Time =    1.000,"PART-1-1",            26,            3.,          22.5,            0.,NA,NA,"",       6.93597,      -6.93571,   60.8168E-03,   2.85909E-03
C:/temp/dataset/test2/1_3.odb,Step-1,Increment      1: Step Time =    1.000,"PART-1-1",            27,            1.,          22.5,            0.,NA,NA,"",       6.90227,      -6.89391,  -339.602E-03,   2.93041E-03
C:/temp/dataset/test2/1_3.odb,Step-1,Increment      1: Step Time =    1.000,"PART-1-1",            28,           -1.,          22.5,            0.,NA,NA,"",       6.89347,      -6.85379,  -738.608E-03,   3.09561E-03
C:/temp/dataset/test2/1_3.odb,Step-1,Increment      1: Step Time =    1.000,"PART-1-1",            29,           -3.,          22.5,            0.,NA,NA,"",       6.90926,      -6.81477,      -1.13873,   3.06400E-03
C:/temp/dataset/test2/1_3.odb,Step-1,Increment      1: Step Time =    1.000,"PART-1-1",            30,           -5.,          22.5,            0.,NA,NA,"",       6.94960,      -6.77622,      -1.54265,   3.54864E-03
C:/temp/dataset/test2/1_3.odb,Step-1,Increment      1: Step Time =    1.000,"PART-1-1",            31,            5.,        20.625,            0.,NA,NA,"",       6.61702,      -6.59842,   495.826E-03,   5.21319E-03
C:/temp/dataset/test2/1_3.odb,Step-1,Increment      1: Step Time =    1.000,"PART-1-1",            32,            3.,        20.625,            0.,NA,NA,"",       6.55487,      -6.55418,   95.4769E-03,   3.54022E-03
C:/temp/dataset/test2/1_3.odb,Step-1,Increment      1: Step Time =    1.000,"PART-1-1",            33,            1.,        20.625,            0.,NA,NA,"",       6.51957,      -6.51258,  -301.735E-03,   2.98219E-03
C:/temp/dataset/test2/1_3.odb,Step-1,Increment      1: Step Time =    1.000,"PART-1-1",            34,           -1.,        20.625,            0.,NA,NA,"",       6.51061,      -6.47309,  -697.879E-03,   3.15291E-03
C:/temp/dataset/test2/1_3.odb,Step-1,Increment      1: Step Time =    1.000,"PART-1-1",            35,           -3.,        20.625,            0.,NA,NA,"",       6.52768,      -6.43512,      -1.09536,   3.65337E-03
C:/temp/dataset/test2/1_3.odb,Step-1,Increment      1: Step Time =    1.000,"PART-1-1",            36,           -5.,        20.625,            0.,NA,NA,"",       6.57082,      -6.39806,      -1.49683,   4.92703E-03
C:/temp/dataset/test2/1_3.odb,Step-1,Increment      1: Step Time =    1.000,"PART-1-1",            37,            5.,         18.75,            0.,NA,NA,"",       6.24203,      -6.21996,   524.455E-03,   6.39359E-03
C:/temp/dataset/test2/1_3.odb,Step-1,Increment      1: Step Time =    1.000,"PART-1-1",            38,            3.,         18.75,            0.,NA,NA,"",       6.17698,      -6.17565,   128.194E-03,   4.24724E-03
C:/temp/dataset/test2/1_3.odb,Step-1,Increment      1: Step Time =    1.000,"PART-1-1",            39,            1.,         18.75,            0.,NA,NA,"",       6.14007,      -6.13434,  -265.030E-03,   3.10184E-03
C:/temp/dataset/test2/1_3.odb,Step-1,Increment      1: Step Time =    1.000,"PART-1-1",            40,           -1.,         18.75,            0.,NA,NA,"",       6.13091,      -6.09556,  -657.420E-03,   3.20476E-03
C:/temp/dataset/test2/1_3.odb,Step-1,Increment      1: Step Time =    1.000,"PART-1-1",            41,           -3.,         18.75,            0.,NA,NA,"",       6.14928,      -6.05873,      -1.05136,   4.28430E-03
C:/temp/dataset/test2/1_3.odb,Step-1,Increment      1: Step Time =    1.000,"PART-1-1",            42,           -5.,         18.75,            0.,NA,NA,"",       6.19527,      -6.02334,      -1.44937,   6.26371E-03
C:/temp/dataset/test2/1_3.odb,Step-1,Increment      1: Step Time =    1.000,"PART-1-1",            43,            5.,        16.875,            0.,NA,NA,"",       5.87090,      -5.84506,   550.274E-03,   7.62360E-03
C:/temp/dataset/test2/1_3.odb,Step-1,Increment      1: Step Time =    1.000,"PART-1-1",            44,            3.,        16.875,            0.,NA,NA,"",       5.80298,      -5.80081,   158.838E-03,   4.95848E-03
C:/temp/dataset/test2/1_3.odb,Step-1,Increment      1: Step Time =    1.000,"PART-1-1",            45,            1.,        16.875,            0.,NA,NA,"",       5.76451,      -5.75994,  -229.625E-03,   3.24097E-03
C:/temp/dataset/test2/1_3.odb,Step-1,Increment      1: Step Time =    1.000,"PART-1-1",            46,           -1.,        16.875,            0.,NA,NA,"",       5.75521,      -5.72200,  -617.407E-03,   3.28245E-03
C:/temp/dataset/test2/1_3.odb,Step-1,Increment      1: Step Time =    1.000,"PART-1-1",            47,           -3.,        16.875,            0.,NA,NA,"",       5.77495,      -5.68649,      -1.00689,   4.95271E-03
C:/temp/dataset/test2/1_3.odb,Step-1,Increment      1: Step Time =    1.000,"PART-1-1",            48,           -5.,        16.875,            0.,NA,NA,"",       5.82384,      -5.65293,      -1.40053,   7.56362E-03
C:/temp/dataset/test2/1_3.odb,Step-1,Increment      1: Step Time =    1.000,"PART-1-1",            49,            5.,           15.,            0.,NA,NA,"",       5.50439,      -5.47447,   573.087E-03,   8.87895E-03
C:/temp/dataset/test2/1_3.odb,Step-1,Increment      1: Step Time =    1.000,"PART-1-1",            50,            3.,           15.,            0.,NA,NA,"",       5.43364,      -5.43041,   187.268E-03,   5.67815E-03
C:/temp/dataset/test2/1_3.odb,Step-1,Increment      1: Step Time =    1.000,"PART-1-1",            51,            1.,           15.,            0.,NA,NA,"",       5.39369,      -5.39014,  -195.638E-03,   3.38702E-03
C:/temp/dataset/test2/1_3.odb,Step-1,Increment      1: Step Time =    1.000,"PART-1-1",            52,           -1.,           15.,            0.,NA,NA,"",       5.38433,      -5.35322,  -577.972E-03,   3.38698E-03
C:/temp/dataset/test2/1_3.odb,Step-1,Increment      1: Step Time =    1.000,"PART-1-1",            53,           -3.,           15.,            0.,NA,NA,"",       5.40551,      -5.31920,  -962.117E-03,   5.64670E-03
C:/temp/dataset/test2/1_3.odb,Step-1,Increment      1: Step Time =    1.000,"PART-1-1",            54,           -5.,           15.,            0.,NA,NA,"",       5.45735,      -5.28761,      -1.35051,   8.84149E-03
C:/temp/dataset/test2/1_3.odb,Step-1,Increment      1: Step Time =    1.000,"PART-1-1",            55,            5.,        13.125,            0.,NA,NA,"",       5.14327,      -5.10901,   592.716E-03,   10.1451E-03
C:/temp/dataset/test2/1_3.odb,Step-1,Increment      1: Step Time =    1.000,"PART-1-1",            56,            3.,        13.125,            0.,NA,NA,"",       5.06977,      -5.06528,   213.336E-03,   6.40640E-03
C:/temp/dataset/test2/1_3.odb,Step-1,Increment      1: Step Time =    1.000,"PART-1-1",            57,            1.,        13.125,            0.,NA,NA,"",       5.02840,      -5.02575,  -163.197E-03,   3.53994E-03
C:/temp/dataset/test2/1_3.odb,Step-1,Increment      1: Step Time =    1.000,"PART-1-1",            58,           -1.,        13.125,            0.,NA,NA,"",       5.01906,      -4.99001,  -539.242E-03,   3.51253E-03
C:/temp/dataset/test2/1_3.odb,Step-1,Increment      1: Step Time =    1.000,"PART-1-1",            59,           -3.,        13.125,            0.,NA,NA,"",       5.04175,      -4.95762,  -917.191E-03,   6.35611E-03
C:/temp/dataset/test2/1_3.odb,Step-1,Increment      1: Step Time =    1.000,"PART-1-1",            60,           -5.,        13.125,            0.,NA,NA,"",       5.09660,      -4.92816,      -1.29947,   10.1089E-03
C:/temp/dataset/test2/1_3.odb,Step-1,Increment      1: Step Time =    1.000,"PART-1-1",            61,            5.,         11.25,            0.,NA,NA,"",       4.78835,      -4.74947,   609.011E-03,   11.4153E-03
C:/temp/dataset/test2/1_3.odb,Step-1,Increment      1: Step Time =    1.000,"PART-1-1",            62,            3.,         11.25,            0.,NA,NA,"",       4.71217,      -4.70621,   236.900E-03,   7.14251E-03
C:/temp/dataset/test2/1_3.odb,Step-1,Increment      1: Step Time =    1.000,"PART-1-1",            63,            1.,         11.25,            0.,NA,NA,"",       4.66944,      -4.66756,  -132.429E-03,   3.70186E-03
C:/temp/dataset/test2/1_3.odb,Step-1,Increment      1: Step Time =    1.000,"PART-1-1",            64,           -1.,         11.25,            0.,NA,NA,"",       4.66018,      -4.63314,  -501.346E-03,   3.65349E-03
C:/temp/dataset/test2/1_3.odb,Step-1,Increment      1: Step Time =    1.000,"PART-1-1",            65,           -3.,         11.25,            0.,NA,NA,"",       4.68445,      -4.60253,  -872.244E-03,   7.07475E-03
C:/temp/dataset/test2/1_3.odb,Step-1,Increment      1: Step Time =    1.000,"PART-1-1",            66,           -5.,         11.25,            0.,NA,NA,"",       4.74237,      -4.57534,      -1.24755,   11.3722E-03
C:/temp/dataset/test2/1_3.odb,Step-1,Increment      1: Step Time =    1.000,"PART-1-1",            67,            5.,         9.375,            0.,NA,NA,"",       4.44043,      -4.39667,   621.834E-03,   12.6870E-03
C:/temp/dataset/test2/1_3.odb,Step-1,Increment      1: Step Time =    1.000,"PART-1-1",            68,            3.,         9.375,            0.,NA,NA,"",       4.36164,      -4.35401,   257.827E-03,   7.88520E-03
C:/temp/dataset/test2/1_3.odb,Step-1,Increment      1: Step Time =    1.000,"PART-1-1",            69,            1.,         9.375,            0.,NA,NA,"",       4.31762,      -4.31638,  -103.463E-03,   3.87391E-03
C:/temp/dataset/test2/1_3.odb,Step-1,Increment      1: Step Time =    1.000,"PART-1-1",            70,           -1.,         9.375,            0.,NA,NA,"",       4.30850,      -4.28340,  -464.406E-03,   3.80580E-03
C:/temp/dataset/test2/1_3.odb,Step-1,Increment      1: Step Time =    1.000,"PART-1-1",            71,           -3.,         9.375,            0.,NA,NA,"",       4.33441,      -4.25470,  -827.402E-03,   7.79908E-03
C:/temp/dataset/test2/1_3.odb,Step-1,Increment      1: Step Time =    1.000,"PART-1-1",            72,           -5.,         9.375,            0.,NA,NA,"",       4.39543,      -4.22990,      -1.19488,   12.6340E-03
C:/temp/dataset/test2/1_3.odb,Step-1,Increment      1: Step Time =    1.000,"PART-1-1",            73,            5.,           7.5,            0.,NA,NA,"",       4.10029,      -4.05144,   631.061E-03,   13.9590E-03
C:/temp/dataset/test2/1_3.odb,Step-1,Increment      1: Step Time =    1.000,"PART-1-1",            74,            3.,           7.5,            0.,NA,NA,"",       4.01898,      -4.00949,   275.993E-03,   8.63326E-03
C:/temp/dataset/test2/1_3.odb,Step-1,Increment      1: Step Time =    1.000,"PART-1-1",            75,            1.,           7.5,            0.,NA,NA,"",       3.97372,      -3.97299,  -76.4170E-03,   4.05611E-03
C:/temp/dataset/test2/1_3.odb,Step-1,Increment      1: Step Time =    1.000,"PART-1-1",            76,           -1.,           7.5,            0.,NA,NA,"",       3.96480,      -3.94157,  -428.541E-03,   3.96683E-03
C:/temp/dataset/test2/1_3.odb,Step-1,Increment      1: Step Time =    1.000,"PART-1-1",            77,           -3.,           7.5,            0.,NA,NA,"",       3.99240,      -3.91491,  -782.783E-03,   8.52710E-03
C:/temp/dataset/test2/1_3.odb,Step-1,Increment      1: Step Time =    1.000,"PART-1-1",            78,           -5.,           7.5,            0.,NA,NA,"",       4.05657,      -3.89263,      -1.14158,   13.8951E-03
C:/temp/dataset/test2/1_3.odb,Step-1,Increment      1: Step Time =    1.000,"PART-1-1",            79,            5.,         5.625,            0.,NA,NA,"",       3.76874,      -3.71459,   636.579E-03,   15.2313E-03
C:/temp/dataset/test2/1_3.odb,Step-1,Increment      1: Step Time =    1.000,"PART-1-1",            80,            3.,         5.625,            0.,NA,NA,"",       3.68500,      -3.67347,   291.285E-03,   9.38568E-03
C:/temp/dataset/test2/1_3.odb,Step-1,Increment      1: Step Time =    1.000,"PART-1-1",            81,            1.,         5.625,            0.,NA,NA,"",       3.63856,      -3.63820,  -51.4038E-03,   4.24784E-03
C:/temp/dataset/test2/1_3.odb,Step-1,Increment      1: Step Time =    1.000,"PART-1-1",            82,           -1.,         5.625,            0.,NA,NA,"",       3.62989,      -3.60845,  -393.861E-03,   4.13487E-03
C:/temp/dataset/test2/1_3.odb,Step-1,Increment      1: Step Time =    1.000,"PART-1-1",            83,           -3.,         5.625,            0.,NA,NA,"",       3.65922,      -3.58392,  -738.494E-03,   9.25756E-03
C:/temp/dataset/test2/1_3.odb,Step-1,Increment      1: Step Time =    1.000,"PART-1-1",            84,           -5.,         5.625,            0.,NA,NA,"",       3.72656,      -3.56428,      -1.08775,   15.1559E-03
C:/temp/dataset/test2/1_3.odb,Step-1,Increment      1: Step Time =    1.000,"PART-1-1",            85,            5.,          3.75,            0.,NA,NA,"",       3.44658,      -3.38696,   638.284E-03,   16.5038E-03
C:/temp/dataset/test2/1_3.odb,Step-1,Increment      1: Step Time =    1.000,"PART-1-1",            86,            3.,          3.75,            0.,NA,NA,"",       3.36050,      -3.34676,   303.601E-03,   10.1417E-03
C:/temp/dataset/test2/1_3.odb,Step-1,Increment      1: Step Time =    1.000,"PART-1-1",            87,            1.,          3.75,            0.,NA,NA,"",       3.31293,      -3.31281,  -28.5241E-03,   4.44823E-03
C:/temp/dataset/test2/1_3.odb,Step-1,Increment      1: Step Time =    1.000,"PART-1-1",            88,           -1.,          3.75,            0.,NA,NA,"",       3.30454,      -3.28483,  -360.465E-03,   4.30873E-03
C:/temp/dataset/test2/1_3.odb,Step-1,Increment      1: Step Time =    1.000,"PART-1-1",            89,           -3.,          3.75,            0.,NA,NA,"",       3.33565,      -3.26253,  -694.633E-03,   9.98965E-03
C:/temp/dataset/test2/1_3.odb,Step-1,Increment      1: Step Time =    1.000,"PART-1-1",            90,           -5.,          3.75,            0.,NA,NA,"",       3.40618,      -3.24561,      -1.03348,   16.4162E-03
C:/temp/dataset/test2/1_3.odb,Step-1,Increment      1: Step Time =    1.000,"PART-1-1",            91,            5.,         1.875,            0.,NA,NA,"",       3.13460,      -3.06938,   636.086E-03,   17.7764E-03
C:/temp/dataset/test2/1_3.odb,Step-1,Increment      1: Step Time =    1.000,"PART-1-1",            92,            3.,         1.875,            0.,NA,NA,"",       3.04628,      -3.03017,   312.850E-03,   10.9007E-03
C:/temp/dataset/test2/1_3.odb,Step-1,Increment      1: Step Time =    1.000,"PART-1-1",            93,            1.,         1.875,            0.,NA,NA,"",       2.99763,      -2.99762,  -7.86670E-03,   4.65639E-03
C:/temp/dataset/test2/1_3.odb,Step-1,Increment      1: Step Time =    1.000,"PART-1-1",            94,           -1.,         1.875,            0.,NA,NA,"",       2.98958,      -2.97148,  -328.439E-03,   4.48749E-03
C:/temp/dataset/test2/1_3.odb,Step-1,Increment      1: Step Time =    1.000,"PART-1-1",            95,           -3.,         1.875,            0.,NA,NA,"",       3.02249,      -2.95149,  -651.283E-03,   10.7228E-03
C:/temp/dataset/test2/1_3.odb,Step-1,Increment      1: Step Time =    1.000,"PART-1-1",            96,           -5.,         1.875,            0.,NA,NA,"",       3.09619,      -2.93739,  -978.859E-03,   17.6759E-03
C:/temp/dataset/test2/1_3.odb,Step-1,Increment      1: Step Time =    1.000,"PART-1-1",            97,            5.,            0.,            0.,NA,NA,"",       2.83358,      -2.76268,   629.907E-03,   19.0493E-03
C:/temp/dataset/test2/1_3.odb,Step-1,Increment      1: Step Time =    1.000,"PART-1-1",            98,            3.,            0.,            0.,NA,NA,"",       2.74314,      -2.72453,   318.956E-03,   11.6622E-03
C:/temp/dataset/test2/1_3.odb,Step-1,Increment      1: Step Time =    1.000,"PART-1-1",            99,            1.,            0.,            0.,NA,NA,"",       2.69347,      -2.69345,   10.4929E-03,   4.87149E-03
C:/temp/dataset/test2/1_3.odb,Step-1,Increment      1: Step Time =    1.000,"PART-1-1",           100,           -1.,            0.,            0.,NA,NA,"",       2.68578,      -2.66921,  -297.858E-03,   4.67040E-03
C:/temp/dataset/test2/1_3.odb,Step-1,Increment      1: Step Time =    1.000,"PART-1-1",           101,           -3.,            0.,            0.,NA,NA,"",       2.72052,      -2.65160,  -608.517E-03,   11.4565E-03
C:/temp/dataset/test2/1_3.odb,Step-1,Increment      1: Step Time =    1.000,"PART-1-1",           102,           -5.,            0.,            0.,NA,NA,"",       2.79737,      -2.64038,  -923.952E-03,   18.9350E-03
C:/temp/dataset/test2/1_3.odb,Step-1,Increment      1: Step Time =    1.000,"PART-1-1",           103,            5.,        -1.875,            0.,NA,NA,"",       2.54431,      -2.46770,   619.685E-03,   20.3222E-03
C:/temp/dataset/test2/1_3.odb,Step-1,Increment      1: Step Time =    1.000,"PART-1-1",           104,            3.,        -1.875,            0.,NA,NA,"",       2.45188,      -2.43066,   321.856E-03,   12.4258E-03
C:/temp/dataset/test2/1_3.odb,Step-1,Increment      1: Step Time =    1.000,"PART-1-1",           105,            1.,        -1.875,            0.,NA,NA,"",       2.40124,      -2.40110,   26.4933E-03,   5.09280E-03
C:/temp/dataset/test2/1_3.odb,Step-1,Increment      1: Step Time =    1.000,"PART-1-1",           106,           -1.,        -1.875,            0.,NA,NA,"",       2.39394,      -2.37881,  -268.781E-03,   4.85680E-03
C:/temp/dataset/test2/1_3.odb,Step-1,Increment      1: Step Time =    1.000,"PART-1-1",           107,           -3.,        -1.875,            0.,NA,NA,"",       2.43053,      -2.36362,  -566.391E-03,   12.1904E-03
C:/temp/dataset/test2/1_3.odb,Step-1,Increment      1: Step Time =    1.000,"PART-1-1",           108,           -5.,        -1.875,            0.,NA,NA,"",       2.51047,      -2.35534,  -868.812E-03,   20.1933E-03
C:/temp/dataset/test2/1_3.odb,Step-1,Increment      1: Step Time =    1.000,"PART-1-1",           109,            5.,         -3.75,            0.,NA,NA,"",       2.26758,      -2.18528,   605.371E-03,   21.5953E-03
C:/temp/dataset/test2/1_3.odb,Step-1,Increment      1: Step Time =    1.000,"PART-1-1",           110,            3.,         -3.75,            0.,NA,NA,"",       2.17331,      -2.14940,   321.504E-03,   13.1913E-03
C:/temp/dataset/test2/1_3.odb,Step-1,Increment      1: Step Time =    1.000,"PART-1-1",           111,            1.,         -3.75,            0.,NA,NA,"",       2.12175,      -2.12138,   40.0884E-03,   5.31969E-03
C:/temp/dataset/test2/1_3.odb,Step-1,Increment      1: Step Time =    1.000,"PART-1-1",           112,           -1.,         -3.75,            0.,NA,NA,"",       2.11487,      -2.10107,  -241.253E-03,   5.04613E-03
C:/temp/dataset/test2/1_3.odb,Step-1,Increment      1: Step Time =    1.000,"PART-1-1",           113,           -3.,         -3.75,            0.,NA,NA,"",       2.15330,      -2.08834,  -524.948E-03,   12.9242E-03
C:/temp/dataset/test2/1_3.odb,Step-1,Increment      1: Step Time =    1.000,"PART-1-1",           114,           -5.,         -3.75,            0.,NA,NA,"",       2.23624,      -2.08303,  -813.479E-03,   21.4507E-03
C:/temp/dataset/test2/1_3.odb,Step-1,Increment      1: Step Time =    1.000,"PART-1-1",           115,            5.,        -5.625,            0.,NA,NA,"",       2.00416,      -1.91629,   586.936E-03,   22.8683E-03
C:/temp/dataset/test2/1_3.odb,Step-1,Increment      1: Step Time =    1.000,"PART-1-1",           116,            3.,        -5.625,            0.,NA,NA,"",       1.90823,      -1.88157,   317.868E-03,   13.9584E-03
C:/temp/dataset/test2/1_3.odb,Step-1,Increment      1: Step Time =    1.000,"PART-1-1",           117,            1.,        -5.625,            0.,NA,NA,"",       1.85581,      -1.85510,   51.2487E-03,   5.55162E-03
C:/temp/dataset/test2/1_3.odb,Step-1,Increment      1: Step Time =    1.000,"PART-1-1",           118,           -1.,        -5.625,            0.,NA,NA,"",       1.84936,      -1.83679,  -215.301E-03,   5.23789E-03
C:/temp/dataset/test2/1_3.odb,Step-1,Increment      1: Step Time =    1.000,"PART-1-1",           119,           -3.,        -5.625,            0.,NA,NA,"",       1.88962,      -1.82653,  -484.214E-03,   13.6578E-03
C:/temp/dataset/test2/1_3.odb,Step-1,Increment      1: Step Time =    1.000,"PART-1-1",           120,           -5.,        -5.625,            0.,NA,NA,"",       1.97543,      -1.82422,  -757.977E-03,   22.7071E-03
C:/temp/dataset/test2/1_3.odb,Step-1,Increment      1: Step Time =    1.000,"PART-1-1",           121,            5.,          -7.5,            0.,NA,NA,"",       1.75479,      -1.66156,   564.364E-03,   24.1412E-03
C:/temp/dataset/test2/1_3.odb,Step-1,Increment      1: Step Time =    1.000,"PART-1-1",           122,            3.,          -7.5,            0.,NA,NA,"",       1.65743,      -1.62800,   310.936E-03,   14.7269E-03
C:/temp/dataset/test2/1_3.odb,Step-1,Increment      1: Step Time =    1.000,"PART-1-1",           123,            1.,          -7.5,            0.,NA,NA,"",       1.60421,      -1.60309,   59.9620E-03,   5.78809E-03
C:/temp/dataset/test2/1_3.odb,Step-1,Increment      1: Step Time =    1.000,"PART-1-1",           124,           -1.,          -7.5,            0.,NA,NA,"",       1.59821,      -1.58676,  -190.938E-03,   5.43163E-03
C:/temp/dataset/test2/1_3.odb,Step-1,Increment      1: Step Time =    1.000,"PART-1-1",           125,           -3.,          -7.5,            0.,NA,NA,"",       1.64026,      -1.57897,  -444.197E-03,   14.3908E-03
C:/temp/dataset/test2/1_3.odb,Step-1,Increment      1: Step Time =    1.000,"PART-1-1",           126,           -5.,          -7.5,            0.,NA,NA,"",       1.72875,      -1.57966,  -702.311E-03,   23.9625E-03
C:/temp/dataset/test2/1_3.odb,Step-1,Increment      1: Step Time =    1.000,"PART-1-1",           127,            5.,        -9.375,            0.,NA,NA,"",       1.52022,      -1.42197,   537.663E-03,   25.4140E-03
C:/temp/dataset/test2/1_3.odb,Step-1,Increment      1: Step Time =    1.000,"PART-1-1",           128,            3.,        -9.375,            0.,NA,NA,"",       1.42171,      -1.38955,   300.714E-03,   15.4966E-03
C:/temp/dataset/test2/1_3.odb,Step-1,Increment      1: Step Time =    1.000,"PART-1-1",           129,            1.,        -9.375,            0.,NA,NA,"",       1.36776,      -1.36616,   66.2346E-03,   6.02871E-03
C:/temp/dataset/test2/1_3.odb,Step-1,Increment      1: Step Time =    1.000,"PART-1-1",           130,           -1.,        -9.375,            0.,NA,NA,"",       1.36221,      -1.35179,  -168.154E-03,   5.62698E-03
C:/temp/dataset/test2/1_3.odb,Step-1,Increment      1: Step Time =    1.000,"PART-1-1",           131,           -3.,        -9.375,            0.,NA,NA,"",       1.40600,      -1.34644,  -404.889E-03,   15.1231E-03
C:/temp/dataset/test2/1_3.odb,Step-1,Increment      1: Step Time =    1.000,"PART-1-1",           132,           -5.,        -9.375,            0.,NA,NA,"",       1.49690,      -1.35011,  -646.470E-03,   25.2166E-03
C:/temp/dataset/test2/1_3.odb,Step-1,Increment      1: Step Time =    1.000,"PART-1-1",           133,            5.,        -11.25,            0.,NA,NA,"",       1.30115,      -1.19836,   506.858E-03,   26.6864E-03
C:/temp/dataset/test2/1_3.odb,Step-1,Increment      1: Step Time =    1.000,"PART-1-1",           134,            3.,        -11.25,            0.,NA,NA,"",       1.20186,      -1.16704,   287.228E-03,   16.2672E-03
C:/temp/dataset/test2/1_3.odb,Step-1,Increment      1: Step Time =    1.000,"PART-1-1",           135,            1.,        -11.25,            0.,NA,NA,"",       1.14727,      -1.14513,   70.0925E-03,   6.27311E-03
C:/temp/dataset/test2/1_3.odb,Step-1,Increment      1: Step Time =    1.000,"PART-1-1",           136,           -1.,        -11.25,            0.,NA,NA,"",       1.14216,      -1.13267,  -146.925E-03,   5.82356E-03
C:/temp/dataset/test2/1_3.odb,Step-1,Increment      1: Step Time =    1.000,"PART-1-1",           137,           -3.,        -11.25,            0.,NA,NA,"",       1.18761,      -1.12972,  -366.262E-03,   15.8545E-03
C:/temp/dataset/test2/1_3.odb,Step-1,Increment      1: Step Time =    1.000,"PART-1-1",           138,           -5.,        -11.25,            0.,NA,NA,"",       1.28056,      -1.13632,  -590.423E-03,   26.4695E-03
C:/temp/dataset/test2/1_3.odb,Step-1,Increment      1: Step Time =    1.000,"PART-1-1",           139,            5.,       -13.125,            0.,NA,NA,"",       1.09822,  -991.617E-03,   471.996E-03,   27.9582E-03
C:/temp/dataset/test2/1_3.odb,Step-1,Increment      1: Step Time =    1.000,"PART-1-1",           140,            3.,       -13.125,            0.,NA,NA,"",   998.659E-03,  -961.320E-03,   270.523E-03,   17.0386E-03
C:/temp/dataset/test2/1_3.odb,Step-1,Increment      1: Step Time =    1.000,"PART-1-1",           141,            1.,       -13.125,            0.,NA,NA,"",   943.539E-03,  -940.819E-03,   71.5820E-03,   6.52106E-03
C:/temp/dataset/test2/1_3.odb,Step-1,Increment      1: Step Time =    1.000,"PART-1-1",           142,           -1.,       -13.125,            0.,NA,NA,"",   938.864E-03,  -930.207E-03,  -127.202E-03,   6.02097E-03
C:/temp/dataset/test2/1_3.odb,Step-1,Increment      1: Step Time =    1.000,"PART-1-1",           143,           -3.,       -13.125,            0.,NA,NA,"",   985.842E-03,  -929.584E-03,  -328.267E-03,   16.5849E-03
C:/temp/dataset/test2/1_3.odb,Step-1,Increment      1: Step Time =    1.000,"PART-1-1",           144,           -5.,       -13.125,            0.,NA,NA,"",       1.08033,  -939.051E-03,  -534.122E-03,   27.7210E-03
C:/temp/dataset/test2/1_3.odb,Step-1,Increment      1: Step Time =    1.000,"PART-1-1",           145,            5.,          -15.,            0.,NA,NA,"",   912.019E-03,  -802.597E-03,   433.147E-03,   29.2290E-03
C:/temp/dataset/test2/1_3.odb,Step-1,Increment      1: Step Time =    1.000,"PART-1-1",           146,            3.,          -15.,            0.,NA,NA,"",   812.856E-03,  -773.240E-03,   250.670E-03,   17.8105E-03
C:/temp/dataset/test2/1_3.odb,Step-1,Increment      1: Step Time =    1.000,"PART-1-1",           147,            1.,          -15.,            0.,NA,NA,"",   757.369E-03,  -754.055E-03,   70.7709E-03,   6.77248E-03
C:/temp/dataset/test2/1_3.odb,Step-1,Increment      1: Step Time =    1.000,"PART-1-1",           148,           -1.,          -15.,            0.,NA,NA,"",   753.108E-03,  -745.190E-03,  -108.918E-03,   6.21869E-03
C:/temp/dataset/test2/1_3.odb,Step-1,Increment      1: Step Time =    1.000,"PART-1-1",           149,           -3.,          -15.,            0.,NA,NA,"",   801.434E-03,  -746.801E-03,  -290.836E-03,   17.3142E-03
C:/temp/dataset/test2/1_3.odb,Step-1,Increment      1: Step Time =    1.000,"PART-1-1",           150,           -5.,          -15.,            0.,NA,NA,"",   896.748E-03,  -759.049E-03,  -477.495E-03,   28.9714E-03
C:/temp/dataset/test2/1_3.odb,Step-1,Increment      1: Step Time =    1.000,"PART-1-1",           151,            5.,       -16.875,            0.,NA,NA,"",   743.010E-03,  -632.176E-03,   390.406E-03,   30.4982E-03
C:/temp/dataset/test2/1_3.odb,Step-1,Increment      1: Step Time =    1.000,"PART-1-1",           152,            3.,       -16.875,            0.,NA,NA,"",   645.185E-03,  -603.647E-03,   227.760E-03,   18.5825E-03
C:/temp/dataset/test2/1_3.odb,Step-1,Increment      1: Step Time =    1.000,"PART-1-1",           153,            1.,       -16.875,            0.,NA,NA,"",   589.565E-03,  -585.660E-03,   67.7486E-03,   7.02797E-03
C:/temp/dataset/test2/1_3.odb,Step-1,Increment      1: Step Time =    1.000,"PART-1-1",           154,           -1.,       -16.875,            0.,NA,NA,"",   585.689E-03,  -578.421E-03,  -91.9842E-03,   6.41632E-03
C:/temp/dataset/test2/1_3.odb,Step-1,Increment      1: Step Time =    1.000,"PART-1-1",           155,           -3.,       -16.875,            0.,NA,NA,"",   635.099E-03,  -582.149E-03,  -253.877E-03,   18.0421E-03
C:/temp/dataset/test2/1_3.odb,Step-1,Increment      1: Step Time =    1.000,"PART-1-1",           156,           -5.,       -16.875,            0.,NA,NA,"",   730.249E-03,  -597.066E-03,  -420.448E-03,   30.2217E-03
C:/temp/dataset/test2/1_3.odb,Step-1,Increment      1: Step Time =    1.000,"PART-1-1",           157,            5.,        -18.75,            0.,NA,NA,"",   591.479E-03,  -481.231E-03,   343.895E-03,   31.7616E-03
C:/temp/dataset/test2/1_3.odb,Step-1,Increment      1: Step Time =    1.000,"PART-1-1",           158,            3.,        -18.75,            0.,NA,NA,"",   496.317E-03,  -453.392E-03,   201.908E-03,   19.3556E-03
C:/temp/dataset/test2/1_3.odb,Step-1,Increment      1: Step Time =    1.000,"PART-1-1",           159,            1.,        -18.75,            0.,NA,NA,"",   440.924E-03,  -436.454E-03,   62.6265E-03,   7.28906E-03
C:/temp/dataset/test2/1_3.odb,Step-1,Increment      1: Step Time =    1.000,"PART-1-1",           160,           -1.,        -18.75,            0.,NA,NA,"",   437.399E-03,  -430.695E-03,  -76.2873E-03,   6.61387E-03
C:/temp/dataset/test2/1_3.odb,Step-1,Increment      1: Step Time =    1.000,"PART-1-1",           161,           -3.,        -18.75,            0.,NA,NA,"",   487.496E-03,  -436.399E-03,  -217.276E-03,   18.7698E-03
C:/temp/dataset/test2/1_3.odb,Step-1,Increment      1: Step Time =    1.000,"PART-1-1",           162,           -5.,        -18.75,            0.,NA,NA,"",   581.075E-03,  -453.845E-03,  -362.867E-03,   31.4713E-03
C:/temp/dataset/test2/1_3.odb,Step-1,Increment      1: Step Time =    1.000,"PART-1-1",           163,            5.,       -20.625,            0.,NA,NA,"",   457.439E-03,  -350.645E-03,   293.767E-03,   33.0188E-03
C:/temp/dataset/test2/1_3.odb,Step-1,Increment      1: Step Time =    1.000,"PART-1-1",           164,            3.,       -20.625,            0.,NA,NA,"",   366.825E-03,  -323.331E-03,   173.256E-03,   20.1290E-03
C:/temp/dataset/test2/1_3.odb,Step-1,Increment      1: Step Time =    1.000,"PART-1-1",           165,            1.,       -20.625,            0.,NA,NA,"",   312.235E-03,  -307.257E-03,   55.5332E-03,   7.56887E-03
C:/temp/dataset/test2/1_3.odb,Step-1,Increment      1: Step Time =    1.000,"PART-1-1",           166,           -1.,       -20.625,            0.,NA,NA,"",   309.024E-03,  -302.805E-03,  -61.6862E-03,   6.82194E-03
C:/temp/dataset/test2/1_3.odb,Step-1,Increment      1: Step Time =    1.000,"PART-1-1",           167,           -3.,       -20.625,            0.,NA,NA,"",   359.204E-03,  -310.330E-03,  -180.894E-03,   19.4972E-03
C:/temp/dataset/test2/1_3.odb,Step-1,Increment      1: Step Time =    1.000,"PART-1-1",           168,           -5.,       -20.625,            0.,NA,NA,"",   449.200E-03,  -330.146E-03,  -304.605E-03,   32.7253E-03
C:/temp/dataset/test2/1_3.odb,Step-1,Increment      1: Step Time =    1.000,"PART-1-1",           169,            5.,         -22.5,            0.,NA,NA,"",   340.487E-03,  -241.275E-03,   240.245E-03,   34.2076E-03
C:/temp/dataset/test2/1_3.odb,Step-1,Increment      1: Step Time =    1.000,"PART-1-1",           170,            3.,         -22.5,            0.,NA,NA,"",   257.039E-03,  -214.301E-03,   141.931E-03,   20.9346E-03
C:/temp/dataset/test2/1_3.odb,Step-1,Increment      1: Step Time =    1.000,"PART-1-1",           171,            1.,         -22.5,            0.,NA,NA,"",   204.227E-03,  -198.840E-03,   46.5983E-03,   7.88042E-03
C:/temp/dataset/test2/1_3.odb,Step-1,Increment      1: Step Time =    1.000,"PART-1-1",           172,           -1.,         -22.5,            0.,NA,NA,"",   201.308E-03,  -195.506E-03,  -47.9847E-03,   7.05558E-03
C:/temp/dataset/test2/1_3.odb,Step-1,Increment      1: Step Time =    1.000,"PART-1-1",           173,           -3.,         -22.5,            0.,NA,NA,"",   250.595E-03,  -204.718E-03,  -144.527E-03,   20.2538E-03
C:/temp/dataset/test2/1_3.odb,Step-1,Increment      1: Step Time =    1.000,"PART-1-1",           174,           -5.,         -22.5,            0.,NA,NA,"",   334.186E-03,  -226.704E-03,  -245.532E-03,   33.9316E-03
C:/temp/dataset/test2/1_3.odb,Step-1,Increment      1: Step Time =    1.000,"PART-1-1",           175,            5.,       -24.375,            0.,NA,NA,"",   239.678E-03,  -154.038E-03,   183.625E-03,   35.3821E-03
C:/temp/dataset/test2/1_3.odb,Step-1,Increment      1: Step Time =    1.000,"PART-1-1",           176,            3.,       -24.375,            0.,NA,NA,"",   166.940E-03,  -127.159E-03,   108.164E-03,   21.7683E-03
C:/temp/dataset/test2/1_3.odb,Step-1,Increment      1: Step Time =    1.000,"PART-1-1",           177,            1.,       -24.375,            0.,NA,NA,"",   117.653E-03,  -112.012E-03,   35.9942E-03,   8.35820E-03
C:/temp/dataset/test2/1_3.odb,Step-1,Increment      1: Step Time =    1.000,"PART-1-1",           178,           -1.,       -24.375,            0.,NA,NA,"",   115.046E-03,  -109.600E-03,  -34.9789E-03,   7.45956E-03
C:/temp/dataset/test2/1_3.odb,Step-1,Increment      1: Step Time =    1.000,"PART-1-1",           179,           -3.,       -24.375,            0.,NA,NA,"",   161.745E-03,  -120.399E-03,  -108.006E-03,   21.0458E-03
C:/temp/dataset/test2/1_3.odb,Step-1,Increment      1: Step Time =    1.000,"PART-1-1",           180,           -5.,       -24.375,            0.,NA,NA,"",   235.065E-03,  -144.386E-03,  -185.494E-03,   35.1456E-03
C:/temp/dataset/test2/1_3.odb,Step-1,Increment      1: Step Time =    1.000,"PART-1-1",           181,            5.,        -26.25,            0.,NA,NA,"",   153.198E-03,  -88.9358E-03,   124.740E-03,   35.6561E-03
C:/temp/dataset/test2/1_3.odb,Step-1,Increment      1: Step Time =    1.000,"PART-1-1",           182,            3.,        -26.25,            0.,NA,NA,"",   94.8596E-03,  -62.2718E-03,   71.5582E-03,   23.1750E-03
C:/temp/dataset/test2/1_3.odb,Step-1,Increment      1: Step Time =    1.000,"PART-1-1",           183,            1.,        -26.25,            0.,NA,NA,"",   53.0669E-03,  -47.4968E-03,   23.6676E-03,   8.68023E-03
C:/temp/dataset/test2/1_3.odb,Step-1,Increment      1: Step Time =    1.000,"PART-1-1",           184,           -1.,        -26.25,            0.,NA,NA,"",   50.8947E-03,  -45.8405E-03,  -22.1116E-03,   7.71647E-03
C:/temp/dataset/test2/1_3.odb,Step-1,Increment      1: Step Time =    1.000,"PART-1-1",           185,           -3.,        -26.25,            0.,NA,NA,"",   91.1277E-03,  -57.8162E-03,  -70.4383E-03,   22.4452E-03
C:/temp/dataset/test2/1_3.odb,Step-1,Increment      1: Step Time =    1.000,"PART-1-1",           186,           -5.,        -26.25,            0.,NA,NA,"",   150.038E-03,  -83.1363E-03,  -124.899E-03,   35.4540E-03
C:/temp/dataset/test2/1_3.odb,Step-1,Increment      1: Step Time =    1.000,"PART-1-1",           187,            5.,       -28.125,            0.,NA,NA,"",   78.8828E-03,  -44.5274E-03,   65.1137E-03,   38.3006E-03
C:/temp/dataset/test2/1_3.odb,Step-1,Increment      1: Step Time =    1.000,"PART-1-1",           188,            3.,       -28.125,            0.,NA,NA,"",   40.0270E-03,  -20.3542E-03,   34.4654E-03,   23.9476E-03
C:/temp/dataset/test2/1_3.odb,Step-1,Increment      1: Step Time =    1.000,"PART-1-1",           189,            1.,       -28.125,            0.,NA,NA,"",   13.2209E-03,  -7.54229E-03,   10.8584E-03,   8.08078E-03
C:/temp/dataset/test2/1_3.odb,Step-1,Increment      1: Step Time =    1.000,"PART-1-1",           190,           -1.,       -28.125,            0.,NA,NA,"",   12.0023E-03,  -6.59113E-03,  -10.0306E-03,   7.30525E-03
C:/temp/dataset/test2/1_3.odb,Step-1,Increment      1: Step Time =    1.000,"PART-1-1",           191,           -3.,       -28.125,            0.,NA,NA,"",   38.1504E-03,  -17.8760E-03,  -33.7031E-03,   23.1836E-03
C:/temp/dataset/test2/1_3.odb,Step-1,Increment      1: Step Time =    1.000,"PART-1-1",           192,           -5.,       -28.125,            0.,NA,NA,"",   76.9042E-03,  -41.7681E-03,  -64.5731E-03,   38.2539E-03
C:/temp/dataset/test2/1_3.odb,Step-1,Increment      1: Step Time =    1.000,"PART-1-1",           193,            5.,          -30.,            0.,NA,NA,"",            0.,  -10.7130E-39,   19.3381E-39,   46.1556E-03
C:/temp/dataset/test2/1_3.odb,Step-1,Increment      1: Step Time =    1.000,"PART-1-1",           194,            3.,          -30.,            0.,NA,NA,"",            0.,  -14.6646E-39,   40.1902E-39,   16.7302E-03
C:/temp/dataset/test2/1_3.odb,Step-1,Increment      1: Step Time =    1.000,"PART-1-1",           195,            1.,          -30.,            0.,NA,NA,"",            0.,   1.21927E-39,   11.0304E-39,   7.53254E-03
C:/temp/dataset/test2/1_3.odb,Step-1,Increment      1: Step Time =    1.000,"PART-1-1",           196,           -1.,          -30.,            0.,NA,NA,"",            0.,   10.4443E-39,  -15.2277E-39,   7.59745E-03
C:/temp/dataset/test2/1_3.odb,Step-1,Increment      1: Step Time =    1.000,"PART-1-1",           197,           -3.,          -30.,            0.,NA,NA,"",            0.,  -1.11240E-39,  -40.8311E-39,   16.4504E-03
C:/temp/dataset/test2/1_3.odb,Step-1,Increment      1: Step Time =    1.000,"PART-1-1",           198,           -5.,          -30.,            0.,NA,NA,"",            0.,  -10.1543E-39,  -18.6205E-39,   45.0312E-03
C:/temp/dataset/test2/1_3.odb,Step-1,Increment      1: Step Time =    1.000,"PART-1-1",           199,            4.,           30.,            0.,NA,NA,"",       8.50119,      -8.50041,   115.526E-03,   3.09486E-03
C:/temp/dataset/test2/1_3.odb,Step-1,Increment      1: Step Time =    1.000,"PART-1-1",           200,            3.,       29.0625,            0.,NA,NA,"",       8.28527,      -8.28498,  -69.6189E-03,   2.95051E-03
C:/temp/dataset/test2/1_3.odb,Step-1,Increment      1: Step Time =    1.000,"PART-1-1",           201,            4.,        28.125,            0.,NA,NA,"",       8.11792,      -8.11649,   152.624E-03,   3.02142E-03
C:/temp/dataset/test2/1_3.odb,Step-1,Increment      1: Step Time =    1.000,"PART-1-1",           202,            5.,       29.0625,            0.,NA,NA,"",       8.33918,      -8.33232,   338.027E-03,   2.96429E-03
C:/temp/dataset/test2/1_3.odb,Step-1,Increment      1: Step Time =    1.000,"PART-1-1",           203,            2.,           30.,            0.,NA,NA,"",       8.45788,      -8.45287,  -291.042E-03,   2.83973E-03
C:/temp/dataset/test2/1_3.odb,Step-1,Increment      1: Step Time =    1.000,"PART-1-1",           204,            1.,       29.0625,            0.,NA,NA,"",       8.25269,      -8.23902,  -474.785E-03,   2.22888E-03
C:/temp/dataset/test2/1_3.odb,Step-1,Increment      1: Step Time =    1.000,"PART-1-1",           205,            2.,        28.125,            0.,NA,NA,"",       8.07390,      -8.06991,  -253.803E-03,   2.58127E-03
C:/temp/dataset/test2/1_3.odb,Step-1,Increment      1: Step Time =    1.000,"PART-1-1",           206,            0.,           30.,            0.,NA,NA,"",       8.43586,      -8.40714,  -695.422E-03,   1.75633E-03
C:/temp/dataset/test2/1_3.odb,Step-1,Increment      1: Step Time =    1.000,"PART-1-1",           207,           -1.,       29.0625,            0.,NA,NA,"",       8.24204,      -8.19511,  -878.303E-03,   1.30991E-03
C:/temp/dataset/test2/1_3.odb,Step-1,Increment      1: Step Time =    1.000,"PART-1-1",           208,            0.,        28.125,            0.,NA,NA,"",       8.05247,      -8.02559,  -657.487E-03,   2.08955E-03
C:/temp/dataset/test2/1_3.odb,Step-1,Increment      1: Step Time =    1.000,"PART-1-1",           209,           -2.,           30.,            0.,NA,NA,"",       8.43586,      -8.36391,      -1.09940,   606.976E-06
C:/temp/dataset/test2/1_3.odb,Step-1,Increment      1: Step Time =    1.000,"PART-1-1",           210,           -3.,       29.0625,            0.,NA,NA,"",       8.25297,      -8.15273,      -1.28235,   492.068E-06
C:/temp/dataset/test2/1_3.odb,Step-1,Increment      1: Step Time =    1.000,"PART-1-1",           211,           -2.,        28.125,            0.,NA,NA,"",       8.05311,      -7.98295,      -1.06068,   1.38467E-03
C:/temp/dataset/test2/1_3.odb,Step-1,Increment      1: Step Time =    1.000,"PART-1-1",           212,           -4.,           30.,            0.,NA,NA,"",       8.45707,      -8.32216,      -1.50455,   61.9015E-06
C:/temp/dataset/test2/1_3.odb,Step-1,Increment      1: Step Time =    1.000,"PART-1-1",           213,           -5.,       29.0625,            0.,NA,NA,"",       8.28479,      -8.11100,      -1.68804,   64.4973E-06
C:/temp/dataset/test2/1_3.odb,Step-1,Increment      1: Step Time =    1.000,"PART-1-1",           214,           -4.,        28.125,            0.,NA,NA,"",       8.07531,      -7.94125,      -1.46533,   475.480E-06
C:/temp/dataset/test2/1_3.odb,Step-1,Increment      1: Step Time =    1.000,"PART-1-1",           215,            3.,       27.1875,            0.,NA,NA,"",       7.90001,      -7.89995,  -32.4448E-03,   3.08870E-03
C:/temp/dataset/test2/1_3.odb,Step-1,Increment      1: Step Time =    1.000,"PART-1-1",           216,            4.,         26.25,            0.,NA,NA,"",       7.73138,      -7.72905,   189.503E-03,   2.84008E-03
C:/temp/dataset/test2/1_3.odb,Step-1,Increment      1: Step Time =    1.000,"PART-1-1",           217,            5.,       27.1875,            0.,NA,NA,"",       7.95644,      -7.94755,   376.031E-03,   2.92441E-03
C:/temp/dataset/test2/1_3.odb,Step-1,Increment      1: Step Time =    1.000,"PART-1-1",           218,            1.,       27.1875,            0.,NA,NA,"",       7.86746,      -7.85533,  -436.707E-03,   2.56404E-03
C:/temp/dataset/test2/1_3.odb,Step-1,Increment      1: Step Time =    1.000,"PART-1-1",           219,            2.,         26.25,            0.,NA,NA,"",       7.68744,      -7.68441,  -215.848E-03,   2.82973E-03
C:/temp/dataset/test2/1_3.odb,Step-1,Increment      1: Step Time =    1.000,"PART-1-1",           220,           -1.,       27.1875,            0.,NA,NA,"",       7.85752,      -7.81255,  -839.434E-03,   2.12708E-03
C:/temp/dataset/test2/1_3.odb,Step-1,Increment      1: Step Time =    1.000,"PART-1-1",           221,            0.,         26.25,            0.,NA,NA,"",       7.66655,      -7.64156,  -618.533E-03,   2.64946E-03
C:/temp/dataset/test2/1_3.odb,Step-1,Increment      1: Step Time =    1.000,"PART-1-1",           222,           -3.,       27.1875,            0.,NA,NA,"",       7.86969,      -7.77093,      -1.24283,   1.37155E-03
C:/temp/dataset/test2/1_3.odb,Step-1,Increment      1: Step Time =    1.000,"PART-1-1",           223,           -2.,         26.25,            0.,NA,NA,"",       7.66828,      -7.60002,      -1.02088,   2.10636E-03
C:/temp/dataset/test2/1_3.odb,Step-1,Increment      1: Step Time =    1.000,"PART-1-1",           224,           -5.,       27.1875,            0.,NA,NA,"",       7.90352,      -7.72965,      -1.64866,   517.002E-06
C:/temp/dataset/test2/1_3.odb,Step-1,Increment      1: Step Time =    1.000,"PART-1-1",           225,           -4.,         26.25,            0.,NA,NA,"",       7.69232,      -7.55917,      -1.42504,   1.21644E-03
C:/temp/dataset/test2/1_3.odb,Step-1,Increment      1: Step Time =    1.000,"PART-1-1",           226,            3.,       25.3125,            0.,NA,NA,"",       7.51298,      -7.51297,   5.34017E-03,   2.69764E-03
C:/temp/dataset/test2/1_3.odb,Step-1,Increment      1: Step Time =    1.000,"PART-1-1",           227,            4.,        24.375,            0.,NA,NA,"",       7.34505,      -7.34153,   227.173E-03,   2.34683E-03
C:/temp/dataset/test2/1_3.odb,Step-1,Increment      1: Step Time =    1.000,"PART-1-1",           228,            5.,       25.3125,            0.,NA,NA,"",       7.56826,      -7.55694,   413.832E-03,   2.58939E-03
C:/temp/dataset/test2/1_3.odb,Step-1,Increment      1: Step Time =    1.000,"PART-1-1",           229,            1.,       25.3125,            0.,NA,NA,"",       7.48072,      -7.47014,  -397.896E-03,   2.90664E-03
C:/temp/dataset/test2/1_3.odb,Step-1,Increment      1: Step Time =    1.000,"PART-1-1",           230,            2.,        24.375,            0.,NA,NA,"",       7.30071,      -7.29855,  -177.447E-03,   2.70046E-03
C:/temp/dataset/test2/1_3.odb,Step-1,Increment      1: Step Time =    1.000,"PART-1-1",           231,           -1.,       25.3125,            0.,NA,NA,"",       7.47156,      -7.42865,  -799.553E-03,   2.70831E-03
C:/temp/dataset/test2/1_3.odb,Step-1,Increment      1: Step Time =    1.000,"PART-1-1",           232,            0.,        24.375,            0.,NA,NA,"",       7.28009,      -7.25704,  -578.889E-03,   2.91052E-03
C:/temp/dataset/test2/1_3.odb,Step-1,Increment      1: Step Time =    1.000,"PART-1-1",           233,           -3.,       25.3125,            0.,NA,NA,"",       7.48523,      -7.38808,      -1.20206,   2.13531E-03
C:/temp/dataset/test2/1_3.odb,Step-1,Increment      1: Step Time =    1.000,"PART-1-1",           234,           -2.,        24.375,            0.,NA,NA,"",       7.28286,      -7.21662,  -980.003E-03,   2.62913E-03
C:/temp/dataset/test2/1_3.odb,Step-1,Increment      1: Step Time =    1.000,"PART-1-1",           235,           -5.,       25.3125,            0.,NA,NA,"",       7.52151,      -7.34767,      -1.60777,   1.55123E-03
C:/temp/dataset/test2/1_3.odb,Step-1,Increment      1: Step Time =    1.000,"PART-1-1",           236,           -4.,        24.375,            0.,NA,NA,"",       7.30888,      -7.17678,      -1.38329,   2.10949E-03
C:/temp/dataset/test2/1_3.odb,Step-1,Increment      1: Step Time =    1.000,"PART-1-1",           237,            3.,       23.4375,            0.,NA,NA,"",       7.12756,      -7.12743,   42.7602E-03,   2.58054E-03
C:/temp/dataset/test2/1_3.odb,Step-1,Increment      1: Step Time =    1.000,"PART-1-1",           238,            4.,          22.5,            0.,NA,NA,"",       6.96238,      -6.95744,   262.223E-03,   3.31064E-03
C:/temp/dataset/test2/1_3.odb,Step-1,Increment      1: Step Time =    1.000,"PART-1-1",           239,            5.,       23.4375,            0.,NA,NA,"",       7.18548,      -7.17148,   448.200E-03,   3.62010E-03
C:/temp/dataset/test2/1_3.odb,Step-1,Increment      1: Step Time =    1.000,"PART-1-1",           240,            1.,       23.4375,            0.,NA,NA,"",       7.09460,      -7.08552,  -358.906E-03,   2.95048E-03
C:/temp/dataset/test2/1_3.odb,Step-1,Increment      1: Step Time =    1.000,"PART-1-1",           241,            2.,          22.5,            0.,NA,NA,"",       6.91597,      -6.91456,  -139.717E-03,   2.71934E-03
C:/temp/dataset/test2/1_3.odb,Step-1,Increment      1: Step Time =    1.000,"PART-1-1",           242,           -1.,       23.4375,            0.,NA,NA,"",       7.08581,      -7.04504,  -758.994E-03,   3.00718E-03
C:/temp/dataset/test2/1_3.odb,Step-1,Increment      1: Step Time =    1.000,"PART-1-1",           243,            0.,          22.5,            0.,NA,NA,"",       6.89479,      -6.87368,  -539.128E-03,   2.92405E-03
C:/temp/dataset/test2/1_3.odb,Step-1,Increment      1: Step Time =    1.000,"PART-1-1",           244,           -3.,       23.4375,            0.,NA,NA,"",       7.10092,      -7.00552,      -1.16009,   2.76079E-03
C:/temp/dataset/test2/1_3.odb,Step-1,Increment      1: Step Time =    1.000,"PART-1-1",           245,           -2.,          22.5,            0.,NA,NA,"",       6.89830,      -6.83418,  -938.365E-03,   2.96572E-03
C:/temp/dataset/test2/1_3.odb,Step-1,Increment      1: Step Time =    1.000,"PART-1-1",           246,           -5.,       23.4375,            0.,NA,NA,"",       7.13988,      -6.96629,      -1.56486,   2.86286E-03
C:/temp/dataset/test2/1_3.odb,Step-1,Increment      1: Step Time =    1.000,"PART-1-1",           247,           -4.,          22.5,            0.,NA,NA,"",       6.92635,      -6.79548,      -1.34003,   3.09620E-03
C:/temp/dataset/test2/1_3.odb,Step-1,Increment      1: Step Time =    1.000,"PART-1-1",           248,            3.,       21.5625,            0.,NA,NA,"",       6.74506,      -6.74460,   78.3882E-03,   3.19462E-03
C:/temp/dataset/test2/1_3.odb,Step-1,Increment      1: Step Time =    1.000,"PART-1-1",           249,            4.,        20.625,            0.,NA,NA,"",       6.58257,      -6.57595,   295.152E-03,   4.23377E-03
C:/temp/dataset/test2/1_3.odb,Step-1,Increment      1: Step Time =    1.000,"PART-1-1",           250,            5.,       21.5625,            0.,NA,NA,"",       6.80577,      -6.78878,   480.552E-03,   4.67106E-03
C:/temp/dataset/test2/1_3.odb,Step-1,Increment      1: Step Time =    1.000,"PART-1-1",           251,            1.,       21.5625,            0.,NA,NA,"",       6.71056,      -6.70290,  -320.533E-03,   2.95155E-03
C:/temp/dataset/test2/1_3.odb,Step-1,Increment      1: Step Time =    1.000,"PART-1-1",           252,            2.,        20.625,            0.,NA,NA,"",       6.53390,      -6.53308,  -103.398E-03,   3.05059E-03
C:/temp/dataset/test2/1_3.odb,Step-1,Increment      1: Step Time =    1.000,"PART-1-1",           253,           -1.,       21.5625,            0.,NA,NA,"",       6.70170,      -6.66310,  -718.224E-03,   3.11983E-03
C:/temp/dataset/test2/1_3.odb,Step-1,Increment      1: Step Time =    1.000,"PART-1-1",           254,            0.,        20.625,            0.,NA,NA,"",       6.51182,      -6.49261,  -499.795E-03,   2.90169E-03
C:/temp/dataset/test2/1_3.odb,Step-1,Increment      1: Step Time =    1.000,"PART-1-1",           255,           -3.,       21.5625,            0.,NA,NA,"",       6.71813,      -6.62460,      -1.11714,   3.34965E-03
C:/temp/dataset/test2/1_3.odb,Step-1,Increment      1: Step Time =    1.000,"PART-1-1",           256,           -2.,        20.625,            0.,NA,NA,"",       6.51590,      -6.45396,  -896.293E-03,   3.24463E-03
C:/temp/dataset/test2/1_3.odb,Step-1,Increment      1: Step Time =    1.000,"PART-1-1",           257,           -5.,       21.5625,            0.,NA,NA,"",       6.75987,      -6.58677,      -1.51996,   4.23972E-03
C:/temp/dataset/test2/1_3.odb,Step-1,Increment      1: Step Time =    1.000,"PART-1-1",           258,           -4.,        20.625,            0.,NA,NA,"",       6.54597,      -6.41651,      -1.29543,   4.11249E-03
C:/temp/dataset/test2/1_3.odb,Step-1,Increment      1: Step Time =    1.000,"PART-1-1",           259,            3.,       19.6875,            0.,NA,NA,"",       6.36549,      -6.36450,   112.087E-03,   3.89101E-03
C:/temp/dataset/test2/1_3.odb,Step-1,Increment      1: Step Time =    1.000,"PART-1-1",           260,            4.,         18.75,            0.,NA,NA,"",       6.20596,      -6.19741,   325.810E-03,   5.19666E-03
C:/temp/dataset/test2/1_3.odb,Step-1,Increment      1: Step Time =    1.000,"PART-1-1",           261,            5.,       19.6875,            0.,NA,NA,"",       6.42909,      -6.40879,   510.475E-03,   5.80294E-03
C:/temp/dataset/test2/1_3.odb,Step-1,Increment      1: Step Time =    1.000,"PART-1-1",           262,            1.,       19.6875,            0.,NA,NA,"",       6.32937,      -6.32303,  -283.227E-03,   3.03908E-03
C:/temp/dataset/test2/1_3.odb,Step-1,Increment      1: Step Time =    1.000,"PART-1-1",           263,            2.,         18.75,            0.,NA,NA,"",       6.15503,      -6.15465,  -68.6626E-03,   3.44937E-03
C:/temp/dataset/test2/1_3.odb,Step-1,Increment      1: Step Time =    1.000,"PART-1-1",           264,           -1.,       19.6875,            0.,NA,NA,"",       6.32031,      -6.28388,  -677.603E-03,   3.17597E-03
C:/temp/dataset/test2/1_3.odb,Step-1,Increment      1: Step Time =    1.000,"PART-1-1",           265,            0.,         18.75,            0.,NA,NA,"",       6.13204,      -6.11467,  -461.184E-03,   2.89003E-03
C:/temp/dataset/test2/1_3.odb,Step-1,Increment      1: Step Time =    1.000,"PART-1-1",           266,           -3.,       19.6875,            0.,NA,NA,"",       6.33802,      -6.24646,      -1.07343,   3.96308E-03
C:/temp/dataset/test2/1_3.odb,Step-1,Increment      1: Step Time =    1.000,"PART-1-1",           267,           -2.,         18.75,            0.,NA,NA,"",       6.13665,      -6.07693,  -854.039E-03,   3.54741E-03
C:/temp/dataset/test2/1_3.odb,Step-1,Increment      1: Step Time =    1.000,"PART-1-1",           268,           -5.,       19.6875,            0.,NA,NA,"",       6.38259,      -6.21022,      -1.47329,   5.59601E-03
C:/temp/dataset/test2/1_3.odb,Step-1,Increment      1: Step Time =    1.000,"PART-1-1",           269,           -4.,         18.75,            0.,NA,NA,"",       6.16880,      -6.04089,      -1.24969,   5.12790E-03
C:/temp/dataset/test2/1_3.odb,Step-1,Increment      1: Step Time =    1.000,"PART-1-1",           270,            3.,       17.8125,            0.,NA,NA,"",       5.98945,      -5.98772,   143.784E-03,   4.60023E-03
C:/temp/dataset/test2/1_3.odb,Step-1,Increment      1: Step Time =    1.000,"PART-1-1",           271,            4.,        16.875,            0.,NA,NA,"",       5.83324,      -5.82248,   354.043E-03,   6.18102E-03
C:/temp/dataset/test2/1_3.odb,Step-1,Increment      1: Step Time =    1.000,"PART-1-1",           272,            5.,       17.8125,            0.,NA,NA,"",       6.05594,      -6.03202,   537.728E-03,   7.00903E-03
C:/temp/dataset/test2/1_3.odb,Step-1,Increment      1: Step Time =    1.000,"PART-1-1",           273,            1.,       17.8125,            0.,NA,NA,"",       5.95175,      -5.94661,  -247.157E-03,   3.16886E-03
C:/temp/dataset/test2/1_3.odb,Step-1,Increment      1: Step Time =    1.000,"PART-1-1",           274,            2.,        16.875,            0.,NA,NA,"",       5.78009,      -5.77998,  -35.6222E-03,   3.86894E-03
C:/temp/dataset/test2/1_3.odb,Step-1,Increment      1: Step Time =    1.000,"PART-1-1",           275,           -1.,       17.8125,            0.,NA,NA,"",       5.94251,      -5.90823,  -637.349E-03,   3.24175E-03
C:/temp/dataset/test2/1_3.odb,Step-1,Increment      1: Step Time =    1.000,"PART-1-1",           276,            0.,        16.875,            0.,NA,NA,"",       5.75623,      -5.74063,  -423.454E-03,   2.88696E-03
C:/temp/dataset/test2/1_3.odb,Step-1,Increment      1: Step Time =    1.000,"PART-1-1",           277,           -3.,       17.8125,            0.,NA,NA,"",       5.96155,      -5.87204,      -1.02917,   4.61521E-03
C:/temp/dataset/test2/1_3.odb,Step-1,Increment      1: Step Time =    1.000,"PART-1-1",           278,           -2.,        16.875,            0.,NA,NA,"",       5.76145,      -5.70397,  -811.781E-03,   3.89540E-03
C:/temp/dataset/test2/1_3.odb,Step-1,Increment      1: Step Time =    1.000,"PART-1-1",           279,           -5.,       17.8125,            0.,NA,NA,"",       6.00899,      -5.83755,      -1.42511,   6.91372E-03
C:/temp/dataset/test2/1_3.odb,Step-1,Increment      1: Step Time =    1.000,"PART-1-1",           280,           -4.,        16.875,            0.,NA,NA,"",       5.79573,      -5.66950,      -1.20303,   6.13607E-03
C:/temp/dataset/test2/1_3.odb,Step-1,Increment      1: Step Time =    1.000,"PART-1-1",           281,            3.,       15.9375,            0.,NA,NA,"",       5.61768,      -5.61500,   173.339E-03,   5.31634E-03
C:/temp/dataset/test2/1_3.odb,Step-1,Increment      1: Step Time =    1.000,"PART-1-1",           282,            4.,           15.,            0.,NA,NA,"",       5.46515,      -5.45195,   379.668E-03,   7.18083E-03
C:/temp/dataset/test2/1_3.odb,Step-1,Increment      1: Step Time =    1.000,"PART-1-1",           283,            5.,       15.9375,            0.,NA,NA,"",       5.68702,      -5.65918,   562.068E-03,   8.25151E-03
C:/temp/dataset/test2/1_3.odb,Step-1,Increment      1: Step Time =    1.000,"PART-1-1",           284,            1.,       15.9375,            0.,NA,NA,"",       5.57846,      -5.57441,  -212.446E-03,   3.31164E-03
C:/temp/dataset/test2/1_3.odb,Step-1,Increment      1: Step Time =    1.000,"PART-1-1",           285,            2.,           15.,            0.,NA,NA,"",       5.40983,      -5.40983,  -4.40295E-03,   4.29917E-03
C:/temp/dataset/test2/1_3.odb,Step-1,Increment      1: Step Time =    1.000,"PART-1-1",           286,           -1.,       15.9375,            0.,NA,NA,"",       5.56912,      -5.53697,  -597.608E-03,   3.33330E-03
C:/temp/dataset/test2/1_3.odb,Step-1,Increment      1: Step Time =    1.000,"PART-1-1",           287,            0.,           15.,            0.,NA,NA,"",       5.38520,      -5.37129,  -386.728E-03,   2.88649E-03
C:/temp/dataset/test2/1_3.odb,Step-1,Increment      1: Step Time =    1.000,"PART-1-1",           288,           -3.,       15.9375,            0.,NA,NA,"",       5.58957,      -5.50218,  -984.531E-03,   5.29790E-03
C:/temp/dataset/test2/1_3.odb,Step-1,Increment      1: Step Time =    1.000,"PART-1-1",           289,           -2.,           15.,            0.,NA,NA,"",       5.39110,      -5.33588,  -769.666E-03,   4.28174E-03
C:/temp/dataset/test2/1_3.odb,Step-1,Increment      1: Step Time =    1.000,"PART-1-1",           290,           -5.,       15.9375,            0.,NA,NA,"",       5.63993,      -5.46958,      -1.37566,   8.20240E-03
C:/temp/dataset/test2/1_3.odb,Step-1,Increment      1: Step Time =    1.000,"PART-1-1",           291,           -4.,           15.,            0.,NA,NA,"",       5.42758,      -5.30313,      -1.15563,   7.13929E-03
C:/temp/dataset/test2/1_3.odb,Step-1,Increment      1: Step Time =    1.000,"PART-1-1",           292,            3.,       14.0625,            0.,NA,NA,"",       5.25097,      -5.24714,   200.607E-03,   6.04070E-03
C:/temp/dataset/test2/1_3.odb,Step-1,Increment      1: Step Time =    1.000,"PART-1-1",           293,            4.,        13.125,            0.,NA,NA,"",       5.10249,      -5.08659,   402.523E-03,   8.18858E-03
C:/temp/dataset/test2/1_3.odb,Step-1,Increment      1: Step Time =    1.000,"PART-1-1",           294,            5.,       14.0625,            0.,NA,NA,"",       5.32311,      -5.29105,   583.309E-03,   9.51213E-03
C:/temp/dataset/test2/1_3.odb,Step-1,Increment      1: Step Time =    1.000,"PART-1-1",           295,            1.,       14.0625,            0.,NA,NA,"",       5.21030,      -5.20722,  -179.216E-03,   3.46133E-03
C:/temp/dataset/test2/1_3.odb,Step-1,Increment      1: Step Time =    1.000,"PART-1-1",           296,            2.,        13.125,            0.,NA,NA,"",       5.04508,      -5.04502,   24.8611E-03,   4.74055E-03
C:/temp/dataset/test2/1_3.odb,Step-1,Increment      1: Step Time =    1.000,"PART-1-1",           297,           -1.,       14.0625,            0.,NA,NA,"",       5.20095,      -5.17087,  -558.510E-03,   3.44856E-03
C:/temp/dataset/test2/1_3.odb,Step-1,Increment      1: Step Time =    1.000,"PART-1-1",           298,            0.,        13.125,            0.,NA,NA,"",       5.01973,      -5.00743,  -351.131E-03,   2.88663E-03
C:/temp/dataset/test2/1_3.odb,Step-1,Increment      1: Step Time =    1.000,"PART-1-1",           299,           -3.,       14.0625,            0.,NA,NA,"",       5.22287,      -5.13764,  -939.665E-03,   6.00038E-03
C:/temp/dataset/test2/1_3.odb,Step-1,Increment      1: Step Time =    1.000,"PART-1-1",           300,           -2.,        13.125,            0.,NA,NA,"",       5.02639,      -4.97342,  -727.828E-03,   4.69475E-03
C:/temp/dataset/test2/1_3.odb,Step-1,Increment      1: Step Time =    1.000,"PART-1-1",           301,           -5.,       14.0625,            0.,NA,NA,"",       5.27621,      -5.10710,      -1.32511,   9.47506E-03
C:/temp/dataset/test2/1_3.odb,Step-1,Increment      1: Step Time =    1.000,"PART-1-1",           302,           -4.,        13.125,            0.,NA,NA,"",       5.06514,      -4.94255,      -1.10764,   8.14039E-03
C:/temp/dataset/test2/1_3.odb,Step-1,Increment      1: Step Time =    1.000,"PART-1-1",           303,            3.,       12.1875,            0.,NA,NA,"",       4.89013,      -4.88494,   225.440E-03,   6.77318E-03
C:/temp/dataset/test2/1_3.odb,Step-1,Increment      1: Step Time =    1.000,"PART-1-1",           304,            4.,         11.25,            0.,NA,NA,"",       4.74608,      -4.72724,   422.461E-03,   9.20074E-03
C:/temp/dataset/test2/1_3.odb,Step-1,Increment      1: Step Time =    1.000,"PART-1-1",           305,            5.,       12.1875,            0.,NA,NA,"",       4.96499,      -4.92844,   601.289E-03,   10.7802E-03
C:/temp/dataset/test2/1_3.odb,Step-1,Increment      1: Step Time =    1.000,"PART-1-1",           306,            1.,       12.1875,            0.,NA,NA,"",       4.84808,      -4.84583,  -147.596E-03,   3.61896E-03
C:/temp/dataset/test2/1_3.odb,Step-1,Increment      1: Step Time =    1.000,"PART-1-1",           307,            2.,         11.25,            0.,NA,NA,"",       4.68662,      -4.68633,   52.0354E-03,   5.19316E-03
C:/temp/dataset/test2/1_3.odb,Step-1,Increment      1: Step Time =    1.000,"PART-1-1",           308,           -1.,       12.1875,            0.,NA,NA,"",       4.83877,      -4.81073,  -520.182E-03,   3.58199E-03
C:/temp/dataset/test2/1_3.odb,Step-1,Increment      1: Step Time =    1.000,"PART-1-1",           309,            0.,         11.25,            0.,NA,NA,"",       4.66063,      -4.64985,  -316.790E-03,   2.88685E-03
C:/temp/dataset/test2/1_3.odb,Step-1,Increment      1: Step Time =    1.000,"PART-1-1",           310,           -3.,       12.1875,            0.,NA,NA,"",       4.86224,      -4.77922,  -894.712E-03,   6.71483E-03
C:/temp/dataset/test2/1_3.odb,Step-1,Increment      1: Step Time =    1.000,"PART-1-1",           311,           -2.,         11.25,            0.,NA,NA,"",       4.66812,      -4.61738,  -686.396E-03,   5.12522E-03
C:/temp/dataset/test2/1_3.odb,Step-1,Increment      1: Step Time =    1.000,"PART-1-1",           312,           -5.,       12.1875,            0.,NA,NA,"",       4.91862,      -4.75087,      -1.27361,   10.7404E-03
C:/temp/dataset/test2/1_3.odb,Step-1,Increment      1: Step Time =    1.000,"PART-1-1",           313,           -4.,         11.25,            0.,NA,NA,"",       4.70919,      -4.58853,      -1.05919,   9.14100E-03
C:/temp/dataset/test2/1_3.odb,Step-1,Increment      1: Step Time =    1.000,"PART-1-1",           314,            3.,       10.3125,            0.,NA,NA,"",       4.53597,      -4.52920,   247.701E-03,   7.51279E-03
C:/temp/dataset/test2/1_3.odb,Step-1,Increment      1: Step Time =    1.000,"PART-1-1",           315,            4.,         9.375,            0.,NA,NA,"",       4.39669,      -4.37469,   439.344E-03,   10.2154E-03
C:/temp/dataset/test2/1_3.odb,Step-1,Increment      1: Step Time =    1.000,"PART-1-1",           316,            5.,       10.3125,            0.,NA,NA,"",       4.61347,      -4.57217,   615.864E-03,   12.0511E-03
C:/temp/dataset/test2/1_3.odb,Step-1,Increment      1: Step Time =    1.000,"PART-1-1",           317,            1.,       10.3125,            0.,NA,NA,"",       4.49259,      -4.49104,  -117.713E-03,   3.78612E-03
C:/temp/dataset/test2/1_3.odb,Step-1,Increment      1: Step Time =    1.000,"PART-1-1",           318,            2.,         9.375,            0.,NA,NA,"",       4.33527,      -4.33459,   76.9903E-03,   5.65621E-03
C:/temp/dataset/test2/1_3.odb,Step-1,Increment      1: Step Time =    1.000,"PART-1-1",           319,           -1.,       10.3125,            0.,NA,NA,"",       4.48339,      -4.45733,  -482.749E-03,   3.72878E-03
C:/temp/dataset/test2/1_3.odb,Step-1,Increment      1: Step Time =    1.000,"PART-1-1",           320,            0.,         9.375,            0.,NA,NA,"",       4.30869,      -4.29933,  -283.828E-03,   2.88709E-03
C:/temp/dataset/test2/1_3.odb,Step-1,Increment      1: Step Time =    1.000,"PART-1-1",           321,           -3.,       10.3125,            0.,NA,NA,"",       4.50847,      -4.42766,  -849.802E-03,   7.43656E-03
C:/temp/dataset/test2/1_3.odb,Step-1,Increment      1: Step Time =    1.000,"PART-1-1",           322,           -2.,         9.375,            0.,NA,NA,"",       4.31707,      -4.26854,  -645.496E-03,   5.56721E-03
C:/temp/dataset/test2/1_3.odb,Step-1,Increment      1: Step Time =    1.000,"PART-1-1",           323,           -5.,       10.3125,            0.,NA,NA,"",       4.56794,      -4.40165,      -1.22130,   12.0030E-03
C:/temp/dataset/test2/1_3.odb,Step-1,Increment      1: Step Time =    1.000,"PART-1-1",           324,           -4.,         9.375,            0.,NA,NA,"",       4.36052,      -4.24184,      -1.01043,   10.1417E-03
C:/temp/dataset/test2/1_3.odb,Step-1,Increment      1: Step Time =    1.000,"PART-1-1",           325,            3.,        8.4375,            0.,NA,NA,"",       4.18927,      -4.18074,   267.263E-03,   8.25831E-03
C:/temp/dataset/test2/1_3.odb,Step-1,Increment      1: Step Time =    1.000,"PART-1-1",           326,            4.,           7.5,            0.,NA,NA,"",       4.05515,      -4.02976,   453.048E-03,   11.2318E-03
C:/temp/dataset/test2/1_3.odb,Step-1,Increment      1: Step Time =    1.000,"PART-1-1",           327,            5.,        8.4375,            0.,NA,NA,"",       4.26934,      -4.22306,   626.905E-03,   13.3229E-03
C:/temp/dataset/test2/1_3.odb,Step-1,Increment      1: Step Time =    1.000,"PART-1-1",           328,            1.,        8.4375,            0.,NA,NA,"",       4.14463,      -4.14366,  -89.6924E-03,   3.96339E-03
C:/temp/dataset/test2/1_3.odb,Step-1,Increment      1: Step Time =    1.000,"PART-1-1",           329,            2.,           7.5,            0.,NA,NA,"",       3.99182,      -3.99058,   99.6036E-03,   6.12837E-03
C:/temp/dataset/test2/1_3.odb,Step-1,Increment      1: Step Time =    1.000,"PART-1-1",           330,           -1.,        8.4375,            0.,NA,NA,"",       4.13560,      -4.11145,  -446.332E-03,   3.88559E-03
C:/temp/dataset/test2/1_3.odb,Step-1,Increment      1: Step Time =    1.000,"PART-1-1",           331,            0.,           7.5,            0.,NA,NA,"",       3.96471,      -3.95667,  -252.365E-03,   2.88739E-03
C:/temp/dataset/test2/1_3.odb,Step-1,Increment      1: Step Time =    1.000,"PART-1-1",           332,           -3.,        8.4375,            0.,NA,NA,"",       4.16235,      -4.08375,  -805.057E-03,   8.16288E-03
C:/temp/dataset/test2/1_3.odb,Step-1,Increment      1: Step Time =    1.000,"PART-1-1",           333,           -2.,           7.5,            0.,NA,NA,"",       3.97403,      -3.92767,  -605.246E-03,   6.01710E-03
C:/temp/dataset/test2/1_3.odb,Step-1,Increment      1: Step Time =    1.000,"PART-1-1",           334,           -5.,        8.4375,            0.,NA,NA,"",       4.22494,      -4.06020,      -1.16830,   13.2644E-03
C:/temp/dataset/test2/1_3.odb,Step-1,Increment      1: Step Time =    1.000,"PART-1-1",           335,           -4.,           7.5,            0.,NA,NA,"",       4.01991,      -3.90324,  -961.457E-03,   11.1426E-03
C:/temp/dataset/test2/1_3.odb,Step-1,Increment      1: Step Time =    1.000,"PART-1-1",           336,            3.,        6.5625,            0.,NA,NA,"",       3.85085,      -3.84037,   284.005E-03,   9.00864E-03
C:/temp/dataset/test2/1_3.odb,Step-1,Increment      1: Step Time =    1.000,"PART-1-1",           337,            4.,         5.625,            0.,NA,NA,"",       3.72224,      -3.69328,   463.460E-03,   12.2495E-03
C:/temp/dataset/test2/1_3.odb,Step-1,Increment      1: Step Time =    1.000,"PART-1-1",           338,            5.,        6.5625,            0.,NA,NA,"",       3.93339,      -3.88192,   634.291E-03,   14.5950E-03
C:/temp/dataset/test2/1_3.odb,Step-1,Increment      1: Step Time =    1.000,"PART-1-1",           339,            1.,        6.5625,            0.,NA,NA,"",       3.80500,      -3.80447,  -63.6497E-03,   4.15047E-03
C:/temp/dataset/test2/1_3.odb,Step-1,Increment      1: Step Time =    1.000,"PART-1-1",           340,            2.,         5.625,            0.,NA,NA,"",       3.65708,      -3.65512,   119.763E-03,   6.60823E-03
C:/temp/dataset/test2/1_3.odb,Step-1,Increment      1: Step Time =    1.000,"PART-1-1",           341,           -1.,        6.5625,            0.,NA,NA,"",       3.79620,      -3.77388,  -411.046E-03,   4.05026E-03
C:/temp/dataset/test2/1_3.odb,Step-1,Increment      1: Step Time =    1.000,"PART-1-1",           342,            0.,         5.625,            0.,NA,NA,"",       3.62948,      -3.62265,  -222.512E-03,   2.88777E-03
C:/temp/dataset/test2/1_3.odb,Step-1,Increment      1: Step Time =    1.000,"PART-1-1",           343,           -3.,        6.5625,            0.,NA,NA,"",       3.82466,      -3.74827,  -760.591E-03,   8.89221E-03
C:/temp/dataset/test2/1_3.odb,Step-1,Increment      1: Step Time =    1.000,"PART-1-1",           344,           -2.,         5.625,            0.,NA,NA,"",       3.63980,      -3.59556,  -565.754E-03,   6.47263E-03
C:/temp/dataset/test2/1_3.odb,Step-1,Increment      1: Step Time =    1.000,"PART-1-1",           345,           -5.,        6.5625,            0.,NA,NA,"",       3.89041,      -3.72729,      -1.11472,   14.5254E-03
C:/temp/dataset/test2/1_3.odb,Step-1,Increment      1: Step Time =    1.000,"PART-1-1",           346,           -4.,         5.625,            0.,NA,NA,"",       3.68815,      -3.57351,  -912.389E-03,   12.1435E-03
C:/temp/dataset/test2/1_3.odb,Step-1,Increment      1: Step Time =    1.000,"PART-1-1",           347,            3.,        4.6875,            0.,NA,NA,"",       3.52151,      -3.50890,   297.821E-03,   9.76292E-03
C:/temp/dataset/test2/1_3.odb,Step-1,Increment      1: Step Time =    1.000,"PART-1-1",           348,            4.,          3.75,            0.,NA,NA,"",       3.39878,      -3.36606,   470.476E-03,   13.2683E-03
C:/temp/dataset/test2/1_3.odb,Step-1,Increment      1: Step Time =    1.000,"PART-1-1",           349,            5.,        4.6875,            0.,NA,NA,"",       3.60644,      -3.54957,   637.914E-03,   15.8674E-03
C:/temp/dataset/test2/1_3.odb,Step-1,Increment      1: Step Time =    1.000,"PART-1-1",           350,            1.,        4.6875,            0.,NA,NA,"",       3.47450,      -3.47427,  -39.6914E-03,   4.34663E-03
C:/temp/dataset/test2/1_3.odb,Step-1,Increment      1: Step Time =    1.000,"PART-1-1",           351,            2.,          3.75,            0.,NA,NA,"",       3.33185,      -3.32902,   137.366E-03,   7.09453E-03
C:/temp/dataset/test2/1_3.odb,Step-1,Increment      1: Step Time =    1.000,"PART-1-1",           352,           -1.,        4.6875,            0.,NA,NA,"",       3.46597,      -3.44540,  -376.996E-03,   4.22132E-03
C:/temp/dataset/test2/1_3.odb,Step-1,Increment      1: Step Time =    1.000,"PART-1-1",           353,            0.,          3.75,            0.,NA,NA,"",       3.30381,      -3.29809,  -194.367E-03,   2.88826E-03
C:/temp/dataset/test2/1_3.odb,Step-1,Increment      1: Step Time =    1.000,"PART-1-1",           354,           -3.,        4.6875,            0.,NA,NA,"",       3.49619,      -3.42198,  -716.504E-03,   9.62355E-03
C:/temp/dataset/test2/1_3.odb,Step-1,Increment      1: Step Time =    1.000,"PART-1-1",           355,           -2.,          3.75,            0.,NA,NA,"",       3.31516,      -3.27298,  -527.118E-03,   6.93234E-03
C:/temp/dataset/test2/1_3.odb,Step-1,Increment      1: Step Time =    1.000,"PART-1-1",           356,           -5.,        4.6875,            0.,NA,NA,"",       3.56512,      -3.40368,      -1.06066,   15.7859E-03
C:/temp/dataset/test2/1_3.odb,Step-1,Increment      1: Step Time =    1.000,"PART-1-1",           357,           -4.,          3.75,            0.,NA,NA,"",       3.36601,      -3.25341,  -863.317E-03,   13.1443E-03
C:/temp/dataset/test2/1_3.odb,Step-1,Increment      1: Step Time =    1.000,"PART-1-1",           358,            3.,        2.8125,            0.,NA,NA,"",       3.20205,      -3.18714,   308.614E-03,   10.5204E-03
C:/temp/dataset/test2/1_3.odb,Step-1,Increment      1: Step Time =    1.000,"PART-1-1",           359,            4.,         1.875,            0.,NA,NA,"",       3.08555,      -3.04892,   474.006E-03,   14.2880E-03
C:/temp/dataset/test2/1_3.odb,Step-1,Increment      1: Step Time =    1.000,"PART-1-1",           360,            5.,        2.8125,            0.,NA,NA,"",       3.28927,      -3.22686,   637.678E-03,   17.1399E-03
C:/temp/dataset/test2/1_3.odb,Step-1,Increment      1: Step Time =    1.000,"PART-1-1",           361,            1.,        2.8125,            0.,NA,NA,"",       3.15394,      -3.15389,  -17.9125E-03,   4.55099E-03
C:/temp/dataset/test2/1_3.odb,Step-1,Increment      1: Step Time =    1.000,"PART-1-1",           362,            2.,         1.875,            0.,NA,NA,"",       3.01693,      -3.01308,   152.324E-03,   7.58624E-03
C:/temp/dataset/test2/1_3.odb,Step-1,Increment      1: Step Time =    1.000,"PART-1-1",           363,           -1.,        2.8125,            0.,NA,NA,"",       3.14571,      -3.12682,  -344.275E-03,   4.39773E-03
C:/temp/dataset/test2/1_3.odb,Step-1,Increment      1: Step Time =    1.000,"PART-1-1",           364,            0.,         1.875,            0.,NA,NA,"",       2.98849,      -2.98377,  -168.021E-03,   2.88888E-03
C:/temp/dataset/test2/1_3.odb,Step-1,Increment      1: Step Time =    1.000,"PART-1-1",           365,           -3.,        2.8125,            0.,NA,NA,"",       3.17772,      -3.10566,  -672.889E-03,   10.3562E-03
C:/temp/dataset/test2/1_3.odb,Step-1,Increment      1: Step Time =    1.000,"PART-1-1",           366,           -2.,         1.875,            0.,NA,NA,"",       3.00091,      -2.96073,  -489.424E-03,   7.39517E-03
C:/temp/dataset/test2/1_3.odb,Step-1,Increment      1: Step Time =    1.000,"PART-1-1",           367,           -5.,        2.8125,            0.,NA,NA,"",       3.24984,      -3.09014,      -1.00621,   17.0459E-03
C:/temp/dataset/test2/1_3.odb,Step-1,Increment      1: Step Time =    1.000,"PART-1-1",           368,           -4.,         1.875,            0.,NA,NA,"",       3.05428,      -2.94372,  -814.324E-03,   14.1446E-03
C:/temp/dataset/test2/1_3.odb,Step-1,Increment      1: Step Time =    1.000,"PART-1-1",           369,            3.,     937.5E-03,            0.,NA,NA,"",       2.89327,      -2.87593,   316.300E-03,   11.2807E-03
C:/temp/dataset/test2/1_3.odb,Step-1,Increment      1: Step Time =    1.000,"PART-1-1",           370,            4.,            0.,            0.,NA,NA,"",       2.78336,      -2.74271,   473.974E-03,   15.3086E-03
C:/temp/dataset/test2/1_3.odb,Step-1,Increment      1: Step Time =    1.000,"PART-1-1",           371,            5.,     937.5E-03,            0.,NA,NA,"",       2.98267,      -2.91461,   633.498E-03,   18.4126E-03
C:/temp/dataset/test2/1_3.odb,Step-1,Increment      1: Step Time =    1.000,"PART-1-1",           372,            1.,     937.5E-03,            0.,NA,NA,"",       2.84411,      -2.84411,   1.60463E-03,   4.76269E-03
C:/temp/dataset/test2/1_3.odb,Step-1,Increment      1: Step Time =    1.000,"PART-1-1",           373,            2.,            0.,            0.,NA,NA,"",       2.71311,      -2.70812,   164.561E-03,   8.08251E-03
C:/temp/dataset/test2/1_3.odb,Step-1,Increment      1: Step Time =    1.000,"PART-1-1",           374,           -1.,     937.5E-03,            0.,NA,NA,"",       2.83623,      -2.81891,  -312.964E-03,   4.57864E-03
C:/temp/dataset/test2/1_3.odb,Step-1,Increment      1: Step Time =    1.000,"PART-1-1",           375,            0.,            0.,            0.,NA,NA,"",       2.68433,      -2.68049,  -143.546E-03,   2.88965E-03
C:/temp/dataset/test2/1_3.odb,Step-1,Increment      1: Step Time =    1.000,"PART-1-1",           376,           -3.,     937.5E-03,            0.,NA,NA,"",       2.87006,      -2.80010,  -629.823E-03,   11.0896E-03
C:/temp/dataset/test2/1_3.odb,Step-1,Increment      1: Step Time =    1.000,"PART-1-1",           377,           -2.,            0.,            0.,NA,NA,"",       2.69785,      -2.65959,  -452.745E-03,   7.86032E-03
C:/temp/dataset/test2/1_3.odb,Step-1,Increment      1: Step Time =    1.000,"PART-1-1",           378,           -5.,     937.5E-03,            0.,NA,NA,"",       2.94534,      -2.78743,  -951.437E-03,   18.3052E-03
C:/temp/dataset/test2/1_3.odb,Step-1,Increment      1: Step Time =    1.000,"PART-1-1",           379,           -4.,            0.,            0.,NA,NA,"",       2.75373,      -2.64520,  -765.481E-03,   15.1443E-03
C:/temp/dataset/test2/1_3.odb,Step-1,Increment      1: Step Time =    1.000,"PART-1-1",           380,            3.,    -937.5E-03,            0.,NA,NA,"",       2.59597,      -2.57607,   320.810E-03,   12.0433E-03
C:/temp/dataset/test2/1_3.odb,Step-1,Increment      1: Step Time =    1.000,"PART-1-1",           381,            4.,        -1.875,            0.,NA,NA,"",       2.49300,      -2.44824,   470.316E-03,   16.3299E-03
C:/temp/dataset/test2/1_3.odb,Step-1,Increment      1: Step Time =    1.000,"PART-1-1",           382,            5.,    -937.5E-03,            0.,NA,NA,"",       2.68743,      -2.61367,   625.305E-03,   19.6854E-03
C:/temp/dataset/test2/1_3.odb,Step-1,Increment      1: Step Time =    1.000,"PART-1-1",           383,            1.,    -937.5E-03,            0.,NA,NA,"",       2.54581,      -2.54574,   18.7914E-03,   4.98095E-03
C:/temp/dataset/test2/1_3.odb,Step-1,Increment      1: Step Time =    1.000,"PART-1-1",           384,            2.,        -1.875,            0.,NA,NA,"",       2.42122,      -2.41496,   174.014E-03,   8.58271E-03
C:/temp/dataset/test2/1_3.odb,Step-1,Increment      1: Step Time =    1.000,"PART-1-1",           385,           -1.,    -937.5E-03,            0.,NA,NA,"",       2.53832,      -2.52248,  -283.128E-03,   4.76336E-03
C:/temp/dataset/test2/1_3.odb,Step-1,Increment      1: Step Time =    1.000,"PART-1-1",           386,            0.,        -1.875,            0.,NA,NA,"",       2.39212,      -2.38905,  -121.004E-03,   2.89059E-03
C:/temp/dataset/test2/1_3.odb,Step-1,Increment      1: Step Time =    1.000,"PART-1-1",           387,           -3.,    -937.5E-03,            0.,NA,NA,"",       2.57398,      -2.50607,  -587.371E-03,   11.8234E-03
C:/temp/dataset/test2/1_3.odb,Step-1,Increment      1: Step Time =    1.000,"PART-1-1",           388,           -2.,        -1.875,            0.,NA,NA,"",       2.40676,      -2.37034,  -417.140E-03,   8.32718E-03
C:/temp/dataset/test2/1_3.odb,Step-1,Increment      1: Step Time =    1.000,"PART-1-1",           389,           -5.,    -937.5E-03,            0.,NA,NA,"",       2.65238,      -2.49631,  -896.408E-03,   19.5638E-03
C:/temp/dataset/test2/1_3.odb,Step-1,Increment      1: Step Time =    1.000,"PART-1-1",           390,           -4.,        -1.875,            0.,NA,NA,"",       2.46515,      -2.35863,  -716.843E-03,   16.1434E-03
C:/temp/dataset/test2/1_3.odb,Step-1,Increment      1: Step Time =    1.000,"PART-1-1",           391,            3.,       -2.8125,            0.,NA,NA,"",       2.31096,      -2.28840,   322.089E-03,   12.8078E-03
C:/temp/dataset/test2/1_3.odb,Step-1,Increment      1: Step Time =    1.000,"PART-1-1",           392,            4.,         -3.75,            0.,NA,NA,"",       2.21527,      -2.16635,   462.984E-03,   17.3519E-03
C:/temp/dataset/test2/1_3.odb,Step-1,Increment      1: Step Time =    1.000,"PART-1-1",           393,            5.,       -2.8125,            0.,NA,NA,"",       2.40433,      -2.32487,   613.042E-03,   20.9583E-03
C:/temp/dataset/test2/1_3.odb,Step-1,Increment      1: Step Time =    1.000,"PART-1-1",           394,            1.,       -2.8125,            0.,NA,NA,"",       2.25986,      -2.25961,   33.5939E-03,   5.20510E-03
C:/temp/dataset/test2/1_3.odb,Step-1,Increment      1: Step Time =    1.000,"PART-1-1",           395,            2.,         -3.75,            0.,NA,NA,"",       2.14204,      -2.13441,   180.637E-03,   9.08629E-03
C:/temp/dataset/test2/1_3.odb,Step-1,Increment      1: Step Time =    1.000,"PART-1-1",           396,           -1.,       -2.8125,            0.,NA,NA,"",       2.25276,      -2.23831,  -254.821E-03,   4.95128E-03
C:/temp/dataset/test2/1_3.odb,Step-1,Increment      1: Step Time =    1.000,"PART-1-1",           397,            0.,         -3.75,            0.,NA,NA,"",       2.11266,      -2.11027,  -100.441E-03,   2.89172E-03
C:/temp/dataset/test2/1_3.odb,Step-1,Increment      1: Step Time =    1.000,"PART-1-1",           398,           -3.,       -2.8125,            0.,NA,NA,"",       2.29027,      -2.22434,  -545.582E-03,   12.5573E-03
C:/temp/dataset/test2/1_3.odb,Step-1,Increment      1: Step Time =    1.000,"PART-1-1",           399,           -2.,         -3.75,            0.,NA,NA,"",       2.12844,      -2.09376,  -382.652E-03,   8.79525E-03
C:/temp/dataset/test2/1_3.odb,Step-1,Increment      1: Step Time =    1.000,"PART-1-1",           400,           -5.,       -2.8125,            0.,NA,NA,"",       2.37172,      -2.21755,  -841.168E-03,   20.8216E-03
C:/temp/dataset/test2/1_3.odb,Step-1,Increment      1: Step Time =    1.000,"PART-1-1",           401,           -4.,         -3.75,            0.,NA,NA,"",       2.18931,      -2.08476,  -668.452E-03,   17.1417E-03
C:/temp/dataset/test2/1_3.odb,Step-1,Increment      1: Step Time =    1.000,"PART-1-1",           402,            3.,       -4.6875,            0.,NA,NA,"",       2.03903,      -2.01375,   320.098E-03,   13.5741E-03
C:/temp/dataset/test2/1_3.odb,Step-1,Increment      1: Step Time =    1.000,"PART-1-1",           403,            4.,        -5.625,            0.,NA,NA,"",       1.95096,      -1.89789,   451.949E-03,   18.3743E-03
C:/temp/dataset/test2/1_3.odb,Step-1,Increment      1: Step Time =    1.000,"PART-1-1",           404,            5.,       -4.6875,            0.,NA,NA,"",       2.13416,      -2.04906,   596.670E-03,   22.2313E-03
C:/temp/dataset/test2/1_3.odb,Step-1,Increment      1: Step Time =    1.000,"PART-1-1",           405,            1.,       -4.6875,            0.,NA,NA,"",       1.98704,      -1.98651,   45.9742E-03,   5.43454E-03
C:/temp/dataset/test2/1_3.odb,Step-1,Increment      1: Step Time =    1.000,"PART-1-1",           406,            2.,        -5.625,            0.,NA,NA,"",       1.87639,      -1.86731,   184.400E-03,   9.59282E-03
C:/temp/dataset/test2/1_3.odb,Step-1,Increment      1: Step Time =    1.000,"PART-1-1",           407,           -1.,       -4.6875,            0.,NA,NA,"",       1.98037,      -1.96720,  -228.079E-03,   5.14187E-03
C:/temp/dataset/test2/1_3.odb,Step-1,Increment      1: Step Time =    1.000,"PART-1-1",           408,            0.,        -5.625,            0.,NA,NA,"",       1.84675,      -1.84493,  -81.8839E-03,   2.89307E-03
C:/temp/dataset/test2/1_3.odb,Step-1,Increment      1: Step Time =    1.000,"PART-1-1",           409,           -3.,       -4.6875,            0.,NA,NA,"",       2.01972,      -1.95570,  -504.491E-03,   13.2910E-03
C:/temp/dataset/test2/1_3.odb,Step-1,Increment      1: Step Time =    1.000,"PART-1-1",           410,           -2.,        -5.625,            0.,NA,NA,"",       1.86369,      -1.83066,  -349.308E-03,   9.26410E-03
C:/temp/dataset/test2/1_3.odb,Step-1,Increment      1: Step Time =    1.000,"PART-1-1",           411,           -5.,       -4.6875,            0.,NA,NA,"",       2.10411,      -1.95189,  -785.748E-03,   22.0784E-03
C:/temp/dataset/test2/1_3.odb,Step-1,Increment      1: Step Time =    1.000,"PART-1-1",           412,           -4.,        -5.625,            0.,NA,NA,"",       1.92697,      -1.82439,  -620.331E-03,   18.1390E-03
C:/temp/dataset/test2/1_3.odb,Step-1,Increment      1: Step Time =    1.000,"PART-1-1",           413,            3.,       -6.5625,            0.,NA,NA,"",       1.78100,      -1.75295,   314.814E-03,   14.3419E-03
C:/temp/dataset/test2/1_3.odb,Step-1,Increment      1: Step Time =    1.000,"PART-1-1",           414,            4.,          -7.5,            0.,NA,NA,"",       1.70085,      -1.64370,   437.197E-03,   19.3971E-03
C:/temp/dataset/test2/1_3.odb,Step-1,Increment      1: Step Time =    1.000,"PART-1-1",           415,            5.,       -6.5625,            0.,NA,NA,"",       1.87767,      -1.78709,   576.167E-03,   23.5042E-03
C:/temp/dataset/test2/1_3.odb,Step-1,Increment      1: Step Time =    1.000,"PART-1-1",           416,            1.,       -6.5625,            0.,NA,NA,"",       1.72817,      -1.72726,   55.9114E-03,   5.66876E-03
C:/temp/dataset/test2/1_3.odb,Step-1,Increment      1: Step Time =    1.000,"PART-1-1",           417,            2.,          -7.5,            0.,NA,NA,"",       1.62507,      -1.61447,   185.290E-03,   10.1019E-03
C:/temp/dataset/test2/1_3.odb,Step-1,Increment      1: Step Time =    1.000,"PART-1-1",           418,           -1.,       -6.5625,            0.,NA,NA,"",       1.72194,      -1.70994,  -202.921E-03,   5.33465E-03
C:/temp/dataset/test2/1_3.odb,Step-1,Increment      1: Step Time =    1.000,"PART-1-1",           419,            0.,          -7.5,            0.,NA,NA,"",       1.59520,      -1.59386,  -65.3460E-03,   2.89466E-03
C:/temp/dataset/test2/1_3.odb,Step-1,Increment      1: Step Time =    1.000,"PART-1-1",           420,           -3.,       -6.5625,            0.,NA,NA,"",       1.76310,      -1.70092,  -464.116E-03,   14.0242E-03
C:/temp/dataset/test2/1_3.odb,Step-1,Increment      1: Step Time =    1.000,"PART-1-1",           421,           -2.,          -7.5,            0.,NA,NA,"",       1.61328,      -1.58180,  -317.118E-03,   9.73340E-03
C:/temp/dataset/test2/1_3.odb,Step-1,Increment      1: Step Time =    1.000,"PART-1-1",           422,           -5.,       -6.5625,            0.,NA,NA,"",       1.85027,      -1.70011,  -730.164E-03,   23.3343E-03
C:/temp/dataset/test2/1_3.odb,Step-1,Increment      1: Step Time =    1.000,"PART-1-1",           423,           -4.,          -7.5,            0.,NA,NA,"",       1.67888,      -1.57826,  -572.488E-03,   19.1353E-03
C:/temp/dataset/test2/1_3.odb,Step-1,Increment      1: Step Time =    1.000,"PART-1-1",           424,            3.,       -8.4375,            0.,NA,NA,"",       1.53764,      -1.50684,   306.236E-03,   15.1109E-03
C:/temp/dataset/test2/1_3.odb,Step-1,Increment      1: Step Time =    1.000,"PART-1-1",           425,            4.,        -9.375,            0.,NA,NA,"",       1.46571,      -1.40463,   418.734E-03,   20.4202E-03
C:/temp/dataset/test2/1_3.odb,Step-1,Increment      1: Step Time =    1.000,"PART-1-1",           426,            5.,       -8.4375,            0.,NA,NA,"",       1.63561,      -1.53982,   551.529E-03,   24.7769E-03
C:/temp/dataset/test2/1_3.odb,Step-1,Increment      1: Step Time =    1.000,"PART-1-1",           427,            1.,       -8.4375,            0.,NA,NA,"",       1.48404,      -1.48269,   63.4024E-03,   5.90732E-03
C:/temp/dataset/test2/1_3.odb,Step-1,Increment      1: Step Time =    1.000,"PART-1-1",           428,            2.,        -9.375,            0.,NA,NA,"",       1.38888,      -1.37672,   183.313E-03,   10.6133E-03
C:/temp/dataset/test2/1_3.odb,Step-1,Increment      1: Step Time =    1.000,"PART-1-1",           429,           -1.,       -8.4375,            0.,NA,NA,"",       1.47827,      -1.46735,  -179.349E-03,   5.52923E-03
C:/temp/dataset/test2/1_3.odb,Step-1,Increment      1: Step Time =    1.000,"PART-1-1",           430,            0.,        -9.375,            0.,NA,NA,"",       1.35880,      -1.35785,  -50.8199E-03,   2.89652E-03
C:/temp/dataset/test2/1_3.odb,Step-1,Increment      1: Step Time =    1.000,"PART-1-1",           431,           -3.,       -8.4375,            0.,NA,NA,"",       1.52120,      -1.46078,  -424.456E-03,   14.7568E-03
C:/temp/dataset/test2/1_3.odb,Step-1,Increment      1: Step Time =    1.000,"PART-1-1",           432,           -2.,        -9.375,            0.,NA,NA,"",       1.37801,      -1.34799,  -286.073E-03,   10.2028E-03
C:/temp/dataset/test2/1_3.odb,Step-1,Increment      1: Step Time =    1.000,"PART-1-1",           433,           -5.,       -8.4375,            0.,NA,NA,"",       1.61093,      -1.46296,  -674.413E-03,   24.5889E-03
C:/temp/dataset/test2/1_3.odb,Step-1,Increment      1: Step Time =    1.000,"PART-1-1",           434,           -4.,        -9.375,            0.,NA,NA,"",       1.44580,      -1.34715,  -524.915E-03,   20.1305E-03
C:/temp/dataset/test2/1_3.odb,Step-1,Increment      1: Step Time =    1.000,"PART-1-1",           435,            3.,      -10.3125,            0.,NA,NA,"",       1.30976,      -1.27625,   294.377E-03,   15.8810E-03
C:/temp/dataset/test2/1_3.odb,Step-1,Increment      1: Step Time =    1.000,"PART-1-1",           436,            4.,        -11.25,            0.,NA,NA,"",       1.24631,      -1.18153,   396.585E-03,   21.4434E-03
C:/temp/dataset/test2/1_3.odb,Step-1,Increment      1: Step Time =    1.000,"PART-1-1",           437,            5.,      -10.3125,            0.,NA,NA,"",       1.40871,      -1.30811,   522.771E-03,   26.0494E-03
C:/temp/dataset/test2/1_3.odb,Step-1,Increment      1: Step Time =    1.000,"PART-1-1",           438,            1.,      -10.3125,            0.,NA,NA,"",       1.25547,      -1.25360,   68.4632E-03,   6.14984E-03
C:/temp/dataset/test2/1_3.odb,Step-1,Increment      1: Step Time =    1.000,"PART-1-1",           439,            2.,        -11.25,            0.,NA,NA,"",       1.16862,      -1.15490,   178.496E-03,   11.1268E-03
C:/temp/dataset/test2/1_3.odb,Step-1,Increment      1: Step Time =    1.000,"PART-1-1",           440,           -1.,      -10.3125,            0.,NA,NA,"",       1.25014,      -1.24020,  -157.347E-03,   5.72521E-03
C:/temp/dataset/test2/1_3.odb,Step-1,Increment      1: Step Time =    1.000,"PART-1-1",           441,            0.,        -11.25,            0.,NA,NA,"",       1.13836,      -1.13772,  -38.2795E-03,   2.89868E-03
C:/temp/dataset/test2/1_3.odb,Step-1,Increment      1: Step Time =    1.000,"PART-1-1",           442,           -3.,      -10.3125,            0.,NA,NA,"",       1.29478,      -1.23606,  -385.493E-03,   15.4887E-03
C:/temp/dataset/test2/1_3.odb,Step-1,Increment      1: Step Time =    1.000,"PART-1-1",           443,           -2.,        -11.25,            0.,NA,NA,"",       1.15868,      -1.13001,  -256.148E-03,   10.6722E-03
C:/temp/dataset/test2/1_3.odb,Step-1,Increment      1: Step Time =    1.000,"PART-1-1",           444,           -5.,      -10.3125,            0.,NA,NA,"",       1.38675,      -1.24120,  -618.475E-03,   25.8423E-03
C:/temp/dataset/test2/1_3.odb,Step-1,Increment      1: Step Time =    1.000,"PART-1-1",           445,           -4.,        -11.25,            0.,NA,NA,"",       1.22846,      -1.13183,  -477.580E-03,   21.1243E-03
C:/temp/dataset/test2/1_3.odb,Step-1,Increment      1: Step Time =    1.000,"PART-1-1",           446,            3.,      -12.1875,            0.,NA,NA,"",       1.09813,      -1.06203,   279.274E-03,   16.6519E-03
C:/temp/dataset/test2/1_3.odb,Step-1,Increment      1: Step Time =    1.000,"PART-1-1",           447,            4.,       -13.125,            0.,NA,NA,"",       1.04336,  -975.249E-03,   370.798E-03,   22.4666E-03
C:/temp/dataset/test2/1_3.odb,Step-1,Increment      1: Step Time =    1.000,"PART-1-1",           448,            5.,      -12.1875,            0.,NA,NA,"",       1.19763,      -1.09283,   489.930E-03,   27.3214E-03
C:/temp/dataset/test2/1_3.odb,Step-1,Increment      1: Step Time =    1.000,"PART-1-1",           449,            1.,      -12.1875,            0.,NA,NA,"",       1.04326,      -1.04083,   71.1298E-03,   6.39602E-03
C:/temp/dataset/test2/1_3.odb,Step-1,Increment      1: Step Time =    1.000,"PART-1-1",           450,            2.,       -13.125,            0.,NA,NA,"",   965.089E-03,  -949.839E-03,   170.884E-03,   11.6420E-03
C:/temp/dataset/test2/1_3.odb,Step-1,Increment      1: Step Time =    1.000,"PART-1-1",           451,           -1.,      -12.1875,            0.,NA,NA,"",       1.03837,      -1.02931,  -136.878E-03,   5.92221E-03
C:/temp/dataset/test2/1_3.odb,Step-1,Increment      1: Step Time =    1.000,"PART-1-1",           452,            0.,       -13.125,            0.,NA,NA,"",   934.681E-03,  -934.271E-03,  -27.6783E-03,   2.90119E-03
C:/temp/dataset/test2/1_3.odb,Step-1,Increment      1: Step Time =    1.000,"PART-1-1",           453,           -3.,      -12.1875,            0.,NA,NA,"",       1.08460,      -1.02753,  -347.189E-03,   16.2195E-03
C:/temp/dataset/test2/1_3.odb,Step-1,Increment      1: Step Time =    1.000,"PART-1-1",           454,           -2.,       -13.125,            0.,NA,NA,"",   956.052E-03,  -928.641E-03,  -227.294E-03,   11.1411E-03
C:/temp/dataset/test2/1_3.odb,Step-1,Increment      1: Step Time =    1.000,"PART-1-1",           455,           -5.,      -12.1875,            0.,NA,NA,"",       1.17839,      -1.03557,  -562.308E-03,   27.0944E-03
C:/temp/dataset/test2/1_3.odb,Step-1,Increment      1: Step Time =    1.000,"PART-1-1",           456,           -4.,       -13.125,            0.,NA,NA,"",       1.02755,  -933.049E-03,  -430.436E-03,   22.1169E-03
C:/temp/dataset/test2/1_3.odb,Step-1,Increment      1: Step Time =    1.000,"PART-1-1",           457,            3.,      -14.0625,            0.,NA,NA,"",   903.535E-03,  -865.022E-03,   260.985E-03,   17.4235E-03
C:/temp/dataset/test2/1_3.odb,Step-1,Increment      1: Step Time =    1.000,"PART-1-1",           458,            4.,          -15.,            0.,NA,NA,"",   857.560E-03,  -786.655E-03,   341.441E-03,   23.4894E-03
C:/temp/dataset/test2/1_3.odb,Step-1,Increment      1: Step Time =    1.000,"PART-1-1",           459,            5.,      -14.0625,            0.,NA,NA,"",       1.00300,  -894.837E-03,   453.065E-03,   28.5926E-03
C:/temp/dataset/test2/1_3.odb,Step-1,Increment      1: Step Time =    1.000,"PART-1-1",           460,            1.,      -14.0625,            0.,NA,NA,"",   848.208E-03,  -845.193E-03,   71.4592E-03,   6.64571E-03
C:/temp/dataset/test2/1_3.odb,Step-1,Increment      1: Step Time =    1.000,"PART-1-1",           461,            2.,          -15.,            0.,NA,NA,"",   779.088E-03,  -762.367E-03,   160.545E-03,   12.1590E-03
C:/temp/dataset/test2/1_3.odb,Step-1,Increment      1: Step Time =    1.000,"PART-1-1",           462,           -1.,      -14.0625,            0.,NA,NA,"",   843.744E-03,  -835.468E-03,  -117.885E-03,   6.11979E-03
C:/temp/dataset/test2/1_3.odb,Step-1,Increment      1: Step Time =    1.000,"PART-1-1",           463,            0.,          -15.,            0.,NA,NA,"",   748.563E-03,  -748.323E-03,  -18.9488E-03,   2.90413E-03
C:/temp/dataset/test2/1_3.odb,Step-1,Increment      1: Step Time =    1.000,"PART-1-1",           464,           -3.,      -14.0625,            0.,NA,NA,"",   891.423E-03,  -835.974E-03,  -309.486E-03,   16.9493E-03
C:/temp/dataset/test2/1_3.odb,Step-1,Increment      1: Step Time =    1.000,"PART-1-1",           465,           -2.,          -15.,            0.,NA,NA,"",   770.922E-03,  -744.676E-03,  -199.443E-03,   11.6092E-03
C:/temp/dataset/test2/1_3.odb,Step-1,Increment      1: Step Time =    1.000,"PART-1-1",           466,           -5.,      -14.0625,            0.,NA,NA,"",   986.425E-03,  -846.845E-03,  -505.855E-03,   28.3453E-03
C:/temp/dataset/test2/1_3.odb,Step-1,Increment      1: Step Time =    1.000,"PART-1-1",           467,           -4.,          -15.,            0.,NA,NA,"",   843.733E-03,  -751.586E-03,  -383.412E-03,   23.1081E-03
C:/temp/dataset/test2/1_3.odb,Step-1,Increment      1: Step Time =    1.000,"PART-1-1",           468,            3.,      -15.9375,            0.,NA,NA,"",   726.710E-03,  -686.079E-03,   239.590E-03,   18.1954E-03
C:/temp/dataset/test2/1_3.odb,Step-1,Increment      1: Step Time =    1.000,"PART-1-1",           469,            4.,       -16.875,            0.,NA,NA,"",   689.523E-03,  -616.605E-03,   308.609E-03,   24.5112E-03
C:/temp/dataset/test2/1_3.odb,Step-1,Increment      1: Step Time =    1.000,"PART-1-1",           470,            5.,      -15.9375,            0.,NA,NA,"",   825.342E-03,  -715.007E-03,   412.257E-03,   29.8623E-03
C:/temp/dataset/test2/1_3.odb,Step-1,Increment      1: Step Time =    1.000,"PART-1-1",           471,            1.,      -15.9375,            0.,NA,NA,"",   671.121E-03,  -667.510E-03,   69.5300E-03,   6.89923E-03
C:/temp/dataset/test2/1_3.odb,Step-1,Increment      1: Step Time =    1.000,"PART-1-1",           472,            2.,       -16.875,            0.,NA,NA,"",   611.399E-03,  -593.323E-03,   147.571E-03,   12.6779E-03
C:/temp/dataset/test2/1_3.odb,Step-1,Increment      1: Step Time =    1.000,"PART-1-1",           473,           -1.,      -15.9375,            0.,NA,NA,"",   667.057E-03,  -659.475E-03,  -100.289E-03,   6.31755E-03
C:/temp/dataset/test2/1_3.odb,Step-1,Increment      1: Step Time =    1.000,"PART-1-1",           474,            0.,       -16.875,            0.,NA,NA,"",   580.807E-03,  -580.683E-03,  -12.0016E-03,   2.90788E-03
C:/temp/dataset/test2/1_3.odb,Step-1,Increment      1: Step Time =    1.000,"PART-1-1",           475,           -3.,      -15.9375,            0.,NA,NA,"",   715.965E-03,  -662.161E-03,  -272.303E-03,   17.6778E-03
C:/temp/dataset/test2/1_3.odb,Step-1,Increment      1: Step Time =    1.000,"PART-1-1",           476,           -2.,       -16.875,            0.,NA,NA,"",   604.056E-03,  -578.900E-03,  -172.505E-03,   12.0764E-03
C:/temp/dataset/test2/1_3.odb,Step-1,Increment      1: Step Time =    1.000,"PART-1-1",           477,           -5.,      -15.9375,            0.,NA,NA,"",   811.344E-03,  -675.759E-03,  -449.031E-03,   29.5954E-03
C:/temp/dataset/test2/1_3.odb,Step-1,Increment      1: Step Time =    1.000,"PART-1-1",           478,           -4.,       -16.875,            0.,NA,NA,"",   677.605E-03,  -588.195E-03,  -336.417E-03,   24.0985E-03
C:/temp/dataset/test2/1_3.odb,Step-1,Increment      1: Step Time =    1.000,"PART-1-1",           479,            3.,      -17.8125,            0.,NA,NA,"",   568.362E-03,  -526.048E-03,   215.194E-03,   18.9679E-03
C:/temp/dataset/test2/1_3.odb,Step-1,Increment      1: Step Time =    1.000,"PART-1-1",           480,            4.,        -18.75,            0.,NA,NA,"",   539.756E-03,  -465.965E-03,   272.421E-03,   25.5303E-03
C:/temp/dataset/test2/1_3.odb,Step-1,Increment      1: Step Time =    1.000,"PART-1-1",           481,            5.,      -17.8125,            0.,NA,NA,"",   665.051E-03,  -554.214E-03,   367.613E-03,   31.1283E-03
C:/temp/dataset/test2/1_3.odb,Step-1,Increment      1: Step Time =    1.000,"PART-1-1",           482,            1.,      -17.8125,            0.,NA,NA,"",   512.800E-03,  -508.607E-03,   65.4426E-03,   7.15781E-03
C:/temp/dataset/test2/1_3.odb,Step-1,Increment      1: Step Time =    1.000,"PART-1-1",           483,            2.,        -18.75,            0.,NA,NA,"",   462.790E-03,  -443.544E-03,   132.074E-03,   13.2003E-03
C:/temp/dataset/test2/1_3.odb,Step-1,Increment      1: Step Time =    1.000,"PART-1-1",           484,           -1.,      -17.8125,            0.,NA,NA,"",   509.104E-03,  -502.128E-03,  -83.9889E-03,   6.51551E-03
C:/temp/dataset/test2/1_3.odb,Step-1,Increment      1: Step Time =    1.000,"PART-1-1",           485,            0.,        -18.75,            0.,NA,NA,"",   432.213E-03,  -432.161E-03,  -6.72549E-03,   2.91451E-03
C:/temp/dataset/test2/1_3.odb,Step-1,Increment      1: Step Time =    1.000,"PART-1-1",           486,           -3.,      -17.8125,            0.,NA,NA,"",   558.917E-03,  -506.863E-03,  -235.540E-03,   18.4057E-03
C:/temp/dataset/test2/1_3.odb,Step-1,Increment      1: Step Time =    1.000,"PART-1-1",           487,           -2.,        -18.75,            0.,NA,NA,"",   456.214E-03,  -432.097E-03,  -146.366E-03,   12.5433E-03
C:/temp/dataset/test2/1_3.odb,Step-1,Increment      1: Step Time =    1.000,"PART-1-1",           488,           -5.,      -17.8125,            0.,NA,NA,"",   653.490E-03,  -523.063E-03,  -391.732E-03,   30.8449E-03
C:/temp/dataset/test2/1_3.odb,Step-1,Increment      1: Step Time =    1.000,"PART-1-1",           489,           -4.,        -18.75,            0.,NA,NA,"",   529.649E-03,  -443.637E-03,  -289.334E-03,   25.0879E-03
C:/temp/dataset/test2/1_3.odb,Step-1,Increment      1: Step Time =    1.000,"PART-1-1",           490,            3.,      -19.6875,            0.,NA,NA,"",   429.120E-03,  -385.784E-03,   187.923E-03,   19.7413E-03
C:/temp/dataset/test2/1_3.odb,Step-1,Increment      1: Step Time =    1.000,"PART-1-1",           491,            4.,       -20.625,            0.,NA,NA,"",   408.567E-03,  -335.598E-03,   233.025E-03,   26.5461E-03
C:/temp/dataset/test2/1_3.odb,Step-1,Increment      1: Step Time =    1.000,"PART-1-1",           492,            5.,      -19.6875,            0.,NA,NA,"",   522.286E-03,  -413.338E-03,   319.272E-03,   32.3874E-03
C:/temp/dataset/test2/1_3.odb,Step-1,Increment      1: Step Time =    1.000,"PART-1-1",           493,            1.,      -19.6875,            0.,NA,NA,"",   374.039E-03,  -369.305E-03,   59.3190E-03,   7.42846E-03
C:/temp/dataset/test2/1_3.odb,Step-1,Increment      1: Step Time =    1.000,"PART-1-1",           494,            2.,       -20.625,            0.,NA,NA,"",   333.988E-03,  -313.864E-03,   114.183E-03,   13.7309E-03
C:/temp/dataset/test2/1_3.odb,Step-1,Increment      1: Step Time =    1.000,"PART-1-1",           495,           -1.,      -19.6875,            0.,NA,NA,"",   370.675E-03,  -364.222E-03,  -68.8608E-03,   6.71854E-03
C:/temp/dataset/test2/1_3.odb,Step-1,Increment      1: Step Time =    1.000,"PART-1-1",           496,            0.,       -20.625,            0.,NA,NA,"",   303.565E-03,  -303.550E-03,  -2.98534E-03,   2.93071E-03
C:/temp/dataset/test2/1_3.odb,Step-1,Increment      1: Step Time =    1.000,"PART-1-1",           497,           -3.,      -19.6875,            0.,NA,NA,"",   420.906E-03,  -370.856E-03,  -199.067E-03,   19.1334E-03
C:/temp/dataset/test2/1_3.odb,Step-1,Increment      1: Step Time =    1.000,"PART-1-1",           498,           -2.,       -20.625,            0.,NA,NA,"",   328.127E-03,  -305.049E-03,  -120.882E-03,   13.0139E-03
C:/temp/dataset/test2/1_3.odb,Step-1,Increment      1: Step Time =    1.000,"PART-1-1",           499,           -5.,      -19.6875,            0.,NA,NA,"",   512.990E-03,  -389.508E-03,  -333.830E-03,   32.0958E-03
C:/temp/dataset/test2/1_3.odb,Step-1,Increment      1: Step Time =    1.000,"PART-1-1",           500,           -4.,       -20.625,            0.,NA,NA,"",   400.163E-03,  -318.675E-03,  -242.026E-03,   26.0793E-03
C:/temp/dataset/test2/1_3.odb,Step-1,Increment      1: Step Time =    1.000,"PART-1-1",           501,            3.,      -21.5625,            0.,NA,NA,"",   309.459E-03,  -266.131E-03,   157.920E-03,   20.5322E-03
C:/temp/dataset/test2/1_3.odb,Step-1,Increment      1: Step Time =    1.000,"PART-1-1",           502,            4.,         -22.5,            0.,NA,NA,"",   295.949E-03,  -226.390E-03,   190.612E-03,   27.5379E-03
C:/temp/dataset/test2/1_3.odb,Step-1,Increment      1: Step Time =    1.000,"PART-1-1",           503,            5.,      -21.5625,            0.,NA,NA,"",   396.868E-03,  -293.253E-03,   267.407E-03,   33.6087E-03
C:/temp/dataset/test2/1_3.odb,Step-1,Increment      1: Step Time =    1.000,"PART-1-1",           504,            1.,      -21.5625,            0.,NA,NA,"",   255.602E-03,  -250.403E-03,   51.2883E-03,   7.72658E-03
C:/temp/dataset/test2/1_3.odb,Step-1,Increment      1: Step Time =    1.000,"PART-1-1",           505,            2.,         -22.5,            0.,NA,NA,"",   225.634E-03,  -205.103E-03,   94.0392E-03,   14.3046E-03
C:/temp/dataset/test2/1_3.odb,Step-1,Increment      1: Step Time =    1.000,"PART-1-1",           506,           -1.,      -21.5625,            0.,NA,NA,"",   252.538E-03,  -246.535E-03,  -54.7371E-03,   6.94241E-03
C:/temp/dataset/test2/1_3.odb,Step-1,Increment      1: Step Time =    1.000,"PART-1-1",           507,            0.,         -22.5,            0.,NA,NA,"",   195.641E-03,  -195.640E-03,  -621.731E-06,   2.99111E-03
C:/temp/dataset/test2/1_3.odb,Step-1,Increment      1: Step Time =    1.000,"PART-1-1",           508,           -3.,      -21.5625,            0.,NA,NA,"",   302.423E-03,  -254.914E-03,  -162.723E-03,   19.8778E-03
C:/temp/dataset/test2/1_3.odb,Step-1,Increment      1: Step Time =    1.000,"PART-1-1",           509,           -2.,         -22.5,            0.,NA,NA,"",   220.472E-03,  -198.538E-03,  -95.8674E-03,   13.5230E-03
C:/temp/dataset/test2/1_3.odb,Step-1,Increment      1: Step Time =    1.000,"PART-1-1",           510,           -5.,      -21.5625,            0.,NA,NA,"",   389.629E-03,  -275.846E-03,  -275.173E-03,   33.3235E-03
C:/temp/dataset/test2/1_3.odb,Step-1,Increment      1: Step Time =    1.000,"PART-1-1",           511,           -4.,         -22.5,            0.,NA,NA,"",   289.148E-03,  -214.103E-03,  -194.335E-03,   27.0543E-03
C:/temp/dataset/test2/1_3.odb,Step-1,Increment      1: Step Time =    1.000,"PART-1-1",           512,            3.,      -23.4375,            0.,NA,NA,"",   209.576E-03,  -167.955E-03,   125.353E-03,   21.3421E-03
C:/temp/dataset/test2/1_3.odb,Step-1,Increment      1: Step Time =    1.000,"PART-1-1",           513,            4.,       -24.375,            0.,NA,NA,"",   201.220E-03,  -139.102E-03,   145.396E-03,   28.5447E-03
C:/temp/dataset/test2/1_3.odb,Step-1,Increment      1: Step Time =    1.000,"PART-1-1",           514,            5.,      -23.4375,            0.,NA,NA,"",   288.163E-03,  -194.844E-03,   212.305E-03,   34.7917E-03
C:/temp/dataset/test2/1_3.odb,Step-1,Increment      1: Step Time =    1.000,"PART-1-1",           515,            1.,      -23.4375,            0.,NA,NA,"",   158.229E-03,  -152.687E-03,   41.5111E-03,   8.09852E-03
C:/temp/dataset/test2/1_3.odb,Step-1,Increment      1: Step Time =    1.000,"PART-1-1",           516,            2.,       -24.375,            0.,NA,NA,"",   138.087E-03,  -118.028E-03,   71.6765E-03,   14.9344E-03
C:/temp/dataset/test2/1_3.odb,Step-1,Increment      1: Step Time =    1.000,"PART-1-1",           517,           -1.,      -23.4375,            0.,NA,NA,"",   155.458E-03,  -149.836E-03,  -41.4287E-03,   7.23619E-03
C:/temp/dataset/test2/1_3.odb,Step-1,Increment      1: Step Time =    1.000,"PART-1-1",           518,            0.,       -24.375,            0.,NA,NA,"",   109.144E-03,  -109.142E-03,   562.088E-06,   3.13547E-03
C:/temp/dataset/test2/1_3.odb,Step-1,Increment      1: Step Time =    1.000,"PART-1-1",           519,           -3.,      -23.4375,            0.,NA,NA,"",   203.738E-03,  -159.857E-03,  -126.312E-03,   20.6418E-03
C:/temp/dataset/test2/1_3.odb,Step-1,Increment      1: Step Time =    1.000,"PART-1-1",           520,           -2.,       -24.375,            0.,NA,NA,"",   133.710E-03,  -113.326E-03,  -70.9622E-03,   14.0877E-03
C:/temp/dataset/test2/1_3.odb,Step-1,Increment      1: Step Time =    1.000,"PART-1-1",           521,           -5.,      -23.4375,            0.,NA,NA,"",   282.731E-03,  -182.854E-03,  -215.642E-03,   34.5372E-03
C:/temp/dataset/test2/1_3.odb,Step-1,Increment      1: Step Time =    1.000,"PART-1-1",           522,           -4.,       -24.375,            0.,NA,NA,"",   195.981E-03,  -130.647E-03,  -146.082E-03,   28.0621E-03
C:/temp/dataset/test2/1_3.odb,Step-1,Increment      1: Step Time =    1.000,"PART-1-1",           523,            3.,      -25.3125,            0.,NA,NA,"",   128.785E-03,  -91.9096E-03,   90.2117E-03,   22.3797E-03
C:/temp/dataset/test2/1_3.odb,Step-1,Increment      1: Step Time =    1.000,"PART-1-1",           524,            4.,        -26.25,            0.,NA,NA,"",   123.018E-03,  -74.5679E-03,   97.8419E-03,   29.4380E-03
C:/temp/dataset/test2/1_3.odb,Step-1,Increment      1: Step Time =    1.000,"PART-1-1",           525,            5.,      -25.3125,            0.,NA,NA,"",   194.719E-03,  -118.733E-03,   154.331E-03,   35.5268E-03
C:/temp/dataset/test2/1_3.odb,Step-1,Increment      1: Step Time =    1.000,"PART-1-1",           526,            1.,      -25.3125,            0.,NA,NA,"",   82.5058E-03,  -76.8581E-03,   30.0007E-03,   8.53847E-03
C:/temp/dataset/test2/1_3.odb,Step-1,Increment      1: Step Time =    1.000,"PART-1-1",           527,            2.,        -26.25,            0.,NA,NA,"",   71.3466E-03,  -53.3595E-03,   47.3613E-03,   15.7740E-03
C:/temp/dataset/test2/1_3.odb,Step-1,Increment      1: Step Time =    1.000,"PART-1-1",           528,           -1.,      -25.3125,            0.,NA,NA,"",   80.0904E-03,  -74.8440E-03,  -28.5106E-03,   7.61670E-03
C:/temp/dataset/test2/1_3.odb,Step-1,Increment      1: Step Time =    1.000,"PART-1-1",           529,            0.,        -26.25,            0.,NA,NA,"",   44.9716E-03,  -44.9646E-03,   796.077E-06,   3.31772E-03
C:/temp/dataset/test2/1_3.odb,Step-1,Increment      1: Step Time =    1.000,"PART-1-1",           530,           -3.,      -25.3125,            0.,NA,NA,"",   124.285E-03,  -86.3546E-03,  -89.3845E-03,   21.6563E-03
C:/temp/dataset/test2/1_3.odb,Step-1,Increment      1: Step Time =    1.000,"PART-1-1",           531,           -2.,        -26.25,            0.,NA,NA,"",   68.0424E-03,  -50.1662E-03,  -45.9688E-03,   14.9098E-03
C:/temp/dataset/test2/1_3.odb,Step-1,Increment      1: Step Time =    1.000,"PART-1-1",           532,           -5.,      -25.3125,            0.,NA,NA,"",   190.866E-03,  -111.143E-03,  -155.167E-03,   35.2928E-03
C:/temp/dataset/test2/1_3.odb,Step-1,Increment      1: Step Time =    1.000,"PART-1-1",           533,           -4.,        -26.25,            0.,NA,NA,"",   119.341E-03,  -69.1978E-03,  -97.2312E-03,   28.9656E-03
C:/temp/dataset/test2/1_3.odb,Step-1,Increment      1: Step Time =    1.000,"PART-1-1",           534,            3.,      -27.1875,            0.,NA,NA,"",   65.2903E-03,  -38.2357E-03,   52.9231E-03,   22.9877E-03
C:/temp/dataset/test2/1_3.odb,Step-1,Increment      1: Step Time =    1.000,"PART-1-1",           535,            4.,       -28.125,            0.,NA,NA,"",   55.9060E-03,  -29.6712E-03,   47.3826E-03,   30.7283E-03
C:/temp/dataset/test2/1_3.odb,Step-1,Increment      1: Step Time =    1.000,"PART-1-1",           536,            5.,      -27.1875,            0.,NA,NA,"",   115.545E-03,  -65.2704E-03,   95.3439E-03,   36.5551E-03
C:/temp/dataset/test2/1_3.odb,Step-1,Increment      1: Step Time =    1.000,"PART-1-1",           537,            1.,      -27.1875,            0.,NA,NA,"",   29.8098E-03,  -24.2726E-03,   17.3050E-03,   8.51626E-03
C:/temp/dataset/test2/1_3.odb,Step-1,Increment      1: Step Time =    1.000,"PART-1-1",           538,            2.,       -28.125,            0.,NA,NA,"",   24.8290E-03,  -12.1631E-03,   21.6458E-03,   15.8495E-03
C:/temp/dataset/test2/1_3.odb,Step-1,Increment      1: Step Time =    1.000,"PART-1-1",           539,           -1.,      -27.1875,            0.,NA,NA,"",   28.0034E-03,  -22.9666E-03,  -16.0227E-03,   7.67180E-03
C:/temp/dataset/test2/1_3.odb,Step-1,Increment      1: Step Time =    1.000,"PART-1-1",           540,            0.,       -28.125,            0.,NA,NA,"",   5.77667E-03,  -5.76215E-03,   409.392E-06,   2.40299E-03
C:/temp/dataset/test2/1_3.odb,Step-1,Increment      1: Step Time =    1.000,"PART-1-1",           541,           -3.,      -27.1875,            0.,NA,NA,"",   62.4116E-03,  -34.7608E-03,  -51.8353E-03,   22.2506E-03
C:/temp/dataset/test2/1_3.odb,Step-1,Increment      1: Step Time =    1.000,"PART-1-1",           542,           -2.,       -28.125,            0.,NA,NA,"",   23.2473E-03,  -10.3599E-03,  -20.8113E-03,   15.0200E-03
C:/temp/dataset/test2/1_3.odb,Step-1,Increment      1: Step Time =    1.000,"PART-1-1",           543,           -5.,      -27.1875,            0.,NA,NA,"",   113.015E-03,  -61.0795E-03,  -95.0873E-03,   36.3808E-03
C:/temp/dataset/test2/1_3.odb,Step-1,Increment      1: Step Time =    1.000,"PART-1-1",           544,           -4.,       -28.125,            0.,NA,NA,"",   53.7636E-03,  -26.7761E-03,  -46.6215E-03,   30.2688E-03
C:/temp/dataset/test2/1_3.odb,Step-1,Increment      1: Step Time =    1.000,"PART-1-1",           545,            3.,      -29.0625,            0.,NA,NA,"",   16.1399E-03,  -5.02897E-03,   15.3364E-03,   20.3822E-03
C:/temp/dataset/test2/1_3.odb,Step-1,Increment      1: Step Time =    1.000,"PART-1-1",           546,            4.,          -30.,            0.,NA,NA,"",            0.,   708.211E-42,   37.4862E-39,   29.8687E-03
C:/temp/dataset/test2/1_3.odb,Step-1,Increment      1: Step Time =    1.000,"PART-1-1",           547,            5.,      -29.0625,            0.,NA,NA,"",   42.4570E-03,  -27.4715E-03,   32.3715E-03,   39.0248E-03
C:/temp/dataset/test2/1_3.odb,Step-1,Increment      1: Step Time =    1.000,"PART-1-1",           548,            1.,      -29.0625,            0.,NA,NA,"",   5.18414E-03,   1.17004E-03,   5.05038E-03,   6.54856E-03
C:/temp/dataset/test2/1_3.odb,Step-1,Increment      1: Step Time =    1.000,"PART-1-1",           549,            2.,          -30.,            0.,NA,NA,"",            0.,   2.43094E-39,   18.8586E-39,   12.1169E-03
C:/temp/dataset/test2/1_3.odb,Step-1,Increment      1: Step Time =    1.000,"PART-1-1",           550,           -1.,      -29.0625,            0.,NA,NA,"",   5.04497E-03,   1.70905E-03,  -4.74667E-03,   6.20027E-03
C:/temp/dataset/test2/1_3.odb,Step-1,Increment      1: Step Time =    1.000,"PART-1-1",           551,            0.,          -30.,            0.,NA,NA,"",            0.,   4.18119E-39,   49.5191E-42,   4.55697E-03
C:/temp/dataset/test2/1_3.odb,Step-1,Increment      1: Step Time =    1.000,"PART-1-1",           552,           -3.,      -29.0625,            0.,NA,NA,"",   15.3873E-03,  -3.59649E-03,  -14.9611E-03,   19.8273E-03
C:/temp/dataset/test2/1_3.odb,Step-1,Increment      1: Step Time =    1.000,"PART-1-1",           553,           -2.,          -30.,            0.,NA,NA,"",            0.,   2.76499E-39,  -18.6414E-39,   12.0737E-03
C:/temp/dataset/test2/1_3.odb,Step-1,Increment      1: Step Time =    1.000,"PART-1-1",           554,           -5.,      -29.0625,            0.,NA,NA,"",   41.2212E-03,  -26.1225E-03,  -31.8874E-03,   38.3055E-03
C:/temp/dataset/test2/1_3.odb,Step-1,Increment      1: Step Time =    1.000,"PART-1-1",           555,           -4.,          -30.,            0.,NA,NA,"",            0.,   1.08264E-39,  -36.7655E-39,   29.0450E-03
