ODB Name,Step,Frame,Part Instance Name,    êﬂì_ÉâÉxÉã,X,Y,Z,Section Name,Material Name,Section Point,   U-Magnitude,          U-U1,          U-U2,       S-Mises
C:/temp/dataset/test2/1_6.odb,Step-1,Increment      4: Step Time =    1.000,"PART-1-1",             1,            5.,           30.,            0.,NA,NA,"",       16.9576,      -16.9403,  -766.699E-03,   6.02631E-03
C:/temp/dataset/test2/1_6.odb,Step-1,Increment      4: Step Time =    1.000,"PART-1-1",             2,            3.,           30.,            0.,NA,NA,"",       16.8363,      -16.7639,      -1.56009,   6.37522E-03
C:/temp/dataset/test2/1_6.odb,Step-1,Increment      4: Step Time =    1.000,"PART-1-1",             3,            1.,           30.,            0.,NA,NA,"",       16.7555,      -16.5899,      -2.34971,   4.86116E-03
C:/temp/dataset/test2/1_6.odb,Step-1,Increment      4: Step Time =    1.000,"PART-1-1",             4,           -1.,           30.,            0.,NA,NA,"",       16.7184,      -16.4214,      -3.13761,   2.18242E-03
C:/temp/dataset/test2/1_6.odb,Step-1,Increment      4: Step Time =    1.000,"PART-1-1",             5,           -3.,           30.,            0.,NA,NA,"",       16.7245,      -16.2568,      -3.92733,   285.644E-06
C:/temp/dataset/test2/1_6.odb,Step-1,Increment      4: Step Time =    1.000,"PART-1-1",             6,           -5.,           30.,            0.,NA,NA,"",       16.7710,      -16.0931,      -4.71994,   148.132E-06
C:/temp/dataset/test2/1_6.odb,Step-1,Increment      4: Step Time =    1.000,"PART-1-1",             7,            5.,        28.125,            0.,NA,NA,"",       16.2011,      -16.1894,  -614.875E-03,   6.35820E-03
C:/temp/dataset/test2/1_6.odb,Step-1,Increment      4: Step Time =    1.000,"PART-1-1",             8,            3.,        28.125,            0.,NA,NA,"",       16.0756,      -16.0137,      -1.40935,   5.92600E-03
C:/temp/dataset/test2/1_6.odb,Step-1,Increment      4: Step Time =    1.000,"PART-1-1",             9,            1.,        28.125,            0.,NA,NA,"",       15.9946,      -15.8428,      -2.19831,   4.74796E-03
C:/temp/dataset/test2/1_6.odb,Step-1,Increment      4: Step Time =    1.000,"PART-1-1",            10,           -1.,        28.125,            0.,NA,NA,"",       15.9583,      -15.6766,      -2.98507,   3.66275E-03
C:/temp/dataset/test2/1_6.odb,Step-1,Increment      4: Step Time =    1.000,"PART-1-1",            11,           -3.,        28.125,            0.,NA,NA,"",       15.9651,      -15.5128,      -3.77350,   1.91672E-03
C:/temp/dataset/test2/1_6.odb,Step-1,Increment      4: Step Time =    1.000,"PART-1-1",            12,           -5.,        28.125,            0.,NA,NA,"",       16.0138,      -15.3491,      -4.56607,   246.929E-06
C:/temp/dataset/test2/1_6.odb,Step-1,Increment      4: Step Time =    1.000,"PART-1-1",            13,            5.,         26.25,            0.,NA,NA,"",       15.4386,      -15.4317,  -458.828E-03,   5.07144E-03
C:/temp/dataset/test2/1_6.odb,Step-1,Increment      4: Step Time =    1.000,"PART-1-1",            14,            3.,         26.25,            0.,NA,NA,"",       15.3099,      -15.2583,      -1.25621,   6.32083E-03
C:/temp/dataset/test2/1_6.odb,Step-1,Increment      4: Step Time =    1.000,"PART-1-1",            15,            1.,         26.25,            0.,NA,NA,"",       15.2290,      -15.0912,      -2.04407,   5.72861E-03
C:/temp/dataset/test2/1_6.odb,Step-1,Increment      4: Step Time =    1.000,"PART-1-1",            16,           -1.,         26.25,            0.,NA,NA,"",       15.1936,      -14.9278,      -2.82954,   5.01390E-03
C:/temp/dataset/test2/1_6.odb,Step-1,Increment      4: Step Time =    1.000,"PART-1-1",            17,           -3.,         26.25,            0.,NA,NA,"",       15.2026,      -14.7661,      -3.61694,   3.61038E-03
C:/temp/dataset/test2/1_6.odb,Step-1,Increment      4: Step Time =    1.000,"PART-1-1",            18,           -5.,         26.25,            0.,NA,NA,"",       15.2550,      -14.6037,      -4.41000,   1.84331E-03
C:/temp/dataset/test2/1_6.odb,Step-1,Increment      4: Step Time =    1.000,"PART-1-1",            19,            5.,        24.375,            0.,NA,NA,"",       14.6746,      -14.6714,  -308.623E-03,   6.32481E-03
C:/temp/dataset/test2/1_6.odb,Step-1,Increment      4: Step Time =    1.000,"PART-1-1",            20,            3.,        24.375,            0.,NA,NA,"",       14.5442,      -14.5023,      -1.10244,   4.79108E-03
C:/temp/dataset/test2/1_6.odb,Step-1,Increment      4: Step Time =    1.000,"PART-1-1",            21,            1.,        24.375,            0.,NA,NA,"",       14.4627,      -14.3388,      -1.88862,   5.97391E-03
C:/temp/dataset/test2/1_6.odb,Step-1,Increment      4: Step Time =    1.000,"PART-1-1",            22,           -1.,        24.375,            0.,NA,NA,"",       14.4279,      -14.1783,      -2.67207,   5.85955E-03
C:/temp/dataset/test2/1_6.odb,Step-1,Increment      4: Step Time =    1.000,"PART-1-1",            23,           -3.,        24.375,            0.,NA,NA,"",       14.4392,      -14.0191,      -3.45772,   4.96018E-03
C:/temp/dataset/test2/1_6.odb,Step-1,Increment      4: Step Time =    1.000,"PART-1-1",            24,           -5.,        24.375,            0.,NA,NA,"",       14.4960,      -13.8589,      -4.25026,   4.32804E-03
C:/temp/dataset/test2/1_6.odb,Step-1,Increment      4: Step Time =    1.000,"PART-1-1",            25,            5.,          22.5,            0.,NA,NA,"",       13.9200,      -13.9191,  -164.369E-03,   8.26598E-03
C:/temp/dataset/test2/1_6.odb,Step-1,Increment      4: Step Time =    1.000,"PART-1-1",            26,            3.,          22.5,            0.,NA,NA,"",       13.7841,      -13.7512,  -952.179E-03,   5.72222E-03
C:/temp/dataset/test2/1_6.odb,Step-1,Increment      4: Step Time =    1.000,"PART-1-1",            27,            1.,          22.5,            0.,NA,NA,"",       13.6994,      -13.5891,      -1.73421,   5.86347E-03
C:/temp/dataset/test2/1_6.odb,Step-1,Increment      4: Step Time =    1.000,"PART-1-1",            28,           -1.,          22.5,            0.,NA,NA,"",       13.6643,      -13.4310,      -2.51415,   6.19550E-03
C:/temp/dataset/test2/1_6.odb,Step-1,Increment      4: Step Time =    1.000,"PART-1-1",            29,           -3.,          22.5,            0.,NA,NA,"",       13.6778,      -13.2745,      -3.29674,   6.12740E-03
C:/temp/dataset/test2/1_6.odb,Step-1,Increment      4: Step Time =    1.000,"PART-1-1",            30,           -5.,          22.5,            0.,NA,NA,"",       13.7394,      -13.1174,      -4.08699,   7.08076E-03
C:/temp/dataset/test2/1_6.odb,Step-1,Increment      4: Step Time =    1.000,"PART-1-1",            31,            5.,        20.625,            0.,NA,NA,"",       13.1710,      -13.1709,  -25.8343E-03,   10.4386E-03
C:/temp/dataset/test2/1_6.odb,Step-1,Increment      4: Step Time =    1.000,"PART-1-1",            32,            3.,        20.625,            0.,NA,NA,"",       13.0292,      -13.0042,  -806.727E-03,   7.09034E-03
C:/temp/dataset/test2/1_6.odb,Step-1,Increment      4: Step Time =    1.000,"PART-1-1",            33,            1.,        20.625,            0.,NA,NA,"",       12.9409,      -12.8438,      -1.58255,   5.96999E-03
C:/temp/dataset/test2/1_6.odb,Step-1,Increment      4: Step Time =    1.000,"PART-1-1",            34,           -1.,        20.625,            0.,NA,NA,"",       12.9051,      -12.6880,      -2.35712,   6.30986E-03
C:/temp/dataset/test2/1_6.odb,Step-1,Increment      4: Step Time =    1.000,"PART-1-1",            35,           -3.,        20.625,            0.,NA,NA,"",       12.9207,      -12.5346,      -3.13495,   7.30230E-03
C:/temp/dataset/test2/1_6.odb,Step-1,Increment      4: Step Time =    1.000,"PART-1-1",            36,           -5.,        20.625,            0.,NA,NA,"",       12.9875,      -12.3814,      -3.92100,   9.83591E-03
C:/temp/dataset/test2/1_6.odb,Step-1,Increment      4: Step Time =    1.000,"PART-1-1",            37,            5.,         18.75,            0.,NA,NA,"",       12.4280,      -12.4276,   106.538E-03,   12.8073E-03
C:/temp/dataset/test2/1_6.odb,Step-1,Increment      4: Step Time =    1.000,"PART-1-1",            38,            3.,         18.75,            0.,NA,NA,"",       12.2804,      -12.2623,  -666.316E-03,   8.51274E-03
C:/temp/dataset/test2/1_6.odb,Step-1,Increment      4: Step Time =    1.000,"PART-1-1",            39,            1.,         18.75,            0.,NA,NA,"",       12.1888,      -12.1041,      -1.43442,   6.21445E-03
C:/temp/dataset/test2/1_6.odb,Step-1,Increment      4: Step Time =    1.000,"PART-1-1",            40,           -1.,         18.75,            0.,NA,NA,"",       12.1522,      -11.9511,      -2.20190,   6.41043E-03
C:/temp/dataset/test2/1_6.odb,Step-1,Increment      4: Step Time =    1.000,"PART-1-1",            41,           -3.,         18.75,            0.,NA,NA,"",       12.1701,      -11.8013,      -2.97322,   8.55712E-03
C:/temp/dataset/test2/1_6.odb,Step-1,Increment      4: Step Time =    1.000,"PART-1-1",            42,           -5.,         18.75,            0.,NA,NA,"",       12.2423,      -11.6528,      -3.75317,   12.5080E-03
C:/temp/dataset/test2/1_6.odb,Step-1,Increment      4: Step Time =    1.000,"PART-1-1",            43,            5.,        16.875,            0.,NA,NA,"",       11.6924,      -11.6901,   231.955E-03,   15.2759E-03
C:/temp/dataset/test2/1_6.odb,Step-1,Increment      4: Step Time =    1.000,"PART-1-1",            44,            3.,        16.875,            0.,NA,NA,"",       11.5391,      -11.5269,  -531.467E-03,   9.94636E-03
C:/temp/dataset/test2/1_6.odb,Step-1,Increment      4: Step Time =    1.000,"PART-1-1",            45,            1.,        16.875,            0.,NA,NA,"",       11.4443,      -11.3713,      -1.29040,   6.50039E-03
C:/temp/dataset/test2/1_6.odb,Step-1,Increment      4: Step Time =    1.000,"PART-1-1",            46,           -1.,        16.875,            0.,NA,NA,"",       11.4073,      -11.2218,      -2.04915,   6.55989E-03
C:/temp/dataset/test2/1_6.odb,Step-1,Increment      4: Step Time =    1.000,"PART-1-1",            47,           -3.,        16.875,            0.,NA,NA,"",       11.4277,      -11.0763,      -2.81222,   9.88470E-03
C:/temp/dataset/test2/1_6.odb,Step-1,Increment      4: Step Time =    1.000,"PART-1-1",            48,           -5.,        16.875,            0.,NA,NA,"",       11.5056,      -10.9331,      -3.58431,   15.1060E-03
C:/temp/dataset/test2/1_6.odb,Step-1,Increment      4: Step Time =    1.000,"PART-1-1",            49,            5.,           15.,            0.,NA,NA,"",       10.9657,      -10.9601,   349.731E-03,   17.7962E-03
C:/temp/dataset/test2/1_6.odb,Step-1,Increment      4: Step Time =    1.000,"PART-1-1",            50,            3.,           15.,            0.,NA,NA,"",       10.8069,      -10.7993,  -402.757E-03,   11.3992E-03
C:/temp/dataset/test2/1_6.odb,Step-1,Increment      4: Step Time =    1.000,"PART-1-1",            51,            1.,           15.,            0.,NA,NA,"",       10.7091,      -10.6471,      -1.15101,   6.80283E-03
C:/temp/dataset/test2/1_6.odb,Step-1,Increment      4: Step Time =    1.000,"PART-1-1",            52,           -1.,           15.,            0.,NA,NA,"",       10.6719,      -10.5016,      -1.89944,   6.76004E-03
C:/temp/dataset/test2/1_6.odb,Step-1,Increment      4: Step Time =    1.000,"PART-1-1",            53,           -3.,           15.,            0.,NA,NA,"",       10.6952,      -10.3610,      -2.65258,   11.2616E-03
C:/temp/dataset/test2/1_6.odb,Step-1,Increment      4: Step Time =    1.000,"PART-1-1",            54,           -5.,           15.,            0.,NA,NA,"",       10.7790,      -10.2237,      -3.41510,   17.6592E-03
C:/temp/dataset/test2/1_6.odb,Step-1,Increment      4: Step Time =    1.000,"PART-1-1",            55,            5.,        13.125,            0.,NA,NA,"",       10.2492,      -10.2389,   459.222E-03,   20.3390E-03
C:/temp/dataset/test2/1_6.odb,Step-1,Increment      4: Step Time =    1.000,"PART-1-1",            56,            3.,        13.125,            0.,NA,NA,"",       10.0852,      -10.0813,  -280.773E-03,   12.8713E-03
C:/temp/dataset/test2/1_6.odb,Step-1,Increment      4: Step Time =    1.000,"PART-1-1",            57,            1.,        13.125,            0.,NA,NA,"",       9.98474,      -9.93284,      -1.01679,   7.12178E-03
C:/temp/dataset/test2/1_6.odb,Step-1,Increment      4: Step Time =    1.000,"PART-1-1",            58,           -1.,        13.125,            0.,NA,NA,"",       9.94769,      -9.79196,      -1.75329,   6.99927E-03
C:/temp/dataset/test2/1_6.odb,Step-1,Increment      4: Step Time =    1.000,"PART-1-1",            59,           -3.,        13.125,            0.,NA,NA,"",       9.97404,      -9.65698,      -2.49484,   12.6674E-03
C:/temp/dataset/test2/1_6.odb,Step-1,Increment      4: Step Time =    1.000,"PART-1-1",            60,           -5.,        13.125,            0.,NA,NA,"",       10.0641,      -9.52620,      -3.24614,   20.1904E-03
C:/temp/dataset/test2/1_6.odb,Step-1,Increment      4: Step Time =    1.000,"PART-1-1",            61,            5.,         11.25,            0.,NA,NA,"",       9.54467,      -9.52824,   559.838E-03,   22.8908E-03
C:/temp/dataset/test2/1_6.odb,Step-1,Increment      4: Step Time =    1.000,"PART-1-1",            62,            3.,         11.25,            0.,NA,NA,"",       9.37571,      -9.37424,  -166.081E-03,   14.3610E-03
C:/temp/dataset/test2/1_6.odb,Step-1,Increment      4: Step Time =    1.000,"PART-1-1",            63,            1.,         11.25,            0.,NA,NA,"",       9.27281,      -9.23017,  -888.266E-03,   7.46156E-03
C:/temp/dataset/test2/1_6.odb,Step-1,Increment      4: Step Time =    1.000,"PART-1-1",            64,           -1.,         11.25,            0.,NA,NA,"",       9.23610,      -9.09448,      -1.61122,   7.26638E-03
C:/temp/dataset/test2/1_6.odb,Step-1,Increment      4: Step Time =    1.000,"PART-1-1",            65,           -3.,         11.25,            0.,NA,NA,"",       9.26581,      -8.96559,      -2.33954,   14.0896E-03
C:/temp/dataset/test2/1_6.odb,Step-1,Increment      4: Step Time =    1.000,"PART-1-1",            66,           -5.,         11.25,            0.,NA,NA,"",       9.36231,      -8.84189,      -3.07795,   22.7121E-03
C:/temp/dataset/test2/1_6.odb,Step-1,Increment      4: Step Time =    1.000,"PART-1-1",            67,            5.,         9.375,            0.,NA,NA,"",       8.85365,      -8.82968,   651.032E-03,   25.4461E-03
C:/temp/dataset/test2/1_6.odb,Step-1,Increment      4: Step Time =    1.000,"PART-1-1",            68,            3.,         9.375,            0.,NA,NA,"",       8.68001,      -8.67981,  -59.2164E-03,   15.8655E-03
C:/temp/dataset/test2/1_6.odb,Step-1,Increment      4: Step Time =    1.000,"PART-1-1",            69,            1.,         9.375,            0.,NA,NA,"",       8.57488,      -8.54060,  -765.963E-03,   7.82443E-03
C:/temp/dataset/test2/1_6.odb,Step-1,Increment      4: Step Time =    1.000,"PART-1-1",            70,           -1.,         9.375,            0.,NA,NA,"",       8.53875,      -8.41061,      -1.47373,   7.55326E-03
C:/temp/dataset/test2/1_6.odb,Step-1,Increment      4: Step Time =    1.000,"PART-1-1",            71,           -3.,         9.375,            0.,NA,NA,"",       8.57205,      -8.28833,      -2.18716,   15.5209E-03
C:/temp/dataset/test2/1_6.odb,Step-1,Increment      4: Step Time =    1.000,"PART-1-1",            72,           -5.,         9.375,            0.,NA,NA,"",       8.67523,      -8.17225,      -2.91100,   25.2297E-03
C:/temp/dataset/test2/1_6.odb,Step-1,Increment      4: Step Time =    1.000,"PART-1-1",            73,            5.,           7.5,            0.,NA,NA,"",       8.17772,      -8.14487,   732.293E-03,   28.0029E-03
C:/temp/dataset/test2/1_6.odb,Step-1,Increment      4: Step Time =    1.000,"PART-1-1",            74,            3.,           7.5,            0.,NA,NA,"",       7.99969,      -7.99960,   39.3216E-03,   17.3823E-03
C:/temp/dataset/test2/1_6.odb,Step-1,Increment      4: Step Time =    1.000,"PART-1-1",            75,            1.,           7.5,            0.,NA,NA,"",       7.89255,      -7.86571,  -650.360E-03,   8.21042E-03
C:/temp/dataset/test2/1_6.odb,Step-1,Increment      4: Step Time =    1.000,"PART-1-1",            76,           -1.,           7.5,            0.,NA,NA,"",       7.85720,      -7.74186,      -1.34130,   7.85464E-03
C:/temp/dataset/test2/1_6.odb,Step-1,Increment      4: Step Time =    1.000,"PART-1-1",            77,           -3.,           7.5,            0.,NA,NA,"",       7.89431,      -7.62667,      -2.03816,   16.9573E-03
C:/temp/dataset/test2/1_6.odb,Step-1,Increment      4: Step Time =    1.000,"PART-1-1",            78,           -5.,           7.5,            0.,NA,NA,"",       8.00436,      -7.51869,      -2.74574,   27.7447E-03
C:/temp/dataset/test2/1_6.odb,Step-1,Increment      4: Step Time =    1.000,"PART-1-1",            79,            5.,         5.625,            0.,NA,NA,"",       7.51850,      -7.47548,   803.153E-03,   30.5603E-03
C:/temp/dataset/test2/1_6.odb,Step-1,Increment      4: Step Time =    1.000,"PART-1-1",            80,            3.,         5.625,            0.,NA,NA,"",       7.33635,      -7.33521,   129.073E-03,   18.9092E-03
C:/temp/dataset/test2/1_6.odb,Step-1,Increment      4: Step Time =    1.000,"PART-1-1",            81,            1.,         5.625,            0.,NA,NA,"",       7.22740,      -7.20706,  -541.903E-03,   8.61818E-03
C:/temp/dataset/test2/1_6.odb,Step-1,Increment      4: Step Time =    1.000,"PART-1-1",            82,           -1.,         5.625,            0.,NA,NA,"",       7.19302,      -7.08978,      -1.21434,   8.16711E-03
C:/temp/dataset/test2/1_6.odb,Step-1,Increment      4: Step Time =    1.000,"PART-1-1",            83,           -3.,         5.625,            0.,NA,NA,"",       7.23414,      -6.98208,      -1.89294,   18.3961E-03
C:/temp/dataset/test2/1_6.odb,Step-1,Increment      4: Step Time =    1.000,"PART-1-1",            84,           -5.,         5.625,            0.,NA,NA,"",       7.35123,      -6.88266,      -2.58256,   30.2573E-03
C:/temp/dataset/test2/1_6.odb,Step-1,Increment      4: Step Time =    1.000,"PART-1-1",            85,            5.,          3.75,            0.,NA,NA,"",       6.87757,      -6.82318,   863.183E-03,   33.1181E-03
C:/temp/dataset/test2/1_6.odb,Step-1,Increment      4: Step Time =    1.000,"PART-1-1",            86,            3.,          3.75,            0.,NA,NA,"",       6.69158,      -6.68830,   209.619E-03,   20.4445E-03
C:/temp/dataset/test2/1_6.odb,Step-1,Increment      4: Step Time =    1.000,"PART-1-1",            87,            1.,          3.75,            0.,NA,NA,"",       6.58103,      -6.56624,  -441.000E-03,   9.04586E-03
C:/temp/dataset/test2/1_6.odb,Step-1,Increment      4: Step Time =    1.000,"PART-1-1",            88,           -1.,          3.75,            0.,NA,NA,"",       6.54780,      -6.45588,      -1.09326,   8.48825E-03
C:/temp/dataset/test2/1_6.odb,Step-1,Increment      4: Step Time =    1.000,"PART-1-1",            89,           -3.,          3.75,            0.,NA,NA,"",       6.59309,      -6.35607,      -1.75190,   19.8354E-03
C:/temp/dataset/test2/1_6.odb,Step-1,Increment      4: Step Time =    1.000,"PART-1-1",            90,           -5.,          3.75,            0.,NA,NA,"",       6.71737,      -6.26561,      -2.42182,   32.7672E-03
C:/temp/dataset/test2/1_6.odb,Step-1,Increment      4: Step Time =    1.000,"PART-1-1",            91,            5.,         1.875,            0.,NA,NA,"",       6.25653,      -6.18970,   912.004E-03,   35.6761E-03
C:/temp/dataset/test2/1_6.odb,Step-1,Increment      4: Step Time =    1.000,"PART-1-1",            92,            3.,         1.875,            0.,NA,NA,"",       6.06700,      -6.06051,   280.590E-03,   21.9866E-03
C:/temp/dataset/test2/1_6.odb,Step-1,Increment      4: Step Time =    1.000,"PART-1-1",            93,            1.,         1.875,            0.,NA,NA,"",       5.95503,      -5.94486,  -348.007E-03,   9.49153E-03
C:/temp/dataset/test2/1_6.odb,Step-1,Increment      4: Step Time =    1.000,"PART-1-1",            94,           -1.,         1.875,            0.,NA,NA,"",       5.92311,      -5.84174,  -978.399E-03,   8.81622E-03
C:/temp/dataset/test2/1_6.odb,Step-1,Increment      4: Step Time =    1.000,"PART-1-1",            95,           -3.,         1.875,            0.,NA,NA,"",       5.97272,      -5.75013,      -1.61536,   21.2740E-03
C:/temp/dataset/test2/1_6.odb,Step-1,Increment      4: Step Time =    1.000,"PART-1-1",            96,           -5.,         1.875,            0.,NA,NA,"",       6.10427,      -5.66897,      -2.26382,   35.2739E-03
C:/temp/dataset/test2/1_6.odb,Step-1,Increment      4: Step Time =    1.000,"PART-1-1",            97,            5.,            0.,            0.,NA,NA,"",       5.65700,      -5.57678,   949.286E-03,   38.2339E-03
C:/temp/dataset/test2/1_6.odb,Step-1,Increment      4: Step Time =    1.000,"PART-1-1",            98,            3.,            0.,            0.,NA,NA,"",       5.46423,      -5.45354,   341.668E-03,   23.5345E-03
C:/temp/dataset/test2/1_6.odb,Step-1,Increment      4: Step Time =    1.000,"PART-1-1",            99,            1.,            0.,            0.,NA,NA,"",       5.35101,      -5.34454,  -263.233E-03,   9.95339E-03
C:/temp/dataset/test2/1_6.odb,Step-1,Increment      4: Step Time =    1.000,"PART-1-1",           100,           -1.,            0.,            0.,NA,NA,"",       5.32053,      -5.24891,  -870.049E-03,   9.14948E-03
C:/temp/dataset/test2/1_6.odb,Step-1,Increment      4: Step Time =    1.000,"PART-1-1",           101,           -3.,            0.,            0.,NA,NA,"",       5.37459,      -5.16578,      -1.48358,   22.7107E-03
C:/temp/dataset/test2/1_6.odb,Step-1,Increment      4: Step Time =    1.000,"PART-1-1",           102,           -5.,            0.,            0.,NA,NA,"",       5.51345,      -5.09421,      -2.10883,   37.7768E-03
C:/temp/dataset/test2/1_6.odb,Step-1,Increment      4: Step Time =    1.000,"PART-1-1",           103,            5.,        -1.875,            0.,NA,NA,"",       5.08055,      -4.98617,   974.757E-03,   40.7909E-03
C:/temp/dataset/test2/1_6.odb,Step-1,Increment      4: Step Time =    1.000,"PART-1-1",           104,            3.,        -1.875,            0.,NA,NA,"",       4.88488,      -4.86907,   392.589E-03,   25.0872E-03
C:/temp/dataset/test2/1_6.odb,Step-1,Increment      4: Step Time =    1.000,"PART-1-1",           105,            1.,        -1.875,            0.,NA,NA,"",       4.77058,      -4.76692,  -186.928E-03,   10.4298E-03
C:/temp/dataset/test2/1_6.odb,Step-1,Increment      4: Step Time =    1.000,"PART-1-1",           106,           -1.,        -1.875,            0.,NA,NA,"",       4.74166,      -4.67898,  -768.447E-03,   9.48668E-03
C:/temp/dataset/test2/1_6.odb,Step-1,Increment      4: Step Time =    1.000,"PART-1-1",           107,           -3.,        -1.875,            0.,NA,NA,"",       4.80026,      -4.60452,      -1.35681,   24.1446E-03
C:/temp/dataset/test2/1_6.odb,Step-1,Increment      4: Step Time =    1.000,"PART-1-1",           108,           -5.,        -1.875,            0.,NA,NA,"",       4.94639,      -4.54277,      -1.95704,   40.2753E-03
C:/temp/dataset/test2/1_6.odb,Step-1,Increment      4: Step Time =    1.000,"PART-1-1",           109,            5.,         -3.75,            0.,NA,NA,"",       4.52880,      -4.41966,   988.206E-03,   43.3465E-03
C:/temp/dataset/test2/1_6.odb,Step-1,Increment      4: Step Time =    1.000,"PART-1-1",           110,            3.,         -3.75,            0.,NA,NA,"",       4.33057,      -4.30885,   433.153E-03,   26.6436E-03
C:/temp/dataset/test2/1_6.odb,Step-1,Increment      4: Step Time =    1.000,"PART-1-1",           111,            1.,         -3.75,            0.,NA,NA,"",       4.21535,      -4.21366,  -119.284E-03,   10.9194E-03
C:/temp/dataset/test2/1_6.odb,Step-1,Increment      4: Step Time =    1.000,"PART-1-1",           112,           -1.,         -3.75,            0.,NA,NA,"",       4.18808,      -4.13353,  -673.774E-03,   9.82665E-03
C:/temp/dataset/test2/1_6.odb,Step-1,Increment      4: Step Time =    1.000,"PART-1-1",           113,           -3.,         -3.75,            0.,NA,NA,"",       4.25128,      -4.06788,      -1.23518,   25.5747E-03
C:/temp/dataset/test2/1_6.odb,Step-1,Increment      4: Step Time =    1.000,"PART-1-1",           114,           -5.,         -3.75,            0.,NA,NA,"",       4.40457,      -4.01612,      -1.80860,   42.7688E-03
C:/temp/dataset/test2/1_6.odb,Step-1,Increment      4: Step Time =    1.000,"PART-1-1",           115,            5.,        -5.625,            0.,NA,NA,"",       4.00329,      -3.87908,   989.489E-03,   45.9001E-03
C:/temp/dataset/test2/1_6.odb,Step-1,Increment      4: Step Time =    1.000,"PART-1-1",           116,            3.,        -5.625,            0.,NA,NA,"",       3.80293,      -3.77461,   463.223E-03,   28.2030E-03
C:/temp/dataset/test2/1_6.odb,Step-1,Increment      4: Step Time =    1.000,"PART-1-1",           117,            1.,        -5.625,            0.,NA,NA,"",       3.68693,      -3.68644,  -60.4258E-03,   11.4208E-03
C:/temp/dataset/test2/1_6.odb,Step-1,Increment      4: Step Time =    1.000,"PART-1-1",           118,           -1.,        -5.625,            0.,NA,NA,"",       3.66139,      -3.61417,  -586.142E-03,   10.1684E-03
C:/temp/dataset/test2/1_6.odb,Step-1,Increment      4: Step Time =    1.000,"PART-1-1",           119,           -3.,        -5.625,            0.,NA,NA,"",       3.72919,      -3.55740,      -1.11882,   27.0003E-03
C:/temp/dataset/test2/1_6.odb,Step-1,Increment      4: Step Time =    1.000,"PART-1-1",           120,           -5.,        -5.625,            0.,NA,NA,"",       3.88944,      -3.51572,      -1.66358,   45.2566E-03
C:/temp/dataset/test2/1_6.odb,Step-1,Increment      4: Step Time =    1.000,"PART-1-1",           121,            5.,          -7.5,            0.,NA,NA,"",       3.50560,      -3.36626,   978.537E-03,   48.4508E-03
C:/temp/dataset/test2/1_6.odb,Step-1,Increment      4: Step Time =    1.000,"PART-1-1",           122,            3.,          -7.5,            0.,NA,NA,"",       3.30358,      -3.26812,   482.737E-03,   29.7644E-03
C:/temp/dataset/test2/1_6.odb,Step-1,Increment      4: Step Time =    1.000,"PART-1-1",           123,            1.,          -7.5,            0.,NA,NA,"",       3.18696,      -3.18694,  -10.4099E-03,   11.9328E-03
C:/temp/dataset/test2/1_6.odb,Step-1,Increment      4: Step Time =    1.000,"PART-1-1",           124,           -1.,          -7.5,            0.,NA,NA,"",       3.16319,      -3.12252,  -505.598E-03,   10.5109E-03
C:/temp/dataset/test2/1_6.odb,Step-1,Increment      4: Step Time =    1.000,"PART-1-1",           125,           -3.,          -7.5,            0.,NA,NA,"",       3.23556,      -3.07462,      -1.00774,   28.4207E-03
C:/temp/dataset/test2/1_6.odb,Step-1,Increment      4: Step Time =    1.000,"PART-1-1",           126,           -5.,          -7.5,            0.,NA,NA,"",       3.40242,      -3.04302,      -1.52201,   47.7377E-03
C:/temp/dataset/test2/1_6.odb,Step-1,Increment      4: Step Time =    1.000,"PART-1-1",           127,            5.,        -9.375,            0.,NA,NA,"",       3.03723,      -2.88306,   955.355E-03,   50.9978E-03
C:/temp/dataset/test2/1_6.odb,Step-1,Increment      4: Step Time =    1.000,"PART-1-1",           128,            3.,        -9.375,            0.,NA,NA,"",       2.83413,      -2.79115,   491.705E-03,   31.3270E-03
C:/temp/dataset/test2/1_6.odb,Step-1,Increment      4: Step Time =    1.000,"PART-1-1",           129,            1.,        -9.375,            0.,NA,NA,"",       2.71705,      -2.71688,   30.7820E-03,   12.4545E-03
C:/temp/dataset/test2/1_6.odb,Step-1,Increment      4: Step Time =    1.000,"PART-1-1",           130,           -1.,        -9.375,            0.,NA,NA,"",       2.69506,      -2.66019,  -432.116E-03,   10.8534E-03
C:/temp/dataset/test2/1_6.odb,Step-1,Increment      4: Step Time =    1.000,"PART-1-1",           131,           -3.,        -9.375,            0.,NA,NA,"",       2.77190,      -2.62107,  -901.920E-03,   29.8350E-03
C:/temp/dataset/test2/1_6.odb,Step-1,Increment      4: Step Time =    1.000,"PART-1-1",           132,           -5.,        -9.375,            0.,NA,NA,"",       2.94488,      -2.59948,      -1.38383,   50.2114E-03
C:/temp/dataset/test2/1_6.odb,Step-1,Increment      4: Step Time =    1.000,"PART-1-1",           133,            5.,        -11.25,            0.,NA,NA,"",       2.59962,      -2.43137,   920.033E-03,   53.5398E-03
C:/temp/dataset/test2/1_6.odb,Step-1,Increment      4: Step Time =    1.000,"PART-1-1",           134,            3.,        -11.25,            0.,NA,NA,"",       2.39621,      -2.34553,   490.222E-03,   32.8899E-03
C:/temp/dataset/test2/1_6.odb,Step-1,Increment      4: Step Time =    1.000,"PART-1-1",           135,            1.,        -11.25,            0.,NA,NA,"",       2.27884,      -2.27796,   63.2468E-03,   12.9850E-03
C:/temp/dataset/test2/1_6.odb,Step-1,Increment      4: Step Time =    1.000,"PART-1-1",           136,           -1.,        -11.25,            0.,NA,NA,"",       2.25861,      -2.22883,  -365.592E-03,   11.1950E-03
C:/temp/dataset/test2/1_6.odb,Step-1,Increment      4: Step Time =    1.000,"PART-1-1",           137,           -3.,        -11.25,            0.,NA,NA,"",       2.33976,      -2.19830,  -801.238E-03,   31.2426E-03
C:/temp/dataset/test2/1_6.odb,Step-1,Increment      4: Step Time =    1.000,"PART-1-1",           138,           -5.,        -11.25,            0.,NA,NA,"",       2.51811,      -2.18657,      -1.24891,   52.6767E-03
C:/temp/dataset/test2/1_6.odb,Step-1,Increment      4: Step Time =    1.000,"PART-1-1",           139,            5.,       -13.125,            0.,NA,NA,"",       2.19413,      -2.01309,   872.751E-03,   56.0757E-03
C:/temp/dataset/test2/1_6.odb,Step-1,Increment      4: Step Time =    1.000,"PART-1-1",           140,            3.,       -13.125,            0.,NA,NA,"",       1.99138,      -1.93304,   478.466E-03,   34.4520E-03
C:/temp/dataset/test2/1_6.odb,Step-1,Increment      4: Step Time =    1.000,"PART-1-1",           141,            1.,       -13.125,            0.,NA,NA,"",       1.87395,      -1.87192,   87.1643E-03,   13.5237E-03
C:/temp/dataset/test2/1_6.odb,Step-1,Increment      4: Step Time =    1.000,"PART-1-1",           142,           -1.,       -13.125,            0.,NA,NA,"",       1.85544,      -1.83006,  -305.844E-03,   11.5347E-03
C:/temp/dataset/test2/1_6.odb,Step-1,Increment      4: Step Time =    1.000,"PART-1-1",           143,           -3.,       -13.125,            0.,NA,NA,"",       1.94064,      -1.80785,  -705.506E-03,   32.6428E-03
C:/temp/dataset/test2/1_6.odb,Step-1,Increment      4: Step Time =    1.000,"PART-1-1",           144,           -5.,       -13.125,            0.,NA,NA,"",       2.12333,      -1.80573,      -1.11707,   55.1329E-03
C:/temp/dataset/test2/1_6.odb,Step-1,Increment      4: Step Time =    1.000,"PART-1-1",           145,            5.,          -15.,            0.,NA,NA,"",       1.82197,      -1.63013,   813.784E-03,   58.6025E-03
C:/temp/dataset/test2/1_6.odb,Step-1,Increment      4: Step Time =    1.000,"PART-1-1",           146,            3.,          -15.,            0.,NA,NA,"",       1.62120,      -1.55554,   456.708E-03,   36.0121E-03
C:/temp/dataset/test2/1_6.odb,Step-1,Increment      4: Step Time =    1.000,"PART-1-1",           147,            1.,          -15.,            0.,NA,NA,"",       1.50400,      -1.50049,   102.801E-03,   14.0707E-03
C:/temp/dataset/test2/1_6.odb,Step-1,Increment      4: Step Time =    1.000,"PART-1-1",           148,           -1.,          -15.,            0.,NA,NA,"",       1.48714,      -1.46553,  -252.604E-03,   11.8711E-03
C:/temp/dataset/test2/1_6.odb,Step-1,Increment      4: Step Time =    1.000,"PART-1-1",           149,           -3.,          -15.,            0.,NA,NA,"",       1.57599,      -1.45128,  -614.453E-03,   34.0349E-03
C:/temp/dataset/test2/1_6.odb,Step-1,Increment      4: Step Time =    1.000,"PART-1-1",           150,           -5.,          -15.,            0.,NA,NA,"",       1.76157,      -1.45841,  -988.009E-03,   57.5801E-03
C:/temp/dataset/test2/1_6.odb,Step-1,Increment      4: Step Time =    1.000,"PART-1-1",           151,            5.,       -16.875,            0.,NA,NA,"",       1.48411,      -1.28444,   743.507E-03,   61.1168E-03
C:/temp/dataset/test2/1_6.odb,Step-1,Increment      4: Step Time =    1.000,"PART-1-1",           152,            3.,       -16.875,            0.,NA,NA,"",       1.28715,      -1.21485,   425.314E-03,   37.5682E-03
C:/temp/dataset/test2/1_6.odb,Step-1,Increment      4: Step Time =    1.000,"PART-1-1",           153,            1.,       -16.875,            0.,NA,NA,"",       1.17063,      -1.16540,   110.513E-03,   14.6279E-03
C:/temp/dataset/test2/1_6.odb,Step-1,Increment      4: Step Time =    1.000,"PART-1-1",           154,           -1.,       -16.875,            0.,NA,NA,"",       1.15529,      -1.13686,  -205.521E-03,   12.2022E-03
C:/temp/dataset/test2/1_6.odb,Step-1,Increment      4: Step Time =    1.000,"PART-1-1",           155,           -3.,       -16.875,            0.,NA,NA,"",       1.24725,      -1.13010,  -527.721E-03,   35.4181E-03
C:/temp/dataset/test2/1_6.odb,Step-1,Increment      4: Step Time =    1.000,"PART-1-1",           156,           -5.,       -16.875,            0.,NA,NA,"",       1.43366,      -1.14604,  -861.371E-03,   60.0208E-03
C:/temp/dataset/test2/1_6.odb,Step-1,Increment      4: Step Time =    1.000,"PART-1-1",           157,            5.,        -18.75,            0.,NA,NA,"",       1.18117,  -977.941E-03,   662.414E-03,   63.6055E-03
C:/temp/dataset/test2/1_6.odb,Step-1,Increment      4: Step Time =    1.000,"PART-1-1",           158,            3.,        -18.75,            0.,NA,NA,"",   990.595E-03,  -912.821E-03,   384.753E-03,   39.1213E-03
C:/temp/dataset/test2/1_6.odb,Step-1,Increment      4: Step Time =    1.000,"PART-1-1",           159,            1.,        -18.75,            0.,NA,NA,"",   875.429E-03,  -868.396E-03,   110.746E-03,   15.1992E-03
C:/temp/dataset/test2/1_6.odb,Step-1,Increment      4: Step Time =    1.000,"PART-1-1",           160,           -1.,        -18.75,            0.,NA,NA,"",   861.483E-03,  -845.699E-03,  -164.151E-03,   12.5263E-03
C:/temp/dataset/test2/1_6.odb,Step-1,Increment      4: Step Time =    1.000,"PART-1-1",           161,           -3.,        -18.75,            0.,NA,NA,"",   955.710E-03,  -845.859E-03,  -444.864E-03,   36.7936E-03
C:/temp/dataset/test2/1_6.odb,Step-1,Increment      4: Step Time =    1.000,"PART-1-1",           162,           -5.,        -18.75,            0.,NA,NA,"",       1.14006,  -870.056E-03,  -736.702E-03,   62.4568E-03
C:/temp/dataset/test2/1_6.odb,Step-1,Increment      4: Step Time =    1.000,"PART-1-1",           163,            5.,       -20.625,            0.,NA,NA,"",   913.223E-03,  -712.594E-03,   571.127E-03,   66.0603E-03
C:/temp/dataset/test2/1_6.odb,Step-1,Increment      4: Step Time =    1.000,"PART-1-1",           164,            3.,       -20.625,            0.,NA,NA,"",   732.676E-03,  -651.297E-03,   335.599E-03,   40.6675E-03
C:/temp/dataset/test2/1_6.odb,Step-1,Increment      4: Step Time =    1.000,"PART-1-1",           165,            1.,       -20.625,            0.,NA,NA,"",   619.988E-03,  -611.198E-03,   104.031E-03,   15.8114E-03
C:/temp/dataset/test2/1_6.odb,Step-1,Increment      4: Step Time =    1.000,"PART-1-1",           166,           -1.,       -20.625,            0.,NA,NA,"",   607.293E-03,  -593.661E-03,  -127.951E-03,   12.8604E-03
C:/temp/dataset/test2/1_6.odb,Step-1,Increment      4: Step Time =    1.000,"PART-1-1",           167,           -3.,       -20.625,            0.,NA,NA,"",   702.554E-03,  -600.091E-03,  -365.340E-03,   38.1609E-03
C:/temp/dataset/test2/1_6.odb,Step-1,Increment      4: Step Time =    1.000,"PART-1-1",           168,           -5.,       -20.625,            0.,NA,NA,"",   880.681E-03,  -631.892E-03,  -613.442E-03,   64.9016E-03
C:/temp/dataset/test2/1_6.odb,Step-1,Increment      4: Step Time =    1.000,"PART-1-1",           169,            5.,         -22.5,            0.,NA,NA,"",   679.500E-03,  -490.277E-03,   470.478E-03,   68.3484E-03
C:/temp/dataset/test2/1_6.odb,Step-1,Increment      4: Step Time =    1.000,"PART-1-1",           170,            3.,         -22.5,            0.,NA,NA,"",   514.022E-03,  -432.061E-03,   278.462E-03,   42.2691E-03
C:/temp/dataset/test2/1_6.odb,Step-1,Increment      4: Step Time =    1.000,"PART-1-1",           171,            1.,         -22.5,            0.,NA,NA,"",   405.750E-03,  -395.423E-03,   90.9624E-03,   16.4861E-03
C:/temp/dataset/test2/1_6.odb,Step-1,Increment      4: Step Time =    1.000,"PART-1-1",           172,           -1.,         -22.5,            0.,NA,NA,"",   394.215E-03,  -382.293E-03,  -96.2150E-03,   13.2338E-03
C:/temp/dataset/test2/1_6.odb,Step-1,Increment      4: Step Time =    1.000,"PART-1-1",           173,           -3.,         -22.5,            0.,NA,NA,"",   488.575E-03,  -394.339E-03,  -288.448E-03,   39.5719E-03
C:/temp/dataset/test2/1_6.odb,Step-1,Increment      4: Step Time =    1.000,"PART-1-1",           174,           -5.,         -22.5,            0.,NA,NA,"",   654.632E-03,  -432.957E-03,  -491.010E-03,   67.2614E-03
C:/temp/dataset/test2/1_6.odb,Step-1,Increment      4: Step Time =    1.000,"PART-1-1",           175,            5.,       -24.375,            0.,NA,NA,"",   478.155E-03,  -312.911E-03,   361.551E-03,   70.5664E-03
C:/temp/dataset/test2/1_6.odb,Step-1,Increment      4: Step Time =    1.000,"PART-1-1",           176,            3.,       -24.375,            0.,NA,NA,"",   334.503E-03,  -256.897E-03,   214.235E-03,   43.9086E-03
C:/temp/dataset/test2/1_6.odb,Step-1,Increment      4: Step Time =    1.000,"PART-1-1",           177,            1.,       -24.375,            0.,NA,NA,"",   234.166E-03,  -222.734E-03,   72.2708E-03,   17.4714E-03
C:/temp/dataset/test2/1_6.odb,Step-1,Increment      4: Step Time =    1.000,"PART-1-1",           178,           -1.,       -24.375,            0.,NA,NA,"",   223.875E-03,  -213.244E-03,  -68.1703E-03,   13.9343E-03
C:/temp/dataset/test2/1_6.odb,Step-1,Increment      4: Step Time =    1.000,"PART-1-1",           179,           -3.,       -24.375,            0.,NA,NA,"",   314.025E-03,  -230.301E-03,  -213.478E-03,   41.0517E-03
C:/temp/dataset/test2/1_6.odb,Step-1,Increment      4: Step Time =    1.000,"PART-1-1",           180,           -5.,       -24.375,            0.,NA,NA,"",   459.955E-03,  -274.976E-03,  -368.710E-03,   69.6365E-03
C:/temp/dataset/test2/1_6.odb,Step-1,Increment      4: Step Time =    1.000,"PART-1-1",           181,            5.,        -26.25,            0.,NA,NA,"",   305.561E-03,  -180.580E-03,   246.492E-03,   70.9916E-03
C:/temp/dataset/test2/1_6.odb,Step-1,Increment      4: Step Time =    1.000,"PART-1-1",           182,            3.,        -26.25,            0.,NA,NA,"",   190.676E-03,  -126.495E-03,   142.676E-03,   46.6293E-03
C:/temp/dataset/test2/1_6.odb,Step-1,Increment      4: Step Time =    1.000,"PART-1-1",           183,            1.,        -26.25,            0.,NA,NA,"",   106.229E-03,  -94.5781E-03,   48.3689E-03,   18.1320E-03
C:/temp/dataset/test2/1_6.odb,Step-1,Increment      4: Step Time =    1.000,"PART-1-1",           184,           -1.,        -26.25,            0.,NA,NA,"",   97.6673E-03,  -88.0694E-03,  -42.2218E-03,   14.3470E-03
C:/temp/dataset/test2/1_6.odb,Step-1,Increment      4: Step Time =    1.000,"PART-1-1",           185,           -3.,        -26.25,            0.,NA,NA,"",   176.020E-03,  -108.981E-03,  -138.225E-03,   43.7466E-03
C:/temp/dataset/test2/1_6.odb,Step-1,Increment      4: Step Time =    1.000,"PART-1-1",           186,           -5.,        -26.25,            0.,NA,NA,"",   293.102E-03,  -157.811E-03,  -246.991E-03,   70.1992E-03
C:/temp/dataset/test2/1_6.odb,Step-1,Increment      4: Step Time =    1.000,"PART-1-1",           187,            5.,       -28.125,            0.,NA,NA,"",   157.474E-03,  -90.2059E-03,   129.077E-03,   75.9013E-03
C:/temp/dataset/test2/1_6.odb,Step-1,Increment      4: Step Time =    1.000,"PART-1-1",           188,            3.,       -28.125,            0.,NA,NA,"",   80.7455E-03,  -42.0796E-03,   68.9141E-03,   48.1296E-03
C:/temp/dataset/test2/1_6.odb,Step-1,Increment      4: Step Time =    1.000,"PART-1-1",           189,            1.,       -28.125,            0.,NA,NA,"",   27.0298E-03,  -15.2766E-03,   22.2987E-03,   16.7411E-03
C:/temp/dataset/test2/1_6.odb,Step-1,Increment      4: Step Time =    1.000,"PART-1-1",           190,           -1.,       -28.125,            0.,NA,NA,"",   22.2769E-03,  -11.5461E-03,  -19.0512E-03,   13.7054E-03
C:/temp/dataset/test2/1_6.odb,Step-1,Increment      4: Step Time =    1.000,"PART-1-1",           191,           -3.,       -28.125,            0.,NA,NA,"",   73.4289E-03,  -32.3591E-03,  -65.9143E-03,   45.1340E-03
C:/temp/dataset/test2/1_6.odb,Step-1,Increment      4: Step Time =    1.000,"PART-1-1",           192,           -5.,       -28.125,            0.,NA,NA,"",   149.682E-03,  -79.3937E-03,  -126.891E-03,   75.6958E-03
C:/temp/dataset/test2/1_6.odb,Step-1,Increment      4: Step Time =    1.000,"PART-1-1",           193,            5.,          -30.,            0.,NA,NA,"",            0.,  -299.878E-45,  -20.5570E-42,   92.2810E-03
C:/temp/dataset/test2/1_6.odb,Step-1,Increment      4: Step Time =    1.000,"PART-1-1",           194,            3.,          -30.,            0.,NA,NA,"",            0.,  -18.0523E-39,   39.7910E-39,   33.4641E-03
C:/temp/dataset/test2/1_6.odb,Step-1,Increment      4: Step Time =    1.000,"PART-1-1",           195,            1.,          -30.,            0.,NA,NA,"",            0.,  -1.10923E-39,   10.1589E-39,   14.9863E-03
C:/temp/dataset/test2/1_6.odb,Step-1,Increment      4: Step Time =    1.000,"PART-1-1",           196,           -1.,          -30.,            0.,NA,NA,"",            0.,   12.8694E-39,  -16.4917E-39,   15.2632E-03
C:/temp/dataset/test2/1_6.odb,Step-1,Increment      4: Step Time =    1.000,"PART-1-1",           197,           -3.,          -30.,            0.,NA,NA,"",            0.,   2.55051E-39,  -41.8496E-39,   32.4022E-03
C:/temp/dataset/test2/1_6.odb,Step-1,Increment      4: Step Time =    1.000,"PART-1-1",           198,           -5.,          -30.,            0.,NA,NA,"",            0.,   138.671E-42,   227.408E-42,   87.8678E-03
C:/temp/dataset/test2/1_6.odb,Step-1,Increment      4: Step Time =    1.000,"PART-1-1",           199,            4.,           30.,            0.,NA,NA,"",       16.8922,      -16.8520,      -1.16370,   6.19416E-03
C:/temp/dataset/test2/1_6.odb,Step-1,Increment      4: Step Time =    1.000,"PART-1-1",           200,            3.,       29.0625,            0.,NA,NA,"",       16.4564,      -16.3892,      -1.48488,   5.88794E-03
C:/temp/dataset/test2/1_6.odb,Step-1,Increment      4: Step Time =    1.000,"PART-1-1",           201,            4.,        28.125,            0.,NA,NA,"",       16.1331,      -16.1013,      -1.01246,   6.03117E-03
C:/temp/dataset/test2/1_6.odb,Step-1,Increment      4: Step Time =    1.000,"PART-1-1",           202,            5.,       29.0625,            0.,NA,NA,"",       16.5794,      -16.5650,  -690.916E-03,   5.93224E-03
C:/temp/dataset/test2/1_6.odb,Step-1,Increment      4: Step Time =    1.000,"PART-1-1",           203,            2.,           30.,            0.,NA,NA,"",       16.7906,      -16.6763,      -1.95544,   5.67114E-03
C:/temp/dataset/test2/1_6.odb,Step-1,Increment      4: Step Time =    1.000,"PART-1-1",           204,            1.,       29.0625,            0.,NA,NA,"",       16.3759,      -16.2172,      -2.27452,   4.45001E-03
C:/temp/dataset/test2/1_6.odb,Step-1,Increment      4: Step Time =    1.000,"PART-1-1",           205,            2.,        28.125,            0.,NA,NA,"",       16.0294,      -15.9275,      -1.80432,   5.15665E-03
C:/temp/dataset/test2/1_6.odb,Step-1,Increment      4: Step Time =    1.000,"PART-1-1",           206,            0.,           30.,            0.,NA,NA,"",       16.7315,      -16.5050,      -2.74364,   3.50345E-03
C:/temp/dataset/test2/1_6.odb,Step-1,Increment      4: Step Time =    1.000,"PART-1-1",           207,           -1.,       29.0625,            0.,NA,NA,"",       16.3393,      -16.0498,      -3.06177,   2.61412E-03
C:/temp/dataset/test2/1_6.odb,Step-1,Increment      4: Step Time =    1.000,"PART-1-1",           208,            0.,        28.125,            0.,NA,NA,"",       15.9710,      -15.7593,      -2.59173,   4.17698E-03
C:/temp/dataset/test2/1_6.odb,Step-1,Increment      4: Step Time =    1.000,"PART-1-1",           209,           -2.,           30.,            0.,NA,NA,"",       16.7162,      -16.3388,      -3.53208,   1.20825E-03
C:/temp/dataset/test2/1_6.odb,Step-1,Increment      4: Step Time =    1.000,"PART-1-1",           210,           -3.,       29.0625,            0.,NA,NA,"",       16.3453,      -15.8852,      -3.85069,   980.195E-06
C:/temp/dataset/test2/1_6.odb,Step-1,Increment      4: Step Time =    1.000,"PART-1-1",           211,           -2.,        28.125,            0.,NA,NA,"",       15.9564,      -15.5946,      -3.37888,   2.76495E-03
C:/temp/dataset/test2/1_6.odb,Step-1,Increment      4: Step Time =    1.000,"PART-1-1",           212,           -4.,           30.,            0.,NA,NA,"",       16.7428,      -16.1750,      -4.32342,   123.185E-06
C:/temp/dataset/test2/1_6.odb,Step-1,Increment      4: Step Time =    1.000,"PART-1-1",           213,           -5.,       29.0625,            0.,NA,NA,"",       16.3925,      -15.7212,      -4.64311,   128.467E-06
C:/temp/dataset/test2/1_6.odb,Step-1,Increment      4: Step Time =    1.000,"PART-1-1",           214,           -4.,        28.125,            0.,NA,NA,"",       15.9844,      -15.4310,      -4.16926,   947.124E-06
C:/temp/dataset/test2/1_6.odb,Step-1,Increment      4: Step Time =    1.000,"PART-1-1",           215,            3.,       27.1875,            0.,NA,NA,"",       15.6931,      -15.6364,      -1.33304,   6.16684E-03
C:/temp/dataset/test2/1_6.odb,Step-1,Increment      4: Step Time =    1.000,"PART-1-1",           216,            4.,         26.25,            0.,NA,NA,"",       15.3677,      -15.3436,  -860.240E-03,   5.68559E-03
C:/temp/dataset/test2/1_6.odb,Step-1,Increment      4: Step Time =    1.000,"PART-1-1",           217,            5.,       27.1875,            0.,NA,NA,"",       15.8221,      -15.8130,  -537.621E-03,   5.84830E-03
C:/temp/dataset/test2/1_6.odb,Step-1,Increment      4: Step Time =    1.000,"PART-1-1",           218,            1.,       27.1875,            0.,NA,NA,"",       15.6121,      -15.4673,      -2.12146,   5.12670E-03
C:/temp/dataset/test2/1_6.odb,Step-1,Increment      4: Step Time =    1.000,"PART-1-1",           219,            2.,         26.25,            0.,NA,NA,"",       15.2636,      -15.1741,      -1.65077,   5.65977E-03
C:/temp/dataset/test2/1_6.odb,Step-1,Increment      4: Step Time =    1.000,"PART-1-1",           220,           -1.,       27.1875,            0.,NA,NA,"",       15.5763,      -15.3025,      -2.90763,   4.25189E-03
C:/temp/dataset/test2/1_6.odb,Step-1,Increment      4: Step Time =    1.000,"PART-1-1",           221,            0.,         26.25,            0.,NA,NA,"",       15.2057,      -15.0091,      -2.43682,   5.29896E-03
C:/temp/dataset/test2/1_6.odb,Step-1,Increment      4: Step Time =    1.000,"PART-1-1",           222,           -3.,       27.1875,            0.,NA,NA,"",       15.5842,      -15.1396,      -3.69558,   2.73817E-03
C:/temp/dataset/test2/1_6.odb,Step-1,Increment      4: Step Time =    1.000,"PART-1-1",           223,           -2.,         26.25,            0.,NA,NA,"",       15.1926,      -14.8469,      -3.22274,   4.21014E-03
C:/temp/dataset/test2/1_6.odb,Step-1,Increment      4: Step Time =    1.000,"PART-1-1",           224,           -5.,       27.1875,            0.,NA,NA,"",       15.6346,      -14.9765,      -4.48844,   1.02838E-03
C:/temp/dataset/test2/1_6.odb,Step-1,Increment      4: Step Time =    1.000,"PART-1-1",           225,           -4.,         26.25,            0.,NA,NA,"",       15.2235,      -14.6852,      -4.01252,   2.42693E-03
C:/temp/dataset/test2/1_6.odb,Step-1,Increment      4: Step Time =    1.000,"PART-1-1",           226,            3.,       25.3125,            0.,NA,NA,"",       14.9266,      -14.8800,      -1.17923,   5.39363E-03
C:/temp/dataset/test2/1_6.odb,Step-1,Increment      4: Step Time =    1.000,"PART-1-1",           227,            4.,        24.375,            0.,NA,NA,"",       14.6032,      -14.5861,  -706.435E-03,   4.69672E-03
C:/temp/dataset/test2/1_6.odb,Step-1,Increment      4: Step Time =    1.000,"PART-1-1",           228,            5.,       25.3125,            0.,NA,NA,"",       15.0543,      -15.0495,  -382.293E-03,   5.17118E-03
C:/temp/dataset/test2/1_6.odb,Step-1,Increment      4: Step Time =    1.000,"PART-1-1",           229,            1.,       25.3125,            0.,NA,NA,"",       14.8456,      -14.7148,      -1.96636,   5.81481E-03
C:/temp/dataset/test2/1_6.odb,Step-1,Increment      4: Step Time =    1.000,"PART-1-1",           230,            2.,        24.375,            0.,NA,NA,"",       14.4975,      -14.4201,      -1.49621,   5.40302E-03
C:/temp/dataset/test2/1_6.odb,Step-1,Increment      4: Step Time =    1.000,"PART-1-1",           231,           -1.,       25.3125,            0.,NA,NA,"",       14.8107,      -14.5529,      -2.75096,   5.41750E-03
C:/temp/dataset/test2/1_6.odb,Step-1,Increment      4: Step Time =    1.000,"PART-1-1",           232,            0.,        24.375,            0.,NA,NA,"",       14.4395,      -14.2583,      -2.28036,   5.82369E-03
C:/temp/dataset/test2/1_6.odb,Step-1,Increment      4: Step Time =    1.000,"PART-1-1",           233,           -3.,       25.3125,            0.,NA,NA,"",       14.8209,      -14.3925,      -3.53760,   4.26831E-03
C:/temp/dataset/test2/1_6.odb,Step-1,Increment      4: Step Time =    1.000,"PART-1-1",           234,           -2.,        24.375,            0.,NA,NA,"",       14.4279,      -14.0987,      -3.06433,   5.25867E-03
C:/temp/dataset/test2/1_6.odb,Step-1,Increment      4: Step Time =    1.000,"PART-1-1",           235,           -5.,       25.3125,            0.,NA,NA,"",       14.8754,      -14.2311,      -4.33059,   3.09137E-03
C:/temp/dataset/test2/1_6.odb,Step-1,Increment      4: Step Time =    1.000,"PART-1-1",           236,           -4.,        24.375,            0.,NA,NA,"",       14.4620,      -13.9394,      -3.85280,   4.21067E-03
C:/temp/dataset/test2/1_6.odb,Step-1,Increment      4: Step Time =    1.000,"PART-1-1",           237,            3.,       23.4375,            0.,NA,NA,"",       14.1635,      -14.1262,      -1.02672,   5.16367E-03
C:/temp/dataset/test2/1_6.odb,Step-1,Increment      4: Step Time =    1.000,"PART-1-1",           238,            4.,          22.5,            0.,NA,NA,"",       13.8456,      -13.8343,  -559.158E-03,   6.62801E-03
C:/temp/dataset/test2/1_6.odb,Step-1,Increment      4: Step Time =    1.000,"PART-1-1",           239,            5.,       23.4375,            0.,NA,NA,"",       14.2966,      -14.2947,  -235.781E-03,   7.24176E-03
C:/temp/dataset/test2/1_6.odb,Step-1,Increment      4: Step Time =    1.000,"PART-1-1",           240,            1.,       23.4375,            0.,NA,NA,"",       14.0805,      -13.9635,      -1.81115,   5.90367E-03
C:/temp/dataset/test2/1_6.odb,Step-1,Increment      4: Step Time =    1.000,"PART-1-1",           241,            2.,          22.5,            0.,NA,NA,"",       13.7354,      -13.6695,      -1.34372,   5.44311E-03
C:/temp/dataset/test2/1_6.odb,Step-1,Increment      4: Step Time =    1.000,"PART-1-1",           242,           -1.,       23.4375,            0.,NA,NA,"",       14.0457,      -13.8042,      -2.59308,   6.01810E-03
C:/temp/dataset/test2/1_6.odb,Step-1,Increment      4: Step Time =    1.000,"PART-1-1",           243,            0.,          22.5,            0.,NA,NA,"",       13.6757,      -13.5097,      -2.12416,   5.85205E-03
C:/temp/dataset/test2/1_6.odb,Step-1,Increment      4: Step Time =    1.000,"PART-1-1",           244,           -3.,       23.4375,            0.,NA,NA,"",       14.0581,      -13.6464,      -3.37738,   5.52142E-03
C:/temp/dataset/test2/1_6.odb,Step-1,Increment      4: Step Time =    1.000,"PART-1-1",           245,           -2.,          22.5,            0.,NA,NA,"",       13.6650,      -13.3527,      -2.90481,   5.93295E-03
C:/temp/dataset/test2/1_6.odb,Step-1,Increment      4: Step Time =    1.000,"PART-1-1",           246,           -5.,       23.4375,            0.,NA,NA,"",       14.1173,      -13.4876,      -4.16901,   5.71067E-03
C:/temp/dataset/test2/1_6.odb,Step-1,Increment      4: Step Time =    1.000,"PART-1-1",           247,           -4.,          22.5,            0.,NA,NA,"",       13.7026,      -13.1962,      -3.69056,   6.18092E-03
C:/temp/dataset/test2/1_6.odb,Step-1,Increment      4: Step Time =    1.000,"PART-1-1",           248,            3.,       21.5625,            0.,NA,NA,"",       13.4059,      -13.3771,  -878.840E-03,   6.39539E-03
C:/temp/dataset/test2/1_6.odb,Step-1,Increment      4: Step Time =    1.000,"PART-1-1",           249,            4.,        20.625,            0.,NA,NA,"",       13.0933,      -13.0867,  -417.117E-03,   8.48099E-03
C:/temp/dataset/test2/1_6.odb,Step-1,Increment      4: Step Time =    1.000,"PART-1-1",           250,            5.,       21.5625,            0.,NA,NA,"",       13.5448,      -13.5445,  -94.3676E-03,   9.35104E-03
C:/temp/dataset/test2/1_6.odb,Step-1,Increment      4: Step Time =    1.000,"PART-1-1",           251,            1.,       21.5625,            0.,NA,NA,"",       13.3194,      -13.2159,      -1.65797,   5.90680E-03
C:/temp/dataset/test2/1_6.odb,Step-1,Increment      4: Step Time =    1.000,"PART-1-1",           252,            2.,        20.625,            0.,NA,NA,"",       12.9784,      -12.9233,      -1.19504,   6.11020E-03
C:/temp/dataset/test2/1_6.odb,Step-1,Increment      4: Step Time =    1.000,"PART-1-1",           253,           -1.,       21.5625,            0.,NA,NA,"",       13.2840,      -13.0588,      -2.43546,   6.24423E-03
C:/temp/dataset/test2/1_6.odb,Step-1,Increment      4: Step Time =    1.000,"PART-1-1",           254,            0.,        20.625,            0.,NA,NA,"",       12.9165,      -12.7655,      -1.96972,   5.80829E-03
C:/temp/dataset/test2/1_6.odb,Step-1,Increment      4: Step Time =    1.000,"PART-1-1",           255,           -3.,       21.5625,            0.,NA,NA,"",       13.2985,      -12.9038,      -3.21589,   6.69749E-03
C:/temp/dataset/test2/1_6.odb,Step-1,Increment      4: Step Time =    1.000,"PART-1-1",           256,           -2.,        20.625,            0.,NA,NA,"",       12.9065,      -12.6111,      -2.74533,   6.48802E-03
C:/temp/dataset/test2/1_6.odb,Step-1,Increment      4: Step Time =    1.000,"PART-1-1",           257,           -5.,       21.5625,            0.,NA,NA,"",       13.3627,      -12.7486,      -4.00427,   8.46210E-03
C:/temp/dataset/test2/1_6.odb,Step-1,Increment      4: Step Time =    1.000,"PART-1-1",           258,           -4.,        20.625,            0.,NA,NA,"",       12.9477,      -12.4581,      -3.52662,   8.20962E-03
C:/temp/dataset/test2/1_6.odb,Step-1,Increment      4: Step Time =    1.000,"PART-1-1",           259,            3.,       19.6875,            0.,NA,NA,"",       12.6539,      -12.6325,  -735.859E-03,   7.79538E-03
C:/temp/dataset/test2/1_6.odb,Step-1,Increment      4: Step Time =    1.000,"PART-1-1",           260,            4.,         18.75,            0.,NA,NA,"",       12.3472,      -12.3440,  -280.735E-03,   10.4153E-03
C:/temp/dataset/test2/1_6.odb,Step-1,Increment      4: Step Time =    1.000,"PART-1-1",           261,            5.,       19.6875,            0.,NA,NA,"",       12.7987,      -12.7986,   41.1716E-03,   11.6220E-03
C:/temp/dataset/test2/1_6.odb,Step-1,Increment      4: Step Time =    1.000,"PART-1-1",           262,            1.,       19.6875,            0.,NA,NA,"",       12.5640,      -12.4731,      -1.50800,   6.08561E-03
C:/temp/dataset/test2/1_6.odb,Step-1,Increment      4: Step Time =    1.000,"PART-1-1",           263,            2.,         18.75,            0.,NA,NA,"",       12.2276,      -12.1824,      -1.05071,   6.91563E-03
C:/temp/dataset/test2/1_6.odb,Step-1,Increment      4: Step Time =    1.000,"PART-1-1",           264,           -1.,       19.6875,            0.,NA,NA,"",       12.5278,      -12.3187,      -2.27924,   6.35483E-03
C:/temp/dataset/test2/1_6.odb,Step-1,Increment      4: Step Time =    1.000,"PART-1-1",           265,            0.,         18.75,            0.,NA,NA,"",       12.1637,      -12.0270,      -1.81797,   5.78600E-03
C:/temp/dataset/test2/1_6.odb,Step-1,Increment      4: Step Time =    1.000,"PART-1-1",           266,           -3.,       19.6875,            0.,NA,NA,"",       12.5445,      -12.1670,      -3.05403,   7.91891E-03
C:/temp/dataset/test2/1_6.odb,Step-1,Increment      4: Step Time =    1.000,"PART-1-1",           267,           -2.,         18.75,            0.,NA,NA,"",       12.1544,      -11.8759,      -2.58679,   7.08709E-03
C:/temp/dataset/test2/1_6.odb,Step-1,Increment      4: Step Time =    1.000,"PART-1-1",           268,           -5.,       19.6875,            0.,NA,NA,"",       12.6139,      -12.0161,      -3.83726,   11.1732E-03
C:/temp/dataset/test2/1_6.odb,Step-1,Increment      4: Step Time =    1.000,"PART-1-1",           269,           -4.,         18.75,            0.,NA,NA,"",       12.1994,      -11.7270,      -3.36180,   10.2358E-03
C:/temp/dataset/test2/1_6.odb,Step-1,Increment      4: Step Time =    1.000,"PART-1-1",           270,            3.,       17.8125,            0.,NA,NA,"",       11.9087,      -11.8937,  -598.161E-03,   9.22356E-03
C:/temp/dataset/test2/1_6.odb,Step-1,Increment      4: Step Time =    1.000,"PART-1-1",           271,            4.,        16.875,            0.,NA,NA,"",       11.6084,      -11.6074,  -150.584E-03,   12.3942E-03
C:/temp/dataset/test2/1_6.odb,Step-1,Increment      4: Step Time =    1.000,"PART-1-1",           272,            5.,       17.8125,            0.,NA,NA,"",       12.0592,      -12.0580,   170.159E-03,   14.0423E-03
C:/temp/dataset/test2/1_6.odb,Step-1,Increment      4: Step Time =    1.000,"PART-1-1",           273,            1.,       17.8125,            0.,NA,NA,"",       11.8155,      -11.7367,      -1.36187,   6.35146E-03
C:/temp/dataset/test2/1_6.odb,Step-1,Increment      4: Step Time =    1.000,"PART-1-1",           274,            2.,        16.875,            0.,NA,NA,"",       11.4844,      -11.4482,  -911.227E-03,   7.76556E-03
C:/temp/dataset/test2/1_6.odb,Step-1,Increment      4: Step Time =    1.000,"PART-1-1",           275,           -1.,       17.8125,            0.,NA,NA,"",       11.7787,      -11.5854,      -2.12518,   6.48192E-03
C:/temp/dataset/test2/1_6.odb,Step-1,Increment      4: Step Time =    1.000,"PART-1-1",           276,            0.,        16.875,            0.,NA,NA,"",       11.4186,      -11.2959,      -1.66952,   5.78086E-03
C:/temp/dataset/test2/1_6.odb,Step-1,Increment      4: Step Time =    1.000,"PART-1-1",           277,           -3.,       17.8125,            0.,NA,NA,"",       11.7978,      -11.4377,      -2.89259,   9.21498E-03
C:/temp/dataset/test2/1_6.odb,Step-1,Increment      4: Step Time =    1.000,"PART-1-1",           278,           -2.,        16.875,            0.,NA,NA,"",       11.4104,      -11.1486,      -2.42986,   7.77350E-03
C:/temp/dataset/test2/1_6.odb,Step-1,Increment      4: Step Time =    1.000,"PART-1-1",           279,           -5.,       17.8125,            0.,NA,NA,"",       11.8728,      -11.2917,      -3.66882,   13.8071E-03
C:/temp/dataset/test2/1_6.odb,Step-1,Increment      4: Step Time =    1.000,"PART-1-1",           280,           -4.,        16.875,            0.,NA,NA,"",       11.4595,      -11.0045,      -3.19684,   12.2465E-03
C:/temp/dataset/test2/1_6.odb,Step-1,Increment      4: Step Time =    1.000,"PART-1-1",           281,            3.,       15.9375,            0.,NA,NA,"",       11.1718,      -11.1620,  -466.308E-03,   10.6680E-03
C:/temp/dataset/test2/1_6.odb,Step-1,Increment      4: Step Time =    1.000,"PART-1-1",           282,            4.,           15.,            0.,NA,NA,"",       10.8786,      -10.8786,  -27.3167E-03,   14.4056E-03
C:/temp/dataset/test2/1_6.odb,Step-1,Increment      4: Step Time =    1.000,"PART-1-1",           283,            5.,       15.9375,            0.,NA,NA,"",       11.3279,      -11.3241,   291.839E-03,   16.5364E-03
C:/temp/dataset/test2/1_6.odb,Step-1,Increment      4: Step Time =    1.000,"PART-1-1",           284,            1.,       15.9375,            0.,NA,NA,"",       11.0754,      -11.0080,      -1.22009,   6.64595E-03
C:/temp/dataset/test2/1_6.odb,Step-1,Increment      4: Step Time =    1.000,"PART-1-1",           285,            2.,           15.,            0.,NA,NA,"",       10.7504,      -10.7223,  -777.137E-03,   8.63957E-03
C:/temp/dataset/test2/1_6.odb,Step-1,Increment      4: Step Time =    1.000,"PART-1-1",           286,           -1.,       15.9375,            0.,NA,NA,"",       11.0383,      -10.8604,      -1.97388,   6.65763E-03
C:/temp/dataset/test2/1_6.odb,Step-1,Increment      4: Step Time =    1.000,"PART-1-1",           287,            0.,           15.,            0.,NA,NA,"",       10.6830,      -10.5736,      -1.52492,   5.78086E-03
C:/temp/dataset/test2/1_6.odb,Step-1,Increment      4: Step Time =    1.000,"PART-1-1",           288,           -3.,       15.9375,            0.,NA,NA,"",       11.0601,      -10.7174,      -2.73219,   10.5701E-03
C:/temp/dataset/test2/1_6.odb,Step-1,Increment      4: Step Time =    1.000,"PART-1-1",           289,           -2.,           15.,            0.,NA,NA,"",       10.6760,      -10.4308,      -2.27513,   8.53394E-03
C:/temp/dataset/test2/1_6.odb,Step-1,Increment      4: Step Time =    1.000,"PART-1-1",           290,           -5.,       15.9375,            0.,NA,NA,"",       11.1410,      -10.5770,      -3.49971,   16.3822E-03
C:/temp/dataset/test2/1_6.odb,Step-1,Increment      4: Step Time =    1.000,"PART-1-1",           291,           -4.,           15.,            0.,NA,NA,"",       10.7295,      -10.2921,      -3.03237,   14.2460E-03
C:/temp/dataset/test2/1_6.odb,Step-1,Increment      4: Step Time =    1.000,"PART-1-1",           292,            3.,       14.0625,            0.,NA,NA,"",       10.4446,      -10.4390,  -340.888E-03,   12.1312E-03
C:/temp/dataset/test2/1_6.odb,Step-1,Increment      4: Step Time =    1.000,"PART-1-1",           293,            4.,        13.125,            0.,NA,NA,"",       10.1592,      -10.1588,   88.4503E-03,   16.4343E-03
C:/temp/dataset/test2/1_6.odb,Step-1,Increment      4: Step Time =    1.000,"PART-1-1",           294,            5.,       14.0625,            0.,NA,NA,"",       10.6060,      -10.5983,   405.550E-03,   19.0676E-03
C:/temp/dataset/test2/1_6.odb,Step-1,Increment      4: Step Time =    1.000,"PART-1-1",           295,            1.,       14.0625,            0.,NA,NA,"",       10.3455,      -10.2886,      -1.08322,   6.95698E-03
C:/temp/dataset/test2/1_6.odb,Step-1,Increment      4: Step Time =    1.000,"PART-1-1",           296,            2.,        13.125,            0.,NA,NA,"",       10.0270,      -10.0060,  -648.999E-03,   9.53842E-03
C:/temp/dataset/test2/1_6.odb,Step-1,Increment      4: Step Time =    1.000,"PART-1-1",           297,           -1.,       14.0625,            0.,NA,NA,"",       10.3083,      -10.1453,      -1.82588,   6.87780E-03
C:/temp/dataset/test2/1_6.odb,Step-1,Increment      4: Step Time =    1.000,"PART-1-1",           298,            0.,        13.125,            0.,NA,NA,"",       9.95830,      -9.86156,      -1.38469,   5.78209E-03
C:/temp/dataset/test2/1_6.odb,Step-1,Increment      4: Step Time =    1.000,"PART-1-1",           299,           -3.,       14.0625,            0.,NA,NA,"",       10.3331,      -10.0075,      -2.57344,   11.9630E-03
C:/temp/dataset/test2/1_6.odb,Step-1,Increment      4: Step Time =    1.000,"PART-1-1",           300,           -2.,        13.125,            0.,NA,NA,"",       9.95293,      -9.72384,      -2.12314,   9.34524E-03
C:/temp/dataset/test2/1_6.odb,Step-1,Increment      4: Step Time =    1.000,"PART-1-1",           301,           -5.,       14.0625,            0.,NA,NA,"",       10.4200,      -9.87340,      -3.33056,   18.9243E-03
C:/temp/dataset/test2/1_6.odb,Step-1,Increment      4: Step Time =    1.000,"PART-1-1",           302,           -4.,        13.125,            0.,NA,NA,"",       10.0111,      -9.59117,      -2.86898,   16.2398E-03
C:/temp/dataset/test2/1_6.odb,Step-1,Increment      4: Step Time =    1.000,"PART-1-1",           303,            3.,       12.1875,            0.,NA,NA,"",       9.72883,      -9.72628,  -222.481E-03,   13.6127E-03
C:/temp/dataset/test2/1_6.odb,Step-1,Increment      4: Step Time =    1.000,"PART-1-1",           304,            4.,         11.25,            0.,NA,NA,"",       9.45194,      -9.44990,   196.134E-03,   18.4730E-03
C:/temp/dataset/test2/1_6.odb,Step-1,Increment      4: Step Time =    1.000,"PART-1-1",           305,            5.,       12.1875,            0.,NA,NA,"",       9.89535,      -9.88216,   510.675E-03,   21.6146E-03
C:/temp/dataset/test2/1_6.odb,Step-1,Increment      4: Step Time =    1.000,"PART-1-1",           306,            1.,       12.1875,            0.,NA,NA,"",       9.62712,      -9.57996,  -951.780E-03,   7.28667E-03
C:/temp/dataset/test2/1_6.odb,Step-1,Increment      4: Step Time =    1.000,"PART-1-1",           307,            2.,         11.25,            0.,NA,NA,"",       9.31600,      -9.30106,  -527.361E-03,   10.4620E-03
C:/temp/dataset/test2/1_6.odb,Step-1,Increment      4: Step Time =    1.000,"PART-1-1",           308,           -1.,       12.1875,            0.,NA,NA,"",       9.59021,      -9.44161,      -1.68171,   7.13133E-03
C:/temp/dataset/test2/1_6.odb,Step-1,Increment      4: Step Time =    1.000,"PART-1-1",           309,            0.,         11.25,            0.,NA,NA,"",       9.24617,      -9.16137,      -1.24936,   5.78360E-03
C:/temp/dataset/test2/1_6.odb,Step-1,Increment      4: Step Time =    1.000,"PART-1-1",           310,           -3.,       12.1875,            0.,NA,NA,"",       9.61822,      -9.30961,      -2.41686,   13.3777E-03
C:/temp/dataset/test2/1_6.odb,Step-1,Increment      4: Step Time =    1.000,"PART-1-1",           311,           -2.,         11.25,            0.,NA,NA,"",       9.24263,      -9.02928,      -1.97442,   10.1890E-03
C:/temp/dataset/test2/1_6.odb,Step-1,Increment      4: Step Time =    1.000,"PART-1-1",           312,           -5.,       12.1875,            0.,NA,NA,"",       9.71146,      -9.18230,      -3.16192,   21.4507E-03
C:/temp/dataset/test2/1_6.odb,Step-1,Increment      4: Step Time =    1.000,"PART-1-1",           313,           -4.,         11.25,            0.,NA,NA,"",       9.30568,      -8.90320,      -2.70719,   18.2311E-03
C:/temp/dataset/test2/1_6.odb,Step-1,Increment      4: Step Time =    1.000,"PART-1-1",           314,            3.,       10.3125,            0.,NA,NA,"",       9.02604,      -9.02535,  -111.638E-03,   15.1101E-03
C:/temp/dataset/test2/1_6.odb,Step-1,Increment      4: Step Time =    1.000,"PART-1-1",           315,            4.,         9.375,            0.,NA,NA,"",       8.75830,      -8.75332,   295.192E-03,   20.5180E-03
C:/temp/dataset/test2/1_6.odb,Step-1,Increment      4: Step Time =    1.000,"PART-1-1",           316,            5.,       10.3125,            0.,NA,NA,"",       9.19737,      -9.17734,   606.646E-03,   24.1679E-03
C:/temp/dataset/test2/1_6.odb,Step-1,Increment      4: Step Time =    1.000,"PART-1-1",           317,            1.,       10.3125,            0.,NA,NA,"",       8.92200,      -8.88365,  -826.306E-03,   7.63826E-03
C:/temp/dataset/test2/1_6.odb,Step-1,Increment      4: Step Time =    1.000,"PART-1-1",           318,            2.,         9.375,            0.,NA,NA,"",       8.61885,      -8.60897,  -412.746E-03,   11.4087E-03
C:/temp/dataset/test2/1_6.odb,Step-1,Increment      4: Step Time =    1.000,"PART-1-1",           319,           -1.,       10.3125,            0.,NA,NA,"",       8.88555,      -8.75075,      -1.54187,   7.40861E-03
C:/temp/dataset/test2/1_6.odb,Step-1,Increment      4: Step Time =    1.000,"PART-1-1",           320,            0.,         9.375,            0.,NA,NA,"",       8.54816,      -8.47455,      -1.11943,   5.78546E-03
C:/temp/dataset/test2/1_6.odb,Step-1,Increment      4: Step Time =    1.000,"PART-1-1",           321,           -3.,       10.3125,            0.,NA,NA,"",       8.91703,      -8.62510,      -2.26296,   14.8049E-03
C:/temp/dataset/test2/1_6.odb,Step-1,Increment      4: Step Time =    1.000,"PART-1-1",           322,           -2.,         9.375,            0.,NA,NA,"",       8.54669,      -8.34860,      -1.82944,   11.0534E-03
C:/temp/dataset/test2/1_6.odb,Step-1,Increment      4: Step Time =    1.000,"PART-1-1",           323,           -5.,       10.3125,            0.,NA,NA,"",       9.01684,      -8.50515,      -2.99429,   23.9703E-03
C:/temp/dataset/test2/1_6.odb,Step-1,Increment      4: Step Time =    1.000,"PART-1-1",           324,           -4.,         9.375,            0.,NA,NA,"",       8.61488,      -8.22961,      -2.54748,   20.2208E-03
C:/temp/dataset/test2/1_6.odb,Step-1,Increment      4: Step Time =    1.000,"PART-1-1",           325,            3.,        8.4375,            0.,NA,NA,"",       8.33783,      -8.33783,  -8.87650E-03,   16.6209E-03
C:/temp/dataset/test2/1_6.odb,Step-1,Increment      4: Step Time =    1.000,"PART-1-1",           326,            4.,           7.5,            0.,NA,NA,"",       8.07991,      -8.07072,   385.117E-03,   22.5674E-03
C:/temp/dataset/test2/1_6.odb,Step-1,Increment      4: Step Time =    1.000,"PART-1-1",           327,            5.,        8.4375,            0.,NA,NA,"",       8.51370,      -8.48545,   692.935E-03,   26.7236E-03
C:/temp/dataset/test2/1_6.odb,Step-1,Increment      4: Step Time =    1.000,"PART-1-1",           328,            1.,        8.4375,            0.,NA,NA,"",       8.23167,      -8.20123,  -707.295E-03,   8.01290E-03
C:/temp/dataset/test2/1_6.odb,Step-1,Increment      4: Step Time =    1.000,"PART-1-1",           329,            2.,           7.5,            0.,NA,NA,"",       7.93720,      -7.93131,  -305.648E-03,   12.3756E-03
C:/temp/dataset/test2/1_6.odb,Step-1,Increment      4: Step Time =    1.000,"PART-1-1",           330,           -1.,        8.4375,            0.,NA,NA,"",       8.19590,      -8.07425,      -1.40685,   7.70300E-03
C:/temp/dataset/test2/1_6.odb,Step-1,Increment      4: Step Time =    1.000,"PART-1-1",           331,            0.,           7.5,            0.,NA,NA,"",       7.86585,      -7.80262,  -995.381E-03,   5.78785E-03
C:/temp/dataset/test2/1_6.odb,Step-1,Increment      4: Step Time =    1.000,"PART-1-1",           332,           -3.,        8.4375,            0.,NA,NA,"",       8.23108,      -7.95545,      -2.11221,   16.2390E-03
C:/temp/dataset/test2/1_6.odb,Step-1,Increment      4: Step Time =    1.000,"PART-1-1",           333,           -2.,           7.5,            0.,NA,NA,"",       7.86666,      -7.68327,      -1.68869,   11.9311E-03
C:/temp/dataset/test2/1_6.odb,Step-1,Increment      4: Step Time =    1.000,"PART-1-1",           334,           -5.,        8.4375,            0.,NA,NA,"",       8.33767,      -7.84337,      -2.82813,   26.4864E-03
C:/temp/dataset/test2/1_6.odb,Step-1,Increment      4: Step Time =    1.000,"PART-1-1",           335,           -4.,           7.5,            0.,NA,NA,"",       7.94020,      -7.57187,      -2.39030,   22.2091E-03
C:/temp/dataset/test2/1_6.odb,Step-1,Increment      4: Step Time =    1.000,"PART-1-1",           336,            3.,        6.5625,            0.,NA,NA,"",       7.66580,      -7.66532,   85.3230E-03,   18.1428E-03
C:/temp/dataset/test2/1_6.odb,Step-1,Increment      4: Step Time =    1.000,"PART-1-1",           337,            4.,         5.625,            0.,NA,NA,"",       7.41837,      -7.40375,   465.445E-03,   24.6203E-03
C:/temp/dataset/test2/1_6.odb,Step-1,Increment      4: Step Time =    1.000,"PART-1-1",           338,            5.,        6.5625,            0.,NA,NA,"",       7.84592,      -7.80814,   769.052E-03,   29.2804E-03
C:/temp/dataset/test2/1_6.odb,Step-1,Increment      4: Step Time =    1.000,"PART-1-1",           339,            1.,        6.5625,            0.,NA,NA,"",       7.55773,      -7.53426,  -595.211E-03,   8.40992E-03
C:/temp/dataset/test2/1_6.odb,Step-1,Increment      4: Step Time =    1.000,"PART-1-1",           340,            2.,         5.625,            0.,NA,NA,"",       7.27263,      -7.26970,  -206.520E-03,   13.3598E-03
C:/temp/dataset/test2/1_6.odb,Step-1,Increment      4: Step Time =    1.000,"PART-1-1",           341,           -1.,        6.5625,            0.,NA,NA,"",       7.52284,      -7.41364,      -1.27711,   8.01013E-03
C:/temp/dataset/test2/1_6.odb,Step-1,Increment      4: Step Time =    1.000,"PART-1-1",           342,            0.,         5.625,            0.,NA,NA,"",       7.20082,      -7.14714,  -877.648E-03,   5.79094E-03
C:/temp/dataset/test2/1_6.odb,Step-1,Increment      4: Step Time =    1.000,"PART-1-1",           343,           -3.,        6.5625,            0.,NA,NA,"",       7.56193,      -7.30215,      -1.96505,   17.6766E-03
C:/temp/dataset/test2/1_6.odb,Step-1,Increment      4: Step Time =    1.000,"PART-1-1",           344,           -2.,         5.625,            0.,NA,NA,"",       7.20410,      -7.03481,      -1.55257,   12.8174E-03
C:/temp/dataset/test2/1_6.odb,Step-1,Increment      4: Step Time =    1.000,"PART-1-1",           345,           -5.,        6.5625,            0.,NA,NA,"",       7.67548,      -7.19840,      -2.66386,   29.0000E-03
C:/temp/dataset/test2/1_6.odb,Step-1,Increment      4: Step Time =    1.000,"PART-1-1",           346,           -4.,         5.625,            0.,NA,NA,"",       7.28317,      -6.93142,      -2.23607,   24.1953E-03
C:/temp/dataset/test2/1_6.odb,Step-1,Increment      4: Step Time =    1.000,"PART-1-1",           347,            3.,        4.6875,            0.,NA,NA,"",       7.01154,      -7.00947,   170.521E-03,   19.6739E-03
C:/temp/dataset/test2/1_6.odb,Step-1,Increment      4: Step Time =    1.000,"PART-1-1",           348,            4.,          3.75,            0.,NA,NA,"",       6.77528,      -6.75407,   535.752E-03,   26.6759E-03
C:/temp/dataset/test2/1_6.odb,Step-1,Increment      4: Step Time =    1.000,"PART-1-1",           349,            5.,        4.6875,            0.,NA,NA,"",       7.19564,      -7.14709,   834.547E-03,   31.8378E-03
C:/temp/dataset/test2/1_6.odb,Step-1,Increment      4: Step Time =    1.000,"PART-1-1",           350,            1.,        4.6875,            0.,NA,NA,"",       6.90177,      -6.88432,  -490.483E-03,   8.82775E-03
C:/temp/dataset/test2/1_6.odb,Step-1,Increment      4: Step Time =    1.000,"PART-1-1",           351,            2.,          3.75,            0.,NA,NA,"",       6.62675,      -6.62573,  -115.774E-03,   14.3586E-03
C:/temp/dataset/test2/1_6.odb,Step-1,Increment      4: Step Time =    1.000,"PART-1-1",           352,           -1.,        4.6875,            0.,NA,NA,"",       6.86794,      -6.77046,      -1.15304,   8.32711E-03
C:/temp/dataset/test2/1_6.odb,Step-1,Increment      4: Step Time =    1.000,"PART-1-1",           353,            0.,          3.75,            0.,NA,NA,"",       6.55466,      -6.50967,  -766.632E-03,   5.79491E-03
C:/temp/dataset/test2/1_6.odb,Step-1,Increment      4: Step Time =    1.000,"PART-1-1",           354,           -3.,        4.6875,            0.,NA,NA,"",       6.91112,      -6.66666,      -1.82188,   19.1157E-03
C:/temp/dataset/test2/1_6.odb,Step-1,Increment      4: Step Time =    1.000,"PART-1-1",           355,           -2.,          3.75,            0.,NA,NA,"",       6.56058,      -6.40473,      -1.42148,   13.7094E-03
C:/temp/dataset/test2/1_6.odb,Step-1,Increment      4: Step Time =    1.000,"PART-1-1",           356,           -5.,        4.6875,            0.,NA,NA,"",       7.03180,      -6.57167,      -2.50186,   31.5109E-03
C:/temp/dataset/test2/1_6.odb,Step-1,Increment      4: Step Time =    1.000,"PART-1-1",           357,           -4.,          3.75,            0.,NA,NA,"",       6.64535,      -6.30975,      -2.08514,   26.1788E-03
C:/temp/dataset/test2/1_6.odb,Step-1,Increment      4: Step Time =    1.000,"PART-1-1",           358,            3.,        2.8125,            0.,NA,NA,"",       6.37667,      -6.37191,   246.323E-03,   21.2125E-03
C:/temp/dataset/test2/1_6.odb,Step-1,Increment      4: Step Time =    1.000,"PART-1-1",           359,            4.,         1.875,            0.,NA,NA,"",       6.15226,      -6.12335,   595.664E-03,   28.7338E-03
C:/temp/dataset/test2/1_6.odb,Step-1,Increment      4: Step Time =    1.000,"PART-1-1",           360,            5.,        2.8125,            0.,NA,NA,"",       6.56446,      -6.50398,   889.017E-03,   34.3953E-03
C:/temp/dataset/test2/1_6.odb,Step-1,Increment      4: Step Time =    1.000,"PART-1-1",           361,            1.,        2.8125,            0.,NA,NA,"",       6.26539,      -6.25302,  -393.494E-03,   9.26448E-03
C:/temp/dataset/test2/1_6.odb,Step-1,Increment      4: Step Time =    1.000,"PART-1-1",           362,            2.,         1.875,            0.,NA,NA,"",       6.00115,      -6.00105,  -33.7749E-03,   15.3697E-03
C:/temp/dataset/test2/1_6.odb,Step-1,Increment      4: Step Time =    1.000,"PART-1-1",           363,           -1.,        2.8125,            0.,NA,NA,"",       6.23279,      -6.14625,      -1.03503,   8.65179E-03
C:/temp/dataset/test2/1_6.odb,Step-1,Increment      4: Step Time =    1.000,"PART-1-1",           364,            0.,         1.875,            0.,NA,NA,"",       5.92895,      -5.89179,  -662.683E-03,   5.79989E-03
C:/temp/dataset/test2/1_6.odb,Step-1,Increment      4: Step Time =    1.000,"PART-1-1",           365,           -3.,        2.8125,            0.,NA,NA,"",       6.28022,      -6.05050,      -1.68305,   20.5546E-03
C:/temp/dataset/test2/1_6.odb,Step-1,Increment      4: Step Time =    1.000,"PART-1-1",           366,           -2.,         1.875,            0.,NA,NA,"",       5.93767,      -5.79456,      -1.29575,   14.6048E-03
C:/temp/dataset/test2/1_6.odb,Step-1,Increment      4: Step Time =    1.000,"PART-1-1",           367,           -5.,        2.8125,            0.,NA,NA,"",       6.40813,      -5.96465,      -2.34246,   34.0189E-03
C:/temp/dataset/test2/1_6.odb,Step-1,Increment      4: Step Time =    1.000,"PART-1-1",           368,           -4.,         1.875,            0.,NA,NA,"",       6.02827,      -5.70832,      -1.93783,   28.1592E-03
C:/temp/dataset/test2/1_6.odb,Step-1,Increment      4: Step Time =    1.000,"PART-1-1",           369,            3.,     937.5E-03,            0.,NA,NA,"",       5.76279,      -5.75432,   312.384E-03,   22.7573E-03
C:/temp/dataset/test2/1_6.odb,Step-1,Increment      4: Step Time =    1.000,"PART-1-1",           370,            4.,            0.,            0.,NA,NA,"",       5.55091,      -5.51332,   644.855E-03,   30.7934E-03
C:/temp/dataset/test2/1_6.odb,Step-1,Increment      4: Step Time =    1.000,"PART-1-1",           371,            5.,     937.5E-03,            0.,NA,NA,"",       5.95398,      -5.88056,   932.106E-03,   36.9528E-03
C:/temp/dataset/test2/1_6.odb,Step-1,Increment      4: Step Time =    1.000,"PART-1-1",           372,            1.,     937.5E-03,            0.,NA,NA,"",       5.65018,      -5.64196,  -304.575E-03,   9.71827E-03
C:/temp/dataset/test2/1_6.odb,Step-1,Increment      4: Step Time =    1.000,"PART-1-1",           373,            2.,            0.,            0.,NA,NA,"",       5.39745,      -5.39731,   39.1645E-03,   16.3914E-03
C:/temp/dataset/test2/1_6.odb,Step-1,Increment      4: Step Time =    1.000,"PART-1-1",           374,           -1.,     937.5E-03,            0.,NA,NA,"",       5.61896,      -5.54256,  -923.393E-03,   8.98249E-03
C:/temp/dataset/test2/1_6.odb,Step-1,Increment      4: Step Time =    1.000,"PART-1-1",           375,            0.,            0.,            0.,NA,NA,"",       5.32528,      -5.29511,  -566.104E-03,   5.80605E-03
C:/temp/dataset/test2/1_6.odb,Step-1,Increment      4: Step Time =    1.000,"PART-1-1",           376,           -3.,     937.5E-03,            0.,NA,NA,"",       5.67078,      -5.45516,      -1.54886,   21.9921E-03
C:/temp/dataset/test2/1_6.odb,Step-1,Increment      4: Step Time =    1.000,"PART-1-1",           377,           -2.,            0.,            0.,NA,NA,"",       5.33694,      -5.20584,      -1.17567,   15.5020E-03
C:/temp/dataset/test2/1_6.odb,Step-1,Increment      4: Step Time =    1.000,"PART-1-1",           378,           -5.,     937.5E-03,            0.,NA,NA,"",       5.80598,      -5.37877,      -2.18594,   36.5233E-03
C:/temp/dataset/test2/1_6.odb,Step-1,Increment      4: Step Time =    1.000,"PART-1-1",           379,           -4.,            0.,            0.,NA,NA,"",       5.43347,      -5.12861,      -1.79442,   30.1357E-03
C:/temp/dataset/test2/1_6.odb,Step-1,Increment      4: Step Time =    1.000,"PART-1-1",           380,            3.,    -937.5E-03,            0.,NA,NA,"",       5.17152,      -5.15838,   368.413E-03,   24.3074E-03
C:/temp/dataset/test2/1_6.odb,Step-1,Increment      4: Step Time =    1.000,"PART-1-1",           381,            4.,        -1.875,            0.,NA,NA,"",       4.97284,      -4.92571,   683.059E-03,   32.8542E-03
C:/temp/dataset/test2/1_6.odb,Step-1,Increment      4: Step Time =    1.000,"PART-1-1",           382,            5.,    -937.5E-03,            0.,NA,NA,"",       5.36579,      -5.27857,   963.513E-03,   39.5097E-03
C:/temp/dataset/test2/1_6.odb,Step-1,Increment      4: Step Time =    1.000,"PART-1-1",           383,            1.,    -937.5E-03,            0.,NA,NA,"",       5.05775,      -5.05278,  -224.008E-03,   10.1874E-03
C:/temp/dataset/test2/1_6.odb,Step-1,Increment      4: Step Time =    1.000,"PART-1-1",           384,            2.,        -1.875,            0.,NA,NA,"",       4.81727,      -4.81617,   102.787E-03,   17.4220E-03
C:/temp/dataset/test2/1_6.odb,Step-1,Increment      4: Step Time =    1.000,"PART-1-1",           385,           -1.,    -937.5E-03,            0.,NA,NA,"",       5.02803,      -4.96098,  -818.391E-03,   9.31777E-03
C:/temp/dataset/test2/1_6.odb,Step-1,Increment      4: Step Time =    1.000,"PART-1-1",           386,            0.,        -1.875,            0.,NA,NA,"",       4.74526,      -4.72122,  -477.139E-03,   5.81354E-03
C:/temp/dataset/test2/1_6.odb,Step-1,Increment      4: Step Time =    1.000,"PART-1-1",           387,           -3.,    -937.5E-03,            0.,NA,NA,"",       5.08436,      -4.88216,      -1.41956,   23.4272E-03
C:/temp/dataset/test2/1_6.odb,Step-1,Increment      4: Step Time =    1.000,"PART-1-1",           388,           -2.,        -1.875,            0.,NA,NA,"",       4.75997,      -4.64011,      -1.06146,   16.3995E-03
C:/temp/dataset/test2/1_6.odb,Step-1,Increment      4: Step Time =    1.000,"PART-1-1",           389,           -5.,    -937.5E-03,            0.,NA,NA,"",       5.22686,      -4.81549,      -2.03252,   39.0235E-03
C:/temp/dataset/test2/1_6.odb,Step-1,Increment      4: Step Time =    1.000,"PART-1-1",           390,           -4.,        -1.875,            0.,NA,NA,"",       4.86246,      -4.57211,      -1.65511,   32.1077E-03
C:/temp/dataset/test2/1_6.odb,Step-1,Increment      4: Step Time =    1.000,"PART-1-1",           391,            3.,       -2.8125,            0.,NA,NA,"",       4.60449,      -4.58582,   414.176E-03,   25.8616E-03
C:/temp/dataset/test2/1_6.odb,Step-1,Increment      4: Step Time =    1.000,"PART-1-1",           392,            4.,         -3.75,            0.,NA,NA,"",       4.41968,      -4.36227,   710.068E-03,   34.9154E-03
C:/temp/dataset/test2/1_6.odb,Step-1,Increment      4: Step Time =    1.000,"PART-1-1",           393,            5.,       -2.8125,            0.,NA,NA,"",       4.80149,      -4.69979,   982.995E-03,   42.0655E-03
C:/temp/dataset/test2/1_6.odb,Step-1,Increment      4: Step Time =    1.000,"PART-1-1",           394,            1.,       -2.8125,            0.,NA,NA,"",       4.48971,      -4.48714,  -152.014E-03,   10.6703E-03
C:/temp/dataset/test2/1_6.odb,Step-1,Increment      4: Step Time =    1.000,"PART-1-1",           395,            2.,         -3.75,            0.,NA,NA,"",       4.26223,      -4.25934,   156.896E-03,   18.4603E-03
C:/temp/dataset/test2/1_6.odb,Step-1,Increment      4: Step Time =    1.000,"PART-1-1",           396,           -1.,       -2.8125,            0.,NA,NA,"",       4.46161,      -4.40309,  -720.235E-03,   9.65638E-03
C:/temp/dataset/test2/1_6.odb,Step-1,Increment      4: Step Time =    1.000,"PART-1-1",           397,            0.,         -3.75,            0.,NA,NA,"",       4.19050,      -4.17175,  -395.972E-03,   5.82253E-03
C:/temp/dataset/test2/1_6.odb,Step-1,Increment      4: Step Time =    1.000,"PART-1-1",           398,           -3.,       -2.8125,            0.,NA,NA,"",       4.52250,      -4.33303,      -1.29534,   24.8589E-03
C:/temp/dataset/test2/1_6.odb,Step-1,Increment      4: Step Time =    1.000,"PART-1-1",           399,           -2.,         -3.75,            0.,NA,NA,"",       4.20833,      -4.09893,  -953.300E-03,   17.2962E-03
C:/temp/dataset/test2/1_6.odb,Step-1,Increment      4: Step Time =    1.000,"PART-1-1",           400,           -5.,       -2.8125,            0.,NA,NA,"",       4.67224,      -4.27626,      -1.88239,   41.5190E-03
C:/temp/dataset/test2/1_6.odb,Step-1,Increment      4: Step Time =    1.000,"PART-1-1",           401,           -4.,         -3.75,            0.,NA,NA,"",       4.31679,      -4.04031,      -1.52006,   34.0747E-03
C:/temp/dataset/test2/1_6.odb,Step-1,Increment      4: Step Time =    1.000,"PART-1-1",           402,            3.,       -4.6875,            0.,NA,NA,"",       4.06331,      -4.03837,   449.506E-03,   27.4192E-03
C:/temp/dataset/test2/1_6.odb,Step-1,Increment      4: Step Time =    1.000,"PART-1-1",           403,            4.,        -5.625,            0.,NA,NA,"",       3.89303,      -3.82478,   725.745E-03,   36.9766E-03
C:/temp/dataset/test2/1_6.odb,Step-1,Increment      4: Step Time =    1.000,"PART-1-1",           404,            5.,       -4.6875,            0.,NA,NA,"",       4.26266,      -4.14602,   990.375E-03,   44.6195E-03
C:/temp/dataset/test2/1_6.odb,Step-1,Increment      4: Step Time =    1.000,"PART-1-1",           405,            1.,       -4.6875,            0.,NA,NA,"",       3.94769,      -3.94669,  -88.7509E-03,   11.1657E-03
C:/temp/dataset/test2/1_6.odb,Step-1,Increment      4: Step Time =    1.000,"PART-1-1",           406,            2.,        -5.625,            0.,NA,NA,"",       3.73394,      -3.72851,   201.361E-03,   19.5052E-03
C:/temp/dataset/test2/1_6.odb,Step-1,Increment      4: Step Time =    1.000,"PART-1-1",           407,           -1.,       -4.6875,            0.,NA,NA,"",       3.92128,      -3.87049,  -629.073E-03,   9.99722E-03
C:/temp/dataset/test2/1_6.odb,Step-1,Increment      4: Step Time =    1.000,"PART-1-1",           408,            0.,        -5.625,            0.,NA,NA,"",       3.66259,      -3.64834,  -322.724E-03,   5.83319E-03
C:/temp/dataset/test2/1_6.odb,Step-1,Increment      4: Step Time =    1.000,"PART-1-1",           409,           -3.,       -4.6875,            0.,NA,NA,"",       3.98677,      -3.80928,      -1.17634,   26.2865E-03
C:/temp/dataset/test2/1_6.odb,Step-1,Increment      4: Step Time =    1.000,"PART-1-1",           410,           -2.,        -5.625,            0.,NA,NA,"",       3.68359,      -3.58388,  -851.294E-03,   18.1910E-03
C:/temp/dataset/test2/1_6.odb,Step-1,Increment      4: Step Time =    1.000,"PART-1-1",           411,           -5.,       -4.6875,            0.,NA,NA,"",       4.14358,      -3.76255,      -1.73566,   44.0090E-03
C:/temp/dataset/test2/1_6.odb,Step-1,Increment      4: Step Time =    1.000,"PART-1-1",           412,           -4.,        -5.625,            0.,NA,NA,"",       3.79795,      -3.53470,      -1.38936,   36.0360E-03
C:/temp/dataset/test2/1_6.odb,Step-1,Increment      4: Step Time =    1.000,"PART-1-1",           413,            3.,       -6.5625,            0.,NA,NA,"",       3.54961,      -3.51778,   474.301E-03,   28.9792E-03
C:/temp/dataset/test2/1_6.odb,Step-1,Increment      4: Step Time =    1.000,"PART-1-1",           414,            4.,          -7.5,            0.,NA,NA,"",       3.39448,      -3.31505,   730.021E-03,   39.0368E-03
C:/temp/dataset/test2/1_6.odb,Step-1,Increment      4: Step Time =    1.000,"PART-1-1",           415,            5.,       -6.5625,            0.,NA,NA,"",       3.75088,      -3.61909,   985.545E-03,   47.1710E-03
C:/temp/dataset/test2/1_6.odb,Step-1,Increment      4: Step Time =    1.000,"PART-1-1",           416,            1.,       -6.5625,            0.,NA,NA,"",       3.43329,      -3.43312,  -34.3113E-03,   11.6723E-03
C:/temp/dataset/test2/1_6.odb,Step-1,Increment      4: Step Time =    1.000,"PART-1-1",           417,            2.,          -7.5,            0.,NA,NA,"",       3.23405,      -3.22542,   236.121E-03,   20.5556E-03
C:/temp/dataset/test2/1_6.odb,Step-1,Increment      4: Step Time =    1.000,"PART-1-1",           418,           -1.,       -6.5625,            0.,NA,NA,"",       3.40863,      -3.36478,  -544.983E-03,   10.3393E-03
C:/temp/dataset/test2/1_6.odb,Step-1,Increment      4: Step Time =    1.000,"PART-1-1",           419,            0.,          -7.5,            0.,NA,NA,"",       3.16315,      -3.15265,  -257.446E-03,   5.84571E-03
C:/temp/dataset/test2/1_6.odb,Step-1,Increment      4: Step Time =    1.000,"PART-1-1",           420,           -3.,       -6.5625,            0.,NA,NA,"",       3.47872,      -3.31245,      -1.06262,   27.7091E-03
C:/temp/dataset/test2/1_6.odb,Step-1,Increment      4: Step Time =    1.000,"PART-1-1",           421,           -2.,          -7.5,            0.,NA,NA,"",       3.18734,      -3.09652,  -755.483E-03,   19.0831E-03
C:/temp/dataset/test2/1_6.odb,Step-1,Increment      4: Step Time =    1.000,"PART-1-1",           422,           -5.,       -6.5625,            0.,NA,NA,"",       3.64233,      -3.27582,      -1.59236,   46.4928E-03
C:/temp/dataset/test2/1_6.odb,Step-1,Increment      4: Step Time =    1.000,"PART-1-1",           423,           -4.,          -7.5,            0.,NA,NA,"",       3.30745,      -3.05680,      -1.26303,   37.9909E-03
C:/temp/dataset/test2/1_6.odb,Step-1,Increment      4: Step Time =    1.000,"PART-1-1",           424,            3.,       -8.4375,            0.,NA,NA,"",       3.06502,      -3.02583,   488.536E-03,   30.5407E-03
C:/temp/dataset/test2/1_6.odb,Step-1,Increment      4: Step Time =    1.000,"PART-1-1",           425,            4.,        -9.375,            0.,NA,NA,"",       2.92562,      -2.83490,   722.905E-03,   41.0953E-03
C:/temp/dataset/test2/1_6.odb,Step-1,Increment      4: Step Time =    1.000,"PART-1-1",           426,            5.,       -8.4375,            0.,NA,NA,"",       3.26766,      -3.12084,   968.471E-03,   49.7190E-03
C:/temp/dataset/test2/1_6.odb,Step-1,Increment      4: Step Time =    1.000,"PART-1-1",           427,            1.,       -8.4375,            0.,NA,NA,"",       2.94815,      -2.94813,   11.2855E-03,   12.1891E-03
C:/temp/dataset/test2/1_6.odb,Step-1,Increment      4: Step Time =    1.000,"PART-1-1",           428,            2.,        -9.375,            0.,NA,NA,"",       2.76418,      -2.75182,   261.193E-03,   21.6106E-03
C:/temp/dataset/test2/1_6.odb,Step-1,Increment      4: Step Time =    1.000,"PART-1-1",           429,           -1.,       -8.4375,            0.,NA,NA,"",       2.92526,      -2.88759,  -467.978E-03,   10.6818E-03
C:/temp/dataset/test2/1_6.odb,Step-1,Increment      4: Step Time =    1.000,"PART-1-1",           430,            0.,        -9.375,            0.,NA,NA,"",       2.69378,      -2.68634,  -200.116E-03,   5.86030E-03
C:/temp/dataset/test2/1_6.odb,Step-1,Increment      4: Step Time =    1.000,"PART-1-1",           431,           -3.,       -8.4375,            0.,NA,NA,"",       2.99989,      -2.84409,  -954.179E-03,   29.1261E-03
C:/temp/dataset/test2/1_6.odb,Step-1,Increment      4: Step Time =    1.000,"PART-1-1",           432,           -2.,        -9.375,            0.,NA,NA,"",       2.72115,      -2.63844,  -665.835E-03,   19.9716E-03
C:/temp/dataset/test2/1_6.odb,Step-1,Increment      4: Step Time =    1.000,"PART-1-1",           433,           -5.,       -8.4375,            0.,NA,NA,"",       3.16988,      -2.81752,      -1.45250,   48.9695E-03
C:/temp/dataset/test2/1_6.odb,Step-1,Increment      4: Step Time =    1.000,"PART-1-1",           434,           -4.,        -9.375,            0.,NA,NA,"",       2.84676,      -2.60808,      -1.14102,   39.9385E-03
C:/temp/dataset/test2/1_6.odb,Step-1,Increment      4: Step Time =    1.000,"PART-1-1",           435,            3.,      -10.3125,            0.,NA,NA,"",       2.61113,      -2.56431,   492.262E-03,   32.1030E-03
C:/temp/dataset/test2/1_6.odb,Step-1,Increment      4: Step Time =    1.000,"PART-1-1",           436,            4.,        -11.25,            0.,NA,NA,"",       2.48799,      -2.38617,   704.489E-03,   43.1511E-03
C:/temp/dataset/test2/1_6.odb,Step-1,Increment      4: Step Time =    1.000,"PART-1-1",           437,            5.,      -10.3125,            0.,NA,NA,"",       2.81449,      -2.65316,   939.203E-03,   52.2627E-03
C:/temp/dataset/test2/1_6.odb,Step-1,Increment      4: Step Time =    1.000,"PART-1-1",           438,            1.,      -10.3125,            0.,NA,NA,"",       2.49388,      -2.49342,   48.0967E-03,   12.7150E-03
C:/temp/dataset/test2/1_6.odb,Step-1,Increment      4: Step Time =    1.000,"PART-1-1",           439,            2.,        -11.25,            0.,NA,NA,"",       2.32596,      -2.30945,   276.669E-03,   22.6693E-03
C:/temp/dataset/test2/1_6.odb,Step-1,Increment      4: Step Time =    1.000,"PART-1-1",           440,           -1.,      -10.3125,            0.,NA,NA,"",       2.47278,      -2.44054,  -397.993E-03,   11.0237E-03
C:/temp/dataset/test2/1_6.odb,Step-1,Increment      4: Step Time =    1.000,"PART-1-1",           441,            0.,        -11.25,            0.,NA,NA,"",       2.25612,      -2.25108,  -150.635E-03,   5.87720E-03
C:/temp/dataset/test2/1_6.odb,Step-1,Increment      4: Step Time =    1.000,"PART-1-1",           442,           -3.,      -10.3125,            0.,NA,NA,"",       2.55180,      -2.40574,  -850.946E-03,   30.5366E-03
C:/temp/dataset/test2/1_6.odb,Step-1,Increment      4: Step Time =    1.000,"PART-1-1",           443,           -2.,        -11.25,            0.,NA,NA,"",       2.28660,      -2.21123,  -582.243E-03,   20.8557E-03
C:/temp/dataset/test2/1_6.odb,Step-1,Increment      4: Step Time =    1.000,"PART-1-1",           444,           -5.,      -10.3125,            0.,NA,NA,"",       2.72757,      -2.38911,      -1.31597,   51.4382E-03
C:/temp/dataset/test2/1_6.odb,Step-1,Increment      4: Step Time =    1.000,"PART-1-1",           445,           -4.,        -11.25,            0.,NA,NA,"",       2.41732,      -2.19007,      -1.02323,   41.8782E-03
C:/temp/dataset/test2/1_6.odb,Step-1,Increment      4: Step Time =    1.000,"PART-1-1",           446,            3.,      -12.1875,            0.,NA,NA,"",       2.18956,      -2.13503,   485.614E-03,   33.6649E-03
C:/temp/dataset/test2/1_6.odb,Step-1,Increment      4: Step Time =    1.000,"PART-1-1",           447,            4.,       -13.125,            0.,NA,NA,"",       2.08310,      -1.97072,   674.952E-03,   45.2030E-03
C:/temp/dataset/test2/1_6.odb,Step-1,Increment      4: Step Time =    1.000,"PART-1-1",           448,            5.,      -12.1875,            0.,NA,NA,"",       2.39278,      -2.21793,   897.873E-03,   54.8007E-03
C:/temp/dataset/test2/1_6.odb,Step-1,Increment      4: Step Time =    1.000,"PART-1-1",           449,            1.,      -12.1875,            0.,NA,NA,"",       2.07213,      -2.07072,   76.2601E-03,   13.2493E-03
C:/temp/dataset/test2/1_6.odb,Step-1,Increment      4: Step Time =    1.000,"PART-1-1",           450,            2.,       -13.125,            0.,NA,NA,"",       1.92102,      -1.90010,   282.731E-03,   23.7310E-03
C:/temp/dataset/test2/1_6.odb,Step-1,Increment      4: Step Time =    1.000,"PART-1-1",           451,           -1.,      -12.1875,            0.,NA,NA,"",       2.05277,      -2.02527,  -334.885E-03,   11.3643E-03
C:/temp/dataset/test2/1_6.odb,Step-1,Increment      4: Step Time =    1.000,"PART-1-1",           452,            0.,       -13.125,            0.,NA,NA,"",       1.85176,      -1.84856,  -108.822E-03,   5.89682E-03
C:/temp/dataset/test2/1_6.odb,Step-1,Increment      4: Step Time =    1.000,"PART-1-1",           453,           -3.,      -12.1875,            0.,NA,NA,"",       2.13598,      -1.99894,  -752.767E-03,   31.9400E-03
C:/temp/dataset/test2/1_6.odb,Step-1,Increment      4: Step Time =    1.000,"PART-1-1",           454,           -2.,       -13.125,            0.,NA,NA,"",       1.88524,      -1.81647,  -504.521E-03,   21.7345E-03
C:/temp/dataset/test2/1_6.odb,Step-1,Increment      4: Step Time =    1.000,"PART-1-1",           455,           -5.,      -12.1875,            0.,NA,NA,"",       2.31665,      -1.99205,      -1.18262,   53.8981E-03
C:/temp/dataset/test2/1_6.odb,Step-1,Increment      4: Step Time =    1.000,"PART-1-1",           456,           -4.,       -13.125,            0.,NA,NA,"",       2.02051,      -1.80426,  -909.457E-03,   43.8094E-03
C:/temp/dataset/test2/1_6.odb,Step-1,Increment      4: Step Time =    1.000,"PART-1-1",           457,            3.,      -14.0625,            0.,NA,NA,"",       1.80186,      -1.73981,   468.817E-03,   35.2253E-03
C:/temp/dataset/test2/1_6.odb,Step-1,Increment      4: Step Time =    1.000,"PART-1-1",           458,            4.,          -15.,            0.,NA,NA,"",       1.71235,      -1.59043,   634.568E-03,   47.2492E-03
C:/temp/dataset/test2/1_6.odb,Step-1,Increment      4: Step Time =    1.000,"PART-1-1",           459,            5.,      -14.0625,            0.,NA,NA,"",       2.00382,      -1.81707,   844.707E-03,   57.3310E-03
C:/temp/dataset/test2/1_6.odb,Step-1,Increment      4: Step Time =    1.000,"PART-1-1",           460,            1.,      -14.0625,            0.,NA,NA,"",       1.68451,      -1.68177,   95.9984E-03,   13.7919E-03
C:/temp/dataset/test2/1_6.odb,Step-1,Increment      4: Step Time =    1.000,"PART-1-1",           461,            2.,          -15.,            0.,NA,NA,"",       1.55096,      -1.52554,   279.645E-03,   24.7952E-03
C:/temp/dataset/test2/1_6.odb,Step-1,Increment      4: Step Time =    1.000,"PART-1-1",           462,           -1.,      -14.0625,            0.,NA,NA,"",       1.66683,      -1.64341,  -278.430E-03,   11.7022E-03
C:/temp/dataset/test2/1_6.odb,Step-1,Increment      4: Step Time =    1.000,"PART-1-1",           463,            0.,          -15.,            0.,NA,NA,"",       1.48233,      -1.48046,  -74.4106E-03,   5.91981E-03
C:/temp/dataset/test2/1_6.odb,Step-1,Increment      4: Step Time =    1.000,"PART-1-1",           464,           -3.,      -14.0625,            0.,NA,NA,"",       1.75392,      -1.62524,  -659.414E-03,   33.3356E-03
C:/temp/dataset/test2/1_6.odb,Step-1,Increment      4: Step Time =    1.000,"PART-1-1",           465,           -2.,          -15.,            0.,NA,NA,"",       1.51863,      -1.45577,  -432.400E-03,   22.6068E-03
C:/temp/dataset/test2/1_6.odb,Step-1,Increment      4: Step Time =    1.000,"PART-1-1",           466,           -5.,      -14.0625,            0.,NA,NA,"",       1.93826,      -1.62779,      -1.05221,   56.3488E-03
C:/temp/dataset/test2/1_6.odb,Step-1,Increment      4: Step Time =    1.000,"PART-1-1",           467,           -4.,          -15.,            0.,NA,NA,"",       1.65764,      -1.45213,  -799.423E-03,   45.7317E-03
C:/temp/dataset/test2/1_6.odb,Step-1,Increment      4: Step Time =    1.000,"PART-1-1",           468,            3.,      -15.9375,            0.,NA,NA,"",       1.44957,      -1.38048,   442.189E-03,   36.7827E-03
C:/temp/dataset/test2/1_6.odb,Step-1,Increment      4: Step Time =    1.000,"PART-1-1",           469,            4.,       -16.875,            0.,NA,NA,"",       1.37701,      -1.24717,   583.709E-03,   49.2867E-03
C:/temp/dataset/test2/1_6.odb,Step-1,Increment      4: Step Time =    1.000,"PART-1-1",           470,            5.,      -15.9375,            0.,NA,NA,"",       1.64870,      -1.45251,   780.031E-03,   59.8502E-03
C:/temp/dataset/test2/1_6.odb,Step-1,Increment      4: Step Time =    1.000,"PART-1-1",           471,            1.,      -15.9375,            0.,NA,NA,"",       1.33264,      -1.32829,   107.623E-03,   14.3438E-03
C:/temp/dataset/test2/1_6.odb,Step-1,Increment      4: Step Time =    1.000,"PART-1-1",           472,            2.,       -16.875,            0.,NA,NA,"",       1.21738,      -1.18756,   267.774E-03,   25.8622E-03
C:/temp/dataset/test2/1_6.odb,Step-1,Increment      4: Step Time =    1.000,"PART-1-1",           473,           -1.,      -15.9375,            0.,NA,NA,"",       1.31656,      -1.29661,  -228.318E-03,   12.0360E-03
C:/temp/dataset/test2/1_6.odb,Step-1,Increment      4: Step Time =    1.000,"PART-1-1",           474,            0.,       -16.875,            0.,NA,NA,"",       1.14943,      -1.14846,  -47.0478E-03,   5.94769E-03
C:/temp/dataset/test2/1_6.odb,Step-1,Increment      4: Step Time =    1.000,"PART-1-1",           475,           -3.,      -15.9375,            0.,NA,NA,"",       1.40705,      -1.28617,  -570.572E-03,   34.7227E-03
C:/temp/dataset/test2/1_6.odb,Step-1,Increment      4: Step Time =    1.000,"PART-1-1",           476,           -2.,       -16.875,            0.,NA,NA,"",       1.18832,      -1.13070,  -365.527E-03,   23.4712E-03
C:/temp/dataset/test2/1_6.odb,Step-1,Increment      4: Step Time =    1.000,"PART-1-1",           477,           -5.,      -15.9375,            0.,NA,NA,"",       1.59334,      -1.29777,  -924.413E-03,   58.7916E-03
C:/temp/dataset/test2/1_6.odb,Step-1,Increment      4: Step Time =    1.000,"PART-1-1",           478,           -4.,       -16.875,            0.,NA,NA,"",       1.32987,      -1.13518,  -692.768E-03,   47.6461E-03
C:/temp/dataset/test2/1_6.odb,Step-1,Increment      4: Step Time =    1.000,"PART-1-1",           479,            3.,      -17.8125,            0.,NA,NA,"",       1.13411,      -1.05889,   406.147E-03,   38.3366E-03
C:/temp/dataset/test2/1_6.odb,Step-1,Increment      4: Step Time =    1.000,"PART-1-1",           480,            4.,        -18.75,            0.,NA,NA,"",       1.07812,  -942.852E-03,   522.856E-03,   51.3090E-03
C:/temp/dataset/test2/1_6.odb,Step-1,Increment      4: Step Time =    1.000,"PART-1-1",           481,            5.,      -17.8125,            0.,NA,NA,"",       1.32825,      -1.12617,   704.276E-03,   62.3501E-03
C:/temp/dataset/test2/1_6.odb,Step-1,Increment      4: Step Time =    1.000,"PART-1-1",           482,            1.,      -17.8125,            0.,NA,NA,"",       1.01816,      -1.01203,   111.534E-03,   14.9083E-03
C:/temp/dataset/test2/1_6.odb,Step-1,Increment      4: Step Time =    1.000,"PART-1-1",           483,            2.,        -18.75,            0.,NA,NA,"",   921.828E-03,  -887.962E-03,   247.571E-03,   26.9354E-03
C:/temp/dataset/test2/1_6.odb,Step-1,Increment      4: Step Time =    1.000,"PART-1-1",           484,           -1.,      -17.8125,            0.,NA,NA,"",       1.00353,  -986.493E-03,  -184.152E-03,   12.3642E-03
C:/temp/dataset/test2/1_6.odb,Step-1,Increment      4: Step Time =    1.000,"PART-1-1",           485,            0.,        -18.75,            0.,NA,NA,"",   854.670E-03,  -854.266E-03,  -26.2911E-03,   5.98514E-03
C:/temp/dataset/test2/1_6.odb,Step-1,Increment      4: Step Time =    1.000,"PART-1-1",           486,           -3.,      -17.8125,            0.,NA,NA,"",       1.09675,  -983.269E-03,  -485.839E-03,   36.1018E-03
C:/temp/dataset/test2/1_6.odb,Step-1,Increment      4: Step Time =    1.000,"PART-1-1",           487,           -2.,        -18.75,            0.,NA,NA,"",   895.815E-03,  -842.852E-03,  -303.456E-03,   24.3277E-03
C:/temp/dataset/test2/1_6.odb,Step-1,Increment      4: Step Time =    1.000,"PART-1-1",           488,           -5.,      -17.8125,            0.,NA,NA,"",       1.28256,      -1.00341,  -798.822E-03,   61.2283E-03
C:/temp/dataset/test2/1_6.odb,Step-1,Increment      4: Step Time =    1.000,"PART-1-1",           489,           -4.,        -18.75,            0.,NA,NA,"",       1.03816,  -854.878E-03,  -589.041E-03,   49.5531E-03
C:/temp/dataset/test2/1_6.odb,Step-1,Increment      4: Step Time =    1.000,"PART-1-1",           490,            3.,      -19.6875,            0.,NA,NA,"",   856.749E-03,  -776.881E-03,   361.212E-03,   39.8858E-03
C:/temp/dataset/test2/1_6.odb,Step-1,Increment      4: Step Time =    1.000,"PART-1-1",           491,            4.,       -20.625,            0.,NA,NA,"",   816.324E-03,  -679.359E-03,   452.611E-03,   53.3102E-03
C:/temp/dataset/test2/1_6.odb,Step-1,Increment      4: Step Time =    1.000,"PART-1-1",           492,            5.,      -19.6875,            0.,NA,NA,"",       1.04285,  -840.003E-03,   617.999E-03,   64.8184E-03
C:/temp/dataset/test2/1_6.odb,Step-1,Increment      4: Step Time =    1.000,"PART-1-1",           493,            1.,      -19.6875,            0.,NA,NA,"",   742.645E-03,  -734.717E-03,   108.223E-03,   15.5001E-03
C:/temp/dataset/test2/1_6.odb,Step-1,Increment      4: Step Time =    1.000,"PART-1-1",           494,            2.,       -20.625,            0.,NA,NA,"",   665.764E-03,  -628.512E-03,   219.578E-03,   28.0232E-03
C:/temp/dataset/test2/1_6.odb,Step-1,Increment      4: Step Time =    1.000,"PART-1-1",           495,           -1.,      -19.6875,            0.,NA,NA,"",   729.340E-03,  -714.691E-03,  -145.444E-03,   12.6936E-03
C:/temp/dataset/test2/1_6.odb,Step-1,Increment      4: Step Time =    1.000,"PART-1-1",           496,            0.,       -20.625,            0.,NA,NA,"",   599.624E-03,  -599.512E-03,  -11.6028E-03,   6.04457E-03
C:/temp/dataset/test2/1_6.odb,Step-1,Increment      4: Step Time =    1.000,"PART-1-1",           497,           -3.,      -19.6875,            0.,NA,NA,"",   824.271E-03,  -718.069E-03,  -404.722E-03,   37.4729E-03
C:/temp/dataset/test2/1_6.odb,Step-1,Increment      4: Step Time =    1.000,"PART-1-1",           498,           -2.,       -20.625,            0.,NA,NA,"",   642.593E-03,  -593.791E-03,  -245.639E-03,   25.1822E-03
C:/temp/dataset/test2/1_6.odb,Step-1,Increment      4: Step Time =    1.000,"PART-1-1",           499,           -5.,      -19.6875,            0.,NA,NA,"",       1.00612,  -746.156E-03,  -674.932E-03,   63.6658E-03
C:/temp/dataset/test2/1_6.odb,Step-1,Increment      4: Step Time =    1.000,"PART-1-1",           500,           -4.,       -20.625,            0.,NA,NA,"",   783.118E-03,  -612.716E-03,  -487.702E-03,   51.4604E-03
C:/temp/dataset/test2/1_6.odb,Step-1,Increment      4: Step Time =    1.000,"PART-1-1",           501,            3.,      -21.5625,            0.,NA,NA,"",   618.425E-03,  -536.277E-03,   307.989E-03,   41.4608E-03
C:/temp/dataset/test2/1_6.odb,Step-1,Increment      4: Step Time =    1.000,"PART-1-1",           502,            4.,         -22.5,            0.,NA,NA,"",   591.593E-03,  -458.597E-03,   373.726E-03,   55.2449E-03
C:/temp/dataset/test2/1_6.odb,Step-1,Increment      4: Step Time =    1.000,"PART-1-1",           503,            5.,      -21.5625,            0.,NA,NA,"",   792.162E-03,  -595.938E-03,   521.899E-03,   67.1864E-03
C:/temp/dataset/test2/1_6.odb,Step-1,Increment      4: Step Time =    1.000,"PART-1-1",           504,            1.,      -21.5625,            0.,NA,NA,"",   507.632E-03,  -498.033E-03,   98.2533E-03,   16.1476E-03
C:/temp/dataset/test2/1_6.odb,Step-1,Increment      4: Step Time =    1.000,"PART-1-1",           505,            2.,         -22.5,            0.,NA,NA,"",   450.431E-03,  -410.947E-03,   184.420E-03,   29.1921E-03
C:/temp/dataset/test2/1_6.odb,Step-1,Increment      4: Step Time =    1.000,"PART-1-1",           506,           -1.,      -21.5625,            0.,NA,NA,"",   495.522E-03,  -482.797E-03,  -111.574E-03,   13.0539E-03
C:/temp/dataset/test2/1_6.odb,Step-1,Increment      4: Step Time =    1.000,"PART-1-1",           507,            0.,         -22.5,            0.,NA,NA,"",   385.842E-03,  -385.835E-03,  -2.34672E-03,   6.18530E-03
C:/temp/dataset/test2/1_6.odb,Step-1,Increment      4: Step Time =    1.000,"PART-1-1",           508,           -3.,      -21.5625,            0.,NA,NA,"",   590.629E-03,  -492.104E-03,  -326.614E-03,   38.8674E-03
C:/temp/dataset/test2/1_6.odb,Step-1,Increment      4: Step Time =    1.000,"PART-1-1",           509,           -2.,         -22.5,            0.,NA,NA,"",   430.042E-03,  -385.100E-03,  -191.401E-03,   26.1013E-03
C:/temp/dataset/test2/1_6.odb,Step-1,Increment      4: Step Time =    1.000,"PART-1-1",           510,           -5.,      -21.5625,            0.,NA,NA,"",   763.581E-03,  -527.433E-03,  -552.151E-03,   66.0615E-03
C:/temp/dataset/test2/1_6.odb,Step-1,Increment      4: Step Time =    1.000,"PART-1-1",           511,           -4.,         -22.5,            0.,NA,NA,"",   564.745E-03,  -410.239E-03,  -388.124E-03,   53.3318E-03
C:/temp/dataset/test2/1_6.odb,Step-1,Increment      4: Step Time =    1.000,"PART-1-1",           512,            3.,      -23.4375,            0.,NA,NA,"",   419.473E-03,  -338.891E-03,   247.204E-03,   43.0623E-03
C:/temp/dataset/test2/1_6.odb,Step-1,Increment      4: Step Time =    1.000,"PART-1-1",           513,            4.,       -24.375,            0.,NA,NA,"",   402.528E-03,  -282.166E-03,   287.074E-03,   57.1771E-03
C:/temp/dataset/test2/1_6.odb,Step-1,Increment      4: Step Time =    1.000,"PART-1-1",           514,            5.,      -23.4375,            0.,NA,NA,"",   574.980E-03,  -395.887E-03,   416.984E-03,   69.4392E-03
C:/temp/dataset/test2/1_6.odb,Step-1,Increment      4: Step Time =    1.000,"PART-1-1",           515,            1.,      -23.4375,            0.,NA,NA,"",   314.570E-03,  -303.612E-03,   82.3027E-03,   16.9354E-03
C:/temp/dataset/test2/1_6.odb,Step-1,Increment      4: Step Time =    1.000,"PART-1-1",           516,            2.,       -24.375,            0.,NA,NA,"",   276.457E-03,  -236.850E-03,   142.585E-03,   30.4625E-03
C:/temp/dataset/test2/1_6.odb,Step-1,Increment      4: Step Time =    1.000,"PART-1-1",           517,           -1.,      -23.4375,            0.,NA,NA,"",   303.622E-03,  -292.388E-03,  -81.8248E-03,   13.5400E-03
C:/temp/dataset/test2/1_6.odb,Step-1,Increment      4: Step Time =    1.000,"PART-1-1",           518,            0.,       -24.375,            0.,NA,NA,"",   214.721E-03,  -214.709E-03,   2.26233E-03,   6.46303E-03
C:/temp/dataset/test2/1_6.odb,Step-1,Increment      4: Step Time =    1.000,"PART-1-1",           519,           -3.,      -23.4375,            0.,NA,NA,"",   396.438E-03,  -307.023E-03,  -250.798E-03,   40.2919E-03
C:/temp/dataset/test2/1_6.odb,Step-1,Increment      4: Step Time =    1.000,"PART-1-1",           520,           -2.,       -24.375,            0.,NA,NA,"",   259.192E-03,  -218.349E-03,  -139.659E-03,   27.1221E-03
C:/temp/dataset/test2/1_6.odb,Step-1,Increment      4: Step Time =    1.000,"PART-1-1",           521,           -5.,      -23.4375,            0.,NA,NA,"",   553.547E-03,  -348.738E-03,  -429.879E-03,   68.4373E-03
C:/temp/dataset/test2/1_6.odb,Step-1,Increment      4: Step Time =    1.000,"PART-1-1",           522,           -4.,       -24.375,            0.,NA,NA,"",   381.877E-03,  -248.911E-03,  -289.610E-03,   55.2709E-03
C:/temp/dataset/test2/1_6.odb,Step-1,Increment      4: Step Time =    1.000,"PART-1-1",           523,            3.,      -25.3125,            0.,NA,NA,"",   258.411E-03,  -186.062E-03,   179.325E-03,   45.0799E-03
C:/temp/dataset/test2/1_6.odb,Step-1,Increment      4: Step Time =    1.000,"PART-1-1",           524,            4.,        -26.25,            0.,NA,NA,"",   246.362E-03,  -151.697E-03,   194.119E-03,   58.8586E-03
C:/temp/dataset/test2/1_6.odb,Step-1,Increment      4: Step Time =    1.000,"PART-1-1",           525,            5.,      -25.3125,            0.,NA,NA,"",   388.406E-03,  -241.140E-03,   304.484E-03,   70.7987E-03
C:/temp/dataset/test2/1_6.odb,Step-1,Increment      4: Step Time =    1.000,"PART-1-1",           526,            1.,      -25.3125,            0.,NA,NA,"",   164.545E-03,  -152.879E-03,   60.8531E-03,   17.8278E-03
C:/temp/dataset/test2/1_6.odb,Step-1,Increment      4: Step Time =    1.000,"PART-1-1",           527,            2.,        -26.25,            0.,NA,NA,"",   143.633E-03,  -107.653E-03,   95.0857E-03,   32.0929E-03
C:/temp/dataset/test2/1_6.odb,Step-1,Increment      4: Step Time =    1.000,"PART-1-1",           528,           -1.,      -25.3125,            0.,NA,NA,"",   155.016E-03,  -144.958E-03,  -54.9292E-03,   14.2048E-03
C:/temp/dataset/test2/1_6.odb,Step-1,Increment      4: Step Time =    1.000,"PART-1-1",           529,            0.,        -26.25,            0.,NA,NA,"",   88.0174E-03,  -87.9612E-03,   3.14399E-03,   6.77355E-03
C:/temp/dataset/test2/1_6.odb,Step-1,Increment      4: Step Time =    1.000,"PART-1-1",           530,           -3.,      -25.3125,            0.,NA,NA,"",   240.700E-03,  -164.216E-03,  -175.982E-03,   42.2226E-03
C:/temp/dataset/test2/1_6.odb,Step-1,Increment      4: Step Time =    1.000,"PART-1-1",           531,           -2.,        -26.25,            0.,NA,NA,"",   130.645E-03,  -95.1031E-03,  -89.5744E-03,   28.6915E-03
C:/temp/dataset/test2/1_6.odb,Step-1,Increment      4: Step Time =    1.000,"PART-1-1",           532,           -5.,      -25.3125,            0.,NA,NA,"",   373.207E-03,  -211.323E-03,  -307.613E-03,   69.8799E-03
C:/temp/dataset/test2/1_6.odb,Step-1,Increment      4: Step Time =    1.000,"PART-1-1",           533,           -4.,        -26.25,            0.,NA,NA,"",   231.905E-03,  -130.592E-03,  -191.639E-03,   56.9951E-03
C:/temp/dataset/test2/1_6.odb,Step-1,Increment      4: Step Time =    1.000,"PART-1-1",           534,            3.,      -27.1875,            0.,NA,NA,"",   131.516E-03,  -78.1814E-03,   105.755E-03,   46.2398E-03
C:/temp/dataset/test2/1_6.odb,Step-1,Increment      4: Step Time =    1.000,"PART-1-1",           535,            4.,       -28.125,            0.,NA,NA,"",   112.364E-03,  -60.9222E-03,   94.4143E-03,   61.2943E-03
C:/temp/dataset/test2/1_6.odb,Step-1,Increment      4: Step Time =    1.000,"PART-1-1",           536,            5.,      -27.1875,            0.,NA,NA,"",   230.462E-03,  -132.381E-03,   188.648E-03,   72.6620E-03
C:/temp/dataset/test2/1_6.odb,Step-1,Increment      4: Step Time =    1.000,"PART-1-1",           537,            1.,      -27.1875,            0.,NA,NA,"",   60.0907E-03,  -48.4812E-03,   35.5031E-03,   17.6764E-03
C:/temp/dataset/test2/1_6.odb,Step-1,Increment      4: Step Time =    1.000,"PART-1-1",           538,            2.,       -28.125,            0.,NA,NA,"",   50.4220E-03,  -25.2367E-03,   43.6518E-03,   32.1631E-03
C:/temp/dataset/test2/1_6.odb,Step-1,Increment      4: Step Time =    1.000,"PART-1-1",           539,           -1.,      -27.1875,            0.,NA,NA,"",   52.9814E-03,  -43.3527E-03,  -30.4561E-03,   14.3657E-03
C:/temp/dataset/test2/1_6.odb,Step-1,Increment      4: Step Time =    1.000,"PART-1-1",           540,            0.,       -28.125,            0.,NA,NA,"",   10.9498E-03,  -10.8314E-03,   1.60589E-03,   4.91794E-03
C:/temp/dataset/test2/1_6.odb,Step-1,Increment      4: Step Time =    1.000,"PART-1-1",           541,           -3.,      -27.1875,            0.,NA,NA,"",   120.247E-03,  -64.5358E-03,  -101.461E-03,   43.3418E-03
C:/temp/dataset/test2/1_6.odb,Step-1,Increment      4: Step Time =    1.000,"PART-1-1",           542,           -2.,       -28.125,            0.,NA,NA,"",   44.2750E-03,  -18.1627E-03,  -40.3781E-03,   28.9169E-03
C:/temp/dataset/test2/1_6.odb,Step-1,Increment      4: Step Time =    1.000,"PART-1-1",           543,           -5.,      -27.1875,            0.,NA,NA,"",   220.484E-03,  -115.937E-03,  -187.542E-03,   71.9693E-03
C:/temp/dataset/test2/1_6.odb,Step-1,Increment      4: Step Time =    1.000,"PART-1-1",           544,           -4.,       -28.125,            0.,NA,NA,"",   103.993E-03,  -49.5705E-03,  -91.4188E-03,   59.4860E-03
C:/temp/dataset/test2/1_6.odb,Step-1,Increment      4: Step Time =    1.000,"PART-1-1",           545,            3.,      -29.0625,            0.,NA,NA,"",   32.6391E-03,  -11.0485E-03,   30.7122E-03,   40.9029E-03
C:/temp/dataset/test2/1_6.odb,Step-1,Increment      4: Step Time =    1.000,"PART-1-1",           546,            4.,          -30.,            0.,NA,NA,"",            0.,  -33.6200E-42,  -91.9798E-42,   59.8422E-03
C:/temp/dataset/test2/1_6.odb,Step-1,Increment      4: Step Time =    1.000,"PART-1-1",           547,            5.,      -29.0625,            0.,NA,NA,"",   84.8863E-03,  -55.3659E-03,   64.3452E-03,   77.8908E-03
C:/temp/dataset/test2/1_6.odb,Step-1,Increment      4: Step Time =    1.000,"PART-1-1",           548,            1.,      -29.0625,            0.,NA,NA,"",   10.5016E-03,   2.09106E-03,   10.2913E-03,   13.3642E-03
C:/temp/dataset/test2/1_6.odb,Step-1,Increment      4: Step Time =    1.000,"PART-1-1",           549,            2.,          -30.,            0.,NA,NA,"",            0.,  -15.9370E-42,  -53.4539E-42,   24.1011E-03
C:/temp/dataset/test2/1_6.odb,Step-1,Increment      4: Step Time =    1.000,"PART-1-1",           550,           -1.,      -29.0625,            0.,NA,NA,"",   10.0277E-03,   4.20341E-03,  -9.10420E-03,   12.0283E-03
C:/temp/dataset/test2/1_6.odb,Step-1,Increment      4: Step Time =    1.000,"PART-1-1",           551,            0.,          -30.,            0.,NA,NA,"",            0.,   13.4441E-42,   9.55125E-42,   9.24314E-03
C:/temp/dataset/test2/1_6.odb,Step-1,Increment      4: Step Time =    1.000,"PART-1-1",           552,           -3.,      -29.0625,            0.,NA,NA,"",   29.7438E-03,  -5.43971E-03,  -29.2422E-03,   38.7478E-03
C:/temp/dataset/test2/1_6.odb,Step-1,Increment      4: Step Time =    1.000,"PART-1-1",           553,           -2.,          -30.,            0.,NA,NA,"",            0.,   52.3889E-42,   109.327E-42,   23.9591E-03
C:/temp/dataset/test2/1_6.odb,Step-1,Increment      4: Step Time =    1.000,"PART-1-1",           554,           -5.,      -29.0625,            0.,NA,NA,"",   80.0355E-03,  -50.0898E-03,  -62.4235E-03,   75.0653E-03
C:/temp/dataset/test2/1_6.odb,Step-1,Increment      4: Step Time =    1.000,"PART-1-1",           555,           -4.,          -30.,            0.,NA,NA,"",            0.,   22.1083E-42,   293.401E-42,   56.6299E-03
