ODB Name,Step,Frame,Part Instance Name,    êﬂì_ÉâÉxÉã,X,Y,Z,Section Name,Material Name,Section Point,   U-Magnitude,          U-U1,          U-U2,       S-Mises
C:/temp/dataset/test2/1_9.odb,Step-1,Increment      1: Step Time =    1.000,"PART-1-1",             1,            5.,           30.,            0.,NA,NA,"",       25.1012,      -24.9007,      -3.16601,   8.80167E-03
C:/temp/dataset/test2/1_9.odb,Step-1,Increment      1: Step Time =    1.000,"PART-1-1",             2,            3.,           30.,            0.,NA,NA,"",       24.8998,      -24.5250,      -4.30441,   9.49716E-03
C:/temp/dataset/test2/1_9.odb,Step-1,Increment      1: Step Time =    1.000,"PART-1-1",             3,            1.,           30.,            0.,NA,NA,"",       24.7580,      -24.1533,      -5.43849,   7.25079E-03
C:/temp/dataset/test2/1_9.odb,Step-1,Increment      1: Step Time =    1.000,"PART-1-1",             4,           -1.,           30.,            0.,NA,NA,"",       24.6809,      -23.7899,      -6.57170,   3.25369E-03
C:/temp/dataset/test2/1_9.odb,Step-1,Increment      1: Step Time =    1.000,"PART-1-1",             5,           -3.,           30.,            0.,NA,NA,"",       24.6673,      -23.4318,      -7.70879,   422.865E-06
C:/temp/dataset/test2/1_9.odb,Step-1,Increment      1: Step Time =    1.000,"PART-1-1",             6,           -5.,           30.,            0.,NA,NA,"",       24.7133,      -23.0742,      -8.85037,   222.687E-06
C:/temp/dataset/test2/1_9.odb,Step-1,Increment      1: Step Time =    1.000,"PART-1-1",             7,            5.,        28.125,            0.,NA,NA,"",       23.9870,      -23.8194,      -2.83042,   9.47180E-03
C:/temp/dataset/test2/1_9.odb,Step-1,Increment      1: Step Time =    1.000,"PART-1-1",             8,            3.,        28.125,            0.,NA,NA,"",       23.7777,      -23.4437,      -3.97102,   8.95017E-03
C:/temp/dataset/test2/1_9.odb,Step-1,Increment      1: Step Time =    1.000,"PART-1-1",             9,            1.,        28.125,            0.,NA,NA,"",       23.6345,      -23.0765,      -5.10500,   7.11902E-03
C:/temp/dataset/test2/1_9.odb,Step-1,Increment      1: Step Time =    1.000,"PART-1-1",            10,           -1.,        28.125,            0.,NA,NA,"",       23.5577,      -22.7170,      -6.23723,   5.48181E-03
C:/temp/dataset/test2/1_9.odb,Step-1,Increment      1: Step Time =    1.000,"PART-1-1",            11,           -3.,        28.125,            0.,NA,NA,"",       23.5444,      -22.3603,      -7.37263,   2.86203E-03
C:/temp/dataset/test2/1_9.odb,Step-1,Increment      1: Step Time =    1.000,"PART-1-1",            12,           -5.,        28.125,            0.,NA,NA,"",       23.5925,      -22.0026,      -8.51414,   366.319E-06
C:/temp/dataset/test2/1_9.odb,Step-1,Increment      1: Step Time =    1.000,"PART-1-1",            13,            5.,         26.25,            0.,NA,NA,"",       22.8643,      -22.7286,      -2.48661,   7.50303E-03
C:/temp/dataset/test2/1_9.odb,Step-1,Increment      1: Step Time =    1.000,"PART-1-1",            14,            3.,         26.25,            0.,NA,NA,"",       22.6484,      -22.3552,      -3.63245,   9.50756E-03
C:/temp/dataset/test2/1_9.odb,Step-1,Increment      1: Step Time =    1.000,"PART-1-1",            15,            1.,         26.25,            0.,NA,NA,"",       22.5044,      -21.9939,      -4.76599,   8.60461E-03
C:/temp/dataset/test2/1_9.odb,Step-1,Increment      1: Step Time =    1.000,"PART-1-1",            16,           -1.,         26.25,            0.,NA,NA,"",       22.4281,      -21.6389,      -5.89715,   7.51633E-03
C:/temp/dataset/test2/1_9.odb,Step-1,Increment      1: Step Time =    1.000,"PART-1-1",            17,           -3.,         26.25,            0.,NA,NA,"",       22.4171,      -21.2857,      -7.03167,   5.40404E-03
C:/temp/dataset/test2/1_9.odb,Step-1,Increment      1: Step Time =    1.000,"PART-1-1",            18,           -5.,         26.25,            0.,NA,NA,"",       22.4694,      -20.9297,      -8.17431,   2.74815E-03
C:/temp/dataset/test2/1_9.odb,Step-1,Increment      1: Step Time =    1.000,"PART-1-1",            19,            5.,        24.375,            0.,NA,NA,"",       21.7387,      -21.6320,      -2.15104,   9.51248E-03
C:/temp/dataset/test2/1_9.odb,Step-1,Increment      1: Step Time =    1.000,"PART-1-1",            20,            3.,        24.375,            0.,NA,NA,"",       21.5196,      -21.2662,      -3.29278,   7.14579E-03
C:/temp/dataset/test2/1_9.odb,Step-1,Increment      1: Step Time =    1.000,"PART-1-1",            21,            1.,        24.375,            0.,NA,NA,"",       21.3737,      -20.9107,      -4.42495,   8.96057E-03
C:/temp/dataset/test2/1_9.odb,Step-1,Increment      1: Step Time =    1.000,"PART-1-1",            22,           -1.,        24.375,            0.,NA,NA,"",       21.2973,      -20.5604,      -5.55401,   8.79080E-03
C:/temp/dataset/test2/1_9.odb,Step-1,Increment      1: Step Time =    1.000,"PART-1-1",            23,           -3.,        24.375,            0.,NA,NA,"",       21.2888,      -20.2114,      -6.68672,   7.43388E-03
C:/temp/dataset/test2/1_9.odb,Step-1,Increment      1: Step Time =    1.000,"PART-1-1",            24,           -5.,        24.375,            0.,NA,NA,"",       21.3465,      -19.8589,      -7.82926,   6.46536E-03
C:/temp/dataset/test2/1_9.odb,Step-1,Increment      1: Step Time =    1.000,"PART-1-1",            25,            5.,          22.5,            0.,NA,NA,"",       20.6266,      -20.5456,      -1.82653,   12.3981E-03
C:/temp/dataset/test2/1_9.odb,Step-1,Increment      1: Step Time =    1.000,"PART-1-1",            26,            3.,          22.5,            0.,NA,NA,"",       20.3990,      -20.1831,      -2.95975,   8.57806E-03
C:/temp/dataset/test2/1_9.odb,Step-1,Increment      1: Step Time =    1.000,"PART-1-1",            27,            1.,          22.5,            0.,NA,NA,"",       20.2477,      -19.8310,      -4.08627,   8.79109E-03
C:/temp/dataset/test2/1_9.odb,Step-1,Increment      1: Step Time =    1.000,"PART-1-1",            28,           -1.,          22.5,            0.,NA,NA,"",       20.1700,      -19.4852,      -5.21087,   9.29397E-03
C:/temp/dataset/test2/1_9.odb,Step-1,Increment      1: Step Time =    1.000,"PART-1-1",            29,           -3.,          22.5,            0.,NA,NA,"",       20.1637,      -19.1411,      -6.33987,   9.18396E-03
C:/temp/dataset/test2/1_9.odb,Step-1,Increment      1: Step Time =    1.000,"PART-1-1",            30,           -5.,          22.5,            0.,NA,NA,"",       20.2276,      -18.7938,      -7.48000,   10.5878E-03
C:/temp/dataset/test2/1_9.odb,Step-1,Increment      1: Step Time =    1.000,"PART-1-1",            31,            5.,        20.625,            0.,NA,NA,"",       19.5221,      -19.4635,      -1.51169,   15.6649E-03
C:/temp/dataset/test2/1_9.odb,Step-1,Increment      1: Step Time =    1.000,"PART-1-1",            32,            3.,        20.625,            0.,NA,NA,"",       19.2857,      -19.1048,      -2.63509,   10.6393E-03
C:/temp/dataset/test2/1_9.odb,Step-1,Increment      1: Step Time =    1.000,"PART-1-1",            33,            1.,        20.625,            0.,NA,NA,"",       19.1287,      -18.7569,      -3.75295,   8.95219E-03
C:/temp/dataset/test2/1_9.odb,Step-1,Increment      1: Step Time =    1.000,"PART-1-1",            34,           -1.,        20.625,            0.,NA,NA,"",       19.0492,      -18.4161,      -4.87032,   9.46223E-03
C:/temp/dataset/test2/1_9.odb,Step-1,Increment      1: Step Time =    1.000,"PART-1-1",            35,           -3.,        20.625,            0.,NA,NA,"",       19.0455,      -18.0779,      -5.99323,   10.9384E-03
C:/temp/dataset/test2/1_9.odb,Step-1,Increment      1: Step Time =    1.000,"PART-1-1",            36,           -5.,        20.625,            0.,NA,NA,"",       19.1164,      -17.7376,      -7.12833,   14.7152E-03
C:/temp/dataset/test2/1_9.odb,Step-1,Increment      1: Step Time =    1.000,"PART-1-1",            37,            5.,         18.75,            0.,NA,NA,"",       18.4263,      -18.3867,      -1.20737,   19.2240E-03
C:/temp/dataset/test2/1_9.odb,Step-1,Increment      1: Step Time =    1.000,"PART-1-1",            38,            3.,         18.75,            0.,NA,NA,"",       18.1811,      -18.0326,      -2.31940,   12.7844E-03
C:/temp/dataset/test2/1_9.odb,Step-1,Increment      1: Step Time =    1.000,"PART-1-1",            39,            1.,         18.75,            0.,NA,NA,"",       18.0188,      -17.6900,      -3.42651,   9.32722E-03
C:/temp/dataset/test2/1_9.odb,Step-1,Increment      1: Step Time =    1.000,"PART-1-1",            40,           -1.,         18.75,            0.,NA,NA,"",       17.9379,      -17.3554,      -4.53424,   9.60767E-03
C:/temp/dataset/test2/1_9.odb,Step-1,Increment      1: Step Time =    1.000,"PART-1-1",            41,           -3.,         18.75,            0.,NA,NA,"",       17.9370,      -17.0244,      -5.64859,   12.8078E-03
C:/temp/dataset/test2/1_9.odb,Step-1,Increment      1: Step Time =    1.000,"PART-1-1",            42,           -5.,         18.75,            0.,NA,NA,"",       18.0155,      -16.6926,      -6.77611,   18.7177E-03
C:/temp/dataset/test2/1_9.odb,Step-1,Increment      1: Step Time =    1.000,"PART-1-1",            43,            5.,        16.875,            0.,NA,NA,"",       17.3408,      -17.3167,  -915.077E-03,   22.9360E-03
C:/temp/dataset/test2/1_9.odb,Step-1,Increment      1: Step Time =    1.000,"PART-1-1",            44,            3.,        16.875,            0.,NA,NA,"",       17.0872,      -16.9681,      -2.01382,   14.9492E-03
C:/temp/dataset/test2/1_9.odb,Step-1,Increment      1: Step Time =    1.000,"PART-1-1",            45,            1.,        16.875,            0.,NA,NA,"",       16.9201,      -16.6322,      -3.10820,   9.76772E-03
C:/temp/dataset/test2/1_9.odb,Step-1,Increment      1: Step Time =    1.000,"PART-1-1",            46,           -1.,        16.875,            0.,NA,NA,"",       16.8383,      -16.3050,      -4.20404,   9.82252E-03
C:/temp/dataset/test2/1_9.odb,Step-1,Increment      1: Step Time =    1.000,"PART-1-1",            47,           -3.,        16.875,            0.,NA,NA,"",       16.8409,      -15.9827,      -5.30747,   14.7830E-03
C:/temp/dataset/test2/1_9.odb,Step-1,Increment      1: Step Time =    1.000,"PART-1-1",            48,           -5.,        16.875,            0.,NA,NA,"",       16.9277,      -15.6610,      -6.42494,   22.6082E-03
C:/temp/dataset/test2/1_9.odb,Step-1,Increment      1: Step Time =    1.000,"PART-1-1",            49,            5.,           15.,            0.,NA,NA,"",       16.2677,      -16.2553,  -636.242E-03,   26.7269E-03
C:/temp/dataset/test2/1_9.odb,Step-1,Increment      1: Step Time =    1.000,"PART-1-1",            50,            3.,           15.,            0.,NA,NA,"",       16.0063,      -15.9137,      -1.71964,   17.1461E-03
C:/temp/dataset/test2/1_9.odb,Step-1,Increment      1: Step Time =    1.000,"PART-1-1",            51,            1.,           15.,            0.,NA,NA,"",       15.8349,      -15.5855,      -2.79921,   10.2366E-03
C:/temp/dataset/test2/1_9.odb,Step-1,Increment      1: Step Time =    1.000,"PART-1-1",            52,           -1.,           15.,            0.,NA,NA,"",       15.7527,      -15.2671,      -3.88097,   10.1093E-03
C:/temp/dataset/test2/1_9.odb,Step-1,Increment      1: Step Time =    1.000,"PART-1-1",            53,           -3.,           15.,            0.,NA,NA,"",       15.7594,      -14.9548,      -4.97114,   16.8292E-03
C:/temp/dataset/test2/1_9.odb,Step-1,Increment      1: Step Time =    1.000,"PART-1-1",            54,           -5.,           15.,            0.,NA,NA,"",       15.8552,      -14.6447,      -6.07621,   26.4299E-03
C:/temp/dataset/test2/1_9.odb,Step-1,Increment      1: Step Time =    1.000,"PART-1-1",            55,            5.,        13.125,            0.,NA,NA,"",       15.2094,      -15.2048,  -372.248E-03,   30.5526E-03
C:/temp/dataset/test2/1_9.odb,Step-1,Increment      1: Step Time =    1.000,"PART-1-1",            56,            3.,        13.125,            0.,NA,NA,"",       14.9406,      -14.8712,      -1.43816,   19.3748E-03
C:/temp/dataset/test2/1_9.odb,Step-1,Increment      1: Step Time =    1.000,"PART-1-1",            57,            1.,        13.125,            0.,NA,NA,"",       14.7654,      -14.5521,      -2.50076,   10.7343E-03
C:/temp/dataset/test2/1_9.odb,Step-1,Increment      1: Step Time =    1.000,"PART-1-1",            58,           -1.,        13.125,            0.,NA,NA,"",       14.6835,      -14.2438,      -3.56620,   10.4503E-03
C:/temp/dataset/test2/1_9.odb,Step-1,Increment      1: Step Time =    1.000,"PART-1-1",            59,           -3.,        13.125,            0.,NA,NA,"",       14.6949,      -13.9429,      -4.64080,   18.9158E-03
C:/temp/dataset/test2/1_9.odb,Step-1,Increment      1: Step Time =    1.000,"PART-1-1",            60,           -5.,        13.125,            0.,NA,NA,"",       14.8002,      -13.6455,      -5.73114,   30.2172E-03
C:/temp/dataset/test2/1_9.odb,Step-1,Increment      1: Step Time =    1.000,"PART-1-1",            61,            5.,         11.25,            0.,NA,NA,"",       14.1680,      -14.1675,  -124.401E-03,   34.3931E-03
C:/temp/dataset/test2/1_9.odb,Step-1,Increment      1: Step Time =    1.000,"PART-1-1",            62,            3.,         11.25,            0.,NA,NA,"",       13.8925,      -13.8431,      -1.17062,   21.6324E-03
C:/temp/dataset/test2/1_9.odb,Step-1,Increment      1: Step Time =    1.000,"PART-1-1",            63,            1.,         11.25,            0.,NA,NA,"",       13.7140,      -13.5341,      -2.21404,   11.2674E-03
C:/temp/dataset/test2/1_9.odb,Step-1,Increment      1: Step Time =    1.000,"PART-1-1",            64,           -1.,         11.25,            0.,NA,NA,"",       13.6328,      -13.2371,      -3.26088,   10.8288E-03
C:/temp/dataset/test2/1_9.odb,Step-1,Increment      1: Step Time =    1.000,"PART-1-1",            65,           -3.,         11.25,            0.,NA,NA,"",       13.6496,      -12.9487,      -4.31759,   21.0236E-03
C:/temp/dataset/test2/1_9.odb,Step-1,Increment      1: Step Time =    1.000,"PART-1-1",            66,           -5.,         11.25,            0.,NA,NA,"",       13.7649,      -12.6654,      -5.39083,   33.9885E-03
C:/temp/dataset/test2/1_9.odb,Step-1,Increment      1: Step Time =    1.000,"PART-1-1",            67,            5.,         9.375,            0.,NA,NA,"",       13.1460,      -13.1456,   106.070E-03,   38.2394E-03
C:/temp/dataset/test2/1_9.odb,Step-1,Increment      1: Step Time =    1.000,"PART-1-1",            68,            3.,         9.375,            0.,NA,NA,"",       12.8643,      -12.8315,  -918.228E-03,   23.9144E-03
C:/temp/dataset/test2/1_9.odb,Step-1,Increment      1: Step Time =    1.000,"PART-1-1",            69,            1.,         9.375,            0.,NA,NA,"",       12.6830,      -12.5337,      -1.94018,   11.8393E-03
C:/temp/dataset/test2/1_9.odb,Step-1,Increment      1: Step Time =    1.000,"PART-1-1",            70,           -1.,         9.375,            0.,NA,NA,"",       12.6031,      -12.2491,      -2.96610,   11.2324E-03
C:/temp/dataset/test2/1_9.odb,Step-1,Increment      1: Step Time =    1.000,"PART-1-1",            71,           -3.,         9.375,            0.,NA,NA,"",       12.6257,      -11.9745,      -4.00254,   23.1415E-03
C:/temp/dataset/test2/1_9.odb,Step-1,Increment      1: Step Time =    1.000,"PART-1-1",            72,           -5.,         9.375,            0.,NA,NA,"",       12.7516,      -11.7063,      -5.05629,   37.7514E-03
C:/temp/dataset/test2/1_9.odb,Step-1,Increment      1: Step Time =    1.000,"PART-1-1",            73,            5.,           7.5,            0.,NA,NA,"",       12.1457,      -12.1415,   318.006E-03,   42.0881E-03
C:/temp/dataset/test2/1_9.odb,Step-1,Increment      1: Step Time =    1.000,"PART-1-1",            74,            3.,           7.5,            0.,NA,NA,"",       11.8584,      -11.8387,  -682.096E-03,   26.2166E-03
C:/temp/dataset/test2/1_9.odb,Step-1,Increment      1: Step Time =    1.000,"PART-1-1",            75,            1.,           7.5,            0.,NA,NA,"",       11.6748,      -11.5532,      -1.68027,   12.4498E-03
C:/temp/dataset/test2/1_9.odb,Step-1,Increment      1: Step Time =    1.000,"PART-1-1",            76,           -1.,           7.5,            0.,NA,NA,"",       11.5966,      -11.2820,      -2.68290,   11.6534E-03
C:/temp/dataset/test2/1_9.odb,Step-1,Increment      1: Step Time =    1.000,"PART-1-1",            77,           -3.,           7.5,            0.,NA,NA,"",       11.6255,      -11.0221,      -3.69665,   25.2629E-03
C:/temp/dataset/test2/1_9.odb,Step-1,Increment      1: Step Time =    1.000,"PART-1-1",            78,           -5.,           7.5,            0.,NA,NA,"",       11.7625,      -10.7703,      -4.72845,   41.5080E-03
C:/temp/dataset/test2/1_9.odb,Step-1,Increment      1: Step Time =    1.000,"PART-1-1",            79,            5.,         5.625,            0.,NA,NA,"",       11.1695,      -11.1579,   510.331E-03,   45.9377E-03
C:/temp/dataset/test2/1_9.odb,Step-1,Increment      1: Step Time =    1.000,"PART-1-1",            80,            3.,         5.625,            0.,NA,NA,"",       10.8771,      -10.8672,  -463.267E-03,   28.5353E-03
C:/temp/dataset/test2/1_9.odb,Step-1,Increment      1: Step Time =    1.000,"PART-1-1",            81,            1.,         5.625,            0.,NA,NA,"",       10.6916,      -10.5948,      -1.43529,   13.0968E-03
C:/temp/dataset/test2/1_9.odb,Step-1,Increment      1: Step Time =    1.000,"PART-1-1",            82,           -1.,         5.625,            0.,NA,NA,"",       10.6157,      -10.3380,      -2.41222,   12.0864E-03
C:/temp/dataset/test2/1_9.odb,Step-1,Increment      1: Step Time =    1.000,"PART-1-1",            83,           -3.,         5.625,            0.,NA,NA,"",       10.6513,      -10.0937,      -3.40081,   27.3836E-03
C:/temp/dataset/test2/1_9.odb,Step-1,Increment      1: Step Time =    1.000,"PART-1-1",            84,           -5.,         5.625,            0.,NA,NA,"",       10.7999,      -9.85927,      -4.40816,   45.2582E-03
C:/temp/dataset/test2/1_9.odb,Step-1,Increment      1: Step Time =    1.000,"PART-1-1",            85,            5.,          3.75,            0.,NA,NA,"",       10.2198,      -10.1970,   682.055E-03,   49.7870E-03
C:/temp/dataset/test2/1_9.odb,Step-1,Increment      1: Step Time =    1.000,"PART-1-1",            86,            3.,          3.75,            0.,NA,NA,"",       9.92290,      -9.91942,  -262.693E-03,   30.8675E-03
C:/temp/dataset/test2/1_9.odb,Step-1,Increment      1: Step Time =    1.000,"PART-1-1",            87,            1.,          3.75,            0.,NA,NA,"",       9.73596,      -9.66096,      -1.20617,   13.7772E-03
C:/temp/dataset/test2/1_9.odb,Step-1,Increment      1: Step Time =    1.000,"PART-1-1",            88,           -1.,          3.75,            0.,NA,NA,"",       9.66253,      -9.41917,      -2.15492,   12.5280E-03
C:/temp/dataset/test2/1_9.odb,Step-1,Increment      1: Step Time =    1.000,"PART-1-1",            89,           -3.,          3.75,            0.,NA,NA,"",       9.70528,      -9.19151,      -3.11585,   29.5005E-03
C:/temp/dataset/test2/1_9.odb,Step-1,Increment      1: Step Time =    1.000,"PART-1-1",            90,           -5.,          3.75,            0.,NA,NA,"",       9.86581,      -8.97528,      -4.09617,   49.0008E-03
C:/temp/dataset/test2/1_9.odb,Step-1,Increment      1: Step Time =    1.000,"PART-1-1",            91,            5.,         1.875,            0.,NA,NA,"",       9.29900,      -9.26168,   832.288E-03,   53.6348E-03
C:/temp/dataset/test2/1_9.odb,Step-1,Increment      1: Step Time =    1.000,"PART-1-1",            92,            3.,         1.875,            0.,NA,NA,"",       8.99814,      -8.99777,  -81.2258E-03,   33.2104E-03
C:/temp/dataset/test2/1_9.odb,Step-1,Increment      1: Step Time =    1.000,"PART-1-1",            93,            1.,         1.875,            0.,NA,NA,"",       8.81014,      -8.75392,  -993.701E-03,   14.4878E-03
C:/temp/dataset/test2/1_9.odb,Step-1,Increment      1: Step Time =    1.000,"PART-1-1",            94,           -1.,         1.875,            0.,NA,NA,"",       8.73961,      -8.52794,      -1.91178,   12.9752E-03
C:/temp/dataset/test2/1_9.odb,Step-1,Increment      1: Step Time =    1.000,"PART-1-1",            95,           -3.,         1.875,            0.,NA,NA,"",       8.78985,      -8.31756,      -2.84246,   31.6110E-03
C:/temp/dataset/test2/1_9.odb,Step-1,Increment      1: Step Time =    1.000,"PART-1-1",            96,           -5.,         1.875,            0.,NA,NA,"",       8.96260,      -8.12037,      -3.79311,   52.7343E-03
C:/temp/dataset/test2/1_9.odb,Step-1,Increment      1: Step Time =    1.000,"PART-1-1",            97,            5.,            0.,            0.,NA,NA,"",       8.40951,      -8.35451,   960.250E-03,   57.4797E-03
C:/temp/dataset/test2/1_9.odb,Step-1,Increment      1: Step Time =    1.000,"PART-1-1",            98,            3.,            0.,            0.,NA,NA,"",       8.10525,      -8.10485,   80.3929E-03,   35.5616E-03
C:/temp/dataset/test2/1_9.odb,Step-1,Increment      1: Step Time =    1.000,"PART-1-1",            99,            1.,            0.,            0.,NA,NA,"",       7.91656,      -7.87618,  -798.597E-03,   15.2255E-03
C:/temp/dataset/test2/1_9.odb,Step-1,Increment      1: Step Time =    1.000,"PART-1-1",           100,           -1.,            0.,            0.,NA,NA,"",       7.84923,      -7.66658,      -1.68344,   13.4257E-03
C:/temp/dataset/test2/1_9.odb,Step-1,Increment      1: Step Time =    1.000,"PART-1-1",           101,           -3.,            0.,            0.,NA,NA,"",       7.90726,      -7.47409,      -2.58125,   33.7132E-03
C:/temp/dataset/test2/1_9.odb,Step-1,Increment      1: Step Time =    1.000,"PART-1-1",           102,           -5.,            0.,            0.,NA,NA,"",       8.09243,      -7.29661,      -3.49955,   56.4571E-03
C:/temp/dataset/test2/1_9.odb,Step-1,Increment      1: Step Time =    1.000,"PART-1-1",           103,            5.,        -1.875,            0.,NA,NA,"",       7.55377,      -7.47827,       1.06529,   61.3199E-03
C:/temp/dataset/test2/1_9.odb,Step-1,Increment      1: Step Time =    1.000,"PART-1-1",           104,            3.,        -1.875,            0.,NA,NA,"",       7.24670,      -7.24331,   221.545E-03,   37.9189E-03
C:/temp/dataset/test2/1_9.odb,Step-1,Increment      1: Step Time =    1.000,"PART-1-1",           105,            1.,        -1.875,            0.,NA,NA,"",       7.05764,      -7.03022,  -621.432E-03,   15.9874E-03
C:/temp/dataset/test2/1_9.odb,Step-1,Increment      1: Step Time =    1.000,"PART-1-1",           106,           -1.,        -1.875,            0.,NA,NA,"",       6.99377,      -6.83744,      -1.47045,   13.8773E-03
C:/temp/dataset/test2/1_9.odb,Step-1,Increment      1: Step Time =    1.000,"PART-1-1",           107,           -3.,        -1.875,            0.,NA,NA,"",       7.05983,      -6.66331,      -2.33270,   35.8048E-03
C:/temp/dataset/test2/1_9.odb,Step-1,Increment      1: Step Time =    1.000,"PART-1-1",           108,           -5.,        -1.875,            0.,NA,NA,"",       7.25749,      -6.50609,      -3.21588,   60.1674E-03
C:/temp/dataset/test2/1_9.odb,Step-1,Increment      1: Step Time =    1.000,"PART-1-1",           109,            5.,         -3.75,            0.,NA,NA,"",       6.73419,      -6.63581,       1.14687,   65.1530E-03
C:/temp/dataset/test2/1_9.odb,Step-1,Increment      1: Step Time =    1.000,"PART-1-1",           110,            3.,         -3.75,            0.,NA,NA,"",       6.42492,      -6.41583,   341.746E-03,   40.2801E-03
C:/temp/dataset/test2/1_9.odb,Step-1,Increment      1: Step Time =    1.000,"PART-1-1",           111,            1.,         -3.75,            0.,NA,NA,"",       6.23580,      -6.21862,  -462.655E-03,   16.7711E-03
C:/temp/dataset/test2/1_9.odb,Step-1,Increment      1: Step Time =    1.000,"PART-1-1",           112,           -1.,         -3.75,            0.,NA,NA,"",       6.17561,      -6.04294,      -1.27319,   14.3283E-03
C:/temp/dataset/test2/1_9.odb,Step-1,Increment      1: Step Time =    1.000,"PART-1-1",           113,           -3.,         -3.75,            0.,NA,NA,"",       6.24986,      -5.88749,      -2.09718,   37.8841E-03
C:/temp/dataset/test2/1_9.odb,Step-1,Increment      1: Step Time =    1.000,"PART-1-1",           114,           -5.,         -3.75,            0.,NA,NA,"",       6.45995,      -5.75092,      -2.94242,   63.8629E-03
C:/temp/dataset/test2/1_9.odb,Step-1,Increment      1: Step Time =    1.000,"PART-1-1",           115,            5.,        -5.625,            0.,NA,NA,"",       5.95319,      -5.83003,       1.20465,   68.9768E-03
C:/temp/dataset/test2/1_9.odb,Step-1,Increment      1: Step Time =    1.000,"PART-1-1",           116,            3.,        -5.625,            0.,NA,NA,"",       5.64240,      -5.62516,   440.658E-03,   42.6429E-03
C:/temp/dataset/test2/1_9.odb,Step-1,Increment      1: Step Time =    1.000,"PART-1-1",           117,            1.,        -5.625,            0.,NA,NA,"",       5.45350,      -5.44396,  -322.568E-03,   17.5739E-03
C:/temp/dataset/test2/1_9.odb,Step-1,Increment      1: Step Time =    1.000,"PART-1-1",           118,           -1.,        -5.625,            0.,NA,NA,"",       5.39713,      -5.28551,      -1.09196,   14.7770E-03
C:/temp/dataset/test2/1_9.odb,Step-1,Increment      1: Step Time =    1.000,"PART-1-1",           119,           -3.,        -5.625,            0.,NA,NA,"",       5.47965,      -5.14892,      -1.87489,   39.9490E-03
C:/temp/dataset/test2/1_9.odb,Step-1,Increment      1: Step Time =    1.000,"PART-1-1",           120,           -5.,        -5.625,            0.,NA,NA,"",       5.70194,      -5.03322,      -2.67933,   67.5413E-03
C:/temp/dataset/test2/1_9.odb,Step-1,Increment      1: Step Time =    1.000,"PART-1-1",           121,            5.,          -7.5,            0.,NA,NA,"",       5.21315,      -5.06392,       1.23841,   72.7883E-03
C:/temp/dataset/test2/1_9.odb,Step-1,Increment      1: Step Time =    1.000,"PART-1-1",           122,            3.,          -7.5,            0.,NA,NA,"",       4.90160,      -4.87414,   518.107E-03,   45.0049E-03
C:/temp/dataset/test2/1_9.odb,Step-1,Increment      1: Step Time =    1.000,"PART-1-1",           123,            1.,          -7.5,            0.,NA,NA,"",       4.71320,      -4.70889,  -201.320E-03,   18.3937E-03
C:/temp/dataset/test2/1_9.odb,Step-1,Increment      1: Step Time =    1.000,"PART-1-1",           124,           -1.,          -7.5,            0.,NA,NA,"",       4.66073,      -4.56765,  -926.842E-03,   15.2220E-03
C:/temp/dataset/test2/1_9.odb,Step-1,Increment      1: Step Time =    1.000,"PART-1-1",           125,           -3.,          -7.5,            0.,NA,NA,"",       4.75152,      -4.44990,      -1.66593,   41.9976E-03
C:/temp/dataset/test2/1_9.odb,Step-1,Increment      1: Step Time =    1.000,"PART-1-1",           126,           -5.,          -7.5,            0.,NA,NA,"",       4.98555,      -4.35513,      -2.42663,   71.2000E-03
C:/temp/dataset/test2/1_9.odb,Step-1,Increment      1: Step Time =    1.000,"PART-1-1",           127,            5.,        -9.375,            0.,NA,NA,"",       4.51641,      -4.34052,       1.24812,   76.5846E-03
C:/temp/dataset/test2/1_9.odb,Step-1,Increment      1: Step Time =    1.000,"PART-1-1",           128,            3.,        -9.375,            0.,NA,NA,"",       4.20501,      -4.16564,   574.086E-03,   47.3636E-03
C:/temp/dataset/test2/1_9.odb,Step-1,Increment      1: Step Time =    1.000,"PART-1-1",           129,            1.,        -9.375,            0.,NA,NA,"",       4.01735,      -4.01613,  -98.8911E-03,   19.2282E-03
C:/temp/dataset/test2/1_9.odb,Step-1,Increment      1: Step Time =    1.000,"PART-1-1",           130,           -1.,        -9.375,            0.,NA,NA,"",       3.96883,      -3.89187,  -777.810E-03,   15.6619E-03
C:/temp/dataset/test2/1_9.odb,Step-1,Increment      1: Step Time =    1.000,"PART-1-1",           131,           -3.,        -9.375,            0.,NA,NA,"",       4.06775,      -3.79277,      -1.47019,   44.0280E-03
C:/temp/dataset/test2/1_9.odb,Step-1,Increment      1: Step Time =    1.000,"PART-1-1",           132,           -5.,        -9.375,            0.,NA,NA,"",       4.31280,      -3.71881,      -2.18419,   74.8359E-03
C:/temp/dataset/test2/1_9.odb,Step-1,Increment      1: Step Time =    1.000,"PART-1-1",           133,            5.,        -11.25,            0.,NA,NA,"",       3.86519,      -3.66293,       1.23396,   80.3620E-03
C:/temp/dataset/test2/1_9.odb,Step-1,Increment      1: Step Time =    1.000,"PART-1-1",           134,            3.,        -11.25,            0.,NA,NA,"",       3.55507,      -3.50256,   608.778E-03,   49.7162E-03
C:/temp/dataset/test2/1_9.odb,Step-1,Increment      1: Step Time =    1.000,"PART-1-1",           135,            1.,        -11.25,            0.,NA,NA,"",       3.36843,      -3.36839,  -15.0860E-03,   20.0757E-03
C:/temp/dataset/test2/1_9.odb,Step-1,Increment      1: Step Time =    1.000,"PART-1-1",           136,           -1.,        -11.25,            0.,NA,NA,"",       3.32382,      -3.26071,  -644.643E-03,   16.0953E-03
C:/temp/dataset/test2/1_9.odb,Step-1,Increment      1: Step Time =    1.000,"PART-1-1",           137,           -3.,        -11.25,            0.,NA,NA,"",       3.43063,      -3.17989,      -1.28745,   46.0382E-03
C:/temp/dataset/test2/1_9.odb,Step-1,Increment      1: Step Time =    1.000,"PART-1-1",           138,           -5.,        -11.25,            0.,NA,NA,"",       3.68560,      -3.12639,      -1.95174,   78.4459E-03
C:/temp/dataset/test2/1_9.odb,Step-1,Increment      1: Step Time =    1.000,"PART-1-1",           139,            5.,       -13.125,            0.,NA,NA,"",       3.26162,      -3.03431,       1.19629,   84.1158E-03
C:/temp/dataset/test2/1_9.odb,Step-1,Increment      1: Step Time =    1.000,"PART-1-1",           140,            3.,       -13.125,            0.,NA,NA,"",       2.95423,      -2.88789,   622.564E-03,   52.0597E-03
C:/temp/dataset/test2/1_9.odb,Step-1,Increment      1: Step Time =    1.000,"PART-1-1",           141,            1.,       -13.125,            0.,NA,NA,"",       2.76892,      -2.76846,   50.4807E-03,   20.9350E-03
C:/temp/dataset/test2/1_9.odb,Step-1,Increment      1: Step Time =    1.000,"PART-1-1",           142,           -1.,       -13.125,            0.,NA,NA,"",       2.72812,      -2.67675,  -526.947E-03,   16.5206E-03
C:/temp/dataset/test2/1_9.odb,Step-1,Increment      1: Step Time =    1.000,"PART-1-1",           143,           -3.,       -13.125,            0.,NA,NA,"",       2.84241,      -2.61361,      -1.11729,   48.0264E-03
C:/temp/dataset/test2/1_9.odb,Step-1,Increment      1: Step Time =    1.000,"PART-1-1",           144,           -5.,       -13.125,            0.,NA,NA,"",       3.10571,      -2.58004,      -1.72883,   82.0274E-03
C:/temp/dataset/test2/1_9.odb,Step-1,Increment      1: Step Time =    1.000,"PART-1-1",           145,            5.,          -15.,            0.,NA,NA,"",       2.70757,      -2.45786,       1.13573,   87.8389E-03
C:/temp/dataset/test2/1_9.odb,Step-1,Increment      1: Step Time =    1.000,"PART-1-1",           146,            3.,          -15.,            0.,NA,NA,"",       2.40484,      -2.32460,   616.035E-03,   54.3904E-03
C:/temp/dataset/test2/1_9.odb,Step-1,Increment      1: Step Time =    1.000,"PART-1-1",           147,            1.,          -15.,            0.,NA,NA,"",       2.22129,      -2.21911,   98.3916E-03,   21.8062E-03
C:/temp/dataset/test2/1_9.odb,Step-1,Increment      1: Step Time =    1.000,"PART-1-1",           148,           -1.,          -15.,            0.,NA,NA,"",       2.18412,      -2.14254,  -424.138E-03,   16.9349E-03
C:/temp/dataset/test2/1_9.odb,Step-1,Increment      1: Step Time =    1.000,"PART-1-1",           149,           -3.,          -15.,            0.,NA,NA,"",       2.30527,      -2.09628,  -959.112E-03,   49.9905E-03
C:/temp/dataset/test2/1_9.odb,Step-1,Increment      1: Step Time =    1.000,"PART-1-1",           150,           -5.,          -15.,            0.,NA,NA,"",       2.57468,      -2.08187,      -1.51485,   85.5791E-03
C:/temp/dataset/test2/1_9.odb,Step-1,Increment      1: Step Time =    1.000,"PART-1-1",           151,            5.,       -16.875,            0.,NA,NA,"",       2.20458,      -1.93679,       1.05310,   91.5207E-03
C:/temp/dataset/test2/1_9.odb,Step-1,Increment      1: Step Time =    1.000,"PART-1-1",           152,            3.,       -16.875,            0.,NA,NA,"",       1.90918,      -1.81573,   590.007E-03,   56.7031E-03
C:/temp/dataset/test2/1_9.odb,Step-1,Increment      1: Step Time =    1.000,"PART-1-1",           153,            1.,       -16.875,            0.,NA,NA,"",       1.72799,      -1.72314,   129.434E-03,   22.6924E-03
C:/temp/dataset/test2/1_9.odb,Step-1,Increment      1: Step Time =    1.000,"PART-1-1",           154,           -1.,       -16.875,            0.,NA,NA,"",       1.69422,      -1.66068,  -335.441E-03,   17.3342E-03
C:/temp/dataset/test2/1_9.odb,Step-1,Increment      1: Step Time =    1.000,"PART-1-1",           155,           -3.,       -16.875,            0.,NA,NA,"",       1.82134,      -1.63025,  -812.136E-03,   51.9282E-03
C:/temp/dataset/test2/1_9.odb,Step-1,Increment      1: Step Time =    1.000,"PART-1-1",           156,           -5.,       -16.875,            0.,NA,NA,"",       2.09368,      -1.63401,      -1.30901,   89.1047E-03
C:/temp/dataset/test2/1_9.odb,Step-1,Increment      1: Step Time =    1.000,"PART-1-1",           157,            5.,        -18.75,            0.,NA,NA,"",       1.75365,      -1.47435,   949.525E-03,   95.1344E-03
C:/temp/dataset/test2/1_9.odb,Step-1,Increment      1: Step Time =    1.000,"PART-1-1",           158,            3.,        -18.75,            0.,NA,NA,"",       1.46931,      -1.36429,   545.530E-03,   58.9962E-03
C:/temp/dataset/test2/1_9.odb,Step-1,Increment      1: Step Time =    1.000,"PART-1-1",           159,            1.,        -18.75,            0.,NA,NA,"",       1.29146,      -1.28334,   144.606E-03,   23.6003E-03
C:/temp/dataset/test2/1_9.odb,Step-1,Increment      1: Step Time =    1.000,"PART-1-1",           160,           -1.,        -18.75,            0.,NA,NA,"",       1.26077,      -1.23370,  -259.881E-03,   17.7133E-03
C:/temp/dataset/test2/1_9.odb,Step-1,Increment      1: Step Time =    1.000,"PART-1-1",           161,           -3.,        -18.75,            0.,NA,NA,"",       1.39259,      -1.21785,  -675.390E-03,   53.8390E-03
C:/temp/dataset/test2/1_9.odb,Step-1,Increment      1: Step Time =    1.000,"PART-1-1",           162,           -5.,        -18.75,            0.,NA,NA,"",       1.66336,      -1.23853,      -1.11031,   92.6095E-03
C:/temp/dataset/test2/1_9.odb,Step-1,Increment      1: Step Time =    1.000,"PART-1-1",           163,            5.,       -20.625,            0.,NA,NA,"",       1.35497,      -1.07377,   826.416E-03,   98.6557E-03
C:/temp/dataset/test2/1_9.odb,Step-1,Increment      1: Step Time =    1.000,"PART-1-1",           164,            3.,       -20.625,            0.,NA,NA,"",       1.08696,  -973.296E-03,   483.912E-03,   61.2599E-03
C:/temp/dataset/test2/1_9.odb,Step-1,Increment      1: Step Time =    1.000,"PART-1-1",           165,            1.,       -20.625,            0.,NA,NA,"",   914.072E-03,  -902.480E-03,   145.111E-03,   24.5684E-03
C:/temp/dataset/test2/1_9.odb,Step-1,Increment      1: Step Time =    1.000,"PART-1-1",           166,           -1.,       -20.625,            0.,NA,NA,"",   886.158E-03,  -864.150E-03,  -196.265E-03,   18.0901E-03
C:/temp/dataset/test2/1_9.odb,Step-1,Increment      1: Step Time =    1.000,"PART-1-1",           167,           -3.,       -20.625,            0.,NA,NA,"",       1.02078,  -861.404E-03,  -547.697E-03,   55.7199E-03
C:/temp/dataset/test2/1_9.odb,Step-1,Increment      1: Step Time =    1.000,"PART-1-1",           168,           -5.,       -20.625,            0.,NA,NA,"",       1.28356,  -897.568E-03,  -917.557E-03,   96.1172E-03
C:/temp/dataset/test2/1_9.odb,Step-1,Increment      1: Step Time =    1.000,"PART-1-1",           169,            5.,         -22.5,            0.,NA,NA,"",       1.00743,  -738.138E-03,   685.615E-03,   101.875E-03
C:/temp/dataset/test2/1_9.odb,Step-1,Increment      1: Step Time =    1.000,"PART-1-1",           170,            3.,         -22.5,            0.,NA,NA,"",   763.002E-03,  -645.628E-03,   406.615E-03,   63.5810E-03
C:/temp/dataset/test2/1_9.odb,Step-1,Increment      1: Step Time =    1.000,"PART-1-1",           171,            1.,         -22.5,            0.,NA,NA,"",   597.961E-03,  -583.133E-03,   132.337E-03,   25.6202E-03
C:/temp/dataset/test2/1_9.odb,Step-1,Increment      1: Step Time =    1.000,"PART-1-1",           172,           -1.,         -22.5,            0.,NA,NA,"",   572.627E-03,  -554.461E-03,  -143.088E-03,   18.5052E-03
C:/temp/dataset/test2/1_9.odb,Step-1,Increment      1: Step Time =    1.000,"PART-1-1",           173,           -3.,         -22.5,            0.,NA,NA,"",   707.189E-03,  -563.276E-03,  -427.594E-03,   57.6361E-03
C:/temp/dataset/test2/1_9.odb,Step-1,Increment      1: Step Time =    1.000,"PART-1-1",           174,           -5.,         -22.5,            0.,NA,NA,"",   952.918E-03,  -613.154E-03,  -729.449E-03,   99.5028E-03
C:/temp/dataset/test2/1_9.odb,Step-1,Increment      1: Step Time =    1.000,"PART-1-1",           175,            5.,       -24.375,            0.,NA,NA,"",   708.337E-03,  -470.494E-03,   529.506E-03,   104.912E-03
C:/temp/dataset/test2/1_9.odb,Step-1,Increment      1: Step Time =    1.000,"PART-1-1",           176,            3.,       -24.375,            0.,NA,NA,"",   497.128E-03,  -384.076E-03,   315.630E-03,   65.9222E-03
C:/temp/dataset/test2/1_9.odb,Step-1,Increment      1: Step Time =    1.000,"PART-1-1",           177,            1.,       -24.375,            0.,NA,NA,"",   345.206E-03,  -327.889E-03,   107.965E-03,   27.0887E-03
C:/temp/dataset/test2/1_9.odb,Step-1,Increment      1: Step Time =    1.000,"PART-1-1",           178,           -1.,       -24.375,            0.,NA,NA,"",   322.641E-03,  -307.186E-03,  -98.6591E-03,   19.3733E-03
C:/temp/dataset/test2/1_9.odb,Step-1,Increment      1: Step Time =    1.000,"PART-1-1",           179,           -3.,       -24.375,            0.,NA,NA,"",   452.347E-03,  -326.075E-03,  -313.517E-03,   59.6444E-03
C:/temp/dataset/test2/1_9.odb,Step-1,Increment      1: Step Time =    1.000,"PART-1-1",           180,           -5.,       -24.375,            0.,NA,NA,"",   668.483E-03,  -387.901E-03,  -544.428E-03,   102.889E-03
C:/temp/dataset/test2/1_9.odb,Step-1,Increment      1: Step Time =    1.000,"PART-1-1",           181,            5.,        -26.25,            0.,NA,NA,"",   452.288E-03,  -271.083E-03,   362.048E-03,   105.280E-03
C:/temp/dataset/test2/1_9.odb,Step-1,Increment      1: Step Time =    1.000,"PART-1-1",           182,            3.,        -26.25,            0.,NA,NA,"",   284.041E-03,  -189.639E-03,   211.462E-03,   69.7625E-03
C:/temp/dataset/test2/1_9.odb,Step-1,Increment      1: Step Time =    1.000,"PART-1-1",           183,            1.,        -26.25,            0.,NA,NA,"",   157.110E-03,  -138.917E-03,   73.3876E-03,   28.0475E-03
C:/temp/dataset/test2/1_9.odb,Step-1,Increment      1: Step Time =    1.000,"PART-1-1",           184,           -1.,        -26.25,            0.,NA,NA,"",   138.387E-03,  -124.749E-03,  -59.9033E-03,   19.8213E-03
C:/temp/dataset/test2/1_9.odb,Step-1,Increment      1: Step Time =    1.000,"PART-1-1",           185,           -3.,        -26.25,            0.,NA,NA,"",   252.193E-03,  -151.506E-03,  -201.611E-03,   63.4395E-03
C:/temp/dataset/test2/1_9.odb,Step-1,Increment      1: Step Time =    1.000,"PART-1-1",           186,           -5.,        -26.25,            0.,NA,NA,"",   425.037E-03,  -221.606E-03,  -362.695E-03,   103.563E-03
C:/temp/dataset/test2/1_9.odb,Step-1,Increment      1: Step Time =    1.000,"PART-1-1",           187,            5.,       -28.125,            0.,NA,NA,"",   233.082E-03,  -135.052E-03,   189.969E-03,   111.889E-03
C:/temp/dataset/test2/1_9.odb,Step-1,Increment      1: Step Time =    1.000,"PART-1-1",           188,            3.,       -28.125,            0.,NA,NA,"",   120.643E-03,  -63.8315E-03,   102.373E-03,   71.8513E-03
C:/temp/dataset/test2/1_9.odb,Step-1,Increment      1: Step Time =    1.000,"PART-1-1",           189,            1.,       -28.125,            0.,NA,NA,"",   40.6687E-03,  -22.3794E-03,   33.9574E-03,   25.6820E-03
C:/temp/dataset/test2/1_9.odb,Step-1,Increment      1: Step Time =    1.000,"PART-1-1",           190,           -1.,       -28.125,            0.,NA,NA,"",   30.4710E-03,  -14.2859E-03,  -26.9145E-03,   19.1221E-03
C:/temp/dataset/test2/1_9.odb,Step-1,Increment      1: Step Time =    1.000,"PART-1-1",           191,           -3.,       -28.125,            0.,NA,NA,"",   104.935E-03,  -42.7432E-03,  -95.8350E-03,   65.3595E-03
C:/temp/dataset/test2/1_9.odb,Step-1,Increment      1: Step Time =    1.000,"PART-1-1",           192,           -5.,       -28.125,            0.,NA,NA,"",   216.075E-03,  -111.637E-03,  -185.002E-03,   111.364E-03
C:/temp/dataset/test2/1_9.odb,Step-1,Increment      1: Step Time =    1.000,"PART-1-1",           193,            5.,          -30.,            0.,NA,NA,"",            0.,  -32.8384E-39,   59.1166E-39,   136.921E-03
C:/temp/dataset/test2/1_9.odb,Step-1,Increment      1: Step Time =    1.000,"PART-1-1",           194,            3.,          -30.,            0.,NA,NA,"",            0.,  -90.4318E-39,   219.264E-39,   49.7847E-03
C:/temp/dataset/test2/1_9.odb,Step-1,Increment      1: Step Time =    1.000,"PART-1-1",           195,            1.,          -30.,            0.,NA,NA,"",            0.,   512.763E-42,   59.1271E-39,   22.2896E-03
C:/temp/dataset/test2/1_9.odb,Step-1,Increment      1: Step Time =    1.000,"PART-1-1",           196,           -1.,          -30.,            0.,NA,NA,"",            0.,   66.1810E-39,  -88.1177E-39,   22.9693E-03
C:/temp/dataset/test2/1_9.odb,Step-1,Increment      1: Step Time =    1.000,"PART-1-1",           197,           -3.,          -30.,            0.,NA,NA,"",            0.,   8.01817E-39,  -230.620E-39,   47.6082E-03
C:/temp/dataset/test2/1_9.odb,Step-1,Increment      1: Step Time =    1.000,"PART-1-1",           198,           -5.,          -30.,            0.,NA,NA,"",            0.,  -26.4856E-39,  -47.3196E-39,   127.338E-03
C:/temp/dataset/test2/1_9.odb,Step-1,Increment      1: Step Time =    1.000,"PART-1-1",           199,            4.,           30.,            0.,NA,NA,"",       24.9936,      -24.7129,      -3.73537,   9.13963E-03
C:/temp/dataset/test2/1_9.odb,Step-1,Increment      1: Step Time =    1.000,"PART-1-1",           200,            3.,       29.0625,            0.,NA,NA,"",       24.3393,      -23.9849,      -4.13807,   8.83394E-03
C:/temp/dataset/test2/1_9.odb,Step-1,Increment      1: Step Time =    1.000,"PART-1-1",           201,            4.,        28.125,            0.,NA,NA,"",       23.8746,      -23.6311,      -3.40122,   9.05490E-03
C:/temp/dataset/test2/1_9.odb,Step-1,Increment      1: Step Time =    1.000,"PART-1-1",           202,            5.,       29.0625,            0.,NA,NA,"",       24.5443,      -24.3605,      -2.99854,   8.76130E-03
C:/temp/dataset/test2/1_9.odb,Step-1,Increment      1: Step Time =    1.000,"PART-1-1",           203,            2.,           30.,            0.,NA,NA,"",       24.8210,      -24.3381,      -4.87205,   8.44879E-03
C:/temp/dataset/test2/1_9.odb,Step-1,Increment      1: Step Time =    1.000,"PART-1-1",           204,            1.,       29.0625,            0.,NA,NA,"",       24.1974,      -23.6160,      -5.27274,   6.64981E-03
C:/temp/dataset/test2/1_9.odb,Step-1,Increment      1: Step Time =    1.000,"PART-1-1",           205,            2.,        28.125,            0.,NA,NA,"",       23.6976,      -23.2589,      -4.53851,   7.73381E-03
C:/temp/dataset/test2/1_9.odb,Step-1,Increment      1: Step Time =    1.000,"PART-1-1",           206,            0.,           30.,            0.,NA,NA,"",       24.7114,      -23.9707,      -6.00488,   5.22330E-03
C:/temp/dataset/test2/1_9.odb,Step-1,Increment      1: Step Time =    1.000,"PART-1-1",           207,           -1.,       29.0625,            0.,NA,NA,"",       24.1205,      -23.2545,      -6.40534,   3.90607E-03
C:/temp/dataset/test2/1_9.odb,Step-1,Increment      1: Step Time =    1.000,"PART-1-1",           208,            0.,        28.125,            0.,NA,NA,"",       23.5880,      -22.8961,      -5.67105,   6.25762E-03
C:/temp/dataset/test2/1_9.odb,Step-1,Increment      1: Step Time =    1.000,"PART-1-1",           209,           -2.,           30.,            0.,NA,NA,"",       24.6664,      -23.6106,      -7.13959,   1.79898E-03
C:/temp/dataset/test2/1_9.odb,Step-1,Increment      1: Step Time =    1.000,"PART-1-1",           210,           -3.,       29.0625,            0.,NA,NA,"",       24.1065,      -22.8966,      -7.54124,   1.46173E-03
C:/temp/dataset/test2/1_9.odb,Step-1,Increment      1: Step Time =    1.000,"PART-1-1",           211,           -2.,        28.125,            0.,NA,NA,"",       23.5432,      -22.5385,      -6.80429,   4.13462E-03
C:/temp/dataset/test2/1_9.odb,Step-1,Increment      1: Step Time =    1.000,"PART-1-1",           212,           -4.,           30.,            0.,NA,NA,"",       24.6830,      -23.2531,      -8.27927,   183.448E-06
C:/temp/dataset/test2/1_9.odb,Step-1,Increment      1: Step Time =    1.000,"PART-1-1",           213,           -5.,       29.0625,            0.,NA,NA,"",       24.1530,      -22.5385,      -8.68245,   192.045E-06
C:/temp/dataset/test2/1_9.odb,Step-1,Increment      1: Step Time =    1.000,"PART-1-1",           214,           -4.,        28.125,            0.,NA,NA,"",       23.5609,      -22.1818,      -7.94265,   1.41219E-03
C:/temp/dataset/test2/1_9.odb,Step-1,Increment      1: Step Time =    1.000,"PART-1-1",           215,            3.,       27.1875,            0.,NA,NA,"",       23.2135,      -22.9000,      -3.80225,   9.28672E-03
C:/temp/dataset/test2/1_9.odb,Step-1,Increment      1: Step Time =    1.000,"PART-1-1",           216,            4.,         26.25,            0.,NA,NA,"",       22.7463,      -22.5391,      -3.06319,   8.46448E-03
C:/temp/dataset/test2/1_9.odb,Step-1,Increment      1: Step Time =    1.000,"PART-1-1",           217,            5.,       27.1875,            0.,NA,NA,"",       23.4289,      -23.2774,      -2.66039,   8.65804E-03
C:/temp/dataset/test2/1_9.odb,Step-1,Increment      1: Step Time =    1.000,"PART-1-1",           218,            1.,       27.1875,            0.,NA,NA,"",       23.0699,      -22.5357,      -4.93600,   7.69452E-03
C:/temp/dataset/test2/1_9.odb,Step-1,Increment      1: Step Time =    1.000,"PART-1-1",           219,            2.,         26.25,            0.,NA,NA,"",       22.5678,      -22.1735,      -4.19996,   8.50734E-03
C:/temp/dataset/test2/1_9.odb,Step-1,Increment      1: Step Time =    1.000,"PART-1-1",           220,           -1.,       27.1875,            0.,NA,NA,"",       22.9933,      -22.1782,      -6.06775,   6.36996E-03
C:/temp/dataset/test2/1_9.odb,Step-1,Increment      1: Step Time =    1.000,"PART-1-1",           221,            0.,         26.25,            0.,NA,NA,"",       22.4579,      -21.8159,      -5.33149,   7.95245E-03
C:/temp/dataset/test2/1_9.odb,Step-1,Increment      1: Step Time =    1.000,"PART-1-1",           222,           -3.,       27.1875,            0.,NA,NA,"",       22.9811,      -21.8232,      -7.20274,   4.09513E-03
C:/temp/dataset/test2/1_9.odb,Step-1,Increment      1: Step Time =    1.000,"PART-1-1",           223,           -2.,         26.25,            0.,NA,NA,"",       22.4145,      -21.4623,      -6.46366,   6.30762E-03
C:/temp/dataset/test2/1_9.odb,Step-1,Increment      1: Step Time =    1.000,"PART-1-1",           224,           -5.,       27.1875,            0.,NA,NA,"",       23.0311,      -21.4662,      -8.34485,   1.53150E-03
C:/temp/dataset/test2/1_9.odb,Step-1,Increment      1: Step Time =    1.000,"PART-1-1",           225,           -4.,         26.25,            0.,NA,NA,"",       22.4355,      -21.1085,      -7.60169,   3.62727E-03
C:/temp/dataset/test2/1_9.odb,Step-1,Increment      1: Step Time =    1.000,"PART-1-1",           226,            3.,       25.3125,            0.,NA,NA,"",       22.0833,      -21.8102,      -3.46236,   8.07749E-03
C:/temp/dataset/test2/1_9.odb,Step-1,Increment      1: Step Time =    1.000,"PART-1-1",           227,            4.,        24.375,            0.,NA,NA,"",       21.6199,      -21.4478,      -2.72299,   7.03939E-03
C:/temp/dataset/test2/1_9.odb,Step-1,Increment      1: Step Time =    1.000,"PART-1-1",           228,            5.,       25.3125,            0.,NA,NA,"",       22.2983,      -22.1777,      -2.31610,   7.78384E-03
C:/temp/dataset/test2/1_9.odb,Step-1,Increment      1: Step Time =    1.000,"PART-1-1",           229,            1.,       25.3125,            0.,NA,NA,"",       21.9388,      -21.4521,      -4.59545,   8.72849E-03
C:/temp/dataset/test2/1_9.odb,Step-1,Increment      1: Step Time =    1.000,"PART-1-1",           230,            2.,        24.375,            0.,NA,NA,"",       21.4379,      -21.0876,      -3.85973,   8.09641E-03
C:/temp/dataset/test2/1_9.odb,Step-1,Increment      1: Step Time =    1.000,"PART-1-1",           231,           -1.,       25.3125,            0.,NA,NA,"",       21.8626,      -21.0995,      -5.72578,   8.12502E-03
C:/temp/dataset/test2/1_9.odb,Step-1,Increment      1: Step Time =    1.000,"PART-1-1",           232,            0.,        24.375,            0.,NA,NA,"",       21.3270,      -20.7351,      -4.98943,   8.73838E-03
C:/temp/dataset/test2/1_9.odb,Step-1,Increment      1: Step Time =    1.000,"PART-1-1",           233,           -3.,       25.3125,            0.,NA,NA,"",       21.8528,      -20.7483,      -6.85956,   6.39413E-03
C:/temp/dataset/test2/1_9.odb,Step-1,Increment      1: Step Time =    1.000,"PART-1-1",           234,           -2.,        24.375,            0.,NA,NA,"",       21.2847,      -20.3860,      -6.11953,   7.88529E-03
C:/temp/dataset/test2/1_9.odb,Step-1,Increment      1: Step Time =    1.000,"PART-1-1",           235,           -5.,       25.3125,            0.,NA,NA,"",       21.9077,      -20.3938,      -8.00239,   4.61514E-03
C:/temp/dataset/test2/1_9.odb,Step-1,Increment      1: Step Time =    1.000,"PART-1-1",           236,           -4.,        24.375,            0.,NA,NA,"",       21.3095,      -20.0360,      -7.25634,   6.29821E-03
C:/temp/dataset/test2/1_9.odb,Step-1,Increment      1: Step Time =    1.000,"PART-1-1",           237,            3.,       23.4375,            0.,NA,NA,"",       20.9584,      -20.7241,      -3.12524,   7.72431E-03
C:/temp/dataset/test2/1_9.odb,Step-1,Increment      1: Step Time =    1.000,"PART-1-1",           238,            4.,          22.5,            0.,NA,NA,"",       20.5031,      -20.3628,      -2.39419,   9.94666E-03
C:/temp/dataset/test2/1_9.odb,Step-1,Increment      1: Step Time =    1.000,"PART-1-1",           239,            5.,       23.4375,            0.,NA,NA,"",       21.1817,      -21.0882,      -1.98757,   10.8714E-03
C:/temp/dataset/test2/1_9.odb,Step-1,Increment      1: Step Time =    1.000,"PART-1-1",           240,            1.,       23.4375,            0.,NA,NA,"",       20.8099,      -20.3703,      -4.25508,   8.85228E-03
C:/temp/dataset/test2/1_9.odb,Step-1,Increment      1: Step Time =    1.000,"PART-1-1",           241,            2.,          22.5,            0.,NA,NA,"",       20.3139,      -20.0060,      -3.52361,   8.15638E-03
C:/temp/dataset/test2/1_9.odb,Step-1,Increment      1: Step Time =    1.000,"PART-1-1",           242,           -1.,       23.4375,            0.,NA,NA,"",       20.7330,      -20.0222,      -5.38227,   9.02898E-03
C:/temp/dataset/test2/1_9.odb,Step-1,Increment      1: Step Time =    1.000,"PART-1-1",           243,            0.,          22.5,            0.,NA,NA,"",       20.1998,      -19.6576,      -4.64843,   8.77694E-03
C:/temp/dataset/test2/1_9.odb,Step-1,Increment      1: Step Time =    1.000,"PART-1-1",           244,           -3.,       23.4375,            0.,NA,NA,"",       20.7257,      -19.6756,      -6.51339,   8.27632E-03
C:/temp/dataset/test2/1_9.odb,Step-1,Increment      1: Step Time =    1.000,"PART-1-1",           245,           -2.,          22.5,            0.,NA,NA,"",       20.1580,      -19.3133,      -5.77441,   8.89613E-03
C:/temp/dataset/test2/1_9.odb,Step-1,Increment      1: Step Time =    1.000,"PART-1-1",           246,           -5.,       23.4375,            0.,NA,NA,"",       20.7863,      -19.3254,      -7.65504,   8.53595E-03
C:/temp/dataset/test2/1_9.odb,Step-1,Increment      1: Step Time =    1.000,"PART-1-1",           247,           -4.,          22.5,            0.,NA,NA,"",       20.1870,      -18.9682,      -6.90808,   9.24711E-03
C:/temp/dataset/test2/1_9.odb,Step-1,Increment      1: Step Time =    1.000,"PART-1-1",           248,            3.,       21.5625,            0.,NA,NA,"",       19.8413,      -19.6433,      -2.79635,   9.59189E-03
C:/temp/dataset/test2/1_9.odb,Step-1,Increment      1: Step Time =    1.000,"PART-1-1",           249,            4.,        20.625,            0.,NA,NA,"",       19.3939,      -19.2826,      -2.07435,   12.7312E-03
C:/temp/dataset/test2/1_9.odb,Step-1,Increment      1: Step Time =    1.000,"PART-1-1",           250,            5.,       21.5625,            0.,NA,NA,"",       20.0734,      -20.0039,      -1.66786,   14.0298E-03
C:/temp/dataset/test2/1_9.odb,Step-1,Increment      1: Step Time =    1.000,"PART-1-1",           251,            1.,       21.5625,            0.,NA,NA,"",       19.6872,      -19.2932,      -3.91882,   8.85519E-03
C:/temp/dataset/test2/1_9.odb,Step-1,Increment      1: Step Time =    1.000,"PART-1-1",           252,            2.,        20.625,            0.,NA,NA,"",       19.1974,      -18.9297,      -3.19441,   9.16777E-03
C:/temp/dataset/test2/1_9.odb,Step-1,Increment      1: Step Time =    1.000,"PART-1-1",           253,           -1.,       21.5625,            0.,NA,NA,"",       19.6086,      -18.9498,      -5.04014,   9.36633E-03
C:/temp/dataset/test2/1_9.odb,Step-1,Increment      1: Step Time =    1.000,"PART-1-1",           254,            0.,        20.625,            0.,NA,NA,"",       19.0794,      -18.5859,      -4.31133,   8.71060E-03
C:/temp/dataset/test2/1_9.odb,Step-1,Increment      1: Step Time =    1.000,"PART-1-1",           255,           -3.,       21.5625,            0.,NA,NA,"",       19.6035,      -18.6085,      -6.16640,   10.0361E-03
C:/temp/dataset/test2/1_9.odb,Step-1,Increment      1: Step Time =    1.000,"PART-1-1",           256,           -2.,        20.625,            0.,NA,NA,"",       19.0380,      -18.2470,      -5.43068,   9.72244E-03
C:/temp/dataset/test2/1_9.odb,Step-1,Increment      1: Step Time =    1.000,"PART-1-1",           257,           -5.,       21.5625,            0.,NA,NA,"",       19.6709,      -18.2644,      -7.30434,   12.6572E-03
C:/temp/dataset/test2/1_9.odb,Step-1,Increment      1: Step Time =    1.000,"PART-1-1",           258,           -4.,        20.625,            0.,NA,NA,"",       19.0716,      -17.9083,      -6.55881,   12.2819E-03
C:/temp/dataset/test2/1_9.odb,Step-1,Increment      1: Step Time =    1.000,"PART-1-1",           259,            3.,       19.6875,            0.,NA,NA,"",       18.7322,      -18.5678,      -2.47605,   11.7015E-03
C:/temp/dataset/test2/1_9.odb,Step-1,Increment      1: Step Time =    1.000,"PART-1-1",           260,            4.,         18.75,            0.,NA,NA,"",       18.2932,      -18.2080,      -1.76434,   15.6417E-03
C:/temp/dataset/test2/1_9.odb,Step-1,Increment      1: Step Time =    1.000,"PART-1-1",           261,            5.,       19.6875,            0.,NA,NA,"",       18.9731,      -18.9244,      -1.35813,   17.4429E-03
C:/temp/dataset/test2/1_9.odb,Step-1,Increment      1: Step Time =    1.000,"PART-1-1",           262,            1.,       19.6875,            0.,NA,NA,"",       18.5725,      -18.2225,      -3.58879,   9.12856E-03
C:/temp/dataset/test2/1_9.odb,Step-1,Increment      1: Step Time =    1.000,"PART-1-1",           263,            2.,         18.75,            0.,NA,NA,"",       18.0897,      -17.8601,      -2.87323,   10.3878E-03
C:/temp/dataset/test2/1_9.odb,Step-1,Increment      1: Step Time =    1.000,"PART-1-1",           264,           -1.,       19.6875,            0.,NA,NA,"",       18.4922,      -17.8846,      -4.70163,   9.52757E-03
C:/temp/dataset/test2/1_9.odb,Step-1,Increment      1: Step Time =    1.000,"PART-1-1",           265,            0.,         18.75,            0.,NA,NA,"",       17.9683,      -17.5220,      -3.97993,   8.67834E-03
C:/temp/dataset/test2/1_9.odb,Step-1,Increment      1: Step Time =    1.000,"PART-1-1",           266,           -3.,       19.6875,            0.,NA,NA,"",       18.4898,      -17.5498,      -5.82056,   11.8578E-03
C:/temp/dataset/test2/1_9.odb,Step-1,Increment      1: Step Time =    1.000,"PART-1-1",           267,           -2.,         18.75,            0.,NA,NA,"",       17.9275,      -17.1897,      -5.09019,   10.6097E-03
C:/temp/dataset/test2/1_9.odb,Step-1,Increment      1: Step Time =    1.000,"PART-1-1",           268,           -5.,       19.6875,            0.,NA,NA,"",       18.5645,      -17.2136,      -6.95218,   16.7184E-03
C:/temp/dataset/test2/1_9.odb,Step-1,Increment      1: Step Time =    1.000,"PART-1-1",           269,           -4.,         18.75,            0.,NA,NA,"",       17.9663,      -16.8589,      -6.21028,   15.3112E-03
C:/temp/dataset/test2/1_9.odb,Step-1,Increment      1: Step Time =    1.000,"PART-1-1",           270,            3.,       17.8125,            0.,NA,NA,"",       17.6327,      -17.4992,      -2.16527,   13.8567E-03
C:/temp/dataset/test2/1_9.odb,Step-1,Increment      1: Step Time =    1.000,"PART-1-1",           271,            4.,        16.875,            0.,NA,NA,"",       17.2031,      -17.1406,      -1.46536,   18.6221E-03
C:/temp/dataset/test2/1_9.odb,Step-1,Increment      1: Step Time =    1.000,"PART-1-1",           272,            5.,       17.8125,            0.,NA,NA,"",       17.8821,      -17.8507,      -1.05963,   21.0809E-03
C:/temp/dataset/test2/1_9.odb,Step-1,Increment      1: Step Time =    1.000,"PART-1-1",           273,            1.,       17.8125,            0.,NA,NA,"",       17.4679,      -17.1598,      -3.26626,   9.53712E-03
C:/temp/dataset/test2/1_9.odb,Step-1,Increment      1: Step Time =    1.000,"PART-1-1",           274,            2.,        16.875,            0.,NA,NA,"",       16.9929,      -16.7988,      -2.56119,   11.6779E-03
C:/temp/dataset/test2/1_9.odb,Step-1,Increment      1: Step Time =    1.000,"PART-1-1",           275,           -1.,       17.8125,            0.,NA,NA,"",       17.3865,      -16.8288,      -4.36833,   9.71081E-03
C:/temp/dataset/test2/1_9.odb,Step-1,Increment      1: Step Time =    1.000,"PART-1-1",           276,            0.,        16.875,            0.,NA,NA,"",       16.8686,      -16.4677,      -3.65556,   8.67233E-03
C:/temp/dataset/test2/1_9.odb,Step-1,Increment      1: Step Time =    1.000,"PART-1-1",           277,           -3.,       17.8125,            0.,NA,NA,"",       17.3872,      -16.5019,      -5.47751,   13.7874E-03
C:/temp/dataset/test2/1_9.odb,Step-1,Increment      1: Step Time =    1.000,"PART-1-1",           278,           -2.,        16.875,            0.,NA,NA,"",       16.8290,      -16.1435,      -4.75441,   11.6236E-03
C:/temp/dataset/test2/1_9.odb,Step-1,Increment      1: Step Time =    1.000,"PART-1-1",           279,           -5.,       17.8125,            0.,NA,NA,"",       17.4698,      -16.1750,      -6.60030,   20.6629E-03
C:/temp/dataset/test2/1_9.odb,Step-1,Increment      1: Step Time =    1.000,"PART-1-1",           280,           -4.,        16.875,            0.,NA,NA,"",       16.8737,      -15.8220,      -5.86403,   18.3156E-03
C:/temp/dataset/test2/1_9.odb,Step-1,Increment      1: Step Time =    1.000,"PART-1-1",           281,            3.,       15.9375,            0.,NA,NA,"",       16.5450,      -16.4395,      -1.86523,   16.0393E-03
C:/temp/dataset/test2/1_9.odb,Step-1,Increment      1: Step Time =    1.000,"PART-1-1",           282,            4.,           15.,            0.,NA,NA,"",       16.1257,      -16.0826,      -1.17879,   21.6534E-03
C:/temp/dataset/test2/1_9.odb,Step-1,Increment      1: Step Time =    1.000,"PART-1-1",           283,            5.,       15.9375,            0.,NA,NA,"",       16.8026,      -16.7848,  -773.889E-03,   24.8315E-03
C:/temp/dataset/test2/1_9.odb,Step-1,Increment      1: Step Time =    1.000,"PART-1-1",           284,            1.,       15.9375,            0.,NA,NA,"",       16.3757,      -16.1073,      -2.95246,   9.99211E-03
C:/temp/dataset/test2/1_9.odb,Step-1,Increment      1: Step Time =    1.000,"PART-1-1",           285,            2.,           15.,            0.,NA,NA,"",       15.9094,      -15.7481,      -2.25953,   13.0078E-03
C:/temp/dataset/test2/1_9.odb,Step-1,Increment      1: Step Time =    1.000,"PART-1-1",           286,           -1.,       15.9375,            0.,NA,NA,"",       16.2936,      -15.7844,      -4.04154,   9.96300E-03
C:/temp/dataset/test2/1_9.odb,Step-1,Increment      1: Step Time =    1.000,"PART-1-1",           287,            0.,           15.,            0.,NA,NA,"",       15.7827,      -15.4253,      -3.33943,   8.67412E-03
C:/temp/dataset/test2/1_9.odb,Step-1,Increment      1: Step Time =    1.000,"PART-1-1",           288,           -3.,       15.9375,            0.,NA,NA,"",       16.2982,      -15.4669,      -5.13863,   15.8024E-03
C:/temp/dataset/test2/1_9.odb,Step-1,Increment      1: Step Time =    1.000,"PART-1-1",           289,           -2.,           15.,            0.,NA,NA,"",       15.7450,      -15.1105,      -4.42460,   12.7446E-03
C:/temp/dataset/test2/1_9.odb,Step-1,Increment      1: Step Time =    1.000,"PART-1-1",           290,           -5.,       15.9375,            0.,NA,NA,"",       16.3894,      -15.1508,      -6.25019,   24.5181E-03
C:/temp/dataset/test2/1_9.odb,Step-1,Increment      1: Step Time =    1.000,"PART-1-1",           291,           -4.,           15.,            0.,NA,NA,"",       15.7961,      -14.7997,      -5.52140,   21.3012E-03
C:/temp/dataset/test2/1_9.odb,Step-1,Increment      1: Step Time =    1.000,"PART-1-1",           292,            3.,       14.0625,            0.,NA,NA,"",       15.4714,      -15.3908,      -1.57724,   18.2530E-03
C:/temp/dataset/test2/1_9.odb,Step-1,Increment      1: Step Time =    1.000,"PART-1-1",           293,            4.,        13.125,            0.,NA,NA,"",       15.0633,      -15.0360,  -905.995E-03,   24.7126E-03
C:/temp/dataset/test2/1_9.odb,Step-1,Increment      1: Step Time =    1.000,"PART-1-1",           294,            5.,       14.0625,            0.,NA,NA,"",       15.7366,      -15.7286,  -502.306E-03,   28.6392E-03
C:/temp/dataset/test2/1_9.odb,Step-1,Increment      1: Step Time =    1.000,"PART-1-1",           295,            1.,       14.0625,            0.,NA,NA,"",       15.2980,      -15.0670,      -2.64859,   10.4758E-03
C:/temp/dataset/test2/1_9.odb,Step-1,Increment      1: Step Time =    1.000,"PART-1-1",           296,            2.,        13.125,            0.,NA,NA,"",       14.8413,      -14.7101,      -1.96949,   14.3785E-03
C:/temp/dataset/test2/1_9.odb,Step-1,Increment      1: Step Time =    1.000,"PART-1-1",           297,           -1.,       14.0625,            0.,NA,NA,"",       15.2159,      -14.7535,      -3.72247,   10.2776E-03
C:/temp/dataset/test2/1_9.odb,Step-1,Increment      1: Step Time =    1.000,"PART-1-1",           298,            0.,        13.125,            0.,NA,NA,"",       14.7128,      -14.3968,      -3.03273,   8.67798E-03
C:/temp/dataset/test2/1_9.odb,Step-1,Increment      1: Step Time =    1.000,"PART-1-1",           299,           -3.,       14.0625,            0.,NA,NA,"",       15.2249,      -14.4467,      -4.80515,   17.8709E-03
C:/temp/dataset/test2/1_9.odb,Step-1,Increment      1: Step Time =    1.000,"PART-1-1",           300,           -2.,        13.125,            0.,NA,NA,"",       14.6775,      -14.0927,      -4.10195,   13.9381E-03
C:/temp/dataset/test2/1_9.odb,Step-1,Increment      1: Step Time =    1.000,"PART-1-1",           301,           -5.,       14.0625,            0.,NA,NA,"",       15.3253,      -14.1428,      -5.90315,   28.3223E-03
C:/temp/dataset/test2/1_9.odb,Step-1,Increment      1: Step Time =    1.000,"PART-1-1",           302,           -4.,        13.125,            0.,NA,NA,"",       14.7358,      -13.7940,      -5.18359,   24.2759E-03
C:/temp/dataset/test2/1_9.odb,Step-1,Increment      1: Step Time =    1.000,"PART-1-1",           303,            3.,       12.1875,            0.,NA,NA,"",       14.4142,      -14.3552,      -1.30257,   20.4967E-03
C:/temp/dataset/test2/1_9.odb,Step-1,Increment      1: Step Time =    1.000,"PART-1-1",           304,            4.,         11.25,            0.,NA,NA,"",       14.0181,      -14.0031,  -648.244E-03,   27.7887E-03
C:/temp/dataset/test2/1_9.odb,Step-1,Increment      1: Step Time =    1.000,"PART-1-1",           305,            5.,       12.1875,            0.,NA,NA,"",       14.6864,      -14.6844,  -246.227E-03,   32.4715E-03
C:/temp/dataset/test2/1_9.odb,Step-1,Increment      1: Step Time =    1.000,"PART-1-1",           306,            1.,       12.1875,            0.,NA,NA,"",       14.2373,      -14.0410,      -2.35586,   10.9915E-03
C:/temp/dataset/test2/1_9.odb,Step-1,Increment      1: Step Time =    1.000,"PART-1-1",           307,            2.,         11.25,            0.,NA,NA,"",       13.7911,      -13.6869,      -1.69230,   15.7895E-03
C:/temp/dataset/test2/1_9.odb,Step-1,Increment      1: Step Time =    1.000,"PART-1-1",           308,           -1.,       12.1875,            0.,NA,NA,"",       14.1557,      -13.7382,      -3.41229,   10.6378E-03
C:/temp/dataset/test2/1_9.odb,Step-1,Increment      1: Step Time =    1.000,"PART-1-1",           309,            0.,         11.25,            0.,NA,NA,"",       13.6612,      -13.3843,      -2.73663,   8.68277E-03
C:/temp/dataset/test2/1_9.odb,Step-1,Increment      1: Step Time =    1.000,"PART-1-1",           310,           -3.,       12.1875,            0.,NA,NA,"",       14.1697,      -13.4434,      -4.47824,   19.9691E-03
C:/temp/dataset/test2/1_9.odb,Step-1,Increment      1: Step Time =    1.000,"PART-1-1",           311,           -2.,         11.25,            0.,NA,NA,"",       13.6289,      -13.0921,      -3.78759,   15.1765E-03
C:/temp/dataset/test2/1_9.odb,Step-1,Increment      1: Step Time =    1.000,"PART-1-1",           312,           -5.,       12.1875,            0.,NA,NA,"",       14.2799,      -13.1529,      -5.56032,   32.1013E-03
C:/temp/dataset/test2/1_9.odb,Step-1,Increment      1: Step Time =    1.000,"PART-1-1",           313,           -4.,         11.25,            0.,NA,NA,"",       13.6949,      -12.8067,      -4.85171,   27.2441E-03
C:/temp/dataset/test2/1_9.odb,Step-1,Increment      1: Step Time =    1.000,"PART-1-1",           314,            3.,       10.3125,            0.,NA,NA,"",       13.3758,      -13.3351,      -1.04246,   22.7668E-03
C:/temp/dataset/test2/1_9.odb,Step-1,Increment      1: Step Time =    1.000,"PART-1-1",           315,            4.,         9.375,            0.,NA,NA,"",       12.9927,      -12.9863,  -406.757E-03,   30.8754E-03
C:/temp/dataset/test2/1_9.odb,Step-1,Increment      1: Step Time =    1.000,"PART-1-1",           316,            5.,       10.3125,            0.,NA,NA,"",       13.6544,      -13.6544,  -6.91844E-03,   36.3142E-03
C:/temp/dataset/test2/1_9.odb,Step-1,Increment      1: Step Time =    1.000,"PART-1-1",           317,            1.,       10.3125,            0.,NA,NA,"",       13.1958,      -13.0315,      -2.07543,   11.5442E-03
C:/temp/dataset/test2/1_9.odb,Step-1,Increment      1: Step Time =    1.000,"PART-1-1",           318,            2.,         9.375,            0.,NA,NA,"",       12.7610,      -12.6807,      -1.42911,   17.2381E-03
C:/temp/dataset/test2/1_9.odb,Step-1,Increment      1: Step Time =    1.000,"PART-1-1",           319,           -1.,       10.3125,            0.,NA,NA,"",       13.1152,      -12.7406,      -3.11211,   11.0292E-03
C:/temp/dataset/test2/1_9.odb,Step-1,Increment      1: Step Time =    1.000,"PART-1-1",           320,            0.,         9.375,            0.,NA,NA,"",       12.6303,      -12.3900,      -2.45224,   8.68886E-03
C:/temp/dataset/test2/1_9.odb,Step-1,Increment      1: Step Time =    1.000,"PART-1-1",           321,           -3.,       10.3125,            0.,NA,NA,"",       13.1348,      -12.4590,      -4.15898,   22.0823E-03
C:/temp/dataset/test2/1_9.odb,Step-1,Increment      1: Step Time =    1.000,"PART-1-1",           322,           -2.,         9.375,            0.,NA,NA,"",       12.6015,      -12.1108,      -3.48259,   16.4418E-03
C:/temp/dataset/test2/1_9.odb,Step-1,Increment      1: Step Time =    1.000,"PART-1-1",           323,           -5.,       10.3125,            0.,NA,NA,"",       13.2554,      -12.1831,      -5.22278,   35.8679E-03
C:/temp/dataset/test2/1_9.odb,Step-1,Increment      1: Step Time =    1.000,"PART-1-1",           324,           -4.,         9.375,            0.,NA,NA,"",       12.6757,      -11.8398,      -4.52681,   30.2072E-03
C:/temp/dataset/test2/1_9.odb,Step-1,Increment      1: Step Time =    1.000,"PART-1-1",           325,            3.,        8.4375,            0.,NA,NA,"",       12.3584,      -12.3326,  -798.061E-03,   25.0589E-03
C:/temp/dataset/test2/1_9.odb,Step-1,Increment      1: Step Time =    1.000,"PART-1-1",           326,            4.,           7.5,            0.,NA,NA,"",       11.9892,      -11.9878,  -182.675E-03,   33.9698E-03
C:/temp/dataset/test2/1_9.odb,Step-1,Increment      1: Step Time =    1.000,"PART-1-1",           327,            5.,        8.4375,            0.,NA,NA,"",       12.6430,      -12.6412,   214.425E-03,   40.1609E-03
C:/temp/dataset/test2/1_9.odb,Step-1,Increment      1: Step Time =    1.000,"PART-1-1",           328,            1.,        8.4375,            0.,NA,NA,"",       12.1759,      -12.0408,      -1.80842,   12.1355E-03
C:/temp/dataset/test2/1_9.odb,Step-1,Increment      1: Step Time =    1.000,"PART-1-1",           329,            2.,           7.5,            0.,NA,NA,"",       11.7535,      -11.6940,      -1.18103,   18.7197E-03
C:/temp/dataset/test2/1_9.odb,Step-1,Increment      1: Step Time =    1.000,"PART-1-1",           330,           -1.,        8.4375,            0.,NA,NA,"",       12.0968,      -11.7628,      -2.82299,   11.4418E-03
C:/temp/dataset/test2/1_9.odb,Step-1,Increment      1: Step Time =    1.000,"PART-1-1",           331,            0.,           7.5,            0.,NA,NA,"",       11.6224,      -11.4160,      -2.18061,   8.69680E-03
C:/temp/dataset/test2/1_9.odb,Step-1,Increment      1: Step Time =    1.000,"PART-1-1",           332,           -3.,        8.4375,            0.,NA,NA,"",       12.1225,      -11.4954,      -3.84839,   24.2020E-03
C:/temp/dataset/test2/1_9.odb,Step-1,Increment      1: Step Time =    1.000,"PART-1-1",           333,           -2.,           7.5,            0.,NA,NA,"",       11.5976,      -11.1508,      -3.18796,   17.7229E-03
C:/temp/dataset/test2/1_9.odb,Step-1,Increment      1: Step Time =    1.000,"PART-1-1",           334,           -5.,        8.4375,            0.,NA,NA,"",       12.2539,      -11.2353,      -4.89148,   39.6271E-03
C:/temp/dataset/test2/1_9.odb,Step-1,Increment      1: Step Time =    1.000,"PART-1-1",           335,           -4.,           7.5,            0.,NA,NA,"",       11.6804,      -10.8954,      -4.20985,   33.1649E-03
C:/temp/dataset/test2/1_9.odb,Step-1,Increment      1: Step Time =    1.000,"PART-1-1",           336,            3.,        6.5625,            0.,NA,NA,"",       11.3645,      -11.3502,  -570.456E-03,   27.3691E-03
C:/temp/dataset/test2/1_9.odb,Step-1,Increment      1: Step Time =    1.000,"PART-1-1",           337,            4.,         5.625,            0.,NA,NA,"",       11.0101,      -11.0101,   22.9428E-03,   37.0698E-03
C:/temp/dataset/test2/1_9.odb,Step-1,Increment      1: Step Time =    1.000,"PART-1-1",           338,            5.,        6.5625,            0.,NA,NA,"",       11.6545,      -11.6470,   416.685E-03,   44.0091E-03
C:/temp/dataset/test2/1_9.odb,Step-1,Increment      1: Step Time =    1.000,"PART-1-1",           339,            1.,        6.5625,            0.,NA,NA,"",       11.1799,      -11.0711,      -1.55585,   12.7642E-03
C:/temp/dataset/test2/1_9.odb,Step-1,Increment      1: Step Time =    1.000,"PART-1-1",           340,            2.,         5.625,            0.,NA,NA,"",       10.7708,      -10.7289,  -949.076E-03,   20.2295E-03
C:/temp/dataset/test2/1_9.odb,Step-1,Increment      1: Step Time =    1.000,"PART-1-1",           341,           -1.,        6.5625,            0.,NA,NA,"",       11.1028,      -10.8070,      -2.54594,   11.8690E-03
C:/temp/dataset/test2/1_9.odb,Step-1,Increment      1: Step Time =    1.000,"PART-1-1",           342,            0.,         5.625,            0.,NA,NA,"",       10.6398,      -10.4646,      -1.92272,   8.70714E-03
C:/temp/dataset/test2/1_9.odb,Step-1,Increment      1: Step Time =    1.000,"PART-1-1",           343,           -3.,        6.5625,            0.,NA,NA,"",       11.1350,      -10.5548,      -3.54742,   26.3229E-03
C:/temp/dataset/test2/1_9.odb,Step-1,Increment      1: Step Time =    1.000,"PART-1-1",           344,           -2.,         5.625,            0.,NA,NA,"",       10.6194,      -10.2144,      -2.90462,   19.0128E-03
C:/temp/dataset/test2/1_9.odb,Step-1,Increment      1: Step Time =    1.000,"PART-1-1",           345,           -5.,        6.5625,            0.,NA,NA,"",       11.2778,      -10.3115,      -4.56731,   43.3797E-03
C:/temp/dataset/test2/1_9.odb,Step-1,Increment      1: Step Time =    1.000,"PART-1-1",           346,           -4.,         5.625,            0.,NA,NA,"",       10.7114,      -9.97548,      -3.90169,   36.1159E-03
C:/temp/dataset/test2/1_9.odb,Step-1,Increment      1: Step Time =    1.000,"PART-1-1",           347,            3.,        4.6875,            0.,NA,NA,"",       10.3965,      -10.3902,  -360.641E-03,   29.6941E-03
C:/temp/dataset/test2/1_9.odb,Step-1,Increment      1: Step Time =    1.000,"PART-1-1",           348,            4.,          3.75,            0.,NA,NA,"",       10.0579,      -10.0557,   209.125E-03,   40.1741E-03
C:/temp/dataset/test2/1_9.odb,Step-1,Increment      1: Step Time =    1.000,"PART-1-1",           349,            5.,        4.6875,            0.,NA,NA,"",       10.6912,      -10.6744,   598.827E-03,   47.8575E-03
C:/temp/dataset/test2/1_9.odb,Step-1,Increment      1: Step Time =    1.000,"PART-1-1",           350,            1.,        4.6875,            0.,NA,NA,"",       10.2102,      -10.1247,      -1.31869,   13.4278E-03
C:/temp/dataset/test2/1_9.odb,Step-1,Increment      1: Step Time =    1.000,"PART-1-1",           351,            2.,          3.75,            0.,NA,NA,"",       9.81544,      -9.78795,  -734.184E-03,   21.7631E-03
C:/temp/dataset/test2/1_9.odb,Step-1,Increment      1: Step Time =    1.000,"PART-1-1",           352,           -1.,        4.6875,            0.,NA,NA,"",       10.1355,      -9.87526,      -2.28185,   12.3064E-03
C:/temp/dataset/test2/1_9.odb,Step-1,Increment      1: Step Time =    1.000,"PART-1-1",           353,            0.,          3.75,            0.,NA,NA,"",       9.68487,      -9.53814,      -1.67946,   8.72036E-03
C:/temp/dataset/test2/1_9.odb,Step-1,Increment      1: Step Time =    1.000,"PART-1-1",           354,           -3.,        4.6875,            0.,NA,NA,"",       10.1746,      -9.63923,      -3.25692,   28.4414E-03
C:/temp/dataset/test2/1_9.odb,Step-1,Increment      1: Step Time =    1.000,"PART-1-1",           355,           -2.,          3.75,            0.,NA,NA,"",       9.66926,      -9.30374,      -2.63342,   20.3066E-03
C:/temp/dataset/test2/1_9.odb,Step-1,Increment      1: Step Time =    1.000,"PART-1-1",           356,           -5.,        4.6875,            0.,NA,NA,"",       10.3291,      -9.41377,      -4.25108,   47.1251E-03
C:/temp/dataset/test2/1_9.odb,Step-1,Increment      1: Step Time =    1.000,"PART-1-1",           357,           -4.,          3.75,            0.,NA,NA,"",       9.77076,      -9.08214,      -3.60311,   39.0588E-03
C:/temp/dataset/test2/1_9.odb,Step-1,Increment      1: Step Time =    1.000,"PART-1-1",           358,            3.,        2.8125,            0.,NA,NA,"",       9.45669,      -9.45516,  -169.521E-03,   32.0310E-03
C:/temp/dataset/test2/1_9.odb,Step-1,Increment      1: Step Time =    1.000,"PART-1-1",           359,            4.,         1.875,            0.,NA,NA,"",       9.13478,      -9.12708,   375.000E-03,   43.2810E-03
C:/temp/dataset/test2/1_9.odb,Step-1,Increment      1: Step Time =    1.000,"PART-1-1",           360,            5.,        2.8125,            0.,NA,NA,"",       9.75564,      -9.72600,   759.910E-03,   51.7049E-03
C:/temp/dataset/test2/1_9.odb,Step-1,Increment      1: Step Time =    1.000,"PART-1-1",           361,            1.,        2.8125,            0.,NA,NA,"",       9.26917,      -9.20393,      -1.09780,   14.1231E-03
C:/temp/dataset/test2/1_9.odb,Step-1,Increment      1: Step Time =    1.000,"PART-1-1",           362,            2.,         1.875,            0.,NA,NA,"",       8.88972,      -8.87347,  -537.184E-03,   23.3168E-03
C:/temp/dataset/test2/1_9.odb,Step-1,Increment      1: Step Time =    1.000,"PART-1-1",           363,           -1.,        2.8125,            0.,NA,NA,"",       9.19715,      -8.96997,      -2.03154,   12.7508E-03
C:/temp/dataset/test2/1_9.odb,Step-1,Increment      1: Step Time =    1.000,"PART-1-1",           364,            0.,         1.875,            0.,NA,NA,"",       8.75995,      -8.63884,      -1.45161,   8.73694E-03
C:/temp/dataset/test2/1_9.odb,Step-1,Increment      1: Step Time =    1.000,"PART-1-1",           365,           -3.,        2.8125,            0.,NA,NA,"",       9.24360,      -8.75087,      -2.97766,   30.5546E-03
C:/temp/dataset/test2/1_9.odb,Step-1,Increment      1: Step Time =    1.000,"PART-1-1",           366,           -2.,         1.875,            0.,NA,NA,"",       8.74949,      -8.42095,      -2.37509,   21.6009E-03
C:/temp/dataset/test2/1_9.odb,Step-1,Increment      1: Step Time =    1.000,"PART-1-1",           367,           -5.,        2.8125,            0.,NA,NA,"",       9.41021,      -8.54406,      -3.94349,   50.8620E-03
C:/temp/dataset/test2/1_9.odb,Step-1,Increment      1: Step Time =    1.000,"PART-1-1",           368,           -4.,         1.875,            0.,NA,NA,"",       8.86086,      -8.21748,      -3.31481,   41.9922E-03
C:/temp/dataset/test2/1_9.odb,Step-1,Increment      1: Step Time =    1.000,"PART-1-1",           369,            3.,     937.5E-03,            0.,NA,NA,"",       8.54756,      -8.54756,   2.10726E-03,   34.3773E-03
C:/temp/dataset/test2/1_9.odb,Step-1,Increment      1: Step Time =    1.000,"PART-1-1",           370,            4.,            0.,            0.,NA,NA,"",       8.24335,      -8.22694,   519.808E-03,   46.3891E-03
C:/temp/dataset/test2/1_9.odb,Step-1,Increment      1: Step Time =    1.000,"PART-1-1",           371,            5.,     937.5E-03,            0.,NA,NA,"",       8.85019,      -8.80441,   899.098E-03,   55.5499E-03
C:/temp/dataset/test2/1_9.odb,Step-1,Increment      1: Step Time =    1.000,"PART-1-1",           372,            1.,     937.5E-03,            0.,NA,NA,"",       8.35917,      -8.31123,  -893.938E-03,   14.8470E-03
C:/temp/dataset/test2/1_9.odb,Step-1,Increment      1: Step Time =    1.000,"PART-1-1",           373,            2.,            0.,            0.,NA,NA,"",       7.99606,      -7.98801,  -358.796E-03,   24.8873E-03
C:/temp/dataset/test2/1_9.odb,Step-1,Increment      1: Step Time =    1.000,"PART-1-1",           374,           -1.,     937.5E-03,            0.,NA,NA,"",       8.29020,      -8.09338,      -1.79572,   13.1996E-03
C:/temp/dataset/test2/1_9.odb,Step-1,Increment      1: Step Time =    1.000,"PART-1-1",           375,            0.,            0.,            0.,NA,NA,"",       7.86742,      -7.76911,      -1.23985,   8.75737E-03
C:/temp/dataset/test2/1_9.odb,Step-1,Increment      1: Step Time =    1.000,"PART-1-1",           376,           -3.,     937.5E-03,            0.,NA,NA,"",       8.34431,      -7.89188,      -2.71030,   32.6604E-03
C:/temp/dataset/test2/1_9.odb,Step-1,Increment      1: Step Time =    1.000,"PART-1-1",           377,           -2.,            0.,            0.,NA,NA,"",       7.86241,      -7.56832,      -2.13026,   22.8928E-03
C:/temp/dataset/test2/1_9.odb,Step-1,Increment      1: Step Time =    1.000,"PART-1-1",           378,           -5.,     937.5E-03,            0.,NA,NA,"",       8.52325,      -7.70447,      -3.64511,   54.5888E-03
C:/temp/dataset/test2/1_9.odb,Step-1,Increment      1: Step Time =    1.000,"PART-1-1",           379,           -4.,            0.,            0.,NA,NA,"",       7.98393,      -7.38361,      -3.03734,   44.9144E-03
C:/temp/dataset/test2/1_9.odb,Step-1,Increment      1: Step Time =    1.000,"PART-1-1",           380,            3.,    -937.5E-03,            0.,NA,NA,"",       7.67153,      -7.66999,   153.562E-03,   36.7306E-03
C:/temp/dataset/test2/1_9.odb,Step-1,Increment      1: Step Time =    1.000,"PART-1-1",           381,            4.,        -1.875,            0.,NA,NA,"",       7.38599,      -7.35796,   642.911E-03,   49.4966E-03
C:/temp/dataset/test2/1_9.odb,Step-1,Increment      1: Step Time =    1.000,"PART-1-1",           382,            5.,    -937.5E-03,            0.,NA,NA,"",       7.97727,      -7.91235,       1.01567,   59.3908E-03
C:/temp/dataset/test2/1_9.odb,Step-1,Increment      1: Step Time =    1.000,"PART-1-1",           383,            1.,    -937.5E-03,            0.,NA,NA,"",       7.48261,      -7.44907,  -707.740E-03,   15.5965E-03
C:/temp/dataset/test2/1_9.odb,Step-1,Increment      1: Step Time =    1.000,"PART-1-1",           384,            2.,        -1.875,            0.,NA,NA,"",       7.13692,      -7.13413,  -199.621E-03,   26.4718E-03
C:/temp/dataset/test2/1_9.odb,Step-1,Increment      1: Step Time =    1.000,"PART-1-1",           385,           -1.,    -937.5E-03,            0.,NA,NA,"",       7.41699,      -7.24783,      -1.57500,   13.6506E-03
C:/temp/dataset/test2/1_9.odb,Step-1,Increment      1: Step Time =    1.000,"PART-1-1",           386,            0.,        -1.875,            0.,NA,NA,"",       7.00969,      -6.93140,      -1.04474,   8.78215E-03
C:/temp/dataset/test2/1_9.odb,Step-1,Increment      1: Step Time =    1.000,"PART-1-1",           387,           -3.,    -937.5E-03,            0.,NA,NA,"",       7.47901,      -7.06447,      -2.45537,   34.7565E-03
C:/temp/dataset/test2/1_9.odb,Step-1,Increment      1: Step Time =    1.000,"PART-1-1",           388,           -2.,        -1.875,            0.,NA,NA,"",       7.01038,      -6.74815,      -1.89945,   24.1798E-03
C:/temp/dataset/test2/1_9.odb,Step-1,Increment      1: Step Time =    1.000,"PART-1-1",           389,           -5.,    -937.5E-03,            0.,NA,NA,"",       7.67042,      -6.89707,      -3.35645,   58.3037E-03
C:/temp/dataset/test2/1_9.odb,Step-1,Increment      1: Step Time =    1.000,"PART-1-1",           390,           -4.,        -1.875,            0.,NA,NA,"",       7.14222,      -6.58270,      -2.77118,   47.8239E-03
C:/temp/dataset/test2/1_9.odb,Step-1,Increment      1: Step Time =    1.000,"PART-1-1",           391,            3.,       -2.8125,            0.,NA,NA,"",       6.83106,      -6.82514,   284.290E-03,   39.0888E-03
C:/temp/dataset/test2/1_9.odb,Step-1,Increment      1: Step Time =    1.000,"PART-1-1",           392,            4.,         -3.75,            0.,NA,NA,"",       6.56517,      -6.52289,   743.807E-03,   52.6014E-03
C:/temp/dataset/test2/1_9.odb,Step-1,Increment      1: Step Time =    1.000,"PART-1-1",           393,            5.,       -2.8125,            0.,NA,NA,"",       7.13931,      -7.05264,       1.10904,   63.2256E-03
C:/temp/dataset/test2/1_9.odb,Step-1,Increment      1: Step Time =    1.000,"PART-1-1",           394,            1.,       -2.8125,            0.,NA,NA,"",       6.64193,      -6.61997,  -539.722E-03,   16.3688E-03
C:/temp/dataset/test2/1_9.odb,Step-1,Increment      1: Step Time =    1.000,"PART-1-1",           395,            2.,         -3.75,            0.,NA,NA,"",       6.31474,      -6.31445,  -60.1241E-03,   28.0677E-03
C:/temp/dataset/test2/1_9.odb,Step-1,Increment      1: Step Time =    1.000,"PART-1-1",           396,           -1.,       -2.8125,            0.,NA,NA,"",       6.57988,      -6.43571,      -1.36983,   14.1017E-03
C:/temp/dataset/test2/1_9.odb,Step-1,Increment      1: Step Time =    1.000,"PART-1-1",           397,            0.,         -3.75,            0.,NA,NA,"",       6.18915,      -6.12817,  -866.710E-03,   8.81176E-03
C:/temp/dataset/test2/1_9.odb,Step-1,Increment      1: Step Time =    1.000,"PART-1-1",           398,           -3.,       -2.8125,            0.,NA,NA,"",       6.65002,      -6.27089,      -2.21330,   36.8410E-03
C:/temp/dataset/test2/1_9.odb,Step-1,Increment      1: Step Time =    1.000,"PART-1-1",           399,           -2.,         -3.75,            0.,NA,NA,"",       6.19574,      -5.96277,      -1.68303,   25.4599E-03
C:/temp/dataset/test2/1_9.odb,Step-1,Increment      1: Step Time =    1.000,"PART-1-1",           400,           -5.,       -2.8125,            0.,NA,NA,"",       6.85391,      -6.12395,      -3.07786,   62.0048E-03
C:/temp/dataset/test2/1_9.odb,Step-1,Increment      1: Step Time =    1.000,"PART-1-1",           401,           -4.,         -3.75,            0.,NA,NA,"",       6.33799,      -5.81694,      -2.51663,   50.7187E-03
C:/temp/dataset/test2/1_9.odb,Step-1,Increment      1: Step Time =    1.000,"PART-1-1",           402,            3.,       -4.6875,            0.,NA,NA,"",       6.02860,      -6.01572,   393.879E-03,   41.4495E-03
C:/temp/dataset/test2/1_9.odb,Step-1,Increment      1: Step Time =    1.000,"PART-1-1",           403,            4.,        -5.625,            0.,NA,NA,"",       5.78332,      -5.72459,   822.144E-03,   55.7014E-03
C:/temp/dataset/test2/1_9.odb,Step-1,Increment      1: Step Time =    1.000,"PART-1-1",           404,            5.,       -4.6875,            0.,NA,NA,"",       6.33872,      -6.22815,       1.17876,   67.0520E-03
C:/temp/dataset/test2/1_9.odb,Step-1,Increment      1: Step Time =    1.000,"PART-1-1",           405,            1.,       -4.6875,            0.,NA,NA,"",       5.83956,      -5.82650,  -390.261E-03,   17.1615E-03
C:/temp/dataset/test2/1_9.odb,Step-1,Increment      1: Step Time =    1.000,"PART-1-1",           406,            2.,        -5.625,            0.,NA,NA,"",       5.53198,      -5.53166,   59.3744E-03,   29.6726E-03
C:/temp/dataset/test2/1_9.odb,Step-1,Increment      1: Step Time =    1.000,"PART-1-1",           407,           -1.,       -4.6875,            0.,NA,NA,"",       5.78126,      -5.65943,      -1.18056,   14.5514E-03
C:/temp/dataset/test2/1_9.odb,Step-1,Increment      1: Step Time =    1.000,"PART-1-1",           408,            0.,        -5.625,            0.,NA,NA,"",       5.40823,      -5.36194,  -706.039E-03,   8.84670E-03
C:/temp/dataset/test2/1_9.odb,Step-1,Increment      1: Step Time =    1.000,"PART-1-1",           409,           -3.,       -4.6875,            0.,NA,NA,"",       5.85964,      -5.51340,      -1.98437,   38.9121E-03
C:/temp/dataset/test2/1_9.odb,Step-1,Increment      1: Step Time =    1.000,"PART-1-1",           410,           -2.,        -5.625,            0.,NA,NA,"",       5.42084,      -5.21454,      -1.48125,   26.7310E-03
C:/temp/dataset/test2/1_9.odb,Step-1,Increment      1: Step Time =    1.000,"PART-1-1",           411,           -5.,       -4.6875,            0.,NA,NA,"",       6.07587,      -5.38725,      -2.80957,   65.6898E-03
C:/temp/dataset/test2/1_9.odb,Step-1,Increment      1: Step Time =    1.000,"PART-1-1",           412,           -4.,        -5.625,            0.,NA,NA,"",       5.57348,      -5.08852,      -2.27390,   53.5970E-03
C:/temp/dataset/test2/1_9.odb,Step-1,Increment      1: Step Time =    1.000,"PART-1-1",           413,            3.,       -6.5625,            0.,NA,NA,"",       5.26663,      -5.24452,   482.071E-03,   43.8104E-03
C:/temp/dataset/test2/1_9.odb,Step-1,Increment      1: Step Time =    1.000,"PART-1-1",           414,            4.,          -7.5,            0.,NA,NA,"",       5.04291,      -4.96593,   877.731E-03,   58.7942E-03
C:/temp/dataset/test2/1_9.odb,Step-1,Increment      1: Step Time =    1.000,"PART-1-1",           415,            5.,       -6.5625,            0.,NA,NA,"",       5.57790,      -5.44183,       1.22454,   70.8674E-03
C:/temp/dataset/test2/1_9.odb,Step-1,Increment      1: Step Time =    1.000,"PART-1-1",           416,            1.,       -6.5625,            0.,NA,NA,"",       5.07795,      -5.07131,  -259.585E-03,   17.9722E-03
C:/temp/dataset/test2/1_9.odb,Step-1,Increment      1: Step Time =    1.000,"PART-1-1",           417,            2.,          -7.5,            0.,NA,NA,"",       4.79112,      -4.78849,   158.711E-03,   31.2841E-03
C:/temp/dataset/test2/1_9.odb,Step-1,Increment      1: Step Time =    1.000,"PART-1-1",           418,           -1.,       -6.5625,            0.,NA,NA,"",       5.02352,      -4.92148,      -1.00738,   14.9980E-03
C:/temp/dataset/test2/1_9.odb,Step-1,Increment      1: Step Time =    1.000,"PART-1-1",           419,            0.,          -7.5,            0.,NA,NA,"",       4.66935,      -4.63530,  -562.862E-03,   8.88748E-03
C:/temp/dataset/test2/1_9.odb,Step-1,Increment      1: Step Time =    1.000,"PART-1-1",           420,           -3.,       -6.5625,            0.,NA,NA,"",       5.11018,      -4.79432,      -1.76875,   40.9677E-03
C:/temp/dataset/test2/1_9.odb,Step-1,Increment      1: Step Time =    1.000,"PART-1-1",           421,           -2.,          -7.5,            0.,NA,NA,"",       4.68805,      -4.50587,      -1.29420,   27.9915E-03
C:/temp/dataset/test2/1_9.odb,Step-1,Increment      1: Step Time =    1.000,"PART-1-1",           422,           -5.,       -6.5625,            0.,NA,NA,"",       5.33841,      -4.68909,      -2.55168,   69.3562E-03
C:/temp/dataset/test2/1_9.odb,Step-1,Increment      1: Step Time =    1.000,"PART-1-1",           423,           -4.,          -7.5,            0.,NA,NA,"",       4.85089,      -4.39968,      -2.04304,   56.4564E-03
C:/temp/dataset/test2/1_9.odb,Step-1,Increment      1: Step Time =    1.000,"PART-1-1",           424,            3.,       -8.4375,            0.,NA,NA,"",       4.54763,      -4.51440,   548.774E-03,   46.1691E-03
C:/temp/dataset/test2/1_9.odb,Step-1,Increment      1: Step Time =    1.000,"PART-1-1",           425,            4.,        -9.375,            0.,NA,NA,"",       4.34635,      -4.24990,   910.553E-03,   61.8770E-03
C:/temp/dataset/test2/1_9.odb,Step-1,Increment      1: Step Time =    1.000,"PART-1-1",           426,            5.,       -8.4375,            0.,NA,NA,"",       4.85922,      -4.69669,       1.24626,   74.6688E-03
C:/temp/dataset/test2/1_9.odb,Step-1,Increment      1: Step Time =    1.000,"PART-1-1",           427,            1.,       -8.4375,            0.,NA,NA,"",       4.35956,      -4.35705,  -147.760E-03,   18.7987E-03
C:/temp/dataset/test2/1_9.odb,Step-1,Increment      1: Step Time =    1.000,"PART-1-1",           428,            2.,        -9.375,            0.,NA,NA,"",       4.09464,      -4.08772,   237.894E-03,   32.9000E-03
C:/temp/dataset/test2/1_9.odb,Step-1,Increment      1: Step Time =    1.000,"PART-1-1",           429,           -1.,       -8.4375,            0.,NA,NA,"",       4.30907,      -4.22434,  -850.323E-03,   15.4401E-03
C:/temp/dataset/test2/1_9.odb,Step-1,Increment      1: Step Time =    1.000,"PART-1-1",           430,            0.,        -9.375,            0.,NA,NA,"",       3.97496,      -3.95085,  -437.148E-03,   8.93464E-03
C:/temp/dataset/test2/1_9.odb,Step-1,Increment      1: Step Time =    1.000,"PART-1-1",           431,           -3.,       -8.4375,            0.,NA,NA,"",       4.40394,      -4.11595,      -1.56641,   43.0059E-03
C:/temp/dataset/test2/1_9.odb,Step-1,Increment      1: Step Time =    1.000,"PART-1-1",           432,           -2.,        -9.375,            0.,NA,NA,"",       3.99972,      -3.83918,      -1.12182,   29.2395E-03
C:/temp/dataset/test2/1_9.odb,Step-1,Increment      1: Step Time =    1.000,"PART-1-1",           433,           -5.,       -8.4375,            0.,NA,NA,"",       4.64360,      -4.03162,      -2.30414,   73.0011E-03
C:/temp/dataset/test2/1_9.odb,Step-1,Increment      1: Step Time =    1.000,"PART-1-1",           434,           -4.,        -9.375,            0.,NA,NA,"",       4.17243,      -3.75265,      -1.82395,   59.2947E-03
C:/temp/dataset/test2/1_9.odb,Step-1,Increment      1: Step Time =    1.000,"PART-1-1",           435,            3.,      -10.3125,            0.,NA,NA,"",       3.87406,      -3.82824,   594.075E-03,   48.5230E-03
C:/temp/dataset/test2/1_9.odb,Step-1,Increment      1: Step Time =    1.000,"PART-1-1",           436,            4.,        -11.25,            0.,NA,NA,"",       3.69602,      -3.57949,   920.786E-03,   64.9468E-03
C:/temp/dataset/test2/1_9.odb,Step-1,Increment      1: Step Time =    1.000,"PART-1-1",           437,            5.,      -10.3125,            0.,NA,NA,"",       4.18497,      -3.99580,       1.24401,   78.4528E-03
C:/temp/dataset/test2/1_9.odb,Step-1,Increment      1: Step Time =    1.000,"PART-1-1",           438,            1.,      -10.3125,            0.,NA,NA,"",       3.68687,      -3.68646,  -54.6788E-03,   19.6389E-03
C:/temp/dataset/test2/1_9.odb,Step-1,Increment      1: Step Time =    1.000,"PART-1-1",           439,            2.,        -11.25,            0.,NA,NA,"",       3.44502,      -3.43219,   297.111E-03,   34.5180E-03
C:/temp/dataset/test2/1_9.odb,Step-1,Increment      1: Step Time =    1.000,"PART-1-1",           440,           -1.,      -10.3125,            0.,NA,NA,"",       3.64032,      -3.57055,  -709.262E-03,   15.8765E-03
C:/temp/dataset/test2/1_9.odb,Step-1,Increment      1: Step Time =    1.000,"PART-1-1",           441,            0.,        -11.25,            0.,NA,NA,"",       3.32750,      -3.31122,  -328.692E-03,   8.98887E-03
C:/temp/dataset/test2/1_9.odb,Step-1,Increment      1: Step Time =    1.000,"PART-1-1",           442,           -3.,      -10.3125,            0.,NA,NA,"",       3.74322,      -3.48066,      -1.37722,   45.0249E-03
C:/temp/dataset/test2/1_9.odb,Step-1,Increment      1: Step Time =    1.000,"PART-1-1",           443,           -2.,        -11.25,            0.,NA,NA,"",       3.35822,      -3.21692,  -963.890E-03,   30.4734E-03
C:/temp/dataset/test2/1_9.odb,Step-1,Increment      1: Step Time =    1.000,"PART-1-1",           444,           -5.,      -10.3125,            0.,NA,NA,"",       3.99339,      -3.41698,      -2.06674,   76.6214E-03
C:/temp/dataset/test2/1_9.odb,Step-1,Increment      1: Step Time =    1.000,"PART-1-1",           445,           -4.,        -11.25,            0.,NA,NA,"",       3.54023,      -3.14970,      -1.61636,   62.1093E-03
C:/temp/dataset/test2/1_9.odb,Step-1,Increment      1: Step Time =    1.000,"PART-1-1",           446,            3.,      -12.1875,            0.,NA,NA,"",       3.24837,      -3.18899,   618.254E-03,   50.8690E-03
C:/temp/dataset/test2/1_9.odb,Step-1,Increment      1: Step Time =    1.000,"PART-1-1",           447,            4.,       -13.125,            0.,NA,NA,"",       3.09424,      -2.95776,   908.807E-03,   67.9996E-03
C:/temp/dataset/test2/1_9.odb,Step-1,Increment      1: Step Time =    1.000,"PART-1-1",           448,            5.,      -12.1875,            0.,NA,NA,"",       3.55733,      -3.34230,       1.21803,   82.2153E-03
C:/temp/dataset/test2/1_9.odb,Step-1,Increment      1: Step Time =    1.000,"PART-1-1",           449,            1.,      -12.1875,            0.,NA,NA,"",       3.06234,      -3.06228,   19.9470E-03,   20.4914E-03
C:/temp/dataset/test2/1_9.odb,Step-1,Increment      1: Step Time =    1.000,"PART-1-1",           450,            2.,       -13.125,            0.,NA,NA,"",       2.84476,      -2.82475,   336.744E-03,   36.1362E-03
C:/temp/dataset/test2/1_9.odb,Step-1,Increment      1: Step Time =    1.000,"PART-1-1",           451,           -1.,      -12.1875,            0.,NA,NA,"",       3.01966,      -2.96267,  -583.891E-03,   16.3054E-03
C:/temp/dataset/test2/1_9.odb,Step-1,Increment      1: Step Time =    1.000,"PART-1-1",           452,            0.,       -13.125,            0.,NA,NA,"",       2.72941,      -2.71909,  -237.104E-03,   9.05126E-03
C:/temp/dataset/test2/1_9.odb,Step-1,Increment      1: Step Time =    1.000,"PART-1-1",           453,           -3.,      -12.1875,            0.,NA,NA,"",       3.13027,      -2.89078,      -1.20083,   47.0225E-03
C:/temp/dataset/test2/1_9.odb,Step-1,Increment      1: Step Time =    1.000,"PART-1-1",           454,           -2.,       -13.125,            0.,NA,NA,"",       2.76590,      -2.64155,  -820.000E-03,   31.6910E-03
C:/temp/dataset/test2/1_9.odb,Step-1,Increment      1: Step Time =    1.000,"PART-1-1",           455,           -5.,      -12.1875,            0.,NA,NA,"",       3.38964,      -2.84733,      -1.83912,   80.2142E-03
C:/temp/dataset/test2/1_9.odb,Step-1,Increment      1: Step Time =    1.000,"PART-1-1",           456,           -4.,       -13.125,            0.,NA,NA,"",       2.95634,      -2.59306,      -1.41986,   64.8982E-03
C:/temp/dataset/test2/1_9.odb,Step-1,Increment      1: Step Time =    1.000,"PART-1-1",           457,            3.,      -14.0625,            0.,NA,NA,"",       2.67296,      -2.59963,   621.795E-03,   53.2038E-03
C:/temp/dataset/test2/1_9.odb,Step-1,Increment      1: Step Time =    1.000,"PART-1-1",           458,            4.,          -15.,            0.,NA,NA,"",       2.54317,      -2.38782,   875.213E-03,   71.0302E-03
C:/temp/dataset/test2/1_9.odb,Step-1,Increment      1: Step Time =    1.000,"PART-1-1",           459,            5.,      -14.0625,            0.,NA,NA,"",       2.97830,      -2.73936,       1.16883,   85.9503E-03
C:/temp/dataset/test2/1_9.odb,Step-1,Increment      1: Step Time =    1.000,"PART-1-1",           460,            1.,      -14.0625,            0.,NA,NA,"",       2.48846,      -2.48728,   76.6004E-03,   21.3555E-03
C:/temp/dataset/test2/1_9.odb,Step-1,Increment      1: Step Time =    1.000,"PART-1-1",           461,            2.,          -15.,            0.,NA,NA,"",       2.29629,      -2.26831,   357.381E-03,   37.7530E-03
C:/temp/dataset/test2/1_9.odb,Step-1,Increment      1: Step Time =    1.000,"PART-1-1",           462,           -1.,      -14.0625,            0.,NA,NA,"",       2.44951,      -2.40326,  -473.723E-03,   16.7248E-03
C:/temp/dataset/test2/1_9.odb,Step-1,Increment      1: Step Time =    1.000,"PART-1-1",           463,            0.,          -15.,            0.,NA,NA,"",       2.18313,      -2.17713,  -161.803E-03,   9.12364E-03
C:/temp/dataset/test2/1_9.odb,Step-1,Increment      1: Step Time =    1.000,"PART-1-1",           464,           -3.,      -14.0625,            0.,NA,NA,"",       2.56732,      -2.34868,      -1.03674,   48.9969E-03
C:/temp/dataset/test2/1_9.odb,Step-1,Increment      1: Step Time =    1.000,"PART-1-1",           465,           -2.,          -15.,            0.,NA,NA,"",       2.22508,      -2.11553,  -689.564E-03,   32.8898E-03
C:/temp/dataset/test2/1_9.odb,Step-1,Increment      1: Step Time =    1.000,"PART-1-1",           466,           -5.,      -14.0625,            0.,NA,NA,"",       2.83400,      -2.32480,      -1.62077,   83.7777E-03
C:/temp/dataset/test2/1_9.odb,Step-1,Increment      1: Step Time =    1.000,"PART-1-1",           467,           -4.,          -15.,            0.,NA,NA,"",       2.42271,      -2.08499,      -1.23383,   67.6596E-03
C:/temp/dataset/test2/1_9.odb,Step-1,Increment      1: Step Time =    1.000,"PART-1-1",           468,            3.,      -15.9375,            0.,NA,NA,"",       2.15016,      -2.06317,   605.399E-03,   55.5231E-03
C:/temp/dataset/test2/1_9.odb,Step-1,Increment      1: Step Time =    1.000,"PART-1-1",           469,            4.,       -16.875,            0.,NA,NA,"",       2.04478,      -1.87279,   820.835E-03,   74.0306E-03
C:/temp/dataset/test2/1_9.odb,Step-1,Increment      1: Step Time =    1.000,"PART-1-1",           470,            5.,      -15.9375,            0.,NA,NA,"",       2.44961,      -2.19020,       1.09711,   89.6488E-03
C:/temp/dataset/test2/1_9.odb,Step-1,Increment      1: Step Time =    1.000,"PART-1-1",           471,            1.,      -15.9375,            0.,NA,NA,"",       1.96769,      -1.96427,   115.966E-03,   22.2331E-03
C:/temp/dataset/test2/1_9.odb,Step-1,Increment      1: Step Time =    1.000,"PART-1-1",           472,            2.,       -16.875,            0.,NA,NA,"",       1.80206,      -1.76577,   359.821E-03,   39.3677E-03
C:/temp/dataset/test2/1_9.odb,Step-1,Increment      1: Step Time =    1.000,"PART-1-1",           473,           -1.,      -15.9375,            0.,NA,NA,"",       1.93226,      -1.89491,  -378.080E-03,   17.1314E-03
C:/temp/dataset/test2/1_9.odb,Step-1,Increment      1: Step Time =    1.000,"PART-1-1",           474,            0.,       -16.875,            0.,NA,NA,"",       1.69111,      -1.68803,  -102.010E-03,   9.20964E-03
C:/temp/dataset/test2/1_9.odb,Step-1,Increment      1: Step Time =    1.000,"PART-1-1",           475,           -3.,      -15.9375,            0.,NA,NA,"",       2.05653,      -1.85671,  -884.278E-03,   50.9459E-03
C:/temp/dataset/test2/1_9.odb,Step-1,Increment      1: Step Time =    1.000,"PART-1-1",           476,           -2.,       -16.875,            0.,NA,NA,"",       1.73808,      -1.64133,  -571.806E-03,   34.0661E-03
C:/temp/dataset/test2/1_9.odb,Step-1,Increment      1: Step Time =    1.000,"PART-1-1",           477,           -5.,      -15.9375,            0.,NA,NA,"",       2.32787,      -1.85152,      -1.41097,   87.3128E-03
C:/temp/dataset/test2/1_9.odb,Step-1,Increment      1: Step Time =    1.000,"PART-1-1",           478,           -4.,       -16.875,            0.,NA,NA,"",       1.94106,      -1.62771,      -1.05749,   70.3945E-03
C:/temp/dataset/test2/1_9.odb,Step-1,Increment      1: Step Time =    1.000,"PART-1-1",           479,            3.,      -17.8125,            0.,NA,NA,"",       1.68215,      -1.58264,   570.001E-03,   57.8232E-03
C:/temp/dataset/test2/1_9.odb,Step-1,Increment      1: Step Time =    1.000,"PART-1-1",           480,            4.,        -18.75,            0.,NA,NA,"",       1.60066,      -1.41580,   746.756E-03,   76.9858E-03
C:/temp/dataset/test2/1_9.odb,Step-1,Increment      1: Step Time =    1.000,"PART-1-1",           481,            5.,      -17.8125,            0.,NA,NA,"",       1.97257,      -1.69804,       1.00385,   93.2922E-03
C:/temp/dataset/test2/1_9.odb,Step-1,Increment      1: Step Time =    1.000,"PART-1-1",           482,            1.,      -17.8125,            0.,NA,NA,"",       1.50248,      -1.49604,   138.936E-03,   23.1294E-03
C:/temp/dataset/test2/1_9.odb,Step-1,Increment      1: Step Time =    1.000,"PART-1-1",           483,            2.,        -18.75,            0.,NA,NA,"",       1.36441,      -1.32005,   345.087E-03,   40.9845E-03
C:/temp/dataset/test2/1_9.odb,Step-1,Increment      1: Step Time =    1.000,"PART-1-1",           484,           -1.,      -17.8125,            0.,NA,NA,"",       1.47029,      -1.44017,  -296.086E-03,   17.5212E-03
C:/temp/dataset/test2/1_9.odb,Step-1,Increment      1: Step Time =    1.000,"PART-1-1",           485,            0.,        -18.75,            0.,NA,NA,"",       1.25574,      -1.25446,  -56.7422E-03,   9.31710E-03
C:/temp/dataset/test2/1_9.odb,Step-1,Increment      1: Step Time =    1.000,"PART-1-1",           486,           -3.,      -17.8125,            0.,NA,NA,"",       1.59995,      -1.41720,  -742.551E-03,   52.8688E-03
C:/temp/dataset/test2/1_9.odb,Step-1,Increment      1: Step Time =    1.000,"PART-1-1",           487,           -2.,        -18.75,            0.,NA,NA,"",       1.30717,      -1.22138,  -465.752E-03,   35.2171E-03
C:/temp/dataset/test2/1_9.odb,Step-1,Increment      1: Step Time =    1.000,"PART-1-1",           488,           -5.,      -17.8125,            0.,NA,NA,"",       1.87217,      -1.42959,      -1.20883,   90.8235E-03
C:/temp/dataset/test2/1_9.odb,Step-1,Increment      1: Step Time =    1.000,"PART-1-1",           489,           -4.,        -18.75,            0.,NA,NA,"",       1.51283,      -1.22344,  -889.851E-03,   73.1035E-03
C:/temp/dataset/test2/1_9.odb,Step-1,Increment      1: Step Time =    1.000,"PART-1-1",           490,            3.,      -19.6875,            0.,NA,NA,"",       1.27086,      -1.16105,   516.775E-03,   60.0992E-03
C:/temp/dataset/test2/1_9.odb,Step-1,Increment      1: Step Time =    1.000,"PART-1-1",           491,            4.,       -20.625,            0.,NA,NA,"",       1.21181,      -1.01996,   654.341E-03,   79.8785E-03
C:/temp/dataset/test2/1_9.odb,Step-1,Increment      1: Step Time =    1.000,"PART-1-1",           492,            5.,      -19.6875,            0.,NA,NA,"",       1.54781,      -1.26613,   890.310E-03,   96.8522E-03
C:/temp/dataset/test2/1_9.odb,Step-1,Increment      1: Step Time =    1.000,"PART-1-1",           493,            1.,      -19.6875,            0.,NA,NA,"",       1.09523,      -1.08538,   146.614E-03,   24.0668E-03
C:/temp/dataset/test2/1_9.odb,Step-1,Increment      1: Step Time =    1.000,"PART-1-1",           494,            2.,       -20.625,            0.,NA,NA,"",   985.508E-03,  -934.007E-03,   314.415E-03,   42.6136E-03
C:/temp/dataset/test2/1_9.odb,Step-1,Increment      1: Step Time =    1.000,"PART-1-1",           495,           -1.,      -19.6875,            0.,NA,NA,"",       1.06597,      -1.04159,  -226.664E-03,   17.8996E-03
C:/temp/dataset/test2/1_9.odb,Step-1,Increment      1: Step Time =    1.000,"PART-1-1",           496,            0.,       -20.625,            0.,NA,NA,"",   879.402E-03,  -879.052E-03,  -24.8033E-03,   9.46195E-03
C:/temp/dataset/test2/1_9.odb,Step-1,Increment      1: Step Time =    1.000,"PART-1-1",           497,           -3.,      -19.6875,            0.,NA,NA,"",       1.19947,      -1.03248,  -610.490E-03,   54.7630E-03
C:/temp/dataset/test2/1_9.odb,Step-1,Increment      1: Step Time =    1.000,"PART-1-1",           498,           -2.,       -20.625,            0.,NA,NA,"",   934.578E-03,  -858.125E-03,  -370.212E-03,   36.3483E-03
C:/temp/dataset/test2/1_9.odb,Step-1,Increment      1: Step Time =    1.000,"PART-1-1",           499,           -5.,      -19.6875,            0.,NA,NA,"",       1.46719,      -1.06111,      -1.01327,   94.3233E-03
C:/temp/dataset/test2/1_9.odb,Step-1,Increment      1: Step Time =    1.000,"PART-1-1",           500,           -4.,       -20.625,            0.,NA,NA,"",       1.13889,  -874.383E-03,  -729.750E-03,   75.7993E-03
C:/temp/dataset/test2/1_9.odb,Step-1,Increment      1: Step Time =    1.000,"PART-1-1",           501,            3.,      -21.5625,            0.,NA,NA,"",   917.663E-03,  -801.364E-03,   447.126E-03,   62.3906E-03
C:/temp/dataset/test2/1_9.odb,Step-1,Increment      1: Step Time =    1.000,"PART-1-1",           502,            4.,         -22.5,            0.,NA,NA,"",   878.178E-03,  -688.371E-03,   545.292E-03,   82.6344E-03
C:/temp/dataset/test2/1_9.odb,Step-1,Increment      1: Step Time =    1.000,"PART-1-1",           503,            5.,      -21.5625,            0.,NA,NA,"",       1.17492,  -897.639E-03,   758.075E-03,   100.216E-03
C:/temp/dataset/test2/1_9.odb,Step-1,Increment      1: Step Time =    1.000,"PART-1-1",           504,            1.,      -21.5625,            0.,NA,NA,"",   748.231E-03,  -734.960E-03,   140.293E-03,   25.0812E-03
C:/temp/dataset/test2/1_9.odb,Step-1,Increment      1: Step Time =    1.000,"PART-1-1",           505,            2.,         -22.5,            0.,NA,NA,"",   667.178E-03,  -610.430E-03,   269.261E-03,   44.3466E-03
C:/temp/dataset/test2/1_9.odb,Step-1,Increment      1: Step Time =    1.000,"PART-1-1",           506,           -1.,      -21.5625,            0.,NA,NA,"",   721.616E-03,  -701.674E-03,  -168.476E-03,   18.3062E-03
C:/temp/dataset/test2/1_9.odb,Step-1,Increment      1: Step Time =    1.000,"PART-1-1",           507,            0.,         -22.5,            0.,NA,NA,"",   564.394E-03,  -564.374E-03,  -4.77117E-03,   9.71099E-03
C:/temp/dataset/test2/1_9.odb,Step-1,Increment      1: Step Time =    1.000,"PART-1-1",           508,           -3.,      -21.5625,            0.,NA,NA,"",   856.639E-03,  -704.884E-03,  -486.795E-03,   56.6702E-03
C:/temp/dataset/test2/1_9.odb,Step-1,Increment      1: Step Time =    1.000,"PART-1-1",           509,           -2.,         -22.5,            0.,NA,NA,"",   622.428E-03,  -553.991E-03,  -283.744E-03,   37.5523E-03
C:/temp/dataset/test2/1_9.odb,Step-1,Increment      1: Step Time =    1.000,"PART-1-1",           510,           -5.,      -21.5625,            0.,NA,NA,"",       1.11224,  -748.166E-03,  -822.995E-03,   97.7567E-03
C:/temp/dataset/test2/1_9.odb,Step-1,Increment      1: Step Time =    1.000,"PART-1-1",           511,           -4.,         -22.5,            0.,NA,NA,"",   819.314E-03,  -582.843E-03,  -575.821E-03,   78.4271E-03
C:/temp/dataset/test2/1_9.odb,Step-1,Increment      1: Step Time =    1.000,"PART-1-1",           512,            3.,      -23.4375,            0.,NA,NA,"",   622.968E-03,  -506.467E-03,   362.741E-03,   64.6936E-03
C:/temp/dataset/test2/1_9.odb,Step-1,Increment      1: Step Time =    1.000,"PART-1-1",           513,            4.,       -24.375,            0.,NA,NA,"",   597.624E-03,  -423.564E-03,   421.602E-03,   85.3262E-03
C:/temp/dataset/test2/1_9.odb,Step-1,Increment      1: Step Time =    1.000,"PART-1-1",           514,            5.,      -23.4375,            0.,NA,NA,"",   852.128E-03,  -595.688E-03,   609.327E-03,   103.340E-03
C:/temp/dataset/test2/1_9.odb,Step-1,Increment      1: Step Time =    1.000,"PART-1-1",           515,            1.,      -23.4375,            0.,NA,NA,"",   463.589E-03,  -447.375E-03,   121.532E-03,   26.2838E-03
C:/temp/dataset/test2/1_9.odb,Step-1,Increment      1: Step Time =    1.000,"PART-1-1",           516,            2.,       -24.375,            0.,NA,NA,"",   410.217E-03,  -351.790E-03,   211.001E-03,   46.2043E-03
C:/temp/dataset/test2/1_9.odb,Step-1,Increment      1: Step Time =    1.000,"PART-1-1",           517,           -1.,      -23.4375,            0.,NA,NA,"",   439.563E-03,  -422.878E-03,  -119.957E-03,   18.8723E-03
C:/temp/dataset/test2/1_9.odb,Step-1,Increment      1: Step Time =    1.000,"PART-1-1",           518,            0.,       -24.375,            0.,NA,NA,"",   312.780E-03,  -312.739E-03,   5.10789E-03,   10.0972E-03
C:/temp/dataset/test2/1_9.odb,Step-1,Increment      1: Step Time =    1.000,"PART-1-1",           519,           -3.,      -23.4375,            0.,NA,NA,"",   572.509E-03,  -436.927E-03,  -369.947E-03,   58.6008E-03
C:/temp/dataset/test2/1_9.odb,Step-1,Increment      1: Step Time =    1.000,"PART-1-1",           520,           -2.,       -24.375,            0.,NA,NA,"",   372.423E-03,  -311.434E-03,  -204.224E-03,   38.8892E-03
C:/temp/dataset/test2/1_9.odb,Step-1,Increment      1: Step Time =    1.000,"PART-1-1",           521,           -5.,      -23.4375,            0.,NA,NA,"",   805.170E-03,  -492.956E-03,  -636.626E-03,   101.156E-03
C:/temp/dataset/test2/1_9.odb,Step-1,Increment      1: Step Time =    1.000,"PART-1-1",           522,           -4.,       -24.375,            0.,NA,NA,"",   552.463E-03,  -351.074E-03,  -426.571E-03,   81.1440E-03
C:/temp/dataset/test2/1_9.odb,Step-1,Increment      1: Step Time =    1.000,"PART-1-1",           523,            3.,      -25.3125,            0.,NA,NA,"",   384.420E-03,  -278.422E-03,   265.067E-03,   67.5484E-03
C:/temp/dataset/test2/1_9.odb,Step-1,Increment      1: Step Time =    1.000,"PART-1-1",           524,            4.,        -26.25,            0.,NA,NA,"",   365.944E-03,  -227.935E-03,   286.288E-03,   87.5949E-03
C:/temp/dataset/test2/1_9.odb,Step-1,Increment      1: Step Time =    1.000,"PART-1-1",           525,            5.,      -25.3125,            0.,NA,NA,"",   575.142E-03,  -362.295E-03,   446.689E-03,   105.121E-03
C:/temp/dataset/test2/1_9.odb,Step-1,Increment      1: Step Time =    1.000,"PART-1-1",           526,            1.,      -25.3125,            0.,NA,NA,"",   242.808E-03,  -224.811E-03,   91.7354E-03,   27.5860E-03
C:/temp/dataset/test2/1_9.odb,Step-1,Increment      1: Step Time =    1.000,"PART-1-1",           527,            2.,        -26.25,            0.,NA,NA,"",   214.014E-03,  -160.227E-03,   141.878E-03,   48.5034E-03
C:/temp/dataset/test2/1_9.odb,Step-1,Increment      1: Step Time =    1.000,"PART-1-1",           528,           -1.,      -25.3125,            0.,NA,NA,"",   221.937E-03,  -207.548E-03,  -78.6120E-03,   19.7007E-03
C:/temp/dataset/test2/1_9.odb,Step-1,Increment      1: Step Time =    1.000,"PART-1-1",           529,            0.,        -26.25,            0.,NA,NA,"",   127.095E-03,  -126.908E-03,   6.89365E-03,   10.4363E-03
C:/temp/dataset/test2/1_9.odb,Step-1,Increment      1: Step Time =    1.000,"PART-1-1",           530,           -3.,      -25.3125,            0.,NA,NA,"",   345.789E-03,  -230.812E-03,  -257.479E-03,   61.2815E-03
C:/temp/dataset/test2/1_9.odb,Step-1,Increment      1: Step Time =    1.000,"PART-1-1",           531,           -2.,        -26.25,            0.,NA,NA,"",   185.742E-03,  -132.906E-03,  -129.754E-03,   41.0846E-03
C:/temp/dataset/test2/1_9.odb,Step-1,Increment      1: Step Time =    1.000,"PART-1-1",           532,           -5.,      -25.3125,            0.,NA,NA,"",   541.877E-03,  -297.431E-03,  -452.952E-03,   103.127E-03
C:/temp/dataset/test2/1_9.odb,Step-1,Increment      1: Step Time =    1.000,"PART-1-1",           533,           -4.,        -26.25,            0.,NA,NA,"",   334.469E-03,  -181.993E-03,  -280.620E-03,   83.5169E-03
C:/temp/dataset/test2/1_9.odb,Step-1,Increment      1: Step Time =    1.000,"PART-1-1",           534,            3.,      -27.1875,            0.,NA,NA,"",   196.252E-03,  -117.705E-03,   157.037E-03,   69.1258E-03
C:/temp/dataset/test2/1_9.odb,Step-1,Increment      1: Step Time =    1.000,"PART-1-1",           535,            4.,       -28.125,            0.,NA,NA,"",   167.379E-03,  -92.1247E-03,   139.746E-03,   90.9024E-03
C:/temp/dataset/test2/1_9.odb,Step-1,Increment      1: Step Time =    1.000,"PART-1-1",           536,            5.,      -27.1875,            0.,NA,NA,"",   340.991E-03,  -198.431E-03,   277.308E-03,   107.507E-03
C:/temp/dataset/test2/1_9.odb,Step-1,Increment      1: Step Time =    1.000,"PART-1-1",           537,            1.,      -27.1875,            0.,NA,NA,"",   89.3138E-03,  -71.1125E-03,   54.0367E-03,   27.1719E-03
C:/temp/dataset/test2/1_9.odb,Step-1,Increment      1: Step Time =    1.000,"PART-1-1",           538,            2.,       -28.125,            0.,NA,NA,"",   75.7131E-03,  -38.1760E-03,   65.3840E-03,   48.4346E-03
C:/temp/dataset/test2/1_9.odb,Step-1,Increment      1: Step Time =    1.000,"PART-1-1",           539,           -1.,      -27.1875,            0.,NA,NA,"",   73.8065E-03,  -59.9639E-03,  -43.0318E-03,   19.9975E-03
C:/temp/dataset/test2/1_9.odb,Step-1,Increment      1: Step Time =    1.000,"PART-1-1",           540,            0.,       -28.125,            0.,NA,NA,"",   14.9508E-03,  -14.5395E-03,   3.48247E-03,   7.60285E-03
C:/temp/dataset/test2/1_9.odb,Step-1,Increment      1: Step Time =    1.000,"PART-1-1",           541,           -3.,      -27.1875,            0.,NA,NA,"",   171.894E-03,  -88.0424E-03,  -147.635E-03,   62.8184E-03
C:/temp/dataset/test2/1_9.odb,Step-1,Increment      1: Step Time =    1.000,"PART-1-1",           542,           -2.,       -28.125,            0.,NA,NA,"",   62.5928E-03,  -22.8233E-03,  -58.2834E-03,   41.4216E-03
C:/temp/dataset/test2/1_9.odb,Step-1,Increment      1: Step Time =    1.000,"PART-1-1",           543,           -5.,      -27.1875,            0.,NA,NA,"",   319.167E-03,  -162.736E-03,  -274.562E-03,   105.973E-03
C:/temp/dataset/test2/1_9.odb,Step-1,Increment      1: Step Time =    1.000,"PART-1-1",           544,           -4.,       -28.125,            0.,NA,NA,"",   149.346E-03,  -67.5127E-03,  -133.215E-03,   86.9620E-03
C:/temp/dataset/test2/1_9.odb,Step-1,Increment      1: Step Time =    1.000,"PART-1-1",           545,            3.,      -29.0625,            0.,NA,NA,"",   48.9279E-03,  -17.4951E-03,   45.6932E-03,   60.9889E-03
C:/temp/dataset/test2/1_9.odb,Step-1,Increment      1: Step Time =    1.000,"PART-1-1",           546,            4.,          -30.,            0.,NA,NA,"",            0.,   1.97534E-39,   112.371E-39,   88.9813E-03
C:/temp/dataset/test2/1_9.odb,Step-1,Increment      1: Step Time =    1.000,"PART-1-1",           547,            5.,      -29.0625,            0.,NA,NA,"",   125.779E-03,  -82.5473E-03,   94.9019E-03,   115.483E-03
C:/temp/dataset/test2/1_9.odb,Step-1,Increment      1: Step Time =    1.000,"PART-1-1",           548,            1.,      -29.0625,            0.,NA,NA,"",   15.8577E-03,   3.06934E-03,   15.5578E-03,   20.2809E-03
C:/temp/dataset/test2/1_9.odb,Step-1,Increment      1: Step Time =    1.000,"PART-1-1",           549,            2.,          -30.,            0.,NA,NA,"",            0.,   7.12383E-39,   56.0187E-39,   35.6857E-03
C:/temp/dataset/test2/1_9.odb,Step-1,Increment      1: Step Time =    1.000,"PART-1-1",           550,           -1.,      -29.0625,            0.,NA,NA,"",   15.0810E-03,   7.64611E-03,  -12.9990E-03,   17.4930E-03
C:/temp/dataset/test2/1_9.odb,Step-1,Increment      1: Step Time =    1.000,"PART-1-1",           551,            0.,          -30.,            0.,NA,NA,"",            0.,   12.7947E-39,   412.366E-42,   14.1440E-03
C:/temp/dataset/test2/1_9.odb,Step-1,Increment      1: Step Time =    1.000,"PART-1-1",           552,           -3.,      -29.0625,            0.,NA,NA,"",   42.8496E-03,  -5.36197E-03,  -42.5128E-03,   56.3931E-03
C:/temp/dataset/test2/1_9.odb,Step-1,Increment      1: Step Time =    1.000,"PART-1-1",           553,           -2.,          -30.,            0.,NA,NA,"",            0.,   9.03411E-39,  -52.9289E-39,   35.4763E-03
C:/temp/dataset/test2/1_9.odb,Step-1,Increment      1: Step Time =    1.000,"PART-1-1",           554,           -5.,      -29.0625,            0.,NA,NA,"",   115.247E-03,  -71.1598E-03,  -90.6545E-03,   109.338E-03
C:/temp/dataset/test2/1_9.odb,Step-1,Increment      1: Step Time =    1.000,"PART-1-1",           555,           -4.,          -30.,            0.,NA,NA,"",            0.,   2.33154E-39,  -101.446E-39,   82.0805E-03
