ODB Name,Step,Frame,Part Instance Name,    êﬂì_ÉâÉxÉã,X,Y,Z,Section Name,Material Name,Section Point,   U-Magnitude,          U-U1,          U-U2,       S-Mises
C:/temp/dataset/test2/7_5.odb,Step-1,Increment      1: Step Time =    1.000,"PART-1-1",             1,            5.,           30.,            0.,NA,NA,"",       6.36224,      -6.35617,   277.866E-03,   30.8987E-09
C:/temp/dataset/test2/7_5.odb,Step-1,Increment      1: Step Time =    1.000,"PART-1-1",             2,            3.,           30.,            0.,NA,NA,"",       6.33985,      -6.33981,   22.5632E-03,   146.871E-09
C:/temp/dataset/test2/7_5.odb,Step-1,Increment      1: Step Time =    1.000,"PART-1-1",             3,            1.,           30.,            0.,NA,NA,"",       6.32773,      -6.32345,  -232.740E-03,   418.689E-09
C:/temp/dataset/test2/7_5.odb,Step-1,Increment      1: Step Time =    1.000,"PART-1-1",             4,           -1.,           30.,            0.,NA,NA,"",       6.32594,      -6.30709,  -488.042E-03,   418.508E-09
C:/temp/dataset/test2/7_5.odb,Step-1,Increment      1: Step Time =    1.000,"PART-1-1",             5,           -3.,           30.,            0.,NA,NA,"",       6.33449,      -6.29072,  -743.343E-03,   146.756E-09
C:/temp/dataset/test2/7_5.odb,Step-1,Increment      1: Step Time =    1.000,"PART-1-1",             6,           -5.,           30.,            0.,NA,NA,"",       6.35334,      -6.27436,  -998.644E-03,   30.8122E-09
C:/temp/dataset/test2/7_5.odb,Step-1,Increment      1: Step Time =    1.000,"PART-1-1",             7,            5.,        28.125,            0.,NA,NA,"",       6.12385,      -6.11683,   293.205E-03,   143.998E-09
C:/temp/dataset/test2/7_5.odb,Step-1,Increment      1: Step Time =    1.000,"PART-1-1",             8,            3.,        28.125,            0.,NA,NA,"",       6.10058,      -6.10047,   37.9023E-03,   365.857E-09
C:/temp/dataset/test2/7_5.odb,Step-1,Increment      1: Step Time =    1.000,"PART-1-1",             9,            1.,        28.125,            0.,NA,NA,"",       6.08799,      -6.08410,  -217.401E-03,   289.877E-09
C:/temp/dataset/test2/7_5.odb,Step-1,Increment      1: Step Time =    1.000,"PART-1-1",            10,           -1.,        28.125,            0.,NA,NA,"",       6.08613,      -6.06774,  -472.703E-03,   289.845E-09
C:/temp/dataset/test2/7_5.odb,Step-1,Increment      1: Step Time =    1.000,"PART-1-1",            11,           -3.,        28.125,            0.,NA,NA,"",       6.09501,      -6.05138,  -728.004E-03,   365.306E-09
C:/temp/dataset/test2/7_5.odb,Step-1,Increment      1: Step Time =    1.000,"PART-1-1",            12,           -5.,        28.125,            0.,NA,NA,"",       6.11460,      -6.03502,  -983.305E-03,   143.871E-09
C:/temp/dataset/test2/7_5.odb,Step-1,Increment      1: Step Time =    1.000,"PART-1-1",            13,            5.,         26.25,            0.,NA,NA,"",       5.88557,      -5.87748,   308.545E-03,   572.409E-09
C:/temp/dataset/test2/7_5.odb,Step-1,Increment      1: Step Time =    1.000,"PART-1-1",            14,            3.,         26.25,            0.,NA,NA,"",       5.86136,      -5.86112,   53.2415E-03,   466.909E-09
C:/temp/dataset/test2/7_5.odb,Step-1,Increment      1: Step Time =    1.000,"PART-1-1",            15,            1.,         26.25,            0.,NA,NA,"",       5.84825,      -5.84476,  -202.062E-03,   337.012E-09
C:/temp/dataset/test2/7_5.odb,Step-1,Increment      1: Step Time =    1.000,"PART-1-1",            16,           -1.,         26.25,            0.,NA,NA,"",       5.84631,      -5.82840,  -457.364E-03,   336.700E-09
C:/temp/dataset/test2/7_5.odb,Step-1,Increment      1: Step Time =    1.000,"PART-1-1",            17,           -3.,         26.25,            0.,NA,NA,"",       5.85556,      -5.81203,  -712.665E-03,   464.745E-09
C:/temp/dataset/test2/7_5.odb,Step-1,Increment      1: Step Time =    1.000,"PART-1-1",            18,           -5.,         26.25,            0.,NA,NA,"",       5.87595,      -5.79567,  -967.966E-03,   570.845E-09
C:/temp/dataset/test2/7_5.odb,Step-1,Increment      1: Step Time =    1.000,"PART-1-1",            19,            5.,        24.375,            0.,NA,NA,"",       5.64743,      -5.63813,   323.886E-03,   1.07471E-06
C:/temp/dataset/test2/7_5.odb,Step-1,Increment      1: Step Time =    1.000,"PART-1-1",            20,            3.,        24.375,            0.,NA,NA,"",       5.62219,      -5.62177,   68.5808E-03,   265.641E-09
C:/temp/dataset/test2/7_5.odb,Step-1,Increment      1: Step Time =    1.000,"PART-1-1",            21,            1.,        24.375,            0.,NA,NA,"",       5.60852,      -5.60541,  -186.723E-03,   553.232E-09
C:/temp/dataset/test2/7_5.odb,Step-1,Increment      1: Step Time =    1.000,"PART-1-1",            22,           -1.,        24.375,            0.,NA,NA,"",       5.60650,      -5.58905,  -442.025E-03,   553.464E-09
C:/temp/dataset/test2/7_5.odb,Step-1,Increment      1: Step Time =    1.000,"PART-1-1",            23,           -3.,        24.375,            0.,NA,NA,"",       5.61615,      -5.57269,  -697.326E-03,   262.164E-09
C:/temp/dataset/test2/7_5.odb,Step-1,Increment      1: Step Time =    1.000,"PART-1-1",            24,           -5.,        24.375,            0.,NA,NA,"",       5.63740,      -5.55633,  -952.625E-03,   1.06674E-06
C:/temp/dataset/test2/7_5.odb,Step-1,Increment      1: Step Time =    1.000,"PART-1-1",            25,            5.,          22.5,            0.,NA,NA,"",       5.40943,      -5.39878,   339.228E-03,   1.15783E-06
C:/temp/dataset/test2/7_5.odb,Step-1,Increment      1: Step Time =    1.000,"PART-1-1",            26,            3.,          22.5,            0.,NA,NA,"",       5.38308,      -5.38242,   83.9205E-03,   1.48773E-06
C:/temp/dataset/test2/7_5.odb,Step-1,Increment      1: Step Time =    1.000,"PART-1-1",            27,            1.,          22.5,            0.,NA,NA,"",       5.36880,      -5.36606,  -171.383E-03,   2.53144E-06
C:/temp/dataset/test2/7_5.odb,Step-1,Increment      1: Step Time =    1.000,"PART-1-1",            28,           -1.,          22.5,            0.,NA,NA,"",       5.36670,      -5.34971,  -426.686E-03,   2.53190E-06
C:/temp/dataset/test2/7_5.odb,Step-1,Increment      1: Step Time =    1.000,"PART-1-1",            29,           -3.,          22.5,            0.,NA,NA,"",       5.37677,      -5.33335,  -681.987E-03,   1.50404E-06
C:/temp/dataset/test2/7_5.odb,Step-1,Increment      1: Step Time =    1.000,"PART-1-1",            30,           -5.,          22.5,            0.,NA,NA,"",       5.39897,      -5.31699,  -937.285E-03,   1.12788E-06
C:/temp/dataset/test2/7_5.odb,Step-1,Increment      1: Step Time =    1.000,"PART-1-1",            31,            5.,        20.625,            0.,NA,NA,"",       5.17160,      -5.15943,   354.569E-03,   923.830E-09
C:/temp/dataset/test2/7_5.odb,Step-1,Increment      1: Step Time =    1.000,"PART-1-1",            32,            3.,        20.625,            0.,NA,NA,"",       5.14402,      -5.14307,   99.2609E-03,   6.34087E-06
C:/temp/dataset/test2/7_5.odb,Step-1,Increment      1: Step Time =    1.000,"PART-1-1",            33,            1.,        20.625,            0.,NA,NA,"",       5.12909,      -5.12671,  -156.038E-03,   8.52979E-06
C:/temp/dataset/test2/7_5.odb,Step-1,Increment      1: Step Time =    1.000,"PART-1-1",            34,           -1.,        20.625,            0.,NA,NA,"",       5.12689,      -5.11037,  -411.342E-03,   8.50264E-06
C:/temp/dataset/test2/7_5.odb,Step-1,Increment      1: Step Time =    1.000,"PART-1-1",            35,           -3.,        20.625,            0.,NA,NA,"",       5.13745,      -5.09401,  -666.650E-03,   6.33936E-06
C:/temp/dataset/test2/7_5.odb,Step-1,Increment      1: Step Time =    1.000,"PART-1-1",            36,           -5.,        20.625,            0.,NA,NA,"",       5.16067,      -5.07765,  -921.946E-03,   992.676E-09
C:/temp/dataset/test2/7_5.odb,Step-1,Increment      1: Step Time =    1.000,"PART-1-1",            37,            5.,         18.75,            0.,NA,NA,"",       4.93395,      -4.92006,   369.905E-03,   8.99096E-06
C:/temp/dataset/test2/7_5.odb,Step-1,Increment      1: Step Time =    1.000,"PART-1-1",            38,            3.,         18.75,            0.,NA,NA,"",       4.90504,      -4.90370,   114.602E-03,   18.4469E-06
C:/temp/dataset/test2/7_5.odb,Step-1,Increment      1: Step Time =    1.000,"PART-1-1",            39,            1.,         18.75,            0.,NA,NA,"",       4.88938,      -4.88736,  -140.681E-03,   22.5652E-06
C:/temp/dataset/test2/7_5.odb,Step-1,Increment      1: Step Time =    1.000,"PART-1-1",            40,           -1.,         18.75,            0.,NA,NA,"",       4.88710,      -4.87103,  -395.988E-03,   22.3796E-06
C:/temp/dataset/test2/7_5.odb,Step-1,Increment      1: Step Time =    1.000,"PART-1-1",            41,           -3.,         18.75,            0.,NA,NA,"",       4.89819,      -4.85469,  -651.314E-03,   18.1506E-06
C:/temp/dataset/test2/7_5.odb,Step-1,Increment      1: Step Time =    1.000,"PART-1-1",            42,           -5.,         18.75,            0.,NA,NA,"",       4.92253,      -4.83833,  -906.615E-03,   9.03361E-06
C:/temp/dataset/test2/7_5.odb,Step-1,Increment      1: Step Time =    1.000,"PART-1-1",            43,            5.,        16.875,            0.,NA,NA,"",       4.69651,      -4.68068,   385.219E-03,   32.2401E-06
C:/temp/dataset/test2/7_5.odb,Step-1,Increment      1: Step Time =    1.000,"PART-1-1",            44,            3.,        16.875,            0.,NA,NA,"",       4.66612,      -4.66431,   129.946E-03,   43.9758E-06
C:/temp/dataset/test2/7_5.odb,Step-1,Increment      1: Step Time =    1.000,"PART-1-1",            45,            1.,        16.875,            0.,NA,NA,"",       4.64969,      -4.64800,  -125.298E-03,   50.1905E-06
C:/temp/dataset/test2/7_5.odb,Step-1,Increment      1: Step Time =    1.000,"PART-1-1",            46,           -1.,        16.875,            0.,NA,NA,"",       4.64732,      -4.63171,  -380.611E-03,   49.0778E-06
C:/temp/dataset/test2/7_5.odb,Step-1,Increment      1: Step Time =    1.000,"PART-1-1",            47,           -3.,        16.875,            0.,NA,NA,"",       4.65899,      -4.61538,  -635.982E-03,   41.7804E-06
C:/temp/dataset/test2/7_5.odb,Step-1,Increment      1: Step Time =    1.000,"PART-1-1",            48,           -5.,        16.875,            0.,NA,NA,"",       4.68458,      -4.59901,  -891.309E-03,   31.5761E-06
C:/temp/dataset/test2/7_5.odb,Step-1,Increment      1: Step Time =    1.000,"PART-1-1",            49,            5.,           15.,            0.,NA,NA,"",       4.45931,      -4.44129,   400.468E-03,   89.2452E-06
C:/temp/dataset/test2/7_5.odb,Step-1,Increment      1: Step Time =    1.000,"PART-1-1",            50,            3.,           15.,            0.,NA,NA,"",       4.42730,      -4.42491,   145.290E-03,   88.3774E-06
C:/temp/dataset/test2/7_5.odb,Step-1,Increment      1: Step Time =    1.000,"PART-1-1",            51,            1.,           15.,            0.,NA,NA,"",       4.41002,      -4.40865,  -109.867E-03,   93.6534E-06
C:/temp/dataset/test2/7_5.odb,Step-1,Increment      1: Step Time =    1.000,"PART-1-1",            52,           -1.,           15.,            0.,NA,NA,"",       4.40756,      -4.39240,  -365.195E-03,   89.1717E-06
C:/temp/dataset/test2/7_5.odb,Step-1,Increment      1: Step Time =    1.000,"PART-1-1",            53,           -3.,           15.,            0.,NA,NA,"",       4.41988,      -4.37608,  -620.656E-03,   78.7282E-06
C:/temp/dataset/test2/7_5.odb,Step-1,Increment      1: Step Time =    1.000,"PART-1-1",            54,           -5.,           15.,            0.,NA,NA,"",       4.44682,      -4.35967,  -876.060E-03,   81.7403E-06
C:/temp/dataset/test2/7_5.odb,Step-1,Increment      1: Step Time =    1.000,"PART-1-1",            55,            5.,        13.125,            0.,NA,NA,"",       4.22245,      -4.20195,   415.580E-03,   203.902E-06
C:/temp/dataset/test2/7_5.odb,Step-1,Increment      1: Step Time =    1.000,"PART-1-1",            56,            3.,        13.125,            0.,NA,NA,"",       4.18864,      -4.18556,   160.640E-03,   149.237E-06
C:/temp/dataset/test2/7_5.odb,Step-1,Increment      1: Step Time =    1.000,"PART-1-1",            57,            1.,        13.125,            0.,NA,NA,"",       4.17041,      -4.16934,  -94.3719E-03,   139.508E-06
C:/temp/dataset/test2/7_5.odb,Step-1,Increment      1: Step Time =    1.000,"PART-1-1",            58,           -1.,        13.125,            0.,NA,NA,"",       4.16779,      -4.15309,  -349.728E-03,   124.414E-06
C:/temp/dataset/test2/7_5.odb,Step-1,Increment      1: Step Time =    1.000,"PART-1-1",            59,           -3.,        13.125,            0.,NA,NA,"",       4.18079,      -4.13673,  -605.335E-03,   112.240E-06
C:/temp/dataset/test2/7_5.odb,Step-1,Increment      1: Step Time =    1.000,"PART-1-1",            60,           -5.,        13.125,            0.,NA,NA,"",       4.20924,      -4.12026,  -860.917E-03,   169.905E-06
C:/temp/dataset/test2/7_5.odb,Step-1,Increment      1: Step Time =    1.000,"PART-1-1",            61,            5.,         11.25,            0.,NA,NA,"",       3.98618,      -3.96288,   430.325E-03,   435.955E-06
C:/temp/dataset/test2/7_5.odb,Step-1,Increment      1: Step Time =    1.000,"PART-1-1",            62,            3.,         11.25,            0.,NA,NA,"",       3.95039,      -3.94647,   175.972E-03,   146.622E-06
C:/temp/dataset/test2/7_5.odb,Step-1,Increment      1: Step Time =    1.000,"PART-1-1",            63,            1.,         11.25,            0.,NA,NA,"",       3.93094,      -3.93015,  -78.8567E-03,   164.768E-06
C:/temp/dataset/test2/7_5.odb,Step-1,Increment      1: Step Time =    1.000,"PART-1-1",            64,           -1.,         11.25,            0.,NA,NA,"",       3.92792,      -3.91367,  -334.251E-03,   120.407E-06
C:/temp/dataset/test2/7_5.odb,Step-1,Increment      1: Step Time =    1.000,"PART-1-1",            65,           -3.,         11.25,            0.,NA,NA,"",       3.94158,      -3.89717,  -590.013E-03,   86.2903E-06
C:/temp/dataset/test2/7_5.odb,Step-1,Increment      1: Step Time =    1.000,"PART-1-1",            66,           -5.,         11.25,            0.,NA,NA,"",       3.97171,      -3.88058,  -845.920E-03,   278.841E-06
C:/temp/dataset/test2/7_5.odb,Step-1,Increment      1: Step Time =    1.000,"PART-1-1",            67,            5.,         9.375,            0.,NA,NA,"",       3.75120,      -3.72476,   444.614E-03,   990.872E-06
C:/temp/dataset/test2/7_5.odb,Step-1,Increment      1: Step Time =    1.000,"PART-1-1",            68,            3.,         9.375,            0.,NA,NA,"",       3.71308,      -3.70815,   191.321E-03,   623.694E-06
C:/temp/dataset/test2/7_5.odb,Step-1,Increment      1: Step Time =    1.000,"PART-1-1",            69,            1.,         9.375,            0.,NA,NA,"",       3.69165,      -3.69110,  -63.6031E-03,   591.949E-06
C:/temp/dataset/test2/7_5.odb,Step-1,Increment      1: Step Time =    1.000,"PART-1-1",            70,           -1.,         9.375,            0.,NA,NA,"",       3.68766,      -3.67385,  -318.899E-03,   425.692E-06
C:/temp/dataset/test2/7_5.odb,Step-1,Increment      1: Step Time =    1.000,"PART-1-1",            71,           -3.,         9.375,            0.,NA,NA,"",       3.70189,      -3.65702,  -574.637E-03,   192.333E-06
C:/temp/dataset/test2/7_5.odb,Step-1,Increment      1: Step Time =    1.000,"PART-1-1",            72,           -5.,         9.375,            0.,NA,NA,"",       3.73398,      -3.64033,  -831.016E-03,   315.596E-06
C:/temp/dataset/test2/7_5.odb,Step-1,Increment      1: Step Time =    1.000,"PART-1-1",            73,            5.,           7.5,            0.,NA,NA,"",       3.52133,      -3.49152,   457.191E-03,   2.71005E-03
C:/temp/dataset/test2/7_5.odb,Step-1,Increment      1: Step Time =    1.000,"PART-1-1",            74,            3.,           7.5,            0.,NA,NA,"",       3.47759,      -3.47153,   205.333E-03,   2.89807E-03
C:/temp/dataset/test2/7_5.odb,Step-1,Increment      1: Step Time =    1.000,"PART-1-1",            75,            1.,           7.5,            0.,NA,NA,"",       3.45181,      -3.45146,  -49.3298E-03,   1.87656E-03
C:/temp/dataset/test2/7_5.odb,Step-1,Increment      1: Step Time =    1.000,"PART-1-1",            76,           -1.,           7.5,            0.,NA,NA,"",       3.44632,      -3.43290,  -303.829E-03,   1.30402E-03
C:/temp/dataset/test2/7_5.odb,Step-1,Increment      1: Step Time =    1.000,"PART-1-1",            77,           -3.,           7.5,            0.,NA,NA,"",       3.46118,      -3.41574,  -559.028E-03,   780.366E-06
C:/temp/dataset/test2/7_5.odb,Step-1,Increment      1: Step Time =    1.000,"PART-1-1",            78,           -5.,           7.5,            0.,NA,NA,"",       3.49567,      -3.39912,  -815.892E-03,   88.6696E-06
C:/temp/dataset/test2/7_5.odb,Step-1,Increment      1: Step Time =    1.000,"PART-1-1",            79,            5.,         5.625,            0.,NA,NA,"",       3.28994,      -3.25577,   472.973E-03,   5.32145E-03
C:/temp/dataset/test2/7_5.odb,Step-1,Increment      1: Step Time =    1.000,"PART-1-1",            80,            3.,         5.625,            0.,NA,NA,"",       3.23882,      -3.23155,   216.962E-03,   5.38967E-03
C:/temp/dataset/test2/7_5.odb,Step-1,Increment      1: Step Time =    1.000,"PART-1-1",            81,            1.,         5.625,            0.,NA,NA,"",       3.20922,      -3.20901,  -36.2231E-03,   3.61247E-03
C:/temp/dataset/test2/7_5.odb,Step-1,Increment      1: Step Time =    1.000,"PART-1-1",            82,           -1.,         5.625,            0.,NA,NA,"",       3.20293,      -3.18988,  -288.843E-03,   2.59828E-03
C:/temp/dataset/test2/7_5.odb,Step-1,Increment      1: Step Time =    1.000,"PART-1-1",            83,           -3.,         5.625,            0.,NA,NA,"",       3.21898,      -3.17289,  -542.769E-03,   1.73101E-03
C:/temp/dataset/test2/7_5.odb,Step-1,Increment      1: Step Time =    1.000,"PART-1-1",            84,           -5.,         5.625,            0.,NA,NA,"",       3.25652,      -3.15676,  -799.858E-03,   664.643E-06
C:/temp/dataset/test2/7_5.odb,Step-1,Increment      1: Step Time =    1.000,"PART-1-1",            85,            5.,          3.75,            0.,NA,NA,"",       3.04526,      -3.00577,   488.809E-03,   3.71211E-03
C:/temp/dataset/test2/7_5.odb,Step-1,Increment      1: Step Time =    1.000,"PART-1-1",            86,            3.,          3.75,            0.,NA,NA,"",       2.99191,      -2.98316,   228.603E-03,   5.77616E-03
C:/temp/dataset/test2/7_5.odb,Step-1,Increment      1: Step Time =    1.000,"PART-1-1",            87,            1.,          3.75,            0.,NA,NA,"",       2.96282,      -2.96273,  -22.9838E-03,   4.87389E-03
C:/temp/dataset/test2/7_5.odb,Step-1,Increment      1: Step Time =    1.000,"PART-1-1",            88,           -1.,          3.75,            0.,NA,NA,"",       2.95737,      -2.94472,  -273.228E-03,   3.85464E-03
C:/temp/dataset/test2/7_5.odb,Step-1,Increment      1: Step Time =    1.000,"PART-1-1",            89,           -3.,          3.75,            0.,NA,NA,"",       2.97546,      -2.92873,  -525.269E-03,   2.86218E-03
C:/temp/dataset/test2/7_5.odb,Step-1,Increment      1: Step Time =    1.000,"PART-1-1",            90,           -5.,          3.75,            0.,NA,NA,"",       3.01676,      -2.91366,  -781.947E-03,   2.01975E-03
C:/temp/dataset/test2/7_5.odb,Step-1,Increment      1: Step Time =    1.000,"PART-1-1",            91,            5.,         1.875,            0.,NA,NA,"",       2.79815,      -2.75339,   498.486E-03,   4.92995E-03
C:/temp/dataset/test2/7_5.odb,Step-1,Increment      1: Step Time =    1.000,"PART-1-1",            92,            3.,         1.875,            0.,NA,NA,"",       2.74381,      -2.73319,   241.113E-03,   4.27668E-03
C:/temp/dataset/test2/7_5.odb,Step-1,Increment      1: Step Time =    1.000,"PART-1-1",            93,            1.,         1.875,            0.,NA,NA,"",       2.71528,      -2.71527,  -8.78679E-03,   5.11023E-03
C:/temp/dataset/test2/7_5.odb,Step-1,Increment      1: Step Time =    1.000,"PART-1-1",            94,           -1.,         1.875,            0.,NA,NA,"",       2.71114,      -2.69898,  -256.479E-03,   4.66852E-03
C:/temp/dataset/test2/7_5.odb,Step-1,Increment      1: Step Time =    1.000,"PART-1-1",            95,           -3.,         1.875,            0.,NA,NA,"",       2.73175,      -2.68446,  -506.064E-03,   3.97504E-03
C:/temp/dataset/test2/7_5.odb,Step-1,Increment      1: Step Time =    1.000,"PART-1-1",            96,           -5.,         1.875,            0.,NA,NA,"",       2.77735,      -2.67097,  -761.290E-03,   3.88360E-03
C:/temp/dataset/test2/7_5.odb,Step-1,Increment      1: Step Time =    1.000,"PART-1-1",            97,            5.,            0.,            0.,NA,NA,"",       2.55865,      -2.50839,   504.687E-03,   6.76114E-03
C:/temp/dataset/test2/7_5.odb,Step-1,Increment      1: Step Time =    1.000,"PART-1-1",            98,            3.,            0.,            0.,NA,NA,"",       2.50033,      -2.48760,   252.008E-03,   4.86456E-03
C:/temp/dataset/test2/7_5.odb,Step-1,Increment      1: Step Time =    1.000,"PART-1-1",            99,            1.,            0.,            0.,NA,NA,"",       2.47003,      -2.47002,   5.44925E-03,   4.97599E-03
C:/temp/dataset/test2/7_5.odb,Step-1,Increment      1: Step Time =    1.000,"PART-1-1",           100,           -1.,            0.,            0.,NA,NA,"",       2.46653,      -2.45494,  -238.821E-03,   5.03389E-03
C:/temp/dataset/test2/7_5.odb,Step-1,Increment      1: Step Time =    1.000,"PART-1-1",           101,           -3.,            0.,            0.,NA,NA,"",       2.48963,      -2.44192,  -485.037E-03,   5.01516E-03
C:/temp/dataset/test2/7_5.odb,Step-1,Increment      1: Step Time =    1.000,"PART-1-1",           102,           -5.,            0.,            0.,NA,NA,"",       2.53977,      -2.43036,  -737.429E-03,   6.02139E-03
C:/temp/dataset/test2/7_5.odb,Step-1,Increment      1: Step Time =    1.000,"PART-1-1",           103,            5.,        -1.875,            0.,NA,NA,"",       2.32395,      -2.26796,   507.040E-03,   8.65759E-03
C:/temp/dataset/test2/7_5.odb,Step-1,Increment      1: Step Time =    1.000,"PART-1-1",           104,            3.,        -1.875,            0.,NA,NA,"",       2.26147,      -2.24647,   260.044E-03,   5.93738E-03
C:/temp/dataset/test2/7_5.odb,Step-1,Increment      1: Step Time =    1.000,"PART-1-1",           105,            1.,        -1.875,            0.,NA,NA,"",       2.22894,      -2.22886,   18.6658E-03,   5.02052E-03
C:/temp/dataset/test2/7_5.odb,Step-1,Increment      1: Step Time =    1.000,"PART-1-1",           106,           -1.,        -1.875,            0.,NA,NA,"",       2.22554,      -2.21456,  -220.761E-03,   5.19009E-03
C:/temp/dataset/test2/7_5.odb,Step-1,Increment      1: Step Time =    1.000,"PART-1-1",           107,           -3.,        -1.875,            0.,NA,NA,"",       2.25098,      -2.20299,  -462.323E-03,   6.04414E-03
C:/temp/dataset/test2/7_5.odb,Step-1,Increment      1: Step Time =    1.000,"PART-1-1",           108,           -5.,        -1.875,            0.,NA,NA,"",       2.30572,      -2.19357,  -710.326E-03,   8.23287E-03
C:/temp/dataset/test2/7_5.odb,Step-1,Increment      1: Step Time =    1.000,"PART-1-1",           109,            5.,         -3.75,            0.,NA,NA,"",       2.09470,      -2.03280,   505.466E-03,   10.6587E-03
C:/temp/dataset/test2/7_5.odb,Step-1,Increment      1: Step Time =    1.000,"PART-1-1",           110,            3.,         -3.75,            0.,NA,NA,"",       2.02806,      -2.01064,   265.221E-03,   7.09643E-03
C:/temp/dataset/test2/7_5.odb,Step-1,Increment      1: Step Time =    1.000,"PART-1-1",           111,            1.,         -3.75,            0.,NA,NA,"",       1.99325,      -1.99302,   30.4299E-03,   5.19239E-03
C:/temp/dataset/test2/7_5.odb,Step-1,Increment      1: Step Time =    1.000,"PART-1-1",           112,           -1.,         -3.75,            0.,NA,NA,"",       1.98979,      -1.97944,  -202.676E-03,   5.30860E-03
C:/temp/dataset/test2/7_5.odb,Step-1,Increment      1: Step Time =    1.000,"PART-1-1",           113,           -3.,         -3.75,            0.,NA,NA,"",       2.01750,      -1.96935,  -438.126E-03,   7.11270E-03
C:/temp/dataset/test2/7_5.odb,Step-1,Increment      1: Step Time =    1.000,"PART-1-1",           114,           -5.,         -3.75,            0.,NA,NA,"",       2.07677,      -1.96223,  -680.162E-03,   10.4237E-03
C:/temp/dataset/test2/7_5.odb,Step-1,Increment      1: Step Time =    1.000,"PART-1-1",           115,            5.,        -5.625,            0.,NA,NA,"",       1.87188,      -1.80397,   499.648E-03,   12.7190E-03
C:/temp/dataset/test2/7_5.odb,Step-1,Increment      1: Step Time =    1.000,"PART-1-1",           116,            3.,        -5.625,            0.,NA,NA,"",       1.80123,      -1.78127,   267.416E-03,   8.27930E-03
C:/temp/dataset/test2/7_5.odb,Step-1,Increment      1: Step Time =    1.000,"PART-1-1",           117,            1.,        -5.625,            0.,NA,NA,"",       1.76420,      -1.76374,   40.5626E-03,   5.41320E-03
C:/temp/dataset/test2/7_5.odb,Step-1,Increment      1: Step Time =    1.000,"PART-1-1",           118,           -1.,        -5.625,            0.,NA,NA,"",       1.76068,      -1.75096,  -184.781E-03,   5.45028E-03
C:/temp/dataset/test2/7_5.odb,Step-1,Increment      1: Step Time =    1.000,"PART-1-1",           119,           -3.,        -5.625,            0.,NA,NA,"",       1.79065,      -1.74246,  -412.633E-03,   8.22769E-03
C:/temp/dataset/test2/7_5.odb,Step-1,Increment      1: Step Time =    1.000,"PART-1-1",           120,           -5.,        -5.625,            0.,NA,NA,"",       1.85439,      -1.73779,  -647.164E-03,   12.5758E-03
C:/temp/dataset/test2/7_5.odb,Step-1,Increment      1: Step Time =    1.000,"PART-1-1",           121,            5.,          -7.5,            0.,NA,NA,"",       1.65671,      -1.58278,   489.393E-03,   14.8140E-03
C:/temp/dataset/test2/7_5.odb,Step-1,Increment      1: Step Time =    1.000,"PART-1-1",           122,            3.,          -7.5,            0.,NA,NA,"",       1.58224,      -1.55963,   266.508E-03,   9.48261E-03
C:/temp/dataset/test2/7_5.odb,Step-1,Increment      1: Step Time =    1.000,"PART-1-1",           123,            1.,          -7.5,            0.,NA,NA,"",       1.54309,      -1.54232,   48.9490E-03,   5.65638E-03
C:/temp/dataset/test2/7_5.odb,Step-1,Increment      1: Step Time =    1.000,"PART-1-1",           124,           -1.,          -7.5,            0.,NA,NA,"",       1.53958,      -1.53047,  -167.210E-03,   5.62512E-03
C:/temp/dataset/test2/7_5.odb,Step-1,Increment      1: Step Time =    1.000,"PART-1-1",           125,           -3.,          -7.5,            0.,NA,NA,"",       1.57182,      -1.52369,  -385.993E-03,   9.37842E-03
C:/temp/dataset/test2/7_5.odb,Step-1,Increment      1: Step Time =    1.000,"PART-1-1",           126,           -5.,          -7.5,            0.,NA,NA,"",       1.63988,      -1.52159,  -611.529E-03,   14.6993E-03
C:/temp/dataset/test2/7_5.odb,Step-1,Increment      1: Step Time =    1.000,"PART-1-1",           127,            5.,        -9.375,            0.,NA,NA,"",       1.45040,      -1.37058,   474.536E-03,   16.9255E-03
C:/temp/dataset/test2/7_5.odb,Step-1,Increment      1: Step Time =    1.000,"PART-1-1",           128,            3.,        -9.375,            0.,NA,NA,"",       1.37240,      -1.34709,   262.372E-03,   10.7029E-03
C:/temp/dataset/test2/7_5.odb,Step-1,Increment      1: Step Time =    1.000,"PART-1-1",           129,            1.,        -9.375,            0.,NA,NA,"",       1.33125,      -1.33010,   55.4879E-03,   5.91688E-03
C:/temp/dataset/test2/7_5.odb,Step-1,Increment      1: Step Time =    1.000,"PART-1-1",           130,           -1.,        -9.375,            0.,NA,NA,"",       1.32780,      -1.31929,  -150.068E-03,   5.82897E-03
C:/temp/dataset/test2/7_5.odb,Step-1,Increment      1: Step Time =    1.000,"PART-1-1",           131,           -3.,        -9.375,            0.,NA,NA,"",       1.36231,      -1.31434,  -358.327E-03,   10.5520E-03
C:/temp/dataset/test2/7_5.odb,Step-1,Increment      1: Step Time =    1.000,"PART-1-1",           132,           -5.,        -9.375,            0.,NA,NA,"",       1.43450,      -1.31492,  -573.404E-03,   16.8071E-03
C:/temp/dataset/test2/7_5.odb,Step-1,Increment      1: Step Time =    1.000,"PART-1-1",           133,            5.,        -11.25,            0.,NA,NA,"",       1.25419,      -1.16876,   454.959E-03,   19.0444E-03
C:/temp/dataset/test2/7_5.odb,Step-1,Increment      1: Step Time =    1.000,"PART-1-1",           134,            3.,        -11.25,            0.,NA,NA,"",       1.17304,      -1.14501,   254.904E-03,   11.9376E-03
C:/temp/dataset/test2/7_5.odb,Step-1,Increment      1: Step Time =    1.000,"PART-1-1",           135,            1.,        -11.25,            0.,NA,NA,"",       1.13002,      -1.12842,   60.0894E-03,   6.19545E-03
C:/temp/dataset/test2/7_5.odb,Step-1,Increment      1: Step Time =    1.000,"PART-1-1",           136,           -1.,        -11.25,            0.,NA,NA,"",       1.12667,      -1.11874,  -133.445E-03,   6.05531E-03
C:/temp/dataset/test2/7_5.odb,Step-1,Increment      1: Step Time =    1.000,"PART-1-1",           137,           -3.,        -11.25,            0.,NA,NA,"",       1.16341,      -1.11570,  -329.736E-03,   11.7394E-03
C:/temp/dataset/test2/7_5.odb,Step-1,Increment      1: Step Time =    1.000,"PART-1-1",           138,           -5.,        -11.25,            0.,NA,NA,"",       1.23946,      -1.11905,  -532.901E-03,   18.9074E-03
C:/temp/dataset/test2/7_5.odb,Step-1,Increment      1: Step Time =    1.000,"PART-1-1",           139,            5.,       -13.125,            0.,NA,NA,"",       1.06925,  -978.726E-03,   430.573E-03,   21.1664E-03
C:/temp/dataset/test2/7_5.odb,Step-1,Increment      1: Step Time =    1.000,"PART-1-1",           140,            3.,       -13.125,            0.,NA,NA,"",   985.462E-03,  -954.772E-03,   244.020E-03,   13.1842E-03
C:/temp/dataset/test2/7_5.odb,Step-1,Increment      1: Step Time =    1.000,"PART-1-1",           141,            1.,       -13.125,            0.,NA,NA,"",   940.727E-03,  -938.637E-03,   62.6791E-03,   6.49279E-03
C:/temp/dataset/test2/7_5.odb,Step-1,Increment      1: Step Time =    1.000,"PART-1-1",           142,           -1.,       -13.125,            0.,NA,NA,"",   937.513E-03,  -930.132E-03,  -117.412E-03,   6.29853E-03
C:/temp/dataset/test2/7_5.odb,Step-1,Increment      1: Step Time =    1.000,"PART-1-1",           143,           -3.,       -13.125,            0.,NA,NA,"",   976.391E-03,  -929.066E-03,  -300.293E-03,   12.9351E-03
C:/temp/dataset/test2/7_5.odb,Step-1,Increment      1: Step Time =    1.000,"PART-1-1",           144,           -5.,       -13.125,            0.,NA,NA,"",       1.05588,  -935.244E-03,  -490.094E-03,   21.0043E-03
C:/temp/dataset/test2/7_5.odb,Step-1,Increment      1: Step Time =    1.000,"PART-1-1",           145,            5.,          -15.,            0.,NA,NA,"",   896.704E-03,  -801.884E-03,   401.324E-03,   23.2895E-03
C:/temp/dataset/test2/7_5.odb,Step-1,Increment      1: Step Time =    1.000,"PART-1-1",           146,            3.,          -15.,            0.,NA,NA,"",   810.957E-03,  -777.756E-03,   229.667E-03,   14.4403E-03
C:/temp/dataset/test2/7_5.odb,Step-1,Increment      1: Step Time =    1.000,"PART-1-1",           147,            1.,          -15.,            0.,NA,NA,"",   764.715E-03,  -762.098E-03,   63.2036E-03,   6.80866E-03
C:/temp/dataset/test2/7_5.odb,Step-1,Increment      1: Step Time =    1.000,"PART-1-1",           148,           -1.,          -15.,            0.,NA,NA,"",   761.655E-03,  -754.792E-03,  -102.020E-03,   6.55454E-03
C:/temp/dataset/test2/7_5.odb,Step-1,Increment      1: Step Time =    1.000,"PART-1-1",           149,           -3.,          -15.,            0.,NA,NA,"",   802.522E-03,  -755.721E-03,  -270.051E-03,   14.1359E-03
C:/temp/dataset/test2/7_5.odb,Step-1,Increment      1: Step Time =    1.000,"PART-1-1",           150,           -5.,          -15.,            0.,NA,NA,"",   884.826E-03,  -764.764E-03,  -445.031E-03,   23.0996E-03
C:/temp/dataset/test2/7_5.odb,Step-1,Increment      1: Step Time =    1.000,"PART-1-1",           151,            5.,       -16.875,            0.,NA,NA,"",   737.552E-03,  -639.654E-03,   367.185E-03,   25.4127E-03
C:/temp/dataset/test2/7_5.odb,Step-1,Increment      1: Step Time =    1.000,"PART-1-1",           152,            3.,       -16.875,            0.,NA,NA,"",   650.788E-03,  -615.353E-03,   211.815E-03,   15.7039E-03
C:/temp/dataset/test2/7_5.odb,Step-1,Increment      1: Step Time =    1.000,"PART-1-1",           153,            1.,       -16.875,            0.,NA,NA,"",   603.317E-03,  -600.160E-03,   61.6350E-03,   7.14261E-03
C:/temp/dataset/test2/7_5.odb,Step-1,Increment      1: Step Time =    1.000,"PART-1-1",           154,           -1.,       -16.875,            0.,NA,NA,"",   600.418E-03,  -594.038E-03,  -87.2964E-03,   6.82056E-03
C:/temp/dataset/test2/7_5.odb,Step-1,Increment      1: Step Time =    1.000,"PART-1-1",           155,           -3.,       -16.875,            0.,NA,NA,"",   643.031E-03,  -596.954E-03,  -239.031E-03,   15.3397E-03
C:/temp/dataset/test2/7_5.odb,Step-1,Increment      1: Step Time =    1.000,"PART-1-1",           156,           -5.,       -16.875,            0.,NA,NA,"",   727.258E-03,  -608.865E-03,  -397.726E-03,   25.1948E-03
C:/temp/dataset/test2/7_5.odb,Step-1,Increment      1: Step Time =    1.000,"PART-1-1",           157,            5.,        -18.75,            0.,NA,NA,"",   592.624E-03,  -493.466E-03,   328.170E-03,   27.5315E-03
C:/temp/dataset/test2/7_5.odb,Step-1,Increment      1: Step Time =    1.000,"PART-1-1",           158,            3.,        -18.75,            0.,NA,NA,"",   506.160E-03,  -468.956E-03,   190.469E-03,   16.9747E-03
C:/temp/dataset/test2/7_5.odb,Step-1,Increment      1: Step Time =    1.000,"PART-1-1",           159,            1.,        -18.75,            0.,NA,NA,"",   457.862E-03,  -454.177E-03,   57.9742E-03,   7.49522E-03
C:/temp/dataset/test2/7_5.odb,Step-1,Increment      1: Step Time =    1.000,"PART-1-1",           160,           -1.,        -18.75,            0.,NA,NA,"",   455.120E-03,  -449.188E-03,  -73.2363E-03,   7.09531E-03
C:/temp/dataset/test2/7_5.odb,Step-1,Increment      1: Step Time =    1.000,"PART-1-1",           161,           -3.,        -18.75,            0.,NA,NA,"",   499.101E-03,  -454.049E-03,  -207.224E-03,   16.5463E-03
C:/temp/dataset/test2/7_5.odb,Step-1,Increment      1: Step Time =    1.000,"PART-1-1",           162,           -5.,        -18.75,            0.,NA,NA,"",   583.946E-03,  -468.799E-03,  -348.167E-03,   27.2893E-03
C:/temp/dataset/test2/7_5.odb,Step-1,Increment      1: Step Time =    1.000,"PART-1-1",           163,            5.,       -20.625,            0.,NA,NA,"",   462.486E-03,  -364.762E-03,   284.327E-03,   29.6453E-03
C:/temp/dataset/test2/7_5.odb,Step-1,Increment      1: Step Time =    1.000,"PART-1-1",           164,            3.,       -20.625,            0.,NA,NA,"",   378.189E-03,  -339.972E-03,   165.668E-03,   18.2503E-03
C:/temp/dataset/test2/7_5.odb,Step-1,Increment      1: Step Time =    1.000,"PART-1-1",           165,            1.,       -20.625,            0.,NA,NA,"",   329.674E-03,  -325.507E-03,   52.2481E-03,   7.87893E-03
C:/temp/dataset/test2/7_5.odb,Step-1,Increment      1: Step Time =    1.000,"PART-1-1",           166,           -1.,       -20.625,            0.,NA,NA,"",   327.076E-03,  -321.563E-03,  -59.7985E-03,   7.38836E-03
C:/temp/dataset/test2/7_5.odb,Step-1,Increment      1: Step Time =    1.000,"PART-1-1",           167,           -3.,       -20.625,            0.,NA,NA,"",   371.835E-03,  -328.300E-03,  -174.587E-03,   17.7541E-03
C:/temp/dataset/test2/7_5.odb,Step-1,Increment      1: Step Time =    1.000,"PART-1-1",           168,           -5.,       -20.625,            0.,NA,NA,"",   455.398E-03,  -345.824E-03,  -296.300E-03,   29.3891E-03
C:/temp/dataset/test2/7_5.odb,Step-1,Increment      1: Step Time =    1.000,"PART-1-1",           169,            5.,         -22.5,            0.,NA,NA,"",   347.284E-03,  -254.966E-03,   235.794E-03,   31.6893E-03
C:/temp/dataset/test2/7_5.odb,Step-1,Increment      1: Step Time =    1.000,"PART-1-1",           170,            3.,         -22.5,            0.,NA,NA,"",   267.757E-03,  -229.787E-03,   137.448E-03,   19.5612E-03
C:/temp/dataset/test2/7_5.odb,Step-1,Increment      1: Step Time =    1.000,"PART-1-1",           171,            1.,         -22.5,            0.,NA,NA,"",   220.008E-03,  -215.462E-03,   44.4959E-03,   8.30611E-03
C:/temp/dataset/test2/7_5.odb,Step-1,Increment      1: Step Time =    1.000,"PART-1-1",           172,           -1.,         -22.5,            0.,NA,NA,"",   217.552E-03,  -212.442E-03,  -46.8770E-03,   7.71303E-03
C:/temp/dataset/test2/7_5.odb,Step-1,Increment      1: Step Time =    1.000,"PART-1-1",           173,           -3.,         -22.5,            0.,NA,NA,"",   262.142E-03,  -220.991E-03,  -141.002E-03,   18.9914E-03
C:/temp/dataset/test2/7_5.odb,Step-1,Increment      1: Step Time =    1.000,"PART-1-1",           174,           -5.,         -22.5,            0.,NA,NA,"",   341.706E-03,  -241.173E-03,  -242.072E-03,   31.4401E-03
C:/temp/dataset/test2/7_5.odb,Step-1,Increment      1: Step Time =    1.000,"PART-1-1",           175,            5.,       -24.375,            0.,NA,NA,"",   246.623E-03,  -165.564E-03,   182.788E-03,   33.7297E-03
C:/temp/dataset/test2/7_5.odb,Step-1,Increment      1: Step Time =    1.000,"PART-1-1",           176,            3.,       -24.375,            0.,NA,NA,"",   175.442E-03,  -139.818E-03,   105.976E-03,   20.8909E-03
C:/temp/dataset/test2/7_5.odb,Step-1,Increment      1: Step Time =    1.000,"PART-1-1",           177,            1.,       -24.375,            0.,NA,NA,"",   130.150E-03,  -125.406E-03,   34.8210E-03,   8.92491E-03
C:/temp/dataset/test2/7_5.odb,Step-1,Increment      1: Step Time =    1.000,"PART-1-1",           178,           -1.,       -24.375,            0.,NA,NA,"",   127.871E-03,  -123.169E-03,  -34.3580E-03,   8.22159E-03
C:/temp/dataset/test2/7_5.odb,Step-1,Increment      1: Step Time =    1.000,"PART-1-1",           179,           -3.,       -24.375,            0.,NA,NA,"",   170.680E-03,  -133.469E-03,  -106.384E-03,   20.2495E-03
C:/temp/dataset/test2/7_5.odb,Step-1,Increment      1: Step Time =    1.000,"PART-1-1",           180,           -5.,       -24.375,            0.,NA,NA,"",   242.429E-03,  -156.210E-03,  -185.392E-03,   33.5157E-03
C:/temp/dataset/test2/7_5.odb,Step-1,Increment      1: Step Time =    1.000,"PART-1-1",           181,            5.,        -26.25,            0.,NA,NA,"",   159.125E-03,  -97.0941E-03,   126.069E-03,   34.8554E-03
C:/temp/dataset/test2/7_5.odb,Step-1,Increment      1: Step Time =    1.000,"PART-1-1",           182,            3.,        -26.25,            0.,NA,NA,"",   100.229E-03,  -70.9675E-03,   70.7777E-03,   22.8239E-03
C:/temp/dataset/test2/7_5.odb,Step-1,Increment      1: Step Time =    1.000,"PART-1-1",           183,            1.,        -26.25,            0.,NA,NA,"",   61.1741E-03,  -56.6371E-03,   23.1195E-03,   9.29743E-03
C:/temp/dataset/test2/7_5.odb,Step-1,Increment      1: Step Time =    1.000,"PART-1-1",           184,           -1.,        -26.25,            0.,NA,NA,"",   59.1973E-03,  -55.0538E-03,  -21.7578E-03,   8.47321E-03
C:/temp/dataset/test2/7_5.odb,Step-1,Increment      1: Step Time =    1.000,"PART-1-1",           185,           -3.,        -26.25,            0.,NA,NA,"",   96.5781E-03,  -66.6683E-03,  -69.8761E-03,   22.1469E-03
C:/temp/dataset/test2/7_5.odb,Step-1,Increment      1: Step Time =    1.000,"PART-1-1",           186,           -5.,        -26.25,            0.,NA,NA,"",   156.177E-03,  -91.3225E-03,  -126.694E-03,   34.6757E-03
C:/temp/dataset/test2/7_5.odb,Step-1,Increment      1: Step Time =    1.000,"PART-1-1",           187,            5.,       -28.125,            0.,NA,NA,"",   82.8748E-03,  -48.6796E-03,   67.0710E-03,   38.6601E-03
C:/temp/dataset/test2/7_5.odb,Step-1,Increment      1: Step Time =    1.000,"PART-1-1",           188,            3.,       -28.125,            0.,NA,NA,"",   42.2934E-03,  -24.5723E-03,   34.4228E-03,   24.0709E-03
C:/temp/dataset/test2/7_5.odb,Step-1,Increment      1: Step Time =    1.000,"PART-1-1",           189,            1.,       -28.125,            0.,NA,NA,"",   16.0906E-03,  -12.0267E-03,   10.6895E-03,   8.66839E-03
C:/temp/dataset/test2/7_5.odb,Step-1,Increment      1: Step Time =    1.000,"PART-1-1",           190,           -1.,       -28.125,            0.,NA,NA,"",   14.8449E-03,  -11.0848E-03,  -9.87408E-03,   7.94978E-03
C:/temp/dataset/test2/7_5.odb,Step-1,Increment      1: Step Time =    1.000,"PART-1-1",           191,           -3.,       -28.125,            0.,NA,NA,"",   40.2884E-03,  -22.0872E-03,  -33.6944E-03,   23.2989E-03
C:/temp/dataset/test2/7_5.odb,Step-1,Increment      1: Step Time =    1.000,"PART-1-1",           192,           -5.,       -28.125,            0.,NA,NA,"",   80.9649E-03,  -45.8400E-03,  -66.7383E-03,   38.6986E-03
C:/temp/dataset/test2/7_5.odb,Step-1,Increment      1: Step Time =    1.000,"PART-1-1",           193,            5.,          -30.,            0.,NA,NA,"",            0.,  -11.2682E-39,   20.2228E-39,   48.3071E-03
C:/temp/dataset/test2/7_5.odb,Step-1,Increment      1: Step Time =    1.000,"PART-1-1",           194,            3.,          -30.,            0.,NA,NA,"",            0.,  -16.1819E-39,   40.8451E-39,   16.6209E-03
C:/temp/dataset/test2/7_5.odb,Step-1,Increment      1: Step Time =    1.000,"PART-1-1",           195,            1.,          -30.,            0.,NA,NA,"",            0.,  -500.135E-42,   12.0049E-39,   6.75141E-03
C:/temp/dataset/test2/7_5.odb,Step-1,Increment      1: Step Time =    1.000,"PART-1-1",           196,           -1.,          -30.,            0.,NA,NA,"",            0.,   8.72655E-39,  -13.8000E-39,   6.72499E-03
C:/temp/dataset/test2/7_5.odb,Step-1,Increment      1: Step Time =    1.000,"PART-1-1",           197,           -3.,          -30.,            0.,NA,NA,"",            0.,  -3.18971E-39,  -39.6794E-39,   16.2279E-03
C:/temp/dataset/test2/7_5.odb,Step-1,Increment      1: Step Time =    1.000,"PART-1-1",           198,           -5.,          -30.,            0.,NA,NA,"",            0.,  -10.7149E-39,  -19.4978E-39,   47.1805E-03
C:/temp/dataset/test2/7_5.odb,Step-1,Increment      1: Step Time =    1.000,"PART-1-1",           199,            4.,           30.,            0.,NA,NA,"",       6.34977,      -6.34799,   150.215E-03,   54.5329E-09
C:/temp/dataset/test2/7_5.odb,Step-1,Increment      1: Step Time =    1.000,"PART-1-1",           200,            3.,       29.0625,            0.,NA,NA,"",       6.22021,      -6.22014,   30.2328E-03,   224.802E-09
C:/temp/dataset/test2/7_5.odb,Step-1,Increment      1: Step Time =    1.000,"PART-1-1",           201,            4.,        28.125,            0.,NA,NA,"",       6.11089,      -6.10865,   165.554E-03,   220.227E-09
C:/temp/dataset/test2/7_5.odb,Step-1,Increment      1: Step Time =    1.000,"PART-1-1",           202,            5.,       29.0625,            0.,NA,NA,"",       6.24303,      -6.23650,   285.536E-03,   57.2574E-09
C:/temp/dataset/test2/7_5.odb,Step-1,Increment      1: Step Time =    1.000,"PART-1-1",           203,            2.,           30.,            0.,NA,NA,"",       6.33250,      -6.33163,  -105.088E-03,   289.733E-09
C:/temp/dataset/test2/7_5.odb,Step-1,Increment      1: Step Time =    1.000,"PART-1-1",           204,            1.,       29.0625,            0.,NA,NA,"",       6.20786,      -6.20378,  -225.070E-03,   323.816E-09
C:/temp/dataset/test2/7_5.odb,Step-1,Increment      1: Step Time =    1.000,"PART-1-1",           205,            2.,        28.125,            0.,NA,NA,"",       6.09295,      -6.09228,  -89.7493E-03,   311.268E-09
C:/temp/dataset/test2/7_5.odb,Step-1,Increment      1: Step Time =    1.000,"PART-1-1",           206,            0.,           30.,            0.,NA,NA,"",       6.32554,      -6.31527,  -360.391E-03,   428.153E-09
C:/temp/dataset/test2/7_5.odb,Step-1,Increment      1: Step Time =    1.000,"PART-1-1",           207,           -1.,       29.0625,            0.,NA,NA,"",       6.20603,      -6.18741,  -480.372E-03,   323.599E-09
C:/temp/dataset/test2/7_5.odb,Step-1,Increment      1: Step Time =    1.000,"PART-1-1",           208,            0.,        28.125,            0.,NA,NA,"",       6.08571,      -6.07592,  -345.052E-03,   226.811E-09
C:/temp/dataset/test2/7_5.odb,Step-1,Increment      1: Step Time =    1.000,"PART-1-1",           209,           -2.,           30.,            0.,NA,NA,"",       6.32893,      -6.29891,  -615.692E-03,   289.551E-09
C:/temp/dataset/test2/7_5.odb,Step-1,Increment      1: Step Time =    1.000,"PART-1-1",           210,           -3.,       29.0625,            0.,NA,NA,"",       6.21475,      -6.17105,  -735.674E-03,   224.447E-09
C:/temp/dataset/test2/7_5.odb,Step-1,Increment      1: Step Time =    1.000,"PART-1-1",           211,           -2.,        28.125,            0.,NA,NA,"",       6.08923,      -6.05956,  -600.354E-03,   311.023E-09
C:/temp/dataset/test2/7_5.odb,Step-1,Increment      1: Step Time =    1.000,"PART-1-1",           212,           -4.,           30.,            0.,NA,NA,"",       6.34263,      -6.28254,  -870.994E-03,   54.4774E-09
C:/temp/dataset/test2/7_5.odb,Step-1,Increment      1: Step Time =    1.000,"PART-1-1",           213,           -5.,       29.0625,            0.,NA,NA,"",       6.23396,      -6.15469,  -990.975E-03,   57.1675E-09
C:/temp/dataset/test2/7_5.odb,Step-1,Increment      1: Step Time =    1.000,"PART-1-1",           214,           -4.,        28.125,            0.,NA,NA,"",       6.10347,      -6.04320,  -855.655E-03,   219.936E-09
C:/temp/dataset/test2/7_5.odb,Step-1,Increment      1: Step Time =    1.000,"PART-1-1",           215,            3.,       27.1875,            0.,NA,NA,"",       5.98097,      -5.98079,   45.5719E-03,   400.792E-09
C:/temp/dataset/test2/7_5.odb,Step-1,Increment      1: Step Time =    1.000,"PART-1-1",           216,            4.,         26.25,            0.,NA,NA,"",       5.87209,      -5.86930,   180.893E-03,   410.407E-09
C:/temp/dataset/test2/7_5.odb,Step-1,Increment      1: Step Time =    1.000,"PART-1-1",           217,            5.,       27.1875,            0.,NA,NA,"",       6.00470,      -5.99715,   300.875E-03,   354.983E-09
C:/temp/dataset/test2/7_5.odb,Step-1,Increment      1: Step Time =    1.000,"PART-1-1",           218,            1.,       27.1875,            0.,NA,NA,"",       5.96812,      -5.96443,  -209.731E-03,   288.746E-09
C:/temp/dataset/test2/7_5.odb,Step-1,Increment      1: Step Time =    1.000,"PART-1-1",           219,            2.,         26.25,            0.,NA,NA,"",       5.85341,      -5.85294,  -74.4104E-03,   346.376E-09
C:/temp/dataset/test2/7_5.odb,Step-1,Increment      1: Step Time =    1.000,"PART-1-1",           220,           -1.,       27.1875,            0.,NA,NA,"",       5.96622,      -5.94807,  -465.034E-03,   288.523E-09
C:/temp/dataset/test2/7_5.odb,Step-1,Increment      1: Step Time =    1.000,"PART-1-1",           221,            0.,         26.25,            0.,NA,NA,"",       5.84588,      -5.83658,  -329.713E-03,   274.329E-09
C:/temp/dataset/test2/7_5.odb,Step-1,Increment      1: Step Time =    1.000,"PART-1-1",           222,           -3.,       27.1875,            0.,NA,NA,"",       5.97529,      -5.93171,  -720.335E-03,   399.422E-09
C:/temp/dataset/test2/7_5.odb,Step-1,Increment      1: Step Time =    1.000,"PART-1-1",           223,           -2.,         26.25,            0.,NA,NA,"",       5.84954,      -5.82021,  -585.015E-03,   345.630E-09
C:/temp/dataset/test2/7_5.odb,Step-1,Increment      1: Step Time =    1.000,"PART-1-1",           224,           -5.,       27.1875,            0.,NA,NA,"",       5.99526,      -5.91535,  -975.636E-03,   354.041E-09
C:/temp/dataset/test2/7_5.odb,Step-1,Increment      1: Step Time =    1.000,"PART-1-1",           225,           -4.,         26.25,            0.,NA,NA,"",       5.86437,      -5.80385,  -840.315E-03,   409.104E-09
C:/temp/dataset/test2/7_5.odb,Step-1,Increment      1: Step Time =    1.000,"PART-1-1",           226,            3.,       25.3125,            0.,NA,NA,"",       5.74177,      -5.74145,   60.9111E-03,   318.406E-09
C:/temp/dataset/test2/7_5.odb,Step-1,Increment      1: Step Time =    1.000,"PART-1-1",           227,            4.,        24.375,            0.,NA,NA,"",       5.63337,      -5.62995,   196.233E-03,   533.297E-09
C:/temp/dataset/test2/7_5.odb,Step-1,Increment      1: Step Time =    1.000,"PART-1-1",           228,            5.,       25.3125,            0.,NA,NA,"",       5.76648,      -5.75781,   316.215E-03,   803.052E-09
C:/temp/dataset/test2/7_5.odb,Step-1,Increment      1: Step Time =    1.000,"PART-1-1",           229,            1.,       25.3125,            0.,NA,NA,"",       5.72838,      -5.72508,  -194.393E-03,   336.841E-09
C:/temp/dataset/test2/7_5.odb,Step-1,Increment      1: Step Time =    1.000,"PART-1-1",           230,            2.,        24.375,            0.,NA,NA,"",       5.61390,      -5.61359,  -59.0713E-03,   350.651E-09
C:/temp/dataset/test2/7_5.odb,Step-1,Increment      1: Step Time =    1.000,"PART-1-1",           231,           -1.,       25.3125,            0.,NA,NA,"",       5.72641,      -5.70872,  -449.695E-03,   336.834E-09
C:/temp/dataset/test2/7_5.odb,Step-1,Increment      1: Step Time =    1.000,"PART-1-1",           232,            0.,        24.375,            0.,NA,NA,"",       5.60605,      -5.59723,  -314.374E-03,   547.380E-09
C:/temp/dataset/test2/7_5.odb,Step-1,Increment      1: Step Time =    1.000,"PART-1-1",           233,           -3.,       25.3125,            0.,NA,NA,"",       5.73585,      -5.69236,  -704.996E-03,   314.871E-09
C:/temp/dataset/test2/7_5.odb,Step-1,Increment      1: Step Time =    1.000,"PART-1-1",           234,           -2.,        24.375,            0.,NA,NA,"",       5.60987,      -5.58087,  -569.676E-03,   352.588E-09
C:/temp/dataset/test2/7_5.odb,Step-1,Increment      1: Step Time =    1.000,"PART-1-1",           235,           -5.,       25.3125,            0.,NA,NA,"",       5.75666,      -5.67600,  -960.296E-03,   798.178E-09
C:/temp/dataset/test2/7_5.odb,Step-1,Increment      1: Step Time =    1.000,"PART-1-1",           236,           -4.,        24.375,            0.,NA,NA,"",       5.62533,      -5.56451,  -824.976E-03,   529.800E-09
C:/temp/dataset/test2/7_5.odb,Step-1,Increment      1: Step Time =    1.000,"PART-1-1",           237,            3.,       23.4375,            0.,NA,NA,"",       5.50263,      -5.50210,   76.2506E-03,   732.572E-09
C:/temp/dataset/test2/7_5.odb,Step-1,Increment      1: Step Time =    1.000,"PART-1-1",           238,            4.,          22.5,            0.,NA,NA,"",       5.39475,      -5.39060,   211.574E-03,   719.347E-09
C:/temp/dataset/test2/7_5.odb,Step-1,Increment      1: Step Time =    1.000,"PART-1-1",           239,            5.,       23.4375,            0.,NA,NA,"",       5.52841,      -5.51846,   331.557E-03,   1.05966E-06
C:/temp/dataset/test2/7_5.odb,Step-1,Increment      1: Step Time =    1.000,"PART-1-1",           240,            1.,       23.4375,            0.,NA,NA,"",       5.48866,      -5.48574,  -179.053E-03,   1.49180E-06
C:/temp/dataset/test2/7_5.odb,Step-1,Increment      1: Step Time =    1.000,"PART-1-1",           241,            2.,          22.5,            0.,NA,NA,"",       5.37442,      -5.37424,  -43.7315E-03,   1.93197E-06
C:/temp/dataset/test2/7_5.odb,Step-1,Increment      1: Step Time =    1.000,"PART-1-1",           242,           -1.,       23.4375,            0.,NA,NA,"",       5.48660,      -5.46938,  -434.356E-03,   1.49267E-06
C:/temp/dataset/test2/7_5.odb,Step-1,Increment      1: Step Time =    1.000,"PART-1-1",           243,            0.,          22.5,            0.,NA,NA,"",       5.36622,      -5.35789,  -299.034E-03,   2.38295E-06
C:/temp/dataset/test2/7_5.odb,Step-1,Increment      1: Step Time =    1.000,"PART-1-1",           244,           -3.,       23.4375,            0.,NA,NA,"",       5.49646,      -5.45302,  -689.657E-03,   741.499E-09
C:/temp/dataset/test2/7_5.odb,Step-1,Increment      1: Step Time =    1.000,"PART-1-1",           245,           -2.,          22.5,            0.,NA,NA,"",       5.37021,      -5.34153,  -554.337E-03,   1.93987E-06
C:/temp/dataset/test2/7_5.odb,Step-1,Increment      1: Step Time =    1.000,"PART-1-1",           246,           -5.,       23.4375,            0.,NA,NA,"",       5.51817,      -5.43666,  -944.955E-03,   1.04326E-06
C:/temp/dataset/test2/7_5.odb,Step-1,Increment      1: Step Time =    1.000,"PART-1-1",           247,           -4.,          22.5,            0.,NA,NA,"",       5.38636,      -5.32517,  -809.637E-03,   730.547E-09
C:/temp/dataset/test2/7_5.odb,Step-1,Increment      1: Step Time =    1.000,"PART-1-1",           248,            3.,       21.5625,            0.,NA,NA,"",       5.26354,      -5.26275,   91.5906E-03,   3.93971E-06
C:/temp/dataset/test2/7_5.odb,Step-1,Increment      1: Step Time =    1.000,"PART-1-1",           249,            4.,        20.625,            0.,NA,NA,"",       5.15624,      -5.15125,   226.913E-03,   3.24850E-06
C:/temp/dataset/test2/7_5.odb,Step-1,Increment      1: Step Time =    1.000,"PART-1-1",           250,            5.,       21.5625,            0.,NA,NA,"",       5.29049,      -5.27911,   346.899E-03,   231.881E-09
C:/temp/dataset/test2/7_5.odb,Step-1,Increment      1: Step Time =    1.000,"PART-1-1",           251,            1.,       21.5625,            0.,NA,NA,"",       5.24894,      -5.24639,  -163.711E-03,   5.52656E-06
C:/temp/dataset/test2/7_5.odb,Step-1,Increment      1: Step Time =    1.000,"PART-1-1",           252,            2.,        20.625,            0.,NA,NA,"",       5.13497,      -5.13489,  -28.3888E-03,   6.88719E-06
C:/temp/dataset/test2/7_5.odb,Step-1,Increment      1: Step Time =    1.000,"PART-1-1",           253,           -1.,       21.5625,            0.,NA,NA,"",       5.24679,      -5.23004,  -419.015E-03,   5.51155E-06
C:/temp/dataset/test2/7_5.odb,Step-1,Increment      1: Step Time =    1.000,"PART-1-1",           254,            0.,        20.625,            0.,NA,NA,"",       5.12640,      -5.11854,  -283.689E-03,   7.85180E-06
C:/temp/dataset/test2/7_5.odb,Step-1,Increment      1: Step Time =    1.000,"PART-1-1",           255,           -3.,       21.5625,            0.,NA,NA,"",       5.25711,      -5.21368,  -674.318E-03,   3.93111E-06
C:/temp/dataset/test2/7_5.odb,Step-1,Increment      1: Step Time =    1.000,"PART-1-1",           256,           -2.,        20.625,            0.,NA,NA,"",       5.13058,      -5.10219,  -538.996E-03,   6.87751E-06
C:/temp/dataset/test2/7_5.odb,Step-1,Increment      1: Step Time =    1.000,"PART-1-1",           257,           -5.,       21.5625,            0.,NA,NA,"",       5.27980,      -5.19732,  -929.615E-03,   228.033E-09
C:/temp/dataset/test2/7_5.odb,Step-1,Increment      1: Step Time =    1.000,"PART-1-1",           258,           -4.,        20.625,            0.,NA,NA,"",       5.14749,      -5.08583,  -794.300E-03,   3.25689E-06
C:/temp/dataset/test2/7_5.odb,Step-1,Increment      1: Step Time =    1.000,"PART-1-1",           259,            3.,       19.6875,            0.,NA,NA,"",       5.02452,      -5.02338,   106.932E-03,   12.3771E-06
C:/temp/dataset/test2/7_5.odb,Step-1,Increment      1: Step Time =    1.000,"PART-1-1",           260,            4.,         18.75,            0.,NA,NA,"",       4.91785,      -4.91188,   242.248E-03,   11.1908E-06
C:/temp/dataset/test2/7_5.odb,Step-1,Increment      1: Step Time =    1.000,"PART-1-1",           261,            5.,       19.6875,            0.,NA,NA,"",       5.05275,      -5.03975,   362.239E-03,   5.10008E-06
C:/temp/dataset/test2/7_5.odb,Step-1,Increment      1: Step Time =    1.000,"PART-1-1",           262,            1.,       19.6875,            0.,NA,NA,"",       5.00923,      -5.00704,  -148.362E-03,   15.4983E-06
C:/temp/dataset/test2/7_5.odb,Step-1,Increment      1: Step Time =    1.000,"PART-1-1",           263,            2.,         18.75,            0.,NA,NA,"",       4.89554,      -4.89553,  -13.0386E-03,   18.6426E-06
C:/temp/dataset/test2/7_5.odb,Step-1,Increment      1: Step Time =    1.000,"PART-1-1",           264,           -1.,       19.6875,            0.,NA,NA,"",       5.00700,      -4.99070,  -403.667E-03,   15.3800E-06
C:/temp/dataset/test2/7_5.odb,Step-1,Increment      1: Step Time =    1.000,"PART-1-1",           265,            0.,         18.75,            0.,NA,NA,"",       4.88657,      -4.87920,  -268.331E-03,   20.5652E-06
C:/temp/dataset/test2/7_5.odb,Step-1,Increment      1: Step Time =    1.000,"PART-1-1",           266,           -3.,       19.6875,            0.,NA,NA,"",       5.01781,      -4.97435,  -658.982E-03,   12.2021E-06
C:/temp/dataset/test2/7_5.odb,Step-1,Increment      1: Step Time =    1.000,"PART-1-1",           267,           -2.,         18.75,            0.,NA,NA,"",       4.89098,      -4.86286,  -523.651E-03,   18.3966E-06
C:/temp/dataset/test2/7_5.odb,Step-1,Increment      1: Step Time =    1.000,"PART-1-1",           268,           -5.,       19.6875,            0.,NA,NA,"",       5.04158,      -4.95799,  -914.279E-03,   5.10114E-06
C:/temp/dataset/test2/7_5.odb,Step-1,Increment      1: Step Time =    1.000,"PART-1-1",           269,           -4.,         18.75,            0.,NA,NA,"",       4.90871,      -4.84651,  -778.970E-03,   11.0815E-06
C:/temp/dataset/test2/7_5.odb,Step-1,Increment      1: Step Time =    1.000,"PART-1-1",           270,            3.,       17.8125,            0.,NA,NA,"",       4.78557,      -4.78401,   122.274E-03,   31.0882E-06
C:/temp/dataset/test2/7_5.odb,Step-1,Increment      1: Step Time =    1.000,"PART-1-1",           271,            4.,        16.875,            0.,NA,NA,"",       4.67958,      -4.67249,   257.570E-03,   30.3927E-06
C:/temp/dataset/test2/7_5.odb,Step-1,Increment      1: Step Time =    1.000,"PART-1-1",           272,            5.,       17.8125,            0.,NA,NA,"",       4.81520,      -4.80037,   377.567E-03,   20.8454E-06
C:/temp/dataset/test2/7_5.odb,Step-1,Increment      1: Step Time =    1.000,"PART-1-1",           273,            1.,       17.8125,            0.,NA,NA,"",       4.76954,      -4.76768,  -132.995E-03,   36.1046E-06
C:/temp/dataset/test2/7_5.odb,Step-1,Increment      1: Step Time =    1.000,"PART-1-1",           274,            2.,        16.875,            0.,NA,NA,"",       4.65615,      -4.65615,   2.32780E-03,   41.8809E-06
C:/temp/dataset/test2/7_5.odb,Step-1,Increment      1: Step Time =    1.000,"PART-1-1",           275,           -1.,       17.8125,            0.,NA,NA,"",       4.76721,      -4.75137,  -388.304E-03,   35.4068E-06
C:/temp/dataset/test2/7_5.odb,Step-1,Increment      1: Step Time =    1.000,"PART-1-1",           276,            0.,        16.875,            0.,NA,NA,"",       4.64675,      -4.63986,  -252.945E-03,   45.1431E-06
C:/temp/dataset/test2/7_5.odb,Step-1,Increment      1: Step Time =    1.000,"PART-1-1",           277,           -3.,       17.8125,            0.,NA,NA,"",       4.77858,      -4.73503,  -643.647E-03,   29.7183E-06
C:/temp/dataset/test2/7_5.odb,Step-1,Increment      1: Step Time =    1.000,"PART-1-1",           278,           -2.,        16.875,            0.,NA,NA,"",       4.65141,      -4.62355,  -508.295E-03,   40.5352E-06
C:/temp/dataset/test2/7_5.odb,Step-1,Increment      1: Step Time =    1.000,"PART-1-1",           279,           -5.,       17.8125,            0.,NA,NA,"",       4.80353,      -4.71866,  -898.957E-03,   20.3682E-06
C:/temp/dataset/test2/7_5.odb,Step-1,Increment      1: Step Time =    1.000,"PART-1-1",           280,           -4.,        16.875,            0.,NA,NA,"",       4.67006,      -4.60720,  -763.659E-03,   29.2269E-06
C:/temp/dataset/test2/7_5.odb,Step-1,Increment      1: Step Time =    1.000,"PART-1-1",           281,            3.,       15.9375,            0.,NA,NA,"",       4.54670,      -4.54461,   137.617E-03,   65.0879E-06
C:/temp/dataset/test2/7_5.odb,Step-1,Increment      1: Step Time =    1.000,"PART-1-1",           282,            4.,           15.,            0.,NA,NA,"",       4.44148,      -4.43309,   272.857E-03,   69.4980E-06
C:/temp/dataset/test2/7_5.odb,Step-1,Increment      1: Step Time =    1.000,"PART-1-1",           283,            5.,       15.9375,            0.,NA,NA,"",       4.57787,      -4.56099,   392.856E-03,   61.0943E-06
C:/temp/dataset/test2/7_5.odb,Step-1,Increment      1: Step Time =    1.000,"PART-1-1",           284,            1.,       15.9375,            0.,NA,NA,"",       4.52985,      -4.52832,  -117.591E-03,   70.8934E-06
C:/temp/dataset/test2/7_5.odb,Step-1,Increment      1: Step Time =    1.000,"PART-1-1",           285,            2.,           15.,            0.,NA,NA,"",       4.41681,      -4.41677,   17.7250E-03,   79.8982E-06
C:/temp/dataset/test2/7_5.odb,Step-1,Increment      1: Step Time =    1.000,"PART-1-1",           286,           -1.,       15.9375,            0.,NA,NA,"",       4.52744,      -4.51206,  -372.910E-03,   67.9875E-06
C:/temp/dataset/test2/7_5.odb,Step-1,Increment      1: Step Time =    1.000,"PART-1-1",           287,            0.,           15.,            0.,NA,NA,"",       4.40694,      -4.40053,  -237.509E-03,   82.8480E-06
C:/temp/dataset/test2/7_5.odb,Step-1,Increment      1: Step Time =    1.000,"PART-1-1",           288,           -3.,       15.9375,            0.,NA,NA,"",       4.53943,      -4.49573,  -628.318E-03,   59.5396E-06
C:/temp/dataset/test2/7_5.odb,Step-1,Increment      1: Step Time =    1.000,"PART-1-1",           289,           -2.,           15.,            0.,NA,NA,"",       4.41188,      -4.38425,  -492.918E-03,   73.4182E-06
C:/temp/dataset/test2/7_5.odb,Step-1,Increment      1: Step Time =    1.000,"PART-1-1",           290,           -5.,       15.9375,            0.,NA,NA,"",       4.56568,      -4.47934,  -883.674E-03,   56.2899E-06
C:/temp/dataset/test2/7_5.odb,Step-1,Increment      1: Step Time =    1.000,"PART-1-1",           291,           -4.,           15.,            0.,NA,NA,"",       4.43153,      -4.36788,  -748.381E-03,   63.6946E-06
C:/temp/dataset/test2/7_5.odb,Step-1,Increment      1: Step Time =    1.000,"PART-1-1",           292,            3.,       14.0625,            0.,NA,NA,"",       4.30794,      -4.30522,   152.963E-03,   116.278E-06
C:/temp/dataset/test2/7_5.odb,Step-1,Increment      1: Step Time =    1.000,"PART-1-1",           293,            4.,        13.125,            0.,NA,NA,"",       4.20361,      -4.19372,   288.064E-03,   135.640E-06
C:/temp/dataset/test2/7_5.odb,Step-1,Increment      1: Step Time =    1.000,"PART-1-1",           294,            5.,       14.0625,            0.,NA,NA,"",       4.34083,      -4.32161,   408.049E-03,   144.621E-06
C:/temp/dataset/test2/7_5.odb,Step-1,Increment      1: Step Time =    1.000,"PART-1-1",           295,            1.,       14.0625,            0.,NA,NA,"",       4.29020,      -4.28899,  -102.128E-03,   112.677E-06
C:/temp/dataset/test2/7_5.odb,Step-1,Increment      1: Step Time =    1.000,"PART-1-1",           296,            2.,        13.125,            0.,NA,NA,"",       4.17757,      -4.17744,   33.1689E-03,   118.307E-06
C:/temp/dataset/test2/7_5.odb,Step-1,Increment      1: Step Time =    1.000,"PART-1-1",           297,           -1.,       14.0625,            0.,NA,NA,"",       4.28768,      -4.27275,  -357.467E-03,   103.578E-06
C:/temp/dataset/test2/7_5.odb,Step-1,Increment      1: Step Time =    1.000,"PART-1-1",           298,            0.,        13.125,            0.,NA,NA,"",       4.16714,      -4.16122,  -222.008E-03,   118.828E-06
C:/temp/dataset/test2/7_5.odb,Step-1,Increment      1: Step Time =    1.000,"PART-1-1",           299,           -3.,       14.0625,            0.,NA,NA,"",       4.30034,      -4.25642,  -612.996E-03,   94.0490E-06
C:/temp/dataset/test2/7_5.odb,Step-1,Increment      1: Step Time =    1.000,"PART-1-1",           300,           -2.,        13.125,            0.,NA,NA,"",       4.17234,      -4.14493,  -477.514E-03,   100.058E-06
C:/temp/dataset/test2/7_5.odb,Step-1,Increment      1: Step Time =    1.000,"PART-1-1",           301,           -5.,       14.0625,            0.,NA,NA,"",       4.32801,      -4.23998,  -868.472E-03,   124.523E-06
C:/temp/dataset/test2/7_5.odb,Step-1,Increment      1: Step Time =    1.000,"PART-1-1",           302,           -4.,        13.125,            0.,NA,NA,"",       4.19310,      -4.12851,  -733.159E-03,   114.545E-06
C:/temp/dataset/test2/7_5.odb,Step-1,Increment      1: Step Time =    1.000,"PART-1-1",           303,            3.,       12.1875,            0.,NA,NA,"",       4.06944,      -4.06596,   168.303E-03,   140.957E-06
C:/temp/dataset/test2/7_5.odb,Step-1,Increment      1: Step Time =    1.000,"PART-1-1",           304,            4.,         11.25,            0.,NA,NA,"",       3.96622,      -3.95461,   303.158E-03,   215.267E-06
C:/temp/dataset/test2/7_5.odb,Step-1,Increment      1: Step Time =    1.000,"PART-1-1",           305,            5.,       12.1875,            0.,NA,NA,"",       4.10421,      -4.08235,   423.005E-03,   313.074E-06
C:/temp/dataset/test2/7_5.odb,Step-1,Increment      1: Step Time =    1.000,"PART-1-1",           306,            1.,       12.1875,            0.,NA,NA,"",       4.05065,      -4.04972,  -86.6078E-03,   132.564E-06
C:/temp/dataset/test2/7_5.odb,Step-1,Increment      1: Step Time =    1.000,"PART-1-1",           307,            2.,         11.25,            0.,NA,NA,"",       3.93862,      -3.93832,   48.6504E-03,   121.153E-06
C:/temp/dataset/test2/7_5.odb,Step-1,Increment      1: Step Time =    1.000,"PART-1-1",           308,           -1.,       12.1875,            0.,NA,NA,"",       4.04788,      -4.03341,  -341.983E-03,   107.195E-06
C:/temp/dataset/test2/7_5.odb,Step-1,Increment      1: Step Time =    1.000,"PART-1-1",           309,            0.,         11.25,            0.,NA,NA,"",       3.92736,      -3.92193,  -206.497E-03,   137.577E-06
C:/temp/dataset/test2/7_5.odb,Step-1,Increment      1: Step Time =    1.000,"PART-1-1",           310,           -3.,       12.1875,            0.,NA,NA,"",       4.06122,      -4.01700,  -597.679E-03,   95.4062E-06
C:/temp/dataset/test2/7_5.odb,Step-1,Increment      1: Step Time =    1.000,"PART-1-1",           311,           -2.,         11.25,            0.,NA,NA,"",       3.93267,      -3.90542,  -462.095E-03,   82.6745E-06
C:/temp/dataset/test2/7_5.odb,Step-1,Increment      1: Step Time =    1.000,"PART-1-1",           312,           -5.,       12.1875,            0.,NA,NA,"",       4.09048,      -4.00047,  -853.404E-03,   221.835E-06
C:/temp/dataset/test2/7_5.odb,Step-1,Increment      1: Step Time =    1.000,"PART-1-1",           313,           -4.,         11.25,            0.,NA,NA,"",       3.95462,      -3.88889,  -717.986E-03,   160.232E-06
C:/temp/dataset/test2/7_5.odb,Step-1,Increment      1: Step Time =    1.000,"PART-1-1",           314,            3.,       10.3125,            0.,NA,NA,"",       3.83156,      -3.82716,   183.660E-03,   175.425E-06
C:/temp/dataset/test2/7_5.odb,Step-1,Increment      1: Step Time =    1.000,"PART-1-1",           315,            4.,         9.375,            0.,NA,NA,"",       3.73002,      -3.71644,   318.000E-03,   379.824E-06
C:/temp/dataset/test2/7_5.odb,Step-1,Increment      1: Step Time =    1.000,"PART-1-1",           316,            5.,       10.3125,            0.,NA,NA,"",       3.86841,      -3.84359,   437.536E-03,   514.407E-06
C:/temp/dataset/test2/7_5.odb,Step-1,Increment      1: Step Time =    1.000,"PART-1-1",           317,            1.,       10.3125,            0.,NA,NA,"",       3.81128,      -3.81062,  -71.1495E-03,   309.145E-06
C:/temp/dataset/test2/7_5.odb,Step-1,Increment      1: Step Time =    1.000,"PART-1-1",           318,            2.,         9.375,            0.,NA,NA,"",       3.70029,      -3.69974,   63.9549E-03,   546.050E-06
C:/temp/dataset/test2/7_5.odb,Step-1,Increment      1: Step Time =    1.000,"PART-1-1",           319,           -1.,       10.3125,            0.,NA,NA,"",       3.80788,      -3.79385,  -326.547E-03,   228.600E-06
C:/temp/dataset/test2/7_5.odb,Step-1,Increment      1: Step Time =    1.000,"PART-1-1",           320,            0.,         9.375,            0.,NA,NA,"",       3.68741,      -3.68245,  -191.214E-03,   473.034E-06
C:/temp/dataset/test2/7_5.odb,Step-1,Increment      1: Step Time =    1.000,"PART-1-1",           321,           -3.,       10.3125,            0.,NA,NA,"",       3.82183,      -3.77720,  -582.344E-03,   76.9770E-06
C:/temp/dataset/test2/7_5.odb,Step-1,Increment      1: Step Time =    1.000,"PART-1-1",           322,           -2.,         9.375,            0.,NA,NA,"",       3.69251,      -3.66539,  -446.696E-03,   301.052E-06
C:/temp/dataset/test2/7_5.odb,Step-1,Increment      1: Step Time =    1.000,"PART-1-1",           323,           -5.,       10.3125,            0.,NA,NA,"",       3.85289,      -3.76055,  -838.477E-03,   294.767E-06
C:/temp/dataset/test2/7_5.odb,Step-1,Increment      1: Step Time =    1.000,"PART-1-1",           324,           -4.,         9.375,            0.,NA,NA,"",       3.71576,      -3.64870,  -702.769E-03,   173.380E-06
C:/temp/dataset/test2/7_5.odb,Step-1,Increment      1: Step Time =    1.000,"PART-1-1",           325,            3.,        8.4375,            0.,NA,NA,"",       3.59542,      -3.58993,   198.641E-03,   1.47359E-03
C:/temp/dataset/test2/7_5.odb,Step-1,Increment      1: Step Time =    1.000,"PART-1-1",           326,            4.,           7.5,            0.,NA,NA,"",       3.49770,      -3.48182,   332.864E-03,   2.89352E-03
C:/temp/dataset/test2/7_5.odb,Step-1,Increment      1: Step Time =    1.000,"PART-1-1",           327,            5.,        8.4375,            0.,NA,NA,"",       3.63452,      -3.60642,   451.064E-03,   671.002E-06
C:/temp/dataset/test2/7_5.odb,Step-1,Increment      1: Step Time =    1.000,"PART-1-1",           328,            1.,        8.4375,            0.,NA,NA,"",       3.57192,      -3.57148,  -56.2980E-03,   1.16910E-03
C:/temp/dataset/test2/7_5.odb,Step-1,Increment      1: Step Time =    1.000,"PART-1-1",           329,            2.,           7.5,            0.,NA,NA,"",       3.46224,      -3.46137,   78.0029E-03,   2.14777E-03
C:/temp/dataset/test2/7_5.odb,Step-1,Increment      1: Step Time =    1.000,"PART-1-1",           330,           -1.,        8.4375,            0.,NA,NA,"",       3.56719,      -3.55358,  -311.335E-03,   836.078E-06
C:/temp/dataset/test2/7_5.odb,Step-1,Increment      1: Step Time =    1.000,"PART-1-1",           331,            0.,           7.5,            0.,NA,NA,"",       3.44650,      -3.44197,  -176.566E-03,   1.50576E-03
C:/temp/dataset/test2/7_5.odb,Step-1,Increment      1: Step Time =    1.000,"PART-1-1",           332,           -3.,        8.4375,            0.,NA,NA,"",       3.58170,      -3.53656,  -566.889E-03,   475.623E-06
C:/temp/dataset/test2/7_5.odb,Step-1,Increment      1: Step Time =    1.000,"PART-1-1",           333,           -2.,           7.5,            0.,NA,NA,"",       3.45123,      -3.42418,  -431.279E-03,   1.00000E-03
C:/temp/dataset/test2/7_5.odb,Step-1,Increment      1: Step Time =    1.000,"PART-1-1",           334,           -5.,        8.4375,            0.,NA,NA,"",       3.61492,      -3.51987,  -823.527E-03,   200.285E-06
C:/temp/dataset/test2/7_5.odb,Step-1,Increment      1: Step Time =    1.000,"PART-1-1",           335,           -4.,           7.5,            0.,NA,NA,"",       3.47606,      -3.40745,  -687.223E-03,   381.716E-06
C:/temp/dataset/test2/7_5.odb,Step-1,Increment      1: Step Time =    1.000,"PART-1-1",           336,            3.,        6.5625,            0.,NA,NA,"",       3.35897,      -3.35230,   211.440E-03,   3.98042E-03
C:/temp/dataset/test2/7_5.odb,Step-1,Increment      1: Step Time =    1.000,"PART-1-1",           337,            4.,         5.625,            0.,NA,NA,"",       3.26193,      -3.24370,   344.452E-03,   5.04419E-03
C:/temp/dataset/test2/7_5.odb,Step-1,Increment      1: Step Time =    1.000,"PART-1-1",           338,            5.,        6.5625,            0.,NA,NA,"",       3.40799,      -3.37614,   464.818E-03,   4.12046E-03
C:/temp/dataset/test2/7_5.odb,Step-1,Increment      1: Step Time =    1.000,"PART-1-1",           339,            1.,        6.5625,            0.,NA,NA,"",       3.33101,      -3.33073,  -42.6949E-03,   2.68446E-03
C:/temp/dataset/test2/7_5.odb,Step-1,Increment      1: Step Time =    1.000,"PART-1-1",           340,            2.,         5.625,            0.,NA,NA,"",       3.22105,      -3.21978,   90.1812E-03,   4.27097E-03
C:/temp/dataset/test2/7_5.odb,Step-1,Increment      1: Step Time =    1.000,"PART-1-1",           341,           -1.,        6.5625,            0.,NA,NA,"",       3.32490,      -3.31167,  -296.368E-03,   1.92930E-03
C:/temp/dataset/test2/7_5.odb,Step-1,Increment      1: Step Time =    1.000,"PART-1-1",           342,            0.,         5.625,            0.,NA,NA,"",       3.20321,      -3.19909,  -162.486E-03,   3.01584E-03
C:/temp/dataset/test2/7_5.odb,Step-1,Increment      1: Step Time =    1.000,"PART-1-1",           343,           -3.,        6.5625,            0.,NA,NA,"",       3.34028,      -3.29451,  -551.018E-03,   1.24772E-03
C:/temp/dataset/test2/7_5.odb,Step-1,Increment      1: Step Time =    1.000,"PART-1-1",           344,           -2.,         5.625,            0.,NA,NA,"",       3.20820,      -3.18118,  -415.524E-03,   2.08586E-03
C:/temp/dataset/test2/7_5.odb,Step-1,Increment      1: Step Time =    1.000,"PART-1-1",           345,           -5.,        6.5625,            0.,NA,NA,"",       3.37620,      -3.27808,  -808.052E-03,   290.277E-06
C:/temp/dataset/test2/7_5.odb,Step-1,Increment      1: Step Time =    1.000,"PART-1-1",           346,           -4.,         5.625,            0.,NA,NA,"",       3.23515,      -3.16484,  -670.807E-03,   1.05473E-03
C:/temp/dataset/test2/7_5.odb,Step-1,Increment      1: Step Time =    1.000,"PART-1-1",           347,            3.,        4.6875,            0.,NA,NA,"",       3.11593,      -3.10797,   222.580E-03,   5.56583E-03
C:/temp/dataset/test2/7_5.odb,Step-1,Increment      1: Step Time =    1.000,"PART-1-1",           348,            4.,          3.75,            0.,NA,NA,"",       3.01522,      -2.99412,   356.097E-03,   4.80257E-03
C:/temp/dataset/test2/7_5.odb,Step-1,Increment      1: Step Time =    1.000,"PART-1-1",           349,            5.,        4.6875,            0.,NA,NA,"",       3.16992,      -3.13322,   480.960E-03,   4.33706E-03
C:/temp/dataset/test2/7_5.odb,Step-1,Increment      1: Step Time =    1.000,"PART-1-1",           350,            1.,        4.6875,            0.,NA,NA,"",       3.08640,      -3.08626,  -29.7083E-03,   4.19159E-03
C:/temp/dataset/test2/7_5.odb,Step-1,Increment      1: Step Time =    1.000,"PART-1-1",           351,            2.,          3.75,            0.,NA,NA,"",       2.97443,      -2.97267,   102.355E-03,   5.06937E-03
C:/temp/dataset/test2/7_5.odb,Step-1,Increment      1: Step Time =    1.000,"PART-1-1",           352,           -1.,        4.6875,            0.,NA,NA,"",       3.08034,      -3.06749,  -281.153E-03,   3.21628E-03
C:/temp/dataset/test2/7_5.odb,Step-1,Increment      1: Step Time =    1.000,"PART-1-1",           353,            0.,          3.75,            0.,NA,NA,"",       2.95714,      -2.95343,  -148.052E-03,   4.27458E-03
C:/temp/dataset/test2/7_5.odb,Step-1,Increment      1: Step Time =    1.000,"PART-1-1",           354,           -3.,        4.6875,            0.,NA,NA,"",       3.09733,      -3.05092,  -534.206E-03,   2.28991E-03
C:/temp/dataset/test2/7_5.odb,Step-1,Increment      1: Step Time =    1.000,"PART-1-1",           355,           -2.,          3.75,            0.,NA,NA,"",       2.96349,      -2.93652,  -398.844E-03,   3.24197E-03
C:/temp/dataset/test2/7_5.odb,Step-1,Increment      1: Step Time =    1.000,"PART-1-1",           356,           -5.,        4.6875,            0.,NA,NA,"",       3.13668,      -3.03525,  -791.194E-03,   1.33674E-03
C:/temp/dataset/test2/7_5.odb,Step-1,Increment      1: Step Time =    1.000,"PART-1-1",           357,           -4.,          3.75,            0.,NA,NA,"",       2.99325,      -2.92119,  -652.829E-03,   2.16136E-03
C:/temp/dataset/test2/7_5.odb,Step-1,Increment      1: Step Time =    1.000,"PART-1-1",           358,            3.,        2.8125,            0.,NA,NA,"",       2.86760,      -2.85797,   234.828E-03,   4.89661E-03
C:/temp/dataset/test2/7_5.odb,Step-1,Increment      1: Step Time =    1.000,"PART-1-1",           359,            4.,         1.875,            0.,NA,NA,"",       2.76764,      -2.74295,   368.800E-03,   3.83214E-03
C:/temp/dataset/test2/7_5.odb,Step-1,Increment      1: Step Time =    1.000,"PART-1-1",           360,            5.,        2.8125,            0.,NA,NA,"",       2.91985,      -2.87769,   494.406E-03,   3.74267E-03
C:/temp/dataset/test2/7_5.odb,Step-1,Increment      1: Step Time =    1.000,"PART-1-1",           361,            1.,        2.8125,            0.,NA,NA,"",       2.83895,      -2.83891,  -15.9763E-03,   4.95917E-03
C:/temp/dataset/test2/7_5.odb,Step-1,Increment      1: Step Time =    1.000,"PART-1-1",           362,            2.,         1.875,            0.,NA,NA,"",       2.72651,      -2.72406,   115.566E-03,   4.74997E-03
C:/temp/dataset/test2/7_5.odb,Step-1,Increment      1: Step Time =    1.000,"PART-1-1",           363,           -1.,        2.8125,            0.,NA,NA,"",       2.83420,      -2.82179,  -264.989E-03,   4.25578E-03
C:/temp/dataset/test2/7_5.odb,Step-1,Increment      1: Step Time =    1.000,"PART-1-1",           364,            0.,         1.875,            0.,NA,NA,"",       2.71015,      -2.70690,  -132.636E-03,   4.79668E-03
C:/temp/dataset/test2/7_5.odb,Step-1,Increment      1: Step Time =    1.000,"PART-1-1",           365,           -3.,        2.8125,            0.,NA,NA,"",       2.85352,      -2.80650,  -515.889E-03,   3.40888E-03
C:/temp/dataset/test2/7_5.odb,Step-1,Increment      1: Step Time =    1.000,"PART-1-1",           366,           -2.,         1.875,            0.,NA,NA,"",       2.71834,      -2.69154,  -380.803E-03,   4.15988E-03
C:/temp/dataset/test2/7_5.odb,Step-1,Increment      1: Step Time =    1.000,"PART-1-1",           367,           -5.,        2.8125,            0.,NA,NA,"",       2.89693,      -2.79217,  -771.990E-03,   2.95042E-03
C:/temp/dataset/test2/7_5.odb,Step-1,Increment      1: Step Time =    1.000,"PART-1-1",           368,           -4.,         1.875,            0.,NA,NA,"",       2.75140,      -2.67767,  -632.710E-03,   3.58812E-03
C:/temp/dataset/test2/7_5.odb,Step-1,Increment      1: Step Time =    1.000,"PART-1-1",           369,            3.,     937.5E-03,            0.,NA,NA,"",       2.62152,      -2.60986,   246.906E-03,   4.47977E-03
C:/temp/dataset/test2/7_5.odb,Step-1,Increment      1: Step Time =    1.000,"PART-1-1",           370,            4.,            0.,            0.,NA,NA,"",       2.52588,      -2.49752,   377.395E-03,   5.47914E-03
C:/temp/dataset/test2/7_5.odb,Step-1,Increment      1: Step Time =    1.000,"PART-1-1",           371,            5.,     937.5E-03,            0.,NA,NA,"",       2.67778,      -2.63029,   502.077E-03,   5.80032E-03
C:/temp/dataset/test2/7_5.odb,Step-1,Increment      1: Step Time =    1.000,"PART-1-1",           372,            1.,     937.5E-03,            0.,NA,NA,"",       2.59222,      -2.59222,  -1.60143E-03,   5.02942E-03
C:/temp/dataset/test2/7_5.odb,Step-1,Increment      1: Step Time =    1.000,"PART-1-1",           373,            2.,            0.,            0.,NA,NA,"",       2.48177,      -2.47845,   128.174E-03,   4.67085E-03
C:/temp/dataset/test2/7_5.odb,Step-1,Increment      1: Step Time =    1.000,"PART-1-1",           374,           -1.,     937.5E-03,            0.,NA,NA,"",       2.58850,      -2.57662,  -247.734E-03,   4.84335E-03
C:/temp/dataset/test2/7_5.odb,Step-1,Increment      1: Step Time =    1.000,"PART-1-1",           375,            0.,            0.,            0.,NA,NA,"",       2.46496,      -2.46220,  -116.707E-03,   4.85144E-03
C:/temp/dataset/test2/7_5.odb,Step-1,Increment      1: Step Time =    1.000,"PART-1-1",           376,           -3.,     937.5E-03,            0.,NA,NA,"",       2.61037,      -2.56286,  -495.769E-03,   4.48265E-03
C:/temp/dataset/test2/7_5.odb,Step-1,Increment      1: Step Time =    1.000,"PART-1-1",           377,           -2.,            0.,            0.,NA,NA,"",       2.47474,      -2.44821,  -361.426E-03,   4.80767E-03
C:/temp/dataset/test2/7_5.odb,Step-1,Increment      1: Step Time =    1.000,"PART-1-1",           378,           -5.,     937.5E-03,            0.,NA,NA,"",       2.65822,      -2.55030,  -749.761E-03,   4.95474E-03
C:/temp/dataset/test2/7_5.odb,Step-1,Increment      1: Step Time =    1.000,"PART-1-1",           379,           -4.,            0.,            0.,NA,NA,"",       2.51127,      -2.43601,  -610.175E-03,   5.18769E-03
C:/temp/dataset/test2/7_5.odb,Step-1,Increment      1: Step Time =    1.000,"PART-1-1",           380,            3.,    -937.5E-03,            0.,NA,NA,"",       2.38027,      -2.36643,   256.385E-03,   5.38948E-03
C:/temp/dataset/test2/7_5.odb,Step-1,Increment      1: Step Time =    1.000,"PART-1-1",           381,            4.,        -1.875,            0.,NA,NA,"",       2.28891,      -2.25670,   382.647E-03,   7.04985E-03
C:/temp/dataset/test2/7_5.odb,Step-1,Increment      1: Step Time =    1.000,"PART-1-1",           382,            5.,    -937.5E-03,            0.,NA,NA,"",       2.44067,      -2.38757,   506.345E-03,   7.70683E-03
C:/temp/dataset/test2/7_5.odb,Step-1,Increment      1: Step Time =    1.000,"PART-1-1",           383,            1.,    -937.5E-03,            0.,NA,NA,"",       2.34889,      -2.34885,   12.2220E-03,   4.99104E-03
C:/temp/dataset/test2/7_5.odb,Step-1,Increment      1: Step Time =    1.000,"PART-1-1",           384,            2.,        -1.875,            0.,NA,NA,"",       2.24152,      -2.23721,   138.873E-03,   5.14749E-03
C:/temp/dataset/test2/7_5.odb,Step-1,Increment      1: Step Time =    1.000,"PART-1-1",           385,           -1.,    -937.5E-03,            0.,NA,NA,"",       2.34548,      -2.33419,  -229.816E-03,   5.10437E-03
C:/temp/dataset/test2/7_5.odb,Step-1,Increment      1: Step Time =    1.000,"PART-1-1",           386,            0.,        -1.875,            0.,NA,NA,"",       2.22363,      -2.22134,  -101.042E-03,   4.82690E-03
C:/temp/dataset/test2/7_5.odb,Step-1,Increment      1: Step Time =    1.000,"PART-1-1",           387,           -3.,    -937.5E-03,            0.,NA,NA,"",       2.36976,      -2.32190,  -473.876E-03,   5.51857E-03
C:/temp/dataset/test2/7_5.odb,Step-1,Increment      1: Step Time =    1.000,"PART-1-1",           388,           -2.,        -1.875,            0.,NA,NA,"",       2.23465,      -2.20847,  -341.010E-03,   5.33781E-03
C:/temp/dataset/test2/7_5.odb,Step-1,Increment      1: Step Time =    1.000,"PART-1-1",           389,           -5.,    -937.5E-03,            0.,NA,NA,"",       2.42220,      -2.31138,  -724.270E-03,   7.12961E-03
C:/temp/dataset/test2/7_5.odb,Step-1,Increment      1: Step Time =    1.000,"PART-1-1",           390,           -4.,        -1.875,            0.,NA,NA,"",       2.27463,      -2.19805,  -585.236E-03,   6.85157E-03
C:/temp/dataset/test2/7_5.odb,Step-1,Increment      1: Step Time =    1.000,"PART-1-1",           391,            3.,       -2.8125,            0.,NA,NA,"",       2.14402,      -2.12782,   262.999E-03,   6.51125E-03
C:/temp/dataset/test2/7_5.odb,Step-1,Increment      1: Step Time =    1.000,"PART-1-1",           392,            4.,         -3.75,            0.,NA,NA,"",       2.05737,      -2.02113,   384.434E-03,   8.66938E-03
C:/temp/dataset/test2/7_5.odb,Step-1,Increment      1: Step Time =    1.000,"PART-1-1",           393,            5.,       -2.8125,            0.,NA,NA,"",       2.20859,      -2.14967,   506.767E-03,   9.65655E-03
C:/temp/dataset/test2/7_5.odb,Step-1,Increment      1: Step Time =    1.000,"PART-1-1",           394,            1.,       -2.8125,            0.,NA,NA,"",       2.11035,      -2.11020,   24.7444E-03,   5.10177E-03
C:/temp/dataset/test2/7_5.odb,Step-1,Increment      1: Step Time =    1.000,"PART-1-1",           395,            2.,         -3.75,            0.,NA,NA,"",       2.00671,      -2.00129,   147.375E-03,   5.77752E-03
C:/temp/dataset/test2/7_5.odb,Step-1,Increment      1: Step Time =    1.000,"PART-1-1",           396,           -1.,       -2.8125,            0.,NA,NA,"",       2.10692,      -2.09626,  -211.705E-03,   5.24447E-03
C:/temp/dataset/test2/7_5.odb,Step-1,Increment      1: Step Time =    1.000,"PART-1-1",           397,            0.,         -3.75,            0.,NA,NA,"",       1.98762,      -1.98576,  -86.0862E-03,   4.81145E-03
C:/temp/dataset/test2/7_5.odb,Step-1,Increment      1: Step Time =    1.000,"PART-1-1",           398,           -3.,       -2.8125,            0.,NA,NA,"",       2.13350,      -2.08541,  -450.397E-03,   6.57057E-03
C:/temp/dataset/test2/7_5.odb,Step-1,Increment      1: Step Time =    1.000,"PART-1-1",           399,           -2.,         -3.75,            0.,NA,NA,"",       1.99973,      -1.97399,  -319.846E-03,   5.87502E-03
C:/temp/dataset/test2/7_5.odb,Step-1,Increment      1: Step Time =    1.000,"PART-1-1",           400,           -5.,       -2.8125,            0.,NA,NA,"",       2.19051,      -2.07713,  -695.611E-03,   9.32956E-03
C:/temp/dataset/test2/7_5.odb,Step-1,Increment      1: Step Time =    1.000,"PART-1-1",           401,           -4.,         -3.75,            0.,NA,NA,"",       2.04314,      -1.96545,  -558.048E-03,   8.52688E-03
C:/temp/dataset/test2/7_5.odb,Step-1,Increment      1: Step Time =    1.000,"PART-1-1",           402,            3.,       -4.6875,            0.,NA,NA,"",       1.91375,      -1.89507,   266.699E-03,   7.68289E-03
C:/temp/dataset/test2/7_5.odb,Step-1,Increment      1: Step Time =    1.000,"PART-1-1",           403,            4.,        -5.625,            0.,NA,NA,"",       1.83234,      -1.79195,   382.623E-03,   10.3170E-03
C:/temp/dataset/test2/7_5.odb,Step-1,Increment      1: Step Time =    1.000,"PART-1-1",           404,            5.,       -4.6875,            0.,NA,NA,"",       1.98241,      -1.91751,   503.100E-03,   11.6891E-03
C:/temp/dataset/test2/7_5.odb,Step-1,Increment      1: Step Time =    1.000,"PART-1-1",           405,            1.,       -4.6875,            0.,NA,NA,"",       1.87782,      -1.87748,   35.7089E-03,   5.29842E-03
C:/temp/dataset/test2/7_5.odb,Step-1,Increment      1: Step Time =    1.000,"PART-1-1",           406,            2.,        -5.625,            0.,NA,NA,"",       1.77852,      -1.77188,   153.557E-03,   6.46620E-03
C:/temp/dataset/test2/7_5.odb,Step-1,Increment      1: Step Time =    1.000,"PART-1-1",           407,           -1.,       -4.6875,            0.,NA,NA,"",       1.87432,      -1.86428,  -193.694E-03,   5.37641E-03
C:/temp/dataset/test2/7_5.odb,Step-1,Increment      1: Step Time =    1.000,"PART-1-1",           408,            0.,        -5.625,            0.,NA,NA,"",       1.75826,      -1.75678,  -72.0492E-03,   4.80739E-03
C:/temp/dataset/test2/7_5.odb,Step-1,Increment      1: Step Time =    1.000,"PART-1-1",           409,           -3.,       -4.6875,            0.,NA,NA,"",       1.90316,      -1.85497,  -425.532E-03,   7.66544E-03
C:/temp/dataset/test2/7_5.odb,Step-1,Increment      1: Step Time =    1.000,"PART-1-1",           410,           -2.,        -5.625,            0.,NA,NA,"",       1.77147,      -1.74621,  -298.135E-03,   6.46472E-03
C:/temp/dataset/test2/7_5.odb,Step-1,Increment      1: Step Time =    1.000,"PART-1-1",           411,           -5.,       -4.6875,            0.,NA,NA,"",       1.96468,      -1.84907,  -664.004E-03,   11.5001E-03
C:/temp/dataset/test2/7_5.odb,Step-1,Increment      1: Step Time =    1.000,"PART-1-1",           412,           -4.,        -5.625,            0.,NA,NA,"",       1.81827,      -1.73968,  -528.799E-03,   10.1973E-03
C:/temp/dataset/test2/7_5.odb,Step-1,Increment      1: Step Time =    1.000,"PART-1-1",           413,            3.,       -6.5625,            0.,NA,NA,"",       1.69067,      -1.66940,   267.358E-03,   8.87721E-03
C:/temp/dataset/test2/7_5.odb,Step-1,Increment      1: Step Time =    1.000,"PART-1-1",           414,            4.,          -7.5,            0.,NA,NA,"",       1.61508,      -1.57045,   377.042E-03,   11.9876E-03
C:/temp/dataset/test2/7_5.odb,Step-1,Increment      1: Step Time =    1.000,"PART-1-1",           415,            5.,       -6.5625,            0.,NA,NA,"",       1.76327,      -1.69233,   495.086E-03,   13.7667E-03
C:/temp/dataset/test2/7_5.odb,Step-1,Increment      1: Step Time =    1.000,"PART-1-1",           416,            1.,       -6.5625,            0.,NA,NA,"",       1.65257,      -1.65196,   44.9813E-03,   5.53052E-03
C:/temp/dataset/test2/7_5.odb,Step-1,Increment      1: Step Time =    1.000,"PART-1-1",           417,            2.,          -7.5,            0.,NA,NA,"",       1.55823,      -1.55027,   157.307E-03,   7.18467E-03
C:/temp/dataset/test2/7_5.odb,Step-1,Increment      1: Step Time =    1.000,"PART-1-1",           418,           -1.,       -6.5625,            0.,NA,NA,"",       1.64905,      -1.63963,  -175.947E-03,   5.53551E-03
C:/temp/dataset/test2/7_5.odb,Step-1,Increment      1: Step Time =    1.000,"PART-1-1",           419,            0.,          -7.5,            0.,NA,NA,"",       1.53687,      -1.53574,  -59.0557E-03,   4.80715E-03
C:/temp/dataset/test2/7_5.odb,Step-1,Increment      1: Step Time =    1.000,"PART-1-1",           420,           -3.,       -6.5625,            0.,NA,NA,"",       1.68015,      -1.63198,  -399.448E-03,   8.80046E-03
C:/temp/dataset/test2/7_5.odb,Step-1,Increment      1: Step Time =    1.000,"PART-1-1",           421,           -2.,          -7.5,            0.,NA,NA,"",       1.55122,      -1.52647,  -276.017E-03,   7.10624E-03
C:/temp/dataset/test2/7_5.odb,Step-1,Increment      1: Step Time =    1.000,"PART-1-1",           422,           -5.,       -6.5625,            0.,NA,NA,"",       1.74607,      -1.62858,  -629.666E-03,   13.6374E-03
C:/temp/dataset/test2/7_5.odb,Step-1,Increment      1: Step Time =    1.000,"PART-1-1",           423,           -4.,          -7.5,            0.,NA,NA,"",       1.60137,      -1.52208,  -497.655E-03,   11.8621E-03
C:/temp/dataset/test2/7_5.odb,Step-1,Increment      1: Step Time =    1.000,"PART-1-1",           424,            3.,       -8.4375,            0.,NA,NA,"",       1.47609,      -1.45214,   264.850E-03,   10.0897E-03
C:/temp/dataset/test2/7_5.odb,Step-1,Increment      1: Step Time =    1.000,"PART-1-1",           425,            4.,        -9.375,            0.,NA,NA,"",       1.40686,      -1.35800,   367.549E-03,   13.6713E-03
C:/temp/dataset/test2/7_5.odb,Step-1,Increment      1: Step Time =    1.000,"PART-1-1",           426,            5.,       -8.4375,            0.,NA,NA,"",       1.55237,      -1.47547,   482.548E-03,   15.8698E-03
C:/temp/dataset/test2/7_5.odb,Step-1,Increment      1: Step Time =    1.000,"PART-1-1",           427,            1.,       -8.4375,            0.,NA,NA,"",       1.43593,      -1.43497,   52.4557E-03,   5.78258E-03
C:/temp/dataset/test2/7_5.odb,Step-1,Increment      1: Step Time =    1.000,"PART-1-1",           428,            2.,        -9.375,            0.,NA,NA,"",       1.34716,      -1.33780,   158.516E-03,   7.92712E-03
C:/temp/dataset/test2/7_5.odb,Step-1,Increment      1: Step Time =    1.000,"PART-1-1",           429,           -1.,       -8.4375,            0.,NA,NA,"",       1.43244,      -1.42363,  -158.579E-03,   5.72531E-03
C:/temp/dataset/test2/7_5.odb,Step-1,Increment      1: Step Time =    1.000,"PART-1-1",           430,            0.,        -9.375,            0.,NA,NA,"",       1.32478,      -1.32394,  -47.2056E-03,   4.80793E-03
C:/temp/dataset/test2/7_5.odb,Step-1,Increment      1: Step Time =    1.000,"PART-1-1",           431,           -3.,       -8.4375,            0.,NA,NA,"",       1.46582,      -1.41776,  -372.281E-03,   9.96381E-03
C:/temp/dataset/test2/7_5.odb,Step-1,Increment      1: Step Time =    1.000,"PART-1-1",           432,           -2.,        -9.375,            0.,NA,NA,"",       1.34031,      -1.31610,  -253.604E-03,   7.78658E-03
C:/temp/dataset/test2/7_5.odb,Step-1,Increment      1: Step Time =    1.000,"PART-1-1",           433,           -5.,       -8.4375,            0.,NA,NA,"",       1.53598,      -1.41698,  -592.770E-03,   15.7530E-03
C:/temp/dataset/test2/7_5.odb,Step-1,Increment      1: Step Time =    1.000,"PART-1-1",           434,           -4.,        -9.375,            0.,NA,NA,"",       1.39373,      -1.31396,  -464.753E-03,   13.5236E-03
C:/temp/dataset/test2/7_5.odb,Step-1,Increment      1: Step Time =    1.000,"PART-1-1",           435,            3.,      -10.3125,            0.,NA,NA,"",       1.27133,      -1.24466,   259.060E-03,   11.3176E-03
C:/temp/dataset/test2/7_5.odb,Step-1,Increment      1: Step Time =    1.000,"PART-1-1",           436,            4.,        -11.25,            0.,NA,NA,"",       1.20897,      -1.15597,   354.031E-03,   15.3631E-03
C:/temp/dataset/test2/7_5.odb,Step-1,Increment      1: Step Time =    1.000,"PART-1-1",           437,            5.,      -10.3125,            0.,NA,NA,"",       1.35096,      -1.26828,   465.344E-03,   17.9848E-03
C:/temp/dataset/test2/7_5.odb,Step-1,Increment      1: Step Time =    1.000,"PART-1-1",           438,            1.,      -10.3125,            0.,NA,NA,"",       1.22923,      -1.22786,   58.0362E-03,   6.05237E-03
C:/temp/dataset/test2/7_5.odb,Step-1,Increment      1: Step Time =    1.000,"PART-1-1",           439,            2.,        -11.25,            0.,NA,NA,"",       1.14665,      -1.13584,   157.088E-03,   8.69073E-03
C:/temp/dataset/test2/7_5.odb,Step-1,Increment      1: Step Time =    1.000,"PART-1-1",           440,           -1.,      -10.3125,            0.,NA,NA,"",       1.22582,      -1.21760,  -141.686E-03,   5.94073E-03
C:/temp/dataset/test2/7_5.odb,Step-1,Increment      1: Step Time =    1.000,"PART-1-1",           441,            0.,        -11.25,            0.,NA,NA,"",       1.12333,      -1.12273,  -36.5867E-03,   4.80894E-03
C:/temp/dataset/test2/7_5.odb,Step-1,Increment      1: Step Time =    1.000,"PART-1-1",           442,           -3.,      -10.3125,            0.,NA,NA,"",       1.26145,      -1.21360,  -344.142E-03,   11.1449E-03
C:/temp/dataset/test2/7_5.odb,Step-1,Increment      1: Step Time =    1.000,"PART-1-1",           443,           -2.,        -11.25,            0.,NA,NA,"",       1.14005,      -1.11640,  -230.990E-03,   8.49336E-03
C:/temp/dataset/test2/7_5.odb,Step-1,Increment      1: Step Time =    1.000,"PART-1-1",           444,           -5.,      -10.3125,            0.,NA,NA,"",       1.33562,      -1.21555,  -553.445E-03,   17.8570E-03
C:/temp/dataset/test2/7_5.odb,Step-1,Increment      1: Step Time =    1.000,"PART-1-1",           445,           -4.,        -11.25,            0.,NA,NA,"",       1.19660,      -1.11659,  -430.198E-03,   15.1834E-03
C:/temp/dataset/test2/7_5.odb,Step-1,Increment      1: Step Time =    1.000,"PART-1-1",           446,            3.,      -12.1875,            0.,NA,NA,"",       1.07770,      -1.04832,   249.893E-03,   12.5586E-03
C:/temp/dataset/test2/7_5.odb,Step-1,Increment      1: Step Time =    1.000,"PART-1-1",           447,            4.,       -13.125,            0.,NA,NA,"",       1.02267,  -965.759E-03,   336.401E-03,   17.0598E-03
C:/temp/dataset/test2/7_5.odb,Step-1,Increment      1: Step Time =    1.000,"PART-1-1",           448,            5.,      -12.1875,            0.,NA,NA,"",       1.16024,      -1.07218,   443.371E-03,   20.1051E-03
C:/temp/dataset/test2/7_5.odb,Step-1,Increment      1: Step Time =    1.000,"PART-1-1",           449,            1.,      -12.1875,            0.,NA,NA,"",       1.03380,      -1.03196,   61.6399E-03,   6.34056E-03
C:/temp/dataset/test2/7_5.odb,Step-1,Increment      1: Step Time =    1.000,"PART-1-1",           450,            2.,       -13.125,            0.,NA,NA,"",   958.026E-03,  -945.738E-03,   152.945E-03,   9.47310E-03
C:/temp/dataset/test2/7_5.odb,Step-1,Increment      1: Step Time =    1.000,"PART-1-1",           451,           -1.,      -12.1875,            0.,NA,NA,"",       1.03051,      -1.02286,  -125.350E-03,   6.17578E-03
C:/temp/dataset/test2/7_5.odb,Step-1,Increment      1: Step Time =    1.000,"PART-1-1",           452,            0.,       -13.125,            0.,NA,NA,"",   933.840E-03,  -933.442E-03,  -27.2715E-03,   4.81017E-03
C:/temp/dataset/test2/7_5.odb,Step-1,Increment      1: Step Time =    1.000,"PART-1-1",           453,           -3.,      -12.1875,            0.,NA,NA,"",       1.06833,      -1.02080,  -315.117E-03,   12.3369E-03
C:/temp/dataset/test2/7_5.odb,Step-1,Increment      1: Step Time =    1.000,"PART-1-1",           454,           -2.,       -13.125,            0.,NA,NA,"",   951.744E-03,  -928.681E-03,  -208.247E-03,   9.21773E-03
C:/temp/dataset/test2/7_5.odb,Step-1,Increment      1: Step Time =    1.000,"PART-1-1",           455,           -5.,      -12.1875,            0.,NA,NA,"",       1.14616,      -1.02556,  -511.782E-03,   19.9555E-03
C:/temp/dataset/test2/7_5.odb,Step-1,Increment      1: Step Time =    1.000,"PART-1-1",           456,           -4.,       -13.125,            0.,NA,NA,"",       1.01121,  -931.263E-03,  -394.067E-03,   16.8425E-03
C:/temp/dataset/test2/7_5.odb,Step-1,Increment      1: Step Time =    1.000,"PART-1-1",           457,            3.,      -14.0625,            0.,NA,NA,"",   896.495E-03,  -864.524E-03,   237.280E-03,   13.8101E-03
C:/temp/dataset/test2/7_5.odb,Step-1,Increment      1: Step Time =    1.000,"PART-1-1",           458,            4.,          -15.,            0.,NA,NA,"",   849.180E-03,  -788.753E-03,   314.602E-03,   18.7600E-03
C:/temp/dataset/test2/7_5.odb,Step-1,Increment      1: Step Time =    1.000,"PART-1-1",           459,            5.,      -14.0625,            0.,NA,NA,"",   981.363E-03,  -888.567E-03,   416.559E-03,   22.2275E-03
C:/temp/dataset/test2/7_5.odb,Step-1,Increment      1: Step Time =    1.000,"PART-1-1",           460,            1.,      -14.0625,            0.,NA,NA,"",   850.977E-03,  -848.627E-03,   63.2021E-03,   6.64737E-03
C:/temp/dataset/test2/7_5.odb,Step-1,Increment      1: Step Time =    1.000,"PART-1-1",           461,            2.,          -15.,            0.,NA,NA,"",   782.621E-03,  -768.876E-03,   146.031E-03,   10.2717E-03
C:/temp/dataset/test2/7_5.odb,Step-1,Increment      1: Step Time =    1.000,"PART-1-1",           462,           -1.,      -14.0625,            0.,NA,NA,"",   847.839E-03,  -840.721E-03,  -109.633E-03,   6.42564E-03
C:/temp/dataset/test2/7_5.odb,Step-1,Increment      1: Step Time =    1.000,"PART-1-1",           463,            0.,          -15.,            0.,NA,NA,"",   757.655E-03,  -757.408E-03,  -19.3120E-03,   4.81173E-03
C:/temp/dataset/test2/7_5.odb,Step-1,Increment      1: Step Time =    1.000,"PART-1-1",           464,           -3.,      -14.0625,            0.,NA,NA,"",   887.736E-03,  -840.652E-03,  -285.270E-03,   13.5354E-03
C:/temp/dataset/test2/7_5.odb,Step-1,Increment      1: Step Time =    1.000,"PART-1-1",           465,           -2.,          -15.,            0.,NA,NA,"",   776.694E-03,  -754.235E-03,  -185.428E-03,   9.95386E-03
C:/temp/dataset/test2/7_5.odb,Step-1,Increment      1: Step Time =    1.000,"PART-1-1",           466,           -5.,      -14.0625,            0.,NA,NA,"",   968.722E-03,  -848.260E-03,  -467.843E-03,   22.0515E-03
C:/temp/dataset/test2/7_5.odb,Step-1,Increment      1: Step Time =    1.000,"PART-1-1",           467,           -4.,          -15.,            0.,NA,NA,"",   838.730E-03,  -759.237E-03,  -356.409E-03,   18.5010E-03
C:/temp/dataset/test2/7_5.odb,Step-1,Increment      1: Step Time =    1.000,"PART-1-1",           468,            3.,      -15.9375,            0.,NA,NA,"",   729.003E-03,  -694.641E-03,   221.178E-03,   15.0701E-03
C:/temp/dataset/test2/7_5.odb,Step-1,Increment      1: Step Time =    1.000,"PART-1-1",           469,            4.,       -16.875,            0.,NA,NA,"",   689.655E-03,  -626.361E-03,   288.609E-03,   20.4622E-03
C:/temp/dataset/test2/7_5.odb,Step-1,Increment      1: Step Time =    1.000,"PART-1-1",           470,            5.,      -15.9375,            0.,NA,NA,"",   815.397E-03,  -718.853E-03,   384.866E-03,   24.3504E-03
C:/temp/dataset/test2/7_5.odb,Step-1,Increment      1: Step Time =    1.000,"PART-1-1",           471,            1.,      -15.9375,            0.,NA,NA,"",   682.106E-03,  -679.219E-03,   62.6819E-03,   6.97250E-03
C:/temp/dataset/test2/7_5.odb,Step-1,Increment      1: Step Time =    1.000,"PART-1-1",           472,            2.,       -16.875,            0.,NA,NA,"",   621.749E-03,  -606.620E-03,   136.321E-03,   11.0844E-03
C:/temp/dataset/test2/7_5.odb,Step-1,Increment      1: Step Time =    1.000,"PART-1-1",           473,           -1.,      -15.9375,            0.,NA,NA,"",   679.127E-03,  -672.509E-03,  -94.5741E-03,   6.68695E-03
C:/temp/dataset/test2/7_5.odb,Step-1,Increment      1: Step Time =    1.000,"PART-1-1",           474,            0.,       -16.875,            0.,NA,NA,"",   596.103E-03,  -595.967E-03,  -12.7354E-03,   4.81402E-03
C:/temp/dataset/test2/7_5.odb,Step-1,Increment      1: Step Time =    1.000,"PART-1-1",           475,           -3.,      -15.9375,            0.,NA,NA,"",   720.904E-03,  -674.435E-03,  -254.637E-03,   14.7378E-03
C:/temp/dataset/test2/7_5.odb,Step-1,Increment      1: Step Time =    1.000,"PART-1-1",           476,           -2.,       -16.875,            0.,NA,NA,"",   616.197E-03,  -594.369E-03,  -162.555E-03,   10.6980E-03
C:/temp/dataset/test2/7_5.odb,Step-1,Increment      1: Step Time =    1.000,"PART-1-1",           477,           -5.,      -15.9375,            0.,NA,NA,"",   804.303E-03,  -684.914E-03,  -421.659E-03,   24.1465E-03
C:/temp/dataset/test2/7_5.odb,Step-1,Increment      1: Step Time =    1.000,"PART-1-1",           478,           -4.,       -16.875,            0.,NA,NA,"",   680.289E-03,  -601.788E-03,  -317.244E-03,   20.1592E-03
C:/temp/dataset/test2/7_5.odb,Step-1,Increment      1: Step Time =    1.000,"PART-1-1",           479,            3.,      -17.8125,            0.,NA,NA,"",   576.459E-03,  -540.066E-03,   201.577E-03,   16.3374E-03
C:/temp/dataset/test2/7_5.odb,Step-1,Increment      1: Step Time =    1.000,"PART-1-1",           480,            4.,        -18.75,            0.,NA,NA,"",   545.144E-03,  -479.997E-03,   258.428E-03,   22.1643E-03
C:/temp/dataset/test2/7_5.odb,Step-1,Increment      1: Step Time =    1.000,"PART-1-1",           481,            5.,      -17.8125,            0.,NA,NA,"",   663.267E-03,  -564.465E-03,   348.285E-03,   26.4709E-03
C:/temp/dataset/test2/7_5.odb,Step-1,Increment      1: Step Time =    1.000,"PART-1-1",           482,            1.,      -17.8125,            0.,NA,NA,"",   528.514E-03,  -525.090E-03,   60.0654E-03,   7.31616E-03
C:/temp/dataset/test2/7_5.odb,Step-1,Increment      1: Step Time =    1.000,"PART-1-1",           483,            2.,        -18.75,            0.,NA,NA,"",   476.708E-03,  -460.348E-03,   123.814E-03,   11.9110E-03
C:/temp/dataset/test2/7_5.odb,Step-1,Increment      1: Step Time =    1.000,"PART-1-1",           484,           -1.,      -17.8125,            0.,NA,NA,"",   525.694E-03,  -519.543E-03,  -80.1846E-03,   6.95784E-03
C:/temp/dataset/test2/7_5.odb,Step-1,Increment      1: Step Time =    1.000,"PART-1-1",           485,            0.,        -18.75,            0.,NA,NA,"",   450.520E-03,  -450.457E-03,  -7.54008E-03,   4.81921E-03
C:/temp/dataset/test2/7_5.odb,Step-1,Increment      1: Step Time =    1.000,"PART-1-1",           486,           -3.,      -17.8125,            0.,NA,NA,"",   569.050E-03,  -523.438E-03,  -223.227E-03,   15.9432E-03
C:/temp/dataset/test2/7_5.odb,Step-1,Increment      1: Step Time =    1.000,"PART-1-1",           487,           -2.,        -18.75,            0.,NA,NA,"",   471.532E-03,  -450.386E-03,  -139.624E-03,   11.4487E-03
C:/temp/dataset/test2/7_5.odb,Step-1,Increment      1: Step Time =    1.000,"PART-1-1",           488,           -5.,      -17.8125,            0.,NA,NA,"",   653.780E-03,  -536.775E-03,  -373.231E-03,   26.2410E-03
C:/temp/dataset/test2/7_5.odb,Step-1,Increment      1: Step Time =    1.000,"PART-1-1",           489,           -4.,        -18.75,            0.,NA,NA,"",   536.895E-03,  -460.186E-03,  -276.559E-03,   21.8168E-03
C:/temp/dataset/test2/7_5.odb,Step-1,Increment      1: Step Time =    1.000,"PART-1-1",           490,            3.,      -19.6875,            0.,NA,NA,"",   440.029E-03,  -402.200E-03,   178.497E-03,   17.6107E-03
C:/temp/dataset/test2/7_5.odb,Step-1,Increment      1: Step Time =    1.000,"PART-1-1",           491,            4.,       -20.625,            0.,NA,NA,"",   416.510E-03,  -351.079E-03,   224.108E-03,   23.8653E-03
C:/temp/dataset/test2/7_5.odb,Step-1,Increment      1: Step Time =    1.000,"PART-1-1",           492,            5.,      -19.6875,            0.,NA,NA,"",   525.686E-03,  -426.838E-03,   306.846E-03,   28.5861E-03
C:/temp/dataset/test2/7_5.odb,Step-1,Increment      1: Step Time =    1.000,"PART-1-1",           493,            1.,      -19.6875,            0.,NA,NA,"",   391.530E-03,  -387.595E-03,   55.3682E-03,   7.68456E-03
C:/temp/dataset/test2/7_5.odb,Step-1,Increment      1: Step Time =    1.000,"PART-1-1",           494,            2.,       -20.625,            0.,NA,NA,"",   348.754E-03,  -331.435E-03,   108.538E-03,   12.7541E-03
C:/temp/dataset/test2/7_5.odb,Step-1,Increment      1: Step Time =    1.000,"PART-1-1",           495,           -1.,      -19.6875,            0.,NA,NA,"",   388.861E-03,  -383.142E-03,  -66.4446E-03,   7.24211E-03
C:/temp/dataset/test2/7_5.odb,Step-1,Increment      1: Step Time =    1.000,"PART-1-1",           496,            0.,       -20.625,            0.,NA,NA,"",   322.224E-03,  -322.203E-03,  -3.69194E-03,   4.83389E-03
C:/temp/dataset/test2/7_5.odb,Step-1,Increment      1: Step Time =    1.000,"PART-1-1",           497,           -3.,      -19.6875,            0.,NA,NA,"",   433.322E-03,  -388.949E-03,  -191.013E-03,   17.1505E-03
C:/temp/dataset/test2/7_5.odb,Step-1,Increment      1: Step Time =    1.000,"PART-1-1",           498,           -2.,       -20.625,            0.,NA,NA,"",   343.950E-03,  -323.588E-03,  -116.587E-03,   12.2076E-03
C:/temp/dataset/test2/7_5.odb,Step-1,Increment      1: Step Time =    1.000,"PART-1-1",           499,           -5.,      -19.6875,            0.,NA,NA,"",   517.809E-03,  -405.096E-03,  -322.526E-03,   28.3372E-03
C:/temp/dataset/test2/7_5.odb,Step-1,Increment      1: Step Time =    1.000,"PART-1-1",           500,           -4.,       -20.625,            0.,NA,NA,"",   409.386E-03,  -335.700E-03,  -234.311E-03,   23.4767E-03
C:/temp/dataset/test2/7_5.odb,Step-1,Increment      1: Step Time =    1.000,"PART-1-1",           501,            3.,      -21.5625,            0.,NA,NA,"",   320.734E-03,  -282.439E-03,   151.983E-03,   18.9052E-03
C:/temp/dataset/test2/7_5.odb,Step-1,Increment      1: Step Time =    1.000,"PART-1-1",           502,            4.,         -22.5,            0.,NA,NA,"",   304.317E-03,  -241.053E-03,   185.748E-03,   25.5428E-03
C:/temp/dataset/test2/7_5.odb,Step-1,Increment      1: Step Time =    1.000,"PART-1-1",           503,            5.,      -21.5625,            0.,NA,NA,"",   403.024E-03,  -307.410E-03,   260.629E-03,   30.6636E-03
C:/temp/dataset/test2/7_5.odb,Step-1,Increment      1: Step Time =    1.000,"PART-1-1",           504,            1.,      -21.5625,            0.,NA,NA,"",   272.448E-03,  -268.074E-03,   48.6226E-03,   8.09194E-03
C:/temp/dataset/test2/7_5.odb,Step-1,Increment      1: Step Time =    1.000,"PART-1-1",           505,            2.,         -22.5,            0.,NA,NA,"",   239.059E-03,  -221.249E-03,   90.5440E-03,   13.6473E-03
C:/temp/dataset/test2/7_5.odb,Step-1,Increment      1: Step Time =    1.000,"PART-1-1",           506,           -1.,      -21.5625,            0.,NA,NA,"",   269.920E-03,  -264.609E-03,  -53.2815E-03,   7.55335E-03
C:/temp/dataset/test2/7_5.odb,Step-1,Increment      1: Step Time =    1.000,"PART-1-1",           507,            0.,         -22.5,            0.,NA,NA,"",   212.534E-03,  -212.532E-03,  -1.12255E-03,   4.89291E-03
C:/temp/dataset/test2/7_5.odb,Step-1,Increment      1: Step Time =    1.000,"PART-1-1",           508,           -3.,      -21.5625,            0.,NA,NA,"",   314.742E-03,  -272.255E-03,  -157.923E-03,   18.3754E-03
C:/temp/dataset/test2/7_5.odb,Step-1,Increment      1: Step Time =    1.000,"PART-1-1",           509,           -2.,         -22.5,            0.,NA,NA,"",   234.642E-03,  -215.274E-03,  -93.3488E-03,   13.0073E-03
C:/temp/dataset/test2/7_5.odb,Step-1,Increment      1: Step Time =    1.000,"PART-1-1",           510,           -5.,      -21.5625,            0.,NA,NA,"",   396.706E-03,  -291.130E-03,  -269.479E-03,   30.4103E-03
C:/temp/dataset/test2/7_5.odb,Step-1,Increment      1: Step Time =    1.000,"PART-1-1",           511,           -4.,         -22.5,            0.,NA,NA,"",   298.315E-03,  -229.630E-03,  -190.426E-03,   25.1195E-03
C:/temp/dataset/test2/7_5.odb,Step-1,Increment      1: Step Time =    1.000,"PART-1-1",           512,            3.,      -23.4375,            0.,NA,NA,"",   219.343E-03,  -182.203E-03,   122.122E-03,   20.2158E-03
C:/temp/dataset/test2/7_5.odb,Step-1,Increment      1: Step Time =    1.000,"PART-1-1",           513,            4.,       -24.375,            0.,NA,NA,"",   208.468E-03,  -151.233E-03,   143.484E-03,   27.2387E-03
C:/temp/dataset/test2/7_5.odb,Step-1,Increment      1: Step Time =    1.000,"PART-1-1",           514,            5.,      -23.4375,            0.,NA,NA,"",   295.203E-03,  -207.635E-03,   209.840E-03,   32.7077E-03
C:/temp/dataset/test2/7_5.odb,Step-1,Increment      1: Step Time =    1.000,"PART-1-1",           515,            1.,      -23.4375,            0.,NA,NA,"",   172.538E-03,  -167.859E-03,   39.9087E-03,   8.59011E-03
C:/temp/dataset/test2/7_5.odb,Step-1,Increment      1: Step Time =    1.000,"PART-1-1",           516,            2.,       -24.375,            0.,NA,NA,"",   148.530E-03,  -131.112E-03,   69.7924E-03,   14.5944E-03
C:/temp/dataset/test2/7_5.odb,Step-1,Increment      1: Step Time =    1.000,"PART-1-1",           517,           -1.,      -23.4375,            0.,NA,NA,"",   170.160E-03,  -165.247E-03,  -40.5956E-03,   7.94363E-03
C:/temp/dataset/test2/7_5.odb,Step-1,Increment      1: Step Time =    1.000,"PART-1-1",           518,            0.,       -24.375,            0.,NA,NA,"",   122.700E-03,  -122.700E-03,   286.286E-06,   5.02793E-03
C:/temp/dataset/test2/7_5.odb,Step-1,Increment      1: Step Time =    1.000,"PART-1-1",           519,           -3.,      -23.4375,            0.,NA,NA,"",   214.133E-03,  -174.687E-03,  -123.844E-03,   19.6124E-03
C:/temp/dataset/test2/7_5.odb,Step-1,Increment      1: Step Time =    1.000,"PART-1-1",           520,           -2.,       -24.375,            0.,NA,NA,"",   144.599E-03,  -126.732E-03,  -69.6279E-03,   13.8534E-03
C:/temp/dataset/test2/7_5.odb,Step-1,Increment      1: Step Time =    1.000,"PART-1-1",           521,           -5.,      -23.4375,            0.,NA,NA,"",   290.328E-03,  -196.150E-03,  -214.046E-03,   32.4779E-03
C:/temp/dataset/test2/7_5.odb,Step-1,Increment      1: Step Time =    1.000,"PART-1-1",           522,           -4.,       -24.375,            0.,NA,NA,"",   203.634E-03,  -143.192E-03,  -144.786E-03,   26.7997E-03
C:/temp/dataset/test2/7_5.odb,Step-1,Increment      1: Step Time =    1.000,"PART-1-1",           523,            3.,      -25.3125,            0.,NA,NA,"",   135.788E-03,  -102.695E-03,   88.8366E-03,   21.7518E-03
C:/temp/dataset/test2/7_5.odb,Step-1,Increment      1: Step Time =    1.000,"PART-1-1",           524,            4.,        -26.25,            0.,NA,NA,"",   128.236E-03,  -83.0249E-03,   97.7312E-03,   28.8197E-03
C:/temp/dataset/test2/7_5.odb,Step-1,Increment      1: Step Time =    1.000,"PART-1-1",           525,            5.,      -25.3125,            0.,NA,NA,"",   201.276E-03,  -128.690E-03,   154.760E-03,   34.3043E-03
C:/temp/dataset/test2/7_5.odb,Step-1,Increment      1: Step Time =    1.000,"PART-1-1",           526,            1.,      -25.3125,            0.,NA,NA,"",   92.9113E-03,  -88.2123E-03,   29.1734E-03,   9.13111E-03
C:/temp/dataset/test2/7_5.odb,Step-1,Increment      1: Step Time =    1.000,"PART-1-1",           527,            2.,        -26.25,            0.,NA,NA,"",   77.7697E-03,  -62.3076E-03,   46.5391E-03,   15.7522E-03
C:/temp/dataset/test2/7_5.odb,Step-1,Increment      1: Step Time =    1.000,"PART-1-1",           528,           -1.,      -25.3125,            0.,NA,NA,"",   90.7583E-03,  -86.3189E-03,  -28.0379E-03,   8.37898E-03
C:/temp/dataset/test2/7_5.odb,Step-1,Increment      1: Step Time =    1.000,"PART-1-1",           529,            0.,        -26.25,            0.,NA,NA,"",   54.2011E-03,  -54.1966E-03,   698.349E-06,   5.15905E-03
C:/temp/dataset/test2/7_5.odb,Step-1,Increment      1: Step Time =    1.000,"PART-1-1",           530,           -3.,      -25.3125,            0.,NA,NA,"",   131.535E-03,  -97.4105E-03,  -88.3896E-03,   21.0940E-03
C:/temp/dataset/test2/7_5.odb,Step-1,Increment      1: Step Time =    1.000,"PART-1-1",           531,           -2.,        -26.25,            0.,NA,NA,"",   74.6059E-03,  -59.2432E-03,  -45.3463E-03,   14.9506E-03
C:/temp/dataset/test2/7_5.odb,Step-1,Increment      1: Step Time =    1.000,"PART-1-1",           532,           -5.,      -25.3125,            0.,NA,NA,"",   197.728E-03,  -121.244E-03,  -156.193E-03,   34.0908E-03
C:/temp/dataset/test2/7_5.odb,Step-1,Increment      1: Step Time =    1.000,"PART-1-1",           533,           -4.,        -26.25,            0.,NA,NA,"",   124.661E-03,  -77.7859E-03,  -97.4152E-03,   28.3744E-03
C:/temp/dataset/test2/7_5.odb,Step-1,Increment      1: Step Time =    1.000,"PART-1-1",           534,            3.,      -27.1875,            0.,NA,NA,"",   69.0117E-03,  -44.6992E-03,   52.5794E-03,   22.8250E-03
C:/temp/dataset/test2/7_5.odb,Step-1,Increment      1: Step Time =    1.000,"PART-1-1",           535,            4.,       -28.125,            0.,NA,NA,"",   58.4662E-03,  -33.7016E-03,   47.7755E-03,   30.8301E-03
C:/temp/dataset/test2/7_5.odb,Step-1,Increment      1: Step Time =    1.000,"PART-1-1",           536,            5.,      -27.1875,            0.,NA,NA,"",   120.700E-03,  -71.5209E-03,   97.2280E-03,   36.3131E-03
C:/temp/dataset/test2/7_5.odb,Step-1,Increment      1: Step Time =    1.000,"PART-1-1",           537,            1.,      -27.1875,            0.,NA,NA,"",   35.4358E-03,  -31.1034E-03,   16.9786E-03,   9.12862E-03
C:/temp/dataset/test2/7_5.odb,Step-1,Increment      1: Step Time =    1.000,"PART-1-1",           538,            2.,       -28.125,            0.,NA,NA,"",   27.0359E-03,  -16.5256E-03,   21.3973E-03,   16.0552E-03
C:/temp/dataset/test2/7_5.odb,Step-1,Increment      1: Step Time =    1.000,"PART-1-1",           539,           -1.,      -27.1875,            0.,NA,NA,"",   33.7497E-03,  -29.8347E-03,  -15.7775E-03,   8.37557E-03
C:/temp/dataset/test2/7_5.odb,Step-1,Increment      1: Step Time =    1.000,"PART-1-1",           540,            0.,       -28.125,            0.,NA,NA,"",   10.3234E-03,  -10.3155E-03,   402.985E-06,   4.06989E-03
C:/temp/dataset/test2/7_5.odb,Step-1,Increment      1: Step Time =    1.000,"PART-1-1",           541,           -3.,      -27.1875,            0.,NA,NA,"",   66.0728E-03,  -41.2824E-03,  -51.5885E-03,   22.1043E-03
C:/temp/dataset/test2/7_5.odb,Step-1,Increment      1: Step Time =    1.000,"PART-1-1",           542,           -2.,       -28.125,            0.,NA,NA,"",   25.3071E-03,  -14.7359E-03,  -20.5743E-03,   15.2146E-03
C:/temp/dataset/test2/7_5.odb,Step-1,Increment      1: Step Time =    1.000,"PART-1-1",           543,           -5.,      -27.1875,            0.,NA,NA,"",   118.312E-03,  -67.2904E-03,  -97.3125E-03,   36.1838E-03
C:/temp/dataset/test2/7_5.odb,Step-1,Increment      1: Step Time =    1.000,"PART-1-1",           544,           -4.,       -28.125,            0.,NA,NA,"",   56.2228E-03,  -30.7609E-03,  -47.0613E-03,   30.3826E-03
C:/temp/dataset/test2/7_5.odb,Step-1,Increment      1: Step Time =    1.000,"PART-1-1",           545,            3.,      -29.0625,            0.,NA,NA,"",   16.8441E-03,  -6.95097E-03,   15.3430E-03,   20.4690E-03
C:/temp/dataset/test2/7_5.odb,Step-1,Increment      1: Step Time =    1.000,"PART-1-1",           546,            4.,          -30.,            0.,NA,NA,"",            0.,   286.717E-42,   38.2096E-39,   31.0035E-03
C:/temp/dataset/test2/7_5.odb,Step-1,Increment      1: Step Time =    1.000,"PART-1-1",           547,            5.,      -29.0625,            0.,NA,NA,"",   44.7292E-03,  -29.5200E-03,   33.6045E-03,   40.1433E-03
C:/temp/dataset/test2/7_5.odb,Step-1,Increment      1: Step Time =    1.000,"PART-1-1",           548,            1.,      -29.0625,            0.,NA,NA,"",   5.11819E-03,  -1.05983E-03,   5.00726E-03,   6.45044E-03
C:/temp/dataset/test2/7_5.odb,Step-1,Increment      1: Step Time =    1.000,"PART-1-1",           549,            2.,          -30.,            0.,NA,NA,"",            0.,   1.33250E-39,   18.8737E-39,   11.9304E-03
C:/temp/dataset/test2/7_5.odb,Step-1,Increment      1: Step Time =    1.000,"PART-1-1",           550,           -1.,      -29.0625,            0.,NA,NA,"",   4.72209E-03,  -518.200E-06,  -4.69357E-03,   6.01726E-03
C:/temp/dataset/test2/7_5.odb,Step-1,Increment      1: Step Time =    1.000,"PART-1-1",           551,            0.,          -30.,            0.,NA,NA,"",            0.,   2.97734E-39,   43.6841E-42,   3.04093E-03
C:/temp/dataset/test2/7_5.odb,Step-1,Increment      1: Step Time =    1.000,"PART-1-1",           552,           -3.,      -29.0625,            0.,NA,NA,"",   15.9375E-03,  -5.48153E-03,  -14.9651E-03,   19.8446E-03
C:/temp/dataset/test2/7_5.odb,Step-1,Increment      1: Step Time =    1.000,"PART-1-1",           553,           -2.,          -30.,            0.,NA,NA,"",            0.,   1.69150E-39,  -18.7013E-39,   11.7876E-03
C:/temp/dataset/test2/7_5.odb,Step-1,Increment      1: Step Time =    1.000,"PART-1-1",           554,           -5.,      -29.0625,            0.,NA,NA,"",   43.4888E-03,  -28.0953E-03,  -33.1954E-03,   39.4368E-03
C:/temp/dataset/test2/7_5.odb,Step-1,Increment      1: Step Time =    1.000,"PART-1-1",           555,           -4.,          -30.,            0.,NA,NA,"",            0.,   748.596E-42,  -37.6441E-39,   30.1139E-03
