ODB Name,Step,Frame,Part Instance Name,    êﬂì_ÉâÉxÉã,X,Y,Z,Section Name,Material Name,Section Point,   U-Magnitude,          U-U1,          U-U2,       S-Mises
C:/temp/dataset/test2/8_1.odb,Step-1,Increment      1: Step Time =    1.000,"PART-1-1",             1,            5.,           30.,            0.,NA,NA,"",       1.04937,      -1.04518,   93.6807E-03,   1.43591E-09
C:/temp/dataset/test2/8_1.odb,Step-1,Increment      1: Step Time =    1.000,"PART-1-1",             2,            3.,           30.,            0.,NA,NA,"",       1.04608,      -1.04476,   52.6295E-03,   4.31534E-09
C:/temp/dataset/test2/8_1.odb,Step-1,Increment      1: Step Time =    1.000,"PART-1-1",             3,            1.,           30.,            0.,NA,NA,"",       1.04440,      -1.04434,   11.5782E-03,   15.5896E-09
C:/temp/dataset/test2/8_1.odb,Step-1,Increment      1: Step Time =    1.000,"PART-1-1",             4,           -1.,           30.,            0.,NA,NA,"",       1.04433,      -1.04392,  -29.4730E-03,   15.5878E-09
C:/temp/dataset/test2/8_1.odb,Step-1,Increment      1: Step Time =    1.000,"PART-1-1",             5,           -3.,           30.,            0.,NA,NA,"",       1.04587,      -1.04349,  -70.5242E-03,   4.30894E-09
C:/temp/dataset/test2/8_1.odb,Step-1,Increment      1: Step Time =    1.000,"PART-1-1",             6,           -5.,           30.,            0.,NA,NA,"",       1.04902,      -1.04307,  -111.575E-03,   1.43550E-09
C:/temp/dataset/test2/8_1.odb,Step-1,Increment      1: Step Time =    1.000,"PART-1-1",             7,            5.,        28.125,            0.,NA,NA,"",       1.01108,      -1.00669,   94.0757E-03,   4.13743E-09
C:/temp/dataset/test2/8_1.odb,Step-1,Increment      1: Step Time =    1.000,"PART-1-1",             8,            3.,        28.125,            0.,NA,NA,"",       1.00767,      -1.00627,   53.0245E-03,   16.8752E-09
C:/temp/dataset/test2/8_1.odb,Step-1,Increment      1: Step Time =    1.000,"PART-1-1",             9,            1.,        28.125,            0.,NA,NA,"",       1.00592,      -1.00585,   11.9732E-03,   18.2901E-09
C:/temp/dataset/test2/8_1.odb,Step-1,Increment      1: Step Time =    1.000,"PART-1-1",            10,           -1.,        28.125,            0.,NA,NA,"",       1.00585,      -1.00543,  -29.0780E-03,   18.2933E-09
C:/temp/dataset/test2/8_1.odb,Step-1,Increment      1: Step Time =    1.000,"PART-1-1",            11,           -3.,        28.125,            0.,NA,NA,"",       1.00745,      -1.00501,  -70.1292E-03,   16.8801E-09
C:/temp/dataset/test2/8_1.odb,Step-1,Increment      1: Step Time =    1.000,"PART-1-1",            12,           -5.,        28.125,            0.,NA,NA,"",       1.01072,      -1.00459,  -111.180E-03,   4.14779E-09
C:/temp/dataset/test2/8_1.odb,Step-1,Increment      1: Step Time =    1.000,"PART-1-1",            13,            5.,         26.25,            0.,NA,NA,"",   972.806E-03,  -968.208E-03,   94.4707E-03,   24.6985E-09
C:/temp/dataset/test2/8_1.odb,Step-1,Increment      1: Step Time =    1.000,"PART-1-1",            14,            3.,         26.25,            0.,NA,NA,"",   969.260E-03,  -967.787E-03,   53.4195E-03,   35.0519E-09
C:/temp/dataset/test2/8_1.odb,Step-1,Increment      1: Step Time =    1.000,"PART-1-1",            15,            1.,         26.25,            0.,NA,NA,"",   967.445E-03,  -967.366E-03,   12.3682E-03,   36.0514E-09
C:/temp/dataset/test2/8_1.odb,Step-1,Increment      1: Step Time =    1.000,"PART-1-1",            16,           -1.,         26.25,            0.,NA,NA,"",   967.370E-03,  -966.944E-03,  -28.6830E-03,   36.0477E-09
C:/temp/dataset/test2/8_1.odb,Step-1,Increment      1: Step Time =    1.000,"PART-1-1",            17,           -3.,         26.25,            0.,NA,NA,"",   969.035E-03,  -966.523E-03,  -69.7341E-03,   35.0438E-09
C:/temp/dataset/test2/8_1.odb,Step-1,Increment      1: Step Time =    1.000,"PART-1-1",            18,           -5.,         26.25,            0.,NA,NA,"",   972.433E-03,  -966.102E-03,  -110.785E-03,   24.7128E-09
C:/temp/dataset/test2/8_1.odb,Step-1,Increment      1: Step Time =    1.000,"PART-1-1",            19,            5.,        24.375,            0.,NA,NA,"",   934.550E-03,  -929.723E-03,   94.8658E-03,   67.0304E-09
C:/temp/dataset/test2/8_1.odb,Step-1,Increment      1: Step Time =    1.000,"PART-1-1",            20,            3.,        24.375,            0.,NA,NA,"",   930.858E-03,  -929.302E-03,   53.8145E-03,   60.1594E-09
C:/temp/dataset/test2/8_1.odb,Step-1,Increment      1: Step Time =    1.000,"PART-1-1",            21,            1.,        24.375,            0.,NA,NA,"",   928.968E-03,  -928.880E-03,   12.7632E-03,   61.5048E-09
C:/temp/dataset/test2/8_1.odb,Step-1,Increment      1: Step Time =    1.000,"PART-1-1",            22,           -1.,        24.375,            0.,NA,NA,"",   928.890E-03,  -928.459E-03,  -28.2880E-03,   61.4611E-09
C:/temp/dataset/test2/8_1.odb,Step-1,Increment      1: Step Time =    1.000,"PART-1-1",            23,           -3.,        24.375,            0.,NA,NA,"",   930.624E-03,  -928.037E-03,  -69.3391E-03,   60.0682E-09
C:/temp/dataset/test2/8_1.odb,Step-1,Increment      1: Step Time =    1.000,"PART-1-1",            24,           -5.,        24.375,            0.,NA,NA,"",   934.161E-03,  -927.616E-03,  -110.390E-03,   67.0131E-09
C:/temp/dataset/test2/8_1.odb,Step-1,Increment      1: Step Time =    1.000,"PART-1-1",            25,            5.,          22.5,            0.,NA,NA,"",   896.314E-03,  -891.237E-03,   95.2610E-03,   138.510E-09
C:/temp/dataset/test2/8_1.odb,Step-1,Increment      1: Step Time =    1.000,"PART-1-1",            26,            3.,          22.5,            0.,NA,NA,"",   892.464E-03,  -890.816E-03,   54.2095E-03,   77.5121E-09
C:/temp/dataset/test2/8_1.odb,Step-1,Increment      1: Step Time =    1.000,"PART-1-1",            27,            1.,          22.5,            0.,NA,NA,"",   890.492E-03,  -890.395E-03,   13.1581E-03,   76.9703E-09
C:/temp/dataset/test2/8_1.odb,Step-1,Increment      1: Step Time =    1.000,"PART-1-1",            28,           -1.,          22.5,            0.,NA,NA,"",   890.410E-03,  -889.973E-03,  -27.8931E-03,   76.7734E-09
C:/temp/dataset/test2/8_1.odb,Step-1,Increment      1: Step Time =    1.000,"PART-1-1",            29,           -3.,          22.5,            0.,NA,NA,"",   892.220E-03,  -889.552E-03,  -68.9441E-03,   77.0855E-09
C:/temp/dataset/test2/8_1.odb,Step-1,Increment      1: Step Time =    1.000,"PART-1-1",            30,           -5.,          22.5,            0.,NA,NA,"",   895.909E-03,  -889.131E-03,  -109.995E-03,   138.218E-09
C:/temp/dataset/test2/8_1.odb,Step-1,Increment      1: Step Time =    1.000,"PART-1-1",            31,            5.,        20.625,            0.,NA,NA,"",   858.100E-03,  -852.752E-03,   95.6563E-03,   226.046E-09
C:/temp/dataset/test2/8_1.odb,Step-1,Increment      1: Step Time =    1.000,"PART-1-1",            32,            3.,        20.625,            0.,NA,NA,"",   854.078E-03,  -852.330E-03,   54.6045E-03,   44.6816E-09
C:/temp/dataset/test2/8_1.odb,Step-1,Increment      1: Step Time =    1.000,"PART-1-1",            33,            1.,        20.625,            0.,NA,NA,"",   852.017E-03,  -851.909E-03,   13.5530E-03,   110.345E-09
C:/temp/dataset/test2/8_1.odb,Step-1,Increment      1: Step Time =    1.000,"PART-1-1",            34,           -1.,        20.625,            0.,NA,NA,"",   851.932E-03,  -851.488E-03,  -27.4982E-03,   110.162E-09
C:/temp/dataset/test2/8_1.odb,Step-1,Increment      1: Step Time =    1.000,"PART-1-1",            35,           -3.,        20.625,            0.,NA,NA,"",   853.823E-03,  -851.067E-03,  -68.5491E-03,   44.1943E-09
C:/temp/dataset/test2/8_1.odb,Step-1,Increment      1: Step Time =    1.000,"PART-1-1",            36,           -5.,        20.625,            0.,NA,NA,"",   857.677E-03,  -850.645E-03,  -109.600E-03,   224.481E-09
C:/temp/dataset/test2/8_1.odb,Step-1,Increment      1: Step Time =    1.000,"PART-1-1",            37,            5.,         18.75,            0.,NA,NA,"",   819.911E-03,  -814.265E-03,   96.0518E-03,   235.092E-09
C:/temp/dataset/test2/8_1.odb,Step-1,Increment      1: Step Time =    1.000,"PART-1-1",            38,            3.,         18.75,            0.,NA,NA,"",   815.700E-03,  -813.844E-03,   54.9996E-03,   303.586E-09
C:/temp/dataset/test2/8_1.odb,Step-1,Increment      1: Step Time =    1.000,"PART-1-1",            39,            1.,         18.75,            0.,NA,NA,"",   813.543E-03,  -813.423E-03,   13.9482E-03,   505.286E-09
C:/temp/dataset/test2/8_1.odb,Step-1,Increment      1: Step Time =    1.000,"PART-1-1",            40,           -1.,         18.75,            0.,NA,NA,"",   813.454E-03,  -813.003E-03,  -27.1030E-03,   505.311E-09
C:/temp/dataset/test2/8_1.odb,Step-1,Increment      1: Step Time =    1.000,"PART-1-1",            41,           -3.,         18.75,            0.,NA,NA,"",   815.435E-03,  -812.582E-03,  -68.1541E-03,   306.879E-09
C:/temp/dataset/test2/8_1.odb,Step-1,Increment      1: Step Time =    1.000,"PART-1-1",            42,           -5.,         18.75,            0.,NA,NA,"",   819.470E-03,  -812.161E-03,  -109.204E-03,   229.125E-09
C:/temp/dataset/test2/8_1.odb,Step-1,Increment      1: Step Time =    1.000,"PART-1-1",            43,            5.,        16.875,            0.,NA,NA,"",   781.750E-03,  -775.778E-03,   96.4471E-03,   186.556E-09
C:/temp/dataset/test2/8_1.odb,Step-1,Increment      1: Step Time =    1.000,"PART-1-1",            44,            3.,        16.875,            0.,NA,NA,"",   777.333E-03,  -775.356E-03,   55.3946E-03,   1.27494E-06
C:/temp/dataset/test2/8_1.odb,Step-1,Increment      1: Step Time =    1.000,"PART-1-1",            45,            1.,        16.875,            0.,NA,NA,"",   775.069E-03,  -774.937E-03,   14.3443E-03,   1.70974E-06
C:/temp/dataset/test2/8_1.odb,Step-1,Increment      1: Step Time =    1.000,"PART-1-1",            46,           -1.,        16.875,            0.,NA,NA,"",   774.979E-03,  -774.518E-03,  -26.7070E-03,   1.70429E-06
C:/temp/dataset/test2/8_1.odb,Step-1,Increment      1: Step Time =    1.000,"PART-1-1",            47,           -3.,        16.875,            0.,NA,NA,"",   777.059E-03,  -774.099E-03,  -67.7591E-03,   1.27462E-06
C:/temp/dataset/test2/8_1.odb,Step-1,Increment      1: Step Time =    1.000,"PART-1-1",            48,           -5.,        16.875,            0.,NA,NA,"",   781.291E-03,  -773.677E-03,  -108.809E-03,   200.357E-09
C:/temp/dataset/test2/8_1.odb,Step-1,Increment      1: Step Time =    1.000,"PART-1-1",            49,            5.,           15.,            0.,NA,NA,"",   743.621E-03,  -737.288E-03,   96.8409E-03,   1.80719E-06
C:/temp/dataset/test2/8_1.odb,Step-1,Increment      1: Step Time =    1.000,"PART-1-1",            50,            3.,           15.,            0.,NA,NA,"",   738.975E-03,  -736.866E-03,   55.7896E-03,   3.70001E-06
C:/temp/dataset/test2/8_1.odb,Step-1,Increment      1: Step Time =    1.000,"PART-1-1",            51,            1.,           15.,            0.,NA,NA,"",   736.597E-03,  -736.449E-03,   14.7426E-03,   4.52321E-06
C:/temp/dataset/test2/8_1.odb,Step-1,Increment      1: Step Time =    1.000,"PART-1-1",            52,           -1.,           15.,            0.,NA,NA,"",   736.505E-03,  -736.035E-03,  -26.3088E-03,   4.48600E-06
C:/temp/dataset/test2/8_1.odb,Step-1,Increment      1: Step Time =    1.000,"PART-1-1",            53,           -3.,           15.,            0.,NA,NA,"",   738.696E-03,  -735.618E-03,  -67.3643E-03,   3.64057E-06
C:/temp/dataset/test2/8_1.odb,Step-1,Increment      1: Step Time =    1.000,"PART-1-1",            54,           -5.,           15.,            0.,NA,NA,"",   743.147E-03,  -735.196E-03,  -108.415E-03,   1.81567E-06
C:/temp/dataset/test2/8_1.odb,Step-1,Increment      1: Step Time =    1.000,"PART-1-1",            55,            5.,        13.125,            0.,NA,NA,"",   705.528E-03,  -698.796E-03,   97.2302E-03,   6.46965E-06
C:/temp/dataset/test2/8_1.odb,Step-1,Increment      1: Step Time =    1.000,"PART-1-1",            56,            3.,        13.125,            0.,NA,NA,"",   700.629E-03,  -698.372E-03,   56.1846E-03,   8.81222E-06
C:/temp/dataset/test2/8_1.odb,Step-1,Increment      1: Step Time =    1.000,"PART-1-1",            57,            1.,        13.125,            0.,NA,NA,"",   698.125E-03,  -697.960E-03,   15.1462E-03,   10.0549E-06
C:/temp/dataset/test2/8_1.odb,Step-1,Increment      1: Step Time =    1.000,"PART-1-1",            58,           -1.,        13.125,            0.,NA,NA,"",   698.034E-03,  -697.554E-03,  -25.9058E-03,   9.83184E-06
C:/temp/dataset/test2/8_1.odb,Step-1,Increment      1: Step Time =    1.000,"PART-1-1",            59,           -3.,        13.125,            0.,NA,NA,"",   700.349E-03,  -697.140E-03,  -66.9699E-03,   8.37212E-06
C:/temp/dataset/test2/8_1.odb,Step-1,Increment      1: Step Time =    1.000,"PART-1-1",            60,           -5.,        13.125,            0.,NA,NA,"",   705.041E-03,  -696.716E-03,  -108.026E-03,   6.33620E-06
C:/temp/dataset/test2/8_1.odb,Step-1,Increment      1: Step Time =    1.000,"PART-1-1",            61,            5.,         11.25,            0.,NA,NA,"",   667.479E-03,  -660.304E-03,   97.6062E-03,   17.8917E-06
C:/temp/dataset/test2/8_1.odb,Step-1,Increment      1: Step Time =    1.000,"PART-1-1",            62,            3.,         11.25,            0.,NA,NA,"",   662.298E-03,  -659.877E-03,   56.5795E-03,   17.6964E-06
C:/temp/dataset/test2/8_1.odb,Step-1,Increment      1: Step Time =    1.000,"PART-1-1",            63,            1.,         11.25,            0.,NA,NA,"",   659.656E-03,  -659.472E-03,   15.5593E-03,   18.7464E-06
C:/temp/dataset/test2/8_1.odb,Step-1,Increment      1: Step Time =    1.000,"PART-1-1",            64,           -1.,         11.25,            0.,NA,NA,"",   659.567E-03,  -659.074E-03,  -25.4945E-03,   17.8488E-06
C:/temp/dataset/test2/8_1.odb,Step-1,Increment      1: Step Time =    1.000,"PART-1-1",            65,           -3.,         11.25,            0.,NA,NA,"",   662.020E-03,  -658.664E-03,  -66.5765E-03,   15.7623E-06
C:/temp/dataset/test2/8_1.odb,Step-1,Increment      1: Step Time =    1.000,"PART-1-1",            66,           -5.,         11.25,            0.,NA,NA,"",   666.980E-03,  -658.235E-03,  -107.649E-03,   16.3871E-06
C:/temp/dataset/test2/8_1.odb,Step-1,Increment      1: Step Time =    1.000,"PART-1-1",            67,            5.,         9.375,            0.,NA,NA,"",   629.492E-03,  -621.824E-03,   97.9560E-03,   40.8491E-06
C:/temp/dataset/test2/8_1.odb,Step-1,Increment      1: Step Time =    1.000,"PART-1-1",            68,            3.,         9.375,            0.,NA,NA,"",   623.996E-03,  -621.390E-03,   56.9765E-03,   29.8469E-06
C:/temp/dataset/test2/8_1.odb,Step-1,Increment      1: Step Time =    1.000,"PART-1-1",            69,            1.,         9.375,            0.,NA,NA,"",   621.196E-03,  -620.990E-03,   15.9862E-03,   27.8918E-06
C:/temp/dataset/test2/8_1.odb,Step-1,Increment      1: Step Time =    1.000,"PART-1-1",            70,           -1.,         9.375,            0.,NA,NA,"",   621.098E-03,  -620.592E-03,  -25.0735E-03,   24.8626E-06
C:/temp/dataset/test2/8_1.odb,Step-1,Increment      1: Step Time =    1.000,"PART-1-1",            71,           -3.,         9.375,            0.,NA,NA,"",   623.700E-03,  -620.178E-03,  -66.1853E-03,   22.4354E-06
C:/temp/dataset/test2/8_1.odb,Step-1,Increment      1: Step Time =    1.000,"PART-1-1",            72,           -5.,         9.375,            0.,NA,NA,"",   628.959E-03,  -619.740E-03,  -107.295E-03,   34.0343E-06
C:/temp/dataset/test2/8_1.odb,Step-1,Increment      1: Step Time =    1.000,"PART-1-1",            73,            5.,           7.5,            0.,NA,NA,"",   591.620E-03,  -583.407E-03,   98.2388E-03,   87.2629E-06
C:/temp/dataset/test2/8_1.odb,Step-1,Increment      1: Step Time =    1.000,"PART-1-1",            74,            3.,           7.5,            0.,NA,NA,"",   585.772E-03,  -582.955E-03,   57.3756E-03,   29.2268E-06
C:/temp/dataset/test2/8_1.odb,Step-1,Increment      1: Step Time =    1.000,"PART-1-1",            75,            1.,           7.5,            0.,NA,NA,"",   582.763E-03,  -582.532E-03,   16.4194E-03,   32.9591E-06
C:/temp/dataset/test2/8_1.odb,Step-1,Increment      1: Step Time =    1.000,"PART-1-1",            76,           -1.,           7.5,            0.,NA,NA,"",   582.611E-03,  -582.089E-03,  -24.6527E-03,   24.0919E-06
C:/temp/dataset/test2/8_1.odb,Step-1,Increment      1: Step Time =    1.000,"PART-1-1",            77,           -3.,           7.5,            0.,NA,NA,"",   585.359E-03,  -581.649E-03,  -65.7983E-03,   17.1601E-06
C:/temp/dataset/test2/8_1.odb,Step-1,Increment      1: Step Time =    1.000,"PART-1-1",            78,           -5.,           7.5,            0.,NA,NA,"",   590.959E-03,  -581.196E-03,  -106.975E-03,   55.7895E-06
C:/temp/dataset/test2/8_1.odb,Step-1,Increment      1: Step Time =    1.000,"PART-1-1",            79,            5.,         5.625,            0.,NA,NA,"",   554.006E-03,  -545.188E-03,   98.4512E-03,   198.107E-06
C:/temp/dataset/test2/8_1.odb,Step-1,Increment      1: Step Time =    1.000,"PART-1-1",            80,            3.,         5.625,            0.,NA,NA,"",   547.731E-03,  -544.674E-03,   57.7945E-03,   125.270E-06
C:/temp/dataset/test2/8_1.odb,Step-1,Increment      1: Step Time =    1.000,"PART-1-1",            81,            1.,         5.625,            0.,NA,NA,"",   544.367E-03,  -544.108E-03,   16.8034E-03,   118.940E-06
C:/temp/dataset/test2/8_1.odb,Step-1,Increment      1: Step Time =    1.000,"PART-1-1",            82,           -1.,         5.625,            0.,NA,NA,"",   544.049E-03,  -543.508E-03,  -24.2657E-03,   85.6491E-06
C:/temp/dataset/test2/8_1.odb,Step-1,Increment      1: Step Time =    1.000,"PART-1-1",            83,           -3.,         5.625,            0.,NA,NA,"",   546.928E-03,  -543.002E-03,  -65.4133E-03,   38.8611E-06
C:/temp/dataset/test2/8_1.odb,Step-1,Increment      1: Step Time =    1.000,"PART-1-1",            84,           -5.,         5.625,            0.,NA,NA,"",   552.930E-03,  -542.540E-03,  -106.686E-03,   62.9647E-06
C:/temp/dataset/test2/8_1.odb,Step-1,Increment      1: Step Time =    1.000,"PART-1-1",            85,            5.,          3.75,            0.,NA,NA,"",   517.426E-03,  -507.979E-03,   98.4262E-03,   542.552E-06
C:/temp/dataset/test2/8_1.odb,Step-1,Increment      1: Step Time =    1.000,"PART-1-1",            86,            3.,          3.75,            0.,NA,NA,"",   510.066E-03,  -506.760E-03,   57.9834E-03,   581.249E-06
C:/temp/dataset/test2/8_1.odb,Step-1,Increment      1: Step Time =    1.000,"PART-1-1",            87,            1.,          3.75,            0.,NA,NA,"",   505.871E-03,  -505.586E-03,   16.9791E-03,   376.504E-06
C:/temp/dataset/test2/8_1.odb,Step-1,Increment      1: Step Time =    1.000,"PART-1-1",            88,           -1.,          3.75,            0.,NA,NA,"",   505.276E-03,  -504.708E-03,  -23.9593E-03,   261.792E-06
C:/temp/dataset/test2/8_1.odb,Step-1,Increment      1: Step Time =    1.000,"PART-1-1",            89,           -3.,          3.75,            0.,NA,NA,"",   508.299E-03,  -504.125E-03,  -65.0060E-03,   156.946E-06
C:/temp/dataset/test2/8_1.odb,Step-1,Increment      1: Step Time =    1.000,"PART-1-1",            90,           -5.,          3.75,            0.,NA,NA,"",   514.797E-03,  -503.687E-03,  -106.373E-03,   17.1872E-06
C:/temp/dataset/test2/8_1.odb,Step-1,Increment      1: Step Time =    1.000,"PART-1-1",            91,            5.,         1.875,            0.,NA,NA,"",   480.508E-03,  -470.201E-03,   98.9922E-03,   1.06675E-03
C:/temp/dataset/test2/8_1.odb,Step-1,Increment      1: Step Time =    1.000,"PART-1-1",            92,            3.,         1.875,            0.,NA,NA,"",   471.762E-03,  -468.229E-03,   57.6272E-03,   1.07985E-03
C:/temp/dataset/test2/8_1.odb,Step-1,Increment      1: Step Time =    1.000,"PART-1-1",            93,            1.,         1.875,            0.,NA,NA,"",   466.836E-03,  -466.531E-03,   16.8625E-03,   723.697E-06
C:/temp/dataset/test2/8_1.odb,Step-1,Increment      1: Step Time =    1.000,"PART-1-1",            94,           -1.,         1.875,            0.,NA,NA,"",   466.102E-03,  -465.498E-03,  -23.7143E-03,   520.896E-06
C:/temp/dataset/test2/8_1.odb,Step-1,Increment      1: Step Time =    1.000,"PART-1-1",            95,           -3.,         1.875,            0.,NA,NA,"",   469.377E-03,  -464.923E-03,  -64.5030E-03,   347.453E-06
C:/temp/dataset/test2/8_1.odb,Step-1,Increment      1: Step Time =    1.000,"PART-1-1",            96,           -5.,         1.875,            0.,NA,NA,"",   476.504E-03,  -464.587E-03,  -105.903E-03,   134.408E-06
C:/temp/dataset/test2/8_1.odb,Step-1,Increment      1: Step Time =    1.000,"PART-1-1",            97,            5.,            0.,            0.,NA,NA,"",   440.901E-03,  -429.582E-03,   99.2617E-03,   741.078E-06
C:/temp/dataset/test2/8_1.odb,Step-1,Increment      1: Step Time =    1.000,"PART-1-1",            98,            3.,            0.,            0.,NA,NA,"",   431.815E-03,  -428.024E-03,   57.0923E-03,   1.15682E-03
C:/temp/dataset/test2/8_1.odb,Step-1,Increment      1: Step Time =    1.000,"PART-1-1",            99,            1.,            0.,            0.,NA,NA,"",   427.037E-03,  -426.711E-03,   16.6905E-03,   975.727E-06
C:/temp/dataset/test2/8_1.odb,Step-1,Increment      1: Step Time =    1.000,"PART-1-1",           100,           -1.,            0.,            0.,NA,NA,"",   426.493E-03,  -425.851E-03,  -23.3893E-03,   771.910E-06
C:/temp/dataset/test2/8_1.odb,Step-1,Increment      1: Step Time =    1.000,"PART-1-1",           101,           -3.,            0.,            0.,NA,NA,"",   430.188E-03,  -425.433E-03,  -63.7810E-03,   573.714E-06
C:/temp/dataset/test2/8_1.odb,Step-1,Increment      1: Step Time =    1.000,"PART-1-1",           102,           -5.,            0.,            0.,NA,NA,"",   438.087E-03,  -425.300E-03,  -105.074E-03,   406.564E-06
C:/temp/dataset/test2/8_1.odb,Step-1,Increment      1: Step Time =    1.000,"PART-1-1",           103,            5.,        -1.875,            0.,NA,NA,"",   400.849E-03,  -388.622E-03,   98.2478E-03,   983.932E-06
C:/temp/dataset/test2/8_1.odb,Step-1,Increment      1: Step Time =    1.000,"PART-1-1",           104,            3.,        -1.875,            0.,NA,NA,"",   391.609E-03,  -387.483E-03,   56.6956E-03,   856.383E-06
C:/temp/dataset/test2/8_1.odb,Step-1,Increment      1: Step Time =    1.000,"PART-1-1",           105,            1.,        -1.875,            0.,NA,NA,"",   386.994E-03,  -386.634E-03,   16.6845E-03,   1.02265E-03
C:/temp/dataset/test2/8_1.odb,Step-1,Increment      1: Step Time =    1.000,"PART-1-1",           106,           -1.,        -1.875,            0.,NA,NA,"",   386.741E-03,  -386.065E-03,  -22.8498E-03,   934.225E-06
C:/temp/dataset/test2/8_1.odb,Step-1,Increment      1: Step Time =    1.000,"PART-1-1",           107,           -3.,        -1.875,            0.,NA,NA,"",   390.953E-03,  -385.889E-03,  -62.7208E-03,   796.206E-06
C:/temp/dataset/test2/8_1.odb,Step-1,Increment      1: Step Time =    1.000,"PART-1-1",           108,           -5.,        -1.875,            0.,NA,NA,"",   399.721E-03,  -386.039E-03,  -103.688E-03,   780.512E-06
C:/temp/dataset/test2/8_1.odb,Step-1,Increment      1: Step Time =    1.000,"PART-1-1",           109,            5.,         -3.75,            0.,NA,NA,"",   362.345E-03,  -349.201E-03,   96.7072E-03,   1.35019E-03
C:/temp/dataset/test2/8_1.odb,Step-1,Increment      1: Step Time =    1.000,"PART-1-1",           110,            3.,         -3.75,            0.,NA,NA,"",   352.334E-03,  -347.843E-03,   56.0755E-03,   972.489E-06
C:/temp/dataset/test2/8_1.odb,Step-1,Increment      1: Step Time =    1.000,"PART-1-1",           111,            1.,         -3.75,            0.,NA,NA,"",   347.401E-03,  -346.998E-03,   16.7371E-03,   995.895E-06
C:/temp/dataset/test2/8_1.odb,Step-1,Increment      1: Step Time =    1.000,"PART-1-1",           112,           -1.,         -3.75,            0.,NA,NA,"",   347.303E-03,  -346.599E-03,  -22.0904E-03,   1.00722E-03
C:/temp/dataset/test2/8_1.odb,Step-1,Increment      1: Step Time =    1.000,"PART-1-1",           113,           -3.,         -3.75,            0.,NA,NA,"",   352.024E-03,  -346.653E-03,  -61.2587E-03,   1.00466E-03
C:/temp/dataset/test2/8_1.odb,Step-1,Increment      1: Step Time =    1.000,"PART-1-1",           114,           -5.,         -3.75,            0.,NA,NA,"",   361.695E-03,  -347.126E-03,  -101.619E-03,   1.20914E-03
C:/temp/dataset/test2/8_1.odb,Step-1,Increment      1: Step Time =    1.000,"PART-1-1",           115,            5.,        -5.625,            0.,NA,NA,"",   324.818E-03,  -310.767E-03,   94.5012E-03,   1.72884E-03
C:/temp/dataset/test2/8_1.odb,Step-1,Increment      1: Step Time =    1.000,"PART-1-1",           116,            3.,        -5.625,            0.,NA,NA,"",   314.001E-03,  -309.149E-03,   54.9858E-03,   1.18572E-03
C:/temp/dataset/test2/8_1.odb,Step-1,Increment      1: Step Time =    1.000,"PART-1-1",           117,            1.,        -5.625,            0.,NA,NA,"",   308.645E-03,  -308.194E-03,   16.6781E-03,   1.00415E-03
C:/temp/dataset/test2/8_1.odb,Step-1,Increment      1: Step Time =    1.000,"PART-1-1",           118,           -1.,        -5.625,            0.,NA,NA,"",   308.585E-03,  -307.858E-03,  -21.1691E-03,   1.03883E-03
C:/temp/dataset/test2/8_1.odb,Step-1,Increment      1: Step Time =    1.000,"PART-1-1",           119,           -3.,        -5.625,            0.,NA,NA,"",   313.777E-03,  -308.107E-03,  -59.3806E-03,   1.21168E-03
C:/temp/dataset/test2/8_1.odb,Step-1,Increment      1: Step Time =    1.000,"PART-1-1",           120,           -5.,        -5.625,            0.,NA,NA,"",   324.336E-03,  -308.915E-03,  -98.8202E-03,   1.65240E-03
C:/temp/dataset/test2/8_1.odb,Step-1,Increment      1: Step Time =    1.000,"PART-1-1",           121,            5.,          -7.5,            0.,NA,NA,"",   288.395E-03,  -273.452E-03,   91.6273E-03,   2.12809E-03
C:/temp/dataset/test2/8_1.odb,Step-1,Increment      1: Step Time =    1.000,"PART-1-1",           122,            3.,          -7.5,            0.,NA,NA,"",   276.773E-03,  -271.564E-03,   53.4432E-03,   1.41585E-03
C:/temp/dataset/test2/8_1.odb,Step-1,Increment      1: Step Time =    1.000,"PART-1-1",           123,            1.,          -7.5,            0.,NA,NA,"",   270.977E-03,  -270.478E-03,   16.4471E-03,   1.03733E-03
C:/temp/dataset/test2/8_1.odb,Step-1,Increment      1: Step Time =    1.000,"PART-1-1",           124,           -1.,          -7.5,            0.,NA,NA,"",   270.912E-03,  -270.164E-03,  -20.1271E-03,   1.06342E-03
C:/temp/dataset/test2/8_1.odb,Step-1,Increment      1: Step Time =    1.000,"PART-1-1",           125,           -3.,          -7.5,            0.,NA,NA,"",   276.547E-03,  -270.590E-03,  -57.0925E-03,   1.42728E-03
C:/temp/dataset/test2/8_1.odb,Step-1,Increment      1: Step Time =    1.000,"PART-1-1",           126,           -5.,          -7.5,            0.,NA,NA,"",   287.960E-03,  -271.734E-03,  -95.2964E-03,   2.09155E-03
C:/temp/dataset/test2/8_1.odb,Step-1,Increment      1: Step Time =    1.000,"PART-1-1",           127,            5.,        -9.375,            0.,NA,NA,"",   253.267E-03,  -237.472E-03,   88.0420E-03,   2.53897E-03
C:/temp/dataset/test2/8_1.odb,Step-1,Increment      1: Step Time =    1.000,"PART-1-1",           128,            3.,        -9.375,            0.,NA,NA,"",   240.873E-03,  -235.315E-03,   51.4447E-03,   1.65025E-03
C:/temp/dataset/test2/8_1.odb,Step-1,Increment      1: Step Time =    1.000,"PART-1-1",           129,            1.,        -9.375,            0.,NA,NA,"",   234.646E-03,  -234.097E-03,   16.0325E-03,   1.07977E-03
C:/temp/dataset/test2/8_1.odb,Step-1,Increment      1: Step Time =    1.000,"PART-1-1",           130,           -1.,        -9.375,            0.,NA,NA,"",   234.570E-03,  -233.801E-03,  -18.9801E-03,   1.09322E-03
C:/temp/dataset/test2/8_1.odb,Step-1,Increment      1: Step Time =    1.000,"PART-1-1",           131,           -3.,        -9.375,            0.,NA,NA,"",   240.631E-03,  -234.401E-03,  -54.4025E-03,   1.65267E-03
C:/temp/dataset/test2/8_1.odb,Step-1,Increment      1: Step Time =    1.000,"PART-1-1",           132,           -5.,        -9.375,            0.,NA,NA,"",   252.850E-03,  -235.882E-03,  -91.0649E-03,   2.52309E-03
C:/temp/dataset/test2/8_1.odb,Step-1,Increment      1: Step Time =    1.000,"PART-1-1",           133,            5.,        -11.25,            0.,NA,NA,"",   219.666E-03,  -203.083E-03,   83.7289E-03,   2.95654E-03
C:/temp/dataset/test2/8_1.odb,Step-1,Increment      1: Step Time =    1.000,"PART-1-1",           134,            3.,        -11.25,            0.,NA,NA,"",   206.551E-03,  -200.657E-03,   48.9888E-03,   1.88825E-03
C:/temp/dataset/test2/8_1.odb,Step-1,Increment      1: Step Time =    1.000,"PART-1-1",           135,            1.,        -11.25,            0.,NA,NA,"",   199.910E-03,  -199.313E-03,   15.4347E-03,   1.12612E-03
C:/temp/dataset/test2/8_1.odb,Step-1,Increment      1: Step Time =    1.000,"PART-1-1",           136,           -1.,        -11.25,            0.,NA,NA,"",   199.827E-03,  -199.039E-03,  -17.7309E-03,   1.13027E-03
C:/temp/dataset/test2/8_1.odb,Step-1,Increment      1: Step Time =    1.000,"PART-1-1",           137,           -3.,        -11.25,            0.,NA,NA,"",   206.301E-03,  -199.817E-03,  -51.3165E-03,   1.88563E-03
C:/temp/dataset/test2/8_1.odb,Step-1,Increment      1: Step Time =    1.000,"PART-1-1",           138,           -5.,        -11.25,            0.,NA,NA,"",   219.265E-03,  -201.635E-03,  -86.1416E-03,   2.94909E-03
C:/temp/dataset/test2/8_1.odb,Step-1,Increment      1: Step Time =    1.000,"PART-1-1",           139,            5.,       -13.125,            0.,NA,NA,"",   187.821E-03,  -170.549E-03,   78.6759E-03,   3.37719E-03
C:/temp/dataset/test2/8_1.odb,Step-1,Increment      1: Step Time =    1.000,"PART-1-1",           140,            3.,       -13.125,            0.,NA,NA,"",   174.065E-03,  -167.857E-03,   46.0719E-03,   2.12918E-03
C:/temp/dataset/test2/8_1.odb,Step-1,Increment      1: Step Time =    1.000,"PART-1-1",           141,            1.,       -13.125,            0.,NA,NA,"",   167.036E-03,  -166.392E-03,   14.6544E-03,   1.17533E-03
C:/temp/dataset/test2/8_1.odb,Step-1,Increment      1: Step Time =    1.000,"PART-1-1",           142,           -1.,       -13.125,            0.,NA,NA,"",   166.950E-03,  -166.145E-03,  -16.3796E-03,   1.17377E-03
C:/temp/dataset/test2/8_1.odb,Step-1,Increment      1: Step Time =    1.000,"PART-1-1",           143,           -3.,       -13.125,            0.,NA,NA,"",   173.818E-03,  -167.105E-03,  -47.8386E-03,   2.12357E-03
C:/temp/dataset/test2/8_1.odb,Step-1,Increment      1: Step Time =    1.000,"PART-1-1",           144,           -5.,       -13.125,            0.,NA,NA,"",   187.446E-03,  -169.263E-03,  -80.5368E-03,   3.37218E-03
C:/temp/dataset/test2/8_1.odb,Step-1,Increment      1: Step Time =    1.000,"PART-1-1",           145,            5.,          -15.,            0.,NA,NA,"",   157.957E-03,  -140.141E-03,   72.8773E-03,   3.79912E-03
C:/temp/dataset/test2/8_1.odb,Step-1,Increment      1: Step Time =    1.000,"PART-1-1",           146,            3.,          -15.,            0.,NA,NA,"",   143.673E-03,  -137.184E-03,   42.6913E-03,   2.37258E-03
C:/temp/dataset/test2/8_1.odb,Step-1,Increment      1: Step Time =    1.000,"PART-1-1",           147,            1.,          -15.,            0.,NA,NA,"",   136.290E-03,  -135.600E-03,   13.6917E-03,   1.22754E-03
C:/temp/dataset/test2/8_1.odb,Step-1,Increment      1: Step Time =    1.000,"PART-1-1",           148,           -1.,          -15.,            0.,NA,NA,"",   136.205E-03,  -135.384E-03,  -14.9265E-03,   1.22241E-03
C:/temp/dataset/test2/8_1.odb,Step-1,Increment      1: Step Time =    1.000,"PART-1-1",           149,           -3.,          -15.,            0.,NA,NA,"",   143.435E-03,  -136.529E-03,  -43.9716E-03,   2.36473E-03
C:/temp/dataset/test2/8_1.odb,Step-1,Increment      1: Step Time =    1.000,"PART-1-1",           150,           -5.,          -15.,            0.,NA,NA,"",   157.616E-03,  -139.028E-03,  -74.2562E-03,   3.79402E-03
C:/temp/dataset/test2/8_1.odb,Step-1,Increment      1: Step Time =    1.000,"PART-1-1",           151,            5.,       -16.875,            0.,NA,NA,"",   130.278E-03,  -112.128E-03,   66.3300E-03,   4.22153E-03
C:/temp/dataset/test2/8_1.odb,Step-1,Increment      1: Step Time =    1.000,"PART-1-1",           152,            3.,       -16.875,            0.,NA,NA,"",   115.627E-03,  -108.906E-03,   38.8451E-03,   2.61792E-03
C:/temp/dataset/test2/8_1.odb,Step-1,Increment      1: Step Time =    1.000,"PART-1-1",           153,            1.,       -16.875,            0.,NA,NA,"",   107.937E-03,  -107.205E-03,   12.5461E-03,   1.28295E-03
C:/temp/dataset/test2/8_1.odb,Step-1,Increment      1: Step Time =    1.000,"PART-1-1",           154,           -1.,       -16.875,            0.,NA,NA,"",   107.854E-03,  -107.022E-03,  -13.3718E-03,   1.27512E-03
C:/temp/dataset/test2/8_1.odb,Step-1,Increment      1: Step Time =    1.000,"PART-1-1",           155,           -3.,       -16.875,            0.,NA,NA,"",   115.403E-03,  -108.353E-03,  -39.7175E-03,   2.60799E-03
C:/temp/dataset/test2/8_1.odb,Step-1,Increment      1: Step Time =    1.000,"PART-1-1",           156,           -5.,       -16.875,            0.,NA,NA,"",   129.977E-03,  -111.195E-03,  -67.3027E-03,   4.21551E-03
C:/temp/dataset/test2/8_1.odb,Step-1,Increment      1: Step Time =    1.000,"PART-1-1",           157,            5.,        -18.75,            0.,NA,NA,"",   104.956E-03,  -86.7803E-03,   59.0336E-03,   4.64363E-03
C:/temp/dataset/test2/8_1.odb,Step-1,Increment      1: Step Time =    1.000,"PART-1-1",           158,            3.,        -18.75,            0.,NA,NA,"",   90.1687E-03,  -83.2941E-03,   34.5323E-03,   2.86501E-03
C:/temp/dataset/test2/8_1.odb,Step-1,Increment      1: Step Time =    1.000,"PART-1-1",           159,            1.,        -18.75,            0.,NA,NA,"",   82.2434E-03,  -81.4749E-03,   11.2171E-03,   1.34176E-03
C:/temp/dataset/test2/8_1.odb,Step-1,Increment      1: Step Time =    1.000,"PART-1-1",           160,           -1.,        -18.75,            0.,NA,NA,"",   82.1638E-03,  -81.3242E-03,  -11.7158E-03,   1.33136E-03
C:/temp/dataset/test2/8_1.odb,Step-1,Increment      1: Step Time =    1.000,"PART-1-1",           161,           -3.,        -18.75,            0.,NA,NA,"",   89.9620E-03,  -82.8420E-03,  -35.0767E-03,   2.85292E-03
C:/temp/dataset/test2/8_1.odb,Step-1,Increment      1: Step Time =    1.000,"PART-1-1",           162,           -5.,        -18.75,            0.,NA,NA,"",   104.699E-03,  -86.0256E-03,  -59.6773E-03,   4.63662E-03
C:/temp/dataset/test2/8_1.odb,Step-1,Increment      1: Step Time =    1.000,"PART-1-1",           163,            5.,       -20.625,            0.,NA,NA,"",   82.1178E-03,  -64.3700E-03,   50.9887E-03,   5.06576E-03
C:/temp/dataset/test2/8_1.odb,Step-1,Increment      1: Step Time =    1.000,"PART-1-1",           164,            3.,       -20.625,            0.,NA,NA,"",   67.5257E-03,  -60.6174E-03,   29.7530E-03,   3.11332E-03
C:/temp/dataset/test2/8_1.odb,Step-1,Increment      1: Step Time =    1.000,"PART-1-1",           165,            1.,       -20.625,            0.,NA,NA,"",   59.4722E-03,  -58.6753E-03,   9.70374E-03,   1.40607E-03
C:/temp/dataset/test2/8_1.odb,Step-1,Increment      1: Step Time =    1.000,"PART-1-1",           166,           -1.,       -20.625,            0.,NA,NA,"",   59.3957E-03,  -58.5552E-03,  -9.95681E-03,   1.39277E-03
C:/temp/dataset/test2/8_1.odb,Step-1,Increment      1: Step Time =    1.000,"PART-1-1",           167,           -3.,       -20.625,            0.,NA,NA,"",   67.3369E-03,  -60.2606E-03,  -30.0485E-03,   3.09895E-03
C:/temp/dataset/test2/8_1.odb,Step-1,Increment      1: Step Time =    1.000,"PART-1-1",           168,           -5.,       -20.625,            0.,NA,NA,"",   81.9050E-03,  -63.7855E-03,  -51.3793E-03,   5.05808E-03
C:/temp/dataset/test2/8_1.odb,Step-1,Increment      1: Step Time =    1.000,"PART-1-1",           169,            5.,         -22.5,            0.,NA,NA,"",   61.8146E-03,  -45.1642E-03,   42.2048E-03,   5.47704E-03
C:/temp/dataset/test2/8_1.odb,Step-1,Increment      1: Step Time =    1.000,"PART-1-1",           170,            3.,         -22.5,            0.,NA,NA,"",   47.8861E-03,  -41.1434E-03,   24.5010E-03,   3.36811E-03
C:/temp/dataset/test2/8_1.odb,Step-1,Increment      1: Step Time =    1.000,"PART-1-1",           171,            1.,         -22.5,            0.,NA,NA,"",   39.8765E-03,  -39.0655E-03,   8.00150E-03,   1.47813E-03
C:/temp/dataset/test2/8_1.odb,Step-1,Increment      1: Step Time =    1.000,"PART-1-1",           172,           -1.,         -22.5,            0.,NA,NA,"",   39.8032E-03,  -38.9729E-03,  -8.08718E-03,   1.46151E-03
C:/temp/dataset/test2/8_1.odb,Step-1,Increment      1: Step Time =    1.000,"PART-1-1",           173,           -3.,         -22.5,            0.,NA,NA,"",   47.7168E-03,  -40.8726E-03,  -24.6235E-03,   3.35121E-03
C:/temp/dataset/test2/8_1.odb,Step-1,Increment      1: Step Time =    1.000,"PART-1-1",           174,           -5.,         -22.5,            0.,NA,NA,"",   61.6454E-03,  -44.7352E-03,  -42.4137E-03,   5.46941E-03
C:/temp/dataset/test2/8_1.odb,Step-1,Increment      1: Step Time =    1.000,"PART-1-1",           175,            5.,       -24.375,            0.,NA,NA,"",   44.0019E-03,  -29.4466E-03,   32.6966E-03,   5.89087E-03
C:/temp/dataset/test2/8_1.odb,Step-1,Increment      1: Step Time =    1.000,"PART-1-1",           176,            3.,       -24.375,            0.,NA,NA,"",   31.3897E-03,  -25.1467E-03,   18.7871E-03,   3.62622E-03
C:/temp/dataset/test2/8_1.odb,Step-1,Increment      1: Step Time =    1.000,"PART-1-1",           177,            1.,       -24.375,            0.,NA,NA,"",   23.7165E-03,  -22.9152E-03,   6.11251E-03,   1.58513E-03
C:/temp/dataset/test2/8_1.odb,Step-1,Increment      1: Step Time =    1.000,"PART-1-1",           178,           -1.,       -24.375,            0.,NA,NA,"",   23.6475E-03,  -22.8461E-03,  -6.10378E-03,   1.56479E-03
C:/temp/dataset/test2/8_1.odb,Step-1,Increment      1: Step Time =    1.000,"PART-1-1",           179,           -3.,       -24.375,            0.,NA,NA,"",   31.2437E-03,  -24.9499E-03,  -18.8062E-03,   3.60681E-03
C:/temp/dataset/test2/8_1.odb,Step-1,Increment      1: Step Time =    1.000,"PART-1-1",           180,           -5.,       -24.375,            0.,NA,NA,"",   43.8736E-03,  -29.1535E-03,  -32.7867E-03,   5.88428E-03
C:/temp/dataset/test2/8_1.odb,Step-1,Increment      1: Step Time =    1.000,"PART-1-1",           181,            5.,        -26.25,            0.,NA,NA,"",   28.4563E-03,  -17.3277E-03,   22.5724E-03,   6.14144E-03
C:/temp/dataset/test2/8_1.odb,Step-1,Increment      1: Step Time =    1.000,"PART-1-1",           182,            3.,        -26.25,            0.,NA,NA,"",   17.9001E-03,  -12.8166E-03,   12.4959E-03,   3.99702E-03
C:/temp/dataset/test2/8_1.odb,Step-1,Increment      1: Step Time =    1.000,"PART-1-1",           183,            1.,        -26.25,            0.,NA,NA,"",   11.2188E-03,  -10.4853E-03,   3.99016E-03,   1.64296E-03
C:/temp/dataset/test2/8_1.odb,Step-1,Increment      1: Step Time =    1.000,"PART-1-1",           184,           -1.,        -26.25,            0.,NA,NA,"",   11.1582E-03,  -10.4359E-03,  -3.94928E-03,   1.61836E-03
C:/temp/dataset/test2/8_1.odb,Step-1,Increment      1: Step Time =    1.000,"PART-1-1",           185,           -3.,        -26.25,            0.,NA,NA,"",   17.7858E-03,  -12.6822E-03,  -12.4698E-03,   3.97625E-03
C:/temp/dataset/test2/8_1.odb,Step-1,Increment      1: Step Time =    1.000,"PART-1-1",           186,           -5.,        -26.25,            0.,NA,NA,"",   28.3653E-03,  -17.1453E-03,  -22.5971E-03,   6.13592E-03
C:/temp/dataset/test2/8_1.odb,Step-1,Increment      1: Step Time =    1.000,"PART-1-1",           187,            5.,       -28.125,            0.,NA,NA,"",   14.8449E-03,  -8.69453E-03,   12.0323E-03,   6.90295E-03
C:/temp/dataset/test2/8_1.odb,Step-1,Increment      1: Step Time =    1.000,"PART-1-1",           188,            3.,       -28.125,            0.,NA,NA,"",   7.52028E-03,  -4.43512E-03,   6.07325E-03,   4.23855E-03
C:/temp/dataset/test2/8_1.odb,Step-1,Increment      1: Step Time =    1.000,"PART-1-1",           189,            1.,       -28.125,            0.,NA,NA,"",   2.96394E-03,  -2.32837E-03,   1.83402E-03,   1.53501E-03
C:/temp/dataset/test2/8_1.odb,Step-1,Increment      1: Step Time =    1.000,"PART-1-1",           190,           -1.,       -28.125,            0.,NA,NA,"",   2.92479E-03,  -2.29868E-03,  -1.80845E-03,   1.51301E-03
C:/temp/dataset/test2/8_1.odb,Step-1,Increment      1: Step Time =    1.000,"PART-1-1",           191,           -3.,       -28.125,            0.,NA,NA,"",   7.45582E-03,  -4.35648E-03,  -6.05064E-03,   4.21417E-03
C:/temp/dataset/test2/8_1.odb,Step-1,Increment      1: Step Time =    1.000,"PART-1-1",           192,           -5.,       -28.125,            0.,NA,NA,"",   14.7853E-03,  -8.60391E-03,  -12.0240E-03,   6.90504E-03
C:/temp/dataset/test2/8_1.odb,Step-1,Increment      1: Step Time =    1.000,"PART-1-1",           193,            5.,          -30.,            0.,NA,NA,"",            0.,  -1.99973E-39,   3.60577E-39,   8.63433E-03
C:/temp/dataset/test2/8_1.odb,Step-1,Increment      1: Step Time =    1.000,"PART-1-1",           194,            3.,          -30.,            0.,NA,NA,"",            0.,  -1.76575E-39,   4.83895E-39,   2.92143E-03
C:/temp/dataset/test2/8_1.odb,Step-1,Increment      1: Step Time =    1.000,"PART-1-1",           195,            1.,          -30.,            0.,NA,NA,"",            0.,   29.2269E-42,   1.45524E-39,   1.16147E-03
C:/temp/dataset/test2/8_1.odb,Step-1,Increment      1: Step Time =    1.000,"PART-1-1",           196,           -1.,          -30.,            0.,NA,NA,"",            0.,   827.060E-42,  -1.58054E-39,   1.15955E-03
C:/temp/dataset/test2/8_1.odb,Step-1,Increment      1: Step Time =    1.000,"PART-1-1",           197,           -3.,          -30.,            0.,NA,NA,"",            0.,  -665.890E-42,  -4.68433E-39,   2.90777E-03
C:/temp/dataset/test2/8_1.odb,Step-1,Increment      1: Step Time =    1.000,"PART-1-1",           198,           -5.,          -30.,            0.,NA,NA,"",            0.,  -1.98190E-39,  -3.58156E-39,   8.59868E-03
C:/temp/dataset/test2/8_1.odb,Step-1,Increment      1: Step Time =    1.000,"PART-1-1",           199,            4.,           30.,            0.,NA,NA,"",       1.04753,      -1.04497,   73.1551E-03,   1.57158E-09
C:/temp/dataset/test2/8_1.odb,Step-1,Increment      1: Step Time =    1.000,"PART-1-1",           200,            3.,       29.0625,            0.,NA,NA,"",       1.02688,      -1.02552,   52.8270E-03,   9.63621E-09
C:/temp/dataset/test2/8_1.odb,Step-1,Increment      1: Step Time =    1.000,"PART-1-1",           201,            4.,        28.125,            0.,NA,NA,"",       1.00917,      -1.00648,   73.5501E-03,   9.04498E-09
C:/temp/dataset/test2/8_1.odb,Step-1,Increment      1: Step Time =    1.000,"PART-1-1",           202,            5.,       29.0625,            0.,NA,NA,"",       1.03022,      -1.02594,   93.8782E-03,   1.71059E-09
C:/temp/dataset/test2/8_1.odb,Step-1,Increment      1: Step Time =    1.000,"PART-1-1",           203,            2.,           30.,            0.,NA,NA,"",       1.04504,      -1.04455,   32.1038E-03,   10.0904E-09
C:/temp/dataset/test2/8_1.odb,Step-1,Increment      1: Step Time =    1.000,"PART-1-1",           204,            1.,       29.0625,            0.,NA,NA,"",       1.02516,      -1.02509,   11.7757E-03,   16.1188E-09
C:/temp/dataset/test2/8_1.odb,Step-1,Increment      1: Step Time =    1.000,"PART-1-1",           205,            2.,        28.125,            0.,NA,NA,"",       1.00659,      -1.00606,   32.4988E-03,   16.8374E-09
C:/temp/dataset/test2/8_1.odb,Step-1,Increment      1: Step Time =    1.000,"PART-1-1",           206,            0.,           30.,            0.,NA,NA,"",       1.04416,      -1.04413,  -8.94738E-03,   16.1110E-09
C:/temp/dataset/test2/8_1.odb,Step-1,Increment      1: Step Time =    1.000,"PART-1-1",           207,           -1.,       29.0625,            0.,NA,NA,"",       1.02509,      -1.02467,  -29.2755E-03,   16.1191E-09
C:/temp/dataset/test2/8_1.odb,Step-1,Increment      1: Step Time =    1.000,"PART-1-1",           208,            0.,        28.125,            0.,NA,NA,"",       1.00568,      -1.00564,  -8.55238E-03,   15.7467E-09
C:/temp/dataset/test2/8_1.odb,Step-1,Increment      1: Step Time =    1.000,"PART-1-1",           209,           -2.,           30.,            0.,NA,NA,"",       1.04490,      -1.04370,  -49.9986E-03,   10.0871E-09
C:/temp/dataset/test2/8_1.odb,Step-1,Increment      1: Step Time =    1.000,"PART-1-1",           210,           -3.,       29.0625,            0.,NA,NA,"",       1.02666,      -1.02425,  -70.3267E-03,   9.63994E-09
C:/temp/dataset/test2/8_1.odb,Step-1,Increment      1: Step Time =    1.000,"PART-1-1",           211,           -2.,        28.125,            0.,NA,NA,"",       1.00644,      -1.00522,  -49.6036E-03,   16.8426E-09
C:/temp/dataset/test2/8_1.odb,Step-1,Increment      1: Step Time =    1.000,"PART-1-1",           212,           -4.,           30.,            0.,NA,NA,"",       1.04725,      -1.04328,  -91.0498E-03,   1.56522E-09
C:/temp/dataset/test2/8_1.odb,Step-1,Increment      1: Step Time =    1.000,"PART-1-1",           213,           -5.,       29.0625,            0.,NA,NA,"",       1.02987,      -1.02383,  -111.378E-03,   1.71748E-09
C:/temp/dataset/test2/8_1.odb,Step-1,Increment      1: Step Time =    1.000,"PART-1-1",           214,           -4.,        28.125,            0.,NA,NA,"",       1.00888,      -1.00480,  -90.6547E-03,   9.04634E-09
C:/temp/dataset/test2/8_1.odb,Step-1,Increment      1: Step Time =    1.000,"PART-1-1",           215,            3.,       27.1875,            0.,NA,NA,"",   988.464E-03,  -987.030E-03,   53.2220E-03,   25.5341E-09
C:/temp/dataset/test2/8_1.odb,Step-1,Increment      1: Step Time =    1.000,"PART-1-1",           216,            4.,         26.25,            0.,NA,NA,"",   970.818E-03,  -967.998E-03,   73.9451E-03,   24.0486E-09
C:/temp/dataset/test2/8_1.odb,Step-1,Increment      1: Step Time =    1.000,"PART-1-1",           217,            5.,       27.1875,            0.,NA,NA,"",   991.941E-03,  -987.451E-03,   94.2732E-03,   14.5832E-09
C:/temp/dataset/test2/8_1.odb,Step-1,Increment      1: Step Time =    1.000,"PART-1-1",           218,            1.,       27.1875,            0.,NA,NA,"",   986.683E-03,  -986.608E-03,   12.1707E-03,   26.7655E-09
C:/temp/dataset/test2/8_1.odb,Step-1,Increment      1: Step Time =    1.000,"PART-1-1",           219,            2.,         26.25,            0.,NA,NA,"",   968.135E-03,  -967.576E-03,   32.8938E-03,   31.9165E-09
C:/temp/dataset/test2/8_1.odb,Step-1,Increment      1: Step Time =    1.000,"PART-1-1",           220,           -1.,       27.1875,            0.,NA,NA,"",   986.610E-03,  -986.187E-03,  -28.8805E-03,   26.7647E-09
C:/temp/dataset/test2/8_1.odb,Step-1,Increment      1: Step Time =    1.000,"PART-1-1",           221,            0.,         26.25,            0.,NA,NA,"",   967.189E-03,  -967.155E-03,  -8.15741E-03,   31.7445E-09
C:/temp/dataset/test2/8_1.odb,Step-1,Increment      1: Step Time =    1.000,"PART-1-1",           222,           -3.,       27.1875,            0.,NA,NA,"",   988.243E-03,  -985.766E-03,  -69.9316E-03,   25.5298E-09
C:/temp/dataset/test2/8_1.odb,Step-1,Increment      1: Step Time =    1.000,"PART-1-1",           223,           -2.,         26.25,            0.,NA,NA,"",   967.985E-03,  -966.734E-03,  -49.2086E-03,   31.9112E-09
C:/temp/dataset/test2/8_1.odb,Step-1,Increment      1: Step Time =    1.000,"PART-1-1",           224,           -5.,       27.1875,            0.,NA,NA,"",   991.575E-03,  -985.344E-03,  -110.983E-03,   14.5933E-09
C:/temp/dataset/test2/8_1.odb,Step-1,Increment      1: Step Time =    1.000,"PART-1-1",           225,           -4.,         26.25,            0.,NA,NA,"",   970.519E-03,  -966.312E-03,  -90.2597E-03,   24.0483E-09
C:/temp/dataset/test2/8_1.odb,Step-1,Increment      1: Step Time =    1.000,"PART-1-1",           226,            3.,       25.3125,            0.,NA,NA,"",   950.059E-03,  -948.544E-03,   53.6170E-03,   46.8454E-09
C:/temp/dataset/test2/8_1.odb,Step-1,Increment      1: Step Time =    1.000,"PART-1-1",           227,            4.,        24.375,            0.,NA,NA,"",   932.480E-03,  -929.512E-03,   74.3402E-03,   50.0777E-09
C:/temp/dataset/test2/8_1.odb,Step-1,Increment      1: Step Time =    1.000,"PART-1-1",           228,            5.,       25.3125,            0.,NA,NA,"",   953.676E-03,  -948.966E-03,   94.6682E-03,   45.6185E-09
C:/temp/dataset/test2/8_1.odb,Step-1,Increment      1: Step Time =    1.000,"PART-1-1",           229,            1.,       25.3125,            0.,NA,NA,"",   948.206E-03,  -948.123E-03,   12.5657E-03,   47.8387E-09
C:/temp/dataset/test2/8_1.odb,Step-1,Increment      1: Step Time =    1.000,"PART-1-1",           230,            2.,        24.375,            0.,NA,NA,"",   929.687E-03,  -929.091E-03,   33.2888E-03,   52.7446E-09
C:/temp/dataset/test2/8_1.odb,Step-1,Increment      1: Step Time =    1.000,"PART-1-1",           231,           -1.,       25.3125,            0.,NA,NA,"",   948.130E-03,  -947.702E-03,  -28.4855E-03,   47.8125E-09
C:/temp/dataset/test2/8_1.odb,Step-1,Increment      1: Step Time =    1.000,"PART-1-1",           232,            0.,        24.375,            0.,NA,NA,"",   928.702E-03,  -928.670E-03,  -7.76246E-03,   55.0334E-09
C:/temp/dataset/test2/8_1.odb,Step-1,Increment      1: Step Time =    1.000,"PART-1-1",           233,           -3.,       25.3125,            0.,NA,NA,"",   949.829E-03,  -947.280E-03,  -69.5366E-03,   46.7938E-09
C:/temp/dataset/test2/8_1.odb,Step-1,Increment      1: Step Time =    1.000,"PART-1-1",           234,           -2.,        24.375,            0.,NA,NA,"",   929.531E-03,  -928.248E-03,  -48.8136E-03,   52.6862E-09
C:/temp/dataset/test2/8_1.odb,Step-1,Increment      1: Step Time =    1.000,"PART-1-1",           235,           -5.,       25.3125,            0.,NA,NA,"",   953.295E-03,  -946.859E-03,  -110.588E-03,   45.6071E-09
C:/temp/dataset/test2/8_1.odb,Step-1,Increment      1: Step Time =    1.000,"PART-1-1",           236,           -4.,        24.375,            0.,NA,NA,"",   932.169E-03,  -927.827E-03,  -89.8647E-03,   50.0429E-09
C:/temp/dataset/test2/8_1.odb,Step-1,Increment      1: Step Time =    1.000,"PART-1-1",           237,            3.,       23.4375,            0.,NA,NA,"",   911.660E-03,  -910.059E-03,   54.0120E-03,   66.8767E-09
C:/temp/dataset/test2/8_1.odb,Step-1,Increment      1: Step Time =    1.000,"PART-1-1",           238,            4.,          22.5,            0.,NA,NA,"",   894.155E-03,  -891.027E-03,   74.7353E-03,   85.7312E-09
C:/temp/dataset/test2/8_1.odb,Step-1,Increment      1: Step Time =    1.000,"PART-1-1",           239,            5.,       23.4375,            0.,NA,NA,"",   915.429E-03,  -910.480E-03,   95.0634E-03,   101.332E-09
C:/temp/dataset/test2/8_1.odb,Step-1,Increment      1: Step Time =    1.000,"PART-1-1",           240,            1.,       23.4375,            0.,NA,NA,"",   909.730E-03,  -909.637E-03,   12.9606E-03,   66.1394E-09
C:/temp/dataset/test2/8_1.odb,Step-1,Increment      1: Step Time =    1.000,"PART-1-1",           241,            2.,          22.5,            0.,NA,NA,"",   891.242E-03,  -890.605E-03,   33.6838E-03,   62.6950E-09
C:/temp/dataset/test2/8_1.odb,Step-1,Increment      1: Step Time =    1.000,"PART-1-1",           242,           -1.,       23.4375,            0.,NA,NA,"",   909.650E-03,  -909.216E-03,  -28.0906E-03,   66.0127E-09
C:/temp/dataset/test2/8_1.odb,Step-1,Increment      1: Step Time =    1.000,"PART-1-1",           243,            0.,          22.5,            0.,NA,NA,"",   890.215E-03,  -890.184E-03,  -7.36756E-03,   69.9063E-09
C:/temp/dataset/test2/8_1.odb,Step-1,Increment      1: Step Time =    1.000,"PART-1-1",           244,           -3.,       23.4375,            0.,NA,NA,"",   911.421E-03,  -908.795E-03,  -69.1416E-03,   66.6189E-09
C:/temp/dataset/test2/8_1.odb,Step-1,Increment      1: Step Time =    1.000,"PART-1-1",           245,           -2.,          22.5,            0.,NA,NA,"",   891.079E-03,  -889.763E-03,  -48.4186E-03,   62.4672E-09
C:/temp/dataset/test2/8_1.odb,Step-1,Increment      1: Step Time =    1.000,"PART-1-1",           246,           -5.,       23.4375,            0.,NA,NA,"",   915.033E-03,  -908.373E-03,  -110.193E-03,   101.159E-09
C:/temp/dataset/test2/8_1.odb,Step-1,Increment      1: Step Time =    1.000,"PART-1-1",           247,           -4.,          22.5,            0.,NA,NA,"",   893.830E-03,  -889.341E-03,  -89.4696E-03,   85.5211E-09
C:/temp/dataset/test2/8_1.odb,Step-1,Increment      1: Step Time =    1.000,"PART-1-1",           248,            3.,       21.5625,            0.,NA,NA,"",   873.270E-03,  -871.573E-03,   54.4070E-03,   50.4359E-09
C:/temp/dataset/test2/8_1.odb,Step-1,Increment      1: Step Time =    1.000,"PART-1-1",           249,            4.,        20.625,            0.,NA,NA,"",   855.845E-03,  -852.541E-03,   75.1304E-03,   110.439E-09
C:/temp/dataset/test2/8_1.odb,Step-1,Increment      1: Step Time =    1.000,"PART-1-1",           250,            5.,       21.5625,            0.,NA,NA,"",   877.204E-03,  -871.994E-03,   95.4586E-03,   177.867E-09
C:/temp/dataset/test2/8_1.odb,Step-1,Increment      1: Step Time =    1.000,"PART-1-1",           251,            1.,       21.5625,            0.,NA,NA,"",   871.254E-03,  -871.152E-03,   13.3555E-03,   71.7294E-09
C:/temp/dataset/test2/8_1.odb,Step-1,Increment      1: Step Time =    1.000,"PART-1-1",           252,            2.,        20.625,            0.,NA,NA,"",   852.801E-03,  -852.120E-03,   34.0787E-03,   68.6852E-09
C:/temp/dataset/test2/8_1.odb,Step-1,Increment      1: Step Time =    1.000,"PART-1-1",           253,           -1.,       21.5625,            0.,NA,NA,"",   871.171E-03,  -870.731E-03,  -27.6957E-03,   71.4719E-09
C:/temp/dataset/test2/8_1.odb,Step-1,Increment      1: Step Time =    1.000,"PART-1-1",           254,            0.,        20.625,            0.,NA,NA,"",   851.727E-03,  -851.699E-03,  -6.97263E-03,   107.619E-09
C:/temp/dataset/test2/8_1.odb,Step-1,Increment      1: Step Time =    1.000,"PART-1-1",           255,           -3.,       21.5625,            0.,NA,NA,"",   873.020E-03,  -870.309E-03,  -68.7466E-03,   49.7634E-09
C:/temp/dataset/test2/8_1.odb,Step-1,Increment      1: Step Time =    1.000,"PART-1-1",           256,           -2.,        20.625,            0.,NA,NA,"",   852.631E-03,  -851.277E-03,  -48.0237E-03,   68.9382E-09
C:/temp/dataset/test2/8_1.odb,Step-1,Increment      1: Step Time =    1.000,"PART-1-1",           257,           -5.,       21.5625,            0.,NA,NA,"",   876.790E-03,  -869.888E-03,  -109.797E-03,   176.922E-09
C:/temp/dataset/test2/8_1.odb,Step-1,Increment      1: Step Time =    1.000,"PART-1-1",           258,           -4.,        20.625,            0.,NA,NA,"",   855.506E-03,  -850.856E-03,  -89.0744E-03,   109.820E-09
C:/temp/dataset/test2/8_1.odb,Step-1,Increment      1: Step Time =    1.000,"PART-1-1",           259,            3.,       19.6875,            0.,NA,NA,"",   834.888E-03,  -833.087E-03,   54.8020E-03,   153.166E-09
C:/temp/dataset/test2/8_1.odb,Step-1,Increment      1: Step Time =    1.000,"PART-1-1",           260,            4.,         18.75,            0.,NA,NA,"",   817.551E-03,  -814.055E-03,   75.5256E-03,   147.922E-09
C:/temp/dataset/test2/8_1.odb,Step-1,Increment      1: Step Time =    1.000,"PART-1-1",           261,            5.,       19.6875,            0.,NA,NA,"",   839.002E-03,  -833.508E-03,   95.8540E-03,   219.197E-09
C:/temp/dataset/test2/8_1.odb,Step-1,Increment      1: Step Time =    1.000,"PART-1-1",           262,            1.,       19.6875,            0.,NA,NA,"",   832.780E-03,  -832.666E-03,   13.7505E-03,   295.922E-09
C:/temp/dataset/test2/8_1.odb,Step-1,Increment      1: Step Time =    1.000,"PART-1-1",           263,            2.,         18.75,            0.,NA,NA,"",   814.363E-03,  -813.634E-03,   34.4738E-03,   389.116E-09
C:/temp/dataset/test2/8_1.odb,Step-1,Increment      1: Step Time =    1.000,"PART-1-1",           264,           -1.,       19.6875,            0.,NA,NA,"",   832.693E-03,  -832.245E-03,  -27.3007E-03,   296.009E-09
C:/temp/dataset/test2/8_1.odb,Step-1,Increment      1: Step Time =    1.000,"PART-1-1",           265,            0.,         18.75,            0.,NA,NA,"",   813.240E-03,  -813.213E-03,  -6.57741E-03,   473.418E-09
C:/temp/dataset/test2/8_1.odb,Step-1,Increment      1: Step Time =    1.000,"PART-1-1",           266,           -3.,       19.6875,            0.,NA,NA,"",   834.628E-03,  -831.824E-03,  -68.3516E-03,   155.006E-09
C:/temp/dataset/test2/8_1.odb,Step-1,Increment      1: Step Time =    1.000,"PART-1-1",           267,           -2.,         18.75,            0.,NA,NA,"",   814.187E-03,  -812.792E-03,  -47.6286E-03,   390.650E-09
C:/temp/dataset/test2/8_1.odb,Step-1,Increment      1: Step Time =    1.000,"PART-1-1",           268,           -5.,       19.6875,            0.,NA,NA,"",   838.570E-03,  -831.403E-03,  -109.402E-03,   215.944E-09
C:/temp/dataset/test2/8_1.odb,Step-1,Increment      1: Step Time =    1.000,"PART-1-1",           269,           -4.,         18.75,            0.,NA,NA,"",   817.197E-03,  -812.371E-03,  -88.6793E-03,   150.196E-09
C:/temp/dataset/test2/8_1.odb,Step-1,Increment      1: Step Time =    1.000,"PART-1-1",           270,            3.,       17.8125,            0.,NA,NA,"",   796.515E-03,  -794.600E-03,   55.1971E-03,   794.569E-09
C:/temp/dataset/test2/8_1.odb,Step-1,Increment      1: Step Time =    1.000,"PART-1-1",           271,            4.,        16.875,            0.,NA,NA,"",   779.274E-03,  -775.567E-03,   75.9204E-03,   653.608E-09
C:/temp/dataset/test2/8_1.odb,Step-1,Increment      1: Step Time =    1.000,"PART-1-1",           272,            5.,       17.8125,            0.,NA,NA,"",   800.827E-03,  -795.022E-03,   96.2495E-03,   46.9487E-09
C:/temp/dataset/test2/8_1.odb,Step-1,Increment      1: Step Time =    1.000,"PART-1-1",           273,            1.,       17.8125,            0.,NA,NA,"",   794.306E-03,  -794.180E-03,   14.1460E-03,   1.10656E-06
C:/temp/dataset/test2/8_1.odb,Step-1,Increment      1: Step Time =    1.000,"PART-1-1",           274,            2.,        16.875,            0.,NA,NA,"",   775.930E-03,  -775.146E-03,   34.8694E-03,   1.38251E-06
C:/temp/dataset/test2/8_1.odb,Step-1,Increment      1: Step Time =    1.000,"PART-1-1",           275,           -1.,       17.8125,            0.,NA,NA,"",   794.216E-03,  -793.760E-03,  -26.9052E-03,   1.10355E-06
C:/temp/dataset/test2/8_1.odb,Step-1,Increment      1: Step Time =    1.000,"PART-1-1",           276,            0.,        16.875,            0.,NA,NA,"",   774.752E-03,  -774.728E-03,  -6.18121E-03,   1.57264E-06
C:/temp/dataset/test2/8_1.odb,Step-1,Increment      1: Step Time =    1.000,"PART-1-1",           277,           -3.,       17.8125,            0.,NA,NA,"",   796.245E-03,  -793.340E-03,  -67.9566E-03,   792.837E-09
C:/temp/dataset/test2/8_1.odb,Step-1,Increment      1: Step Time =    1.000,"PART-1-1",           278,           -2.,        16.875,            0.,NA,NA,"",   775.748E-03,  -774.309E-03,  -47.2331E-03,   1.38055E-06
C:/temp/dataset/test2/8_1.odb,Step-1,Increment      1: Step Time =    1.000,"PART-1-1",           279,           -5.,       17.8125,            0.,NA,NA,"",   800.377E-03,  -792.919E-03,  -109.007E-03,   46.0910E-09
C:/temp/dataset/test2/8_1.odb,Step-1,Increment      1: Step Time =    1.000,"PART-1-1",           280,           -4.,        16.875,            0.,NA,NA,"",   778.908E-03,  -773.888E-03,  -88.2845E-03,   655.269E-09
C:/temp/dataset/test2/8_1.odb,Step-1,Increment      1: Step Time =    1.000,"PART-1-1",           281,            3.,       15.9375,            0.,NA,NA,"",   758.153E-03,  -756.112E-03,   55.5921E-03,   2.48408E-06
C:/temp/dataset/test2/8_1.odb,Step-1,Increment      1: Step Time =    1.000,"PART-1-1",           282,            4.,           15.,            0.,NA,NA,"",   741.017E-03,  -737.077E-03,   76.3142E-03,   2.24579E-06
C:/temp/dataset/test2/8_1.odb,Step-1,Increment      1: Step Time =    1.000,"PART-1-1",           283,            5.,       15.9375,            0.,NA,NA,"",   762.681E-03,  -756.533E-03,   96.6444E-03,   1.02552E-06
C:/temp/dataset/test2/8_1.odb,Step-1,Increment      1: Step Time =    1.000,"PART-1-1",           284,            1.,       15.9375,            0.,NA,NA,"",   755.833E-03,  -755.693E-03,   14.5430E-03,   3.10654E-06
C:/temp/dataset/test2/8_1.odb,Step-1,Increment      1: Step Time =    1.000,"PART-1-1",           285,            2.,           15.,            0.,NA,NA,"",   737.501E-03,  -736.657E-03,   35.2662E-03,   3.73784E-06
C:/temp/dataset/test2/8_1.odb,Step-1,Increment      1: Step Time =    1.000,"PART-1-1",           286,           -1.,       15.9375,            0.,NA,NA,"",   755.742E-03,  -755.277E-03,  -26.5083E-03,   3.08284E-06
C:/temp/dataset/test2/8_1.odb,Step-1,Increment      1: Step Time =    1.000,"PART-1-1",           287,            0.,           15.,            0.,NA,NA,"",   736.265E-03,  -736.242E-03,  -5.78237E-03,   4.12174E-06
C:/temp/dataset/test2/8_1.odb,Step-1,Increment      1: Step Time =    1.000,"PART-1-1",           288,           -3.,       15.9375,            0.,NA,NA,"",   757.875E-03,  -754.858E-03,  -67.5617E-03,   2.44897E-06
C:/temp/dataset/test2/8_1.odb,Step-1,Increment      1: Step Time =    1.000,"PART-1-1",           289,           -2.,           15.,            0.,NA,NA,"",   737.316E-03,  -735.827E-03,  -46.8365E-03,   3.68851E-06
C:/temp/dataset/test2/8_1.odb,Step-1,Increment      1: Step Time =    1.000,"PART-1-1",           290,           -5.,       15.9375,            0.,NA,NA,"",   762.214E-03,  -754.436E-03,  -108.612E-03,   1.02565E-06
C:/temp/dataset/test2/8_1.odb,Step-1,Increment      1: Step Time =    1.000,"PART-1-1",           291,           -4.,           15.,            0.,NA,NA,"",   740.641E-03,  -735.407E-03,  -87.8910E-03,   2.22384E-06
C:/temp/dataset/test2/8_1.odb,Step-1,Increment      1: Step Time =    1.000,"PART-1-1",           292,            3.,       14.0625,            0.,NA,NA,"",   719.800E-03,  -717.620E-03,   55.9871E-03,   6.23129E-06
C:/temp/dataset/test2/8_1.odb,Step-1,Increment      1: Step Time =    1.000,"PART-1-1",           293,            4.,        13.125,            0.,NA,NA,"",   702.782E-03,  -698.583E-03,   76.7047E-03,   6.09354E-06
C:/temp/dataset/test2/8_1.odb,Step-1,Increment      1: Step Time =    1.000,"PART-1-1",           294,            5.,       14.0625,            0.,NA,NA,"",   724.569E-03,  -718.042E-03,   97.0366E-03,   4.18429E-06
C:/temp/dataset/test2/8_1.odb,Step-1,Increment      1: Step Time =    1.000,"PART-1-1",           295,            1.,       14.0625,            0.,NA,NA,"",   717.361E-03,  -717.205E-03,   14.9434E-03,   7.23413E-06
C:/temp/dataset/test2/8_1.odb,Step-1,Increment      1: Step Time =    1.000,"PART-1-1",           296,            2.,        13.125,            0.,NA,NA,"",   699.076E-03,  -698.165E-03,   35.6660E-03,   8.39066E-06
C:/temp/dataset/test2/8_1.odb,Step-1,Increment      1: Step Time =    1.000,"PART-1-1",           297,           -1.,       14.0625,            0.,NA,NA,"",   717.269E-03,  -716.794E-03,  -26.1082E-03,   7.09426E-06
C:/temp/dataset/test2/8_1.odb,Step-1,Increment      1: Step Time =    1.000,"PART-1-1",           298,            0.,        13.125,            0.,NA,NA,"",   697.778E-03,  -697.757E-03,  -5.37782E-03,   9.04336E-06
C:/temp/dataset/test2/8_1.odb,Step-1,Increment      1: Step Time =    1.000,"PART-1-1",           299,           -3.,       14.0625,            0.,NA,NA,"",   719.520E-03,  -716.379E-03,  -67.1670E-03,   5.95668E-06
C:/temp/dataset/test2/8_1.odb,Step-1,Increment      1: Step Time =    1.000,"PART-1-1",           300,           -2.,        13.125,            0.,NA,NA,"",   698.893E-03,  -697.348E-03,  -46.4373E-03,   8.12093E-06
C:/temp/dataset/test2/8_1.odb,Step-1,Increment      1: Step Time =    1.000,"PART-1-1",           301,           -5.,       14.0625,            0.,NA,NA,"",   724.089E-03,  -715.956E-03,  -108.220E-03,   4.08844E-06
C:/temp/dataset/test2/8_1.odb,Step-1,Increment      1: Step Time =    1.000,"PART-1-1",           302,           -4.,        13.125,            0.,NA,NA,"",   702.401E-03,  -696.929E-03,  -87.5007E-03,   5.85972E-06
C:/temp/dataset/test2/8_1.odb,Step-1,Increment      1: Step Time =    1.000,"PART-1-1",           303,            3.,       12.1875,            0.,NA,NA,"",   681.461E-03,  -679.125E-03,   56.3819E-03,   13.0354E-06
C:/temp/dataset/test2/8_1.odb,Step-1,Increment      1: Step Time =    1.000,"PART-1-1",           304,            4.,         11.25,            0.,NA,NA,"",   664.574E-03,  -660.088E-03,   77.0882E-03,   13.9233E-06
C:/temp/dataset/test2/8_1.odb,Step-1,Increment      1: Step Time =    1.000,"PART-1-1",           305,            5.,       12.1875,            0.,NA,NA,"",   686.497E-03,  -679.550E-03,   97.4207E-03,   12.2505E-06
C:/temp/dataset/test2/8_1.odb,Step-1,Increment      1: Step Time =    1.000,"PART-1-1",           306,            1.,       12.1875,            0.,NA,NA,"",   678.889E-03,  -678.716E-03,   15.3510E-03,   14.1940E-06
C:/temp/dataset/test2/8_1.odb,Step-1,Increment      1: Step Time =    1.000,"PART-1-1",           307,            2.,         11.25,            0.,NA,NA,"",   660.658E-03,  -659.672E-03,   36.0719E-03,   15.9942E-06
C:/temp/dataset/test2/8_1.odb,Step-1,Increment      1: Step Time =    1.000,"PART-1-1",           308,           -1.,       12.1875,            0.,NA,NA,"",   678.800E-03,  -678.314E-03,  -25.7015E-03,   13.6120E-06
C:/temp/dataset/test2/8_1.odb,Step-1,Increment      1: Step Time =    1.000,"PART-1-1",           309,            0.,         11.25,            0.,NA,NA,"",   659.292E-03,  -659.273E-03,  -4.96302E-03,   16.5832E-06
C:/temp/dataset/test2/8_1.odb,Step-1,Increment      1: Step Time =    1.000,"PART-1-1",           310,           -3.,       12.1875,            0.,NA,NA,"",   681.183E-03,  -677.902E-03,  -66.7730E-03,   11.9236E-06
C:/temp/dataset/test2/8_1.odb,Step-1,Increment      1: Step Time =    1.000,"PART-1-1",           311,           -2.,         11.25,            0.,NA,NA,"",   660.477E-03,  -658.871E-03,  -46.0338E-03,   14.6955E-06
C:/temp/dataset/test2/8_1.odb,Step-1,Increment      1: Step Time =    1.000,"PART-1-1",           312,           -5.,       12.1875,            0.,NA,NA,"",   686.005E-03,  -677.476E-03,  -107.836E-03,   11.2873E-06
C:/temp/dataset/test2/8_1.odb,Step-1,Increment      1: Step Time =    1.000,"PART-1-1",           313,           -4.,         11.25,            0.,NA,NA,"",   664.190E-03,  -658.452E-03,  -87.1173E-03,   12.7606E-06
C:/temp/dataset/test2/8_1.odb,Step-1,Increment      1: Step Time =    1.000,"PART-1-1",           314,            3.,       10.3125,            0.,NA,NA,"",   643.141E-03,  -640.630E-03,   56.7774E-03,   23.2644E-06
C:/temp/dataset/test2/8_1.odb,Step-1,Increment      1: Step Time =    1.000,"PART-1-1",           315,            4.,         9.375,            0.,NA,NA,"",   626.409E-03,  -621.602E-03,   77.4565E-03,   27.1524E-06
C:/temp/dataset/test2/8_1.odb,Step-1,Increment      1: Step Time =    1.000,"PART-1-1",           316,            5.,       10.3125,            0.,NA,NA,"",   648.477E-03,  -641.062E-03,   97.7860E-03,   28.9771E-06
C:/temp/dataset/test2/8_1.odb,Step-1,Increment      1: Step Time =    1.000,"PART-1-1",           317,            1.,       10.3125,            0.,NA,NA,"",   640.423E-03,  -640.229E-03,   15.7708E-03,   22.5354E-06
C:/temp/dataset/test2/8_1.odb,Step-1,Increment      1: Step Time =    1.000,"PART-1-1",           318,            2.,         9.375,            0.,NA,NA,"",   622.258E-03,  -621.188E-03,   36.4881E-03,   23.6481E-06
C:/temp/dataset/test2/8_1.odb,Step-1,Increment      1: Step Time =    1.000,"PART-1-1",           319,           -1.,       10.3125,            0.,NA,NA,"",   640.333E-03,  -639.834E-03,  -25.2850E-03,   20.7110E-06
C:/temp/dataset/test2/8_1.odb,Step-1,Increment      1: Step Time =    1.000,"PART-1-1",           320,            0.,         9.375,            0.,NA,NA,"",   620.809E-03,  -620.792E-03,  -4.53512E-03,   23.7535E-06
C:/temp/dataset/test2/8_1.odb,Step-1,Increment      1: Step Time =    1.000,"PART-1-1",           321,           -3.,       10.3125,            0.,NA,NA,"",   642.860E-03,  -639.424E-03,  -66.3806E-03,   18.8109E-06
C:/temp/dataset/test2/8_1.odb,Step-1,Increment      1: Step Time =    1.000,"PART-1-1",           322,           -2.,         9.375,            0.,NA,NA,"",   622.063E-03,  -620.388E-03,  -45.6256E-03,   19.9939E-06
C:/temp/dataset/test2/8_1.odb,Step-1,Increment      1: Step Time =    1.000,"PART-1-1",           323,           -5.,       10.3125,            0.,NA,NA,"",   647.965E-03,  -638.991E-03,  -107.468E-03,   24.9494E-06
C:/temp/dataset/test2/8_1.odb,Step-1,Increment      1: Step Time =    1.000,"PART-1-1",           324,           -4.,         9.375,            0.,NA,NA,"",   626.002E-03,  -619.962E-03,  -86.7461E-03,   22.9272E-06
C:/temp/dataset/test2/8_1.odb,Step-1,Increment      1: Step Time =    1.000,"PART-1-1",           325,            3.,        8.4375,            0.,NA,NA,"",   604.869E-03,  -602.161E-03,   57.1742E-03,   28.1287E-06
C:/temp/dataset/test2/8_1.odb,Step-1,Increment      1: Step Time =    1.000,"PART-1-1",           326,            4.,           7.5,            0.,NA,NA,"",   588.336E-03,  -583.169E-03,   77.8077E-03,   43.0225E-06
C:/temp/dataset/test2/8_1.odb,Step-1,Increment      1: Step Time =    1.000,"PART-1-1",           327,            5.,        8.4375,            0.,NA,NA,"",   610.535E-03,  -602.601E-03,   98.1065E-03,   62.6816E-06
C:/temp/dataset/test2/8_1.odb,Step-1,Increment      1: Step Time =    1.000,"PART-1-1",           328,            1.,        8.4375,            0.,NA,NA,"",   601.975E-03,  -601.757E-03,   16.2036E-03,   26.4762E-06
C:/temp/dataset/test2/8_1.odb,Step-1,Increment      1: Step Time =    1.000,"PART-1-1",           329,            2.,           7.5,            0.,NA,NA,"",   583.912E-03,  -582.744E-03,   36.9162E-03,   24.1959E-06
C:/temp/dataset/test2/8_1.odb,Step-1,Increment      1: Step Time =    1.000,"PART-1-1",           330,           -1.,        8.4375,            0.,NA,NA,"",   601.859E-03,  -601.346E-03,  -24.8612E-03,   21.4010E-06
C:/temp/dataset/test2/8_1.odb,Step-1,Increment      1: Step Time =    1.000,"PART-1-1",           331,            0.,           7.5,            0.,NA,NA,"",   582.327E-03,  -582.312E-03,  -4.10504E-03,   27.5330E-06
C:/temp/dataset/test2/8_1.odb,Step-1,Increment      1: Step Time =    1.000,"PART-1-1",           332,           -3.,        8.4375,            0.,NA,NA,"",   604.535E-03,  -600.923E-03,  -65.9917E-03,   19.0175E-06
C:/temp/dataset/test2/8_1.odb,Step-1,Increment      1: Step Time =    1.000,"PART-1-1",           333,           -2.,           7.5,            0.,NA,NA,"",   583.623E-03,  -581.869E-03,  -45.2180E-03,   16.5089E-06
C:/temp/dataset/test2/8_1.odb,Step-1,Increment      1: Step Time =    1.000,"PART-1-1",           334,           -5.,        8.4375,            0.,NA,NA,"",   609.959E-03,  -600.477E-03,  -107.131E-03,   44.4028E-06
C:/temp/dataset/test2/8_1.odb,Step-1,Increment      1: Step Time =    1.000,"PART-1-1",           335,           -4.,           7.5,            0.,NA,NA,"",   587.810E-03,  -581.427E-03,  -86.3899E-03,   32.0262E-06
C:/temp/dataset/test2/8_1.odb,Step-1,Increment      1: Step Time =    1.000,"PART-1-1",           336,            3.,        6.5625,            0.,NA,NA,"",   566.717E-03,  -563.784E-03,   57.5844E-03,   35.2485E-06
C:/temp/dataset/test2/8_1.odb,Step-1,Increment      1: Step Time =    1.000,"PART-1-1",           337,            4.,         5.625,            0.,NA,NA,"",   550.500E-03,  -544.928E-03,   78.1291E-03,   76.0306E-06
C:/temp/dataset/test2/8_1.odb,Step-1,Increment      1: Step Time =    1.000,"PART-1-1",           338,            5.,        6.5625,            0.,NA,NA,"",   572.758E-03,  -564.250E-03,   98.3533E-03,   102.830E-06
C:/temp/dataset/test2/8_1.odb,Step-1,Increment      1: Step Time =    1.000,"PART-1-1",           339,            1.,        6.5625,            0.,NA,NA,"",   563.562E-03,  -563.317E-03,   16.6273E-03,   62.1518E-06
C:/temp/dataset/test2/8_1.odb,Step-1,Increment      1: Step Time =    1.000,"PART-1-1",           340,            2.,         5.625,            0.,NA,NA,"",   545.689E-03,  -544.412E-03,   37.3204E-03,   109.789E-06
C:/temp/dataset/test2/8_1.odb,Step-1,Increment      1: Step Time =    1.000,"PART-1-1",           341,           -1.,        6.5625,            0.,NA,NA,"",   563.347E-03,  -562.816E-03,  -24.4515E-03,   46.0238E-06
C:/temp/dataset/test2/8_1.odb,Step-1,Increment      1: Step Time =    1.000,"PART-1-1",           342,            0.,         5.625,            0.,NA,NA,"",   543.814E-03,  -543.801E-03,  -3.72440E-03,   95.1068E-06
C:/temp/dataset/test2/8_1.odb,Step-1,Increment      1: Step Time =    1.000,"PART-1-1",           343,           -3.,        6.5625,            0.,NA,NA,"",   566.161E-03,  -562.347E-03,  -65.6073E-03,   15.5870E-06
C:/temp/dataset/test2/8_1.odb,Step-1,Increment      1: Step Time =    1.000,"PART-1-1",           344,           -2.,         5.625,            0.,NA,NA,"",   545.091E-03,  -543.244E-03,  -44.8260E-03,   60.6323E-06
C:/temp/dataset/test2/8_1.odb,Step-1,Increment      1: Step Time =    1.000,"PART-1-1",           345,           -5.,        6.5625,            0.,NA,NA,"",   571.952E-03,  -561.887E-03,  -106.830E-03,   58.8872E-06
C:/temp/dataset/test2/8_1.odb,Step-1,Increment      1: Step Time =    1.000,"PART-1-1",           346,           -4.,         5.625,            0.,NA,NA,"",   549.551E-03,  -542.774E-03,  -86.0374E-03,   34.6620E-06
C:/temp/dataset/test2/8_1.odb,Step-1,Increment      1: Step Time =    1.000,"PART-1-1",           347,            3.,        4.6875,            0.,NA,NA,"",   528.913E-03,  -525.729E-03,   57.9534E-03,   295.967E-06
C:/temp/dataset/test2/8_1.odb,Step-1,Increment      1: Step Time =    1.000,"PART-1-1",           348,            4.,          3.75,            0.,NA,NA,"",   513.436E-03,  -507.395E-03,   78.5309E-03,   579.952E-06
C:/temp/dataset/test2/8_1.odb,Step-1,Increment      1: Step Time =    1.000,"PART-1-1",           349,            5.,        4.6875,            0.,NA,NA,"",   535.364E-03,  -526.237E-03,   98.4346E-03,   134.194E-06
C:/temp/dataset/test2/8_1.odb,Step-1,Increment      1: Step Time =    1.000,"PART-1-1",           350,            1.,        4.6875,            0.,NA,NA,"",   525.155E-03,  -524.882E-03,   16.9290E-03,   234.716E-06
C:/temp/dataset/test2/8_1.odb,Step-1,Increment      1: Step Time =    1.000,"PART-1-1",           351,            2.,          3.75,            0.,NA,NA,"",   507.533E-03,  -506.148E-03,   37.4787E-03,   430.720E-06
C:/temp/dataset/test2/8_1.odb,Step-1,Increment      1: Step Time =    1.000,"PART-1-1",           352,           -1.,        4.6875,            0.,NA,NA,"",   524.703E-03,  -524.149E-03,  -24.1023E-03,   167.968E-06
C:/temp/dataset/test2/8_1.odb,Step-1,Increment      1: Step Time =    1.000,"PART-1-1",           353,            0.,          3.75,            0.,NA,NA,"",   505.118E-03,  -505.106E-03,  -3.49191E-03,   302.198E-06
C:/temp/dataset/test2/8_1.odb,Step-1,Increment      1: Step Time =    1.000,"PART-1-1",           354,           -3.,        4.6875,            0.,NA,NA,"",   527.646E-03,  -523.600E-03,  -65.2169E-03,   95.7665E-06
C:/temp/dataset/test2/8_1.odb,Step-1,Increment      1: Step Time =    1.000,"PART-1-1",           355,           -2.,          3.75,            0.,NA,NA,"",   506.341E-03,  -504.386E-03,  -44.4559E-03,   200.880E-06
C:/temp/dataset/test2/8_1.odb,Step-1,Increment      1: Step Time =    1.000,"PART-1-1",           356,           -5.,        4.6875,            0.,NA,NA,"",   533.882E-03,  -523.143E-03,  -106.541E-03,   39.6779E-06
C:/temp/dataset/test2/8_1.odb,Step-1,Increment      1: Step Time =    1.000,"PART-1-1",           357,           -4.,          3.75,            0.,NA,NA,"",   511.130E-03,  -503.904E-03,  -85.6418E-03,   76.8549E-06
C:/temp/dataset/test2/8_1.odb,Step-1,Increment      1: Step Time =    1.000,"PART-1-1",           358,            3.,        2.8125,            0.,NA,NA,"",   491.064E-03,  -487.641E-03,   57.8800E-03,   798.084E-06
C:/temp/dataset/test2/8_1.odb,Step-1,Increment      1: Step Time =    1.000,"PART-1-1",           359,            4.,         1.875,            0.,NA,NA,"",   475.707E-03,  -469.234E-03,   78.2082E-03,   1.01016E-03
C:/temp/dataset/test2/8_1.odb,Step-1,Increment      1: Step Time =    1.000,"PART-1-1",           360,            5.,        2.8125,            0.,NA,NA,"",   499.444E-03,  -489.592E-03,   98.7088E-03,   826.382E-06
C:/temp/dataset/test2/8_1.odb,Step-1,Increment      1: Step Time =    1.000,"PART-1-1",           361,            1.,        2.8125,            0.,NA,NA,"",   486.451E-03,  -486.155E-03,   16.9476E-03,   538.110E-06
C:/temp/dataset/test2/8_1.odb,Step-1,Increment      1: Step Time =    1.000,"PART-1-1",           362,            2.,         1.875,            0.,NA,NA,"",   468.763E-03,  -467.285E-03,   37.1964E-03,   855.640E-06
C:/temp/dataset/test2/8_1.odb,Step-1,Increment      1: Step Time =    1.000,"PART-1-1",           363,           -1.,        2.8125,            0.,NA,NA,"",   485.745E-03,  -485.160E-03,  -23.8371E-03,   386.973E-06
C:/temp/dataset/test2/8_1.odb,Step-1,Increment      1: Step Time =    1.000,"PART-1-1",           364,            0.,         1.875,            0.,NA,NA,"",   465.956E-03,  -465.943E-03,  -3.42432E-03,   604.354E-06
C:/temp/dataset/test2/8_1.odb,Step-1,Increment      1: Step Time =    1.000,"PART-1-1",           365,           -3.,        2.8125,            0.,NA,NA,"",   488.876E-03,  -484.566E-03,  -64.7741E-03,   250.607E-06
C:/temp/dataset/test2/8_1.odb,Step-1,Increment      1: Step Time =    1.000,"PART-1-1",           366,           -2.,         1.875,            0.,NA,NA,"",   467.245E-03,  -465.164E-03,  -44.0571E-03,   418.355E-06
C:/temp/dataset/test2/8_1.odb,Step-1,Increment      1: Step Time =    1.000,"PART-1-1",           367,           -5.,        2.8125,            0.,NA,NA,"",   495.672E-03,  -484.168E-03,  -106.171E-03,   59.0987E-06
C:/temp/dataset/test2/8_1.odb,Step-1,Increment      1: Step Time =    1.000,"PART-1-1",           368,           -4.,         1.875,            0.,NA,NA,"",   472.473E-03,  -464.745E-03,  -85.1018E-03,   212.103E-06
C:/temp/dataset/test2/8_1.odb,Step-1,Increment      1: Step Time =    1.000,"PART-1-1",           369,            3.,     937.5E-03,            0.,NA,NA,"",   451.906E-03,  -448.254E-03,   57.3328E-03,   1.11485E-03
C:/temp/dataset/test2/8_1.odb,Step-1,Increment      1: Step Time =    1.000,"PART-1-1",           370,            4.,            0.,            0.,NA,NA,"",   435.766E-03,  -428.792E-03,   77.6486E-03,   960.260E-06
C:/temp/dataset/test2/8_1.odb,Step-1,Increment      1: Step Time =    1.000,"PART-1-1",           371,            5.,     937.5E-03,            0.,NA,NA,"",   461.173E-03,  -450.379E-03,   99.1957E-03,   869.018E-06
C:/temp/dataset/test2/8_1.odb,Step-1,Increment      1: Step Time =    1.000,"PART-1-1",           372,            1.,     937.5E-03,            0.,NA,NA,"",   447.015E-03,  -446.701E-03,   16.7639E-03,   839.327E-06
C:/temp/dataset/test2/8_1.odb,Step-1,Increment      1: Step Time =    1.000,"PART-1-1",           373,            2.,            0.,            0.,NA,NA,"",   428.902E-03,  -427.321E-03,   36.7945E-03,   1.01449E-03
C:/temp/dataset/test2/8_1.odb,Step-1,Increment      1: Step Time =    1.000,"PART-1-1",           374,           -1.,     937.5E-03,            0.,NA,NA,"",   446.337E-03,  -445.714E-03,  -23.5712E-03,   644.342E-06
C:/temp/dataset/test2/8_1.odb,Step-1,Increment      1: Step Time =    1.000,"PART-1-1",           375,            0.,            0.,            0.,NA,NA,"",   426.234E-03,  -426.221E-03,  -3.34536E-03,   855.760E-06
C:/temp/dataset/test2/8_1.odb,Step-1,Increment      1: Step Time =    1.000,"PART-1-1",           376,           -3.,     937.5E-03,            0.,NA,NA,"",   449.805E-03,  -445.203E-03,  -64.1771E-03,   459.228E-06
C:/temp/dataset/test2/8_1.odb,Step-1,Increment      1: Step Time =    1.000,"PART-1-1",           377,           -2.,            0.,            0.,NA,NA,"",   427.812E-03,  -425.593E-03,  -43.5091E-03,   649.482E-06
C:/temp/dataset/test2/8_1.odb,Step-1,Increment      1: Step Time =    1.000,"PART-1-1",           378,           -5.,     937.5E-03,            0.,NA,NA,"",   457.304E-03,  -444.957E-03,  -105.546E-03,   269.395E-06
C:/temp/dataset/test2/8_1.odb,Step-1,Increment      1: Step Time =    1.000,"PART-1-1",           379,           -4.,            0.,            0.,NA,NA,"",   433.616E-03,  -425.348E-03,  -84.2728E-03,   434.152E-06
C:/temp/dataset/test2/8_1.odb,Step-1,Increment      1: Step Time =    1.000,"PART-1-1",           380,            3.,    -937.5E-03,            0.,NA,NA,"",   411.663E-03,  -407.714E-03,   56.8834E-03,   980.704E-06
C:/temp/dataset/test2/8_1.odb,Step-1,Increment      1: Step Time =    1.000,"PART-1-1",           381,            4.,        -1.875,            0.,NA,NA,"",   395.625E-03,  -388.007E-03,   77.2645E-03,   764.983E-06
C:/temp/dataset/test2/8_1.odb,Step-1,Increment      1: Step Time =    1.000,"PART-1-1",           382,            5.,    -937.5E-03,            0.,NA,NA,"",   420.496E-03,  -408.708E-03,   98.8631E-03,   747.112E-06
C:/temp/dataset/test2/8_1.odb,Step-1,Increment      1: Step Time =    1.000,"PART-1-1",           383,            1.,    -937.5E-03,            0.,NA,NA,"",   406.998E-03,  -406.656E-03,   16.6672E-03,   992.519E-06
C:/temp/dataset/test2/8_1.odb,Step-1,Increment      1: Step Time =    1.000,"PART-1-1",           384,            2.,        -1.875,            0.,NA,NA,"",   388.762E-03,  -387.038E-03,   36.5675E-03,   950.724E-06
C:/temp/dataset/test2/8_1.odb,Step-1,Increment      1: Step Time =    1.000,"PART-1-1",           385,           -1.,    -937.5E-03,            0.,NA,NA,"",   406.607E-03,  -405.948E-03,  -23.1482E-03,   851.820E-06
C:/temp/dataset/test2/8_1.odb,Step-1,Increment      1: Step Time =    1.000,"PART-1-1",           386,            0.,        -1.875,            0.,NA,NA,"",   386.317E-03,  -386.305E-03,  -3.08829E-03,   959.843E-06
C:/temp/dataset/test2/8_1.odb,Step-1,Increment      1: Step Time =    1.000,"PART-1-1",           387,           -3.,    -937.5E-03,            0.,NA,NA,"",   410.556E-03,  -405.647E-03,  -63.2973E-03,   682.945E-06
C:/temp/dataset/test2/8_1.odb,Step-1,Increment      1: Step Time =    1.000,"PART-1-1",           388,           -2.,        -1.875,            0.,NA,NA,"",   388.284E-03,  -385.930E-03,  -42.6965E-03,   832.844E-06
C:/temp/dataset/test2/8_1.odb,Step-1,Increment      1: Step Time =    1.000,"PART-1-1",           389,           -5.,    -937.5E-03,            0.,NA,NA,"",   418.881E-03,  -405.648E-03,  -104.459E-03,   593.293E-06
C:/temp/dataset/test2/8_1.odb,Step-1,Increment      1: Step Time =    1.000,"PART-1-1",           390,           -4.,        -1.875,            0.,NA,NA,"",   394.760E-03,  -385.933E-03,  -83.0138E-03,   720.372E-06
C:/temp/dataset/test2/8_1.odb,Step-1,Increment      1: Step Time =    1.000,"PART-1-1",           391,            3.,       -2.8125,            0.,NA,NA,"",   371.859E-03,  -367.550E-03,   56.4425E-03,   896.270E-06
C:/temp/dataset/test2/8_1.odb,Step-1,Increment      1: Step Time =    1.000,"PART-1-1",           392,            4.,         -3.75,            0.,NA,NA,"",   356.682E-03,  -348.449E-03,   76.1906E-03,   1.09380E-03
C:/temp/dataset/test2/8_1.odb,Step-1,Increment      1: Step Time =    1.000,"PART-1-1",           393,            5.,       -2.8125,            0.,NA,NA,"",   381.469E-03,  -368.783E-03,   97.5617E-03,   1.15819E-03
C:/temp/dataset/test2/8_1.odb,Step-1,Increment      1: Step Time =    1.000,"PART-1-1",           394,            1.,       -2.8125,            0.,NA,NA,"",   367.110E-03,  -366.729E-03,   16.7146E-03,   1.00654E-03
C:/temp/dataset/test2/8_1.odb,Step-1,Increment      1: Step Time =    1.000,"PART-1-1",           395,            2.,         -3.75,            0.,NA,NA,"",   349.252E-03,  -347.361E-03,   36.2878E-03,   934.215E-06
C:/temp/dataset/test2/8_1.odb,Step-1,Increment      1: Step Time =    1.000,"PART-1-1",           396,           -1.,       -2.8125,            0.,NA,NA,"",   366.956E-03,  -366.266E-03,  -22.4945E-03,   969.029E-06
C:/temp/dataset/test2/8_1.odb,Step-1,Increment      1: Step Time =    1.000,"PART-1-1",           397,            0.,         -3.75,            0.,NA,NA,"",   346.754E-03,  -346.743E-03,  -2.68714E-03,   970.753E-06
C:/temp/dataset/test2/8_1.odb,Step-1,Increment      1: Step Time =    1.000,"PART-1-1",           398,           -3.,       -2.8125,            0.,NA,NA,"",   371.427E-03,  -366.209E-03,  -62.0406E-03,   897.822E-06
C:/temp/dataset/test2/8_1.odb,Step-1,Increment      1: Step Time =    1.000,"PART-1-1",           399,           -2.,         -3.75,            0.,NA,NA,"",   349.057E-03,  -346.571E-03,  -41.5797E-03,   962.625E-06
C:/temp/dataset/test2/8_1.odb,Step-1,Increment      1: Step Time =    1.000,"PART-1-1",           400,           -5.,       -2.8125,            0.,NA,NA,"",   380.645E-03,  -366.517E-03,  -102.742E-03,   995.277E-06
C:/temp/dataset/test2/8_1.odb,Step-1,Increment      1: Step Time =    1.000,"PART-1-1",           401,           -4.,         -3.75,            0.,NA,NA,"",   356.227E-03,  -346.842E-03,  -81.2320E-03,   1.04137E-03
C:/temp/dataset/test2/8_1.odb,Step-1,Increment      1: Step Time =    1.000,"PART-1-1",           402,            3.,       -4.6875,            0.,NA,NA,"",   333.041E-03,  -328.369E-03,   55.5887E-03,   1.07696E-03
C:/temp/dataset/test2/8_1.odb,Step-1,Increment      1: Step Time =    1.000,"PART-1-1",           403,            4.,        -5.625,            0.,NA,NA,"",   318.716E-03,  -309.873E-03,   74.5532E-03,   1.40700E-03
C:/temp/dataset/test2/8_1.odb,Step-1,Increment      1: Step Time =    1.000,"PART-1-1",           404,            5.,       -4.6875,            0.,NA,NA,"",   343.453E-03,  -329.854E-03,   95.6869E-03,   1.53901E-03
C:/temp/dataset/test2/8_1.odb,Step-1,Increment      1: Step Time =    1.000,"PART-1-1",           405,            1.,       -4.6875,            0.,NA,NA,"",   327.902E-03,  -327.475E-03,   16.7271E-03,   998.663E-06
C:/temp/dataset/test2/8_1.odb,Step-1,Increment      1: Step Time =    1.000,"PART-1-1",           406,            2.,        -5.625,            0.,NA,NA,"",   310.652E-03,  -308.591E-03,   35.7258E-03,   1.02831E-03
C:/temp/dataset/test2/8_1.odb,Step-1,Increment      1: Step Time =    1.000,"PART-1-1",           407,           -1.,       -4.6875,            0.,NA,NA,"",   327.833E-03,  -327.117E-03,  -21.6471E-03,   1.02139E-03
C:/temp/dataset/test2/8_1.odb,Step-1,Increment      1: Step Time =    1.000,"PART-1-1",           408,            0.,        -5.625,            0.,NA,NA,"",   307.959E-03,  -307.951E-03,  -2.25252E-03,   965.772E-06
C:/temp/dataset/test2/8_1.odb,Step-1,Increment      1: Step Time =    1.000,"PART-1-1",           409,           -3.,       -4.6875,            0.,NA,NA,"",   332.794E-03,  -327.272E-03,  -60.3709E-03,   1.10581E-03
C:/temp/dataset/test2/8_1.odb,Step-1,Increment      1: Step Time =    1.000,"PART-1-1",           410,           -2.,        -5.625,            0.,NA,NA,"",   310.521E-03,  -307.911E-03,  -40.1760E-03,   1.06961E-03
C:/temp/dataset/test2/8_1.odb,Step-1,Increment      1: Step Time =    1.000,"PART-1-1",           411,           -5.,       -4.6875,            0.,NA,NA,"",   342.911E-03,  -327.912E-03,  -100.310E-03,   1.43126E-03
C:/temp/dataset/test2/8_1.odb,Step-1,Increment      1: Step Time =    1.000,"PART-1-1",           412,           -4.,        -5.625,            0.,NA,NA,"",   318.372E-03,  -308.443E-03,  -78.8903E-03,   1.37545E-03
C:/temp/dataset/test2/8_1.odb,Step-1,Increment      1: Step Time =    1.000,"PART-1-1",           413,            3.,       -6.5625,            0.,NA,NA,"",   295.236E-03,  -290.205E-03,   54.2716E-03,   1.29980E-03
C:/temp/dataset/test2/8_1.odb,Step-1,Increment      1: Step Time =    1.000,"PART-1-1",           414,            4.,          -7.5,            0.,NA,NA,"",   281.849E-03,  -272.408E-03,   72.3402E-03,   1.72956E-03
C:/temp/dataset/test2/8_1.odb,Step-1,Increment      1: Step Time =    1.000,"PART-1-1",           415,            5.,       -6.5625,            0.,NA,NA,"",   306.459E-03,  -291.958E-03,   93.1513E-03,   1.92816E-03
C:/temp/dataset/test2/8_1.odb,Step-1,Increment      1: Step Time =    1.000,"PART-1-1",           416,            1.,       -6.5625,            0.,NA,NA,"",   289.660E-03,  -289.185E-03,   16.5855E-03,   1.01995E-03
C:/temp/dataset/test2/8_1.odb,Step-1,Increment      1: Step Time =    1.000,"PART-1-1",           417,            2.,          -7.5,            0.,NA,NA,"",   273.154E-03,  -270.922E-03,   34.8436E-03,   1.15255E-03
C:/temp/dataset/test2/8_1.odb,Step-1,Increment      1: Step Time =    1.000,"PART-1-1",           418,           -1.,       -6.5625,            0.,NA,NA,"",   289.600E-03,  -288.862E-03,  -20.6617E-03,   1.05004E-03
C:/temp/dataset/test2/8_1.odb,Step-1,Increment      1: Step Time =    1.000,"PART-1-1",           419,            0.,          -7.5,            0.,NA,NA,"",   270.233E-03,  -270.226E-03,  -1.84272E-03,   962.528E-06
C:/temp/dataset/test2/8_1.odb,Step-1,Increment      1: Step Time =    1.000,"PART-1-1",           420,           -3.,       -6.5625,            0.,NA,NA,"",   295.016E-03,  -289.201E-03,  -58.2871E-03,   1.31776E-03
C:/temp/dataset/test2/8_1.odb,Step-1,Increment      1: Step Time =    1.000,"PART-1-1",           421,           -2.,          -7.5,            0.,NA,NA,"",   273.015E-03,  -270.286E-03,  -38.5085E-03,   1.17876E-03
C:/temp/dataset/test2/8_1.odb,Step-1,Increment      1: Step Time =    1.000,"PART-1-1",           422,           -5.,       -6.5625,            0.,NA,NA,"",   306.006E-03,  -290.176E-03,  -97.1477E-03,   1.87223E-03
C:/temp/dataset/test2/8_1.odb,Step-1,Increment      1: Step Time =    1.000,"PART-1-1",           423,           -4.,          -7.5,            0.,NA,NA,"",   281.521E-03,  -271.073E-03,  -75.9855E-03,   1.71205E-03
C:/temp/dataset/test2/8_1.odb,Step-1,Increment      1: Step Time =    1.000,"PART-1-1",           424,            3.,       -8.4375,            0.,NA,NA,"",   258.642E-03,  -253.257E-03,   52.5010E-03,   1.53221E-03
C:/temp/dataset/test2/8_1.odb,Step-1,Increment      1: Step Time =    1.000,"PART-1-1",           425,            4.,        -9.375,            0.,NA,NA,"",   246.299E-03,  -236.276E-03,   69.5467E-03,   2.05736E-03
C:/temp/dataset/test2/8_1.odb,Step-1,Increment      1: Step Time =    1.000,"PART-1-1",           426,            5.,       -8.4375,            0.,NA,NA,"",   270.655E-03,  -255.279E-03,   89.9246E-03,   2.33359E-03
C:/temp/dataset/test2/8_1.odb,Step-1,Increment      1: Step Time =    1.000,"PART-1-1",           427,            1.,       -8.4375,            0.,NA,NA,"",   252.628E-03,  -252.104E-03,   16.2630E-03,   1.05785E-03
C:/temp/dataset/test2/8_1.odb,Step-1,Increment      1: Step Time =    1.000,"PART-1-1",           428,            2.,        -9.375,            0.,NA,NA,"",   236.989E-03,  -234.590E-03,   33.6393E-03,   1.28797E-03
C:/temp/dataset/test2/8_1.odb,Step-1,Increment      1: Step Time =    1.000,"PART-1-1",           429,           -1.,       -8.4375,            0.,NA,NA,"",   252.558E-03,  -251.799E-03,  -19.5663E-03,   1.07759E-03
C:/temp/dataset/test2/8_1.odb,Step-1,Increment      1: Step Time =    1.000,"PART-1-1",           430,            0.,        -9.375,            0.,NA,NA,"",   233.840E-03,  -233.835E-03,  -1.47355E-03,   961.537E-06
C:/temp/dataset/test2/8_1.odb,Step-1,Increment      1: Step Time =    1.000,"PART-1-1",           431,           -3.,       -8.4375,            0.,NA,NA,"",   258.408E-03,  -252.312E-03,  -55.7973E-03,   1.53887E-03
C:/temp/dataset/test2/8_1.odb,Step-1,Increment      1: Step Time =    1.000,"PART-1-1",           432,           -2.,        -9.375,            0.,NA,NA,"",   236.833E-03,  -233.990E-03,  -36.5884E-03,   1.29905E-03
C:/temp/dataset/test2/8_1.odb,Step-1,Increment      1: Step Time =    1.000,"PART-1-1",           433,           -5.,       -8.4375,            0.,NA,NA,"",   270.230E-03,  -253.624E-03,  -93.2680E-03,   2.30739E-03
C:/temp/dataset/test2/8_1.odb,Step-1,Increment      1: Step Time =    1.000,"PART-1-1",           434,           -4.,        -9.375,            0.,NA,NA,"",   245.967E-03,  -235.032E-03,  -72.5264E-03,   2.04793E-03
C:/temp/dataset/test2/8_1.odb,Step-1,Increment      1: Step Time =    1.000,"PART-1-1",           435,            3.,      -10.3125,            0.,NA,NA,"",   223.498E-03,  -217.771E-03,   50.2742E-03,   1.76866E-03
C:/temp/dataset/test2/8_1.odb,Step-1,Increment      1: Step Time =    1.000,"PART-1-1",           436,            4.,        -11.25,            0.,NA,NA,"",   212.306E-03,  -201.734E-03,   66.1608E-03,   2.38941E-03
C:/temp/dataset/test2/8_1.odb,Step-1,Increment      1: Step Time =    1.000,"PART-1-1",           437,            5.,      -10.3125,            0.,NA,NA,"",   236.261E-03,  -220.062E-03,   85.9773E-03,   2.74781E-03
C:/temp/dataset/test2/8_1.odb,Step-1,Increment      1: Step Time =    1.000,"PART-1-1",           438,            1.,      -10.3125,            0.,NA,NA,"",   217.062E-03,  -216.489E-03,   15.7565E-03,   1.10228E-03
C:/temp/dataset/test2/8_1.odb,Step-1,Increment      1: Step Time =    1.000,"PART-1-1",           439,            2.,        -11.25,            0.,NA,NA,"",   202.414E-03,  -199.851E-03,   32.1132E-03,   1.42880E-03
C:/temp/dataset/test2/8_1.odb,Step-1,Increment      1: Step Time =    1.000,"PART-1-1",           440,           -1.,      -10.3125,            0.,NA,NA,"",   216.982E-03,  -216.203E-03,  -18.3682E-03,   1.11118E-03
C:/temp/dataset/test2/8_1.odb,Step-1,Increment      1: Step Time =    1.000,"PART-1-1",           441,            0.,        -11.25,            0.,NA,NA,"",   199.047E-03,  -199.043E-03,  -1.14635E-03,   961.309E-06
C:/temp/dataset/test2/8_1.odb,Step-1,Increment      1: Step Time =    1.000,"PART-1-1",           442,           -3.,      -10.3125,            0.,NA,NA,"",   223.252E-03,  -216.892E-03,  -52.9087E-03,   1.76848E-03
C:/temp/dataset/test2/8_1.odb,Step-1,Increment      1: Step Time =    1.000,"PART-1-1",           443,           -2.,        -11.25,            0.,NA,NA,"",   202.248E-03,  -199.297E-03,  -34.4201E-03,   1.43027E-03
C:/temp/dataset/test2/8_1.odb,Step-1,Increment      1: Step Time =    1.000,"PART-1-1",           444,           -5.,      -10.3125,            0.,NA,NA,"",   235.851E-03,  -218.541E-03,  -88.6890E-03,   2.73608E-03
C:/temp/dataset/test2/8_1.odb,Step-1,Increment      1: Step Time =    1.000,"PART-1-1",           445,           -4.,        -11.25,            0.,NA,NA,"",   211.977E-03,  -200.597E-03,  -68.5227E-03,   2.38297E-03
C:/temp/dataset/test2/8_1.odb,Step-1,Increment      1: Step Time =    1.000,"PART-1-1",           446,            3.,      -12.1875,            0.,NA,NA,"",   190.062E-03,  -184.008E-03,   47.5882E-03,   2.00827E-03
C:/temp/dataset/test2/8_1.odb,Step-1,Increment      1: Step Time =    1.000,"PART-1-1",           447,            4.,       -13.125,            0.,NA,NA,"",   180.121E-03,  -169.049E-03,   62.1755E-03,   2.72376E-03
C:/temp/dataset/test2/8_1.odb,Step-1,Increment      1: Step Time =    1.000,"PART-1-1",           448,            5.,      -12.1875,            0.,NA,NA,"",   203.510E-03,  -186.567E-03,   81.2952E-03,   3.16691E-03
C:/temp/dataset/test2/8_1.odb,Step-1,Increment      1: Step Time =    1.000,"PART-1-1",           449,            1.,      -12.1875,            0.,NA,NA,"",   183.224E-03,  -182.603E-03,   15.0674E-03,   1.15012E-03
C:/temp/dataset/test2/8_1.odb,Step-1,Increment      1: Step Time =    1.000,"PART-1-1",           450,            2.,       -13.125,            0.,NA,NA,"",   169.692E-03,  -166.972E-03,   30.2650E-03,   1.57390E-03
C:/temp/dataset/test2/8_1.odb,Step-1,Increment      1: Step Time =    1.000,"PART-1-1",           451,           -1.,      -12.1875,            0.,NA,NA,"",   183.139E-03,  -182.342E-03,  -17.0680E-03,   1.15154E-03
C:/temp/dataset/test2/8_1.odb,Step-1,Increment      1: Step Time =    1.000,"PART-1-1",           452,            0.,       -13.125,            0.,NA,NA,"",   166.119E-03,  -166.117E-03,  -860.145E-06,   961.283E-06
C:/temp/dataset/test2/8_1.odb,Step-1,Increment      1: Step Time =    1.000,"PART-1-1",           453,           -3.,      -12.1875,            0.,NA,NA,"",   189.813E-03,  -183.210E-03,  -49.6263E-03,   2.00419E-03
C:/temp/dataset/test2/8_1.odb,Step-1,Increment      1: Step Time =    1.000,"PART-1-1",           454,           -2.,       -13.125,            0.,NA,NA,"",   169.523E-03,  -166.475E-03,  -32.0051E-03,   1.56980E-03
C:/temp/dataset/test2/8_1.odb,Step-1,Increment      1: Step Time =    1.000,"PART-1-1",           455,           -5.,      -12.1875,            0.,NA,NA,"",   203.121E-03,  -185.198E-03,  -83.4239E-03,   3.16061E-03
C:/temp/dataset/test2/8_1.odb,Step-1,Increment      1: Step Time =    1.000,"PART-1-1",           456,           -4.,       -13.125,            0.,NA,NA,"",   179.803E-03,  -168.035E-03,  -63.9818E-03,   2.71766E-03
C:/temp/dataset/test2/8_1.odb,Step-1,Increment      1: Step Time =    1.000,"PART-1-1",           457,            3.,      -14.0625,            0.,NA,NA,"",   158.591E-03,  -152.238E-03,   44.4397E-03,   2.25055E-03
C:/temp/dataset/test2/8_1.odb,Step-1,Increment      1: Step Time =    1.000,"PART-1-1",           458,            4.,          -15.,            0.,NA,NA,"",   149.986E-03,  -138.490E-03,   57.5858E-03,   3.05940E-03
C:/temp/dataset/test2/8_1.odb,Step-1,Increment      1: Step Time =    1.000,"PART-1-1",           459,            5.,      -14.0625,            0.,NA,NA,"",   172.629E-03,  -155.062E-03,   75.8700E-03,   3.58817E-03
C:/temp/dataset/test2/8_1.odb,Step-1,Increment      1: Step Time =    1.000,"PART-1-1",           460,            1.,      -14.0625,            0.,NA,NA,"",   151.380E-03,  -150.713E-03,   14.1959E-03,   1.20090E-03
C:/temp/dataset/test2/8_1.odb,Step-1,Increment      1: Step Time =    1.000,"PART-1-1",           461,            2.,          -15.,            0.,NA,NA,"",   139.087E-03,  -136.220E-03,   28.0935E-03,   1.72271E-03
C:/temp/dataset/test2/8_1.odb,Step-1,Increment      1: Step Time =    1.000,"PART-1-1",           462,           -1.,      -14.0625,            0.,NA,NA,"",   151.294E-03,  -150.481E-03,  -15.6657E-03,   1.19767E-03
C:/temp/dataset/test2/8_1.odb,Step-1,Increment      1: Step Time =    1.000,"PART-1-1",           463,            0.,          -15.,            0.,NA,NA,"",   135.323E-03,  -135.322E-03,  -614.612E-06,   961.285E-06
C:/temp/dataset/test2/8_1.odb,Step-1,Increment      1: Step Time =    1.000,"PART-1-1",           464,           -3.,      -14.0625,            0.,NA,NA,"",   158.348E-03,  -151.533E-03,  -45.9536E-03,   2.24389E-03
C:/temp/dataset/test2/8_1.odb,Step-1,Increment      1: Step Time =    1.000,"PART-1-1",           465,           -2.,          -15.,            0.,NA,NA,"",   138.922E-03,  -135.787E-03,  -29.3449E-03,   1.71515E-03
C:/temp/dataset/test2/8_1.odb,Step-1,Increment      1: Step Time =    1.000,"PART-1-1",           466,           -5.,      -14.0625,            0.,NA,NA,"",   172.269E-03,  -153.862E-03,  -77.4808E-03,   3.58308E-03
C:/temp/dataset/test2/8_1.odb,Step-1,Increment      1: Step Time =    1.000,"PART-1-1",           467,           -4.,          -15.,            0.,NA,NA,"",   149.688E-03,  -137.610E-03,  -58.9081E-03,   3.05238E-03
C:/temp/dataset/test2/8_1.odb,Step-1,Increment      1: Step Time =    1.000,"PART-1-1",           468,            3.,      -15.9375,            0.,NA,NA,"",   129.341E-03,  -122.729E-03,   40.8265E-03,   2.49500E-03
C:/temp/dataset/test2/8_1.odb,Step-1,Increment      1: Step Time =    1.000,"PART-1-1",           469,            4.,       -16.875,            0.,NA,NA,"",   122.134E-03,  -110.327E-03,   52.3892E-03,   3.39577E-03
C:/temp/dataset/test2/8_1.odb,Step-1,Increment      1: Step Time =    1.000,"PART-1-1",           470,            5.,      -15.9375,            0.,NA,NA,"",   143.833E-03,  -125.818E-03,   69.6973E-03,   4.01032E-03
C:/temp/dataset/test2/8_1.odb,Step-1,Increment      1: Step Time =    1.000,"PART-1-1",           471,            1.,      -15.9375,            0.,NA,NA,"",   121.797E-03,  -121.086E-03,   13.1418E-03,   1.25479E-03
C:/temp/dataset/test2/8_1.odb,Step-1,Increment      1: Step Time =    1.000,"PART-1-1",           472,            2.,       -16.875,            0.,NA,NA,"",   110.862E-03,  -107.866E-03,   25.5976E-03,   1.87482E-03
C:/temp/dataset/test2/8_1.odb,Step-1,Increment      1: Step Time =    1.000,"PART-1-1",           473,           -1.,      -15.9375,            0.,NA,NA,"",   121.714E-03,  -120.887E-03,  -14.1618E-03,   1.24842E-03
C:/temp/dataset/test2/8_1.odb,Step-1,Increment      1: Step Time =    1.000,"PART-1-1",           474,            0.,       -16.875,            0.,NA,NA,"",   106.925E-03,  -106.924E-03,  -410.023E-06,   961.332E-06
C:/temp/dataset/test2/8_1.odb,Step-1,Increment      1: Step Time =    1.000,"PART-1-1",           475,           -3.,      -15.9375,            0.,NA,NA,"",   129.110E-03,  -122.125E-03,  -41.8929E-03,   2.48618E-03
C:/temp/dataset/test2/8_1.odb,Step-1,Increment      1: Step Time =    1.000,"PART-1-1",           476,           -2.,       -16.875,            0.,NA,NA,"",   110.703E-03,  -107.499E-03,  -26.4405E-03,   1.86456E-03
C:/temp/dataset/test2/8_1.odb,Step-1,Increment      1: Step Time =    1.000,"PART-1-1",           477,           -5.,      -15.9375,            0.,NA,NA,"",   143.511E-03,  -124.795E-03,  -70.8635E-03,   4.00474E-03
C:/temp/dataset/test2/8_1.odb,Step-1,Increment      1: Step Time =    1.000,"PART-1-1",           478,           -4.,       -16.875,            0.,NA,NA,"",   121.862E-03,  -109.585E-03,  -53.3043E-03,   3.38731E-03
C:/temp/dataset/test2/8_1.odb,Step-1,Increment      1: Step Time =    1.000,"PART-1-1",           479,            3.,      -17.8125,            0.,NA,NA,"",   102.559E-03,  -95.7501E-03,   36.7471E-03,   2.74128E-03
C:/temp/dataset/test2/8_1.odb,Step-1,Increment      1: Step Time =    1.000,"PART-1-1",           480,            4.,        -18.75,            0.,NA,NA,"",   96.7785E-03,  -84.8289E-03,   46.5847E-03,   3.73240E-03
C:/temp/dataset/test2/8_1.odb,Step-1,Increment      1: Step Time =    1.000,"PART-1-1",           481,            5.,      -17.8125,            0.,NA,NA,"",   117.313E-03,  -99.1040E-03,   62.7754E-03,   4.43253E-03
C:/temp/dataset/test2/8_1.odb,Step-1,Increment      1: Step Time =    1.000,"PART-1-1",           482,            1.,      -17.8125,            0.,NA,NA,"",   94.7414E-03,  -93.9905E-03,   11.9046E-03,   1.31200E-03
C:/temp/dataset/test2/8_1.odb,Step-1,Increment      1: Step Time =    1.000,"PART-1-1",           483,            2.,        -18.75,            0.,NA,NA,"",   85.2743E-03,  -82.1762E-03,   22.7766E-03,   2.03001E-03
C:/temp/dataset/test2/8_1.odb,Step-1,Increment      1: Step Time =    1.000,"PART-1-1",           484,           -1.,      -17.8125,            0.,NA,NA,"",   94.6602E-03,  -93.8237E-03,  -12.5565E-03,   1.30300E-03
C:/temp/dataset/test2/8_1.odb,Step-1,Increment      1: Step Time =    1.000,"PART-1-1",           485,            0.,        -18.75,            0.,NA,NA,"",   81.1916E-03,  -81.1912E-03,  -246.606E-06,   961.779E-06
C:/temp/dataset/test2/8_1.odb,Step-1,Increment      1: Step Time =    1.000,"PART-1-1",           486,           -3.,      -17.8125,            0.,NA,NA,"",   102.344E-03,  -95.2480E-03,  -37.4454E-03,   2.73035E-03
C:/temp/dataset/test2/8_1.odb,Step-1,Increment      1: Step Time =    1.000,"PART-1-1",           487,           -2.,        -18.75,            0.,NA,NA,"",   85.1235E-03,  -81.8749E-03,  -23.2921E-03,   2.01715E-03
C:/temp/dataset/test2/8_1.odb,Step-1,Increment      1: Step Time =    1.000,"PART-1-1",           488,           -5.,      -17.8125,            0.,NA,NA,"",   117.033E-03,  -98.2607E-03,  -63.5739E-03,   4.42600E-03
C:/temp/dataset/test2/8_1.odb,Step-1,Increment      1: Step Time =    1.000,"PART-1-1",           489,           -4.,        -18.75,            0.,NA,NA,"",   96.5354E-03,  -84.2257E-03,  -47.1711E-03,   3.72237E-03
C:/temp/dataset/test2/8_1.odb,Step-1,Increment      1: Step Time =    1.000,"PART-1-1",           490,            3.,      -19.6875,            0.,NA,NA,"",   78.4822E-03,  -71.5720E-03,   32.2011E-03,   2.98904E-03
C:/temp/dataset/test2/8_1.odb,Step-1,Increment      1: Step Time =    1.000,"PART-1-1",           491,            4.,       -20.625,            0.,NA,NA,"",   74.1014E-03,  -62.2667E-03,   40.1732E-03,   4.06938E-03
C:/temp/dataset/test2/8_1.odb,Step-1,Increment      1: Step Time =    1.000,"PART-1-1",           492,            5.,      -19.6875,            0.,NA,NA,"",   93.2212E-03,  -75.1910E-03,   55.1045E-03,   4.85448E-03
C:/temp/dataset/test2/8_1.odb,Step-1,Increment      1: Step Time =    1.000,"PART-1-1",           493,            1.,      -19.6875,            0.,NA,NA,"",   70.4765E-03,  -69.6923E-03,   10.4838E-03,   1.37365E-03
C:/temp/dataset/test2/8_1.odb,Step-1,Increment      1: Step Time =    1.000,"PART-1-1",           494,            2.,       -20.625,            0.,NA,NA,"",   62.5772E-03,  -59.4190E-03,   19.6290E-03,   2.18854E-03
C:/temp/dataset/test2/8_1.odb,Step-1,Increment      1: Step Time =    1.000,"PART-1-1",           495,           -1.,      -19.6875,            0.,NA,NA,"",   70.3984E-03,  -69.5573E-03,  -10.8496E-03,   1.36190E-03
C:/temp/dataset/test2/8_1.odb,Step-1,Increment      1: Step Time =    1.000,"PART-1-1",           496,            0.,       -20.625,            0.,NA,NA,"",   58.3862E-03,  -58.3861E-03,  -123.959E-06,   963.778E-06
C:/temp/dataset/test2/8_1.odb,Step-1,Increment      1: Step Time =    1.000,"PART-1-1",           497,           -3.,      -19.6875,            0.,NA,NA,"",   78.2843E-03,  -71.1685E-03,  -32.6112E-03,   2.97589E-03
C:/temp/dataset/test2/8_1.odb,Step-1,Increment      1: Step Time =    1.000,"PART-1-1",           498,           -2.,       -20.625,            0.,NA,NA,"",   62.4352E-03,  -59.1797E-03,  -19.8975E-03,   2.17287E-03
C:/temp/dataset/test2/8_1.odb,Step-1,Increment      1: Step Time =    1.000,"PART-1-1",           499,           -5.,      -19.6875,            0.,NA,NA,"",   92.9860E-03,  -74.5229E-03,  -55.6123E-03,   4.84714E-03
C:/temp/dataset/test2/8_1.odb,Step-1,Increment      1: Step Time =    1.000,"PART-1-1",           500,           -4.,       -20.625,            0.,NA,NA,"",   73.8886E-03,  -61.7947E-03,  -40.5086E-03,   4.05787E-03
C:/temp/dataset/test2/8_1.odb,Step-1,Increment      1: Step Time =    1.000,"PART-1-1",           501,            3.,      -21.5625,            0.,NA,NA,"",   57.3200E-03,  -50.4626E-03,   27.1866E-03,   3.24093E-03
C:/temp/dataset/test2/8_1.odb,Step-1,Increment      1: Step Time =    1.000,"PART-1-1",           502,            4.,         -22.5,            0.,NA,NA,"",   54.2325E-03,  -42.9147E-03,   33.1586E-03,   4.40289E-03
C:/temp/dataset/test2/8_1.odb,Step-1,Increment      1: Step Time =    1.000,"PART-1-1",           503,            5.,      -21.5625,            0.,NA,NA,"",   71.6489E-03,  -54.3496E-03,   46.6872E-03,   5.27093E-03
C:/temp/dataset/test2/8_1.odb,Step-1,Increment      1: Step Time =    1.000,"PART-1-1",           504,            1.,      -21.5625,            0.,NA,NA,"",   49.2618E-03,  -48.4554E-03,   8.87659E-03,   1.44219E-03
C:/temp/dataset/test2/8_1.odb,Step-1,Increment      1: Step Time =    1.000,"PART-1-1",           505,            2.,         -22.5,            0.,NA,NA,"",   43.0089E-03,  -39.8606E-03,   16.1523E-03,   2.35620E-03
C:/temp/dataset/test2/8_1.odb,Step-1,Increment      1: Step Time =    1.000,"PART-1-1",           506,           -1.,      -21.5625,            0.,NA,NA,"",   49.1868E-03,  -48.3496E-03,  -9.03642E-03,   1.42735E-03
C:/temp/dataset/test2/8_1.odb,Step-1,Increment      1: Step Time =    1.000,"PART-1-1",           507,            0.,         -22.5,            0.,NA,NA,"",   38.7724E-03,  -38.7724E-03,  -40.7128E-06,   973.574E-06
C:/temp/dataset/test2/8_1.odb,Step-1,Increment      1: Step Time =    1.000,"PART-1-1",           508,           -3.,      -21.5625,            0.,NA,NA,"",   57.1407E-03,  -50.1502E-03,  -27.3864E-03,   3.22541E-03
C:/temp/dataset/test2/8_1.odb,Step-1,Increment      1: Step Time =    1.000,"PART-1-1",           509,           -2.,         -22.5,            0.,NA,NA,"",   42.8763E-03,  -39.6772E-03,  -16.2513E-03,   2.33738E-03
C:/temp/dataset/test2/8_1.odb,Step-1,Increment      1: Step Time =    1.000,"PART-1-1",           510,           -5.,      -21.5625,            0.,NA,NA,"",   71.4582E-03,  -53.8452E-03,  -46.9784E-03,   5.26326E-03
C:/temp/dataset/test2/8_1.odb,Step-1,Increment      1: Step Time =    1.000,"PART-1-1",           511,           -4.,         -22.5,            0.,NA,NA,"",   54.0508E-03,  -42.5616E-03,  -33.3167E-03,   4.39009E-03
C:/temp/dataset/test2/8_1.odb,Step-1,Increment      1: Step Time =    1.000,"PART-1-1",           512,            3.,      -23.4375,            0.,NA,NA,"",   39.2440E-03,  -32.6961E-03,   21.7038E-03,   3.49560E-03
C:/temp/dataset/test2/8_1.odb,Step-1,Increment      1: Step Time =    1.000,"PART-1-1",           513,            4.,       -24.375,            0.,NA,NA,"",   37.1887E-03,  -27.0269E-03,   25.5449E-03,   4.74162E-03
C:/temp/dataset/test2/8_1.odb,Step-1,Increment      1: Step Time =    1.000,"PART-1-1",           514,            5.,      -23.4375,            0.,NA,NA,"",   52.6070E-03,  -36.8533E-03,   37.5411E-03,   5.68408E-03
C:/temp/dataset/test2/8_1.odb,Step-1,Increment      1: Step Time =    1.000,"PART-1-1",           515,            1.,      -23.4375,            0.,NA,NA,"",   31.3532E-03,  -30.5425E-03,   7.08350E-03,   1.52713E-03
C:/temp/dataset/test2/8_1.odb,Step-1,Increment      1: Step Time =    1.000,"PART-1-1",           516,            2.,       -24.375,            0.,NA,NA,"",   26.7655E-03,  -23.7612E-03,   12.3206E-03,   2.53322E-03
C:/temp/dataset/test2/8_1.odb,Step-1,Increment      1: Step Time =    1.000,"PART-1-1",           517,           -1.,      -23.4375,            0.,NA,NA,"",   31.2817E-03,  -30.4621E-03,  -7.11335E-03,   1.50873E-03
C:/temp/dataset/test2/8_1.odb,Step-1,Increment      1: Step Time =    1.000,"PART-1-1",           518,            0.,       -24.375,            0.,NA,NA,"",   22.6020E-03,  -22.6020E-03,   6.10645E-06,   996.573E-06
C:/temp/dataset/test2/8_1.odb,Step-1,Increment      1: Step Time =    1.000,"PART-1-1",           519,           -3.,      -23.4375,            0.,NA,NA,"",   39.0855E-03,  -32.4639E-03,  -21.7664E-03,   3.47753E-03
C:/temp/dataset/test2/8_1.odb,Step-1,Increment      1: Step Time =    1.000,"PART-1-1",           520,           -2.,       -24.375,            0.,NA,NA,"",   26.6457E-03,  -23.6258E-03,  -12.3213E-03,   2.51091E-03
C:/temp/dataset/test2/8_1.odb,Step-1,Increment      1: Step Time =    1.000,"PART-1-1",           521,           -5.,      -23.4375,            0.,NA,NA,"",   52.4585E-03,  -36.4947E-03,  -37.6832E-03,   5.67703E-03
C:/temp/dataset/test2/8_1.odb,Step-1,Increment      1: Step Time =    1.000,"PART-1-1",           522,           -4.,       -24.375,            0.,NA,NA,"",   37.0401E-03,  -26.7766E-03,  -25.5927E-03,   4.72817E-03
C:/temp/dataset/test2/8_1.odb,Step-1,Increment      1: Step Time =    1.000,"PART-1-1",           523,            3.,      -25.3125,            0.,NA,NA,"",   24.2816E-03,  -18.5107E-03,   15.7146E-03,   3.79221E-03
C:/temp/dataset/test2/8_1.odb,Step-1,Increment      1: Step Time =    1.000,"PART-1-1",           524,            4.,        -26.25,            0.,NA,NA,"",   22.8776E-03,  -14.8814E-03,   17.3761E-03,   5.06104E-03
C:/temp/dataset/test2/8_1.odb,Step-1,Increment      1: Step Time =    1.000,"PART-1-1",           525,            5.,      -25.3125,            0.,NA,NA,"",   35.9532E-03,  -22.9322E-03,   27.6902E-03,   6.01747E-03
C:/temp/dataset/test2/8_1.odb,Step-1,Increment      1: Step Time =    1.000,"PART-1-1",           526,            1.,      -25.3125,            0.,NA,NA,"",   16.9820E-03,  -16.2067E-03,   5.07260E-03,   1.61857E-03
C:/temp/dataset/test2/8_1.odb,Step-1,Increment      1: Step Time =    1.000,"PART-1-1",           527,            2.,        -26.25,            0.,NA,NA,"",   13.9996E-03,  -11.3778E-03,   8.15682E-03,   2.75121E-03
C:/temp/dataset/test2/8_1.odb,Step-1,Increment      1: Step Time =    1.000,"PART-1-1",           528,           -1.,      -25.3125,            0.,NA,NA,"",   16.9164E-03,  -16.1480E-03,  -5.04056E-03,   1.59650E-03
C:/temp/dataset/test2/8_1.odb,Step-1,Increment      1: Step Time =    1.000,"PART-1-1",           529,            0.,        -26.25,            0.,NA,NA,"",   10.1698E-03,  -10.1698E-03,   20.9870E-06,   1.01697E-03
C:/temp/dataset/test2/8_1.odb,Step-1,Increment      1: Step Time =    1.000,"PART-1-1",           530,           -3.,      -25.3125,            0.,NA,NA,"",   24.1499E-03,  -18.3462E-03,  -15.7046E-03,   3.77215E-03
C:/temp/dataset/test2/8_1.odb,Step-1,Increment      1: Step Time =    1.000,"PART-1-1",           531,           -2.,        -26.25,            0.,NA,NA,"",   13.9012E-03,  -11.2822E-03,  -8.12134E-03,   2.72661E-03
C:/temp/dataset/test2/8_1.odb,Step-1,Increment      1: Step Time =    1.000,"PART-1-1",           532,           -5.,      -25.3125,            0.,NA,NA,"",   35.8442E-03,  -22.6980E-03,  -27.7418E-03,   6.01087E-03
C:/temp/dataset/test2/8_1.odb,Step-1,Increment      1: Step Time =    1.000,"PART-1-1",           533,           -4.,        -26.25,            0.,NA,NA,"",   22.7658E-03,  -14.7170E-03,  -17.3693E-03,   5.04723E-03
C:/temp/dataset/test2/8_1.odb,Step-1,Increment      1: Step Time =    1.000,"PART-1-1",           534,            3.,      -27.1875,            0.,NA,NA,"",   12.2969E-03,  -8.07816E-03,   9.27128E-03,   4.00436E-03
C:/temp/dataset/test2/8_1.odb,Step-1,Increment      1: Step Time =    1.000,"PART-1-1",           535,            4.,       -28.125,            0.,NA,NA,"",   10.3944E-03,  -6.01595E-03,   8.47652E-03,   5.46019E-03
C:/temp/dataset/test2/8_1.odb,Step-1,Increment      1: Step Time =    1.000,"PART-1-1",           536,            5.,      -27.1875,            0.,NA,NA,"",   21.6118E-03,  -12.7793E-03,   17.4287E-03,   6.43721E-03
C:/temp/dataset/test2/8_1.odb,Step-1,Increment      1: Step Time =    1.000,"PART-1-1",           537,            1.,      -27.1875,            0.,NA,NA,"",   6.52254E-03,  -5.83329E-03,   2.91827E-03,   1.61671E-03
C:/temp/dataset/test2/8_1.odb,Step-1,Increment      1: Step Time =    1.000,"PART-1-1",           538,            2.,       -28.125,            0.,NA,NA,"",   4.82926E-03,  -3.06108E-03,   3.73518E-03,   2.81336E-03
C:/temp/dataset/test2/8_1.odb,Step-1,Increment      1: Step Time =    1.000,"PART-1-1",           539,           -1.,      -27.1875,            0.,NA,NA,"",   6.47045E-03,  -5.79354E-03,  -2.88126E-03,   1.59393E-03
C:/temp/dataset/test2/8_1.odb,Step-1,Increment      1: Step Time =    1.000,"PART-1-1",           540,            0.,       -28.125,            0.,NA,NA,"",   2.09619E-03,  -2.09615E-03,   12.6328E-06,   814.724E-06
C:/temp/dataset/test2/8_1.odb,Step-1,Increment      1: Step Time =    1.000,"PART-1-1",           541,           -3.,      -27.1875,            0.,NA,NA,"",   12.2037E-03,  -7.97071E-03,  -9.24108E-03,   3.98183E-03
C:/temp/dataset/test2/8_1.odb,Step-1,Increment      1: Step Time =    1.000,"PART-1-1",           542,           -2.,       -28.125,            0.,NA,NA,"",   4.77358E-03,  -3.00463E-03,  -3.70935E-03,   2.78676E-03
C:/temp/dataset/test2/8_1.odb,Step-1,Increment      1: Step Time =    1.000,"PART-1-1",           543,           -5.,      -27.1875,            0.,NA,NA,"",   21.5379E-03,  -12.6451E-03,  -17.4351E-03,   6.43354E-03
C:/temp/dataset/test2/8_1.odb,Step-1,Increment      1: Step Time =    1.000,"PART-1-1",           544,           -4.,       -28.125,            0.,NA,NA,"",   10.3225E-03,  -5.92253E-03,  -8.45446E-03,   5.44617E-03
C:/temp/dataset/test2/8_1.odb,Step-1,Increment      1: Step Time =    1.000,"PART-1-1",           545,            3.,      -29.0625,            0.,NA,NA,"",   2.97458E-03,  -1.24033E-03,   2.70364E-03,   3.60351E-03
C:/temp/dataset/test2/8_1.odb,Step-1,Increment      1: Step Time =    1.000,"PART-1-1",           546,            4.,          -30.,            0.,NA,NA,"",            0.,   65.3888E-42,   6.80724E-39,   5.51481E-03
C:/temp/dataset/test2/8_1.odb,Step-1,Increment      1: Step Time =    1.000,"PART-1-1",           547,            5.,      -29.0625,            0.,NA,NA,"",   8.00250E-03,  -5.26724E-03,   6.02463E-03,   7.15420E-03
C:/temp/dataset/test2/8_1.odb,Step-1,Increment      1: Step Time =    1.000,"PART-1-1",           548,            1.,      -29.0625,            0.,NA,NA,"",   908.854E-06,  -276.867E-06,   865.655E-06,   1.12351E-03
C:/temp/dataset/test2/8_1.odb,Step-1,Increment      1: Step Time =    1.000,"PART-1-1",           549,            2.,          -30.,            0.,NA,NA,"",            0.,   201.065E-42,   3.34897E-39,   2.10401E-03
C:/temp/dataset/test2/8_1.odb,Step-1,Increment      1: Step Time =    1.000,"PART-1-1",           550,           -1.,      -29.0625,            0.,NA,NA,"",   894.221E-06,  -259.714E-06,  -855.675E-06,   1.10915E-03
C:/temp/dataset/test2/8_1.odb,Step-1,Increment      1: Step Time =    1.000,"PART-1-1",           551,            0.,          -30.,            0.,NA,NA,"",            0.,   460.995E-42,   1.27939E-42,   453.388E-06
C:/temp/dataset/test2/8_1.odb,Step-1,Increment      1: Step Time =    1.000,"PART-1-1",           552,           -3.,      -29.0625,            0.,NA,NA,"",   2.94442E-03,  -1.19349E-03,  -2.69168E-03,   3.58309E-03
C:/temp/dataset/test2/8_1.odb,Step-1,Increment      1: Step Time =    1.000,"PART-1-1",           553,           -2.,          -30.,            0.,NA,NA,"",            0.,   212.391E-42,  -3.34368E-39,   2.09842E-03
C:/temp/dataset/test2/8_1.odb,Step-1,Increment      1: Step Time =    1.000,"PART-1-1",           554,           -5.,      -29.0625,            0.,NA,NA,"",   7.96325E-03,  -5.22143E-03,  -6.01249E-03,   7.13196E-03
C:/temp/dataset/test2/8_1.odb,Step-1,Increment      1: Step Time =    1.000,"PART-1-1",           555,           -4.,          -30.,            0.,NA,NA,"",            0.,   80.2650E-42,  -6.78965E-39,   5.48598E-03
