ODB Name,Step,Frame,Part Instance Name,    êﬂì_ÉâÉxÉã,X,Y,Z,Section Name,Material Name,Section Point,   U-Magnitude,          U-U1,          U-U2,       S-Mises
C:/temp/dataset/6/10_18.odb,Step-1,Increment      1: Step Time =    1.000,"PART-1-1",             1,            5.,           -5.,            0.,NA,NA,"",       1.40414,      -1.40404,   17.0465E-03,   35.6625E-03
C:/temp/dataset/6/10_18.odb,Step-1,Increment      1: Step Time =    1.000,"PART-1-1",             2,            0.,           -5.,            0.,NA,NA,"",       1.36944,      -1.36807,   61.3090E-03,   14.8202E-03
C:/temp/dataset/6/10_18.odb,Step-1,Increment      1: Step Time =    1.000,"PART-1-1",             3,            5.,      -10.0250,            0.,NA,NA,"",       1.15995,      -1.14961,  -154.482E-03,   29.8227E-03
C:/temp/dataset/6/10_18.odb,Step-1,Increment      1: Step Time =    1.000,"PART-1-1",             4,            5.,      -15.0500,            0.,NA,NA,"",   770.869E-03,  -738.903E-03,  -219.688E-03,   4.84100E-03
C:/temp/dataset/6/10_18.odb,Step-1,Increment      1: Step Time =    1.000,"PART-1-1",             5,            5.,          -20.,            0.,NA,NA,"",   272.730E-03,  -249.452E-03,  -110.252E-03,   70.7958E-03
C:/temp/dataset/6/10_18.odb,Step-1,Increment      1: Step Time =    1.000,"PART-1-1",             6,            0.,          -20.,            0.,NA,NA,"",   154.973E-03,  -154.965E-03,  -1.59372E-03,   5.32007E-03
C:/temp/dataset/6/10_18.odb,Step-1,Increment      1: Step Time =    1.000,"PART-1-1",             7,           -5.,          -20.,            0.,NA,NA,"",   212.125E-03,  -199.062E-03,   73.2891E-03,   41.1722E-03
C:/temp/dataset/6/10_18.odb,Step-1,Increment      1: Step Time =    1.000,"PART-1-1",             8,           -5.,      -14.9750,            0.,NA,NA,"",   554.765E-03,  -530.924E-03,   160.884E-03,   8.24650E-03
C:/temp/dataset/6/10_18.odb,Step-1,Increment      1: Step Time =    1.000,"PART-1-1",             9,           -5.,      -9.95000,            0.,NA,NA,"",   891.691E-03,  -878.057E-03,   155.330E-03,   5.10570E-03
C:/temp/dataset/6/10_18.odb,Step-1,Increment      1: Step Time =    1.000,"PART-1-1",            10,           -5.,           -5.,            0.,NA,NA,"",       1.26429,      -1.26271,   63.1944E-03,   48.0144E-03
C:/temp/dataset/6/10_18.odb,Step-1,Increment      1: Step Time =    1.000,"PART-1-1",            11,           15.,          -30.,            0.,NA,NA,"",            0.,  -16.2601E-39,   29.0324E-39,   56.0219E-03
C:/temp/dataset/6/10_18.odb,Step-1,Increment      1: Step Time =    1.000,"PART-1-1",            12,          -15.,          -30.,            0.,NA,NA,"",            0.,  -12.6296E-39,  -22.1441E-39,   42.3481E-03
C:/temp/dataset/6/10_18.odb,Step-1,Increment      1: Step Time =    1.000,"PART-1-1",            13,           15.,        -21.25,            0.,NA,NA,"",   441.714E-03,  -317.501E-03,   307.090E-03,   36.2903E-03
C:/temp/dataset/6/10_18.odb,Step-1,Increment      1: Step Time =    1.000,"PART-1-1",            14,           15.,         -12.5,            0.,NA,NA,"",       1.12697,      -1.03914,   436.175E-03,   10.6064E-03
C:/temp/dataset/6/10_18.odb,Step-1,Increment      1: Step Time =    1.000,"PART-1-1",            15,           15.,         -3.75,            0.,NA,NA,"",       1.50931,      -1.48433,   273.459E-03,   17.8144E-03
C:/temp/dataset/6/10_18.odb,Step-1,Increment      1: Step Time =    1.000,"PART-1-1",            16,           15.,            5.,            0.,NA,NA,"",       1.57253,      -1.55321,   245.726E-03,   249.726E-06
C:/temp/dataset/6/10_18.odb,Step-1,Increment      1: Step Time =    1.000,"PART-1-1",            17,           10.,            5.,            0.,NA,NA,"",       1.55844,      -1.54866,   174.311E-03,   3.76888E-03
C:/temp/dataset/6/10_18.odb,Step-1,Increment      1: Step Time =    1.000,"PART-1-1",            18,            5.,            5.,            0.,NA,NA,"",       1.52350,      -1.51939,   111.748E-03,   6.65492E-03
C:/temp/dataset/6/10_18.odb,Step-1,Increment      1: Step Time =    1.000,"PART-1-1",            19,            0.,            5.,            0.,NA,NA,"",       1.51289,      -1.51073,   80.8335E-03,   4.17436E-03
C:/temp/dataset/6/10_18.odb,Step-1,Increment      1: Step Time =    1.000,"PART-1-1",            20,           -5.,            5.,            0.,NA,NA,"",       1.56057,      -1.56052,   12.3341E-03,   13.8686E-03
C:/temp/dataset/6/10_18.odb,Step-1,Increment      1: Step Time =    1.000,"PART-1-1",            21,           -5.,         11.25,            0.,NA,NA,"",       1.80480,      -1.80478,   8.58117E-03,   255.067E-06
C:/temp/dataset/6/10_18.odb,Step-1,Increment      1: Step Time =    1.000,"PART-1-1",            22,           -5.,          17.5,            0.,NA,NA,"",       2.02818,      -2.02817,   4.03660E-03,   14.1428E-06
C:/temp/dataset/6/10_18.odb,Step-1,Increment      1: Step Time =    1.000,"PART-1-1",            23,           -5.,         23.75,            0.,NA,NA,"",       2.25139,      -2.25139,   38.4757E-06,   897.054E-09
C:/temp/dataset/6/10_18.odb,Step-1,Increment      1: Step Time =    1.000,"PART-1-1",            24,           -5.,           30.,            0.,NA,NA,"",       2.47465,      -2.47464,  -3.94814E-03,   25.8312E-09
C:/temp/dataset/6/10_18.odb,Step-1,Increment      1: Step Time =    1.000,"PART-1-1",            25,          -10.,           30.,            0.,NA,NA,"",       2.47818,      -2.47145,  -182.550E-03,   315.541E-09
C:/temp/dataset/6/10_18.odb,Step-1,Increment      1: Step Time =    1.000,"PART-1-1",            26,          -15.,           30.,            0.,NA,NA,"",       2.49454,      -2.46826,  -361.154E-03,   29.8728E-09
C:/temp/dataset/6/10_18.odb,Step-1,Increment      1: Step Time =    1.000,"PART-1-1",            27,          -15.,          22.5,            0.,NA,NA,"",       2.22903,      -2.20035,  -356.370E-03,   1.05622E-06
C:/temp/dataset/6/10_18.odb,Step-1,Increment      1: Step Time =    1.000,"PART-1-1",            28,          -15.,           15.,            0.,NA,NA,"",       1.96410,      -1.93239,  -351.504E-03,   53.5709E-06
C:/temp/dataset/6/10_18.odb,Step-1,Increment      1: Step Time =    1.000,"PART-1-1",            29,          -15.,           7.5,            0.,NA,NA,"",       1.70220,      -1.66677,  -345.513E-03,   140.518E-06
C:/temp/dataset/6/10_18.odb,Step-1,Increment      1: Step Time =    1.000,"PART-1-1",            30,          -15.,            0.,            0.,NA,NA,"",       1.45387,      -1.40865,  -359.764E-03,   7.89892E-03
C:/temp/dataset/6/10_18.odb,Step-1,Increment      1: Step Time =    1.000,"PART-1-1",            31,          -15.,          -7.5,            0.,NA,NA,"",       1.11779,      -1.03600,  -419.716E-03,   6.99150E-03
C:/temp/dataset/6/10_18.odb,Step-1,Increment      1: Step Time =    1.000,"PART-1-1",            32,          -15.,          -15.,            0.,NA,NA,"",   653.665E-03,  -536.761E-03,  -373.049E-03,   16.3423E-03
C:/temp/dataset/6/10_18.odb,Step-1,Increment      1: Step Time =    1.000,"PART-1-1",            33,          -15.,         -22.5,            0.,NA,NA,"",   266.967E-03,  -177.049E-03,  -199.813E-03,   28.1067E-03
C:/temp/dataset/6/10_18.odb,Step-1,Increment      1: Step Time =    1.000,"PART-1-1",            34,           2.5,           -5.,            0.,NA,NA,"",       1.39704,      -1.39570,   61.0606E-03,   11.8067E-03
C:/temp/dataset/6/10_18.odb,Step-1,Increment      1: Step Time =    1.000,"PART-1-1",            35,            5.,      -7.51250,            0.,NA,NA,"",       1.30422,      -1.30152,  -83.8548E-03,   38.5507E-03
C:/temp/dataset/6/10_18.odb,Step-1,Increment      1: Step Time =    1.000,"PART-1-1",            36,            5.,      -12.5375,            0.,NA,NA,"",   978.579E-03,  -957.147E-03,  -203.682E-03,   18.4525E-03
C:/temp/dataset/6/10_18.odb,Step-1,Increment      1: Step Time =    1.000,"PART-1-1",            37,            5.,      -17.5250,            0.,NA,NA,"",   550.178E-03,  -511.442E-03,  -202.788E-03,   17.7817E-03
C:/temp/dataset/6/10_18.odb,Step-1,Increment      1: Step Time =    1.000,"PART-1-1",            38,           2.5,          -20.,            0.,NA,NA,"",   172.639E-03,  -169.048E-03,  -35.0278E-03,   25.4085E-03
C:/temp/dataset/6/10_18.odb,Step-1,Increment      1: Step Time =    1.000,"PART-1-1",            39,          -2.5,          -20.,            0.,NA,NA,"",   155.010E-03,  -153.133E-03,   24.0515E-03,   10.8397E-03
C:/temp/dataset/6/10_18.odb,Step-1,Increment      1: Step Time =    1.000,"PART-1-1",            40,           -5.,      -17.4875,            0.,NA,NA,"",   392.600E-03,  -366.699E-03,   140.237E-03,   21.0933E-03
C:/temp/dataset/6/10_18.odb,Step-1,Increment      1: Step Time =    1.000,"PART-1-1",            41,           -5.,      -12.4625,            0.,NA,NA,"",   721.497E-03,  -702.042E-03,   166.416E-03,   1.39419E-03
C:/temp/dataset/6/10_18.odb,Step-1,Increment      1: Step Time =    1.000,"PART-1-1",            42,           -5.,      -7.47500,            0.,NA,NA,"",       1.06358,      -1.05550,   130.836E-03,   16.0059E-03
C:/temp/dataset/6/10_18.odb,Step-1,Increment      1: Step Time =    1.000,"PART-1-1",            43,          -2.5,           -5.,            0.,NA,NA,"",       1.33417,      -1.33303,   55.0315E-03,   25.2540E-03
C:/temp/dataset/6/10_18.odb,Step-1,Increment      1: Step Time =    1.000,"PART-1-1",            44,          12.5,          -30.,            0.,NA,NA,"",            0.,  -20.3219E-39,   51.3891E-39,   18.9047E-03
C:/temp/dataset/6/10_18.odb,Step-1,Increment      1: Step Time =    1.000,"PART-1-1",            45,           10.,          -30.,            0.,NA,NA,"",            0.,   4.77989E-39,   18.1422E-39,   9.44280E-03
C:/temp/dataset/6/10_18.odb,Step-1,Increment      1: Step Time =    1.000,"PART-1-1",            46,           7.5,          -30.,            0.,NA,NA,"",            0.,  -3.36968E-39,  -1.07098E-39,   3.85937E-03
C:/temp/dataset/6/10_18.odb,Step-1,Increment      1: Step Time =    1.000,"PART-1-1",            47,            5.,          -30.,            0.,NA,NA,"",            0.,  -10.1159E-39,  -6.01952E-39,   9.98563E-03
C:/temp/dataset/6/10_18.odb,Step-1,Increment      1: Step Time =    1.000,"PART-1-1",            48,           2.5,          -30.,            0.,NA,NA,"",            0.,  -16.1631E-39,  -4.35114E-39,   14.4026E-03
C:/temp/dataset/6/10_18.odb,Step-1,Increment      1: Step Time =    1.000,"PART-1-1",            49,            0.,          -30.,            0.,NA,NA,"",            0.,  -20.1279E-39,  -18.9161E-39,   15.6943E-03
C:/temp/dataset/6/10_18.odb,Step-1,Increment      1: Step Time =    1.000,"PART-1-1",            50,          -2.5,          -30.,            0.,NA,NA,"",            0.,  -16.7778E-39,   10.0589E-39,   13.9586E-03
C:/temp/dataset/6/10_18.odb,Step-1,Increment      1: Step Time =    1.000,"PART-1-1",            51,           -5.,          -30.,            0.,NA,NA,"",            0.,  -11.8558E-39,   8.15218E-39,   9.87922E-03
C:/temp/dataset/6/10_18.odb,Step-1,Increment      1: Step Time =    1.000,"PART-1-1",            52,          -7.5,          -30.,            0.,NA,NA,"",            0.,  -4.14976E-39,  -946.217E-42,   5.86552E-03
C:/temp/dataset/6/10_18.odb,Step-1,Increment      1: Step Time =    1.000,"PART-1-1",            53,          -10.,          -30.,            0.,NA,NA,"",            0.,  -9.86952E-39,  -20.8977E-39,   8.61773E-03
C:/temp/dataset/6/10_18.odb,Step-1,Increment      1: Step Time =    1.000,"PART-1-1",            54,         -12.5,          -30.,            0.,NA,NA,"",            0.,  -8.15492E-39,  -33.6457E-39,   14.5475E-03
C:/temp/dataset/6/10_18.odb,Step-1,Increment      1: Step Time =    1.000,"PART-1-1",            55,           15.,      -23.4375,            0.,NA,NA,"",   314.893E-03,  -208.934E-03,   235.593E-03,   38.3082E-03
C:/temp/dataset/6/10_18.odb,Step-1,Increment      1: Step Time =    1.000,"PART-1-1",            56,           15.,       -25.625,            0.,NA,NA,"",   206.871E-03,  -128.951E-03,   161.763E-03,   37.9110E-03
C:/temp/dataset/6/10_18.odb,Step-1,Increment      1: Step Time =    1.000,"PART-1-1",            57,           15.,      -27.8125,            0.,NA,NA,"",   111.924E-03,  -69.2111E-03,   87.9586E-03,   42.3106E-03
C:/temp/dataset/6/10_18.odb,Step-1,Increment      1: Step Time =    1.000,"PART-1-1",            58,           15.,      -14.6875,            0.,NA,NA,"",   931.129E-03,  -822.269E-03,   436.892E-03,   10.3577E-03
C:/temp/dataset/6/10_18.odb,Step-1,Increment      1: Step Time =    1.000,"PART-1-1",            59,           15.,       -16.875,            0.,NA,NA,"",   754.303E-03,  -630.031E-03,   414.770E-03,   21.2532E-03
C:/temp/dataset/6/10_18.odb,Step-1,Increment      1: Step Time =    1.000,"PART-1-1",            60,           15.,      -19.0625,            0.,NA,NA,"",   589.215E-03,  -458.976E-03,   369.480E-03,   30.7101E-03
C:/temp/dataset/6/10_18.odb,Step-1,Increment      1: Step Time =    1.000,"PART-1-1",            61,           15.,       -5.9375,            0.,NA,NA,"",       1.49275,      -1.45912,   315.063E-03,   27.4060E-03
C:/temp/dataset/6/10_18.odb,Step-1,Increment      1: Step Time =    1.000,"PART-1-1",            62,           15.,        -8.125,            0.,NA,NA,"",       1.41823,      -1.37190,   359.535E-03,   26.1398E-03
C:/temp/dataset/6/10_18.odb,Step-1,Increment      1: Step Time =    1.000,"PART-1-1",            63,           15.,      -10.3125,            0.,NA,NA,"",       1.29884,      -1.23522,   401.525E-03,   23.4759E-03
C:/temp/dataset/6/10_18.odb,Step-1,Increment      1: Step Time =    1.000,"PART-1-1",            64,           15.,        2.8125,            0.,NA,NA,"",       1.54582,      -1.52617,   245.726E-03,   378.892E-06
C:/temp/dataset/6/10_18.odb,Step-1,Increment      1: Step Time =    1.000,"PART-1-1",            65,           15.,      625.E-03,            0.,NA,NA,"",       1.52399,      -1.50370,   247.845E-03,   2.80907E-03
C:/temp/dataset/6/10_18.odb,Step-1,Increment      1: Step Time =    1.000,"PART-1-1",            66,           15.,       -1.5625,            0.,NA,NA,"",       1.50822,      -1.48616,   256.978E-03,   7.70641E-03
C:/temp/dataset/6/10_18.odb,Step-1,Increment      1: Step Time =    1.000,"PART-1-1",            67,          12.5,            5.,            0.,NA,NA,"",       1.56768,      -1.55323,   212.362E-03,   481.722E-06
C:/temp/dataset/6/10_18.odb,Step-1,Increment      1: Step Time =    1.000,"PART-1-1",            68,           7.5,            5.,            0.,NA,NA,"",       1.54204,      -1.53585,   138.072E-03,   6.99443E-03
C:/temp/dataset/6/10_18.odb,Step-1,Increment      1: Step Time =    1.000,"PART-1-1",            69,           2.5,            5.,            0.,NA,NA,"",       1.51174,      -1.50872,   95.5417E-03,   2.16116E-03
C:/temp/dataset/6/10_18.odb,Step-1,Increment      1: Step Time =    1.000,"PART-1-1",            70,          -2.5,            5.,            0.,NA,NA,"",       1.52792,      -1.52689,   56.1877E-03,   10.6506E-03
C:/temp/dataset/6/10_18.odb,Step-1,Increment      1: Step Time =    1.000,"PART-1-1",            71,           -5.,       9.16667,            0.,NA,NA,"",       1.72947,      -1.72944,   10.6670E-03,   627.516E-06
C:/temp/dataset/6/10_18.odb,Step-1,Increment      1: Step Time =    1.000,"PART-1-1",            72,           -5.,       7.08333,            0.,NA,NA,"",       1.65136,      -1.65130,   13.6208E-03,   3.09336E-03
C:/temp/dataset/6/10_18.odb,Step-1,Increment      1: Step Time =    1.000,"PART-1-1",            73,           -5.,       15.4167,            0.,NA,NA,"",       1.95380,      -1.95379,   5.41281E-03,   45.4792E-06
C:/temp/dataset/6/10_18.odb,Step-1,Increment      1: Step Time =    1.000,"PART-1-1",            74,           -5.,       13.3333,            0.,NA,NA,"",       1.87938,      -1.87937,   6.89398E-03,   127.855E-06
C:/temp/dataset/6/10_18.odb,Step-1,Increment      1: Step Time =    1.000,"PART-1-1",            75,           -5.,       21.6667,            0.,NA,NA,"",       2.17698,      -2.17698,   1.36600E-03,   1.12618E-06
C:/temp/dataset/6/10_18.odb,Step-1,Increment      1: Step Time =    1.000,"PART-1-1",            76,           -5.,       19.5833,            0.,NA,NA,"",       2.10257,      -2.10257,   2.69564E-03,   2.11542E-06
C:/temp/dataset/6/10_18.odb,Step-1,Increment      1: Step Time =    1.000,"PART-1-1",            77,           -5.,       27.9167,            0.,NA,NA,"",       2.40023,      -2.40022,  -2.61865E-03,   131.045E-09
C:/temp/dataset/6/10_18.odb,Step-1,Increment      1: Step Time =    1.000,"PART-1-1",            78,           -5.,       25.8333,            0.,NA,NA,"",       2.32581,      -2.32581,  -1.28966E-03,   478.410E-09
C:/temp/dataset/6/10_18.odb,Step-1,Increment      1: Step Time =    1.000,"PART-1-1",            79,          -7.5,           30.,            0.,NA,NA,"",       2.47480,      -2.47305,  -93.2489E-03,   152.376E-09
C:/temp/dataset/6/10_18.odb,Step-1,Increment      1: Step Time =    1.000,"PART-1-1",            80,         -12.5,           30.,            0.,NA,NA,"",       2.48477,      -2.46986,  -271.852E-03,   144.097E-09
C:/temp/dataset/6/10_18.odb,Step-1,Increment      1: Step Time =    1.000,"PART-1-1",            81,          -15.,           25.,            0.,NA,NA,"",       2.31747,      -2.28966,  -357.964E-03,   634.413E-09
C:/temp/dataset/6/10_18.odb,Step-1,Increment      1: Step Time =    1.000,"PART-1-1",            82,          -15.,          27.5,            0.,NA,NA,"",       2.40598,      -2.37896,  -359.559E-03,   191.142E-09
C:/temp/dataset/6/10_18.odb,Step-1,Increment      1: Step Time =    1.000,"PART-1-1",            83,          -15.,          17.5,            0.,NA,NA,"",       2.05233,      -2.02172,  -353.167E-03,   12.2547E-06
C:/temp/dataset/6/10_18.odb,Step-1,Increment      1: Step Time =    1.000,"PART-1-1",            84,          -15.,           20.,            0.,NA,NA,"",       2.14064,      -2.11104,  -354.775E-03,   976.843E-09
C:/temp/dataset/6/10_18.odb,Step-1,Increment      1: Step Time =    1.000,"PART-1-1",            85,          -15.,           10.,            0.,NA,NA,"",       1.78844,      -1.75433,  -347.629E-03,   289.377E-06
C:/temp/dataset/6/10_18.odb,Step-1,Increment      1: Step Time =    1.000,"PART-1-1",            86,          -15.,          12.5,            0.,NA,NA,"",       1.87602,      -1.84314,  -349.694E-03,   150.961E-06
C:/temp/dataset/6/10_18.odb,Step-1,Increment      1: Step Time =    1.000,"PART-1-1",            87,          -15.,           2.5,            0.,NA,NA,"",       1.53698,      -1.49701,  -348.240E-03,   3.88694E-03
C:/temp/dataset/6/10_18.odb,Step-1,Increment      1: Step Time =    1.000,"PART-1-1",            88,          -15.,            5.,            0.,NA,NA,"",       1.61844,      -1.58131,  -344.693E-03,   1.07416E-03
C:/temp/dataset/6/10_18.odb,Step-1,Increment      1: Step Time =    1.000,"PART-1-1",            89,          -15.,           -5.,            0.,NA,NA,"",       1.25014,      -1.18350,  -402.711E-03,   10.9698E-03
C:/temp/dataset/6/10_18.odb,Step-1,Increment      1: Step Time =    1.000,"PART-1-1",            90,          -15.,          -2.5,            0.,NA,NA,"",       1.36112,      -1.30713,  -379.576E-03,   11.2300E-03
C:/temp/dataset/6/10_18.odb,Step-1,Increment      1: Step Time =    1.000,"PART-1-1",            91,          -15.,         -12.5,            0.,NA,NA,"",   810.192E-03,  -700.866E-03,  -406.447E-03,   8.50821E-03
C:/temp/dataset/6/10_18.odb,Step-1,Increment      1: Step Time =    1.000,"PART-1-1",            92,          -15.,          -10.,            0.,NA,NA,"",   967.883E-03,  -871.135E-03,  -421.807E-03,   950.585E-06
C:/temp/dataset/6/10_18.odb,Step-1,Increment      1: Step Time =    1.000,"PART-1-1",            93,          -15.,          -20.,            0.,NA,NA,"",   376.867E-03,  -268.923E-03,  -264.025E-03,   26.9207E-03
C:/temp/dataset/6/10_18.odb,Step-1,Increment      1: Step Time =    1.000,"PART-1-1",            94,          -15.,         -17.5,            0.,NA,NA,"",   506.966E-03,  -389.889E-03,  -324.040E-03,   22.9538E-03
C:/temp/dataset/6/10_18.odb,Step-1,Increment      1: Step Time =    1.000,"PART-1-1",            95,          -15.,         -27.5,            0.,NA,NA,"",   94.7133E-03,  -58.3694E-03,  -74.5897E-03,   30.4719E-03
C:/temp/dataset/6/10_18.odb,Step-1,Increment      1: Step Time =    1.000,"PART-1-1",            96,          -15.,          -25.,            0.,NA,NA,"",   175.232E-03,  -109.646E-03,  -136.690E-03,   27.1758E-03
C:/temp/dataset/6/10_18.odb,Step-1,Increment      1: Step Time =    1.000,"PART-1-1",            97,       13.0047,      -3.80353,            0.,NA,NA,"",       1.50108,      -1.48119,   243.567E-03,   17.7540E-03
C:/temp/dataset/6/10_18.odb,Step-1,Increment      1: Step Time =    1.000,"PART-1-1",            98,       6.97971,      -7.55833,            0.,NA,NA,"",       1.32470,      -1.32470,   2.56202E-03,   22.2625E-03
C:/temp/dataset/6/10_18.odb,Step-1,Increment      1: Step Time =    1.000,"PART-1-1",            99,       6.96639,      -10.0829,            0.,NA,NA,"",       1.17092,      -1.17031,  -37.7033E-03,   21.3668E-03
C:/temp/dataset/6/10_18.odb,Step-1,Increment      1: Step Time =    1.000,"PART-1-1",           100,       12.9900,      -12.5465,            0.,NA,NA,"",       1.05384,      -1.01744,   274.578E-03,   24.0503E-03
C:/temp/dataset/6/10_18.odb,Step-1,Increment      1: Step Time =    1.000,"PART-1-1",           101,       6.90028,      -17.1420,            0.,NA,NA,"",   554.919E-03,  -551.280E-03,  -63.4409E-03,   27.0933E-03
C:/temp/dataset/6/10_18.odb,Step-1,Increment      1: Step Time =    1.000,"PART-1-1",           102,       7.03871,      -19.0570,            0.,NA,NA,"",   374.031E-03,  -372.056E-03,  -38.3805E-03,   31.2244E-03
C:/temp/dataset/6/10_18.odb,Step-1,Increment      1: Step Time =    1.000,"PART-1-1",           103,       5.31709,      -21.2647,            0.,NA,NA,"",   220.930E-03,  -205.881E-03,  -80.1447E-03,   27.4898E-03
C:/temp/dataset/6/10_18.odb,Step-1,Increment      1: Step Time =    1.000,"PART-1-1",           104,      -4.83361,      -22.6144,            0.,NA,NA,"",   145.049E-03,  -139.857E-03,   38.4605E-03,   17.8929E-03
C:/temp/dataset/6/10_18.odb,Step-1,Increment      1: Step Time =    1.000,"PART-1-1",           105,      -7.46484,      -17.6587,            0.,NA,NA,"",   346.908E-03,  -346.562E-03,   15.4937E-03,   17.7616E-03
C:/temp/dataset/6/10_18.odb,Step-1,Increment      1: Step Time =    1.000,"PART-1-1",           106,      -12.5283,      -27.3245,            0.,NA,NA,"",   57.1152E-03,  -38.7296E-03,  -41.9781E-03,   20.3347E-03
C:/temp/dataset/6/10_18.odb,Step-1,Increment      1: Step Time =    1.000,"PART-1-1",           107,      -12.4870,      -17.6221,            0.,NA,NA,"",   414.426E-03,  -365.135E-03,  -196.023E-03,   15.8190E-03
C:/temp/dataset/6/10_18.odb,Step-1,Increment      1: Step Time =    1.000,"PART-1-1",           108,      -7.32043,      -12.6401,            0.,NA,NA,"",   685.128E-03,  -684.785E-03,   21.6790E-03,   9.58607E-03
C:/temp/dataset/6/10_18.odb,Step-1,Increment      1: Step Time =    1.000,"PART-1-1",           109,      -7.14644,      -8.03697,            0.,NA,NA,"",       1.01633,      -1.01633,   2.32438E-03,   17.2751E-03
C:/temp/dataset/6/10_18.odb,Step-1,Increment      1: Step Time =    1.000,"PART-1-1",           110,      -12.6601,       4.88622,            0.,NA,NA,"",       1.60106,      -1.57949,  -261.923E-03,   2.48719E-03
C:/temp/dataset/6/10_18.odb,Step-1,Increment      1: Step Time =    1.000,"PART-1-1",           111,      -13.0978,       12.5399,            0.,NA,NA,"",       1.86713,      -1.84570,  -282.023E-03,   97.2454E-06
C:/temp/dataset/6/10_18.odb,Step-1,Increment      1: Step Time =    1.000,"PART-1-1",           112,      -6.45576,       21.8628,            0.,NA,NA,"",       2.18365,      -2.18305,  -50.7562E-03,   1.07363E-06
C:/temp/dataset/6/10_18.odb,Step-1,Increment      1: Step Time =    1.000,"PART-1-1",           113,      -7.28884,       25.7044,            0.,NA,NA,"",       2.32122,      -2.31974,  -82.9648E-03,   346.202E-09
C:/temp/dataset/6/10_18.odb,Step-1,Increment      1: Step Time =    1.000,"PART-1-1",           114,      -9.90518,       27.6474,            0.,NA,NA,"",       2.39408,      -2.38748,  -177.661E-03,   202.984E-09
C:/temp/dataset/6/10_18.odb,Step-1,Increment      1: Step Time =    1.000,"PART-1-1",           115,      -3.01211,      -3.13168,            0.,NA,NA,"",       1.34969,      -1.34834,   60.5326E-03,   21.6761E-03
C:/temp/dataset/6/10_18.odb,Step-1,Increment      1: Step Time =    1.000,"PART-1-1",           116,      -2.19169,       3.00836,            0.,NA,NA,"",       1.49223,      -1.49078,   65.6483E-03,   7.64716E-03
C:/temp/dataset/6/10_18.odb,Step-1,Increment      1: Step Time =    1.000,"PART-1-1",           117,       1.85193,      -2.77696,            0.,NA,NA,"",       1.40269,      -1.40076,   73.5907E-03,   11.6139E-03
C:/temp/dataset/6/10_18.odb,Step-1,Increment      1: Step Time =    1.000,"PART-1-1",           118,       2.83229,       2.22691,            0.,NA,NA,"",       1.48264,      -1.47973,   92.7886E-03,   8.73647E-03
C:/temp/dataset/6/10_18.odb,Step-1,Increment      1: Step Time =    1.000,"PART-1-1",           119,       7.74921,       3.07964,            0.,NA,NA,"",       1.52046,      -1.51437,   135.980E-03,   5.91041E-03
C:/temp/dataset/6/10_18.odb,Step-1,Increment      1: Step Time =    1.000,"PART-1-1",           120,      -2.47342,      -22.6017,            0.,NA,NA,"",   145.015E-03,  -143.523E-03,   20.7483E-03,   19.7321E-03
C:/temp/dataset/6/10_18.odb,Step-1,Increment      1: Step Time =    1.000,"PART-1-1",           121,      -7.48266,       20.3798,            0.,NA,NA,"",       2.13119,      -2.12943,  -86.4910E-03,   5.04762E-06
C:/temp/dataset/6/10_18.odb,Step-1,Increment      1: Step Time =    1.000,"PART-1-1",           122,      -7.10993,       13.1351,            0.,NA,NA,"",       1.87224,      -1.87098,  -68.5700E-03,   97.8911E-06
C:/temp/dataset/6/10_18.odb,Step-1,Increment      1: Step Time =    1.000,"PART-1-1",           123,      -6.64156,       6.82435,            0.,NA,NA,"",       1.64259,      -1.64190,  -47.4371E-03,   2.95308E-03
C:/temp/dataset/6/10_18.odb,Step-1,Increment      1: Step Time =    1.000,"PART-1-1",           124,      -12.9641,      -2.37512,            0.,NA,NA,"",       1.35329,      -1.32248,  -287.124E-03,   5.80680E-03
C:/temp/dataset/6/10_18.odb,Step-1,Increment      1: Step Time =    1.000,"PART-1-1",           125,      -12.1317,      -9.84573,            0.,NA,NA,"",   920.133E-03,  -885.402E-03,  -250.416E-03,   11.5908E-03
C:/temp/dataset/6/10_18.odb,Step-1,Increment      1: Step Time =    1.000,"PART-1-1",           126,       4.04132,      -2.67712,            0.,NA,NA,"",       1.41842,      -1.41690,   65.7236E-03,   16.9841E-03
C:/temp/dataset/6/10_18.odb,Step-1,Increment      1: Step Time =    1.000,"PART-1-1",           127,       6.95362,      -12.5367,            0.,NA,NA,"",   977.514E-03,  -975.358E-03,  -64.8876E-03,   18.8575E-03
C:/temp/dataset/6/10_18.odb,Step-1,Increment      1: Step Time =    1.000,"PART-1-1",           128,       6.92458,      -14.9216,            0.,NA,NA,"",   763.226E-03,  -759.846E-03,  -71.7394E-03,   18.0920E-03
C:/temp/dataset/6/10_18.odb,Step-1,Increment      1: Step Time =    1.000,"PART-1-1",           129,       12.9089,      -21.3671,            0.,NA,NA,"",   342.730E-03,  -279.581E-03,   198.238E-03,   24.7281E-03
C:/temp/dataset/6/10_18.odb,Step-1,Increment      1: Step Time =    1.000,"PART-1-1",           130,   283.131E-03,      -22.8786,            0.,NA,NA,"",   149.488E-03,  -149.185E-03,  -9.51381E-03,   17.2670E-03
C:/temp/dataset/6/10_18.odb,Step-1,Increment      1: Step Time =    1.000,"PART-1-1",           131,      -12.9776,      -22.4214,            0.,NA,NA,"",   209.448E-03,  -158.746E-03,  -136.632E-03,   19.3618E-03
C:/temp/dataset/6/10_18.odb,Step-1,Increment      1: Step Time =    1.000,"PART-1-1",           132,      -7.42030,      -15.1083,            0.,NA,NA,"",   512.484E-03,  -512.135E-03,   18.8909E-03,   11.6525E-03
C:/temp/dataset/6/10_18.odb,Step-1,Increment      1: Step Time =    1.000,"PART-1-1",           133,      -7.18486,      -10.2642,            0.,NA,NA,"",   855.842E-03,  -855.681E-03,   16.6043E-03,   10.9211E-03
C:/temp/dataset/6/10_18.odb,Step-1,Increment      1: Step Time =    1.000,"PART-1-1",           134,      -7.33974,      -5.93881,            0.,NA,NA,"",       1.16652,      -1.16620,  -27.4485E-03,   16.3043E-03
C:/temp/dataset/6/10_18.odb,Step-1,Increment      1: Step Time =    1.000,"PART-1-1",           135,  -533.729E-03,      -2.94296,            0.,NA,NA,"",       1.37932,      -1.37745,   71.6805E-03,   13.5151E-03
C:/temp/dataset/6/10_18.odb,Step-1,Increment      1: Step Time =    1.000,"PART-1-1",           136,       10.2172,      -28.0250,            0.,NA,NA,"",   26.1323E-03,  -20.1442E-03,   16.6465E-03,   12.1376E-03
C:/temp/dataset/6/10_18.odb,Step-1,Increment      1: Step Time =    1.000,"PART-1-1",           137,       7.82196,      -28.0777,            0.,NA,NA,"",   20.9142E-03,  -20.9137E-03,   147.725E-06,   7.63389E-03
C:/temp/dataset/6/10_18.odb,Step-1,Increment      1: Step Time =    1.000,"PART-1-1",           138,       5.43540,      -28.0544,            0.,NA,NA,"",   31.2437E-03,  -29.9144E-03,  -9.01632E-03,   12.9995E-03
C:/temp/dataset/6/10_18.odb,Step-1,Increment      1: Step Time =    1.000,"PART-1-1",           139,       2.98405,      -27.8165,            0.,NA,NA,"",   46.4586E-03,  -45.0536E-03,  -11.3390E-03,   16.5870E-03
C:/temp/dataset/6/10_18.odb,Step-1,Increment      1: Step Time =    1.000,"PART-1-1",           140,   324.250E-03,      -27.0908,            0.,NA,NA,"",   66.3841E-03,  -66.0760E-03,  -6.38858E-03,   17.2202E-03
C:/temp/dataset/6/10_18.odb,Step-1,Increment      1: Step Time =    1.000,"PART-1-1",           141,      -2.46293,      -27.5198,            0.,NA,NA,"",   52.0722E-03,  -51.9636E-03,   3.36041E-03,   15.4360E-03
C:/temp/dataset/6/10_18.odb,Step-1,Increment      1: Step Time =    1.000,"PART-1-1",           142,      -4.88996,      -27.5861,            0.,NA,NA,"",   41.0575E-03,  -40.6491E-03,   5.77705E-03,   12.9336E-03
C:/temp/dataset/6/10_18.odb,Step-1,Increment      1: Step Time =    1.000,"PART-1-1",           143,      -7.26500,      -27.4866,            0.,NA,NA,"",   31.7464E-03,  -31.7416E-03,   550.354E-06,   9.02692E-03
C:/temp/dataset/6/10_18.odb,Step-1,Increment      1: Step Time =    1.000,"PART-1-1",           144,      -9.86695,      -26.8928,            0.,NA,NA,"",   40.2925E-03,  -36.1445E-03,  -17.8063E-03,   8.91435E-03
C:/temp/dataset/6/10_18.odb,Step-1,Increment      1: Step Time =    1.000,"PART-1-1",           145,       12.7710,      -23.5898,            0.,NA,NA,"",   222.811E-03,  -169.042E-03,   145.153E-03,   25.5034E-03
C:/temp/dataset/6/10_18.odb,Step-1,Increment      1: Step Time =    1.000,"PART-1-1",           146,       12.6989,      -25.7990,            0.,NA,NA,"",   129.185E-03,  -90.2075E-03,   92.4743E-03,   26.8722E-03
C:/temp/dataset/6/10_18.odb,Step-1,Increment      1: Step Time =    1.000,"PART-1-1",           147,       12.6207,      -27.9366,            0.,NA,NA,"",   56.1551E-03,  -35.5999E-03,   43.4286E-03,   27.5645E-03
C:/temp/dataset/6/10_18.odb,Step-1,Increment      1: Step Time =    1.000,"PART-1-1",           148,       12.9983,      -14.8223,            0.,NA,NA,"",   843.420E-03,  -795.730E-03,   279.591E-03,   18.0769E-03
C:/temp/dataset/6/10_18.odb,Step-1,Increment      1: Step Time =    1.000,"PART-1-1",           149,       13.0558,      -17.0719,            0.,NA,NA,"",   652.407E-03,  -592.699E-03,   272.658E-03,   19.8614E-03
C:/temp/dataset/6/10_18.odb,Step-1,Increment      1: Step Time =    1.000,"PART-1-1",           150,       13.1682,      -19.2108,            0.,NA,NA,"",   492.431E-03,  -423.142E-03,   251.872E-03,   23.2607E-03
C:/temp/dataset/6/10_18.odb,Step-1,Increment      1: Step Time =    1.000,"PART-1-1",           151,       13.0670,      -5.94273,            0.,NA,NA,"",       1.46944,      -1.44735,   253.806E-03,   15.1017E-03
C:/temp/dataset/6/10_18.odb,Step-1,Increment      1: Step Time =    1.000,"PART-1-1",           152,       13.0350,      -8.09399,            0.,NA,NA,"",       1.38441,      -1.35937,   262.141E-03,   14.9121E-03
C:/temp/dataset/6/10_18.odb,Step-1,Increment      1: Step Time =    1.000,"PART-1-1",           153,       12.9982,      -10.2981,            0.,NA,NA,"",       1.24615,      -1.21680,   268.896E-03,   18.2719E-03
C:/temp/dataset/6/10_18.odb,Step-1,Increment      1: Step Time =    1.000,"PART-1-1",           154,       12.5107,   556.281E-03,            0.,NA,NA,"",       1.52072,      -1.50545,   214.916E-03,   7.02718E-03
C:/temp/dataset/6/10_18.odb,Step-1,Increment      1: Step Time =    1.000,"PART-1-1",           155,       12.7702,      -1.64554,            0.,NA,NA,"",       1.50805,      -1.49083,   227.259E-03,   12.1063E-03
C:/temp/dataset/6/10_18.odb,Step-1,Increment      1: Step Time =    1.000,"PART-1-1",           156,       10.0517,       2.85834,            0.,NA,NA,"",       1.53141,      -1.52173,   171.896E-03,   5.62856E-03
C:/temp/dataset/6/10_18.odb,Step-1,Increment      1: Step Time =    1.000,"PART-1-1",           157,       5.39286,       2.85476,            0.,NA,NA,"",       1.50332,      -1.49938,   108.844E-03,   6.12382E-03
C:/temp/dataset/6/10_18.odb,Step-1,Increment      1: Step Time =    1.000,"PART-1-1",           158,   175.602E-03,       2.90951,            0.,NA,NA,"",       1.48759,      -1.48521,   84.0823E-03,   7.57479E-03
C:/temp/dataset/6/10_18.odb,Step-1,Increment      1: Step Time =    1.000,"PART-1-1",           159,      -4.35394,       2.91920,            0.,NA,NA,"",       1.49696,      -1.49664,   31.2190E-03,   3.70941E-03
C:/temp/dataset/6/10_18.odb,Step-1,Increment      1: Step Time =    1.000,"PART-1-1",           160,      -7.05997,       10.9599,            0.,NA,NA,"",       1.79435,      -1.79316,  -65.4013E-03,   122.053E-06
C:/temp/dataset/6/10_18.odb,Step-1,Increment      1: Step Time =    1.000,"PART-1-1",           161,      -6.93805,       8.84105,            0.,NA,NA,"",       1.71763,      -1.71659,  -59.7331E-03,   458.333E-06
C:/temp/dataset/6/10_18.odb,Step-1,Increment      1: Step Time =    1.000,"PART-1-1",           162,      -7.28921,       17.6445,            0.,NA,NA,"",       2.03337,      -2.03188,  -77.8388E-03,   21.1446E-06
C:/temp/dataset/6/10_18.odb,Step-1,Increment      1: Step Time =    1.000,"PART-1-1",           163,      -7.17735,       15.3234,            0.,NA,NA,"",       1.95043,      -1.94908,  -72.3666E-03,   55.0730E-06
C:/temp/dataset/6/10_18.odb,Step-1,Increment      1: Step Time =    1.000,"PART-1-1",           164,      -6.93557,       23.5874,            0.,NA,NA,"",       2.24541,      -2.24435,  -68.9950E-03,   253.809E-09
C:/temp/dataset/6/10_18.odb,Step-1,Increment      1: Step Time =    1.000,"PART-1-1",           165,      -13.1925,       19.7530,            0.,NA,NA,"",       2.12327,      -2.10337,  -290.050E-03,   6.05375E-06
C:/temp/dataset/6/10_18.odb,Step-1,Increment      1: Step Time =    1.000,"PART-1-1",           166,      -7.44963,       27.8335,            0.,NA,NA,"",       2.39738,      -2.39569,  -90.0669E-03,   300.792E-09
C:/temp/dataset/6/10_18.odb,Step-1,Increment      1: Step Time =    1.000,"PART-1-1",           167,      -13.0424,       22.0734,            0.,NA,NA,"",       2.20501,      -2.18636,  -286.170E-03,   1.06943E-06
C:/temp/dataset/6/10_18.odb,Step-1,Increment      1: Step Time =    1.000,"PART-1-1",           168,      -13.1316,       14.9813,            0.,NA,NA,"",       1.95375,      -1.93288,  -284.812E-03,   56.7020E-06
C:/temp/dataset/6/10_18.odb,Step-1,Increment      1: Step Time =    1.000,"PART-1-1",           169,      -13.1727,       17.3972,            0.,NA,NA,"",       2.03961,      -2.01920,  -287.834E-03,   21.3780E-06
C:/temp/dataset/6/10_18.odb,Step-1,Increment      1: Step Time =    1.000,"PART-1-1",           170,      -12.8574,       7.53984,            0.,NA,NA,"",       1.69107,      -1.66933,  -270.284E-03,   641.732E-06
C:/temp/dataset/6/10_18.odb,Step-1,Increment      1: Step Time =    1.000,"PART-1-1",           171,      -13.0166,       10.0884,            0.,NA,NA,"",       1.78032,      -1.75855,  -277.546E-03,   60.3557E-06
C:/temp/dataset/6/10_18.odb,Step-1,Increment      1: Step Time =    1.000,"PART-1-1",           172,      -12.8045,  -118.323E-03,            0.,NA,NA,"",       1.43788,      -1.41182,  -272.526E-03,   5.70139E-03
C:/temp/dataset/6/10_18.odb,Step-1,Increment      1: Step Time =    1.000,"PART-1-1",           173,      -12.7039,       2.28772,            0.,NA,NA,"",       1.51732,      -1.49415,  -264.152E-03,   4.64839E-03
C:/temp/dataset/6/10_18.odb,Step-1,Increment      1: Step Time =    1.000,"PART-1-1",           174,      -12.8488,      -7.31355,            0.,NA,NA,"",       1.09658,      -1.05611,  -295.158E-03,   7.41432E-03
C:/temp/dataset/6/10_18.odb,Step-1,Increment      1: Step Time =    1.000,"PART-1-1",           175,      -12.6051,      -4.81291,            0.,NA,NA,"",       1.23763,      -1.20585,  -278.656E-03,   5.51138E-03
C:/temp/dataset/6/10_18.odb,Step-1,Increment      1: Step Time =    1.000,"PART-1-1",           176,      -12.4260,      -15.0682,            0.,NA,NA,"",   567.827E-03,  -521.206E-03,  -225.326E-03,   14.3979E-03
C:/temp/dataset/6/10_18.odb,Step-1,Increment      1: Step Time =    1.000,"PART-1-1",           177,      -12.3344,      -12.5112,            0.,NA,NA,"",   737.989E-03,  -696.162E-03,  -244.920E-03,   12.9805E-03
C:/temp/dataset/6/10_18.odb,Step-1,Increment      1: Step Time =    1.000,"PART-1-1",           178,      -12.6598,      -20.1148,            0.,NA,NA,"",   293.128E-03,  -242.298E-03,  -164.972E-03,   17.5015E-03
C:/temp/dataset/6/10_18.odb,Step-1,Increment      1: Step Time =    1.000,"PART-1-1",           179,      -8.70618,       22.9331,            0.,NA,NA,"",       2.22376,      -2.21985,  -131.823E-03,   1.00972E-06
C:/temp/dataset/6/10_18.odb,Step-1,Increment      1: Step Time =    1.000,"PART-1-1",           180,      -9.21222,       15.1634,            0.,NA,NA,"",       1.94742,      -1.94201,  -145.042E-03,   63.3111E-06
C:/temp/dataset/6/10_18.odb,Step-1,Increment      1: Step Time =    1.000,"PART-1-1",           181,      -9.55138,       19.8926,            0.,NA,NA,"",       2.11676,      -2.11070,  -160.081E-03,   8.00656E-06
C:/temp/dataset/6/10_18.odb,Step-1,Increment      1: Step Time =    1.000,"PART-1-1",           182,      -8.92203,       8.32966,            0.,NA,NA,"",       1.70235,      -1.69735,  -130.409E-03,   597.384E-06
C:/temp/dataset/6/10_18.odb,Step-1,Increment      1: Step Time =    1.000,"PART-1-1",           183,      -9.17670,       12.8809,            0.,NA,NA,"",       1.86593,      -1.86049,  -142.460E-03,   110.892E-06
C:/temp/dataset/6/10_18.odb,Step-1,Increment      1: Step Time =    1.000,"PART-1-1",           184,      -9.09923,       10.6117,            0.,NA,NA,"",       1.78473,      -1.77936,  -138.390E-03,   152.822E-06
C:/temp/dataset/6/10_18.odb,Step-1,Increment      1: Step Time =    1.000,"PART-1-1",           185,      -9.30530,       17.5014,            0.,NA,NA,"",       2.03098,      -2.02545,  -149.791E-03,   26.0241E-06
C:/temp/dataset/6/10_18.odb,Step-1,Increment      1: Step Time =    1.000,"PART-1-1",           186,      -8.37864,       6.17865,            0.,NA,NA,"",       1.62296,      -1.61938,  -107.693E-03,   3.25137E-03
C:/temp/dataset/6/10_18.odb,Step-1,Increment      1: Step Time =    1.000,"PART-1-1",           187,       10.9988,      -10.2527,            0.,NA,NA,"",       1.20815,      -1.19719,   162.405E-03,   20.0603E-03
C:/temp/dataset/6/10_18.odb,Step-1,Increment      1: Step Time =    1.000,"PART-1-1",           188,       10.8643,      -17.5211,            0.,NA,NA,"",   555.596E-03,  -536.224E-03,   145.433E-03,   25.4759E-03
C:/temp/dataset/6/10_18.odb,Step-1,Increment      1: Step Time =    1.000,"PART-1-1",           189,       11.0508,      -8.01555,            0.,NA,NA,"",       1.35298,      -1.34199,   172.106E-03,   12.4584E-03
C:/temp/dataset/6/10_18.odb,Step-1,Increment      1: Step Time =    1.000,"PART-1-1",           190,       10.6332,      -2.00908,            0.,NA,NA,"",       1.49603,      -1.48562,   176.125E-03,   14.0475E-03
C:/temp/dataset/6/10_18.odb,Step-1,Increment      1: Step Time =    1.000,"PART-1-1",           191,       11.1668,      -5.92645,            0.,NA,NA,"",       1.44110,      -1.42935,   183.674E-03,   11.6081E-03
C:/temp/dataset/6/10_18.odb,Step-1,Increment      1: Step Time =    1.000,"PART-1-1",           192,       10.9732,      -14.9280,            0.,NA,NA,"",   791.812E-03,  -776.026E-03,   157.321E-03,   27.2644E-03
C:/temp/dataset/6/10_18.odb,Step-1,Increment      1: Step Time =    1.000,"PART-1-1",           193,       10.5476,      -23.6927,            0.,NA,NA,"",   157.721E-03,  -142.086E-03,   68.4667E-03,   14.6786E-03
C:/temp/dataset/6/10_18.odb,Step-1,Increment      1: Step Time =    1.000,"PART-1-1",           194,       10.5707,      -21.1850,            0.,NA,NA,"",   280.258E-03,  -262.244E-03,   98.8566E-03,   19.2571E-03
C:/temp/dataset/6/10_18.odb,Step-1,Increment      1: Step Time =    1.000,"PART-1-1",           195,       10.9760,      -12.5622,            0.,NA,NA,"",       1.01298,      -1.00072,   157.166E-03,   26.5054E-03
C:/temp/dataset/6/10_18.odb,Step-1,Increment      1: Step Time =    1.000,"PART-1-1",           196,       11.6229,      -19.2502,            0.,NA,NA,"",   437.389E-03,  -403.215E-03,   169.489E-03,   22.3874E-03
C:/temp/dataset/6/10_18.odb,Step-1,Increment      1: Step Time =    1.000,"PART-1-1",           197,       11.1609,      -3.97100,            0.,NA,NA,"",       1.48196,      -1.46993,   188.455E-03,   14.8930E-03
C:/temp/dataset/6/10_18.odb,Step-1,Increment      1: Step Time =    1.000,"PART-1-1",           198,      -9.55101,       25.2781,            0.,NA,NA,"",       2.30887,      -2.30307,  -163.498E-03,   265.867E-09
C:/temp/dataset/6/10_18.odb,Step-1,Increment      1: Step Time =    1.000,"PART-1-1",           199,      -6.13353,       2.97524,            0.,NA,NA,"",       1.50445,      -1.50435,  -17.4890E-03,   6.30582E-03
C:/temp/dataset/6/10_18.odb,Step-1,Increment      1: Step Time =    1.000,"PART-1-1",           200,       8.52809,      -18.5145,            0.,NA,NA,"",   431.893E-03,  -430.783E-03,   30.9505E-03,   27.2712E-03
C:/temp/dataset/6/10_18.odb,Step-1,Increment      1: Step Time =    1.000,"PART-1-1",           201,      -9.31256,      -6.57829,            0.,NA,NA,"",       1.12251,      -1.11615,  -119.361E-03,   12.2099E-03
C:/temp/dataset/6/10_18.odb,Step-1,Increment      1: Step Time =    1.000,"PART-1-1",           202,      -7.82061,      -4.24854,            0.,NA,NA,"",       1.26524,      -1.26408,  -54.1551E-03,   12.0130E-03
C:/temp/dataset/6/10_18.odb,Step-1,Increment      1: Step Time =    1.000,"PART-1-1",           203,       7.55002,      -20.4955,            0.,NA,NA,"",   268.340E-03,  -267.927E-03,  -14.8799E-03,   23.2071E-03
C:/temp/dataset/6/10_18.odb,Step-1,Increment      1: Step Time =    1.000,"PART-1-1",           204,      -9.18944,      -8.43706,            0.,NA,NA,"",   994.093E-03,  -988.551E-03,  -104.819E-03,   14.6728E-03
C:/temp/dataset/6/10_18.odb,Step-1,Increment      1: Step Time =    1.000,"PART-1-1",           205,      -12.3720,       27.4312,            0.,NA,NA,"",       2.39297,      -2.37818,  -265.639E-03,   339.617E-09
C:/temp/dataset/6/10_18.odb,Step-1,Increment      1: Step Time =    1.000,"PART-1-1",           206,      -10.3791,       22.2070,            0.,NA,NA,"",       2.20115,      -2.19284,  -191.118E-03,   1.82987E-06
C:/temp/dataset/6/10_18.odb,Step-1,Increment      1: Step Time =    1.000,"PART-1-1",           207,       3.40286,  -884.176E-03,            0.,NA,NA,"",       1.43767,      -1.43545,   79.9591E-03,   13.2241E-03
C:/temp/dataset/6/10_18.odb,Step-1,Increment      1: Step Time =    1.000,"PART-1-1",           208,       7.88020,       1.44192,            0.,NA,NA,"",       1.50399,      -1.49818,   132.119E-03,   7.91448E-03
C:/temp/dataset/6/10_18.odb,Step-1,Increment      1: Step Time =    1.000,"PART-1-1",           209,      -1.17287,  -897.893E-03,            0.,NA,NA,"",       1.41066,      -1.40859,   76.3536E-03,   12.1652E-03
C:/temp/dataset/6/10_18.odb,Step-1,Increment      1: Step Time =    1.000,"PART-1-1",           210,       10.4014,      -25.9274,            0.,NA,NA,"",   78.4274E-03,  -67.6992E-03,   39.5938E-03,   12.7983E-03
C:/temp/dataset/6/10_18.odb,Step-1,Increment      1: Step Time =    1.000,"PART-1-1",           211,       2.00108,      -24.8239,            0.,NA,NA,"",   118.083E-03,  -115.190E-03,  -25.9750E-03,   21.2799E-03
C:/temp/dataset/6/10_18.odb,Step-1,Increment      1: Step Time =    1.000,"PART-1-1",           212,      -4.80900,      -25.1606,            0.,NA,NA,"",   89.8650E-03,  -87.7779E-03,   19.2548E-03,   15.0615E-03
C:/temp/dataset/6/10_18.odb,Step-1,Increment      1: Step Time =    1.000,"PART-1-1",           213,      -11.5765,       21.3848,            0.,NA,NA,"",       2.17525,      -2.16270,  -233.366E-03,   2.98025E-06
C:/temp/dataset/6/10_18.odb,Step-1,Increment      1: Step Time =    1.000,"PART-1-1",           214,      -11.0630,       10.3038,            0.,NA,NA,"",       1.77953,      -1.76730,  -208.281E-03,   148.388E-06
C:/temp/dataset/6/10_18.odb,Step-1,Increment      1: Step Time =    1.000,"PART-1-1",           215,      -10.2832,  -591.021E-03,            0.,NA,NA,"",       1.41048,      -1.40087,  -164.355E-03,   5.85230E-03
C:/temp/dataset/6/10_18.odb,Step-1,Increment      1: Step Time =    1.000,"PART-1-1",           216,      -11.1869,      -5.64306,            0.,NA,NA,"",       1.18409,      -1.16529,  -210.150E-03,   7.24903E-03
C:/temp/dataset/6/10_18.odb,Step-1,Increment      1: Step Time =    1.000,"PART-1-1",           217,      -9.48237,      -10.3825,            0.,NA,NA,"",   854.667E-03,  -847.756E-03,  -108.465E-03,   14.0447E-03
C:/temp/dataset/6/10_18.odb,Step-1,Increment      1: Step Time =    1.000,"PART-1-1",           218,      -10.0191,      -20.7277,            0.,NA,NA,"",   209.347E-03,  -199.200E-03,  -64.3883E-03,   10.3224E-03
C:/temp/dataset/6/10_18.odb,Step-1,Increment      1: Step Time =    1.000,"PART-1-1",           219,      -12.8377,      -24.8331,            0.,NA,NA,"",   127.943E-03,  -91.5074E-03,  -89.4197E-03,   20.0571E-03
C:/temp/dataset/6/10_18.odb,Step-1,Increment      1: Step Time =    1.000,"PART-1-1",           220,  -752.185E-03,      -25.0561,            0.,NA,NA,"",   108.190E-03,  -108.189E-03,  -378.261E-06,   18.5472E-03
C:/temp/dataset/6/10_18.odb,Step-1,Increment      1: Step Time =    1.000,"PART-1-1",           221,      -11.3411,      -22.5061,            0.,NA,NA,"",   167.972E-03,  -144.179E-03,  -86.1815E-03,   13.2029E-03
C:/temp/dataset/6/10_18.odb,Step-1,Increment      1: Step Time =    1.000,"PART-1-1",           222,       5.90860,      -26.1342,            0.,NA,NA,"",   70.1613E-03,  -67.0445E-03,  -20.6792E-03,   14.3522E-03
C:/temp/dataset/6/10_18.odb,Step-1,Increment      1: Step Time =    1.000,"PART-1-1",           223,       3.81352,      -25.8758,            0.,NA,NA,"",   88.8934E-03,  -84.5700E-03,  -27.3851E-03,   19.4534E-03
C:/temp/dataset/6/10_18.odb,Step-1,Increment      1: Step Time =    1.000,"PART-1-1",           224,      -6.87266,      -25.1947,            0.,NA,NA,"",   75.6048E-03,  -74.9776E-03,   9.71825E-03,   9.81691E-03
C:/temp/dataset/6/10_18.odb,Step-1,Increment      1: Step Time =    1.000,"PART-1-1",           225,       9.77381,   336.875E-03,            0.,NA,NA,"",       1.50726,      -1.49855,   161.762E-03,   9.85456E-03
C:/temp/dataset/6/10_18.odb,Step-1,Increment      1: Step Time =    1.000,"PART-1-1",           226,       4.59800,   29.7464E-03,            0.,NA,NA,"",       1.46083,      -1.45812,   88.8811E-03,   11.5677E-03
C:/temp/dataset/6/10_18.odb,Step-1,Increment      1: Step Time =    1.000,"PART-1-1",           227,      -11.1551,       12.6912,            0.,NA,NA,"",       1.86457,      -1.85237,  -212.978E-03,   105.718E-06
C:/temp/dataset/6/10_18.odb,Step-1,Increment      1: Step Time =    1.000,"PART-1-1",           228,      -11.2689,       17.3859,            0.,NA,NA,"",       2.03196,      -2.02003,  -219.853E-03,   26.7141E-06
C:/temp/dataset/6/10_18.odb,Step-1,Increment      1: Step Time =    1.000,"PART-1-1",           229,      -11.2102,       15.0558,            0.,NA,NA,"",       1.94885,      -1.93681,  -216.329E-03,   62.8887E-06
C:/temp/dataset/6/10_18.odb,Step-1,Increment      1: Step Time =    1.000,"PART-1-1",           230,      -10.8139,       7.79620,            0.,NA,NA,"",       1.69027,      -1.67870,  -197.466E-03,   817.538E-06
C:/temp/dataset/6/10_18.odb,Step-1,Increment      1: Step Time =    1.000,"PART-1-1",           231,      -10.1648,       4.85487,            0.,NA,NA,"",       1.58631,      -1.57727,  -169.146E-03,   3.72468E-03
C:/temp/dataset/6/10_18.odb,Step-1,Increment      1: Step Time =    1.000,"PART-1-1",           232,      -10.4473,       2.01195,            0.,NA,NA,"",       1.49641,      -1.48625,  -174.120E-03,   6.07071E-03
C:/temp/dataset/6/10_18.odb,Step-1,Increment      1: Step Time =    1.000,"PART-1-1",           233,      -10.4810,      -3.59789,            0.,NA,NA,"",       1.29003,      -1.27812,  -174.859E-03,   4.90450E-03
C:/temp/dataset/6/10_18.odb,Step-1,Increment      1: Step Time =    1.000,"PART-1-1",           234,      -9.89141,      -15.1395,            0.,NA,NA,"",   519.449E-03,  -509.438E-03,  -101.487E-03,   14.1284E-03
C:/temp/dataset/6/10_18.odb,Step-1,Increment      1: Step Time =    1.000,"PART-1-1",           235,      -9.95744,      -17.7636,            0.,NA,NA,"",   354.341E-03,  -343.542E-03,  -86.8142E-03,   14.6235E-03
C:/temp/dataset/6/10_18.odb,Step-1,Increment      1: Step Time =    1.000,"PART-1-1",           236,      -3.63694,      -1.16253,            0.,NA,NA,"",       1.39355,      -1.39239,   56.7187E-03,   11.1763E-03
C:/temp/dataset/6/10_18.odb,Step-1,Increment      1: Step Time =    1.000,"PART-1-1",           237,      -7.00580,      -22.7773,            0.,NA,NA,"",   128.402E-03,  -127.022E-03,   18.7754E-03,   7.03937E-03
C:/temp/dataset/6/10_18.odb,Step-1,Increment      1: Step Time =    1.000,"PART-1-1",           238,       7.08723,      -4.67483,            0.,NA,NA,"",       1.42708,      -1.42607,   53.7183E-03,   18.0010E-03
C:/temp/dataset/6/10_18.odb,Step-1,Increment      1: Step Time =    1.000,"PART-1-1",           239,       8.96532,      -10.1697,            0.,NA,NA,"",       1.18524,      -1.18354,   63.4975E-03,   19.4706E-03
C:/temp/dataset/6/10_18.odb,Step-1,Increment      1: Step Time =    1.000,"PART-1-1",           240,       8.99874,      -7.82238,            0.,NA,NA,"",       1.33460,      -1.33189,   85.1120E-03,   13.4126E-03
C:/temp/dataset/6/10_18.odb,Step-1,Increment      1: Step Time =    1.000,"PART-1-1",           241,       8.96760,      -14.8663,            0.,NA,NA,"",   773.952E-03,  -772.373E-03,   49.4059E-03,   26.7375E-03
C:/temp/dataset/6/10_18.odb,Step-1,Increment      1: Step Time =    1.000,"PART-1-1",           242,      -12.0836,       24.5335,            0.,NA,NA,"",       2.28893,      -2.27485,  -253.488E-03,   301.133E-09
C:/temp/dataset/6/10_18.odb,Step-1,Increment      1: Step Time =    1.000,"PART-1-1",           243,       9.21542,      -5.66363,            0.,NA,NA,"",       1.42453,      -1.42013,   111.895E-03,   11.6944E-03
C:/temp/dataset/6/10_18.odb,Step-1,Increment      1: Step Time =    1.000,"PART-1-1",           244,       8.72776,      -2.97127,            0.,NA,NA,"",       1.46976,      -1.46497,   118.528E-03,   16.0168E-03
C:/temp/dataset/6/10_18.odb,Step-1,Increment      1: Step Time =    1.000,"PART-1-1",           245,       9.39471,      -19.4524,            0.,NA,NA,"",   369.385E-03,  -363.611E-03,   65.0561E-03,   24.4583E-03
C:/temp/dataset/6/10_18.odb,Step-1,Increment      1: Step Time =    1.000,"PART-1-1",           246,       8.06548,      -22.0810,            0.,NA,NA,"",   189.926E-03,  -189.923E-03,  -994.188E-06,   9.87276E-03
C:/temp/dataset/6/10_18.odb,Step-1,Increment      1: Step Time =    1.000,"PART-1-1",           247,      -7.53738,       4.79758,            0.,NA,NA,"",       1.57001,      -1.56828,  -73.6134E-03,   5.42467E-03
C:/temp/dataset/6/10_18.odb,Step-1,Increment      1: Step Time =    1.000,"PART-1-1",           248,      -10.8025,      -24.3532,            0.,NA,NA,"",   104.332E-03,  -90.4639E-03,  -51.9759E-03,   10.8610E-03
C:/temp/dataset/6/10_18.odb,Step-1,Increment      1: Step Time =    1.000,"PART-1-1",           249,       5.82981,      -2.08643,            0.,NA,NA,"",       1.44442,      -1.44249,   74.5232E-03,   19.1416E-03
C:/temp/dataset/6/10_18.odb,Step-1,Increment      1: Step Time =    1.000,"PART-1-1",           250,      -8.67175,      -2.53401,            0.,NA,NA,"",       1.33790,      -1.33470,  -92.3581E-03,   6.72957E-03
C:/temp/dataset/6/10_18.odb,Step-1,Increment      1: Step Time =    1.000,"PART-1-1",           251,       5.78686,      -22.7214,            0.,NA,NA,"",   168.841E-03,  -159.941E-03,  -54.0954E-03,   17.8625E-03
C:/temp/dataset/6/10_18.odb,Step-1,Increment      1: Step Time =    1.000,"PART-1-1",           252,      -8.27594,       1.60152,            0.,NA,NA,"",       1.47377,      -1.47117,  -87.3616E-03,   6.86566E-03
C:/temp/dataset/6/10_18.odb,Step-1,Increment      1: Step Time =    1.000,"PART-1-1",           253,       8.25490,      -24.0061,            0.,NA,NA,"",   118.587E-03,  -118.548E-03,   3.03265E-03,   5.52040E-03
C:/temp/dataset/6/10_18.odb,Step-1,Increment      1: Step Time =    1.000,"PART-1-1",           254,      -9.04303,      -23.2600,            0.,NA,NA,"",   115.434E-03,  -113.429E-03,  -21.4229E-03,   4.34017E-03
C:/temp/dataset/6/10_18.odb,Step-1,Increment      1: Step Time =    1.000,"PART-1-1",           255,       7.61656,      -1.09448,            0.,NA,NA,"",       1.47694,      -1.47279,   110.643E-03,   13.7186E-03
C:/temp/dataset/6/10_18.odb,Step-1,Increment      1: Step Time =    1.000,"PART-1-1",           256,      -4.02262,   861.151E-03,            0.,NA,NA,"",       1.44484,      -1.44419,   43.3797E-03,   5.19482E-03
C:/temp/dataset/6/10_18.odb,Step-1,Increment      1: Step Time =    1.000,"PART-1-1",           257,  -104.141E-03,       1.31276,            0.,NA,NA,"",       1.45918,      -1.45684,   82.5822E-03,   10.3362E-03
C:/temp/dataset/6/10_18.odb,Step-1,Increment      1: Step Time =    1.000,"PART-1-1",           258,       3.72123,      -23.4419,            0.,NA,NA,"",   153.066E-03,  -144.722E-03,  -49.8471E-03,   25.6668E-03
C:/temp/dataset/6/10_18.odb,Step-1,Increment      1: Step Time =    1.000,"PART-1-1",           259,      -10.7950,      -8.39617,            0.,NA,NA,"",       1.00597,  -988.630E-03,  -185.959E-03,   12.2393E-03
C:/temp/dataset/6/10_18.odb,Step-1,Increment      1: Step Time =    1.000,"PART-1-1",           260,      -1.85786,       1.02916,            0.,NA,NA,"",       1.45053,      -1.44875,   71.8657E-03,   9.30416E-03
C:/temp/dataset/6/10_18.odb,Step-1,Increment      1: Step Time =    1.000,"PART-1-1",           261,      -6.46179,      -1.33856,            0.,NA,NA,"",       1.38291,      -1.38288,  -9.46534E-03,   7.19023E-03
C:/temp/dataset/6/10_18.odb,Step-1,Increment      1: Step Time =    1.000,"PART-1-1",           262,      -11.1078,      -7.00587,            0.,NA,NA,"",       1.10077,      -1.08141,  -205.576E-03,   10.0206E-03
C:/temp/dataset/6/10_18.odb,Step-1,Increment      1: Step Time =    1.000,"PART-1-1",           263,      -5.52697,      -3.44125,            0.,NA,NA,"",       1.31828,      -1.31786,   32.9704E-03,   14.3838E-03
C:/temp/dataset/6/10_18.odb,Step-1,Increment      1: Step Time =    1.000,"PART-1-1",           264,      -9.72268,      -4.98378,            0.,NA,NA,"",       1.21936,      -1.21125,  -140.396E-03,   8.48686E-03
C:/temp/dataset/6/10_18.odb,Step-1,Increment      1: Step Time =    1.000,"PART-1-1",           265,      -6.27329,       4.89376,            0.,NA,NA,"",       1.56593,      -1.56564,  -30.2684E-03,   7.89293E-03
C:/temp/dataset/6/10_18.odb,Step-1,Increment      1: Step Time =    1.000,"PART-1-1",           266,       12.4963,       2.80040,            0.,NA,NA,"",       1.54046,      -1.52577,   212.236E-03,   3.27387E-03
C:/temp/dataset/6/10_18.odb,Step-1,Increment      1: Step Time =    1.000,"PART-1-1",           267,      -7.37176,      -20.2559,            0.,NA,NA,"",   206.032E-03,  -205.486E-03,   14.9820E-03,   10.5288E-03
C:/temp/dataset/6/10_18.odb,Step-1,Increment      1: Step Time =    1.000,"PART-1-1",           268,       2.88963,      -21.8777,            0.,NA,NA,"",   180.241E-03,  -175.078E-03,  -42.8303E-03,   30.9802E-03
C:/temp/dataset/6/10_18.odb,Step-1,Increment      1: Step Time =    1.000,"PART-1-1",           269,      -8.05085,       3.52655,            0.,NA,NA,"",       1.53107,      -1.52863,  -86.4967E-03,   6.55528E-03
C:/temp/dataset/6/10_18.odb,Step-1,Increment      1: Step Time =    1.000,"PART-1-1",           270,       8.95558,      -12.5395,            0.,NA,NA,"",   990.157E-03,  -988.874E-03,   50.3780E-03,   24.4023E-03
C:/temp/dataset/6/10_18.odb,Step-1,Increment      1: Step Time =    1.000,"PART-1-1",           271,       1.35989,  -223.950E-03,            0.,NA,NA,"",       1.43630,      -1.43392,   82.6977E-03,   12.5449E-03
C:/temp/dataset/6/10_18.odb,Step-1,Increment      1: Step Time =    1.000,"PART-1-1",           272,      -9.75004,      -12.6533,            0.,NA,NA,"",   691.924E-03,  -683.340E-03,  -108.652E-03,   14.3371E-03
C:/temp/dataset/6/10_18.odb,Step-1,Increment      1: Step Time =    1.000,"PART-1-1",           273,      -8.51206,      -25.1011,            0.,NA,NA,"",   71.9449E-03,  -71.4473E-03,  -8.44667E-03,   5.34258E-03
C:/temp/dataset/6/10_18.odb,Step-1,Increment      1: Step Time =    1.000,"PART-1-1",           274,      -6.19138,   998.181E-03,            0.,NA,NA,"",       1.45032,      -1.45027,  -11.5033E-03,   4.93865E-03
C:/temp/dataset/6/10_18.odb,Step-1,Increment      1: Step Time =    1.000,"PART-1-1",           275,      -2.63339,      -25.0950,            0.,NA,NA,"",   101.559E-03,  -100.621E-03,   13.7719E-03,   18.8338E-03
C:/temp/dataset/6/10_18.odb,Step-1,Increment      1: Step Time =    1.000,"PART-1-1",           276,       8.11811,      -26.0558,            0.,NA,NA,"",   60.9703E-03,  -60.9582E-03,   1.21379E-03,   7.07449E-03
C:/temp/dataset/6/10_18.odb,Step-1,Increment      1: Step Time =    1.000,"PART-1-1",           277,       6.33403,   764.508E-03,            0.,NA,NA,"",       1.48465,      -1.48074,   107.719E-03,   9.19830E-03
C:/temp/dataset/6/10_18.odb,Step-1,Increment      1: Step Time =    1.000,"PART-1-1",           278,       8.84044,      -16.9880,            0.,NA,NA,"",   571.958E-03,  -570.150E-03,   45.4468E-03,   29.2693E-03
C:/temp/dataset/6/10_18.odb,Step-1,Increment      1: Step Time =    1.000,"PART-1-1",           279,      -11.3950,       19.6047,            0.,NA,NA,"",       2.11133,      -2.09922,  -225.753E-03,   9.06144E-06
C:/temp/dataset/6/10_18.odb,Step-1,Increment      1: Step Time =    1.000,"PART-1-1",           280,      -11.2464,      -2.22607,            0.,NA,NA,"",       1.35163,      -1.33550,  -208.250E-03,   4.65145E-03
C:/temp/dataset/6/10_18.odb,Step-1,Increment      1: Step Time =    1.000,"PART-1-1",           281,      -8.41776,  -32.7016E-03,            0.,NA,NA,"",       1.42440,      -1.42173,  -87.2928E-03,   6.59570E-03
C:/temp/dataset/6/10_18.odb,Step-1,Increment      1: Step Time =    1.000,"PART-1-1",           282,       4.48255,      -24.5345,            0.,NA,NA,"",   121.102E-03,  -113.951E-03,  -40.9985E-03,   20.4417E-03
C:/temp/dataset/6/10_18.odb,Step-1,Increment      1: Step Time =    1.000,"PART-1-1",           283,       6.11275,      -24.3348,            0.,NA,NA,"",   116.489E-03,  -111.395E-03,  -34.0702E-03,   14.2722E-03
C:/temp/dataset/6/10_18.odb,Step-1,Increment      1: Step Time =    1.000,"PART-1-1",           284,       9.69767,      -4.20039,            0.,NA,NA,"",       1.46259,      -1.45595,   139.205E-03,   14.5076E-03
C:/temp/dataset/6/10_18.odb,Step-1,Increment      1: Step Time =    1.000,"PART-1-1",           285,       13.8851,      -1.60402,            0.,NA,NA,"",       1.50908,      -1.48901,   245.275E-03,   8.42122E-03
C:/temp/dataset/6/10_18.odb,Step-1,Increment      1: Step Time =    1.000,"PART-1-1",           286,           15.,   -468.75E-03,            0.,NA,NA,"",       1.51519,      -1.49419,   251.379E-03,   5.04525E-03
C:/temp/dataset/6/10_18.odb,Step-1,Increment      1: Step Time =    1.000,"PART-1-1",           287,       13.7553,   590.641E-03,            0.,NA,NA,"",       1.52289,      -1.50481,   233.944E-03,   4.19020E-03
C:/temp/dataset/6/10_18.odb,Step-1,Increment      1: Step Time =    1.000,"PART-1-1",           288,       12.6405,  -544.629E-03,            0.,NA,NA,"",       1.51369,      -1.49759,   220.206E-03,   9.04755E-03
C:/temp/dataset/6/10_18.odb,Step-1,Increment      1: Step Time =    1.000,"PART-1-1",           289,       6.57104,       2.96720,            0.,NA,NA,"",       1.51178,      -1.50695,   120.760E-03,   5.62030E-03
C:/temp/dataset/6/10_18.odb,Step-1,Increment      1: Step Time =    1.000,"PART-1-1",           290,       5.86345,       1.80964,            0.,NA,NA,"",       1.49378,      -1.48981,   108.747E-03,   7.52107E-03
C:/temp/dataset/6/10_18.odb,Step-1,Increment      1: Step Time =    1.000,"PART-1-1",           291,       7.10711,       1.10321,            0.,NA,NA,"",       1.49465,      -1.48991,   119.041E-03,   8.20080E-03
C:/temp/dataset/6/10_18.odb,Step-1,Increment      1: Step Time =    1.000,"PART-1-1",           292,       7.81470,       2.26078,            0.,NA,NA,"",       1.51202,      -1.50603,   134.351E-03,   6.83849E-03
C:/temp/dataset/6/10_18.odb,Step-1,Increment      1: Step Time =    1.000,"PART-1-1",           293,       6.97305,      -8.82061,            0.,NA,NA,"",       1.25490,      -1.25477,  -18.4188E-03,   21.3364E-03
C:/temp/dataset/6/10_18.odb,Step-1,Increment      1: Step Time =    1.000,"PART-1-1",           294,       5.98985,      -7.53541,            0.,NA,NA,"",       1.31625,      -1.31574,  -36.4053E-03,   29.5965E-03
C:/temp/dataset/6/10_18.odb,Step-1,Increment      1: Step Time =    1.000,"PART-1-1",           295,            5.,      -8.76875,            0.,NA,NA,"",       1.23601,      -1.23000,  -121.773E-03,   33.8954E-03
C:/temp/dataset/6/10_18.odb,Step-1,Increment      1: Step Time =    1.000,"PART-1-1",           296,       5.98320,      -10.0539,            0.,NA,NA,"",       1.16469,      -1.16089,  -93.9472E-03,   24.8564E-03
C:/temp/dataset/6/10_18.odb,Step-1,Increment      1: Step Time =    1.000,"PART-1-1",           297,       12.0429,      -8.05477,            0.,NA,NA,"",       1.36816,      -1.35096,   216.286E-03,   12.7864E-03
C:/temp/dataset/6/10_18.odb,Step-1,Increment      1: Step Time =    1.000,"PART-1-1",           298,       11.0248,      -9.13413,            0.,NA,NA,"",       1.28712,      -1.27622,   167.135E-03,   15.5041E-03
C:/temp/dataset/6/10_18.odb,Step-1,Increment      1: Step Time =    1.000,"PART-1-1",           299,       11.9985,      -10.2754,            0.,NA,NA,"",       1.22531,      -1.20657,   213.469E-03,   18.8112E-03
C:/temp/dataset/6/10_18.odb,Step-1,Increment      1: Step Time =    1.000,"PART-1-1",           300,       13.0166,      -9.19606,            0.,NA,NA,"",       1.32164,      -1.29458,   266.100E-03,   15.6613E-03
C:/temp/dataset/6/10_18.odb,Step-1,Increment      1: Step Time =    1.000,"PART-1-1",           301,       13.9992,      -14.7549,            0.,NA,NA,"",   882.101E-03,  -808.298E-03,   353.209E-03,   10.8075E-03
C:/temp/dataset/6/10_18.odb,Step-1,Increment      1: Step Time =    1.000,"PART-1-1",           302,       13.0271,      -15.9471,            0.,NA,NA,"",   745.844E-03,  -691.897E-03,   278.499E-03,   18.2383E-03
C:/temp/dataset/6/10_18.odb,Step-1,Increment      1: Step Time =    1.000,"PART-1-1",           303,       14.0279,      -16.9735,            0.,NA,NA,"",   698.265E-03,  -610.397E-03,   339.100E-03,   19.0040E-03
C:/temp/dataset/6/10_18.odb,Step-1,Increment      1: Step Time =    1.000,"PART-1-1",           304,           15.,      -15.7813,            0.,NA,NA,"",   841.328E-03,  -723.815E-03,   428.865E-03,   15.4369E-03
C:/temp/dataset/6/10_18.odb,Step-1,Increment      1: Step Time =    1.000,"PART-1-1",           305,       6.96949,      -18.0995,            0.,NA,NA,"",   458.396E-03,  -456.070E-03,  -46.1116E-03,   26.4903E-03
C:/temp/dataset/6/10_18.odb,Step-1,Increment      1: Step Time =    1.000,"PART-1-1",           306,       5.95014,      -17.3335,            0.,NA,NA,"",   543.246E-03,  -529.386E-03,  -121.933E-03,   13.9439E-03
C:/temp/dataset/6/10_18.odb,Step-1,Increment      1: Step Time =    1.000,"PART-1-1",           307,            5.,      -18.7625,            0.,NA,NA,"",   433.763E-03,  -399.058E-03,  -170.010E-03,   37.7457E-03
C:/temp/dataset/6/10_18.odb,Step-1,Increment      1: Step Time =    1.000,"PART-1-1",           308,       6.01935,      -19.5285,            0.,NA,NA,"",   320.491E-03,  -310.950E-03,  -77.6176E-03,   42.1582E-03
C:/temp/dataset/6/10_18.odb,Step-1,Increment      1: Step Time =    1.000,"PART-1-1",           309,       7.66098,      -29.0388,            0.,NA,NA,"",   8.11588E-03,  -8.11261E-03,   230.505E-06,   5.72617E-03
C:/temp/dataset/6/10_18.odb,Step-1,Increment      1: Step Time =    1.000,"PART-1-1",           310,       6.62868,      -28.0660,            0.,NA,NA,"",   25.4395E-03,  -24.8574E-03,  -5.41098E-03,   10.0224E-03
C:/temp/dataset/6/10_18.odb,Step-1,Increment      1: Step Time =    1.000,"PART-1-1",           311,       5.21770,      -29.0272,            0.,NA,NA,"",   14.7218E-03,  -14.2244E-03,  -3.79443E-03,   11.2431E-03
C:/temp/dataset/6/10_18.odb,Step-1,Increment      1: Step Time =    1.000,"PART-1-1",           312,          6.25,          -30.,            0.,NA,NA,"",            0.,  -6.07913E-39,  -3.61869E-39,   6.72311E-03
C:/temp/dataset/6/10_18.odb,Step-1,Increment      1: Step Time =    1.000,"PART-1-1",           313,   162.125E-03,      -28.5454,            0.,NA,NA,"",   34.1086E-03,  -33.9848E-03,  -2.90315E-03,   16.3669E-03
C:/temp/dataset/6/10_18.odb,Step-1,Increment      1: Step Time =    1.000,"PART-1-1",           314,      -1.06934,      -27.3053,            0.,NA,NA,"",   60.1999E-03,  -60.1985E-03,  -417.531E-06,   15.9971E-03
C:/temp/dataset/6/10_18.odb,Step-1,Increment      1: Step Time =    1.000,"PART-1-1",           315,      -2.48147,      -28.7599,            0.,NA,NA,"",   26.4422E-03,  -26.4313E-03,   756.189E-06,   14.4736E-03
C:/temp/dataset/6/10_18.odb,Step-1,Increment      1: Step Time =    1.000,"PART-1-1",           316,         -1.25,          -30.,            0.,NA,NA,"",            0.,  -14.6377E-39,  -2.29511E-39,   14.7442E-03
C:/temp/dataset/6/10_18.odb,Step-1,Increment      1: Step Time =    1.000,"PART-1-1",           317,          -15.,        -21.25,            0.,NA,NA,"",   319.442E-03,  -219.400E-03,  -232.179E-03,   27.5912E-03
C:/temp/dataset/6/10_18.odb,Step-1,Increment      1: Step Time =    1.000,"PART-1-1",           318,      -13.9888,      -22.4607,            0.,NA,NA,"",   236.769E-03,  -166.801E-03,  -168.038E-03,   23.7082E-03
C:/temp/dataset/6/10_18.odb,Step-1,Increment      1: Step Time =    1.000,"PART-1-1",           319,      -12.8187,      -21.2681,            0.,NA,NA,"",   248.737E-03,  -197.181E-03,  -151.623E-03,   18.2981E-03
C:/temp/dataset/6/10_18.odb,Step-1,Increment      1: Step Time =    1.000,"PART-1-1",           320,      -13.8299,      -20.0574,            0.,NA,NA,"",   331.805E-03,  -254.525E-03,  -212.865E-03,   21.9964E-03
C:/temp/dataset/6/10_18.odb,Step-1,Increment      1: Step Time =    1.000,"PART-1-1",           321,      -12.5142,      -28.6623,            0.,NA,NA,"",   23.2237E-03,  -13.9516E-03,  -18.5659E-03,   17.8593E-03
C:/temp/dataset/6/10_18.odb,Step-1,Increment      1: Step Time =    1.000,"PART-1-1",           322,        -11.25,          -30.,            0.,NA,NA,"",            0.,  -2.65059E-39,  -23.4508E-39,   12.4338E-03
C:/temp/dataset/6/10_18.odb,Step-1,Increment      1: Step Time =    1.000,"PART-1-1",           323,      -9.93348,      -28.4464,            0.,NA,NA,"",   16.0080E-03,  -12.9705E-03,  -9.38199E-03,   8.61845E-03
C:/temp/dataset/6/10_18.odb,Step-1,Increment      1: Step Time =    1.000,"PART-1-1",           324,      -11.1976,      -27.1087,            0.,NA,NA,"",   45.7238E-03,  -35.1066E-03,  -29.2950E-03,   13.9196E-03
C:/temp/dataset/6/10_18.odb,Step-1,Increment      1: Step Time =    1.000,"PART-1-1",           325,      -7.37036,      -13.8742,            0.,NA,NA,"",   597.910E-03,  -597.525E-03,   21.4366E-03,   10.0167E-03
C:/temp/dataset/6/10_18.odb,Step-1,Increment      1: Step Time =    1.000,"PART-1-1",           326,      -6.21015,      -15.0417,            0.,NA,NA,"",   528.284E-03,  -521.136E-03,   86.6116E-03,   8.01472E-03
C:/temp/dataset/6/10_18.odb,Step-1,Increment      1: Step Time =    1.000,"PART-1-1",           327,           -5.,      -13.7188,            0.,NA,NA,"",   637.452E-03,  -615.561E-03,   165.619E-03,   4.85481E-03
C:/temp/dataset/6/10_18.odb,Step-1,Increment      1: Step Time =    1.000,"PART-1-1",           328,      -6.16021,      -12.5513,            0.,NA,NA,"",   698.724E-03,  -692.875E-03,   90.2195E-03,   4.95608E-03
C:/temp/dataset/6/10_18.odb,Step-1,Increment      1: Step Time =    1.000,"PART-1-1",           329,      -9.33590,      -9.40979,            0.,NA,NA,"",   924.289E-03,  -918.124E-03,  -106.571E-03,   14.5089E-03
C:/temp/dataset/6/10_18.odb,Step-1,Increment      1: Step Time =    1.000,"PART-1-1",           330,      -8.33361,      -10.3234,            0.,NA,NA,"",   853.047E-03,  -851.738E-03,  -47.2304E-03,   12.6032E-03
C:/temp/dataset/6/10_18.odb,Step-1,Increment      1: Step Time =    1.000,"PART-1-1",           331,      -7.16565,      -9.15059,            0.,NA,NA,"",   936.697E-03,  -936.645E-03,   9.84716E-03,   12.6835E-03
C:/temp/dataset/6/10_18.odb,Step-1,Increment      1: Step Time =    1.000,"PART-1-1",           332,      -8.16794,      -8.23701,            0.,NA,NA,"",       1.00445,      -1.00304,  -53.3334E-03,   14.8035E-03
C:/temp/dataset/6/10_18.odb,Step-1,Increment      1: Step Time =    1.000,"PART-1-1",           333,      -11.1473,      -6.32447,            0.,NA,NA,"",       1.14353,      -1.12442,  -208.159E-03,   8.53801E-03
C:/temp/dataset/6/10_18.odb,Step-1,Increment      1: Step Time =    1.000,"PART-1-1",           334,      -10.2102,      -6.79208,            0.,NA,NA,"",       1.11044,      -1.09860,  -161.780E-03,   11.0578E-03
C:/temp/dataset/6/10_18.odb,Step-1,Increment      1: Step Time =    1.000,"PART-1-1",           335,      -9.51762,      -5.78103,            0.,NA,NA,"",       1.17233,      -1.16506,  -130.392E-03,   10.0920E-03
C:/temp/dataset/6/10_18.odb,Step-1,Increment      1: Step Time =    1.000,"PART-1-1",           336,      -10.4548,      -5.31342,            0.,NA,NA,"",       1.20083,      -1.18801,  -175.037E-03,   7.85120E-03
C:/temp/dataset/6/10_18.odb,Step-1,Increment      1: Step Time =    1.000,"PART-1-1",           337,      -5.04937,      -1.25055,            0.,NA,NA,"",       1.38804,      -1.38772,   30.1591E-03,   7.12226E-03
C:/temp/dataset/6/10_18.odb,Step-1,Increment      1: Step Time =    1.000,"PART-1-1",           338,      -3.82978,  -150.691E-03,            0.,NA,NA,"",       1.41911,      -1.41823,   50.0802E-03,   7.70748E-03
C:/temp/dataset/6/10_18.odb,Step-1,Increment      1: Step Time =    1.000,"PART-1-1",           339,      -5.10700,   929.666E-03,            0.,NA,NA,"",       1.44699,      -1.44687,   19.0373E-03,   3.79289E-03
C:/temp/dataset/6/10_18.odb,Step-1,Increment      1: Step Time =    1.000,"PART-1-1",           340,      -6.32658,  -170.190E-03,            0.,NA,NA,"",       1.41765,      -1.41761,  -10.7980E-03,   5.62360E-03
C:/temp/dataset/6/10_18.odb,Step-1,Increment      1: Step Time =    1.000,"PART-1-1",           341,          -15.,          3.75,            0.,NA,NA,"",       1.57754,      -1.53920,  -345.692E-03,   2.45092E-03
C:/temp/dataset/6/10_18.odb,Step-1,Increment      1: Step Time =    1.000,"PART-1-1",           342,      -13.8520,       2.39386,            0.,NA,NA,"",       1.52719,      -1.49585,  -307.791E-03,   3.64998E-03
C:/temp/dataset/6/10_18.odb,Step-1,Increment      1: Step Time =    1.000,"PART-1-1",           343,      -12.6820,       3.58697,            0.,NA,NA,"",       1.55906,      -1.53678,  -262.648E-03,   3.53138E-03
C:/temp/dataset/6/10_18.odb,Step-1,Increment      1: Step Time =    1.000,"PART-1-1",           344,      -13.8301,       4.94311,            0.,NA,NA,"",       1.60956,      -1.58057,  -304.136E-03,   1.49242E-03
C:/temp/dataset/6/10_18.odb,Step-1,Increment      1: Step Time =    1.000,"PART-1-1",           345,          -15.,         11.25,            0.,NA,NA,"",       1.83213,      -1.79864,  -348.688E-03,   209.043E-06
C:/temp/dataset/6/10_18.odb,Step-1,Increment      1: Step Time =    1.000,"PART-1-1",           346,      -14.0083,       10.0442,            0.,NA,NA,"",       1.78402,      -1.75642,  -312.591E-03,   149.472E-06
C:/temp/dataset/6/10_18.odb,Step-1,Increment      1: Step Time =    1.000,"PART-1-1",           347,      -13.0572,       11.3141,            0.,NA,NA,"",       1.82363,      -1.80204,  -279.776E-03,   64.5411E-06
C:/temp/dataset/6/10_18.odb,Step-1,Increment      1: Step Time =    1.000,"PART-1-1",           348,      -14.0489,       12.5200,            0.,NA,NA,"",       1.87126,      -1.84441,  -315.834E-03,   102.495E-06
C:/temp/dataset/6/10_18.odb,Step-1,Increment      1: Step Time =    1.000,"PART-1-1",           349,           -5.,       22.7083,            0.,NA,NA,"",       2.21418,      -2.21418,   702.292E-06,   899.821E-09
C:/temp/dataset/6/10_18.odb,Step-1,Increment      1: Step Time =    1.000,"PART-1-1",           350,      -5.96779,       23.6687,            0.,NA,NA,"",       2.24813,      -2.24787,  -34.4783E-03,   410.118E-09
C:/temp/dataset/6/10_18.odb,Step-1,Increment      1: Step Time =    1.000,"PART-1-1",           351,      -6.69567,       22.7251,            0.,NA,NA,"",       2.21451,      -2.21370,  -59.8756E-03,   561.357E-09
C:/temp/dataset/6/10_18.odb,Step-1,Increment      1: Step Time =    1.000,"PART-1-1",           352,      -5.72788,       21.7648,            0.,NA,NA,"",       2.18016,      -2.18002,  -24.6948E-03,   486.997E-09
C:/temp/dataset/6/10_18.odb,Step-1,Increment      1: Step Time =    1.000,"PART-1-1",           353,      -9.95259,       28.8237,            0.,NA,NA,"",       2.43613,      -2.42946,  -180.106E-03,   229.059E-09
C:/temp/dataset/6/10_18.odb,Step-1,Increment      1: Step Time =    1.000,"PART-1-1",           354,      -8.67740,       27.7404,            0.,NA,NA,"",       2.39533,      -2.39158,  -133.864E-03,   211.047E-09
C:/temp/dataset/6/10_18.odb,Step-1,Increment      1: Step Time =    1.000,"PART-1-1",           355,      -7.47481,       28.9167,            0.,NA,NA,"",       2.43609,      -2.43437,  -91.6579E-03,   197.318E-09
C:/temp/dataset/6/10_18.odb,Step-1,Increment      1: Step Time =    1.000,"PART-1-1",           356,         -8.75,           30.,            0.,NA,NA,"",       2.47609,      -2.47225,  -137.899E-03,   245.373E-09
C:/temp/dataset/6/10_18.odb,Step-1,Increment      1: Step Time =    1.000,"PART-1-1",           357,      -12.4360,       28.7156,            0.,NA,NA,"",       2.43887,      -2.42402,  -268.745E-03,   207.830E-09
C:/temp/dataset/6/10_18.odb,Step-1,Increment      1: Step Time =    1.000,"PART-1-1",           358,        -13.75,           30.,            0.,NA,NA,"",       2.48926,      -2.46906,  -316.503E-03,   55.4233E-09
C:/temp/dataset/6/10_18.odb,Step-1,Increment      1: Step Time =    1.000,"PART-1-1",           359,          -15.,         28.75,            0.,NA,NA,"",       2.45025,      -2.42361,  -360.356E-03,   70.4825E-09
C:/temp/dataset/6/10_18.odb,Step-1,Increment      1: Step Time =    1.000,"PART-1-1",           360,      -13.6860,       27.4656,            0.,NA,NA,"",       2.39902,      -2.37857,  -312.599E-03,   220.136E-09
C:/temp/dataset/6/10_18.odb,Step-1,Increment      1: Step Time =    1.000,"PART-1-1",           361,         -3.75,           -5.,            0.,NA,NA,"",       1.30098,      -1.30008,   48.5312E-03,   33.7329E-03
C:/temp/dataset/6/10_18.odb,Step-1,Increment      1: Step Time =    1.000,"PART-1-1",           362,      -2.75606,      -4.06584,            0.,NA,NA,"",       1.33455,      -1.33319,   60.3891E-03,   19.6791E-03
C:/temp/dataset/6/10_18.odb,Step-1,Increment      1: Step Time =    1.000,"PART-1-1",           363,      -4.26954,      -3.28646,            0.,NA,NA,"",       1.33104,      -1.32980,   57.4761E-03,   16.1768E-03
C:/temp/dataset/6/10_18.odb,Step-1,Increment      1: Step Time =    1.000,"PART-1-1",           364,      -5.26349,      -4.22062,            0.,NA,NA,"",       1.29210,      -1.29107,   51.5574E-03,   27.4542E-03
C:/temp/dataset/6/10_18.odb,Step-1,Increment      1: Step Time =    1.000,"PART-1-1",           365,   659.099E-03,      -2.85996,            0.,NA,NA,"",       1.39187,      -1.38992,   73.5905E-03,   12.2029E-03
C:/temp/dataset/6/10_18.odb,Step-1,Increment      1: Step Time =    1.000,"PART-1-1",           366,  -266.865E-03,      -3.97148,            0.,NA,NA,"",       1.37250,      -1.37087,   66.7760E-03,   13.4674E-03
C:/temp/dataset/6/10_18.odb,Step-1,Increment      1: Step Time =    1.000,"PART-1-1",           367,          1.25,           -5.,            0.,NA,NA,"",       1.38502,      -1.38356,   63.7255E-03,   11.6525E-03
C:/temp/dataset/6/10_18.odb,Step-1,Increment      1: Step Time =    1.000,"PART-1-1",           368,       2.17596,      -3.88848,            0.,NA,NA,"",       1.39485,      -1.39327,   66.4155E-03,   8.99068E-03
C:/temp/dataset/6/10_18.odb,Step-1,Increment      1: Step Time =    1.000,"PART-1-1",           369,   93.5104E-03,  -560.922E-03,            0.,NA,NA,"",       1.42399,      -1.42170,   80.6427E-03,   12.2804E-03
C:/temp/dataset/6/10_18.odb,Step-1,Increment      1: Step Time =    1.000,"PART-1-1",           370,   627.873E-03,   544.404E-03,            0.,NA,NA,"",       1.44679,      -1.44435,   83.8558E-03,   11.1741E-03
C:/temp/dataset/6/10_18.odb,Step-1,Increment      1: Step Time =    1.000,"PART-1-1",           371,  -981.002E-03,       1.17096,            0.,NA,NA,"",       1.45472,      -1.45261,   78.2223E-03,   9.61169E-03
C:/temp/dataset/6/10_18.odb,Step-1,Increment      1: Step Time =    1.000,"PART-1-1",           372,      -1.51537,   65.6335E-03,            0.,NA,NA,"",       1.42993,      -1.42795,   75.0769E-03,   10.6440E-03
C:/temp/dataset/6/10_18.odb,Step-1,Increment      1: Step Time =    1.000,"PART-1-1",           373,       4.11258,       2.54084,            0.,NA,NA,"",       1.49264,      -1.48935,   99.0800E-03,   7.01951E-03
C:/temp/dataset/6/10_18.odb,Step-1,Increment      1: Step Time =    1.000,"PART-1-1",           374,       3.71515,       1.12833,            0.,NA,NA,"",       1.47064,      -1.46778,   91.7734E-03,   9.76025E-03
C:/temp/dataset/6/10_18.odb,Step-1,Increment      1: Step Time =    1.000,"PART-1-1",           375,       5.46602,   397.127E-03,            0.,NA,NA,"",       1.47292,      -1.46973,   96.9434E-03,   10.0531E-03
C:/temp/dataset/6/10_18.odb,Step-1,Increment      1: Step Time =    1.000,"PART-1-1",           376,       8.69518,  -378.803E-03,            0.,NA,NA,"",       1.49351,      -1.48724,   136.691E-03,   11.1362E-03
C:/temp/dataset/6/10_18.odb,Step-1,Increment      1: Step Time =    1.000,"PART-1-1",           377,       8.82700,   889.396E-03,            0.,NA,NA,"",       1.50550,      -1.49847,   145.337E-03,   8.48109E-03
C:/temp/dataset/6/10_18.odb,Step-1,Increment      1: Step Time =    1.000,"PART-1-1",           378,       6.97530,  -164.986E-03,            0.,NA,NA,"",       1.47982,      -1.47584,   108.494E-03,   11.2556E-03
C:/temp/dataset/6/10_18.odb,Step-1,Increment      1: Step Time =    1.000,"PART-1-1",           379,      -3.65351,      -22.6081,            0.,NA,NA,"",   148.768E-03,  -144.375E-03,   35.8843E-03,   17.8214E-03
C:/temp/dataset/6/10_18.odb,Step-1,Increment      1: Step Time =    1.000,"PART-1-1",           380,      -2.48671,      -21.3009,            0.,NA,NA,"",   162.379E-03,  -160.252E-03,   26.2020E-03,   9.66462E-03
C:/temp/dataset/6/10_18.odb,Step-1,Increment      1: Step Time =    1.000,"PART-1-1",           381,         -3.75,          -20.,            0.,NA,NA,"",   176.190E-03,  -171.853E-03,   38.8535E-03,   23.2500E-03
C:/temp/dataset/6/10_18.odb,Step-1,Increment      1: Step Time =    1.000,"PART-1-1",           382,      -4.91680,      -21.3072,            0.,NA,NA,"",   175.921E-03,  -166.586E-03,   56.5432E-03,   23.6074E-03
C:/temp/dataset/6/10_18.odb,Step-1,Increment      1: Step Time =    1.000,"PART-1-1",           383,       12.8399,      -22.4784,            0.,NA,NA,"",   279.357E-03,  -220.023E-03,   172.133E-03,   25.0618E-03
C:/temp/dataset/6/10_18.odb,Step-1,Increment      1: Step Time =    1.000,"PART-1-1",           384,       11.7398,      -21.2760,            0.,NA,NA,"",   307.878E-03,  -270.485E-03,   147.059E-03,   21.3794E-03
C:/temp/dataset/6/10_18.odb,Step-1,Increment      1: Step Time =    1.000,"PART-1-1",           385,       10.5591,      -22.4389,            0.,NA,NA,"",   212.997E-03,  -195.939E-03,   83.5223E-03,   16.5585E-03
C:/temp/dataset/6/10_18.odb,Step-1,Increment      1: Step Time =    1.000,"PART-1-1",           386,       11.6593,      -23.6412,            0.,NA,NA,"",   186.636E-03,  -154.233E-03,   105.096E-03,   19.9511E-03
C:/temp/dataset/6/10_18.odb,Step-1,Increment      1: Step Time =    1.000,"PART-1-1",           387,          8.75,            5.,            0.,NA,NA,"",       1.55088,      -1.54308,   155.371E-03,   5.38154E-03
C:/temp/dataset/6/10_18.odb,Step-1,Increment      1: Step Time =    1.000,"PART-1-1",           388,       7.62461,       4.03982,            0.,NA,NA,"",       1.53073,      -1.52459,   136.961E-03,   6.26218E-03
C:/temp/dataset/6/10_18.odb,Step-1,Increment      1: Step Time =    1.000,"PART-1-1",           389,       8.90047,       2.96899,            0.,NA,NA,"",       1.52627,      -1.51857,   153.108E-03,   5.60100E-03
C:/temp/dataset/6/10_18.odb,Step-1,Increment      1: Step Time =    1.000,"PART-1-1",           390,       10.0259,       3.92917,            0.,NA,NA,"",       1.54344,      -1.53371,   173.083E-03,   4.29669E-03
C:/temp/dataset/6/10_18.odb,Step-1,Increment      1: Step Time =    1.000,"PART-1-1",           391,      -6.96921,       21.1213,            0.,NA,NA,"",       2.15733,      -2.15624,  -68.6231E-03,   3.05508E-06
C:/temp/dataset/6/10_18.odb,Step-1,Increment      1: Step Time =    1.000,"PART-1-1",           392,      -6.24133,       19.9816,            0.,NA,NA,"",       2.11642,      -2.11600,  -41.8955E-03,   3.26149E-06
C:/temp/dataset/6/10_18.odb,Step-1,Increment      1: Step Time =    1.000,"PART-1-1",           393,           -5.,        20.625,            0.,NA,NA,"",       2.13977,      -2.13977,   2.03000E-03,   671.509E-09
C:/temp/dataset/6/10_18.odb,Step-1,Increment      1: Step Time =    1.000,"PART-1-1",           394,      -12.9370,       8.81410,            0.,NA,NA,"",       1.73543,      -1.71368,  -273.891E-03,   304.854E-06
C:/temp/dataset/6/10_18.odb,Step-1,Increment      1: Step Time =    1.000,"PART-1-1",           395,          -15.,          8.75,            0.,NA,NA,"",       1.74507,      -1.71032,  -346.498E-03,   204.229E-06
C:/temp/dataset/6/10_18.odb,Step-1,Increment      1: Step Time =    1.000,"PART-1-1",           396,      -13.9287,       7.51992,            0.,NA,NA,"",       1.69628,      -1.66807,  -308.105E-03,   309.392E-06
C:/temp/dataset/6/10_18.odb,Step-1,Increment      1: Step Time =    1.000,"PART-1-1",           397,          -15.,          1.25,            0.,NA,NA,"",       1.49606,      -1.45383,  -352.955E-03,   5.87452E-03
C:/temp/dataset/6/10_18.odb,Step-1,Increment      1: Step Time =    1.000,"PART-1-1",           398,      -13.9023,  -59.1614E-03,            0.,NA,NA,"",       1.44597,      -1.41063,  -317.692E-03,   6.21950E-03
C:/temp/dataset/6/10_18.odb,Step-1,Increment      1: Step Time =    1.000,"PART-1-1",           399,      -12.7542,       1.08470,            0.,NA,NA,"",       1.47848,      -1.45402,  -267.834E-03,   5.12773E-03
C:/temp/dataset/6/10_18.odb,Step-1,Increment      1: Step Time =    1.000,"PART-1-1",           400,          -15.,         -1.25,            0.,NA,NA,"",       1.40929,      -1.36016,  -368.877E-03,   9.55258E-03
C:/temp/dataset/6/10_18.odb,Step-1,Increment      1: Step Time =    1.000,"PART-1-1",           401,      -13.9820,      -2.43756,            0.,NA,NA,"",       1.35703,      -1.31532,  -333.856E-03,   8.30478E-03
C:/temp/dataset/6/10_18.odb,Step-1,Increment      1: Step Time =    1.000,"PART-1-1",           402,      -12.8843,      -1.24672,            0.,NA,NA,"",       1.39736,      -1.36914,  -279.411E-03,   5.56551E-03
C:/temp/dataset/6/10_18.odb,Step-1,Increment      1: Step Time =    1.000,"PART-1-1",           403,      -12.3802,      -13.7897,            0.,NA,NA,"",   651.317E-03,  -606.989E-03,  -236.176E-03,   13.5331E-03
C:/temp/dataset/6/10_18.odb,Step-1,Increment      1: Step Time =    1.000,"PART-1-1",           404,      -13.6672,      -12.5056,            0.,NA,NA,"",   768.710E-03,  -698.463E-03,  -321.036E-03,   9.46764E-03
C:/temp/dataset/6/10_18.odb,Step-1,Increment      1: Step Time =    1.000,"PART-1-1",           405,          -15.,        -13.75,            0.,NA,NA,"",   731.203E-03,  -617.365E-03,  -391.813E-03,   12.4067E-03
C:/temp/dataset/6/10_18.odb,Step-1,Increment      1: Step Time =    1.000,"PART-1-1",           406,      -13.7130,      -15.0341,            0.,NA,NA,"",   605.159E-03,  -528.402E-03,  -294.973E-03,   14.1945E-03
C:/temp/dataset/6/10_18.odb,Step-1,Increment      1: Step Time =    1.000,"PART-1-1",           407,       9.21271,      -3.58583,            0.,NA,NA,"",       1.46705,      -1.46146,   127.886E-03,   15.0994E-03
C:/temp/dataset/6/10_18.odb,Step-1,Increment      1: Step Time =    1.000,"PART-1-1",           408,       7.90749,      -3.82305,            0.,NA,NA,"",       1.44958,      -1.44694,   87.4556E-03,   16.5437E-03
C:/temp/dataset/6/10_18.odb,Step-1,Increment      1: Step Time =    1.000,"PART-1-1",           409,       8.15132,      -5.16923,            0.,NA,NA,"",       1.42651,      -1.42431,   79.1851E-03,   13.9476E-03
C:/temp/dataset/6/10_18.odb,Step-1,Increment      1: Step Time =    1.000,"PART-1-1",           410,       9.45655,      -4.93201,            0.,NA,NA,"",       1.44591,      -1.44040,   126.075E-03,   13.0471E-03
C:/temp/dataset/6/10_18.odb,Step-1,Increment      1: Step Time =    1.000,"PART-1-1",           411,       6.91243,      -16.0318,            0.,NA,NA,"",   658.538E-03,  -654.909E-03,  -69.0394E-03,   20.6461E-03
C:/temp/dataset/6/10_18.odb,Step-1,Increment      1: Step Time =    1.000,"PART-1-1",           412,       5.96229,      -14.9858,            0.,NA,NA,"",   763.481E-03,  -750.310E-03,  -141.205E-03,   9.28177E-03
C:/temp/dataset/6/10_18.odb,Step-1,Increment      1: Step Time =    1.000,"PART-1-1",           413,            5.,      -16.2875,            0.,NA,NA,"",   665.131E-03,  -628.799E-03,  -216.819E-03,   5.33505E-03
C:/temp/dataset/6/10_18.odb,Step-1,Increment      1: Step Time =    1.000,"PART-1-1",           414,       6.93910,      -13.7291,            0.,NA,NA,"",   872.448E-03,  -869.566E-03,  -70.8513E-03,   17.6034E-03
C:/temp/dataset/6/10_18.odb,Step-1,Increment      1: Step Time =    1.000,"PART-1-1",           415,       5.97681,      -12.5371,            0.,NA,NA,"",   975.837E-03,  -967.208E-03,  -129.481E-03,   16.8381E-03
C:/temp/dataset/6/10_18.odb,Step-1,Increment      1: Step Time =    1.000,"PART-1-1",           416,            5.,      -13.7937,            0.,NA,NA,"",   877.154E-03,  -850.194E-03,  -215.800E-03,   11.3762E-03
C:/temp/dataset/6/10_18.odb,Step-1,Increment      1: Step Time =    1.000,"PART-1-1",           417,         -1.25,          -20.,            0.,NA,NA,"",   150.764E-03,  -150.511E-03,   8.72472E-03,   2.11766E-03
C:/temp/dataset/6/10_18.odb,Step-1,Increment      1: Step Time =    1.000,"PART-1-1",           418,      -1.09514,      -22.7401,            0.,NA,NA,"",   145.837E-03,  -145.676E-03,   6.85829E-03,   16.8998E-03
C:/temp/dataset/6/10_18.odb,Step-1,Increment      1: Step Time =    1.000,"PART-1-1",           419,   141.566E-03,      -21.4393,            0.,NA,NA,"",   158.444E-03,  -158.329E-03,  -6.02531E-03,   9.14873E-03
C:/temp/dataset/6/10_18.odb,Step-1,Increment      1: Step Time =    1.000,"PART-1-1",           420,      -7.69236,      -25.1479,            0.,NA,NA,"",   72.5654E-03,  -72.5437E-03,   1.77429E-03,   6.92115E-03
C:/temp/dataset/6/10_18.odb,Step-1,Increment      1: Step Time =    1.000,"PART-1-1",           421,      -9.18951,      -25.9970,            0.,NA,NA,"",   54.7225E-03,  -52.6461E-03,  -14.9311E-03,   6.63298E-03
C:/temp/dataset/6/10_18.odb,Step-1,Increment      1: Step Time =    1.000,"PART-1-1",           422,      -8.56598,      -27.1897,            0.,NA,NA,"",   33.1485E-03,  -32.5274E-03,  -6.38676E-03,   7.78770E-03
C:/temp/dataset/6/10_18.odb,Step-1,Increment      1: Step Time =    1.000,"PART-1-1",           423,      -7.06883,      -26.3407,            0.,NA,NA,"",   52.3766E-03,  -52.2099E-03,   4.17486E-03,   9.28668E-03
C:/temp/dataset/6/10_18.odb,Step-1,Increment      1: Step Time =    1.000,"PART-1-1",           424,      -9.82073,      -13.8964,            0.,NA,NA,"",   604.322E-03,  -595.090E-03,  -105.225E-03,   14.3276E-03
C:/temp/dataset/6/10_18.odb,Step-1,Increment      1: Step Time =    1.000,"PART-1-1",           425,      -8.65586,      -15.1239,            0.,NA,NA,"",   511.517E-03,  -509.772E-03,  -42.2157E-03,   12.6583E-03
C:/temp/dataset/6/10_18.odb,Step-1,Increment      1: Step Time =    1.000,"PART-1-1",           426,      -8.53523,      -12.6467,            0.,NA,NA,"",   685.059E-03,  -683.545E-03,  -45.5156E-03,   11.8487E-03
C:/temp/dataset/6/10_18.odb,Step-1,Increment      1: Step Time =    1.000,"PART-1-1",           427,      -6.09243,      -10.1071,            0.,NA,NA,"",   870.432E-03,  -866.428E-03,   83.4013E-03,   6.94881E-03
C:/temp/dataset/6/10_18.odb,Step-1,Increment      1: Step Time =    1.000,"PART-1-1",           428,           -5.,      -8.71250,            0.,NA,NA,"",   975.514E-03,  -964.535E-03,   145.942E-03,   9.84292E-03
C:/temp/dataset/6/10_18.odb,Step-1,Increment      1: Step Time =    1.000,"PART-1-1",           429,      -6.07322,      -7.75598,            0.,NA,NA,"",       1.03952,      -1.03784,   58.9440E-03,   12.4824E-03
C:/temp/dataset/6/10_18.odb,Step-1,Increment      1: Step Time =    1.000,"PART-1-1",           430,      -12.7270,      -6.06323,            0.,NA,NA,"",       1.17000,      -1.13410,  -287.614E-03,   6.09473E-03
C:/temp/dataset/6/10_18.odb,Step-1,Increment      1: Step Time =    1.000,"PART-1-1",           431,      -13.8025,      -4.90646,            0.,NA,NA,"",       1.24251,      -1.19527,  -339.351E-03,   7.84568E-03
C:/temp/dataset/6/10_18.odb,Step-1,Increment      1: Step Time =    1.000,"PART-1-1",           432,          -15.,         -6.25,            0.,NA,NA,"",       1.18655,      -1.11256,  -412.443E-03,   9.01188E-03
C:/temp/dataset/6/10_18.odb,Step-1,Increment      1: Step Time =    1.000,"PART-1-1",           433,      -13.9244,      -7.40677,            0.,NA,NA,"",       1.10514,      -1.04662,  -354.862E-03,   5.85934E-03
C:/temp/dataset/6/10_18.odb,Step-1,Increment      1: Step Time =    1.000,"PART-1-1",           434,       1.60591,      -1.50045,            0.,NA,NA,"",       1.41682,      -1.41464,   78.6192E-03,   11.9604E-03
C:/temp/dataset/6/10_18.odb,Step-1,Increment      1: Step Time =    1.000,"PART-1-1",           435,  -853.298E-03,      -1.92043,            0.,NA,NA,"",       1.39340,      -1.39140,   74.7193E-03,   12.7450E-03
C:/temp/dataset/6/10_18.odb,Step-1,Increment      1: Step Time =    1.000,"PART-1-1",           436,         13.75,          -30.,            0.,NA,NA,"",            0.,  -1.74483E-39,   54.0434E-39,   36.0483E-03
C:/temp/dataset/6/10_18.odb,Step-1,Increment      1: Step Time =    1.000,"PART-1-1",           437,           15.,      -28.9063,            0.,NA,NA,"",   60.8401E-03,  -41.7169E-03,   44.2857E-03,   45.2188E-03
C:/temp/dataset/6/10_18.odb,Step-1,Increment      1: Step Time =    1.000,"PART-1-1",           438,       13.8103,      -27.8746,            0.,NA,NA,"",   77.1735E-03,  -48.1396E-03,   60.3185E-03,   34.1933E-03
C:/temp/dataset/6/10_18.odb,Step-1,Increment      1: Step Time =    1.000,"PART-1-1",           439,       12.5603,      -28.9683,            0.,NA,NA,"",   22.6482E-03,  -11.9385E-03,   19.2462E-03,   23.5025E-03
C:/temp/dataset/6/10_18.odb,Step-1,Increment      1: Step Time =    1.000,"PART-1-1",           440,       12.6598,      -26.8678,            0.,NA,NA,"",   90.4132E-03,  -60.1479E-03,   67.5039E-03,   26.4630E-03
C:/temp/dataset/6/10_18.odb,Step-1,Increment      1: Step Time =    1.000,"PART-1-1",           441,       11.5501,      -25.8632,            0.,NA,NA,"",   100.564E-03,  -77.0267E-03,   64.6531E-03,   19.6581E-03
C:/temp/dataset/6/10_18.odb,Step-1,Increment      1: Step Time =    1.000,"PART-1-1",           442,       10.3093,      -26.9762,            0.,NA,NA,"",   49.6844E-03,  -41.3985E-03,   27.4718E-03,   12.6576E-03
C:/temp/dataset/6/10_18.odb,Step-1,Increment      1: Step Time =    1.000,"PART-1-1",           443,       11.4189,      -27.9808,            0.,NA,NA,"",   37.5499E-03,  -25.2916E-03,   27.7549E-03,   19.2886E-03
C:/temp/dataset/6/10_18.odb,Step-1,Increment      1: Step Time =    1.000,"PART-1-1",           444,       10.1086,      -29.0125,            0.,NA,NA,"",   10.1665E-03,  -6.43967E-03,   7.86697E-03,   10.2798E-03
C:/temp/dataset/6/10_18.odb,Step-1,Increment      1: Step Time =    1.000,"PART-1-1",           445,       9.01957,      -28.0513,            0.,NA,NA,"",   20.6020E-03,  -19.2157E-03,   7.42955E-03,   8.25204E-03
C:/temp/dataset/6/10_18.odb,Step-1,Increment      1: Step Time =    1.000,"PART-1-1",           446,          8.75,          -30.,            0.,NA,NA,"",            0.,  -1.96577E-39,   9.21710E-39,   5.61005E-03
C:/temp/dataset/6/10_18.odb,Step-1,Increment      1: Step Time =    1.000,"PART-1-1",           447,       4.20973,      -27.9354,            0.,NA,NA,"",   39.3183E-03,  -37.6787E-03,  -11.2356E-03,   14.7899E-03
C:/temp/dataset/6/10_18.odb,Step-1,Increment      1: Step Time =    1.000,"PART-1-1",           448,       2.74203,      -28.9082,            0.,NA,NA,"",   23.2387E-03,  -22.7740E-03,  -4.62410E-03,   15.3181E-03
C:/temp/dataset/6/10_18.odb,Step-1,Increment      1: Step Time =    1.000,"PART-1-1",           449,          3.75,          -30.,            0.,NA,NA,"",            0.,  -11.3578E-39,  -8.39767E-39,   12.2130E-03
C:/temp/dataset/6/10_18.odb,Step-1,Increment      1: Step Time =    1.000,"PART-1-1",           450,       1.16266,      -25.9573,            0.,NA,NA,"",   91.8305E-03,  -90.7082E-03,  -14.3130E-03,   19.4448E-03
C:/temp/dataset/6/10_18.odb,Step-1,Increment      1: Step Time =    1.000,"PART-1-1",           451,       1.65415,      -27.4536,            0.,NA,NA,"",   57.6763E-03,  -56.7400E-03,  -10.3505E-03,   16.6351E-03
C:/temp/dataset/6/10_18.odb,Step-1,Increment      1: Step Time =    1.000,"PART-1-1",           452,       3.39879,      -26.8461,            0.,NA,NA,"",   67.1150E-03,  -64.3993E-03,  -18.8983E-03,   17.9408E-03
C:/temp/dataset/6/10_18.odb,Step-1,Increment      1: Step Time =    1.000,"PART-1-1",           453,       2.90730,      -25.3498,            0.,NA,NA,"",   104.791E-03,  -100.786E-03,  -28.6925E-03,   20.0049E-03
C:/temp/dataset/6/10_18.odb,Step-1,Increment      1: Step Time =    1.000,"PART-1-1",           454,      -3.67645,      -27.5530,            0.,NA,NA,"",   47.1775E-03,  -46.8431E-03,   5.60655E-03,   14.1382E-03
C:/temp/dataset/6/10_18.odb,Step-1,Increment      1: Step Time =    1.000,"PART-1-1",           455,      -2.54816,      -26.3074,            0.,NA,NA,"",   77.0480E-03,  -76.6514E-03,   7.80742E-03,   16.7410E-03
C:/temp/dataset/6/10_18.odb,Step-1,Increment      1: Step Time =    1.000,"PART-1-1",           456,      -3.72120,      -25.1278,            0.,NA,NA,"",   95.8246E-03,  -94.1525E-03,   17.8228E-03,   16.8700E-03
C:/temp/dataset/6/10_18.odb,Step-1,Increment      1: Step Time =    1.000,"PART-1-1",           457,      -4.84948,      -26.3734,            0.,NA,NA,"",   64.5582E-03,  -63.4609E-03,   11.8523E-03,   14.0288E-03
C:/temp/dataset/6/10_18.odb,Step-1,Increment      1: Step Time =    1.000,"PART-1-1",           458,      -4.94498,      -28.7931,            0.,NA,NA,"",   19.5055E-03,  -19.4351E-03,   1.65505E-03,   11.1428E-03
C:/temp/dataset/6/10_18.odb,Step-1,Increment      1: Step Time =    1.000,"PART-1-1",           459,         -3.75,          -30.,            0.,NA,NA,"",            0.,  -11.6867E-39,   543.055E-42,   11.9514E-03
C:/temp/dataset/6/10_18.odb,Step-1,Increment      1: Step Time =    1.000,"PART-1-1",           460,      -6.07748,      -27.5364,            0.,NA,NA,"",   36.1581E-03,  -35.9021E-03,   4.29527E-03,   10.8755E-03
C:/temp/dataset/6/10_18.odb,Step-1,Increment      1: Step Time =    1.000,"PART-1-1",           461,      -7.38250,      -28.7433,            0.,NA,NA,"",   13.4072E-03,  -13.3676E-03,  -1.02959E-03,   7.17455E-03
C:/temp/dataset/6/10_18.odb,Step-1,Increment      1: Step Time =    1.000,"PART-1-1",           462,         -6.25,          -30.,            0.,NA,NA,"",            0.,  -7.16649E-39,  -1.63310E-39,   7.68238E-03
C:/temp/dataset/6/10_18.odb,Step-1,Increment      1: Step Time =    1.000,"PART-1-1",           463,      -8.77755,      -24.1806,            0.,NA,NA,"",   92.1443E-03,  -91.1134E-03,  -13.7448E-03,   4.15789E-03
C:/temp/dataset/6/10_18.odb,Step-1,Increment      1: Step Time =    1.000,"PART-1-1",           464,      -9.92276,      -23.8066,            0.,NA,NA,"",   108.176E-03,  -101.300E-03,  -37.9499E-03,   7.51527E-03
C:/temp/dataset/6/10_18.odb,Step-1,Increment      1: Step Time =    1.000,"PART-1-1",           465,      -10.3347,      -25.6230,            0.,NA,NA,"",   68.9892E-03,  -60.8782E-03,  -32.4553E-03,   9.62679E-03
C:/temp/dataset/6/10_18.odb,Step-1,Increment      1: Step Time =    1.000,"PART-1-1",           466,       13.9544,      -21.3085,            0.,NA,NA,"",   388.832E-03,  -297.381E-03,   250.510E-03,   30.2401E-03
C:/temp/dataset/6/10_18.odb,Step-1,Increment      1: Step Time =    1.000,"PART-1-1",           467,       13.8855,      -23.5136,            0.,NA,NA,"",   266.246E-03,  -187.453E-03,   189.072E-03,   31.8472E-03
C:/temp/dataset/6/10_18.odb,Step-1,Increment      1: Step Time =    1.000,"PART-1-1",           468,           15.,      -22.3438,            0.,NA,NA,"",   375.741E-03,  -259.184E-03,   272.038E-03,   37.3218E-03
C:/temp/dataset/6/10_18.odb,Step-1,Increment      1: Step Time =    1.000,"PART-1-1",           469,       12.7349,      -24.6944,            0.,NA,NA,"",   173.789E-03,  -126.506E-03,   119.160E-03,   26.0051E-03
C:/temp/dataset/6/10_18.odb,Step-1,Increment      1: Step Time =    1.000,"PART-1-1",           470,       13.8494,      -25.7120,            0.,NA,NA,"",   166.447E-03,  -108.541E-03,   126.188E-03,   32.4578E-03
C:/temp/dataset/6/10_18.odb,Step-1,Increment      1: Step Time =    1.000,"PART-1-1",           471,           15.,      -24.5313,            0.,NA,NA,"",   258.757E-03,  -165.721E-03,   198.725E-03,   38.1175E-03
C:/temp/dataset/6/10_18.odb,Step-1,Increment      1: Step Time =    1.000,"PART-1-1",           472,         11.25,          -30.,            0.,NA,NA,"",            0.,  -1.91523E-39,   29.4009E-39,   14.9173E-03
C:/temp/dataset/6/10_18.odb,Step-1,Increment      1: Step Time =    1.000,"PART-1-1",           473,       13.9950,      -12.5232,            0.,NA,NA,"",       1.08382,      -1.02769,   344.258E-03,   16.8753E-03
C:/temp/dataset/6/10_18.odb,Step-1,Increment      1: Step Time =    1.000,"PART-1-1",           474,       12.9942,      -13.6844,            0.,NA,NA,"",   947.914E-03,  -906.254E-03,   277.929E-03,   20.7988E-03
C:/temp/dataset/6/10_18.odb,Step-1,Increment      1: Step Time =    1.000,"PART-1-1",           475,           15.,      -13.5938,            0.,NA,NA,"",       1.02337,  -923.599E-03,   440.740E-03,   3.32520E-03
C:/temp/dataset/6/10_18.odb,Step-1,Increment      1: Step Time =    1.000,"PART-1-1",           476,       9.85236,      -17.2546,            0.,NA,NA,"",   560.430E-03,  -552.161E-03,   95.9141E-03,   26.7003E-03
C:/temp/dataset/6/10_18.odb,Step-1,Increment      1: Step Time =    1.000,"PART-1-1",           477,       8.68427,      -17.7513,            0.,NA,NA,"",   500.666E-03,  -499.255E-03,   37.5719E-03,   27.9989E-03
C:/temp/dataset/6/10_18.odb,Step-1,Increment      1: Step Time =    1.000,"PART-1-1",           478,       8.96140,      -18.9835,            0.,NA,NA,"",   399.075E-03,  -396.051E-03,   49.0389E-03,   25.9864E-03
C:/temp/dataset/6/10_18.odb,Step-1,Increment      1: Step Time =    1.000,"PART-1-1",           479,       10.1295,      -18.4868,            0.,NA,NA,"",   459.693E-03,  -447.667E-03,   104.457E-03,   24.7126E-03
C:/temp/dataset/6/10_18.odb,Step-1,Increment      1: Step Time =    1.000,"PART-1-1",           480,       11.2436,      -18.3856,            0.,NA,NA,"",   492.787E-03,  -466.416E-03,   159.045E-03,   23.3397E-03
C:/temp/dataset/6/10_18.odb,Step-1,Increment      1: Step Time =    1.000,"PART-1-1",           481,       12.3956,      -19.2305,            0.,NA,NA,"",   462.921E-03,  -412.941E-03,   209.226E-03,   22.4029E-03
C:/temp/dataset/6/10_18.odb,Step-1,Increment      1: Step Time =    1.000,"PART-1-1",           482,       13.1120,      -18.1414,            0.,NA,NA,"",   569.558E-03,  -504.488E-03,   264.365E-03,   21.1957E-03
C:/temp/dataset/6/10_18.odb,Step-1,Increment      1: Step Time =    1.000,"PART-1-1",           483,       11.9600,      -17.2965,            0.,NA,NA,"",   600.449E-03,  -564.183E-03,   205.514E-03,   22.1347E-03
C:/temp/dataset/6/10_18.odb,Step-1,Increment      1: Step Time =    1.000,"PART-1-1",           484,       14.0024,      -3.77677,            0.,NA,NA,"",       1.50801,      -1.48409,   267.501E-03,   16.8141E-03
C:/temp/dataset/6/10_18.odb,Step-1,Increment      1: Step Time =    1.000,"PART-1-1",           485,       13.0359,      -4.87313,            0.,NA,NA,"",       1.49051,      -1.46958,   248.949E-03,   15.5437E-03
C:/temp/dataset/6/10_18.odb,Step-1,Increment      1: Step Time =    1.000,"PART-1-1",           486,       14.0335,      -5.94012,            0.,NA,NA,"",       1.48261,      -1.45492,   285.203E-03,   19.5732E-03
C:/temp/dataset/6/10_18.odb,Step-1,Increment      1: Step Time =    1.000,"PART-1-1",           487,           15.,      -4.84375,            0.,NA,NA,"",       1.51255,      -1.48398,   292.588E-03,   23.6531E-03
C:/temp/dataset/6/10_18.odb,Step-1,Increment      1: Step Time =    1.000,"PART-1-1",           488,       13.0510,      -7.01836,            0.,NA,NA,"",       1.43309,      -1.40972,   257.780E-03,   14.3576E-03
C:/temp/dataset/6/10_18.odb,Step-1,Increment      1: Step Time =    1.000,"PART-1-1",           489,       14.0175,      -8.10950,            0.,NA,NA,"",       1.40192,      -1.36732,   309.560E-03,   19.3430E-03
C:/temp/dataset/6/10_18.odb,Step-1,Increment      1: Step Time =    1.000,"PART-1-1",           490,           15.,      -7.03125,            0.,NA,NA,"",       1.46145,      -1.42203,   337.139E-03,   26.2127E-03
C:/temp/dataset/6/10_18.odb,Step-1,Increment      1: Step Time =    1.000,"PART-1-1",           491,         13.75,            5.,            0.,NA,NA,"",       1.57025,      -1.55338,   229.535E-03,   198.184E-06
C:/temp/dataset/6/10_18.odb,Step-1,Increment      1: Step Time =    1.000,"PART-1-1",           492,       12.4982,       3.90020,            0.,NA,NA,"",       1.55302,      -1.53846,   212.172E-03,   1.71797E-03
C:/temp/dataset/6/10_18.odb,Step-1,Increment      1: Step Time =    1.000,"PART-1-1",           493,       13.7482,       2.80645,            0.,NA,NA,"",       1.54347,      -1.52623,   230.075E-03,   1.52669E-03
C:/temp/dataset/6/10_18.odb,Step-1,Increment      1: Step Time =    1.000,"PART-1-1",           494,           15.,       3.90625,            0.,NA,NA,"",       1.55893,      -1.53946,   245.637E-03,   224.427E-06
C:/temp/dataset/6/10_18.odb,Step-1,Increment      1: Step Time =    1.000,"PART-1-1",           495,         11.25,            5.,            0.,NA,NA,"",       1.56387,      -1.55182,   193.730E-03,   2.06855E-03
C:/temp/dataset/6/10_18.odb,Step-1,Increment      1: Step Time =    1.000,"PART-1-1",           496,       11.2740,       2.82937,            0.,NA,NA,"",       1.53651,      -1.52440,   192.485E-03,   4.43598E-03
C:/temp/dataset/6/10_18.odb,Step-1,Increment      1: Step Time =    1.000,"PART-1-1",           497,       11.1422,   446.578E-03,            0.,NA,NA,"",       1.51533,      -1.50343,   189.515E-03,   8.01767E-03
C:/temp/dataset/6/10_18.odb,Step-1,Increment      1: Step Time =    1.000,"PART-1-1",           498,       10.2035,  -836.101E-03,            0.,NA,NA,"",       1.50140,      -1.49196,   168.038E-03,   11.9178E-03
C:/temp/dataset/6/10_18.odb,Step-1,Increment      1: Step Time =    1.000,"PART-1-1",           499,       11.7017,      -1.82731,            0.,NA,NA,"",       1.50383,      -1.48996,   203.837E-03,   12.4686E-03
C:/temp/dataset/6/10_18.odb,Step-1,Increment      1: Step Time =    1.000,"PART-1-1",           500,       12.5035,       1.67834,            0.,NA,NA,"",       1.52962,      -1.51471,   213.022E-03,   5.08192E-03
C:/temp/dataset/6/10_18.odb,Step-1,Increment      1: Step Time =    1.000,"PART-1-1",           501,       9.91277,       1.59761,            0.,NA,NA,"",       1.51850,      -1.50925,   167.306E-03,   7.59863E-03
C:/temp/dataset/6/10_18.odb,Step-1,Increment      1: Step Time =    1.000,"PART-1-1",           502,       5.19643,       3.92738,            0.,NA,NA,"",       1.51431,      -1.51029,   110.334E-03,   6.15917E-03
C:/temp/dataset/6/10_18.odb,Step-1,Increment      1: Step Time =    1.000,"PART-1-1",           503,          3.75,            5.,            0.,NA,NA,"",       1.51618,      -1.51269,   102.786E-03,   4.44308E-03
C:/temp/dataset/6/10_18.odb,Step-1,Increment      1: Step Time =    1.000,"PART-1-1",           504,       2.66615,       3.61346,            0.,NA,NA,"",       1.50018,      -1.49718,   94.8192E-03,   5.20440E-03
C:/temp/dataset/6/10_18.odb,Step-1,Increment      1: Step Time =    1.000,"PART-1-1",           505,      -1.00804,       2.95894,            0.,NA,NA,"",       1.48924,      -1.48725,   76.9442E-03,   7.15361E-03
C:/temp/dataset/6/10_18.odb,Step-1,Increment      1: Step Time =    1.000,"PART-1-1",           506,   87.8012E-03,       3.95476,            0.,NA,NA,"",       1.50237,      -1.50009,   82.8796E-03,   4.59051E-03
C:/temp/dataset/6/10_18.odb,Step-1,Increment      1: Step Time =    1.000,"PART-1-1",           507,         -1.25,            5.,            0.,NA,NA,"",       1.51865,      -1.51704,   70.0570E-03,   7.40969E-03
C:/temp/dataset/6/10_18.odb,Step-1,Increment      1: Step Time =    1.000,"PART-1-1",           508,      -2.34584,       4.00418,            0.,NA,NA,"",       1.51238,      -1.51111,   61.9499E-03,   7.60842E-03
C:/temp/dataset/6/10_18.odb,Step-1,Increment      1: Step Time =    1.000,"PART-1-1",           509,      -3.27281,       2.96378,            0.,NA,NA,"",       1.49514,      -1.49424,   51.8884E-03,   5.32139E-03
C:/temp/dataset/6/10_18.odb,Step-1,Increment      1: Step Time =    1.000,"PART-1-1",           510,         -3.75,            5.,            0.,NA,NA,"",       1.54243,      -1.54201,   35.9507E-03,   14.1104E-03
C:/temp/dataset/6/10_18.odb,Step-1,Increment      1: Step Time =    1.000,"PART-1-1",           511,      -4.67697,       3.95960,            0.,NA,NA,"",       1.52542,      -1.52525,   22.7777E-03,   8.34440E-03
C:/temp/dataset/6/10_18.odb,Step-1,Increment      1: Step Time =    1.000,"PART-1-1",           512,      -7.93004,       8.58536,            0.,NA,NA,"",       1.70956,      -1.70691,  -95.1713E-03,   509.784E-06
C:/temp/dataset/6/10_18.odb,Step-1,Increment      1: Step Time =    1.000,"PART-1-1",           513,      -8.65034,       7.25415,            0.,NA,NA,"",       1.66291,      -1.65861,  -119.483E-03,   1.83124E-03
C:/temp/dataset/6/10_18.odb,Step-1,Increment      1: Step Time =    1.000,"PART-1-1",           514,      -7.51010,       6.50150,            0.,NA,NA,"",       1.63174,      -1.62988,  -77.8051E-03,   2.48802E-03
C:/temp/dataset/6/10_18.odb,Step-1,Increment      1: Step Time =    1.000,"PART-1-1",           515,      -6.78981,       7.83270,            0.,NA,NA,"",       1.68028,      -1.67943,  -53.5822E-03,   1.10180E-03
C:/temp/dataset/6/10_18.odb,Step-1,Increment      1: Step Time =    1.000,"PART-1-1",           516,      -7.08495,       12.0475,            0.,NA,NA,"",       1.83334,      -1.83211,  -66.9810E-03,   104.584E-06
C:/temp/dataset/6/10_18.odb,Step-1,Increment      1: Step Time =    1.000,"PART-1-1",           517,      -6.02998,       11.1050,            0.,NA,NA,"",       1.79921,      -1.79898,  -28.3756E-03,   140.750E-06
C:/temp/dataset/6/10_18.odb,Step-1,Increment      1: Step Time =    1.000,"PART-1-1",           518,           -5.,       12.2917,            0.,NA,NA,"",       1.84214,      -1.84212,   7.70479E-03,   190.531E-06
C:/temp/dataset/6/10_18.odb,Step-1,Increment      1: Step Time =    1.000,"PART-1-1",           519,      -6.05497,       13.2342,            0.,NA,NA,"",       1.87545,      -1.87520,  -30.8059E-03,   88.3256E-06
C:/temp/dataset/6/10_18.odb,Step-1,Increment      1: Step Time =    1.000,"PART-1-1",           520,      -9.96524,       21.0498,            0.,NA,NA,"",       2.15892,      -2.15177,  -175.598E-03,   4.91551E-06
C:/temp/dataset/6/10_18.odb,Step-1,Increment      1: Step Time =    1.000,"PART-1-1",           521,      -8.51702,       20.1362,            0.,NA,NA,"",       2.12365,      -2.12007,  -123.286E-03,   5.94448E-06
C:/temp/dataset/6/10_18.odb,Step-1,Increment      1: Step Time =    1.000,"PART-1-1",           522,      -8.09442,       21.6565,            0.,NA,NA,"",       2.17737,      -2.17464,  -109.157E-03,   2.91306E-06
C:/temp/dataset/6/10_18.odb,Step-1,Increment      1: Step Time =    1.000,"PART-1-1",           523,      -9.54264,       22.5701,            0.,NA,NA,"",       2.21224,      -2.20634,  -161.471E-03,   1.34371E-06
C:/temp/dataset/6/10_18.odb,Step-1,Increment      1: Step Time =    1.000,"PART-1-1",           524,      -7.38593,       19.0122,            0.,NA,NA,"",       2.08227,      -2.08065,  -82.1648E-03,   12.9472E-06
C:/temp/dataset/6/10_18.odb,Step-1,Increment      1: Step Time =    1.000,"PART-1-1",           525,      -6.14460,       17.5723,            0.,NA,NA,"",       2.03037,      -2.03003,  -36.8946E-03,   13.8058E-06
C:/temp/dataset/6/10_18.odb,Step-1,Increment      1: Step Time =    1.000,"PART-1-1",           526,           -5.,       18.5417,            0.,NA,NA,"",       2.06537,      -2.06537,   3.36284E-03,   8.26780E-06
C:/temp/dataset/6/10_18.odb,Step-1,Increment      1: Step Time =    1.000,"PART-1-1",           527,      -9.12859,       24.1056,            0.,NA,NA,"",       2.26627,      -2.26146,  -147.660E-03,   565.899E-09
C:/temp/dataset/6/10_18.odb,Step-1,Increment      1: Step Time =    1.000,"PART-1-1",           528,      -7.82088,       23.2603,            0.,NA,NA,"",       2.23435,      -2.23210,  -100.409E-03,   588.022E-09
C:/temp/dataset/6/10_18.odb,Step-1,Increment      1: Step Time =    1.000,"PART-1-1",           529,      -7.11221,       24.6459,            0.,NA,NA,"",       2.28331,      -2.28204,  -75.9799E-03,   173.392E-09
C:/temp/dataset/6/10_18.odb,Step-1,Increment      1: Step Time =    1.000,"PART-1-1",           530,      -8.41993,       25.4912,            0.,NA,NA,"",       2.31469,      -2.31140,  -123.231E-03,   247.884E-09
C:/temp/dataset/6/10_18.odb,Step-1,Increment      1: Step Time =    1.000,"PART-1-1",           531,           -5.,       28.9583,            0.,NA,NA,"",       2.43744,      -2.43743,  -3.28337E-03,   53.4869E-09
C:/temp/dataset/6/10_18.odb,Step-1,Increment      1: Step Time =    1.000,"PART-1-1",           532,         -6.25,           30.,            0.,NA,NA,"",       2.47432,      -2.47384,  -48.5985E-03,   55.7798E-09
C:/temp/dataset/6/10_18.odb,Step-1,Increment      1: Step Time =    1.000,"PART-1-1",           533,      -6.22481,       27.8751,            0.,NA,NA,"",       2.39841,      -2.39796,  -46.3428E-03,   184.780E-09
C:/temp/dataset/6/10_18.odb,Step-1,Increment      1: Step Time =    1.000,"PART-1-1",           534,      -11.1386,       27.5393,            0.,NA,NA,"",       2.39311,      -2.38283,  -221.650E-03,   217.316E-09
C:/temp/dataset/6/10_18.odb,Step-1,Increment      1: Step Time =    1.000,"PART-1-1",           535,        -11.25,           30.,            0.,NA,NA,"",       2.48108,      -2.47065,  -227.201E-03,   246.699E-09
C:/temp/dataset/6/10_18.odb,Step-1,Increment      1: Step Time =    1.000,"PART-1-1",           536,      -13.1147,       13.7606,            0.,NA,NA,"",       1.91041,      -1.88927,  -283.418E-03,   74.0283E-06
C:/temp/dataset/6/10_18.odb,Step-1,Increment      1: Step Time =    1.000,"PART-1-1",           537,      -14.0658,       14.9906,            0.,NA,NA,"",       1.95864,      -1.93263,  -318.143E-03,   44.3490E-06
C:/temp/dataset/6/10_18.odb,Step-1,Increment      1: Step Time =    1.000,"PART-1-1",           538,          -15.,         13.75,            0.,NA,NA,"",       1.92003,      -1.88774,  -350.624E-03,   99.4690E-06
C:/temp/dataset/6/10_18.odb,Step-1,Increment      1: Step Time =    1.000,"PART-1-1",           539,      -9.42834,       18.6970,            0.,NA,NA,"",       2.07387,      -2.06807,  -154.932E-03,   16.7184E-06
C:/temp/dataset/6/10_18.odb,Step-1,Increment      1: Step Time =    1.000,"PART-1-1",           540,      -8.29725,       17.5730,            0.,NA,NA,"",       2.03186,      -2.02867,  -113.816E-03,   21.2940E-06
C:/temp/dataset/6/10_18.odb,Step-1,Increment      1: Step Time =    1.000,"PART-1-1",           541,      -12.7588,       6.21303,            0.,NA,NA,"",       1.64558,      -1.62395,  -265.979E-03,   1.51546E-03
C:/temp/dataset/6/10_18.odb,Step-1,Increment      1: Step Time =    1.000,"PART-1-1",           542,          -15.,          6.25,            0.,NA,NA,"",       1.65994,      -1.62375,  -344.737E-03,   452.616E-06
C:/temp/dataset/6/10_18.odb,Step-1,Increment      1: Step Time =    1.000,"PART-1-1",           543,      -9.01063,       9.47069,            0.,NA,NA,"",       1.74369,      -1.73849,  -134.521E-03,   338.224E-06
C:/temp/dataset/6/10_18.odb,Step-1,Increment      1: Step Time =    1.000,"PART-1-1",           544,      -10.0811,       10.4578,            0.,NA,NA,"",       1.78176,      -1.77330,  -173.402E-03,   117.092E-06
C:/temp/dataset/6/10_18.odb,Step-1,Increment      1: Step Time =    1.000,"PART-1-1",           545,      -10.9384,       9.05000,            0.,NA,NA,"",       1.73472,      -1.72280,  -203.011E-03,   421.251E-06
C:/temp/dataset/6/10_18.odb,Step-1,Increment      1: Step Time =    1.000,"PART-1-1",           546,      -9.86794,       8.06293,            0.,NA,NA,"",       1.69591,      -1.68796,  -163.929E-03,   705.292E-06
C:/temp/dataset/6/10_18.odb,Step-1,Increment      1: Step Time =    1.000,"PART-1-1",           547,      -7.23366,       1.29985,            0.,NA,NA,"",       1.46123,      -1.46046,  -47.5972E-03,   5.86158E-03
C:/temp/dataset/6/10_18.odb,Step-1,Increment      1: Step Time =    1.000,"PART-1-1",           548,      -8.34685,   784.410E-03,            0.,NA,NA,"",       1.44936,      -1.44675,  -87.0753E-03,   6.54115E-03
C:/temp/dataset/6/10_18.odb,Step-1,Increment      1: Step Time =    1.000,"PART-1-1",           549,      -7.43977,  -685.632E-03,            0.,NA,NA,"",       1.40274,      -1.40194,  -47.2787E-03,   6.23013E-03
C:/temp/dataset/6/10_18.odb,Step-1,Increment      1: Step Time =    1.000,"PART-1-1",           550,      -12.4903,      -8.57964,            0.,NA,NA,"",       1.01089,  -972.992E-03,  -274.206E-03,   9.27884E-03
C:/temp/dataset/6/10_18.odb,Step-1,Increment      1: Step Time =    1.000,"PART-1-1",           551,          -15.,         -8.75,            0.,NA,NA,"",       1.04442,  -954.950E-03,  -422.944E-03,   3.33738E-03
C:/temp/dataset/6/10_18.odb,Step-1,Increment      1: Step Time =    1.000,"PART-1-1",           552,      -13.5658,      -9.92286,            0.,NA,NA,"",   939.158E-03,  -878.778E-03,  -331.310E-03,   6.32047E-03
C:/temp/dataset/6/10_18.odb,Step-1,Increment      1: Step Time =    1.000,"PART-1-1",           553,      -11.9783,      -7.15971,            0.,NA,NA,"",       1.09730,      -1.06859,  -249.338E-03,   8.73716E-03
C:/temp/dataset/6/10_18.odb,Step-1,Increment      1: Step Time =    1.000,"PART-1-1",           554,      -11.8960,      -5.22799,            0.,NA,NA,"",       1.21091,      -1.18597,  -244.487E-03,   6.03226E-03
C:/temp/dataset/6/10_18.odb,Step-1,Increment      1: Step Time =    1.000,"PART-1-1",           555,      -12.4565,      -16.3452,            0.,NA,NA,"",   488.149E-03,  -439.878E-03,  -211.654E-03,   14.9842E-03
C:/temp/dataset/6/10_18.odb,Step-1,Increment      1: Step Time =    1.000,"PART-1-1",           556,          -15.,        -16.25,            0.,NA,NA,"",   578.614E-03,  -460.607E-03,  -350.193E-03,   19.6605E-03
C:/temp/dataset/6/10_18.odb,Step-1,Increment      1: Step Time =    1.000,"PART-1-1",           557,      -13.7435,      -17.5611,            0.,NA,NA,"",   455.678E-03,  -376.552E-03,  -256.613E-03,   18.7149E-03
C:/temp/dataset/6/10_18.odb,Step-1,Increment      1: Step Time =    1.000,"PART-1-1",           558,      -9.99221,      -8.41662,            0.,NA,NA,"",   999.348E-03,  -988.704E-03,  -145.468E-03,   13.2099E-03
C:/temp/dataset/6/10_18.odb,Step-1,Increment      1: Step Time =    1.000,"PART-1-1",           559,      -11.4633,      -9.12095,            0.,NA,NA,"",   962.134E-03,  -937.124E-03,  -217.944E-03,   11.7711E-03
C:/temp/dataset/6/10_18.odb,Step-1,Increment      1: Step Time =    1.000,"PART-1-1",           560,      -10.8070,      -10.1141,            0.,NA,NA,"",   885.268E-03,  -867.013E-03,  -178.849E-03,   12.8841E-03
C:/temp/dataset/6/10_18.odb,Step-1,Increment      1: Step Time =    1.000,"PART-1-1",           561,      -13.9189,      -24.9166,            0.,NA,NA,"",   151.000E-03,  -99.8982E-03,  -113.231E-03,   23.6361E-03
C:/temp/dataset/6/10_18.odb,Step-1,Increment      1: Step Time =    1.000,"PART-1-1",           562,      -12.9076,      -23.6273,            0.,NA,NA,"",   166.614E-03,  -122.543E-03,  -112.888E-03,   19.5707E-03
C:/temp/dataset/6/10_18.odb,Step-1,Increment      1: Step Time =    1.000,"PART-1-1",           563,          -15.,        -23.75,            0.,NA,NA,"",   219.249E-03,  -140.879E-03,  -167.998E-03,   27.6416E-03
C:/temp/dataset/6/10_18.odb,Step-1,Increment      1: Step Time =    1.000,"PART-1-1",           564,          -15.,        -28.75,            0.,NA,NA,"",   52.5645E-03,  -36.0155E-03,  -38.2873E-03,   33.1025E-03
C:/temp/dataset/6/10_18.odb,Step-1,Increment      1: Step Time =    1.000,"PART-1-1",           565,        -13.75,          -30.,            0.,NA,NA,"",            0.,  -643.839E-42,  -40.3742E-39,   27.4167E-03
C:/temp/dataset/6/10_18.odb,Step-1,Increment      1: Step Time =    1.000,"PART-1-1",           566,      -13.7642,      -27.4123,            0.,NA,NA,"",   71.2204E-03,  -45.4282E-03,  -54.8509E-03,   24.8035E-03
C:/temp/dataset/6/10_18.odb,Step-1,Increment      1: Step Time =    1.000,"PART-1-1",           567,            5.,      -6.25625,            0.,NA,NA,"",       1.35931,      -1.35886,  -34.9091E-03,   42.4585E-03
C:/temp/dataset/6/10_18.odb,Step-1,Increment      1: Step Time =    1.000,"PART-1-1",           568,       7.03347,      -6.11658,            0.,NA,NA,"",       1.38909,      -1.38875,   30.6910E-03,   16.8518E-03
C:/temp/dataset/6/10_18.odb,Step-1,Increment      1: Step Time =    1.000,"PART-1-1",           569,       6.04361,      -4.83741,            0.,NA,NA,"",       1.41667,      -1.41642,   26.8671E-03,   26.2059E-03
C:/temp/dataset/6/10_18.odb,Step-1,Increment      1: Step Time =    1.000,"PART-1-1",           570,           15.,      -2.65625,            0.,NA,NA,"",       1.50236,      -1.47906,   263.543E-03,   10.9599E-03
C:/temp/dataset/6/10_18.odb,Step-1,Increment      1: Step Time =    1.000,"PART-1-1",           571,       12.8875,      -2.72454,            0.,NA,NA,"",       1.50523,      -1.48670,   235.404E-03,   15.0952E-03
C:/temp/dataset/6/10_18.odb,Step-1,Increment      1: Step Time =    1.000,"PART-1-1",           572,       10.0248,      -7.91896,            0.,NA,NA,"",       1.34271,      -1.33660,   127.948E-03,   12.2026E-03
C:/temp/dataset/6/10_18.odb,Step-1,Increment      1: Step Time =    1.000,"PART-1-1",           573,       8.98203,      -8.99604,            0.,NA,NA,"",       1.26601,      -1.26387,   73.7090E-03,   16.2135E-03
C:/temp/dataset/6/10_18.odb,Step-1,Increment      1: Step Time =    1.000,"PART-1-1",           574,       9.98204,      -10.2112,            0.,NA,NA,"",       1.19542,      -1.19009,   112.702E-03,   19.5035E-03
C:/temp/dataset/6/10_18.odb,Step-1,Increment      1: Step Time =    1.000,"PART-1-1",           575,            5.,      -11.2813,            0.,NA,NA,"",       1.07345,      -1.05781,  -182.577E-03,   24.2509E-03
C:/temp/dataset/6/10_18.odb,Step-1,Increment      1: Step Time =    1.000,"PART-1-1",           576,       6.96001,      -11.3098,            0.,NA,NA,"",       1.07872,      -1.07739,  -53.5643E-03,   19.4211E-03
C:/temp/dataset/6/10_18.odb,Step-1,Increment      1: Step Time =    1.000,"PART-1-1",           577,       12.1169,      -5.93459,            0.,NA,NA,"",       1.45492,      -1.43826,   219.536E-03,   12.8321E-03
C:/temp/dataset/6/10_18.odb,Step-1,Increment      1: Step Time =    1.000,"PART-1-1",           578,       11.1088,      -6.97100,            0.,NA,NA,"",       1.40311,      -1.39175,   178.144E-03,   10.5681E-03
C:/temp/dataset/6/10_18.odb,Step-1,Increment      1: Step Time =    1.000,"PART-1-1",           579,           15.,      -11.4063,            0.,NA,NA,"",       1.22371,      -1.14914,   420.637E-03,   18.1399E-03
C:/temp/dataset/6/10_18.odb,Step-1,Increment      1: Step Time =    1.000,"PART-1-1",           580,       13.9991,      -10.3053,            0.,NA,NA,"",       1.27137,      -1.22729,   331.846E-03,   17.8387E-03
C:/temp/dataset/6/10_18.odb,Step-1,Increment      1: Step Time =    1.000,"PART-1-1",           581,       12.9941,      -11.4223,            0.,NA,NA,"",       1.15481,      -1.12241,   271.612E-03,   21.0015E-03
C:/temp/dataset/6/10_18.odb,Step-1,Increment      1: Step Time =    1.000,"PART-1-1",           582,           15.,      -9.21875,            0.,NA,NA,"",       1.36438,      -1.31001,   381.351E-03,   24.1450E-03
C:/temp/dataset/6/10_18.odb,Step-1,Increment      1: Step Time =    1.000,"PART-1-1",           583,       9.25975,      -25.9916,            0.,NA,NA,"",   65.1552E-03,  -62.4561E-03,   18.5592E-03,   8.11475E-03
C:/temp/dataset/6/10_18.odb,Step-1,Increment      1: Step Time =    1.000,"PART-1-1",           584,       7.97004,      -27.0667,            0.,NA,NA,"",   38.7143E-03,  -38.7135E-03,   245.181E-06,   7.32801E-03
C:/temp/dataset/6/10_18.odb,Step-1,Increment      1: Step Time =    1.000,"PART-1-1",           585,       9.98268,      -20.3187,            0.,NA,NA,"",   320.378E-03,  -309.285E-03,   83.5742E-03,   21.0963E-03
C:/temp/dataset/6/10_18.odb,Step-1,Increment      1: Step Time =    1.000,"PART-1-1",           586,       8.47236,      -19.9740,            0.,NA,NA,"",   315.566E-03,  -314.703E-03,   23.3224E-03,   23.0465E-03
C:/temp/dataset/6/10_18.odb,Step-1,Increment      1: Step Time =    1.000,"PART-1-1",           587,       7.80775,      -21.2882,            0.,NA,NA,"",   225.501E-03,  -225.361E-03,  -7.94483E-03,   16.3098E-03
C:/temp/dataset/6/10_18.odb,Step-1,Increment      1: Step Time =    1.000,"PART-1-1",           588,       9.31806,      -21.6330,            0.,NA,NA,"",   228.210E-03,  -223.595E-03,   45.6615E-03,   14.4914E-03
C:/temp/dataset/6/10_18.odb,Step-1,Increment      1: Step Time =    1.000,"PART-1-1",           589,          3.75,          -20.,            0.,NA,NA,"",   207.610E-03,  -201.124E-03,  -51.4890E-03,   40.5087E-03
C:/temp/dataset/6/10_18.odb,Step-1,Increment      1: Step Time =    1.000,"PART-1-1",           590,       2.69482,      -20.9389,            0.,NA,NA,"",   188.716E-03,  -184.079E-03,  -41.5774E-03,   18.7661E-03
C:/temp/dataset/6/10_18.odb,Step-1,Increment      1: Step Time =    1.000,"PART-1-1",           591,       4.10336,      -21.5712,            0.,NA,NA,"",   207.232E-03,  -194.364E-03,  -71.8885E-03,   28.5207E-03
C:/temp/dataset/6/10_18.odb,Step-1,Increment      1: Step Time =    1.000,"PART-1-1",           592,       5.15854,      -20.6323,            0.,NA,NA,"",   248.652E-03,  -227.855E-03,  -99.5468E-03,   43.4135E-03
C:/temp/dataset/6/10_18.odb,Step-1,Increment      1: Step Time =    1.000,"PART-1-1",           593,          1.25,          -20.,            0.,NA,NA,"",   160.091E-03,  -159.604E-03,  -12.4892E-03,   10.3444E-03
C:/temp/dataset/6/10_18.odb,Step-1,Increment      1: Step Time =    1.000,"PART-1-1",           594,       1.58638,      -22.3782,            0.,NA,NA,"",   161.742E-03,  -159.573E-03,  -26.4021E-03,   20.4572E-03
C:/temp/dataset/6/10_18.odb,Step-1,Increment      1: Step Time =    1.000,"PART-1-1",           595,      -7.18878,      -21.5166,            0.,NA,NA,"",   160.841E-03,  -159.628E-03,   19.7177E-03,   6.85151E-03
C:/temp/dataset/6/10_18.odb,Step-1,Increment      1: Step Time =    1.000,"PART-1-1",           596,      -8.69544,      -20.4918,            0.,NA,NA,"",   203.820E-03,  -202.450E-03,  -23.5878E-03,   9.41152E-03
C:/temp/dataset/6/10_18.odb,Step-1,Increment      1: Step Time =    1.000,"PART-1-1",           597,      -9.53108,      -21.9939,            0.,NA,NA,"",   156.967E-03,  -151.711E-03,  -40.2798E-03,   7.29312E-03
C:/temp/dataset/6/10_18.odb,Step-1,Increment      1: Step Time =    1.000,"PART-1-1",           598,      -8.02442,      -23.0186,            0.,NA,NA,"",   119.357E-03,  -119.356E-03,  -509.652E-06,   3.11975E-03
C:/temp/dataset/6/10_18.odb,Step-1,Increment      1: Step Time =    1.000,"PART-1-1",           599,           -5.,      -18.7437,            0.,NA,NA,"",   308.215E-03,  -287.885E-03,   110.085E-03,   32.1000E-03
C:/temp/dataset/6/10_18.odb,Step-1,Increment      1: Step Time =    1.000,"PART-1-1",           600,      -6.23242,      -17.5731,            0.,NA,NA,"",   358.214E-03,  -351.752E-03,   67.7361E-03,   14.6603E-03
C:/temp/dataset/6/10_18.odb,Step-1,Increment      1: Step Time =    1.000,"PART-1-1",           601,      -7.41830,      -18.9573,            0.,NA,NA,"",   266.415E-03,  -266.094E-03,   13.0717E-03,   13.1541E-03
C:/temp/dataset/6/10_18.odb,Step-1,Increment      1: Step Time =    1.000,"PART-1-1",           602,      -6.18588,      -20.1280,            0.,NA,NA,"",   206.280E-03,  -200.349E-03,   49.1099E-03,   20.9504E-03
C:/temp/dataset/6/10_18.odb,Step-1,Increment      1: Step Time =    1.000,"PART-1-1",           603,           -5.,      -16.2312,            0.,NA,NA,"",   475.717E-03,  -450.252E-03,   153.557E-03,   13.5703E-03
C:/temp/dataset/6/10_18.odb,Step-1,Increment      1: Step Time =    1.000,"PART-1-1",           604,      -7.44257,      -16.3835,            0.,NA,NA,"",   426.528E-03,  -426.173E-03,   17.4009E-03,   13.4873E-03
C:/temp/dataset/6/10_18.odb,Step-1,Increment      1: Step Time =    1.000,"PART-1-1",           605,      -12.6830,      -26.0788,            0.,NA,NA,"",   90.0665E-03,  -62.7178E-03,  -64.6410E-03,   19.4454E-03
C:/temp/dataset/6/10_18.odb,Step-1,Increment      1: Step Time =    1.000,"PART-1-1",           606,          -15.,        -26.25,            0.,NA,NA,"",   135.471E-03,  -83.7685E-03,  -106.467E-03,   28.3746E-03
C:/temp/dataset/6/10_18.odb,Step-1,Increment      1: Step Time =    1.000,"PART-1-1",           607,         -8.75,          -30.,            0.,NA,NA,"",            0.,  -3.60713E-39,  -9.92209E-39,   6.54817E-03
C:/temp/dataset/6/10_18.odb,Step-1,Increment      1: Step Time =    1.000,"PART-1-1",           608,          -15.,        -18.75,            0.,NA,NA,"",   439.486E-03,  -325.803E-03,  -294.959E-03,   24.9678E-03
C:/temp/dataset/6/10_18.odb,Step-1,Increment      1: Step Time =    1.000,"PART-1-1",           609,      -12.5734,      -18.8685,            0.,NA,NA,"",   350.331E-03,  -299.677E-03,  -181.453E-03,   16.5411E-03
C:/temp/dataset/6/10_18.odb,Step-1,Increment      1: Step Time =    1.000,"PART-1-1",           610,           -5.,      -11.2063,            0.,NA,NA,"",   806.216E-03,  -789.612E-03,   162.778E-03,   2.05229E-03
C:/temp/dataset/6/10_18.odb,Step-1,Increment      1: Step Time =    1.000,"PART-1-1",           611,      -7.25264,      -11.4522,            0.,NA,NA,"",   770.263E-03,  -769.998E-03,   20.2222E-03,   9.82503E-03
C:/temp/dataset/6/10_18.odb,Step-1,Increment      1: Step Time =    1.000,"PART-1-1",           612,           -5.,      -6.23750,            0.,NA,NA,"",       1.14981,      -1.14506,   104.376E-03,   27.6959E-03
C:/temp/dataset/6/10_18.odb,Step-1,Increment      1: Step Time =    1.000,"PART-1-1",           613,      -6.16987,      -5.46941,            0.,NA,NA,"",       1.21309,      -1.21290,   21.6349E-03,   26.9792E-03
C:/temp/dataset/6/10_18.odb,Step-1,Increment      1: Step Time =    1.000,"PART-1-1",           614,      -7.24309,      -6.98789,            0.,NA,NA,"",       1.09598,      -1.09585,  -16.4029E-03,   14.7405E-03
C:/temp/dataset/6/10_18.odb,Step-1,Increment      1: Step Time =    1.000,"PART-1-1",           615,           -5.,       16.4583,            0.,NA,NA,"",       1.99099,      -1.99098,   4.71667E-03,   29.9339E-06
C:/temp/dataset/6/10_18.odb,Step-1,Increment      1: Step Time =    1.000,"PART-1-1",           616,      -7.23328,       16.4840,            0.,NA,NA,"",       1.99189,      -1.99048,  -75.1029E-03,   37.6570E-06
C:/temp/dataset/6/10_18.odb,Step-1,Increment      1: Step Time =    1.000,"PART-1-1",           617,      -6.08867,       15.3700,            0.,NA,NA,"",       1.95173,      -1.95144,  -33.4590E-03,   38.3557E-06
C:/temp/dataset/6/10_18.odb,Step-1,Increment      1: Step Time =    1.000,"PART-1-1",           618,      -13.1522,       16.1892,            0.,NA,NA,"",       1.99668,      -1.97604,  -286.324E-03,   37.8902E-06
C:/temp/dataset/6/10_18.odb,Step-1,Increment      1: Step Time =    1.000,"PART-1-1",           619,      -14.0864,       17.4486,            0.,NA,NA,"",       2.04572,      -2.02046,  -320.495E-03,   13.8414E-06
C:/temp/dataset/6/10_18.odb,Step-1,Increment      1: Step Time =    1.000,"PART-1-1",           620,          -15.,         16.25,            0.,NA,NA,"",       2.00820,      -1.97705,  -352.347E-03,   32.5102E-06
C:/temp/dataset/6/10_18.odb,Step-1,Increment      1: Step Time =    1.000,"PART-1-1",           621,           -5.,       24.7917,            0.,NA,NA,"",       2.28860,      -2.28860,  -625.480E-06,   693.429E-09
C:/temp/dataset/6/10_18.odb,Step-1,Increment      1: Step Time =    1.000,"PART-1-1",           622,      -6.14442,       25.7689,            0.,NA,NA,"",       2.32316,      -2.32277,  -42.1273E-03,   317.968E-09
C:/temp/dataset/6/10_18.odb,Step-1,Increment      1: Step Time =    1.000,"PART-1-1",           623,           -5.,        26.875,            0.,NA,NA,"",       2.36302,      -2.36302,  -1.95408E-03,   305.682E-09
C:/temp/dataset/6/10_18.odb,Step-1,Increment      1: Step Time =    1.000,"PART-1-1",           624,      -7.36924,       26.7689,            0.,NA,NA,"",       2.35930,      -2.35772,  -86.5158E-03,   307.661E-09
C:/temp/dataset/6/10_18.odb,Step-1,Increment      1: Step Time =    1.000,"PART-1-1",           625,      -13.1175,       20.9132,            0.,NA,NA,"",       2.16413,      -2.14487,  -288.110E-03,   3.62012E-06
C:/temp/dataset/6/10_18.odb,Step-1,Increment      1: Step Time =    1.000,"PART-1-1",           626,      -14.0212,       22.2867,            0.,NA,NA,"",       2.21676,      -2.19336,  -321.270E-03,   582.394E-09
C:/temp/dataset/6/10_18.odb,Step-1,Increment      1: Step Time =    1.000,"PART-1-1",           627,          -15.,         21.25,            0.,NA,NA,"",       2.18483,      -2.15570,  -355.574E-03,   178.608E-09
C:/temp/dataset/6/10_18.odb,Step-1,Increment      1: Step Time =    1.000,"PART-1-1",           628,      -14.0963,       19.8765,            0.,NA,NA,"",       2.13173,      -2.10721,  -322.411E-03,   3.00444E-06
C:/temp/dataset/6/10_18.odb,Step-1,Increment      1: Step Time =    1.000,"PART-1-1",           629,         -1.25,           -5.,            0.,NA,NA,"",       1.35304,      -1.35189,   55.8547E-03,   17.6249E-03
C:/temp/dataset/6/10_18.odb,Step-1,Increment      1: Step Time =    1.000,"PART-1-1",           630,      -1.77292,      -3.03732,            0.,NA,NA,"",       1.36561,      -1.36389,   68.4745E-03,   15.9146E-03
C:/temp/dataset/6/10_18.odb,Step-1,Increment      1: Step Time =    1.000,"PART-1-1",           631,      -12.1053,      -2.30059,            0.,NA,NA,"",       1.35189,      -1.32902,  -247.634E-03,   5.00480E-03
C:/temp/dataset/6/10_18.odb,Step-1,Increment      1: Step Time =    1.000,"PART-1-1",           632,      -10.7648,      -1.40855,            0.,NA,NA,"",       1.38232,      -1.36980,  -185.574E-03,   4.81990E-03
C:/temp/dataset/6/10_18.odb,Step-1,Increment      1: Step Time =    1.000,"PART-1-1",           633,      -11.5438,  -354.672E-03,            0.,NA,NA,"",       1.42344,      -1.40650,  -218.997E-03,   5.46476E-03
C:/temp/dataset/6/10_18.odb,Step-1,Increment      1: Step Time =    1.000,"PART-1-1",           634,          3.75,           -5.,            0.,NA,NA,"",       1.40501,      -1.40396,   54.0974E-03,   9.79280E-03
C:/temp/dataset/6/10_18.odb,Step-1,Increment      1: Step Time =    1.000,"PART-1-1",           635,       4.52066,      -3.83856,            0.,NA,NA,"",       1.40718,      -1.40644,   45.7972E-03,   21.5466E-03
C:/temp/dataset/6/10_18.odb,Step-1,Increment      1: Step Time =    1.000,"PART-1-1",           636,       2.94662,      -2.72704,            0.,NA,NA,"",       1.40880,      -1.40715,   67.9897E-03,   12.9205E-03
C:/temp/dataset/6/10_18.odb,Step-1,Increment      1: Step Time =    1.000,"PART-1-1",           637,       1.50395,       2.56821,            0.,NA,NA,"",       1.48384,      -1.48116,   89.1507E-03,   7.91836E-03
C:/temp/dataset/6/10_18.odb,Step-1,Increment      1: Step Time =    1.000,"PART-1-1",           638,          1.25,            5.,            0.,NA,NA,"",       1.51062,      -1.50802,   88.6828E-03,   1.26121E-03
C:/temp/dataset/6/10_18.odb,Step-1,Increment      1: Step Time =    1.000,"PART-1-1",           639,          6.25,            5.,            0.,NA,NA,"",       1.53241,      -1.52743,   123.420E-03,   6.86666E-03
C:/temp/dataset/6/10_18.odb,Step-1,Increment      1: Step Time =    1.000,"PART-1-1",           640,  -213.968E-03,      -26.0734,            0.,NA,NA,"",   87.9094E-03,  -87.7833E-03,  -4.70716E-03,   17.9568E-03
C:/temp/dataset/6/10_18.odb,Step-1,Increment      1: Step Time =    1.000,"PART-1-1",           641,       1.14210,      -23.8512,            0.,NA,NA,"",   136.210E-03,  -134.866E-03,  -19.0909E-03,   19.4537E-03
C:/temp/dataset/6/10_18.odb,Step-1,Increment      1: Step Time =    1.000,"PART-1-1",           642,  -234.527E-03,      -23.9674,            0.,NA,NA,"",   129.793E-03,  -129.700E-03,  -4.90573E-03,   18.2445E-03
C:/temp/dataset/6/10_18.odb,Step-1,Increment      1: Step Time =    1.000,"PART-1-1",           643,           -5.,        14.375,            0.,NA,NA,"",       1.91660,      -1.91659,   6.13298E-03,   87.0202E-06
C:/temp/dataset/6/10_18.odb,Step-1,Increment      1: Step Time =    1.000,"PART-1-1",           644,      -7.14364,       14.2292,            0.,NA,NA,"",       1.91134,      -1.91004,  -70.4672E-03,   75.8336E-06
C:/temp/dataset/6/10_18.odb,Step-1,Increment      1: Step Time =    1.000,"PART-1-1",           645,           -5.,       6.04167,            0.,NA,NA,"",       1.61115,      -1.61109,   13.3950E-03,   4.58555E-03
C:/temp/dataset/6/10_18.odb,Step-1,Increment      1: Step Time =    1.000,"PART-1-1",           646,      -5.82078,       6.95384,            0.,NA,NA,"",       1.64630,      -1.64620,  -17.8504E-03,   1.56735E-03
C:/temp/dataset/6/10_18.odb,Step-1,Increment      1: Step Time =    1.000,"PART-1-1",           647,      -6.45742,       5.85906,            0.,NA,NA,"",       1.60349,      -1.60299,  -39.9356E-03,   4.54751E-03
C:/temp/dataset/6/10_18.odb,Step-1,Increment      1: Step Time =    1.000,"PART-1-1",           648,      -5.63664,       4.94688,            0.,NA,NA,"",       1.56275,      -1.56272,  -9.40147E-03,   9.13033E-03
C:/temp/dataset/6/10_18.odb,Step-1,Increment      1: Step Time =    1.000,"PART-1-1",           649,           -5.,         8.125,            0.,NA,NA,"",       1.69152,      -1.69148,   12.0671E-03,   473.142E-06
C:/temp/dataset/6/10_18.odb,Step-1,Increment      1: Step Time =    1.000,"PART-1-1",           650,      -5.96903,       9.00386,            0.,NA,NA,"",       1.72331,      -1.72314,  -24.5019E-03,   256.543E-06
C:/temp/dataset/6/10_18.odb,Step-1,Increment      1: Step Time =    1.000,"PART-1-1",           651,          -15.,         -3.75,            0.,NA,NA,"",       1.30839,      -1.24846,  -391.445E-03,   11.1617E-03
C:/temp/dataset/6/10_18.odb,Step-1,Increment      1: Step Time =    1.000,"PART-1-1",           652,      -12.7846,      -3.59401,            0.,NA,NA,"",       1.29870,      -1.26739,  -283.471E-03,   5.09429E-03
C:/temp/dataset/6/10_18.odb,Step-1,Increment      1: Step Time =    1.000,"PART-1-1",           653,      -11.5430,      -4.20540,            0.,NA,NA,"",       1.26295,      -1.24262,  -225.688E-03,   4.81535E-03
C:/temp/dataset/6/10_18.odb,Step-1,Increment      1: Step Time =    1.000,"PART-1-1",           654,      -10.1018,      -4.29084,            0.,NA,NA,"",       1.25581,      -1.24584,  -157.881E-03,   6.23381E-03
C:/temp/dataset/6/10_18.odb,Step-1,Increment      1: Step Time =    1.000,"PART-1-1",           655,          -15.,        -11.25,            0.,NA,NA,"",   889.475E-03,  -785.994E-03,  -416.389E-03,   4.47584E-03
C:/temp/dataset/6/10_18.odb,Step-1,Increment      1: Step Time =    1.000,"PART-1-1",           656,      -12.2331,      -11.1785,            0.,NA,NA,"",   828.993E-03,  -790.788E-03,  -248.766E-03,   12.1466E-03
C:/temp/dataset/6/10_18.odb,Step-1,Increment      1: Step Time =    1.000,"PART-1-1",           657,       5.21391,      -1.02834,            0.,NA,NA,"",       1.45161,      -1.44924,   83.0174E-03,   14.2224E-03
C:/temp/dataset/6/10_18.odb,Step-1,Increment      1: Step Time =    1.000,"PART-1-1",           658,       6.72319,      -1.59046,            0.,NA,NA,"",       1.46137,      -1.45855,   90.7352E-03,   15.6108E-03
C:/temp/dataset/6/10_18.odb,Step-1,Increment      1: Step Time =    1.000,"PART-1-1",           659,       10.9187,      -16.2245,            0.,NA,NA,"",   670.892E-03,  -653.202E-03,   153.045E-03,   26.1742E-03
C:/temp/dataset/6/10_18.odb,Step-1,Increment      1: Step Time =    1.000,"PART-1-1",           660,       11.9858,      -14.8752,            0.,NA,NA,"",   814.839E-03,  -785.896E-03,   215.244E-03,   23.0337E-03
C:/temp/dataset/6/10_18.odb,Step-1,Increment      1: Step Time =    1.000,"PART-1-1",           661,       10.9746,      -13.7451,            0.,NA,NA,"",   903.029E-03,  -889.252E-03,   157.138E-03,   26.7404E-03
C:/temp/dataset/6/10_18.odb,Step-1,Increment      1: Step Time =    1.000,"PART-1-1",           662,       11.9830,      -12.5543,            0.,NA,NA,"",       1.03112,      -1.00889,   212.941E-03,   24.3377E-03
C:/temp/dataset/6/10_18.odb,Step-1,Increment      1: Step Time =    1.000,"PART-1-1",           663,           15.,      -20.1563,            0.,NA,NA,"",   512.933E-03,  -384.168E-03,   339.875E-03,   33.5253E-03
C:/temp/dataset/6/10_18.odb,Step-1,Increment      1: Step Time =    1.000,"PART-1-1",           664,       14.0841,      -19.1367,            0.,NA,NA,"",   537.023E-03,  -440.153E-03,   307.668E-03,   26.3879E-03
C:/temp/dataset/6/10_18.odb,Step-1,Increment      1: Step Time =    1.000,"PART-1-1",           665,       13.0385,      -20.2889,            0.,NA,NA,"",   414.069E-03,  -347.162E-03,   225.680E-03,   23.9221E-03
C:/temp/dataset/6/10_18.odb,Step-1,Increment      1: Step Time =    1.000,"PART-1-1",           666,           15.,      -17.9688,            0.,NA,NA,"",   669.834E-03,  -541.207E-03,   394.681E-03,   26.0014E-03
C:/temp/dataset/6/10_18.odb,Step-1,Increment      1: Step Time =    1.000,"PART-1-1",           667,          1.25,          -30.,            0.,NA,NA,"",            0.,  -14.6002E-39,  -6.52247E-39,   15.0440E-03
C:/temp/dataset/6/10_18.odb,Step-1,Increment      1: Step Time =    1.000,"PART-1-1",           668,       3.30543,      -22.6598,            0.,NA,NA,"",   172.070E-03,  -164.380E-03,  -50.8670E-03,   26.1686E-03
C:/temp/dataset/6/10_18.odb,Step-1,Increment      1: Step Time =    1.000,"PART-1-1",           669,       2.86115,      -24.1329,            0.,NA,NA,"",   134.998E-03,  -129.893E-03,  -36.7718E-03,   23.2486E-03
C:/temp/dataset/6/10_18.odb,Step-1,Increment      1: Step Time =    1.000,"PART-1-1",           670,      -10.6801,      -21.6169,            0.,NA,NA,"",   186.459E-03,  -169.953E-03,  -76.7011E-03,   11.5550E-03
C:/temp/dataset/6/10_18.odb,Step-1,Increment      1: Step Time =    1.000,"PART-1-1",           671,      -11.3394,      -20.4213,            0.,NA,NA,"",   246.763E-03,  -219.836E-03,  -112.090E-03,   13.7620E-03
C:/temp/dataset/6/10_18.odb,Step-1,Increment      1: Step Time =    1.000,"PART-1-1",           672,      -12.1593,      -22.4638,            0.,NA,NA,"",   187.191E-03,  -150.911E-03,  -110.754E-03,   16.2376E-03
C:/temp/dataset/6/10_18.odb,Step-1,Increment      1: Step Time =    1.000,"PART-1-1",           673,      -9.92443,      -16.4516,            0.,NA,NA,"",   434.334E-03,  -423.901E-03,  -94.6215E-03,   14.2981E-03
C:/temp/dataset/6/10_18.odb,Step-1,Increment      1: Step Time =    1.000,"PART-1-1",           674,      -8.71114,      -17.7111,            0.,NA,NA,"",   345.187E-03,  -343.182E-03,  -37.1537E-03,   13.6836E-03
C:/temp/dataset/6/10_18.odb,Step-1,Increment      1: Step Time =    1.000,"PART-1-1",           675,      -9.25100,      -7.50767,            0.,NA,NA,"",       1.05935,      -1.05339,  -112.144E-03,   13.4163E-03
C:/temp/dataset/6/10_18.odb,Step-1,Increment      1: Step Time =    1.000,"PART-1-1",           676,      -8.32615,      -6.25855,            0.,NA,NA,"",       1.14294,      -1.14064,  -72.5539E-03,   14.0614E-03
C:/temp/dataset/6/10_18.odb,Step-1,Increment      1: Step Time =    1.000,"PART-1-1",           677,      -7.58018,      -5.09368,            0.,NA,NA,"",       1.22181,      -1.22106,  -42.8747E-03,   13.6401E-03
C:/temp/dataset/6/10_18.odb,Step-1,Increment      1: Step Time =    1.000,"PART-1-1",           678,      -6.67379,      -3.84489,            0.,NA,NA,"",       1.29499,      -1.29498,  -5.37470E-03,   12.1671E-03
C:/temp/dataset/6/10_18.odb,Step-1,Increment      1: Step Time =    1.000,"PART-1-1",           679,      -2.40491,      -1.03021,            0.,NA,NA,"",       1.40148,      -1.39981,   68.4904E-03,   11.7775E-03
C:/temp/dataset/6/10_18.odb,Step-1,Increment      1: Step Time =    1.000,"PART-1-1",           680,      -3.32453,      -2.14711,            0.,NA,NA,"",       1.36916,      -1.36778,   61.5767E-03,   14.9241E-03
C:/temp/dataset/6/10_18.odb,Step-1,Increment      1: Step Time =    1.000,"PART-1-1",           681,       10.4745,      -24.8101,            0.,NA,NA,"",   114.647E-03,  -101.446E-03,   53.4093E-03,   13.6802E-03
C:/temp/dataset/6/10_18.odb,Step-1,Increment      1: Step Time =    1.000,"PART-1-1",           682,       8.16019,      -23.0435,            0.,NA,NA,"",   151.778E-03,  -151.776E-03,   805.209E-06,   7.20438E-03
C:/temp/dataset/6/10_18.odb,Step-1,Increment      1: Step Time =    1.000,"PART-1-1",           683,       9.40124,      -23.8494,            0.,NA,NA,"",   132.369E-03,  -128.199E-03,   32.9622E-03,   8.98457E-03
C:/temp/dataset/6/10_18.odb,Step-1,Increment      1: Step Time =    1.000,"PART-1-1",           684,       5.67200,      -27.0943,            0.,NA,NA,"",   49.6682E-03,  -47.4408E-03,  -14.7072E-03,   13.6998E-03
C:/temp/dataset/6/10_18.odb,Step-1,Increment      1: Step Time =    1.000,"PART-1-1",           685,       4.86106,      -26.0050,            0.,NA,NA,"",   80.2960E-03,  -75.9036E-03,  -26.1934E-03,   16.8481E-03
C:/temp/dataset/6/10_18.odb,Step-1,Increment      1: Step Time =    1.000,"PART-1-1",           686,      -2.55341,      -23.8484,            0.,NA,NA,"",   126.780E-03,  -125.455E-03,   18.2837E-03,   18.0028E-03
C:/temp/dataset/6/10_18.odb,Step-1,Increment      1: Step Time =    1.000,"PART-1-1",           687,      -4.82130,      -23.8875,            0.,NA,NA,"",   116.251E-03,  -112.864E-03,   27.8555E-03,   16.2639E-03
C:/temp/dataset/6/10_18.odb,Step-1,Increment      1: Step Time =    1.000,"PART-1-1",           688,      -5.84083,      -25.1777,            0.,NA,NA,"",   82.7521E-03,  -81.1564E-03,   16.1724E-03,   12.4269E-03
C:/temp/dataset/6/10_18.odb,Step-1,Increment      1: Step Time =    1.000,"PART-1-1",           689,           15.,      -26.7188,            0.,NA,NA,"",   159.738E-03,  -98.5498E-03,   125.714E-03,   39.4931E-03
C:/temp/dataset/6/10_18.odb,Step-1,Increment      1: Step Time =    1.000,"PART-1-1",           690,       10.9874,      -11.4075,            0.,NA,NA,"",       1.11512,      -1.10372,   159.090E-03,   23.0501E-03
C:/temp/dataset/6/10_18.odb,Step-1,Increment      1: Step Time =    1.000,"PART-1-1",           691,       7.29436,      -19.7763,            0.,NA,NA,"",   313.285E-03,  -312.388E-03,  -23.6856E-03,   26.9842E-03
C:/temp/dataset/6/10_18.odb,Step-1,Increment      1: Step Time =    1.000,"PART-1-1",           692,       7.78340,      -18.7858,            0.,NA,NA,"",   401.909E-03,  -401.886E-03,  -4.23248E-03,   28.1466E-03
C:/temp/dataset/6/10_18.odb,Step-1,Increment      1: Step Time =    1.000,"PART-1-1",           693,       10.8970,      -2.99004,            0.,NA,NA,"",       1.49027,      -1.47913,   181.889E-03,   14.4164E-03
C:/temp/dataset/6/10_18.odb,Step-1,Increment      1: Step Time =    1.000,"PART-1-1",           694,       12.0828,      -3.88727,            0.,NA,NA,"",       1.49227,      -1.47631,   217.654E-03,   15.0296E-03
C:/temp/dataset/6/10_18.odb,Step-1,Increment      1: Step Time =    1.000,"PART-1-1",           695,           15.,       1.71875,            0.,NA,NA,"",       1.53412,      -1.51424,   246.205E-03,   1.53862E-03
C:/temp/dataset/6/10_18.odb,Step-1,Increment      1: Step Time =    1.000,"PART-1-1",           696,       4.00043,  -427.215E-03,            0.,NA,NA,"",       1.44923,      -1.44681,   83.8071E-03,   12.4723E-03
C:/temp/dataset/6/10_18.odb,Step-1,Increment      1: Step Time =    1.000,"PART-1-1",           697,       2.09609,       1.00148,            0.,NA,NA,"",       1.46053,      -1.45791,   87.5180E-03,   10.4724E-03
C:/temp/dataset/6/10_18.odb,Step-1,Increment      1: Step Time =    1.000,"PART-1-1",           698,       2.38138,  -554.063E-03,            0.,NA,NA,"",       1.43645,      -1.43412,   81.8207E-03,   12.8367E-03
C:/temp/dataset/6/10_18.odb,Step-1,Increment      1: Step Time =    1.000,"PART-1-1",           699,   35.7305E-03,       2.11113,            0.,NA,NA,"",       1.47419,      -1.47182,   83.4574E-03,   8.91724E-03
C:/temp/dataset/6/10_18.odb,Step-1,Increment      1: Step Time =    1.000,"PART-1-1",           700,           -5.,       10.2083,            0.,NA,NA,"",       1.76729,      -1.76727,   9.54761E-03,   392.982E-06
C:/temp/dataset/6/10_18.odb,Step-1,Increment      1: Step Time =    1.000,"PART-1-1",           701,      -6.99901,       9.90050,            0.,NA,NA,"",       1.75613,      -1.75502,  -62.5437E-03,   139.312E-06
C:/temp/dataset/6/10_18.odb,Step-1,Increment      1: Step Time =    1.000,"PART-1-1",           702,      -11.2396,       16.2208,            0.,NA,NA,"",       1.99040,      -1.97842,  -218.084E-03,   43.1257E-06
C:/temp/dataset/6/10_18.odb,Step-1,Increment      1: Step Time =    1.000,"PART-1-1",           703,      -10.2112,       15.1096,            0.,NA,NA,"",       1.94781,      -1.93941,  -180.701E-03,   57.3239E-06
C:/temp/dataset/6/10_18.odb,Step-1,Increment      1: Step Time =    1.000,"PART-1-1",           704,      -9.25876,       16.3324,            0.,NA,NA,"",       1.98920,      -1.98373,  -147.408E-03,   43.1701E-06
C:/temp/dataset/6/10_18.odb,Step-1,Increment      1: Step Time =    1.000,"PART-1-1",           705,      -10.2871,       17.4437,            0.,NA,NA,"",       2.03117,      -2.02274,  -184.826E-03,   24.2239E-06
C:/temp/dataset/6/10_18.odb,Step-1,Increment      1: Step Time =    1.000,"PART-1-1",           706,      -8.19479,       15.2434,            0.,NA,NA,"",       1.94859,      -1.94555,  -108.712E-03,   51.6136E-06
C:/temp/dataset/6/10_18.odb,Step-1,Increment      1: Step Time =    1.000,"PART-1-1",           707,      -9.19446,       14.0222,            0.,NA,NA,"",       1.90668,      -1.90126,  -143.741E-03,   82.1136E-06
C:/temp/dataset/6/10_18.odb,Step-1,Increment      1: Step Time =    1.000,"PART-1-1",           708,      -8.14331,       13.0080,            0.,NA,NA,"",       1.86873,      -1.86575,  -105.531E-03,   89.2553E-06
C:/temp/dataset/6/10_18.odb,Step-1,Increment      1: Step Time =    1.000,"PART-1-1",           709,          -15.,         18.75,            0.,NA,NA,"",       2.09648,      -2.06638,  -353.975E-03,   6.81025E-06
C:/temp/dataset/6/10_18.odb,Step-1,Increment      1: Step Time =    1.000,"PART-1-1",           710,      -13.1826,       18.5751,            0.,NA,NA,"",       2.08144,      -2.06129,  -288.943E-03,   13.5506E-06
C:/temp/dataset/6/10_18.odb,Step-1,Increment      1: Step Time =    1.000,"PART-1-1",           711,      -11.2313,       23.3702,            0.,NA,NA,"",       2.24488,      -2.23385,  -222.303E-03,   875.624E-09
C:/temp/dataset/6/10_18.odb,Step-1,Increment      1: Step Time =    1.000,"PART-1-1",           712,      -10.8173,       24.9058,            0.,NA,NA,"",       2.29844,      -2.28896,  -208.492E-03,   278.526E-09
C:/temp/dataset/6/10_18.odb,Step-1,Increment      1: Step Time =    1.000,"PART-1-1",           713,      -13.5418,       24.7667,            0.,NA,NA,"",       2.30264,      -2.28226,  -305.726E-03,   306.326E-09
C:/temp/dataset/6/10_18.odb,Step-1,Increment      1: Step Time =    1.000,"PART-1-1",           714,      -12.2278,       25.9824,            0.,NA,NA,"",       2.34095,      -2.32652,  -259.563E-03,   273.311E-09
C:/temp/dataset/6/10_18.odb,Step-1,Increment      1: Step Time =    1.000,"PART-1-1",           715,          -15.,         26.25,            0.,NA,NA,"",       2.36172,      -2.33431,  -358.761E-03,   397.764E-09
C:/temp/dataset/6/10_18.odb,Step-1,Increment      1: Step Time =    1.000,"PART-1-1",           716,          -15.,         23.75,            0.,NA,NA,"",       2.27324,      -2.24501,  -357.167E-03,   760.892E-09
C:/temp/dataset/6/10_18.odb,Step-1,Increment      1: Step Time =    1.000,"PART-1-1",           717,      -12.5630,       23.3034,            0.,NA,NA,"",       2.24687,      -2.23061,  -269.829E-03,   549.672E-09
C:/temp/dataset/6/10_18.odb,Step-1,Increment      1: Step Time =    1.000,"PART-1-1",           718,      -11.1827,       13.8735,            0.,NA,NA,"",       1.90670,      -1.89458,  -214.645E-03,   78.5408E-06
C:/temp/dataset/6/10_18.odb,Step-1,Increment      1: Step Time =    1.000,"PART-1-1",           719,      -10.1659,       12.7861,            0.,NA,NA,"",       1.86492,      -1.85643,  -177.748E-03,   97.4484E-06
C:/temp/dataset/6/10_18.odb,Step-1,Increment      1: Step Time =    1.000,"PART-1-1",           720,      -11.4858,       20.4947,            0.,NA,NA,"",       2.14329,      -2.13096,  -229.559E-03,   6.00831E-06
C:/temp/dataset/6/10_18.odb,Step-1,Increment      1: Step Time =    1.000,"PART-1-1",           721,      -10.4732,       19.7487,            0.,NA,NA,"",       2.11378,      -2.10496,  -192.918E-03,   7.99656E-06
C:/temp/dataset/6/10_18.odb,Step-1,Increment      1: Step Time =    1.000,"PART-1-1",           722,      -10.9778,       21.7959,            0.,NA,NA,"",       2.18809,      -2.17777,  -212.242E-03,   2.40434E-06
C:/temp/dataset/6/10_18.odb,Step-1,Increment      1: Step Time =    1.000,"PART-1-1",           723,      -9.13796,       11.7463,            0.,NA,NA,"",       1.82537,      -1.81996,  -140.435E-03,   97.2705E-06
C:/temp/dataset/6/10_18.odb,Step-1,Increment      1: Step Time =    1.000,"PART-1-1",           724,      -11.1090,       11.4975,            0.,NA,NA,"",       1.82201,      -1.80979,  -210.647E-03,   83.8418E-06
C:/temp/dataset/6/10_18.odb,Step-1,Increment      1: Step Time =    1.000,"PART-1-1",           725,      -7.95801,       5.48811,            0.,NA,NA,"",       1.59637,      -1.59379,  -90.7561E-03,   4.24428E-03
C:/temp/dataset/6/10_18.odb,Step-1,Increment      1: Step Time =    1.000,"PART-1-1",           726,      -9.27172,       5.51676,            0.,NA,NA,"",       1.60390,      -1.59795,  -138.012E-03,   3.08618E-03
C:/temp/dataset/6/10_18.odb,Step-1,Increment      1: Step Time =    1.000,"PART-1-1",           727,      -9.10783,       4.19071,            0.,NA,NA,"",       1.55847,      -1.55320,  -128.043E-03,   5.06461E-03
C:/temp/dataset/6/10_18.odb,Step-1,Increment      1: Step Time =    1.000,"PART-1-1",           728,      -7.79412,       4.16207,            0.,NA,NA,"",       1.55008,      -1.54801,  -80.0660E-03,   5.86203E-03
C:/temp/dataset/6/10_18.odb,Step-1,Increment      1: Step Time =    1.000,"PART-1-1",           729,      -10.3652,   710.465E-03,            0.,NA,NA,"",       1.45437,      -1.44453,  -168.926E-03,   5.84039E-03
C:/temp/dataset/6/10_18.odb,Step-1,Increment      1: Step Time =    1.000,"PART-1-1",           730,      -11.5756,       2.14983,            0.,NA,NA,"",       1.50676,      -1.49067,  -219.567E-03,   5.05539E-03
C:/temp/dataset/6/10_18.odb,Step-1,Increment      1: Step Time =    1.000,"PART-1-1",           731,      -10.9514,      -7.70102,            0.,NA,NA,"",       1.05437,      -1.03593,  -196.333E-03,   10.9907E-03
C:/temp/dataset/6/10_18.odb,Step-1,Increment      1: Step Time =    1.000,"PART-1-1",           732,      -11.1587,      -15.1039,            0.,NA,NA,"",   539.519E-03,  -514.625E-03,  -161.994E-03,   13.9782E-03
C:/temp/dataset/6/10_18.odb,Step-1,Increment      1: Step Time =    1.000,"PART-1-1",           733,      -11.0422,      -12.5823,            0.,NA,NA,"",   711.536E-03,  -689.480E-03,  -175.787E-03,   13.4966E-03
C:/temp/dataset/6/10_18.odb,Step-1,Increment      1: Step Time =    1.000,"PART-1-1",           734,      -9.98828,      -19.2456,            0.,NA,NA,"",   275.838E-03,  -265.287E-03,  -75.5590E-03,   12.3076E-03
C:/temp/dataset/6/10_18.odb,Step-1,Increment      1: Step Time =    1.000,"PART-1-1",           735,      -11.2222,      -17.6929,            0.,NA,NA,"",   380.570E-03,  -353.989E-03,  -139.733E-03,   14.4488E-03
C:/temp/dataset/6/10_18.odb,Step-1,Increment      1: Step Time =    1.000,"PART-1-1",           736,      -9.72809,       26.4627,            0.,NA,NA,"",       2.35147,      -2.34527,  -170.579E-03,   223.608E-09
C:/temp/dataset/6/10_18.odb,Step-1,Increment      1: Step Time =    1.000,"PART-1-1",           737,      -8.07960,       10.7858,            0.,NA,NA,"",       1.78913,      -1.78623,  -101.962E-03,   94.7634E-06
C:/temp/dataset/6/10_18.odb,Step-1,Increment      1: Step Time =    1.000,"PART-1-1",           738,      -11.3320,       18.4953,            0.,NA,NA,"",       2.07165,      -2.05963,  -222.800E-03,   17.5968E-06
C:/temp/dataset/6/10_18.odb,Step-1,Increment      1: Step Time =    1.000,"PART-1-1",           739,      -10.4893,       6.32554,            0.,NA,NA,"",       1.63772,      -1.62736,  -183.918E-03,   2.16125E-03
C:/temp/dataset/6/10_18.odb,Step-1,Increment      1: Step Time =    1.000,"PART-1-1",           740,      -11.8356,       7.66802,            0.,NA,NA,"",       1.69035,      -1.67408,  -233.914E-03,   691.025E-06
C:/temp/dataset/6/10_18.odb,Step-1,Increment      1: Step Time =    1.000,"PART-1-1",           741,      -11.4125,       4.87054,            0.,NA,NA,"",       1.59366,      -1.57899,  -215.681E-03,   2.88867E-03
C:/temp/dataset/6/10_18.odb,Step-1,Increment      1: Step Time =    1.000,"PART-1-1",           742,       10.1911,      -5.79504,            0.,NA,NA,"",       1.43201,      -1.42440,   147.357E-03,   10.9878E-03
C:/temp/dataset/6/10_18.odb,Step-1,Increment      1: Step Time =    1.000,"PART-1-1",           743,       9.10708,      -6.74300,            0.,NA,NA,"",       1.38525,      -1.38173,   98.6434E-03,   10.7752E-03
C:/temp/dataset/6/10_18.odb,Step-1,Increment      1: Step Time =    1.000,"PART-1-1",           744,       11.1638,      -4.94873,            0.,NA,NA,"",       1.46557,      -1.45367,   186.362E-03,   12.8326E-03
C:/temp/dataset/6/10_18.odb,Step-1,Increment      1: Step Time =    1.000,"PART-1-1",           745,       10.4293,      -4.08570,            0.,NA,NA,"",       1.47243,      -1.46327,   164.026E-03,   14.2795E-03
C:/temp/dataset/6/10_18.odb,Step-1,Increment      1: Step Time =    1.000,"PART-1-1",           746,       9.97038,      -14.8971,            0.,NA,NA,"",   780.935E-03,  -774.100E-03,   103.097E-03,   27.1240E-03
C:/temp/dataset/6/10_18.odb,Step-1,Increment      1: Step Time =    1.000,"PART-1-1",           747,       9.96577,      -12.5508,            0.,NA,NA,"",       1.00007,  -994.665E-03,   103.872E-03,   25.2746E-03
C:/temp/dataset/6/10_18.odb,Step-1,Increment      1: Step Time =    1.000,"PART-1-1",           748,       8.96159,      -13.7029,            0.,NA,NA,"",   883.951E-03,  -882.603E-03,   48.7936E-03,   25.6436E-03
C:/temp/dataset/6/10_18.odb,Step-1,Increment      1: Step Time =    1.000,"PART-1-1",           749,       6.92617,      -22.4012,            0.,NA,NA,"",   174.817E-03,  -171.388E-03,  -34.4530E-03,   10.6778E-03
C:/temp/dataset/6/10_18.odb,Step-1,Increment      1: Step Time =    1.000,"PART-1-1",           750,       5.94981,      -23.5281,            0.,NA,NA,"",   141.835E-03,  -135.042E-03,  -43.3670E-03,   15.9383E-03
C:/temp/dataset/6/10_18.odb,Step-1,Increment      1: Step Time =    1.000,"PART-1-1",           751,       7.18383,      -24.1705,            0.,NA,NA,"",   114.888E-03,  -113.295E-03,  -19.0652E-03,   9.14415E-03
C:/temp/dataset/6/10_18.odb,Step-1,Increment      1: Step Time =    1.000,"PART-1-1",           752,       11.0968,      -20.2176,            0.,NA,NA,"",   354.686E-03,  -328.796E-03,   133.024E-03,   20.8247E-03
C:/temp/dataset/6/10_18.odb,Step-1,Increment      1: Step Time =    1.000,"PART-1-1",           753,       6.43355,      -20.8801,            0.,NA,NA,"",   235.701E-03,  -228.693E-03,  -57.0483E-03,   19.8029E-03
C:/temp/dataset/6/10_18.odb,Step-1,Increment      1: Step Time =    1.000,"PART-1-1",           754,       8.96045,      -11.3546,            0.,NA,NA,"",       1.09221,      -1.09079,   55.6928E-03,   21.7984E-03
C:/temp/dataset/6/10_18.odb,Step-1,Increment      1: Step Time =    1.000,"PART-1-1",           755,       8.17216,      -2.03287,            0.,NA,NA,"",       1.47359,      -1.46922,   113.381E-03,   14.7773E-03
C:/temp/dataset/6/10_18.odb,Step-1,Increment      1: Step Time =    1.000,"PART-1-1",           756,       9.68046,      -2.49017,            0.,NA,NA,"",       1.48427,      -1.47682,   148.496E-03,   14.4493E-03
C:/temp/dataset/6/10_18.odb,Step-1,Increment      1: Step Time =    1.000,"PART-1-1",           757,      -5.24373,       2.94722,            0.,NA,NA,"",       1.50039,      -1.50036,   9.62464E-03,   4.46900E-03
C:/temp/dataset/6/10_18.odb,Step-1,Increment      1: Step Time =    1.000,"PART-1-1",           758,      -6.20341,       3.93450,            0.,NA,NA,"",       1.53321,      -1.53303,  -23.6260E-03,   7.10423E-03
C:/temp/dataset/6/10_18.odb,Step-1,Increment      1: Step Time =    1.000,"PART-1-1",           759,       7.87036,      -17.0650,            0.,NA,NA,"",   559.415E-03,  -559.389E-03,  -5.35353E-03,   26.5341E-03
C:/temp/dataset/6/10_18.odb,Step-1,Increment      1: Step Time =    1.000,"PART-1-1",           760,      -8.77165,      -4.61616,            0.,NA,NA,"",       1.24119,      -1.23745,  -96.3604E-03,   9.56533E-03
C:/temp/dataset/6/10_18.odb,Step-1,Increment      1: Step Time =    1.000,"PART-1-1",           761,       8.90402,      -15.9271,            0.,NA,NA,"",   673.142E-03,  -671.491E-03,   47.1109E-03,   27.8490E-03
C:/temp/dataset/6/10_18.odb,Step-1,Increment      1: Step Time =    1.000,"PART-1-1",           762,       7.94609,      -14.8939,            0.,NA,NA,"",   766.200E-03,  -766.151E-03,  -8.63793E-03,   22.8224E-03
C:/temp/dataset/6/10_18.odb,Step-1,Increment      1: Step Time =    1.000,"PART-1-1",           763,      -12.3095,       21.7291,            0.,NA,NA,"",       2.18999,      -2.17453,  -259.767E-03,   2.02288E-06
C:/temp/dataset/6/10_18.odb,Step-1,Increment      1: Step Time =    1.000,"PART-1-1",           764,      -12.2938,       19.6789,            0.,NA,NA,"",       2.11706,      -2.10130,  -257.901E-03,   7.09925E-06
C:/temp/dataset/6/10_18.odb,Step-1,Increment      1: Step Time =    1.000,"PART-1-1",           765,       3.72209,      -1.78065,            0.,NA,NA,"",       1.42764,      -1.42573,   73.7876E-03,   14.3791E-03
C:/temp/dataset/6/10_18.odb,Step-1,Increment      1: Step Time =    1.000,"PART-1-1",           766,       6.45852,      -3.38063,            0.,NA,NA,"",       1.43866,      -1.43739,   60.5409E-03,   19.4421E-03
C:/temp/dataset/6/10_18.odb,Step-1,Increment      1: Step Time =    1.000,"PART-1-1",           767,       4.93556,      -2.38177,            0.,NA,NA,"",       1.43017,      -1.42863,   66.4273E-03,   17.6941E-03
C:/temp/dataset/6/10_18.odb,Step-1,Increment      1: Step Time =    1.000,"PART-1-1",           768,      -2.94024,   945.156E-03,            0.,NA,NA,"",       1.44727,      -1.44601,   60.4514E-03,   7.18598E-03
C:/temp/dataset/6/10_18.odb,Step-1,Increment      1: Step Time =    1.000,"PART-1-1",           769,      -1.69279,      -25.0756,            0.,NA,NA,"",   105.255E-03,  -105.030E-03,   6.88082E-03,   18.6114E-03
C:/temp/dataset/6/10_18.odb,Step-1,Increment      1: Step Time =    1.000,"PART-1-1",           770,      -6.93923,      -23.9860,            0.,NA,NA,"",   100.657E-03,  -99.6551E-03,   14.1682E-03,   8.26727E-03
C:/temp/dataset/6/10_18.odb,Step-1,Increment      1: Step Time =    1.000,"PART-1-1",           771,      -5.91970,      -22.6959,            0.,NA,NA,"",   137.004E-03,  -132.744E-03,   33.9007E-03,   13.0762E-03
C:/temp/dataset/6/10_18.odb,Step-1,Increment      1: Step Time =    1.000,"PART-1-1",           772,      -12.2208,       17.3915,            0.,NA,NA,"",       2.03550,      -2.01961,  -253.843E-03,   21.9083E-06
C:/temp/dataset/6/10_18.odb,Step-1,Increment      1: Step Time =    1.000,"PART-1-1",           773,      -12.0398,       10.1961,            0.,NA,NA,"",       1.77959,      -1.76293,  -242.962E-03,   89.3504E-06
C:/temp/dataset/6/10_18.odb,Step-1,Increment      1: Step Time =    1.000,"PART-1-1",           774,      -10.8637,      -2.91198,            0.,NA,NA,"",       1.32182,      -1.30786,  -191.652E-03,   4.24205E-03
C:/temp/dataset/6/10_18.odb,Step-1,Increment      1: Step Time =    1.000,"PART-1-1",           775,      -9.61620,      -11.5179,            0.,NA,NA,"",   772.863E-03,  -765.203E-03,  -108.539E-03,   14.2618E-03
C:/temp/dataset/6/10_18.odb,Step-1,Increment      1: Step Time =    1.000,"PART-1-1",           776,      -11.8201,      -24.5932,            0.,NA,NA,"",   114.599E-03,  -89.9018E-03,  -71.0676E-03,   15.3682E-03
C:/temp/dataset/6/10_18.odb,Step-1,Increment      1: Step Time =    1.000,"PART-1-1",           777,      -11.0718,      -23.4296,            0.,NA,NA,"",   134.227E-03,  -115.726E-03,  -68.0032E-03,   12.0900E-03
C:/temp/dataset/6/10_18.odb,Step-1,Increment      1: Step Time =    1.000,"PART-1-1",           778,       4.75405,      -23.0816,            0.,NA,NA,"",   161.424E-03,  -151.065E-03,  -56.8949E-03,   21.5424E-03
C:/temp/dataset/6/10_18.odb,Step-1,Increment      1: Step Time =    1.000,"PART-1-1",           779,       5.55198,      -21.9930,            0.,NA,NA,"",   194.065E-03,  -182.429E-03,  -66.1872E-03,   21.2007E-03
C:/temp/dataset/6/10_18.odb,Step-1,Increment      1: Step Time =    1.000,"PART-1-1",           780,       7.01336,      -26.0950,            0.,NA,NA,"",   64.0325E-03,  -62.9065E-03,  -11.9558E-03,   10.3385E-03
C:/temp/dataset/6/10_18.odb,Step-1,Increment      1: Step Time =    1.000,"PART-1-1",           781,       4.10189,      -23.9882,            0.,NA,NA,"",   137.828E-03,  -129.794E-03,  -46.3677E-03,   22.1780E-03
C:/temp/dataset/6/10_18.odb,Step-1,Increment      1: Step Time =    1.000,"PART-1-1",           782,       4.14804,      -25.2051,            0.,NA,NA,"",   104.727E-03,  -98.9892E-03,  -34.1899E-03,   19.9678E-03
C:/temp/dataset/6/10_18.odb,Step-1,Increment      1: Step Time =    1.000,"PART-1-1",           783,      -12.1264,       12.6156,            0.,NA,NA,"",       1.86552,      -1.84902,  -247.516E-03,   86.1877E-06
C:/temp/dataset/6/10_18.odb,Step-1,Increment      1: Step Time =    1.000,"PART-1-1",           784,      -12.1709,       15.0185,            0.,NA,NA,"",       1.95100,      -1.93484,  -250.575E-03,   52.8131E-06
C:/temp/dataset/6/10_18.odb,Step-1,Increment      1: Step Time =    1.000,"PART-1-1",           785,      -10.3060,       3.43341,            0.,NA,NA,"",       1.54076,      -1.53121,  -171.315E-03,   4.78550E-03
C:/temp/dataset/6/10_18.odb,Step-1,Increment      1: Step Time =    1.000,"PART-1-1",           786,      -9.35047,  -311.861E-03,            0.,NA,NA,"",       1.41737,      -1.41185,  -125.031E-03,   6.17632E-03
C:/temp/dataset/6/10_18.odb,Step-1,Increment      1: Step Time =    1.000,"PART-1-1",           787,      -9.47746,      -1.56252,            0.,NA,NA,"",       1.37424,      -1.36820,  -128.791E-03,   5.75563E-03
C:/temp/dataset/6/10_18.odb,Step-1,Increment      1: Step Time =    1.000,"PART-1-1",           788,      -7.56677,      -1.93629,            0.,NA,NA,"",       1.36168,      -1.36085,  -47.5341E-03,   6.42520E-03
C:/temp/dataset/6/10_18.odb,Step-1,Increment      1: Step Time =    1.000,"PART-1-1",           789,      -9.57637,      -3.06595,            0.,NA,NA,"",       1.31434,      -1.30760,  -132.934E-03,   5.41330E-03
C:/temp/dataset/6/10_18.odb,Step-1,Increment      1: Step Time =    1.000,"PART-1-1",           790,      -8.24618,      -3.39128,            0.,NA,NA,"",       1.30367,      -1.30161,  -73.2208E-03,   8.37230E-03
C:/temp/dataset/6/10_18.odb,Step-1,Increment      1: Step Time =    1.000,"PART-1-1",           791,       7.98922,      -7.69035,            0.,NA,NA,"",       1.32920,      -1.32848,   43.6426E-03,   17.3720E-03
C:/temp/dataset/6/10_18.odb,Step-1,Increment      1: Step Time =    1.000,"PART-1-1",           792,       7.96586,      -10.1263,            0.,NA,NA,"",       1.17737,      -1.17729,   13.9842E-03,   19.9334E-03
C:/temp/dataset/6/10_18.odb,Step-1,Increment      1: Step Time =    1.000,"PART-1-1",           793,       7.95460,      -12.5381,            0.,NA,NA,"",   982.368E-03,  -982.357E-03,  -4.65916E-03,   21.2045E-03
C:/temp/dataset/6/10_18.odb,Step-1,Increment      1: Step Time =    1.000,"PART-1-1",           794,      -6.90534,       4.84567,            0.,NA,NA,"",       1.56814,      -1.56728,  -51.6754E-03,   6.33708E-03
C:/temp/dataset/6/10_18.odb,Step-1,Increment      1: Step Time =    1.000,"PART-1-1",           795,      -7.09219,       3.25090,            0.,NA,NA,"",       1.51722,      -1.51636,  -50.9408E-03,   6.50093E-03
C:/temp/dataset/6/10_18.odb,Step-1,Increment      1: Step Time =    1.000,"PART-1-1",           796,      -5.99438,      -2.38990,            0.,NA,NA,"",       1.35142,      -1.35137,   11.1977E-03,   9.87849E-03
C:/temp/dataset/6/10_18.odb,Step-1,Increment      1: Step Time =    1.000,"PART-1-1",           797,      -8.16339,       2.56404,            0.,NA,NA,"",       1.50205,      -1.49955,  -86.6718E-03,   6.53634E-03
C:/temp/dataset/6/10_18.odb,Step-1,Increment      1: Step Time =    1.000,"PART-1-1",           798,      -6.16245,       1.98671,            0.,NA,NA,"",       1.47717,      -1.47710,  -14.6482E-03,   5.22069E-03
C:/temp/dataset/6/10_18.odb,Step-1,Increment      1: Step Time =    1.000,"PART-1-1",           799,      -9.36160,       1.80674,            0.,NA,NA,"",       1.48466,      -1.47894,  -130.245E-03,   6.33895E-03
C:/temp/dataset/6/10_18.odb,Step-1,Increment      1: Step Time =    1.000,"PART-1-1",           800,      -4.18828,       1.89018,            0.,NA,NA,"",       1.47078,      -1.47031,   37.1445E-03,   4.12466E-03
C:/temp/dataset/6/10_18.odb,Step-1,Increment      1: Step Time =    1.000,"PART-1-1",           801,      -2.02478,       2.01876,            0.,NA,NA,"",       1.47188,      -1.47025,   69.2262E-03,   7.75495E-03
C:/temp/dataset/6/10_18.odb,Step-1,Increment      1: Step Time =    1.000,"PART-1-1",           802,       5.29765,      -24.4346,            0.,NA,NA,"",   119.311E-03,  -112.472E-03,  -39.8115E-03,   17.3860E-03
C:/temp/dataset/6/10_18.odb,Step-1,Increment      1: Step Time =    1.000,"PART-1-1",           803,       8.18651,      -25.0309,            0.,NA,NA,"",   87.6085E-03,  -87.5925E-03,   1.67180E-03,   6.01391E-03
C:/temp/dataset/6/10_18.odb,Step-1,Increment      1: Step Time =    1.000,"PART-1-1",           804,       6.01068,      -25.2345,            0.,NA,NA,"",   92.3356E-03,  -88.2290E-03,  -27.2307E-03,   14.3331E-03
