ODB Name,Step,Frame,Part Instance Name,    êﬂì_ÉâÉxÉã,X,Y,Z,Section Name,Material Name,Section Point,   U-Magnitude,          U-U1,          U-U2,       S-Mises
C:/temp/dataset/6/11_12.odb,Step-1,Increment      1: Step Time =    1.000,"PART-1-1",             1,            5.,           -5.,            0.,NA,NA,"",   432.106E-03,  -427.727E-03,   61.3574E-03,   4.86781E-03
C:/temp/dataset/6/11_12.odb,Step-1,Increment      1: Step Time =    1.000,"PART-1-1",             2,            0.,           -5.,            0.,NA,NA,"",   409.716E-03,  -405.804E-03,   56.4766E-03,   5.14865E-03
C:/temp/dataset/6/11_12.odb,Step-1,Increment      1: Step Time =    1.000,"PART-1-1",             3,            5.,      -10.0250,            0.,NA,NA,"",   416.747E-03,  -415.768E-03,   28.5523E-03,   9.25200E-03
C:/temp/dataset/6/11_12.odb,Step-1,Increment      1: Step Time =    1.000,"PART-1-1",             4,            5.,      -15.0500,            0.,NA,NA,"",   346.852E-03,  -346.283E-03,  -19.8509E-03,   11.2521E-03
C:/temp/dataset/6/11_12.odb,Step-1,Increment      1: Step Time =    1.000,"PART-1-1",             5,            5.,          -20.,            0.,NA,NA,"",   162.166E-03,  -159.557E-03,  -28.9749E-03,   32.4584E-03
C:/temp/dataset/6/11_12.odb,Step-1,Increment      1: Step Time =    1.000,"PART-1-1",             6,            0.,          -20.,            0.,NA,NA,"",   90.0439E-03,  -90.0103E-03,   2.45776E-03,   6.47999E-03
C:/temp/dataset/6/11_12.odb,Step-1,Increment      1: Step Time =    1.000,"PART-1-1",             7,           -5.,          -20.,            0.,NA,NA,"",   88.2187E-03,  -84.8393E-03,   24.1836E-03,   10.4150E-03
C:/temp/dataset/6/11_12.odb,Step-1,Increment      1: Step Time =    1.000,"PART-1-1",             8,           -5.,      -14.9750,            0.,NA,NA,"",   179.781E-03,  -171.973E-03,   52.4078E-03,   2.76802E-03
C:/temp/dataset/6/11_12.odb,Step-1,Increment      1: Step Time =    1.000,"PART-1-1",             9,           -5.,      -9.95000,            0.,NA,NA,"",   273.258E-03,  -267.388E-03,   56.3350E-03,   566.895E-06
C:/temp/dataset/6/11_12.odb,Step-1,Increment      1: Step Time =    1.000,"PART-1-1",            10,           -5.,           -5.,            0.,NA,NA,"",   376.349E-03,  -374.225E-03,   39.9300E-03,   11.4436E-03
C:/temp/dataset/6/11_12.odb,Step-1,Increment      1: Step Time =    1.000,"PART-1-1",            11,           15.,          -30.,            0.,NA,NA,"",            0.,  -8.96667E-39,   15.9155E-39,   30.7694E-03
C:/temp/dataset/6/11_12.odb,Step-1,Increment      1: Step Time =    1.000,"PART-1-1",            12,          -15.,          -30.,            0.,NA,NA,"",            0.,  -4.80198E-39,  -8.16521E-39,   15.5762E-03
C:/temp/dataset/6/11_12.odb,Step-1,Increment      1: Step Time =    1.000,"PART-1-1",            13,           15.,        -21.25,            0.,NA,NA,"",   258.451E-03,  -218.261E-03,   138.416E-03,   11.1786E-03
C:/temp/dataset/6/11_12.odb,Step-1,Increment      1: Step Time =    1.000,"PART-1-1",            14,           15.,         -12.5,            0.,NA,NA,"",   438.656E-03,  -422.020E-03,   119.658E-03,   8.86246E-03
C:/temp/dataset/6/11_12.odb,Step-1,Increment      1: Step Time =    1.000,"PART-1-1",            15,           15.,         -3.75,            0.,NA,NA,"",   447.085E-03,  -437.413E-03,   92.4895E-03,   1.68381E-03
C:/temp/dataset/6/11_12.odb,Step-1,Increment      1: Step Time =    1.000,"PART-1-1",            16,           15.,            5.,            0.,NA,NA,"",   457.356E-03,  -448.559E-03,   89.2724E-03,   15.6528E-06
C:/temp/dataset/6/11_12.odb,Step-1,Increment      1: Step Time =    1.000,"PART-1-1",            17,           10.,            5.,            0.,NA,NA,"",   455.659E-03,  -448.372E-03,   81.1607E-03,   154.846E-06
C:/temp/dataset/6/11_12.odb,Step-1,Increment      1: Step Time =    1.000,"PART-1-1",            18,            5.,            5.,            0.,NA,NA,"",   454.450E-03,  -448.506E-03,   73.2597E-03,   566.754E-06
C:/temp/dataset/6/11_12.odb,Step-1,Increment      1: Step Time =    1.000,"PART-1-1",            19,            0.,            5.,            0.,NA,NA,"",   459.862E-03,  -455.810E-03,   60.9092E-03,   2.70985E-03
C:/temp/dataset/6/11_12.odb,Step-1,Increment      1: Step Time =    1.000,"PART-1-1",            20,           -5.,            5.,            0.,NA,NA,"",   474.091E-03,  -473.099E-03,   30.6545E-03,   3.81491E-03
C:/temp/dataset/6/11_12.odb,Step-1,Increment      1: Step Time =    1.000,"PART-1-1",            21,           -5.,         11.25,            0.,NA,NA,"",   552.835E-03,  -552.020E-03,   30.0130E-03,   72.6147E-06
C:/temp/dataset/6/11_12.odb,Step-1,Increment      1: Step Time =    1.000,"PART-1-1",            22,           -5.,          17.5,            0.,NA,NA,"",   625.868E-03,  -625.175E-03,   29.4369E-03,   3.35139E-06
C:/temp/dataset/6/11_12.odb,Step-1,Increment      1: Step Time =    1.000,"PART-1-1",            23,           -5.,         23.75,            0.,NA,NA,"",   698.899E-03,  -698.296E-03,   29.0073E-03,   271.155E-09
C:/temp/dataset/6/11_12.odb,Step-1,Increment      1: Step Time =    1.000,"PART-1-1",            24,           -5.,           30.,            0.,NA,NA,"",   771.957E-03,  -771.427E-03,   28.5800E-03,   6.98459E-09
C:/temp/dataset/6/11_12.odb,Step-1,Increment      1: Step Time =    1.000,"PART-1-1",            25,          -10.,           30.,            0.,NA,NA,"",   771.666E-03,  -771.085E-03,  -29.9248E-03,   86.0321E-09
C:/temp/dataset/6/11_12.odb,Step-1,Increment      1: Step Time =    1.000,"PART-1-1",            26,          -15.,           30.,            0.,NA,NA,"",   775.799E-03,  -770.743E-03,  -88.4302E-03,   8.44703E-09
C:/temp/dataset/6/11_12.odb,Step-1,Increment      1: Step Time =    1.000,"PART-1-1",            27,          -15.,          22.5,            0.,NA,NA,"",   688.620E-03,  -682.984E-03,  -87.9176E-03,   342.826E-09
C:/temp/dataset/6/11_12.odb,Step-1,Increment      1: Step Time =    1.000,"PART-1-1",            28,          -15.,           15.,            0.,NA,NA,"",   601.587E-03,  -595.207E-03,  -87.3852E-03,   13.7490E-06
C:/temp/dataset/6/11_12.odb,Step-1,Increment      1: Step Time =    1.000,"PART-1-1",            29,          -15.,           7.5,            0.,NA,NA,"",   515.328E-03,  -508.018E-03,  -86.4901E-03,   63.9720E-06
C:/temp/dataset/6/11_12.odb,Step-1,Increment      1: Step Time =    1.000,"PART-1-1",            30,          -15.,            0.,            0.,NA,NA,"",   433.105E-03,  -423.574E-03,  -90.3595E-03,   1.92506E-03
C:/temp/dataset/6/11_12.odb,Step-1,Increment      1: Step Time =    1.000,"PART-1-1",            31,          -15.,          -7.5,            0.,NA,NA,"",   330.658E-03,  -313.108E-03,  -106.293E-03,   1.61961E-03
C:/temp/dataset/6/11_12.odb,Step-1,Increment      1: Step Time =    1.000,"PART-1-1",            32,          -15.,          -15.,            0.,NA,NA,"",   199.720E-03,  -174.522E-03,  -97.1089E-03,   4.00038E-03
C:/temp/dataset/6/11_12.odb,Step-1,Increment      1: Step Time =    1.000,"PART-1-1",            33,          -15.,         -22.5,            0.,NA,NA,"",   90.9932E-03,  -70.5243E-03,  -57.4987E-03,   6.65275E-03
C:/temp/dataset/6/11_12.odb,Step-1,Increment      1: Step Time =    1.000,"PART-1-1",            34,           2.5,           -5.,            0.,NA,NA,"",   421.248E-03,  -416.550E-03,   62.7390E-03,   4.69323E-03
C:/temp/dataset/6/11_12.odb,Step-1,Increment      1: Step Time =    1.000,"PART-1-1",            35,            5.,      -7.51250,            0.,NA,NA,"",   429.855E-03,  -427.304E-03,   46.7645E-03,   7.09378E-03
C:/temp/dataset/6/11_12.odb,Step-1,Increment      1: Step Time =    1.000,"PART-1-1",            36,            5.,      -12.5375,            0.,NA,NA,"",   390.941E-03,  -390.904E-03,   5.33156E-03,   11.0849E-03
C:/temp/dataset/6/11_12.odb,Step-1,Increment      1: Step Time =    1.000,"PART-1-1",            37,            5.,      -17.5250,            0.,NA,NA,"",   279.145E-03,  -276.227E-03,  -40.2621E-03,   8.90702E-03
C:/temp/dataset/6/11_12.odb,Step-1,Increment      1: Step Time =    1.000,"PART-1-1",            38,           2.5,          -20.,            0.,NA,NA,"",   107.293E-03,  -106.986E-03,  -8.11726E-03,   15.1823E-03
C:/temp/dataset/6/11_12.odb,Step-1,Increment      1: Step Time =    1.000,"PART-1-1",            39,          -2.5,          -20.,            0.,NA,NA,"",   80.7099E-03,  -80.0776E-03,   10.0833E-03,   2.29426E-03
C:/temp/dataset/6/11_12.odb,Step-1,Increment      1: Step Time =    1.000,"PART-1-1",            40,           -5.,      -17.4875,            0.,NA,NA,"",   135.052E-03,  -127.471E-03,   44.6126E-03,   6.06150E-03
C:/temp/dataset/6/11_12.odb,Step-1,Increment      1: Step Time =    1.000,"PART-1-1",            41,           -5.,      -12.4625,            0.,NA,NA,"",   225.954E-03,  -218.801E-03,   56.4004E-03,   1.05373E-03
C:/temp/dataset/6/11_12.odb,Step-1,Increment      1: Step Time =    1.000,"PART-1-1",            42,           -5.,      -7.47500,            0.,NA,NA,"",   321.106E-03,  -316.704E-03,   52.9876E-03,   3.26282E-03
C:/temp/dataset/6/11_12.odb,Step-1,Increment      1: Step Time =    1.000,"PART-1-1",            43,          -2.5,           -5.,            0.,NA,NA,"",   396.810E-03,  -393.948E-03,   47.5706E-03,   7.16181E-03
C:/temp/dataset/6/11_12.odb,Step-1,Increment      1: Step Time =    1.000,"PART-1-1",            44,          12.5,          -30.,            0.,NA,NA,"",            0.,  -9.59094E-39,   18.7590E-39,   8.62626E-03
C:/temp/dataset/6/11_12.odb,Step-1,Increment      1: Step Time =    1.000,"PART-1-1",            45,           10.,          -30.,            0.,NA,NA,"",            0.,  -1.73417E-39,   3.62489E-39,   5.12169E-03
C:/temp/dataset/6/11_12.odb,Step-1,Increment      1: Step Time =    1.000,"PART-1-1",            46,           7.5,          -30.,            0.,NA,NA,"",            0.,  -4.57755E-39,  -3.06302E-39,   5.03528E-03
C:/temp/dataset/6/11_12.odb,Step-1,Increment      1: Step Time =    1.000,"PART-1-1",            47,            5.,          -30.,            0.,NA,NA,"",            0.,  -6.20828E-39,  -3.11259E-39,   7.28870E-03
C:/temp/dataset/6/11_12.odb,Step-1,Increment      1: Step Time =    1.000,"PART-1-1",            48,           2.5,          -30.,            0.,NA,NA,"",            0.,  -7.65908E-39,  -3.09149E-39,   8.71129E-03
C:/temp/dataset/6/11_12.odb,Step-1,Increment      1: Step Time =    1.000,"PART-1-1",            49,            0.,          -30.,            0.,NA,NA,"",            0.,  -9.21424E-39,  -8.95031E-39,   8.88872E-03
C:/temp/dataset/6/11_12.odb,Step-1,Increment      1: Step Time =    1.000,"PART-1-1",            50,          -2.5,          -30.,            0.,NA,NA,"",            0.,  -6.98492E-39,   1.53135E-39,   7.95436E-03
C:/temp/dataset/6/11_12.odb,Step-1,Increment      1: Step Time =    1.000,"PART-1-1",            51,           -5.,          -30.,            0.,NA,NA,"",            0.,  -5.70919E-39,   1.70581E-39,   6.30013E-03
C:/temp/dataset/6/11_12.odb,Step-1,Increment      1: Step Time =    1.000,"PART-1-1",            52,          -7.5,          -30.,            0.,NA,NA,"",            0.,  -3.70024E-39,   209.103E-42,   4.66716E-03
C:/temp/dataset/6/11_12.odb,Step-1,Increment      1: Step Time =    1.000,"PART-1-1",            53,          -10.,          -30.,            0.,NA,NA,"",            0.,  -4.35038E-39,  -6.52075E-39,   4.26080E-03
C:/temp/dataset/6/11_12.odb,Step-1,Increment      1: Step Time =    1.000,"PART-1-1",            54,         -12.5,          -30.,            0.,NA,NA,"",            0.,  -4.66743E-39,  -7.33799E-39,   5.01306E-03
C:/temp/dataset/6/11_12.odb,Step-1,Increment      1: Step Time =    1.000,"PART-1-1",            55,           15.,      -23.4375,            0.,NA,NA,"",   177.987E-03,  -137.885E-03,   112.548E-03,   14.8479E-03
C:/temp/dataset/6/11_12.odb,Step-1,Increment      1: Step Time =    1.000,"PART-1-1",            56,           15.,       -25.625,            0.,NA,NA,"",   117.276E-03,  -83.8397E-03,   82.0030E-03,   16.7630E-03
C:/temp/dataset/6/11_12.odb,Step-1,Increment      1: Step Time =    1.000,"PART-1-1",            57,           15.,      -27.8125,            0.,NA,NA,"",   63.5903E-03,  -42.6911E-03,   47.1295E-03,   21.3479E-03
C:/temp/dataset/6/11_12.odb,Step-1,Increment      1: Step Time =    1.000,"PART-1-1",            58,           15.,      -14.6875,            0.,NA,NA,"",   431.657E-03,  -409.758E-03,   135.742E-03,   12.9965E-03
C:/temp/dataset/6/11_12.odb,Step-1,Increment      1: Step Time =    1.000,"PART-1-1",            59,           15.,       -16.875,            0.,NA,NA,"",   392.983E-03,  -365.232E-03,   145.058E-03,   10.6923E-03
C:/temp/dataset/6/11_12.odb,Step-1,Increment      1: Step Time =    1.000,"PART-1-1",            60,           15.,      -19.0625,            0.,NA,NA,"",   335.833E-03,  -302.535E-03,   145.796E-03,   11.7379E-03
C:/temp/dataset/6/11_12.odb,Step-1,Increment      1: Step Time =    1.000,"PART-1-1",            61,           15.,       -5.9375,            0.,NA,NA,"",   444.755E-03,  -434.066E-03,   96.9238E-03,   2.85979E-03
C:/temp/dataset/6/11_12.odb,Step-1,Increment      1: Step Time =    1.000,"PART-1-1",            62,           15.,        -8.125,            0.,NA,NA,"",   441.013E-03,  -428.688E-03,   103.532E-03,   3.94607E-03
C:/temp/dataset/6/11_12.odb,Step-1,Increment      1: Step Time =    1.000,"PART-1-1",            63,           15.,      -10.3125,            0.,NA,NA,"",   436.010E-03,  -421.355E-03,   112.091E-03,   4.95220E-03
C:/temp/dataset/6/11_12.odb,Step-1,Increment      1: Step Time =    1.000,"PART-1-1",            64,           15.,        2.8125,            0.,NA,NA,"",   454.123E-03,  -445.265E-03,   89.2568E-03,   22.0153E-06
C:/temp/dataset/6/11_12.odb,Step-1,Increment      1: Step Time =    1.000,"PART-1-1",            65,           15.,      625.E-03,            0.,NA,NA,"",   451.275E-03,  -442.331E-03,   89.4031E-03,   232.742E-06
C:/temp/dataset/6/11_12.odb,Step-1,Increment      1: Step Time =    1.000,"PART-1-1",            66,           15.,       -1.5625,            0.,NA,NA,"",   448.994E-03,  -439.835E-03,   90.2261E-03,   762.327E-06
C:/temp/dataset/6/11_12.odb,Step-1,Increment      1: Step Time =    1.000,"PART-1-1",            67,          12.5,            5.,            0.,NA,NA,"",   456.626E-03,  -448.578E-03,   85.3518E-03,   24.7050E-06
C:/temp/dataset/6/11_12.odb,Step-1,Increment      1: Step Time =    1.000,"PART-1-1",            68,           7.5,            5.,            0.,NA,NA,"",   454.627E-03,  -448.040E-03,   77.1110E-03,   64.6717E-06
C:/temp/dataset/6/11_12.odb,Step-1,Increment      1: Step Time =    1.000,"PART-1-1",            69,           2.5,            5.,            0.,NA,NA,"",   456.100E-03,  -450.930E-03,   68.4845E-03,   1.62340E-03
C:/temp/dataset/6/11_12.odb,Step-1,Increment      1: Step Time =    1.000,"PART-1-1",            70,          -2.5,            5.,            0.,NA,NA,"",   465.428E-03,  -462.874E-03,   48.6851E-03,   3.71738E-03
C:/temp/dataset/6/11_12.odb,Step-1,Increment      1: Step Time =    1.000,"PART-1-1",            71,           -5.,       9.16667,            0.,NA,NA,"",   528.279E-03,  -527.405E-03,   30.3735E-03,   182.925E-06
C:/temp/dataset/6/11_12.odb,Step-1,Increment      1: Step Time =    1.000,"PART-1-1",            72,           -5.,       7.08333,            0.,NA,NA,"",   502.993E-03,  -502.038E-03,   30.9830E-03,   882.101E-06
C:/temp/dataset/6/11_12.odb,Step-1,Increment      1: Step Time =    1.000,"PART-1-1",            73,           -5.,       15.4167,            0.,NA,NA,"",   601.536E-03,  -600.808E-03,   29.5912E-03,   11.6181E-06
C:/temp/dataset/6/11_12.odb,Step-1,Increment      1: Step Time =    1.000,"PART-1-1",            74,           -5.,       13.3333,            0.,NA,NA,"",   577.202E-03,  -576.434E-03,   29.7737E-03,   34.2309E-06
C:/temp/dataset/6/11_12.odb,Step-1,Increment      1: Step Time =    1.000,"PART-1-1",            75,           -5.,       21.6667,            0.,NA,NA,"",   674.551E-03,  -673.920E-03,   29.1493E-03,   381.867E-09
C:/temp/dataset/6/11_12.odb,Step-1,Increment      1: Step Time =    1.000,"PART-1-1",            76,           -5.,       19.5833,            0.,NA,NA,"",   650.207E-03,  -649.546E-03,   29.2917E-03,   401.409E-09
C:/temp/dataset/6/11_12.odb,Step-1,Increment      1: Step Time =    1.000,"PART-1-1",            77,           -5.,       27.9167,            0.,NA,NA,"",   747.602E-03,  -747.050E-03,   28.7226E-03,   35.3229E-09
C:/temp/dataset/6/11_12.odb,Step-1,Increment      1: Step Time =    1.000,"PART-1-1",            78,           -5.,       25.8333,            0.,NA,NA,"",   723.249E-03,  -722.673E-03,   28.8651E-03,   134.826E-09
C:/temp/dataset/6/11_12.odb,Step-1,Increment      1: Step Time =    1.000,"PART-1-1",            79,          -7.5,           30.,            0.,NA,NA,"",   771.256E-03,  -771.256E-03,  -672.404E-06,   41.0291E-09
C:/temp/dataset/6/11_12.odb,Step-1,Increment      1: Step Time =    1.000,"PART-1-1",            80,         -12.5,           30.,            0.,NA,NA,"",   773.182E-03,  -770.914E-03,  -59.1775E-03,   38.9410E-09
C:/temp/dataset/6/11_12.odb,Step-1,Increment      1: Step Time =    1.000,"PART-1-1",            81,          -15.,           25.,            0.,NA,NA,"",   717.664E-03,  -712.238E-03,  -88.0882E-03,   185.880E-09
C:/temp/dataset/6/11_12.odb,Step-1,Increment      1: Step Time =    1.000,"PART-1-1",            82,          -15.,          27.5,            0.,NA,NA,"",   746.725E-03,  -741.490E-03,  -88.2591E-03,   50.8695E-09
C:/temp/dataset/6/11_12.odb,Step-1,Increment      1: Step Time =    1.000,"PART-1-1",            83,          -15.,          17.5,            0.,NA,NA,"",   630.580E-03,  -624.469E-03,  -87.5731E-03,   2.83187E-06
C:/temp/dataset/6/11_12.odb,Step-1,Increment      1: Step Time =    1.000,"PART-1-1",            84,          -15.,           20.,            0.,NA,NA,"",   659.592E-03,  -653.729E-03,  -87.7469E-03,   211.558E-09
C:/temp/dataset/6/11_12.odb,Step-1,Increment      1: Step Time =    1.000,"PART-1-1",            85,          -15.,           10.,            0.,NA,NA,"",   543.803E-03,  -536.823E-03,  -86.8486E-03,   85.1568E-06
C:/temp/dataset/6/11_12.odb,Step-1,Increment      1: Step Time =    1.000,"PART-1-1",            86,          -15.,          12.5,            0.,NA,NA,"",   572.634E-03,  -565.962E-03,  -87.1566E-03,   41.0613E-06
C:/temp/dataset/6/11_12.odb,Step-1,Increment      1: Step Time =    1.000,"PART-1-1",            87,          -15.,           2.5,            0.,NA,NA,"",   460.446E-03,  -452.081E-03,  -87.3672E-03,   918.707E-06
C:/temp/dataset/6/11_12.odb,Step-1,Increment      1: Step Time =    1.000,"PART-1-1",            88,          -15.,            5.,            0.,NA,NA,"",   487.536E-03,  -479.819E-03,  -86.4001E-03,   221.098E-06
C:/temp/dataset/6/11_12.odb,Step-1,Increment      1: Step Time =    1.000,"PART-1-1",            89,          -15.,           -5.,            0.,NA,NA,"",   369.588E-03,  -355.353E-03,  -101.585E-03,   2.63711E-03
C:/temp/dataset/6/11_12.odb,Step-1,Increment      1: Step Time =    1.000,"PART-1-1",            90,          -15.,          -2.5,            0.,NA,NA,"",   403.516E-03,  -392.052E-03,  -95.5031E-03,   2.73925E-03
C:/temp/dataset/6/11_12.odb,Step-1,Increment      1: Step Time =    1.000,"PART-1-1",            91,          -15.,         -12.5,            0.,NA,NA,"",   243.393E-03,  -219.832E-03,  -104.471E-03,   2.15897E-03
C:/temp/dataset/6/11_12.odb,Step-1,Increment      1: Step Time =    1.000,"PART-1-1",            92,          -15.,          -10.,            0.,NA,NA,"",   287.779E-03,  -266.958E-03,  -107.471E-03,   286.966E-06
C:/temp/dataset/6/11_12.odb,Step-1,Increment      1: Step Time =    1.000,"PART-1-1",            93,          -15.,          -20.,            0.,NA,NA,"",   122.512E-03,  -98.9144E-03,  -72.2844E-03,   6.30317E-03
C:/temp/dataset/6/11_12.odb,Step-1,Increment      1: Step Time =    1.000,"PART-1-1",            94,          -15.,         -17.5,            0.,NA,NA,"",   158.901E-03,  -133.628E-03,  -85.9843E-03,   5.48487E-03
C:/temp/dataset/6/11_12.odb,Step-1,Increment      1: Step Time =    1.000,"PART-1-1",            95,          -15.,         -27.5,            0.,NA,NA,"",   35.6624E-03,  -25.0073E-03,  -25.4251E-03,   9.25934E-03
C:/temp/dataset/6/11_12.odb,Step-1,Increment      1: Step Time =    1.000,"PART-1-1",            96,          -15.,          -25.,            0.,NA,NA,"",   62.9299E-03,  -46.6087E-03,  -42.2825E-03,   6.84811E-03
C:/temp/dataset/6/11_12.odb,Step-1,Increment      1: Step Time =    1.000,"PART-1-1",            97,       13.0047,      -3.80353,            0.,NA,NA,"",   447.306E-03,  -438.530E-03,   88.1719E-03,   1.78286E-03
C:/temp/dataset/6/11_12.odb,Step-1,Increment      1: Step Time =    1.000,"PART-1-1",            98,       6.97971,      -7.55833,            0.,NA,NA,"",   435.815E-03,  -432.335E-03,   54.9654E-03,   4.43925E-03
C:/temp/dataset/6/11_12.odb,Step-1,Increment      1: Step Time =    1.000,"PART-1-1",            99,       6.96639,      -10.0829,            0.,NA,NA,"",   424.237E-03,  -421.878E-03,   44.6806E-03,   5.66538E-03
C:/temp/dataset/6/11_12.odb,Step-1,Increment      1: Step Time =    1.000,"PART-1-1",           100,       12.9900,      -12.5465,            0.,NA,NA,"",   431.291E-03,  -417.440E-03,   108.423E-03,   7.31591E-03
C:/temp/dataset/6/11_12.odb,Step-1,Increment      1: Step Time =    1.000,"PART-1-1",           101,       6.90028,      -17.1420,            0.,NA,NA,"",   296.872E-03,  -296.722E-03,   9.43975E-03,   10.7944E-03
C:/temp/dataset/6/11_12.odb,Step-1,Increment      1: Step Time =    1.000,"PART-1-1",           102,       7.03871,      -19.0570,            0.,NA,NA,"",   226.127E-03,  -225.998E-03,   7.65133E-03,   19.1556E-03
C:/temp/dataset/6/11_12.odb,Step-1,Increment      1: Step Time =    1.000,"PART-1-1",           103,       5.31709,      -21.2647,            0.,NA,NA,"",   134.512E-03,  -132.655E-03,  -22.2721E-03,   11.8457E-03
C:/temp/dataset/6/11_12.odb,Step-1,Increment      1: Step Time =    1.000,"PART-1-1",           104,      -4.83361,      -22.6144,            0.,NA,NA,"",   69.3420E-03,  -68.3052E-03,   11.9463E-03,   7.23278E-03
C:/temp/dataset/6/11_12.odb,Step-1,Increment      1: Step Time =    1.000,"PART-1-1",           105,      -7.46484,      -17.6587,            0.,NA,NA,"",   122.476E-03,  -122.042E-03,   10.3018E-03,   4.61507E-03
C:/temp/dataset/6/11_12.odb,Step-1,Increment      1: Step Time =    1.000,"PART-1-1",           106,      -12.5283,      -27.3245,            0.,NA,NA,"",   23.6851E-03,  -20.1425E-03,  -12.4605E-03,   6.70116E-03
C:/temp/dataset/6/11_12.odb,Step-1,Increment      1: Step Time =    1.000,"PART-1-1",           107,      -12.4870,      -17.6221,            0.,NA,NA,"",   136.502E-03,  -126.971E-03,  -50.1113E-03,   3.71547E-03
C:/temp/dataset/6/11_12.odb,Step-1,Increment      1: Step Time =    1.000,"PART-1-1",           108,      -7.32043,      -12.6401,            0.,NA,NA,"",   214.929E-03,  -214.331E-03,   16.0256E-03,   2.36422E-03
C:/temp/dataset/6/11_12.odb,Step-1,Increment      1: Step Time =    1.000,"PART-1-1",           109,      -7.14644,      -8.03697,            0.,NA,NA,"",   306.266E-03,  -305.856E-03,   15.8389E-03,   3.81643E-03
C:/temp/dataset/6/11_12.odb,Step-1,Increment      1: Step Time =    1.000,"PART-1-1",           110,      -12.6601,       4.88622,            0.,NA,NA,"",   482.488E-03,  -478.820E-03,  -59.3808E-03,   618.760E-06
C:/temp/dataset/6/11_12.odb,Step-1,Increment      1: Step Time =    1.000,"PART-1-1",           111,      -13.0978,       12.5399,            0.,NA,NA,"",   570.252E-03,  -566.539E-03,  -64.9665E-03,   29.2937E-06
C:/temp/dataset/6/11_12.odb,Step-1,Increment      1: Step Time =    1.000,"PART-1-1",           112,      -6.45576,       21.8628,            0.,NA,NA,"",   676.224E-03,  -676.116E-03,   12.1030E-03,   202.450E-09
C:/temp/dataset/6/11_12.odb,Step-1,Increment      1: Step Time =    1.000,"PART-1-1",           113,      -7.28884,       25.7044,            0.,NA,NA,"",   721.011E-03,  -721.008E-03,   2.09244E-03,   109.784E-09
C:/temp/dataset/6/11_12.odb,Step-1,Increment      1: Step Time =    1.000,"PART-1-1",           114,      -9.90518,       27.6474,            0.,NA,NA,"",   744.115E-03,  -743.563E-03,  -28.6542E-03,   61.5216E-09
C:/temp/dataset/6/11_12.odb,Step-1,Increment      1: Step Time =    1.000,"PART-1-1",           115,      -3.01211,      -3.13168,            0.,NA,NA,"",   405.483E-03,  -402.612E-03,   48.1623E-03,   5.31176E-03
C:/temp/dataset/6/11_12.odb,Step-1,Increment      1: Step Time =    1.000,"PART-1-1",           116,      -2.19169,       3.00836,            0.,NA,NA,"",   452.198E-03,  -449.125E-03,   52.6295E-03,   1.88645E-03
C:/temp/dataset/6/11_12.odb,Step-1,Increment      1: Step Time =    1.000,"PART-1-1",           117,       1.85193,      -2.77696,            0.,NA,NA,"",   425.067E-03,  -420.021E-03,   65.3040E-03,   3.01820E-03
C:/temp/dataset/6/11_12.odb,Step-1,Increment      1: Step Time =    1.000,"PART-1-1",           118,       2.83229,       2.22691,            0.,NA,NA,"",   447.083E-03,  -441.540E-03,   70.1811E-03,   1.50777E-03
C:/temp/dataset/6/11_12.odb,Step-1,Increment      1: Step Time =    1.000,"PART-1-1",           119,       7.74921,       3.07964,            0.,NA,NA,"",   451.311E-03,  -444.638E-03,   77.3200E-03,   429.559E-06
C:/temp/dataset/6/11_12.odb,Step-1,Increment      1: Step Time =    1.000,"PART-1-1",           120,      -2.47342,      -22.6017,            0.,NA,NA,"",   74.7987E-03,  -74.5871E-03,   5.62232E-03,   7.87200E-03
C:/temp/dataset/6/11_12.odb,Step-1,Increment      1: Step Time =    1.000,"PART-1-1",           121,      -7.48266,       20.3798,            0.,NA,NA,"",   658.694E-03,  -658.694E-03,   188.960E-06,   1.21138E-06
C:/temp/dataset/6/11_12.odb,Step-1,Increment      1: Step Time =    1.000,"PART-1-1",           122,      -7.10993,       13.1351,            0.,NA,NA,"",   574.004E-03,  -573.982E-03,   5.04242E-03,   28.8689E-06
C:/temp/dataset/6/11_12.odb,Step-1,Increment      1: Step Time =    1.000,"PART-1-1",           123,      -6.64156,       6.82435,            0.,NA,NA,"",   499.299E-03,  -499.177E-03,   11.0285E-03,   739.141E-06
C:/temp/dataset/6/11_12.odb,Step-1,Increment      1: Step Time =    1.000,"PART-1-1",           124,      -12.9641,      -2.37512,            0.,NA,NA,"",   401.542E-03,  -395.861E-03,  -67.3026E-03,   1.48758E-03
C:/temp/dataset/6/11_12.odb,Step-1,Increment      1: Step Time =    1.000,"PART-1-1",           125,      -12.1317,      -9.84573,            0.,NA,NA,"",   276.339E-03,  -269.969E-03,  -58.9930E-03,   2.79667E-03
C:/temp/dataset/6/11_12.odb,Step-1,Increment      1: Step Time =    1.000,"PART-1-1",           126,       4.04132,      -2.67712,            0.,NA,NA,"",   431.104E-03,  -425.736E-03,   67.8192E-03,   3.02872E-03
C:/temp/dataset/6/11_12.odb,Step-1,Increment      1: Step Time =    1.000,"PART-1-1",           127,       6.95362,      -12.5367,            0.,NA,NA,"",   400.048E-03,  -398.764E-03,   32.0243E-03,   6.07920E-03
C:/temp/dataset/6/11_12.odb,Step-1,Increment      1: Step Time =    1.000,"PART-1-1",           128,       6.92458,      -14.9216,            0.,NA,NA,"",   357.683E-03,  -357.155E-03,   19.4181E-03,   5.96979E-03
C:/temp/dataset/6/11_12.odb,Step-1,Increment      1: Step Time =    1.000,"PART-1-1",           129,       12.9089,      -21.3671,            0.,NA,NA,"",   210.444E-03,  -196.141E-03,   76.2572E-03,   15.4631E-03
C:/temp/dataset/6/11_12.odb,Step-1,Increment      1: Step Time =    1.000,"PART-1-1",           130,   283.131E-03,      -22.8786,            0.,NA,NA,"",   83.4912E-03,  -83.3245E-03,  -5.27362E-03,   9.37484E-03
C:/temp/dataset/6/11_12.odb,Step-1,Increment      1: Step Time =    1.000,"PART-1-1",           131,      -12.9776,      -22.4214,            0.,NA,NA,"",   76.2075E-03,  -66.2668E-03,  -37.6337E-03,   4.77819E-03
C:/temp/dataset/6/11_12.odb,Step-1,Increment      1: Step Time =    1.000,"PART-1-1",           132,      -7.42030,      -15.1083,            0.,NA,NA,"",   167.660E-03,  -167.154E-03,   13.0234E-03,   3.12185E-03
C:/temp/dataset/6/11_12.odb,Step-1,Increment      1: Step Time =    1.000,"PART-1-1",           133,      -7.18486,      -10.2642,            0.,NA,NA,"",   261.900E-03,  -261.332E-03,   17.2316E-03,   2.41584E-03
C:/temp/dataset/6/11_12.odb,Step-1,Increment      1: Step Time =    1.000,"PART-1-1",           134,      -7.33974,      -5.93881,            0.,NA,NA,"",   348.005E-03,  -347.865E-03,   9.84866E-03,   3.86720E-03
C:/temp/dataset/6/11_12.odb,Step-1,Increment      1: Step Time =    1.000,"PART-1-1",           135,  -533.729E-03,      -2.94296,            0.,NA,NA,"",   416.226E-03,  -412.068E-03,   58.6857E-03,   3.95885E-03
C:/temp/dataset/6/11_12.odb,Step-1,Increment      1: Step Time =    1.000,"PART-1-1",           136,       10.2172,      -28.0250,            0.,NA,NA,"",   20.4947E-03,  -19.6428E-03,   5.84751E-03,   7.72615E-03
C:/temp/dataset/6/11_12.odb,Step-1,Increment      1: Step Time =    1.000,"PART-1-1",           137,       7.82196,      -28.0777,            0.,NA,NA,"",   19.5559E-03,  -19.5298E-03,  -1.01122E-03,   6.89220E-03
C:/temp/dataset/6/11_12.odb,Step-1,Increment      1: Step Time =    1.000,"PART-1-1",           138,       5.43540,      -28.0544,            0.,NA,NA,"",   22.5904E-03,  -22.0924E-03,  -4.71750E-03,   8.31765E-03
C:/temp/dataset/6/11_12.odb,Step-1,Increment      1: Step Time =    1.000,"PART-1-1",           139,       2.98405,      -27.8165,            0.,NA,NA,"",   28.3412E-03,  -27.6950E-03,  -6.01725E-03,   9.40166E-03
C:/temp/dataset/6/11_12.odb,Step-1,Increment      1: Step Time =    1.000,"PART-1-1",           140,   324.250E-03,      -27.0908,            0.,NA,NA,"",   37.4585E-03,  -37.1562E-03,  -4.74868E-03,   9.25297E-03
C:/temp/dataset/6/11_12.odb,Step-1,Increment      1: Step Time =    1.000,"PART-1-1",           141,      -2.46293,      -27.5198,            0.,NA,NA,"",   28.7800E-03,  -28.7713E-03,  -706.492E-06,   8.04186E-03
C:/temp/dataset/6/11_12.odb,Step-1,Increment      1: Step Time =    1.000,"PART-1-1",           142,      -4.88996,      -27.5861,            0.,NA,NA,"",   23.6270E-03,  -23.6143E-03,   774.291E-06,   6.75678E-03
C:/temp/dataset/6/11_12.odb,Step-1,Increment      1: Step Time =    1.000,"PART-1-1",           143,      -7.26500,      -27.4866,            0.,NA,NA,"",   19.9793E-03,  -19.9791E-03,  -100.362E-06,   5.30925E-03
C:/temp/dataset/6/11_12.odb,Step-1,Increment      1: Step Time =    1.000,"PART-1-1",           144,      -9.86695,      -26.8928,            0.,NA,NA,"",   22.3495E-03,  -21.8257E-03,  -4.81026E-03,   4.35030E-03
C:/temp/dataset/6/11_12.odb,Step-1,Increment      1: Step Time =    1.000,"PART-1-1",           145,       12.7710,      -23.5898,            0.,NA,NA,"",   134.315E-03,  -120.706E-03,   58.9123E-03,   9.90634E-03
C:/temp/dataset/6/11_12.odb,Step-1,Increment      1: Step Time =    1.000,"PART-1-1",           146,       12.6989,      -25.7990,            0.,NA,NA,"",   76.8081E-03,  -65.8358E-03,   39.5618E-03,   11.6516E-03
C:/temp/dataset/6/11_12.odb,Step-1,Increment      1: Step Time =    1.000,"PART-1-1",           147,       12.6207,      -27.9366,            0.,NA,NA,"",   32.6750E-03,  -26.3275E-03,   19.3523E-03,   13.3407E-03
C:/temp/dataset/6/11_12.odb,Step-1,Increment      1: Step Time =    1.000,"PART-1-1",           148,       12.9983,      -14.8223,            0.,NA,NA,"",   408.647E-03,  -394.172E-03,   107.798E-03,   10.2463E-03
C:/temp/dataset/6/11_12.odb,Step-1,Increment      1: Step Time =    1.000,"PART-1-1",           149,       13.0558,      -17.0719,            0.,NA,NA,"",   358.964E-03,  -343.629E-03,   103.799E-03,   12.2741E-03
C:/temp/dataset/6/11_12.odb,Step-1,Increment      1: Step Time =    1.000,"PART-1-1",           150,       13.1682,      -19.2108,            0.,NA,NA,"",   295.045E-03,  -278.912E-03,   96.2246E-03,   15.2990E-03
C:/temp/dataset/6/11_12.odb,Step-1,Increment      1: Step Time =    1.000,"PART-1-1",           151,       13.0670,      -5.94273,            0.,NA,NA,"",   445.532E-03,  -436.112E-03,   91.1336E-03,   2.49196E-03
C:/temp/dataset/6/11_12.odb,Step-1,Increment      1: Step Time =    1.000,"PART-1-1",           152,       13.0350,      -8.09399,            0.,NA,NA,"",   442.159E-03,  -431.726E-03,   95.4876E-03,   3.29441E-03
C:/temp/dataset/6/11_12.odb,Step-1,Increment      1: Step Time =    1.000,"PART-1-1",           153,       12.9982,      -10.2981,            0.,NA,NA,"",   436.690E-03,  -424.569E-03,   102.172E-03,   5.12578E-03
C:/temp/dataset/6/11_12.odb,Step-1,Increment      1: Step Time =    1.000,"PART-1-1",           154,       12.5107,   556.281E-03,            0.,NA,NA,"",   450.523E-03,  -442.357E-03,   85.3850E-03,   595.630E-06
C:/temp/dataset/6/11_12.odb,Step-1,Increment      1: Step Time =    1.000,"PART-1-1",           155,       12.7702,      -1.64554,            0.,NA,NA,"",   448.637E-03,  -440.262E-03,   86.2801E-03,   1.14193E-03
C:/temp/dataset/6/11_12.odb,Step-1,Increment      1: Step Time =    1.000,"PART-1-1",           156,       10.0517,       2.85834,            0.,NA,NA,"",   452.229E-03,  -444.910E-03,   81.0341E-03,   289.979E-06
C:/temp/dataset/6/11_12.odb,Step-1,Increment      1: Step Time =    1.000,"PART-1-1",           157,       5.39286,       2.85476,            0.,NA,NA,"",   449.781E-03,  -443.647E-03,   74.0280E-03,   924.149E-06
C:/temp/dataset/6/11_12.odb,Step-1,Increment      1: Step Time =    1.000,"PART-1-1",           158,   175.602E-03,       2.90951,            0.,NA,NA,"",   450.360E-03,  -445.884E-03,   63.3328E-03,   1.59459E-03
C:/temp/dataset/6/11_12.odb,Step-1,Increment      1: Step Time =    1.000,"PART-1-1",           159,      -4.35394,       2.91920,            0.,NA,NA,"",   452.965E-03,  -451.403E-03,   37.5887E-03,   1.22088E-03
C:/temp/dataset/6/11_12.odb,Step-1,Increment      1: Step Time =    1.000,"PART-1-1",           160,      -7.05997,       10.9599,            0.,NA,NA,"",   548.536E-03,  -548.506E-03,   5.77206E-03,   41.3495E-06
C:/temp/dataset/6/11_12.odb,Step-1,Increment      1: Step Time =    1.000,"PART-1-1",           161,      -6.93805,       8.84105,            0.,NA,NA,"",   523.540E-03,  -523.488E-03,   7.32872E-03,   110.442E-06
C:/temp/dataset/6/11_12.odb,Step-1,Increment      1: Step Time =    1.000,"PART-1-1",           162,      -7.28921,       17.6445,            0.,NA,NA,"",   626.715E-03,  -626.710E-03,   2.63906E-03,   5.51260E-06
C:/temp/dataset/6/11_12.odb,Step-1,Increment      1: Step Time =    1.000,"PART-1-1",           163,      -7.17735,       15.3234,            0.,NA,NA,"",   599.586E-03,  -599.572E-03,   4.10575E-03,   15.1510E-06
C:/temp/dataset/6/11_12.odb,Step-1,Increment      1: Step Time =    1.000,"PART-1-1",           164,      -6.93557,       23.5874,            0.,NA,NA,"",   696.290E-03,  -696.261E-03,   6.37091E-03,   57.5215E-09
C:/temp/dataset/6/11_12.odb,Step-1,Increment      1: Step Time =    1.000,"PART-1-1",           165,      -13.1925,       19.7530,            0.,NA,NA,"",   654.358E-03,  -650.962E-03,  -66.5795E-03,   1.46544E-06
C:/temp/dataset/6/11_12.odb,Step-1,Increment      1: Step Time =    1.000,"PART-1-1",           166,      -7.44963,       27.8335,            0.,NA,NA,"",   745.909E-03,  -745.909E-03,   65.3302E-06,   85.1475E-09
C:/temp/dataset/6/11_12.odb,Step-1,Increment      1: Step Time =    1.000,"PART-1-1",           167,      -13.0424,       22.0734,            0.,NA,NA,"",   681.233E-03,  -678.127E-03,  -64.9821E-03,   211.346E-09
C:/temp/dataset/6/11_12.odb,Step-1,Increment      1: Step Time =    1.000,"PART-1-1",           168,      -13.1316,       14.9813,            0.,NA,NA,"",   598.707E-03,  -595.109E-03,  -65.5362E-03,   15.6412E-06
C:/temp/dataset/6/11_12.odb,Step-1,Increment      1: Step Time =    1.000,"PART-1-1",           169,      -13.1727,       17.3972,            0.,NA,NA,"",   626.893E-03,  -623.389E-03,  -66.1854E-03,   5.57063E-06
C:/temp/dataset/6/11_12.odb,Step-1,Increment      1: Step Time =    1.000,"PART-1-1",           170,      -12.8574,       7.53984,            0.,NA,NA,"",   512.304E-03,  -508.563E-03,  -61.8037E-03,   144.360E-06
C:/temp/dataset/6/11_12.odb,Step-1,Increment      1: Step Time =    1.000,"PART-1-1",           171,      -13.0166,       10.0884,            0.,NA,NA,"",   541.716E-03,  -537.941E-03,  -63.8418E-03,   23.6485E-06
C:/temp/dataset/6/11_12.odb,Step-1,Increment      1: Step Time =    1.000,"PART-1-1",           172,      -12.8045,  -118.323E-03,            0.,NA,NA,"",   428.439E-03,  -423.799E-03,  -62.8850E-03,   1.46092E-03
C:/temp/dataset/6/11_12.odb,Step-1,Increment      1: Step Time =    1.000,"PART-1-1",           173,      -12.7039,       2.28772,            0.,NA,NA,"",   454.576E-03,  -450.564E-03,  -60.2603E-03,   1.18888E-03
C:/temp/dataset/6/11_12.odb,Step-1,Increment      1: Step Time =    1.000,"PART-1-1",           174,      -12.8488,      -7.31355,            0.,NA,NA,"",   325.601E-03,  -317.888E-03,  -70.4510E-03,   1.86785E-03
C:/temp/dataset/6/11_12.odb,Step-1,Increment      1: Step Time =    1.000,"PART-1-1",           175,      -12.6051,      -4.81291,            0.,NA,NA,"",   366.619E-03,  -360.828E-03,  -64.9043E-03,   1.44487E-03
C:/temp/dataset/6/11_12.odb,Step-1,Increment      1: Step Time =    1.000,"PART-1-1",           176,      -12.4260,      -15.0682,            0.,NA,NA,"",   178.986E-03,  -169.951E-03,  -56.1471E-03,   3.36608E-03
C:/temp/dataset/6/11_12.odb,Step-1,Increment      1: Step Time =    1.000,"PART-1-1",           177,      -12.3344,      -12.5112,            0.,NA,NA,"",   225.852E-03,  -217.873E-03,  -59.5019E-03,   3.06421E-03
C:/temp/dataset/6/11_12.odb,Step-1,Increment      1: Step Time =    1.000,"PART-1-1",           178,      -12.6598,      -20.1148,            0.,NA,NA,"",   101.868E-03,  -92.0797E-03,  -43.5707E-03,   4.22134E-03
C:/temp/dataset/6/11_12.odb,Step-1,Increment      1: Step Time =    1.000,"PART-1-1",           179,      -8.70618,       22.9331,            0.,NA,NA,"",   688.633E-03,  -688.484E-03,  -14.3018E-03,   218.175E-09
C:/temp/dataset/6/11_12.odb,Step-1,Increment      1: Step Time =    1.000,"PART-1-1",           180,      -9.21222,       15.1634,            0.,NA,NA,"",   597.869E-03,  -597.544E-03,  -19.7177E-03,   17.6783E-06
C:/temp/dataset/6/11_12.odb,Step-1,Increment      1: Step Time =    1.000,"PART-1-1",           181,      -9.55138,       19.8926,            0.,NA,NA,"",   653.291E-03,  -652.850E-03,  -23.9850E-03,   1.99834E-06
C:/temp/dataset/6/11_12.odb,Step-1,Increment      1: Step Time =    1.000,"PART-1-1",           182,      -8.92203,       8.32966,            0.,NA,NA,"",   517.661E-03,  -517.416E-03,  -15.9340E-03,   135.672E-06
C:/temp/dataset/6/11_12.odb,Step-1,Increment      1: Step Time =    1.000,"PART-1-1",           183,      -9.17670,       12.8809,            0.,NA,NA,"",   571.161E-03,  -570.839E-03,  -19.1873E-03,   33.3358E-06
C:/temp/dataset/6/11_12.odb,Step-1,Increment      1: Step Time =    1.000,"PART-1-1",           184,      -9.09923,       10.6117,            0.,NA,NA,"",   544.568E-03,  -544.264E-03,  -18.1775E-03,   46.1213E-06
C:/temp/dataset/6/11_12.odb,Step-1,Increment      1: Step Time =    1.000,"PART-1-1",           185,      -9.30530,       17.5014,            0.,NA,NA,"",   625.241E-03,  -624.890E-03,  -20.9485E-03,   6.89506E-06
C:/temp/dataset/6/11_12.odb,Step-1,Increment      1: Step Time =    1.000,"PART-1-1",           186,      -8.37864,       6.17865,            0.,NA,NA,"",   491.967E-03,  -491.885E-03,  -8.97978E-03,   828.680E-06
C:/temp/dataset/6/11_12.odb,Step-1,Increment      1: Step Time =    1.000,"PART-1-1",           187,       10.9988,      -10.2527,            0.,NA,NA,"",   434.559E-03,  -426.156E-03,   85.0450E-03,   3.78078E-03
C:/temp/dataset/6/11_12.odb,Step-1,Increment      1: Step Time =    1.000,"PART-1-1",           188,       10.8643,      -17.5211,            0.,NA,NA,"",   316.776E-03,  -309.605E-03,   67.0176E-03,   15.2410E-03
C:/temp/dataset/6/11_12.odb,Step-1,Increment      1: Step Time =    1.000,"PART-1-1",           189,       11.0508,      -8.01555,            0.,NA,NA,"",   441.662E-03,  -433.767E-03,   83.1368E-03,   3.32985E-03
C:/temp/dataset/6/11_12.odb,Step-1,Increment      1: Step Time =    1.000,"PART-1-1",           190,       10.6332,      -2.00908,            0.,NA,NA,"",   446.705E-03,  -439.410E-03,   80.3973E-03,   1.71826E-03
C:/temp/dataset/6/11_12.odb,Step-1,Increment      1: Step Time =    1.000,"PART-1-1",           191,       11.1668,      -5.92645,            0.,NA,NA,"",   444.825E-03,  -437.161E-03,   82.2176E-03,   2.84289E-03
C:/temp/dataset/6/11_12.odb,Step-1,Increment      1: Step Time =    1.000,"PART-1-1",           192,       10.9732,      -14.9280,            0.,NA,NA,"",   385.133E-03,  -376.787E-03,   79.7434E-03,   8.57495E-03
C:/temp/dataset/6/11_12.odb,Step-1,Increment      1: Step Time =    1.000,"PART-1-1",           193,       10.5476,      -23.6927,            0.,NA,NA,"",   110.615E-03,  -107.620E-03,   25.5622E-03,   11.4072E-03
C:/temp/dataset/6/11_12.odb,Step-1,Increment      1: Step Time =    1.000,"PART-1-1",           194,       10.5707,      -21.1850,            0.,NA,NA,"",   187.745E-03,  -183.513E-03,   39.6378E-03,   16.9940E-03
C:/temp/dataset/6/11_12.odb,Step-1,Increment      1: Step Time =    1.000,"PART-1-1",           195,       10.9760,      -12.5622,            0.,NA,NA,"",   419.452E-03,  -410.730E-03,   85.0896E-03,   4.22834E-03
C:/temp/dataset/6/11_12.odb,Step-1,Increment      1: Step Time =    1.000,"PART-1-1",           196,       11.6229,      -19.2502,            0.,NA,NA,"",   269.269E-03,  -260.608E-03,   67.7447E-03,   17.3895E-03
C:/temp/dataset/6/11_12.odb,Step-1,Increment      1: Step Time =    1.000,"PART-1-1",           197,       11.1609,      -3.97100,            0.,NA,NA,"",   446.130E-03,  -438.587E-03,   81.6912E-03,   2.30638E-03
C:/temp/dataset/6/11_12.odb,Step-1,Increment      1: Step Time =    1.000,"PART-1-1",           198,      -9.55101,       25.2781,            0.,NA,NA,"",   716.279E-03,  -715.865E-03,  -24.3477E-03,   89.0101E-09
C:/temp/dataset/6/11_12.odb,Step-1,Increment      1: Step Time =    1.000,"PART-1-1",           199,      -6.13353,       2.97524,            0.,NA,NA,"",   454.418E-03,  -453.981E-03,   19.9280E-03,   1.99601E-03
C:/temp/dataset/6/11_12.odb,Step-1,Increment      1: Step Time =    1.000,"PART-1-1",           200,       8.52809,      -18.5145,            0.,NA,NA,"",   258.665E-03,  -256.761E-03,   31.3274E-03,   17.1284E-03
C:/temp/dataset/6/11_12.odb,Step-1,Increment      1: Step Time =    1.000,"PART-1-1",           201,      -9.31256,      -6.57829,            0.,NA,NA,"",   334.487E-03,  -333.990E-03,  -18.2360E-03,   2.96640E-03
C:/temp/dataset/6/11_12.odb,Step-1,Increment      1: Step Time =    1.000,"PART-1-1",           202,      -7.82061,      -4.24854,            0.,NA,NA,"",   376.474E-03,  -376.461E-03,   3.15945E-03,   3.10349E-03
C:/temp/dataset/6/11_12.odb,Step-1,Increment      1: Step Time =    1.000,"PART-1-1",           203,       7.55002,      -20.4955,            0.,NA,NA,"",   177.483E-03,  -177.301E-03,   8.03826E-03,   19.1746E-03
C:/temp/dataset/6/11_12.odb,Step-1,Increment      1: Step Time =    1.000,"PART-1-1",           204,      -9.18944,      -8.43706,            0.,NA,NA,"",   298.574E-03,  -298.165E-03,  -15.6125E-03,   3.48295E-03
C:/temp/dataset/6/11_12.odb,Step-1,Increment      1: Step Time =    1.000,"PART-1-1",           205,      -12.3720,       27.4312,            0.,NA,NA,"",   743.094E-03,  -740.866E-03,  -57.5035E-03,   96.5415E-09
C:/temp/dataset/6/11_12.odb,Step-1,Increment      1: Step Time =    1.000,"PART-1-1",           206,      -10.3791,       22.2070,            0.,NA,NA,"",   680.714E-03,  -679.873E-03,  -33.8271E-03,   417.486E-09
C:/temp/dataset/6/11_12.odb,Step-1,Increment      1: Step Time =    1.000,"PART-1-1",           207,       3.40286,  -884.176E-03,            0.,NA,NA,"",   435.434E-03,  -429.852E-03,   69.4950E-03,   2.42142E-03
C:/temp/dataset/6/11_12.odb,Step-1,Increment      1: Step Time =    1.000,"PART-1-1",           208,       7.88020,       1.44192,            0.,NA,NA,"",   448.117E-03,  -441.471E-03,   76.8863E-03,   909.751E-06
C:/temp/dataset/6/11_12.odb,Step-1,Increment      1: Step Time =    1.000,"PART-1-1",           209,      -1.17287,  -897.893E-03,            0.,NA,NA,"",   426.653E-03,  -422.624E-03,   58.4978E-03,   2.40636E-03
C:/temp/dataset/6/11_12.odb,Step-1,Increment      1: Step Time =    1.000,"PART-1-1",           210,       10.4014,      -25.9274,            0.,NA,NA,"",   57.2123E-03,  -55.4037E-03,   14.2716E-03,   8.57519E-03
C:/temp/dataset/6/11_12.odb,Step-1,Increment      1: Step Time =    1.000,"PART-1-1",           211,       2.00108,      -24.8239,            0.,NA,NA,"",   68.3793E-03,  -67.2801E-03,  -12.2117E-03,   10.9686E-03
C:/temp/dataset/6/11_12.odb,Step-1,Increment      1: Step Time =    1.000,"PART-1-1",           212,      -4.80900,      -25.1606,            0.,NA,NA,"",   47.1409E-03,  -46.8871E-03,   4.88516E-03,   7.08721E-03
C:/temp/dataset/6/11_12.odb,Step-1,Increment      1: Step Time =    1.000,"PART-1-1",           213,      -11.5765,       21.3848,            0.,NA,NA,"",   671.870E-03,  -670.169E-03,  -47.7817E-03,   700.053E-09
C:/temp/dataset/6/11_12.odb,Step-1,Increment      1: Step Time =    1.000,"PART-1-1",           214,      -11.0630,       10.3038,            0.,NA,NA,"",   542.120E-03,  -540.558E-03,  -41.1162E-03,   41.3070E-06
C:/temp/dataset/6/11_12.odb,Step-1,Increment      1: Step Time =    1.000,"PART-1-1",           215,      -10.2832,  -591.021E-03,            0.,NA,NA,"",   420.694E-03,  -419.671E-03,  -29.3204E-03,   1.58253E-03
C:/temp/dataset/6/11_12.odb,Step-1,Increment      1: Step Time =    1.000,"PART-1-1",           216,      -11.1869,      -5.64306,            0.,NA,NA,"",   351.429E-03,  -348.564E-03,  -44.7838E-03,   1.86660E-03
C:/temp/dataset/6/11_12.odb,Step-1,Increment      1: Step Time =    1.000,"PART-1-1",           217,      -9.48237,      -10.3825,            0.,NA,NA,"",   259.896E-03,  -259.229E-03,  -18.6102E-03,   3.32466E-03
C:/temp/dataset/6/11_12.odb,Step-1,Increment      1: Step Time =    1.000,"PART-1-1",           218,      -10.0191,      -20.7277,            0.,NA,NA,"",   81.8609E-03,  -80.5495E-03,  -14.5941E-03,   2.33811E-03
C:/temp/dataset/6/11_12.odb,Step-1,Increment      1: Step Time =    1.000,"PART-1-1",           219,      -12.8377,      -24.8331,            0.,NA,NA,"",   49.5778E-03,  -42.5085E-03,  -25.5146E-03,   5.51547E-03
C:/temp/dataset/6/11_12.odb,Step-1,Increment      1: Step Time =    1.000,"PART-1-1",           220,  -752.185E-03,      -25.0561,            0.,NA,NA,"",   59.2669E-03,  -59.1851E-03,  -3.11170E-03,   9.27997E-03
C:/temp/dataset/6/11_12.odb,Step-1,Increment      1: Step Time =    1.000,"PART-1-1",           221,      -11.3411,      -22.5061,            0.,NA,NA,"",   66.5351E-03,  -62.6313E-03,  -22.4553E-03,   3.28582E-03
C:/temp/dataset/6/11_12.odb,Step-1,Increment      1: Step Time =    1.000,"PART-1-1",           222,       5.90860,      -26.1342,            0.,NA,NA,"",   49.4229E-03,  -48.5508E-03,  -9.24358E-03,   8.85524E-03
C:/temp/dataset/6/11_12.odb,Step-1,Increment      1: Step Time =    1.000,"PART-1-1",           223,       3.81352,      -25.8758,            0.,NA,NA,"",   54.9456E-03,  -53.5460E-03,  -12.3224E-03,   10.3095E-03
C:/temp/dataset/6/11_12.odb,Step-1,Increment      1: Step Time =    1.000,"PART-1-1",           224,      -6.87266,      -25.1947,            0.,NA,NA,"",   40.8752E-03,  -40.7589E-03,   3.08250E-03,   5.23582E-03
C:/temp/dataset/6/11_12.odb,Step-1,Increment      1: Step Time =    1.000,"PART-1-1",           225,       9.77381,   336.875E-03,            0.,NA,NA,"",   448.203E-03,  -441.076E-03,   79.6140E-03,   991.873E-06
C:/temp/dataset/6/11_12.odb,Step-1,Increment      1: Step Time =    1.000,"PART-1-1",           226,       4.59800,   29.7464E-03,            0.,NA,NA,"",   440.512E-03,  -434.651E-03,   71.6183E-03,   2.02363E-03
C:/temp/dataset/6/11_12.odb,Step-1,Increment      1: Step Time =    1.000,"PART-1-1",           227,      -11.1551,       12.6912,            0.,NA,NA,"",   570.028E-03,  -568.455E-03,  -42.3158E-03,   32.1859E-06
C:/temp/dataset/6/11_12.odb,Step-1,Increment      1: Step Time =    1.000,"PART-1-1",           228,      -11.2689,       17.3859,            0.,NA,NA,"",   624.938E-03,  -623.393E-03,  -43.9158E-03,   7.09209E-06
C:/temp/dataset/6/11_12.odb,Step-1,Increment      1: Step Time =    1.000,"PART-1-1",           229,      -11.2102,       15.0558,            0.,NA,NA,"",   597.679E-03,  -596.124E-03,  -43.0856E-03,   17.5927E-06
C:/temp/dataset/6/11_12.odb,Step-1,Increment      1: Step Time =    1.000,"PART-1-1",           230,      -10.8139,       7.79620,            0.,NA,NA,"",   512.842E-03,  -511.434E-03,  -37.9765E-03,   190.374E-06
C:/temp/dataset/6/11_12.odb,Step-1,Increment      1: Step Time =    1.000,"PART-1-1",           231,      -10.1648,       4.85487,            0.,NA,NA,"",   478.813E-03,  -477.910E-03,  -29.3942E-03,   954.703E-06
C:/temp/dataset/6/11_12.odb,Step-1,Increment      1: Step Time =    1.000,"PART-1-1",           232,      -10.4473,       2.01195,            0.,NA,NA,"",   448.762E-03,  -447.641E-03,  -31.7037E-03,   1.60525E-03
C:/temp/dataset/6/11_12.odb,Step-1,Increment      1: Step Time =    1.000,"PART-1-1",           233,      -10.4810,      -3.59789,            0.,NA,NA,"",   382.983E-03,  -381.521E-03,  -33.4377E-03,   1.37276E-03
C:/temp/dataset/6/11_12.odb,Step-1,Increment      1: Step Time =    1.000,"PART-1-1",           234,      -9.89141,      -15.1395,            0.,NA,NA,"",   167.905E-03,  -166.588E-03,  -20.9862E-03,   3.36457E-03
C:/temp/dataset/6/11_12.odb,Step-1,Increment      1: Step Time =    1.000,"PART-1-1",           235,      -9.95744,      -17.7636,            0.,NA,NA,"",   122.647E-03,  -121.194E-03,  -18.8254E-03,   3.44530E-03
C:/temp/dataset/6/11_12.odb,Step-1,Increment      1: Step Time =    1.000,"PART-1-1",           236,      -3.63694,      -1.16253,            0.,NA,NA,"",   419.886E-03,  -417.390E-03,   45.7158E-03,   2.05975E-03
C:/temp/dataset/6/11_12.odb,Step-1,Increment      1: Step Time =    1.000,"PART-1-1",           237,      -7.00580,      -22.7773,            0.,NA,NA,"",   61.5216E-03,  -61.0914E-03,   7.26301E-03,   3.67386E-03
C:/temp/dataset/6/11_12.odb,Step-1,Increment      1: Step Time =    1.000,"PART-1-1",           238,       7.08723,      -4.67483,            0.,NA,NA,"",   438.170E-03,  -433.439E-03,   64.2150E-03,   4.54517E-03
C:/temp/dataset/6/11_12.odb,Step-1,Increment      1: Step Time =    1.000,"PART-1-1",           239,       8.96532,      -10.1697,            0.,NA,NA,"",   429.861E-03,  -424.992E-03,   64.5142E-03,   3.71425E-03
C:/temp/dataset/6/11_12.odb,Step-1,Increment      1: Step Time =    1.000,"PART-1-1",           240,       8.99874,      -7.82238,            0.,NA,NA,"",   439.315E-03,  -434.019E-03,   68.0056E-03,   3.72734E-03
C:/temp/dataset/6/11_12.odb,Step-1,Increment      1: Step Time =    1.000,"PART-1-1",           241,       8.96760,      -14.8663,            0.,NA,NA,"",   369.948E-03,  -366.263E-03,   52.0856E-03,   6.73512E-03
C:/temp/dataset/6/11_12.odb,Step-1,Increment      1: Step Time =    1.000,"PART-1-1",           242,      -12.0836,       24.5335,            0.,NA,NA,"",   709.033E-03,  -706.979E-03,  -53.9305E-03,   101.650E-09
C:/temp/dataset/6/11_12.odb,Step-1,Increment      1: Step Time =    1.000,"PART-1-1",           243,       9.21542,      -5.66363,            0.,NA,NA,"",   442.615E-03,  -436.775E-03,   71.6620E-03,   3.51770E-03
C:/temp/dataset/6/11_12.odb,Step-1,Increment      1: Step Time =    1.000,"PART-1-1",           244,       8.72776,      -2.97127,            0.,NA,NA,"",   442.877E-03,  -436.753E-03,   73.3956E-03,   2.79250E-03
C:/temp/dataset/6/11_12.odb,Step-1,Increment      1: Step Time =    1.000,"PART-1-1",           245,       9.39471,      -19.4524,            0.,NA,NA,"",   234.243E-03,  -231.413E-03,   36.3047E-03,   18.6160E-03
C:/temp/dataset/6/11_12.odb,Step-1,Increment      1: Step Time =    1.000,"PART-1-1",           246,       8.06548,      -22.0810,            0.,NA,NA,"",   135.521E-03,  -135.418E-03,   5.26575E-03,   12.9337E-03
C:/temp/dataset/6/11_12.odb,Step-1,Increment      1: Step Time =    1.000,"PART-1-1",           247,      -7.53738,       4.79758,            0.,NA,NA,"",   475.143E-03,  -475.140E-03,   1.78520E-03,   1.45594E-03
C:/temp/dataset/6/11_12.odb,Step-1,Increment      1: Step Time =    1.000,"PART-1-1",           248,      -10.8025,      -24.3532,            0.,NA,NA,"",   46.2199E-03,  -44.1714E-03,  -13.6076E-03,   3.22954E-03
C:/temp/dataset/6/11_12.odb,Step-1,Increment      1: Step Time =    1.000,"PART-1-1",           249,       5.82981,      -2.08643,            0.,NA,NA,"",   436.688E-03,  -431.126E-03,   69.4730E-03,   3.35967E-03
C:/temp/dataset/6/11_12.odb,Step-1,Increment      1: Step Time =    1.000,"PART-1-1",           250,      -8.67175,      -2.53401,            0.,NA,NA,"",   398.373E-03,  -398.298E-03,  -7.73162E-03,   1.81655E-03
C:/temp/dataset/6/11_12.odb,Step-1,Increment      1: Step Time =    1.000,"PART-1-1",           251,       5.78686,      -22.7214,            0.,NA,NA,"",   108.560E-03,  -107.258E-03,  -16.7633E-03,   10.0080E-03
C:/temp/dataset/6/11_12.odb,Step-1,Increment      1: Step Time =    1.000,"PART-1-1",           252,      -8.27594,       1.60152,            0.,NA,NA,"",   442.668E-03,  -442.650E-03,  -3.99510E-03,   1.90863E-03
C:/temp/dataset/6/11_12.odb,Step-1,Increment      1: Step Time =    1.000,"PART-1-1",           253,       8.25490,      -24.0061,            0.,NA,NA,"",   90.2090E-03,  -90.1935E-03,   1.66965E-03,   9.42075E-03
C:/temp/dataset/6/11_12.odb,Step-1,Increment      1: Step Time =    1.000,"PART-1-1",           254,      -9.04303,      -23.2600,            0.,NA,NA,"",   54.3446E-03,  -54.1881E-03,  -4.12074E-03,   1.93880E-03
C:/temp/dataset/6/11_12.odb,Step-1,Increment      1: Step Time =    1.000,"PART-1-1",           255,       7.61656,      -1.09448,            0.,NA,NA,"",   442.818E-03,  -436.619E-03,   73.8333E-03,   2.13328E-03
C:/temp/dataset/6/11_12.odb,Step-1,Increment      1: Step Time =    1.000,"PART-1-1",           256,      -4.02262,   861.151E-03,            0.,NA,NA,"",   436.050E-03,  -434.058E-03,   41.6330E-03,   675.118E-06
C:/temp/dataset/6/11_12.odb,Step-1,Increment      1: Step Time =    1.000,"PART-1-1",           257,  -104.141E-03,       1.31276,            0.,NA,NA,"",   441.667E-03,  -437.174E-03,   62.8407E-03,   1.60721E-03
C:/temp/dataset/6/11_12.odb,Step-1,Increment      1: Step Time =    1.000,"PART-1-1",           258,       3.72123,      -23.4419,            0.,NA,NA,"",   91.3677E-03,  -89.2815E-03,  -19.4132E-03,   12.2669E-03
C:/temp/dataset/6/11_12.odb,Step-1,Increment      1: Step Time =    1.000,"PART-1-1",           259,      -10.7950,      -8.39617,            0.,NA,NA,"",   301.001E-03,  -298.424E-03,  -39.3006E-03,   2.96892E-03
C:/temp/dataset/6/11_12.odb,Step-1,Increment      1: Step Time =    1.000,"PART-1-1",           260,      -1.85786,       1.02916,            0.,NA,NA,"",   438.793E-03,  -435.274E-03,   55.4552E-03,   1.34615E-03
C:/temp/dataset/6/11_12.odb,Step-1,Increment      1: Step Time =    1.000,"PART-1-1",           261,      -6.46179,      -1.33856,            0.,NA,NA,"",   414.218E-03,  -413.738E-03,   19.9366E-03,   1.81571E-03
C:/temp/dataset/6/11_12.odb,Step-1,Increment      1: Step Time =    1.000,"PART-1-1",           262,      -11.1078,      -7.00587,            0.,NA,NA,"",   327.543E-03,  -324.561E-03,  -44.1039E-03,   2.48874E-03
C:/temp/dataset/6/11_12.odb,Step-1,Increment      1: Step Time =    1.000,"PART-1-1",           263,      -5.52697,      -3.44125,            0.,NA,NA,"",   394.009E-03,  -392.699E-03,   32.1083E-03,   3.18123E-03
C:/temp/dataset/6/11_12.odb,Step-1,Increment      1: Step Time =    1.000,"PART-1-1",           264,      -9.72268,      -4.98378,            0.,NA,NA,"",   362.189E-03,  -361.421E-03,  -23.5705E-03,   2.16813E-03
C:/temp/dataset/6/11_12.odb,Step-1,Increment      1: Step Time =    1.000,"PART-1-1",           265,      -6.27329,       4.89376,            0.,NA,NA,"",   474.757E-03,  -474.480E-03,   16.2252E-03,   2.18071E-03
C:/temp/dataset/6/11_12.odb,Step-1,Increment      1: Step Time =    1.000,"PART-1-1",           266,       12.4963,       2.80040,            0.,NA,NA,"",   453.322E-03,  -445.220E-03,   85.3191E-03,   208.867E-06
C:/temp/dataset/6/11_12.odb,Step-1,Increment      1: Step Time =    1.000,"PART-1-1",           267,      -7.37176,      -20.2559,            0.,NA,NA,"",   84.5823E-03,  -84.1537E-03,   8.50402E-03,   2.13791E-03
C:/temp/dataset/6/11_12.odb,Step-1,Increment      1: Step Time =    1.000,"PART-1-1",           268,       2.88963,      -21.8777,            0.,NA,NA,"",   106.601E-03,  -105.481E-03,  -15.4112E-03,   16.2874E-03
C:/temp/dataset/6/11_12.odb,Step-1,Increment      1: Step Time =    1.000,"PART-1-1",           269,      -8.05085,       3.52655,            0.,NA,NA,"",   461.893E-03,  -461.884E-03,  -2.94196E-03,   1.78133E-03
C:/temp/dataset/6/11_12.odb,Step-1,Increment      1: Step Time =    1.000,"PART-1-1",           270,       8.95558,      -12.5395,            0.,NA,NA,"",   408.972E-03,  -404.665E-03,   59.1980E-03,   3.70623E-03
C:/temp/dataset/6/11_12.odb,Step-1,Increment      1: Step Time =    1.000,"PART-1-1",           271,       1.35989,  -223.950E-03,            0.,NA,NA,"",   435.031E-03,  -429.901E-03,   66.6068E-03,   2.14260E-03
C:/temp/dataset/6/11_12.odb,Step-1,Increment      1: Step Time =    1.000,"PART-1-1",           272,      -9.75004,      -12.6533,            0.,NA,NA,"",   215.110E-03,  -214.095E-03,  -20.8664E-03,   3.41442E-03
C:/temp/dataset/6/11_12.odb,Step-1,Increment      1: Step Time =    1.000,"PART-1-1",           273,      -8.51206,      -25.1011,            0.,NA,NA,"",   38.4945E-03,  -38.4619E-03,  -1.58347E-03,   3.61848E-03
C:/temp/dataset/6/11_12.odb,Step-1,Increment      1: Step Time =    1.000,"PART-1-1",           274,      -6.19138,   998.181E-03,            0.,NA,NA,"",   436.397E-03,  -435.887E-03,   21.0832E-03,   1.51646E-03
C:/temp/dataset/6/11_12.odb,Step-1,Increment      1: Step Time =    1.000,"PART-1-1",           275,      -2.63339,      -25.0950,            0.,NA,NA,"",   53.8525E-03,  -53.8104E-03,   2.12895E-03,   8.72058E-03
C:/temp/dataset/6/11_12.odb,Step-1,Increment      1: Step Time =    1.000,"PART-1-1",           276,       8.11811,      -26.0558,            0.,NA,NA,"",   49.8800E-03,  -49.8732E-03,  -821.655E-06,   7.87991E-03
C:/temp/dataset/6/11_12.odb,Step-1,Increment      1: Step Time =    1.000,"PART-1-1",           277,       6.33403,   764.508E-03,            0.,NA,NA,"",   444.876E-03,  -438.642E-03,   74.2128E-03,   1.54235E-03
C:/temp/dataset/6/11_12.odb,Step-1,Increment      1: Step Time =    1.000,"PART-1-1",           278,       8.84044,      -16.9880,            0.,NA,NA,"",   312.670E-03,  -309.810E-03,   42.1930E-03,   13.5753E-03
C:/temp/dataset/6/11_12.odb,Step-1,Increment      1: Step Time =    1.000,"PART-1-1",           279,      -11.3950,       19.6047,            0.,NA,NA,"",   650.946E-03,  -649.351E-03,  -45.5379E-03,   2.28172E-06
C:/temp/dataset/6/11_12.odb,Step-1,Increment      1: Step Time =    1.000,"PART-1-1",           280,      -11.2464,      -2.22607,            0.,NA,NA,"",   401.625E-03,  -399.290E-03,  -43.2463E-03,   1.27460E-03
C:/temp/dataset/6/11_12.odb,Step-1,Increment      1: Step Time =    1.000,"PART-1-1",           281,      -8.41776,  -32.7016E-03,            0.,NA,NA,"",   426.305E-03,  -426.278E-03,  -4.76502E-03,   1.82468E-03
C:/temp/dataset/6/11_12.odb,Step-1,Increment      1: Step Time =    1.000,"PART-1-1",           282,       4.48255,      -24.5345,            0.,NA,NA,"",   75.4065E-03,  -73.5891E-03,  -16.4558E-03,   10.4282E-03
C:/temp/dataset/6/11_12.odb,Step-1,Increment      1: Step Time =    1.000,"PART-1-1",           283,       6.11275,      -24.3348,            0.,NA,NA,"",   79.3557E-03,  -78.3456E-03,  -12.6210E-03,   8.99155E-03
C:/temp/dataset/6/11_12.odb,Step-1,Increment      1: Step Time =    1.000,"PART-1-1",           284,       9.69767,      -4.20039,            0.,NA,NA,"",   444.130E-03,  -437.674E-03,   75.4522E-03,   2.93184E-03
C:/temp/dataset/6/11_12.odb,Step-1,Increment      1: Step Time =    1.000,"PART-1-1",           285,       13.8851,      -1.60402,            0.,NA,NA,"",   448.965E-03,  -440.129E-03,   88.6313E-03,   803.915E-06
C:/temp/dataset/6/11_12.odb,Step-1,Increment      1: Step Time =    1.000,"PART-1-1",           286,           15.,   -468.75E-03,            0.,NA,NA,"",   450.065E-03,  -441.038E-03,   89.6879E-03,   497.790E-06
C:/temp/dataset/6/11_12.odb,Step-1,Increment      1: Step Time =    1.000,"PART-1-1",           287,       13.7553,   590.641E-03,            0.,NA,NA,"",   450.988E-03,  -442.397E-03,   87.6074E-03,   340.805E-06
C:/temp/dataset/6/11_12.odb,Step-1,Increment      1: Step Time =    1.000,"PART-1-1",           288,       12.6405,  -544.629E-03,            0.,NA,NA,"",   449.491E-03,  -441.236E-03,   85.7454E-03,   858.439E-06
C:/temp/dataset/6/11_12.odb,Step-1,Increment      1: Step Time =    1.000,"PART-1-1",           289,       6.57104,       2.96720,            0.,NA,NA,"",   450.515E-03,  -444.123E-03,   75.6175E-03,   645.831E-06
C:/temp/dataset/6/11_12.odb,Step-1,Increment      1: Step Time =    1.000,"PART-1-1",           290,       5.86345,       1.80964,            0.,NA,NA,"",   447.247E-03,  -441.032E-03,   74.3028E-03,   1.13293E-03
C:/temp/dataset/6/11_12.odb,Step-1,Increment      1: Step Time =    1.000,"PART-1-1",           291,       7.10711,       1.10321,            0.,NA,NA,"",   446.601E-03,  -440.175E-03,   75.4910E-03,   1.19194E-03
C:/temp/dataset/6/11_12.odb,Step-1,Increment      1: Step Time =    1.000,"PART-1-1",           292,       7.81470,       2.26078,            0.,NA,NA,"",   449.732E-03,  -443.060E-03,   77.1797E-03,   654.827E-06
C:/temp/dataset/6/11_12.odb,Step-1,Increment      1: Step Time =    1.000,"PART-1-1",           293,       6.97305,      -8.82061,            0.,NA,NA,"",   431.311E-03,  -428.382E-03,   50.1782E-03,   5.05399E-03
C:/temp/dataset/6/11_12.odb,Step-1,Increment      1: Step Time =    1.000,"PART-1-1",           294,       5.98985,      -7.53541,            0.,NA,NA,"",   433.141E-03,  -430.212E-03,   50.2834E-03,   5.48001E-03
C:/temp/dataset/6/11_12.odb,Step-1,Increment      1: Step Time =    1.000,"PART-1-1",           295,            5.,      -8.76875,            0.,NA,NA,"",   424.670E-03,  -422.946E-03,   38.2329E-03,   8.14567E-03
C:/temp/dataset/6/11_12.odb,Step-1,Increment      1: Step Time =    1.000,"PART-1-1",           296,       5.98320,      -10.0539,            0.,NA,NA,"",   420.768E-03,  -419.240E-03,   35.8214E-03,   7.32198E-03
C:/temp/dataset/6/11_12.odb,Step-1,Increment      1: Step Time =    1.000,"PART-1-1",           297,       12.0429,      -8.05477,            0.,NA,NA,"",   442.130E-03,  -432.919E-03,   89.7780E-03,   3.11746E-03
C:/temp/dataset/6/11_12.odb,Step-1,Increment      1: Step Time =    1.000,"PART-1-1",           298,       11.0248,      -9.13413,            0.,NA,NA,"",   438.697E-03,  -430.553E-03,   84.1378E-03,   3.47551E-03
C:/temp/dataset/6/11_12.odb,Step-1,Increment      1: Step Time =    1.000,"PART-1-1",           299,       11.9985,      -10.2754,            0.,NA,NA,"",   436.174E-03,  -425.863E-03,   94.2811E-03,   4.15506E-03
C:/temp/dataset/6/11_12.odb,Step-1,Increment      1: Step Time =    1.000,"PART-1-1",           300,       13.0166,      -9.19606,            0.,NA,NA,"",   439.638E-03,  -428.451E-03,   98.5461E-03,   3.83284E-03
C:/temp/dataset/6/11_12.odb,Step-1,Increment      1: Step Time =    1.000,"PART-1-1",           301,       13.9992,      -14.7549,            0.,NA,NA,"",   420.471E-03,  -402.677E-03,   121.028E-03,   10.7574E-03
C:/temp/dataset/6/11_12.odb,Step-1,Increment      1: Step Time =    1.000,"PART-1-1",           302,       13.0271,      -15.9471,            0.,NA,NA,"",   386.547E-03,  -371.670E-03,   106.207E-03,   11.0123E-03
C:/temp/dataset/6/11_12.odb,Step-1,Increment      1: Step Time =    1.000,"PART-1-1",           303,       14.0279,      -16.9735,            0.,NA,NA,"",   375.706E-03,  -355.050E-03,   122.860E-03,   10.7175E-03
C:/temp/dataset/6/11_12.odb,Step-1,Increment      1: Step Time =    1.000,"PART-1-1",           304,           15.,      -15.7813,            0.,NA,NA,"",   415.099E-03,  -390.336E-03,   141.226E-03,   11.1937E-03
C:/temp/dataset/6/11_12.odb,Step-1,Increment      1: Step Time =    1.000,"PART-1-1",           305,       6.96949,      -18.0995,            0.,NA,NA,"",   261.187E-03,  -260.982E-03,   10.3317E-03,   13.9446E-03
C:/temp/dataset/6/11_12.odb,Step-1,Increment      1: Step Time =    1.000,"PART-1-1",           306,       5.95014,      -17.3335,            0.,NA,NA,"",   286.033E-03,  -285.845E-03,  -10.3866E-03,   6.05162E-03
C:/temp/dataset/6/11_12.odb,Step-1,Increment      1: Step Time =    1.000,"PART-1-1",           307,            5.,      -18.7625,            0.,NA,NA,"",   234.817E-03,  -231.181E-03,  -41.1626E-03,   9.47230E-03
C:/temp/dataset/6/11_12.odb,Step-1,Increment      1: Step Time =    1.000,"PART-1-1",           308,       6.01935,      -19.5285,            0.,NA,NA,"",   194.691E-03,  -194.511E-03,  -8.35093E-03,   21.4399E-03
C:/temp/dataset/6/11_12.odb,Step-1,Increment      1: Step Time =    1.000,"PART-1-1",           309,       7.66098,      -29.0388,            0.,NA,NA,"",   8.62044E-03,  -8.60539E-03,  -509.162E-06,   5.97091E-03
C:/temp/dataset/6/11_12.odb,Step-1,Increment      1: Step Time =    1.000,"PART-1-1",           310,       6.62868,      -28.0660,            0.,NA,NA,"",   20.9433E-03,  -20.6917E-03,  -3.23654E-03,   7.50805E-03
C:/temp/dataset/6/11_12.odb,Step-1,Increment      1: Step Time =    1.000,"PART-1-1",           311,       5.21770,      -29.0272,            0.,NA,NA,"",   10.8169E-03,  -10.5904E-03,  -2.20181E-03,   7.76062E-03
C:/temp/dataset/6/11_12.odb,Step-1,Increment      1: Step Time =    1.000,"PART-1-1",           312,          6.25,          -30.,            0.,NA,NA,"",            0.,  -5.64970E-39,  -3.28742E-39,   6.11806E-03
C:/temp/dataset/6/11_12.odb,Step-1,Increment      1: Step Time =    1.000,"PART-1-1",           313,   162.125E-03,      -28.5454,            0.,NA,NA,"",   19.1486E-03,  -18.9923E-03,  -2.44143E-03,   9.03637E-03
C:/temp/dataset/6/11_12.odb,Step-1,Increment      1: Step Time =    1.000,"PART-1-1",           314,      -1.06934,      -27.3053,            0.,NA,NA,"",   33.3379E-03,  -33.2523E-03,  -2.38785E-03,   8.57614E-03
C:/temp/dataset/6/11_12.odb,Step-1,Increment      1: Step Time =    1.000,"PART-1-1",           315,      -2.48147,      -28.7599,            0.,NA,NA,"",   14.8060E-03,  -14.7857E-03,  -774.782E-06,   7.89692E-03
C:/temp/dataset/6/11_12.odb,Step-1,Increment      1: Step Time =    1.000,"PART-1-1",           316,         -1.25,          -30.,            0.,NA,NA,"",            0.,  -8.13121E-39,  -3.25721E-39,   8.38116E-03
C:/temp/dataset/6/11_12.odb,Step-1,Increment      1: Step Time =    1.000,"PART-1-1",           317,          -15.,        -21.25,            0.,NA,NA,"",   106.202E-03,  -83.9880E-03,  -64.9996E-03,   6.49908E-03
C:/temp/dataset/6/11_12.odb,Step-1,Increment      1: Step Time =    1.000,"PART-1-1",           318,      -13.9888,      -22.4607,            0.,NA,NA,"",   82.9938E-03,  -68.1333E-03,  -47.3902E-03,   5.70998E-03
C:/temp/dataset/6/11_12.odb,Step-1,Increment      1: Step Time =    1.000,"PART-1-1",           319,      -12.8187,      -21.2681,            0.,NA,NA,"",   88.5031E-03,  -78.5149E-03,  -40.8438E-03,   4.47142E-03
C:/temp/dataset/6/11_12.odb,Step-1,Increment      1: Step Time =    1.000,"PART-1-1",           320,      -13.8299,      -20.0574,            0.,NA,NA,"",   111.283E-03,  -95.2527E-03,  -57.5406E-03,   5.21330E-03
C:/temp/dataset/6/11_12.odb,Step-1,Increment      1: Step Time =    1.000,"PART-1-1",           321,      -12.5142,      -28.6623,            0.,NA,NA,"",   9.94885E-03,  -8.25229E-03,  -5.55692E-03,   6.08518E-03
C:/temp/dataset/6/11_12.odb,Step-1,Increment      1: Step Time =    1.000,"PART-1-1",           322,        -11.25,          -30.,            0.,NA,NA,"",            0.,  -2.87531E-39,  -7.28513E-39,   4.91743E-03
C:/temp/dataset/6/11_12.odb,Step-1,Increment      1: Step Time =    1.000,"PART-1-1",           323,      -9.93348,      -28.4464,            0.,NA,NA,"",   10.0214E-03,  -9.63823E-03,  -2.74473E-03,   4.30476E-03
C:/temp/dataset/6/11_12.odb,Step-1,Increment      1: Step Time =    1.000,"PART-1-1",           324,      -11.1976,      -27.1087,            0.,NA,NA,"",   21.8175E-03,  -20.2070E-03,  -8.22680E-03,   5.06050E-03
C:/temp/dataset/6/11_12.odb,Step-1,Increment      1: Step Time =    1.000,"PART-1-1",           325,      -7.37036,      -13.8742,            0.,NA,NA,"",   191.031E-03,  -190.459E-03,   14.7821E-03,   2.60372E-03
C:/temp/dataset/6/11_12.odb,Step-1,Increment      1: Step Time =    1.000,"PART-1-1",           326,      -6.21015,      -15.0417,            0.,NA,NA,"",   172.441E-03,  -169.466E-03,   31.8924E-03,   2.49939E-03
C:/temp/dataset/6/11_12.odb,Step-1,Increment      1: Step Time =    1.000,"PART-1-1",           327,           -5.,      -13.7188,            0.,NA,NA,"",   202.663E-03,  -195.089E-03,   54.8899E-03,   1.91825E-03
C:/temp/dataset/6/11_12.odb,Step-1,Increment      1: Step Time =    1.000,"PART-1-1",           328,      -6.16021,      -12.5513,            0.,NA,NA,"",   219.303E-03,  -216.450E-03,   35.2583E-03,   1.39827E-03
C:/temp/dataset/6/11_12.odb,Step-1,Increment      1: Step Time =    1.000,"PART-1-1",           329,      -9.33590,      -9.40979,            0.,NA,NA,"",   279.184E-03,  -278.660E-03,  -17.1021E-03,   3.42756E-03
C:/temp/dataset/6/11_12.odb,Step-1,Increment      1: Step Time =    1.000,"PART-1-1",           330,      -8.33361,      -10.3234,            0.,NA,NA,"",   260.275E-03,  -260.273E-03,  -1.01335E-03,   2.91904E-03
C:/temp/dataset/6/11_12.odb,Step-1,Increment      1: Step Time =    1.000,"PART-1-1",           331,      -7.16565,      -9.15059,            0.,NA,NA,"",   284.184E-03,  -283.697E-03,   16.6418E-03,   2.79863E-03
C:/temp/dataset/6/11_12.odb,Step-1,Increment      1: Step Time =    1.000,"PART-1-1",           332,      -8.16794,      -8.23701,            0.,NA,NA,"",   302.153E-03,  -302.153E-03,  -402.585E-06,   3.38413E-03
C:/temp/dataset/6/11_12.odb,Step-1,Increment      1: Step Time =    1.000,"PART-1-1",           333,      -11.1473,      -6.32447,            0.,NA,NA,"",   339.737E-03,  -336.810E-03,  -44.5054E-03,   2.15084E-03
C:/temp/dataset/6/11_12.odb,Step-1,Increment      1: Step Time =    1.000,"PART-1-1",           334,      -10.2102,      -6.79208,            0.,NA,NA,"",   330.668E-03,  -329.209E-03,  -31.0264E-03,   2.71605E-03
C:/temp/dataset/6/11_12.odb,Step-1,Increment      1: Step Time =    1.000,"PART-1-1",           335,      -9.51762,      -5.78103,            0.,NA,NA,"",   348.662E-03,  -348.029E-03,  -21.0030E-03,   2.51114E-03
C:/temp/dataset/6/11_12.odb,Step-1,Increment      1: Step Time =    1.000,"PART-1-1",           336,      -10.4548,      -5.31342,            0.,NA,NA,"",   356.551E-03,  -354.913E-03,  -34.1416E-03,   2.01220E-03
C:/temp/dataset/6/11_12.odb,Step-1,Increment      1: Step Time =    1.000,"PART-1-1",           337,      -5.04937,      -1.25055,            0.,NA,NA,"",   416.985E-03,  -415.565E-03,   34.3768E-03,   1.45611E-03
C:/temp/dataset/6/11_12.odb,Step-1,Increment      1: Step Time =    1.000,"PART-1-1",           338,      -3.82978,  -150.691E-03,            0.,NA,NA,"",   427.944E-03,  -425.704E-03,   43.7329E-03,   1.19437E-03
C:/temp/dataset/6/11_12.odb,Step-1,Increment      1: Step Time =    1.000,"PART-1-1",           339,      -5.10700,   929.666E-03,            0.,NA,NA,"",   436.064E-03,  -434.881E-03,   32.1076E-03,   949.801E-06
C:/temp/dataset/6/11_12.odb,Step-1,Increment      1: Step Time =    1.000,"PART-1-1",           340,      -6.32658,  -170.190E-03,            0.,NA,NA,"",   425.603E-03,  -425.108E-03,   20.5222E-03,   1.51145E-03
C:/temp/dataset/6/11_12.odb,Step-1,Increment      1: Step Time =    1.000,"PART-1-1",           341,          -15.,          3.75,            0.,NA,NA,"",   473.930E-03,  -465.934E-03,  -86.6909E-03,   562.267E-06
C:/temp/dataset/6/11_12.odb,Step-1,Increment      1: Step Time =    1.000,"PART-1-1",           342,      -13.8520,       2.39386,            0.,NA,NA,"",   457.453E-03,  -451.393E-03,  -74.2177E-03,   905.256E-06
C:/temp/dataset/6/11_12.odb,Step-1,Increment      1: Step Time =    1.000,"PART-1-1",           343,      -12.6820,       3.58697,            0.,NA,NA,"",   468.474E-03,  -464.652E-03,  -59.7193E-03,   893.740E-06
C:/temp/dataset/6/11_12.odb,Step-1,Increment      1: Step Time =    1.000,"PART-1-1",           344,      -13.8301,       4.94311,            0.,NA,NA,"",   484.901E-03,  -479.360E-03,  -73.0945E-03,   358.424E-06
C:/temp/dataset/6/11_12.odb,Step-1,Increment      1: Step Time =    1.000,"PART-1-1",           345,          -15.,         11.25,            0.,NA,NA,"",   558.193E-03,  -551.369E-03,  -87.0125E-03,   60.1933E-06
C:/temp/dataset/6/11_12.odb,Step-1,Increment      1: Step Time =    1.000,"PART-1-1",           346,      -14.0083,       10.0442,            0.,NA,NA,"",   542.631E-03,  -537.375E-03,  -75.3427E-03,   46.3459E-06
C:/temp/dataset/6/11_12.odb,Step-1,Increment      1: Step Time =    1.000,"PART-1-1",           347,      -13.0572,       11.3141,            0.,NA,NA,"",   555.962E-03,  -552.219E-03,  -64.4028E-03,   24.2133E-06
C:/temp/dataset/6/11_12.odb,Step-1,Increment      1: Step Time =    1.000,"PART-1-1",           348,      -14.0489,       12.5200,            0.,NA,NA,"",   571.331E-03,  -566.247E-03,  -76.0540E-03,   28.9586E-06
C:/temp/dataset/6/11_12.odb,Step-1,Increment      1: Step Time =    1.000,"PART-1-1",           349,           -5.,       22.7083,            0.,NA,NA,"",   686.724E-03,  -686.108E-03,   29.0783E-03,   297.676E-09
C:/temp/dataset/6/11_12.odb,Step-1,Increment      1: Step Time =    1.000,"PART-1-1",           350,      -5.96779,       23.6687,            0.,NA,NA,"",   697.503E-03,  -697.279E-03,   17.6891E-03,   132.383E-09
C:/temp/dataset/6/11_12.odb,Step-1,Increment      1: Step Time =    1.000,"PART-1-1",           351,      -6.69567,       22.7251,            0.,NA,NA,"",   686.251E-03,  -686.188E-03,   9.23697E-03,   90.7118E-09
C:/temp/dataset/6/11_12.odb,Step-1,Increment      1: Step Time =    1.000,"PART-1-1",           352,      -5.72788,       21.7648,            0.,NA,NA,"",   675.333E-03,  -675.018E-03,   20.6262E-03,   147.317E-09
C:/temp/dataset/6/11_12.odb,Step-1,Increment      1: Step Time =    1.000,"PART-1-1",           353,      -9.95259,       28.8237,            0.,NA,NA,"",   757.890E-03,  -757.324E-03,  -29.2895E-03,   66.1071E-09
C:/temp/dataset/6/11_12.odb,Step-1,Increment      1: Step Time =    1.000,"PART-1-1",           354,      -8.67740,       27.7404,            0.,NA,NA,"",   744.874E-03,  -744.736E-03,  -14.2944E-03,   61.9091E-09
C:/temp/dataset/6/11_12.odb,Step-1,Increment      1: Step Time =    1.000,"PART-1-1",           355,      -7.47481,       28.9167,            0.,NA,NA,"",   758.583E-03,  -758.583E-03,  -303.533E-06,   55.4086E-09
C:/temp/dataset/6/11_12.odb,Step-1,Increment      1: Step Time =    1.000,"PART-1-1",           356,         -8.75,           30.,            0.,NA,NA,"",   771.322E-03,  -771.171E-03,  -15.2986E-03,   66.7838E-09
C:/temp/dataset/6/11_12.odb,Step-1,Increment      1: Step Time =    1.000,"PART-1-1",           357,      -12.4360,       28.7156,            0.,NA,NA,"",   758.138E-03,  -755.890E-03,  -58.3405E-03,   58.6041E-09
C:/temp/dataset/6/11_12.odb,Step-1,Increment      1: Step Time =    1.000,"PART-1-1",           358,        -13.75,           30.,            0.,NA,NA,"",   774.354E-03,  -770.829E-03,  -73.8039E-03,   14.8538E-09
C:/temp/dataset/6/11_12.odb,Step-1,Increment      1: Step Time =    1.000,"PART-1-1",           359,          -15.,         28.75,            0.,NA,NA,"",   761.260E-03,  -756.117E-03,  -88.3447E-03,   19.1840E-09
C:/temp/dataset/6/11_12.odb,Step-1,Increment      1: Step Time =    1.000,"PART-1-1",           360,      -13.6860,       27.4656,            0.,NA,NA,"",   744.753E-03,  -741.178E-03,  -72.8813E-03,   61.6607E-09
C:/temp/dataset/6/11_12.odb,Step-1,Increment      1: Step Time =    1.000,"PART-1-1",           361,         -3.75,           -5.,            0.,NA,NA,"",   386.917E-03,  -384.646E-03,   41.8594E-03,   9.07698E-03
C:/temp/dataset/6/11_12.odb,Step-1,Increment      1: Step Time =    1.000,"PART-1-1",           362,      -2.75606,      -4.06584,            0.,NA,NA,"",   399.566E-03,  -396.603E-03,   48.5685E-03,   5.58914E-03
C:/temp/dataset/6/11_12.odb,Step-1,Increment      1: Step Time =    1.000,"PART-1-1",           363,      -4.26954,      -3.28646,            0.,NA,NA,"",   399.166E-03,  -396.877E-03,   42.6804E-03,   3.80332E-03
C:/temp/dataset/6/11_12.odb,Step-1,Increment      1: Step Time =    1.000,"PART-1-1",           364,      -5.26349,      -4.22062,            0.,NA,NA,"",   385.696E-03,  -383.939E-03,   36.7653E-03,   6.60493E-03
C:/temp/dataset/6/11_12.odb,Step-1,Increment      1: Step Time =    1.000,"PART-1-1",           365,   659.099E-03,      -2.85996,            0.,NA,NA,"",   420.947E-03,  -416.289E-03,   62.4468E-03,   3.50862E-03
C:/temp/dataset/6/11_12.odb,Step-1,Increment      1: Step Time =    1.000,"PART-1-1",           366,  -266.865E-03,      -3.97148,            0.,NA,NA,"",   412.601E-03,  -408.550E-03,   57.6793E-03,   4.53623E-03
C:/temp/dataset/6/11_12.odb,Step-1,Increment      1: Step Time =    1.000,"PART-1-1",           367,          1.25,           -5.,            0.,NA,NA,"",   415.688E-03,  -411.325E-03,   60.0673E-03,   4.78781E-03
C:/temp/dataset/6/11_12.odb,Step-1,Increment      1: Step Time =    1.000,"PART-1-1",           368,       2.17596,      -3.88848,            0.,NA,NA,"",   422.723E-03,  -417.823E-03,   64.1746E-03,   3.73375E-03
C:/temp/dataset/6/11_12.odb,Step-1,Increment      1: Step Time =    1.000,"PART-1-1",           369,   93.5104E-03,  -560.922E-03,            0.,NA,NA,"",   431.161E-03,  -426.521E-03,   63.0811E-03,   2.26934E-03
C:/temp/dataset/6/11_12.odb,Step-1,Increment      1: Step Time =    1.000,"PART-1-1",           370,   627.873E-03,   544.404E-03,            0.,NA,NA,"",   437.987E-03,  -433.127E-03,   65.0637E-03,   1.78613E-03
C:/temp/dataset/6/11_12.odb,Step-1,Increment      1: Step Time =    1.000,"PART-1-1",           371,  -981.002E-03,       1.17096,            0.,NA,NA,"",   440.281E-03,  -436.240E-03,   59.5118E-03,   1.43946E-03
C:/temp/dataset/6/11_12.odb,Step-1,Increment      1: Step Time =    1.000,"PART-1-1",           372,      -1.51537,   65.6335E-03,            0.,NA,NA,"",   432.511E-03,  -428.704E-03,   57.2600E-03,   1.76621E-03
C:/temp/dataset/6/11_12.odb,Step-1,Increment      1: Step Time =    1.000,"PART-1-1",           373,       4.11258,       2.54084,            0.,NA,NA,"",   448.521E-03,  -442.667E-03,   72.2278E-03,   1.22366E-03
C:/temp/dataset/6/11_12.odb,Step-1,Increment      1: Step Time =    1.000,"PART-1-1",           374,       3.71515,       1.12833,            0.,NA,NA,"",   443.368E-03,  -437.599E-03,   71.2893E-03,   1.62617E-03
C:/temp/dataset/6/11_12.odb,Step-1,Increment      1: Step Time =    1.000,"PART-1-1",           375,       5.46602,   397.127E-03,            0.,NA,NA,"",   442.780E-03,  -436.743E-03,   72.8649E-03,   1.77722E-03
C:/temp/dataset/6/11_12.odb,Step-1,Increment      1: Step Time =    1.000,"PART-1-1",           376,       8.69518,  -378.803E-03,            0.,NA,NA,"",   445.807E-03,  -439.142E-03,   76.8010E-03,   1.51711E-03
C:/temp/dataset/6/11_12.odb,Step-1,Increment      1: Step Time =    1.000,"PART-1-1",           377,       8.82700,   889.396E-03,            0.,NA,NA,"",   448.052E-03,  -441.192E-03,   78.1045E-03,   875.067E-06
C:/temp/dataset/6/11_12.odb,Step-1,Increment      1: Step Time =    1.000,"PART-1-1",           378,       6.97530,  -164.986E-03,            0.,NA,NA,"",   443.519E-03,  -437.295E-03,   74.0452E-03,   1.71877E-03
C:/temp/dataset/6/11_12.odb,Step-1,Increment      1: Step Time =    1.000,"PART-1-1",           379,      -3.65351,      -22.6081,            0.,NA,NA,"",   72.7149E-03,  -71.9498E-03,   10.5204E-03,   7.39222E-03
C:/temp/dataset/6/11_12.odb,Step-1,Increment      1: Step Time =    1.000,"PART-1-1",           380,      -2.48671,      -21.3009,            0.,NA,NA,"",   81.7858E-03,  -81.3252E-03,   8.66756E-03,   4.08782E-03
C:/temp/dataset/6/11_12.odb,Step-1,Increment      1: Step Time =    1.000,"PART-1-1",           381,         -3.75,          -20.,            0.,NA,NA,"",   82.3624E-03,  -81.1127E-03,   14.2929E-03,   4.32184E-03
C:/temp/dataset/6/11_12.odb,Step-1,Increment      1: Step Time =    1.000,"PART-1-1",           382,      -4.91680,      -21.3072,            0.,NA,NA,"",   79.2751E-03,  -77.1611E-03,   18.1857E-03,   7.14303E-03
C:/temp/dataset/6/11_12.odb,Step-1,Increment      1: Step Time =    1.000,"PART-1-1",           383,       12.8399,      -22.4784,            0.,NA,NA,"",   170.318E-03,  -156.308E-03,   67.6455E-03,   12.0115E-03
C:/temp/dataset/6/11_12.odb,Step-1,Increment      1: Step Time =    1.000,"PART-1-1",           384,       11.7398,      -21.2760,            0.,NA,NA,"",   198.181E-03,  -190.162E-03,   55.8051E-03,   15.6934E-03
C:/temp/dataset/6/11_12.odb,Step-1,Increment      1: Step Time =    1.000,"PART-1-1",           385,       10.5591,      -22.4389,            0.,NA,NA,"",   146.883E-03,  -143.351E-03,   32.0211E-03,   14.0820E-03
C:/temp/dataset/6/11_12.odb,Step-1,Increment      1: Step Time =    1.000,"PART-1-1",           386,       11.6593,      -23.6412,            0.,NA,NA,"",   121.073E-03,  -114.189E-03,   40.2452E-03,   10.7870E-03
C:/temp/dataset/6/11_12.odb,Step-1,Increment      1: Step Time =    1.000,"PART-1-1",           387,          8.75,            5.,            0.,NA,NA,"",   455.101E-03,  -448.174E-03,   79.0983E-03,   106.875E-06
C:/temp/dataset/6/11_12.odb,Step-1,Increment      1: Step Time =    1.000,"PART-1-1",           388,       7.62461,       4.03982,            0.,NA,NA,"",   453.064E-03,  -446.427E-03,   77.2637E-03,   236.074E-06
C:/temp/dataset/6/11_12.odb,Step-1,Increment      1: Step Time =    1.000,"PART-1-1",           389,       8.90047,       2.96899,            0.,NA,NA,"",   451.753E-03,  -444.772E-03,   79.1073E-03,   308.144E-06
C:/temp/dataset/6/11_12.odb,Step-1,Increment      1: Step Time =    1.000,"PART-1-1",           390,       10.0259,       3.92917,            0.,NA,NA,"",   453.911E-03,  -446.603E-03,   81.1238E-03,   214.535E-06
C:/temp/dataset/6/11_12.odb,Step-1,Increment      1: Step Time =    1.000,"PART-1-1",           391,      -6.96921,       21.1213,            0.,NA,NA,"",   667.433E-03,  -667.405E-03,   6.14609E-03,   715.203E-09
C:/temp/dataset/6/11_12.odb,Step-1,Increment      1: Step Time =    1.000,"PART-1-1",           392,      -6.24133,       19.9816,            0.,NA,NA,"",   654.286E-03,  -654.120E-03,   14.7409E-03,   761.425E-09
C:/temp/dataset/6/11_12.odb,Step-1,Increment      1: Step Time =    1.000,"PART-1-1",           393,           -5.,        20.625,            0.,NA,NA,"",   662.378E-03,  -661.733E-03,   29.2203E-03,   99.6216E-09
C:/temp/dataset/6/11_12.odb,Step-1,Increment      1: Step Time =    1.000,"PART-1-1",           394,      -12.9370,       8.81410,            0.,NA,NA,"",   526.941E-03,  -523.183E-03,  -62.8184E-03,   63.1939E-06
C:/temp/dataset/6/11_12.odb,Step-1,Increment      1: Step Time =    1.000,"PART-1-1",           395,          -15.,          8.75,            0.,NA,NA,"",   529.498E-03,  -522.358E-03,  -86.6571E-03,   72.1218E-06
C:/temp/dataset/6/11_12.odb,Step-1,Increment      1: Step Time =    1.000,"PART-1-1",           396,      -13.9287,       7.51992,            0.,NA,NA,"",   513.679E-03,  -508.293E-03,  -74.1934E-03,   72.2494E-06
C:/temp/dataset/6/11_12.odb,Step-1,Increment      1: Step Time =    1.000,"PART-1-1",           397,          -15.,          1.25,            0.,NA,NA,"",   446.914E-03,  -438.045E-03,  -88.5948E-03,   1.41682E-03
C:/temp/dataset/6/11_12.odb,Step-1,Increment      1: Step Time =    1.000,"PART-1-1",           398,      -13.9023,  -59.1614E-03,            0.,NA,NA,"",   430.726E-03,  -423.785E-03,  -77.0117E-03,   1.55215E-03
C:/temp/dataset/6/11_12.odb,Step-1,Increment      1: Step Time =    1.000,"PART-1-1",           399,      -12.7542,       1.08470,            0.,NA,NA,"",   441.709E-03,  -437.415E-03,  -61.4363E-03,   1.31380E-03
C:/temp/dataset/6/11_12.odb,Step-1,Increment      1: Step Time =    1.000,"PART-1-1",           400,          -15.,         -1.25,            0.,NA,NA,"",   418.738E-03,  -408.343E-03,  -92.7221E-03,   2.32992E-03
C:/temp/dataset/6/11_12.odb,Step-1,Increment      1: Step Time =    1.000,"PART-1-1",           401,      -13.9820,      -2.43756,            0.,NA,NA,"",   402.423E-03,  -394.079E-03,  -81.5239E-03,   2.06306E-03
C:/temp/dataset/6/11_12.odb,Step-1,Increment      1: Step Time =    1.000,"PART-1-1",           402,      -12.8843,      -1.24672,            0.,NA,NA,"",   415.417E-03,  -410.304E-03,  -64.9759E-03,   1.42733E-03
C:/temp/dataset/6/11_12.odb,Step-1,Increment      1: Step Time =    1.000,"PART-1-1",           403,      -12.3802,      -13.7897,            0.,NA,NA,"",   201.983E-03,  -193.444E-03,  -58.1072E-03,   3.17084E-03
C:/temp/dataset/6/11_12.odb,Step-1,Increment      1: Step Time =    1.000,"PART-1-1",           404,      -13.6672,      -12.5056,            0.,NA,NA,"",   233.232E-03,  -218.758E-03,  -80.8824E-03,   2.27842E-03
C:/temp/dataset/6/11_12.odb,Step-1,Increment      1: Step Time =    1.000,"PART-1-1",           405,          -15.,        -13.75,            0.,NA,NA,"",   221.323E-03,  -196.785E-03,  -101.290E-03,   3.07538E-03
C:/temp/dataset/6/11_12.odb,Step-1,Increment      1: Step Time =    1.000,"PART-1-1",           406,      -13.7130,      -15.0341,            0.,NA,NA,"",   187.943E-03,  -172.042E-03,  -75.6576E-03,   3.40143E-03
C:/temp/dataset/6/11_12.odb,Step-1,Increment      1: Step Time =    1.000,"PART-1-1",           407,       9.21271,      -3.58583,            0.,NA,NA,"",   443.506E-03,  -437.255E-03,   74.2017E-03,   2.83930E-03
C:/temp/dataset/6/11_12.odb,Step-1,Increment      1: Step Time =    1.000,"PART-1-1",           408,       7.90749,      -3.82305,            0.,NA,NA,"",   440.517E-03,  -435.065E-03,   69.0928E-03,   3.57683E-03
C:/temp/dataset/6/11_12.odb,Step-1,Increment      1: Step Time =    1.000,"PART-1-1",           409,       8.15132,      -5.16923,            0.,NA,NA,"",   440.766E-03,  -435.626E-03,   67.1162E-03,   3.71860E-03
C:/temp/dataset/6/11_12.odb,Step-1,Increment      1: Step Time =    1.000,"PART-1-1",           410,       9.45655,      -4.93201,            0.,NA,NA,"",   443.406E-03,  -437.241E-03,   73.6797E-03,   3.22084E-03
C:/temp/dataset/6/11_12.odb,Step-1,Increment      1: Step Time =    1.000,"PART-1-1",           411,       6.91243,      -16.0318,            0.,NA,NA,"",   329.650E-03,  -329.351E-03,   14.0425E-03,   7.58980E-03
C:/temp/dataset/6/11_12.odb,Step-1,Increment      1: Step Time =    1.000,"PART-1-1",           412,       5.96229,      -14.9858,            0.,NA,NA,"",   352.403E-03,  -352.403E-03,   518.316E-06,   8.15153E-03
C:/temp/dataset/6/11_12.odb,Step-1,Increment      1: Step Time =    1.000,"PART-1-1",           413,            5.,      -16.2875,            0.,NA,NA,"",   317.576E-03,  -315.979E-03,  -31.8055E-03,   8.46262E-03
C:/temp/dataset/6/11_12.odb,Step-1,Increment      1: Step Time =    1.000,"PART-1-1",           414,       6.93910,      -13.7291,            0.,NA,NA,"",   381.521E-03,  -380.668E-03,   25.4929E-03,   5.77475E-03
C:/temp/dataset/6/11_12.odb,Step-1,Increment      1: Step Time =    1.000,"PART-1-1",           415,       5.97681,      -12.5371,            0.,NA,NA,"",   395.667E-03,  -395.232E-03,   18.5336E-03,   8.53674E-03
C:/temp/dataset/6/11_12.odb,Step-1,Increment      1: Step Time =    1.000,"PART-1-1",           416,            5.,      -13.7937,            0.,NA,NA,"",   371.602E-03,  -371.530E-03,  -7.32973E-03,   11.1158E-03
C:/temp/dataset/6/11_12.odb,Step-1,Increment      1: Step Time =    1.000,"PART-1-1",           417,         -1.25,          -20.,            0.,NA,NA,"",   83.8075E-03,  -83.6165E-03,   5.65480E-03,   3.98833E-03
C:/temp/dataset/6/11_12.odb,Step-1,Increment      1: Step Time =    1.000,"PART-1-1",           418,      -1.09514,      -22.7401,            0.,NA,NA,"",   78.5521E-03,  -78.5493E-03,   655.458E-06,   8.24155E-03
C:/temp/dataset/6/11_12.odb,Step-1,Increment      1: Step Time =    1.000,"PART-1-1",           419,   141.566E-03,      -21.4393,            0.,NA,NA,"",   89.8400E-03,  -89.8221E-03,  -1.79555E-03,   6.96285E-03
C:/temp/dataset/6/11_12.odb,Step-1,Increment      1: Step Time =    1.000,"PART-1-1",           420,      -7.69236,      -25.1479,            0.,NA,NA,"",   39.3916E-03,  -39.3760E-03,   1.10823E-03,   4.30674E-03
C:/temp/dataset/6/11_12.odb,Step-1,Increment      1: Step Time =    1.000,"PART-1-1",           421,      -9.18951,      -25.9970,            0.,NA,NA,"",   30.1402E-03,  -29.9086E-03,  -3.72934E-03,   3.81497E-03
C:/temp/dataset/6/11_12.odb,Step-1,Increment      1: Step Time =    1.000,"PART-1-1",           422,      -8.56598,      -27.1897,            0.,NA,NA,"",   20.6067E-03,  -20.5303E-03,  -1.77308E-03,   4.67825E-03
C:/temp/dataset/6/11_12.odb,Step-1,Increment      1: Step Time =    1.000,"PART-1-1",           423,      -7.06883,      -26.3407,            0.,NA,NA,"",   30.2905E-03,  -30.2693E-03,   1.13304E-03,   5.22677E-03
C:/temp/dataset/6/11_12.odb,Step-1,Increment      1: Step Time =    1.000,"PART-1-1",           424,      -9.82073,      -13.8964,            0.,NA,NA,"",   191.127E-03,  -189.970E-03,  -21.0068E-03,   3.41385E-03
C:/temp/dataset/6/11_12.odb,Step-1,Increment      1: Step Time =    1.000,"PART-1-1",           425,      -8.65586,      -15.1239,            0.,NA,NA,"",   166.641E-03,  -166.589E-03,  -4.17382E-03,   3.13832E-03
C:/temp/dataset/6/11_12.odb,Step-1,Increment      1: Step Time =    1.000,"PART-1-1",           426,      -8.53523,      -12.6467,            0.,NA,NA,"",   214.097E-03,  -214.077E-03,  -2.91393E-03,   2.83973E-03
C:/temp/dataset/6/11_12.odb,Step-1,Increment      1: Step Time =    1.000,"PART-1-1",           427,      -6.09243,      -10.1071,            0.,NA,NA,"",   266.723E-03,  -264.263E-03,   36.1422E-03,   1.27187E-03
C:/temp/dataset/6/11_12.odb,Step-1,Increment      1: Step Time =    1.000,"PART-1-1",           428,           -5.,      -8.71250,            0.,NA,NA,"",   296.663E-03,  -291.460E-03,   55.3168E-03,   1.67726E-03
C:/temp/dataset/6/11_12.odb,Step-1,Increment      1: Step Time =    1.000,"PART-1-1",           429,      -6.07322,      -7.75598,            0.,NA,NA,"",   313.513E-03,  -311.808E-03,   32.6557E-03,   2.46069E-03
C:/temp/dataset/6/11_12.odb,Step-1,Increment      1: Step Time =    1.000,"PART-1-1",           430,      -12.7270,      -6.06323,            0.,NA,NA,"",   346.772E-03,  -340.074E-03,  -67.8274E-03,   1.57207E-03
C:/temp/dataset/6/11_12.odb,Step-1,Increment      1: Step Time =    1.000,"PART-1-1",           431,      -13.8025,      -4.90646,            0.,NA,NA,"",   367.677E-03,  -358.209E-03,  -82.9025E-03,   1.94500E-03
C:/temp/dataset/6/11_12.odb,Step-1,Increment      1: Step Time =    1.000,"PART-1-1",           432,          -15.,         -6.25,            0.,NA,NA,"",   350.721E-03,  -334.878E-03,  -104.222E-03,   2.13671E-03
C:/temp/dataset/6/11_12.odb,Step-1,Increment      1: Step Time =    1.000,"PART-1-1",           433,      -13.9244,      -7.40677,            0.,NA,NA,"",   327.559E-03,  -315.593E-03,  -87.7283E-03,   1.43750E-03
C:/temp/dataset/6/11_12.odb,Step-1,Increment      1: Step Time =    1.000,"PART-1-1",           434,       1.60591,      -1.50045,            0.,NA,NA,"",   429.509E-03,  -424.370E-03,   66.2442E-03,   2.54084E-03
C:/temp/dataset/6/11_12.odb,Step-1,Increment      1: Step Time =    1.000,"PART-1-1",           435,  -853.298E-03,      -1.92043,            0.,NA,NA,"",   421.078E-03,  -416.946E-03,   58.8456E-03,   3.09860E-03
C:/temp/dataset/6/11_12.odb,Step-1,Increment      1: Step Time =    1.000,"PART-1-1",           436,         13.75,          -30.,            0.,NA,NA,"",            0.,  -1.52200E-39,   26.9791E-39,   19.0694E-03
C:/temp/dataset/6/11_12.odb,Step-1,Increment      1: Step Time =    1.000,"PART-1-1",           437,           15.,      -28.9063,            0.,NA,NA,"",   34.2336E-03,  -24.2790E-03,   24.1344E-03,   23.9448E-03
C:/temp/dataset/6/11_12.odb,Step-1,Increment      1: Step Time =    1.000,"PART-1-1",           438,       13.8103,      -27.8746,            0.,NA,NA,"",   43.2152E-03,  -31.9329E-03,   29.1177E-03,   16.4519E-03
C:/temp/dataset/6/11_12.odb,Step-1,Increment      1: Step Time =    1.000,"PART-1-1",           439,       12.5603,      -28.9683,            0.,NA,NA,"",   12.8879E-03,  -9.61322E-03,   8.58399E-03,   11.2725E-03
C:/temp/dataset/6/11_12.odb,Step-1,Increment      1: Step Time =    1.000,"PART-1-1",           440,       12.6598,      -26.8678,            0.,NA,NA,"",   53.1906E-03,  -44.3068E-03,   29.4303E-03,   12.0440E-03
C:/temp/dataset/6/11_12.odb,Step-1,Increment      1: Step Time =    1.000,"PART-1-1",           441,       11.5501,      -25.8632,            0.,NA,NA,"",   65.1223E-03,  -59.9191E-03,   25.5073E-03,   9.71689E-03
C:/temp/dataset/6/11_12.odb,Step-1,Increment      1: Step Time =    1.000,"PART-1-1",           442,       10.3093,      -26.9762,            0.,NA,NA,"",   37.3111E-03,  -36.0090E-03,   9.77118E-03,   8.25991E-03
C:/temp/dataset/6/11_12.odb,Step-1,Increment      1: Step Time =    1.000,"PART-1-1",           443,       11.4189,      -27.9808,            0.,NA,NA,"",   24.4635E-03,  -21.8496E-03,   11.0026E-03,   9.81557E-03
C:/temp/dataset/6/11_12.odb,Step-1,Increment      1: Step Time =    1.000,"PART-1-1",           444,       10.1086,      -29.0125,            0.,NA,NA,"",   8.42996E-03,  -7.94996E-03,   2.80400E-03,   6.22382E-03
C:/temp/dataset/6/11_12.odb,Step-1,Increment      1: Step Time =    1.000,"PART-1-1",           445,       9.01957,      -28.0513,            0.,NA,NA,"",   19.3164E-03,  -19.2220E-03,   1.90797E-03,   6.84731E-03
C:/temp/dataset/6/11_12.odb,Step-1,Increment      1: Step Time =    1.000,"PART-1-1",           446,          8.75,          -30.,            0.,NA,NA,"",            0.,  -4.09746E-39,   2.40542E-39,   4.62751E-03
C:/temp/dataset/6/11_12.odb,Step-1,Increment      1: Step Time =    1.000,"PART-1-1",           447,       4.20973,      -27.9354,            0.,NA,NA,"",   25.6666E-03,  -25.0128E-03,  -5.75635E-03,   8.86496E-03
C:/temp/dataset/6/11_12.odb,Step-1,Increment      1: Step Time =    1.000,"PART-1-1",           448,       2.74203,      -28.9082,            0.,NA,NA,"",   14.0844E-03,  -13.8145E-03,  -2.74434E-03,   9.03371E-03
C:/temp/dataset/6/11_12.odb,Step-1,Increment      1: Step Time =    1.000,"PART-1-1",           449,          3.75,          -30.,            0.,NA,NA,"",            0.,  -7.33199E-39,  -5.53711E-39,   8.00998E-03
C:/temp/dataset/6/11_12.odb,Step-1,Increment      1: Step Time =    1.000,"PART-1-1",           450,       1.16266,      -25.9573,            0.,NA,NA,"",   52.4892E-03,  -51.8668E-03,  -8.05940E-03,   10.1698E-03
C:/temp/dataset/6/11_12.odb,Step-1,Increment      1: Step Time =    1.000,"PART-1-1",           451,       1.65415,      -27.4536,            0.,NA,NA,"",   33.5168E-03,  -32.9816E-03,  -5.96569E-03,   9.26775E-03
C:/temp/dataset/6/11_12.odb,Step-1,Increment      1: Step Time =    1.000,"PART-1-1",           452,       3.39879,      -26.8461,            0.,NA,NA,"",   41.2899E-03,  -40.2541E-03,  -9.19069E-03,   9.82413E-03
C:/temp/dataset/6/11_12.odb,Step-1,Increment      1: Step Time =    1.000,"PART-1-1",           453,       2.90730,      -25.3498,            0.,NA,NA,"",   62.3705E-03,  -60.9821E-03,  -13.0868E-03,   10.4988E-03
C:/temp/dataset/6/11_12.odb,Step-1,Increment      1: Step Time =    1.000,"PART-1-1",           454,      -3.67645,      -27.5530,            0.,NA,NA,"",   26.3375E-03,  -26.3352E-03,   350.713E-06,   7.39175E-03
C:/temp/dataset/6/11_12.odb,Step-1,Increment      1: Step Time =    1.000,"PART-1-1",           455,      -2.54816,      -26.3074,            0.,NA,NA,"",   41.7628E-03,  -41.7618E-03,   287.947E-06,   8.25134E-03
C:/temp/dataset/6/11_12.odb,Step-1,Increment      1: Step Time =    1.000,"PART-1-1",           456,      -3.72120,      -25.1278,            0.,NA,NA,"",   50.4386E-03,  -50.2864E-03,   3.91557E-03,   7.88601E-03
C:/temp/dataset/6/11_12.odb,Step-1,Increment      1: Step Time =    1.000,"PART-1-1",           457,      -4.84948,      -26.3734,            0.,NA,NA,"",   35.4523E-03,  -35.3640E-03,   2.49967E-03,   6.90424E-03
C:/temp/dataset/6/11_12.odb,Step-1,Increment      1: Step Time =    1.000,"PART-1-1",           458,      -4.94498,      -28.7931,            0.,NA,NA,"",   11.8028E-03,  -11.8023E-03,  -106.434E-06,   6.42196E-03
C:/temp/dataset/6/11_12.odb,Step-1,Increment      1: Step Time =    1.000,"PART-1-1",           459,         -3.75,          -30.,            0.,NA,NA,"",            0.,  -6.89584E-39,  -1.70664E-39,   7.13908E-03
C:/temp/dataset/6/11_12.odb,Step-1,Increment      1: Step Time =    1.000,"PART-1-1",           460,      -6.07748,      -27.5364,            0.,NA,NA,"",   21.7236E-03,  -21.7130E-03,   678.621E-06,   6.01649E-03
C:/temp/dataset/6/11_12.odb,Step-1,Increment      1: Step Time =    1.000,"PART-1-1",           461,      -7.38250,      -28.7433,            0.,NA,NA,"",   9.49980E-03,  -9.48308E-03,  -563.492E-06,   4.89176E-03
C:/temp/dataset/6/11_12.odb,Step-1,Increment      1: Step Time =    1.000,"PART-1-1",           462,         -6.25,          -30.,            0.,NA,NA,"",            0.,  -5.15824E-39,  -1.59891E-39,   5.47084E-03
C:/temp/dataset/6/11_12.odb,Step-1,Increment      1: Step Time =    1.000,"PART-1-1",           463,      -8.77755,      -24.1806,            0.,NA,NA,"",   46.2615E-03,  -46.1913E-03,  -2.54650E-03,   2.78710E-03
C:/temp/dataset/6/11_12.odb,Step-1,Increment      1: Step Time =    1.000,"PART-1-1",           464,      -9.92276,      -23.8066,            0.,NA,NA,"",   49.8591E-03,  -49.0056E-03,  -9.18615E-03,   2.46218E-03
C:/temp/dataset/6/11_12.odb,Step-1,Increment      1: Step Time =    1.000,"PART-1-1",           465,      -10.3347,      -25.6230,            0.,NA,NA,"",   33.7828E-03,  -32.6775E-03,  -8.57081E-03,   3.68755E-03
C:/temp/dataset/6/11_12.odb,Step-1,Increment      1: Step Time =    1.000,"PART-1-1",           466,       13.9544,      -21.3085,            0.,NA,NA,"",   229.891E-03,  -206.723E-03,   100.576E-03,   13.1093E-03
C:/temp/dataset/6/11_12.odb,Step-1,Increment      1: Step Time =    1.000,"PART-1-1",           467,       13.8855,      -23.5136,            0.,NA,NA,"",   153.317E-03,  -128.664E-03,   83.3758E-03,   11.2676E-03
C:/temp/dataset/6/11_12.odb,Step-1,Increment      1: Step Time =    1.000,"PART-1-1",           468,           15.,      -22.3438,            0.,NA,NA,"",   213.481E-03,  -171.589E-03,   127.009E-03,   12.2172E-03
C:/temp/dataset/6/11_12.odb,Step-1,Increment      1: Step Time =    1.000,"PART-1-1",           469,       12.7349,      -24.6944,            0.,NA,NA,"",   104.048E-03,  -91.3269E-03,   49.8531E-03,   10.6407E-03
C:/temp/dataset/6/11_12.odb,Step-1,Increment      1: Step Time =    1.000,"PART-1-1",           470,       13.8494,      -25.7120,            0.,NA,NA,"",   94.8064E-03,  -74.2648E-03,   58.9322E-03,   13.8981E-03
C:/temp/dataset/6/11_12.odb,Step-1,Increment      1: Step Time =    1.000,"PART-1-1",           471,           15.,      -24.5313,            0.,NA,NA,"",   146.311E-03,  -108.728E-03,   97.9026E-03,   15.6523E-03
C:/temp/dataset/6/11_12.odb,Step-1,Increment      1: Step Time =    1.000,"PART-1-1",           472,         11.25,          -30.,            0.,NA,NA,"",            0.,  -3.57503E-39,   12.3114E-39,   7.16931E-03
C:/temp/dataset/6/11_12.odb,Step-1,Increment      1: Step Time =    1.000,"PART-1-1",           473,       13.9950,      -12.5232,            0.,NA,NA,"",   436.658E-03,  -420.298E-03,   118.407E-03,   8.02293E-03
C:/temp/dataset/6/11_12.odb,Step-1,Increment      1: Step Time =    1.000,"PART-1-1",           474,       12.9942,      -13.6844,            0.,NA,NA,"",   423.361E-03,  -409.094E-03,   108.978E-03,   7.91180E-03
C:/temp/dataset/6/11_12.odb,Step-1,Increment      1: Step Time =    1.000,"PART-1-1",           475,           15.,      -13.5938,            0.,NA,NA,"",   442.230E-03,  -423.412E-03,   127.628E-03,   11.7809E-03
C:/temp/dataset/6/11_12.odb,Step-1,Increment      1: Step Time =    1.000,"PART-1-1",           476,       9.85236,      -17.2546,            0.,NA,NA,"",   313.767E-03,  -308.955E-03,   54.7420E-03,   14.1258E-03
C:/temp/dataset/6/11_12.odb,Step-1,Increment      1: Step Time =    1.000,"PART-1-1",           477,       8.68427,      -17.7513,            0.,NA,NA,"",   286.639E-03,  -284.299E-03,   36.5503E-03,   15.3394E-03
C:/temp/dataset/6/11_12.odb,Step-1,Increment      1: Step Time =    1.000,"PART-1-1",           478,       8.96140,      -18.9835,            0.,NA,NA,"",   246.399E-03,  -244.027E-03,   34.1104E-03,   17.9707E-03
C:/temp/dataset/6/11_12.odb,Step-1,Increment      1: Step Time =    1.000,"PART-1-1",           479,       10.1295,      -18.4868,            0.,NA,NA,"",   276.528E-03,  -271.653E-03,   51.6987E-03,   16.8752E-03
C:/temp/dataset/6/11_12.odb,Step-1,Increment      1: Step Time =    1.000,"PART-1-1",           480,       11.2436,      -18.3856,            0.,NA,NA,"",   293.706E-03,  -285.857E-03,   67.4476E-03,   16.2923E-03
C:/temp/dataset/6/11_12.odb,Step-1,Increment      1: Step Time =    1.000,"PART-1-1",           481,       12.3956,      -19.2305,            0.,NA,NA,"",   281.324E-03,  -269.498E-03,   80.7105E-03,   16.2281E-03
C:/temp/dataset/6/11_12.odb,Step-1,Increment      1: Step Time =    1.000,"PART-1-1",           482,       13.1120,      -18.1414,            0.,NA,NA,"",   328.741E-03,  -312.929E-03,   100.726E-03,   13.3221E-03
C:/temp/dataset/6/11_12.odb,Step-1,Increment      1: Step Time =    1.000,"PART-1-1",           483,       11.9600,      -17.2965,            0.,NA,NA,"",   337.488E-03,  -326.774E-03,   84.3605E-03,   13.4916E-03
C:/temp/dataset/6/11_12.odb,Step-1,Increment      1: Step Time =    1.000,"PART-1-1",           484,       14.0024,      -3.77677,            0.,NA,NA,"",   447.374E-03,  -438.063E-03,   90.7997E-03,   1.55073E-03
C:/temp/dataset/6/11_12.odb,Step-1,Increment      1: Step Time =    1.000,"PART-1-1",           485,       13.0359,      -4.87313,            0.,NA,NA,"",   446.551E-03,  -437.502E-03,   89.4393E-03,   2.12325E-03
C:/temp/dataset/6/11_12.odb,Step-1,Increment      1: Step Time =    1.000,"PART-1-1",           486,       14.0335,      -5.94012,            0.,NA,NA,"",   445.338E-03,  -435.196E-03,   94.4986E-03,   2.50970E-03
C:/temp/dataset/6/11_12.odb,Step-1,Increment      1: Step Time =    1.000,"PART-1-1",           487,           15.,      -4.84375,            0.,NA,NA,"",   446.047E-03,  -435.938E-03,   94.4259E-03,   2.26938E-03
C:/temp/dataset/6/11_12.odb,Step-1,Increment      1: Step Time =    1.000,"PART-1-1",           488,       13.0510,      -7.01836,            0.,NA,NA,"",   444.109E-03,  -434.245E-03,   93.0805E-03,   2.87641E-03
C:/temp/dataset/6/11_12.odb,Step-1,Increment      1: Step Time =    1.000,"PART-1-1",           489,       14.0175,      -8.10950,            0.,NA,NA,"",   441.805E-03,  -430.317E-03,   100.098E-03,   3.46290E-03
C:/temp/dataset/6/11_12.odb,Step-1,Increment      1: Step Time =    1.000,"PART-1-1",           490,           15.,      -7.03125,            0.,NA,NA,"",   443.077E-03,  -431.652E-03,   99.9725E-03,   3.39634E-03
C:/temp/dataset/6/11_12.odb,Step-1,Increment      1: Step Time =    1.000,"PART-1-1",           491,         13.75,            5.,            0.,NA,NA,"",   456.997E-03,  -448.574E-03,   87.3397E-03,   13.1900E-06
C:/temp/dataset/6/11_12.odb,Step-1,Increment      1: Step Time =    1.000,"PART-1-1",           492,       12.4982,       3.90020,            0.,NA,NA,"",   454.911E-03,  -446.836E-03,   85.3338E-03,   109.280E-06
C:/temp/dataset/6/11_12.odb,Step-1,Increment      1: Step Time =    1.000,"PART-1-1",           493,       13.7482,       2.80645,            0.,NA,NA,"",   453.754E-03,  -445.264E-03,   87.3627E-03,   91.6856E-06
C:/temp/dataset/6/11_12.odb,Step-1,Increment      1: Step Time =    1.000,"PART-1-1",           494,           15.,       3.90625,            0.,NA,NA,"",   455.721E-03,  -446.894E-03,   89.2572E-03,   13.1489E-06
C:/temp/dataset/6/11_12.odb,Step-1,Increment      1: Step Time =    1.000,"PART-1-1",           495,         11.25,            5.,            0.,NA,NA,"",   456.173E-03,  -448.508E-03,   83.2729E-03,   83.2871E-06
C:/temp/dataset/6/11_12.odb,Step-1,Increment      1: Step Time =    1.000,"PART-1-1",           496,       11.2740,       2.82937,            0.,NA,NA,"",   452.810E-03,  -445.105E-03,   83.1803E-03,   236.669E-06
C:/temp/dataset/6/11_12.odb,Step-1,Increment      1: Step Time =    1.000,"PART-1-1",           497,       11.1422,   446.578E-03,            0.,NA,NA,"",   449.577E-03,  -441.932E-03,   82.5557E-03,   715.024E-06
C:/temp/dataset/6/11_12.odb,Step-1,Increment      1: Step Time =    1.000,"PART-1-1",           498,       10.2035,  -836.101E-03,            0.,NA,NA,"",   447.257E-03,  -440.064E-03,   79.8899E-03,   1.31992E-03
C:/temp/dataset/6/11_12.odb,Step-1,Increment      1: Step Time =    1.000,"PART-1-1",           499,       11.7017,      -1.82731,            0.,NA,NA,"",   447.891E-03,  -440.030E-03,   83.5486E-03,   1.34951E-03
C:/temp/dataset/6/11_12.odb,Step-1,Increment      1: Step Time =    1.000,"PART-1-1",           500,       12.5035,       1.67834,            0.,NA,NA,"",   451.826E-03,  -443.697E-03,   85.3227E-03,   391.795E-06
C:/temp/dataset/6/11_12.odb,Step-1,Increment      1: Step Time =    1.000,"PART-1-1",           501,       9.91277,       1.59761,            0.,NA,NA,"",   450.171E-03,  -442.921E-03,   80.4636E-03,   623.488E-06
C:/temp/dataset/6/11_12.odb,Step-1,Increment      1: Step Time =    1.000,"PART-1-1",           502,       5.19643,       3.92738,            0.,NA,NA,"",   452.379E-03,  -446.327E-03,   73.7503E-03,   555.133E-06
C:/temp/dataset/6/11_12.odb,Step-1,Increment      1: Step Time =    1.000,"PART-1-1",           503,          3.75,            5.,            0.,NA,NA,"",   455.006E-03,  -449.416E-03,   71.1015E-03,   1.08930E-03
C:/temp/dataset/6/11_12.odb,Step-1,Increment      1: Step Time =    1.000,"PART-1-1",           504,       2.66615,       3.61346,            0.,NA,NA,"",   452.112E-03,  -446.720E-03,   69.6190E-03,   1.16664E-03
C:/temp/dataset/6/11_12.odb,Step-1,Increment      1: Step Time =    1.000,"PART-1-1",           505,      -1.00804,       2.95894,            0.,NA,NA,"",   451.217E-03,  -447.385E-03,   58.6853E-03,   1.66178E-03
C:/temp/dataset/6/11_12.odb,Step-1,Increment      1: Step Time =    1.000,"PART-1-1",           506,   87.8012E-03,       3.95476,            0.,NA,NA,"",   455.399E-03,  -451.118E-03,   62.3001E-03,   1.98155E-03
C:/temp/dataset/6/11_12.odb,Step-1,Increment      1: Step Time =    1.000,"PART-1-1",           507,         -1.25,            5.,            0.,NA,NA,"",   462.393E-03,  -459.066E-03,   55.3690E-03,   3.21121E-03
C:/temp/dataset/6/11_12.odb,Step-1,Increment      1: Step Time =    1.000,"PART-1-1",           508,      -2.34584,       4.00418,            0.,NA,NA,"",   459.192E-03,  -456.355E-03,   50.9674E-03,   2.62890E-03
C:/temp/dataset/6/11_12.odb,Step-1,Increment      1: Step Time =    1.000,"PART-1-1",           509,      -3.27281,       2.96378,            0.,NA,NA,"",   452.815E-03,  -450.467E-03,   46.0498E-03,   1.38627E-03
C:/temp/dataset/6/11_12.odb,Step-1,Increment      1: Step Time =    1.000,"PART-1-1",           510,         -3.75,            5.,            0.,NA,NA,"",   469.424E-03,  -467.703E-03,   40.1611E-03,   4.30485E-03
C:/temp/dataset/6/11_12.odb,Step-1,Increment      1: Step Time =    1.000,"PART-1-1",           511,      -4.67697,       3.95960,            0.,NA,NA,"",   462.437E-03,  -461.157E-03,   34.3828E-03,   2.43256E-03
C:/temp/dataset/6/11_12.odb,Step-1,Increment      1: Step Time =    1.000,"PART-1-1",           512,      -7.93004,       8.58536,            0.,NA,NA,"",   520.461E-03,  -520.443E-03,  -4.33330E-03,   114.253E-06
C:/temp/dataset/6/11_12.odb,Step-1,Increment      1: Step Time =    1.000,"PART-1-1",           513,      -8.65034,       7.25415,            0.,NA,NA,"",   504.880E-03,  -504.723E-03,  -12.5686E-03,   455.050E-06
C:/temp/dataset/6/11_12.odb,Step-1,Increment      1: Step Time =    1.000,"PART-1-1",           514,      -7.51010,       6.50150,            0.,NA,NA,"",   495.330E-03,  -495.330E-03,   947.709E-06,   624.459E-06
C:/temp/dataset/6/11_12.odb,Step-1,Increment      1: Step Time =    1.000,"PART-1-1",           515,      -6.78981,       7.83270,            0.,NA,NA,"",   511.465E-03,  -511.383E-03,   9.18066E-03,   250.682E-06
C:/temp/dataset/6/11_12.odb,Step-1,Increment      1: Step Time =    1.000,"PART-1-1",           516,      -7.08495,       12.0475,            0.,NA,NA,"",   561.280E-03,  -561.254E-03,   5.40899E-03,   34.2886E-06
C:/temp/dataset/6/11_12.odb,Step-1,Increment      1: Step Time =    1.000,"PART-1-1",           517,      -6.02998,       11.1050,            0.,NA,NA,"",   550.558E-03,  -550.267E-03,   17.9061E-03,   42.6723E-06
C:/temp/dataset/6/11_12.odb,Step-1,Increment      1: Step Time =    1.000,"PART-1-1",           518,           -5.,       12.2917,            0.,NA,NA,"",   565.029E-03,  -564.239E-03,   29.8835E-03,   53.4228E-06
C:/temp/dataset/6/11_12.odb,Step-1,Increment      1: Step Time =    1.000,"PART-1-1",           519,      -6.05497,       13.2342,            0.,NA,NA,"",   575.478E-03,  -575.214E-03,   17.4174E-03,   24.7183E-06
C:/temp/dataset/6/11_12.odb,Step-1,Increment      1: Step Time =    1.000,"PART-1-1",           520,      -9.96524,       21.0498,            0.,NA,NA,"",   666.988E-03,  -666.361E-03,  -28.9057E-03,   1.20980E-06
C:/temp/dataset/6/11_12.odb,Step-1,Increment      1: Step Time =    1.000,"PART-1-1",           521,      -8.51702,       20.1362,            0.,NA,NA,"",   655.881E-03,  -655.773E-03,  -11.8979E-03,   1.46439E-06
C:/temp/dataset/6/11_12.odb,Step-1,Increment      1: Step Time =    1.000,"PART-1-1",           522,      -8.09442,       21.6565,            0.,NA,NA,"",   673.626E-03,  -673.589E-03,  -7.05642E-03,   688.337E-09
C:/temp/dataset/6/11_12.odb,Step-1,Increment      1: Step Time =    1.000,"PART-1-1",           523,      -9.54264,       22.5701,            0.,NA,NA,"",   684.602E-03,  -684.179E-03,  -24.0644E-03,   303.220E-09
C:/temp/dataset/6/11_12.odb,Step-1,Increment      1: Step Time =    1.000,"PART-1-1",           524,      -7.38593,       19.0122,            0.,NA,NA,"",   642.702E-03,  -642.701E-03,   1.41403E-03,   3.32839E-06
C:/temp/dataset/6/11_12.odb,Step-1,Increment      1: Step Time =    1.000,"PART-1-1",           525,      -6.14460,       17.5723,            0.,NA,NA,"",   626.149E-03,  -625.944E-03,   16.0397E-03,   3.50529E-06
C:/temp/dataset/6/11_12.odb,Step-1,Increment      1: Step Time =    1.000,"PART-1-1",           526,           -5.,       18.5417,            0.,NA,NA,"",   638.037E-03,  -637.361E-03,   29.3635E-03,   1.90305E-06
C:/temp/dataset/6/11_12.odb,Step-1,Increment      1: Step Time =    1.000,"PART-1-1",           527,      -9.12859,       24.1056,            0.,NA,NA,"",   702.440E-03,  -702.174E-03,  -19.3247E-03,   126.768E-09
C:/temp/dataset/6/11_12.odb,Step-1,Increment      1: Step Time =    1.000,"PART-1-1",           528,      -7.82088,       23.2603,            0.,NA,NA,"",   692.384E-03,  -692.373E-03,  -3.96541E-03,   125.117E-09
C:/temp/dataset/6/11_12.odb,Step-1,Increment      1: Step Time =    1.000,"PART-1-1",           529,      -7.11221,       24.6459,            0.,NA,NA,"",   708.647E-03,  -708.634E-03,   4.23168E-03,   73.0036E-09
C:/temp/dataset/6/11_12.odb,Step-1,Increment      1: Step Time =    1.000,"PART-1-1",           530,      -8.41993,       25.4912,            0.,NA,NA,"",   718.522E-03,  -718.436E-03,  -11.1276E-03,   81.0979E-09
C:/temp/dataset/6/11_12.odb,Step-1,Increment      1: Step Time =    1.000,"PART-1-1",           531,           -5.,       28.9583,            0.,NA,NA,"",   759.779E-03,  -759.239E-03,   28.6513E-03,   14.5383E-09
C:/temp/dataset/6/11_12.odb,Step-1,Increment      1: Step Time =    1.000,"PART-1-1",           532,         -6.25,           30.,            0.,NA,NA,"",   771.468E-03,  -771.342E-03,   13.9538E-03,   15.0070E-09
C:/temp/dataset/6/11_12.odb,Step-1,Increment      1: Step Time =    1.000,"PART-1-1",           533,      -6.22481,       27.8751,            0.,NA,NA,"",   746.619E-03,  -746.480E-03,   14.3939E-03,   51.5116E-09
C:/temp/dataset/6/11_12.odb,Step-1,Increment      1: Step Time =    1.000,"PART-1-1",           534,      -11.1386,       27.5393,            0.,NA,NA,"",   743.464E-03,  -742.215E-03,  -43.0788E-03,   64.4120E-09
C:/temp/dataset/6/11_12.odb,Step-1,Increment      1: Step Time =    1.000,"PART-1-1",           535,        -11.25,           30.,            0.,NA,NA,"",   772.286E-03,  -771.000E-03,  -44.5511E-03,   66.8485E-09
C:/temp/dataset/6/11_12.odb,Step-1,Increment      1: Step Time =    1.000,"PART-1-1",           536,      -13.1147,       13.7606,            0.,NA,NA,"",   584.474E-03,  -580.820E-03,  -65.2518E-03,   21.7244E-06
C:/temp/dataset/6/11_12.odb,Step-1,Increment      1: Step Time =    1.000,"PART-1-1",           537,      -14.0658,       14.9906,            0.,NA,NA,"",   600.047E-03,  -595.156E-03,  -76.4565E-03,   11.8268E-06
C:/temp/dataset/6/11_12.odb,Step-1,Increment      1: Step Time =    1.000,"PART-1-1",           538,          -15.,         13.75,            0.,NA,NA,"",   587.103E-03,  -580.579E-03,  -87.2783E-03,   26.7598E-06
C:/temp/dataset/6/11_12.odb,Step-1,Increment      1: Step Time =    1.000,"PART-1-1",           539,      -9.42834,       18.6970,            0.,NA,NA,"",   639.265E-03,  -638.870E-03,  -22.4657E-03,   4.37730E-06
C:/temp/dataset/6/11_12.odb,Step-1,Increment      1: Step Time =    1.000,"PART-1-1",           540,      -8.29725,       17.5730,            0.,NA,NA,"",   625.868E-03,  -625.801E-03,  -9.15492E-03,   5.62006E-06
C:/temp/dataset/6/11_12.odb,Step-1,Increment      1: Step Time =    1.000,"PART-1-1",           541,      -12.7588,       6.21303,            0.,NA,NA,"",   497.258E-03,  -493.557E-03,  -60.5608E-03,   367.479E-06
C:/temp/dataset/6/11_12.odb,Step-1,Increment      1: Step Time =    1.000,"PART-1-1",           542,          -15.,          6.25,            0.,NA,NA,"",   501.323E-03,  -493.829E-03,  -86.3601E-03,   75.0064E-06
C:/temp/dataset/6/11_12.odb,Step-1,Increment      1: Step Time =    1.000,"PART-1-1",           543,      -9.01063,       9.47069,            0.,NA,NA,"",   531.154E-03,  -530.879E-03,  -17.0831E-03,   75.1366E-06
C:/temp/dataset/6/11_12.odb,Step-1,Increment      1: Step Time =    1.000,"PART-1-1",           544,      -10.0811,       10.4578,            0.,NA,NA,"",   543.215E-03,  -542.405E-03,  -29.6670E-03,   35.2362E-06
C:/temp/dataset/6/11_12.odb,Step-1,Increment      1: Step Time =    1.000,"PART-1-1",           545,      -10.9384,       9.05000,            0.,NA,NA,"",   527.431E-03,  -525.944E-03,  -39.5800E-03,   93.1223E-06
C:/temp/dataset/6/11_12.odb,Step-1,Increment      1: Step Time =    1.000,"PART-1-1",           546,      -9.86794,       8.06293,            0.,NA,NA,"",   515.115E-03,  -514.409E-03,  -26.9603E-03,   164.020E-06
C:/temp/dataset/6/11_12.odb,Step-1,Increment      1: Step Time =    1.000,"PART-1-1",           547,      -7.23366,       1.29985,            0.,NA,NA,"",   439.254E-03,  -439.163E-03,   8.94832E-03,   1.74114E-03
C:/temp/dataset/6/11_12.odb,Step-1,Increment      1: Step Time =    1.000,"PART-1-1",           548,      -8.34685,   784.410E-03,            0.,NA,NA,"",   434.550E-03,  -434.529E-03,  -4.29160E-03,   1.80715E-03
C:/temp/dataset/6/11_12.odb,Step-1,Increment      1: Step Time =    1.000,"PART-1-1",           549,      -7.43977,  -685.632E-03,            0.,NA,NA,"",   419.907E-03,  -419.834E-03,   7.84426E-03,   1.69003E-03
C:/temp/dataset/6/11_12.odb,Step-1,Increment      1: Step Time =    1.000,"PART-1-1",           550,      -12.4903,      -8.57964,            0.,NA,NA,"",   301.510E-03,  -294.417E-03,  -65.0129E-03,   2.27983E-03
C:/temp/dataset/6/11_12.odb,Step-1,Increment      1: Step Time =    1.000,"PART-1-1",           551,          -15.,         -8.75,            0.,NA,NA,"",   309.556E-03,  -290.328E-03,  -107.399E-03,   722.913E-06
C:/temp/dataset/6/11_12.odb,Step-1,Increment      1: Step Time =    1.000,"PART-1-1",           552,      -13.5658,      -9.92286,            0.,NA,NA,"",   280.759E-03,  -268.497E-03,  -82.0674E-03,   1.53663E-03
C:/temp/dataset/6/11_12.odb,Step-1,Increment      1: Step Time =    1.000,"PART-1-1",           553,      -11.9783,      -7.15971,            0.,NA,NA,"",   326.193E-03,  -321.167E-03,  -57.0386E-03,   2.18534E-03
C:/temp/dataset/6/11_12.odb,Step-1,Increment      1: Step Time =    1.000,"PART-1-1",           554,      -11.8960,      -5.22799,            0.,NA,NA,"",   358.997E-03,  -354.783E-03,  -54.8457E-03,   1.58591E-03
C:/temp/dataset/6/11_12.odb,Step-1,Increment      1: Step Time =    1.000,"PART-1-1",           555,      -12.4565,      -16.3452,            0.,NA,NA,"",   156.997E-03,  -147.633E-03,  -53.4084E-03,   3.50771E-03
C:/temp/dataset/6/11_12.odb,Step-1,Increment      1: Step Time =    1.000,"PART-1-1",           556,          -15.,        -16.25,            0.,NA,NA,"",   178.843E-03,  -153.400E-03,  -91.9415E-03,   4.74687E-03
C:/temp/dataset/6/11_12.odb,Step-1,Increment      1: Step Time =    1.000,"PART-1-1",           557,      -13.7435,      -17.5611,            0.,NA,NA,"",   146.424E-03,  -130.047E-03,  -67.2880E-03,   4.45144E-03
C:/temp/dataset/6/11_12.odb,Step-1,Increment      1: Step Time =    1.000,"PART-1-1",           558,      -9.99221,      -8.41662,            0.,NA,NA,"",   299.578E-03,  -298.315E-03,  -27.4829E-03,   3.17014E-03
C:/temp/dataset/6/11_12.odb,Step-1,Increment      1: Step Time =    1.000,"PART-1-1",           559,      -11.4633,      -9.12095,            0.,NA,NA,"",   288.408E-03,  -284.195E-03,  -49.1174E-03,   2.84603E-03
C:/temp/dataset/6/11_12.odb,Step-1,Increment      1: Step Time =    1.000,"PART-1-1",           560,      -10.8070,      -10.1141,            0.,NA,NA,"",   267.470E-03,  -264.665E-03,  -38.6348E-03,   3.07938E-03
C:/temp/dataset/6/11_12.odb,Step-1,Increment      1: Step Time =    1.000,"PART-1-1",           561,      -13.9189,      -24.9166,            0.,NA,NA,"",   55.7390E-03,  -44.4489E-03,  -33.6323E-03,   6.15036E-03
C:/temp/dataset/6/11_12.odb,Step-1,Increment      1: Step Time =    1.000,"PART-1-1",           562,      -12.9076,      -23.6273,            0.,NA,NA,"",   62.5900E-03,  -53.9948E-03,  -31.6555E-03,   5.06804E-03
C:/temp/dataset/6/11_12.odb,Step-1,Increment      1: Step Time =    1.000,"PART-1-1",           563,          -15.,        -23.75,            0.,NA,NA,"",   76.7023E-03,  -58.1902E-03,  -49.9714E-03,   6.75259E-03
C:/temp/dataset/6/11_12.odb,Step-1,Increment      1: Step Time =    1.000,"PART-1-1",           564,          -15.,        -28.75,            0.,NA,NA,"",   19.8902E-03,  -14.5637E-03,  -13.5468E-03,   11.2487E-03
C:/temp/dataset/6/11_12.odb,Step-1,Increment      1: Step Time =    1.000,"PART-1-1",           565,        -13.75,          -30.,            0.,NA,NA,"",            0.,  -912.783E-42,  -13.3349E-39,   9.93129E-03
C:/temp/dataset/6/11_12.odb,Step-1,Increment      1: Step Time =    1.000,"PART-1-1",           566,      -13.7642,      -27.4123,            0.,NA,NA,"",   27.3576E-03,  -21.4329E-03,  -17.0021E-03,   7.48931E-03
C:/temp/dataset/6/11_12.odb,Step-1,Increment      1: Step Time =    1.000,"PART-1-1",           567,            5.,      -6.25625,            0.,NA,NA,"",   433.313E-03,  -429.860E-03,   54.5922E-03,   6.10067E-03
C:/temp/dataset/6/11_12.odb,Step-1,Increment      1: Step Time =    1.000,"PART-1-1",           568,       7.03347,      -6.11658,            0.,NA,NA,"",   437.868E-03,  -433.764E-03,   59.8073E-03,   4.28081E-03
C:/temp/dataset/6/11_12.odb,Step-1,Increment      1: Step Time =    1.000,"PART-1-1",           569,       6.04361,      -4.83741,            0.,NA,NA,"",   434.998E-03,  -430.685E-03,   61.1034E-03,   4.68474E-03
C:/temp/dataset/6/11_12.odb,Step-1,Increment      1: Step Time =    1.000,"PART-1-1",           570,           15.,      -2.65625,            0.,NA,NA,"",   448.026E-03,  -438.659E-03,   91.1373E-03,   1.21583E-03
C:/temp/dataset/6/11_12.odb,Step-1,Increment      1: Step Time =    1.000,"PART-1-1",           571,       12.8875,      -2.72454,            0.,NA,NA,"",   447.961E-03,  -439.419E-03,   87.0612E-03,   1.45264E-03
C:/temp/dataset/6/11_12.odb,Step-1,Increment      1: Step Time =    1.000,"PART-1-1",           572,       10.0248,      -7.91896,            0.,NA,NA,"",   440.707E-03,  -434.175E-03,   75.5991E-03,   3.31292E-03
C:/temp/dataset/6/11_12.odb,Step-1,Increment      1: Step Time =    1.000,"PART-1-1",           573,       8.98203,      -8.99604,            0.,NA,NA,"",   435.665E-03,  -430.571E-03,   66.4295E-03,   3.65777E-03
C:/temp/dataset/6/11_12.odb,Step-1,Increment      1: Step Time =    1.000,"PART-1-1",           574,       9.98204,      -10.2112,            0.,NA,NA,"",   432.419E-03,  -425.875E-03,   74.9434E-03,   3.39868E-03
C:/temp/dataset/6/11_12.odb,Step-1,Increment      1: Step Time =    1.000,"PART-1-1",           575,            5.,      -11.2813,            0.,NA,NA,"",   405.784E-03,  -405.411E-03,   17.3945E-03,   10.1710E-03
C:/temp/dataset/6/11_12.odb,Step-1,Increment      1: Step Time =    1.000,"PART-1-1",           576,       6.96001,      -11.3098,            0.,NA,NA,"",   414.125E-03,  -412.327E-03,   38.5507E-03,   5.80302E-03
C:/temp/dataset/6/11_12.odb,Step-1,Increment      1: Step Time =    1.000,"PART-1-1",           577,       12.1169,      -5.93459,            0.,NA,NA,"",   445.368E-03,  -436.793E-03,   86.9753E-03,   2.54084E-03
C:/temp/dataset/6/11_12.odb,Step-1,Increment      1: Step Time =    1.000,"PART-1-1",           578,       11.1088,      -6.97100,            0.,NA,NA,"",   443.543E-03,  -435.789E-03,   82.5702E-03,   3.07198E-03
C:/temp/dataset/6/11_12.odb,Step-1,Increment      1: Step Time =    1.000,"PART-1-1",           579,           15.,      -11.4063,            0.,NA,NA,"",   433.110E-03,  -417.431E-03,   115.480E-03,   5.25324E-03
C:/temp/dataset/6/11_12.odb,Step-1,Increment      1: Step Time =    1.000,"PART-1-1",           580,       13.9991,      -10.3053,            0.,NA,NA,"",   436.521E-03,  -423.079E-03,   107.492E-03,   4.80588E-03
C:/temp/dataset/6/11_12.odb,Step-1,Increment      1: Step Time =    1.000,"PART-1-1",           581,       12.9941,      -11.4223,            0.,NA,NA,"",   434.753E-03,  -421.633E-03,   105.997E-03,   5.80582E-03
C:/temp/dataset/6/11_12.odb,Step-1,Increment      1: Step Time =    1.000,"PART-1-1",           582,           15.,      -9.21875,            0.,NA,NA,"",   438.447E-03,  -425.022E-03,   107.665E-03,   4.26723E-03
C:/temp/dataset/6/11_12.odb,Step-1,Increment      1: Step Time =    1.000,"PART-1-1",           583,       9.25975,      -25.9916,            0.,NA,NA,"",   52.4238E-03,  -52.1036E-03,   5.78567E-03,   8.01178E-03
C:/temp/dataset/6/11_12.odb,Step-1,Increment      1: Step Time =    1.000,"PART-1-1",           584,       7.97004,      -27.0667,            0.,NA,NA,"",   33.4459E-03,  -33.4218E-03,  -1.27064E-03,   7.35754E-03
C:/temp/dataset/6/11_12.odb,Step-1,Increment      1: Step Time =    1.000,"PART-1-1",           585,       9.98268,      -20.3187,            0.,NA,NA,"",   210.761E-03,  -207.310E-03,   37.9869E-03,   17.8257E-03
C:/temp/dataset/6/11_12.odb,Step-1,Increment      1: Step Time =    1.000,"PART-1-1",           586,       8.47236,      -19.9740,            0.,NA,NA,"",   205.670E-03,  -204.476E-03,   22.1283E-03,   18.6270E-03
C:/temp/dataset/6/11_12.odb,Step-1,Increment      1: Step Time =    1.000,"PART-1-1",           587,       7.80775,      -21.2882,            0.,NA,NA,"",   155.243E-03,  -155.118E-03,   6.23055E-03,   15.9379E-03
C:/temp/dataset/6/11_12.odb,Step-1,Increment      1: Step Time =    1.000,"PART-1-1",           588,       9.31806,      -21.6330,            0.,NA,NA,"",   159.929E-03,  -158.450E-03,   21.6961E-03,   15.1446E-03
C:/temp/dataset/6/11_12.odb,Step-1,Increment      1: Step Time =    1.000,"PART-1-1",           589,          3.75,          -20.,            0.,NA,NA,"",   129.176E-03,  -128.489E-03,  -13.3101E-03,   24.1099E-03
C:/temp/dataset/6/11_12.odb,Step-1,Increment      1: Step Time =    1.000,"PART-1-1",           590,       2.69482,      -20.9389,            0.,NA,NA,"",   113.083E-03,  -112.294E-03,  -13.3307E-03,   12.2322E-03
C:/temp/dataset/6/11_12.odb,Step-1,Increment      1: Step Time =    1.000,"PART-1-1",           591,       4.10336,      -21.5712,            0.,NA,NA,"",   122.137E-03,  -119.771E-03,  -23.9227E-03,   14.2575E-03
C:/temp/dataset/6/11_12.odb,Step-1,Increment      1: Step Time =    1.000,"PART-1-1",           592,       5.15854,      -20.6323,            0.,NA,NA,"",   147.464E-03,  -144.917E-03,  -27.2908E-03,   21.8972E-03
C:/temp/dataset/6/11_12.odb,Step-1,Increment      1: Step Time =    1.000,"PART-1-1",           593,          1.25,          -20.,            0.,NA,NA,"",   97.0241E-03,  -97.0222E-03,  -602.448E-06,   9.60037E-03
C:/temp/dataset/6/11_12.odb,Step-1,Increment      1: Step Time =    1.000,"PART-1-1",           594,       1.58638,      -22.3782,            0.,NA,NA,"",   93.5180E-03,  -92.9097E-03,  -10.6490E-03,   11.6150E-03
C:/temp/dataset/6/11_12.odb,Step-1,Increment      1: Step Time =    1.000,"PART-1-1",           595,      -7.18878,      -21.5166,            0.,NA,NA,"",   71.7996E-03,  -71.2693E-03,   8.71032E-03,   2.34547E-03
C:/temp/dataset/6/11_12.odb,Step-1,Increment      1: Step Time =    1.000,"PART-1-1",           596,      -8.69544,      -20.4918,            0.,NA,NA,"",   82.3355E-03,  -82.2932E-03,  -2.63961E-03,   1.96745E-03
C:/temp/dataset/6/11_12.odb,Step-1,Increment      1: Step Time =    1.000,"PART-1-1",           597,      -9.53108,      -21.9939,            0.,NA,NA,"",   66.9904E-03,  -66.4371E-03,  -8.59207E-03,   1.87746E-03
C:/temp/dataset/6/11_12.odb,Step-1,Increment      1: Step Time =    1.000,"PART-1-1",           598,      -8.02442,      -23.0186,            0.,NA,NA,"",   57.3061E-03,  -57.2748E-03,   1.89294E-03,   2.47499E-03
C:/temp/dataset/6/11_12.odb,Step-1,Increment      1: Step Time =    1.000,"PART-1-1",           599,           -5.,      -18.7437,            0.,NA,NA,"",   112.247E-03,  -106.533E-03,   35.3560E-03,   8.89534E-03
C:/temp/dataset/6/11_12.odb,Step-1,Increment      1: Step Time =    1.000,"PART-1-1",           600,      -6.23242,      -17.5731,            0.,NA,NA,"",   126.006E-03,  -123.555E-03,   24.7324E-03,   4.20093E-03
C:/temp/dataset/6/11_12.odb,Step-1,Increment      1: Step Time =    1.000,"PART-1-1",           601,      -7.41830,      -18.9573,            0.,NA,NA,"",   100.961E-03,  -100.570E-03,   8.88233E-03,   3.20853E-03
C:/temp/dataset/6/11_12.odb,Step-1,Increment      1: Step Time =    1.000,"PART-1-1",           602,      -6.18588,      -20.1280,            0.,NA,NA,"",   85.7918E-03,  -83.8631E-03,   18.0886E-03,   5.31478E-03
C:/temp/dataset/6/11_12.odb,Step-1,Increment      1: Step Time =    1.000,"PART-1-1",           603,           -5.,      -16.2312,            0.,NA,NA,"",   157.884E-03,  -149.981E-03,   49.3247E-03,   4.18721E-03
C:/temp/dataset/6/11_12.odb,Step-1,Increment      1: Step Time =    1.000,"PART-1-1",           604,      -7.44257,      -16.3835,            0.,NA,NA,"",   144.196E-03,  -143.726E-03,   11.6382E-03,   3.59903E-03
C:/temp/dataset/6/11_12.odb,Step-1,Increment      1: Step Time =    1.000,"PART-1-1",           605,      -12.6830,      -26.0788,            0.,NA,NA,"",   36.1165E-03,  -30.8674E-03,  -18.7512E-03,   5.78409E-03
C:/temp/dataset/6/11_12.odb,Step-1,Increment      1: Step Time =    1.000,"PART-1-1",           606,          -15.,        -26.25,            0.,NA,NA,"",   49.9316E-03,  -36.0923E-03,  -34.5039E-03,   7.88502E-03
C:/temp/dataset/6/11_12.odb,Step-1,Increment      1: Step Time =    1.000,"PART-1-1",           607,         -8.75,          -30.,            0.,NA,NA,"",            0.,  -3.69606E-39,  -3.43497E-39,   4.33403E-03
C:/temp/dataset/6/11_12.odb,Step-1,Increment      1: Step Time =    1.000,"PART-1-1",           608,          -15.,        -18.75,            0.,NA,NA,"",   140.088E-03,  -115.446E-03,  -79.3528E-03,   5.90514E-03
C:/temp/dataset/6/11_12.odb,Step-1,Increment      1: Step Time =    1.000,"PART-1-1",           609,      -12.5734,      -18.8685,            0.,NA,NA,"",   118.393E-03,  -108.611E-03,  -47.1234E-03,   3.94182E-03
C:/temp/dataset/6/11_12.odb,Step-1,Increment      1: Step Time =    1.000,"PART-1-1",           610,           -5.,      -11.2063,            0.,NA,NA,"",   249.479E-03,  -242.920E-03,   56.8293E-03,   305.234E-06
C:/temp/dataset/6/11_12.odb,Step-1,Increment      1: Step Time =    1.000,"PART-1-1",           611,      -7.25264,      -11.4522,            0.,NA,NA,"",   238.321E-03,  -237.722E-03,   16.8796E-03,   2.29123E-03
C:/temp/dataset/6/11_12.odb,Step-1,Increment      1: Step Time =    1.000,"PART-1-1",           612,           -5.,      -6.23750,            0.,NA,NA,"",   345.293E-03,  -341.932E-03,   48.0576E-03,   5.97603E-03
C:/temp/dataset/6/11_12.odb,Step-1,Increment      1: Step Time =    1.000,"PART-1-1",           613,      -6.16987,      -5.46941,            0.,NA,NA,"",   361.402E-03,  -360.493E-03,   25.6087E-03,   6.35576E-03
C:/temp/dataset/6/11_12.odb,Step-1,Increment      1: Step Time =    1.000,"PART-1-1",           614,      -7.24309,      -6.98789,            0.,NA,NA,"",   328.145E-03,  -327.924E-03,   12.0274E-03,   3.36736E-03
C:/temp/dataset/6/11_12.odb,Step-1,Increment      1: Step Time =    1.000,"PART-1-1",           615,           -5.,       16.4583,            0.,NA,NA,"",   613.702E-03,  -612.992E-03,   29.5119E-03,   7.54363E-06
C:/temp/dataset/6/11_12.odb,Step-1,Increment      1: Step Time =    1.000,"PART-1-1",           616,      -7.23328,       16.4840,            0.,NA,NA,"",   613.149E-03,  -613.140E-03,   3.37235E-03,   10.2494E-06
C:/temp/dataset/6/11_12.odb,Step-1,Increment      1: Step Time =    1.000,"PART-1-1",           617,      -6.08867,       15.3700,            0.,NA,NA,"",   600.429E-03,  -600.192E-03,   16.8535E-03,   10.2692E-06
C:/temp/dataset/6/11_12.odb,Step-1,Increment      1: Step Time =    1.000,"PART-1-1",           618,      -13.1522,       16.1892,            0.,NA,NA,"",   612.799E-03,  -609.250E-03,  -65.8611E-03,   10.3317E-06
C:/temp/dataset/6/11_12.odb,Step-1,Increment      1: Step Time =    1.000,"PART-1-1",           619,      -14.0864,       17.4486,            0.,NA,NA,"",   628.647E-03,  -623.929E-03,  -76.8777E-03,   3.47834E-06
C:/temp/dataset/6/11_12.odb,Step-1,Increment      1: Step Time =    1.000,"PART-1-1",           620,          -15.,         16.25,            0.,NA,NA,"",   616.081E-03,  -609.838E-03,  -87.4824E-03,   8.22897E-06
C:/temp/dataset/6/11_12.odb,Step-1,Increment      1: Step Time =    1.000,"PART-1-1",           621,           -5.,       24.7917,            0.,NA,NA,"",   711.074E-03,  -710.485E-03,   28.9362E-03,   204.456E-09
C:/temp/dataset/6/11_12.odb,Step-1,Increment      1: Step Time =    1.000,"PART-1-1",           622,      -6.14442,       25.7689,            0.,NA,NA,"",   722.006E-03,  -721.840E-03,   15.4787E-03,   94.3422E-09
C:/temp/dataset/6/11_12.odb,Step-1,Increment      1: Step Time =    1.000,"PART-1-1",           623,           -5.,        26.875,            0.,NA,NA,"",   735.426E-03,  -734.862E-03,   28.7938E-03,   85.3861E-09
C:/temp/dataset/6/11_12.odb,Step-1,Increment      1: Step Time =    1.000,"PART-1-1",           624,      -7.36924,       26.7689,            0.,NA,NA,"",   733.459E-03,  -733.458E-03,   1.07889E-03,   93.5793E-09
C:/temp/dataset/6/11_12.odb,Step-1,Increment      1: Step Time =    1.000,"PART-1-1",           625,      -13.1175,       20.9132,            0.,NA,NA,"",   667.793E-03,  -664.545E-03,  -65.7808E-03,   857.226E-09
C:/temp/dataset/6/11_12.odb,Step-1,Increment      1: Step Time =    1.000,"PART-1-1",           626,      -14.0212,       22.2867,            0.,NA,NA,"",   684.836E-03,  -680.556E-03,  -76.4498E-03,   161.210E-09
C:/temp/dataset/6/11_12.odb,Step-1,Increment      1: Step Time =    1.000,"PART-1-1",           627,          -15.,         21.25,            0.,NA,NA,"",   674.103E-03,  -668.357E-03,  -87.8325E-03,   116.680E-09
C:/temp/dataset/6/11_12.odb,Step-1,Increment      1: Step Time =    1.000,"PART-1-1",           628,      -14.0963,       19.8765,            0.,NA,NA,"",   656.893E-03,  -652.346E-03,  -77.1628E-03,   688.336E-09
C:/temp/dataset/6/11_12.odb,Step-1,Increment      1: Step Time =    1.000,"PART-1-1",           629,         -1.25,           -5.,            0.,NA,NA,"",   403.449E-03,  -400.125E-03,   51.6872E-03,   5.72549E-03
C:/temp/dataset/6/11_12.odb,Step-1,Increment      1: Step Time =    1.000,"PART-1-1",           630,      -1.77292,      -3.03732,            0.,NA,NA,"",   411.088E-03,  -407.505E-03,   54.1559E-03,   4.29667E-03
C:/temp/dataset/6/11_12.odb,Step-1,Increment      1: Step Time =    1.000,"PART-1-1",           631,      -12.1053,      -2.30059,            0.,NA,NA,"",   401.394E-03,  -397.570E-03,  -55.2707E-03,   1.33727E-03
C:/temp/dataset/6/11_12.odb,Step-1,Increment      1: Step Time =    1.000,"PART-1-1",           632,      -10.7648,      -1.40855,            0.,NA,NA,"",   411.462E-03,  -409.874E-03,  -36.1150E-03,   1.32370E-03
C:/temp/dataset/6/11_12.odb,Step-1,Increment      1: Step Time =    1.000,"PART-1-1",           633,      -11.5438,  -354.672E-03,            0.,NA,NA,"",   424.275E-03,  -421.745E-03,  -46.2589E-03,   1.45891E-03
C:/temp/dataset/6/11_12.odb,Step-1,Increment      1: Step Time =    1.000,"PART-1-1",           634,          3.75,           -5.,            0.,NA,NA,"",   427.102E-03,  -422.277E-03,   64.0163E-03,   4.59570E-03
C:/temp/dataset/6/11_12.odb,Step-1,Increment      1: Step Time =    1.000,"PART-1-1",           635,       4.52066,      -3.83856,            0.,NA,NA,"",   429.740E-03,  -424.707E-03,   65.5772E-03,   3.71962E-03
C:/temp/dataset/6/11_12.odb,Step-1,Increment      1: Step Time =    1.000,"PART-1-1",           636,       2.94662,      -2.72704,            0.,NA,NA,"",   428.233E-03,  -422.988E-03,   66.8138E-03,   2.80766E-03
C:/temp/dataset/6/11_12.odb,Step-1,Increment      1: Step Time =    1.000,"PART-1-1",           637,       1.50395,       2.56821,            0.,NA,NA,"",   448.413E-03,  -443.328E-03,   67.3354E-03,   1.44872E-03
C:/temp/dataset/6/11_12.odb,Step-1,Increment      1: Step Time =    1.000,"PART-1-1",           638,          1.25,            5.,            0.,NA,NA,"",   457.726E-03,  -453.062E-03,   65.1725E-03,   2.17091E-03
C:/temp/dataset/6/11_12.odb,Step-1,Increment      1: Step Time =    1.000,"PART-1-1",           639,          6.25,            5.,            0.,NA,NA,"",   454.361E-03,  -448.094E-03,   75.2039E-03,   254.061E-06
C:/temp/dataset/6/11_12.odb,Step-1,Increment      1: Step Time =    1.000,"PART-1-1",           640,  -213.968E-03,      -26.0734,            0.,NA,NA,"",   48.9514E-03,  -48.7382E-03,  -4.56306E-03,   9.26976E-03
C:/temp/dataset/6/11_12.odb,Step-1,Increment      1: Step Time =    1.000,"PART-1-1",           641,       1.14210,      -23.8512,            0.,NA,NA,"",   77.4927E-03,  -76.9118E-03,  -9.47091E-03,   10.1167E-03
C:/temp/dataset/6/11_12.odb,Step-1,Increment      1: Step Time =    1.000,"PART-1-1",           642,  -234.527E-03,      -23.9674,            0.,NA,NA,"",   71.6718E-03,  -71.5332E-03,  -4.45481E-03,   9.34985E-03
C:/temp/dataset/6/11_12.odb,Step-1,Increment      1: Step Time =    1.000,"PART-1-1",           643,           -5.,        14.375,            0.,NA,NA,"",   589.371E-03,  -588.623E-03,   29.6768E-03,   23.1338E-06
C:/temp/dataset/6/11_12.odb,Step-1,Increment      1: Step Time =    1.000,"PART-1-1",           644,      -7.14364,       14.2292,            0.,NA,NA,"",   586.796E-03,  -586.778E-03,   4.57438E-03,   21.8799E-06
C:/temp/dataset/6/11_12.odb,Step-1,Increment      1: Step Time =    1.000,"PART-1-1",           645,           -5.,       6.04167,            0.,NA,NA,"",   490.027E-03,  -489.050E-03,   30.9180E-03,   1.13504E-03
C:/temp/dataset/6/11_12.odb,Step-1,Increment      1: Step Time =    1.000,"PART-1-1",           646,      -5.82078,       6.95384,            0.,NA,NA,"",   500.950E-03,  -500.518E-03,   20.7857E-03,   427.899E-06
C:/temp/dataset/6/11_12.odb,Step-1,Increment      1: Step Time =    1.000,"PART-1-1",           647,      -6.45742,       5.85906,            0.,NA,NA,"",   486.829E-03,  -486.647E-03,   13.3201E-03,   1.19177E-03
C:/temp/dataset/6/11_12.odb,Step-1,Increment      1: Step Time =    1.000,"PART-1-1",           648,      -5.63664,       4.94688,            0.,NA,NA,"",   474.284E-03,  -473.713E-03,   23.2693E-03,   2.53617E-03
C:/temp/dataset/6/11_12.odb,Step-1,Increment      1: Step Time =    1.000,"PART-1-1",           649,           -5.,         8.125,            0.,NA,NA,"",   515.931E-03,  -515.020E-03,   30.6518E-03,   161.626E-06
C:/temp/dataset/6/11_12.odb,Step-1,Increment      1: Step Time =    1.000,"PART-1-1",           650,      -5.96903,       9.00386,            0.,NA,NA,"",   525.821E-03,  -525.482E-03,   18.8643E-03,   78.5629E-06
C:/temp/dataset/6/11_12.odb,Step-1,Increment      1: Step Time =    1.000,"PART-1-1",           651,          -15.,         -3.75,            0.,NA,NA,"",   387.207E-03,  -374.442E-03,  -98.6019E-03,   2.70431E-03
C:/temp/dataset/6/11_12.odb,Step-1,Increment      1: Step Time =    1.000,"PART-1-1",           652,      -12.7846,      -3.59401,            0.,NA,NA,"",   384.851E-03,  -379.113E-03,  -66.2069E-03,   1.33046E-03
C:/temp/dataset/6/11_12.odb,Step-1,Increment      1: Step Time =    1.000,"PART-1-1",           653,      -11.5430,      -4.20540,            0.,NA,NA,"",   374.500E-03,  -371.287E-03,  -48.9496E-03,   1.32092E-03
C:/temp/dataset/6/11_12.odb,Step-1,Increment      1: Step Time =    1.000,"PART-1-1",           654,      -10.1018,      -4.29084,            0.,NA,NA,"",   372.849E-03,  -371.754E-03,  -28.5459E-03,   1.66152E-03
C:/temp/dataset/6/11_12.odb,Step-1,Increment      1: Step Time =    1.000,"PART-1-1",           655,          -15.,        -11.25,            0.,NA,NA,"",   265.640E-03,  -243.349E-03,  -106.517E-03,   1.18260E-03
C:/temp/dataset/6/11_12.odb,Step-1,Increment      1: Step Time =    1.000,"PART-1-1",           656,      -12.2331,      -11.1785,            0.,NA,NA,"",   251.016E-03,  -243.857E-03,  -59.5214E-03,   2.89297E-03
C:/temp/dataset/6/11_12.odb,Step-1,Increment      1: Step Time =    1.000,"PART-1-1",           657,       5.21391,      -1.02834,            0.,NA,NA,"",   438.164E-03,  -432.381E-03,   70.9541E-03,   2.49427E-03
C:/temp/dataset/6/11_12.odb,Step-1,Increment      1: Step Time =    1.000,"PART-1-1",           658,       6.72319,      -1.59046,            0.,NA,NA,"",   439.988E-03,  -434.145E-03,   71.4640E-03,   2.70569E-03
C:/temp/dataset/6/11_12.odb,Step-1,Increment      1: Step Time =    1.000,"PART-1-1",           659,       10.9187,      -16.2245,            0.,NA,NA,"",   354.545E-03,  -346.708E-03,   74.1344E-03,   11.7583E-03
C:/temp/dataset/6/11_12.odb,Step-1,Increment      1: Step Time =    1.000,"PART-1-1",           660,       11.9858,      -14.8752,            0.,NA,NA,"",   396.414E-03,  -385.142E-03,   93.8602E-03,   9.10534E-03
C:/temp/dataset/6/11_12.odb,Step-1,Increment      1: Step Time =    1.000,"PART-1-1",           661,       10.9746,      -13.7451,            0.,NA,NA,"",   405.315E-03,  -396.690E-03,   83.1681E-03,   5.79941E-03
C:/temp/dataset/6/11_12.odb,Step-1,Increment      1: Step Time =    1.000,"PART-1-1",           662,       11.9830,      -12.5543,            0.,NA,NA,"",   425.423E-03,  -414.142E-03,   97.3180E-03,   5.16248E-03
C:/temp/dataset/6/11_12.odb,Step-1,Increment      1: Step Time =    1.000,"PART-1-1",           663,           15.,      -20.1563,            0.,NA,NA,"",   302.245E-03,  -265.992E-03,   143.529E-03,   11.3795E-03
C:/temp/dataset/6/11_12.odb,Step-1,Increment      1: Step Time =    1.000,"PART-1-1",           664,       14.0841,      -19.1367,            0.,NA,NA,"",   314.629E-03,  -291.150E-03,   119.260E-03,   12.6034E-03
C:/temp/dataset/6/11_12.odb,Step-1,Increment      1: Step Time =    1.000,"PART-1-1",           665,       13.0385,      -20.2889,            0.,NA,NA,"",   252.979E-03,  -237.833E-03,   86.2189E-03,   15.9016E-03
C:/temp/dataset/6/11_12.odb,Step-1,Increment      1: Step Time =    1.000,"PART-1-1",           666,           15.,      -17.9688,            0.,NA,NA,"",   366.561E-03,  -336.006E-03,   146.515E-03,   10.2740E-03
C:/temp/dataset/6/11_12.odb,Step-1,Increment      1: Step Time =    1.000,"PART-1-1",           667,          1.25,          -30.,            0.,NA,NA,"",            0.,  -8.23041E-39,  -4.99704E-39,   8.81953E-03
C:/temp/dataset/6/11_12.odb,Step-1,Increment      1: Step Time =    1.000,"PART-1-1",           668,       3.30543,      -22.6598,            0.,NA,NA,"",   101.207E-03,  -99.3714E-03,  -19.1905E-03,   13.4748E-03
C:/temp/dataset/6/11_12.odb,Step-1,Increment      1: Step Time =    1.000,"PART-1-1",           669,       2.86115,      -24.1329,            0.,NA,NA,"",   79.4253E-03,  -77.8669E-03,  -15.6567E-03,   11.7630E-03
C:/temp/dataset/6/11_12.odb,Step-1,Increment      1: Step Time =    1.000,"PART-1-1",           670,      -10.6801,      -21.6169,            0.,NA,NA,"",   73.7715E-03,  -71.3037E-03,  -18.9214E-03,   2.77283E-03
C:/temp/dataset/6/11_12.odb,Step-1,Increment      1: Step Time =    1.000,"PART-1-1",           671,      -11.3394,      -20.4213,            0.,NA,NA,"",   90.5228E-03,  -85.9805E-03,  -28.3149E-03,   3.23135E-03
C:/temp/dataset/6/11_12.odb,Step-1,Increment      1: Step Time =    1.000,"PART-1-1",           672,      -12.1593,      -22.4638,            0.,NA,NA,"",   70.8356E-03,  -64.2719E-03,  -29.7791E-03,   3.98931E-03
C:/temp/dataset/6/11_12.odb,Step-1,Increment      1: Step Time =    1.000,"PART-1-1",           673,      -9.92443,      -16.4516,            0.,NA,NA,"",   144.612E-03,  -143.213E-03,  -20.0663E-03,   3.39460E-03
C:/temp/dataset/6/11_12.odb,Step-1,Increment      1: Step Time =    1.000,"PART-1-1",           674,      -8.71114,      -17.7111,            0.,NA,NA,"",   121.255E-03,  -121.169E-03,  -4.55526E-03,   3.33312E-03
C:/temp/dataset/6/11_12.odb,Step-1,Increment      1: Step Time =    1.000,"PART-1-1",           675,      -9.25100,      -7.50767,            0.,NA,NA,"",   316.748E-03,  -316.295E-03,  -16.9293E-03,   3.21920E-03
C:/temp/dataset/6/11_12.odb,Step-1,Increment      1: Step Time =    1.000,"PART-1-1",           676,      -8.32615,      -6.25855,            0.,NA,NA,"",   340.801E-03,  -340.777E-03,  -4.02793E-03,   3.36868E-03
C:/temp/dataset/6/11_12.odb,Step-1,Increment      1: Step Time =    1.000,"PART-1-1",           677,      -7.58018,      -5.09368,            0.,NA,NA,"",   363.565E-03,  -363.515E-03,   6.06047E-03,   3.37311E-03
C:/temp/dataset/6/11_12.odb,Step-1,Increment      1: Step Time =    1.000,"PART-1-1",           678,      -6.67379,      -3.84489,            0.,NA,NA,"",   385.812E-03,  -385.358E-03,   18.7101E-03,   3.02799E-03
C:/temp/dataset/6/11_12.odb,Step-1,Increment      1: Step Time =    1.000,"PART-1-1",           679,      -2.40491,      -1.03021,            0.,NA,NA,"",   423.187E-03,  -419.888E-03,   52.7406E-03,   2.28156E-03
C:/temp/dataset/6/11_12.odb,Step-1,Increment      1: Step Time =    1.000,"PART-1-1",           680,      -3.32453,      -2.14711,            0.,NA,NA,"",   412.232E-03,  -409.470E-03,   47.6450E-03,   3.38750E-03
C:/temp/dataset/6/11_12.odb,Step-1,Increment      1: Step Time =    1.000,"PART-1-1",           681,       10.4745,      -24.8101,            0.,NA,NA,"",   81.9396E-03,  -79.5716E-03,   19.5567E-03,   9.91008E-03
C:/temp/dataset/6/11_12.odb,Step-1,Increment      1: Step Time =    1.000,"PART-1-1",           682,       8.16019,      -23.0435,            0.,NA,NA,"",   111.837E-03,  -111.800E-03,   2.87242E-03,   11.0195E-03
C:/temp/dataset/6/11_12.odb,Step-1,Increment      1: Step Time =    1.000,"PART-1-1",           683,       9.40124,      -23.8494,            0.,NA,NA,"",   99.1450E-03,  -98.3716E-03,   12.3589E-03,   10.3446E-03
C:/temp/dataset/6/11_12.odb,Step-1,Increment      1: Step Time =    1.000,"PART-1-1",           684,       5.67200,      -27.0943,            0.,NA,NA,"",   35.4028E-03,  -34.6785E-03,  -7.12429E-03,   8.59293E-03
C:/temp/dataset/6/11_12.odb,Step-1,Increment      1: Step Time =    1.000,"PART-1-1",           685,       4.86106,      -26.0050,            0.,NA,NA,"",   52.4232E-03,  -51.1330E-03,  -11.5592E-03,   9.56953E-03
C:/temp/dataset/6/11_12.odb,Step-1,Increment      1: Step Time =    1.000,"PART-1-1",           686,      -2.55341,      -23.8484,            0.,NA,NA,"",   65.8186E-03,  -65.7023E-03,   3.91101E-03,   8.04596E-03
C:/temp/dataset/6/11_12.odb,Step-1,Increment      1: Step Time =    1.000,"PART-1-1",           687,      -4.82130,      -23.8875,            0.,NA,NA,"",   58.4907E-03,  -57.9412E-03,   7.99825E-03,   7.03575E-03
C:/temp/dataset/6/11_12.odb,Step-1,Increment      1: Step Time =    1.000,"PART-1-1",           688,      -5.84083,      -25.1777,            0.,NA,NA,"",   43.9372E-03,  -43.7049E-03,   4.51214E-03,   6.16624E-03
C:/temp/dataset/6/11_12.odb,Step-1,Increment      1: Step Time =    1.000,"PART-1-1",           689,           15.,      -26.7188,            0.,NA,NA,"",   90.7679E-03,  -62.7634E-03,   65.5711E-03,   18.6985E-03
C:/temp/dataset/6/11_12.odb,Step-1,Increment      1: Step Time =    1.000,"PART-1-1",           690,       10.9874,      -11.4075,            0.,NA,NA,"",   428.563E-03,  -419.918E-03,   85.6453E-03,   3.51988E-03
C:/temp/dataset/6/11_12.odb,Step-1,Increment      1: Step Time =    1.000,"PART-1-1",           691,       7.29436,      -19.7763,            0.,NA,NA,"",   199.478E-03,  -199.279E-03,   8.89587E-03,   19.5229E-03
C:/temp/dataset/6/11_12.odb,Step-1,Increment      1: Step Time =    1.000,"PART-1-1",           692,       7.78340,      -18.7858,            0.,NA,NA,"",   242.467E-03,  -241.662E-03,   19.7458E-03,   17.4517E-03
C:/temp/dataset/6/11_12.odb,Step-1,Increment      1: Step Time =    1.000,"PART-1-1",           693,       10.8970,      -2.99004,            0.,NA,NA,"",   446.371E-03,  -438.988E-03,   80.8532E-03,   1.98111E-03
C:/temp/dataset/6/11_12.odb,Step-1,Increment      1: Step Time =    1.000,"PART-1-1",           694,       12.0828,      -3.88727,            0.,NA,NA,"",   446.888E-03,  -438.694E-03,   85.1829E-03,   1.94894E-03
C:/temp/dataset/6/11_12.odb,Step-1,Increment      1: Step Time =    1.000,"PART-1-1",           695,           15.,       1.71875,            0.,NA,NA,"",   452.630E-03,  -443.738E-03,   89.2775E-03,   123.569E-06
C:/temp/dataset/6/11_12.odb,Step-1,Increment      1: Step Time =    1.000,"PART-1-1",           696,       4.00043,  -427.215E-03,            0.,NA,NA,"",   438.044E-03,  -432.325E-03,   70.5502E-03,   2.22195E-03
C:/temp/dataset/6/11_12.odb,Step-1,Increment      1: Step Time =    1.000,"PART-1-1",           697,       2.09609,       1.00148,            0.,NA,NA,"",   441.569E-03,  -436.202E-03,   68.6412E-03,   1.71319E-03
C:/temp/dataset/6/11_12.odb,Step-1,Increment      1: Step Time =    1.000,"PART-1-1",           698,       2.38138,  -554.063E-03,            0.,NA,NA,"",   435.041E-03,  -429.632E-03,   68.3876E-03,   2.27653E-03
C:/temp/dataset/6/11_12.odb,Step-1,Increment      1: Step Time =    1.000,"PART-1-1",           699,   35.7305E-03,       2.11113,            0.,NA,NA,"",   446.189E-03,  -441.697E-03,   63.1560E-03,   1.49202E-03
C:/temp/dataset/6/11_12.odb,Step-1,Increment      1: Step Time =    1.000,"PART-1-1",           700,           -5.,       10.2083,            0.,NA,NA,"",   540.599E-03,  -539.756E-03,   30.1701E-03,   116.721E-06
C:/temp/dataset/6/11_12.odb,Step-1,Increment      1: Step Time =    1.000,"PART-1-1",           701,      -6.99901,       9.90050,            0.,NA,NA,"",   536.073E-03,  -536.033E-03,   6.55745E-03,   39.1279E-06
C:/temp/dataset/6/11_12.odb,Step-1,Increment      1: Step Time =    1.000,"PART-1-1",           702,      -11.2396,       16.2208,            0.,NA,NA,"",   611.309E-03,  -609.759E-03,  -43.4986E-03,   11.9231E-06
C:/temp/dataset/6/11_12.odb,Step-1,Increment      1: Step Time =    1.000,"PART-1-1",           703,      -10.2112,       15.1096,            0.,NA,NA,"",   597.659E-03,  -596.834E-03,  -31.4059E-03,   16.0406E-06
C:/temp/dataset/6/11_12.odb,Step-1,Increment      1: Step Time =    1.000,"PART-1-1",           704,      -9.25876,       16.3324,            0.,NA,NA,"",   611.555E-03,  -611.217E-03,  -20.3307E-03,   11.9127E-06
C:/temp/dataset/6/11_12.odb,Step-1,Increment      1: Step Time =    1.000,"PART-1-1",           705,      -10.2871,       17.4437,            0.,NA,NA,"",   624.984E-03,  -624.142E-03,  -32.4331E-03,   6.43406E-06
C:/temp/dataset/6/11_12.odb,Step-1,Increment      1: Step Time =    1.000,"PART-1-1",           706,      -8.19479,       15.2434,            0.,NA,NA,"",   598.611E-03,  -598.560E-03,  -7.80769E-03,   14.3752E-06
C:/temp/dataset/6/11_12.odb,Step-1,Increment      1: Step Time =    1.000,"PART-1-1",           707,      -9.19446,       14.0222,            0.,NA,NA,"",   584.517E-03,  -584.194E-03,  -19.4490E-03,   24.2080E-06
C:/temp/dataset/6/11_12.odb,Step-1,Increment      1: Step Time =    1.000,"PART-1-1",           708,      -8.14331,       13.0080,            0.,NA,NA,"",   572.459E-03,  -572.415E-03,  -7.07661E-03,   26.8593E-06
C:/temp/dataset/6/11_12.odb,Step-1,Increment      1: Step Time =    1.000,"PART-1-1",           709,          -15.,         18.75,            0.,NA,NA,"",   645.084E-03,  -639.100E-03,  -87.6610E-03,   1.51871E-06
C:/temp/dataset/6/11_12.odb,Step-1,Increment      1: Step Time =    1.000,"PART-1-1",           710,      -13.1826,       18.5751,            0.,NA,NA,"",   640.625E-03,  -637.177E-03,  -66.3826E-03,   3.48969E-06
C:/temp/dataset/6/11_12.odb,Step-1,Increment      1: Step Time =    1.000,"PART-1-1",           711,      -11.2313,       23.3702,            0.,NA,NA,"",   694.813E-03,  -693.426E-03,  -43.8787E-03,   192.679E-09
C:/temp/dataset/6/11_12.odb,Step-1,Increment      1: Step Time =    1.000,"PART-1-1",           712,      -10.8173,       24.9058,            0.,NA,NA,"",   712.497E-03,  -711.422E-03,  -39.1390E-03,   83.5241E-09
C:/temp/dataset/6/11_12.odb,Step-1,Increment      1: Step Time =    1.000,"PART-1-1",           713,      -13.5418,       24.7667,            0.,NA,NA,"",   713.152E-03,  -709.608E-03,  -71.0094E-03,   95.1074E-09
C:/temp/dataset/6/11_12.odb,Step-1,Increment      1: Step Time =    1.000,"PART-1-1",           714,      -12.2278,       25.9824,            0.,NA,NA,"",   726.063E-03,  -723.922E-03,  -55.7170E-03,   89.9632E-09
C:/temp/dataset/6/11_12.odb,Step-1,Increment      1: Step Time =    1.000,"PART-1-1",           715,          -15.,         26.25,            0.,NA,NA,"",   732.193E-03,  -726.864E-03,  -88.1736E-03,   114.463E-09
C:/temp/dataset/6/11_12.odb,Step-1,Increment      1: Step Time =    1.000,"PART-1-1",           716,          -15.,         23.75,            0.,NA,NA,"",   703.140E-03,  -697.611E-03,  -88.0029E-03,   241.770E-09
C:/temp/dataset/6/11_12.odb,Step-1,Increment      1: Step Time =    1.000,"PART-1-1",           717,      -12.5630,       23.3034,            0.,NA,NA,"",   695.100E-03,  -692.553E-03,  -59.4563E-03,   103.200E-09
C:/temp/dataset/6/11_12.odb,Step-1,Increment      1: Step Time =    1.000,"PART-1-1",           718,      -11.1827,       13.8735,            0.,NA,NA,"",   583.851E-03,  -582.288E-03,  -42.6979E-03,   23.4045E-06
C:/temp/dataset/6/11_12.odb,Step-1,Increment      1: Step Time =    1.000,"PART-1-1",           719,      -10.1659,       12.7861,            0.,NA,NA,"",   570.476E-03,  -569.646E-03,  -30.7597E-03,   29.4865E-06
C:/temp/dataset/6/11_12.odb,Step-1,Increment      1: Step Time =    1.000,"PART-1-1",           720,      -11.4858,       20.4947,            0.,NA,NA,"",   661.408E-03,  -659.760E-03,  -46.6596E-03,   1.49231E-06
C:/temp/dataset/6/11_12.odb,Step-1,Increment      1: Step Time =    1.000,"PART-1-1",           721,      -10.4732,       19.7487,            0.,NA,NA,"",   652.028E-03,  -651.101E-03,  -34.7616E-03,   2.00942E-06
C:/temp/dataset/6/11_12.odb,Step-1,Increment      1: Step Time =    1.000,"PART-1-1",           722,      -10.9778,       21.7959,            0.,NA,NA,"",   676.253E-03,  -675.021E-03,  -40.8044E-03,   559.321E-09
C:/temp/dataset/6/11_12.odb,Step-1,Increment      1: Step Time =    1.000,"PART-1-1",           723,      -9.13796,       11.7463,            0.,NA,NA,"",   557.875E-03,  -557.562E-03,  -18.6830E-03,   31.1663E-06
C:/temp/dataset/6/11_12.odb,Step-1,Increment      1: Step Time =    1.000,"PART-1-1",           724,      -11.1090,       11.4975,            0.,NA,NA,"",   556.062E-03,  -554.495E-03,  -41.7191E-03,   26.8268E-06
C:/temp/dataset/6/11_12.odb,Step-1,Increment      1: Step Time =    1.000,"PART-1-1",           725,      -7.95801,       5.48811,            0.,NA,NA,"",   483.519E-03,  -483.505E-03,  -3.63435E-03,   1.11193E-03
C:/temp/dataset/6/11_12.odb,Step-1,Increment      1: Step Time =    1.000,"PART-1-1",           726,      -9.27172,       5.51676,            0.,NA,NA,"",   485.166E-03,  -484.790E-03,  -19.0947E-03,   785.753E-06
C:/temp/dataset/6/11_12.odb,Step-1,Increment      1: Step Time =    1.000,"PART-1-1",           727,      -9.10783,       4.19071,            0.,NA,NA,"",   470.245E-03,  -469.964E-03,  -16.2559E-03,   1.35006E-03
C:/temp/dataset/6/11_12.odb,Step-1,Increment      1: Step Time =    1.000,"PART-1-1",           728,      -7.79412,       4.16207,            0.,NA,NA,"",   468.384E-03,  -468.384E-03,  -576.555E-06,   1.58474E-03
C:/temp/dataset/6/11_12.odb,Step-1,Increment      1: Step Time =    1.000,"PART-1-1",           729,      -10.3652,   710.465E-03,            0.,NA,NA,"",   434.935E-03,  -433.871E-03,  -30.3912E-03,   1.55662E-03
C:/temp/dataset/6/11_12.odb,Step-1,Increment      1: Step Time =    1.000,"PART-1-1",           730,      -11.5756,       2.14983,            0.,NA,NA,"",   451.579E-03,  -449.219E-03,  -46.1091E-03,   1.32775E-03
C:/temp/dataset/6/11_12.odb,Step-1,Increment      1: Step Time =    1.000,"PART-1-1",           731,      -10.9514,      -7.70102,            0.,NA,NA,"",   314.493E-03,  -311.700E-03,  -41.8194E-03,   2.69642E-03
C:/temp/dataset/6/11_12.odb,Step-1,Increment      1: Step Time =    1.000,"PART-1-1",           732,      -11.1587,      -15.1039,            0.,NA,NA,"",   172.362E-03,  -168.074E-03,  -38.2047E-03,   3.27602E-03
C:/temp/dataset/6/11_12.odb,Step-1,Increment      1: Step Time =    1.000,"PART-1-1",           733,      -11.0422,      -12.5823,            0.,NA,NA,"",   219.546E-03,  -215.884E-03,  -39.9320E-03,   3.18708E-03
C:/temp/dataset/6/11_12.odb,Step-1,Increment      1: Step Time =    1.000,"PART-1-1",           734,      -9.98828,      -19.2456,            0.,NA,NA,"",   100.877E-03,  -99.4849E-03,  -16.7007E-03,   2.87805E-03
C:/temp/dataset/6/11_12.odb,Step-1,Increment      1: Step Time =    1.000,"PART-1-1",           735,      -11.2222,      -17.6929,            0.,NA,NA,"",   128.556E-03,  -123.977E-03,  -34.0058E-03,   3.37906E-03
C:/temp/dataset/6/11_12.odb,Step-1,Increment      1: Step Time =    1.000,"PART-1-1",           736,      -9.72809,       26.4627,            0.,NA,NA,"",   730.195E-03,  -729.714E-03,  -26.5010E-03,   73.6860E-09
C:/temp/dataset/6/11_12.odb,Step-1,Increment      1: Step Time =    1.000,"PART-1-1",           737,      -8.07960,       10.7858,            0.,NA,NA,"",   546.414E-03,  -546.379E-03,  -6.22027E-03,   31.9203E-06
C:/temp/dataset/6/11_12.odb,Step-1,Increment      1: Step Time =    1.000,"PART-1-1",           738,      -11.3320,       18.4953,            0.,NA,NA,"",   637.942E-03,  -636.373E-03,  -44.7259E-03,   4.62195E-06
C:/temp/dataset/6/11_12.odb,Step-1,Increment      1: Step Time =    1.000,"PART-1-1",           739,      -10.4893,       6.32554,            0.,NA,NA,"",   495.656E-03,  -494.499E-03,  -33.8432E-03,   541.571E-06
C:/temp/dataset/6/11_12.odb,Step-1,Increment      1: Step Time =    1.000,"PART-1-1",           740,      -11.8356,       7.66802,            0.,NA,NA,"",   512.448E-03,  -510.013E-03,  -49.9023E-03,   159.625E-06
C:/temp/dataset/6/11_12.odb,Step-1,Increment      1: Step Time =    1.000,"PART-1-1",           741,      -11.4125,       4.87054,            0.,NA,NA,"",   480.581E-03,  -478.523E-03,  -44.4354E-03,   736.049E-06
C:/temp/dataset/6/11_12.odb,Step-1,Increment      1: Step Time =    1.000,"PART-1-1",           742,       10.1911,      -5.79504,            0.,NA,NA,"",   443.938E-03,  -437.222E-03,   76.9267E-03,   3.05142E-03
C:/temp/dataset/6/11_12.odb,Step-1,Increment      1: Step Time =    1.000,"PART-1-1",           743,       9.10708,      -6.74300,            0.,NA,NA,"",   441.428E-03,  -435.858E-03,   69.9040E-03,   3.60029E-03
C:/temp/dataset/6/11_12.odb,Step-1,Increment      1: Step Time =    1.000,"PART-1-1",           744,       11.1638,      -4.94873,            0.,NA,NA,"",   445.570E-03,  -437.992E-03,   81.8260E-03,   2.56411E-03
C:/temp/dataset/6/11_12.odb,Step-1,Increment      1: Step Time =    1.000,"PART-1-1",           745,       10.4293,      -4.08570,            0.,NA,NA,"",   445.238E-03,  -438.235E-03,   78.6572E-03,   2.55667E-03
C:/temp/dataset/6/11_12.odb,Step-1,Increment      1: Step Time =    1.000,"PART-1-1",           746,       9.97038,      -14.8971,            0.,NA,NA,"",   376.781E-03,  -370.934E-03,   66.1222E-03,   7.61431E-03
C:/temp/dataset/6/11_12.odb,Step-1,Increment      1: Step Time =    1.000,"PART-1-1",           747,       9.96577,      -12.5508,            0.,NA,NA,"",   413.974E-03,  -407.601E-03,   72.3580E-03,   3.69604E-03
C:/temp/dataset/6/11_12.odb,Step-1,Increment      1: Step Time =    1.000,"PART-1-1",           748,       8.96159,      -13.7029,            0.,NA,NA,"",   392.247E-03,  -388.250E-03,   55.8541E-03,   4.71968E-03
C:/temp/dataset/6/11_12.odb,Step-1,Increment      1: Step Time =    1.000,"PART-1-1",           749,       6.92617,      -22.4012,            0.,NA,NA,"",   119.931E-03,  -119.687E-03,  -7.65573E-03,   10.6872E-03
C:/temp/dataset/6/11_12.odb,Step-1,Increment      1: Step Time =    1.000,"PART-1-1",           750,       5.94981,      -23.5281,            0.,NA,NA,"",   93.8372E-03,  -92.6805E-03,  -14.6880E-03,   9.50580E-03
C:/temp/dataset/6/11_12.odb,Step-1,Increment      1: Step Time =    1.000,"PART-1-1",           751,       7.18383,      -24.1705,            0.,NA,NA,"",   83.8440E-03,  -83.5835E-03,  -6.60432E-03,   8.88686E-03
C:/temp/dataset/6/11_12.odb,Step-1,Increment      1: Step Time =    1.000,"PART-1-1",           752,       11.0968,      -20.2176,            0.,NA,NA,"",   227.751E-03,  -221.437E-03,   53.2552E-03,   17.2659E-03
C:/temp/dataset/6/11_12.odb,Step-1,Increment      1: Step Time =    1.000,"PART-1-1",           753,       6.43355,      -20.8801,            0.,NA,NA,"",   152.254E-03,  -151.983E-03,  -9.07991E-03,   14.8265E-03
C:/temp/dataset/6/11_12.odb,Step-1,Increment      1: Step Time =    1.000,"PART-1-1",           754,       8.96045,      -11.3546,            0.,NA,NA,"",   421.336E-03,  -416.725E-03,   62.1593E-03,   3.41229E-03
C:/temp/dataset/6/11_12.odb,Step-1,Increment      1: Step Time =    1.000,"PART-1-1",           755,       8.17216,      -2.03287,            0.,NA,NA,"",   442.605E-03,  -436.473E-03,   73.4220E-03,   2.36678E-03
C:/temp/dataset/6/11_12.odb,Step-1,Increment      1: Step Time =    1.000,"PART-1-1",           756,       9.68046,      -2.49017,            0.,NA,NA,"",   445.015E-03,  -438.285E-03,   77.0987E-03,   2.19399E-03
C:/temp/dataset/6/11_12.odb,Step-1,Increment      1: Step Time =    1.000,"PART-1-1",           757,      -5.24373,       2.94722,            0.,NA,NA,"",   453.634E-03,  -452.678E-03,   29.4480E-03,   1.56847E-03
C:/temp/dataset/6/11_12.odb,Step-1,Increment      1: Step Time =    1.000,"PART-1-1",           758,      -6.20341,       3.93450,            0.,NA,NA,"",   463.997E-03,  -463.643E-03,   18.1410E-03,   2.05853E-03
C:/temp/dataset/6/11_12.odb,Step-1,Increment      1: Step Time =    1.000,"PART-1-1",           759,       7.87036,      -17.0650,            0.,NA,NA,"",   303.640E-03,  -302.387E-03,   27.5503E-03,   11.6598E-03
C:/temp/dataset/6/11_12.odb,Step-1,Increment      1: Step Time =    1.000,"PART-1-1",           760,      -8.77165,      -4.61616,            0.,NA,NA,"",   368.955E-03,  -368.818E-03,  -10.0556E-03,   2.47427E-03
C:/temp/dataset/6/11_12.odb,Step-1,Increment      1: Step Time =    1.000,"PART-1-1",           761,       8.90402,      -15.9271,            0.,NA,NA,"",   344.080E-03,  -340.826E-03,   47.2073E-03,   9.95439E-03
C:/temp/dataset/6/11_12.odb,Step-1,Increment      1: Step Time =    1.000,"PART-1-1",           762,       7.94609,      -14.8939,            0.,NA,NA,"",   363.301E-03,  -361.479E-03,   36.3401E-03,   6.39935E-03
C:/temp/dataset/6/11_12.odb,Step-1,Increment      1: Step Time =    1.000,"PART-1-1",           763,      -12.3095,       21.7291,            0.,NA,NA,"",   676.502E-03,  -674.148E-03,  -56.3818E-03,   459.377E-09
C:/temp/dataset/6/11_12.odb,Step-1,Increment      1: Step Time =    1.000,"PART-1-1",           764,      -12.2938,       19.6789,            0.,NA,NA,"",   652.569E-03,  -650.156E-03,  -56.0585E-03,   1.76826E-06
C:/temp/dataset/6/11_12.odb,Step-1,Increment      1: Step Time =    1.000,"PART-1-1",           765,       3.72209,      -1.78065,            0.,NA,NA,"",   432.962E-03,  -427.460E-03,   68.8063E-03,   2.59335E-03
C:/temp/dataset/6/11_12.odb,Step-1,Increment      1: Step Time =    1.000,"PART-1-1",           766,       6.45852,      -3.38063,            0.,NA,NA,"",   436.651E-03,  -431.522E-03,   66.7296E-03,   3.90066E-03
C:/temp/dataset/6/11_12.odb,Step-1,Increment      1: Step Time =    1.000,"PART-1-1",           767,       4.93556,      -2.38177,            0.,NA,NA,"",   433.915E-03,  -428.453E-03,   68.6315E-03,   3.28299E-03
C:/temp/dataset/6/11_12.odb,Step-1,Increment      1: Step Time =    1.000,"PART-1-1",           768,      -2.94024,   945.156E-03,            0.,NA,NA,"",   437.387E-03,  -434.597E-03,   49.3181E-03,   904.805E-06
C:/temp/dataset/6/11_12.odb,Step-1,Increment      1: Step Time =    1.000,"PART-1-1",           769,      -1.69279,      -25.0756,            0.,NA,NA,"",   56.6609E-03,  -56.6594E-03,  -414.984E-06,   8.96614E-03
C:/temp/dataset/6/11_12.odb,Step-1,Increment      1: Step Time =    1.000,"PART-1-1",           770,      -6.93923,      -23.9860,            0.,NA,NA,"",   51.2349E-03,  -50.9844E-03,   5.05969E-03,   4.42204E-03
C:/temp/dataset/6/11_12.odb,Step-1,Increment      1: Step Time =    1.000,"PART-1-1",           771,      -5.91970,      -22.6959,            0.,NA,NA,"",   65.2766E-03,  -64.3197E-03,   11.1361E-03,   5.63449E-03
C:/temp/dataset/6/11_12.odb,Step-1,Increment      1: Step Time =    1.000,"PART-1-1",           772,      -12.2208,       17.3915,            0.,NA,NA,"",   625.816E-03,  -623.390E-03,  -55.0504E-03,   5.79229E-06
C:/temp/dataset/6/11_12.odb,Step-1,Increment      1: Step Time =    1.000,"PART-1-1",           773,      -12.0398,       10.1961,            0.,NA,NA,"",   541.798E-03,  -539.249E-03,  -52.4923E-03,   25.2164E-06
C:/temp/dataset/6/11_12.odb,Step-1,Increment      1: Step Time =    1.000,"PART-1-1",           774,      -10.8637,      -2.91198,            0.,NA,NA,"",   392.537E-03,  -390.660E-03,  -38.3425E-03,   1.20137E-03
C:/temp/dataset/6/11_12.odb,Step-1,Increment      1: Step Time =    1.000,"PART-1-1",           775,      -9.61620,      -11.5179,            0.,NA,NA,"",   237.355E-03,  -236.531E-03,  -19.7529E-03,   3.38484E-03
C:/temp/dataset/6/11_12.odb,Step-1,Increment      1: Step Time =    1.000,"PART-1-1",           776,      -11.8201,      -24.5932,            0.,NA,NA,"",   47.2093E-03,  -42.9771E-03,  -19.5368E-03,   4.26402E-03
C:/temp/dataset/6/11_12.odb,Step-1,Increment      1: Step Time =    1.000,"PART-1-1",           777,      -11.0718,      -23.4296,            0.,NA,NA,"",   56.0464E-03,  -53.1614E-03,  -17.7499E-03,   3.21622E-03
C:/temp/dataset/6/11_12.odb,Step-1,Increment      1: Step Time =    1.000,"PART-1-1",           778,       4.75405,      -23.0816,            0.,NA,NA,"",   99.2408E-03,  -97.1942E-03,  -20.0505E-03,   10.9025E-03
C:/temp/dataset/6/11_12.odb,Step-1,Increment      1: Step Time =    1.000,"PART-1-1",           779,       5.55198,      -21.9930,            0.,NA,NA,"",   121.298E-03,  -119.763E-03,  -19.2352E-03,   10.6905E-03
C:/temp/dataset/6/11_12.odb,Step-1,Increment      1: Step Time =    1.000,"PART-1-1",           780,       7.01336,      -26.0950,            0.,NA,NA,"",   49.2242E-03,  -48.8775E-03,  -5.83229E-03,   8.22223E-03
C:/temp/dataset/6/11_12.odb,Step-1,Increment      1: Step Time =    1.000,"PART-1-1",           781,       4.10189,      -23.9882,            0.,NA,NA,"",   83.7240E-03,  -81.7178E-03,  -18.2184E-03,   11.0701E-03
C:/temp/dataset/6/11_12.odb,Step-1,Increment      1: Step Time =    1.000,"PART-1-1",           782,       4.14804,      -25.2051,            0.,NA,NA,"",   64.9540E-03,  -63.3031E-03,  -14.5514E-03,   10.3963E-03
C:/temp/dataset/6/11_12.odb,Step-1,Increment      1: Step Time =    1.000,"PART-1-1",           783,      -12.1264,       12.6156,            0.,NA,NA,"",   570.023E-03,  -567.493E-03,  -53.6453E-03,   26.4194E-06
C:/temp/dataset/6/11_12.odb,Step-1,Increment      1: Step Time =    1.000,"PART-1-1",           784,      -12.1709,       15.0185,            0.,NA,NA,"",   598.086E-03,  -595.615E-03,  -54.3121E-03,   14.7600E-06
C:/temp/dataset/6/11_12.odb,Step-1,Increment      1: Step Time =    1.000,"PART-1-1",           785,      -10.3060,       3.43341,            0.,NA,NA,"",   463.593E-03,  -462.591E-03,  -30.4536E-03,   1.24524E-03
C:/temp/dataset/6/11_12.odb,Step-1,Increment      1: Step Time =    1.000,"PART-1-1",           786,      -9.35047,  -311.861E-03,            0.,NA,NA,"",   423.436E-03,  -423.100E-03,  -16.8835E-03,   1.69833E-03
C:/temp/dataset/6/11_12.odb,Step-1,Increment      1: Step Time =    1.000,"PART-1-1",           787,      -9.47746,      -1.56252,            0.,NA,NA,"",   409.489E-03,  -409.067E-03,  -18.5772E-03,   1.56650E-03
C:/temp/dataset/6/11_12.odb,Step-1,Increment      1: Step Time =    1.000,"PART-1-1",           788,      -7.56677,      -1.93629,            0.,NA,NA,"",   406.582E-03,  -406.525E-03,   6.83790E-03,   1.73113E-03
C:/temp/dataset/6/11_12.odb,Step-1,Increment      1: Step Time =    1.000,"PART-1-1",           789,      -9.57637,      -3.06595,            0.,NA,NA,"",   390.712E-03,  -390.176E-03,  -20.4604E-03,   1.49993E-03
C:/temp/dataset/6/11_12.odb,Step-1,Increment      1: Step Time =    1.000,"PART-1-1",           790,      -8.24618,      -3.39128,            0.,NA,NA,"",   387.937E-03,  -387.931E-03,  -2.23361E-03,   2.19963E-03
C:/temp/dataset/6/11_12.odb,Step-1,Increment      1: Step Time =    1.000,"PART-1-1",           791,       7.98922,      -7.69035,            0.,NA,NA,"",   437.700E-03,  -433.434E-03,   60.9587E-03,   3.94483E-03
C:/temp/dataset/6/11_12.odb,Step-1,Increment      1: Step Time =    1.000,"PART-1-1",           792,       7.96586,      -10.1263,            0.,NA,NA,"",   427.222E-03,  -423.754E-03,   54.3219E-03,   4.41457E-03
C:/temp/dataset/6/11_12.odb,Step-1,Increment      1: Step Time =    1.000,"PART-1-1",           793,       7.95460,      -12.5381,            0.,NA,NA,"",   404.380E-03,  -401.777E-03,   45.8027E-03,   4.75216E-03
C:/temp/dataset/6/11_12.odb,Step-1,Increment      1: Step Time =    1.000,"PART-1-1",           794,      -6.90534,       4.84567,            0.,NA,NA,"",   474.991E-03,  -474.905E-03,   9.06905E-03,   1.72869E-03
C:/temp/dataset/6/11_12.odb,Step-1,Increment      1: Step Time =    1.000,"PART-1-1",           795,      -7.09219,       3.25090,            0.,NA,NA,"",   457.998E-03,  -457.915E-03,   8.70618E-03,   1.89788E-03
C:/temp/dataset/6/11_12.odb,Step-1,Increment      1: Step Time =    1.000,"PART-1-1",           796,      -5.99438,      -2.38990,            0.,NA,NA,"",   404.357E-03,  -403.524E-03,   25.9493E-03,   2.27231E-03
C:/temp/dataset/6/11_12.odb,Step-1,Increment      1: Step Time =    1.000,"PART-1-1",           797,      -8.16339,       2.56404,            0.,NA,NA,"",   452.151E-03,  -452.139E-03,  -3.37715E-03,   1.79376E-03
C:/temp/dataset/6/11_12.odb,Step-1,Increment      1: Step Time =    1.000,"PART-1-1",           798,      -6.16245,       1.98671,            0.,NA,NA,"",   445.307E-03,  -444.834E-03,   20.5236E-03,   1.65026E-03
C:/temp/dataset/6/11_12.odb,Step-1,Increment      1: Step Time =    1.000,"PART-1-1",           799,      -9.36160,       1.80674,            0.,NA,NA,"",   445.544E-03,  -445.189E-03,  -17.7628E-03,   1.72929E-03
C:/temp/dataset/6/11_12.odb,Step-1,Increment      1: Step Time =    1.000,"PART-1-1",           800,      -4.18828,       1.89018,            0.,NA,NA,"",   444.369E-03,  -442.599E-03,   39.6227E-03,   767.746E-06
C:/temp/dataset/6/11_12.odb,Step-1,Increment      1: Step Time =    1.000,"PART-1-1",           801,      -2.02478,       2.01876,            0.,NA,NA,"",   445.517E-03,  -442.206E-03,   54.2112E-03,   1.34398E-03
C:/temp/dataset/6/11_12.odb,Step-1,Increment      1: Step Time =    1.000,"PART-1-1",           802,       5.29765,      -24.4346,            0.,NA,NA,"",   77.3204E-03,  -75.7846E-03,  -15.3343E-03,   9.69106E-03
C:/temp/dataset/6/11_12.odb,Step-1,Increment      1: Step Time =    1.000,"PART-1-1",           803,       8.18651,      -25.0309,            0.,NA,NA,"",   68.8215E-03,  -68.8214E-03,  -102.473E-06,   8.50278E-03
C:/temp/dataset/6/11_12.odb,Step-1,Increment      1: Step Time =    1.000,"PART-1-1",           804,       6.01068,      -25.2345,            0.,NA,NA,"",   63.8937E-03,  -62.9121E-03,  -11.1569E-03,   8.87721E-03
