ODB Name,Step,Frame,Part Instance Name,    êﬂì_ÉâÉxÉã,X,Y,Z,Section Name,Material Name,Section Point,   U-Magnitude,          U-U1,          U-U2,       S-Mises
C:/temp/dataset/6/13_16.odb,Step-1,Increment      1: Step Time =    1.000,"PART-1-1",             1,            5.,           -5.,            0.,NA,NA,"",       1.97631,       1.94672,  -340.742E-03,   106.207E-03
C:/temp/dataset/6/13_16.odb,Step-1,Increment      1: Step Time =    1.000,"PART-1-1",             2,            0.,           -5.,            0.,NA,NA,"",       2.02578,       1.93320,  -605.436E-03,   45.0454E-03
C:/temp/dataset/6/13_16.odb,Step-1,Increment      1: Step Time =    1.000,"PART-1-1",             3,            5.,      -10.0250,            0.,NA,NA,"",       1.39592,       1.39562,  -29.4047E-03,   34.0296E-03
C:/temp/dataset/6/13_16.odb,Step-1,Increment      1: Step Time =    1.000,"PART-1-1",             4,            5.,      -15.0500,            0.,NA,NA,"",   847.915E-03,   842.600E-03,   94.7920E-03,   6.88421E-03
C:/temp/dataset/6/13_16.odb,Step-1,Increment      1: Step Time =    1.000,"PART-1-1",             5,            5.,          -20.,            0.,NA,NA,"",   278.835E-03,   273.940E-03,   52.0175E-03,   69.5884E-03
C:/temp/dataset/6/13_16.odb,Step-1,Increment      1: Step Time =    1.000,"PART-1-1",             6,            0.,          -20.,            0.,NA,NA,"",   145.555E-03,   145.553E-03,  -810.587E-06,   9.37551E-03
C:/temp/dataset/6/13_16.odb,Step-1,Increment      1: Step Time =    1.000,"PART-1-1",             7,           -5.,          -20.,            0.,NA,NA,"",   169.869E-03,   163.203E-03,  -47.1212E-03,   31.3949E-03
C:/temp/dataset/6/13_16.odb,Step-1,Increment      1: Step Time =    1.000,"PART-1-1",             8,           -5.,      -14.9750,            0.,NA,NA,"",   511.863E-03,   484.687E-03,  -164.568E-03,   18.5185E-03
C:/temp/dataset/6/13_16.odb,Step-1,Increment      1: Step Time =    1.000,"PART-1-1",             9,           -5.,      -9.95000,            0.,NA,NA,"",   962.612E-03,   923.540E-03,  -271.467E-03,   21.2355E-03
C:/temp/dataset/6/13_16.odb,Step-1,Increment      1: Step Time =    1.000,"PART-1-1",            10,           -5.,           -5.,            0.,NA,NA,"",       1.65007,       1.59980,  -404.208E-03,   73.8465E-03
C:/temp/dataset/6/13_16.odb,Step-1,Increment      1: Step Time =    1.000,"PART-1-1",            11,           15.,          -30.,            0.,NA,NA,"",            0.,   22.4917E-39,  -39.7011E-39,   80.2963E-03
C:/temp/dataset/6/13_16.odb,Step-1,Increment      1: Step Time =    1.000,"PART-1-1",            12,          -15.,          -30.,            0.,NA,NA,"",            0.,   16.2462E-39,   28.8767E-39,   52.9955E-03
C:/temp/dataset/6/13_16.odb,Step-1,Increment      1: Step Time =    1.000,"PART-1-1",            13,           15.,        -21.25,            0.,NA,NA,"",   599.941E-03,   360.897E-03,  -479.252E-03,   58.2426E-03
C:/temp/dataset/6/13_16.odb,Step-1,Increment      1: Step Time =    1.000,"PART-1-1",            14,           15.,         -12.5,            0.,NA,NA,"",       1.43944,       1.17130,  -836.683E-03,   15.0033E-03
C:/temp/dataset/6/13_16.odb,Step-1,Increment      1: Step Time =    1.000,"PART-1-1",            15,           15.,         -3.75,            0.,NA,NA,"",       2.10927,       1.94892,  -806.665E-03,   20.1792E-03
C:/temp/dataset/6/13_16.odb,Step-1,Increment      1: Step Time =    1.000,"PART-1-1",            16,           15.,            5.,            0.,NA,NA,"",       2.37108,       2.25307,  -738.717E-03,   615.159E-06
C:/temp/dataset/6/13_16.odb,Step-1,Increment      1: Step Time =    1.000,"PART-1-1",            17,           10.,            5.,            0.,NA,NA,"",       2.31310,       2.23869,  -581.983E-03,   10.3649E-03
C:/temp/dataset/6/13_16.odb,Step-1,Increment      1: Step Time =    1.000,"PART-1-1",            18,            5.,            5.,            0.,NA,NA,"",       2.24871,       2.18814,  -518.394E-03,   5.32644E-03
C:/temp/dataset/6/13_16.odb,Step-1,Increment      1: Step Time =    1.000,"PART-1-1",            19,            0.,            5.,            0.,NA,NA,"",       2.32906,       2.25231,  -592.975E-03,   35.2800E-03
C:/temp/dataset/6/13_16.odb,Step-1,Increment      1: Step Time =    1.000,"PART-1-1",            20,           -5.,            5.,            0.,NA,NA,"",       2.75191,       2.57988,  -957.712E-03,   285.242E-03
C:/temp/dataset/6/13_16.odb,Step-1,Increment      1: Step Time =    1.000,"PART-1-1",            21,           -5.,         11.25,            0.,NA,NA,"",       5.49905,       5.01460,      -2.25684,   103.359E-03
C:/temp/dataset/6/13_16.odb,Step-1,Increment      1: Step Time =    1.000,"PART-1-1",            22,           -5.,          17.5,            0.,NA,NA,"",       8.57737,       7.84766,      -3.46201,   61.0341E-03
C:/temp/dataset/6/13_16.odb,Step-1,Increment      1: Step Time =    1.000,"PART-1-1",            23,           -5.,         23.75,            0.,NA,NA,"",       12.0739,       11.1409,      -4.65420,   17.1099E-03
C:/temp/dataset/6/13_16.odb,Step-1,Increment      1: Step Time =    1.000,"PART-1-1",            24,           -5.,           30.,            0.,NA,NA,"",       15.6679,       14.5864,      -5.72018,   603.770E-06
C:/temp/dataset/6/13_16.odb,Step-1,Increment      1: Step Time =    1.000,"PART-1-1",            25,          -10.,           30.,            0.,NA,NA,"",       15.6956,       15.4077,      -2.99230,   8.70127E-03
C:/temp/dataset/6/13_16.odb,Step-1,Increment      1: Step Time =    1.000,"PART-1-1",            26,          -15.,           30.,            0.,NA,NA,"",       16.2806,       16.2780,  -290.110E-03,   16.1890E-03
C:/temp/dataset/6/13_16.odb,Step-1,Increment      1: Step Time =    1.000,"PART-1-1",            27,          -15.,          22.5,            0.,NA,NA,"",       12.0802,       12.0456,   913.050E-03,   31.6272E-03
C:/temp/dataset/6/13_16.odb,Step-1,Increment      1: Step Time =    1.000,"PART-1-1",            28,          -15.,           15.,            0.,NA,NA,"",       8.03036,       7.83908,       1.74227,   84.2619E-03
C:/temp/dataset/6/13_16.odb,Step-1,Increment      1: Step Time =    1.000,"PART-1-1",            29,          -15.,           7.5,            0.,NA,NA,"",       4.65660,       4.30394,       1.77765,   141.619E-03
C:/temp/dataset/6/13_16.odb,Step-1,Increment      1: Step Time =    1.000,"PART-1-1",            30,          -15.,            0.,            0.,NA,NA,"",       2.56052,       2.28092,       1.16347,   94.6306E-03
C:/temp/dataset/6/13_16.odb,Step-1,Increment      1: Step Time =    1.000,"PART-1-1",            31,          -15.,          -7.5,            0.,NA,NA,"",       1.53646,       1.29944,   819.854E-03,   43.1349E-03
C:/temp/dataset/6/13_16.odb,Step-1,Increment      1: Step Time =    1.000,"PART-1-1",            32,          -15.,          -15.,            0.,NA,NA,"",   800.453E-03,   576.093E-03,   555.735E-03,   46.0858E-03
C:/temp/dataset/6/13_16.odb,Step-1,Increment      1: Step Time =    1.000,"PART-1-1",            33,          -15.,         -22.5,            0.,NA,NA,"",   319.898E-03,   183.237E-03,   262.219E-03,   41.6114E-03
C:/temp/dataset/6/13_16.odb,Step-1,Increment      1: Step Time =    1.000,"PART-1-1",            34,           2.5,           -5.,            0.,NA,NA,"",       2.07368,       2.00138,  -542.783E-03,   22.5806E-03
C:/temp/dataset/6/13_16.odb,Step-1,Increment      1: Step Time =    1.000,"PART-1-1",            35,            5.,      -7.51250,            0.,NA,NA,"",       1.67354,       1.66805,  -135.437E-03,   62.0542E-03
C:/temp/dataset/6/13_16.odb,Step-1,Increment      1: Step Time =    1.000,"PART-1-1",            36,            5.,      -12.5375,            0.,NA,NA,"",       1.12205,       1.12096,   49.4811E-03,   20.8927E-03
C:/temp/dataset/6/13_16.odb,Step-1,Increment      1: Step Time =    1.000,"PART-1-1",            37,            5.,      -17.5250,            0.,NA,NA,"",   581.037E-03,   570.716E-03,   109.030E-03,   14.6537E-03
C:/temp/dataset/6/13_16.odb,Step-1,Increment      1: Step Time =    1.000,"PART-1-1",            38,           2.5,          -20.,            0.,NA,NA,"",   173.092E-03,   172.254E-03,   17.0115E-03,   27.9812E-03
C:/temp/dataset/6/13_16.odb,Step-1,Increment      1: Step Time =    1.000,"PART-1-1",            39,          -2.5,          -20.,            0.,NA,NA,"",   136.059E-03,   135.164E-03,  -15.5745E-03,   6.58433E-03
C:/temp/dataset/6/13_16.odb,Step-1,Increment      1: Step Time =    1.000,"PART-1-1",            40,           -5.,      -17.4875,            0.,NA,NA,"",   334.760E-03,   313.740E-03,  -116.753E-03,   23.5743E-03
C:/temp/dataset/6/13_16.odb,Step-1,Increment      1: Step Time =    1.000,"PART-1-1",            41,           -5.,      -12.4625,            0.,NA,NA,"",   718.898E-03,   685.932E-03,  -215.201E-03,   18.9663E-03
C:/temp/dataset/6/13_16.odb,Step-1,Increment      1: Step Time =    1.000,"PART-1-1",            42,           -5.,      -7.47500,            0.,NA,NA,"",       1.24825,       1.20228,  -335.632E-03,   25.4763E-03
C:/temp/dataset/6/13_16.odb,Step-1,Increment      1: Step Time =    1.000,"PART-1-1",            43,          -2.5,           -5.,            0.,NA,NA,"",       1.89490,       1.80524,  -576.006E-03,   75.1038E-03
C:/temp/dataset/6/13_16.odb,Step-1,Increment      1: Step Time =    1.000,"PART-1-1",            44,          12.5,          -30.,            0.,NA,NA,"",            0.,   74.1789E-39,  -191.598E-39,   30.7465E-03
C:/temp/dataset/6/13_16.odb,Step-1,Increment      1: Step Time =    1.000,"PART-1-1",            45,           10.,          -30.,            0.,NA,NA,"",            0.,  -45.1777E-39,  -95.1365E-39,   20.1597E-03
C:/temp/dataset/6/13_16.odb,Step-1,Increment      1: Step Time =    1.000,"PART-1-1",            46,           7.5,          -30.,            0.,NA,NA,"",            0.,  -19.6241E-39,  -41.3563E-39,   8.21131E-03
C:/temp/dataset/6/13_16.odb,Step-1,Increment      1: Step Time =    1.000,"PART-1-1",            47,            5.,          -30.,            0.,NA,NA,"",            0.,   11.5955E-39,  -8.37291E-39,   2.91087E-03
C:/temp/dataset/6/13_16.odb,Step-1,Increment      1: Step Time =    1.000,"PART-1-1",            48,           2.5,          -30.,            0.,NA,NA,"",            0.,   20.9350E-39,   2.48331E-39,   7.85763E-03
C:/temp/dataset/6/13_16.odb,Step-1,Increment      1: Step Time =    1.000,"PART-1-1",            49,            0.,          -30.,            0.,NA,NA,"",            0.,   30.6936E-39,   37.7113E-39,   9.85443E-03
C:/temp/dataset/6/13_16.odb,Step-1,Increment      1: Step Time =    1.000,"PART-1-1",            50,          -2.5,          -30.,            0.,NA,NA,"",            0.,   18.1211E-39,  -8.11474E-39,   8.57968E-03
C:/temp/dataset/6/13_16.odb,Step-1,Increment      1: Step Time =    1.000,"PART-1-1",            51,           -5.,          -30.,            0.,NA,NA,"",            0.,   5.08905E-39,   6.73296E-39,   5.72438E-03
C:/temp/dataset/6/13_16.odb,Step-1,Increment      1: Step Time =    1.000,"PART-1-1",            52,          -7.5,          -30.,            0.,NA,NA,"",            0.,  -13.8270E-39,   37.1642E-39,   7.53666E-03
C:/temp/dataset/6/13_16.odb,Step-1,Increment      1: Step Time =    1.000,"PART-1-1",            53,          -10.,          -30.,            0.,NA,NA,"",            0.,   39.3836E-39,   75.8899E-39,   14.5745E-03
C:/temp/dataset/6/13_16.odb,Step-1,Increment      1: Step Time =    1.000,"PART-1-1",            54,         -12.5,          -30.,            0.,NA,NA,"",            0.,   5.77916E-39,   109.805E-39,   21.4593E-03
C:/temp/dataset/6/13_16.odb,Step-1,Increment      1: Step Time =    1.000,"PART-1-1",            55,           15.,      -23.4375,            0.,NA,NA,"",   432.841E-03,   241.917E-03,  -358.925E-03,   59.7387E-03
C:/temp/dataset/6/13_16.odb,Step-1,Increment      1: Step Time =    1.000,"PART-1-1",            56,           15.,       -25.625,            0.,NA,NA,"",   287.118E-03,   155.688E-03,  -241.243E-03,   57.8090E-03
C:/temp/dataset/6/13_16.odb,Step-1,Increment      1: Step Time =    1.000,"PART-1-1",            57,           15.,      -27.8125,            0.,NA,NA,"",   157.043E-03,   90.1717E-03,  -128.575E-03,   62.8875E-03
C:/temp/dataset/6/13_16.odb,Step-1,Increment      1: Step Time =    1.000,"PART-1-1",            58,           15.,      -14.6875,            0.,NA,NA,"",       1.21862,   935.896E-03,  -780.475E-03,   29.2237E-03
C:/temp/dataset/6/13_16.odb,Step-1,Increment      1: Step Time =    1.000,"PART-1-1",            59,           15.,       -16.875,            0.,NA,NA,"",   998.741E-03,   714.005E-03,  -698.341E-03,   42.3492E-03
C:/temp/dataset/6/13_16.odb,Step-1,Increment      1: Step Time =    1.000,"PART-1-1",            60,           15.,      -19.0625,            0.,NA,NA,"",   789.911E-03,   519.124E-03,  -595.374E-03,   52.6115E-03
C:/temp/dataset/6/13_16.odb,Step-1,Increment      1: Step Time =    1.000,"PART-1-1",            61,           15.,       -5.9375,            0.,NA,NA,"",       1.99242,       1.80587,  -841.770E-03,   18.7552E-03
C:/temp/dataset/6/13_16.odb,Step-1,Increment      1: Step Time =    1.000,"PART-1-1",            62,           15.,        -8.125,            0.,NA,NA,"",       1.83774,       1.62160,  -864.698E-03,   11.0875E-03
C:/temp/dataset/6/13_16.odb,Step-1,Increment      1: Step Time =    1.000,"PART-1-1",            63,           15.,      -10.3125,            0.,NA,NA,"",       1.64984,       1.40512,  -864.652E-03,   1.27201E-03
C:/temp/dataset/6/13_16.odb,Step-1,Increment      1: Step Time =    1.000,"PART-1-1",            64,           15.,        2.8125,            0.,NA,NA,"",       2.31052,       2.18928,  -738.628E-03,   2.42547E-03
C:/temp/dataset/6/13_16.odb,Step-1,Increment      1: Step Time =    1.000,"PART-1-1",            65,           15.,      625.E-03,            0.,NA,NA,"",       2.25505,       2.12720,  -748.525E-03,   9.14333E-03
C:/temp/dataset/6/13_16.odb,Step-1,Increment      1: Step Time =    1.000,"PART-1-1",            66,           15.,       -1.5625,            0.,NA,NA,"",       2.19281,       2.05230,  -772.336E-03,   16.1477E-03
C:/temp/dataset/6/13_16.odb,Step-1,Increment      1: Step Time =    1.000,"PART-1-1",            67,          12.5,            5.,            0.,NA,NA,"",       2.34755,       2.25284,  -660.098E-03,   3.02808E-03
C:/temp/dataset/6/13_16.odb,Step-1,Increment      1: Step Time =    1.000,"PART-1-1",            68,           7.5,            5.,            0.,NA,NA,"",       2.27340,       2.21107,  -528.713E-03,   13.1740E-03
C:/temp/dataset/6/13_16.odb,Step-1,Increment      1: Step Time =    1.000,"PART-1-1",            69,           2.5,            5.,            0.,NA,NA,"",       2.26308,       2.19608,  -546.621E-03,   15.2140E-03
C:/temp/dataset/6/13_16.odb,Step-1,Increment      1: Step Time =    1.000,"PART-1-1",            70,          -2.5,            5.,            0.,NA,NA,"",       2.43963,       2.34878,  -659.555E-03,   82.9295E-03
C:/temp/dataset/6/13_16.odb,Step-1,Increment      1: Step Time =    1.000,"PART-1-1",            71,           -5.,       9.16667,            0.,NA,NA,"",       4.60094,       4.20327,      -1.87114,   114.302E-03
C:/temp/dataset/6/13_16.odb,Step-1,Increment      1: Step Time =    1.000,"PART-1-1",            72,           -5.,       7.08333,            0.,NA,NA,"",       3.73246,       3.41956,      -1.49596,   164.272E-03
C:/temp/dataset/6/13_16.odb,Step-1,Increment      1: Step Time =    1.000,"PART-1-1",            73,           -5.,       15.4167,            0.,NA,NA,"",       7.49105,       6.84001,      -3.05453,   76.0301E-03
C:/temp/dataset/6/13_16.odb,Step-1,Increment      1: Step Time =    1.000,"PART-1-1",            74,           -5.,       13.3333,            0.,NA,NA,"",       6.46229,       5.89331,      -2.65142,   89.9206E-03
C:/temp/dataset/6/13_16.odb,Step-1,Increment      1: Step Time =    1.000,"PART-1-1",            75,           -5.,       21.6667,            0.,NA,NA,"",       10.8811,       10.0090,      -4.26819,   30.1845E-03
C:/temp/dataset/6/13_16.odb,Step-1,Increment      1: Step Time =    1.000,"PART-1-1",            76,           -5.,       19.5833,            0.,NA,NA,"",       9.71125,       8.90752,      -3.86838,   45.1414E-03
C:/temp/dataset/6/13_16.odb,Step-1,Increment      1: Step Time =    1.000,"PART-1-1",            77,           -5.,       27.9167,            0.,NA,NA,"",       14.4752,       13.4396,      -5.37660,   876.271E-06
C:/temp/dataset/6/13_16.odb,Step-1,Increment      1: Step Time =    1.000,"PART-1-1",            78,           -5.,       25.8333,            0.,NA,NA,"",       13.2755,       12.2883,      -5.02359,   6.63569E-03
C:/temp/dataset/6/13_16.odb,Step-1,Increment      1: Step Time =    1.000,"PART-1-1",            79,          -7.5,           30.,            0.,NA,NA,"",       15.6135,       14.9956,      -4.34889,   1.29829E-03
C:/temp/dataset/6/13_16.odb,Step-1,Increment      1: Step Time =    1.000,"PART-1-1",            80,         -12.5,           30.,            0.,NA,NA,"",       15.9213,       15.8362,      -1.64387,   15.1140E-03
C:/temp/dataset/6/13_16.odb,Step-1,Increment      1: Step Time =    1.000,"PART-1-1",            81,          -15.,           25.,            0.,NA,NA,"",       13.4937,       13.4840,   512.865E-03,   22.7943E-03
C:/temp/dataset/6/13_16.odb,Step-1,Increment      1: Step Time =    1.000,"PART-1-1",            82,          -15.,          27.5,            0.,NA,NA,"",       14.8900,       14.8896,   110.120E-03,   16.4428E-03
C:/temp/dataset/6/13_16.odb,Step-1,Increment      1: Step Time =    1.000,"PART-1-1",            83,          -15.,          17.5,            0.,NA,NA,"",       9.32331,       9.19522,       1.54015,   65.7087E-03
C:/temp/dataset/6/13_16.odb,Step-1,Increment      1: Step Time =    1.000,"PART-1-1",            84,          -15.,           20.,            0.,NA,NA,"",       10.6729,       10.5981,       1.26141,   48.8754E-03
C:/temp/dataset/6/13_16.odb,Step-1,Increment      1: Step Time =    1.000,"PART-1-1",            85,          -15.,           10.,            0.,NA,NA,"",       5.67649,       5.35942,       1.87061,   125.243E-03
C:/temp/dataset/6/13_16.odb,Step-1,Increment      1: Step Time =    1.000,"PART-1-1",            86,          -15.,          12.5,            0.,NA,NA,"",       6.80912,       6.55110,       1.85666,   104.357E-03
C:/temp/dataset/6/13_16.odb,Step-1,Increment      1: Step Time =    1.000,"PART-1-1",            87,          -15.,           2.5,            0.,NA,NA,"",       3.08605,       2.76634,       1.36787,   125.217E-03
C:/temp/dataset/6/13_16.odb,Step-1,Increment      1: Step Time =    1.000,"PART-1-1",            88,          -15.,            5.,            0.,NA,NA,"",       3.78311,       3.43125,       1.59326,   143.482E-03
C:/temp/dataset/6/13_16.odb,Step-1,Increment      1: Step Time =    1.000,"PART-1-1",            89,          -15.,           -5.,            0.,NA,NA,"",       1.83143,       1.59235,   904.738E-03,   49.3512E-03
C:/temp/dataset/6/13_16.odb,Step-1,Increment      1: Step Time =    1.000,"PART-1-1",            90,          -15.,          -2.5,            0.,NA,NA,"",       2.16081,       1.90980,       1.01082,   65.8198E-03
C:/temp/dataset/6/13_16.odb,Step-1,Increment      1: Step Time =    1.000,"PART-1-1",            91,          -15.,         -12.5,            0.,NA,NA,"",       1.01861,   784.519E-03,   649.690E-03,   44.9180E-03
C:/temp/dataset/6/13_16.odb,Step-1,Increment      1: Step Time =    1.000,"PART-1-1",            92,          -15.,          -10.,            0.,NA,NA,"",       1.26479,       1.02763,   737.330E-03,   43.5730E-03
C:/temp/dataset/6/13_16.odb,Step-1,Increment      1: Step Time =    1.000,"PART-1-1",            93,          -15.,          -20.,            0.,NA,NA,"",   451.992E-03,   276.242E-03,   357.754E-03,   44.7071E-03
C:/temp/dataset/6/13_16.odb,Step-1,Increment      1: Step Time =    1.000,"PART-1-1",            94,          -15.,         -17.5,            0.,NA,NA,"",   611.642E-03,   406.217E-03,   457.268E-03,   46.2634E-03
C:/temp/dataset/6/13_16.odb,Step-1,Increment      1: Step Time =    1.000,"PART-1-1",            95,          -15.,         -27.5,            0.,NA,NA,"",   114.764E-03,   67.9616E-03,   92.4773E-03,   38.8531E-03
C:/temp/dataset/6/13_16.odb,Step-1,Increment      1: Step Time =    1.000,"PART-1-1",            96,          -15.,          -25.,            0.,NA,NA,"",   210.290E-03,   117.951E-03,   174.096E-03,   37.6058E-03
C:/temp/dataset/6/13_16.odb,Step-1,Increment      1: Step Time =    1.000,"PART-1-1",            97,       13.0047,      -3.80353,            0.,NA,NA,"",       2.08164,       1.96151,  -696.924E-03,   6.75217E-03
C:/temp/dataset/6/13_16.odb,Step-1,Increment      1: Step Time =    1.000,"PART-1-1",            98,       6.97971,      -7.55833,            0.,NA,NA,"",       1.70878,       1.68086,  -307.685E-03,   52.1468E-03
C:/temp/dataset/6/13_16.odb,Step-1,Increment      1: Step Time =    1.000,"PART-1-1",            99,       6.96639,      -10.0829,            0.,NA,NA,"",       1.42417,       1.40666,  -222.643E-03,   36.6456E-03
C:/temp/dataset/6/13_16.odb,Step-1,Increment      1: Step Time =    1.000,"PART-1-1",           100,       12.9900,      -12.5465,            0.,NA,NA,"",       1.32521,       1.16116,  -638.659E-03,   25.2222E-03
C:/temp/dataset/6/13_16.odb,Step-1,Increment      1: Step Time =    1.000,"PART-1-1",           101,       6.90028,      -17.1420,            0.,NA,NA,"",   611.318E-03,   607.723E-03,  -66.1989E-03,   24.2308E-03
C:/temp/dataset/6/13_16.odb,Step-1,Increment      1: Step Time =    1.000,"PART-1-1",           102,       7.03871,      -19.0570,            0.,NA,NA,"",   407.979E-03,   403.394E-03,  -60.9898E-03,   29.2815E-03
C:/temp/dataset/6/13_16.odb,Step-1,Increment      1: Step Time =    1.000,"PART-1-1",           103,       5.31709,      -21.2647,            0.,NA,NA,"",   210.970E-03,   208.740E-03,   30.5925E-03,   21.0220E-03
C:/temp/dataset/6/13_16.odb,Step-1,Increment      1: Step Time =    1.000,"PART-1-1",           104,      -4.83361,      -22.6144,            0.,NA,NA,"",   111.527E-03,   110.252E-03,  -16.8169E-03,   14.2817E-03
C:/temp/dataset/6/13_16.odb,Step-1,Increment      1: Step Time =    1.000,"PART-1-1",           105,      -7.46484,      -17.6587,            0.,NA,NA,"",   301.215E-03,   299.899E-03,   28.1278E-03,   7.60093E-03
C:/temp/dataset/6/13_16.odb,Step-1,Increment      1: Step Time =    1.000,"PART-1-1",           106,      -12.5283,      -27.3245,            0.,NA,NA,"",   72.9709E-03,   39.5539E-03,   61.3208E-03,   29.5398E-03
C:/temp/dataset/6/13_16.odb,Step-1,Increment      1: Step Time =    1.000,"PART-1-1",           107,      -12.4870,      -17.6221,            0.,NA,NA,"",   469.520E-03,   351.883E-03,   310.849E-03,   30.7867E-03
C:/temp/dataset/6/13_16.odb,Step-1,Increment      1: Step Time =    1.000,"PART-1-1",           108,      -7.32043,      -12.6401,            0.,NA,NA,"",   668.159E-03,   668.115E-03,  -7.64545E-03,   3.33464E-03
C:/temp/dataset/6/13_16.odb,Step-1,Increment      1: Step Time =    1.000,"PART-1-1",           109,      -7.14644,      -8.03697,            0.,NA,NA,"",       1.13456,       1.13265,  -65.7353E-03,   7.64641E-03
C:/temp/dataset/6/13_16.odb,Step-1,Increment      1: Step Time =    1.000,"PART-1-1",           110,      -12.6601,       4.88622,            0.,NA,NA,"",       3.33805,       3.19340,   971.976E-03,   83.4529E-03
C:/temp/dataset/6/13_16.odb,Step-1,Increment      1: Step Time =    1.000,"PART-1-1",           111,      -13.0978,       12.5399,            0.,NA,NA,"",       6.39559,       6.31019,       1.04165,   68.2967E-03
C:/temp/dataset/6/13_16.odb,Step-1,Increment      1: Step Time =    1.000,"PART-1-1",           112,      -6.45576,       21.8628,            0.,NA,NA,"",       10.9128,       10.3351,      -3.50377,   26.9931E-03
C:/temp/dataset/6/13_16.odb,Step-1,Increment      1: Step Time =    1.000,"PART-1-1",           113,      -7.28884,       25.7044,            0.,NA,NA,"",       13.1318,       12.5870,      -3.74326,   14.5724E-03
C:/temp/dataset/6/13_16.odb,Step-1,Increment      1: Step Time =    1.000,"PART-1-1",           114,      -9.90518,       27.6474,            0.,NA,NA,"",       14.3420,       14.0927,      -2.66255,   13.9770E-03
C:/temp/dataset/6/13_16.odb,Step-1,Increment      1: Step Time =    1.000,"PART-1-1",           115,      -3.01211,      -3.13168,            0.,NA,NA,"",       1.97586,       1.88171,  -602.664E-03,   45.1621E-03
C:/temp/dataset/6/13_16.odb,Step-1,Increment      1: Step Time =    1.000,"PART-1-1",           116,      -2.19169,       3.00836,            0.,NA,NA,"",       2.41369,       2.31901,  -669.409E-03,   87.6897E-03
C:/temp/dataset/6/13_16.odb,Step-1,Increment      1: Step Time =    1.000,"PART-1-1",           117,       1.85193,      -2.77696,            0.,NA,NA,"",       2.07630,       1.99199,  -585.666E-03,   48.7898E-03
C:/temp/dataset/6/13_16.odb,Step-1,Increment      1: Step Time =    1.000,"PART-1-1",           118,       2.83229,       2.22691,            0.,NA,NA,"",       2.24195,       2.17211,  -555.254E-03,   37.0386E-03
C:/temp/dataset/6/13_16.odb,Step-1,Increment      1: Step Time =    1.000,"PART-1-1",           119,       7.74921,       3.07964,            0.,NA,NA,"",       2.24444,       2.18248,  -523.725E-03,   5.79427E-03
C:/temp/dataset/6/13_16.odb,Step-1,Increment      1: Step Time =    1.000,"PART-1-1",           120,      -2.47342,      -22.6017,            0.,NA,NA,"",   118.890E-03,   118.445E-03,  -10.2671E-03,   17.4219E-03
C:/temp/dataset/6/13_16.odb,Step-1,Increment      1: Step Time =    1.000,"PART-1-1",           121,      -7.48266,       20.3798,            0.,NA,NA,"",       10.0409,       9.67557,      -2.68386,   32.3169E-03
C:/temp/dataset/6/13_16.odb,Step-1,Increment      1: Step Time =    1.000,"PART-1-1",           122,      -7.10993,       13.1351,            0.,NA,NA,"",       6.19502,       5.98247,      -1.60881,   56.8168E-03
C:/temp/dataset/6/13_16.odb,Step-1,Increment      1: Step Time =    1.000,"PART-1-1",           123,      -6.64156,       6.82435,            0.,NA,NA,"",       3.49505,       3.39711,  -821.563E-03,   131.044E-03
C:/temp/dataset/6/13_16.odb,Step-1,Increment      1: Step Time =    1.000,"PART-1-1",           124,      -12.9641,      -2.37512,            0.,NA,NA,"",       1.99503,       1.85655,   730.311E-03,   51.3334E-03
C:/temp/dataset/6/13_16.odb,Step-1,Increment      1: Step Time =    1.000,"PART-1-1",           125,      -12.1317,      -9.84573,            0.,NA,NA,"",       1.08691,   984.529E-03,   460.511E-03,   27.6923E-03
C:/temp/dataset/6/13_16.odb,Step-1,Increment      1: Step Time =    1.000,"PART-1-1",           126,       4.04132,      -2.67712,            0.,NA,NA,"",       2.05662,       1.99857,  -485.202E-03,   59.0396E-03
C:/temp/dataset/6/13_16.odb,Step-1,Increment      1: Step Time =    1.000,"PART-1-1",           127,       6.95362,      -12.5367,            0.,NA,NA,"",       1.13881,       1.12898,  -149.347E-03,   26.5373E-03
C:/temp/dataset/6/13_16.odb,Step-1,Increment      1: Step Time =    1.000,"PART-1-1",           128,       6.92458,      -14.9216,            0.,NA,NA,"",   861.351E-03,   855.685E-03,  -98.6380E-03,   20.5850E-03
C:/temp/dataset/6/13_16.odb,Step-1,Increment      1: Step Time =    1.000,"PART-1-1",           129,       12.9089,      -21.3671,            0.,NA,NA,"",   459.300E-03,   308.918E-03,  -339.892E-03,   42.4424E-03
C:/temp/dataset/6/13_16.odb,Step-1,Increment      1: Step Time =    1.000,"PART-1-1",           130,   283.131E-03,      -22.8786,            0.,NA,NA,"",   128.337E-03,   127.981E-03,   9.55221E-03,   17.2962E-03
C:/temp/dataset/6/13_16.odb,Step-1,Increment      1: Step Time =    1.000,"PART-1-1",           131,      -12.9776,      -22.4214,            0.,NA,NA,"",   251.692E-03,   151.803E-03,   200.761E-03,   32.0403E-03
C:/temp/dataset/6/13_16.odb,Step-1,Increment      1: Step Time =    1.000,"PART-1-1",           132,      -7.42030,      -15.1083,            0.,NA,NA,"",   470.450E-03,   470.174E-03,   16.1276E-03,   4.10322E-03
C:/temp/dataset/6/13_16.odb,Step-1,Increment      1: Step Time =    1.000,"PART-1-1",           133,      -7.18486,      -10.2642,            0.,NA,NA,"",   891.847E-03,   891.041E-03,  -37.9109E-03,   3.56914E-03
C:/temp/dataset/6/13_16.odb,Step-1,Increment      1: Step Time =    1.000,"PART-1-1",           134,      -7.33974,      -5.93881,            0.,NA,NA,"",       1.40122,       1.39935,  -72.2818E-03,   21.9990E-03
C:/temp/dataset/6/13_16.odb,Step-1,Increment      1: Step Time =    1.000,"PART-1-1",           135,  -533.729E-03,      -2.94296,            0.,NA,NA,"",       2.05904,       1.95647,  -641.771E-03,   40.4572E-03
C:/temp/dataset/6/13_16.odb,Step-1,Increment      1: Step Time =    1.000,"PART-1-1",           136,       10.2172,      -28.0250,            0.,NA,NA,"",   37.5537E-03,   12.9284E-03,  -35.2582E-03,   22.9102E-03
C:/temp/dataset/6/13_16.odb,Step-1,Increment      1: Step Time =    1.000,"PART-1-1",           137,       7.82196,      -28.0777,            0.,NA,NA,"",   16.2566E-03,   9.45282E-03,  -13.2258E-03,   9.49616E-03
C:/temp/dataset/6/13_16.odb,Step-1,Increment      1: Step Time =    1.000,"PART-1-1",           138,       5.43540,      -28.0544,            0.,NA,NA,"",   16.0698E-03,   16.0610E-03,   530.720E-06,   7.74052E-03
C:/temp/dataset/6/13_16.odb,Step-1,Increment      1: Step Time =    1.000,"PART-1-1",           139,       2.98405,      -27.8165,            0.,NA,NA,"",   29.8019E-03,   29.0156E-03,   6.80056E-03,   11.7815E-03
C:/temp/dataset/6/13_16.odb,Step-1,Increment      1: Step Time =    1.000,"PART-1-1",           140,   324.250E-03,      -27.0908,            0.,NA,NA,"",   47.1186E-03,   46.6823E-03,   6.39774E-03,   13.5273E-03
C:/temp/dataset/6/13_16.odb,Step-1,Increment      1: Step Time =    1.000,"PART-1-1",           141,      -2.46293,      -27.5198,            0.,NA,NA,"",   35.0630E-03,   35.0530E-03,   839.768E-06,   11.3714E-03
C:/temp/dataset/6/13_16.odb,Step-1,Increment      1: Step Time =    1.000,"PART-1-1",           142,      -4.88996,      -27.5861,            0.,NA,NA,"",   25.3908E-03,   25.3319E-03,   1.72805E-03,   8.87782E-03
C:/temp/dataset/6/13_16.odb,Step-1,Increment      1: Step Time =    1.000,"PART-1-1",           143,      -7.26500,      -27.4866,            0.,NA,NA,"",   21.5686E-03,   18.6490E-03,   10.8360E-03,   7.51036E-03
C:/temp/dataset/6/13_16.odb,Step-1,Increment      1: Step Time =    1.000,"PART-1-1",           144,      -9.86695,      -26.8928,            0.,NA,NA,"",   45.5964E-03,   26.7285E-03,   36.9408E-03,   15.0526E-03
C:/temp/dataset/6/13_16.odb,Step-1,Increment      1: Step Time =    1.000,"PART-1-1",           145,       12.7710,      -23.5898,            0.,NA,NA,"",   305.551E-03,   184.510E-03,  -243.552E-03,   42.9926E-03
C:/temp/dataset/6/13_16.odb,Step-1,Increment      1: Step Time =    1.000,"PART-1-1",           146,       12.6989,      -25.7990,            0.,NA,NA,"",   180.934E-03,   97.8585E-03,  -152.186E-03,   44.4449E-03
C:/temp/dataset/6/13_16.odb,Step-1,Increment      1: Step Time =    1.000,"PART-1-1",           147,       12.6207,      -27.9366,            0.,NA,NA,"",   80.3002E-03,   38.7478E-03,  -70.3330E-03,   43.9142E-03
C:/temp/dataset/6/13_16.odb,Step-1,Increment      1: Step Time =    1.000,"PART-1-1",           148,       12.9983,      -14.8223,            0.,NA,NA,"",       1.07646,   905.633E-03,  -581.896E-03,   31.1909E-03
C:/temp/dataset/6/13_16.odb,Step-1,Increment      1: Step Time =    1.000,"PART-1-1",           149,       13.0558,      -17.0719,            0.,NA,NA,"",   843.838E-03,   668.615E-03,  -514.797E-03,   36.6421E-03
C:/temp/dataset/6/13_16.odb,Step-1,Increment      1: Step Time =    1.000,"PART-1-1",           150,       13.1682,      -19.2108,            0.,NA,NA,"",   648.607E-03,   473.230E-03,  -443.559E-03,   41.3235E-03
C:/temp/dataset/6/13_16.odb,Step-1,Increment      1: Step Time =    1.000,"PART-1-1",           151,       13.0670,      -5.94273,            0.,NA,NA,"",       1.95363,       1.82088,  -707.856E-03,   8.25679E-03
C:/temp/dataset/6/13_16.odb,Step-1,Increment      1: Step Time =    1.000,"PART-1-1",           152,       13.0350,      -8.09399,            0.,NA,NA,"",       1.78050,       1.63614,  -702.317E-03,   13.3606E-03
C:/temp/dataset/6/13_16.odb,Step-1,Increment      1: Step Time =    1.000,"PART-1-1",           153,       12.9982,      -10.2981,            0.,NA,NA,"",       1.56591,       1.41108,  -678.924E-03,   19.3798E-03
C:/temp/dataset/6/13_16.odb,Step-1,Increment      1: Step Time =    1.000,"PART-1-1",           154,       12.5107,   556.281E-03,            0.,NA,NA,"",       2.23283,       2.13325,  -659.360E-03,   9.25359E-03
C:/temp/dataset/6/13_16.odb,Step-1,Increment      1: Step Time =    1.000,"PART-1-1",           155,       12.7702,      -1.64554,            0.,NA,NA,"",       2.16994,       2.06198,  -675.923E-03,   7.90250E-03
C:/temp/dataset/6/13_16.odb,Step-1,Increment      1: Step Time =    1.000,"PART-1-1",           156,       10.0517,       2.85834,            0.,NA,NA,"",       2.26206,       2.18764,  -575.462E-03,   7.00895E-03
C:/temp/dataset/6/13_16.odb,Step-1,Increment      1: Step Time =    1.000,"PART-1-1",           157,       5.39286,       2.85476,            0.,NA,NA,"",       2.23232,       2.17250,  -513.302E-03,   16.1142E-03
C:/temp/dataset/6/13_16.odb,Step-1,Increment      1: Step Time =    1.000,"PART-1-1",           158,   175.602E-03,       2.90951,            0.,NA,NA,"",       2.32443,       2.24071,  -618.236E-03,   48.2275E-03
C:/temp/dataset/6/13_16.odb,Step-1,Increment      1: Step Time =    1.000,"PART-1-1",           159,      -4.35394,       2.91920,            0.,NA,NA,"",       2.48697,       2.37791,  -728.373E-03,   108.028E-03
C:/temp/dataset/6/13_16.odb,Step-1,Increment      1: Step Time =    1.000,"PART-1-1",           160,      -7.05997,       10.9599,            0.,NA,NA,"",       5.18703,       5.02499,      -1.28638,   65.8433E-03
C:/temp/dataset/6/13_16.odb,Step-1,Increment      1: Step Time =    1.000,"PART-1-1",           161,      -6.93805,       8.84105,            0.,NA,NA,"",       4.28434,       4.16330,      -1.01118,   83.0573E-03
C:/temp/dataset/6/13_16.odb,Step-1,Increment      1: Step Time =    1.000,"PART-1-1",           162,      -7.28921,       17.6445,            0.,NA,NA,"",       8.51595,       8.20169,      -2.29208,   40.3913E-03
C:/temp/dataset/6/13_16.odb,Step-1,Increment      1: Step Time =    1.000,"PART-1-1",           163,      -7.17735,       15.3234,            0.,NA,NA,"",       7.28612,       7.02237,      -1.94265,   48.4530E-03
C:/temp/dataset/6/13_16.odb,Step-1,Increment      1: Step Time =    1.000,"PART-1-1",           164,      -6.93557,       23.5874,            0.,NA,NA,"",       11.9003,       11.3555,      -3.55925,   21.0486E-03
C:/temp/dataset/6/13_16.odb,Step-1,Increment      1: Step Time =    1.000,"PART-1-1",           165,      -13.1925,       19.7530,            0.,NA,NA,"",       10.1582,       10.1522,   347.084E-03,   35.0905E-03
C:/temp/dataset/6/13_16.odb,Step-1,Increment      1: Step Time =    1.000,"PART-1-1",           166,      -7.44963,       27.8335,            0.,NA,NA,"",       14.3687,       13.7950,      -4.01966,   7.64845E-03
C:/temp/dataset/6/13_16.odb,Step-1,Increment      1: Step Time =    1.000,"PART-1-1",           167,      -13.0424,       22.0734,            0.,NA,NA,"",       11.4488,       11.4485,  -79.8125E-03,   32.5527E-03
C:/temp/dataset/6/13_16.odb,Step-1,Increment      1: Step Time =    1.000,"PART-1-1",           168,      -13.1316,       14.9813,            0.,NA,NA,"",       7.59896,       7.54889,   870.880E-03,   56.9252E-03
C:/temp/dataset/6/13_16.odb,Step-1,Increment      1: Step Time =    1.000,"PART-1-1",           169,      -13.1727,       17.3972,            0.,NA,NA,"",       8.86761,       8.84454,   639.207E-03,   46.0735E-03
C:/temp/dataset/6/13_16.odb,Step-1,Increment      1: Step Time =    1.000,"PART-1-1",           170,      -12.8574,       7.53984,            0.,NA,NA,"",       4.23549,       4.09288,       1.08983,   85.4925E-03
C:/temp/dataset/6/13_16.odb,Step-1,Increment      1: Step Time =    1.000,"PART-1-1",           171,      -13.0166,       10.0884,            0.,NA,NA,"",       5.27686,       5.15692,       1.11867,   78.7396E-03
C:/temp/dataset/6/13_16.odb,Step-1,Increment      1: Step Time =    1.000,"PART-1-1",           172,      -12.8045,  -118.323E-03,            0.,NA,NA,"",       2.29630,       2.15758,   786.026E-03,   66.5148E-03
C:/temp/dataset/6/13_16.odb,Step-1,Increment      1: Step Time =    1.000,"PART-1-1",           173,      -12.7039,       2.28772,            0.,NA,NA,"",       2.71111,       2.56728,   871.290E-03,   79.1605E-03
C:/temp/dataset/6/13_16.odb,Step-1,Increment      1: Step Time =    1.000,"PART-1-1",           174,      -12.8488,      -7.31355,            0.,NA,NA,"",       1.40163,       1.27188,   588.965E-03,   32.1329E-03
C:/temp/dataset/6/13_16.odb,Step-1,Increment      1: Step Time =    1.000,"PART-1-1",           175,      -12.6051,      -4.81291,            0.,NA,NA,"",       1.67136,       1.55441,   614.202E-03,   35.1722E-03
C:/temp/dataset/6/13_16.odb,Step-1,Increment      1: Step Time =    1.000,"PART-1-1",           176,      -12.4260,      -15.0682,            0.,NA,NA,"",   639.722E-03,   520.988E-03,   371.235E-03,   30.0479E-03
C:/temp/dataset/6/13_16.odb,Step-1,Increment      1: Step Time =    1.000,"PART-1-1",           177,      -12.3344,      -12.5112,            0.,NA,NA,"",   843.958E-03,   729.962E-03,   423.581E-03,   29.1910E-03
C:/temp/dataset/6/13_16.odb,Step-1,Increment      1: Step Time =    1.000,"PART-1-1",           178,      -12.6598,      -20.1148,            0.,NA,NA,"",   341.222E-03,   229.450E-03,   252.557E-03,   31.6294E-03
C:/temp/dataset/6/13_16.odb,Step-1,Increment      1: Step Time =    1.000,"PART-1-1",           179,      -8.70618,       22.9331,            0.,NA,NA,"",       11.5329,       11.2596,      -2.49582,   27.0094E-03
C:/temp/dataset/6/13_16.odb,Step-1,Increment      1: Step Time =    1.000,"PART-1-1",           180,      -9.21222,       15.1634,            0.,NA,NA,"",       7.22320,       7.16033,  -950.989E-03,   33.8710E-03
C:/temp/dataset/6/13_16.odb,Step-1,Increment      1: Step Time =    1.000,"PART-1-1",           181,      -9.55138,       19.8926,            0.,NA,NA,"",       9.81501,       9.69496,      -1.53043,   32.5012E-03
C:/temp/dataset/6/13_16.odb,Step-1,Increment      1: Step Time =    1.000,"PART-1-1",           182,      -8.92203,       8.32966,            0.,NA,NA,"",       4.07466,       4.06815,  -230.115E-03,   43.8834E-03
C:/temp/dataset/6/13_16.odb,Step-1,Increment      1: Step Time =    1.000,"PART-1-1",           183,      -9.17670,       12.8809,            0.,NA,NA,"",       6.08412,       6.04920,  -650.914E-03,   35.0542E-03
C:/temp/dataset/6/13_16.odb,Step-1,Increment      1: Step Time =    1.000,"PART-1-1",           184,      -9.09923,       10.6117,            0.,NA,NA,"",       5.03651,       5.02018,  -405.321E-03,   37.9352E-03
C:/temp/dataset/6/13_16.odb,Step-1,Increment      1: Step Time =    1.000,"PART-1-1",           185,      -9.30530,       17.5014,            0.,NA,NA,"",       8.46917,       8.37446,      -1.26299,   33.1272E-03
C:/temp/dataset/6/13_16.odb,Step-1,Increment      1: Step Time =    1.000,"PART-1-1",           186,      -8.37864,       6.17865,            0.,NA,NA,"",       3.25715,       3.24917,  -227.975E-03,   56.5793E-03
C:/temp/dataset/6/13_16.odb,Step-1,Increment      1: Step Time =    1.000,"PART-1-1",           187,       10.9988,      -10.2527,            0.,NA,NA,"",       1.50641,       1.41230,  -524.107E-03,   29.9200E-03
C:/temp/dataset/6/13_16.odb,Step-1,Increment      1: Step Time =    1.000,"PART-1-1",           188,       10.8643,      -17.5211,            0.,NA,NA,"",   686.119E-03,   596.772E-03,  -338.559E-03,   35.0951E-03
C:/temp/dataset/6/13_16.odb,Step-1,Increment      1: Step Time =    1.000,"PART-1-1",           189,       11.0508,      -8.01555,            0.,NA,NA,"",       1.74126,       1.64757,  -563.461E-03,   23.4079E-03
C:/temp/dataset/6/13_16.odb,Step-1,Increment      1: Step Time =    1.000,"PART-1-1",           190,       10.6332,      -2.00908,            0.,NA,NA,"",       2.13460,       2.05491,  -577.843E-03,   6.94454E-03
C:/temp/dataset/6/13_16.odb,Step-1,Increment      1: Step Time =    1.000,"PART-1-1",           191,       11.1668,      -5.92645,            0.,NA,NA,"",       1.92437,       1.83180,  -589.648E-03,   13.5871E-03
C:/temp/dataset/6/13_16.odb,Step-1,Increment      1: Step Time =    1.000,"PART-1-1",           192,       10.9732,      -14.9280,            0.,NA,NA,"",   971.090E-03,   877.347E-03,  -416.266E-03,   34.2405E-03
C:/temp/dataset/6/13_16.odb,Step-1,Increment      1: Step Time =    1.000,"PART-1-1",           193,       10.5476,      -23.6927,            0.,NA,NA,"",   204.411E-03,   144.805E-03,  -144.276E-03,   28.5578E-03
C:/temp/dataset/6/13_16.odb,Step-1,Increment      1: Step Time =    1.000,"PART-1-1",           194,       10.5707,      -21.1850,            0.,NA,NA,"",   354.065E-03,   281.829E-03,  -214.324E-03,   31.8792E-03
C:/temp/dataset/6/13_16.odb,Step-1,Increment      1: Step Time =    1.000,"PART-1-1",           195,       10.9760,      -12.5622,            0.,NA,NA,"",       1.24326,       1.14940,  -473.916E-03,   32.7984E-03
C:/temp/dataset/6/13_16.odb,Step-1,Increment      1: Step Time =    1.000,"PART-1-1",           196,       11.6229,      -19.2502,            0.,NA,NA,"",   558.655E-03,   445.864E-03,  -336.602E-03,   36.2427E-03
C:/temp/dataset/6/13_16.odb,Step-1,Increment      1: Step Time =    1.000,"PART-1-1",           197,       11.1609,      -3.97100,            0.,NA,NA,"",       2.05074,       1.96187,  -597.155E-03,   5.83994E-03
C:/temp/dataset/6/13_16.odb,Step-1,Increment      1: Step Time =    1.000,"PART-1-1",           198,      -9.55101,       25.2781,            0.,NA,NA,"",       12.9423,       12.7074,      -2.45443,   21.5480E-03
C:/temp/dataset/6/13_16.odb,Step-1,Increment      1: Step Time =    1.000,"PART-1-1",           199,      -6.13353,       2.97524,            0.,NA,NA,"",       2.45929,       2.38587,  -596.435E-03,   102.273E-03
C:/temp/dataset/6/13_16.odb,Step-1,Increment      1: Step Time =    1.000,"PART-1-1",           200,       8.52809,      -18.5145,            0.,NA,NA,"",   497.964E-03,   470.515E-03,  -163.047E-03,   30.2636E-03
C:/temp/dataset/6/13_16.odb,Step-1,Increment      1: Step Time =    1.000,"PART-1-1",           201,      -9.31256,      -6.57829,            0.,NA,NA,"",       1.32794,       1.31584,   178.840E-03,   8.88805E-03
C:/temp/dataset/6/13_16.odb,Step-1,Increment      1: Step Time =    1.000,"PART-1-1",           202,      -7.82061,      -4.24854,            0.,NA,NA,"",       1.60951,       1.60867,  -51.9173E-03,   38.8820E-03
C:/temp/dataset/6/13_16.odb,Step-1,Increment      1: Step Time =    1.000,"PART-1-1",           203,       7.55002,      -20.4955,            0.,NA,NA,"",   293.002E-03,   284.300E-03,  -70.8761E-03,   26.7488E-03
C:/temp/dataset/6/13_16.odb,Step-1,Increment      1: Step Time =    1.000,"PART-1-1",           204,      -9.18944,      -8.43706,            0.,NA,NA,"",       1.11223,       1.09948,   167.939E-03,   8.10043E-03
C:/temp/dataset/6/13_16.odb,Step-1,Increment      1: Step Time =    1.000,"PART-1-1",           205,      -12.3720,       27.4312,            0.,NA,NA,"",       14.4462,       14.3874,      -1.30241,   16.5879E-03
C:/temp/dataset/6/13_16.odb,Step-1,Increment      1: Step Time =    1.000,"PART-1-1",           206,      -10.3791,       22.2070,            0.,NA,NA,"",       11.2037,       11.1037,      -1.49397,   30.8763E-03
C:/temp/dataset/6/13_16.odb,Step-1,Increment      1: Step Time =    1.000,"PART-1-1",           207,       3.40286,  -884.176E-03,            0.,NA,NA,"",       2.12524,       2.05762,  -531.822E-03,   50.3193E-03
C:/temp/dataset/6/13_16.odb,Step-1,Increment      1: Step Time =    1.000,"PART-1-1",           208,       7.88020,       1.44192,            0.,NA,NA,"",       2.21023,       2.14886,  -517.204E-03,   9.07145E-03
C:/temp/dataset/6/13_16.odb,Step-1,Increment      1: Step Time =    1.000,"PART-1-1",           209,      -1.17287,  -897.893E-03,            0.,NA,NA,"",       2.16650,       2.06197,  -664.831E-03,   49.1427E-03
C:/temp/dataset/6/13_16.odb,Step-1,Increment      1: Step Time =    1.000,"PART-1-1",           210,       10.4014,      -25.9274,            0.,NA,NA,"",   104.042E-03,   62.0873E-03,  -83.4864E-03,   25.7613E-03
C:/temp/dataset/6/13_16.odb,Step-1,Increment      1: Step Time =    1.000,"PART-1-1",           211,       2.00108,      -24.8239,            0.,NA,NA,"",   94.1260E-03,   92.1269E-03,   19.2962E-03,   18.5406E-03
C:/temp/dataset/6/13_16.odb,Step-1,Increment      1: Step Time =    1.000,"PART-1-1",           212,      -4.80900,      -25.1606,            0.,NA,NA,"",   63.3138E-03,   63.1865E-03,  -4.01290E-03,   10.9344E-03
C:/temp/dataset/6/13_16.odb,Step-1,Increment      1: Step Time =    1.000,"PART-1-1",           213,      -11.5765,       21.3848,            0.,NA,NA,"",       10.8465,       10.8215,  -736.381E-03,   32.1686E-03
C:/temp/dataset/6/13_16.odb,Step-1,Increment      1: Step Time =    1.000,"PART-1-1",           214,      -11.0630,       10.3038,            0.,NA,NA,"",       5.06727,       5.05326,   376.572E-03,   43.8492E-03
C:/temp/dataset/6/13_16.odb,Step-1,Increment      1: Step Time =    1.000,"PART-1-1",           215,      -10.2832,  -591.021E-03,            0.,NA,NA,"",       2.03337,       2.01208,   293.514E-03,   49.9422E-03
C:/temp/dataset/6/13_16.odb,Step-1,Increment      1: Step Time =    1.000,"PART-1-1",           216,      -11.1869,      -5.64306,            0.,NA,NA,"",       1.49490,       1.43597,   415.610E-03,   21.0375E-03
C:/temp/dataset/6/13_16.odb,Step-1,Increment      1: Step Time =    1.000,"PART-1-1",           217,      -9.48237,      -10.3825,            0.,NA,NA,"",   915.085E-03,   894.605E-03,   192.512E-03,   11.2637E-03
C:/temp/dataset/6/13_16.odb,Step-1,Increment      1: Step Time =    1.000,"PART-1-1",           218,      -10.0191,      -20.7277,            0.,NA,NA,"",   212.929E-03,   171.100E-03,   126.743E-03,   17.8671E-03
C:/temp/dataset/6/13_16.odb,Step-1,Increment      1: Step Time =    1.000,"PART-1-1",           219,      -12.8377,      -24.8331,            0.,NA,NA,"",   157.732E-03,   89.0495E-03,   130.191E-03,   30.7786E-03
C:/temp/dataset/6/13_16.odb,Step-1,Increment      1: Step Time =    1.000,"PART-1-1",           220,  -752.185E-03,      -25.0561,            0.,NA,NA,"",   83.9279E-03,   83.8362E-03,   3.92047E-03,   16.2889E-03
C:/temp/dataset/6/13_16.odb,Step-1,Increment      1: Step Time =    1.000,"PART-1-1",           221,      -11.3411,      -22.5061,            0.,NA,NA,"",   192.442E-03,   127.926E-03,   143.766E-03,   23.9536E-03
C:/temp/dataset/6/13_16.odb,Step-1,Increment      1: Step Time =    1.000,"PART-1-1",           222,       5.90860,      -26.1342,            0.,NA,NA,"",   48.7266E-03,   48.7244E-03,   464.731E-06,   8.98570E-03
C:/temp/dataset/6/13_16.odb,Step-1,Increment      1: Step Time =    1.000,"PART-1-1",           223,       3.81352,      -25.8758,            0.,NA,NA,"",   65.0596E-03,   63.2809E-03,   15.1092E-03,   14.8945E-03
C:/temp/dataset/6/13_16.odb,Step-1,Increment      1: Step Time =    1.000,"PART-1-1",           224,      -6.87266,      -25.1947,            0.,NA,NA,"",   53.9987E-03,   52.6724E-03,   11.8944E-03,   5.95931E-03
C:/temp/dataset/6/13_16.odb,Step-1,Increment      1: Step Time =    1.000,"PART-1-1",           225,       9.77381,   336.875E-03,            0.,NA,NA,"",       2.19923,       2.12759,  -556.753E-03,   7.92656E-03
C:/temp/dataset/6/13_16.odb,Step-1,Increment      1: Step Time =    1.000,"PART-1-1",           226,       4.59800,   29.7464E-03,            0.,NA,NA,"",       2.15660,       2.09633,  -506.294E-03,   39.5594E-03
C:/temp/dataset/6/13_16.odb,Step-1,Increment      1: Step Time =    1.000,"PART-1-1",           227,      -11.1551,       12.6912,            0.,NA,NA,"",       6.16121,       6.15751,   213.404E-03,   40.1035E-03
C:/temp/dataset/6/13_16.odb,Step-1,Increment      1: Step Time =    1.000,"PART-1-1",           228,      -11.2689,       17.3859,            0.,NA,NA,"",       8.57194,       8.56707,  -288.707E-03,   34.3327E-03
C:/temp/dataset/6/13_16.odb,Step-1,Increment      1: Step Time =    1.000,"PART-1-1",           229,      -11.2102,       15.0558,            0.,NA,NA,"",       7.33680,       7.33679,  -17.0146E-03,   37.0553E-03
C:/temp/dataset/6/13_16.odb,Step-1,Increment      1: Step Time =    1.000,"PART-1-1",           230,      -10.8139,       7.79620,            0.,NA,NA,"",       4.03031,       4.00738,   429.329E-03,   47.6210E-03
C:/temp/dataset/6/13_16.odb,Step-1,Increment      1: Step Time =    1.000,"PART-1-1",           231,      -10.1648,       4.85487,            0.,NA,NA,"",       3.00356,       2.98844,   301.062E-03,   50.9060E-03
C:/temp/dataset/6/13_16.odb,Step-1,Increment      1: Step Time =    1.000,"PART-1-1",           232,      -10.4473,       2.01195,            0.,NA,NA,"",       2.41559,       2.39017,   349.535E-03,   59.4879E-03
C:/temp/dataset/6/13_16.odb,Step-1,Increment      1: Step Time =    1.000,"PART-1-1",           233,      -10.4810,      -3.59789,            0.,NA,NA,"",       1.69653,       1.66499,   325.654E-03,   27.9032E-03
C:/temp/dataset/6/13_16.odb,Step-1,Increment      1: Step Time =    1.000,"PART-1-1",           234,      -9.89141,      -15.1395,            0.,NA,NA,"",   518.877E-03,   482.213E-03,   191.583E-03,   14.2622E-03
C:/temp/dataset/6/13_16.odb,Step-1,Increment      1: Step Time =    1.000,"PART-1-1",           235,      -9.95744,      -17.7636,            0.,NA,NA,"",   351.166E-03,   309.445E-03,   166.016E-03,   16.8721E-03
C:/temp/dataset/6/13_16.odb,Step-1,Increment      1: Step Time =    1.000,"PART-1-1",           236,      -3.63694,      -1.16253,            0.,NA,NA,"",       2.10948,       2.01646,  -619.498E-03,   36.6370E-03
C:/temp/dataset/6/13_16.odb,Step-1,Increment      1: Step Time =    1.000,"PART-1-1",           237,      -7.00580,      -22.7773,            0.,NA,NA,"",   98.9228E-03,   97.9825E-03,   13.6070E-03,   3.35792E-03
C:/temp/dataset/6/13_16.odb,Step-1,Increment      1: Step Time =    1.000,"PART-1-1",           238,       7.08723,      -4.67483,            0.,NA,NA,"",       1.98382,       1.94302,  -400.287E-03,   29.0726E-03
C:/temp/dataset/6/13_16.odb,Step-1,Increment      1: Step Time =    1.000,"PART-1-1",           239,       8.96532,      -10.1697,            0.,NA,NA,"",       1.46318,       1.41343,  -378.291E-03,   33.9372E-03
C:/temp/dataset/6/13_16.odb,Step-1,Increment      1: Step Time =    1.000,"PART-1-1",           240,       8.99874,      -7.82238,            0.,NA,NA,"",       1.72485,       1.66856,  -437.051E-03,   34.0673E-03
C:/temp/dataset/6/13_16.odb,Step-1,Increment      1: Step Time =    1.000,"PART-1-1",           241,       8.96760,      -14.8663,            0.,NA,NA,"",   909.729E-03,   869.746E-03,  -266.735E-03,   31.2753E-03
C:/temp/dataset/6/13_16.odb,Step-1,Increment      1: Step Time =    1.000,"PART-1-1",           242,      -12.0836,       24.5335,            0.,NA,NA,"",       12.7381,       12.6999,  -985.666E-03,   27.4868E-03
C:/temp/dataset/6/13_16.odb,Step-1,Increment      1: Step Time =    1.000,"PART-1-1",           243,       9.21542,      -5.66363,            0.,NA,NA,"",       1.92482,       1.86302,  -483.798E-03,   22.2486E-03
C:/temp/dataset/6/13_16.odb,Step-1,Increment      1: Step Time =    1.000,"PART-1-1",           244,       8.72776,      -2.97127,            0.,NA,NA,"",       2.07916,       2.02068,  -489.655E-03,   14.6083E-03
C:/temp/dataset/6/13_16.odb,Step-1,Increment      1: Step Time =    1.000,"PART-1-1",           245,       9.39471,      -19.4524,            0.,NA,NA,"",   440.558E-03,   395.508E-03,  -194.073E-03,   31.4330E-03
C:/temp/dataset/6/13_16.odb,Step-1,Increment      1: Step Time =    1.000,"PART-1-1",           246,       8.06548,      -22.0810,            0.,NA,NA,"",   206.605E-03,   193.689E-03,  -71.9059E-03,   16.4681E-03
C:/temp/dataset/6/13_16.odb,Step-1,Increment      1: Step Time =    1.000,"PART-1-1",           247,      -7.53738,       4.79758,            0.,NA,NA,"",       2.80613,       2.78015,  -380.956E-03,   62.7939E-03
C:/temp/dataset/6/13_16.odb,Step-1,Increment      1: Step Time =    1.000,"PART-1-1",           248,      -10.8025,      -24.3532,            0.,NA,NA,"",   120.324E-03,   77.1176E-03,   92.3616E-03,   20.1944E-03
C:/temp/dataset/6/13_16.odb,Step-1,Increment      1: Step Time =    1.000,"PART-1-1",           249,       5.82981,      -2.08643,            0.,NA,NA,"",       2.08231,       2.03310,  -450.031E-03,   42.5399E-03
C:/temp/dataset/6/13_16.odb,Step-1,Increment      1: Step Time =    1.000,"PART-1-1",           250,      -8.67175,      -2.53401,            0.,NA,NA,"",       1.78560,       1.78535,   30.1619E-03,   43.0303E-03
C:/temp/dataset/6/13_16.odb,Step-1,Increment      1: Step Time =    1.000,"PART-1-1",           251,       5.78686,      -22.7214,            0.,NA,NA,"",   151.919E-03,   151.505E-03,   11.2100E-03,   11.4466E-03
C:/temp/dataset/6/13_16.odb,Step-1,Increment      1: Step Time =    1.000,"PART-1-1",           252,      -8.27594,       1.60152,            0.,NA,NA,"",       2.24828,       2.24445,  -131.148E-03,   58.8160E-03
C:/temp/dataset/6/13_16.odb,Step-1,Increment      1: Step Time =    1.000,"PART-1-1",           253,       8.25490,      -24.0061,            0.,NA,NA,"",   123.950E-03,   110.799E-03,  -55.5627E-03,   11.8591E-03
C:/temp/dataset/6/13_16.odb,Step-1,Increment      1: Step Time =    1.000,"PART-1-1",           254,      -9.04303,      -23.2600,            0.,NA,NA,"",   109.336E-03,   90.0039E-03,   62.0776E-03,   11.4520E-03
C:/temp/dataset/6/13_16.odb,Step-1,Increment      1: Step Time =    1.000,"PART-1-1",           255,       7.61656,      -1.09448,            0.,NA,NA,"",       2.13704,       2.08175,  -482.928E-03,   18.5557E-03
C:/temp/dataset/6/13_16.odb,Step-1,Increment      1: Step Time =    1.000,"PART-1-1",           256,      -4.02262,   861.151E-03,            0.,NA,NA,"",       2.28763,       2.18949,  -662.871E-03,   53.2688E-03
C:/temp/dataset/6/13_16.odb,Step-1,Increment      1: Step Time =    1.000,"PART-1-1",           257,  -104.141E-03,       1.31276,            0.,NA,NA,"",       2.27988,       2.18658,  -645.536E-03,   52.4345E-03
C:/temp/dataset/6/13_16.odb,Step-1,Increment      1: Step Time =    1.000,"PART-1-1",           258,       3.72123,      -23.4419,            0.,NA,NA,"",   130.243E-03,   126.791E-03,   29.7864E-03,   21.4423E-03
C:/temp/dataset/6/13_16.odb,Step-1,Increment      1: Step Time =    1.000,"PART-1-1",           259,      -10.7950,      -8.39617,            0.,NA,NA,"",       1.17073,       1.11925,   343.364E-03,   18.2189E-03
C:/temp/dataset/6/13_16.odb,Step-1,Increment      1: Step Time =    1.000,"PART-1-1",           260,      -1.85786,       1.02916,            0.,NA,NA,"",       2.30473,       2.19988,  -687.236E-03,   62.4266E-03
C:/temp/dataset/6/13_16.odb,Step-1,Increment      1: Step Time =    1.000,"PART-1-1",           261,      -6.46179,      -1.33856,            0.,NA,NA,"",       1.97088,       1.94089,  -342.494E-03,   49.7568E-03
C:/temp/dataset/6/13_16.odb,Step-1,Increment      1: Step Time =    1.000,"PART-1-1",           262,      -11.1078,      -7.00587,            0.,NA,NA,"",       1.33780,       1.27882,   392.828E-03,   19.1974E-03
C:/temp/dataset/6/13_16.odb,Step-1,Increment      1: Step Time =    1.000,"PART-1-1",           263,      -5.52697,      -3.44125,            0.,NA,NA,"",       1.80827,       1.76582,  -389.519E-03,   49.3256E-03
C:/temp/dataset/6/13_16.odb,Step-1,Increment      1: Step Time =    1.000,"PART-1-1",           264,      -9.72268,      -4.98378,            0.,NA,NA,"",       1.52034,       1.50409,   221.696E-03,   16.7344E-03
C:/temp/dataset/6/13_16.odb,Step-1,Increment      1: Step Time =    1.000,"PART-1-1",           265,      -6.27329,       4.89376,            0.,NA,NA,"",       2.78374,       2.69711,  -689.058E-03,   106.365E-03
C:/temp/dataset/6/13_16.odb,Step-1,Increment      1: Step Time =    1.000,"PART-1-1",           266,       12.4963,       2.80040,            0.,NA,NA,"",       2.28750,       2.19106,  -657.217E-03,   7.44823E-03
C:/temp/dataset/6/13_16.odb,Step-1,Increment      1: Step Time =    1.000,"PART-1-1",           267,      -7.37176,      -20.2559,            0.,NA,NA,"",   170.428E-03,   168.383E-03,   26.3236E-03,   8.70026E-03
C:/temp/dataset/6/13_16.odb,Step-1,Increment      1: Step Time =    1.000,"PART-1-1",           268,       2.88963,      -21.8777,            0.,NA,NA,"",   165.599E-03,   163.411E-03,   26.8345E-03,   29.9025E-03
C:/temp/dataset/6/13_16.odb,Step-1,Increment      1: Step Time =    1.000,"PART-1-1",           269,      -8.05085,       3.52655,            0.,NA,NA,"",       2.54058,       2.53110,  -219.217E-03,   64.3111E-03
C:/temp/dataset/6/13_16.odb,Step-1,Increment      1: Step Time =    1.000,"PART-1-1",           270,       8.95558,      -12.5395,            0.,NA,NA,"",       1.18380,       1.14017,  -318.430E-03,   32.9139E-03
C:/temp/dataset/6/13_16.odb,Step-1,Increment      1: Step Time =    1.000,"PART-1-1",           271,       1.35989,  -223.950E-03,            0.,NA,NA,"",       2.17828,       2.09259,  -604.951E-03,   55.9123E-03
C:/temp/dataset/6/13_16.odb,Step-1,Increment      1: Step Time =    1.000,"PART-1-1",           272,      -9.75004,      -12.6533,            0.,NA,NA,"",   711.872E-03,   682.546E-03,   202.217E-03,   13.1228E-03
C:/temp/dataset/6/13_16.odb,Step-1,Increment      1: Step Time =    1.000,"PART-1-1",           273,      -8.51206,      -25.1011,            0.,NA,NA,"",   63.5162E-03,   52.3873E-03,   35.9148E-03,   8.43076E-03
C:/temp/dataset/6/13_16.odb,Step-1,Increment      1: Step Time =    1.000,"PART-1-1",           274,      -6.19138,   998.181E-03,            0.,NA,NA,"",       2.22092,       2.16830,  -480.567E-03,   57.8952E-03
C:/temp/dataset/6/13_16.odb,Step-1,Increment      1: Step Time =    1.000,"PART-1-1",           275,      -2.63339,      -25.0950,            0.,NA,NA,"",   75.8809E-03,   75.7320E-03,  -4.75216E-03,   15.7316E-03
C:/temp/dataset/6/13_16.odb,Step-1,Increment      1: Step Time =    1.000,"PART-1-1",           276,       8.11811,      -26.0558,            0.,NA,NA,"",   57.2746E-03,   47.4085E-03,  -32.1375E-03,   10.5639E-03
C:/temp/dataset/6/13_16.odb,Step-1,Increment      1: Step Time =    1.000,"PART-1-1",           277,       6.33403,   764.508E-03,            0.,NA,NA,"",       2.18297,       2.12551,  -497.590E-03,   21.3412E-03
C:/temp/dataset/6/13_16.odb,Step-1,Increment      1: Step Time =    1.000,"PART-1-1",           278,       8.84044,      -16.9880,            0.,NA,NA,"",   666.137E-03,   631.060E-03,  -213.313E-03,   32.4943E-03
C:/temp/dataset/6/13_16.odb,Step-1,Increment      1: Step Time =    1.000,"PART-1-1",           279,      -11.3950,       19.6047,            0.,NA,NA,"",       9.81170,       9.79632,  -549.102E-03,   32.6245E-03
C:/temp/dataset/6/13_16.odb,Step-1,Increment      1: Step Time =    1.000,"PART-1-1",           280,      -11.2464,      -2.22607,            0.,NA,NA,"",       1.88846,       1.83269,   455.544E-03,   41.1963E-03
C:/temp/dataset/6/13_16.odb,Step-1,Increment      1: Step Time =    1.000,"PART-1-1",           281,      -8.41776,  -32.7016E-03,            0.,NA,NA,"",       2.05516,       2.05407,  -66.8042E-03,   52.5300E-03
C:/temp/dataset/6/13_16.odb,Step-1,Increment      1: Step Time =    1.000,"PART-1-1",           282,       4.48255,      -24.5345,            0.,NA,NA,"",   96.4662E-03,   94.3969E-03,   19.8737E-03,   15.4109E-03
C:/temp/dataset/6/13_16.odb,Step-1,Increment      1: Step Time =    1.000,"PART-1-1",           283,       6.11275,      -24.3348,            0.,NA,NA,"",   95.9960E-03,   95.9942E-03,   572.683E-06,   8.09376E-03
C:/temp/dataset/6/13_16.odb,Step-1,Increment      1: Step Time =    1.000,"PART-1-1",           284,       9.69767,      -4.20039,            0.,NA,NA,"",       2.02385,       1.95546,  -521.681E-03,   12.7372E-03
C:/temp/dataset/6/13_16.odb,Step-1,Increment      1: Step Time =    1.000,"PART-1-1",           285,       13.8851,      -1.60402,            0.,NA,NA,"",       2.18269,       2.05828,  -726.367E-03,   10.8531E-03
C:/temp/dataset/6/13_16.odb,Step-1,Increment      1: Step Time =    1.000,"PART-1-1",           286,           15.,   -468.75E-03,            0.,NA,NA,"",       2.22577,       2.09243,  -758.833E-03,   12.6844E-03
C:/temp/dataset/6/13_16.odb,Step-1,Increment      1: Step Time =    1.000,"PART-1-1",           287,       13.7553,   590.641E-03,            0.,NA,NA,"",       2.24527,       2.13104,  -707.022E-03,   7.59839E-03
C:/temp/dataset/6/13_16.odb,Step-1,Increment      1: Step Time =    1.000,"PART-1-1",           288,       12.6405,  -544.629E-03,            0.,NA,NA,"",       2.20385,       2.10049,  -667.008E-03,   8.37455E-03
C:/temp/dataset/6/13_16.odb,Step-1,Increment      1: Step Time =    1.000,"PART-1-1",           289,       6.57104,       2.96720,            0.,NA,NA,"",       2.23555,       2.17607,  -512.246E-03,   9.56632E-03
C:/temp/dataset/6/13_16.odb,Step-1,Increment      1: Step Time =    1.000,"PART-1-1",           290,       5.86345,       1.80964,            0.,NA,NA,"",       2.21018,       2.15132,  -506.633E-03,   18.5330E-03
C:/temp/dataset/6/13_16.odb,Step-1,Increment      1: Step Time =    1.000,"PART-1-1",           291,       7.10711,       1.10321,            0.,NA,NA,"",       2.19649,       2.13783,  -504.233E-03,   14.4296E-03
C:/temp/dataset/6/13_16.odb,Step-1,Increment      1: Step Time =    1.000,"PART-1-1",           292,       7.81470,       2.26078,            0.,NA,NA,"",       2.22837,       2.16659,  -521.069E-03,   7.24933E-03
C:/temp/dataset/6/13_16.odb,Step-1,Increment      1: Step Time =    1.000,"PART-1-1",           293,       6.97305,      -8.82061,            0.,NA,NA,"",       1.57142,       1.54885,  -265.381E-03,   40.7745E-03
C:/temp/dataset/6/13_16.odb,Step-1,Increment      1: Step Time =    1.000,"PART-1-1",           294,       5.98985,      -7.53541,            0.,NA,NA,"",       1.69571,       1.67855,  -240.650E-03,   49.8532E-03
C:/temp/dataset/6/13_16.odb,Step-1,Increment      1: Step Time =    1.000,"PART-1-1",           295,            5.,      -8.76875,            0.,NA,NA,"",       1.52730,       1.52543,  -75.5583E-03,   44.7961E-03
C:/temp/dataset/6/13_16.odb,Step-1,Increment      1: Step Time =    1.000,"PART-1-1",           296,       5.98320,      -10.0539,            0.,NA,NA,"",       1.40638,       1.40038,  -129.733E-03,   34.0232E-03
C:/temp/dataset/6/13_16.odb,Step-1,Increment      1: Step Time =    1.000,"PART-1-1",           297,       12.0429,      -8.05477,            0.,NA,NA,"",       1.75928,       1.64244,  -630.447E-03,   18.1709E-03
C:/temp/dataset/6/13_16.odb,Step-1,Increment      1: Step Time =    1.000,"PART-1-1",           298,       11.0248,      -9.13413,            0.,NA,NA,"",       1.62829,       1.53406,  -545.894E-03,   26.5539E-03
C:/temp/dataset/6/13_16.odb,Step-1,Increment      1: Step Time =    1.000,"PART-1-1",           299,       11.9985,      -10.2754,            0.,NA,NA,"",       1.53424,       1.41246,  -599.039E-03,   24.5658E-03
C:/temp/dataset/6/13_16.odb,Step-1,Increment      1: Step Time =    1.000,"PART-1-1",           300,       13.0166,      -9.19606,            0.,NA,NA,"",       1.67693,       1.52712,  -692.839E-03,   16.0484E-03
C:/temp/dataset/6/13_16.odb,Step-1,Increment      1: Step Time =    1.000,"PART-1-1",           301,       13.9992,      -14.7549,            0.,NA,NA,"",       1.14208,   921.057E-03,  -675.286E-03,   28.8049E-03
C:/temp/dataset/6/13_16.odb,Step-1,Increment      1: Step Time =    1.000,"PART-1-1",           302,       13.0271,      -15.9471,            0.,NA,NA,"",   957.866E-03,   784.173E-03,  -550.071E-03,   33.8118E-03
C:/temp/dataset/6/13_16.odb,Step-1,Increment      1: Step Time =    1.000,"PART-1-1",           303,       14.0279,      -16.9735,            0.,NA,NA,"",   915.906E-03,   690.915E-03,  -601.265E-03,   38.5000E-03
C:/temp/dataset/6/13_16.odb,Step-1,Increment      1: Step Time =    1.000,"PART-1-1",           304,           15.,      -15.7813,            0.,NA,NA,"",       1.10786,   822.367E-03,  -742.345E-03,   35.7684E-03
C:/temp/dataset/6/13_16.odb,Step-1,Increment      1: Step Time =    1.000,"PART-1-1",           305,       6.96949,      -18.0995,            0.,NA,NA,"",   503.326E-03,   498.877E-03,  -66.7756E-03,   24.8512E-03
C:/temp/dataset/6/13_16.odb,Step-1,Increment      1: Step Time =    1.000,"PART-1-1",           306,       5.95014,      -17.3335,            0.,NA,NA,"",   584.864E-03,   584.742E-03,   11.9550E-03,   10.1070E-03
C:/temp/dataset/6/13_16.odb,Step-1,Increment      1: Step Time =    1.000,"PART-1-1",           307,            5.,      -18.7625,            0.,NA,NA,"",   447.411E-03,   438.025E-03,   91.1627E-03,   35.0922E-03
C:/temp/dataset/6/13_16.odb,Step-1,Increment      1: Step Time =    1.000,"PART-1-1",           308,       6.01935,      -19.5285,            0.,NA,NA,"",   338.846E-03,   338.837E-03,   2.39477E-03,   39.4071E-03
C:/temp/dataset/6/13_16.odb,Step-1,Increment      1: Step Time =    1.000,"PART-1-1",           309,       7.66098,      -29.0388,            0.,NA,NA,"",   6.42460E-03,   1.05401E-03,  -6.33755E-03,   8.52165E-03
C:/temp/dataset/6/13_16.odb,Step-1,Increment      1: Step Time =    1.000,"PART-1-1",           310,       6.62868,      -28.0660,            0.,NA,NA,"",   13.1347E-03,   11.9947E-03,  -5.35229E-03,   7.10875E-03
C:/temp/dataset/6/13_16.odb,Step-1,Increment      1: Step Time =    1.000,"PART-1-1",           311,       5.21770,      -29.0272,            0.,NA,NA,"",   6.07337E-03,   6.07228E-03,  -115.296E-06,   5.15103E-03
C:/temp/dataset/6/13_16.odb,Step-1,Increment      1: Step Time =    1.000,"PART-1-1",           312,          6.25,          -30.,            0.,NA,NA,"",            0.,   368.487E-42,  -8.49659E-39,   4.35445E-03
C:/temp/dataset/6/13_16.odb,Step-1,Increment      1: Step Time =    1.000,"PART-1-1",           313,   162.125E-03,      -28.5454,            0.,NA,NA,"",   22.5335E-03,   22.3380E-03,   2.96233E-03,   11.5936E-03
C:/temp/dataset/6/13_16.odb,Step-1,Increment      1: Step Time =    1.000,"PART-1-1",           314,      -1.06934,      -27.3053,            0.,NA,NA,"",   42.0151E-03,   41.9212E-03,   2.80846E-03,   12.2100E-03
C:/temp/dataset/6/13_16.odb,Step-1,Increment      1: Step Time =    1.000,"PART-1-1",           315,      -2.48147,      -28.7599,            0.,NA,NA,"",   16.8435E-03,   16.7965E-03,   1.25778E-03,   9.73344E-03
C:/temp/dataset/6/13_16.odb,Step-1,Increment      1: Step Time =    1.000,"PART-1-1",           316,         -1.25,          -30.,            0.,NA,NA,"",            0.,   9.12384E-39,   4.37395E-39,   9.14581E-03
C:/temp/dataset/6/13_16.odb,Step-1,Increment      1: Step Time =    1.000,"PART-1-1",           317,          -15.,        -21.25,            0.,NA,NA,"",   382.806E-03,   225.542E-03,   309.308E-03,   43.2029E-03
C:/temp/dataset/6/13_16.odb,Step-1,Increment      1: Step Time =    1.000,"PART-1-1",           318,      -13.9888,      -22.4607,            0.,NA,NA,"",   286.076E-03,   166.469E-03,   232.654E-03,   36.7997E-03
C:/temp/dataset/6/13_16.odb,Step-1,Increment      1: Step Time =    1.000,"PART-1-1",           319,      -12.8187,      -21.2681,            0.,NA,NA,"",   294.490E-03,   187.104E-03,   227.413E-03,   31.8073E-03
C:/temp/dataset/6/13_16.odb,Step-1,Increment      1: Step Time =    1.000,"PART-1-1",           320,      -13.8299,      -20.0574,            0.,NA,NA,"",   395.918E-03,   251.432E-03,   305.831E-03,   38.0840E-03
C:/temp/dataset/6/13_16.odb,Step-1,Increment      1: Step Time =    1.000,"PART-1-1",           321,      -12.5142,      -28.6623,            0.,NA,NA,"",   31.0650E-03,   14.9352E-03,   27.2392E-03,   25.8988E-03
C:/temp/dataset/6/13_16.odb,Step-1,Increment      1: Step Time =    1.000,"PART-1-1",           322,        -11.25,          -30.,            0.,NA,NA,"",            0.,   1.37540E-39,   36.7251E-39,   18.8588E-03
C:/temp/dataset/6/13_16.odb,Step-1,Increment      1: Step Time =    1.000,"PART-1-1",           323,      -9.93348,      -28.4464,            0.,NA,NA,"",   19.9880E-03,   8.14642E-03,   18.2526E-03,   14.5062E-03
C:/temp/dataset/6/13_16.odb,Step-1,Increment      1: Step Time =    1.000,"PART-1-1",           324,      -11.1976,      -27.1087,            0.,NA,NA,"",   57.6879E-03,   30.6090E-03,   48.8976E-03,   22.0105E-03
C:/temp/dataset/6/13_16.odb,Step-1,Increment      1: Step Time =    1.000,"PART-1-1",           325,      -7.37036,      -13.8742,            0.,NA,NA,"",   565.089E-03,   565.069E-03,   4.76153E-03,   3.39242E-03
C:/temp/dataset/6/13_16.odb,Step-1,Increment      1: Step Time =    1.000,"PART-1-1",           326,      -6.21015,      -15.0417,            0.,NA,NA,"",   481.340E-03,   475.658E-03,  -73.7448E-03,   11.2270E-03
C:/temp/dataset/6/13_16.odb,Step-1,Increment      1: Step Time =    1.000,"PART-1-1",           327,           -5.,      -13.7188,            0.,NA,NA,"",   611.247E-03,   581.163E-03,  -189.399E-03,   18.7174E-03
C:/temp/dataset/6/13_16.odb,Step-1,Increment      1: Step Time =    1.000,"PART-1-1",           328,      -6.16021,      -12.5513,            0.,NA,NA,"",   683.943E-03,   674.952E-03,  -110.530E-03,   11.1663E-03
C:/temp/dataset/6/13_16.odb,Step-1,Increment      1: Step Time =    1.000,"PART-1-1",           329,      -9.33590,      -9.40979,            0.,NA,NA,"",       1.01040,   993.956E-03,   181.572E-03,   10.0582E-03
C:/temp/dataset/6/13_16.odb,Step-1,Increment      1: Step Time =    1.000,"PART-1-1",           330,      -8.33361,      -10.3234,            0.,NA,NA,"",   894.317E-03,   890.901E-03,   78.0961E-03,   4.02959E-03
C:/temp/dataset/6/13_16.odb,Step-1,Increment      1: Step Time =    1.000,"PART-1-1",           331,      -7.16565,      -9.15059,            0.,NA,NA,"",       1.00923,       1.00795,  -50.6524E-03,   4.80794E-03
C:/temp/dataset/6/13_16.odb,Step-1,Increment      1: Step Time =    1.000,"PART-1-1",           332,      -8.16794,      -8.23701,            0.,NA,NA,"",       1.11632,       1.11501,   54.1239E-03,   4.24724E-03
C:/temp/dataset/6/13_16.odb,Step-1,Increment      1: Step Time =    1.000,"PART-1-1",           333,      -11.1473,      -6.32447,            0.,NA,NA,"",       1.41626,       1.35732,   404.341E-03,   19.9341E-03
C:/temp/dataset/6/13_16.odb,Step-1,Increment      1: Step Time =    1.000,"PART-1-1",           334,      -10.2102,      -6.79208,            0.,NA,NA,"",       1.32642,       1.29492,   287.329E-03,   12.5448E-03
C:/temp/dataset/6/13_16.odb,Step-1,Increment      1: Step Time =    1.000,"PART-1-1",           335,      -9.51762,      -5.78103,            0.,NA,NA,"",       1.42400,       1.40990,   199.915E-03,   12.0252E-03
C:/temp/dataset/6/13_16.odb,Step-1,Increment      1: Step Time =    1.000,"PART-1-1",           336,      -10.4548,      -5.31342,            0.,NA,NA,"",       1.50234,       1.46764,   321.007E-03,   16.9851E-03
C:/temp/dataset/6/13_16.odb,Step-1,Increment      1: Step Time =    1.000,"PART-1-1",           337,      -5.04937,      -1.25055,            0.,NA,NA,"",       2.04516,       1.98030,  -510.991E-03,   34.2983E-03
C:/temp/dataset/6/13_16.odb,Step-1,Increment      1: Step Time =    1.000,"PART-1-1",           338,      -3.82978,  -150.691E-03,            0.,NA,NA,"",       2.19484,       2.10001,  -638.168E-03,   43.0645E-03
C:/temp/dataset/6/13_16.odb,Step-1,Increment      1: Step Time =    1.000,"PART-1-1",           339,      -5.10700,   929.666E-03,            0.,NA,NA,"",       2.26049,       2.18070,  -595.307E-03,   48.2720E-03
C:/temp/dataset/6/13_16.odb,Step-1,Increment      1: Step Time =    1.000,"PART-1-1",           340,      -6.32658,  -170.190E-03,            0.,NA,NA,"",       2.09297,       2.05297,  -407.240E-03,   51.7894E-03
C:/temp/dataset/6/13_16.odb,Step-1,Increment      1: Step Time =    1.000,"PART-1-1",           341,          -15.,          3.75,            0.,NA,NA,"",       3.41194,       3.07343,       1.48169,   134.326E-03
C:/temp/dataset/6/13_16.odb,Step-1,Increment      1: Step Time =    1.000,"PART-1-1",           342,      -13.8520,       2.39386,            0.,NA,NA,"",       2.89232,       2.66348,       1.12755,   100.131E-03
C:/temp/dataset/6/13_16.odb,Step-1,Increment      1: Step Time =    1.000,"PART-1-1",           343,      -12.6820,       3.58697,            0.,NA,NA,"",       2.99960,       2.85319,   925.685E-03,   80.2379E-03
C:/temp/dataset/6/13_16.odb,Step-1,Increment      1: Step Time =    1.000,"PART-1-1",           344,      -13.8301,       4.94311,            0.,NA,NA,"",       3.54910,       3.30837,       1.28483,   112.733E-03
C:/temp/dataset/6/13_16.odb,Step-1,Increment      1: Step Time =    1.000,"PART-1-1",           345,          -15.,         11.25,            0.,NA,NA,"",       6.23030,       5.94089,       1.87683,   114.532E-03
C:/temp/dataset/6/13_16.odb,Step-1,Increment      1: Step Time =    1.000,"PART-1-1",           346,      -14.0083,       10.0442,            0.,NA,NA,"",       5.46031,       5.25250,       1.49206,   101.152E-03
C:/temp/dataset/6/13_16.odb,Step-1,Increment      1: Step Time =    1.000,"PART-1-1",           347,      -13.0572,       11.3141,            0.,NA,NA,"",       5.82234,       5.71946,       1.08969,   73.1764E-03
C:/temp/dataset/6/13_16.odb,Step-1,Increment      1: Step Time =    1.000,"PART-1-1",           348,      -14.0489,       12.5200,            0.,NA,NA,"",       6.58590,       6.42522,       1.44590,   85.4821E-03
C:/temp/dataset/6/13_16.odb,Step-1,Increment      1: Step Time =    1.000,"PART-1-1",           349,           -5.,       22.7083,            0.,NA,NA,"",       11.4757,       10.5723,      -4.46303,   23.5597E-03
C:/temp/dataset/6/13_16.odb,Step-1,Increment      1: Step Time =    1.000,"PART-1-1",           350,      -5.96779,       23.6687,            0.,NA,NA,"",       11.9750,       11.2506,      -4.10193,   17.2027E-03
C:/temp/dataset/6/13_16.odb,Step-1,Increment      1: Step Time =    1.000,"PART-1-1",           351,      -6.69567,       22.7251,            0.,NA,NA,"",       11.4041,       10.8433,      -3.53237,   23.7437E-03
C:/temp/dataset/6/13_16.odb,Step-1,Increment      1: Step Time =    1.000,"PART-1-1",           352,      -5.72788,       21.7648,            0.,NA,NA,"",       10.8891,       10.1734,      -3.88269,   27.1940E-03
C:/temp/dataset/6/13_16.odb,Step-1,Increment      1: Step Time =    1.000,"PART-1-1",           353,      -9.95259,       28.8237,            0.,NA,NA,"",       15.0225,       14.7535,      -2.82978,   10.3089E-03
C:/temp/dataset/6/13_16.odb,Step-1,Increment      1: Step Time =    1.000,"PART-1-1",           354,      -8.67740,       27.7404,            0.,NA,NA,"",       14.3374,       13.9432,      -3.33922,   10.7096E-03
C:/temp/dataset/6/13_16.odb,Step-1,Increment      1: Step Time =    1.000,"PART-1-1",           355,      -7.47481,       28.9167,            0.,NA,NA,"",       14.9932,       14.3971,      -4.18582,   3.99816E-03
C:/temp/dataset/6/13_16.odb,Step-1,Increment      1: Step Time =    1.000,"PART-1-1",           356,         -8.75,           30.,            0.,NA,NA,"",       15.6370,       15.2005,      -3.66875,   4.88944E-03
C:/temp/dataset/6/13_16.odb,Step-1,Increment      1: Step Time =    1.000,"PART-1-1",           357,      -12.4360,       28.7156,            0.,NA,NA,"",       15.1863,       15.1146,      -1.47446,   15.1298E-03
C:/temp/dataset/6/13_16.odb,Step-1,Increment      1: Step Time =    1.000,"PART-1-1",           358,        -13.75,           30.,            0.,NA,NA,"",       16.0855,       16.0563,  -967.592E-03,   15.6482E-03
C:/temp/dataset/6/13_16.odb,Step-1,Increment      1: Step Time =    1.000,"PART-1-1",           359,          -15.,         28.75,            0.,NA,NA,"",       15.5849,       15.5846,  -90.2214E-03,   16.1424E-03
C:/temp/dataset/6/13_16.odb,Step-1,Increment      1: Step Time =    1.000,"PART-1-1",           360,      -13.6860,       27.4656,            0.,NA,NA,"",       14.6488,       14.6366,  -598.244E-03,   16.1119E-03
C:/temp/dataset/6/13_16.odb,Step-1,Increment      1: Step Time =    1.000,"PART-1-1",           361,         -3.75,           -5.,            0.,NA,NA,"",       1.78230,       1.70705,  -512.432E-03,   88.3324E-03
C:/temp/dataset/6/13_16.odb,Step-1,Increment      1: Step Time =    1.000,"PART-1-1",           362,      -2.75606,      -4.06584,            0.,NA,NA,"",       1.92117,       1.82722,  -593.447E-03,   57.3319E-03
C:/temp/dataset/6/13_16.odb,Step-1,Increment      1: Step Time =    1.000,"PART-1-1",           363,      -4.26954,      -3.28646,            0.,NA,NA,"",       1.89700,       1.82325,  -523.811E-03,   38.4869E-03
C:/temp/dataset/6/13_16.odb,Step-1,Increment      1: Step Time =    1.000,"PART-1-1",           364,      -5.26349,      -4.22062,            0.,NA,NA,"",       1.74068,       1.69425,  -399.356E-03,   62.4643E-03
C:/temp/dataset/6/13_16.odb,Step-1,Increment      1: Step Time =    1.000,"PART-1-1",           365,   659.099E-03,      -2.85996,            0.,NA,NA,"",       2.07354,       1.97838,  -620.952E-03,   41.2798E-03
C:/temp/dataset/6/13_16.odb,Step-1,Increment      1: Step Time =    1.000,"PART-1-1",           366,  -266.865E-03,      -3.97148,            0.,NA,NA,"",       2.03231,       1.93350,  -626.001E-03,   37.3942E-03
C:/temp/dataset/6/13_16.odb,Step-1,Increment      1: Step Time =    1.000,"PART-1-1",           367,          1.25,           -5.,            0.,NA,NA,"",       2.06338,       1.97777,  -588.177E-03,   27.7849E-03
C:/temp/dataset/6/13_16.odb,Step-1,Increment      1: Step Time =    1.000,"PART-1-1",           368,       2.17596,      -3.88848,            0.,NA,NA,"",       2.05085,       1.97217,  -562.613E-03,   21.3639E-03
C:/temp/dataset/6/13_16.odb,Step-1,Increment      1: Step Time =    1.000,"PART-1-1",           369,   93.5104E-03,  -560.922E-03,            0.,NA,NA,"",       2.17995,       2.08231,  -645.095E-03,   52.2362E-03
C:/temp/dataset/6/13_16.odb,Step-1,Increment      1: Step Time =    1.000,"PART-1-1",           370,   627.873E-03,   544.404E-03,            0.,NA,NA,"",       2.22739,       2.13687,  -628.534E-03,   53.7745E-03
C:/temp/dataset/6/13_16.odb,Step-1,Increment      1: Step Time =    1.000,"PART-1-1",           371,  -981.002E-03,       1.17096,            0.,NA,NA,"",       2.29314,       2.19431,  -665.959E-03,   57.8165E-03
C:/temp/dataset/6/13_16.odb,Step-1,Increment      1: Step Time =    1.000,"PART-1-1",           372,      -1.51537,   65.6335E-03,            0.,NA,NA,"",       2.23291,       2.12818,  -675.823E-03,   54.2407E-03
C:/temp/dataset/6/13_16.odb,Step-1,Increment      1: Step Time =    1.000,"PART-1-1",           373,       4.11258,       2.54084,            0.,NA,NA,"",       2.23323,       2.16996,  -527.811E-03,   26.3828E-03
C:/temp/dataset/6/13_16.odb,Step-1,Increment      1: Step Time =    1.000,"PART-1-1",           374,       3.71515,       1.12833,            0.,NA,NA,"",       2.19879,       2.13305,  -533.645E-03,   36.7946E-03
C:/temp/dataset/6/13_16.odb,Step-1,Increment      1: Step Time =    1.000,"PART-1-1",           375,       5.46602,   397.127E-03,            0.,NA,NA,"",       2.16945,       2.11165,  -497.455E-03,   29.6201E-03
C:/temp/dataset/6/13_16.odb,Step-1,Increment      1: Step Time =    1.000,"PART-1-1",           376,       8.69518,  -378.803E-03,            0.,NA,NA,"",       2.16919,       2.10640,  -518.116E-03,   11.4132E-03
C:/temp/dataset/6/13_16.odb,Step-1,Increment      1: Step Time =    1.000,"PART-1-1",           377,       8.82700,   889.396E-03,            0.,NA,NA,"",       2.20445,       2.13919,  -532.377E-03,   6.86061E-03
C:/temp/dataset/6/13_16.odb,Step-1,Increment      1: Step Time =    1.000,"PART-1-1",           378,       6.97530,  -164.986E-03,            0.,NA,NA,"",       2.15951,       2.10351,  -488.586E-03,   19.5566E-03
C:/temp/dataset/6/13_16.odb,Step-1,Increment      1: Step Time =    1.000,"PART-1-1",           379,      -3.65351,      -22.6081,            0.,NA,NA,"",   117.935E-03,   116.296E-03,  -19.5959E-03,   14.9454E-03
C:/temp/dataset/6/13_16.odb,Step-1,Increment      1: Step Time =    1.000,"PART-1-1",           380,      -2.48671,      -21.3009,            0.,NA,NA,"",   137.552E-03,   136.650E-03,  -15.7195E-03,   8.05405E-03
C:/temp/dataset/6/13_16.odb,Step-1,Increment      1: Step Time =    1.000,"PART-1-1",           381,         -3.75,          -20.,            0.,NA,NA,"",   148.286E-03,   146.382E-03,  -23.6861E-03,   15.8206E-03
C:/temp/dataset/6/13_16.odb,Step-1,Increment      1: Step Time =    1.000,"PART-1-1",           382,      -4.91680,      -21.3072,            0.,NA,NA,"",   139.020E-03,   135.334E-03,  -31.8015E-03,   17.6985E-03
C:/temp/dataset/6/13_16.odb,Step-1,Increment      1: Step Time =    1.000,"PART-1-1",           383,       12.8399,      -22.4784,            0.,NA,NA,"",   378.599E-03,   241.604E-03,  -291.487E-03,   42.7018E-03
C:/temp/dataset/6/13_16.odb,Step-1,Increment      1: Step Time =    1.000,"PART-1-1",           384,       11.7398,      -21.2760,            0.,NA,NA,"",   403.403E-03,   294.548E-03,  -275.637E-03,   36.8456E-03
C:/temp/dataset/6/13_16.odb,Step-1,Increment      1: Step Time =    1.000,"PART-1-1",           385,       10.5591,      -22.4389,            0.,NA,NA,"",   272.555E-03,   206.042E-03,  -178.418E-03,   29.9409E-03
C:/temp/dataset/6/13_16.odb,Step-1,Increment      1: Step Time =    1.000,"PART-1-1",           386,       11.6593,      -23.6412,            0.,NA,NA,"",   251.658E-03,   162.860E-03,  -191.856E-03,   35.7283E-03
C:/temp/dataset/6/13_16.odb,Step-1,Increment      1: Step Time =    1.000,"PART-1-1",           387,          8.75,            5.,            0.,NA,NA,"",       2.29281,       2.22568,  -550.767E-03,   11.7787E-03
C:/temp/dataset/6/13_16.odb,Step-1,Increment      1: Step Time =    1.000,"PART-1-1",           388,       7.62461,       4.03982,            0.,NA,NA,"",       2.26025,       2.19826,  -525.750E-03,   8.89889E-03
C:/temp/dataset/6/13_16.odb,Step-1,Increment      1: Step Time =    1.000,"PART-1-1",           389,       8.90047,       2.96899,            0.,NA,NA,"",       2.25241,       2.18540,  -545.293E-03,   5.00083E-03
C:/temp/dataset/6/13_16.odb,Step-1,Increment      1: Step Time =    1.000,"PART-1-1",           390,       10.0259,       3.92917,            0.,NA,NA,"",       2.28596,       2.21164,  -578.152E-03,   7.81158E-03
C:/temp/dataset/6/13_16.odb,Step-1,Increment      1: Step Time =    1.000,"PART-1-1",           391,      -6.96921,       21.1213,            0.,NA,NA,"",       10.4728,       10.0063,      -3.09091,   29.4713E-03
C:/temp/dataset/6/13_16.odb,Step-1,Increment      1: Step Time =    1.000,"PART-1-1",           392,      -6.24133,       19.9816,            0.,NA,NA,"",       9.84900,       9.29073,      -3.26879,   35.4587E-03
C:/temp/dataset/6/13_16.odb,Step-1,Increment      1: Step Time =    1.000,"PART-1-1",           393,           -5.,        20.625,            0.,NA,NA,"",       10.2927,       9.45399,      -4.06954,   37.7629E-03
C:/temp/dataset/6/13_16.odb,Step-1,Increment      1: Step Time =    1.000,"PART-1-1",           394,      -12.9370,       8.81410,            0.,NA,NA,"",       4.73650,       4.60363,       1.11399,   81.3359E-03
C:/temp/dataset/6/13_16.odb,Step-1,Increment      1: Step Time =    1.000,"PART-1-1",           395,          -15.,          8.75,            0.,NA,NA,"",       5.15020,       4.81142,       1.83704,   133.136E-03
C:/temp/dataset/6/13_16.odb,Step-1,Increment      1: Step Time =    1.000,"PART-1-1",           396,      -13.9287,       7.51992,            0.,NA,NA,"",       4.43112,       4.19329,       1.43219,   112.940E-03
C:/temp/dataset/6/13_16.odb,Step-1,Increment      1: Step Time =    1.000,"PART-1-1",           397,          -15.,          1.25,            0.,NA,NA,"",       2.80419,       2.50480,       1.26073,   109.830E-03
C:/temp/dataset/6/13_16.odb,Step-1,Increment      1: Step Time =    1.000,"PART-1-1",           398,      -13.9023,  -59.1614E-03,            0.,NA,NA,"",       2.42559,       2.21660,   984.983E-03,   78.0198E-03
C:/temp/dataset/6/13_16.odb,Step-1,Increment      1: Step Time =    1.000,"PART-1-1",           399,      -12.7542,       1.08470,            0.,NA,NA,"",       2.48886,       2.34719,   827.727E-03,   72.0579E-03
C:/temp/dataset/6/13_16.odb,Step-1,Increment      1: Step Time =    1.000,"PART-1-1",           400,          -15.,         -1.25,            0.,NA,NA,"",       2.34867,       2.08528,       1.08068,   79.9841E-03
C:/temp/dataset/6/13_16.odb,Step-1,Increment      1: Step Time =    1.000,"PART-1-1",           401,      -13.9820,      -2.43756,            0.,NA,NA,"",       2.07709,       1.88184,   879.198E-03,   57.2154E-03
C:/temp/dataset/6/13_16.odb,Step-1,Increment      1: Step Time =    1.000,"PART-1-1",           402,      -12.8843,      -1.24672,            0.,NA,NA,"",       2.13934,       2.00101,   756.786E-03,   58.8944E-03
C:/temp/dataset/6/13_16.odb,Step-1,Increment      1: Step Time =    1.000,"PART-1-1",           403,      -12.3802,      -13.7897,            0.,NA,NA,"",   737.385E-03,   620.605E-03,   398.228E-03,   29.6298E-03
C:/temp/dataset/6/13_16.odb,Step-1,Increment      1: Step Time =    1.000,"PART-1-1",           404,      -13.6672,      -12.5056,            0.,NA,NA,"",   926.122E-03,   755.087E-03,   536.233E-03,   37.0315E-03
C:/temp/dataset/6/13_16.odb,Step-1,Increment      1: Step Time =    1.000,"PART-1-1",           405,          -15.,        -13.75,            0.,NA,NA,"",   905.867E-03,   675.683E-03,   603.362E-03,   45.5067E-03
C:/temp/dataset/6/13_16.odb,Step-1,Increment      1: Step Time =    1.000,"PART-1-1",           406,      -13.7130,      -15.0341,            0.,NA,NA,"",   716.291E-03,   546.465E-03,   463.086E-03,   38.0103E-03
C:/temp/dataset/6/13_16.odb,Step-1,Increment      1: Step Time =    1.000,"PART-1-1",           407,       9.21271,      -3.58583,            0.,NA,NA,"",       2.05401,       1.99120,  -504.092E-03,   12.7334E-03
C:/temp/dataset/6/13_16.odb,Step-1,Increment      1: Step Time =    1.000,"PART-1-1",           408,       7.90749,      -3.82305,            0.,NA,NA,"",       2.03354,       1.98376,  -447.201E-03,   21.6306E-03
C:/temp/dataset/6/13_16.odb,Step-1,Increment      1: Step Time =    1.000,"PART-1-1",           409,       8.15132,      -5.16923,            0.,NA,NA,"",       1.95373,       1.90436,  -436.451E-03,   25.8289E-03
C:/temp/dataset/6/13_16.odb,Step-1,Increment      1: Step Time =    1.000,"PART-1-1",           410,       9.45655,      -4.93201,            0.,NA,NA,"",       1.97814,       1.91298,  -503.560E-03,   15.7386E-03
C:/temp/dataset/6/13_16.odb,Step-1,Increment      1: Step Time =    1.000,"PART-1-1",           411,       6.91243,      -16.0318,            0.,NA,NA,"",   734.109E-03,   729.669E-03,  -80.6165E-03,   21.0412E-03
C:/temp/dataset/6/13_16.odb,Step-1,Increment      1: Step Time =    1.000,"PART-1-1",           412,       5.96229,      -14.9858,            0.,NA,NA,"",   848.473E-03,   848.451E-03,  -6.17776E-03,   11.9789E-03
C:/temp/dataset/6/13_16.odb,Step-1,Increment      1: Step Time =    1.000,"PART-1-1",           413,            5.,      -16.2875,            0.,NA,NA,"",   716.621E-03,   708.629E-03,   106.724E-03,   2.87130E-03
C:/temp/dataset/6/13_16.odb,Step-1,Increment      1: Step Time =    1.000,"PART-1-1",           414,       6.93910,      -13.7291,            0.,NA,NA,"",   999.488E-03,   992.074E-03,  -121.511E-03,   23.1709E-03
C:/temp/dataset/6/13_16.odb,Step-1,Increment      1: Step Time =    1.000,"PART-1-1",           415,       5.97681,      -12.5371,            0.,NA,NA,"",       1.12592,       1.12453,  -55.9545E-03,   22.2425E-03
C:/temp/dataset/6/13_16.odb,Step-1,Increment      1: Step Time =    1.000,"PART-1-1",           416,            5.,      -13.7937,            0.,NA,NA,"",   984.524E-03,   981.572E-03,   76.1874E-03,   13.6575E-03
C:/temp/dataset/6/13_16.odb,Step-1,Increment      1: Step Time =    1.000,"PART-1-1",           417,         -1.25,          -20.,            0.,NA,NA,"",   137.001E-03,   136.857E-03,  -6.27854E-03,   3.38219E-03
C:/temp/dataset/6/13_16.odb,Step-1,Increment      1: Step Time =    1.000,"PART-1-1",           418,      -1.09514,      -22.7401,            0.,NA,NA,"",   122.786E-03,   122.777E-03,  -1.49110E-03,   16.1355E-03
C:/temp/dataset/6/13_16.odb,Step-1,Increment      1: Step Time =    1.000,"PART-1-1",           419,   141.566E-03,      -21.4393,            0.,NA,NA,"",   142.913E-03,   142.814E-03,   5.31228E-03,   11.1667E-03
C:/temp/dataset/6/13_16.odb,Step-1,Increment      1: Step Time =    1.000,"PART-1-1",           420,      -7.69236,      -25.1479,            0.,NA,NA,"",   56.4694E-03,   51.6914E-03,   22.7330E-03,   6.04502E-03
C:/temp/dataset/6/13_16.odb,Step-1,Increment      1: Step Time =    1.000,"PART-1-1",           421,      -9.18951,      -25.9970,            0.,NA,NA,"",   54.5949E-03,   38.4560E-03,   38.7522E-03,   11.6982E-03
C:/temp/dataset/6/13_16.odb,Step-1,Increment      1: Step Time =    1.000,"PART-1-1",           422,      -8.56598,      -27.1897,            0.,NA,NA,"",   29.7744E-03,   20.6526E-03,   21.4473E-03,   10.4374E-03
C:/temp/dataset/6/13_16.odb,Step-1,Increment      1: Step Time =    1.000,"PART-1-1",           423,      -7.06883,      -26.3407,            0.,NA,NA,"",   36.4316E-03,   34.2236E-03,   12.4903E-03,   6.55699E-03
C:/temp/dataset/6/13_16.odb,Step-1,Increment      1: Step Time =    1.000,"PART-1-1",           424,      -9.82073,      -13.8964,            0.,NA,NA,"",   610.940E-03,   578.020E-03,   197.841E-03,   13.6226E-03
C:/temp/dataset/6/13_16.odb,Step-1,Increment      1: Step Time =    1.000,"PART-1-1",           425,      -8.65586,      -15.1239,            0.,NA,NA,"",   485.059E-03,   473.793E-03,   103.936E-03,   5.86303E-03
C:/temp/dataset/6/13_16.odb,Step-1,Increment      1: Step Time =    1.000,"PART-1-1",           426,      -8.53523,      -12.6467,            0.,NA,NA,"",   680.270E-03,   673.137E-03,   98.2543E-03,   4.94892E-03
C:/temp/dataset/6/13_16.odb,Step-1,Increment      1: Step Time =    1.000,"PART-1-1",           427,      -6.09243,      -10.1071,            0.,NA,NA,"",   917.420E-03,   904.465E-03,  -153.629E-03,   12.0697E-03
C:/temp/dataset/6/13_16.odb,Step-1,Increment      1: Step Time =    1.000,"PART-1-1",           428,           -5.,      -8.71250,            0.,NA,NA,"",       1.09740,       1.05469,  -303.183E-03,   20.4049E-03
C:/temp/dataset/6/13_16.odb,Step-1,Increment      1: Step Time =    1.000,"PART-1-1",           429,      -6.07322,      -7.75598,            0.,NA,NA,"",       1.18440,       1.16827,  -194.807E-03,   13.0054E-03
C:/temp/dataset/6/13_16.odb,Step-1,Increment      1: Step Time =    1.000,"PART-1-1",           430,      -12.7270,      -6.06323,            0.,NA,NA,"",       1.53494,       1.41185,   602.266E-03,   33.1787E-03
C:/temp/dataset/6/13_16.odb,Step-1,Increment      1: Step Time =    1.000,"PART-1-1",           431,      -13.8025,      -4.90646,            0.,NA,NA,"",       1.74767,       1.57123,   765.238E-03,   41.6078E-03
C:/temp/dataset/6/13_16.odb,Step-1,Increment      1: Step Time =    1.000,"PART-1-1",           432,          -15.,         -6.25,            0.,NA,NA,"",       1.68053,       1.44346,   860.586E-03,   46.1698E-03
C:/temp/dataset/6/13_16.odb,Step-1,Increment      1: Step Time =    1.000,"PART-1-1",           433,      -13.9244,      -7.40677,            0.,NA,NA,"",       1.46559,       1.28435,   705.962E-03,   37.7750E-03
C:/temp/dataset/6/13_16.odb,Step-1,Increment      1: Step Time =    1.000,"PART-1-1",           434,       1.60591,      -1.50045,            0.,NA,NA,"",       2.11933,       2.03365,  -596.514E-03,   51.5530E-03
C:/temp/dataset/6/13_16.odb,Step-1,Increment      1: Step Time =    1.000,"PART-1-1",           435,  -853.298E-03,      -1.92043,            0.,NA,NA,"",       2.10716,       2.00287,  -654.701E-03,   44.4287E-03
C:/temp/dataset/6/13_16.odb,Step-1,Increment      1: Step Time =    1.000,"PART-1-1",           436,         13.75,          -30.,            0.,NA,NA,"",            0.,   2.14158E-39,  -80.7483E-39,   52.9369E-03
C:/temp/dataset/6/13_16.odb,Step-1,Increment      1: Step Time =    1.000,"PART-1-1",           437,           15.,      -28.9063,            0.,NA,NA,"",   85.9841E-03,   57.4002E-03,  -64.0194E-03,   65.1750E-03
C:/temp/dataset/6/13_16.odb,Step-1,Increment      1: Step Time =    1.000,"PART-1-1",           438,       13.8103,      -27.8746,            0.,NA,NA,"",   108.628E-03,   58.2752E-03,  -91.6735E-03,   52.3748E-03
C:/temp/dataset/6/13_16.odb,Step-1,Increment      1: Step Time =    1.000,"PART-1-1",           439,       12.5603,      -28.9683,            0.,NA,NA,"",   33.1549E-03,   11.5319E-03,  -31.0847E-03,   37.5175E-03
C:/temp/dataset/6/13_16.odb,Step-1,Increment      1: Step Time =    1.000,"PART-1-1",           440,       12.6598,      -26.8678,            0.,NA,NA,"",   127.921E-03,   65.0599E-03,  -110.141E-03,   43.1437E-03
C:/temp/dataset/6/13_16.odb,Step-1,Increment      1: Step Time =    1.000,"PART-1-1",           441,       11.5501,      -25.8632,            0.,NA,NA,"",   139.676E-03,   77.3257E-03,  -116.319E-03,   34.9621E-03
C:/temp/dataset/6/13_16.odb,Step-1,Increment      1: Step Time =    1.000,"PART-1-1",           442,       10.3093,      -26.9762,            0.,NA,NA,"",   67.4473E-03,   34.2405E-03,  -58.1096E-03,   24.6427E-03
C:/temp/dataset/6/13_16.odb,Step-1,Increment      1: Step Time =    1.000,"PART-1-1",           443,       11.4189,      -27.9808,            0.,NA,NA,"",   54.3445E-03,   22.2100E-03,  -49.5988E-03,   32.8243E-03
C:/temp/dataset/6/13_16.odb,Step-1,Increment      1: Step Time =    1.000,"PART-1-1",           444,       10.1086,      -29.0125,            0.,NA,NA,"",   16.6740E-03,   1.48315E-03,  -16.6079E-03,   20.6953E-03
C:/temp/dataset/6/13_16.odb,Step-1,Increment      1: Step Time =    1.000,"PART-1-1",           445,       9.01957,      -28.0513,            0.,NA,NA,"",   25.0210E-03,   9.46213E-03,  -23.1628E-03,   15.7516E-03
C:/temp/dataset/6/13_16.odb,Step-1,Increment      1: Step Time =    1.000,"PART-1-1",           446,          8.75,          -30.,            0.,NA,NA,"",            0.,  -2.65437E-39,  -26.8493E-39,   14.2909E-03
C:/temp/dataset/6/13_16.odb,Step-1,Increment      1: Step Time =    1.000,"PART-1-1",           447,       4.20973,      -27.9354,            0.,NA,NA,"",   23.0703E-03,   22.5938E-03,   4.66481E-03,   9.59059E-03
C:/temp/dataset/6/13_16.odb,Step-1,Increment      1: Step Time =    1.000,"PART-1-1",           448,       2.74203,      -28.9082,            0.,NA,NA,"",   13.6925E-03,   13.4436E-03,   2.59898E-03,   9.65418E-03
C:/temp/dataset/6/13_16.odb,Step-1,Increment      1: Step Time =    1.000,"PART-1-1",           449,          3.75,          -30.,            0.,NA,NA,"",            0.,   5.28283E-39,   1.72939E-39,   5.29964E-03
C:/temp/dataset/6/13_16.odb,Step-1,Increment      1: Step Time =    1.000,"PART-1-1",           450,       1.16266,      -25.9573,            0.,NA,NA,"",   69.0696E-03,   68.0357E-03,   11.9062E-03,   16.2325E-03
C:/temp/dataset/6/13_16.odb,Step-1,Increment      1: Step Time =    1.000,"PART-1-1",           451,       1.65415,      -27.4536,            0.,NA,NA,"",   39.6268E-03,   38.8451E-03,   7.83183E-03,   12.4387E-03
C:/temp/dataset/6/13_16.odb,Step-1,Increment      1: Step Time =    1.000,"PART-1-1",           452,       3.39879,      -26.8461,            0.,NA,NA,"",   45.9974E-03,   44.6572E-03,   11.0223E-03,   13.3051E-03
C:/temp/dataset/6/13_16.odb,Step-1,Increment      1: Step Time =    1.000,"PART-1-1",           453,       2.90730,      -25.3498,            0.,NA,NA,"",   80.6671E-03,   78.4053E-03,   18.9681E-03,   16.4277E-03
C:/temp/dataset/6/13_16.odb,Step-1,Increment      1: Step Time =    1.000,"PART-1-1",           454,      -3.67645,      -27.5530,            0.,NA,NA,"",   30.5747E-03,   30.5734E-03,   287.702E-06,   10.0496E-03
C:/temp/dataset/6/13_16.odb,Step-1,Increment      1: Step Time =    1.000,"PART-1-1",           455,      -2.54816,      -26.3074,            0.,NA,NA,"",   54.7976E-03,   54.7848E-03,  -1.18548E-03,   13.2232E-03
C:/temp/dataset/6/13_16.odb,Step-1,Increment      1: Step Time =    1.000,"PART-1-1",           456,      -3.72120,      -25.1278,            0.,NA,NA,"",   69.5492E-03,   69.3076E-03,  -5.79309E-03,   13.3045E-03
C:/temp/dataset/6/13_16.odb,Step-1,Increment      1: Step Time =    1.000,"PART-1-1",           457,      -4.84948,      -26.3734,            0.,NA,NA,"",   42.8648E-03,   42.8633E-03,  -350.970E-06,   9.81802E-03
C:/temp/dataset/6/13_16.odb,Step-1,Increment      1: Step Time =    1.000,"PART-1-1",           458,      -4.94498,      -28.7931,            0.,NA,NA,"",   11.0483E-03,   10.8711E-03,   1.97078E-03,   6.96114E-03
C:/temp/dataset/6/13_16.odb,Step-1,Increment      1: Step Time =    1.000,"PART-1-1",           459,         -3.75,          -30.,            0.,NA,NA,"",            0.,   6.52602E-39,   4.91414E-39,   7.09991E-03
C:/temp/dataset/6/13_16.odb,Step-1,Increment      1: Step Time =    1.000,"PART-1-1",           460,      -6.07748,      -27.5364,            0.,NA,NA,"",   22.0385E-03,   21.4399E-03,   5.10185E-03,   7.63203E-03
C:/temp/dataset/6/13_16.odb,Step-1,Increment      1: Step Time =    1.000,"PART-1-1",           461,      -7.38250,      -28.7433,            0.,NA,NA,"",   8.97480E-03,   6.18827E-03,   6.50019E-03,   7.20371E-03
C:/temp/dataset/6/13_16.odb,Step-1,Increment      1: Step Time =    1.000,"PART-1-1",           462,         -6.25,          -30.,            0.,NA,NA,"",            0.,   2.61464E-39,   10.1283E-39,   6.15110E-03
C:/temp/dataset/6/13_16.odb,Step-1,Increment      1: Step Time =    1.000,"PART-1-1",           463,      -8.77755,      -24.1806,            0.,NA,NA,"",   84.5626E-03,   69.8326E-03,   47.6890E-03,   9.47013E-03
C:/temp/dataset/6/13_16.odb,Step-1,Increment      1: Step Time =    1.000,"PART-1-1",           464,      -9.92276,      -23.8066,            0.,NA,NA,"",   114.405E-03,   82.6505E-03,   79.1037E-03,   15.7891E-03
C:/temp/dataset/6/13_16.odb,Step-1,Increment      1: Step Time =    1.000,"PART-1-1",           465,      -10.3347,      -25.6230,            0.,NA,NA,"",   79.0849E-03,   49.3919E-03,   61.7647E-03,   17.6119E-03
C:/temp/dataset/6/13_16.odb,Step-1,Increment      1: Step Time =    1.000,"PART-1-1",           466,       13.9544,      -21.3085,            0.,NA,NA,"",   526.017E-03,   333.234E-03,  -407.000E-03,   50.1078E-03
C:/temp/dataset/6/13_16.odb,Step-1,Increment      1: Step Time =    1.000,"PART-1-1",           467,       13.8855,      -23.5136,            0.,NA,NA,"",   366.600E-03,   210.848E-03,  -299.897E-03,   51.3008E-03
C:/temp/dataset/6/13_16.odb,Step-1,Increment      1: Step Time =    1.000,"PART-1-1",           468,           15.,      -22.3438,            0.,NA,NA,"",   513.520E-03,   296.619E-03,  -419.190E-03,   59.0247E-03
C:/temp/dataset/6/13_16.odb,Step-1,Increment      1: Step Time =    1.000,"PART-1-1",           469,       12.7349,      -24.6944,            0.,NA,NA,"",   240.999E-03,   137.519E-03,  -197.912E-03,   43.5094E-03
C:/temp/dataset/6/13_16.odb,Step-1,Increment      1: Step Time =    1.000,"PART-1-1",           470,       13.8494,      -25.7120,            0.,NA,NA,"",   232.805E-03,   125.361E-03,  -196.170E-03,   51.2757E-03
C:/temp/dataset/6/13_16.odb,Step-1,Increment      1: Step Time =    1.000,"PART-1-1",           471,           15.,      -24.5313,            0.,NA,NA,"",   357.475E-03,   195.167E-03,  -299.497E-03,   58.7642E-03
C:/temp/dataset/6/13_16.odb,Step-1,Increment      1: Step Time =    1.000,"PART-1-1",           472,         11.25,          -30.,            0.,NA,NA,"",            0.,  -166.155E-42,  -52.3461E-39,   26.5915E-03
C:/temp/dataset/6/13_16.odb,Step-1,Increment      1: Step Time =    1.000,"PART-1-1",           473,       13.9950,      -12.5232,            0.,NA,NA,"",       1.37763,       1.16712,  -731.921E-03,   18.7087E-03
C:/temp/dataset/6/13_16.odb,Step-1,Increment      1: Step Time =    1.000,"PART-1-1",           474,       12.9942,      -13.6844,            0.,NA,NA,"",       1.20049,       1.03261,  -612.296E-03,   28.0790E-03
C:/temp/dataset/6/13_16.odb,Step-1,Increment      1: Step Time =    1.000,"PART-1-1",           475,           15.,      -13.5938,            0.,NA,NA,"",       1.32962,       1.05287,  -812.001E-03,   22.0943E-03
C:/temp/dataset/6/13_16.odb,Step-1,Increment      1: Step Time =    1.000,"PART-1-1",           476,       9.85236,      -17.2546,            0.,NA,NA,"",   672.133E-03,   612.442E-03,  -276.907E-03,   33.1045E-03
C:/temp/dataset/6/13_16.odb,Step-1,Increment      1: Step Time =    1.000,"PART-1-1",           477,       8.68427,      -17.7513,            0.,NA,NA,"",   580.191E-03,   549.197E-03,  -187.094E-03,   31.3347E-03
C:/temp/dataset/6/13_16.odb,Step-1,Increment      1: Step Time =    1.000,"PART-1-1",           478,       8.96140,      -18.9835,            0.,NA,NA,"",   467.475E-03,   431.592E-03,  -179.614E-03,   30.8544E-03
C:/temp/dataset/6/13_16.odb,Step-1,Increment      1: Step Time =    1.000,"PART-1-1",           479,       10.1295,      -18.4868,            0.,NA,NA,"",   559.153E-03,   492.978E-03,  -263.864E-03,   33.1283E-03
C:/temp/dataset/6/13_16.odb,Step-1,Increment      1: Step Time =    1.000,"PART-1-1",           480,       11.2436,      -18.3856,            0.,NA,NA,"",   618.598E-03,   517.493E-03,  -338.915E-03,   35.2534E-03
C:/temp/dataset/6/13_16.odb,Step-1,Increment      1: Step Time =    1.000,"PART-1-1",           481,       12.3956,      -19.2305,            0.,NA,NA,"",   601.561E-03,   459.270E-03,  -388.519E-03,   38.5256E-03
C:/temp/dataset/6/13_16.odb,Step-1,Increment      1: Step Time =    1.000,"PART-1-1",           482,       13.1120,      -18.1414,            0.,NA,NA,"",   742.932E-03,   566.587E-03,  -480.549E-03,   38.8604E-03
C:/temp/dataset/6/13_16.odb,Step-1,Increment      1: Step Time =    1.000,"PART-1-1",           483,       11.9600,      -17.2965,            0.,NA,NA,"",   760.944E-03,   632.548E-03,  -422.988E-03,   35.4145E-03
C:/temp/dataset/6/13_16.odb,Step-1,Increment      1: Step Time =    1.000,"PART-1-1",           484,       14.0024,      -3.77677,            0.,NA,NA,"",       2.09596,       1.95637,  -752.119E-03,   13.2435E-03
C:/temp/dataset/6/13_16.odb,Step-1,Increment      1: Step Time =    1.000,"PART-1-1",           485,       13.0359,      -4.87313,            0.,NA,NA,"",       2.02289,       1.89676,  -703.116E-03,   6.52963E-03
C:/temp/dataset/6/13_16.odb,Step-1,Increment      1: Step Time =    1.000,"PART-1-1",           486,       14.0335,      -5.94012,            0.,NA,NA,"",       1.97244,       1.81468,  -772.952E-03,   12.1226E-03
C:/temp/dataset/6/13_16.odb,Step-1,Increment      1: Step Time =    1.000,"PART-1-1",           487,           15.,      -4.84375,            0.,NA,NA,"",       2.05549,       1.88270,  -824.897E-03,   19.5053E-03
C:/temp/dataset/6/13_16.odb,Step-1,Increment      1: Step Time =    1.000,"PART-1-1",           488,       13.0510,      -7.01836,            0.,NA,NA,"",       1.87217,       1.73360,  -706.874E-03,   10.1727E-03
C:/temp/dataset/6/13_16.odb,Step-1,Increment      1: Step Time =    1.000,"PART-1-1",           489,       14.0175,      -8.10950,            0.,NA,NA,"",       1.80708,       1.63030,  -779.524E-03,   8.59849E-03
C:/temp/dataset/6/13_16.odb,Step-1,Increment      1: Step Time =    1.000,"PART-1-1",           490,           15.,      -7.03125,            0.,NA,NA,"",       1.91970,       1.71854,  -855.501E-03,   14.9251E-03
C:/temp/dataset/6/13_16.odb,Step-1,Increment      1: Step Time =    1.000,"PART-1-1",           491,         13.75,            5.,            0.,NA,NA,"",       2.36003,       2.25376,  -700.239E-03,   1.11564E-03
C:/temp/dataset/6/13_16.odb,Step-1,Increment      1: Step Time =    1.000,"PART-1-1",           492,       12.4982,       3.90020,            0.,NA,NA,"",       2.31537,       2.21984,  -658.210E-03,   4.62399E-03
C:/temp/dataset/6/13_16.odb,Step-1,Increment      1: Step Time =    1.000,"PART-1-1",           493,       13.7482,       2.80645,            0.,NA,NA,"",       2.29990,       2.19072,  -700.220E-03,   4.30760E-03
C:/temp/dataset/6/13_16.odb,Step-1,Increment      1: Step Time =    1.000,"PART-1-1",           494,           15.,       3.90625,            0.,NA,NA,"",       2.34002,       2.22056,  -738.099E-03,   976.239E-06
C:/temp/dataset/6/13_16.odb,Step-1,Increment      1: Step Time =    1.000,"PART-1-1",           495,         11.25,            5.,            0.,NA,NA,"",       2.33150,       2.24770,  -619.458E-03,   6.75777E-03
C:/temp/dataset/6/13_16.odb,Step-1,Increment      1: Step Time =    1.000,"PART-1-1",           496,       11.2740,       2.82937,            0.,NA,NA,"",       2.27470,       2.19006,  -614.725E-03,   7.02311E-03
C:/temp/dataset/6/13_16.odb,Step-1,Increment      1: Step Time =    1.000,"PART-1-1",           497,       11.1422,   446.578E-03,            0.,NA,NA,"",       2.21601,       2.13157,  -605.913E-03,   7.45022E-03
C:/temp/dataset/6/13_16.odb,Step-1,Increment      1: Step Time =    1.000,"PART-1-1",           498,       10.2035,  -836.101E-03,            0.,NA,NA,"",       2.17023,       2.09523,  -565.610E-03,   7.46494E-03
C:/temp/dataset/6/13_16.odb,Step-1,Increment      1: Step Time =    1.000,"PART-1-1",           499,       11.7017,      -1.82731,            0.,NA,NA,"",       2.15230,       2.05898,  -626.903E-03,   6.03336E-03
C:/temp/dataset/6/13_16.odb,Step-1,Increment      1: Step Time =    1.000,"PART-1-1",           500,       12.5035,       1.67834,            0.,NA,NA,"",       2.26047,       2.16264,  -657.793E-03,   8.18660E-03
C:/temp/dataset/6/13_16.odb,Step-1,Increment      1: Step Time =    1.000,"PART-1-1",           501,       9.91277,       1.59761,            0.,NA,NA,"",       2.23191,       2.15869,  -566.971E-03,   7.00638E-03
C:/temp/dataset/6/13_16.odb,Step-1,Increment      1: Step Time =    1.000,"PART-1-1",           502,       5.19643,       3.92738,            0.,NA,NA,"",       2.24616,       2.18619,  -515.602E-03,   8.60312E-03
C:/temp/dataset/6/13_16.odb,Step-1,Increment      1: Step Time =    1.000,"PART-1-1",           503,          3.75,            5.,            0.,NA,NA,"",       2.24921,       2.18615,  -528.841E-03,   4.85322E-03
C:/temp/dataset/6/13_16.odb,Step-1,Increment      1: Step Time =    1.000,"PART-1-1",           504,       2.66615,       3.61346,            0.,NA,NA,"",       2.26723,       2.19883,  -552.690E-03,   22.4673E-03
C:/temp/dataset/6/13_16.odb,Step-1,Increment      1: Step Time =    1.000,"PART-1-1",           505,      -1.00804,       2.95894,            0.,NA,NA,"",       2.36839,       2.27732,  -650.463E-03,   55.9087E-03
C:/temp/dataset/6/13_16.odb,Step-1,Increment      1: Step Time =    1.000,"PART-1-1",           506,   87.8012E-03,       3.95476,            0.,NA,NA,"",       2.33472,       2.25514,  -604.363E-03,   38.0388E-03
C:/temp/dataset/6/13_16.odb,Step-1,Increment      1: Step Time =    1.000,"PART-1-1",           507,         -1.25,            5.,            0.,NA,NA,"",       2.37170,       2.29211,  -609.256E-03,   50.0952E-03
C:/temp/dataset/6/13_16.odb,Step-1,Increment      1: Step Time =    1.000,"PART-1-1",           508,      -2.34584,       4.00418,            0.,NA,NA,"",       2.45728,       2.36358,  -672.120E-03,   63.9059E-03
C:/temp/dataset/6/13_16.odb,Step-1,Increment      1: Step Time =    1.000,"PART-1-1",           509,      -3.27281,       2.96378,            0.,NA,NA,"",       2.48291,       2.37331,  -729.546E-03,   77.8742E-03
C:/temp/dataset/6/13_16.odb,Step-1,Increment      1: Step Time =    1.000,"PART-1-1",           510,         -3.75,            5.,            0.,NA,NA,"",       2.53069,       2.43388,  -693.267E-03,   118.666E-03
C:/temp/dataset/6/13_16.odb,Step-1,Increment      1: Step Time =    1.000,"PART-1-1",           511,      -4.67697,       3.95960,            0.,NA,NA,"",       2.63594,       2.50001,  -835.525E-03,   155.394E-03
C:/temp/dataset/6/13_16.odb,Step-1,Increment      1: Step Time =    1.000,"PART-1-1",           512,      -7.93004,       8.58536,            0.,NA,NA,"",       4.15722,       4.11261,  -607.335E-03,   58.9937E-03
C:/temp/dataset/6/13_16.odb,Step-1,Increment      1: Step Time =    1.000,"PART-1-1",           513,      -8.65034,       7.25415,            0.,NA,NA,"",       3.65451,       3.64764,  -224.106E-03,   48.8047E-03
C:/temp/dataset/6/13_16.odb,Step-1,Increment      1: Step Time =    1.000,"PART-1-1",           514,      -7.51010,       6.50150,            0.,NA,NA,"",       3.34603,       3.30782,  -504.223E-03,   78.7074E-03
C:/temp/dataset/6/13_16.odb,Step-1,Increment      1: Step Time =    1.000,"PART-1-1",           515,      -6.78981,       7.83270,            0.,NA,NA,"",       3.87812,       3.76827,  -916.489E-03,   94.5282E-03
C:/temp/dataset/6/13_16.odb,Step-1,Increment      1: Step Time =    1.000,"PART-1-1",           516,      -7.08495,       12.0475,            0.,NA,NA,"",       5.68096,       5.49397,      -1.44554,   61.4609E-03
C:/temp/dataset/6/13_16.odb,Step-1,Increment      1: Step Time =    1.000,"PART-1-1",           517,      -6.02998,       11.1050,            0.,NA,NA,"",       5.31804,       5.01859,      -1.75934,   83.1719E-03
C:/temp/dataset/6/13_16.odb,Step-1,Increment      1: Step Time =    1.000,"PART-1-1",           518,           -5.,       12.2917,            0.,NA,NA,"",       5.97238,       5.44534,      -2.45309,   96.5700E-03
C:/temp/dataset/6/13_16.odb,Step-1,Increment      1: Step Time =    1.000,"PART-1-1",           519,      -6.05497,       13.2342,            0.,NA,NA,"",       6.30474,       5.93778,      -2.11955,   71.8501E-03
C:/temp/dataset/6/13_16.odb,Step-1,Increment      1: Step Time =    1.000,"PART-1-1",           520,      -9.96524,       21.0498,            0.,NA,NA,"",       10.5029,       10.3934,      -1.51293,   31.4852E-03
C:/temp/dataset/6/13_16.odb,Step-1,Increment      1: Step Time =    1.000,"PART-1-1",           521,      -8.51702,       20.1362,            0.,NA,NA,"",       9.91128,       9.68575,      -2.10228,   30.9507E-03
C:/temp/dataset/6/13_16.odb,Step-1,Increment      1: Step Time =    1.000,"PART-1-1",           522,      -8.09442,       21.6565,            0.,NA,NA,"",       10.7769,       10.4605,      -2.59204,   28.5782E-03
C:/temp/dataset/6/13_16.odb,Step-1,Increment      1: Step Time =    1.000,"PART-1-1",           523,      -9.54264,       22.5701,            0.,NA,NA,"",       11.3582,       11.1820,      -1.99263,   28.6620E-03
C:/temp/dataset/6/13_16.odb,Step-1,Increment      1: Step Time =    1.000,"PART-1-1",           524,      -7.38593,       19.0122,            0.,NA,NA,"",       9.26979,       8.92988,      -2.48721,   36.2138E-03
C:/temp/dataset/6/13_16.odb,Step-1,Increment      1: Step Time =    1.000,"PART-1-1",           525,      -6.14460,       17.5723,            0.,NA,NA,"",       8.52227,       8.02512,      -2.86819,   48.2252E-03
C:/temp/dataset/6/13_16.odb,Step-1,Increment      1: Step Time =    1.000,"PART-1-1",           526,           -5.,       18.5417,            0.,NA,NA,"",       9.13904,       8.37160,      -3.66585,   53.0422E-03
C:/temp/dataset/6/13_16.odb,Step-1,Increment      1: Step Time =    1.000,"PART-1-1",           527,      -9.12859,       24.1056,            0.,NA,NA,"",       12.2351,       11.9817,      -2.47717,   24.1222E-03
C:/temp/dataset/6/13_16.odb,Step-1,Increment      1: Step Time =    1.000,"PART-1-1",           528,      -7.82088,       23.2603,            0.,NA,NA,"",       11.7063,       11.3089,      -3.02417,   23.2722E-03
C:/temp/dataset/6/13_16.odb,Step-1,Increment      1: Step Time =    1.000,"PART-1-1",           529,      -7.11221,       24.6459,            0.,NA,NA,"",       12.5154,       11.9704,      -3.65286,   17.6194E-03
C:/temp/dataset/6/13_16.odb,Step-1,Increment      1: Step Time =    1.000,"PART-1-1",           530,      -8.41993,       25.4912,            0.,NA,NA,"",       13.0207,       12.6473,      -3.09579,   17.4565E-03
C:/temp/dataset/6/13_16.odb,Step-1,Increment      1: Step Time =    1.000,"PART-1-1",           531,           -5.,       28.9583,            0.,NA,NA,"",       15.0719,       14.0133,      -5.54883,   530.632E-06
C:/temp/dataset/6/13_16.odb,Step-1,Increment      1: Step Time =    1.000,"PART-1-1",           532,         -6.25,           30.,            0.,NA,NA,"",       15.6242,       14.7913,      -5.03334,   465.006E-06
C:/temp/dataset/6/13_16.odb,Step-1,Increment      1: Step Time =    1.000,"PART-1-1",           533,      -6.22481,       27.8751,            0.,NA,NA,"",       14.4050,       13.6182,      -4.69573,   3.62429E-03
C:/temp/dataset/6/13_16.odb,Step-1,Increment      1: Step Time =    1.000,"PART-1-1",           534,      -11.1386,       27.5393,            0.,NA,NA,"",       14.3752,       14.2377,      -1.98286,   14.8537E-03
C:/temp/dataset/6/13_16.odb,Step-1,Increment      1: Step Time =    1.000,"PART-1-1",           535,        -11.25,           30.,            0.,NA,NA,"",       15.7909,       15.6198,      -2.31834,   12.1067E-03
C:/temp/dataset/6/13_16.odb,Step-1,Increment      1: Step Time =    1.000,"PART-1-1",           536,      -13.1147,       13.7606,            0.,NA,NA,"",       6.98640,       6.91940,   965.238E-03,   62.4695E-03
C:/temp/dataset/6/13_16.odb,Step-1,Increment      1: Step Time =    1.000,"PART-1-1",           537,      -14.0658,       14.9906,            0.,NA,NA,"",       7.79857,       7.68893,       1.30308,   69.6765E-03
C:/temp/dataset/6/13_16.odb,Step-1,Increment      1: Step Time =    1.000,"PART-1-1",           538,          -15.,         13.75,            0.,NA,NA,"",       7.40979,       7.18501,       1.81126,   94.1996E-03
C:/temp/dataset/6/13_16.odb,Step-1,Increment      1: Step Time =    1.000,"PART-1-1",           539,      -9.42834,       18.6970,            0.,NA,NA,"",       9.13498,       9.02790,      -1.39458,   32.7358E-03
C:/temp/dataset/6/13_16.odb,Step-1,Increment      1: Step Time =    1.000,"PART-1-1",           540,      -8.29725,       17.5730,            0.,NA,NA,"",       8.47503,       8.28753,      -1.77283,   34.6843E-03
C:/temp/dataset/6/13_16.odb,Step-1,Increment      1: Step Time =    1.000,"PART-1-1",           541,      -12.7588,       6.21303,            0.,NA,NA,"",       3.75924,       3.61300,       1.03834,   83.3208E-03
C:/temp/dataset/6/13_16.odb,Step-1,Increment      1: Step Time =    1.000,"PART-1-1",           542,          -15.,          6.25,            0.,NA,NA,"",       4.19909,       3.84220,       1.69406,   142.462E-03
C:/temp/dataset/6/13_16.odb,Step-1,Increment      1: Step Time =    1.000,"PART-1-1",           543,      -9.01063,       9.47069,            0.,NA,NA,"",       4.54415,       4.53334,  -313.262E-03,   40.4231E-03
C:/temp/dataset/6/13_16.odb,Step-1,Increment      1: Step Time =    1.000,"PART-1-1",           544,      -10.0811,       10.4578,            0.,NA,NA,"",       5.03313,       5.03312,  -8.14017E-03,   33.2807E-03
C:/temp/dataset/6/13_16.odb,Step-1,Increment      1: Step Time =    1.000,"PART-1-1",           545,      -10.9384,       9.05000,            0.,NA,NA,"",       4.52911,       4.51035,   411.747E-03,   43.9814E-03
C:/temp/dataset/6/13_16.odb,Step-1,Increment      1: Step Time =    1.000,"PART-1-1",           546,      -9.86794,       8.06293,            0.,NA,NA,"",       4.03440,       4.03296,   107.888E-03,   36.8540E-03
C:/temp/dataset/6/13_16.odb,Step-1,Increment      1: Step Time =    1.000,"PART-1-1",           547,      -7.23366,       1.29985,            0.,NA,NA,"",       2.22136,       2.19748,  -324.834E-03,   53.6101E-03
C:/temp/dataset/6/13_16.odb,Step-1,Increment      1: Step Time =    1.000,"PART-1-1",           548,      -8.34685,   784.410E-03,            0.,NA,NA,"",       2.14903,       2.14675,  -98.9435E-03,   54.1999E-03
C:/temp/dataset/6/13_16.odb,Step-1,Increment      1: Step Time =    1.000,"PART-1-1",           549,      -7.43977,  -685.632E-03,            0.,NA,NA,"",       1.99959,       1.98752,  -219.379E-03,   47.9893E-03
C:/temp/dataset/6/13_16.odb,Step-1,Increment      1: Step Time =    1.000,"PART-1-1",           550,      -12.4903,      -8.57964,            0.,NA,NA,"",       1.24067,       1.12523,   522.613E-03,   29.8328E-03
C:/temp/dataset/6/13_16.odb,Step-1,Increment      1: Step Time =    1.000,"PART-1-1",           551,          -15.,         -8.75,            0.,NA,NA,"",       1.39755,       1.16033,   778.963E-03,   43.4518E-03
C:/temp/dataset/6/13_16.odb,Step-1,Increment      1: Step Time =    1.000,"PART-1-1",           552,      -13.5658,      -9.92286,            0.,NA,NA,"",       1.16916,       1.00364,   599.706E-03,   35.6364E-03
C:/temp/dataset/6/13_16.odb,Step-1,Increment      1: Step Time =    1.000,"PART-1-1",           553,      -11.9783,      -7.15971,            0.,NA,NA,"",       1.36577,       1.27384,   492.609E-03,   25.4178E-03
C:/temp/dataset/6/13_16.odb,Step-1,Increment      1: Step Time =    1.000,"PART-1-1",           554,      -11.8960,      -5.22799,            0.,NA,NA,"",       1.57889,       1.49336,   512.615E-03,   27.7966E-03
C:/temp/dataset/6/13_16.odb,Step-1,Increment      1: Step Time =    1.000,"PART-1-1",           555,      -12.4565,      -16.3452,            0.,NA,NA,"",   550.095E-03,   431.066E-03,   341.740E-03,   30.3955E-03
C:/temp/dataset/6/13_16.odb,Step-1,Increment      1: Step Time =    1.000,"PART-1-1",           556,          -15.,        -16.25,            0.,NA,NA,"",   702.353E-03,   486.227E-03,   506.836E-03,   46.1853E-03
C:/temp/dataset/6/13_16.odb,Step-1,Increment      1: Step Time =    1.000,"PART-1-1",           557,      -13.7435,      -17.5611,            0.,NA,NA,"",   538.197E-03,   377.187E-03,   383.909E-03,   38.4648E-03
C:/temp/dataset/6/13_16.odb,Step-1,Increment      1: Step Time =    1.000,"PART-1-1",           558,      -9.99221,      -8.41662,            0.,NA,NA,"",       1.13765,       1.10852,   255.787E-03,   12.9937E-03
C:/temp/dataset/6/13_16.odb,Step-1,Increment      1: Step Time =    1.000,"PART-1-1",           559,      -11.4633,      -9.12095,            0.,NA,NA,"",       1.12574,       1.05018,   405.477E-03,   22.8472E-03
C:/temp/dataset/6/13_16.odb,Step-1,Increment      1: Step Time =    1.000,"PART-1-1",           560,      -10.8070,      -10.1141,            0.,NA,NA,"",   991.951E-03,   937.052E-03,   325.425E-03,   19.4185E-03
C:/temp/dataset/6/13_16.odb,Step-1,Increment      1: Step Time =    1.000,"PART-1-1",           561,      -13.9189,      -24.9166,            0.,NA,NA,"",   184.822E-03,   102.994E-03,   153.464E-03,   34.2390E-03
C:/temp/dataset/6/13_16.odb,Step-1,Increment      1: Step Time =    1.000,"PART-1-1",           562,      -12.9076,      -23.6273,            0.,NA,NA,"",   202.702E-03,   117.777E-03,   164.975E-03,   31.2417E-03
C:/temp/dataset/6/13_16.odb,Step-1,Increment      1: Step Time =    1.000,"PART-1-1",           563,          -15.,        -23.75,            0.,NA,NA,"",   262.757E-03,   147.915E-03,   217.169E-03,   39.6452E-03
C:/temp/dataset/6/13_16.odb,Step-1,Increment      1: Step Time =    1.000,"PART-1-1",           564,          -15.,        -28.75,            0.,NA,NA,"",   64.7922E-03,   44.2607E-03,   47.3184E-03,   41.8410E-03
C:/temp/dataset/6/13_16.odb,Step-1,Increment      1: Step Time =    1.000,"PART-1-1",           565,        -13.75,          -30.,            0.,NA,NA,"",            0.,   1.17844E-39,   54.2098E-39,   35.8894E-03
C:/temp/dataset/6/13_16.odb,Step-1,Increment      1: Step Time =    1.000,"PART-1-1",           566,      -13.7642,      -27.4123,            0.,NA,NA,"",   89.6501E-03,   50.6868E-03,   73.9458E-03,   33.8255E-03
C:/temp/dataset/6/13_16.odb,Step-1,Increment      1: Step Time =    1.000,"PART-1-1",           567,            5.,      -6.25625,            0.,NA,NA,"",       1.80608,       1.79144,  -229.512E-03,   82.8742E-03
C:/temp/dataset/6/13_16.odb,Step-1,Increment      1: Step Time =    1.000,"PART-1-1",           568,       7.03347,      -6.11658,            0.,NA,NA,"",       1.87356,       1.83727,  -366.973E-03,   37.7592E-03
C:/temp/dataset/6/13_16.odb,Step-1,Increment      1: Step Time =    1.000,"PART-1-1",           569,       6.04361,      -4.83741,            0.,NA,NA,"",       1.98673,       1.95359,  -361.327E-03,   62.9400E-03
C:/temp/dataset/6/13_16.odb,Step-1,Increment      1: Step Time =    1.000,"PART-1-1",           570,           15.,      -2.65625,            0.,NA,NA,"",       2.15458,       2.00503,  -788.709E-03,   18.1701E-03
C:/temp/dataset/6/13_16.odb,Step-1,Increment      1: Step Time =    1.000,"PART-1-1",           571,       12.8875,      -2.72454,            0.,NA,NA,"",       2.12996,       2.01648,  -685.957E-03,   6.69438E-03
C:/temp/dataset/6/13_16.odb,Step-1,Increment      1: Step Time =    1.000,"PART-1-1",           572,       10.0248,      -7.91896,            0.,NA,NA,"",       1.73196,       1.65857,  -498.851E-03,   28.1589E-03
C:/temp/dataset/6/13_16.odb,Step-1,Increment      1: Step Time =    1.000,"PART-1-1",           573,       8.98203,      -8.99604,            0.,NA,NA,"",       1.59583,       1.54275,  -408.193E-03,   34.6002E-03
C:/temp/dataset/6/13_16.odb,Step-1,Increment      1: Step Time =    1.000,"PART-1-1",           574,       9.98204,      -10.2112,            0.,NA,NA,"",       1.48400,       1.41369,  -451.381E-03,   31.8946E-03
C:/temp/dataset/6/13_16.odb,Step-1,Increment      1: Step Time =    1.000,"PART-1-1",           575,            5.,      -11.2813,            0.,NA,NA,"",       1.25902,       1.25895,   13.6059E-03,   27.5386E-03
C:/temp/dataset/6/13_16.odb,Step-1,Increment      1: Step Time =    1.000,"PART-1-1",           576,       6.96001,      -11.3098,            0.,NA,NA,"",       1.28234,       1.26916,  -183.374E-03,   30.4604E-03
C:/temp/dataset/6/13_16.odb,Step-1,Increment      1: Step Time =    1.000,"PART-1-1",           577,       12.1169,      -5.93459,            0.,NA,NA,"",       1.93780,       1.82654,  -647.170E-03,   10.0386E-03
C:/temp/dataset/6/13_16.odb,Step-1,Increment      1: Step Time =    1.000,"PART-1-1",           578,       11.1088,      -6.97100,            0.,NA,NA,"",       1.83867,       1.74527,  -578.568E-03,   18.5435E-03
C:/temp/dataset/6/13_16.odb,Step-1,Increment      1: Step Time =    1.000,"PART-1-1",           579,           15.,      -11.4063,            0.,NA,NA,"",       1.54674,       1.28944,  -854.244E-03,   8.03304E-03
C:/temp/dataset/6/13_16.odb,Step-1,Increment      1: Step Time =    1.000,"PART-1-1",           580,       13.9991,      -10.3053,            0.,NA,NA,"",       1.60439,       1.40942,  -766.539E-03,   10.3161E-03
C:/temp/dataset/6/13_16.odb,Step-1,Increment      1: Step Time =    1.000,"PART-1-1",           581,       12.9941,      -11.4223,            0.,NA,NA,"",       1.44726,       1.28749,  -660.996E-03,   22.1211E-03
C:/temp/dataset/6/13_16.odb,Step-1,Increment      1: Step Time =    1.000,"PART-1-1",           582,           15.,      -9.21875,            0.,NA,NA,"",       1.74738,       1.51657,  -867.948E-03,   5.06502E-03
C:/temp/dataset/6/13_16.odb,Step-1,Increment      1: Step Time =    1.000,"PART-1-1",           583,       9.25975,      -25.9916,            0.,NA,NA,"",   76.4678E-03,   52.3293E-03,  -55.7581E-03,   17.8539E-03
C:/temp/dataset/6/13_16.odb,Step-1,Increment      1: Step Time =    1.000,"PART-1-1",           584,       7.97004,      -27.0667,            0.,NA,NA,"",   33.0765E-03,   25.0026E-03,  -21.6547E-03,   9.94020E-03
C:/temp/dataset/6/13_16.odb,Step-1,Increment      1: Step Time =    1.000,"PART-1-1",           585,       9.98268,      -20.3187,            0.,NA,NA,"",   392.731E-03,   334.349E-03,  -206.031E-03,   31.1663E-03
C:/temp/dataset/6/13_16.odb,Step-1,Increment      1: Step Time =    1.000,"PART-1-1",           586,       8.47236,      -19.9740,            0.,NA,NA,"",   362.755E-03,   338.678E-03,  -129.957E-03,   28.4313E-03
C:/temp/dataset/6/13_16.odb,Step-1,Increment      1: Step Time =    1.000,"PART-1-1",           587,       7.80775,      -21.2882,            0.,NA,NA,"",   245.630E-03,   235.009E-03,  -71.4492E-03,   20.8776E-03
C:/temp/dataset/6/13_16.odb,Step-1,Increment      1: Step Time =    1.000,"PART-1-1",           588,       9.31806,      -21.6330,            0.,NA,NA,"",   272.632E-03,   234.749E-03,  -138.641E-03,   24.4591E-03
C:/temp/dataset/6/13_16.odb,Step-1,Increment      1: Step Time =    1.000,"PART-1-1",           589,          3.75,          -20.,            0.,NA,NA,"",   213.395E-03,   212.166E-03,   22.8619E-03,   47.6825E-03
C:/temp/dataset/6/13_16.odb,Step-1,Increment      1: Step Time =    1.000,"PART-1-1",           590,       2.69482,      -20.9389,            0.,NA,NA,"",   181.307E-03,   179.556E-03,   25.1370E-03,   21.1911E-03
C:/temp/dataset/6/13_16.odb,Step-1,Increment      1: Step Time =    1.000,"PART-1-1",           591,       4.10336,      -21.5712,            0.,NA,NA,"",   192.680E-03,   188.386E-03,   40.4526E-03,   25.7216E-03
C:/temp/dataset/6/13_16.odb,Step-1,Increment      1: Step Time =    1.000,"PART-1-1",           592,       5.15854,      -20.6323,            0.,NA,NA,"",   243.096E-03,   238.992E-03,   44.4802E-03,   41.8314E-03
C:/temp/dataset/6/13_16.odb,Step-1,Increment      1: Step Time =    1.000,"PART-1-1",           593,          1.25,          -20.,            0.,NA,NA,"",   155.843E-03,   155.784E-03,   4.26429E-03,   15.8121E-03
C:/temp/dataset/6/13_16.odb,Step-1,Increment      1: Step Time =    1.000,"PART-1-1",           594,       1.58638,      -22.3782,            0.,NA,NA,"",   144.026E-03,   142.680E-03,   19.6460E-03,   20.6597E-03
C:/temp/dataset/6/13_16.odb,Step-1,Increment      1: Step Time =    1.000,"PART-1-1",           595,      -7.18878,      -21.5166,            0.,NA,NA,"",   128.066E-03,   126.839E-03,   17.6843E-03,   3.45207E-03
C:/temp/dataset/6/13_16.odb,Step-1,Increment      1: Step Time =    1.000,"PART-1-1",           596,      -8.69544,      -20.4918,            0.,NA,NA,"",   184.823E-03,   168.604E-03,   75.7111E-03,   11.9206E-03
C:/temp/dataset/6/13_16.odb,Step-1,Increment      1: Step Time =    1.000,"PART-1-1",           597,      -9.53108,      -21.9939,            0.,NA,NA,"",   155.295E-03,   125.710E-03,   91.1787E-03,   14.6922E-03
C:/temp/dataset/6/13_16.odb,Step-1,Increment      1: Step Time =    1.000,"PART-1-1",           598,      -8.02442,      -23.0186,            0.,NA,NA,"",   99.7710E-03,   92.5960E-03,   37.1513E-03,   5.51211E-03
C:/temp/dataset/6/13_16.odb,Step-1,Increment      1: Step Time =    1.000,"PART-1-1",           599,           -5.,      -18.7437,            0.,NA,NA,"",   253.522E-03,   239.654E-03,  -82.7003E-03,   28.0507E-03
C:/temp/dataset/6/13_16.odb,Step-1,Increment      1: Step Time =    1.000,"PART-1-1",           600,      -6.23242,      -17.5731,            0.,NA,NA,"",   304.655E-03,   302.274E-03,  -38.0119E-03,   12.3876E-03
C:/temp/dataset/6/13_16.odb,Step-1,Increment      1: Step Time =    1.000,"PART-1-1",           601,      -7.41830,      -18.9573,            0.,NA,NA,"",   226.160E-03,   224.158E-03,   30.0294E-03,   5.62223E-03
C:/temp/dataset/6/13_16.odb,Step-1,Increment      1: Step Time =    1.000,"PART-1-1",           602,      -6.18588,      -20.1280,            0.,NA,NA,"",   163.909E-03,   163.114E-03,  -16.1189E-03,   13.4074E-03
C:/temp/dataset/6/13_16.odb,Step-1,Increment      1: Step Time =    1.000,"PART-1-1",           603,           -5.,      -16.2312,            0.,NA,NA,"",   421.946E-03,   397.516E-03,  -141.490E-03,   20.2065E-03
C:/temp/dataset/6/13_16.odb,Step-1,Increment      1: Step Time =    1.000,"PART-1-1",           604,      -7.44257,      -16.3835,            0.,NA,NA,"",   380.493E-03,   379.774E-03,   23.3891E-03,   4.32332E-03
C:/temp/dataset/6/13_16.odb,Step-1,Increment      1: Step Time =    1.000,"PART-1-1",           605,      -12.6830,      -26.0788,            0.,NA,NA,"",   113.033E-03,   62.1145E-03,   94.4361E-03,   29.3259E-03
C:/temp/dataset/6/13_16.odb,Step-1,Increment      1: Step Time =    1.000,"PART-1-1",           606,          -15.,        -26.25,            0.,NA,NA,"",   162.939E-03,   93.3242E-03,   133.565E-03,   37.7843E-03
C:/temp/dataset/6/13_16.odb,Step-1,Increment      1: Step Time =    1.000,"PART-1-1",           607,         -8.75,          -30.,            0.,NA,NA,"",            0.,   117.158E-42,   21.0705E-39,   10.8840E-03
C:/temp/dataset/6/13_16.odb,Step-1,Increment      1: Step Time =    1.000,"PART-1-1",           608,          -15.,        -18.75,            0.,NA,NA,"",   528.221E-03,   336.327E-03,   407.310E-03,   45.5000E-03
C:/temp/dataset/6/13_16.odb,Step-1,Increment      1: Step Time =    1.000,"PART-1-1",           609,      -12.5734,      -18.8685,            0.,NA,NA,"",   401.734E-03,   285.650E-03,   282.479E-03,   31.1957E-03
C:/temp/dataset/6/13_16.odb,Step-1,Increment      1: Step Time =    1.000,"PART-1-1",           610,           -5.,      -11.2063,            0.,NA,NA,"",   835.508E-03,   799.609E-03,  -242.280E-03,   19.9637E-03
C:/temp/dataset/6/13_16.odb,Step-1,Increment      1: Step Time =    1.000,"PART-1-1",           611,      -7.25264,      -11.4522,            0.,NA,NA,"",   775.770E-03,   775.455E-03,  -22.1080E-03,   3.42806E-03
C:/temp/dataset/6/13_16.odb,Step-1,Increment      1: Step Time =    1.000,"PART-1-1",           612,           -5.,      -6.23750,            0.,NA,NA,"",       1.41564,       1.36643,  -369.990E-03,   23.4391E-03
C:/temp/dataset/6/13_16.odb,Step-1,Increment      1: Step Time =    1.000,"PART-1-1",           613,      -6.16987,      -5.46941,            0.,NA,NA,"",       1.50561,       1.48824,  -228.008E-03,   39.0752E-03
C:/temp/dataset/6/13_16.odb,Step-1,Increment      1: Step Time =    1.000,"PART-1-1",           614,      -7.24309,      -6.98789,            0.,NA,NA,"",       1.26927,       1.26760,  -65.0141E-03,   10.6220E-03
C:/temp/dataset/6/13_16.odb,Step-1,Increment      1: Step Time =    1.000,"PART-1-1",           615,           -5.,       16.4583,            0.,NA,NA,"",       8.02761,       7.33673,      -3.25807,   68.5120E-03
C:/temp/dataset/6/13_16.odb,Step-1,Increment      1: Step Time =    1.000,"PART-1-1",           616,      -7.23328,       16.4840,            0.,NA,NA,"",       7.89242,       7.60353,      -2.11579,   44.3421E-03
C:/temp/dataset/6/13_16.odb,Step-1,Increment      1: Step Time =    1.000,"PART-1-1",           617,      -6.08867,       15.3700,            0.,NA,NA,"",       7.36477,       6.93156,      -2.48863,   60.4022E-03
C:/temp/dataset/6/13_16.odb,Step-1,Increment      1: Step Time =    1.000,"PART-1-1",           618,      -13.1522,       16.1892,            0.,NA,NA,"",       8.22493,       8.18949,   762.708E-03,   51.3932E-03
C:/temp/dataset/6/13_16.odb,Step-1,Increment      1: Step Time =    1.000,"PART-1-1",           619,      -14.0864,       17.4486,            0.,NA,NA,"",       9.08019,       9.01504,       1.08576,   54.8673E-03
C:/temp/dataset/6/13_16.odb,Step-1,Increment      1: Step Time =    1.000,"PART-1-1",           620,          -15.,         16.25,            0.,NA,NA,"",       8.66874,       8.50998,       1.65146,   74.9491E-03
C:/temp/dataset/6/13_16.odb,Step-1,Increment      1: Step Time =    1.000,"PART-1-1",           621,           -5.,       24.7917,            0.,NA,NA,"",       12.6743,       11.7134,      -4.84099,   11.9057E-03
C:/temp/dataset/6/13_16.odb,Step-1,Increment      1: Step Time =    1.000,"PART-1-1",           622,      -6.14442,       25.7689,            0.,NA,NA,"",       13.1882,       12.4399,      -4.37917,   9.28920E-03
C:/temp/dataset/6/13_16.odb,Step-1,Increment      1: Step Time =    1.000,"PART-1-1",           623,           -5.,        26.875,            0.,NA,NA,"",       13.8762,       12.8642,      -5.20188,   3.69943E-03
C:/temp/dataset/6/13_16.odb,Step-1,Increment      1: Step Time =    1.000,"PART-1-1",           624,      -7.36924,       26.7689,            0.,NA,NA,"",       13.7514,       13.1917,      -3.88325,   10.9588E-03
C:/temp/dataset/6/13_16.odb,Step-1,Increment      1: Step Time =    1.000,"PART-1-1",           625,      -13.1175,       20.9132,            0.,NA,NA,"",       10.7978,       10.7969,   139.079E-03,   32.3952E-03
C:/temp/dataset/6/13_16.odb,Step-1,Increment      1: Step Time =    1.000,"PART-1-1",           626,      -14.0212,       22.2867,            0.,NA,NA,"",       11.7457,       11.7386,   407.862E-03,   30.6331E-03
C:/temp/dataset/6/13_16.odb,Step-1,Increment      1: Step Time =    1.000,"PART-1-1",           627,          -15.,         21.25,            0.,NA,NA,"",       11.3671,       11.3139,       1.09884,   40.1287E-03
C:/temp/dataset/6/13_16.odb,Step-1,Increment      1: Step Time =    1.000,"PART-1-1",           628,      -14.0963,       19.8765,            0.,NA,NA,"",       10.4019,       10.3711,   800.367E-03,   40.3212E-03
C:/temp/dataset/6/13_16.odb,Step-1,Increment      1: Step Time =    1.000,"PART-1-1",           629,         -1.25,           -5.,            0.,NA,NA,"",       1.97182,       1.87745,  -602.680E-03,   59.1388E-03
C:/temp/dataset/6/13_16.odb,Step-1,Increment      1: Step Time =    1.000,"PART-1-1",           630,      -1.77292,      -3.03732,            0.,NA,NA,"",       2.02703,       1.92361,  -639.205E-03,   41.3966E-03
C:/temp/dataset/6/13_16.odb,Step-1,Increment      1: Step Time =    1.000,"PART-1-1",           631,      -12.1053,      -2.30059,            0.,NA,NA,"",       1.93678,       1.84266,   596.414E-03,   44.2244E-03
C:/temp/dataset/6/13_16.odb,Step-1,Increment      1: Step Time =    1.000,"PART-1-1",           632,      -10.7648,      -1.40855,            0.,NA,NA,"",       1.95952,       1.92233,   379.964E-03,   44.2564E-03
C:/temp/dataset/6/13_16.odb,Step-1,Increment      1: Step Time =    1.000,"PART-1-1",           633,      -11.5438,  -354.672E-03,            0.,NA,NA,"",       2.14534,       2.07624,   540.071E-03,   53.7216E-03
C:/temp/dataset/6/13_16.odb,Step-1,Increment      1: Step Time =    1.000,"PART-1-1",           634,          3.75,           -5.,            0.,NA,NA,"",       2.05322,       1.99516,  -484.822E-03,   35.7102E-03
C:/temp/dataset/6/13_16.odb,Step-1,Increment      1: Step Time =    1.000,"PART-1-1",           635,       4.52066,      -3.83856,            0.,NA,NA,"",       2.00821,       1.96386,  -419.714E-03,   68.0430E-03
C:/temp/dataset/6/13_16.odb,Step-1,Increment      1: Step Time =    1.000,"PART-1-1",           636,       2.94662,      -2.72704,            0.,NA,NA,"",       2.05881,       1.98920,  -530.844E-03,   50.0643E-03
C:/temp/dataset/6/13_16.odb,Step-1,Increment      1: Step Time =    1.000,"PART-1-1",           637,       1.50395,       2.56821,            0.,NA,NA,"",       2.27821,       2.20098,  -588.166E-03,   39.7864E-03
C:/temp/dataset/6/13_16.odb,Step-1,Increment      1: Step Time =    1.000,"PART-1-1",           638,          1.25,            5.,            0.,NA,NA,"",       2.29023,       2.21869,  -567.927E-03,   25.2270E-03
C:/temp/dataset/6/13_16.odb,Step-1,Increment      1: Step Time =    1.000,"PART-1-1",           639,          6.25,            5.,            0.,NA,NA,"",       2.25746,       2.19723,  -517.998E-03,   9.22329E-03
C:/temp/dataset/6/13_16.odb,Step-1,Increment      1: Step Time =    1.000,"PART-1-1",           640,  -213.968E-03,      -26.0734,            0.,NA,NA,"",   65.4692E-03,   65.1764E-03,   6.18464E-03,   14.9909E-03
C:/temp/dataset/6/13_16.odb,Step-1,Increment      1: Step Time =    1.000,"PART-1-1",           641,       1.14210,      -23.8512,            0.,NA,NA,"",   113.449E-03,   112.339E-03,   15.8325E-03,   17.9292E-03
C:/temp/dataset/6/13_16.odb,Step-1,Increment      1: Step Time =    1.000,"PART-1-1",           642,  -234.527E-03,      -23.9674,            0.,NA,NA,"",   106.036E-03,   105.805E-03,   6.98926E-03,   16.9949E-03
C:/temp/dataset/6/13_16.odb,Step-1,Increment      1: Step Time =    1.000,"PART-1-1",           643,           -5.,        14.375,            0.,NA,NA,"",       6.96893,       6.35858,      -2.85210,   82.9313E-03
C:/temp/dataset/6/13_16.odb,Step-1,Increment      1: Step Time =    1.000,"PART-1-1",           644,      -7.14364,       14.2292,            0.,NA,NA,"",       6.73142,       6.49352,      -1.77376,   52.6308E-03
C:/temp/dataset/6/13_16.odb,Step-1,Increment      1: Step Time =    1.000,"PART-1-1",           645,           -5.,       6.04167,            0.,NA,NA,"",       3.32242,       3.07318,      -1.26254,   196.247E-03
C:/temp/dataset/6/13_16.odb,Step-1,Increment      1: Step Time =    1.000,"PART-1-1",           646,      -5.82078,       6.95384,            0.,NA,NA,"",       3.58864,       3.40979,      -1.11879,   123.269E-03
C:/temp/dataset/6/13_16.odb,Step-1,Increment      1: Step Time =    1.000,"PART-1-1",           647,      -6.45742,       5.85906,            0.,NA,NA,"",       3.10273,       3.01715,  -723.719E-03,   100.712E-03
C:/temp/dataset/6/13_16.odb,Step-1,Increment      1: Step Time =    1.000,"PART-1-1",           648,      -5.63664,       4.94688,            0.,NA,NA,"",       2.74644,       2.62031,  -822.751E-03,   186.522E-03
C:/temp/dataset/6/13_16.odb,Step-1,Increment      1: Step Time =    1.000,"PART-1-1",           649,           -5.,         8.125,            0.,NA,NA,"",       4.18197,       3.82439,      -1.69201,   123.619E-03
C:/temp/dataset/6/13_16.odb,Step-1,Increment      1: Step Time =    1.000,"PART-1-1",           650,      -5.96903,       9.00386,            0.,NA,NA,"",       4.42210,       4.18381,      -1.43205,   97.6654E-03
C:/temp/dataset/6/13_16.odb,Step-1,Increment      1: Step Time =    1.000,"PART-1-1",           651,          -15.,         -3.75,            0.,NA,NA,"",       1.99038,       1.74701,   953.712E-03,   57.3884E-03
C:/temp/dataset/6/13_16.odb,Step-1,Increment      1: Step Time =    1.000,"PART-1-1",           652,      -12.7846,      -3.59401,            0.,NA,NA,"",       1.82879,       1.70238,   668.121E-03,   43.0471E-03
C:/temp/dataset/6/13_16.odb,Step-1,Increment      1: Step Time =    1.000,"PART-1-1",           653,      -11.5430,      -4.20540,            0.,NA,NA,"",       1.67598,       1.60630,   478.255E-03,   28.5013E-03
C:/temp/dataset/6/13_16.odb,Step-1,Increment      1: Step Time =    1.000,"PART-1-1",           654,      -10.1018,      -4.29084,            0.,NA,NA,"",       1.60715,       1.58413,   270.996E-03,   22.0391E-03
C:/temp/dataset/6/13_16.odb,Step-1,Increment      1: Step Time =    1.000,"PART-1-1",           655,          -15.,        -11.25,            0.,NA,NA,"",       1.13825,   902.069E-03,   694.180E-03,   44.2727E-03
C:/temp/dataset/6/13_16.odb,Step-1,Increment      1: Step Time =    1.000,"PART-1-1",           656,      -12.2331,      -11.1785,            0.,NA,NA,"",   961.127E-03,   852.793E-03,   443.295E-03,   28.4113E-03
C:/temp/dataset/6/13_16.odb,Step-1,Increment      1: Step Time =    1.000,"PART-1-1",           657,       5.21391,      -1.02834,            0.,NA,NA,"",       2.11837,       2.06335,  -479.642E-03,   38.4560E-03
C:/temp/dataset/6/13_16.odb,Step-1,Increment      1: Step Time =    1.000,"PART-1-1",           658,       6.72319,      -1.59046,            0.,NA,NA,"",       2.10974,       2.05868,  -461.352E-03,   29.7878E-03
C:/temp/dataset/6/13_16.odb,Step-1,Increment      1: Step Time =    1.000,"PART-1-1",           659,       10.9187,      -16.2245,            0.,NA,NA,"",   824.754E-03,   732.917E-03,  -378.222E-03,   34.6305E-03
C:/temp/dataset/6/13_16.odb,Step-1,Increment      1: Step Time =    1.000,"PART-1-1",           660,       11.9858,      -14.8752,            0.,NA,NA,"",       1.02034,   891.488E-03,  -496.327E-03,   32.4138E-03
C:/temp/dataset/6/13_16.odb,Step-1,Increment      1: Step Time =    1.000,"PART-1-1",           661,       10.9746,      -13.7451,            0.,NA,NA,"",       1.10636,       1.01251,  -445.927E-03,   33.3568E-03
C:/temp/dataset/6/13_16.odb,Step-1,Increment      1: Step Time =    1.000,"PART-1-1",           662,       11.9830,      -12.5543,            0.,NA,NA,"",       1.28147,       1.15568,  -553.686E-03,   28.8751E-03
C:/temp/dataset/6/13_16.odb,Step-1,Increment      1: Step Time =    1.000,"PART-1-1",           663,           15.,      -20.1563,            0.,NA,NA,"",   692.107E-03,   435.059E-03,  -538.272E-03,   55.4561E-03
C:/temp/dataset/6/13_16.odb,Step-1,Increment      1: Step Time =    1.000,"PART-1-1",           664,       14.0841,      -19.1367,            0.,NA,NA,"",   715.010E-03,   495.241E-03,  -515.728E-03,   46.5166E-03
C:/temp/dataset/6/13_16.odb,Step-1,Increment      1: Step Time =    1.000,"PART-1-1",           665,       13.0385,      -20.2889,            0.,NA,NA,"",   549.756E-03,   386.045E-03,  -391.408E-03,   41.9016E-03
C:/temp/dataset/6/13_16.odb,Step-1,Increment      1: Step Time =    1.000,"PART-1-1",           666,           15.,      -17.9688,            0.,NA,NA,"",   892.311E-03,   612.417E-03,  -648.972E-03,   47.5006E-03
C:/temp/dataset/6/13_16.odb,Step-1,Increment      1: Step Time =    1.000,"PART-1-1",           667,          1.25,          -30.,            0.,NA,NA,"",            0.,   8.67281E-39,   4.64683E-39,   8.92061E-03
C:/temp/dataset/6/13_16.odb,Step-1,Increment      1: Step Time =    1.000,"PART-1-1",           668,       3.30543,      -22.6598,            0.,NA,NA,"",   152.248E-03,   148.846E-03,   32.0068E-03,   23.8567E-03
C:/temp/dataset/6/13_16.odb,Step-1,Increment      1: Step Time =    1.000,"PART-1-1",           669,       2.86115,      -24.1329,            0.,NA,NA,"",   111.264E-03,   108.509E-03,   24.6049E-03,   20.0029E-03
C:/temp/dataset/6/13_16.odb,Step-1,Increment      1: Step Time =    1.000,"PART-1-1",           670,      -10.6801,      -21.6169,            0.,NA,NA,"",   202.045E-03,   147.709E-03,   137.855E-03,   20.9760E-03
C:/temp/dataset/6/13_16.odb,Step-1,Increment      1: Step Time =    1.000,"PART-1-1",           671,      -11.3394,      -20.4213,            0.,NA,NA,"",   272.905E-03,   198.168E-03,   187.634E-03,   24.7029E-03
C:/temp/dataset/6/13_16.odb,Step-1,Increment      1: Step Time =    1.000,"PART-1-1",           672,      -12.1593,      -22.4638,            0.,NA,NA,"",   221.338E-03,   139.134E-03,   172.141E-03,   27.9091E-03
C:/temp/dataset/6/13_16.odb,Step-1,Increment      1: Step Time =    1.000,"PART-1-1",           673,      -9.92443,      -16.4516,            0.,NA,NA,"",   430.267E-03,   390.936E-03,   179.718E-03,   15.1710E-03
C:/temp/dataset/6/13_16.odb,Step-1,Increment      1: Step Time =    1.000,"PART-1-1",           674,      -8.71114,      -17.7111,            0.,NA,NA,"",   317.517E-03,   302.080E-03,   97.7999E-03,   8.59458E-03
C:/temp/dataset/6/13_16.odb,Step-1,Increment      1: Step Time =    1.000,"PART-1-1",           675,      -9.25100,      -7.50767,            0.,NA,NA,"",       1.21819,       1.20570,   173.942E-03,   7.22475E-03
C:/temp/dataset/6/13_16.odb,Step-1,Increment      1: Step Time =    1.000,"PART-1-1",           676,      -8.32615,      -6.25855,            0.,NA,NA,"",       1.35495,       1.35385,   54.7081E-03,   12.3691E-03
C:/temp/dataset/6/13_16.odb,Step-1,Increment      1: Step Time =    1.000,"PART-1-1",           677,      -7.58018,      -5.09368,            0.,NA,NA,"",       1.50975,       1.50852,  -60.9185E-03,   28.9796E-03
C:/temp/dataset/6/13_16.odb,Step-1,Increment      1: Step Time =    1.000,"PART-1-1",           678,      -6.67379,      -3.84489,            0.,NA,NA,"",       1.70100,       1.68605,  -224.968E-03,   47.0606E-03
C:/temp/dataset/6/13_16.odb,Step-1,Increment      1: Step Time =    1.000,"PART-1-1",           679,      -2.40491,      -1.03021,            0.,NA,NA,"",       2.14915,       2.04508,  -660.671E-03,   40.4256E-03
C:/temp/dataset/6/13_16.odb,Step-1,Increment      1: Step Time =    1.000,"PART-1-1",           680,      -3.32453,      -2.14711,            0.,NA,NA,"",       2.03714,       1.94359,  -610.236E-03,   38.5000E-03
C:/temp/dataset/6/13_16.odb,Step-1,Increment      1: Step Time =    1.000,"PART-1-1",           681,       10.4745,      -24.8101,            0.,NA,NA,"",   150.132E-03,   99.2093E-03,  -112.682E-03,   27.1160E-03
C:/temp/dataset/6/13_16.odb,Step-1,Increment      1: Step Time =    1.000,"PART-1-1",           682,       8.16019,      -23.0435,            0.,NA,NA,"",   161.786E-03,   148.879E-03,  -63.3228E-03,   13.7515E-03
C:/temp/dataset/6/13_16.odb,Step-1,Increment      1: Step Time =    1.000,"PART-1-1",           683,       9.40124,      -23.8494,            0.,NA,NA,"",   158.255E-03,   125.311E-03,  -96.6537E-03,   20.3605E-03
C:/temp/dataset/6/13_16.odb,Step-1,Increment      1: Step Time =    1.000,"PART-1-1",           684,       5.67200,      -27.0943,            0.,NA,NA,"",   30.2634E-03,   30.2517E-03,   843.742E-06,   8.36515E-03
C:/temp/dataset/6/13_16.odb,Step-1,Increment      1: Step Time =    1.000,"PART-1-1",           685,       4.86106,      -26.0050,            0.,NA,NA,"",   56.8009E-03,   55.9333E-03,   9.89004E-03,   11.7800E-03
C:/temp/dataset/6/13_16.odb,Step-1,Increment      1: Step Time =    1.000,"PART-1-1",           686,      -2.55341,      -23.8484,            0.,NA,NA,"",   99.6021E-03,   99.2850E-03,  -7.94202E-03,   15.6183E-03
C:/temp/dataset/6/13_16.odb,Step-1,Increment      1: Step Time =    1.000,"PART-1-1",           687,      -4.82130,      -23.8875,            0.,NA,NA,"",   85.9707E-03,   85.4912E-03,  -9.06803E-03,   12.1358E-03
C:/temp/dataset/6/13_16.odb,Step-1,Increment      1: Step Time =    1.000,"PART-1-1",           688,      -5.84083,      -25.1777,            0.,NA,NA,"",   57.4727E-03,   57.4307E-03,   2.19778E-03,   8.12807E-03
C:/temp/dataset/6/13_16.odb,Step-1,Increment      1: Step Time =    1.000,"PART-1-1",           689,           15.,      -26.7188,            0.,NA,NA,"",   223.064E-03,   123.518E-03,  -185.744E-03,   59.3486E-03
C:/temp/dataset/6/13_16.odb,Step-1,Increment      1: Step Time =    1.000,"PART-1-1",           690,       10.9874,      -11.4075,            0.,NA,NA,"",       1.37663,       1.28251,  -500.284E-03,   31.1027E-03
C:/temp/dataset/6/13_16.odb,Step-1,Increment      1: Step Time =    1.000,"PART-1-1",           691,       7.29436,      -19.7763,            0.,NA,NA,"",   343.647E-03,   336.798E-03,  -68.2672E-03,   27.8838E-03
C:/temp/dataset/6/13_16.odb,Step-1,Increment      1: Step Time =    1.000,"PART-1-1",           692,       7.78340,      -18.7858,            0.,NA,NA,"",   450.765E-03,   436.926E-03,  -110.839E-03,   29.0504E-03
C:/temp/dataset/6/13_16.odb,Step-1,Increment      1: Step Time =    1.000,"PART-1-1",           693,       10.8970,      -2.99004,            0.,NA,NA,"",       2.09664,       2.01288,  -586.699E-03,   5.43108E-03
C:/temp/dataset/6/13_16.odb,Step-1,Increment      1: Step Time =    1.000,"PART-1-1",           694,       12.0828,      -3.88727,            0.,NA,NA,"",       2.06573,       1.96193,  -646.596E-03,   4.47736E-03
C:/temp/dataset/6/13_16.odb,Step-1,Increment      1: Step Time =    1.000,"PART-1-1",           695,           15.,       1.71875,            0.,NA,NA,"",       2.28279,       2.15882,  -742.036E-03,   5.82622E-03
C:/temp/dataset/6/13_16.odb,Step-1,Increment      1: Step Time =    1.000,"PART-1-1",           696,       4.00043,  -427.215E-03,            0.,NA,NA,"",       2.14012,       2.07669,  -517.186E-03,   46.0414E-03
C:/temp/dataset/6/13_16.odb,Step-1,Increment      1: Step Time =    1.000,"PART-1-1",           697,       2.09609,       1.00148,            0.,NA,NA,"",       2.21719,       2.14000,  -579.948E-03,   45.2340E-03
C:/temp/dataset/6/13_16.odb,Step-1,Increment      1: Step Time =    1.000,"PART-1-1",           698,       2.38138,  -554.063E-03,            0.,NA,NA,"",       2.15006,       2.07332,  -569.289E-03,   52.4161E-03
C:/temp/dataset/6/13_16.odb,Step-1,Increment      1: Step Time =    1.000,"PART-1-1",           699,   35.7305E-03,       2.11113,            0.,NA,NA,"",       2.30630,       2.21795,  -632.243E-03,   50.6491E-03
C:/temp/dataset/6/13_16.odb,Step-1,Increment      1: Step Time =    1.000,"PART-1-1",           700,           -5.,       10.2083,            0.,NA,NA,"",       5.04169,       4.60062,      -2.06228,   107.821E-03
C:/temp/dataset/6/13_16.odb,Step-1,Increment      1: Step Time =    1.000,"PART-1-1",           701,      -6.99901,       9.90050,            0.,NA,NA,"",       4.72631,       4.58456,      -1.14883,   73.1769E-03
C:/temp/dataset/6/13_16.odb,Step-1,Increment      1: Step Time =    1.000,"PART-1-1",           702,      -11.2396,       16.2208,            0.,NA,NA,"",       7.94595,       7.94458,  -147.424E-03,   35.5960E-03
C:/temp/dataset/6/13_16.odb,Step-1,Increment      1: Step Time =    1.000,"PART-1-1",           703,      -10.2112,       15.1096,            0.,NA,NA,"",       7.26165,       7.24566,  -481.575E-03,   31.5305E-03
C:/temp/dataset/6/13_16.odb,Step-1,Increment      1: Step Time =    1.000,"PART-1-1",           704,      -9.25876,       16.3324,            0.,NA,NA,"",       7.83751,       7.75943,      -1.10354,   33.5133E-03
C:/temp/dataset/6/13_16.odb,Step-1,Increment      1: Step Time =    1.000,"PART-1-1",           705,      -10.2871,       17.4437,            0.,NA,NA,"",       8.50379,       8.46847,  -774.219E-03,   31.2728E-03
C:/temp/dataset/6/13_16.odb,Step-1,Increment      1: Step Time =    1.000,"PART-1-1",           706,      -8.19479,       15.2434,            0.,NA,NA,"",       7.23516,       7.09021,      -1.44100,   38.4301E-03
C:/temp/dataset/6/13_16.odb,Step-1,Increment      1: Step Time =    1.000,"PART-1-1",           707,      -9.19446,       14.0222,            0.,NA,NA,"",       6.64362,       6.59566,  -796.812E-03,   34.4753E-03
C:/temp/dataset/6/13_16.odb,Step-1,Increment      1: Step Time =    1.000,"PART-1-1",           708,      -8.14331,       13.0080,            0.,NA,NA,"",       6.11812,       6.01430,      -1.12232,   42.8382E-03
C:/temp/dataset/6/13_16.odb,Step-1,Increment      1: Step Time =    1.000,"PART-1-1",           709,          -15.,         18.75,            0.,NA,NA,"",       9.99158,       9.89163,       1.40975,   56.9220E-03
C:/temp/dataset/6/13_16.odb,Step-1,Increment      1: Step Time =    1.000,"PART-1-1",           710,      -13.1826,       18.5751,            0.,NA,NA,"",       9.50669,       9.49356,   499.610E-03,   40.7348E-03
C:/temp/dataset/6/13_16.odb,Step-1,Increment      1: Step Time =    1.000,"PART-1-1",           711,      -11.2313,       23.3702,            0.,NA,NA,"",       11.9605,       11.8957,      -1.24321,   28.4473E-03
C:/temp/dataset/6/13_16.odb,Step-1,Increment      1: Step Time =    1.000,"PART-1-1",           712,      -10.8173,       24.9058,            0.,NA,NA,"",       12.8173,       12.7016,      -1.71870,   23.6867E-03
C:/temp/dataset/6/13_16.odb,Step-1,Increment      1: Step Time =    1.000,"PART-1-1",           713,      -13.5418,       24.7667,            0.,NA,NA,"",       13.0885,       13.0862,  -243.185E-03,   23.1492E-03
C:/temp/dataset/6/13_16.odb,Step-1,Increment      1: Step Time =    1.000,"PART-1-1",           714,      -12.2278,       25.9824,            0.,NA,NA,"",       13.5955,       13.5473,      -1.14484,   21.1862E-03
C:/temp/dataset/6/13_16.odb,Step-1,Increment      1: Step Time =    1.000,"PART-1-1",           715,          -15.,         26.25,            0.,NA,NA,"",       14.1937,       14.1903,   311.993E-03,   18.8755E-03
C:/temp/dataset/6/13_16.odb,Step-1,Increment      1: Step Time =    1.000,"PART-1-1",           716,          -15.,         23.75,            0.,NA,NA,"",       12.7926,       12.7728,   711.395E-03,   26.9575E-03
C:/temp/dataset/6/13_16.odb,Step-1,Increment      1: Step Time =    1.000,"PART-1-1",           717,      -12.5630,       23.3034,            0.,NA,NA,"",       12.0870,       12.0753,  -530.565E-03,   30.8689E-03
C:/temp/dataset/6/13_16.odb,Step-1,Increment      1: Step Time =    1.000,"PART-1-1",           718,      -11.1827,       13.8735,            0.,NA,NA,"",       6.73816,       6.73735,   104.578E-03,   38.4264E-03
C:/temp/dataset/6/13_16.odb,Step-1,Increment      1: Step Time =    1.000,"PART-1-1",           719,      -10.1659,       12.7861,            0.,NA,NA,"",       6.10401,       6.10022,  -215.043E-03,   32.0967E-03
C:/temp/dataset/6/13_16.odb,Step-1,Increment      1: Step Time =    1.000,"PART-1-1",           720,      -11.4858,       20.4947,            0.,NA,NA,"",       10.3262,       10.3063,  -641.227E-03,   32.1588E-03
C:/temp/dataset/6/13_16.odb,Step-1,Increment      1: Step Time =    1.000,"PART-1-1",           721,      -10.4732,       19.7487,            0.,NA,NA,"",       9.79949,       9.74430,      -1.03857,   31.3459E-03
C:/temp/dataset/6/13_16.odb,Step-1,Increment      1: Step Time =    1.000,"PART-1-1",           722,      -10.9778,       21.7959,            0.,NA,NA,"",       11.0189,       10.9625,      -1.11379,   31.2860E-03
C:/temp/dataset/6/13_16.odb,Step-1,Increment      1: Step Time =    1.000,"PART-1-1",           723,      -9.13796,       11.7463,            0.,NA,NA,"",       5.54903,       5.52424,  -523.903E-03,   36.4000E-03
C:/temp/dataset/6/13_16.odb,Step-1,Increment      1: Step Time =    1.000,"PART-1-1",           724,      -11.1090,       11.4975,            0.,NA,NA,"",       5.60062,       5.59246,   302.211E-03,   41.4091E-03
C:/temp/dataset/6/13_16.odb,Step-1,Increment      1: Step Time =    1.000,"PART-1-1",           725,      -7.95801,       5.48811,            0.,NA,NA,"",       3.01631,       3.00043,  -309.083E-03,   53.4261E-03
C:/temp/dataset/6/13_16.odb,Step-1,Increment      1: Step Time =    1.000,"PART-1-1",           726,      -9.27172,       5.51676,            0.,NA,NA,"",       3.10824,       3.10784,   49.5221E-03,   42.4648E-03
C:/temp/dataset/6/13_16.odb,Step-1,Increment      1: Step Time =    1.000,"PART-1-1",           727,      -9.10783,       4.19071,            0.,NA,NA,"",       2.74214,       2.74197,   29.8010E-03,   48.9706E-03
C:/temp/dataset/6/13_16.odb,Step-1,Increment      1: Step Time =    1.000,"PART-1-1",           728,      -7.79412,       4.16207,            0.,NA,NA,"",       2.66194,       2.64584,  -292.380E-03,   56.5692E-03
C:/temp/dataset/6/13_16.odb,Step-1,Increment      1: Step Time =    1.000,"PART-1-1",           729,      -10.3652,   710.465E-03,            0.,NA,NA,"",       2.20790,       2.18493,   317.676E-03,   52.6754E-03
C:/temp/dataset/6/13_16.odb,Step-1,Increment      1: Step Time =    1.000,"PART-1-1",           730,      -11.5756,       2.14983,            0.,NA,NA,"",       2.54833,       2.47397,   611.132E-03,   65.4070E-03
C:/temp/dataset/6/13_16.odb,Step-1,Increment      1: Step Time =    1.000,"PART-1-1",           731,      -10.9514,      -7.70102,            0.,NA,NA,"",       1.25382,       1.19864,   367.872E-03,   18.5566E-03
C:/temp/dataset/6/13_16.odb,Step-1,Increment      1: Step Time =    1.000,"PART-1-1",           732,      -11.1587,      -15.1039,            0.,NA,NA,"",   573.166E-03,   499.435E-03,   281.218E-03,   22.1902E-03
C:/temp/dataset/6/13_16.odb,Step-1,Increment      1: Step Time =    1.000,"PART-1-1",           733,      -11.0422,      -12.5823,            0.,NA,NA,"",   770.446E-03,   704.025E-03,   312.948E-03,   21.1778E-03
C:/temp/dataset/6/13_16.odb,Step-1,Increment      1: Step Time =    1.000,"PART-1-1",           734,      -9.98828,      -19.2456,            0.,NA,NA,"",   275.462E-03,   233.063E-03,   146.836E-03,   17.6243E-03
C:/temp/dataset/6/13_16.odb,Step-1,Increment      1: Step Time =    1.000,"PART-1-1",           735,      -11.2222,      -17.6929,            0.,NA,NA,"",   405.941E-03,   329.048E-03,   237.730E-03,   23.7363E-03
C:/temp/dataset/6/13_16.odb,Step-1,Increment      1: Step Time =    1.000,"PART-1-1",           736,      -9.72809,       26.4627,            0.,NA,NA,"",       13.6438,       13.4014,      -2.56046,   17.3732E-03
C:/temp/dataset/6/13_16.odb,Step-1,Increment      1: Step Time =    1.000,"PART-1-1",           737,      -8.07960,       10.7858,            0.,NA,NA,"",       5.08905,       5.02008,  -835.031E-03,   48.5064E-03
C:/temp/dataset/6/13_16.odb,Step-1,Increment      1: Step Time =    1.000,"PART-1-1",           738,      -11.3320,       18.4953,            0.,NA,NA,"",       9.18588,       9.17651,  -415.013E-03,   33.3937E-03
C:/temp/dataset/6/13_16.odb,Step-1,Increment      1: Step Time =    1.000,"PART-1-1",           739,      -10.4893,       6.32554,            0.,NA,NA,"",       3.47808,       3.45781,   374.916E-03,   44.2640E-03
C:/temp/dataset/6/13_16.odb,Step-1,Increment      1: Step Time =    1.000,"PART-1-1",           740,      -11.8356,       7.66802,            0.,NA,NA,"",       4.11730,       4.04622,   761.781E-03,   64.0813E-03
C:/temp/dataset/6/13_16.odb,Step-1,Increment      1: Step Time =    1.000,"PART-1-1",           741,      -11.4125,       4.87054,            0.,NA,NA,"",       3.15450,       3.08965,   636.335E-03,   64.6557E-03
C:/temp/dataset/6/13_16.odb,Step-1,Increment      1: Step Time =    1.000,"PART-1-1",           742,       10.1911,      -5.79504,            0.,NA,NA,"",       1.92298,       1.84707,  -534.964E-03,   18.1949E-03
C:/temp/dataset/6/13_16.odb,Step-1,Increment      1: Step Time =    1.000,"PART-1-1",           743,       9.10708,      -6.74300,            0.,NA,NA,"",       1.83043,       1.77118,  -461.934E-03,   27.8700E-03
C:/temp/dataset/6/13_16.odb,Step-1,Increment      1: Step Time =    1.000,"PART-1-1",           744,       11.1638,      -4.94873,            0.,NA,NA,"",       1.99268,       1.90206,  -594.089E-03,   9.17741E-03
C:/temp/dataset/6/13_16.odb,Step-1,Increment      1: Step Time =    1.000,"PART-1-1",           745,       10.4293,      -4.08570,            0.,NA,NA,"",       2.03686,       1.95869,  -558.860E-03,   8.90470E-03
C:/temp/dataset/6/13_16.odb,Step-1,Increment      1: Step Time =    1.000,"PART-1-1",           746,       9.97038,      -14.8971,            0.,NA,NA,"",   937.466E-03,   873.012E-03,  -341.603E-03,   32.8296E-03
C:/temp/dataset/6/13_16.odb,Step-1,Increment      1: Step Time =    1.000,"PART-1-1",           747,       9.96577,      -12.5508,            0.,NA,NA,"",       1.21163,       1.14486,  -396.679E-03,   32.7413E-03
C:/temp/dataset/6/13_16.odb,Step-1,Increment      1: Step Time =    1.000,"PART-1-1",           748,       8.96159,      -13.7029,            0.,NA,NA,"",       1.04607,       1.00452,  -291.884E-03,   32.2122E-03
C:/temp/dataset/6/13_16.odb,Step-1,Increment      1: Step Time =    1.000,"PART-1-1",           749,       6.92617,      -22.4012,            0.,NA,NA,"",   170.501E-03,   168.943E-03,  -22.9941E-03,   9.18241E-03
C:/temp/dataset/6/13_16.odb,Step-1,Increment      1: Step Time =    1.000,"PART-1-1",           750,       5.94981,      -23.5281,            0.,NA,NA,"",   122.601E-03,   122.493E-03,   5.15081E-03,   9.56457E-03
C:/temp/dataset/6/13_16.odb,Step-1,Increment      1: Step Time =    1.000,"PART-1-1",           751,       7.18383,      -24.1705,            0.,NA,NA,"",   104.141E-03,   101.444E-03,  -23.5463E-03,   6.75373E-03
C:/temp/dataset/6/13_16.odb,Step-1,Increment      1: Step Time =    1.000,"PART-1-1",           752,       11.0968,      -20.2176,            0.,NA,NA,"",   451.192E-03,   359.278E-03,  -272.936E-03,   34.0709E-03
C:/temp/dataset/6/13_16.odb,Step-1,Increment      1: Step Time =    1.000,"PART-1-1",           753,       6.43355,      -20.8801,            0.,NA,NA,"",   240.473E-03,   240.250E-03,  -10.3623E-03,   18.8994E-03
C:/temp/dataset/6/13_16.odb,Step-1,Increment      1: Step Time =    1.000,"PART-1-1",           754,       8.96045,      -11.3546,            0.,NA,NA,"",       1.32414,       1.27758,  -348.064E-03,   33.7321E-03
C:/temp/dataset/6/13_16.odb,Step-1,Increment      1: Step Time =    1.000,"PART-1-1",           755,       8.17216,      -2.03287,            0.,NA,NA,"",       2.11043,       2.05422,  -483.804E-03,   15.9873E-03
C:/temp/dataset/6/13_16.odb,Step-1,Increment      1: Step Time =    1.000,"PART-1-1",           756,       9.68046,      -2.49017,            0.,NA,NA,"",       2.10694,       2.03823,  -533.656E-03,   10.2807E-03
C:/temp/dataset/6/13_16.odb,Step-1,Increment      1: Step Time =    1.000,"PART-1-1",           757,      -5.24373,       2.94722,            0.,NA,NA,"",       2.48377,       2.37836,  -715.899E-03,   80.3791E-03
C:/temp/dataset/6/13_16.odb,Step-1,Increment      1: Step Time =    1.000,"PART-1-1",           758,      -6.20341,       3.93450,            0.,NA,NA,"",       2.58354,       2.49944,  -653.792E-03,   89.5418E-03
C:/temp/dataset/6/13_16.odb,Step-1,Increment      1: Step Time =    1.000,"PART-1-1",           759,       7.87036,      -17.0650,            0.,NA,NA,"",   633.444E-03,   617.112E-03,  -142.915E-03,   26.4724E-03
C:/temp/dataset/6/13_16.odb,Step-1,Increment      1: Step Time =    1.000,"PART-1-1",           760,      -8.77165,      -4.61616,            0.,NA,NA,"",       1.55346,       1.55102,   87.0460E-03,   24.1634E-03
C:/temp/dataset/6/13_16.odb,Step-1,Increment      1: Step Time =    1.000,"PART-1-1",           761,       8.90402,      -15.9271,            0.,NA,NA,"",   786.553E-03,   749.224E-03,  -239.435E-03,   31.5405E-03
C:/temp/dataset/6/13_16.odb,Step-1,Increment      1: Step Time =    1.000,"PART-1-1",           762,       7.94609,      -14.8939,            0.,NA,NA,"",   881.505E-03,   861.808E-03,  -185.307E-03,   26.4070E-03
C:/temp/dataset/6/13_16.odb,Step-1,Increment      1: Step Time =    1.000,"PART-1-1",           763,      -12.3095,       21.7291,            0.,NA,NA,"",       11.1394,       11.1318,  -410.406E-03,   31.4022E-03
C:/temp/dataset/6/13_16.odb,Step-1,Increment      1: Step Time =    1.000,"PART-1-1",           764,      -12.2938,       19.6789,            0.,NA,NA,"",       9.97154,       9.97100,  -103.651E-03,   32.7896E-03
C:/temp/dataset/6/13_16.odb,Step-1,Increment      1: Step Time =    1.000,"PART-1-1",           765,       3.72209,      -1.78065,            0.,NA,NA,"",       2.08980,       2.02615,  -511.839E-03,   52.0401E-03
C:/temp/dataset/6/13_16.odb,Step-1,Increment      1: Step Time =    1.000,"PART-1-1",           766,       6.45852,      -3.38063,            0.,NA,NA,"",       2.04443,       2.00274,  -410.729E-03,   32.5086E-03
C:/temp/dataset/6/13_16.odb,Step-1,Increment      1: Step Time =    1.000,"PART-1-1",           767,       4.93556,      -2.38177,            0.,NA,NA,"",       2.06373,       2.01332,  -453.325E-03,   49.9359E-03
C:/temp/dataset/6/13_16.odb,Step-1,Increment      1: Step Time =    1.000,"PART-1-1",           768,      -2.94024,   945.156E-03,            0.,NA,NA,"",       2.30215,       2.19708,  -687.557E-03,   54.0460E-03
C:/temp/dataset/6/13_16.odb,Step-1,Increment      1: Step Time =    1.000,"PART-1-1",           769,      -1.69279,      -25.0756,            0.,NA,NA,"",   80.3442E-03,   80.3417E-03,  -639.026E-06,   15.9222E-03
C:/temp/dataset/6/13_16.odb,Step-1,Increment      1: Step Time =    1.000,"PART-1-1",           770,      -6.93923,      -23.9860,            0.,NA,NA,"",   74.9920E-03,   73.8458E-03,   13.0618E-03,   3.61231E-03
C:/temp/dataset/6/13_16.odb,Step-1,Increment      1: Step Time =    1.000,"PART-1-1",           771,      -5.91970,      -22.6959,            0.,NA,NA,"",   103.019E-03,   102.793E-03,  -6.81001E-03,   8.10142E-03
C:/temp/dataset/6/13_16.odb,Step-1,Increment      1: Step Time =    1.000,"PART-1-1",           772,      -12.2208,       17.3915,            0.,NA,NA,"",       8.70364,       8.70191,   173.732E-03,   38.2042E-03
C:/temp/dataset/6/13_16.odb,Step-1,Increment      1: Step Time =    1.000,"PART-1-1",           773,      -12.0398,       10.1961,            0.,NA,NA,"",       5.15548,       5.10073,   749.393E-03,   58.8936E-03
C:/temp/dataset/6/13_16.odb,Step-1,Increment      1: Step Time =    1.000,"PART-1-1",           774,      -10.8637,      -2.91198,            0.,NA,NA,"",       1.78969,       1.74732,   387.102E-03,   34.3039E-03
C:/temp/dataset/6/13_16.odb,Step-1,Increment      1: Step Time =    1.000,"PART-1-1",           775,      -9.61620,      -11.5179,            0.,NA,NA,"",   809.625E-03,   784.871E-03,   198.673E-03,   12.2456E-03
C:/temp/dataset/6/13_16.odb,Step-1,Increment      1: Step Time =    1.000,"PART-1-1",           776,      -11.8201,      -24.5932,            0.,NA,NA,"",   139.042E-03,   81.8949E-03,   112.365E-03,   25.3854E-03
C:/temp/dataset/6/13_16.odb,Step-1,Increment      1: Step Time =    1.000,"PART-1-1",           777,      -11.0718,      -23.4296,            0.,NA,NA,"",   154.260E-03,   100.806E-03,   116.766E-03,   22.1589E-03
C:/temp/dataset/6/13_16.odb,Step-1,Increment      1: Step Time =    1.000,"PART-1-1",           778,       4.75405,      -23.0816,            0.,NA,NA,"",   139.926E-03,   137.447E-03,   26.2239E-03,   16.3952E-03
C:/temp/dataset/6/13_16.odb,Step-1,Increment      1: Step Time =    1.000,"PART-1-1",           779,       5.55198,      -21.9930,            0.,NA,NA,"",   179.880E-03,   178.778E-03,   19.8789E-03,   15.4380E-03
C:/temp/dataset/6/13_16.odb,Step-1,Increment      1: Step Time =    1.000,"PART-1-1",           780,       7.01336,      -26.0950,            0.,NA,NA,"",   48.5756E-03,   46.6687E-03,  -13.4768E-03,   7.67554E-03
C:/temp/dataset/6/13_16.odb,Step-1,Increment      1: Step Time =    1.000,"PART-1-1",           781,       4.10189,      -23.9882,            0.,NA,NA,"",   113.702E-03,   110.826E-03,   25.4109E-03,   17.6828E-03
C:/temp/dataset/6/13_16.odb,Step-1,Increment      1: Step Time =    1.000,"PART-1-1",           782,       4.14804,      -25.2051,            0.,NA,NA,"",   79.9995E-03,   77.9773E-03,   17.8734E-03,   15.1754E-03
C:/temp/dataset/6/13_16.odb,Step-1,Increment      1: Step Time =    1.000,"PART-1-1",           783,      -12.1264,       12.6156,            0.,NA,NA,"",       6.26111,       6.22954,   628.018E-03,   52.0367E-03
C:/temp/dataset/6/13_16.odb,Step-1,Increment      1: Step Time =    1.000,"PART-1-1",           784,      -12.1709,       15.0185,            0.,NA,NA,"",       7.45097,       7.43876,   426.363E-03,   44.9167E-03
C:/temp/dataset/6/13_16.odb,Step-1,Increment      1: Step Time =    1.000,"PART-1-1",           785,      -10.3060,       3.43341,            0.,NA,NA,"",       2.67437,       2.65367,   332.123E-03,   50.8869E-03
C:/temp/dataset/6/13_16.odb,Step-1,Increment      1: Step Time =    1.000,"PART-1-1",           786,      -9.35047,  -311.861E-03,            0.,NA,NA,"",       2.03378,       2.03055,   114.505E-03,   49.3021E-03
C:/temp/dataset/6/13_16.odb,Step-1,Increment      1: Step Time =    1.000,"PART-1-1",           787,      -9.47746,      -1.56252,            0.,NA,NA,"",       1.89546,       1.88947,   150.571E-03,   42.4455E-03
C:/temp/dataset/6/13_16.odb,Step-1,Increment      1: Step Time =    1.000,"PART-1-1",           788,      -7.56677,      -1.93629,            0.,NA,NA,"",       1.86851,       1.86159,  -160.629E-03,   46.1987E-03
C:/temp/dataset/6/13_16.odb,Step-1,Increment      1: Step Time =    1.000,"PART-1-1",           789,      -9.57637,      -3.06595,            0.,NA,NA,"",       1.73281,       1.72315,   182.773E-03,   33.1396E-03
C:/temp/dataset/6/13_16.odb,Step-1,Increment      1: Step Time =    1.000,"PART-1-1",           790,      -8.24618,      -3.39128,            0.,NA,NA,"",       1.69847,       1.69840,  -15.5660E-03,   38.4013E-03
C:/temp/dataset/6/13_16.odb,Step-1,Increment      1: Step Time =    1.000,"PART-1-1",           791,       7.98922,      -7.69035,            0.,NA,NA,"",       1.71761,       1.67611,  -375.308E-03,   40.1954E-03
C:/temp/dataset/6/13_16.odb,Step-1,Increment      1: Step Time =    1.000,"PART-1-1",           792,       7.96586,      -10.1263,            0.,NA,NA,"",       1.44315,       1.41100,  -302.923E-03,   35.0722E-03
C:/temp/dataset/6/13_16.odb,Step-1,Increment      1: Step Time =    1.000,"PART-1-1",           793,       7.95460,      -12.5381,            0.,NA,NA,"",       1.15888,       1.13427,  -237.537E-03,   29.3561E-03
C:/temp/dataset/6/13_16.odb,Step-1,Increment      1: Step Time =    1.000,"PART-1-1",           794,      -6.90534,       4.84567,            0.,NA,NA,"",       2.79511,       2.74262,  -539.122E-03,   75.6793E-03
C:/temp/dataset/6/13_16.odb,Step-1,Increment      1: Step Time =    1.000,"PART-1-1",           795,      -7.09219,       3.25090,            0.,NA,NA,"",       2.47421,       2.43627,  -431.625E-03,   71.0230E-03
C:/temp/dataset/6/13_16.odb,Step-1,Increment      1: Step Time =    1.000,"PART-1-1",           796,      -5.99438,      -2.38990,            0.,NA,NA,"",       1.89008,       1.85426,  -366.187E-03,   47.5629E-03
C:/temp/dataset/6/13_16.odb,Step-1,Increment      1: Step Time =    1.000,"PART-1-1",           797,      -8.16339,       2.56404,            0.,NA,NA,"",       2.38289,       2.37633,  -176.755E-03,   59.2315E-03
C:/temp/dataset/6/13_16.odb,Step-1,Increment      1: Step Time =    1.000,"PART-1-1",           798,      -6.16245,       1.98671,            0.,NA,NA,"",       2.33213,       2.27039,  -533.065E-03,   71.5858E-03
C:/temp/dataset/6/13_16.odb,Step-1,Increment      1: Step Time =    1.000,"PART-1-1",           799,      -9.36160,       1.80674,            0.,NA,NA,"",       2.31112,       2.30886,   102.248E-03,   54.2244E-03
C:/temp/dataset/6/13_16.odb,Step-1,Increment      1: Step Time =    1.000,"PART-1-1",           800,      -4.18828,       1.89018,            0.,NA,NA,"",       2.38546,       2.28344,  -690.167E-03,   71.9793E-03
C:/temp/dataset/6/13_16.odb,Step-1,Increment      1: Step Time =    1.000,"PART-1-1",           801,      -2.02478,       2.01876,            0.,NA,NA,"",       2.36889,       2.26781,  -684.601E-03,   68.5719E-03
C:/temp/dataset/6/13_16.odb,Step-1,Increment      1: Step Time =    1.000,"PART-1-1",           802,       5.29765,      -24.4346,            0.,NA,NA,"",   95.6758E-03,   94.8277E-03,   12.7110E-03,   11.7445E-03
C:/temp/dataset/6/13_16.odb,Step-1,Increment      1: Step Time =    1.000,"PART-1-1",           803,       8.18651,      -25.0309,            0.,NA,NA,"",   87.1815E-03,   75.8912E-03,  -42.9084E-03,   10.9245E-03
C:/temp/dataset/6/13_16.odb,Step-1,Increment      1: Step Time =    1.000,"PART-1-1",           804,       6.01068,      -25.2345,            0.,NA,NA,"",   70.5274E-03,   70.5235E-03,   739.135E-06,   8.44798E-03
