ODB Name,Step,Frame,Part Instance Name,    êﬂì_ÉâÉxÉã,X,Y,Z,Section Name,Material Name,Section Point,   U-Magnitude,          U-U1,          U-U2,       S-Mises
C:/temp/dataset/6/15_14.odb,Step-1,Increment      1: Step Time =    1.000,"PART-1-1",             1,            5.,           -5.,            0.,NA,NA,"",   71.4388E-03,  -66.5744E-03,  -25.9106E-03,   1.83384E-03
C:/temp/dataset/6/15_14.odb,Step-1,Increment      1: Step Time =    1.000,"PART-1-1",             2,            0.,           -5.,            0.,NA,NA,"",   91.6363E-03,  -60.4672E-03,  -68.8544E-03,   1.03815E-03
C:/temp/dataset/6/15_14.odb,Step-1,Increment      1: Step Time =    1.000,"PART-1-1",             3,            5.,      -10.0250,            0.,NA,NA,"",   45.1499E-03,  -40.5256E-03,  -19.9044E-03,   1.28941E-03
C:/temp/dataset/6/15_14.odb,Step-1,Increment      1: Step Time =    1.000,"PART-1-1",             4,            5.,      -15.0500,            0.,NA,NA,"",   23.1356E-03,  -18.8907E-03,  -13.3565E-03,   1.54329E-03
C:/temp/dataset/6/15_14.odb,Step-1,Increment      1: Step Time =    1.000,"PART-1-1",             5,            5.,          -20.,            0.,NA,NA,"",   5.37308E-03,  -3.02239E-03,  -4.44243E-03,   2.47029E-03
C:/temp/dataset/6/15_14.odb,Step-1,Increment      1: Step Time =    1.000,"PART-1-1",             6,            0.,          -20.,            0.,NA,NA,"",   5.37491E-03,  -4.33246E-03,  -3.18111E-03,   1.11879E-03
C:/temp/dataset/6/15_14.odb,Step-1,Increment      1: Step Time =    1.000,"PART-1-1",             7,           -5.,          -20.,            0.,NA,NA,"",   33.4051E-03,  -9.26265E-03,  -32.0953E-03,   8.07757E-03
C:/temp/dataset/6/15_14.odb,Step-1,Increment      1: Step Time =    1.000,"PART-1-1",             8,           -5.,      -14.9750,            0.,NA,NA,"",   68.4874E-03,  -15.3929E-03,  -66.7351E-03,   5.88511E-03
C:/temp/dataset/6/15_14.odb,Step-1,Increment      1: Step Time =    1.000,"PART-1-1",             9,           -5.,      -9.95000,            0.,NA,NA,"",   95.5029E-03,  -30.7309E-03,  -90.4235E-03,   4.50380E-03
C:/temp/dataset/6/15_14.odb,Step-1,Increment      1: Step Time =    1.000,"PART-1-1",            10,           -5.,           -5.,            0.,NA,NA,"",   123.626E-03,  -58.9173E-03,  -108.684E-03,   2.94688E-03
C:/temp/dataset/6/15_14.odb,Step-1,Increment      1: Step Time =    1.000,"PART-1-1",            11,           15.,          -30.,            0.,NA,NA,"",            0.,  -248.551E-42,   489.305E-42,   937.955E-06
C:/temp/dataset/6/15_14.odb,Step-1,Increment      1: Step Time =    1.000,"PART-1-1",            12,          -15.,          -30.,            0.,NA,NA,"",            0.,  -3.61914E-39,  -6.19847E-39,   11.8236E-03
C:/temp/dataset/6/15_14.odb,Step-1,Increment      1: Step Time =    1.000,"PART-1-1",            13,           15.,        -21.25,            0.,NA,NA,"",   11.2291E-03,  -4.21281E-03,   10.4089E-03,   1.76452E-03
C:/temp/dataset/6/15_14.odb,Step-1,Increment      1: Step Time =    1.000,"PART-1-1",            14,           15.,         -12.5,            0.,NA,NA,"",   38.5260E-03,  -29.6157E-03,   24.6406E-03,   1.68970E-03
C:/temp/dataset/6/15_14.odb,Step-1,Increment      1: Step Time =    1.000,"PART-1-1",            15,           15.,         -3.75,            0.,NA,NA,"",   85.9626E-03,  -78.1497E-03,   35.8078E-03,   1.03213E-03
C:/temp/dataset/6/15_14.odb,Step-1,Increment      1: Step Time =    1.000,"PART-1-1",            16,           15.,            5.,            0.,NA,NA,"",   144.260E-03,  -139.024E-03,   38.5119E-03,   25.7044E-06
C:/temp/dataset/6/15_14.odb,Step-1,Increment      1: Step Time =    1.000,"PART-1-1",            17,           10.,            5.,            0.,NA,NA,"",   139.469E-03,  -139.379E-03,   5.00184E-03,   399.717E-06
C:/temp/dataset/6/15_14.odb,Step-1,Increment      1: Step Time =    1.000,"PART-1-1",            18,            5.,            5.,            0.,NA,NA,"",   145.964E-03,  -143.011E-03,  -29.2088E-03,   1.22242E-03
C:/temp/dataset/6/15_14.odb,Step-1,Increment      1: Step Time =    1.000,"PART-1-1",            19,            0.,            5.,            0.,NA,NA,"",   165.075E-03,  -150.043E-03,  -68.8253E-03,   1.97127E-03
C:/temp/dataset/6/15_14.odb,Step-1,Increment      1: Step Time =    1.000,"PART-1-1",            20,           -5.,            5.,            0.,NA,NA,"",   202.387E-03,  -164.409E-03,  -118.026E-03,   4.28114E-03
C:/temp/dataset/6/15_14.odb,Step-1,Increment      1: Step Time =    1.000,"PART-1-1",            21,           -5.,         11.25,            0.,NA,NA,"",   331.496E-03,  -313.031E-03,  -109.093E-03,   2.19994E-03
C:/temp/dataset/6/15_14.odb,Step-1,Increment      1: Step Time =    1.000,"PART-1-1",            22,           -5.,          17.5,            0.,NA,NA,"",   530.956E-03,  -521.842E-03,  -97.9552E-03,   2.95476E-03
C:/temp/dataset/6/15_14.odb,Step-1,Increment      1: Step Time =    1.000,"PART-1-1",            23,           -5.,         23.75,            0.,NA,NA,"",   805.898E-03,  -801.258E-03,  -86.3591E-03,   3.32358E-03
C:/temp/dataset/6/15_14.odb,Step-1,Increment      1: Step Time =    1.000,"PART-1-1",            24,           -5.,           30.,            0.,NA,NA,"",       1.15042,      -1.14727,  -84.9738E-03,   501.289E-06
C:/temp/dataset/6/15_14.odb,Step-1,Increment      1: Step Time =    1.000,"PART-1-1",            25,          -10.,           30.,            0.,NA,NA,"",       1.21327,      -1.14953,  -388.084E-03,   7.82369E-03
C:/temp/dataset/6/15_14.odb,Step-1,Increment      1: Step Time =    1.000,"PART-1-1",            26,          -15.,           30.,            0.,NA,NA,"",       1.35068,      -1.16023,  -691.525E-03,   13.9192E-03
C:/temp/dataset/6/15_14.odb,Step-1,Increment      1: Step Time =    1.000,"PART-1-1",            27,          -15.,          22.5,            0.,NA,NA,"",   950.580E-03,  -759.084E-03,  -572.185E-03,   17.2063E-03
C:/temp/dataset/6/15_14.odb,Step-1,Increment      1: Step Time =    1.000,"PART-1-1",            28,          -15.,           15.,            0.,NA,NA,"",   641.232E-03,  -455.227E-03,  -451.605E-03,   16.6334E-03
C:/temp/dataset/6/15_14.odb,Step-1,Increment      1: Step Time =    1.000,"PART-1-1",            29,          -15.,           7.5,            0.,NA,NA,"",   421.021E-03,  -248.853E-03,  -339.604E-03,   15.6358E-03
C:/temp/dataset/6/15_14.odb,Step-1,Increment      1: Step Time =    1.000,"PART-1-1",            30,          -15.,            0.,            0.,NA,NA,"",   274.415E-03,  -131.091E-03,  -241.078E-03,   12.9765E-03
C:/temp/dataset/6/15_14.odb,Step-1,Increment      1: Step Time =    1.000,"PART-1-1",            31,          -15.,          -7.5,            0.,NA,NA,"",   179.107E-03,  -73.4809E-03,  -163.339E-03,   10.2394E-03
C:/temp/dataset/6/15_14.odb,Step-1,Increment      1: Step Time =    1.000,"PART-1-1",            32,          -15.,          -15.,            0.,NA,NA,"",   111.788E-03,  -46.5519E-03,  -101.634E-03,   8.10507E-03
C:/temp/dataset/6/15_14.odb,Step-1,Increment      1: Step Time =    1.000,"PART-1-1",            33,          -15.,         -22.5,            0.,NA,NA,"",   58.8655E-03,  -28.6055E-03,  -51.4478E-03,   7.19245E-03
C:/temp/dataset/6/15_14.odb,Step-1,Increment      1: Step Time =    1.000,"PART-1-1",            34,           2.5,           -5.,            0.,NA,NA,"",   78.8362E-03,  -63.0304E-03,  -47.3532E-03,   1.22680E-03
C:/temp/dataset/6/15_14.odb,Step-1,Increment      1: Step Time =    1.000,"PART-1-1",            35,            5.,      -7.51250,            0.,NA,NA,"",   58.0495E-03,  -53.4422E-03,  -22.6643E-03,   1.34897E-03
C:/temp/dataset/6/15_14.odb,Step-1,Increment      1: Step Time =    1.000,"PART-1-1",            36,            5.,      -12.5375,            0.,NA,NA,"",   33.4145E-03,  -28.8967E-03,  -16.7783E-03,   1.44924E-03
C:/temp/dataset/6/15_14.odb,Step-1,Increment      1: Step Time =    1.000,"PART-1-1",            37,            5.,      -17.5250,            0.,NA,NA,"",   14.4132E-03,  -10.5542E-03,  -9.81576E-03,   1.76101E-03
C:/temp/dataset/6/15_14.odb,Step-1,Increment      1: Step Time =    1.000,"PART-1-1",            38,           2.5,          -20.,            0.,NA,NA,"",   2.85515E-03,  -2.30961E-03,  -1.67855E-03,   771.180E-06
C:/temp/dataset/6/15_14.odb,Step-1,Increment      1: Step Time =    1.000,"PART-1-1",            39,          -2.5,          -20.,            0.,NA,NA,"",   12.4933E-03,  -7.68371E-03,  -9.85100E-03,   2.07257E-03
C:/temp/dataset/6/15_14.odb,Step-1,Increment      1: Step Time =    1.000,"PART-1-1",            40,           -5.,      -17.4875,            0.,NA,NA,"",   53.9123E-03,  -11.0746E-03,  -52.7626E-03,   7.38602E-03
C:/temp/dataset/6/15_14.odb,Step-1,Increment      1: Step Time =    1.000,"PART-1-1",            41,           -5.,      -12.4625,            0.,NA,NA,"",   82.3557E-03,  -21.8801E-03,  -79.3959E-03,   5.25562E-03
C:/temp/dataset/6/15_14.odb,Step-1,Increment      1: Step Time =    1.000,"PART-1-1",            42,           -5.,      -7.47500,            0.,NA,NA,"",   108.359E-03,  -42.5768E-03,  -99.6437E-03,   3.89945E-03
C:/temp/dataset/6/15_14.odb,Step-1,Increment      1: Step Time =    1.000,"PART-1-1",            43,          -2.5,           -5.,            0.,NA,NA,"",   108.248E-03,  -58.7250E-03,  -90.9344E-03,   946.302E-06
C:/temp/dataset/6/15_14.odb,Step-1,Increment      1: Step Time =    1.000,"PART-1-1",            44,          12.5,          -30.,            0.,NA,NA,"",            0.,  -189.030E-42,   2.17414E-39,   661.629E-06
C:/temp/dataset/6/15_14.odb,Step-1,Increment      1: Step Time =    1.000,"PART-1-1",            45,           10.,          -30.,            0.,NA,NA,"",            0.,   1.27509E-39,   1.54567E-39,   579.507E-06
C:/temp/dataset/6/15_14.odb,Step-1,Increment      1: Step Time =    1.000,"PART-1-1",            46,           7.5,          -30.,            0.,NA,NA,"",            0.,   929.052E-42,   412.890E-42,   571.790E-06
C:/temp/dataset/6/15_14.odb,Step-1,Increment      1: Step Time =    1.000,"PART-1-1",            47,            5.,          -30.,            0.,NA,NA,"",            0.,   1.66394E-39,  -2.04955E-39,   684.367E-06
C:/temp/dataset/6/15_14.odb,Step-1,Increment      1: Step Time =    1.000,"PART-1-1",            48,           2.5,          -30.,            0.,NA,NA,"",            0.,   2.64120E-39,  -3.54672E-39,   987.261E-06
C:/temp/dataset/6/15_14.odb,Step-1,Increment      1: Step Time =    1.000,"PART-1-1",            49,            0.,          -30.,            0.,NA,NA,"",            0.,   235.110E-42,  -1.63876E-39,   1.56128E-03
C:/temp/dataset/6/15_14.odb,Step-1,Increment      1: Step Time =    1.000,"PART-1-1",            50,          -2.5,          -30.,            0.,NA,NA,"",            0.,   5.64457E-39,  -9.05594E-39,   2.35114E-03
C:/temp/dataset/6/15_14.odb,Step-1,Increment      1: Step Time =    1.000,"PART-1-1",            51,           -5.,          -30.,            0.,NA,NA,"",            0.,   6.82876E-39,  -13.2030E-39,   3.18576E-03
C:/temp/dataset/6/15_14.odb,Step-1,Increment      1: Step Time =    1.000,"PART-1-1",            52,          -7.5,          -30.,            0.,NA,NA,"",            0.,   7.12419E-39,  -17.2740E-39,   3.99914E-03
C:/temp/dataset/6/15_14.odb,Step-1,Increment      1: Step Time =    1.000,"PART-1-1",            53,          -10.,          -30.,            0.,NA,NA,"",            0.,  -8.92419E-39,  -18.5041E-39,   4.89090E-03
C:/temp/dataset/6/15_14.odb,Step-1,Increment      1: Step Time =    1.000,"PART-1-1",            54,         -12.5,          -30.,            0.,NA,NA,"",            0.,  -1.65585E-39,  -19.3097E-39,   5.36842E-03
C:/temp/dataset/6/15_14.odb,Step-1,Increment      1: Step Time =    1.000,"PART-1-1",            55,           15.,      -23.4375,            0.,NA,NA,"",   7.32847E-03,  -1.82895E-03,   7.09658E-03,   1.58652E-03
C:/temp/dataset/6/15_14.odb,Step-1,Increment      1: Step Time =    1.000,"PART-1-1",            56,           15.,       -25.625,            0.,NA,NA,"",   4.25757E-03,  -685.384E-06,   4.20204E-03,   1.34881E-03
C:/temp/dataset/6/15_14.odb,Step-1,Increment      1: Step Time =    1.000,"PART-1-1",            57,           15.,      -27.8125,            0.,NA,NA,"",   1.86150E-03,  -419.606E-06,   1.81359E-03,   1.12069E-03
C:/temp/dataset/6/15_14.odb,Step-1,Increment      1: Step Time =    1.000,"PART-1-1",            58,           15.,      -14.6875,            0.,NA,NA,"",   29.7845E-03,  -20.8800E-03,   21.2401E-03,   1.78594E-03
C:/temp/dataset/6/15_14.odb,Step-1,Increment      1: Step Time =    1.000,"PART-1-1",            59,           15.,       -16.875,            0.,NA,NA,"",   22.3359E-03,  -13.6753E-03,   17.6601E-03,   1.85864E-03
C:/temp/dataset/6/15_14.odb,Step-1,Increment      1: Step Time =    1.000,"PART-1-1",            60,           15.,      -19.0625,            0.,NA,NA,"",   16.1750E-03,  -8.11462E-03,   13.9923E-03,   1.86101E-03
C:/temp/dataset/6/15_14.odb,Step-1,Increment      1: Step Time =    1.000,"PART-1-1",            61,           15.,       -5.9375,            0.,NA,NA,"",   72.3523E-03,  -64.1117E-03,   33.5343E-03,   1.30126E-03
C:/temp/dataset/6/15_14.odb,Step-1,Increment      1: Step Time =    1.000,"PART-1-1",            62,           15.,        -8.125,            0.,NA,NA,"",   59.8364E-03,  -51.2848E-03,   30.8262E-03,   1.47275E-03
C:/temp/dataset/6/15_14.odb,Step-1,Increment      1: Step Time =    1.000,"PART-1-1",            63,           15.,      -10.3125,            0.,NA,NA,"",   48.5483E-03,  -39.7726E-03,   27.8403E-03,   1.58869E-03
C:/temp/dataset/6/15_14.odb,Step-1,Increment      1: Step Time =    1.000,"PART-1-1",            64,           15.,        2.8125,            0.,NA,NA,"",   129.829E-03,  -123.967E-03,   38.5729E-03,   48.5332E-06
C:/temp/dataset/6/15_14.odb,Step-1,Increment      1: Step Time =    1.000,"PART-1-1",            65,           15.,      625.E-03,            0.,NA,NA,"",   115.138E-03,  -108.567E-03,   38.3400E-03,   306.894E-06
C:/temp/dataset/6/15_14.odb,Step-1,Increment      1: Step Time =    1.000,"PART-1-1",            66,           15.,       -1.5625,            0.,NA,NA,"",   100.371E-03,  -93.1230E-03,   37.4488E-03,   676.197E-06
C:/temp/dataset/6/15_14.odb,Step-1,Increment      1: Step Time =    1.000,"PART-1-1",            67,          12.5,            5.,            0.,NA,NA,"",   140.625E-03,  -138.964E-03,   21.5517E-03,   63.9393E-06
C:/temp/dataset/6/15_14.odb,Step-1,Increment      1: Step Time =    1.000,"PART-1-1",            68,           7.5,            5.,            0.,NA,NA,"",   141.202E-03,  -140.719E-03,  -11.6727E-03,   842.808E-06
C:/temp/dataset/6/15_14.odb,Step-1,Increment      1: Step Time =    1.000,"PART-1-1",            69,           2.5,            5.,            0.,NA,NA,"",   153.855E-03,  -146.121E-03,  -48.1683E-03,   1.57781E-03
C:/temp/dataset/6/15_14.odb,Step-1,Increment      1: Step Time =    1.000,"PART-1-1",            70,          -2.5,            5.,            0.,NA,NA,"",   180.083E-03,  -155.042E-03,  -91.6070E-03,   2.90323E-03
C:/temp/dataset/6/15_14.odb,Step-1,Increment      1: Step Time =    1.000,"PART-1-1",            71,           -5.,       9.16667,            0.,NA,NA,"",   281.399E-03,  -258.080E-03,  -112.162E-03,   1.84985E-03
C:/temp/dataset/6/15_14.odb,Step-1,Increment      1: Step Time =    1.000,"PART-1-1",            72,           -5.,       7.08333,            0.,NA,NA,"",   238.748E-03,  -209.468E-03,  -114.558E-03,   2.04934E-03
C:/temp/dataset/6/15_14.odb,Step-1,Increment      1: Step Time =    1.000,"PART-1-1",            73,           -5.,       15.4167,            0.,NA,NA,"",   456.149E-03,  -444.629E-03,  -101.867E-03,   2.74416E-03
C:/temp/dataset/6/15_14.odb,Step-1,Increment      1: Step Time =    1.000,"PART-1-1",            74,           -5.,       13.3333,            0.,NA,NA,"",   389.680E-03,  -375.093E-03,  -105.622E-03,   2.48827E-03
C:/temp/dataset/6/15_14.odb,Step-1,Increment      1: Step Time =    1.000,"PART-1-1",            75,           -5.,       21.6667,            0.,NA,NA,"",   705.740E-03,  -699.970E-03,  -90.0618E-03,   3.28596E-03
C:/temp/dataset/6/15_14.odb,Step-1,Increment      1: Step Time =    1.000,"PART-1-1",            76,           -5.,       19.5833,            0.,NA,NA,"",   614.148E-03,  -606.919E-03,  -93.9536E-03,   3.13640E-03
C:/temp/dataset/6/15_14.odb,Step-1,Increment      1: Step Time =    1.000,"PART-1-1",            77,           -5.,       27.9167,            0.,NA,NA,"",       1.03105,      -1.02776,  -82.2989E-03,   1.33977E-03
C:/temp/dataset/6/15_14.odb,Step-1,Increment      1: Step Time =    1.000,"PART-1-1",            78,           -5.,       25.8333,            0.,NA,NA,"",   914.549E-03,  -910.744E-03,  -83.3317E-03,   2.99475E-03
C:/temp/dataset/6/15_14.odb,Step-1,Increment      1: Step Time =    1.000,"PART-1-1",            79,          -7.5,           30.,            0.,NA,NA,"",       1.16655,      -1.14418,  -227.364E-03,   3.10558E-03
C:/temp/dataset/6/15_14.odb,Step-1,Increment      1: Step Time =    1.000,"PART-1-1",            80,         -12.5,           30.,            0.,NA,NA,"",       1.27372,      -1.14968,  -548.280E-03,   14.3149E-03
C:/temp/dataset/6/15_14.odb,Step-1,Increment      1: Step Time =    1.000,"PART-1-1",            81,          -15.,           25.,            0.,NA,NA,"",       1.07562,  -883.235E-03,  -613.878E-03,   17.2224E-03
C:/temp/dataset/6/15_14.odb,Step-1,Increment      1: Step Time =    1.000,"PART-1-1",            82,          -15.,          27.5,            0.,NA,NA,"",       1.21113,      -1.01889,  -654.743E-03,   15.5486E-03
C:/temp/dataset/6/15_14.odb,Step-1,Increment      1: Step Time =    1.000,"PART-1-1",            83,          -15.,          17.5,            0.,NA,NA,"",   733.727E-03,  -545.336E-03,  -490.881E-03,   16.8701E-03
C:/temp/dataset/6/15_14.odb,Step-1,Increment      1: Step Time =    1.000,"PART-1-1",            84,          -15.,           20.,            0.,NA,NA,"",   836.696E-03,  -646.535E-03,  -531.086E-03,   17.0757E-03
C:/temp/dataset/6/15_14.odb,Step-1,Increment      1: Step Time =    1.000,"PART-1-1",            85,          -15.,           10.,            0.,NA,NA,"",   485.478E-03,  -307.214E-03,  -375.910E-03,   16.0525E-03
C:/temp/dataset/6/15_14.odb,Step-1,Increment      1: Step Time =    1.000,"PART-1-1",            86,          -15.,          12.5,            0.,NA,NA,"",   558.679E-03,  -375.936E-03,  -413.272E-03,   16.3615E-03
C:/temp/dataset/6/15_14.odb,Step-1,Increment      1: Step Time =    1.000,"PART-1-1",            87,          -15.,           2.5,            0.,NA,NA,"",   316.160E-03,  -161.758E-03,  -271.646E-03,   14.0540E-03
C:/temp/dataset/6/15_14.odb,Step-1,Increment      1: Step Time =    1.000,"PART-1-1",            88,          -15.,            5.,            0.,NA,NA,"",   364.765E-03,  -200.585E-03,  -304.662E-03,   14.9861E-03
C:/temp/dataset/6/15_14.odb,Step-1,Increment      1: Step Time =    1.000,"PART-1-1",            89,          -15.,           -5.,            0.,NA,NA,"",   206.960E-03,  -88.1695E-03,  -187.239E-03,   11.0298E-03
C:/temp/dataset/6/15_14.odb,Step-1,Increment      1: Step Time =    1.000,"PART-1-1",            90,          -15.,          -2.5,            0.,NA,NA,"",   238.396E-03,  -107.035E-03,  -213.017E-03,   11.9299E-03
C:/temp/dataset/6/15_14.odb,Step-1,Increment      1: Step Time =    1.000,"PART-1-1",            91,          -15.,         -12.5,            0.,NA,NA,"",   131.918E-03,  -53.4541E-03,  -120.603E-03,   8.78643E-03
C:/temp/dataset/6/15_14.odb,Step-1,Increment      1: Step Time =    1.000,"PART-1-1",            92,          -15.,          -10.,            0.,NA,NA,"",   154.260E-03,  -62.1577E-03,  -141.182E-03,   9.51690E-03
C:/temp/dataset/6/15_14.odb,Step-1,Increment      1: Step Time =    1.000,"PART-1-1",            93,          -15.,          -20.,            0.,NA,NA,"",   75.9353E-03,  -34.6063E-03,  -67.5912E-03,   7.24130E-03
C:/temp/dataset/6/15_14.odb,Step-1,Increment      1: Step Time =    1.000,"PART-1-1",            94,          -15.,         -17.5,            0.,NA,NA,"",   93.3632E-03,  -40.5216E-03,  -84.1112E-03,   7.55096E-03
C:/temp/dataset/6/15_14.odb,Step-1,Increment      1: Step Time =    1.000,"PART-1-1",            95,          -15.,         -27.5,            0.,NA,NA,"",   24.7579E-03,  -15.0989E-03,  -19.6208E-03,   7.79387E-03
C:/temp/dataset/6/15_14.odb,Step-1,Increment      1: Step Time =    1.000,"PART-1-1",            96,          -15.,          -25.,            0.,NA,NA,"",   41.9111E-03,  -22.4236E-03,  -35.4079E-03,   7.01361E-03
C:/temp/dataset/6/15_14.odb,Step-1,Increment      1: Step Time =    1.000,"PART-1-1",            97,       13.0047,      -3.80353,            0.,NA,NA,"",   80.3554E-03,  -76.9776E-03,   23.0531E-03,   781.694E-06
C:/temp/dataset/6/15_14.odb,Step-1,Increment      1: Step Time =    1.000,"PART-1-1",            98,       6.97971,      -7.55833,            0.,NA,NA,"",   53.9784E-03,  -52.6559E-03,  -11.8753E-03,   758.037E-06
C:/temp/dataset/6/15_14.odb,Step-1,Increment      1: Step Time =    1.000,"PART-1-1",            99,       6.96639,      -10.0829,            0.,NA,NA,"",   40.7049E-03,  -39.3773E-03,  -10.3109E-03,   823.344E-06
C:/temp/dataset/6/15_14.odb,Step-1,Increment      1: Step Time =    1.000,"PART-1-1",           100,       12.9900,      -12.5465,            0.,NA,NA,"",   32.4421E-03,  -28.1648E-03,   16.1007E-03,   1.04421E-03
C:/temp/dataset/6/15_14.odb,Step-1,Increment      1: Step Time =    1.000,"PART-1-1",           101,       6.90028,      -17.1420,            0.,NA,NA,"",   11.8371E-03,  -10.7783E-03,  -4.89342E-03,   1.13692E-03
C:/temp/dataset/6/15_14.odb,Step-1,Increment      1: Step Time =    1.000,"PART-1-1",           102,       7.03871,      -19.0570,            0.,NA,NA,"",   6.13071E-03,  -5.33486E-03,  -3.02074E-03,   745.359E-06
C:/temp/dataset/6/15_14.odb,Step-1,Increment      1: Step Time =    1.000,"PART-1-1",           103,       5.31709,      -21.2647,            0.,NA,NA,"",   3.56950E-03,  -1.87964E-03,  -3.03452E-03,   1.38080E-03
C:/temp/dataset/6/15_14.odb,Step-1,Increment      1: Step Time =    1.000,"PART-1-1",           104,      -4.83361,      -22.6144,            0.,NA,NA,"",   19.5515E-03,  -280.287E-06,  -19.5494E-03,   4.42018E-03
C:/temp/dataset/6/15_14.odb,Step-1,Increment      1: Step Time =    1.000,"PART-1-1",           105,      -7.46484,      -17.6587,            0.,NA,NA,"",   61.2576E-03,  -17.5037E-03,  -58.7036E-03,   6.79941E-03
C:/temp/dataset/6/15_14.odb,Step-1,Increment      1: Step Time =    1.000,"PART-1-1",           106,      -12.5283,      -27.3245,            0.,NA,NA,"",   17.3932E-03,  -8.68018E-03,  -15.0724E-03,   7.33147E-03
C:/temp/dataset/6/15_14.odb,Step-1,Increment      1: Step Time =    1.000,"PART-1-1",           107,      -12.4870,      -17.6221,            0.,NA,NA,"",   82.6766E-03,  -31.8907E-03,  -76.2785E-03,   7.26582E-03
C:/temp/dataset/6/15_14.odb,Step-1,Increment      1: Step Time =    1.000,"PART-1-1",           108,      -7.32043,      -12.6401,            0.,NA,NA,"",   91.1562E-03,  -27.3068E-03,  -86.9701E-03,   6.20847E-03
C:/temp/dataset/6/15_14.odb,Step-1,Increment      1: Step Time =    1.000,"PART-1-1",           109,      -7.14644,      -8.03697,            0.,NA,NA,"",   118.242E-03,  -43.9118E-03,  -109.786E-03,   5.40733E-03
C:/temp/dataset/6/15_14.odb,Step-1,Increment      1: Step Time =    1.000,"PART-1-1",           110,      -12.6601,       4.88622,            0.,NA,NA,"",   319.547E-03,  -185.147E-03,  -260.444E-03,   11.2249E-03
C:/temp/dataset/6/15_14.odb,Step-1,Increment      1: Step Time =    1.000,"PART-1-1",           111,      -13.0978,       12.5399,            0.,NA,NA,"",   510.080E-03,  -365.479E-03,  -355.818E-03,   12.7302E-03
C:/temp/dataset/6/15_14.odb,Step-1,Increment      1: Step Time =    1.000,"PART-1-1",           112,      -6.45576,       21.8628,            0.,NA,NA,"",   723.856E-03,  -706.414E-03,  -157.944E-03,   301.322E-06
C:/temp/dataset/6/15_14.odb,Step-1,Increment      1: Step Time =    1.000,"PART-1-1",           113,      -7.28884,       25.7044,            0.,NA,NA,"",   922.538E-03,  -899.202E-03,  -206.183E-03,   1.01387E-03
C:/temp/dataset/6/15_14.odb,Step-1,Increment      1: Step Time =    1.000,"PART-1-1",           114,      -9.90518,       27.6474,            0.,NA,NA,"",       1.06917,      -1.00560,  -363.154E-03,   7.46344E-03
C:/temp/dataset/6/15_14.odb,Step-1,Increment      1: Step Time =    1.000,"PART-1-1",           115,      -3.01211,      -3.13168,            0.,NA,NA,"",   120.709E-03,  -74.0371E-03,  -95.3368E-03,   1.18549E-03
C:/temp/dataset/6/15_14.odb,Step-1,Increment      1: Step Time =    1.000,"PART-1-1",           116,      -2.19169,       3.00836,            0.,NA,NA,"",   159.734E-03,  -133.847E-03,  -87.1775E-03,   1.57215E-03
C:/temp/dataset/6/15_14.odb,Step-1,Increment      1: Step Time =    1.000,"PART-1-1",           117,       1.85193,      -2.77696,            0.,NA,NA,"",   96.2141E-03,  -80.9183E-03,  -52.0517E-03,   809.975E-06
C:/temp/dataset/6/15_14.odb,Step-1,Increment      1: Step Time =    1.000,"PART-1-1",           118,       2.83229,       2.22691,            0.,NA,NA,"",   130.752E-03,  -123.088E-03,  -44.1088E-03,   788.271E-06
C:/temp/dataset/6/15_14.odb,Step-1,Increment      1: Step Time =    1.000,"PART-1-1",           119,       7.74921,       3.07964,            0.,NA,NA,"",   127.300E-03,  -126.956E-03,  -9.34816E-03,   717.995E-06
C:/temp/dataset/6/15_14.odb,Step-1,Increment      1: Step Time =    1.000,"PART-1-1",           120,      -2.47342,      -22.6017,            0.,NA,NA,"",   8.05117E-03,   509.303E-06,  -8.03505E-03,   1.81300E-03
C:/temp/dataset/6/15_14.odb,Step-1,Increment      1: Step Time =    1.000,"PART-1-1",           121,      -7.48266,       20.3798,            0.,NA,NA,"",   669.636E-03,  -638.359E-03,  -202.264E-03,   1.87589E-03
C:/temp/dataset/6/15_14.odb,Step-1,Increment      1: Step Time =    1.000,"PART-1-1",           122,      -7.10993,       13.1351,            0.,NA,NA,"",   405.740E-03,  -367.366E-03,  -172.242E-03,   1.55508E-03
C:/temp/dataset/6/15_14.odb,Step-1,Increment      1: Step Time =    1.000,"PART-1-1",           123,      -6.64156,       6.82435,            0.,NA,NA,"",   253.131E-03,  -203.869E-03,  -150.042E-03,   1.29861E-03
C:/temp/dataset/6/15_14.odb,Step-1,Increment      1: Step Time =    1.000,"PART-1-1",           124,      -12.9641,      -2.37512,            0.,NA,NA,"",   218.250E-03,  -98.1020E-03,  -194.959E-03,   10.0128E-03
C:/temp/dataset/6/15_14.odb,Step-1,Increment      1: Step Time =    1.000,"PART-1-1",           125,      -12.1317,      -9.84573,            0.,NA,NA,"",   138.502E-03,  -51.3505E-03,  -128.631E-03,   8.21049E-03
C:/temp/dataset/6/15_14.odb,Step-1,Increment      1: Step Time =    1.000,"PART-1-1",           126,       4.04132,      -2.67712,            0.,NA,NA,"",   89.7430E-03,  -82.9743E-03,  -34.1917E-03,   406.767E-06
C:/temp/dataset/6/15_14.odb,Step-1,Increment      1: Step Time =    1.000,"PART-1-1",           127,       6.95362,      -12.5367,            0.,NA,NA,"",   29.1898E-03,  -27.9196E-03,  -8.51735E-03,   863.903E-06
C:/temp/dataset/6/15_14.odb,Step-1,Increment      1: Step Time =    1.000,"PART-1-1",           128,       6.92458,      -14.9216,            0.,NA,NA,"",   19.4921E-03,  -18.3150E-03,  -6.67090E-03,   972.378E-06
C:/temp/dataset/6/15_14.odb,Step-1,Increment      1: Step Time =    1.000,"PART-1-1",           129,       12.9089,      -21.3671,            0.,NA,NA,"",   7.57790E-03,  -2.69514E-03,   7.08242E-03,   1.11085E-03
C:/temp/dataset/6/15_14.odb,Step-1,Increment      1: Step Time =    1.000,"PART-1-1",           130,   283.131E-03,      -22.8786,            0.,NA,NA,"",   2.32329E-03,   378.480E-06,  -2.29225E-03,   661.276E-06
C:/temp/dataset/6/15_14.odb,Step-1,Increment      1: Step Time =    1.000,"PART-1-1",           131,      -12.9776,      -22.4214,            0.,NA,NA,"",   52.0316E-03,  -22.2900E-03,  -47.0153E-03,   7.08025E-03
C:/temp/dataset/6/15_14.odb,Step-1,Increment      1: Step Time =    1.000,"PART-1-1",           132,      -7.42030,      -15.1083,            0.,NA,NA,"",   76.3515E-03,  -21.8515E-03,  -73.1578E-03,   6.73605E-03
C:/temp/dataset/6/15_14.odb,Step-1,Increment      1: Step Time =    1.000,"PART-1-1",           133,      -7.18486,      -10.2642,            0.,NA,NA,"",   104.867E-03,  -34.5343E-03,  -99.0170E-03,   5.81107E-03
C:/temp/dataset/6/15_14.odb,Step-1,Increment      1: Step Time =    1.000,"PART-1-1",           134,      -7.33974,      -5.93881,            0.,NA,NA,"",   133.138E-03,  -55.8729E-03,  -120.847E-03,   4.93278E-03
C:/temp/dataset/6/15_14.odb,Step-1,Increment      1: Step Time =    1.000,"PART-1-1",           135,  -533.729E-03,      -2.94296,            0.,NA,NA,"",   106.568E-03,  -77.7869E-03,  -72.8411E-03,   915.256E-06
C:/temp/dataset/6/15_14.odb,Step-1,Increment      1: Step Time =    1.000,"PART-1-1",           136,       10.2172,      -28.0250,            0.,NA,NA,"",   1.18697E-03,   1.05760E-03,   538.873E-06,   499.225E-06
C:/temp/dataset/6/15_14.odb,Step-1,Increment      1: Step Time =    1.000,"PART-1-1",           137,       7.82196,      -28.0777,            0.,NA,NA,"",   1.21076E-03,   1.21070E-03,  -12.0104E-06,   361.662E-06
C:/temp/dataset/6/15_14.odb,Step-1,Increment      1: Step Time =    1.000,"PART-1-1",           138,       5.43540,      -28.0544,            0.,NA,NA,"",   1.36709E-03,   1.31855E-03,  -361.041E-06,   415.712E-06
C:/temp/dataset/6/15_14.odb,Step-1,Increment      1: Step Time =    1.000,"PART-1-1",           139,       2.98405,      -27.8165,            0.,NA,NA,"",   1.90954E-03,   1.79031E-03,  -664.176E-06,   610.825E-06
C:/temp/dataset/6/15_14.odb,Step-1,Increment      1: Step Time =    1.000,"PART-1-1",           140,   324.250E-03,      -27.0908,            0.,NA,NA,"",   3.36460E-03,   2.97402E-03,  -1.57345E-03,   1.02961E-03
C:/temp/dataset/6/15_14.odb,Step-1,Increment      1: Step Time =    1.000,"PART-1-1",           141,      -2.46293,      -27.5198,            0.,NA,NA,"",   4.87468E-03,   3.60697E-03,  -3.27907E-03,   1.96997E-03
C:/temp/dataset/6/15_14.odb,Step-1,Increment      1: Step Time =    1.000,"PART-1-1",           142,      -4.88996,      -27.5861,            0.,NA,NA,"",   6.49739E-03,   3.17870E-03,  -5.66674E-03,   3.14454E-03
C:/temp/dataset/6/15_14.odb,Step-1,Increment      1: Step Time =    1.000,"PART-1-1",           143,      -7.26500,      -27.4866,            0.,NA,NA,"",   8.62055E-03,   1.29862E-03,  -8.52217E-03,   4.39544E-03
C:/temp/dataset/6/15_14.odb,Step-1,Increment      1: Step Time =    1.000,"PART-1-1",           144,      -9.86695,      -26.8928,            0.,NA,NA,"",   14.3115E-03,  -3.25522E-03,  -13.9364E-03,   5.91208E-03
C:/temp/dataset/6/15_14.odb,Step-1,Increment      1: Step Time =    1.000,"PART-1-1",           145,       12.7710,      -23.5898,            0.,NA,NA,"",   4.83157E-03,  -425.952E-06,   4.81276E-03,   1.01770E-03
C:/temp/dataset/6/15_14.odb,Step-1,Increment      1: Step Time =    1.000,"PART-1-1",           146,       12.6989,      -25.7990,            0.,NA,NA,"",   2.93635E-03,   511.532E-06,   2.89145E-03,   942.088E-06
C:/temp/dataset/6/15_14.odb,Step-1,Increment      1: Step Time =    1.000,"PART-1-1",           147,       12.6207,      -27.9366,            0.,NA,NA,"",   1.35733E-03,   516.359E-06,   1.25527E-03,   860.727E-06
C:/temp/dataset/6/15_14.odb,Step-1,Increment      1: Step Time =    1.000,"PART-1-1",           148,       12.9983,      -14.8223,            0.,NA,NA,"",   23.6407E-03,  -19.0745E-03,   13.9660E-03,   1.10809E-03
C:/temp/dataset/6/15_14.odb,Step-1,Increment      1: Step Time =    1.000,"PART-1-1",           149,       13.0558,      -17.0719,            0.,NA,NA,"",   16.7022E-03,  -11.7682E-03,   11.8521E-03,   1.17058E-03
C:/temp/dataset/6/15_14.odb,Step-1,Increment      1: Step Time =    1.000,"PART-1-1",           150,       13.1682,      -19.2108,            0.,NA,NA,"",   11.7894E-03,  -6.51718E-03,   9.82424E-03,   1.22313E-03
C:/temp/dataset/6/15_14.odb,Step-1,Increment      1: Step Time =    1.000,"PART-1-1",           151,       13.0670,      -5.94273,            0.,NA,NA,"",   66.8420E-03,  -63.1124E-03,   22.0155E-03,   871.514E-06
C:/temp/dataset/6/15_14.odb,Step-1,Increment      1: Step Time =    1.000,"PART-1-1",           152,       13.0350,      -8.09399,            0.,NA,NA,"",   54.2605E-03,  -50.3704E-03,   20.1747E-03,   932.711E-06
C:/temp/dataset/6/15_14.odb,Step-1,Increment      1: Step Time =    1.000,"PART-1-1",           153,       12.9982,      -10.2981,            0.,NA,NA,"",   42.7112E-03,  -38.6662E-03,   18.1431E-03,   984.378E-06
C:/temp/dataset/6/15_14.odb,Step-1,Increment      1: Step Time =    1.000,"PART-1-1",           154,       12.5107,   556.281E-03,            0.,NA,NA,"",   109.874E-03,  -107.742E-03,   21.5402E-03,   564.981E-06
C:/temp/dataset/6/15_14.odb,Step-1,Increment      1: Step Time =    1.000,"PART-1-1",           155,       12.7702,      -1.64554,            0.,NA,NA,"",   94.6635E-03,  -91.9213E-03,   22.6196E-03,   684.501E-06
C:/temp/dataset/6/15_14.odb,Step-1,Increment      1: Step Time =    1.000,"PART-1-1",           156,       10.0517,       2.85834,            0.,NA,NA,"",   124.686E-03,  -124.554E-03,   5.71724E-03,   573.578E-06
C:/temp/dataset/6/15_14.odb,Step-1,Increment      1: Step Time =    1.000,"PART-1-1",           157,       5.39286,       2.85476,            0.,NA,NA,"",   129.091E-03,  -126.569E-03,  -25.3929E-03,   843.519E-06
C:/temp/dataset/6/15_14.odb,Step-1,Increment      1: Step Time =    1.000,"PART-1-1",           158,   175.602E-03,       2.90951,            0.,NA,NA,"",   146.593E-03,  -130.951E-03,  -65.8884E-03,   1.14819E-03
C:/temp/dataset/6/15_14.odb,Step-1,Increment      1: Step Time =    1.000,"PART-1-1",           159,      -4.35394,       2.91920,            0.,NA,NA,"",   173.656E-03,  -134.575E-03,  -109.754E-03,   495.946E-06
C:/temp/dataset/6/15_14.odb,Step-1,Increment      1: Step Time =    1.000,"PART-1-1",           160,      -7.05997,       10.9599,            0.,NA,NA,"",   346.676E-03,  -303.902E-03,  -166.816E-03,   1.63533E-03
C:/temp/dataset/6/15_14.odb,Step-1,Increment      1: Step Time =    1.000,"PART-1-1",           161,      -6.93805,       8.84105,            0.,NA,NA,"",   296.347E-03,  -249.454E-03,  -159.981E-03,   1.55426E-03
C:/temp/dataset/6/15_14.odb,Step-1,Increment      1: Step Time =    1.000,"PART-1-1",           162,      -7.28921,       17.6445,            0.,NA,NA,"",   557.508E-03,  -524.997E-03,  -187.600E-03,   1.61300E-03
C:/temp/dataset/6/15_14.odb,Step-1,Increment      1: Step Time =    1.000,"PART-1-1",           163,      -7.17735,       15.3234,            0.,NA,NA,"",   474.309E-03,  -439.388E-03,  -178.627E-03,   1.53036E-03
C:/temp/dataset/6/15_14.odb,Step-1,Increment      1: Step Time =    1.000,"PART-1-1",           164,      -6.93557,       23.5874,            0.,NA,NA,"",   810.466E-03,  -789.420E-03,  -183.496E-03,   639.552E-06
C:/temp/dataset/6/15_14.odb,Step-1,Increment      1: Step Time =    1.000,"PART-1-1",           165,      -13.1925,       19.7530,            0.,NA,NA,"",   769.609E-03,  -625.267E-03,  -448.709E-03,   13.3481E-03
C:/temp/dataset/6/15_14.odb,Step-1,Increment      1: Step Time =    1.000,"PART-1-1",           166,      -7.44963,       27.8335,            0.,NA,NA,"",       1.04126,      -1.01796,  -219.067E-03,   2.07531E-03
C:/temp/dataset/6/15_14.odb,Step-1,Increment      1: Step Time =    1.000,"PART-1-1",           167,      -13.0424,       22.0734,            0.,NA,NA,"",   867.288E-03,  -727.719E-03,  -471.820E-03,   13.1517E-03
C:/temp/dataset/6/15_14.odb,Step-1,Increment      1: Step Time =    1.000,"PART-1-1",           168,      -13.1316,       14.9813,            0.,NA,NA,"",   587.960E-03,  -443.203E-03,  -386.353E-03,   12.9673E-03
C:/temp/dataset/6/15_14.odb,Step-1,Increment      1: Step Time =    1.000,"PART-1-1",           169,      -13.1727,       17.3972,            0.,NA,NA,"",   675.196E-03,  -530.366E-03,  -417.853E-03,   13.1951E-03
C:/temp/dataset/6/15_14.odb,Step-1,Increment      1: Step Time =    1.000,"PART-1-1",           170,      -12.8574,       7.53984,            0.,NA,NA,"",   376.410E-03,  -236.887E-03,  -292.522E-03,   11.8768E-03
C:/temp/dataset/6/15_14.odb,Step-1,Increment      1: Step Time =    1.000,"PART-1-1",           171,      -13.0166,       10.0884,            0.,NA,NA,"",   440.455E-03,  -297.389E-03,  -324.901E-03,   12.3833E-03
C:/temp/dataset/6/15_14.odb,Step-1,Increment      1: Step Time =    1.000,"PART-1-1",           172,      -12.8045,  -118.323E-03,            0.,NA,NA,"",   244.390E-03,  -118.466E-03,  -213.757E-03,   10.3728E-03
C:/temp/dataset/6/15_14.odb,Step-1,Increment      1: Step Time =    1.000,"PART-1-1",           173,      -12.7039,       2.28772,            0.,NA,NA,"",   277.010E-03,  -146.270E-03,  -235.244E-03,   10.8161E-03
C:/temp/dataset/6/15_14.odb,Step-1,Increment      1: Step Time =    1.000,"PART-1-1",           174,      -12.8488,      -7.31355,            0.,NA,NA,"",   165.603E-03,  -65.1644E-03,  -152.243E-03,   8.94657E-03
C:/temp/dataset/6/15_14.odb,Step-1,Increment      1: Step Time =    1.000,"PART-1-1",           175,      -12.6051,      -4.81291,            0.,NA,NA,"",   187.966E-03,  -78.5694E-03,  -170.757E-03,   9.20796E-03
C:/temp/dataset/6/15_14.odb,Step-1,Increment      1: Step Time =    1.000,"PART-1-1",           176,      -12.4260,      -15.0682,            0.,NA,NA,"",   100.215E-03,  -37.2971E-03,  -93.0155E-03,   7.61580E-03
C:/temp/dataset/6/15_14.odb,Step-1,Increment      1: Step Time =    1.000,"PART-1-1",           177,      -12.3344,      -12.5112,            0.,NA,NA,"",   118.622E-03,  -43.3969E-03,  -110.398E-03,   7.96413E-03
C:/temp/dataset/6/15_14.odb,Step-1,Increment      1: Step Time =    1.000,"PART-1-1",           178,      -12.6598,      -20.1148,            0.,NA,NA,"",   66.4636E-03,  -26.8105E-03,  -60.8161E-03,   7.07283E-03
C:/temp/dataset/6/15_14.odb,Step-1,Increment      1: Step Time =    1.000,"PART-1-1",           179,      -8.70618,       22.9331,            0.,NA,NA,"",   803.206E-03,  -756.740E-03,  -269.230E-03,   4.20289E-03
C:/temp/dataset/6/15_14.odb,Step-1,Increment      1: Step Time =    1.000,"PART-1-1",           180,      -9.21222,       15.1634,            0.,NA,NA,"",   502.351E-03,  -435.698E-03,  -250.048E-03,   5.42683E-03
C:/temp/dataset/6/15_14.odb,Step-1,Increment      1: Step Time =    1.000,"PART-1-1",           181,      -9.55138,       19.8926,            0.,NA,NA,"",   683.954E-03,  -618.837E-03,  -291.262E-03,   6.02784E-03
C:/temp/dataset/6/15_14.odb,Step-1,Increment      1: Step Time =    1.000,"PART-1-1",           182,      -8.92203,       8.32966,            0.,NA,NA,"",   316.589E-03,  -239.927E-03,  -206.551E-03,   5.15597E-03
C:/temp/dataset/6/15_14.odb,Step-1,Increment      1: Step Time =    1.000,"PART-1-1",           183,      -9.17670,       12.8809,            0.,NA,NA,"",   432.208E-03,  -361.694E-03,  -236.604E-03,   5.40124E-03
C:/temp/dataset/6/15_14.odb,Step-1,Increment      1: Step Time =    1.000,"PART-1-1",           184,      -9.09923,       10.6117,            0.,NA,NA,"",   370.986E-03,  -296.849E-03,  -222.511E-03,   5.31757E-03
C:/temp/dataset/6/15_14.odb,Step-1,Increment      1: Step Time =    1.000,"PART-1-1",           185,      -9.30530,       17.5014,            0.,NA,NA,"",   585.336E-03,  -521.093E-03,  -266.609E-03,   5.57063E-03
C:/temp/dataset/6/15_14.odb,Step-1,Increment      1: Step Time =    1.000,"PART-1-1",           186,      -8.37864,       6.17865,            0.,NA,NA,"",   267.047E-03,  -193.060E-03,  -184.505E-03,   4.87505E-03
C:/temp/dataset/6/15_14.odb,Step-1,Increment      1: Step Time =    1.000,"PART-1-1",           187,       10.9988,      -10.2527,            0.,NA,NA,"",   39.2367E-03,  -38.2513E-03,   8.73829E-03,   432.913E-06
C:/temp/dataset/6/15_14.odb,Step-1,Increment      1: Step Time =    1.000,"PART-1-1",           188,       10.8643,      -17.5211,            0.,NA,NA,"",   11.1178E-03,  -9.60478E-03,   5.59938E-03,   503.500E-06
C:/temp/dataset/6/15_14.odb,Step-1,Increment      1: Step Time =    1.000,"PART-1-1",           189,       11.0508,      -8.01555,            0.,NA,NA,"",   51.0865E-03,  -50.1451E-03,   9.76185E-03,   491.120E-06
C:/temp/dataset/6/15_14.odb,Step-1,Increment      1: Step Time =    1.000,"PART-1-1",           190,       10.6332,      -2.00908,            0.,NA,NA,"",   89.3910E-03,  -88.9107E-03,   9.25420E-03,   776.265E-06
C:/temp/dataset/6/15_14.odb,Step-1,Increment      1: Step Time =    1.000,"PART-1-1",           191,       11.1668,      -5.92645,            0.,NA,NA,"",   63.5424E-03,  -62.5507E-03,   11.1825E-03,   609.307E-06
C:/temp/dataset/6/15_14.odb,Step-1,Increment      1: Step Time =    1.000,"PART-1-1",           192,       10.9732,      -14.9280,            0.,NA,NA,"",   19.2678E-03,  -17.9566E-03,   6.98643E-03,   472.308E-06
C:/temp/dataset/6/15_14.odb,Step-1,Increment      1: Step Time =    1.000,"PART-1-1",           193,       10.5476,      -23.6927,            0.,NA,NA,"",   2.35919E-03,   396.989E-06,   2.32555E-03,   542.247E-06
C:/temp/dataset/6/15_14.odb,Step-1,Increment      1: Step Time =    1.000,"PART-1-1",           194,       10.5707,      -21.1850,            0.,NA,NA,"",   3.92261E-03,  -2.00641E-03,   3.37063E-03,   527.822E-06
C:/temp/dataset/6/15_14.odb,Step-1,Increment      1: Step Time =    1.000,"PART-1-1",           195,       10.9760,      -12.5622,            0.,NA,NA,"",   28.5318E-03,  -27.4292E-03,   7.85500E-03,   438.342E-06
C:/temp/dataset/6/15_14.odb,Step-1,Increment      1: Step Time =    1.000,"PART-1-1",           196,       11.6229,      -19.2502,            0.,NA,NA,"",   8.59657E-03,  -5.69457E-03,   6.43995E-03,   766.388E-06
C:/temp/dataset/6/15_14.odb,Step-1,Increment      1: Step Time =    1.000,"PART-1-1",           197,       11.1609,      -3.97100,            0.,NA,NA,"",   76.2167E-03,  -75.2847E-03,   11.8826E-03,   705.242E-06
C:/temp/dataset/6/15_14.odb,Step-1,Increment      1: Step Time =    1.000,"PART-1-1",           198,      -9.55101,       25.2781,            0.,NA,NA,"",   934.878E-03,  -876.065E-03,  -326.354E-03,   5.84374E-03
C:/temp/dataset/6/15_14.odb,Step-1,Increment      1: Step Time =    1.000,"PART-1-1",           199,      -6.13353,       2.97524,            0.,NA,NA,"",   191.140E-03,  -136.452E-03,  -133.849E-03,   2.39650E-03
C:/temp/dataset/6/15_14.odb,Step-1,Increment      1: Step Time =    1.000,"PART-1-1",           200,       8.52809,      -18.5145,            0.,NA,NA,"",   6.60128E-03,  -6.59971E-03,  -143.902E-06,   348.356E-06
C:/temp/dataset/6/15_14.odb,Step-1,Increment      1: Step Time =    1.000,"PART-1-1",           201,      -9.31256,      -6.57829,            0.,NA,NA,"",   143.973E-03,  -56.9968E-03,  -132.210E-03,   6.59431E-03
C:/temp/dataset/6/15_14.odb,Step-1,Increment      1: Step Time =    1.000,"PART-1-1",           202,      -7.82061,      -4.24854,            0.,NA,NA,"",   148.514E-03,  -67.9305E-03,  -132.068E-03,   5.04370E-03
C:/temp/dataset/6/15_14.odb,Step-1,Increment      1: Step Time =    1.000,"PART-1-1",           203,       7.55002,      -20.4955,            0.,NA,NA,"",   2.92733E-03,  -2.50654E-03,  -1.51213E-03,   494.298E-06
C:/temp/dataset/6/15_14.odb,Step-1,Increment      1: Step Time =    1.000,"PART-1-1",           204,      -9.18944,      -8.43706,            0.,NA,NA,"",   129.479E-03,  -47.4305E-03,  -120.478E-03,   6.64211E-03
C:/temp/dataset/6/15_14.odb,Step-1,Increment      1: Step Time =    1.000,"PART-1-1",           205,      -12.3720,       27.4312,            0.,NA,NA,"",       1.12191,      -1.00109,  -506.462E-03,   14.0375E-03
C:/temp/dataset/6/15_14.odb,Step-1,Increment      1: Step Time =    1.000,"PART-1-1",           206,      -10.3791,       22.2070,            0.,NA,NA,"",   802.811E-03,  -724.507E-03,  -345.825E-03,   7.68671E-03
C:/temp/dataset/6/15_14.odb,Step-1,Increment      1: Step Time =    1.000,"PART-1-1",           207,       3.40286,  -884.176E-03,            0.,NA,NA,"",   104.768E-03,  -97.1716E-03,  -39.1672E-03,   294.977E-06
C:/temp/dataset/6/15_14.odb,Step-1,Increment      1: Step Time =    1.000,"PART-1-1",           208,       7.88020,       1.44192,            0.,NA,NA,"",   114.980E-03,  -114.693E-03,  -8.11017E-03,   764.082E-06
C:/temp/dataset/6/15_14.odb,Step-1,Increment      1: Step Time =    1.000,"PART-1-1",           209,      -1.17287,  -897.893E-03,            0.,NA,NA,"",   122.989E-03,  -95.2844E-03,  -77.7634E-03,   750.992E-06
C:/temp/dataset/6/15_14.odb,Step-1,Increment      1: Step Time =    1.000,"PART-1-1",           210,       10.4014,      -25.9274,            0.,NA,NA,"",   1.81739E-03,   1.21947E-03,   1.34752E-03,   531.880E-06
C:/temp/dataset/6/15_14.odb,Step-1,Increment      1: Step Time =    1.000,"PART-1-1",           211,       2.00108,      -24.8239,            0.,NA,NA,"",   2.08108E-03,   1.63789E-03,  -1.28384E-03,   657.068E-06
C:/temp/dataset/6/15_14.odb,Step-1,Increment      1: Step Time =    1.000,"PART-1-1",           212,      -4.80900,      -25.1606,            0.,NA,NA,"",   12.3668E-03,   2.91272E-03,  -12.0189E-03,   3.42670E-03
C:/temp/dataset/6/15_14.odb,Step-1,Increment      1: Step Time =    1.000,"PART-1-1",           213,      -11.5765,       21.3848,            0.,NA,NA,"",   794.998E-03,  -690.017E-03,  -394.839E-03,   10.1350E-03
C:/temp/dataset/6/15_14.odb,Step-1,Increment      1: Step Time =    1.000,"PART-1-1",           214,      -11.0630,       10.3038,            0.,NA,NA,"",   402.377E-03,  -294.286E-03,  -274.415E-03,   8.86296E-03
C:/temp/dataset/6/15_14.odb,Step-1,Increment      1: Step Time =    1.000,"PART-1-1",           215,      -10.2832,  -591.021E-03,            0.,NA,NA,"",   206.157E-03,  -104.111E-03,  -177.936E-03,   7.39862E-03
C:/temp/dataset/6/15_14.odb,Step-1,Increment      1: Step Time =    1.000,"PART-1-1",           216,      -11.1869,      -5.64306,            0.,NA,NA,"",   167.291E-03,  -68.1057E-03,  -152.801E-03,   7.97840E-03
C:/temp/dataset/6/15_14.odb,Step-1,Increment      1: Step Time =    1.000,"PART-1-1",           217,      -9.48237,      -10.3825,            0.,NA,NA,"",   117.670E-03,  -40.5562E-03,  -110.460E-03,   6.94472E-03
C:/temp/dataset/6/15_14.odb,Step-1,Increment      1: Step Time =    1.000,"PART-1-1",           218,      -10.0191,      -20.7277,            0.,NA,NA,"",   52.6011E-03,  -17.5989E-03,  -49.5696E-03,   6.59373E-03
C:/temp/dataset/6/15_14.odb,Step-1,Increment      1: Step Time =    1.000,"PART-1-1",           219,      -12.8377,      -24.8331,            0.,NA,NA,"",   35.0217E-03,  -15.9823E-03,  -31.1622E-03,   7.29136E-03
C:/temp/dataset/6/15_14.odb,Step-1,Increment      1: Step Time =    1.000,"PART-1-1",           220,  -752.185E-03,      -25.0561,            0.,NA,NA,"",   4.55616E-03,   3.15075E-03,  -3.29111E-03,   1.01653E-03
C:/temp/dataset/6/15_14.odb,Step-1,Increment      1: Step Time =    1.000,"PART-1-1",           221,      -11.3411,      -22.5061,            0.,NA,NA,"",   45.7101E-03,  -17.0057E-03,  -42.4290E-03,   6.88448E-03
C:/temp/dataset/6/15_14.odb,Step-1,Increment      1: Step Time =    1.000,"PART-1-1",           222,       5.90860,      -26.1342,            0.,NA,NA,"",   1.63329E-03,   1.51705E-03,  -605.141E-06,   267.192E-06
C:/temp/dataset/6/15_14.odb,Step-1,Increment      1: Step Time =    1.000,"PART-1-1",           223,       3.81352,      -25.8758,            0.,NA,NA,"",   1.89722E-03,   1.66792E-03,  -904.165E-06,   457.072E-06
C:/temp/dataset/6/15_14.odb,Step-1,Increment      1: Step Time =    1.000,"PART-1-1",           224,      -6.87266,      -25.1947,            0.,NA,NA,"",   17.1776E-03,   88.1705E-06,  -17.1774E-03,   4.87244E-03
C:/temp/dataset/6/15_14.odb,Step-1,Increment      1: Step Time =    1.000,"PART-1-1",           225,       9.77381,   336.875E-03,            0.,NA,NA,"",   106.177E-03,  -106.096E-03,   4.13089E-03,   777.301E-06
C:/temp/dataset/6/15_14.odb,Step-1,Increment      1: Step Time =    1.000,"PART-1-1",           226,       4.59800,   29.7464E-03,            0.,NA,NA,"",   108.825E-03,  -104.522E-03,  -30.2975E-03,   501.495E-06
C:/temp/dataset/6/15_14.odb,Step-1,Increment      1: Step Time =    1.000,"PART-1-1",           227,      -11.1551,       12.6912,            0.,NA,NA,"",   467.943E-03,  -361.394E-03,  -297.262E-03,   9.08533E-03
C:/temp/dataset/6/15_14.odb,Step-1,Increment      1: Step Time =    1.000,"PART-1-1",           228,      -11.2689,       17.3859,            0.,NA,NA,"",   624.389E-03,  -521.718E-03,  -343.033E-03,   9.42799E-03
C:/temp/dataset/6/15_14.odb,Step-1,Increment      1: Step Time =    1.000,"PART-1-1",           229,      -11.2102,       15.0558,            0.,NA,NA,"",   541.756E-03,  -437.316E-03,  -319.772E-03,   9.25609E-03
C:/temp/dataset/6/15_14.odb,Step-1,Increment      1: Step Time =    1.000,"PART-1-1",           230,      -10.8139,       7.79620,            0.,NA,NA,"",   340.589E-03,  -233.487E-03,  -247.961E-03,   8.46488E-03
C:/temp/dataset/6/15_14.odb,Step-1,Increment      1: Step Time =    1.000,"PART-1-1",           231,      -10.1648,       4.85487,            0.,NA,NA,"",   274.861E-03,  -174.226E-03,  -212.590E-03,   7.67203E-03
C:/temp/dataset/6/15_14.odb,Step-1,Increment      1: Step Time =    1.000,"PART-1-1",           232,      -10.4473,       2.01195,            0.,NA,NA,"",   238.622E-03,  -133.550E-03,  -197.750E-03,   7.89562E-03
C:/temp/dataset/6/15_14.odb,Step-1,Increment      1: Step Time =    1.000,"PART-1-1",           233,      -10.4810,      -3.59789,            0.,NA,NA,"",   179.037E-03,  -79.2691E-03,  -160.532E-03,   7.49247E-03
C:/temp/dataset/6/15_14.odb,Step-1,Increment      1: Step Time =    1.000,"PART-1-1",           234,      -9.89141,      -15.1395,            0.,NA,NA,"",   87.6455E-03,  -29.0891E-03,  -82.6774E-03,   7.04246E-03
C:/temp/dataset/6/15_14.odb,Step-1,Increment      1: Step Time =    1.000,"PART-1-1",           235,      -9.95744,      -17.7636,            0.,NA,NA,"",   71.1046E-03,  -24.1760E-03,  -66.8684E-03,   6.67597E-03
C:/temp/dataset/6/15_14.odb,Step-1,Increment      1: Step Time =    1.000,"PART-1-1",           236,      -3.63694,      -1.16253,            0.,NA,NA,"",   135.968E-03,  -91.2075E-03,  -100.839E-03,   784.310E-06
C:/temp/dataset/6/15_14.odb,Step-1,Increment      1: Step Time =    1.000,"PART-1-1",           237,      -7.00580,      -22.7773,            0.,NA,NA,"",   29.2747E-03,  -4.34711E-03,  -28.9502E-03,   5.96222E-03
C:/temp/dataset/6/15_14.odb,Step-1,Increment      1: Step Time =    1.000,"PART-1-1",           238,       7.08723,      -4.67483,            0.,NA,NA,"",   70.6299E-03,  -69.5274E-03,  -12.4306E-03,   576.606E-06
C:/temp/dataset/6/15_14.odb,Step-1,Increment      1: Step Time =    1.000,"PART-1-1",           239,       8.96532,      -10.1697,            0.,NA,NA,"",   38.5251E-03,  -38.5171E-03,  -789.769E-06,   291.410E-06
C:/temp/dataset/6/15_14.odb,Step-1,Increment      1: Step Time =    1.000,"PART-1-1",           240,       8.99874,      -7.82238,            0.,NA,NA,"",   50.9175E-03,  -50.9074E-03,  -1.01360E-03,   214.842E-06
C:/temp/dataset/6/15_14.odb,Step-1,Increment      1: Step Time =    1.000,"PART-1-1",           241,       8.96760,      -14.8663,            0.,NA,NA,"",   18.0210E-03,  -18.0192E-03,   252.966E-06,   319.014E-06
C:/temp/dataset/6/15_14.odb,Step-1,Increment      1: Step Time =    1.000,"PART-1-1",           242,      -12.0836,       24.5335,            0.,NA,NA,"",   958.435E-03,  -844.039E-03,  -454.086E-03,   11.4466E-03
C:/temp/dataset/6/15_14.odb,Step-1,Increment      1: Step Time =    1.000,"PART-1-1",           243,       9.21542,      -5.66363,            0.,NA,NA,"",   63.6885E-03,  -63.6882E-03,   191.427E-06,   425.025E-06
C:/temp/dataset/6/15_14.odb,Step-1,Increment      1: Step Time =    1.000,"PART-1-1",           244,       8.72776,      -2.97127,            0.,NA,NA,"",   81.6997E-03,  -81.6636E-03,  -2.42863E-03,   749.196E-06
C:/temp/dataset/6/15_14.odb,Step-1,Increment      1: Step Time =    1.000,"PART-1-1",           245,       9.39471,      -19.4524,            0.,NA,NA,"",   4.90104E-03,  -4.60298E-03,   1.68308E-03,   238.353E-06
C:/temp/dataset/6/15_14.odb,Step-1,Increment      1: Step Time =    1.000,"PART-1-1",           246,       8.06548,      -22.0810,            0.,NA,NA,"",   704.569E-06,  -576.518E-06,  -405.023E-06,   355.776E-06
C:/temp/dataset/6/15_14.odb,Step-1,Increment      1: Step Time =    1.000,"PART-1-1",           247,      -7.53738,       4.79758,            0.,NA,NA,"",   232.364E-03,  -166.043E-03,  -162.551E-03,   4.01974E-03
C:/temp/dataset/6/15_14.odb,Step-1,Increment      1: Step Time =    1.000,"PART-1-1",           248,      -10.8025,      -24.3532,            0.,NA,NA,"",   31.8239E-03,  -10.9410E-03,  -29.8840E-03,   6.71626E-03
C:/temp/dataset/6/15_14.odb,Step-1,Increment      1: Step Time =    1.000,"PART-1-1",           249,       5.82981,      -2.08643,            0.,NA,NA,"",   90.3489E-03,  -87.8465E-03,  -21.1164E-03,   634.698E-06
C:/temp/dataset/6/15_14.odb,Step-1,Increment      1: Step Time =    1.000,"PART-1-1",           250,      -8.67175,      -2.53401,            0.,NA,NA,"",   169.747E-03,  -82.6605E-03,  -148.261E-03,   5.64156E-03
C:/temp/dataset/6/15_14.odb,Step-1,Increment      1: Step Time =    1.000,"PART-1-1",           251,       5.78686,      -22.7214,            0.,NA,NA,"",   1.88755E-03,  -404.869E-06,  -1.84362E-03,   812.982E-06
C:/temp/dataset/6/15_14.odb,Step-1,Increment      1: Step Time =    1.000,"PART-1-1",           252,      -8.27594,       1.60152,            0.,NA,NA,"",   203.272E-03,  -122.653E-03,  -162.098E-03,   5.08365E-03
C:/temp/dataset/6/15_14.odb,Step-1,Increment      1: Step Time =    1.000,"PART-1-1",           253,       8.25490,      -24.0061,            0.,NA,NA,"",   834.654E-06,   830.618E-06,   81.9818E-06,   211.301E-06
C:/temp/dataset/6/15_14.odb,Step-1,Increment      1: Step Time =    1.000,"PART-1-1",           254,      -9.04303,      -23.2600,            0.,NA,NA,"",   33.4516E-03,  -8.57993E-03,  -32.3326E-03,   6.30635E-03
C:/temp/dataset/6/15_14.odb,Step-1,Increment      1: Step Time =    1.000,"PART-1-1",           255,       7.61656,      -1.09448,            0.,NA,NA,"",   95.8862E-03,  -95.4221E-03,  -9.42252E-03,   803.674E-06
C:/temp/dataset/6/15_14.odb,Step-1,Increment      1: Step Time =    1.000,"PART-1-1",           256,      -4.02262,   861.151E-03,            0.,NA,NA,"",   153.177E-03,  -111.265E-03,  -105.277E-03,   413.251E-06
C:/temp/dataset/6/15_14.odb,Step-1,Increment      1: Step Time =    1.000,"PART-1-1",           257,  -104.141E-03,       1.31276,            0.,NA,NA,"",   134.543E-03,  -116.148E-03,  -67.9071E-03,   518.824E-06
C:/temp/dataset/6/15_14.odb,Step-1,Increment      1: Step Time =    1.000,"PART-1-1",           258,       3.72123,      -23.4419,            0.,NA,NA,"",   1.40821E-03,   16.7660E-06,  -1.40811E-03,   935.180E-06
C:/temp/dataset/6/15_14.odb,Step-1,Increment      1: Step Time =    1.000,"PART-1-1",           259,      -10.7950,      -8.39617,            0.,NA,NA,"",   141.130E-03,  -52.5739E-03,  -130.972E-03,   7.62334E-03
C:/temp/dataset/6/15_14.odb,Step-1,Increment      1: Step Time =    1.000,"PART-1-1",           260,      -1.85786,       1.02916,            0.,NA,NA,"",   140.899E-03,  -113.419E-03,  -83.5981E-03,   585.623E-06
C:/temp/dataset/6/15_14.odb,Step-1,Increment      1: Step Time =    1.000,"PART-1-1",           261,      -6.46179,      -1.33856,            0.,NA,NA,"",   157.292E-03,  -89.7026E-03,  -129.206E-03,   2.89160E-03
C:/temp/dataset/6/15_14.odb,Step-1,Increment      1: Step Time =    1.000,"PART-1-1",           262,      -11.1078,      -7.00587,            0.,NA,NA,"",   154.819E-03,  -60.2752E-03,  -142.603E-03,   7.85515E-03
C:/temp/dataset/6/15_14.odb,Step-1,Increment      1: Step Time =    1.000,"PART-1-1",           263,      -5.52697,      -3.44125,            0.,NA,NA,"",   135.559E-03,  -70.8376E-03,  -115.578E-03,   2.37764E-03
C:/temp/dataset/6/15_14.odb,Step-1,Increment      1: Step Time =    1.000,"PART-1-1",           264,      -9.72268,      -4.98378,            0.,NA,NA,"",   159.861E-03,  -67.5742E-03,  -144.877E-03,   6.80298E-03
C:/temp/dataset/6/15_14.odb,Step-1,Increment      1: Step Time =    1.000,"PART-1-1",           265,      -6.27329,       4.89376,            0.,NA,NA,"",   216.364E-03,  -165.159E-03,  -139.771E-03,   2.78597E-03
C:/temp/dataset/6/15_14.odb,Step-1,Increment      1: Step Time =    1.000,"PART-1-1",           266,       12.4963,       2.80040,            0.,NA,NA,"",   125.697E-03,  -123.824E-03,   21.6192E-03,   324.126E-06
C:/temp/dataset/6/15_14.odb,Step-1,Increment      1: Step Time =    1.000,"PART-1-1",           267,      -7.37176,      -20.2559,            0.,NA,NA,"",   45.2442E-03,  -12.2195E-03,  -43.5629E-03,   5.68418E-03
C:/temp/dataset/6/15_14.odb,Step-1,Increment      1: Step Time =    1.000,"PART-1-1",           268,       2.88963,      -21.8777,            0.,NA,NA,"",   1.98021E-03,  -1.44785E-03,  -1.35092E-03,   1.12786E-03
C:/temp/dataset/6/15_14.odb,Step-1,Increment      1: Step Time =    1.000,"PART-1-1",           269,      -8.05085,       3.52655,            0.,NA,NA,"",   222.425E-03,  -147.265E-03,  -166.691E-03,   4.99117E-03
C:/temp/dataset/6/15_14.odb,Step-1,Increment      1: Step Time =    1.000,"PART-1-1",           270,       8.95558,      -12.5395,            0.,NA,NA,"",   27.4301E-03,  -27.4282E-03,  -321.441E-06,   321.624E-06
C:/temp/dataset/6/15_14.odb,Step-1,Increment      1: Step Time =    1.000,"PART-1-1",           271,       1.35989,  -223.950E-03,            0.,NA,NA,"",   116.506E-03,  -102.384E-03,  -55.5968E-03,   314.183E-06
C:/temp/dataset/6/15_14.odb,Step-1,Increment      1: Step Time =    1.000,"PART-1-1",           272,      -9.75004,      -12.6533,            0.,NA,NA,"",   103.582E-03,  -34.4073E-03,  -97.7005E-03,   7.12104E-03
C:/temp/dataset/6/15_14.odb,Step-1,Increment      1: Step Time =    1.000,"PART-1-1",           273,      -8.51206,      -25.1011,            0.,NA,NA,"",   21.4102E-03,  -3.41390E-03,  -21.1362E-03,   5.78004E-03
C:/temp/dataset/6/15_14.odb,Step-1,Increment      1: Step Time =    1.000,"PART-1-1",           274,      -6.19138,   998.181E-03,            0.,NA,NA,"",   173.111E-03,  -113.051E-03,  -131.100E-03,   2.36754E-03
C:/temp/dataset/6/15_14.odb,Step-1,Increment      1: Step Time =    1.000,"PART-1-1",           275,      -2.63339,      -25.0950,            0.,NA,NA,"",   7.65637E-03,   3.73307E-03,  -6.68463E-03,   2.01875E-03
C:/temp/dataset/6/15_14.odb,Step-1,Increment      1: Step Time =    1.000,"PART-1-1",           276,       8.11811,      -26.0558,            0.,NA,NA,"",   1.47821E-03,   1.47543E-03,   90.6420E-06,   222.156E-06
C:/temp/dataset/6/15_14.odb,Step-1,Increment      1: Step Time =    1.000,"PART-1-1",           277,       6.33403,   764.508E-03,            0.,NA,NA,"",   111.426E-03,  -109.920E-03,  -18.2533E-03,   723.794E-06
C:/temp/dataset/6/15_14.odb,Step-1,Increment      1: Step Time =    1.000,"PART-1-1",           278,       8.84044,      -16.9880,            0.,NA,NA,"",   10.8376E-03,  -10.8331E-03,   312.919E-06,   328.884E-06
C:/temp/dataset/6/15_14.odb,Step-1,Increment      1: Step Time =    1.000,"PART-1-1",           279,      -11.3950,       19.6047,            0.,NA,NA,"",   714.146E-03,  -611.352E-03,  -369.125E-03,   9.72516E-03
C:/temp/dataset/6/15_14.odb,Step-1,Increment      1: Step Time =    1.000,"PART-1-1",           280,      -11.2464,      -2.22607,            0.,NA,NA,"",   200.596E-03,  -92.5318E-03,  -177.980E-03,   8.32915E-03
C:/temp/dataset/6/15_14.odb,Step-1,Increment      1: Step Time =    1.000,"PART-1-1",           281,      -8.41776,  -32.7016E-03,            0.,NA,NA,"",   188.862E-03,  -105.014E-03,  -156.973E-03,   5.20152E-03
C:/temp/dataset/6/15_14.odb,Step-1,Increment      1: Step Time =    1.000,"PART-1-1",           282,       4.48255,      -24.5345,            0.,NA,NA,"",   1.48347E-03,   911.729E-06,  -1.17023E-03,   593.492E-06
C:/temp/dataset/6/15_14.odb,Step-1,Increment      1: Step Time =    1.000,"PART-1-1",           283,       6.11275,      -24.3348,            0.,NA,NA,"",   1.32819E-03,   850.131E-06,  -1.02047E-03,   441.388E-06
C:/temp/dataset/6/15_14.odb,Step-1,Increment      1: Step Time =    1.000,"PART-1-1",           284,       9.69767,      -4.20039,            0.,NA,NA,"",   73.4353E-03,  -73.3655E-03,   3.19987E-03,   631.957E-06
C:/temp/dataset/6/15_14.odb,Step-1,Increment      1: Step Time =    1.000,"PART-1-1",           285,       13.8851,      -1.60402,            0.,NA,NA,"",   97.1920E-03,  -92.4937E-03,   29.8531E-03,   623.437E-06
C:/temp/dataset/6/15_14.odb,Step-1,Increment      1: Step Time =    1.000,"PART-1-1",           286,           15.,   -468.75E-03,            0.,NA,NA,"",   107.736E-03,  -100.819E-03,   37.9828E-03,   492.035E-06
C:/temp/dataset/6/15_14.odb,Step-1,Increment      1: Step Time =    1.000,"PART-1-1",           287,       13.7553,   590.641E-03,            0.,NA,NA,"",   112.152E-03,  -108.135E-03,   29.7480E-03,   383.808E-06
C:/temp/dataset/6/15_14.odb,Step-1,Increment      1: Step Time =    1.000,"PART-1-1",           288,       12.6405,  -544.629E-03,            0.,NA,NA,"",   102.227E-03,  -99.8010E-03,   22.1372E-03,   620.184E-06
C:/temp/dataset/6/15_14.odb,Step-1,Increment      1: Step Time =    1.000,"PART-1-1",           289,       6.57104,       2.96720,            0.,NA,NA,"",   127.899E-03,  -126.731E-03,  -17.2473E-03,   775.615E-06
C:/temp/dataset/6/15_14.odb,Step-1,Increment      1: Step Time =    1.000,"PART-1-1",           290,       5.86345,       1.80964,            0.,NA,NA,"",   120.214E-03,  -118.230E-03,  -21.7549E-03,   751.440E-06
C:/temp/dataset/6/15_14.odb,Step-1,Increment      1: Step Time =    1.000,"PART-1-1",           291,       7.10711,       1.10321,            0.,NA,NA,"",   113.099E-03,  -112.335E-03,  -13.1243E-03,   744.182E-06
C:/temp/dataset/6/15_14.odb,Step-1,Increment      1: Step Time =    1.000,"PART-1-1",           292,       7.81470,       2.26078,            0.,NA,NA,"",   121.188E-03,  -120.874E-03,  -8.71312E-03,   723.124E-06
C:/temp/dataset/6/15_14.odb,Step-1,Increment      1: Step Time =    1.000,"PART-1-1",           293,       6.97305,      -8.82061,            0.,NA,NA,"",   47.1258E-03,  -45.7887E-03,  -11.1458E-03,   741.048E-06
C:/temp/dataset/6/15_14.odb,Step-1,Increment      1: Step Time =    1.000,"PART-1-1",           294,       5.98985,      -7.53541,            0.,NA,NA,"",   55.7090E-03,  -52.9269E-03,  -17.3850E-03,   1.00801E-03
C:/temp/dataset/6/15_14.odb,Step-1,Increment      1: Step Time =    1.000,"PART-1-1",           295,            5.,      -8.76875,            0.,NA,NA,"",   51.5680E-03,  -46.9637E-03,  -21.2995E-03,   1.26305E-03
C:/temp/dataset/6/15_14.odb,Step-1,Increment      1: Step Time =    1.000,"PART-1-1",           296,       5.98320,      -10.0539,            0.,NA,NA,"",   42.6521E-03,  -39.9128E-03,  -15.0389E-03,   1.05908E-03
C:/temp/dataset/6/15_14.odb,Step-1,Increment      1: Step Time =    1.000,"PART-1-1",           297,       12.0429,      -8.05477,            0.,NA,NA,"",   52.3866E-03,  -50.2083E-03,   14.9494E-03,   700.924E-06
C:/temp/dataset/6/15_14.odb,Step-1,Increment      1: Step Time =    1.000,"PART-1-1",           298,       11.0248,      -9.13413,            0.,NA,NA,"",   44.9749E-03,  -44.0163E-03,   9.23625E-03,   460.937E-06
C:/temp/dataset/6/15_14.odb,Step-1,Increment      1: Step Time =    1.000,"PART-1-1",           299,       11.9985,      -10.2754,            0.,NA,NA,"",   40.6719E-03,  -38.3936E-03,   13.4216E-03,   699.367E-06
C:/temp/dataset/6/15_14.odb,Step-1,Increment      1: Step Time =    1.000,"PART-1-1",           300,       13.0166,      -9.19606,            0.,NA,NA,"",   48.3150E-03,  -44.3477E-03,   19.1733E-03,   958.236E-06
C:/temp/dataset/6/15_14.odb,Step-1,Increment      1: Step Time =    1.000,"PART-1-1",           301,       13.9992,      -14.7549,            0.,NA,NA,"",   26.5325E-03,  -19.9019E-03,   17.5467E-03,   1.44486E-03
C:/temp/dataset/6/15_14.odb,Step-1,Increment      1: Step Time =    1.000,"PART-1-1",           302,       13.0271,      -15.9471,            0.,NA,NA,"",   19.9605E-03,  -15.2061E-03,   12.9305E-03,   1.13900E-03
C:/temp/dataset/6/15_14.odb,Step-1,Increment      1: Step Time =    1.000,"PART-1-1",           303,       14.0279,      -16.9735,            0.,NA,NA,"",   19.4005E-03,  -12.6490E-03,   14.7099E-03,   1.51219E-03
C:/temp/dataset/6/15_14.odb,Step-1,Increment      1: Step Time =    1.000,"PART-1-1",           304,           15.,      -15.7813,            0.,NA,NA,"",   25.8971E-03,  -17.0780E-03,   19.4680E-03,   1.82163E-03
C:/temp/dataset/6/15_14.odb,Step-1,Increment      1: Step Time =    1.000,"PART-1-1",           305,       6.96949,      -18.0995,            0.,NA,NA,"",   8.64649E-03,  -7.77739E-03,  -3.77808E-03,   858.250E-06
C:/temp/dataset/6/15_14.odb,Step-1,Increment      1: Step Time =    1.000,"PART-1-1",           306,       5.95014,      -17.3335,            0.,NA,NA,"",   12.7276E-03,  -10.5274E-03,  -7.15310E-03,   1.37354E-03
C:/temp/dataset/6/15_14.odb,Step-1,Increment      1: Step Time =    1.000,"PART-1-1",           307,            5.,      -18.7625,            0.,NA,NA,"",   10.2170E-03,  -7.01573E-03,  -7.42743E-03,   2.33020E-03
C:/temp/dataset/6/15_14.odb,Step-1,Increment      1: Step Time =    1.000,"PART-1-1",           308,       6.01935,      -19.5285,            0.,NA,NA,"",   5.91047E-03,  -4.05465E-03,  -4.30040E-03,   1.51067E-03
C:/temp/dataset/6/15_14.odb,Step-1,Increment      1: Step Time =    1.000,"PART-1-1",           309,       7.66098,      -29.0388,            0.,NA,NA,"",   728.085E-06,   727.728E-06,  -22.7992E-06,   467.363E-06
C:/temp/dataset/6/15_14.odb,Step-1,Increment      1: Step Time =    1.000,"PART-1-1",           310,       6.62868,      -28.0660,            0.,NA,NA,"",   1.26710E-03,   1.24997E-03,  -207.666E-06,   374.395E-06
C:/temp/dataset/6/15_14.odb,Step-1,Increment      1: Step Time =    1.000,"PART-1-1",           311,       5.21770,      -29.0272,            0.,NA,NA,"",   817.546E-06,   791.743E-06,  -203.774E-06,   549.416E-06
C:/temp/dataset/6/15_14.odb,Step-1,Increment      1: Step Time =    1.000,"PART-1-1",           312,          6.25,          -30.,            0.,NA,NA,"",            0.,   554.557E-42,  -363.444E-42,   615.957E-06
C:/temp/dataset/6/15_14.odb,Step-1,Increment      1: Step Time =    1.000,"PART-1-1",           313,   162.125E-03,      -28.5454,            0.,NA,NA,"",   2.28745E-03,   2.06858E-03,  -976.432E-06,   1.24741E-03
C:/temp/dataset/6/15_14.odb,Step-1,Increment      1: Step Time =    1.000,"PART-1-1",           314,      -1.06934,      -27.3053,            0.,NA,NA,"",   4.15190E-03,   3.42639E-03,  -2.34481E-03,   1.45368E-03
C:/temp/dataset/6/15_14.odb,Step-1,Increment      1: Step Time =    1.000,"PART-1-1",           315,      -2.48147,      -28.7599,            0.,NA,NA,"",   2.90078E-03,   2.35375E-03,  -1.69539E-03,   2.14357E-03
C:/temp/dataset/6/15_14.odb,Step-1,Increment      1: Step Time =    1.000,"PART-1-1",           316,         -1.25,          -30.,            0.,NA,NA,"",            0.,   1.33275E-39,  -2.71431E-39,   1.94384E-03
C:/temp/dataset/6/15_14.odb,Step-1,Increment      1: Step Time =    1.000,"PART-1-1",           317,          -15.,        -21.25,            0.,NA,NA,"",   67.3781E-03,  -31.6134E-03,  -59.5012E-03,   7.21319E-03
C:/temp/dataset/6/15_14.odb,Step-1,Increment      1: Step Time =    1.000,"PART-1-1",           318,      -13.9888,      -22.4607,            0.,NA,NA,"",   55.3878E-03,  -25.4079E-03,  -49.2163E-03,   7.13558E-03
C:/temp/dataset/6/15_14.odb,Step-1,Increment      1: Step Time =    1.000,"PART-1-1",           319,      -12.8187,      -21.2681,            0.,NA,NA,"",   59.2593E-03,  -24.5780E-03,  -53.9221E-03,   7.08709E-03
C:/temp/dataset/6/15_14.odb,Step-1,Increment      1: Step Time =    1.000,"PART-1-1",           320,      -13.8299,      -20.0574,            0.,NA,NA,"",   71.2314E-03,  -30.6742E-03,  -64.2884E-03,   7.16064E-03
C:/temp/dataset/6/15_14.odb,Step-1,Increment      1: Step Time =    1.000,"PART-1-1",           321,      -12.5142,      -28.6623,            0.,NA,NA,"",   7.70942E-03,  -3.83454E-03,  -6.68816E-03,   6.41748E-03
C:/temp/dataset/6/15_14.odb,Step-1,Increment      1: Step Time =    1.000,"PART-1-1",           322,        -11.25,          -30.,            0.,NA,NA,"",            0.,  -834.784E-42,  -10.1924E-39,   5.30008E-03
C:/temp/dataset/6/15_14.odb,Step-1,Increment      1: Step Time =    1.000,"PART-1-1",           323,      -9.93348,      -28.4464,            0.,NA,NA,"",   6.55369E-03,  -1.09188E-03,  -6.46209E-03,   5.24554E-03
C:/temp/dataset/6/15_14.odb,Step-1,Increment      1: Step Time =    1.000,"PART-1-1",           324,      -11.1976,      -27.1087,            0.,NA,NA,"",   15.4657E-03,  -5.78408E-03,  -14.3434E-03,   6.57134E-03
C:/temp/dataset/6/15_14.odb,Step-1,Increment      1: Step Time =    1.000,"PART-1-1",           325,      -7.37036,      -13.8742,            0.,NA,NA,"",   83.8073E-03,  -24.3419E-03,  -80.1944E-03,   6.43991E-03
C:/temp/dataset/6/15_14.odb,Step-1,Increment      1: Step Time =    1.000,"PART-1-1",           326,      -6.21015,      -15.0417,            0.,NA,NA,"",   72.1009E-03,  -18.4475E-03,  -69.7010E-03,   6.31544E-03
C:/temp/dataset/6/15_14.odb,Step-1,Increment      1: Step Time =    1.000,"PART-1-1",           327,           -5.,      -13.7188,            0.,NA,NA,"",   75.5180E-03,  -18.3937E-03,  -73.2437E-03,   5.57297E-03
C:/temp/dataset/6/15_14.odb,Step-1,Increment      1: Step Time =    1.000,"PART-1-1",           328,      -6.16021,      -12.5513,            0.,NA,NA,"",   86.4015E-03,  -24.4966E-03,  -82.8561E-03,   5.72004E-03
C:/temp/dataset/6/15_14.odb,Step-1,Increment      1: Step Time =    1.000,"PART-1-1",           329,      -9.33590,      -9.40979,            0.,NA,NA,"",   123.556E-03,  -43.7475E-03,  -115.552E-03,   6.81459E-03
C:/temp/dataset/6/15_14.odb,Step-1,Increment      1: Step Time =    1.000,"PART-1-1",           330,      -8.33361,      -10.3234,            0.,NA,NA,"",   111.101E-03,  -37.3924E-03,  -104.620E-03,   6.37040E-03
C:/temp/dataset/6/15_14.odb,Step-1,Increment      1: Step Time =    1.000,"PART-1-1",           331,      -7.16565,      -9.15059,            0.,NA,NA,"",   111.528E-03,  -38.9137E-03,  -104.519E-03,   5.58265E-03
C:/temp/dataset/6/15_14.odb,Step-1,Increment      1: Step Time =    1.000,"PART-1-1",           332,      -8.16794,      -8.23701,            0.,NA,NA,"",   123.817E-03,  -45.5159E-03,  -115.148E-03,   6.04959E-03
C:/temp/dataset/6/15_14.odb,Step-1,Increment      1: Step Time =    1.000,"PART-1-1",           333,      -11.1473,      -6.32447,            0.,NA,NA,"",   160.978E-03,  -64.0694E-03,  -147.678E-03,   7.91935E-03
C:/temp/dataset/6/15_14.odb,Step-1,Increment      1: Step Time =    1.000,"PART-1-1",           334,      -10.2102,      -6.79208,            0.,NA,NA,"",   149.446E-03,  -58.4819E-03,  -137.528E-03,   7.21522E-03
C:/temp/dataset/6/15_14.odb,Step-1,Increment      1: Step Time =    1.000,"PART-1-1",           335,      -9.51762,      -5.78103,            0.,NA,NA,"",   151.721E-03,  -62.0780E-03,  -138.440E-03,   6.68664E-03
C:/temp/dataset/6/15_14.odb,Step-1,Increment      1: Step Time =    1.000,"PART-1-1",           336,      -10.4548,      -5.31342,            0.,NA,NA,"",   163.667E-03,  -67.6868E-03,  -149.014E-03,   7.40131E-03
C:/temp/dataset/6/15_14.odb,Step-1,Increment      1: Step Time =    1.000,"PART-1-1",           337,      -5.04937,      -1.25055,            0.,NA,NA,"",   145.751E-03,  -89.9914E-03,  -114.651E-03,   1.53806E-03
C:/temp/dataset/6/15_14.odb,Step-1,Increment      1: Step Time =    1.000,"PART-1-1",           338,      -3.82978,  -150.691E-03,            0.,NA,NA,"",   144.162E-03,  -100.925E-03,  -102.941E-03,   566.998E-06
C:/temp/dataset/6/15_14.odb,Step-1,Increment      1: Step Time =    1.000,"PART-1-1",           339,      -5.10700,   929.666E-03,            0.,NA,NA,"",   162.362E-03,  -111.952E-03,  -117.594E-03,   1.30135E-03
C:/temp/dataset/6/15_14.odb,Step-1,Increment      1: Step Time =    1.000,"PART-1-1",           340,      -6.32658,  -170.190E-03,            0.,NA,NA,"",   164.878E-03,  -100.903E-03,  -130.396E-03,   2.59142E-03
C:/temp/dataset/6/15_14.odb,Step-1,Increment      1: Step Time =    1.000,"PART-1-1",           341,          -15.,          3.75,            0.,NA,NA,"",   339.549E-03,  -180.055E-03,  -287.878E-03,   14.5233E-03
C:/temp/dataset/6/15_14.odb,Step-1,Increment      1: Step Time =    1.000,"PART-1-1",           342,      -13.8520,       2.39386,            0.,NA,NA,"",   296.605E-03,  -153.561E-03,  -253.759E-03,   12.4112E-03
C:/temp/dataset/6/15_14.odb,Step-1,Increment      1: Step Time =    1.000,"PART-1-1",           343,      -12.6820,       3.58697,            0.,NA,NA,"",   297.352E-03,  -164.488E-03,  -247.714E-03,   11.0248E-03
C:/temp/dataset/6/15_14.odb,Step-1,Increment      1: Step Time =    1.000,"PART-1-1",           344,      -13.8301,       4.94311,            0.,NA,NA,"",   342.033E-03,  -192.358E-03,  -282.816E-03,   13.0875E-03
C:/temp/dataset/6/15_14.odb,Step-1,Increment      1: Step Time =    1.000,"PART-1-1",           345,          -15.,         11.25,            0.,NA,NA,"",   520.947E-03,  -340.268E-03,  -394.466E-03,   16.2049E-03
C:/temp/dataset/6/15_14.odb,Step-1,Increment      1: Step Time =    1.000,"PART-1-1",           346,      -14.0083,       10.0442,            0.,NA,NA,"",   462.651E-03,  -301.874E-03,  -350.597E-03,   14.2135E-03
C:/temp/dataset/6/15_14.odb,Step-1,Increment      1: Step Time =    1.000,"PART-1-1",           347,      -13.0572,       11.3141,            0.,NA,NA,"",   474.065E-03,  -330.168E-03,  -340.186E-03,   12.5559E-03
C:/temp/dataset/6/15_14.odb,Step-1,Increment      1: Step Time =    1.000,"PART-1-1",           348,      -14.0489,       12.5200,            0.,NA,NA,"",   533.940E-03,  -370.302E-03,  -384.666E-03,   14.5438E-03
C:/temp/dataset/6/15_14.odb,Step-1,Increment      1: Step Time =    1.000,"PART-1-1",           349,           -5.,       22.7083,            0.,NA,NA,"",   754.769E-03,  -749.604E-03,  -88.1461E-03,   3.28426E-03
C:/temp/dataset/6/15_14.odb,Step-1,Increment      1: Step Time =    1.000,"PART-1-1",           350,      -5.96779,       23.6687,            0.,NA,NA,"",   806.298E-03,  -794.908E-03,  -135.050E-03,   1.34315E-03
C:/temp/dataset/6/15_14.odb,Step-1,Increment      1: Step Time =    1.000,"PART-1-1",           351,      -6.69567,       22.7251,            0.,NA,NA,"",   766.380E-03,  -747.211E-03,  -170.338E-03,   172.853E-06
C:/temp/dataset/6/15_14.odb,Step-1,Increment      1: Step Time =    1.000,"PART-1-1",           352,      -5.72788,       21.7648,            0.,NA,NA,"",   713.793E-03,  -702.968E-03,  -123.840E-03,   1.75742E-03
C:/temp/dataset/6/15_14.odb,Step-1,Increment      1: Step Time =    1.000,"PART-1-1",           353,      -9.95259,       28.8237,            0.,NA,NA,"",       1.13614,      -1.07248,  -374.984E-03,   7.80234E-03
C:/temp/dataset/6/15_14.odb,Step-1,Increment      1: Step Time =    1.000,"PART-1-1",           354,      -8.67740,       27.7404,            0.,NA,NA,"",       1.05168,      -1.01079,  -290.416E-03,   2.81841E-03
C:/temp/dataset/6/15_14.odb,Step-1,Increment      1: Step Time =    1.000,"PART-1-1",           355,      -7.47481,       28.9167,            0.,NA,NA,"",       1.10471,      -1.08194,  -223.140E-03,   2.16527E-03
C:/temp/dataset/6/15_14.odb,Step-1,Increment      1: Step Time =    1.000,"PART-1-1",           356,         -8.75,           30.,            0.,NA,NA,"",       1.18572,      -1.14702,  -300.476E-03,   3.07700E-03
C:/temp/dataset/6/15_14.odb,Step-1,Increment      1: Step Time =    1.000,"PART-1-1",           357,      -12.4360,       28.7156,            0.,NA,NA,"",       1.19832,      -1.07598,  -527.484E-03,   14.2042E-03
C:/temp/dataset/6/15_14.odb,Step-1,Increment      1: Step Time =    1.000,"PART-1-1",           358,        -13.75,           30.,            0.,NA,NA,"",       1.31034,      -1.15444,  -619.892E-03,   13.4832E-03
C:/temp/dataset/6/15_14.odb,Step-1,Increment      1: Step Time =    1.000,"PART-1-1",           359,          -15.,         28.75,            0.,NA,NA,"",       1.28075,      -1.08934,  -673.546E-03,   14.6672E-03
C:/temp/dataset/6/15_14.odb,Step-1,Increment      1: Step Time =    1.000,"PART-1-1",           360,      -13.6860,       27.4656,            0.,NA,NA,"",       1.16472,      -1.00988,  -580.283E-03,   14.5807E-03
C:/temp/dataset/6/15_14.odb,Step-1,Increment      1: Step Time =    1.000,"PART-1-1",           361,         -3.75,           -5.,            0.,NA,NA,"",   117.417E-03,  -58.4904E-03,  -101.812E-03,   451.438E-06
C:/temp/dataset/6/15_14.odb,Step-1,Increment      1: Step Time =    1.000,"PART-1-1",           362,      -2.75606,      -4.06584,            0.,NA,NA,"",   114.501E-03,  -66.5327E-03,  -93.1873E-03,   984.723E-06
C:/temp/dataset/6/15_14.odb,Step-1,Increment      1: Step Time =    1.000,"PART-1-1",           363,      -4.26954,      -3.28646,            0.,NA,NA,"",   127.821E-03,  -71.9034E-03,  -105.679E-03,   1.05501E-03
C:/temp/dataset/6/15_14.odb,Step-1,Increment      1: Step Time =    1.000,"PART-1-1",           364,      -5.26349,      -4.22062,            0.,NA,NA,"",   129.047E-03,  -64.4099E-03,  -111.824E-03,   2.37019E-03
C:/temp/dataset/6/15_14.odb,Step-1,Increment      1: Step Time =    1.000,"PART-1-1",           365,   659.099E-03,      -2.85996,            0.,NA,NA,"",   100.902E-03,  -79.4049E-03,  -62.2581E-03,   816.730E-06
C:/temp/dataset/6/15_14.odb,Step-1,Increment      1: Step Time =    1.000,"PART-1-1",           366,  -266.865E-03,      -3.97148,            0.,NA,NA,"",   98.9985E-03,  -69.1509E-03,  -70.8439E-03,   952.595E-06
C:/temp/dataset/6/15_14.odb,Step-1,Increment      1: Step Time =    1.000,"PART-1-1",           367,          1.25,           -5.,            0.,NA,NA,"",   84.6834E-03,  -61.6722E-03,  -58.0329E-03,   1.11800E-03
C:/temp/dataset/6/15_14.odb,Step-1,Increment      1: Step Time =    1.000,"PART-1-1",           368,       2.17596,      -3.88848,            0.,NA,NA,"",   87.4740E-03,  -72.0605E-03,  -49.5882E-03,   973.774E-06
C:/temp/dataset/6/15_14.odb,Step-1,Increment      1: Step Time =    1.000,"PART-1-1",           369,   93.5104E-03,  -560.922E-03,            0.,NA,NA,"",   119.237E-03,  -99.0098E-03,  -66.4423E-03,   498.311E-06
C:/temp/dataset/6/15_14.odb,Step-1,Increment      1: Step Time =    1.000,"PART-1-1",           370,   627.873E-03,   544.404E-03,            0.,NA,NA,"",   125.302E-03,  -109.074E-03,  -61.6730E-03,   382.128E-06
C:/temp/dataset/6/15_14.odb,Step-1,Increment      1: Step Time =    1.000,"PART-1-1",           371,  -981.002E-03,       1.17096,            0.,NA,NA,"",   137.519E-03,  -114.859E-03,  -75.6221E-03,   512.160E-06
C:/temp/dataset/6/15_14.odb,Step-1,Increment      1: Step Time =    1.000,"PART-1-1",           372,      -1.51537,   65.6335E-03,            0.,NA,NA,"",   131.665E-03,  -104.109E-03,  -80.6045E-03,   552.523E-06
C:/temp/dataset/6/15_14.odb,Step-1,Increment      1: Step Time =    1.000,"PART-1-1",           373,       4.11258,       2.54084,            0.,NA,NA,"",   129.592E-03,  -124.905E-03,  -34.5365E-03,   819.046E-06
C:/temp/dataset/6/15_14.odb,Step-1,Increment      1: Step Time =    1.000,"PART-1-1",           374,       3.71515,       1.12833,            0.,NA,NA,"",   119.504E-03,  -113.605E-03,  -37.0814E-03,   603.014E-06
C:/temp/dataset/6/15_14.odb,Step-1,Increment      1: Step Time =    1.000,"PART-1-1",           375,       5.46602,   397.127E-03,            0.,NA,NA,"",   109.956E-03,  -107.267E-03,  -24.1656E-03,   621.693E-06
C:/temp/dataset/6/15_14.odb,Step-1,Increment      1: Step Time =    1.000,"PART-1-1",           376,       8.69518,  -378.803E-03,            0.,NA,NA,"",   100.829E-03,  -100.795E-03,  -2.62949E-03,   781.139E-06
C:/temp/dataset/6/15_14.odb,Step-1,Increment      1: Step Time =    1.000,"PART-1-1",           377,       8.82700,   889.396E-03,            0.,NA,NA,"",   110.342E-03,  -110.326E-03,  -1.90160E-03,   752.872E-06
C:/temp/dataset/6/15_14.odb,Step-1,Increment      1: Step Time =    1.000,"PART-1-1",           378,       6.97530,  -164.986E-03,            0.,NA,NA,"",   103.515E-03,  -102.599E-03,  -13.7474E-03,   744.962E-06
C:/temp/dataset/6/15_14.odb,Step-1,Increment      1: Step Time =    1.000,"PART-1-1",           379,      -3.65351,      -22.6081,            0.,NA,NA,"",   13.9722E-03,   831.094E-06,  -13.9475E-03,   2.71829E-03
C:/temp/dataset/6/15_14.odb,Step-1,Increment      1: Step Time =    1.000,"PART-1-1",           380,      -2.48671,      -21.3009,            0.,NA,NA,"",   9.51291E-03,  -2.52576E-03,  -9.17148E-03,   674.562E-06
C:/temp/dataset/6/15_14.odb,Step-1,Increment      1: Step Time =    1.000,"PART-1-1",           381,         -3.75,          -20.,            0.,NA,NA,"",   18.6674E-03,  -8.75926E-03,  -16.4848E-03,   2.48984E-03
C:/temp/dataset/6/15_14.odb,Step-1,Increment      1: Step Time =    1.000,"PART-1-1",           382,      -4.91680,      -21.3072,            0.,NA,NA,"",   25.6092E-03,  -3.13668E-03,  -25.4164E-03,   5.55996E-03
C:/temp/dataset/6/15_14.odb,Step-1,Increment      1: Step Time =    1.000,"PART-1-1",           383,       12.8399,      -22.4784,            0.,NA,NA,"",   6.06878E-03,  -1.37605E-03,   5.91072E-03,   1.06305E-03
C:/temp/dataset/6/15_14.odb,Step-1,Increment      1: Step Time =    1.000,"PART-1-1",           384,       11.7398,      -21.2760,            0.,NA,NA,"",   5.73287E-03,  -2.28459E-03,   5.25799E-03,   810.345E-06
C:/temp/dataset/6/15_14.odb,Step-1,Increment      1: Step Time =    1.000,"PART-1-1",           385,       10.5591,      -22.4389,            0.,NA,NA,"",   2.89094E-03,  -566.757E-06,   2.83484E-03,   532.679E-06
C:/temp/dataset/6/15_14.odb,Step-1,Increment      1: Step Time =    1.000,"PART-1-1",           386,       11.6593,      -23.6412,            0.,NA,NA,"",   3.56633E-03,   50.9836E-06,   3.56596E-03,   768.816E-06
C:/temp/dataset/6/15_14.odb,Step-1,Increment      1: Step Time =    1.000,"PART-1-1",           387,          8.75,            5.,            0.,NA,NA,"",   139.966E-03,  -139.928E-03,  -3.26800E-03,   623.758E-06
C:/temp/dataset/6/15_14.odb,Step-1,Increment      1: Step Time =    1.000,"PART-1-1",           388,       7.62461,       4.03982,            0.,NA,NA,"",   134.373E-03,  -133.964E-03,  -10.4736E-03,   734.127E-06
C:/temp/dataset/6/15_14.odb,Step-1,Increment      1: Step Time =    1.000,"PART-1-1",           389,       8.90047,       2.96899,            0.,NA,NA,"",   125.701E-03,  -125.689E-03,  -1.76477E-03,   637.539E-06
C:/temp/dataset/6/15_14.odb,Step-1,Increment      1: Step Time =    1.000,"PART-1-1",           390,       10.0259,       3.92917,            0.,NA,NA,"",   132.237E-03,  -132.128E-03,   5.37665E-03,   433.533E-06
C:/temp/dataset/6/15_14.odb,Step-1,Increment      1: Step Time =    1.000,"PART-1-1",           391,      -6.96921,       21.1213,            0.,NA,NA,"",   695.657E-03,  -671.746E-03,  -180.818E-03,   800.573E-06
C:/temp/dataset/6/15_14.odb,Step-1,Increment      1: Step Time =    1.000,"PART-1-1",           392,      -6.24133,       19.9816,            0.,NA,NA,"",   639.045E-03,  -621.877E-03,  -147.132E-03,   647.696E-06
C:/temp/dataset/6/15_14.odb,Step-1,Increment      1: Step Time =    1.000,"PART-1-1",           393,           -5.,        20.625,            0.,NA,NA,"",   658.937E-03,  -652.477E-03,  -92.0411E-03,   3.21128E-03
C:/temp/dataset/6/15_14.odb,Step-1,Increment      1: Step Time =    1.000,"PART-1-1",           394,      -12.9370,       8.81410,            0.,NA,NA,"",   407.164E-03,  -265.785E-03,  -308.449E-03,   12.1268E-03
C:/temp/dataset/6/15_14.odb,Step-1,Increment      1: Step Time =    1.000,"PART-1-1",           395,          -15.,          8.75,            0.,NA,NA,"",   452.186E-03,  -276.749E-03,  -357.606E-03,   15.8437E-03
C:/temp/dataset/6/15_14.odb,Step-1,Increment      1: Step Time =    1.000,"PART-1-1",           396,      -13.9287,       7.51992,            0.,NA,NA,"",   398.501E-03,  -242.405E-03,  -316.296E-03,   13.7449E-03
C:/temp/dataset/6/15_14.odb,Step-1,Increment      1: Step Time =    1.000,"PART-1-1",           397,          -15.,          1.25,            0.,NA,NA,"",   294.508E-03,  -145.502E-03,  -256.055E-03,   13.5145E-03
C:/temp/dataset/6/15_14.odb,Step-1,Increment      1: Step Time =    1.000,"PART-1-1",           398,      -13.9023,  -59.1614E-03,            0.,NA,NA,"",   259.567E-03,  -124.423E-03,  -227.802E-03,   11.6491E-03
C:/temp/dataset/6/15_14.odb,Step-1,Increment      1: Step Time =    1.000,"PART-1-1",           399,      -12.7542,       1.08470,            0.,NA,NA,"",   260.107E-03,  -131.521E-03,  -224.406E-03,   10.5875E-03
C:/temp/dataset/6/15_14.odb,Step-1,Increment      1: Step Time =    1.000,"PART-1-1",           400,          -15.,         -1.25,            0.,NA,NA,"",   255.772E-03,  -118.332E-03,  -226.752E-03,   12.4489E-03
C:/temp/dataset/6/15_14.odb,Step-1,Increment      1: Step Time =    1.000,"PART-1-1",           401,      -13.9820,      -2.43756,            0.,NA,NA,"",   228.602E-03,  -102.329E-03,  -204.420E-03,   10.9609E-03
C:/temp/dataset/6/15_14.odb,Step-1,Increment      1: Step Time =    1.000,"PART-1-1",           402,      -12.8843,      -1.24672,            0.,NA,NA,"",   230.980E-03,  -107.713E-03,  -204.327E-03,   10.1965E-03
C:/temp/dataset/6/15_14.odb,Step-1,Increment      1: Step Time =    1.000,"PART-1-1",           403,      -12.3802,      -13.7897,            0.,NA,NA,"",   109.278E-03,  -40.1950E-03,  -101.617E-03,   7.78299E-03
C:/temp/dataset/6/15_14.odb,Step-1,Increment      1: Step Time =    1.000,"PART-1-1",           404,      -13.6672,      -12.5056,            0.,NA,NA,"",   125.569E-03,  -48.2887E-03,  -115.913E-03,   8.36411E-03
C:/temp/dataset/6/15_14.odb,Step-1,Increment      1: Step Time =    1.000,"PART-1-1",           405,          -15.,        -13.75,            0.,NA,NA,"",   121.608E-03,  -49.8279E-03,  -110.931E-03,   8.45057E-03
C:/temp/dataset/6/15_14.odb,Step-1,Increment      1: Step Time =    1.000,"PART-1-1",           406,      -13.7130,      -15.0341,            0.,NA,NA,"",   106.254E-03,  -41.8313E-03,  -97.6728E-03,   7.85398E-03
C:/temp/dataset/6/15_14.odb,Step-1,Increment      1: Step Time =    1.000,"PART-1-1",           407,       9.21271,      -3.58583,            0.,NA,NA,"",   77.4392E-03,  -77.4380E-03,   419.070E-06,   674.359E-06
C:/temp/dataset/6/15_14.odb,Step-1,Increment      1: Step Time =    1.000,"PART-1-1",           408,       7.90749,      -3.82305,            0.,NA,NA,"",   75.8703E-03,  -75.5023E-03,  -7.46350E-03,   601.090E-06
C:/temp/dataset/6/15_14.odb,Step-1,Increment      1: Step Time =    1.000,"PART-1-1",           409,       8.15132,      -5.16923,            0.,NA,NA,"",   66.8657E-03,  -66.5993E-03,  -5.96299E-03,   437.912E-06
C:/temp/dataset/6/15_14.odb,Step-1,Increment      1: Step Time =    1.000,"PART-1-1",           410,       9.45655,      -4.93201,            0.,NA,NA,"",   68.4545E-03,  -68.4344E-03,   1.66162E-03,   542.322E-06
C:/temp/dataset/6/15_14.odb,Step-1,Increment      1: Step Time =    1.000,"PART-1-1",           411,       6.91243,      -16.0318,            0.,NA,NA,"",   15.4707E-03,  -14.3496E-03,  -5.78196E-03,   1.00040E-03
C:/temp/dataset/6/15_14.odb,Step-1,Increment      1: Step Time =    1.000,"PART-1-1",           412,       5.96229,      -14.9858,            0.,NA,NA,"",   21.0802E-03,  -18.5499E-03,  -10.0139E-03,   1.26007E-03
C:/temp/dataset/6/15_14.odb,Step-1,Increment      1: Step Time =    1.000,"PART-1-1",           413,            5.,      -16.2875,            0.,NA,NA,"",   18.7071E-03,  -14.6339E-03,  -11.6536E-03,   1.66006E-03
C:/temp/dataset/6/15_14.odb,Step-1,Increment      1: Step Time =    1.000,"PART-1-1",           414,       6.93910,      -13.7291,            0.,NA,NA,"",   24.1522E-03,  -22.9185E-03,  -7.62047E-03,   909.774E-06
C:/temp/dataset/6/15_14.odb,Step-1,Increment      1: Step Time =    1.000,"PART-1-1",           415,       5.97681,      -12.5371,            0.,NA,NA,"",   31.0110E-03,  -28.3349E-03,  -12.6022E-03,   1.15190E-03
C:/temp/dataset/6/15_14.odb,Step-1,Increment      1: Step Time =    1.000,"PART-1-1",           416,            5.,      -13.7937,            0.,NA,NA,"",   28.0873E-03,  -23.6855E-03,  -15.0961E-03,   1.49908E-03
C:/temp/dataset/6/15_14.odb,Step-1,Increment      1: Step Time =    1.000,"PART-1-1",           417,         -1.25,          -20.,            0.,NA,NA,"",   8.01360E-03,  -6.00012E-03,  -5.31190E-03,   1.16052E-03
C:/temp/dataset/6/15_14.odb,Step-1,Increment      1: Step Time =    1.000,"PART-1-1",           418,      -1.09514,      -22.7401,            0.,NA,NA,"",   4.44512E-03,   525.541E-06,  -4.41394E-03,   723.931E-06
C:/temp/dataset/6/15_14.odb,Step-1,Increment      1: Step Time =    1.000,"PART-1-1",           419,   141.566E-03,      -21.4393,            0.,NA,NA,"",   3.14337E-03,  -1.99925E-03,  -2.42566E-03,   410.592E-06
C:/temp/dataset/6/15_14.odb,Step-1,Increment      1: Step Time =    1.000,"PART-1-1",           420,      -7.69236,      -25.1479,            0.,NA,NA,"",   19.2739E-03,  -1.55761E-03,  -19.2108E-03,   5.30716E-03
C:/temp/dataset/6/15_14.odb,Step-1,Increment      1: Step Time =    1.000,"PART-1-1",           421,      -9.18951,      -25.9970,            0.,NA,NA,"",   18.0381E-03,  -3.41841E-03,  -17.7113E-03,   5.83077E-03
C:/temp/dataset/6/15_14.odb,Step-1,Increment      1: Step Time =    1.000,"PART-1-1",           422,      -8.56598,      -27.1897,            0.,NA,NA,"",   11.1311E-03,  -590.778E-06,  -11.1154E-03,   5.10617E-03
C:/temp/dataset/6/15_14.odb,Step-1,Increment      1: Step Time =    1.000,"PART-1-1",           423,      -7.06883,      -26.3407,            0.,NA,NA,"",   12.8028E-03,   925.835E-06,  -12.7693E-03,   4.62623E-03
C:/temp/dataset/6/15_14.odb,Step-1,Increment      1: Step Time =    1.000,"PART-1-1",           424,      -9.82073,      -13.8964,            0.,NA,NA,"",   95.5416E-03,  -31.5544E-03,  -90.1805E-03,   7.09043E-03
C:/temp/dataset/6/15_14.odb,Step-1,Increment      1: Step Time =    1.000,"PART-1-1",           425,      -8.65586,      -15.1239,            0.,NA,NA,"",   81.9221E-03,  -25.4094E-03,  -77.8819E-03,   6.86176E-03
C:/temp/dataset/6/15_14.odb,Step-1,Increment      1: Step Time =    1.000,"PART-1-1",           426,      -8.53523,      -12.6467,            0.,NA,NA,"",   97.1588E-03,  -30.7521E-03,  -92.1636E-03,   6.66112E-03
C:/temp/dataset/6/15_14.odb,Step-1,Increment      1: Step Time =    1.000,"PART-1-1",           427,      -6.09243,      -10.1071,            0.,NA,NA,"",   99.9023E-03,  -32.4500E-03,  -94.4853E-03,   5.15537E-03
C:/temp/dataset/6/15_14.odb,Step-1,Increment      1: Step Time =    1.000,"PART-1-1",           428,           -5.,      -8.71250,            0.,NA,NA,"",   101.818E-03,  -36.1373E-03,  -95.1895E-03,   4.21095E-03
C:/temp/dataset/6/15_14.odb,Step-1,Increment      1: Step Time =    1.000,"PART-1-1",           429,      -6.07322,      -7.75598,            0.,NA,NA,"",   113.322E-03,  -43.0805E-03,  -104.814E-03,   4.62792E-03
C:/temp/dataset/6/15_14.odb,Step-1,Increment      1: Step Time =    1.000,"PART-1-1",           430,      -12.7270,      -6.06323,            0.,NA,NA,"",   176.572E-03,  -71.4132E-03,  -161.487E-03,   9.08096E-03
C:/temp/dataset/6/15_14.odb,Step-1,Increment      1: Step Time =    1.000,"PART-1-1",           431,      -13.8025,      -4.90646,            0.,NA,NA,"",   197.790E-03,  -83.0993E-03,  -179.486E-03,   10.1016E-03
C:/temp/dataset/6/15_14.odb,Step-1,Increment      1: Step Time =    1.000,"PART-1-1",           432,          -15.,         -6.25,            0.,NA,NA,"",   192.622E-03,  -80.3543E-03,  -175.061E-03,   10.6324E-03
C:/temp/dataset/6/15_14.odb,Step-1,Increment      1: Step Time =    1.000,"PART-1-1",           433,      -13.9244,      -7.40677,            0.,NA,NA,"",   172.620E-03,  -69.1544E-03,  -158.162E-03,   9.58147E-03
C:/temp/dataset/6/15_14.odb,Step-1,Increment      1: Step Time =    1.000,"PART-1-1",           434,       1.60591,      -1.50045,            0.,NA,NA,"",   106.148E-03,  -91.5263E-03,  -53.7608E-03,   497.859E-06
C:/temp/dataset/6/15_14.odb,Step-1,Increment      1: Step Time =    1.000,"PART-1-1",           435,  -853.298E-03,      -1.92043,            0.,NA,NA,"",   114.596E-03,  -86.3711E-03,  -75.3145E-03,   834.790E-06
C:/temp/dataset/6/15_14.odb,Step-1,Increment      1: Step Time =    1.000,"PART-1-1",           436,         13.75,          -30.,            0.,NA,NA,"",            0.,   149.205E-42,   1.26895E-39,   716.584E-06
C:/temp/dataset/6/15_14.odb,Step-1,Increment      1: Step Time =    1.000,"PART-1-1",           437,           15.,      -28.9063,            0.,NA,NA,"",   930.879E-06,  -429.396E-06,   825.927E-06,   962.301E-06
C:/temp/dataset/6/15_14.odb,Step-1,Increment      1: Step Time =    1.000,"PART-1-1",           438,       13.8103,      -27.8746,            0.,NA,NA,"",   1.61288E-03,   117.005E-06,   1.60863E-03,   986.187E-06
C:/temp/dataset/6/15_14.odb,Step-1,Increment      1: Step Time =    1.000,"PART-1-1",           439,       12.5603,      -28.9683,            0.,NA,NA,"",   669.268E-06,   380.611E-06,   550.504E-06,   746.943E-06
C:/temp/dataset/6/15_14.odb,Step-1,Increment      1: Step Time =    1.000,"PART-1-1",           440,       12.6598,      -26.8678,            0.,NA,NA,"",   2.13439E-03,   608.540E-06,   2.04580E-03,   895.953E-06
C:/temp/dataset/6/15_14.odb,Step-1,Increment      1: Step Time =    1.000,"PART-1-1",           441,       11.5501,      -25.8632,            0.,NA,NA,"",   2.31039E-03,   924.003E-06,   2.11757E-03,   727.722E-06
C:/temp/dataset/6/15_14.odb,Step-1,Increment      1: Step Time =    1.000,"PART-1-1",           442,       10.3093,      -26.9762,            0.,NA,NA,"",   1.55032E-03,   1.24745E-03,   920.520E-06,   516.864E-06
C:/temp/dataset/6/15_14.odb,Step-1,Increment      1: Step Time =    1.000,"PART-1-1",           443,       11.4189,      -27.9808,            0.,NA,NA,"",   1.22787E-03,   856.618E-06,   879.701E-06,   658.076E-06
C:/temp/dataset/6/15_14.odb,Step-1,Increment      1: Step Time =    1.000,"PART-1-1",           444,       10.1086,      -29.0125,            0.,NA,NA,"",   701.457E-06,   660.677E-06,   235.685E-06,   527.073E-06
C:/temp/dataset/6/15_14.odb,Step-1,Increment      1: Step Time =    1.000,"PART-1-1",           445,       9.01957,      -28.0513,            0.,NA,NA,"",   1.18901E-03,   1.16491E-03,   238.209E-06,   397.873E-06
C:/temp/dataset/6/15_14.odb,Step-1,Increment      1: Step Time =    1.000,"PART-1-1",           446,          8.75,          -30.,            0.,NA,NA,"",            0.,   537.184E-42,   184.045E-42,   553.340E-06
C:/temp/dataset/6/15_14.odb,Step-1,Increment      1: Step Time =    1.000,"PART-1-1",           447,       4.20973,      -27.9354,            0.,NA,NA,"",   1.57505E-03,   1.49403E-03,  -498.668E-06,   508.181E-06
C:/temp/dataset/6/15_14.odb,Step-1,Increment      1: Step Time =    1.000,"PART-1-1",           448,       2.74203,      -28.9082,            0.,NA,NA,"",   1.19409E-03,   1.12514E-03,  -399.868E-06,   779.240E-06
C:/temp/dataset/6/15_14.odb,Step-1,Increment      1: Step Time =    1.000,"PART-1-1",           449,          3.75,          -30.,            0.,NA,NA,"",            0.,   650.172E-42,  -848.915E-42,   827.608E-06
C:/temp/dataset/6/15_14.odb,Step-1,Increment      1: Step Time =    1.000,"PART-1-1",           450,       1.16266,      -25.9573,            0.,NA,NA,"",   2.98291E-03,   2.59983E-03,  -1.46241E-03,   734.865E-06
C:/temp/dataset/6/15_14.odb,Step-1,Increment      1: Step Time =    1.000,"PART-1-1",           451,       1.65415,      -27.4536,            0.,NA,NA,"",   2.51272E-03,   2.31699E-03,  -972.283E-06,   806.112E-06
C:/temp/dataset/6/15_14.odb,Step-1,Increment      1: Step Time =    1.000,"PART-1-1",           452,       3.39879,      -26.8461,            0.,NA,NA,"",   2.05053E-03,   1.89351E-03,  -786.943E-06,   468.337E-06
C:/temp/dataset/6/15_14.odb,Step-1,Increment      1: Step Time =    1.000,"PART-1-1",           453,       2.90730,      -25.3498,            0.,NA,NA,"",   1.97778E-03,   1.66497E-03,  -1.06746E-03,   540.260E-06
C:/temp/dataset/6/15_14.odb,Step-1,Increment      1: Step Time =    1.000,"PART-1-1",           454,      -3.67645,      -27.5530,            0.,NA,NA,"",   5.71995E-03,   3.59478E-03,  -4.44920E-03,   2.52080E-03
C:/temp/dataset/6/15_14.odb,Step-1,Increment      1: Step Time =    1.000,"PART-1-1",           455,      -2.54816,      -26.3074,            0.,NA,NA,"",   6.39242E-03,   4.04285E-03,  -4.95161E-03,   1.94763E-03
C:/temp/dataset/6/15_14.odb,Step-1,Increment      1: Step Time =    1.000,"PART-1-1",           456,      -3.72120,      -25.1278,            0.,NA,NA,"",   9.81774E-03,   3.51367E-03,  -9.16746E-03,   2.66932E-03
C:/temp/dataset/6/15_14.odb,Step-1,Increment      1: Step Time =    1.000,"PART-1-1",           457,      -4.84948,      -26.3734,            0.,NA,NA,"",   9.41600E-03,   3.38833E-03,  -8.78523E-03,   3.28667E-03
C:/temp/dataset/6/15_14.odb,Step-1,Increment      1: Step Time =    1.000,"PART-1-1",           458,      -4.94498,      -28.7931,            0.,NA,NA,"",   3.49115E-03,   2.14875E-03,  -2.75155E-03,   3.13956E-03
C:/temp/dataset/6/15_14.odb,Step-1,Increment      1: Step Time =    1.000,"PART-1-1",           459,         -3.75,          -30.,            0.,NA,NA,"",            0.,   1.49812E-39,  -4.46178E-39,   2.75498E-03
C:/temp/dataset/6/15_14.odb,Step-1,Increment      1: Step Time =    1.000,"PART-1-1",           460,      -6.07748,      -27.5364,            0.,NA,NA,"",   7.50146E-03,   2.44303E-03,  -7.09249E-03,   3.75527E-03
C:/temp/dataset/6/15_14.odb,Step-1,Increment      1: Step Time =    1.000,"PART-1-1",           461,      -7.38250,      -28.7433,            0.,NA,NA,"",   4.21694E-03,   1.17308E-03,  -4.05049E-03,   4.15428E-03
C:/temp/dataset/6/15_14.odb,Step-1,Increment      1: Step Time =    1.000,"PART-1-1",           462,         -6.25,          -30.,            0.,NA,NA,"",            0.,   1.22293E-39,  -6.49861E-39,   3.57551E-03
C:/temp/dataset/6/15_14.odb,Step-1,Increment      1: Step Time =    1.000,"PART-1-1",           463,      -8.77755,      -24.1806,            0.,NA,NA,"",   27.2170E-03,  -5.80031E-03,  -26.5918E-03,   6.05040E-03
C:/temp/dataset/6/15_14.odb,Step-1,Increment      1: Step Time =    1.000,"PART-1-1",           464,      -9.92276,      -23.8066,            0.,NA,NA,"",   32.7282E-03,  -9.69846E-03,  -31.2582E-03,   6.51270E-03
C:/temp/dataset/6/15_14.odb,Step-1,Increment      1: Step Time =    1.000,"PART-1-1",           465,      -10.3347,      -25.6230,            0.,NA,NA,"",   22.6577E-03,  -6.86719E-03,  -21.5920E-03,   6.36750E-03
C:/temp/dataset/6/15_14.odb,Step-1,Increment      1: Step Time =    1.000,"PART-1-1",           466,       13.9544,      -21.3085,            0.,NA,NA,"",   9.40883E-03,  -3.37961E-03,   8.78091E-03,   1.43089E-03
C:/temp/dataset/6/15_14.odb,Step-1,Increment      1: Step Time =    1.000,"PART-1-1",           467,       13.8855,      -23.5136,            0.,NA,NA,"",   6.11501E-03,  -1.05144E-03,   6.02394E-03,   1.28998E-03
C:/temp/dataset/6/15_14.odb,Step-1,Increment      1: Step Time =    1.000,"PART-1-1",           468,           15.,      -22.3438,            0.,NA,NA,"",   9.16182E-03,  -2.84458E-03,   8.70904E-03,   1.67548E-03
C:/temp/dataset/6/15_14.odb,Step-1,Increment      1: Step Time =    1.000,"PART-1-1",           469,       12.7349,      -24.6944,            0.,NA,NA,"",   3.83021E-03,   180.406E-06,   3.82596E-03,   977.904E-06
C:/temp/dataset/6/15_14.odb,Step-1,Increment      1: Step Time =    1.000,"PART-1-1",           470,       13.8494,      -25.7120,            0.,NA,NA,"",   3.63785E-03,  -32.4141E-06,   3.63771E-03,   1.13260E-03
C:/temp/dataset/6/15_14.odb,Step-1,Increment      1: Step Time =    1.000,"PART-1-1",           471,           15.,      -24.5313,            0.,NA,NA,"",   5.70187E-03,  -1.12111E-03,   5.59056E-03,   1.46679E-03
C:/temp/dataset/6/15_14.odb,Step-1,Increment      1: Step Time =    1.000,"PART-1-1",           472,         11.25,          -30.,            0.,NA,NA,"",            0.,   432.401E-42,   814.433E-42,   594.242E-06
C:/temp/dataset/6/15_14.odb,Step-1,Increment      1: Step Time =    1.000,"PART-1-1",           473,       13.9950,      -12.5232,            0.,NA,NA,"",   35.2625E-03,  -28.8168E-03,   20.3233E-03,   1.36440E-03
C:/temp/dataset/6/15_14.odb,Step-1,Increment      1: Step Time =    1.000,"PART-1-1",           474,       12.9942,      -13.6844,            0.,NA,NA,"",   27.8401E-03,  -23.4208E-03,   15.0512E-03,   1.07476E-03
C:/temp/dataset/6/15_14.odb,Step-1,Increment      1: Step Time =    1.000,"PART-1-1",           475,           15.,      -13.5938,            0.,NA,NA,"",   33.9931E-03,  -25.0632E-03,   22.9644E-03,   1.73771E-03
C:/temp/dataset/6/15_14.odb,Step-1,Increment      1: Step Time =    1.000,"PART-1-1",           476,       9.85236,      -17.2546,            0.,NA,NA,"",   10.5714E-03,  -10.1279E-03,   3.03012E-03,   246.031E-06
C:/temp/dataset/6/15_14.odb,Step-1,Increment      1: Step Time =    1.000,"PART-1-1",           477,       8.68427,      -17.7513,            0.,NA,NA,"",   8.61382E-03,  -8.61374E-03,   38.2100E-06,   326.629E-06
C:/temp/dataset/6/15_14.odb,Step-1,Increment      1: Step Time =    1.000,"PART-1-1",           478,       8.96140,      -18.9835,            0.,NA,NA,"",   5.61032E-03,  -5.54925E-03,   825.558E-06,   225.321E-06
C:/temp/dataset/6/15_14.odb,Step-1,Increment      1: Step Time =    1.000,"PART-1-1",           479,       10.1295,      -18.4868,            0.,NA,NA,"",   7.73348E-03,  -6.91350E-03,   3.46557E-03,   344.021E-06
C:/temp/dataset/6/15_14.odb,Step-1,Increment      1: Step Time =    1.000,"PART-1-1",           480,       11.2436,      -18.3856,            0.,NA,NA,"",   9.67062E-03,  -7.48783E-03,   6.11990E-03,   629.047E-06
C:/temp/dataset/6/15_14.odb,Step-1,Increment      1: Step Time =    1.000,"PART-1-1",           481,       12.3956,      -19.2305,            0.,NA,NA,"",   10.1481E-03,  -6.07427E-03,   8.12934E-03,   992.029E-06
C:/temp/dataset/6/15_14.odb,Step-1,Increment      1: Step Time =    1.000,"PART-1-1",           482,       13.1120,      -18.1414,            0.,NA,NA,"",   14.0661E-03,  -8.93741E-03,   10.8617E-03,   1.19736E-03
C:/temp/dataset/6/15_14.odb,Step-1,Increment      1: Step Time =    1.000,"PART-1-1",           483,       11.9600,      -17.2965,            0.,NA,NA,"",   13.6856E-03,  -10.6102E-03,   8.64410E-03,   834.846E-06
C:/temp/dataset/6/15_14.odb,Step-1,Increment      1: Step Time =    1.000,"PART-1-1",           484,       14.0024,      -3.77677,            0.,NA,NA,"",   82.8802E-03,  -77.5276E-03,   29.3020E-03,   874.547E-06
C:/temp/dataset/6/15_14.odb,Step-1,Increment      1: Step Time =    1.000,"PART-1-1",           485,       13.0359,      -4.87313,            0.,NA,NA,"",   73.4570E-03,  -69.9019E-03,   22.5755E-03,   821.867E-06
C:/temp/dataset/6/15_14.odb,Step-1,Increment      1: Step Time =    1.000,"PART-1-1",           486,       14.0335,      -5.94012,            0.,NA,NA,"",   69.3353E-03,  -63.5653E-03,   27.6919E-03,   1.07194E-03
C:/temp/dataset/6/15_14.odb,Step-1,Increment      1: Step Time =    1.000,"PART-1-1",           487,           15.,      -4.84375,            0.,NA,NA,"",   79.0347E-03,  -70.9912E-03,   34.7381E-03,   1.16821E-03
C:/temp/dataset/6/15_14.odb,Step-1,Increment      1: Step Time =    1.000,"PART-1-1",           488,       13.0510,      -7.01836,            0.,NA,NA,"",   60.3922E-03,  -56.5803E-03,   21.1159E-03,   901.275E-06
C:/temp/dataset/6/15_14.odb,Step-1,Increment      1: Step Time =    1.000,"PART-1-1",           489,       14.0175,      -8.10950,            0.,NA,NA,"",   56.7901E-03,  -50.7687E-03,   25.4489E-03,   1.19628E-03
C:/temp/dataset/6/15_14.odb,Step-1,Increment      1: Step Time =    1.000,"PART-1-1",           490,           15.,      -7.03125,            0.,NA,NA,"",   65.9465E-03,  -57.5374E-03,   32.2239E-03,   1.38704E-03
C:/temp/dataset/6/15_14.odb,Step-1,Increment      1: Step Time =    1.000,"PART-1-1",           491,         13.75,            5.,            0.,NA,NA,"",   142.172E-03,  -138.974E-03,   29.9878E-03,   23.6902E-06
C:/temp/dataset/6/15_14.odb,Step-1,Increment      1: Step Time =    1.000,"PART-1-1",           492,       12.4982,       3.90020,            0.,NA,NA,"",   133.256E-03,  -131.494E-03,   21.5997E-03,   172.674E-06
C:/temp/dataset/6/15_14.odb,Step-1,Increment      1: Step Time =    1.000,"PART-1-1",           493,       13.7482,       2.80645,            0.,NA,NA,"",   127.448E-03,  -123.870E-03,   29.9858E-03,   164.126E-06
C:/temp/dataset/6/15_14.odb,Step-1,Increment      1: Step Time =    1.000,"PART-1-1",           494,           15.,       3.90625,            0.,NA,NA,"",   137.056E-03,  -131.522E-03,   38.5543E-03,   23.5290E-06
C:/temp/dataset/6/15_14.odb,Step-1,Increment      1: Step Time =    1.000,"PART-1-1",           495,         11.25,            5.,            0.,NA,NA,"",   139.710E-03,  -139.081E-03,   13.2450E-03,   230.754E-06
C:/temp/dataset/6/15_14.odb,Step-1,Increment      1: Step Time =    1.000,"PART-1-1",           496,       11.2740,       2.82937,            0.,NA,NA,"",   124.874E-03,  -124.129E-03,   13.6260E-03,   445.474E-06
C:/temp/dataset/6/15_14.odb,Step-1,Increment      1: Step Time =    1.000,"PART-1-1",           497,       11.1422,   446.578E-03,            0.,NA,NA,"",   107.637E-03,  -106.877E-03,   12.7687E-03,   657.539E-06
C:/temp/dataset/6/15_14.odb,Step-1,Increment      1: Step Time =    1.000,"PART-1-1",           498,       10.2035,  -836.101E-03,            0.,NA,NA,"",   97.6452E-03,  -97.4098E-03,   6.77499E-03,   766.642E-06
C:/temp/dataset/6/15_14.odb,Step-1,Increment      1: Step Time =    1.000,"PART-1-1",           499,       11.7017,      -1.82731,            0.,NA,NA,"",   91.7835E-03,  -90.4034E-03,   15.8572E-03,   714.653E-06
C:/temp/dataset/6/15_14.odb,Step-1,Increment      1: Step Time =    1.000,"PART-1-1",           500,       12.5035,       1.67834,            0.,NA,NA,"",   117.834E-03,  -115.833E-03,   21.6247E-03,   439.051E-06
C:/temp/dataset/6/15_14.odb,Step-1,Increment      1: Step Time =    1.000,"PART-1-1",           501,       9.91277,       1.59761,            0.,NA,NA,"",   115.520E-03,  -115.414E-03,   4.95793E-03,   658.867E-06
C:/temp/dataset/6/15_14.odb,Step-1,Increment      1: Step Time =    1.000,"PART-1-1",           502,       5.19643,       3.92738,            0.,NA,NA,"",   137.613E-03,  -134.890E-03,  -27.2435E-03,   1.00015E-03
C:/temp/dataset/6/15_14.odb,Step-1,Increment      1: Step Time =    1.000,"PART-1-1",           503,          3.75,            5.,            0.,NA,NA,"",   149.505E-03,  -144.464E-03,  -38.4957E-03,   1.40203E-03
C:/temp/dataset/6/15_14.odb,Step-1,Increment      1: Step Time =    1.000,"PART-1-1",           504,       2.66615,       3.61346,            0.,NA,NA,"",   142.367E-03,  -134.738E-03,  -45.9787E-03,   1.14034E-03
C:/temp/dataset/6/15_14.odb,Step-1,Increment      1: Step Time =    1.000,"PART-1-1",           505,      -1.00804,       2.95894,            0.,NA,NA,"",   152.746E-03,  -132.400E-03,  -76.1670E-03,   1.25526E-03
C:/temp/dataset/6/15_14.odb,Step-1,Increment      1: Step Time =    1.000,"PART-1-1",           506,   87.8012E-03,       3.95476,            0.,NA,NA,"",   155.826E-03,  -140.567E-03,  -67.2521E-03,   1.53646E-03
C:/temp/dataset/6/15_14.odb,Step-1,Increment      1: Step Time =    1.000,"PART-1-1",           507,         -1.25,            5.,            0.,NA,NA,"",   172.047E-03,  -152.293E-03,  -80.0436E-03,   2.41483E-03
C:/temp/dataset/6/15_14.odb,Step-1,Increment      1: Step Time =    1.000,"PART-1-1",           508,      -2.34584,       4.00418,            0.,NA,NA,"",   170.106E-03,  -144.920E-03,  -89.0741E-03,   2.00823E-03
C:/temp/dataset/6/15_14.odb,Step-1,Increment      1: Step Time =    1.000,"PART-1-1",           509,      -3.27281,       2.96378,            0.,NA,NA,"",   166.212E-03,  -134.532E-03,  -97.6084E-03,   905.048E-06
C:/temp/dataset/6/15_14.odb,Step-1,Increment      1: Step Time =    1.000,"PART-1-1",           510,         -3.75,            5.,            0.,NA,NA,"",   190.482E-03,  -159.230E-03,  -104.542E-03,   3.96924E-03
C:/temp/dataset/6/15_14.odb,Step-1,Increment      1: Step Time =    1.000,"PART-1-1",           511,      -4.67697,       3.95960,            0.,NA,NA,"",   186.721E-03,  -148.200E-03,  -113.586E-03,   2.06880E-03
C:/temp/dataset/6/15_14.odb,Step-1,Increment      1: Step Time =    1.000,"PART-1-1",           512,      -7.93004,       8.58536,            0.,NA,NA,"",   305.548E-03,  -244.229E-03,  -183.607E-03,   3.35643E-03
C:/temp/dataset/6/15_14.odb,Step-1,Increment      1: Step Time =    1.000,"PART-1-1",           513,      -8.65034,       7.25415,            0.,NA,NA,"",   290.854E-03,  -215.630E-03,  -195.192E-03,   4.95333E-03
C:/temp/dataset/6/15_14.odb,Step-1,Increment      1: Step Time =    1.000,"PART-1-1",           514,      -7.51010,       6.50150,            0.,NA,NA,"",   259.374E-03,  -197.904E-03,  -167.656E-03,   3.01600E-03
C:/temp/dataset/6/15_14.odb,Step-1,Increment      1: Step Time =    1.000,"PART-1-1",           515,      -6.78981,       7.83270,            0.,NA,NA,"",   273.831E-03,  -225.869E-03,  -154.811E-03,   1.40967E-03
C:/temp/dataset/6/15_14.odb,Step-1,Increment      1: Step Time =    1.000,"PART-1-1",           516,      -7.08495,       12.0475,            0.,NA,NA,"",   375.117E-03,  -334.641E-03,  -169.494E-03,   1.59357E-03
C:/temp/dataset/6/15_14.odb,Step-1,Increment      1: Step Time =    1.000,"PART-1-1",           517,      -6.02998,       11.1050,            0.,NA,NA,"",   337.526E-03,  -308.000E-03,  -138.059E-03,   382.604E-06
C:/temp/dataset/6/15_14.odb,Step-1,Increment      1: Step Time =    1.000,"PART-1-1",           518,           -5.,       12.2917,            0.,NA,NA,"",   359.563E-03,  -343.149E-03,  -107.399E-03,   2.34295E-03
C:/temp/dataset/6/15_14.odb,Step-1,Increment      1: Step Time =    1.000,"PART-1-1",           519,      -6.05497,       13.2342,            0.,NA,NA,"",   395.939E-03,  -370.750E-03,  -138.969E-03,   531.087E-06
C:/temp/dataset/6/15_14.odb,Step-1,Increment      1: Step Time =    1.000,"PART-1-1",           520,      -9.96524,       21.0498,            0.,NA,NA,"",   741.857E-03,  -670.429E-03,  -317.611E-03,   6.86962E-03
C:/temp/dataset/6/15_14.odb,Step-1,Increment      1: Step Time =    1.000,"PART-1-1",           521,      -8.51702,       20.1362,            0.,NA,NA,"",   674.935E-03,  -628.043E-03,  -247.183E-03,   3.95181E-03
C:/temp/dataset/6/15_14.odb,Step-1,Increment      1: Step Time =    1.000,"PART-1-1",           522,      -8.09442,       21.6565,            0.,NA,NA,"",   734.374E-03,  -695.991E-03,  -234.311E-03,   3.04767E-03
C:/temp/dataset/6/15_14.odb,Step-1,Increment      1: Step Time =    1.000,"PART-1-1",           523,      -9.54264,       22.5701,            0.,NA,NA,"",   801.697E-03,  -740.155E-03,  -308.038E-03,   5.95952E-03
C:/temp/dataset/6/15_14.odb,Step-1,Increment      1: Step Time =    1.000,"PART-1-1",           524,      -7.38593,       19.0122,            0.,NA,NA,"",   611.791E-03,  -579.993E-03,  -194.669E-03,   1.73692E-03
C:/temp/dataset/6/15_14.odb,Step-1,Increment      1: Step Time =    1.000,"PART-1-1",           525,      -6.14460,       17.5723,            0.,NA,NA,"",   541.928E-03,  -522.856E-03,  -142.505E-03,   702.187E-06
C:/temp/dataset/6/15_14.odb,Step-1,Increment      1: Step Time =    1.000,"PART-1-1",           526,           -5.,       18.5417,            0.,NA,NA,"",   571.507E-03,  -563.393E-03,  -95.9645E-03,   3.04378E-03
C:/temp/dataset/6/15_14.odb,Step-1,Increment      1: Step Time =    1.000,"PART-1-1",           527,      -9.12859,       24.1056,            0.,NA,NA,"",   867.565E-03,  -815.219E-03,  -296.793E-03,   5.02607E-03
C:/temp/dataset/6/15_14.odb,Step-1,Increment      1: Step Time =    1.000,"PART-1-1",           528,      -7.82088,       23.2603,            0.,NA,NA,"",   805.241E-03,  -772.618E-03,  -226.879E-03,   2.40728E-03
C:/temp/dataset/6/15_14.odb,Step-1,Increment      1: Step Time =    1.000,"PART-1-1",           529,      -7.11221,       24.6459,            0.,NA,NA,"",   865.422E-03,  -843.260E-03,  -194.595E-03,   786.616E-06
C:/temp/dataset/6/15_14.odb,Step-1,Increment      1: Step Time =    1.000,"PART-1-1",           530,      -8.41993,       25.4912,            0.,NA,NA,"",   926.048E-03,  -886.886E-03,  -266.456E-03,   3.26902E-03
C:/temp/dataset/6/15_14.odb,Step-1,Increment      1: Step Time =    1.000,"PART-1-1",           531,           -5.,       28.9583,            0.,NA,NA,"",       1.09057,      -1.08738,  -83.3566E-03,   675.649E-06
C:/temp/dataset/6/15_14.odb,Step-1,Increment      1: Step Time =    1.000,"PART-1-1",           532,         -6.25,           30.,            0.,NA,NA,"",       1.15578,      -1.14520,  -156.032E-03,   734.916E-06
C:/temp/dataset/6/15_14.odb,Step-1,Increment      1: Step Time =    1.000,"PART-1-1",           533,      -6.22481,       27.8751,            0.,NA,NA,"",       1.03384,      -1.02273,  -151.166E-03,   1.46488E-03
C:/temp/dataset/6/15_14.odb,Step-1,Increment      1: Step Time =    1.000,"PART-1-1",           534,      -11.1386,       27.5393,            0.,NA,NA,"",       1.09287,      -1.00224,  -435.737E-03,   11.0943E-03
C:/temp/dataset/6/15_14.odb,Step-1,Increment      1: Step Time =    1.000,"PART-1-1",           535,        -11.25,           30.,            0.,NA,NA,"",       1.24298,      -1.14856,  -475.183E-03,   12.0814E-03
C:/temp/dataset/6/15_14.odb,Step-1,Increment      1: Step Time =    1.000,"PART-1-1",           536,      -13.1147,       13.7606,            0.,NA,NA,"",   547.785E-03,  -403.059E-03,  -370.961E-03,   12.8488E-03
C:/temp/dataset/6/15_14.odb,Step-1,Increment      1: Step Time =    1.000,"PART-1-1",           537,      -14.0658,       14.9906,            0.,NA,NA,"",   614.022E-03,  -448.813E-03,  -419.034E-03,   14.7991E-03
C:/temp/dataset/6/15_14.odb,Step-1,Increment      1: Step Time =    1.000,"PART-1-1",           538,          -15.,         13.75,            0.,NA,NA,"",   598.748E-03,  -414.246E-03,  -432.319E-03,   16.4968E-03
C:/temp/dataset/6/15_14.odb,Step-1,Increment      1: Step Time =    1.000,"PART-1-1",           539,      -9.42834,       18.6970,            0.,NA,NA,"",   633.259E-03,  -568.671E-03,  -278.622E-03,   5.80392E-03
C:/temp/dataset/6/15_14.odb,Step-1,Increment      1: Step Time =    1.000,"PART-1-1",           540,      -8.29725,       17.5730,            0.,NA,NA,"",   569.833E-03,  -522.591E-03,  -227.175E-03,   3.59047E-03
C:/temp/dataset/6/15_14.odb,Step-1,Increment      1: Step Time =    1.000,"PART-1-1",           541,      -12.7588,       6.21303,            0.,NA,NA,"",   346.683E-03,  -209.586E-03,  -276.157E-03,   11.5512E-03
C:/temp/dataset/6/15_14.odb,Step-1,Increment      1: Step Time =    1.000,"PART-1-1",           542,          -15.,          6.25,            0.,NA,NA,"",   391.893E-03,  -223.482E-03,  -321.925E-03,   15.3152E-03
C:/temp/dataset/6/15_14.odb,Step-1,Increment      1: Step Time =    1.000,"PART-1-1",           543,      -9.01063,       9.47069,            0.,NA,NA,"",   342.703E-03,  -267.360E-03,  -214.392E-03,   5.24481E-03
C:/temp/dataset/6/15_14.odb,Step-1,Increment      1: Step Time =    1.000,"PART-1-1",           544,      -10.0811,       10.4578,            0.,NA,NA,"",   385.963E-03,  -295.142E-03,  -248.714E-03,   7.09003E-03
C:/temp/dataset/6/15_14.odb,Step-1,Increment      1: Step Time =    1.000,"PART-1-1",           545,      -10.9384,       9.05000,            0.,NA,NA,"",   370.167E-03,  -262.571E-03,  -260.921E-03,   8.66285E-03
C:/temp/dataset/6/15_14.odb,Step-1,Increment      1: Step Time =    1.000,"PART-1-1",           546,      -9.86794,       8.06293,            0.,NA,NA,"",   328.107E-03,  -236.288E-03,  -227.645E-03,   6.82498E-03
C:/temp/dataset/6/15_14.odb,Step-1,Increment      1: Step Time =    1.000,"PART-1-1",           547,      -7.23366,       1.29985,            0.,NA,NA,"",   187.292E-03,  -117.425E-03,  -145.910E-03,   3.73142E-03
C:/temp/dataset/6/15_14.odb,Step-1,Increment      1: Step Time =    1.000,"PART-1-1",           548,      -8.34685,   784.410E-03,            0.,NA,NA,"",   195.845E-03,  -113.501E-03,  -159.602E-03,   5.13114E-03
C:/temp/dataset/6/15_14.odb,Step-1,Increment      1: Step Time =    1.000,"PART-1-1",           549,      -7.43977,  -685.632E-03,            0.,NA,NA,"",   172.084E-03,  -96.9333E-03,  -142.185E-03,   4.05268E-03
C:/temp/dataset/6/15_14.odb,Step-1,Increment      1: Step Time =    1.000,"PART-1-1",           550,      -12.4903,      -8.57964,            0.,NA,NA,"",   151.593E-03,  -57.8322E-03,  -140.128E-03,   8.56663E-03
C:/temp/dataset/6/15_14.odb,Step-1,Increment      1: Step Time =    1.000,"PART-1-1",           551,          -15.,         -8.75,            0.,NA,NA,"",   166.339E-03,  -67.4456E-03,  -152.051E-03,   9.87872E-03
C:/temp/dataset/6/15_14.odb,Step-1,Increment      1: Step Time =    1.000,"PART-1-1",           552,      -13.5658,      -9.92286,            0.,NA,NA,"",   146.748E-03,  -56.5251E-03,  -135.425E-03,   8.84471E-03
C:/temp/dataset/6/15_14.odb,Step-1,Increment      1: Step Time =    1.000,"PART-1-1",           553,      -11.9783,      -7.15971,            0.,NA,NA,"",   160.352E-03,  -62.6107E-03,  -147.623E-03,   8.40316E-03
C:/temp/dataset/6/15_14.odb,Step-1,Increment      1: Step Time =    1.000,"PART-1-1",           554,      -11.8960,      -5.22799,            0.,NA,NA,"",   177.399E-03,  -73.1842E-03,  -161.600E-03,   8.58578E-03
C:/temp/dataset/6/15_14.odb,Step-1,Increment      1: Step Time =    1.000,"PART-1-1",           555,      -12.4565,      -16.3452,            0.,NA,NA,"",   91.3541E-03,  -34.5912E-03,  -84.5518E-03,   7.43626E-03
C:/temp/dataset/6/15_14.odb,Step-1,Increment      1: Step Time =    1.000,"PART-1-1",           556,          -15.,        -16.25,            0.,NA,NA,"",   102.408E-03,  -43.4732E-03,  -92.7226E-03,   7.82577E-03
C:/temp/dataset/6/15_14.odb,Step-1,Increment      1: Step Time =    1.000,"PART-1-1",           557,      -13.7435,      -17.5611,            0.,NA,NA,"",   88.1779E-03,  -36.1357E-03,  -80.4335E-03,   7.40991E-03
C:/temp/dataset/6/15_14.odb,Step-1,Increment      1: Step Time =    1.000,"PART-1-1",           558,      -9.99221,      -8.41662,            0.,NA,NA,"",   135.249E-03,  -49.9161E-03,  -125.700E-03,   7.13015E-03
C:/temp/dataset/6/15_14.odb,Step-1,Increment      1: Step Time =    1.000,"PART-1-1",           559,      -11.4633,      -9.12095,            0.,NA,NA,"",   140.005E-03,  -51.8035E-03,  -130.068E-03,   7.91682E-03
C:/temp/dataset/6/15_14.odb,Step-1,Increment      1: Step Time =    1.000,"PART-1-1",           560,      -10.8070,      -10.1141,            0.,NA,NA,"",   127.938E-03,  -45.7364E-03,  -119.484E-03,   7.57569E-03
C:/temp/dataset/6/15_14.odb,Step-1,Increment      1: Step Time =    1.000,"PART-1-1",           561,      -13.9189,      -24.9166,            0.,NA,NA,"",   38.5203E-03,  -19.3113E-03,  -33.3299E-03,   7.16359E-03
C:/temp/dataset/6/15_14.odb,Step-1,Increment      1: Step Time =    1.000,"PART-1-1",           562,      -12.9076,      -23.6273,            0.,NA,NA,"",   43.5539E-03,  -19.1467E-03,  -39.1196E-03,   7.14398E-03
C:/temp/dataset/6/15_14.odb,Step-1,Increment      1: Step Time =    1.000,"PART-1-1",           563,          -15.,        -23.75,            0.,NA,NA,"",   50.3557E-03,  -25.5647E-03,  -43.3837E-03,   7.12184E-03
C:/temp/dataset/6/15_14.odb,Step-1,Increment      1: Step Time =    1.000,"PART-1-1",           564,          -15.,        -28.75,            0.,NA,NA,"",   14.4884E-03,  -10.2456E-03,  -10.2441E-03,   8.81456E-03
C:/temp/dataset/6/15_14.odb,Step-1,Increment      1: Step Time =    1.000,"PART-1-1",           565,        -13.75,          -30.,            0.,NA,NA,"",            0.,  -845.244E-42,  -12.0641E-39,   8.30294E-03
C:/temp/dataset/6/15_14.odb,Step-1,Increment      1: Step Time =    1.000,"PART-1-1",           566,      -13.7642,      -27.4123,            0.,NA,NA,"",   19.9273E-03,  -11.4050E-03,  -16.3409E-03,   7.43981E-03
C:/temp/dataset/6/15_14.odb,Step-1,Increment      1: Step Time =    1.000,"PART-1-1",           567,            5.,      -6.25625,            0.,NA,NA,"",   65.1179E-03,  -60.4140E-03,  -24.2999E-03,   1.43437E-03
C:/temp/dataset/6/15_14.odb,Step-1,Increment      1: Step Time =    1.000,"PART-1-1",           568,       7.03347,      -6.11658,            0.,NA,NA,"",   61.8257E-03,  -60.5647E-03,  -12.4230E-03,   448.513E-06
C:/temp/dataset/6/15_14.odb,Step-1,Increment      1: Step Time =    1.000,"PART-1-1",           569,       6.04361,      -4.83741,            0.,NA,NA,"",   70.5584E-03,  -67.9544E-03,  -18.9918E-03,   914.418E-06
C:/temp/dataset/6/15_14.odb,Step-1,Increment      1: Step Time =    1.000,"PART-1-1",           570,           15.,      -2.65625,            0.,NA,NA,"",   93.0897E-03,  -85.5433E-03,   36.7155E-03,   855.676E-06
C:/temp/dataset/6/15_14.odb,Step-1,Increment      1: Step Time =    1.000,"PART-1-1",           571,       12.8875,      -2.72454,            0.,NA,NA,"",   87.4003E-03,  -84.3477E-03,   22.8970E-03,   722.845E-06
C:/temp/dataset/6/15_14.odb,Step-1,Increment      1: Step Time =    1.000,"PART-1-1",           572,       10.0248,      -7.91896,            0.,NA,NA,"",   50.6686E-03,  -50.4765E-03,   4.40850E-03,   280.932E-06
C:/temp/dataset/6/15_14.odb,Step-1,Increment      1: Step Time =    1.000,"PART-1-1",           573,       8.98203,      -8.99604,            0.,NA,NA,"",   44.5753E-03,  -44.5658E-03,  -920.327E-06,   255.870E-06
C:/temp/dataset/6/15_14.odb,Step-1,Increment      1: Step Time =    1.000,"PART-1-1",           574,       9.98204,      -10.2112,            0.,NA,NA,"",   38.5218E-03,  -38.3155E-03,   3.98143E-03,   221.633E-06
C:/temp/dataset/6/15_14.odb,Step-1,Increment      1: Step Time =    1.000,"PART-1-1",           575,            5.,      -11.2813,            0.,NA,NA,"",   39.1197E-03,  -34.5291E-03,  -18.3873E-03,   1.36853E-03
C:/temp/dataset/6/15_14.odb,Step-1,Increment      1: Step Time =    1.000,"PART-1-1",           576,       6.96001,      -11.3098,            0.,NA,NA,"",   34.7523E-03,  -33.4486E-03,  -9.42948E-03,   837.551E-06
C:/temp/dataset/6/15_14.odb,Step-1,Increment      1: Step Time =    1.000,"PART-1-1",           577,       12.1169,      -5.93459,            0.,NA,NA,"",   64.9515E-03,  -62.8045E-03,   16.5619E-03,   728.152E-06
C:/temp/dataset/6/15_14.odb,Step-1,Increment      1: Step Time =    1.000,"PART-1-1",           578,       11.1088,      -6.97100,            0.,NA,NA,"",   57.1494E-03,  -56.1850E-03,   10.4547E-03,   543.420E-06
C:/temp/dataset/6/15_14.odb,Step-1,Increment      1: Step Time =    1.000,"PART-1-1",           579,           15.,      -11.4063,            0.,NA,NA,"",   43.3773E-03,  -34.5208E-03,   26.2660E-03,   1.63865E-03
C:/temp/dataset/6/15_14.odb,Step-1,Increment      1: Step Time =    1.000,"PART-1-1",           580,       13.9991,      -10.3053,            0.,NA,NA,"",   45.3814E-03,  -39.1510E-03,   22.9493E-03,   1.28322E-03
C:/temp/dataset/6/15_14.odb,Step-1,Increment      1: Step Time =    1.000,"PART-1-1",           581,       12.9941,      -11.4223,            0.,NA,NA,"",   37.3935E-03,  -33.2348E-03,   17.1384E-03,   1.01292E-03
C:/temp/dataset/6/15_14.odb,Step-1,Increment      1: Step Time =    1.000,"PART-1-1",           582,           15.,      -9.21875,            0.,NA,NA,"",   54.0354E-03,  -45.3611E-03,   29.3631E-03,   1.53020E-03
C:/temp/dataset/6/15_14.odb,Step-1,Increment      1: Step Time =    1.000,"PART-1-1",           583,       9.25975,      -25.9916,            0.,NA,NA,"",   1.54330E-03,   1.39428E-03,   661.640E-06,   341.310E-06
C:/temp/dataset/6/15_14.odb,Step-1,Increment      1: Step Time =    1.000,"PART-1-1",           584,       7.97004,      -27.0667,            0.,NA,NA,"",   1.46423E-03,   1.46391E-03,   30.5373E-06,   291.371E-06
C:/temp/dataset/6/15_14.odb,Step-1,Increment      1: Step Time =    1.000,"PART-1-1",           585,       9.98268,      -20.3187,            0.,NA,NA,"",   4.10903E-03,  -3.14770E-03,   2.64124E-03,   364.294E-06
C:/temp/dataset/6/15_14.odb,Step-1,Increment      1: Step Time =    1.000,"PART-1-1",           586,       8.47236,      -19.9740,            0.,NA,NA,"",   3.45313E-03,  -3.45195E-03,  -90.1335E-06,   281.766E-06
C:/temp/dataset/6/15_14.odb,Step-1,Increment      1: Step Time =    1.000,"PART-1-1",           587,       7.80775,      -21.2882,            0.,NA,NA,"",   1.69757E-03,  -1.43116E-03,  -912.987E-06,   415.355E-06
C:/temp/dataset/6/15_14.odb,Step-1,Increment      1: Step Time =    1.000,"PART-1-1",           588,       9.31806,      -21.6330,            0.,NA,NA,"",   1.72394E-03,  -1.15906E-03,   1.27615E-03,   274.800E-06
C:/temp/dataset/6/15_14.odb,Step-1,Increment      1: Step Time =    1.000,"PART-1-1",           589,          3.75,          -20.,            0.,NA,NA,"",   3.06296E-03,  -2.35727E-03,  -1.95575E-03,   795.244E-06
C:/temp/dataset/6/15_14.odb,Step-1,Increment      1: Step Time =    1.000,"PART-1-1",           590,       2.69482,      -20.9389,            0.,NA,NA,"",   2.71539E-03,  -2.23750E-03,  -1.53850E-03,   478.915E-06
C:/temp/dataset/6/15_14.odb,Step-1,Increment      1: Step Time =    1.000,"PART-1-1",           591,       4.10336,      -21.5712,            0.,NA,NA,"",   2.99491E-03,  -1.91358E-03,  -2.30384E-03,   1.15857E-03
C:/temp/dataset/6/15_14.odb,Step-1,Increment      1: Step Time =    1.000,"PART-1-1",           592,       5.15854,      -20.6323,            0.,NA,NA,"",   4.64707E-03,  -2.57505E-03,  -3.86838E-03,   1.63779E-03
C:/temp/dataset/6/15_14.odb,Step-1,Increment      1: Step Time =    1.000,"PART-1-1",           593,          1.25,          -20.,            0.,NA,NA,"",   3.65832E-03,  -3.17691E-03,  -1.81398E-03,   734.208E-06
C:/temp/dataset/6/15_14.odb,Step-1,Increment      1: Step Time =    1.000,"PART-1-1",           594,       1.58638,      -22.3782,            0.,NA,NA,"",   1.59608E-03,  -724.867E-06,  -1.42198E-03,   748.472E-06
C:/temp/dataset/6/15_14.odb,Step-1,Increment      1: Step Time =    1.000,"PART-1-1",           595,      -7.18878,      -21.5166,            0.,NA,NA,"",   37.1920E-03,  -8.32452E-03,  -36.2484E-03,   6.05429E-03
C:/temp/dataset/6/15_14.odb,Step-1,Increment      1: Step Time =    1.000,"PART-1-1",           596,      -8.69544,      -20.4918,            0.,NA,NA,"",   49.2178E-03,  -14.6485E-03,  -46.9874E-03,   6.16172E-03
C:/temp/dataset/6/15_14.odb,Step-1,Increment      1: Step Time =    1.000,"PART-1-1",           597,      -9.53108,      -21.9939,            0.,NA,NA,"",   42.8464E-03,  -13.0338E-03,  -40.8158E-03,   6.44559E-03
C:/temp/dataset/6/15_14.odb,Step-1,Increment      1: Step Time =    1.000,"PART-1-1",           598,      -8.02442,      -23.0186,            0.,NA,NA,"",   31.5806E-03,  -6.42635E-03,  -30.9198E-03,   6.08233E-03
C:/temp/dataset/6/15_14.odb,Step-1,Increment      1: Step Time =    1.000,"PART-1-1",           599,           -5.,      -18.7437,            0.,NA,NA,"",   43.9226E-03,  -9.63319E-03,  -42.8532E-03,   8.59143E-03
C:/temp/dataset/6/15_14.odb,Step-1,Increment      1: Step Time =    1.000,"PART-1-1",           600,      -6.23242,      -17.5731,            0.,NA,NA,"",   56.2928E-03,  -14.7348E-03,  -54.3302E-03,   6.92333E-03
C:/temp/dataset/6/15_14.odb,Step-1,Increment      1: Step Time =    1.000,"PART-1-1",           601,      -7.41830,      -18.9573,            0.,NA,NA,"",   53.0963E-03,  -15.6735E-03,  -50.7303E-03,   5.94243E-03
C:/temp/dataset/6/15_14.odb,Step-1,Increment      1: Step Time =    1.000,"PART-1-1",           602,      -6.18588,      -20.1280,            0.,NA,NA,"",   40.9787E-03,  -10.8537E-03,  -39.5153E-03,   6.72760E-03
C:/temp/dataset/6/15_14.odb,Step-1,Increment      1: Step Time =    1.000,"PART-1-1",           603,           -5.,      -16.2312,            0.,NA,NA,"",   61.4261E-03,  -12.6058E-03,  -60.1187E-03,   6.52806E-03
C:/temp/dataset/6/15_14.odb,Step-1,Increment      1: Step Time =    1.000,"PART-1-1",           604,      -7.44257,      -16.3835,            0.,NA,NA,"",   68.7466E-03,  -19.7093E-03,  -65.8608E-03,   6.71725E-03
C:/temp/dataset/6/15_14.odb,Step-1,Increment      1: Step Time =    1.000,"PART-1-1",           605,      -12.6830,      -26.0788,            0.,NA,NA,"",   26.0316E-03,  -12.2940E-03,  -22.9457E-03,   7.13898E-03
C:/temp/dataset/6/15_14.odb,Step-1,Increment      1: Step Time =    1.000,"PART-1-1",           606,          -15.,        -26.25,            0.,NA,NA,"",   33.8251E-03,  -19.3835E-03,  -27.7203E-03,   7.30534E-03
C:/temp/dataset/6/15_14.odb,Step-1,Increment      1: Step Time =    1.000,"PART-1-1",           607,         -8.75,          -30.,            0.,NA,NA,"",            0.,   469.295E-42,  -8.38186E-39,   4.39895E-03
C:/temp/dataset/6/15_14.odb,Step-1,Increment      1: Step Time =    1.000,"PART-1-1",           608,          -15.,        -18.75,            0.,NA,NA,"",   84.5703E-03,  -37.5739E-03,  -75.7651E-03,   7.39140E-03
C:/temp/dataset/6/15_14.odb,Step-1,Increment      1: Step Time =    1.000,"PART-1-1",           609,      -12.5734,      -18.8685,            0.,NA,NA,"",   74.5450E-03,  -29.4100E-03,  -68.4982E-03,   7.16597E-03
C:/temp/dataset/6/15_14.odb,Step-1,Increment      1: Step Time =    1.000,"PART-1-1",           610,           -5.,      -11.2063,            0.,NA,NA,"",   88.9919E-03,  -25.9699E-03,  -85.1183E-03,   4.88520E-03
C:/temp/dataset/6/15_14.odb,Step-1,Increment      1: Step Time =    1.000,"PART-1-1",           611,      -7.25264,      -11.4522,            0.,NA,NA,"",   98.0220E-03,  -30.6307E-03,  -93.1132E-03,   6.00595E-03
C:/temp/dataset/6/15_14.odb,Step-1,Increment      1: Step Time =    1.000,"PART-1-1",           612,           -5.,      -6.23750,            0.,NA,NA,"",   115.505E-03,  -49.9197E-03,  -104.161E-03,   3.90117E-03
C:/temp/dataset/6/15_14.odb,Step-1,Increment      1: Step Time =    1.000,"PART-1-1",           613,      -6.16987,      -5.46941,            0.,NA,NA,"",   127.773E-03,  -57.0353E-03,  -114.336E-03,   3.95884E-03
C:/temp/dataset/6/15_14.odb,Step-1,Increment      1: Step Time =    1.000,"PART-1-1",           614,      -7.24309,      -6.98789,            0.,NA,NA,"",   125.697E-03,  -49.6788E-03,  -115.464E-03,   5.11273E-03
C:/temp/dataset/6/15_14.odb,Step-1,Increment      1: Step Time =    1.000,"PART-1-1",           615,           -5.,       16.4583,            0.,NA,NA,"",   492.507E-03,  -482.264E-03,  -99.9264E-03,   2.84813E-03
C:/temp/dataset/6/15_14.odb,Step-1,Increment      1: Step Time =    1.000,"PART-1-1",           616,      -7.23328,       16.4840,            0.,NA,NA,"",   514.628E-03,  -480.996E-03,  -182.990E-03,   1.56982E-03
C:/temp/dataset/6/15_14.odb,Step-1,Increment      1: Step Time =    1.000,"PART-1-1",           617,      -6.08867,       15.3700,            0.,NA,NA,"",   463.221E-03,  -441.492E-03,  -140.208E-03,   649.532E-06
C:/temp/dataset/6/15_14.odb,Step-1,Increment      1: Step Time =    1.000,"PART-1-1",           618,      -13.1522,       16.1892,            0.,NA,NA,"",   630.311E-03,  -485.501E-03,  -401.972E-03,   13.0816E-03
C:/temp/dataset/6/15_14.odb,Step-1,Increment      1: Step Time =    1.000,"PART-1-1",           619,      -14.0864,       17.4486,            0.,NA,NA,"",   703.765E-03,  -537.460E-03,  -454.337E-03,   15.0317E-03
C:/temp/dataset/6/15_14.odb,Step-1,Increment      1: Step Time =    1.000,"PART-1-1",           620,          -15.,         16.25,            0.,NA,NA,"",   686.202E-03,  -498.912E-03,  -471.126E-03,   16.7515E-03
C:/temp/dataset/6/15_14.odb,Step-1,Increment      1: Step Time =    1.000,"PART-1-1",           621,           -5.,       24.7917,            0.,NA,NA,"",   859.155E-03,  -854.972E-03,  -84.6797E-03,   3.13567E-03
C:/temp/dataset/6/15_14.odb,Step-1,Increment      1: Step Time =    1.000,"PART-1-1",           622,      -6.14442,       25.7689,            0.,NA,NA,"",   916.053E-03,  -904.514E-03,  -144.936E-03,   1.04308E-03
C:/temp/dataset/6/15_14.odb,Step-1,Increment      1: Step Time =    1.000,"PART-1-1",           623,           -5.,        26.875,            0.,NA,NA,"",   971.931E-03,  -968.435E-03,  -82.3594E-03,   2.24439E-03
C:/temp/dataset/6/15_14.odb,Step-1,Increment      1: Step Time =    1.000,"PART-1-1",           624,      -7.36924,       26.7689,            0.,NA,NA,"",   980.999E-03,  -957.634E-03,  -212.829E-03,   845.311E-06
C:/temp/dataset/6/15_14.odb,Step-1,Increment      1: Step Time =    1.000,"PART-1-1",           625,      -13.1175,       20.9132,            0.,NA,NA,"",   817.269E-03,  -675.296E-03,  -460.331E-03,   13.2506E-03
C:/temp/dataset/6/15_14.odb,Step-1,Increment      1: Step Time =    1.000,"PART-1-1",           626,      -14.0212,       22.2867,            0.,NA,NA,"",   907.759E-03,  -742.928E-03,  -521.617E-03,   15.1843E-03
C:/temp/dataset/6/15_14.odb,Step-1,Increment      1: Step Time =    1.000,"PART-1-1",           627,          -15.,         21.25,            0.,NA,NA,"",   892.217E-03,  -701.329E-03,  -551.533E-03,   17.1437E-03
C:/temp/dataset/6/15_14.odb,Step-1,Increment      1: Step Time =    1.000,"PART-1-1",           628,      -14.0963,       19.8765,            0.,NA,NA,"",   802.303E-03,  -635.496E-03,  -489.729E-03,   15.2063E-03
C:/temp/dataset/6/15_14.odb,Step-1,Increment      1: Step Time =    1.000,"PART-1-1",           629,         -1.25,           -5.,            0.,NA,NA,"",   99.6422E-03,  -59.3754E-03,  -80.0196E-03,   695.746E-06
C:/temp/dataset/6/15_14.odb,Step-1,Increment      1: Step Time =    1.000,"PART-1-1",           630,      -1.77292,      -3.03732,            0.,NA,NA,"",   113.283E-03,  -75.9416E-03,  -84.0590E-03,   989.627E-06
C:/temp/dataset/6/15_14.odb,Step-1,Increment      1: Step Time =    1.000,"PART-1-1",           631,      -12.1053,      -2.30059,            0.,NA,NA,"",   209.522E-03,  -95.1500E-03,  -186.671E-03,   9.14494E-03
C:/temp/dataset/6/15_14.odb,Step-1,Increment      1: Step Time =    1.000,"PART-1-1",           632,      -10.7648,      -1.40855,            0.,NA,NA,"",   203.542E-03,  -98.0019E-03,  -178.396E-03,   7.87291E-03
C:/temp/dataset/6/15_14.odb,Step-1,Increment      1: Step Time =    1.000,"PART-1-1",           633,      -11.5438,  -354.672E-03,            0.,NA,NA,"",   224.932E-03,  -110.788E-03,  -195.756E-03,   8.88222E-03
C:/temp/dataset/6/15_14.odb,Step-1,Increment      1: Step Time =    1.000,"PART-1-1",           634,          3.75,           -5.,            0.,NA,NA,"",   74.4821E-03,  -64.6407E-03,  -37.0022E-03,   1.50401E-03
C:/temp/dataset/6/15_14.odb,Step-1,Increment      1: Step Time =    1.000,"PART-1-1",           635,       4.52066,      -3.83856,            0.,NA,NA,"",   80.2284E-03,  -74.3690E-03,  -30.0972E-03,   952.319E-06
C:/temp/dataset/6/15_14.odb,Step-1,Increment      1: Step Time =    1.000,"PART-1-1",           636,       2.94662,      -2.72704,            0.,NA,NA,"",   92.6264E-03,  -82.1240E-03,  -42.8404E-03,   532.464E-06
C:/temp/dataset/6/15_14.odb,Step-1,Increment      1: Step Time =    1.000,"PART-1-1",           637,       1.50395,       2.56821,            0.,NA,NA,"",   138.156E-03,  -126.850E-03,  -54.7384E-03,   940.139E-06
C:/temp/dataset/6/15_14.odb,Step-1,Increment      1: Step Time =    1.000,"PART-1-1",           638,          1.25,            5.,            0.,NA,NA,"",   159.023E-03,  -147.965E-03,  -58.2626E-03,   1.77841E-03
C:/temp/dataset/6/15_14.odb,Step-1,Increment      1: Step Time =    1.000,"PART-1-1",           639,          6.25,            5.,            0.,NA,NA,"",   143.206E-03,  -141.760E-03,  -20.2941E-03,   1.03561E-03
C:/temp/dataset/6/15_14.odb,Step-1,Increment      1: Step Time =    1.000,"PART-1-1",           640,  -213.968E-03,      -26.0734,            0.,NA,NA,"",   4.03279E-03,   3.29293E-03,  -2.32809E-03,   1.02634E-03
C:/temp/dataset/6/15_14.odb,Step-1,Increment      1: Step Time =    1.000,"PART-1-1",           641,       1.14210,      -23.8512,            0.,NA,NA,"",   2.02444E-03,   1.17516E-03,  -1.64843E-03,   642.940E-06
C:/temp/dataset/6/15_14.odb,Step-1,Increment      1: Step Time =    1.000,"PART-1-1",           642,  -234.527E-03,      -23.9674,            0.,NA,NA,"",   3.39390E-03,   1.90313E-03,  -2.81009E-03,   713.608E-06
C:/temp/dataset/6/15_14.odb,Step-1,Increment      1: Step Time =    1.000,"PART-1-1",           643,           -5.,        14.375,            0.,NA,NA,"",   421.874E-03,  -408.911E-03,  -103.774E-03,   2.61611E-03
C:/temp/dataset/6/15_14.odb,Step-1,Increment      1: Step Time =    1.000,"PART-1-1",           644,      -7.14364,       14.2292,            0.,NA,NA,"",   438.896E-03,  -402.336E-03,  -175.372E-03,   1.54254E-03
C:/temp/dataset/6/15_14.odb,Step-1,Increment      1: Step Time =    1.000,"PART-1-1",           645,           -5.,       6.04167,            0.,NA,NA,"",   220.606E-03,  -187.502E-03,  -116.232E-03,   2.43419E-03
C:/temp/dataset/6/15_14.odb,Step-1,Increment      1: Step Time =    1.000,"PART-1-1",           646,      -5.82078,       6.95384,            0.,NA,NA,"",   245.238E-03,  -206.250E-03,  -132.675E-03,   506.561E-06
C:/temp/dataset/6/15_14.odb,Step-1,Increment      1: Step Time =    1.000,"PART-1-1",           647,      -6.45742,       5.85906,            0.,NA,NA,"",   233.862E-03,  -183.481E-03,  -145.003E-03,   1.84980E-03
C:/temp/dataset/6/15_14.odb,Step-1,Increment      1: Step Time =    1.000,"PART-1-1",           648,      -5.63664,       4.94688,            0.,NA,NA,"",   208.941E-03,  -164.581E-03,  -128.721E-03,   2.42141E-03
C:/temp/dataset/6/15_14.odb,Step-1,Increment      1: Step Time =    1.000,"PART-1-1",           649,           -5.,         8.125,            0.,NA,NA,"",   259.356E-03,  -233.238E-03,  -113.427E-03,   1.72123E-03
C:/temp/dataset/6/15_14.odb,Step-1,Increment      1: Step Time =    1.000,"PART-1-1",           650,      -5.96903,       9.00386,            0.,NA,NA,"",   287.670E-03,  -253.402E-03,  -136.166E-03,   306.919E-06
C:/temp/dataset/6/15_14.odb,Step-1,Increment      1: Step Time =    1.000,"PART-1-1",           651,          -15.,         -3.75,            0.,NA,NA,"",   222.174E-03,  -97.0209E-03,  -199.871E-03,   11.4791E-03
C:/temp/dataset/6/15_14.odb,Step-1,Increment      1: Step Time =    1.000,"PART-1-1",           652,      -12.7846,      -3.59401,            0.,NA,NA,"",   202.554E-03,  -87.7799E-03,  -182.545E-03,   9.60634E-03
C:/temp/dataset/6/15_14.odb,Step-1,Increment      1: Step Time =    1.000,"PART-1-1",           653,      -11.5430,      -4.20540,            0.,NA,NA,"",   183.899E-03,  -78.5684E-03,  -166.270E-03,   8.35110E-03
C:/temp/dataset/6/15_14.odb,Step-1,Increment      1: Step Time =    1.000,"PART-1-1",           654,      -10.1018,      -4.29084,            0.,NA,NA,"",   169.155E-03,  -73.2415E-03,  -152.477E-03,   7.14377E-03
C:/temp/dataset/6/15_14.odb,Step-1,Increment      1: Step Time =    1.000,"PART-1-1",           655,          -15.,        -11.25,            0.,NA,NA,"",   142.784E-03,  -57.5231E-03,  -130.684E-03,   9.15621E-03
C:/temp/dataset/6/15_14.odb,Step-1,Increment      1: Step Time =    1.000,"PART-1-1",           656,      -12.2331,      -11.1785,            0.,NA,NA,"",   128.405E-03,  -47.0589E-03,  -119.471E-03,   8.08837E-03
C:/temp/dataset/6/15_14.odb,Step-1,Increment      1: Step Time =    1.000,"PART-1-1",           657,       5.21391,      -1.02834,            0.,NA,NA,"",   99.4157E-03,  -96.0493E-03,  -25.6516E-03,   539.414E-06
C:/temp/dataset/6/15_14.odb,Step-1,Increment      1: Step Time =    1.000,"PART-1-1",           658,       6.72319,      -1.59046,            0.,NA,NA,"",   92.9242E-03,  -91.6793E-03,  -15.1601E-03,   694.165E-06
C:/temp/dataset/6/15_14.odb,Step-1,Increment      1: Step Time =    1.000,"PART-1-1",           659,       10.9187,      -16.2245,            0.,NA,NA,"",   14.8879E-03,  -13.4882E-03,   6.30206E-03,   486.961E-06
C:/temp/dataset/6/15_14.odb,Step-1,Increment      1: Step Time =    1.000,"PART-1-1",           660,       11.9858,      -14.8752,            0.,NA,NA,"",   21.1931E-03,  -18.4426E-03,   10.4412E-03,   781.910E-06
C:/temp/dataset/6/15_14.odb,Step-1,Increment      1: Step Time =    1.000,"PART-1-1",           661,       10.9746,      -13.7451,            0.,NA,NA,"",   23.6743E-03,  -22.4770E-03,   7.43353E-03,   455.885E-06
C:/temp/dataset/6/15_14.odb,Step-1,Increment      1: Step Time =    1.000,"PART-1-1",           662,       11.9830,      -12.5543,            0.,NA,NA,"",   30.1930E-03,  -27.7251E-03,   11.9556E-03,   731.827E-06
C:/temp/dataset/6/15_14.odb,Step-1,Increment      1: Step Time =    1.000,"PART-1-1",           663,           15.,      -20.1563,            0.,NA,NA,"",   13.5564E-03,  -5.95996E-03,   12.1760E-03,   1.81398E-03
C:/temp/dataset/6/15_14.odb,Step-1,Increment      1: Step Time =    1.000,"PART-1-1",           664,       14.0841,      -19.1367,            0.,NA,NA,"",   13.9367E-03,  -7.25373E-03,   11.9002E-03,   1.54027E-03
C:/temp/dataset/6/15_14.odb,Step-1,Increment      1: Step Time =    1.000,"PART-1-1",           665,       13.0385,      -20.2889,            0.,NA,NA,"",   9.48799E-03,  -4.40285E-03,   8.40457E-03,   1.16551E-03
C:/temp/dataset/6/15_14.odb,Step-1,Increment      1: Step Time =    1.000,"PART-1-1",           666,           15.,      -17.9688,            0.,NA,NA,"",   19.0956E-03,  -10.6844E-03,   15.8267E-03,   1.85987E-03
C:/temp/dataset/6/15_14.odb,Step-1,Increment      1: Step Time =    1.000,"PART-1-1",           667,          1.25,          -30.,            0.,NA,NA,"",            0.,   927.042E-42,  -1.52772E-39,   1.28209E-03
C:/temp/dataset/6/15_14.odb,Step-1,Increment      1: Step Time =    1.000,"PART-1-1",           668,       3.30543,      -22.6598,            0.,NA,NA,"",   1.68108E-03,  -758.386E-06,  -1.50030E-03,   999.161E-06
C:/temp/dataset/6/15_14.odb,Step-1,Increment      1: Step Time =    1.000,"PART-1-1",           669,       2.86115,      -24.1329,            0.,NA,NA,"",   1.48516E-03,   831.557E-06,  -1.23054E-03,   739.467E-06
C:/temp/dataset/6/15_14.odb,Step-1,Increment      1: Step Time =    1.000,"PART-1-1",           670,      -10.6801,      -21.6169,            0.,NA,NA,"",   49.2589E-03,  -17.2263E-03,  -46.1486E-03,   6.71825E-03
C:/temp/dataset/6/15_14.odb,Step-1,Increment      1: Step Time =    1.000,"PART-1-1",           671,      -11.3394,      -20.4213,            0.,NA,NA,"",   59.4830E-03,  -22.0929E-03,  -55.2280E-03,   6.83602E-03
C:/temp/dataset/6/15_14.odb,Step-1,Increment      1: Step Time =    1.000,"PART-1-1",           672,      -12.1593,      -22.4638,            0.,NA,NA,"",   48.8029E-03,  -19.6155E-03,  -44.6873E-03,   6.97814E-03
C:/temp/dataset/6/15_14.odb,Step-1,Increment      1: Step Time =    1.000,"PART-1-1",           673,      -9.92443,      -16.4516,            0.,NA,NA,"",   79.2847E-03,  -26.5219E-03,  -74.7171E-03,   6.93293E-03
C:/temp/dataset/6/15_14.odb,Step-1,Increment      1: Step Time =    1.000,"PART-1-1",           674,      -8.71114,      -17.7111,            0.,NA,NA,"",   66.0406E-03,  -20.8270E-03,  -62.6706E-03,   6.69494E-03
C:/temp/dataset/6/15_14.odb,Step-1,Increment      1: Step Time =    1.000,"PART-1-1",           675,      -9.25100,      -7.50767,            0.,NA,NA,"",   136.590E-03,  -51.9676E-03,  -126.318E-03,   6.61490E-03
C:/temp/dataset/6/15_14.odb,Step-1,Increment      1: Step Time =    1.000,"PART-1-1",           676,      -8.32615,      -6.25855,            0.,NA,NA,"",   138.490E-03,  -56.1929E-03,  -126.577E-03,   5.76940E-03
C:/temp/dataset/6/15_14.odb,Step-1,Increment      1: Step Time =    1.000,"PART-1-1",           677,      -7.58018,      -5.09368,            0.,NA,NA,"",   140.714E-03,  -61.7947E-03,  -126.420E-03,   5.03462E-03
C:/temp/dataset/6/15_14.odb,Step-1,Increment      1: Step Time =    1.000,"PART-1-1",           678,      -6.67379,      -3.84489,            0.,NA,NA,"",   141.754E-03,  -68.9155E-03,  -123.874E-03,   3.84324E-03
C:/temp/dataset/6/15_14.odb,Step-1,Increment      1: Step Time =    1.000,"PART-1-1",           679,      -2.40491,      -1.03021,            0.,NA,NA,"",   129.010E-03,  -93.2397E-03,  -89.1625E-03,   723.397E-06
C:/temp/dataset/6/15_14.odb,Step-1,Increment      1: Step Time =    1.000,"PART-1-1",           680,      -3.32453,      -2.14711,            0.,NA,NA,"",   127.933E-03,  -82.3692E-03,  -97.8885E-03,   900.520E-06
C:/temp/dataset/6/15_14.odb,Step-1,Increment      1: Step Time =    1.000,"PART-1-1",           681,       10.4745,      -24.8101,            0.,NA,NA,"",   2.05320E-03,   948.032E-06,   1.82123E-03,   534.342E-06
C:/temp/dataset/6/15_14.odb,Step-1,Increment      1: Step Time =    1.000,"PART-1-1",           682,       8.16019,      -23.0435,            0.,NA,NA,"",   247.175E-06,   217.555E-06,  -117.326E-06,   280.058E-06
C:/temp/dataset/6/15_14.odb,Step-1,Increment      1: Step Time =    1.000,"PART-1-1",           683,       9.40124,      -23.8494,            0.,NA,NA,"",   1.29596E-03,   683.540E-06,   1.10103E-03,   305.295E-06
C:/temp/dataset/6/15_14.odb,Step-1,Increment      1: Step Time =    1.000,"PART-1-1",           684,       5.67200,      -27.0943,            0.,NA,NA,"",   1.61993E-03,   1.54709E-03,  -480.284E-06,   313.673E-06
C:/temp/dataset/6/15_14.odb,Step-1,Increment      1: Step Time =    1.000,"PART-1-1",           685,       4.86106,      -26.0050,            0.,NA,NA,"",   1.74203E-03,   1.55298E-03,  -789.261E-06,   342.106E-06
C:/temp/dataset/6/15_14.odb,Step-1,Increment      1: Step Time =    1.000,"PART-1-1",           686,      -2.55341,      -23.8484,            0.,NA,NA,"",   8.16266E-03,   2.70818E-03,  -7.70031E-03,   1.78130E-03
C:/temp/dataset/6/15_14.odb,Step-1,Increment      1: Step Time =    1.000,"PART-1-1",           687,      -4.82130,      -23.8875,            0.,NA,NA,"",   15.7054E-03,   1.62277E-03,  -15.6213E-03,   3.79145E-03
C:/temp/dataset/6/15_14.odb,Step-1,Increment      1: Step Time =    1.000,"PART-1-1",           688,      -5.84083,      -25.1777,            0.,NA,NA,"",   14.7532E-03,   1.75557E-03,  -14.6484E-03,   4.12596E-03
C:/temp/dataset/6/15_14.odb,Step-1,Increment      1: Step Time =    1.000,"PART-1-1",           689,           15.,      -26.7188,            0.,NA,NA,"",   2.98692E-03,  -488.534E-06,   2.94670E-03,   1.22500E-03
C:/temp/dataset/6/15_14.odb,Step-1,Increment      1: Step Time =    1.000,"PART-1-1",           690,       10.9874,      -11.4075,            0.,NA,NA,"",   33.6858E-03,  -32.6481E-03,   8.29671E-03,   438.462E-06
C:/temp/dataset/6/15_14.odb,Step-1,Increment      1: Step Time =    1.000,"PART-1-1",           691,       7.29436,      -19.7763,            0.,NA,NA,"",   4.24574E-03,  -3.65781E-03,  -2.15562E-03,   618.717E-06
C:/temp/dataset/6/15_14.odb,Step-1,Increment      1: Step Time =    1.000,"PART-1-1",           692,       7.78340,      -18.7858,            0.,NA,NA,"",   6.18429E-03,  -5.94893E-03,  -1.68988E-03,   541.189E-06
C:/temp/dataset/6/15_14.odb,Step-1,Increment      1: Step Time =    1.000,"PART-1-1",           693,       10.8970,      -2.99004,            0.,NA,NA,"",   82.6691E-03,  -81.9845E-03,   10.6172E-03,   732.146E-06
C:/temp/dataset/6/15_14.odb,Step-1,Increment      1: Step Time =    1.000,"PART-1-1",           694,       12.0828,      -3.88727,            0.,NA,NA,"",   78.0816E-03,  -76.1159E-03,   17.4098E-03,   729.497E-06
C:/temp/dataset/6/15_14.odb,Step-1,Increment      1: Step Time =    1.000,"PART-1-1",           695,           15.,       1.71875,            0.,NA,NA,"",   122.516E-03,  -116.304E-03,   38.5176E-03,   175.969E-06
C:/temp/dataset/6/15_14.odb,Step-1,Increment      1: Step Time =    1.000,"PART-1-1",           696,       4.00043,  -427.215E-03,            0.,NA,NA,"",   106.678E-03,  -100.885E-03,  -34.6738E-03,   367.932E-06
C:/temp/dataset/6/15_14.odb,Step-1,Increment      1: Step Time =    1.000,"PART-1-1",           697,       2.09609,       1.00148,            0.,NA,NA,"",   123.390E-03,  -112.974E-03,  -49.6193E-03,   433.479E-06
C:/temp/dataset/6/15_14.odb,Step-1,Increment      1: Step Time =    1.000,"PART-1-1",           698,       2.38138,  -554.063E-03,            0.,NA,NA,"",   110.365E-03,  -99.7293E-03,  -47.2710E-03,   274.157E-06
C:/temp/dataset/6/15_14.odb,Step-1,Increment      1: Step Time =    1.000,"PART-1-1",           699,   35.7305E-03,       2.11113,            0.,NA,NA,"",   140.491E-03,  -123.577E-03,  -66.8298E-03,   785.738E-06
C:/temp/dataset/6/15_14.odb,Step-1,Increment      1: Step Time =    1.000,"PART-1-1",           700,           -5.,       10.2083,            0.,NA,NA,"",   305.455E-03,  -284.692E-03,  -110.694E-03,   2.01166E-03
C:/temp/dataset/6/15_14.odb,Step-1,Increment      1: Step Time =    1.000,"PART-1-1",           701,      -6.99901,       9.90050,            0.,NA,NA,"",   320.514E-03,  -275.791E-03,  -163.306E-03,   1.60042E-03
C:/temp/dataset/6/15_14.odb,Step-1,Increment      1: Step Time =    1.000,"PART-1-1",           702,      -11.2396,       16.2208,            0.,NA,NA,"",   581.837E-03,  -478.315E-03,  -331.284E-03,   9.34178E-03
C:/temp/dataset/6/15_14.odb,Step-1,Increment      1: Step Time =    1.000,"PART-1-1",           703,      -10.2112,       15.1096,            0.,NA,NA,"",   520.940E-03,  -436.068E-03,  -284.997E-03,   7.34008E-03
C:/temp/dataset/6/15_14.odb,Step-1,Increment      1: Step Time =    1.000,"PART-1-1",           704,      -9.25876,       16.3324,            0.,NA,NA,"",   542.553E-03,  -477.178E-03,  -258.195E-03,   5.50015E-03
C:/temp/dataset/6/15_14.odb,Step-1,Increment      1: Step Time =    1.000,"PART-1-1",           705,      -10.2871,       17.4437,            0.,NA,NA,"",   603.638E-03,  -520.970E-03,  -304.910E-03,   7.49769E-03
C:/temp/dataset/6/15_14.odb,Step-1,Increment      1: Step Time =    1.000,"PART-1-1",           706,      -8.19479,       15.2434,            0.,NA,NA,"",   486.848E-03,  -437.087E-03,  -214.420E-03,   3.47309E-03
C:/temp/dataset/6/15_14.odb,Step-1,Increment      1: Step Time =    1.000,"PART-1-1",           707,      -9.19446,       14.0222,            0.,NA,NA,"",   466.087E-03,  -397.568E-03,  -243.264E-03,   5.41513E-03
C:/temp/dataset/6/15_14.odb,Step-1,Increment      1: Step Time =    1.000,"PART-1-1",           708,      -8.14331,       13.0080,            0.,NA,NA,"",   417.606E-03,  -364.064E-03,  -204.579E-03,   3.47065E-03
C:/temp/dataset/6/15_14.odb,Step-1,Increment      1: Step Time =    1.000,"PART-1-1",           709,          -15.,         18.75,            0.,NA,NA,"",   783.869E-03,  -594.528E-03,  -510.868E-03,   16.9715E-03
C:/temp/dataset/6/15_14.odb,Step-1,Increment      1: Step Time =    1.000,"PART-1-1",           710,      -13.1826,       18.5751,            0.,NA,NA,"",   721.163E-03,  -576.571E-03,  -433.175E-03,   13.2759E-03
C:/temp/dataset/6/15_14.odb,Step-1,Increment      1: Step Time =    1.000,"PART-1-1",           711,      -11.2313,       23.3702,            0.,NA,NA,"",   878.134E-03,  -782.771E-03,  -397.980E-03,   9.59091E-03
C:/temp/dataset/6/15_14.odb,Step-1,Increment      1: Step Time =    1.000,"PART-1-1",           712,      -10.8173,       24.9058,            0.,NA,NA,"",   943.931E-03,  -859.038E-03,  -391.227E-03,   8.72736E-03
C:/temp/dataset/6/15_14.odb,Step-1,Increment      1: Step Time =    1.000,"PART-1-1",           713,      -13.5418,       24.7667,            0.,NA,NA,"",       1.01423,  -862.668E-03,  -533.357E-03,   14.2716E-03
C:/temp/dataset/6/15_14.odb,Step-1,Increment      1: Step Time =    1.000,"PART-1-1",           714,      -12.2278,       25.9824,            0.,NA,NA,"",       1.03802,  -920.744E-03,  -479.297E-03,   12.5331E-03
C:/temp/dataset/6/15_14.odb,Step-1,Increment      1: Step Time =    1.000,"PART-1-1",           715,          -15.,         26.25,            0.,NA,NA,"",       1.14226,  -949.678E-03,  -634.723E-03,   16.4894E-03
C:/temp/dataset/6/15_14.odb,Step-1,Increment      1: Step Time =    1.000,"PART-1-1",           716,          -15.,         23.75,            0.,NA,NA,"",       1.01166,  -819.651E-03,  -592.975E-03,   17.1725E-03
C:/temp/dataset/6/15_14.odb,Step-1,Increment      1: Step Time =    1.000,"PART-1-1",           717,      -12.5630,       23.3034,            0.,NA,NA,"",   911.369E-03,  -784.462E-03,  -463.910E-03,   12.2997E-03
C:/temp/dataset/6/15_14.odb,Step-1,Increment      1: Step Time =    1.000,"PART-1-1",           718,      -11.1827,       13.8735,            0.,NA,NA,"",   503.622E-03,  -398.147E-03,  -308.405E-03,   9.17138E-03
C:/temp/dataset/6/15_14.odb,Step-1,Increment      1: Step Time =    1.000,"PART-1-1",           719,      -10.1659,       12.7861,            0.,NA,NA,"",   449.159E-03,  -361.119E-03,  -267.089E-03,   7.24155E-03
C:/temp/dataset/6/15_14.odb,Step-1,Increment      1: Step Time =    1.000,"PART-1-1",           720,      -11.4858,       20.4947,            0.,NA,NA,"",   753.785E-03,  -649.938E-03,  -381.802E-03,   9.93336E-03
C:/temp/dataset/6/15_14.odb,Step-1,Increment      1: Step Time =    1.000,"PART-1-1",           721,      -10.4732,       19.7487,            0.,NA,NA,"",   697.866E-03,  -614.681E-03,  -330.430E-03,   7.86601E-03
C:/temp/dataset/6/15_14.odb,Step-1,Increment      1: Step Time =    1.000,"PART-1-1",           722,      -10.9778,       21.7959,            0.,NA,NA,"",   798.332E-03,  -706.976E-03,  -370.835E-03,   8.92210E-03
C:/temp/dataset/6/15_14.odb,Step-1,Increment      1: Step Time =    1.000,"PART-1-1",           723,      -9.13796,       11.7463,            0.,NA,NA,"",   400.462E-03,  -328.196E-03,  -229.470E-03,   5.36296E-03
C:/temp/dataset/6/15_14.odb,Step-1,Increment      1: Step Time =    1.000,"PART-1-1",           724,      -11.1090,       11.4975,            0.,NA,NA,"",   433.955E-03,  -326.638E-03,  -285.700E-03,   8.97593E-03
C:/temp/dataset/6/15_14.odb,Step-1,Increment      1: Step Time =    1.000,"PART-1-1",           725,      -7.95801,       5.48811,            0.,NA,NA,"",   249.082E-03,  -179.119E-03,  -173.085E-03,   4.43363E-03
C:/temp/dataset/6/15_14.odb,Step-1,Increment      1: Step Time =    1.000,"PART-1-1",           726,      -9.27172,       5.51676,            0.,NA,NA,"",   270.541E-03,  -182.970E-03,  -199.284E-03,   6.25815E-03
C:/temp/dataset/6/15_14.odb,Step-1,Increment      1: Step Time =    1.000,"PART-1-1",           727,      -9.10783,       4.19071,            0.,NA,NA,"",   247.425E-03,  -160.079E-03,  -188.663E-03,   6.29960E-03
C:/temp/dataset/6/15_14.odb,Step-1,Increment      1: Step Time =    1.000,"PART-1-1",           728,      -7.79412,       4.16207,            0.,NA,NA,"",   227.147E-03,  -156.281E-03,  -164.839E-03,   4.51489E-03
C:/temp/dataset/6/15_14.odb,Step-1,Increment      1: Step Time =    1.000,"PART-1-1",           729,      -10.3652,   710.465E-03,            0.,NA,NA,"",   221.618E-03,  -117.910E-03,  -187.648E-03,   7.64693E-03
C:/temp/dataset/6/15_14.odb,Step-1,Increment      1: Step Time =    1.000,"PART-1-1",           730,      -11.5756,       2.14983,            0.,NA,NA,"",   257.526E-03,  -139.499E-03,  -216.470E-03,   9.33175E-03
C:/temp/dataset/6/15_14.odb,Step-1,Increment      1: Step Time =    1.000,"PART-1-1",           731,      -10.9514,      -7.70102,            0.,NA,NA,"",   147.870E-03,  -56.3102E-03,  -136.728E-03,   7.73123E-03
C:/temp/dataset/6/15_14.odb,Step-1,Increment      1: Step Time =    1.000,"PART-1-1",           732,      -11.1587,      -15.1039,            0.,NA,NA,"",   93.9901E-03,  -33.0940E-03,  -87.9711E-03,   7.32297E-03
C:/temp/dataset/6/15_14.odb,Step-1,Increment      1: Step Time =    1.000,"PART-1-1",           733,      -11.0422,      -12.5823,            0.,NA,NA,"",   111.106E-03,  -38.7699E-03,  -104.123E-03,   7.53326E-03
C:/temp/dataset/6/15_14.odb,Step-1,Increment      1: Step Time =    1.000,"PART-1-1",           734,      -9.98828,      -19.2456,            0.,NA,NA,"",   61.9322E-03,  -20.9881E-03,  -58.2674E-03,   6.54642E-03
C:/temp/dataset/6/15_14.odb,Step-1,Increment      1: Step Time =    1.000,"PART-1-1",           735,      -11.2222,      -17.6929,            0.,NA,NA,"",   76.9192E-03,  -27.8752E-03,  -71.6905E-03,   6.96700E-03
C:/temp/dataset/6/15_14.odb,Step-1,Increment      1: Step Time =    1.000,"PART-1-1",           736,      -9.72809,       26.4627,            0.,NA,NA,"",       1.00068,  -939.618E-03,  -344.218E-03,   6.31776E-03
C:/temp/dataset/6/15_14.odb,Step-1,Increment      1: Step Time =    1.000,"PART-1-1",           737,      -8.07960,       10.7858,            0.,NA,NA,"",   357.672E-03,  -299.907E-03,  -194.898E-03,   3.46719E-03
C:/temp/dataset/6/15_14.odb,Step-1,Increment      1: Step Time =    1.000,"PART-1-1",           738,      -11.3320,       18.4953,            0.,NA,NA,"",   668.109E-03,  -565.425E-03,  -355.898E-03,   9.57617E-03
C:/temp/dataset/6/15_14.odb,Step-1,Increment      1: Step Time =    1.000,"PART-1-1",           739,      -10.4893,       6.32554,            0.,NA,NA,"",   305.847E-03,  -202.030E-03,  -229.623E-03,   8.05523E-03
C:/temp/dataset/6/15_14.odb,Step-1,Increment      1: Step Time =    1.000,"PART-1-1",           740,      -11.8356,       7.66802,            0.,NA,NA,"",   358.191E-03,  -234.778E-03,  -270.518E-03,   10.1692E-03
C:/temp/dataset/6/15_14.odb,Step-1,Increment      1: Step Time =    1.000,"PART-1-1",           741,      -11.4125,       4.87054,            0.,NA,NA,"",   296.838E-03,  -179.228E-03,  -236.622E-03,   9.43916E-03
C:/temp/dataset/6/15_14.odb,Step-1,Increment      1: Step Time =    1.000,"PART-1-1",           742,       10.1911,      -5.79504,            0.,NA,NA,"",   63.3616E-03,  -63.1039E-03,   5.70924E-03,   488.386E-06
C:/temp/dataset/6/15_14.odb,Step-1,Increment      1: Step Time =    1.000,"PART-1-1",           743,       9.10708,      -6.74300,            0.,NA,NA,"",   57.1373E-03,  -57.1355E-03,  -453.914E-06,   296.535E-06
C:/temp/dataset/6/15_14.odb,Step-1,Increment      1: Step Time =    1.000,"PART-1-1",           744,       11.1638,      -4.94873,            0.,NA,NA,"",   69.7483E-03,  -68.7865E-03,   11.5431E-03,   652.205E-06
C:/temp/dataset/6/15_14.odb,Step-1,Increment      1: Step Time =    1.000,"PART-1-1",           745,       10.4293,      -4.08570,            0.,NA,NA,"",   74.7004E-03,  -74.3199E-03,   7.53047E-03,   659.528E-06
C:/temp/dataset/6/15_14.odb,Step-1,Increment      1: Step Time =    1.000,"PART-1-1",           746,       9.97038,      -14.8971,            0.,NA,NA,"",   18.2758E-03,  -17.9125E-03,   3.62597E-03,   226.598E-06
C:/temp/dataset/6/15_14.odb,Step-1,Increment      1: Step Time =    1.000,"PART-1-1",           747,       9.96577,      -12.5508,            0.,NA,NA,"",   27.6145E-03,  -27.3557E-03,   3.77111E-03,   215.124E-06
C:/temp/dataset/6/15_14.odb,Step-1,Increment      1: Step Time =    1.000,"PART-1-1",           748,       8.96159,      -13.7029,            0.,NA,NA,"",   22.5370E-03,  -22.5370E-03,  -29.4989E-06,   321.251E-06
C:/temp/dataset/6/15_14.odb,Step-1,Increment      1: Step Time =    1.000,"PART-1-1",           749,       6.92617,      -22.4012,            0.,NA,NA,"",   1.48549E-03,  -428.048E-06,  -1.42248E-03,   519.279E-06
C:/temp/dataset/6/15_14.odb,Step-1,Increment      1: Step Time =    1.000,"PART-1-1",           750,       5.94981,      -23.5281,            0.,NA,NA,"",   1.40630E-03,   290.819E-06,  -1.37590E-03,   622.054E-06
C:/temp/dataset/6/15_14.odb,Step-1,Increment      1: Step Time =    1.000,"PART-1-1",           751,       7.18383,      -24.1705,            0.,NA,NA,"",   1.04857E-03,   858.379E-06,  -602.233E-06,   273.239E-06
C:/temp/dataset/6/15_14.odb,Step-1,Increment      1: Step Time =    1.000,"PART-1-1",           752,       11.0968,      -20.2176,            0.,NA,NA,"",   6.01488E-03,  -3.65556E-03,   4.77657E-03,   634.566E-06
C:/temp/dataset/6/15_14.odb,Step-1,Increment      1: Step Time =    1.000,"PART-1-1",           753,       6.43355,      -20.8801,            0.,NA,NA,"",   3.39028E-03,  -1.95660E-03,  -2.76871E-03,   875.888E-06
C:/temp/dataset/6/15_14.odb,Step-1,Increment      1: Step Time =    1.000,"PART-1-1",           754,       8.96045,      -11.3546,            0.,NA,NA,"",   32.7996E-03,  -32.7948E-03,  -564.561E-06,   304.118E-06
C:/temp/dataset/6/15_14.odb,Step-1,Increment      1: Step Time =    1.000,"PART-1-1",           755,       8.17216,      -2.03287,            0.,NA,NA,"",   88.6204E-03,  -88.4270E-03,  -5.85178E-03,   778.857E-06
C:/temp/dataset/6/15_14.odb,Step-1,Increment      1: Step Time =    1.000,"PART-1-1",           756,       9.68046,      -2.49017,            0.,NA,NA,"",   85.3500E-03,  -85.2830E-03,   3.38145E-03,   759.046E-06
C:/temp/dataset/6/15_14.odb,Step-1,Increment      1: Step Time =    1.000,"PART-1-1",           757,      -5.24373,       2.94722,            0.,NA,NA,"",   181.510E-03,  -135.387E-03,  -120.898E-03,   1.15340E-03
C:/temp/dataset/6/15_14.odb,Step-1,Increment      1: Step Time =    1.000,"PART-1-1",           758,      -6.20341,       3.93450,            0.,NA,NA,"",   202.698E-03,  -149.723E-03,  -136.636E-03,   2.52176E-03
C:/temp/dataset/6/15_14.odb,Step-1,Increment      1: Step Time =    1.000,"PART-1-1",           759,       7.87036,      -17.0650,            0.,NA,NA,"",   10.9441E-03,  -10.7055E-03,  -2.27259E-03,   704.697E-06
C:/temp/dataset/6/15_14.odb,Step-1,Increment      1: Step Time =    1.000,"PART-1-1",           760,      -8.77165,      -4.61616,            0.,NA,NA,"",   154.207E-03,  -67.4735E-03,  -138.662E-03,   5.88761E-03
C:/temp/dataset/6/15_14.odb,Step-1,Increment      1: Step Time =    1.000,"PART-1-1",           761,       8.90402,      -15.9271,            0.,NA,NA,"",   14.2762E-03,  -14.2735E-03,   276.659E-06,   335.674E-06
C:/temp/dataset/6/15_14.odb,Step-1,Increment      1: Step Time =    1.000,"PART-1-1",           762,       7.94609,      -14.8939,            0.,NA,NA,"",   18.3707E-03,  -18.0892E-03,  -3.20377E-03,   624.606E-06
C:/temp/dataset/6/15_14.odb,Step-1,Increment      1: Step Time =    1.000,"PART-1-1",           763,      -12.3095,       21.7291,            0.,NA,NA,"",   830.336E-03,  -708.571E-03,  -432.881E-03,   11.6183E-03
C:/temp/dataset/6/15_14.odb,Step-1,Increment      1: Step Time =    1.000,"PART-1-1",           764,      -12.2938,       19.6789,            0.,NA,NA,"",   740.917E-03,  -617.933E-03,  -408.798E-03,   11.5502E-03
C:/temp/dataset/6/15_14.odb,Step-1,Increment      1: Step Time =    1.000,"PART-1-1",           765,       3.72209,      -1.78065,            0.,NA,NA,"",   97.1538E-03,  -89.9589E-03,  -36.6912E-03,   287.291E-06
C:/temp/dataset/6/15_14.odb,Step-1,Increment      1: Step Time =    1.000,"PART-1-1",           766,       6.45852,      -3.38063,            0.,NA,NA,"",   80.0071E-03,  -78.2745E-03,  -16.5602E-03,   607.187E-06
C:/temp/dataset/6/15_14.odb,Step-1,Increment      1: Step Time =    1.000,"PART-1-1",           767,       4.93556,      -2.38177,            0.,NA,NA,"",   89.7959E-03,  -85.5250E-03,  -27.3637E-03,   411.862E-06
C:/temp/dataset/6/15_14.odb,Step-1,Increment      1: Step Time =    1.000,"PART-1-1",           768,      -2.94024,   945.156E-03,            0.,NA,NA,"",   146.499E-03,  -112.310E-03,  -94.0669E-03,   315.611E-06
C:/temp/dataset/6/15_14.odb,Step-1,Increment      1: Step Time =    1.000,"PART-1-1",           769,      -1.69279,      -25.0756,            0.,NA,NA,"",   5.88380E-03,   3.53786E-03,  -4.70134E-03,   1.47427E-03
C:/temp/dataset/6/15_14.odb,Step-1,Increment      1: Step Time =    1.000,"PART-1-1",           770,      -6.93923,      -23.9860,            0.,NA,NA,"",   22.8226E-03,  -1.79558E-03,  -22.7518E-03,   5.37182E-03
C:/temp/dataset/6/15_14.odb,Step-1,Increment      1: Step Time =    1.000,"PART-1-1",           771,      -5.91970,      -22.6959,            0.,NA,NA,"",   24.8633E-03,  -2.03561E-03,  -24.7798E-03,   5.34234E-03
C:/temp/dataset/6/15_14.odb,Step-1,Increment      1: Step Time =    1.000,"PART-1-1",           772,      -12.2208,       17.3915,            0.,NA,NA,"",   648.873E-03,  -525.630E-03,  -380.460E-03,   11.3102E-03
C:/temp/dataset/6/15_14.odb,Step-1,Increment      1: Step Time =    1.000,"PART-1-1",           773,      -12.0398,       10.1961,            0.,NA,NA,"",   420.967E-03,  -295.430E-03,  -299.891E-03,   10.6228E-03
C:/temp/dataset/6/15_14.odb,Step-1,Increment      1: Step Time =    1.000,"PART-1-1",           774,      -10.8637,      -2.91198,            0.,NA,NA,"",   189.504E-03,  -85.6898E-03,  -169.024E-03,   7.90308E-03
C:/temp/dataset/6/15_14.odb,Step-1,Increment      1: Step Time =    1.000,"PART-1-1",           775,      -9.61620,      -11.5179,            0.,NA,NA,"",   110.607E-03,  -37.2382E-03,  -104.150E-03,   7.03032E-03
C:/temp/dataset/6/15_14.odb,Step-1,Increment      1: Step Time =    1.000,"PART-1-1",           776,      -11.8201,      -24.5932,            0.,NA,NA,"",   33.3966E-03,  -13.4105E-03,  -30.5858E-03,   6.98338E-03
C:/temp/dataset/6/15_14.odb,Step-1,Increment      1: Step Time =    1.000,"PART-1-1",           777,      -11.0718,      -23.4296,            0.,NA,NA,"",   38.6888E-03,  -13.9346E-03,  -36.0922E-03,   6.80227E-03
C:/temp/dataset/6/15_14.odb,Step-1,Increment      1: Step Time =    1.000,"PART-1-1",           778,       4.75405,      -23.0816,            0.,NA,NA,"",   1.74368E-03,  -253.286E-06,  -1.72519E-03,   836.936E-06
C:/temp/dataset/6/15_14.odb,Step-1,Increment      1: Step Time =    1.000,"PART-1-1",           779,       5.55198,      -21.9930,            0.,NA,NA,"",   2.63901E-03,  -1.12319E-03,  -2.38806E-03,   1.04147E-03
C:/temp/dataset/6/15_14.odb,Step-1,Increment      1: Step Time =    1.000,"PART-1-1",           780,       7.01336,      -26.0950,            0.,NA,NA,"",   1.53244E-03,   1.49712E-03,  -327.093E-06,   193.636E-06
C:/temp/dataset/6/15_14.odb,Step-1,Increment      1: Step Time =    1.000,"PART-1-1",           781,       4.10189,      -23.9882,            0.,NA,NA,"",   1.41681E-03,   507.752E-06,  -1.32270E-03,   735.058E-06
C:/temp/dataset/6/15_14.odb,Step-1,Increment      1: Step Time =    1.000,"PART-1-1",           782,       4.14804,      -25.2051,            0.,NA,NA,"",   1.67844E-03,   1.33192E-03,  -1.02135E-03,   503.602E-06
C:/temp/dataset/6/15_14.odb,Step-1,Increment      1: Step Time =    1.000,"PART-1-1",           783,      -12.1264,       12.6156,            0.,NA,NA,"",   488.391E-03,  -363.021E-03,  -326.713E-03,   10.9068E-03
C:/temp/dataset/6/15_14.odb,Step-1,Increment      1: Step Time =    1.000,"PART-1-1",           784,      -12.1709,       15.0185,            0.,NA,NA,"",   564.081E-03,  -439.845E-03,  -353.161E-03,   11.1106E-03
C:/temp/dataset/6/15_14.odb,Step-1,Increment      1: Step Time =    1.000,"PART-1-1",           785,      -10.3060,       3.43341,            0.,NA,NA,"",   255.677E-03,  -152.375E-03,  -205.310E-03,   7.79588E-03
C:/temp/dataset/6/15_14.odb,Step-1,Increment      1: Step Time =    1.000,"PART-1-1",           786,      -9.35047,  -311.861E-03,            0.,NA,NA,"",   197.486E-03,  -104.295E-03,  -167.700E-03,   6.28198E-03
C:/temp/dataset/6/15_14.odb,Step-1,Increment      1: Step Time =    1.000,"PART-1-1",           787,      -9.47746,      -1.56252,            0.,NA,NA,"",   186.985E-03,  -92.8434E-03,  -162.307E-03,   6.51044E-03
C:/temp/dataset/6/15_14.odb,Step-1,Increment      1: Step Time =    1.000,"PART-1-1",           788,      -7.56677,      -1.93629,            0.,NA,NA,"",   163.379E-03,  -85.6328E-03,  -139.139E-03,   4.30131E-03
C:/temp/dataset/6/15_14.odb,Step-1,Increment      1: Step Time =    1.000,"PART-1-1",           789,      -9.57637,      -3.06595,            0.,NA,NA,"",   174.550E-03,  -80.6463E-03,  -154.802E-03,   6.55082E-03
C:/temp/dataset/6/15_14.odb,Step-1,Increment      1: Step Time =    1.000,"PART-1-1",           790,      -8.24618,      -3.39128,            0.,NA,NA,"",   158.733E-03,  -75.0195E-03,  -139.886E-03,   5.35765E-03
C:/temp/dataset/6/15_14.odb,Step-1,Increment      1: Step Time =    1.000,"PART-1-1",           791,       7.98922,      -7.69035,            0.,NA,NA,"",   52.1143E-03,  -51.7193E-03,  -6.40428E-03,   436.222E-06
C:/temp/dataset/6/15_14.odb,Step-1,Increment      1: Step Time =    1.000,"PART-1-1",           792,       7.96586,      -10.1263,            0.,NA,NA,"",   39.2708E-03,  -38.8818E-03,  -5.51393E-03,   527.324E-06
C:/temp/dataset/6/15_14.odb,Step-1,Increment      1: Step Time =    1.000,"PART-1-1",           793,       7.95460,      -12.5381,            0.,NA,NA,"",   27.9501E-03,  -27.6024E-03,  -4.39520E-03,   576.668E-06
C:/temp/dataset/6/15_14.odb,Step-1,Increment      1: Step Time =    1.000,"PART-1-1",           794,      -6.90534,       4.84567,            0.,NA,NA,"",   224.133E-03,  -165.598E-03,  -151.040E-03,   3.33798E-03
C:/temp/dataset/6/15_14.odb,Step-1,Increment      1: Step Time =    1.000,"PART-1-1",           795,      -7.09219,       3.25090,            0.,NA,NA,"",   205.879E-03,  -141.446E-03,  -149.597E-03,   3.63390E-03
C:/temp/dataset/6/15_14.odb,Step-1,Increment      1: Step Time =    1.000,"PART-1-1",           796,      -5.99438,      -2.38990,            0.,NA,NA,"",   145.833E-03,  -79.9473E-03,  -121.966E-03,   2.55535E-03
C:/temp/dataset/6/15_14.odb,Step-1,Increment      1: Step Time =    1.000,"PART-1-1",           797,      -8.16339,       2.56404,            0.,NA,NA,"",   212.357E-03,  -134.340E-03,  -164.464E-03,   5.01598E-03
C:/temp/dataset/6/15_14.odb,Step-1,Increment      1: Step Time =    1.000,"PART-1-1",           798,      -6.16245,       1.98671,            0.,NA,NA,"",   181.672E-03,  -124.249E-03,  -132.541E-03,   2.30323E-03
C:/temp/dataset/6/15_14.odb,Step-1,Increment      1: Step Time =    1.000,"PART-1-1",           799,      -9.36160,       1.80674,            0.,NA,NA,"",   220.375E-03,  -127.715E-03,  -179.594E-03,   6.49580E-03
C:/temp/dataset/6/15_14.odb,Step-1,Increment      1: Step Time =    1.000,"PART-1-1",           800,      -4.18828,       1.89018,            0.,NA,NA,"",   162.940E-03,  -122.455E-03,  -107.492E-03,   153.935E-06
C:/temp/dataset/6/15_14.odb,Step-1,Increment      1: Step Time =    1.000,"PART-1-1",           801,      -2.02478,       2.01876,            0.,NA,NA,"",   150.063E-03,  -123.508E-03,  -85.2328E-03,   850.155E-06
C:/temp/dataset/6/15_14.odb,Step-1,Increment      1: Step Time =    1.000,"PART-1-1",           802,       5.29765,      -24.4346,            0.,NA,NA,"",   1.42848E-03,   849.692E-06,  -1.14830E-03,   502.851E-06
C:/temp/dataset/6/15_14.odb,Step-1,Increment      1: Step Time =    1.000,"PART-1-1",           803,       8.18651,      -25.0309,            0.,NA,NA,"",   1.26311E-03,   1.25897E-03,   102.278E-06,   209.306E-06
C:/temp/dataset/6/15_14.odb,Step-1,Increment      1: Step Time =    1.000,"PART-1-1",           804,       6.01068,      -25.2345,            0.,NA,NA,"",   1.49625E-03,   1.27736E-03,  -779.185E-06,   341.415E-06
