ODB Name,Step,Frame,Part Instance Name,    êﬂì_ÉâÉxÉã,X,Y,Z,Section Name,Material Name,Section Point,   U-Magnitude,          U-U1,          U-U2,       S-Mises
C:/temp/dataset/6/15_4.odb,Step-1,Increment      1: Step Time =    1.000,"PART-1-1",             1,            5.,           -5.,            0.,NA,NA,"",   31.3988E-03,  -30.6749E-03,  -6.70339E-03,   122.144E-06
C:/temp/dataset/6/15_4.odb,Step-1,Increment      1: Step Time =    1.000,"PART-1-1",             2,            0.,           -5.,            0.,NA,NA,"",   34.5439E-03,  -29.2856E-03,  -18.3205E-03,   418.040E-06
C:/temp/dataset/6/15_4.odb,Step-1,Increment      1: Step Time =    1.000,"PART-1-1",             3,            5.,      -10.0250,            0.,NA,NA,"",   20.7456E-03,  -19.7611E-03,  -6.31492E-03,   222.901E-06
C:/temp/dataset/6/15_4.odb,Step-1,Increment      1: Step Time =    1.000,"PART-1-1",             4,            5.,      -15.0500,            0.,NA,NA,"",   11.3513E-03,  -10.2897E-03,  -4.79298E-03,   436.392E-06
C:/temp/dataset/6/15_4.odb,Step-1,Increment      1: Step Time =    1.000,"PART-1-1",             5,            5.,          -20.,            0.,NA,NA,"",   3.02982E-03,  -2.50199E-03,  -1.70877E-03,   1.09125E-03
C:/temp/dataset/6/15_4.odb,Step-1,Increment      1: Step Time =    1.000,"PART-1-1",             6,            0.,          -20.,            0.,NA,NA,"",   2.43792E-03,  -2.26007E-03,  -914.076E-06,   294.296E-06
C:/temp/dataset/6/15_4.odb,Step-1,Increment      1: Step Time =    1.000,"PART-1-1",             7,           -5.,          -20.,            0.,NA,NA,"",   9.70934E-03,  -4.02282E-03,  -8.83675E-03,   2.09092E-03
C:/temp/dataset/6/15_4.odb,Step-1,Increment      1: Step Time =    1.000,"PART-1-1",             8,           -5.,      -14.9750,            0.,NA,NA,"",   20.0225E-03,  -8.40330E-03,  -18.1737E-03,   1.62982E-03
C:/temp/dataset/6/15_4.odb,Step-1,Increment      1: Step Time =    1.000,"PART-1-1",             9,           -5.,      -9.95000,            0.,NA,NA,"",   29.4625E-03,  -15.8329E-03,  -24.8466E-03,   1.29235E-03
C:/temp/dataset/6/15_4.odb,Step-1,Increment      1: Step Time =    1.000,"PART-1-1",            10,           -5.,           -5.,            0.,NA,NA,"",   41.1303E-03,  -27.7259E-03,  -30.3805E-03,   1.07379E-03
C:/temp/dataset/6/15_4.odb,Step-1,Increment      1: Step Time =    1.000,"PART-1-1",            11,           15.,          -30.,            0.,NA,NA,"",            0.,  -202.084E-42,   373.516E-42,   720.855E-06
C:/temp/dataset/6/15_4.odb,Step-1,Increment      1: Step Time =    1.000,"PART-1-1",            12,          -15.,          -30.,            0.,NA,NA,"",            0.,  -1.15509E-39,  -1.98624E-39,   3.77805E-03
C:/temp/dataset/6/15_4.odb,Step-1,Increment      1: Step Time =    1.000,"PART-1-1",            13,           15.,        -21.25,            0.,NA,NA,"",   6.50933E-03,  -3.37376E-03,   5.56679E-03,   823.392E-06
C:/temp/dataset/6/15_4.odb,Step-1,Increment      1: Step Time =    1.000,"PART-1-1",            14,           15.,         -12.5,            0.,NA,NA,"",   19.1907E-03,  -15.4004E-03,   11.4503E-03,   582.898E-06
C:/temp/dataset/6/15_4.odb,Step-1,Increment      1: Step Time =    1.000,"PART-1-1",            15,           15.,         -3.75,            0.,NA,NA,"",   37.0756E-03,  -34.1374E-03,   14.4650E-03,   200.134E-06
C:/temp/dataset/6/15_4.odb,Step-1,Increment      1: Step Time =    1.000,"PART-1-1",            16,           15.,            5.,            0.,NA,NA,"",   56.1766E-03,  -54.1596E-03,   14.9179E-03,   4.29679E-06
C:/temp/dataset/6/15_4.odb,Step-1,Increment      1: Step Time =    1.000,"PART-1-1",            17,           10.,            5.,            0.,NA,NA,"",   54.3385E-03,  -54.1971E-03,   3.91772E-03,   61.9815E-06
C:/temp/dataset/6/15_4.odb,Step-1,Increment      1: Step Time =    1.000,"PART-1-1",            18,            5.,            5.,            0.,NA,NA,"",   55.4045E-03,  -54.9840E-03,  -6.81367E-03,   314.668E-06
C:/temp/dataset/6/15_4.odb,Step-1,Increment      1: Step Time =    1.000,"PART-1-1",            19,            0.,            5.,            0.,NA,NA,"",   60.1769E-03,  -57.3020E-03,  -18.3779E-03,   733.877E-06
C:/temp/dataset/6/15_4.odb,Step-1,Increment      1: Step Time =    1.000,"PART-1-1",            20,           -5.,            5.,            0.,NA,NA,"",   70.9663E-03,  -63.2422E-03,  -32.1967E-03,   2.12792E-03
C:/temp/dataset/6/15_4.odb,Step-1,Increment      1: Step Time =    1.000,"PART-1-1",            21,           -5.,         11.25,            0.,NA,NA,"",   118.141E-03,  -114.986E-03,  -27.1182E-03,   870.940E-06
C:/temp/dataset/6/15_4.odb,Step-1,Increment      1: Step Time =    1.000,"PART-1-1",            22,           -5.,          17.5,            0.,NA,NA,"",   185.815E-03,  -184.465E-03,  -22.3606E-03,   953.804E-06
C:/temp/dataset/6/15_4.odb,Step-1,Increment      1: Step Time =    1.000,"PART-1-1",            23,           -5.,         23.75,            0.,NA,NA,"",   275.311E-03,  -274.751E-03,  -17.5590E-03,   976.032E-06
C:/temp/dataset/6/15_4.odb,Step-1,Increment      1: Step Time =    1.000,"PART-1-1",            24,           -5.,           30.,            0.,NA,NA,"",   384.543E-03,  -384.237E-03,  -15.3399E-03,   144.421E-06
C:/temp/dataset/6/15_4.odb,Step-1,Increment      1: Step Time =    1.000,"PART-1-1",            25,          -10.,           30.,            0.,NA,NA,"",   402.085E-03,  -386.639E-03,  -110.378E-03,   2.24475E-03
C:/temp/dataset/6/15_4.odb,Step-1,Increment      1: Step Time =    1.000,"PART-1-1",            26,          -15.,           30.,            0.,NA,NA,"",   442.026E-03,  -391.391E-03,  -205.427E-03,   3.99149E-03
C:/temp/dataset/6/15_4.odb,Step-1,Increment      1: Step Time =    1.000,"PART-1-1",            27,          -15.,          22.5,            0.,NA,NA,"",   314.681E-03,  -262.779E-03,  -173.123E-03,   4.97298E-03
C:/temp/dataset/6/15_4.odb,Step-1,Increment      1: Step Time =    1.000,"PART-1-1",            28,          -15.,           15.,            0.,NA,NA,"",   213.869E-03,  -162.502E-03,  -139.043E-03,   4.93353E-03
C:/temp/dataset/6/15_4.odb,Step-1,Increment      1: Step Time =    1.000,"PART-1-1",            29,          -15.,           7.5,            0.,NA,NA,"",   140.140E-03,  -92.0825E-03,  -105.641E-03,   4.84886E-03
C:/temp/dataset/6/15_4.odb,Step-1,Increment      1: Step Time =    1.000,"PART-1-1",            30,          -15.,            0.,            0.,NA,NA,"",   90.9854E-03,  -51.2704E-03,  -75.1644E-03,   3.97737E-03
C:/temp/dataset/6/15_4.odb,Step-1,Increment      1: Step Time =    1.000,"PART-1-1",            31,          -15.,          -7.5,            0.,NA,NA,"",   59.9037E-03,  -30.0076E-03,  -51.8459E-03,   3.06140E-03
C:/temp/dataset/6/15_4.odb,Step-1,Increment      1: Step Time =    1.000,"PART-1-1",            32,          -15.,          -15.,            0.,NA,NA,"",   37.4110E-03,  -17.7320E-03,  -32.9418E-03,   2.56561E-03
C:/temp/dataset/6/15_4.odb,Step-1,Increment      1: Step Time =    1.000,"PART-1-1",            33,          -15.,         -22.5,            0.,NA,NA,"",   19.2468E-03,  -9.62744E-03,  -16.6659E-03,   2.35221E-03
C:/temp/dataset/6/15_4.odb,Step-1,Increment      1: Step Time =    1.000,"PART-1-1",            34,           2.5,           -5.,            0.,NA,NA,"",   32.5227E-03,  -30.1350E-03,  -12.2316E-03,   324.681E-06
C:/temp/dataset/6/15_4.odb,Step-1,Increment      1: Step Time =    1.000,"PART-1-1",            35,            5.,      -7.51250,            0.,NA,NA,"",   26.0038E-03,  -25.1271E-03,  -6.69527E-03,   103.646E-06
C:/temp/dataset/6/15_4.odb,Step-1,Increment      1: Step Time =    1.000,"PART-1-1",            36,            5.,      -12.5375,            0.,NA,NA,"",   15.8382E-03,  -14.7831E-03,  -5.68390E-03,   337.316E-06
C:/temp/dataset/6/15_4.odb,Step-1,Increment      1: Step Time =    1.000,"PART-1-1",            37,            5.,      -17.5250,            0.,NA,NA,"",   7.34744E-03,  -6.34009E-03,  -3.71324E-03,   596.032E-06
C:/temp/dataset/6/15_4.odb,Step-1,Increment      1: Step Time =    1.000,"PART-1-1",            38,           2.5,          -20.,            0.,NA,NA,"",   1.88325E-03,  -1.77667E-03,  -624.564E-06,   247.690E-06
C:/temp/dataset/6/15_4.odb,Step-1,Increment      1: Step Time =    1.000,"PART-1-1",            39,          -2.5,          -20.,            0.,NA,NA,"",   4.21227E-03,  -3.22700E-03,  -2.70734E-03,   603.060E-06
C:/temp/dataset/6/15_4.odb,Step-1,Increment      1: Step Time =    1.000,"PART-1-1",            40,           -5.,      -17.4875,            0.,NA,NA,"",   15.4756E-03,  -5.83422E-03,  -14.3338E-03,   1.98580E-03
C:/temp/dataset/6/15_4.odb,Step-1,Increment      1: Step Time =    1.000,"PART-1-1",            41,           -5.,      -12.4625,            0.,NA,NA,"",   24.6673E-03,  -11.7155E-03,  -21.7076E-03,   1.48123E-03
C:/temp/dataset/6/15_4.odb,Step-1,Increment      1: Step Time =    1.000,"PART-1-1",            42,           -5.,      -7.47500,            0.,NA,NA,"",   34.5730E-03,  -20.9255E-03,  -27.5211E-03,   1.16351E-03
C:/temp/dataset/6/15_4.odb,Step-1,Increment      1: Step Time =    1.000,"PART-1-1",            43,          -2.5,           -5.,            0.,NA,NA,"",   37.7565E-03,  -28.4348E-03,  -24.8398E-03,   499.368E-06
C:/temp/dataset/6/15_4.odb,Step-1,Increment      1: Step Time =    1.000,"PART-1-1",            44,          12.5,          -30.,            0.,NA,NA,"",            0.,  -175.161E-42,   824.516E-42,   340.091E-06
C:/temp/dataset/6/15_4.odb,Step-1,Increment      1: Step Time =    1.000,"PART-1-1",            45,           10.,          -30.,            0.,NA,NA,"",            0.,   281.721E-42,   465.724E-42,   231.111E-06
C:/temp/dataset/6/15_4.odb,Step-1,Increment      1: Step Time =    1.000,"PART-1-1",            46,           7.5,          -30.,            0.,NA,NA,"",            0.,   189.182E-42,   129.718E-42,   156.968E-06
C:/temp/dataset/6/15_4.odb,Step-1,Increment      1: Step Time =    1.000,"PART-1-1",            47,            5.,          -30.,            0.,NA,NA,"",            0.,   234.488E-42,  -320.768E-42,   165.011E-06
C:/temp/dataset/6/15_4.odb,Step-1,Increment      1: Step Time =    1.000,"PART-1-1",            48,           2.5,          -30.,            0.,NA,NA,"",            0.,   361.654E-42,  -589.327E-42,   241.608E-06
C:/temp/dataset/6/15_4.odb,Step-1,Increment      1: Step Time =    1.000,"PART-1-1",            49,            0.,          -30.,            0.,NA,NA,"",            0.,   28.0316E-42,  -453.129E-42,   398.902E-06
C:/temp/dataset/6/15_4.odb,Step-1,Increment      1: Step Time =    1.000,"PART-1-1",            50,          -2.5,          -30.,            0.,NA,NA,"",            0.,   843.736E-42,  -1.50818E-39,   635.886E-06
C:/temp/dataset/6/15_4.odb,Step-1,Increment      1: Step Time =    1.000,"PART-1-1",            51,           -5.,          -30.,            0.,NA,NA,"",            0.,   1.04576E-39,  -2.28299E-39,   906.010E-06
C:/temp/dataset/6/15_4.odb,Step-1,Increment      1: Step Time =    1.000,"PART-1-1",            52,          -7.5,          -30.,            0.,NA,NA,"",            0.,   1.09002E-39,  -3.09871E-39,   1.18613E-03
C:/temp/dataset/6/15_4.odb,Step-1,Increment      1: Step Time =    1.000,"PART-1-1",            53,          -10.,          -30.,            0.,NA,NA,"",            0.,  -1.36035E-39,  -3.51988E-39,   1.50043E-03
C:/temp/dataset/6/15_4.odb,Step-1,Increment      1: Step Time =    1.000,"PART-1-1",            54,         -12.5,          -30.,            0.,NA,NA,"",            0.,  -537.779E-42,  -3.87213E-39,   1.69189E-03
C:/temp/dataset/6/15_4.odb,Step-1,Increment      1: Step Time =    1.000,"PART-1-1",            55,           15.,      -23.4375,            0.,NA,NA,"",   4.44993E-03,  -1.98437E-03,   3.98298E-03,   777.892E-06
C:/temp/dataset/6/15_4.odb,Step-1,Increment      1: Step Time =    1.000,"PART-1-1",            56,           15.,       -25.625,            0.,NA,NA,"",   2.76951E-03,  -1.13489E-03,   2.52630E-03,   699.499E-06
C:/temp/dataset/6/15_4.odb,Step-1,Increment      1: Step Time =    1.000,"PART-1-1",            57,           15.,      -27.8125,            0.,NA,NA,"",   1.39601E-03,  -654.331E-06,   1.23317E-03,   665.094E-06
C:/temp/dataset/6/15_4.odb,Step-1,Increment      1: Step Time =    1.000,"PART-1-1",            58,           15.,      -14.6875,            0.,NA,NA,"",   15.3889E-03,  -11.5157E-03,   10.2082E-03,   683.966E-06
C:/temp/dataset/6/15_4.odb,Step-1,Increment      1: Step Time =    1.000,"PART-1-1",            59,           15.,       -16.875,            0.,NA,NA,"",   11.9788E-03,  -8.15386E-03,   8.77526E-03,   772.185E-06
C:/temp/dataset/6/15_4.odb,Step-1,Increment      1: Step Time =    1.000,"PART-1-1",            60,           15.,      -19.0625,            0.,NA,NA,"",   9.01135E-03,  -5.42088E-03,   7.19850E-03,   824.489E-06
C:/temp/dataset/6/15_4.odb,Step-1,Increment      1: Step Time =    1.000,"PART-1-1",            61,           15.,       -5.9375,            0.,NA,NA,"",   32.3309E-03,  -29.1475E-03,   13.9898E-03,   289.894E-06
C:/temp/dataset/6/15_4.odb,Step-1,Increment      1: Step Time =    1.000,"PART-1-1",            62,           15.,        -8.125,            0.,NA,NA,"",   27.7259E-03,  -24.3087E-03,   13.3346E-03,   383.073E-06
C:/temp/dataset/6/15_4.odb,Step-1,Increment      1: Step Time =    1.000,"PART-1-1",            63,           15.,      -10.3125,            0.,NA,NA,"",   23.3243E-03,  -19.6976E-03,   12.4911E-03,   480.968E-06
C:/temp/dataset/6/15_4.odb,Step-1,Increment      1: Step Time =    1.000,"PART-1-1",            64,           15.,        2.8125,            0.,NA,NA,"",   51.4699E-03,  -49.2569E-03,   14.9301E-03,   5.03752E-06
C:/temp/dataset/6/15_4.odb,Step-1,Increment      1: Step Time =    1.000,"PART-1-1",            65,           15.,      625.E-03,            0.,NA,NA,"",   46.7099E-03,  -44.2673E-03,   14.9071E-03,   42.5891E-06
C:/temp/dataset/6/15_4.odb,Step-1,Increment      1: Step Time =    1.000,"PART-1-1",            66,           15.,       -1.5625,            0.,NA,NA,"",   41.8926E-03,  -39.2039E-03,   14.7662E-03,   114.735E-06
C:/temp/dataset/6/15_4.odb,Step-1,Increment      1: Step Time =    1.000,"PART-1-1",            67,          12.5,            5.,            0.,NA,NA,"",   54.9481E-03,  -54.1455E-03,   9.35723E-03,   4.80887E-06
C:/temp/dataset/6/15_4.odb,Step-1,Increment      1: Step Time =    1.000,"PART-1-1",            68,           7.5,            5.,            0.,NA,NA,"",   54.4642E-03,  -54.4454E-03,  -1.43300E-03,   171.738E-06
C:/temp/dataset/6/15_4.odb,Step-1,Increment      1: Step Time =    1.000,"PART-1-1",            69,           2.5,            5.,            0.,NA,NA,"",   57.2622E-03,  -55.9035E-03,  -12.4002E-03,   512.938E-06
C:/temp/dataset/6/15_4.odb,Step-1,Increment      1: Step Time =    1.000,"PART-1-1",            70,          -2.5,            5.,            0.,NA,NA,"",   64.3102E-03,  -59.2721E-03,  -24.9524E-03,   1.18292E-03
C:/temp/dataset/6/15_4.odb,Step-1,Increment      1: Step Time =    1.000,"PART-1-1",            71,           -5.,       9.16667,            0.,NA,NA,"",   100.431E-03,  -96.2677E-03,  -28.6155E-03,   821.427E-06
C:/temp/dataset/6/15_4.odb,Step-1,Increment      1: Step Time =    1.000,"PART-1-1",            72,           -5.,       7.08333,            0.,NA,NA,"",   84.8838E-03,  -79.4210E-03,  -29.9595E-03,   1.05763E-03
C:/temp/dataset/6/15_4.odb,Step-1,Increment      1: Step Time =    1.000,"PART-1-1",            73,           -5.,       15.4167,            0.,NA,NA,"",   160.820E-03,  -159.023E-03,  -23.9712E-03,   933.282E-06
C:/temp/dataset/6/15_4.odb,Step-1,Increment      1: Step Time =    1.000,"PART-1-1",            74,           -5.,       13.3333,            0.,NA,NA,"",   138.257E-03,  -135.873E-03,  -25.5646E-03,   903.536E-06
C:/temp/dataset/6/15_4.odb,Step-1,Increment      1: Step Time =    1.000,"PART-1-1",            75,           -5.,       21.6667,            0.,NA,NA,"",   243.053E-03,  -242.298E-03,  -19.1334E-03,   985.554E-06
C:/temp/dataset/6/15_4.odb,Step-1,Increment      1: Step Time =    1.000,"PART-1-1",            76,           -5.,       19.5833,            0.,NA,NA,"",   213.232E-03,  -212.221E-03,  -20.7356E-03,   970.879E-06
C:/temp/dataset/6/15_4.odb,Step-1,Increment      1: Step Time =    1.000,"PART-1-1",            77,           -5.,       27.9167,            0.,NA,NA,"",   346.857E-03,  -346.524E-03,  -15.2152E-03,   384.483E-06
C:/temp/dataset/6/15_4.odb,Step-1,Increment      1: Step Time =    1.000,"PART-1-1",            78,           -5.,       25.8333,            0.,NA,NA,"",   309.975E-03,  -309.555E-03,  -16.1302E-03,   866.932E-06
C:/temp/dataset/6/15_4.odb,Step-1,Increment      1: Step Time =    1.000,"PART-1-1",            79,          -7.5,           30.,            0.,NA,NA,"",   388.808E-03,  -384.105E-03,  -60.2912E-03,   889.678E-06
C:/temp/dataset/6/15_4.odb,Step-1,Increment      1: Step Time =    1.000,"PART-1-1",            80,         -12.5,           30.,            0.,NA,NA,"",   419.498E-03,  -387.626E-03,  -160.390E-03,   4.11059E-03
C:/temp/dataset/6/15_4.odb,Step-1,Increment      1: Step Time =    1.000,"PART-1-1",            81,          -15.,           25.,            0.,NA,NA,"",   354.715E-03,  -302.915E-03,  -184.567E-03,   4.95931E-03
C:/temp/dataset/6/15_4.odb,Step-1,Increment      1: Step Time =    1.000,"PART-1-1",            82,          -15.,          27.5,            0.,NA,NA,"",   397.785E-03,  -346.361E-03,  -195.620E-03,   4.46771E-03
C:/temp/dataset/6/15_4.odb,Step-1,Increment      1: Step Time =    1.000,"PART-1-1",            83,          -15.,          17.5,            0.,NA,NA,"",   244.321E-03,  -192.603E-03,  -150.323E-03,   4.94899E-03
C:/temp/dataset/6/15_4.odb,Step-1,Increment      1: Step Time =    1.000,"PART-1-1",            84,          -15.,           20.,            0.,NA,NA,"",   277.896E-03,  -226.019E-03,  -161.683E-03,   4.96637E-03
C:/temp/dataset/6/15_4.odb,Step-1,Increment      1: Step Time =    1.000,"PART-1-1",            85,          -15.,           10.,            0.,NA,NA,"",   161.886E-03,  -112.208E-03,  -116.690E-03,   4.90406E-03
C:/temp/dataset/6/15_4.odb,Step-1,Increment      1: Step Time =    1.000,"PART-1-1",            86,          -15.,          12.5,            0.,NA,NA,"",   186.429E-03,  -135.699E-03,  -127.834E-03,   4.91951E-03
C:/temp/dataset/6/15_4.odb,Step-1,Increment      1: Step Time =    1.000,"PART-1-1",            87,          -15.,           2.5,            0.,NA,NA,"",   104.825E-03,  -61.9226E-03,  -84.5802E-03,   4.37367E-03
C:/temp/dataset/6/15_4.odb,Step-1,Increment      1: Step Time =    1.000,"PART-1-1",            88,          -15.,            5.,            0.,NA,NA,"",   121.139E-03,  -75.3687E-03,  -94.8384E-03,   4.68383E-03
C:/temp/dataset/6/15_4.odb,Step-1,Increment      1: Step Time =    1.000,"PART-1-1",            89,          -15.,           -5.,            0.,NA,NA,"",   68.9817E-03,  -35.8003E-03,  -58.9645E-03,   3.28907E-03
C:/temp/dataset/6/15_4.odb,Step-1,Increment      1: Step Time =    1.000,"PART-1-1",            90,          -15.,          -2.5,            0.,NA,NA,"",   79.1994E-03,  -42.7628E-03,  -66.6624E-03,   3.59044E-03
C:/temp/dataset/6/15_4.odb,Step-1,Increment      1: Step Time =    1.000,"PART-1-1",            91,          -15.,         -12.5,            0.,NA,NA,"",   44.2486E-03,  -21.1291E-03,  -38.8780E-03,   2.71953E-03
C:/temp/dataset/6/15_4.odb,Step-1,Increment      1: Step Time =    1.000,"PART-1-1",            92,          -15.,          -10.,            0.,NA,NA,"",   51.7142E-03,  -25.1655E-03,  -45.1781E-03,   2.88754E-03
C:/temp/dataset/6/15_4.odb,Step-1,Increment      1: Step Time =    1.000,"PART-1-1",            93,          -15.,          -20.,            0.,NA,NA,"",   25.0595E-03,  -12.0863E-03,  -21.9522E-03,   2.36830E-03
C:/temp/dataset/6/15_4.odb,Step-1,Increment      1: Step Time =    1.000,"PART-1-1",            94,          -15.,         -17.5,            0.,NA,NA,"",   31.0700E-03,  -14.7733E-03,  -27.3331E-03,   2.44055E-03
C:/temp/dataset/6/15_4.odb,Step-1,Increment      1: Step Time =    1.000,"PART-1-1",            95,          -15.,         -27.5,            0.,NA,NA,"",   7.94464E-03,  -4.83127E-03,  -6.30683E-03,   2.52128E-03
C:/temp/dataset/6/15_4.odb,Step-1,Increment      1: Step Time =    1.000,"PART-1-1",            96,          -15.,          -25.,            0.,NA,NA,"",   13.5806E-03,  -7.32684E-03,  -11.4346E-03,   2.28340E-03
C:/temp/dataset/6/15_4.odb,Step-1,Increment      1: Step Time =    1.000,"PART-1-1",            97,       13.0047,      -3.80353,            0.,NA,NA,"",   35.2976E-03,  -33.8459E-03,   10.0186E-03,   200.410E-06
C:/temp/dataset/6/15_4.odb,Step-1,Increment      1: Step Time =    1.000,"PART-1-1",            98,       6.97971,      -7.55833,            0.,NA,NA,"",   25.1059E-03,  -24.9768E-03,  -2.54252E-03,   147.767E-06
C:/temp/dataset/6/15_4.odb,Step-1,Increment      1: Step Time =    1.000,"PART-1-1",            99,       6.96639,      -10.0829,            0.,NA,NA,"",   19.6552E-03,  -19.5055E-03,  -2.42113E-03,   160.819E-06
C:/temp/dataset/6/15_4.odb,Step-1,Increment      1: Step Time =    1.000,"PART-1-1",           100,       12.9900,      -12.5465,            0.,NA,NA,"",   16.8099E-03,  -14.8685E-03,   7.84229E-03,   414.975E-06
C:/temp/dataset/6/15_4.odb,Step-1,Increment      1: Step Time =    1.000,"PART-1-1",           101,       6.90028,      -17.1420,            0.,NA,NA,"",   6.77018E-03,  -6.64139E-03,  -1.31426E-03,   408.969E-06
C:/temp/dataset/6/15_4.odb,Step-1,Increment      1: Step Time =    1.000,"PART-1-1",           102,       7.03871,      -19.0570,            0.,NA,NA,"",   3.97890E-03,  -3.91466E-03,  -712.093E-06,   315.798E-06
C:/temp/dataset/6/15_4.odb,Step-1,Increment      1: Step Time =    1.000,"PART-1-1",           103,       5.31709,      -21.2647,            0.,NA,NA,"",   2.16745E-03,  -1.83798E-03,  -1.14877E-03,   519.954E-06
C:/temp/dataset/6/15_4.odb,Step-1,Increment      1: Step Time =    1.000,"PART-1-1",           104,      -4.83361,      -22.6144,            0.,NA,NA,"",   5.53503E-03,  -969.457E-06,  -5.44947E-03,   1.16989E-03
C:/temp/dataset/6/15_4.odb,Step-1,Increment      1: Step Time =    1.000,"PART-1-1",           105,      -7.46484,      -17.6587,            0.,NA,NA,"",   18.6928E-03,  -7.57082E-03,  -17.0910E-03,   1.92490E-03
C:/temp/dataset/6/15_4.odb,Step-1,Increment      1: Step Time =    1.000,"PART-1-1",           106,      -12.5283,      -27.3245,            0.,NA,NA,"",   5.51663E-03,  -2.78921E-03,  -4.75957E-03,   2.31222E-03
C:/temp/dataset/6/15_4.odb,Step-1,Increment      1: Step Time =    1.000,"PART-1-1",           107,      -12.4870,      -17.6221,            0.,NA,NA,"",   26.8439E-03,  -11.9885E-03,  -24.0181E-03,   2.26493E-03
C:/temp/dataset/6/15_4.odb,Step-1,Increment      1: Step Time =    1.000,"PART-1-1",           108,      -7.32043,      -12.6401,            0.,NA,NA,"",   28.4207E-03,  -13.1603E-03,  -25.1901E-03,   1.79977E-03
C:/temp/dataset/6/15_4.odb,Step-1,Increment      1: Step Time =    1.000,"PART-1-1",           109,      -7.14644,      -8.03697,            0.,NA,NA,"",   38.0636E-03,  -20.9249E-03,  -31.7960E-03,   1.61435E-03
C:/temp/dataset/6/15_4.odb,Step-1,Increment      1: Step Time =    1.000,"PART-1-1",           110,      -12.6601,       4.88622,            0.,NA,NA,"",   106.486E-03,  -70.4465E-03,  -79.8537E-03,   3.43967E-03
C:/temp/dataset/6/15_4.odb,Step-1,Increment      1: Step Time =    1.000,"PART-1-1",           111,      -13.0978,       12.5399,            0.,NA,NA,"",   171.348E-03,  -132.468E-03,  -108.686E-03,   3.79505E-03
C:/temp/dataset/6/15_4.odb,Step-1,Increment      1: Step Time =    1.000,"PART-1-1",           112,      -6.45576,       21.8628,            0.,NA,NA,"",   248.140E-03,  -244.737E-03,  -40.9553E-03,   111.395E-06
C:/temp/dataset/6/15_4.odb,Step-1,Increment      1: Step Time =    1.000,"PART-1-1",           113,      -7.28884,       25.7044,            0.,NA,NA,"",   311.567E-03,  -306.640E-03,  -55.1870E-03,   290.382E-06
C:/temp/dataset/6/15_4.odb,Step-1,Increment      1: Step Time =    1.000,"PART-1-1",           114,      -9.90518,       27.6474,            0.,NA,NA,"",   356.715E-03,  -341.249E-03,  -103.897E-03,   2.14049E-03
C:/temp/dataset/6/15_4.odb,Step-1,Increment      1: Step Time =    1.000,"PART-1-1",           115,      -3.01211,      -3.13168,            0.,NA,NA,"",   42.2183E-03,  -33.2183E-03,  -26.0562E-03,   462.717E-06
C:/temp/dataset/6/15_4.odb,Step-1,Increment      1: Step Time =    1.000,"PART-1-1",           116,      -2.19169,       3.00836,            0.,NA,NA,"",   57.7399E-03,  -52.7172E-03,  -23.5541E-03,   786.368E-06
C:/temp/dataset/6/15_4.odb,Step-1,Increment      1: Step Time =    1.000,"PART-1-1",           117,       1.85193,      -2.77696,            0.,NA,NA,"",   37.9479E-03,  -35.4715E-03,  -13.4839E-03,   253.932E-06
C:/temp/dataset/6/15_4.odb,Step-1,Increment      1: Step Time =    1.000,"PART-1-1",           118,       2.83229,       2.22691,            0.,NA,NA,"",   50.1359E-03,  -48.8707E-03,  -11.1920E-03,   373.745E-06
C:/temp/dataset/6/15_4.odb,Step-1,Increment      1: Step Time =    1.000,"PART-1-1",           119,       7.74921,       3.07964,            0.,NA,NA,"",   50.1297E-03,  -50.1238E-03,  -771.081E-06,   192.865E-06
C:/temp/dataset/6/15_4.odb,Step-1,Increment      1: Step Time =    1.000,"PART-1-1",           120,      -2.47342,      -22.6017,            0.,NA,NA,"",   2.32483E-03,  -752.451E-06,  -2.19970E-03,   413.509E-06
C:/temp/dataset/6/15_4.odb,Step-1,Increment      1: Step Time =    1.000,"PART-1-1",           121,      -7.48266,       20.3798,            0.,NA,NA,"",   229.763E-03,  -222.925E-03,  -55.6379E-03,   503.111E-06
C:/temp/dataset/6/15_4.odb,Step-1,Increment      1: Step Time =    1.000,"PART-1-1",           122,      -7.10993,       13.1351,            0.,NA,NA,"",   141.709E-03,  -133.393E-03,  -47.8304E-03,   315.136E-06
C:/temp/dataset/6/15_4.odb,Step-1,Increment      1: Step Time =    1.000,"PART-1-1",           123,      -6.64156,       6.82435,            0.,NA,NA,"",   88.1716E-03,  -77.3924E-03,  -42.2450E-03,   426.488E-06
C:/temp/dataset/6/15_4.odb,Step-1,Increment      1: Step Time =    1.000,"PART-1-1",           124,      -12.9641,      -2.37512,            0.,NA,NA,"",   72.3403E-03,  -40.1376E-03,  -60.1837E-03,   3.01368E-03
C:/temp/dataset/6/15_4.odb,Step-1,Increment      1: Step Time =    1.000,"PART-1-1",           125,      -12.1317,      -9.84573,            0.,NA,NA,"",   45.5771E-03,  -21.9943E-03,  -39.9190E-03,   2.46846E-03
C:/temp/dataset/6/15_4.odb,Step-1,Increment      1: Step Time =    1.000,"PART-1-1",           126,       4.04132,      -2.67712,            0.,NA,NA,"",   37.0229E-03,  -36.0173E-03,  -8.57054E-03,   263.389E-06
C:/temp/dataset/6/15_4.odb,Step-1,Increment      1: Step Time =    1.000,"PART-1-1",           127,       6.95362,      -12.5367,            0.,NA,NA,"",   14.7299E-03,  -14.5708E-03,  -2.15935E-03,   206.860E-06
C:/temp/dataset/6/15_4.odb,Step-1,Increment      1: Step Time =    1.000,"PART-1-1",           128,       6.92458,      -14.9216,            0.,NA,NA,"",   10.3789E-03,  -10.2273E-03,  -1.76751E-03,   279.634E-06
C:/temp/dataset/6/15_4.odb,Step-1,Increment      1: Step Time =    1.000,"PART-1-1",           129,       12.9089,      -21.3671,            0.,NA,NA,"",   4.66044E-03,  -2.63536E-03,   3.84377E-03,   544.284E-06
C:/temp/dataset/6/15_4.odb,Step-1,Increment      1: Step Time =    1.000,"PART-1-1",           130,   283.131E-03,      -22.8786,            0.,NA,NA,"",   1.06496E-03,  -803.655E-06,  -698.771E-06,   273.960E-06
C:/temp/dataset/6/15_4.odb,Step-1,Increment      1: Step Time =    1.000,"PART-1-1",           131,      -12.9776,      -22.4214,            0.,NA,NA,"",   16.7363E-03,  -7.61067E-03,  -14.9058E-03,   2.24645E-03
C:/temp/dataset/6/15_4.odb,Step-1,Increment      1: Step Time =    1.000,"PART-1-1",           132,      -7.42030,      -15.1083,            0.,NA,NA,"",   23.5480E-03,  -10.1516E-03,  -21.2474E-03,   1.92599E-03
C:/temp/dataset/6/15_4.odb,Step-1,Increment      1: Step Time =    1.000,"PART-1-1",           133,      -7.18486,      -10.2642,            0.,NA,NA,"",   33.1787E-03,  -16.7363E-03,  -28.6483E-03,   1.70665E-03
C:/temp/dataset/6/15_4.odb,Step-1,Increment      1: Step Time =    1.000,"PART-1-1",           134,      -7.33974,      -5.93881,            0.,NA,NA,"",   43.6550E-03,  -25.8588E-03,  -35.1722E-03,   1.40934E-03
C:/temp/dataset/6/15_4.odb,Step-1,Increment      1: Step Time =    1.000,"PART-1-1",           135,  -533.729E-03,      -2.94296,            0.,NA,NA,"",   39.5733E-03,  -34.5039E-03,  -19.3785E-03,   306.663E-06
C:/temp/dataset/6/15_4.odb,Step-1,Increment      1: Step Time =    1.000,"PART-1-1",           136,       10.2172,      -28.0250,            0.,NA,NA,"",   388.747E-06,   188.443E-06,   340.020E-06,   226.386E-06
C:/temp/dataset/6/15_4.odb,Step-1,Increment      1: Step Time =    1.000,"PART-1-1",           137,       7.82196,      -28.0777,            0.,NA,NA,"",   254.395E-06,   247.561E-06,   58.5692E-06,   78.9518E-06
C:/temp/dataset/6/15_4.odb,Step-1,Increment      1: Step Time =    1.000,"PART-1-1",           138,       5.43540,      -28.0544,            0.,NA,NA,"",   260.607E-06,   233.420E-06,  -115.893E-06,   89.1420E-06
C:/temp/dataset/6/15_4.odb,Step-1,Increment      1: Step Time =    1.000,"PART-1-1",           139,       2.98405,      -27.8165,            0.,NA,NA,"",   364.464E-06,   281.485E-06,  -231.519E-06,   154.421E-06
C:/temp/dataset/6/15_4.odb,Step-1,Increment      1: Step Time =    1.000,"PART-1-1",           140,   324.250E-03,      -27.0908,            0.,NA,NA,"",   687.635E-06,   495.500E-06,  -476.784E-06,   268.186E-06
C:/temp/dataset/6/15_4.odb,Step-1,Increment      1: Step Time =    1.000,"PART-1-1",           141,      -2.46293,      -27.5198,            0.,NA,NA,"",   1.19762E-03,   759.238E-06,  -926.203E-06,   525.257E-06
C:/temp/dataset/6/15_4.odb,Step-1,Increment      1: Step Time =    1.000,"PART-1-1",           142,      -4.88996,      -27.5861,            0.,NA,NA,"",   1.76471E-03,   704.741E-06,  -1.61789E-03,   878.524E-06
C:/temp/dataset/6/15_4.odb,Step-1,Increment      1: Step Time =    1.000,"PART-1-1",           143,      -7.26500,      -27.4866,            0.,NA,NA,"",   2.51294E-03,   212.895E-06,  -2.50390E-03,   1.28067E-03
C:/temp/dataset/6/15_4.odb,Step-1,Increment      1: Step Time =    1.000,"PART-1-1",           144,      -9.86695,      -26.8928,            0.,NA,NA,"",   4.40004E-03,  -1.15518E-03,  -4.24570E-03,   1.79574E-03
C:/temp/dataset/6/15_4.odb,Step-1,Increment      1: Step Time =    1.000,"PART-1-1",           145,       12.7710,      -23.5898,            0.,NA,NA,"",   2.96916E-03,  -1.26070E-03,   2.68822E-03,   519.203E-06
C:/temp/dataset/6/15_4.odb,Step-1,Increment      1: Step Time =    1.000,"PART-1-1",           146,       12.6989,      -25.7990,            0.,NA,NA,"",   1.71936E-03,  -474.949E-06,   1.65246E-03,   501.369E-06
C:/temp/dataset/6/15_4.odb,Step-1,Increment      1: Step Time =    1.000,"PART-1-1",           147,       12.6207,      -27.9366,            0.,NA,NA,"",   750.569E-06,  -107.123E-06,   742.885E-06,   467.918E-06
C:/temp/dataset/6/15_4.odb,Step-1,Increment      1: Step Time =    1.000,"PART-1-1",           148,       12.9983,      -14.8223,            0.,NA,NA,"",   12.8435E-03,  -10.7735E-03,   6.99192E-03,   472.671E-06
C:/temp/dataset/6/15_4.odb,Step-1,Increment      1: Step Time =    1.000,"PART-1-1",           149,       13.0558,      -17.0719,            0.,NA,NA,"",   9.51169E-03,  -7.30978E-03,   6.08600E-03,   525.784E-06
C:/temp/dataset/6/15_4.odb,Step-1,Increment      1: Step Time =    1.000,"PART-1-1",           150,       13.1682,      -19.2108,            0.,NA,NA,"",   6.97020E-03,  -4.68003E-03,   5.16536E-03,   570.789E-06
C:/temp/dataset/6/15_4.odb,Step-1,Increment      1: Step Time =    1.000,"PART-1-1",           151,       13.0670,      -5.94273,            0.,NA,NA,"",   30.5231E-03,  -28.9101E-03,   9.79118E-03,   249.294E-06
C:/temp/dataset/6/15_4.odb,Step-1,Increment      1: Step Time =    1.000,"PART-1-1",           152,       13.0350,      -8.09399,            0.,NA,NA,"",   25.7985E-03,  -24.0821E-03,   9.25284E-03,   302.022E-06
C:/temp/dataset/6/15_4.odb,Step-1,Increment      1: Step Time =    1.000,"PART-1-1",           153,       12.9982,      -10.2981,            0.,NA,NA,"",   21.1764E-03,  -19.3582E-03,   8.58482E-03,   357.173E-06
C:/temp/dataset/6/15_4.odb,Step-1,Increment      1: Step Time =    1.000,"PART-1-1",           154,       12.5107,   556.281E-03,            0.,NA,NA,"",   45.0345E-03,  -44.0552E-03,   9.34064E-03,   117.075E-06
C:/temp/dataset/6/15_4.odb,Step-1,Increment      1: Step Time =    1.000,"PART-1-1",           155,       12.7702,      -1.64554,            0.,NA,NA,"",   40.1013E-03,  -38.8953E-03,   9.76092E-03,   159.783E-06
C:/temp/dataset/6/15_4.odb,Step-1,Increment      1: Step Time =    1.000,"PART-1-1",           156,       10.0517,       2.85834,            0.,NA,NA,"",   49.5983E-03,  -49.4294E-03,   4.09011E-03,   128.465E-06
C:/temp/dataset/6/15_4.odb,Step-1,Increment      1: Step Time =    1.000,"PART-1-1",           157,       5.39286,       2.85476,            0.,NA,NA,"",   50.2670E-03,  -49.9409E-03,  -5.71659E-03,   283.994E-06
C:/temp/dataset/6/15_4.odb,Step-1,Increment      1: Step Time =    1.000,"PART-1-1",           158,   175.602E-03,       2.90951,            0.,NA,NA,"",   54.3811E-03,  -51.5163E-03,  -17.4177E-03,   537.175E-06
C:/temp/dataset/6/15_4.odb,Step-1,Increment      1: Step Time =    1.000,"PART-1-1",           159,      -4.35394,       2.91920,            0.,NA,NA,"",   61.2157E-03,  -53.2674E-03,  -30.1654E-03,   389.792E-06
C:/temp/dataset/6/15_4.odb,Step-1,Increment      1: Step Time =    1.000,"PART-1-1",           160,      -7.05997,       10.9599,            0.,NA,NA,"",   121.230E-03,  -111.904E-03,  -46.6297E-03,   300.682E-06
C:/temp/dataset/6/15_4.odb,Step-1,Increment      1: Step Time =    1.000,"PART-1-1",           161,      -6.93805,       8.84105,            0.,NA,NA,"",   103.515E-03,  -93.2342E-03,  -44.9744E-03,   233.768E-06
C:/temp/dataset/6/15_4.odb,Step-1,Increment      1: Step Time =    1.000,"PART-1-1",           162,      -7.28921,       17.6445,            0.,NA,NA,"",   192.884E-03,  -185.837E-03,  -51.6627E-03,   397.872E-06
C:/temp/dataset/6/15_4.odb,Step-1,Increment      1: Step Time =    1.000,"PART-1-1",           163,      -7.17735,       15.3234,            0.,NA,NA,"",   165.051E-03,  -157.500E-03,  -49.3503E-03,   342.525E-06
C:/temp/dataset/6/15_4.odb,Step-1,Increment      1: Step Time =    1.000,"PART-1-1",           164,      -6.93557,       23.5874,            0.,NA,NA,"",   275.846E-03,  -271.521E-03,  -48.6556E-03,   167.380E-06
C:/temp/dataset/6/15_4.odb,Step-1,Increment      1: Step Time =    1.000,"PART-1-1",           165,      -13.1925,       19.7530,            0.,NA,NA,"",   257.521E-03,  -219.140E-03,  -135.257E-03,   3.88469E-03
C:/temp/dataset/6/15_4.odb,Step-1,Increment      1: Step Time =    1.000,"PART-1-1",           166,      -7.44963,       27.8335,            0.,NA,NA,"",   349.228E-03,  -344.290E-03,  -58.5193E-03,   600.009E-06
C:/temp/dataset/6/15_4.odb,Step-1,Increment      1: Step Time =    1.000,"PART-1-1",           167,      -13.0424,       22.0734,            0.,NA,NA,"",   289.442E-03,  -252.593E-03,  -141.327E-03,   3.80839E-03
C:/temp/dataset/6/15_4.odb,Step-1,Increment      1: Step Time =    1.000,"PART-1-1",           168,      -13.1316,       14.9813,            0.,NA,NA,"",   197.517E-03,  -158.726E-03,  -117.555E-03,   3.82871E-03
C:/temp/dataset/6/15_4.odb,Step-1,Increment      1: Step Time =    1.000,"PART-1-1",           169,      -13.1727,       17.3972,            0.,NA,NA,"",   226.492E-03,  -187.821E-03,  -126.578E-03,   3.86493E-03
C:/temp/dataset/6/15_4.odb,Step-1,Increment      1: Step Time =    1.000,"PART-1-1",           170,      -12.8574,       7.53984,            0.,NA,NA,"",   125.905E-03,  -88.3458E-03,  -89.7050E-03,   3.61673E-03
C:/temp/dataset/6/15_4.odb,Step-1,Increment      1: Step Time =    1.000,"PART-1-1",           171,      -13.0166,       10.0884,            0.,NA,NA,"",   147.743E-03,  -109.202E-03,  -99.5141E-03,   3.73112E-03
C:/temp/dataset/6/15_4.odb,Step-1,Increment      1: Step Time =    1.000,"PART-1-1",           172,      -12.8045,  -118.323E-03,            0.,NA,NA,"",   81.0243E-03,  -47.3522E-03,  -65.7473E-03,   3.15440E-03
C:/temp/dataset/6/15_4.odb,Step-1,Increment      1: Step Time =    1.000,"PART-1-1",           173,      -12.7039,       2.28772,            0.,NA,NA,"",   91.9893E-03,  -56.9960E-03,  -72.2045E-03,   3.31599E-03
C:/temp/dataset/6/15_4.odb,Step-1,Increment      1: Step Time =    1.000,"PART-1-1",           174,      -12.8488,      -7.31355,            0.,NA,NA,"",   54.8406E-03,  -27.6333E-03,  -47.3697E-03,   2.67744E-03
C:/temp/dataset/6/15_4.odb,Step-1,Increment      1: Step Time =    1.000,"PART-1-1",           175,      -12.6051,      -4.81291,            0.,NA,NA,"",   62.2589E-03,  -33.0473E-03,  -52.7641E-03,   2.74807E-03
C:/temp/dataset/6/15_4.odb,Step-1,Increment      1: Step Time =    1.000,"PART-1-1",           176,      -12.4260,      -15.0682,            0.,NA,NA,"",   32.7370E-03,  -14.8143E-03,  -29.1933E-03,   2.34125E-03
C:/temp/dataset/6/15_4.odb,Step-1,Increment      1: Step Time =    1.000,"PART-1-1",           177,      -12.3344,      -12.5112,            0.,NA,NA,"",   38.9198E-03,  -18.0409E-03,  -34.4859E-03,   2.41875E-03
C:/temp/dataset/6/15_4.odb,Step-1,Increment      1: Step Time =    1.000,"PART-1-1",           178,      -12.6598,      -20.1148,            0.,NA,NA,"",   21.4518E-03,  -9.55423E-03,  -19.2067E-03,   2.23132E-03
C:/temp/dataset/6/15_4.odb,Step-1,Increment      1: Step Time =    1.000,"PART-1-1",           179,      -8.70618,       22.9331,            0.,NA,NA,"",   272.334E-03,  -261.442E-03,  -76.2480E-03,   1.19928E-03
C:/temp/dataset/6/15_4.odb,Step-1,Increment      1: Step Time =    1.000,"PART-1-1",           180,      -9.21222,       15.1634,            0.,NA,NA,"",   172.496E-03,  -156.364E-03,  -72.8354E-03,   1.52761E-03
C:/temp/dataset/6/15_4.odb,Step-1,Increment      1: Step Time =    1.000,"PART-1-1",           181,      -9.55138,       19.8926,            0.,NA,NA,"",   232.735E-03,  -216.859E-03,  -84.4850E-03,   1.72601E-03
C:/temp/dataset/6/15_4.odb,Step-1,Increment      1: Step Time =    1.000,"PART-1-1",           182,      -8.92203,       8.32966,            0.,NA,NA,"",   108.419E-03,  -89.8164E-03,  -60.7270E-03,   1.41962E-03
C:/temp/dataset/6/15_4.odb,Step-1,Increment      1: Step Time =    1.000,"PART-1-1",           183,      -9.17670,       12.8809,            0.,NA,NA,"",   148.583E-03,  -131.485E-03,  -69.1995E-03,   1.50596E-03
C:/temp/dataset/6/15_4.odb,Step-1,Increment      1: Step Time =    1.000,"PART-1-1",           184,      -9.09923,       10.6117,            0.,NA,NA,"",   127.423E-03,  -109.421E-03,  -65.2973E-03,   1.46692E-03
C:/temp/dataset/6/15_4.odb,Step-1,Increment      1: Step Time =    1.000,"PART-1-1",           185,      -9.30530,       17.5014,            0.,NA,NA,"",   200.299E-03,  -184.736E-03,  -77.4097E-03,   1.58240E-03
C:/temp/dataset/6/15_4.odb,Step-1,Increment      1: Step Time =    1.000,"PART-1-1",           186,      -8.37864,       6.17865,            0.,NA,NA,"",   91.2126E-03,  -73.5278E-03,  -53.9759E-03,   1.41822E-03
C:/temp/dataset/6/15_4.odb,Step-1,Increment      1: Step Time =    1.000,"PART-1-1",           187,       10.9988,      -10.2527,            0.,NA,NA,"",   19.8423E-03,  -19.2212E-03,   4.92596E-03,   266.325E-06
C:/temp/dataset/6/15_4.odb,Step-1,Increment      1: Step Time =    1.000,"PART-1-1",           188,       10.8643,      -17.5211,            0.,NA,NA,"",   7.07244E-03,  -6.25771E-03,   3.29552E-03,   314.762E-06
C:/temp/dataset/6/15_4.odb,Step-1,Increment      1: Step Time =    1.000,"PART-1-1",           189,       11.0508,      -8.01555,            0.,NA,NA,"",   24.6512E-03,  -24.0598E-03,   5.36745E-03,   249.693E-06
C:/temp/dataset/6/15_4.odb,Step-1,Increment      1: Step Time =    1.000,"PART-1-1",           190,       10.6332,      -2.00908,            0.,NA,NA,"",   38.3047E-03,  -37.9520E-03,   5.18613E-03,   209.627E-06
C:/temp/dataset/6/15_4.odb,Step-1,Increment      1: Step Time =    1.000,"PART-1-1",           191,       11.1668,      -5.92645,            0.,NA,NA,"",   29.3848E-03,  -28.7894E-03,   5.88532E-03,   232.965E-06
C:/temp/dataset/6/15_4.odb,Step-1,Increment      1: Step Time =    1.000,"PART-1-1",           192,       10.9732,      -14.9280,            0.,NA,NA,"",   11.0280E-03,  -10.2677E-03,   4.02383E-03,   300.959E-06
C:/temp/dataset/6/15_4.odb,Step-1,Increment      1: Step Time =    1.000,"PART-1-1",           193,       10.5476,      -23.6927,            0.,NA,NA,"",   1.62619E-03,  -800.132E-06,   1.41573E-03,   283.822E-06
C:/temp/dataset/6/15_4.odb,Step-1,Increment      1: Step Time =    1.000,"PART-1-1",           194,       10.5707,      -21.1850,            0.,NA,NA,"",   3.07231E-03,  -2.27641E-03,   2.06326E-03,   298.617E-06
C:/temp/dataset/6/15_4.odb,Step-1,Increment      1: Step Time =    1.000,"PART-1-1",           195,       10.9760,      -12.5622,            0.,NA,NA,"",   15.2407E-03,  -14.5647E-03,   4.48872E-03,   282.868E-06
C:/temp/dataset/6/15_4.odb,Step-1,Increment      1: Step Time =    1.000,"PART-1-1",           196,       11.6229,      -19.2502,            0.,NA,NA,"",   5.58264E-03,  -4.27631E-03,   3.58873E-03,   399.883E-06
C:/temp/dataset/6/15_4.odb,Step-1,Increment      1: Step Time =    1.000,"PART-1-1",           197,       11.1609,      -3.97100,            0.,NA,NA,"",   33.8889E-03,  -33.3343E-03,   6.10623E-03,   217.476E-06
C:/temp/dataset/6/15_4.odb,Step-1,Increment      1: Step Time =    1.000,"PART-1-1",           198,      -9.55101,       25.2781,            0.,NA,NA,"",   314.115E-03,  -299.900E-03,  -93.4245E-03,   1.67665E-03
C:/temp/dataset/6/15_4.odb,Step-1,Increment      1: Step Time =    1.000,"PART-1-1",           199,      -6.13353,       2.97524,            0.,NA,NA,"",   65.8631E-03,  -53.9734E-03,  -37.7468E-03,   676.857E-06
C:/temp/dataset/6/15_4.odb,Step-1,Increment      1: Step Time =    1.000,"PART-1-1",           200,       8.52809,      -18.5145,            0.,NA,NA,"",   4.71362E-03,  -4.66494E-03,   675.705E-06,   209.232E-06
C:/temp/dataset/6/15_4.odb,Step-1,Increment      1: Step Time =    1.000,"PART-1-1",           201,      -9.31256,      -6.57829,            0.,NA,NA,"",   47.1944E-03,  -25.7047E-03,  -39.5801E-03,   1.92958E-03
C:/temp/dataset/6/15_4.odb,Step-1,Increment      1: Step Time =    1.000,"PART-1-1",           202,      -7.82061,      -4.24854,            0.,NA,NA,"",   49.1891E-03,  -30.4177E-03,  -38.6565E-03,   1.41256E-03
C:/temp/dataset/6/15_4.odb,Step-1,Increment      1: Step Time =    1.000,"PART-1-1",           203,       7.55002,      -20.4955,            0.,NA,NA,"",   2.43592E-03,  -2.42988E-03,  -171.537E-06,   201.083E-06
C:/temp/dataset/6/15_4.odb,Step-1,Increment      1: Step Time =    1.000,"PART-1-1",           204,      -9.18944,      -8.43706,            0.,NA,NA,"",   42.0775E-03,  -21.7037E-03,  -36.0481E-03,   1.95876E-03
C:/temp/dataset/6/15_4.odb,Step-1,Increment      1: Step Time =    1.000,"PART-1-1",           205,      -12.3720,       27.4312,            0.,NA,NA,"",   371.555E-03,  -340.381E-03,  -148.976E-03,   4.03870E-03
C:/temp/dataset/6/15_4.odb,Step-1,Increment      1: Step Time =    1.000,"PART-1-1",           206,      -10.3791,       22.2070,            0.,NA,NA,"",   270.856E-03,  -251.318E-03,  -101.006E-03,   2.21539E-03
C:/temp/dataset/6/15_4.odb,Step-1,Increment      1: Step Time =    1.000,"PART-1-1",           207,       3.40286,  -884.176E-03,            0.,NA,NA,"",   41.7537E-03,  -40.5738E-03,  -9.85570E-03,   291.496E-06
C:/temp/dataset/6/15_4.odb,Step-1,Increment      1: Step Time =    1.000,"PART-1-1",           208,       7.88020,       1.44192,            0.,NA,NA,"",   46.2494E-03,  -46.2473E-03,  -437.530E-06,   225.222E-06
C:/temp/dataset/6/15_4.odb,Step-1,Increment      1: Step Time =    1.000,"PART-1-1",           209,      -1.17287,  -897.893E-03,            0.,NA,NA,"",   45.1981E-03,  -40.1501E-03,  -20.7566E-03,   310.597E-06
C:/temp/dataset/6/15_4.odb,Step-1,Increment      1: Step Time =    1.000,"PART-1-1",           210,       10.4014,      -25.9274,            0.,NA,NA,"",   826.696E-06,  -75.0743E-06,   823.280E-06,   262.094E-06
C:/temp/dataset/6/15_4.odb,Step-1,Increment      1: Step Time =    1.000,"PART-1-1",           211,       2.00108,      -24.8239,            0.,NA,NA,"",   519.164E-06,  -192.364E-06,  -482.211E-06,   274.907E-06
C:/temp/dataset/6/15_4.odb,Step-1,Increment      1: Step Time =    1.000,"PART-1-1",           212,      -4.80900,      -25.1606,            0.,NA,NA,"",   3.39947E-03,   327.233E-06,  -3.38368E-03,   931.203E-06
C:/temp/dataset/6/15_4.odb,Step-1,Increment      1: Step Time =    1.000,"PART-1-1",           213,      -11.5765,       21.3848,            0.,NA,NA,"",   267.259E-03,  -240.250E-03,  -117.078E-03,   2.93307E-03
C:/temp/dataset/6/15_4.odb,Step-1,Increment      1: Step Time =    1.000,"PART-1-1",           214,      -11.0630,       10.3038,            0.,NA,NA,"",   136.293E-03,  -108.389E-03,  -82.6299E-03,   2.60336E-03
C:/temp/dataset/6/15_4.odb,Step-1,Increment      1: Step Time =    1.000,"PART-1-1",           215,      -10.2832,  -591.021E-03,            0.,NA,NA,"",   68.5035E-03,  -42.7952E-03,  -53.4912E-03,   2.21751E-03
C:/temp/dataset/6/15_4.odb,Step-1,Increment      1: Step Time =    1.000,"PART-1-1",           216,      -11.1869,      -5.64306,            0.,NA,NA,"",   55.1994E-03,  -29.4938E-03,  -46.6593E-03,   2.36064E-03
C:/temp/dataset/6/15_4.odb,Step-1,Increment      1: Step Time =    1.000,"PART-1-1",           217,      -9.48237,      -10.3825,            0.,NA,NA,"",   37.9855E-03,  -18.4426E-03,  -33.2079E-03,   2.05951E-03
C:/temp/dataset/6/15_4.odb,Step-1,Increment      1: Step Time =    1.000,"PART-1-1",           218,      -10.0191,      -20.7277,            0.,NA,NA,"",   16.4350E-03,  -6.49629E-03,  -15.0966E-03,   2.01047E-03
C:/temp/dataset/6/15_4.odb,Step-1,Increment      1: Step Time =    1.000,"PART-1-1",           219,      -12.8377,      -24.8331,            0.,NA,NA,"",   11.1901E-03,  -5.28231E-03,  -9.86490E-03,   2.30555E-03
C:/temp/dataset/6/15_4.odb,Step-1,Increment      1: Step Time =    1.000,"PART-1-1",           220,  -752.185E-03,      -25.0561,            0.,NA,NA,"",   979.753E-06,   277.305E-06,  -939.691E-06,   278.014E-06
C:/temp/dataset/6/15_4.odb,Step-1,Increment      1: Step Time =    1.000,"PART-1-1",           221,      -11.3411,      -22.5061,            0.,NA,NA,"",   14.4456E-03,  -5.93442E-03,  -13.1703E-03,   2.13513E-03
C:/temp/dataset/6/15_4.odb,Step-1,Increment      1: Step Time =    1.000,"PART-1-1",           222,       5.90860,      -26.1342,            0.,NA,NA,"",   214.497E-06,   69.0077E-06,  -203.094E-06,   104.337E-06
C:/temp/dataset/6/15_4.odb,Step-1,Increment      1: Step Time =    1.000,"PART-1-1",           223,       3.81352,      -25.8758,            0.,NA,NA,"",   361.579E-06,   11.5452E-06,  -361.395E-06,   197.764E-06
C:/temp/dataset/6/15_4.odb,Step-1,Increment      1: Step Time =    1.000,"PART-1-1",           224,      -6.87266,      -25.1947,            0.,NA,NA,"",   4.99739E-03,  -414.971E-06,  -4.98013E-03,   1.39179E-03
C:/temp/dataset/6/15_4.odb,Step-1,Increment      1: Step Time =    1.000,"PART-1-1",           225,       9.77381,   336.875E-03,            0.,NA,NA,"",   43.6754E-03,  -43.5346E-03,   3.50388E-03,   197.866E-06
C:/temp/dataset/6/15_4.odb,Step-1,Increment      1: Step Time =    1.000,"PART-1-1",           226,       4.59800,   29.7464E-03,            0.,NA,NA,"",   43.5555E-03,  -42.9435E-03,  -7.27603E-03,   299.035E-06
C:/temp/dataset/6/15_4.odb,Step-1,Increment      1: Step Time =    1.000,"PART-1-1",           227,      -11.1551,       12.6912,            0.,NA,NA,"",   158.762E-03,  -131.286E-03,  -89.2715E-03,   2.65604E-03
C:/temp/dataset/6/15_4.odb,Step-1,Increment      1: Step Time =    1.000,"PART-1-1",           228,      -11.2689,       17.3859,            0.,NA,NA,"",   211.396E-03,  -185.010E-03,  -102.270E-03,   2.73941E-03
C:/temp/dataset/6/15_4.odb,Step-1,Increment      1: Step Time =    1.000,"PART-1-1",           229,      -11.2102,       15.0558,            0.,NA,NA,"",   183.771E-03,  -156.887E-03,  -95.6976E-03,   2.69718E-03
C:/temp/dataset/6/15_4.odb,Step-1,Increment      1: Step Time =    1.000,"PART-1-1",           230,      -10.8139,       7.79620,            0.,NA,NA,"",   115.002E-03,  -87.4367E-03,  -74.7007E-03,   2.51137E-03
C:/temp/dataset/6/15_4.odb,Step-1,Increment      1: Step Time =    1.000,"PART-1-1",           231,      -10.1648,       4.85487,            0.,NA,NA,"",   92.4069E-03,  -66.9278E-03,  -63.7158E-03,   2.31940E-03
C:/temp/dataset/6/15_4.odb,Step-1,Increment      1: Step Time =    1.000,"PART-1-1",           232,      -10.4473,       2.01195,            0.,NA,NA,"",   79.5965E-03,  -52.8981E-03,  -59.4760E-03,   2.40180E-03
C:/temp/dataset/6/15_4.odb,Step-1,Increment      1: Step Time =    1.000,"PART-1-1",           233,      -10.4810,      -3.59789,            0.,NA,NA,"",   59.2182E-03,  -33.9445E-03,  -48.5238E-03,   2.20587E-03
C:/temp/dataset/6/15_4.odb,Step-1,Increment      1: Step Time =    1.000,"PART-1-1",           234,      -9.89141,      -15.1395,            0.,NA,NA,"",   27.9269E-03,  -12.2696E-03,  -25.0872E-03,   2.09776E-03
C:/temp/dataset/6/15_4.odb,Step-1,Increment      1: Step Time =    1.000,"PART-1-1",           235,      -9.95744,      -17.7636,            0.,NA,NA,"",   22.4657E-03,  -9.52161E-03,  -20.3481E-03,   2.01456E-03
C:/temp/dataset/6/15_4.odb,Step-1,Increment      1: Step Time =    1.000,"PART-1-1",           236,      -3.63694,      -1.16253,            0.,NA,NA,"",   47.7194E-03,  -38.8802E-03,  -27.6671E-03,   266.163E-06
C:/temp/dataset/6/15_4.odb,Step-1,Increment      1: Step Time =    1.000,"PART-1-1",           237,      -7.00580,      -22.7773,            0.,NA,NA,"",   8.62220E-03,  -2.07151E-03,  -8.36966E-03,   1.70155E-03
C:/temp/dataset/6/15_4.odb,Step-1,Increment      1: Step Time =    1.000,"PART-1-1",           238,       7.08723,      -4.67483,            0.,NA,NA,"",   31.5987E-03,  -31.5147E-03,  -2.30164E-03,   162.556E-06
C:/temp/dataset/6/15_4.odb,Step-1,Increment      1: Step Time =    1.000,"PART-1-1",           239,       8.96532,      -10.1697,            0.,NA,NA,"",   19.3375E-03,  -19.2956E-03,   1.27367E-03,   197.779E-06
C:/temp/dataset/6/15_4.odb,Step-1,Increment      1: Step Time =    1.000,"PART-1-1",           240,       8.99874,      -7.82238,            0.,NA,NA,"",   24.4342E-03,  -24.3923E-03,   1.43095E-03,   202.137E-06
C:/temp/dataset/6/15_4.odb,Step-1,Increment      1: Step Time =    1.000,"PART-1-1",           241,       8.96760,      -14.8663,            0.,NA,NA,"",   10.3037E-03,  -10.2332E-03,   1.20340E-03,   196.273E-06
C:/temp/dataset/6/15_4.odb,Step-1,Increment      1: Step Time =    1.000,"PART-1-1",           242,      -12.0836,       24.5335,            0.,NA,NA,"",   319.649E-03,  -290.092E-03,  -134.248E-03,   3.30203E-03
C:/temp/dataset/6/15_4.odb,Step-1,Increment      1: Step Time =    1.000,"PART-1-1",           243,       9.21542,      -5.66363,            0.,NA,NA,"",   29.3645E-03,  -29.2971E-03,   1.98891E-03,   208.747E-06
C:/temp/dataset/6/15_4.odb,Step-1,Increment      1: Step Time =    1.000,"PART-1-1",           244,       8.72776,      -2.97127,            0.,NA,NA,"",   35.6116E-03,  -35.5920E-03,   1.17948E-03,   230.768E-06
C:/temp/dataset/6/15_4.odb,Step-1,Increment      1: Step Time =    1.000,"PART-1-1",           245,       9.39471,      -19.4524,            0.,NA,NA,"",   3.92901E-03,  -3.66591E-03,   1.41359E-03,   216.417E-06
C:/temp/dataset/6/15_4.odb,Step-1,Increment      1: Step Time =    1.000,"PART-1-1",           246,       8.06548,      -22.0810,            0.,NA,NA,"",   1.37746E-03,  -1.36431E-03,   189.897E-06,   86.8919E-06
C:/temp/dataset/6/15_4.odb,Step-1,Increment      1: Step Time =    1.000,"PART-1-1",           247,      -7.53738,       4.79758,            0.,NA,NA,"",   79.4717E-03,  -64.1204E-03,  -46.9503E-03,   1.18716E-03
C:/temp/dataset/6/15_4.odb,Step-1,Increment      1: Step Time =    1.000,"PART-1-1",           248,      -10.8025,      -24.3532,            0.,NA,NA,"",   9.95245E-03,  -3.77306E-03,  -9.20952E-03,   2.06382E-03
C:/temp/dataset/6/15_4.odb,Step-1,Increment      1: Step Time =    1.000,"PART-1-1",           249,       5.82981,      -2.08643,            0.,NA,NA,"",   37.9007E-03,  -37.6016E-03,  -4.75206E-03,   262.212E-06
C:/temp/dataset/6/15_4.odb,Step-1,Increment      1: Step Time =    1.000,"PART-1-1",           250,      -8.67175,      -2.53401,            0.,NA,NA,"",   56.4215E-03,  -35.5670E-03,  -43.7993E-03,   1.64135E-03
C:/temp/dataset/6/15_4.odb,Step-1,Increment      1: Step Time =    1.000,"PART-1-1",           251,       5.78686,      -22.7214,            0.,NA,NA,"",   1.28243E-03,  -1.09380E-03,  -669.491E-06,   306.905E-06
C:/temp/dataset/6/15_4.odb,Step-1,Increment      1: Step Time =    1.000,"PART-1-1",           252,      -8.27594,       1.60152,            0.,NA,NA,"",   68.4381E-03,  -49.3179E-03,  -47.4501E-03,   1.51287E-03
C:/temp/dataset/6/15_4.odb,Step-1,Increment      1: Step Time =    1.000,"PART-1-1",           253,       8.25490,      -24.0061,            0.,NA,NA,"",   559.226E-06,  -487.127E-06,   274.664E-06,   34.4736E-06
C:/temp/dataset/6/15_4.odb,Step-1,Increment      1: Step Time =    1.000,"PART-1-1",           254,      -9.04303,      -23.2600,            0.,NA,NA,"",   10.2104E-03,  -3.22385E-03,  -9.68804E-03,   1.88636E-03
C:/temp/dataset/6/15_4.odb,Step-1,Increment      1: Step Time =    1.000,"PART-1-1",           255,       7.61656,      -1.09448,            0.,NA,NA,"",   40.1034E-03,  -40.0907E-03,  -1.01041E-03,   254.049E-06
C:/temp/dataset/6/15_4.odb,Step-1,Increment      1: Step Time =    1.000,"PART-1-1",           256,      -4.02262,   861.151E-03,            0.,NA,NA,"",   53.9674E-03,  -45.5515E-03,  -28.9403E-03,   118.304E-06
C:/temp/dataset/6/15_4.odb,Step-1,Increment      1: Step Time =    1.000,"PART-1-1",           257,  -104.141E-03,       1.31276,            0.,NA,NA,"",   50.1658E-03,  -46.8515E-03,  -17.9316E-03,   382.808E-06
C:/temp/dataset/6/15_4.odb,Step-1,Increment      1: Step Time =    1.000,"PART-1-1",           258,       3.72123,      -23.4419,            0.,NA,NA,"",   1.05060E-03,  -854.871E-06,  -610.708E-06,   406.078E-06
C:/temp/dataset/6/15_4.odb,Step-1,Increment      1: Step Time =    1.000,"PART-1-1",           259,      -10.7950,      -8.39617,            0.,NA,NA,"",   46.2365E-03,  -23.2406E-03,  -39.9711E-03,   2.26725E-03
C:/temp/dataset/6/15_4.odb,Step-1,Increment      1: Step Time =    1.000,"PART-1-1",           260,      -1.85786,       1.02916,            0.,NA,NA,"",   51.2894E-03,  -46.1232E-03,  -22.4332E-03,   402.049E-06
C:/temp/dataset/6/15_4.odb,Step-1,Increment      1: Step Time =    1.000,"PART-1-1",           261,      -6.46179,      -1.33856,            0.,NA,NA,"",   53.1957E-03,  -38.2883E-03,  -36.9295E-03,   819.783E-06
C:/temp/dataset/6/15_4.odb,Step-1,Increment      1: Step Time =    1.000,"PART-1-1",           262,      -11.1078,      -7.00587,            0.,NA,NA,"",   50.9510E-03,  -26.3719E-03,  -43.5951E-03,   2.32785E-03
C:/temp/dataset/6/15_4.odb,Step-1,Increment      1: Step Time =    1.000,"PART-1-1",           263,      -5.52697,      -3.44125,            0.,NA,NA,"",   45.6283E-03,  -31.9224E-03,  -32.6022E-03,   708.550E-06
C:/temp/dataset/6/15_4.odb,Step-1,Increment      1: Step Time =    1.000,"PART-1-1",           264,      -9.72268,      -4.98378,            0.,NA,NA,"",   52.7130E-03,  -29.7655E-03,  -43.5049E-03,   1.98059E-03
C:/temp/dataset/6/15_4.odb,Step-1,Increment      1: Step Time =    1.000,"PART-1-1",           265,      -6.27329,       4.89376,            0.,NA,NA,"",   74.8835E-03,  -63.7217E-03,  -39.3329E-03,   972.140E-06
C:/temp/dataset/6/15_4.odb,Step-1,Increment      1: Step Time =    1.000,"PART-1-1",           266,       12.4963,       2.80040,            0.,NA,NA,"",   50.1085E-03,  -49.2272E-03,   9.35681E-03,   55.7741E-06
C:/temp/dataset/6/15_4.odb,Step-1,Increment      1: Step Time =    1.000,"PART-1-1",           267,      -7.37176,      -20.2559,            0.,NA,NA,"",   13.6124E-03,  -4.94808E-03,  -12.6812E-03,   1.67895E-03
C:/temp/dataset/6/15_4.odb,Step-1,Increment      1: Step Time =    1.000,"PART-1-1",           268,       2.88963,      -21.8777,            0.,NA,NA,"",   1.60399E-03,  -1.49760E-03,  -574.456E-06,   497.727E-06
C:/temp/dataset/6/15_4.odb,Step-1,Increment      1: Step Time =    1.000,"PART-1-1",           269,      -8.05085,       3.52655,            0.,NA,NA,"",   75.4124E-03,  -57.6779E-03,  -48.5829E-03,   1.51353E-03
C:/temp/dataset/6/15_4.odb,Step-1,Increment      1: Step Time =    1.000,"PART-1-1",           270,       8.95558,      -12.5395,            0.,NA,NA,"",   14.5519E-03,  -14.5022E-03,   1.20065E-03,   195.108E-06
C:/temp/dataset/6/15_4.odb,Step-1,Increment      1: Step Time =    1.000,"PART-1-1",           271,       1.35989,  -223.950E-03,            0.,NA,NA,"",   44.7226E-03,  -42.3235E-03,  -14.4509E-03,   315.860E-06
C:/temp/dataset/6/15_4.odb,Step-1,Increment      1: Step Time =    1.000,"PART-1-1",           272,      -9.75004,      -12.6533,            0.,NA,NA,"",   33.2250E-03,  -15.2469E-03,  -29.5200E-03,   2.11365E-03
C:/temp/dataset/6/15_4.odb,Step-1,Increment      1: Step Time =    1.000,"PART-1-1",           273,      -8.51206,      -25.1011,            0.,NA,NA,"",   6.44996E-03,  -1.42157E-03,  -6.29135E-03,   1.70859E-03
C:/temp/dataset/6/15_4.odb,Step-1,Increment      1: Step Time =    1.000,"PART-1-1",           274,      -6.19138,   998.181E-03,            0.,NA,NA,"",   59.2683E-03,  -46.1525E-03,  -37.1843E-03,   622.497E-06
C:/temp/dataset/6/15_4.odb,Step-1,Increment      1: Step Time =    1.000,"PART-1-1",           275,      -2.63339,      -25.0950,            0.,NA,NA,"",   1.91113E-03,   486.894E-06,  -1.84807E-03,   507.986E-06
C:/temp/dataset/6/15_4.odb,Step-1,Increment      1: Step Time =    1.000,"PART-1-1",           276,       8.11811,      -26.0558,            0.,NA,NA,"",   189.972E-06,   75.2296E-06,   174.442E-06,   46.6122E-06
C:/temp/dataset/6/15_4.odb,Step-1,Increment      1: Step Time =    1.000,"PART-1-1",           277,       6.33403,   764.508E-03,            0.,NA,NA,"",   44.8438E-03,  -44.6959E-03,  -3.63895E-03,   272.900E-06
C:/temp/dataset/6/15_4.odb,Step-1,Increment      1: Step Time =    1.000,"PART-1-1",           278,       8.84044,      -16.9880,            0.,NA,NA,"",   6.87586E-03,  -6.79884E-03,   1.02627E-03,   227.041E-06
C:/temp/dataset/6/15_4.odb,Step-1,Increment      1: Step Time =    1.000,"PART-1-1",           279,      -11.3950,       19.6047,            0.,NA,NA,"",   240.965E-03,  -214.551E-03,  -109.689E-03,   2.81916E-03
C:/temp/dataset/6/15_4.odb,Step-1,Increment      1: Step Time =    1.000,"PART-1-1",           280,      -11.2464,      -2.22607,            0.,NA,NA,"",   66.4516E-03,  -38.5544E-03,  -54.1236E-03,   2.48800E-03
C:/temp/dataset/6/15_4.odb,Step-1,Increment      1: Step Time =    1.000,"PART-1-1",           281,      -8.41776,  -32.7016E-03,            0.,NA,NA,"",   63.2631E-03,  -43.3250E-03,  -46.0995E-03,   1.53540E-03
C:/temp/dataset/6/15_4.odb,Step-1,Increment      1: Step Time =    1.000,"PART-1-1",           282,       4.48255,      -24.5345,            0.,NA,NA,"",   625.046E-06,  -396.369E-06,  -483.295E-06,   268.096E-06
C:/temp/dataset/6/15_4.odb,Step-1,Increment      1: Step Time =    1.000,"PART-1-1",           283,       6.11275,      -24.3348,            0.,NA,NA,"",   537.270E-06,  -409.985E-06,  -347.234E-06,   177.165E-06
C:/temp/dataset/6/15_4.odb,Step-1,Increment      1: Step Time =    1.000,"PART-1-1",           284,       9.69767,      -4.20039,            0.,NA,NA,"",   32.8671E-03,  -32.7228E-03,   3.07677E-03,   217.928E-06
C:/temp/dataset/6/15_4.odb,Step-1,Increment      1: Step Time =    1.000,"PART-1-1",           285,       13.8851,      -1.60402,            0.,NA,NA,"",   40.9155E-03,  -39.0476E-03,   12.2215E-03,   126.669E-06
C:/temp/dataset/6/15_4.odb,Step-1,Increment      1: Step Time =    1.000,"PART-1-1",           286,           15.,   -468.75E-03,            0.,NA,NA,"",   44.3052E-03,  -41.7411E-03,   14.8538E-03,   78.5997E-06
C:/temp/dataset/6/15_4.odb,Step-1,Increment      1: Step Time =    1.000,"PART-1-1",           287,       13.7553,   590.641E-03,            0.,NA,NA,"",   45.7836E-03,  -44.1601E-03,   12.0840E-03,   72.3539E-06
C:/temp/dataset/6/15_4.odb,Step-1,Increment      1: Step Time =    1.000,"PART-1-1",           288,       12.6405,  -544.629E-03,            0.,NA,NA,"",   42.5691E-03,  -41.4809E-03,   9.56371E-03,   138.100E-06
C:/temp/dataset/6/15_4.odb,Step-1,Increment      1: Step Time =    1.000,"PART-1-1",           289,       6.57104,       2.96720,            0.,NA,NA,"",   50.1212E-03,  -50.0164E-03,  -3.23962E-03,   236.947E-06
C:/temp/dataset/6/15_4.odb,Step-1,Increment      1: Step Time =    1.000,"PART-1-1",           290,       5.86345,       1.80964,            0.,NA,NA,"",   47.5544E-03,  -47.3261E-03,  -4.65450E-03,   268.985E-06
C:/temp/dataset/6/15_4.odb,Step-1,Increment      1: Step Time =    1.000,"PART-1-1",           291,       7.10711,       1.10321,            0.,NA,NA,"",   45.5272E-03,  -45.4817E-03,  -2.03679E-03,   248.229E-06
C:/temp/dataset/6/15_4.odb,Step-1,Increment      1: Step Time =    1.000,"PART-1-1",           292,       7.81470,       2.26078,            0.,NA,NA,"",   48.2076E-03,  -48.2039E-03,  -597.217E-06,   204.108E-06
C:/temp/dataset/6/15_4.odb,Step-1,Increment      1: Step Time =    1.000,"PART-1-1",           293,       6.97305,      -8.82061,            0.,NA,NA,"",   22.3383E-03,  -22.1979E-03,  -2.50096E-03,   151.471E-06
C:/temp/dataset/6/15_4.odb,Step-1,Increment      1: Step Time =    1.000,"PART-1-1",           294,       5.98985,      -7.53541,            0.,NA,NA,"",   25.4566E-03,  -25.0440E-03,  -4.56472E-03,   102.948E-06
C:/temp/dataset/6/15_4.odb,Step-1,Increment      1: Step Time =    1.000,"PART-1-1",           295,            5.,      -8.76875,            0.,NA,NA,"",   23.3385E-03,  -22.4034E-03,  -6.54026E-03,   161.500E-06
C:/temp/dataset/6/15_4.odb,Step-1,Increment      1: Step Time =    1.000,"PART-1-1",           296,       5.98320,      -10.0539,            0.,NA,NA,"",   20.0922E-03,  -19.6202E-03,  -4.32933E-03,   171.903E-06
C:/temp/dataset/6/15_4.odb,Step-1,Increment      1: Step Time =    1.000,"PART-1-1",           297,       12.0429,      -8.05477,            0.,NA,NA,"",   25.1387E-03,  -24.0580E-03,   7.29178E-03,   269.504E-06
C:/temp/dataset/6/15_4.odb,Step-1,Increment      1: Step Time =    1.000,"PART-1-1",           298,       11.0248,      -9.13413,            0.,NA,NA,"",   22.2120E-03,  -21.6065E-03,   5.15077E-03,   257.920E-06
C:/temp/dataset/6/15_4.odb,Step-1,Increment      1: Step Time =    1.000,"PART-1-1",           299,       11.9985,      -10.2754,            0.,NA,NA,"",   20.4161E-03,  -19.2725E-03,   6.73693E-03,   304.435E-06
C:/temp/dataset/6/15_4.odb,Step-1,Increment      1: Step Time =    1.000,"PART-1-1",           300,       13.0166,      -9.19606,            0.,NA,NA,"",   23.4543E-03,  -21.6868E-03,   8.93243E-03,   329.522E-06
C:/temp/dataset/6/15_4.odb,Step-1,Increment      1: Step Time =    1.000,"PART-1-1",           301,       13.9992,      -14.7549,            0.,NA,NA,"",   14.0297E-03,  -11.1200E-03,   8.55445E-03,   573.394E-06
C:/temp/dataset/6/15_4.odb,Step-1,Increment      1: Step Time =    1.000,"PART-1-1",           302,       13.0271,      -15.9471,            0.,NA,NA,"",   11.1039E-03,  -8.96188E-03,   6.55595E-03,   498.865E-06
C:/temp/dataset/6/15_4.odb,Step-1,Increment      1: Step Time =    1.000,"PART-1-1",           303,       14.0279,      -16.9735,            0.,NA,NA,"",   10.6778E-03,  -7.70576E-03,   7.39163E-03,   645.702E-06
C:/temp/dataset/6/15_4.odb,Step-1,Increment      1: Step Time =    1.000,"PART-1-1",           304,           15.,      -15.7813,            0.,NA,NA,"",   13.6309E-03,  -9.76213E-03,   9.51321E-03,   727.792E-06
C:/temp/dataset/6/15_4.odb,Step-1,Increment      1: Step Time =    1.000,"PART-1-1",           305,       6.96949,      -18.0995,            0.,NA,NA,"",   5.24389E-03,  -5.15944E-03,  -937.315E-06,   319.109E-06
C:/temp/dataset/6/15_4.odb,Step-1,Increment      1: Step Time =    1.000,"PART-1-1",           306,       5.95014,      -17.3335,            0.,NA,NA,"",   6.86427E-03,  -6.43073E-03,  -2.40083E-03,   446.326E-06
C:/temp/dataset/6/15_4.odb,Step-1,Increment      1: Step Time =    1.000,"PART-1-1",           307,            5.,      -18.7625,            0.,NA,NA,"",   5.40018E-03,  -4.57868E-03,  -2.86314E-03,   881.171E-06
C:/temp/dataset/6/15_4.odb,Step-1,Increment      1: Step Time =    1.000,"PART-1-1",           308,       6.01935,      -19.5285,            0.,NA,NA,"",   3.47091E-03,  -3.17119E-03,  -1.41094E-03,   629.195E-06
C:/temp/dataset/6/15_4.odb,Step-1,Increment      1: Step Time =    1.000,"PART-1-1",           309,       7.66098,      -29.0388,            0.,NA,NA,"",   179.500E-06,   177.938E-06,   23.6277E-06,   116.475E-06
C:/temp/dataset/6/15_4.odb,Step-1,Increment      1: Step Time =    1.000,"PART-1-1",           310,       6.62868,      -28.0660,            0.,NA,NA,"",   244.219E-06,   240.784E-06,  -40.8158E-06,   62.0365E-06
C:/temp/dataset/6/15_4.odb,Step-1,Increment      1: Step Time =    1.000,"PART-1-1",           311,       5.21770,      -29.0272,            0.,NA,NA,"",   174.804E-06,   163.634E-06,  -61.4848E-06,   124.535E-06
C:/temp/dataset/6/15_4.odb,Step-1,Increment      1: Step Time =    1.000,"PART-1-1",           312,          6.25,          -30.,            0.,NA,NA,"",            0.,   138.898E-42,  -66.9414E-42,   150.276E-06
C:/temp/dataset/6/15_4.odb,Step-1,Increment      1: Step Time =    1.000,"PART-1-1",           313,   162.125E-03,      -28.5454,            0.,NA,NA,"",   508.692E-06,   417.308E-06,  -290.898E-06,   313.355E-06
C:/temp/dataset/6/15_4.odb,Step-1,Increment      1: Step Time =    1.000,"PART-1-1",           314,      -1.06934,      -27.3053,            0.,NA,NA,"",   940.679E-06,   658.656E-06,  -671.602E-06,   383.999E-06
C:/temp/dataset/6/15_4.odb,Step-1,Increment      1: Step Time =    1.000,"PART-1-1",           315,      -2.48147,      -28.7599,            0.,NA,NA,"",   726.882E-06,   541.620E-06,  -484.773E-06,   574.221E-06
C:/temp/dataset/6/15_4.odb,Step-1,Increment      1: Step Time =    1.000,"PART-1-1",           316,         -1.25,          -30.,            0.,NA,NA,"",            0.,   310.284E-42,  -790.426E-42,   514.328E-06
C:/temp/dataset/6/15_4.odb,Step-1,Increment      1: Step Time =    1.000,"PART-1-1",           317,          -15.,        -21.25,            0.,NA,NA,"",   22.1333E-03,  -10.8285E-03,  -19.3036E-03,   2.35970E-03
C:/temp/dataset/6/15_4.odb,Step-1,Increment      1: Step Time =    1.000,"PART-1-1",           318,      -13.9888,      -22.4607,            0.,NA,NA,"",   17.9747E-03,  -8.59891E-03,  -15.7844E-03,   2.29900E-03
C:/temp/dataset/6/15_4.odb,Step-1,Increment      1: Step Time =    1.000,"PART-1-1",           319,      -12.8187,      -21.2681,            0.,NA,NA,"",   19.0925E-03,  -8.56286E-03,  -17.0647E-03,   2.24174E-03
C:/temp/dataset/6/15_4.odb,Step-1,Increment      1: Step Time =    1.000,"PART-1-1",           320,      -13.8299,      -20.0574,            0.,NA,NA,"",   23.2574E-03,  -10.8004E-03,  -20.5976E-03,   2.30036E-03
C:/temp/dataset/6/15_4.odb,Step-1,Increment      1: Step Time =    1.000,"PART-1-1",           321,      -12.5142,      -28.6623,            0.,NA,NA,"",   2.43455E-03,  -1.21004E-03,  -2.11254E-03,   2.02472E-03
C:/temp/dataset/6/15_4.odb,Step-1,Increment      1: Step Time =    1.000,"PART-1-1",           322,        -11.25,          -30.,            0.,NA,NA,"",            0.,  -250.390E-42,  -3.18086E-39,   1.65141E-03
C:/temp/dataset/6/15_4.odb,Step-1,Increment      1: Step Time =    1.000,"PART-1-1",           323,      -9.93348,      -28.4464,            0.,NA,NA,"",   2.01314E-03,  -381.619E-06,  -1.97664E-03,   1.60120E-03
C:/temp/dataset/6/15_4.odb,Step-1,Increment      1: Step Time =    1.000,"PART-1-1",           324,      -11.1976,      -27.1087,            0.,NA,NA,"",   4.84273E-03,  -1.90103E-03,  -4.45400E-03,   2.03823E-03
C:/temp/dataset/6/15_4.odb,Step-1,Increment      1: Step Time =    1.000,"PART-1-1",           325,      -7.37036,      -13.8742,            0.,NA,NA,"",   25.9720E-03,  -11.5719E-03,  -23.2516E-03,   1.85539E-03
C:/temp/dataset/6/15_4.odb,Step-1,Increment      1: Step Time =    1.000,"PART-1-1",           326,      -6.21015,      -15.0417,            0.,NA,NA,"",   21.7144E-03,  -9.22216E-03,  -19.6587E-03,   1.78075E-03
C:/temp/dataset/6/15_4.odb,Step-1,Increment      1: Step Time =    1.000,"PART-1-1",           327,           -5.,      -13.7188,            0.,NA,NA,"",   22.3335E-03,  -9.97329E-03,  -19.9830E-03,   1.55635E-03
C:/temp/dataset/6/15_4.odb,Step-1,Increment      1: Step Time =    1.000,"PART-1-1",           328,      -6.16021,      -12.5513,            0.,NA,NA,"",   26.4634E-03,  -12.4034E-03,  -23.3766E-03,   1.63823E-03
C:/temp/dataset/6/15_4.odb,Step-1,Increment      1: Step Time =    1.000,"PART-1-1",           329,      -9.33590,      -9.40979,            0.,NA,NA,"",   40.0088E-03,  -19.9943E-03,  -34.6544E-03,   2.01920E-03
C:/temp/dataset/6/15_4.odb,Step-1,Increment      1: Step Time =    1.000,"PART-1-1",           330,      -8.33361,      -10.3234,            0.,NA,NA,"",   35.5330E-03,  -17.5408E-03,  -30.9017E-03,   1.88012E-03
C:/temp/dataset/6/15_4.odb,Step-1,Increment      1: Step Time =    1.000,"PART-1-1",           331,      -7.16565,      -9.15059,            0.,NA,NA,"",   35.5868E-03,  -18.7347E-03,  -30.2561E-03,   1.64338E-03
C:/temp/dataset/6/15_4.odb,Step-1,Increment      1: Step Time =    1.000,"PART-1-1",           332,      -8.16794,      -8.23701,            0.,NA,NA,"",   40.0563E-03,  -21.2695E-03,  -33.9428E-03,   1.79365E-03
C:/temp/dataset/6/15_4.odb,Step-1,Increment      1: Step Time =    1.000,"PART-1-1",           333,      -11.1473,      -6.32447,            0.,NA,NA,"",   53.0519E-03,  -27.9022E-03,  -45.1217E-03,   2.34565E-03
C:/temp/dataset/6/15_4.odb,Step-1,Increment      1: Step Time =    1.000,"PART-1-1",           334,      -10.2102,      -6.79208,            0.,NA,NA,"",   49.0684E-03,  -25.9867E-03,  -41.6221E-03,   2.12710E-03
C:/temp/dataset/6/15_4.odb,Step-1,Increment      1: Step Time =    1.000,"PART-1-1",           335,      -9.51762,      -5.78103,            0.,NA,NA,"",   49.8955E-03,  -27.6805E-03,  -41.5133E-03,   1.94811E-03
C:/temp/dataset/6/15_4.odb,Step-1,Increment      1: Step Time =    1.000,"PART-1-1",           336,      -10.4548,      -5.31342,            0.,NA,NA,"",   53.9649E-03,  -29.5782E-03,  -45.1368E-03,   2.17407E-03
C:/temp/dataset/6/15_4.odb,Step-1,Increment      1: Step Time =    1.000,"PART-1-1",           337,      -5.04937,      -1.25055,            0.,NA,NA,"",   50.0861E-03,  -38.4622E-03,  -32.0824E-03,   415.364E-06
C:/temp/dataset/6/15_4.odb,Step-1,Increment      1: Step Time =    1.000,"PART-1-1",           338,      -3.82978,  -150.691E-03,            0.,NA,NA,"",   50.7248E-03,  -42.1115E-03,  -28.2777E-03,   174.323E-06
C:/temp/dataset/6/15_4.odb,Step-1,Increment      1: Step Time =    1.000,"PART-1-1",           339,      -5.10700,   929.666E-03,            0.,NA,NA,"",   56.3422E-03,  -45.7980E-03,  -32.8176E-03,   266.086E-06
C:/temp/dataset/6/15_4.odb,Step-1,Increment      1: Step Time =    1.000,"PART-1-1",           340,      -6.32658,  -170.190E-03,            0.,NA,NA,"",   56.1228E-03,  -42.0761E-03,  -37.1399E-03,   707.125E-06
C:/temp/dataset/6/15_4.odb,Step-1,Increment      1: Step Time =    1.000,"PART-1-1",           341,          -15.,          3.75,            0.,NA,NA,"",   112.655E-03,  -68.2579E-03,  -89.6214E-03,   4.53053E-03
C:/temp/dataset/6/15_4.odb,Step-1,Increment      1: Step Time =    1.000,"PART-1-1",           342,      -13.8520,       2.39386,            0.,NA,NA,"",   98.3939E-03,  -59.3165E-03,  -78.5042E-03,   3.83471E-03
C:/temp/dataset/6/15_4.odb,Step-1,Increment      1: Step Time =    1.000,"PART-1-1",           343,      -12.6820,       3.58697,            0.,NA,NA,"",   98.8987E-03,  -63.2952E-03,  -75.9912E-03,   3.37950E-03
C:/temp/dataset/6/15_4.odb,Step-1,Increment      1: Step Time =    1.000,"PART-1-1",           344,      -13.8301,       4.94311,            0.,NA,NA,"",   113.730E-03,  -72.7490E-03,  -87.4189E-03,   4.05525E-03
C:/temp/dataset/6/15_4.odb,Step-1,Increment      1: Step Time =    1.000,"PART-1-1",           345,          -15.,         11.25,            0.,NA,NA,"",   173.802E-03,  -123.537E-03,  -122.253E-03,   4.91078E-03
C:/temp/dataset/6/15_4.odb,Step-1,Increment      1: Step Time =    1.000,"PART-1-1",           346,      -14.0083,       10.0442,            0.,NA,NA,"",   154.660E-03,  -110.573E-03,  -108.136E-03,   4.31666E-03
C:/temp/dataset/6/15_4.odb,Step-1,Increment      1: Step Time =    1.000,"PART-1-1",           347,      -13.0572,       11.3141,            0.,NA,NA,"",   159.166E-03,  -120.434E-03,  -104.065E-03,   3.76253E-03
C:/temp/dataset/6/15_4.odb,Step-1,Increment      1: Step Time =    1.000,"PART-1-1",           348,      -14.0489,       12.5200,            0.,NA,NA,"",   178.703E-03,  -133.962E-03,  -118.275E-03,   4.35720E-03
C:/temp/dataset/6/15_4.odb,Step-1,Increment      1: Step Time =    1.000,"PART-1-1",           349,           -5.,       22.7083,            0.,NA,NA,"",   258.884E-03,  -258.234E-03,  -18.3326E-03,   974.858E-06
C:/temp/dataset/6/15_4.odb,Step-1,Increment      1: Step Time =    1.000,"PART-1-1",           350,      -5.96779,       23.6687,            0.,NA,NA,"",   275.018E-03,  -273.012E-03,  -33.1545E-03,   405.310E-06
C:/temp/dataset/6/15_4.odb,Step-1,Increment      1: Step Time =    1.000,"PART-1-1",           351,      -6.69567,       22.7251,            0.,NA,NA,"",   261.767E-03,  -257.922E-03,  -44.6998E-03,   26.4981E-06
C:/temp/dataset/6/15_4.odb,Step-1,Increment      1: Step Time =    1.000,"PART-1-1",           352,      -5.72788,       21.7648,            0.,NA,NA,"",   245.293E-03,  -243.451E-03,  -30.0053E-03,   541.470E-06
C:/temp/dataset/6/15_4.odb,Step-1,Increment      1: Step Time =    1.000,"PART-1-1",           353,      -9.95259,       28.8237,            0.,NA,NA,"",   377.944E-03,  -362.475E-03,  -107.018E-03,   2.23691E-03
C:/temp/dataset/6/15_4.odb,Step-1,Increment      1: Step Time =    1.000,"PART-1-1",           354,      -8.67740,       27.7404,            0.,NA,NA,"",   351.932E-03,  -342.478E-03,  -81.0235E-03,   804.237E-06
C:/temp/dataset/6/15_4.odb,Step-1,Increment      1: Step Time =    1.000,"PART-1-1",           355,      -7.47481,       28.9167,            0.,NA,NA,"",   369.257E-03,  -364.452E-03,  -59.3726E-03,   625.200E-06
C:/temp/dataset/6/15_4.odb,Step-1,Increment      1: Step Time =    1.000,"PART-1-1",           356,         -8.75,           30.,            0.,NA,NA,"",   394.217E-03,  -385.325E-03,  -83.2550E-03,   890.743E-06
C:/temp/dataset/6/15_4.odb,Step-1,Increment      1: Step Time =    1.000,"PART-1-1",           357,      -12.4360,       28.7156,            0.,NA,NA,"",   395.676E-03,  -364.176E-03,  -154.710E-03,   4.08257E-03
C:/temp/dataset/6/15_4.odb,Step-1,Increment      1: Step Time =    1.000,"PART-1-1",           358,        -13.75,           30.,            0.,NA,NA,"",   430.184E-03,  -389.362E-03,  -182.908E-03,   3.87041E-03
C:/temp/dataset/6/15_4.odb,Step-1,Increment      1: Step Time =    1.000,"PART-1-1",           359,          -15.,         28.75,            0.,NA,NA,"",   419.864E-03,  -368.818E-03,  -200.647E-03,   4.21061E-03
C:/temp/dataset/6/15_4.odb,Step-1,Increment      1: Step Time =    1.000,"PART-1-1",           360,      -13.6860,       27.4656,            0.,NA,NA,"",   384.104E-03,  -343.337E-03,  -172.207E-03,   4.19231E-03
C:/temp/dataset/6/15_4.odb,Step-1,Increment      1: Step Time =    1.000,"PART-1-1",           361,         -3.75,           -5.,            0.,NA,NA,"",   39.7425E-03,  -28.0175E-03,  -28.1866E-03,   424.610E-06
C:/temp/dataset/6/15_4.odb,Step-1,Increment      1: Step Time =    1.000,"PART-1-1",           362,      -2.75606,      -4.06584,            0.,NA,NA,"",   39.9373E-03,  -30.7885E-03,  -25.4374E-03,   442.198E-06
C:/temp/dataset/6/15_4.odb,Step-1,Increment      1: Step Time =    1.000,"PART-1-1",           363,      -4.26954,      -3.28646,            0.,NA,NA,"",   43.6713E-03,  -32.4078E-03,  -29.2730E-03,   396.308E-06
C:/temp/dataset/6/15_4.odb,Step-1,Increment      1: Step Time =    1.000,"PART-1-1",           364,      -5.26349,      -4.22062,            0.,NA,NA,"",   43.2185E-03,  -29.7156E-03,  -31.3819E-03,   766.973E-06
C:/temp/dataset/6/15_4.odb,Step-1,Increment      1: Step Time =    1.000,"PART-1-1",           365,   659.099E-03,      -2.85996,            0.,NA,NA,"",   38.6489E-03,  -35.0174E-03,  -16.3558E-03,   269.659E-06
C:/temp/dataset/6/15_4.odb,Step-1,Increment      1: Step Time =    1.000,"PART-1-1",           366,  -266.865E-03,      -3.97148,            0.,NA,NA,"",   37.0094E-03,  -31.8545E-03,  -18.8410E-03,   354.646E-06
C:/temp/dataset/6/15_4.odb,Step-1,Increment      1: Step Time =    1.000,"PART-1-1",           367,          1.25,           -5.,            0.,NA,NA,"",   33.3942E-03,  -29.7327E-03,  -15.2032E-03,   364.481E-06
C:/temp/dataset/6/15_4.odb,Step-1,Increment      1: Step Time =    1.000,"PART-1-1",           368,       2.17596,      -3.88848,            0.,NA,NA,"",   35.1463E-03,  -32.7159E-03,  -12.8426E-03,   267.356E-06
C:/temp/dataset/6/15_4.odb,Step-1,Increment      1: Step Time =    1.000,"PART-1-1",           369,   93.5104E-03,  -560.922E-03,            0.,NA,NA,"",   44.8573E-03,  -41.3010E-03,  -17.5043E-03,   294.580E-06
C:/temp/dataset/6/15_4.odb,Step-1,Increment      1: Step Time =    1.000,"PART-1-1",           370,   627.873E-03,   544.404E-03,            0.,NA,NA,"",   47.3616E-03,  -44.5214E-03,  -16.1543E-03,   342.900E-06
C:/temp/dataset/6/15_4.odb,Step-1,Increment      1: Step Time =    1.000,"PART-1-1",           371,  -981.002E-03,       1.17096,            0.,NA,NA,"",   50.6838E-03,  -46.5107E-03,  -20.1395E-03,   389.519E-06
C:/temp/dataset/6/15_4.odb,Step-1,Increment      1: Step Time =    1.000,"PART-1-1",           372,      -1.51537,   65.6335E-03,            0.,NA,NA,"",   48.1554E-03,  -43.0544E-03,  -21.5698E-03,   324.078E-06
C:/temp/dataset/6/15_4.odb,Step-1,Increment      1: Step Time =    1.000,"PART-1-1",           373,       4.11258,       2.54084,            0.,NA,NA,"",   50.1297E-03,  -49.4165E-03,  -8.42572E-03,   329.394E-06
C:/temp/dataset/6/15_4.odb,Step-1,Increment      1: Step Time =    1.000,"PART-1-1",           374,       3.71515,       1.12833,            0.,NA,NA,"",   46.7588E-03,  -45.8467E-03,  -9.19051E-03,   319.718E-06
C:/temp/dataset/6/15_4.odb,Step-1,Increment      1: Step Time =    1.000,"PART-1-1",           375,       5.46602,   397.127E-03,            0.,NA,NA,"",   44.1720E-03,  -43.8347E-03,  -5.44757E-03,   284.532E-06
C:/temp/dataset/6/15_4.odb,Step-1,Increment      1: Step Time =    1.000,"PART-1-1",           376,       8.69518,  -378.803E-03,            0.,NA,NA,"",   41.8472E-03,  -41.8287E-03,   1.24239E-03,   224.947E-06
C:/temp/dataset/6/15_4.odb,Step-1,Increment      1: Step Time =    1.000,"PART-1-1",           377,       8.82700,   889.396E-03,            0.,NA,NA,"",   44.9023E-03,  -44.8760E-03,   1.53633E-03,   208.866E-06
C:/temp/dataset/6/15_4.odb,Step-1,Increment      1: Step Time =    1.000,"PART-1-1",           378,       6.97530,  -164.986E-03,            0.,NA,NA,"",   42.4386E-03,  -42.3757E-03,  -2.30909E-03,   259.262E-06
C:/temp/dataset/6/15_4.odb,Step-1,Increment      1: Step Time =    1.000,"PART-1-1",           379,      -3.65351,      -22.6081,            0.,NA,NA,"",   3.88149E-03,  -673.977E-06,  -3.82253E-03,   680.487E-06
C:/temp/dataset/6/15_4.odb,Step-1,Increment      1: Step Time =    1.000,"PART-1-1",           380,      -2.48671,      -21.3009,            0.,NA,NA,"",   3.05587E-03,  -1.76509E-03,  -2.49456E-03,   182.630E-06
C:/temp/dataset/6/15_4.odb,Step-1,Increment      1: Step Time =    1.000,"PART-1-1",           381,         -3.75,          -20.,            0.,NA,NA,"",   5.84495E-03,  -3.67643E-03,  -4.54393E-03,   651.012E-06
C:/temp/dataset/6/15_4.odb,Step-1,Increment      1: Step Time =    1.000,"PART-1-1",           382,      -4.91680,      -21.3072,            0.,NA,NA,"",   7.30471E-03,  -2.00293E-03,  -7.02475E-03,   1.46274E-03
C:/temp/dataset/6/15_4.odb,Step-1,Increment      1: Step Time =    1.000,"PART-1-1",           383,       12.8399,      -22.4784,            0.,NA,NA,"",   3.75268E-03,  -1.86682E-03,   3.25539E-03,   531.407E-06
C:/temp/dataset/6/15_4.odb,Step-1,Increment      1: Step Time =    1.000,"PART-1-1",           384,       11.7398,      -21.2760,            0.,NA,NA,"",   3.82767E-03,  -2.43184E-03,   2.95588E-03,   419.737E-06
C:/temp/dataset/6/15_4.odb,Step-1,Increment      1: Step Time =    1.000,"PART-1-1",           385,       10.5591,      -22.4389,            0.,NA,NA,"",   2.24644E-03,  -1.42976E-03,   1.73270E-03,   288.606E-06
C:/temp/dataset/6/15_4.odb,Step-1,Increment      1: Step Time =    1.000,"PART-1-1",           386,       11.6593,      -23.6412,            0.,NA,NA,"",   2.27265E-03,  -1.00121E-03,   2.04023E-03,   400.979E-06
C:/temp/dataset/6/15_4.odb,Step-1,Increment      1: Step Time =    1.000,"PART-1-1",           387,          8.75,            5.,            0.,NA,NA,"",   54.3050E-03,  -54.2909E-03,   1.23864E-03,   117.465E-06
C:/temp/dataset/6/15_4.odb,Step-1,Increment      1: Step Time =    1.000,"PART-1-1",           388,       7.62461,       4.03982,            0.,NA,NA,"",   52.3382E-03,  -52.3267E-03,  -1.09438E-03,   168.872E-06
C:/temp/dataset/6/15_4.odb,Step-1,Increment      1: Step Time =    1.000,"PART-1-1",           389,       8.90047,       2.96899,            0.,NA,NA,"",   49.7866E-03,  -49.7591E-03,   1.65275E-03,   159.761E-06
C:/temp/dataset/6/15_4.odb,Step-1,Increment      1: Step Time =    1.000,"PART-1-1",           390,       10.0259,       3.92917,            0.,NA,NA,"",   52.0054E-03,  -51.8508E-03,   4.00610E-03,   85.6586E-06
C:/temp/dataset/6/15_4.odb,Step-1,Increment      1: Step Time =    1.000,"PART-1-1",           391,      -6.96921,       21.1213,            0.,NA,NA,"",   238.636E-03,  -233.653E-03,  -48.5116E-03,   192.357E-06
C:/temp/dataset/6/15_4.odb,Step-1,Increment      1: Step Time =    1.000,"PART-1-1",           392,      -6.24133,       19.9816,            0.,NA,NA,"",   220.622E-03,  -217.338E-03,  -37.9249E-03,   234.108E-06
C:/temp/dataset/6/15_4.odb,Step-1,Increment      1: Step Time =    1.000,"PART-1-1",           393,           -5.,        20.625,            0.,NA,NA,"",   227.855E-03,  -226.980E-03,  -19.9457E-03,   978.408E-06
C:/temp/dataset/6/15_4.odb,Step-1,Increment      1: Step Time =    1.000,"PART-1-1",           394,      -12.9370,       8.81410,            0.,NA,NA,"",   136.407E-03,  -98.3268E-03,  -94.5454E-03,   3.67228E-03
C:/temp/dataset/6/15_4.odb,Step-1,Increment      1: Step Time =    1.000,"PART-1-1",           395,          -15.,          8.75,            0.,NA,NA,"",   150.665E-03,  -101.719E-03,  -111.145E-03,   4.87615E-03
C:/temp/dataset/6/15_4.odb,Step-1,Increment      1: Step Time =    1.000,"PART-1-1",           396,      -13.9287,       7.51992,            0.,NA,NA,"",   132.898E-03,  -90.0689E-03,  -97.7220E-03,   4.22945E-03
C:/temp/dataset/6/15_4.odb,Step-1,Increment      1: Step Time =    1.000,"PART-1-1",           397,          -15.,          1.25,            0.,NA,NA,"",   97.6231E-03,  -56.2867E-03,  -79.7627E-03,   4.17550E-03
C:/temp/dataset/6/15_4.odb,Step-1,Increment      1: Step Time =    1.000,"PART-1-1",           398,      -13.9023,  -59.1614E-03,            0.,NA,NA,"",   86.0506E-03,  -49.2003E-03,  -70.5977E-03,   3.55527E-03
C:/temp/dataset/6/15_4.odb,Step-1,Increment      1: Step Time =    1.000,"PART-1-1",           399,      -12.7542,       1.08470,            0.,NA,NA,"",   86.2887E-03,  -51.8916E-03,  -68.9420E-03,   3.23255E-03
C:/temp/dataset/6/15_4.odb,Step-1,Increment      1: Step Time =    1.000,"PART-1-1",           400,          -15.,         -1.25,            0.,NA,NA,"",   84.8695E-03,  -46.7895E-03,  -70.8067E-03,   3.78222E-03
C:/temp/dataset/6/15_4.odb,Step-1,Increment      1: Step Time =    1.000,"PART-1-1",           401,      -13.9820,      -2.43756,            0.,NA,NA,"",   75.8520E-03,  -41.3783E-03,  -63.5717E-03,   3.29818E-03
C:/temp/dataset/6/15_4.odb,Step-1,Increment      1: Step Time =    1.000,"PART-1-1",           402,      -12.8843,      -1.24672,            0.,NA,NA,"",   76.5591E-03,  -43.5705E-03,  -62.9516E-03,   3.08518E-03
C:/temp/dataset/6/15_4.odb,Step-1,Increment      1: Step Time =    1.000,"PART-1-1",           403,      -12.3802,      -13.7897,            0.,NA,NA,"",   35.7811E-03,  -16.3624E-03,  -31.8207E-03,   2.37835E-03
C:/temp/dataset/6/15_4.odb,Step-1,Increment      1: Step Time =    1.000,"PART-1-1",           404,      -13.6672,      -12.5056,            0.,NA,NA,"",   41.6431E-03,  -19.5379E-03,  -36.7753E-03,   2.56762E-03
C:/temp/dataset/6/15_4.odb,Step-1,Increment      1: Step Time =    1.000,"PART-1-1",           405,          -15.,        -13.75,            0.,NA,NA,"",   40.7592E-03,  -19.3608E-03,  -35.8674E-03,   2.64391E-03
C:/temp/dataset/6/15_4.odb,Step-1,Increment      1: Step Time =    1.000,"PART-1-1",           406,      -13.7130,      -15.0341,            0.,NA,NA,"",   35.1228E-03,  -16.2362E-03,  -31.1447E-03,   2.45264E-03
C:/temp/dataset/6/15_4.odb,Step-1,Increment      1: Step Time =    1.000,"PART-1-1",           407,       9.21271,      -3.58583,            0.,NA,NA,"",   34.2169E-03,  -34.1505E-03,   2.13030E-03,   223.283E-06
C:/temp/dataset/6/15_4.odb,Step-1,Increment      1: Step Time =    1.000,"PART-1-1",           408,       7.90749,      -3.82305,            0.,NA,NA,"",   33.5433E-03,  -33.5386E-03,  -562.128E-06,   200.052E-06
C:/temp/dataset/6/15_4.odb,Step-1,Increment      1: Step Time =    1.000,"PART-1-1",           409,       8.15132,      -5.16923,            0.,NA,NA,"",   30.4051E-03,  -30.4047E-03,  -136.993E-06,   185.644E-06
C:/temp/dataset/6/15_4.odb,Step-1,Increment      1: Step Time =    1.000,"PART-1-1",           410,       9.45655,      -4.93201,            0.,NA,NA,"",   31.1049E-03,  -31.0021E-03,   2.52618E-03,   213.701E-06
C:/temp/dataset/6/15_4.odb,Step-1,Increment      1: Step Time =    1.000,"PART-1-1",           411,       6.91243,      -16.0318,            0.,NA,NA,"",   8.50644E-03,  -8.36429E-03,  -1.54861E-03,   316.895E-06
C:/temp/dataset/6/15_4.odb,Step-1,Increment      1: Step Time =    1.000,"PART-1-1",           412,       5.96229,      -14.9858,            0.,NA,NA,"",   10.7481E-03,  -10.2421E-03,  -3.25891E-03,   348.501E-06
C:/temp/dataset/6/15_4.odb,Step-1,Increment      1: Step Time =    1.000,"PART-1-1",           413,            5.,      -16.2875,            0.,NA,NA,"",   9.34598E-03,  -8.29853E-03,  -4.29904E-03,   517.188E-06
C:/temp/dataset/6/15_4.odb,Step-1,Increment      1: Step Time =    1.000,"PART-1-1",           414,       6.93910,      -13.7291,            0.,NA,NA,"",   12.4956E-03,  -12.3371E-03,  -1.98400E-03,   237.248E-06
C:/temp/dataset/6/15_4.odb,Step-1,Increment      1: Step Time =    1.000,"PART-1-1",           415,       5.97681,      -12.5371,            0.,NA,NA,"",   15.1606E-03,  -14.6561E-03,  -3.87849E-03,   258.142E-06
C:/temp/dataset/6/15_4.odb,Step-1,Increment      1: Step Time =    1.000,"PART-1-1",           416,            5.,      -13.7937,            0.,NA,NA,"",   13.5380E-03,  -12.4713E-03,  -5.26711E-03,   388.615E-06
C:/temp/dataset/6/15_4.odb,Step-1,Increment      1: Step Time =    1.000,"PART-1-1",           417,         -1.25,          -20.,            0.,NA,NA,"",   3.09368E-03,  -2.71560E-03,  -1.48203E-03,   347.158E-06
C:/temp/dataset/6/15_4.odb,Step-1,Increment      1: Step Time =    1.000,"PART-1-1",           418,      -1.09514,      -22.7401,            0.,NA,NA,"",   1.43745E-03,  -750.814E-06,  -1.22578E-03,   195.506E-06
C:/temp/dataset/6/15_4.odb,Step-1,Increment      1: Step Time =    1.000,"PART-1-1",           419,   141.566E-03,      -21.4393,            0.,NA,NA,"",   1.73519E-03,  -1.57833E-03,  -720.957E-06,   155.378E-06
C:/temp/dataset/6/15_4.odb,Step-1,Increment      1: Step Time =    1.000,"PART-1-1",           420,      -7.69236,      -25.1479,            0.,NA,NA,"",   5.71145E-03,  -882.415E-06,  -5.64287E-03,   1.54682E-03
C:/temp/dataset/6/15_4.odb,Step-1,Increment      1: Step Time =    1.000,"PART-1-1",           421,      -9.18951,      -25.9970,            0.,NA,NA,"",   5.49174E-03,  -1.30336E-03,  -5.33483E-03,   1.74791E-03
C:/temp/dataset/6/15_4.odb,Step-1,Increment      1: Step Time =    1.000,"PART-1-1",           422,      -8.56598,      -27.1897,            0.,NA,NA,"",   3.34191E-03,  -345.876E-06,  -3.32396E-03,   1.52398E-03
C:/temp/dataset/6/15_4.odb,Step-1,Increment      1: Step Time =    1.000,"PART-1-1",           423,      -7.06883,      -26.3407,            0.,NA,NA,"",   3.72633E-03,  -22.5480E-06,  -3.72626E-03,   1.33425E-03
C:/temp/dataset/6/15_4.odb,Step-1,Increment      1: Step Time =    1.000,"PART-1-1",           424,      -9.82073,      -13.8964,            0.,NA,NA,"",   30.5414E-03,  -13.6844E-03,  -27.3041E-03,   2.10748E-03
C:/temp/dataset/6/15_4.odb,Step-1,Increment      1: Step Time =    1.000,"PART-1-1",           425,      -8.65586,      -15.1239,            0.,NA,NA,"",   25.7200E-03,  -11.1819E-03,  -23.1621E-03,   2.00464E-03
C:/temp/dataset/6/15_4.odb,Step-1,Increment      1: Step Time =    1.000,"PART-1-1",           426,      -8.53523,      -12.6467,            0.,NA,NA,"",   30.7723E-03,  -14.1655E-03,  -27.3180E-03,   1.95599E-03
C:/temp/dataset/6/15_4.odb,Step-1,Increment      1: Step Time =    1.000,"PART-1-1",           427,      -6.09243,      -10.1071,            0.,NA,NA,"",   31.2384E-03,  -16.2243E-03,  -26.6947E-03,   1.50158E-03
C:/temp/dataset/6/15_4.odb,Step-1,Increment      1: Step Time =    1.000,"PART-1-1",           428,           -5.,      -8.71250,            0.,NA,NA,"",   31.9127E-03,  -18.1994E-03,  -26.2145E-03,   1.23347E-03
C:/temp/dataset/6/15_4.odb,Step-1,Increment      1: Step Time =    1.000,"PART-1-1",           429,      -6.07322,      -7.75598,            0.,NA,NA,"",   36.3420E-03,  -20.8903E-03,  -29.7378E-03,   1.37881E-03
C:/temp/dataset/6/15_4.odb,Step-1,Increment      1: Step Time =    1.000,"PART-1-1",           430,      -12.7270,      -6.06323,            0.,NA,NA,"",   58.4800E-03,  -30.2189E-03,  -50.0672E-03,   2.71300E-03
C:/temp/dataset/6/15_4.odb,Step-1,Increment      1: Step Time =    1.000,"PART-1-1",           431,      -13.8025,      -4.90646,            0.,NA,NA,"",   65.7027E-03,  -34.3421E-03,  -56.0130E-03,   3.01389E-03
C:/temp/dataset/6/15_4.odb,Step-1,Increment      1: Step Time =    1.000,"PART-1-1",           432,          -15.,         -6.25,            0.,NA,NA,"",   64.3161E-03,  -32.7738E-03,  -55.3393E-03,   3.17419E-03
C:/temp/dataset/6/15_4.odb,Step-1,Increment      1: Step Time =    1.000,"PART-1-1",           433,      -13.9244,      -7.40677,            0.,NA,NA,"",   57.4321E-03,  -28.7707E-03,  -49.7060E-03,   2.86781E-03
C:/temp/dataset/6/15_4.odb,Step-1,Increment      1: Step Time =    1.000,"PART-1-1",           434,       1.60591,      -1.50045,            0.,NA,NA,"",   41.2517E-03,  -38.8223E-03,  -13.9475E-03,   262.166E-06
C:/temp/dataset/6/15_4.odb,Step-1,Increment      1: Step Time =    1.000,"PART-1-1",           435,  -853.298E-03,      -1.92043,            0.,NA,NA,"",   42.3124E-03,  -37.2519E-03,  -20.0657E-03,   296.982E-06
C:/temp/dataset/6/15_4.odb,Step-1,Increment      1: Step Time =    1.000,"PART-1-1",           436,         13.75,          -30.,            0.,NA,NA,"",            0.,   27.0493E-42,   816.133E-42,   494.330E-06
C:/temp/dataset/6/15_4.odb,Step-1,Increment      1: Step Time =    1.000,"PART-1-1",           437,           15.,      -28.9063,            0.,NA,NA,"",   749.466E-06,  -456.027E-06,   594.760E-06,   638.452E-06
C:/temp/dataset/6/15_4.odb,Step-1,Increment      1: Step Time =    1.000,"PART-1-1",           438,       13.8103,      -27.8746,            0.,NA,NA,"",   1.02024E-03,  -327.803E-06,   966.145E-06,   564.201E-06
C:/temp/dataset/6/15_4.odb,Step-1,Increment      1: Step Time =    1.000,"PART-1-1",           439,       12.5603,      -28.9683,            0.,NA,NA,"",   328.460E-06,   24.1696E-06,   327.570E-06,   400.758E-06
C:/temp/dataset/6/15_4.odb,Step-1,Increment      1: Step Time =    1.000,"PART-1-1",           440,       12.6598,      -26.8678,            0.,NA,NA,"",   1.21001E-03,  -246.538E-06,   1.18463E-03,   478.017E-06
C:/temp/dataset/6/15_4.odb,Step-1,Increment      1: Step Time =    1.000,"PART-1-1",           441,       11.5501,      -25.8632,            0.,NA,NA,"",   1.25261E-03,  -243.608E-06,   1.22870E-03,   380.363E-06
C:/temp/dataset/6/15_4.odb,Step-1,Increment      1: Step Time =    1.000,"PART-1-1",           442,       10.3093,      -26.9762,            0.,NA,NA,"",   578.461E-06,   104.999E-06,   568.851E-06,   246.484E-06
C:/temp/dataset/6/15_4.odb,Step-1,Increment      1: Step Time =    1.000,"PART-1-1",           443,       11.4189,      -27.9808,            0.,NA,NA,"",   525.219E-06,   80.6631E-06,   518.988E-06,   342.886E-06
C:/temp/dataset/6/15_4.odb,Step-1,Increment      1: Step Time =    1.000,"PART-1-1",           444,       10.1086,      -29.0125,            0.,NA,NA,"",   221.917E-06,   158.705E-06,   155.113E-06,   219.824E-06
C:/temp/dataset/6/15_4.odb,Step-1,Increment      1: Step Time =    1.000,"PART-1-1",           445,       9.01957,      -28.0513,            0.,NA,NA,"",   300.897E-06,   236.748E-06,   185.713E-06,   141.859E-06
C:/temp/dataset/6/15_4.odb,Step-1,Increment      1: Step Time =    1.000,"PART-1-1",           446,          8.75,          -30.,            0.,NA,NA,"",            0.,   154.576E-42,   190.209E-42,   181.960E-06
C:/temp/dataset/6/15_4.odb,Step-1,Increment      1: Step Time =    1.000,"PART-1-1",           447,       4.20973,      -27.9354,            0.,NA,NA,"",   297.421E-06,   239.714E-06,  -176.058E-06,   118.528E-06
C:/temp/dataset/6/15_4.odb,Step-1,Increment      1: Step Time =    1.000,"PART-1-1",           448,       2.74203,      -28.9082,            0.,NA,NA,"",   246.789E-06,   210.072E-06,  -129.517E-06,   188.099E-06
C:/temp/dataset/6/15_4.odb,Step-1,Increment      1: Step Time =    1.000,"PART-1-1",           449,          3.75,          -30.,            0.,NA,NA,"",            0.,   135.210E-42,  -256.271E-42,   200.103E-06
C:/temp/dataset/6/15_4.odb,Step-1,Increment      1: Step Time =    1.000,"PART-1-1",           450,       1.16266,      -25.9573,            0.,NA,NA,"",   536.632E-06,   239.187E-06,  -480.378E-06,   234.897E-06
C:/temp/dataset/6/15_4.odb,Step-1,Increment      1: Step Time =    1.000,"PART-1-1",           451,       1.65415,      -27.4536,            0.,NA,NA,"",   484.490E-06,   363.556E-06,  -320.245E-06,   206.563E-06
C:/temp/dataset/6/15_4.odb,Step-1,Increment      1: Step Time =    1.000,"PART-1-1",           452,       3.39879,      -26.8461,            0.,NA,NA,"",   357.255E-06,   199.758E-06,  -296.189E-06,   155.632E-06
C:/temp/dataset/6/15_4.odb,Step-1,Increment      1: Step Time =    1.000,"PART-1-1",           453,       2.90730,      -25.3498,            0.,NA,NA,"",   434.937E-06,  -90.5970E-06,  -425.397E-06,   229.002E-06
C:/temp/dataset/6/15_4.odb,Step-1,Increment      1: Step Time =    1.000,"PART-1-1",           454,      -3.67645,      -27.5530,            0.,NA,NA,"",   1.48355E-03,   786.770E-06,  -1.25774E-03,   692.638E-06
C:/temp/dataset/6/15_4.odb,Step-1,Increment      1: Step Time =    1.000,"PART-1-1",           455,      -2.54816,      -26.3074,            0.,NA,NA,"",   1.56558E-03,   733.892E-06,  -1.38292E-03,   506.978E-06
C:/temp/dataset/6/15_4.odb,Step-1,Increment      1: Step Time =    1.000,"PART-1-1",           456,      -3.72120,      -25.1278,            0.,NA,NA,"",   2.59442E-03,   462.925E-06,  -2.55279E-03,   705.273E-06
C:/temp/dataset/6/15_4.odb,Step-1,Increment      1: Step Time =    1.000,"PART-1-1",           457,      -4.84948,      -26.3734,            0.,NA,NA,"",   2.56603E-03,   625.160E-06,  -2.48871E-03,   904.758E-06
C:/temp/dataset/6/15_4.odb,Step-1,Increment      1: Step Time =    1.000,"PART-1-1",           458,      -4.94498,      -28.7931,            0.,NA,NA,"",   951.785E-06,   525.945E-06,  -793.269E-06,   885.463E-06
C:/temp/dataset/6/15_4.odb,Step-1,Increment      1: Step Time =    1.000,"PART-1-1",           459,         -3.75,          -30.,            0.,NA,NA,"",            0.,   377.181E-42,  -1.29408E-39,   768.739E-06
C:/temp/dataset/6/15_4.odb,Step-1,Increment      1: Step Time =    1.000,"PART-1-1",           460,      -6.07748,      -27.5364,            0.,NA,NA,"",   2.11673E-03,   521.018E-06,  -2.05160E-03,   1.07606E-03
C:/temp/dataset/6/15_4.odb,Step-1,Increment      1: Step Time =    1.000,"PART-1-1",           461,      -7.38250,      -28.7433,            0.,NA,NA,"",   1.23181E-03,   280.799E-06,  -1.19938E-03,   1.22160E-03
C:/temp/dataset/6/15_4.odb,Step-1,Increment      1: Step Time =    1.000,"PART-1-1",           462,         -6.25,          -30.,            0.,NA,NA,"",            0.,   327.078E-42,  -1.91812E-39,   1.04308E-03
C:/temp/dataset/6/15_4.odb,Step-1,Increment      1: Step Time =    1.000,"PART-1-1",           463,      -8.77755,      -24.1806,            0.,NA,NA,"",   8.25268E-03,  -2.25430E-03,  -7.93883E-03,   1.79733E-03
C:/temp/dataset/6/15_4.odb,Step-1,Increment      1: Step Time =    1.000,"PART-1-1",           464,      -9.92276,      -23.8066,            0.,NA,NA,"",   10.1194E-03,  -3.47480E-03,  -9.50408E-03,   1.97558E-03
C:/temp/dataset/6/15_4.odb,Step-1,Increment      1: Step Time =    1.000,"PART-1-1",           465,      -10.3347,      -25.6230,            0.,NA,NA,"",   7.02876E-03,  -2.37591E-03,  -6.61502E-03,   1.94606E-03
C:/temp/dataset/6/15_4.odb,Step-1,Increment      1: Step Time =    1.000,"PART-1-1",           466,       13.9544,      -21.3085,            0.,NA,NA,"",   5.56582E-03,  -2.97446E-03,   4.70435E-03,   682.287E-06
C:/temp/dataset/6/15_4.odb,Step-1,Increment      1: Step Time =    1.000,"PART-1-1",           467,       13.8855,      -23.5136,            0.,NA,NA,"",   3.70722E-03,  -1.58898E-03,   3.34942E-03,   646.397E-06
C:/temp/dataset/6/15_4.odb,Step-1,Increment      1: Step Time =    1.000,"PART-1-1",           468,           15.,      -22.3438,            0.,NA,NA,"",   5.42796E-03,  -2.60173E-03,   4.76380E-03,   800.815E-06
C:/temp/dataset/6/15_4.odb,Step-1,Increment      1: Step Time =    1.000,"PART-1-1",           469,       12.7349,      -24.6944,            0.,NA,NA,"",   2.30999E-03,  -808.613E-06,   2.16384E-03,   508.912E-06
C:/temp/dataset/6/15_4.odb,Step-1,Increment      1: Step Time =    1.000,"PART-1-1",           470,       13.8494,      -25.7120,            0.,NA,NA,"",   2.25213E-03,  -782.451E-06,   2.11184E-03,   600.392E-06
C:/temp/dataset/6/15_4.odb,Step-1,Increment      1: Step Time =    1.000,"PART-1-1",           471,           15.,      -24.5313,            0.,NA,NA,"",   3.56646E-03,  -1.50033E-03,   3.23553E-03,   738.471E-06
C:/temp/dataset/6/15_4.odb,Step-1,Increment      1: Step Time =    1.000,"PART-1-1",           472,         11.25,          -30.,            0.,NA,NA,"",            0.,   114.169E-42,   516.570E-42,   283.210E-06
C:/temp/dataset/6/15_4.odb,Step-1,Increment      1: Step Time =    1.000,"PART-1-1",           473,       13.9950,      -12.5232,            0.,NA,NA,"",   17.9061E-03,  -15.1132E-03,   9.60316E-03,   492.894E-06
C:/temp/dataset/6/15_4.odb,Step-1,Increment      1: Step Time =    1.000,"PART-1-1",           474,       12.9942,      -13.6844,            0.,NA,NA,"",   14.7648E-03,  -12.7572E-03,   7.43317E-03,   443.269E-06
C:/temp/dataset/6/15_4.odb,Step-1,Increment      1: Step Time =    1.000,"PART-1-1",           475,           15.,      -13.5938,            0.,NA,NA,"",   17.2441E-03,  -13.3996E-03,   10.8541E-03,   633.319E-06
C:/temp/dataset/6/15_4.odb,Step-1,Increment      1: Step Time =    1.000,"PART-1-1",           476,       9.85236,      -17.2546,            0.,NA,NA,"",   6.85211E-03,  -6.49313E-03,   2.18878E-03,   237.133E-06
C:/temp/dataset/6/15_4.odb,Step-1,Increment      1: Step Time =    1.000,"PART-1-1",           477,       8.68427,      -17.7513,            0.,NA,NA,"",   5.75303E-03,  -5.69252E-03,   832.196E-06,   214.302E-06
C:/temp/dataset/6/15_4.odb,Step-1,Increment      1: Step Time =    1.000,"PART-1-1",           478,       8.96140,      -18.9835,            0.,NA,NA,"",   4.27792E-03,  -4.14250E-03,   1.06784E-03,   199.653E-06
C:/temp/dataset/6/15_4.odb,Step-1,Increment      1: Step Time =    1.000,"PART-1-1",           479,       10.1295,      -18.4868,            0.,NA,NA,"",   5.39834E-03,  -4.88811E-03,   2.29095E-03,   259.769E-06
C:/temp/dataset/6/15_4.odb,Step-1,Increment      1: Step Time =    1.000,"PART-1-1",           480,       11.2436,      -18.3856,            0.,NA,NA,"",   6.25635E-03,  -5.19839E-03,   3.48118E-03,   351.832E-06
C:/temp/dataset/6/15_4.odb,Step-1,Increment      1: Step Time =    1.000,"PART-1-1",           481,       12.3956,      -19.2305,            0.,NA,NA,"",   6.24811E-03,  -4.46698E-03,   4.36864E-03,   483.691E-06
C:/temp/dataset/6/15_4.odb,Step-1,Increment      1: Step Time =    1.000,"PART-1-1",           482,       13.1120,      -18.1414,            0.,NA,NA,"",   8.17151E-03,  -5.91108E-03,   5.64205E-03,   547.950E-06
C:/temp/dataset/6/15_4.odb,Step-1,Increment      1: Step Time =    1.000,"PART-1-1",           483,       11.9600,      -17.2965,            0.,NA,NA,"",   8.20275E-03,  -6.75884E-03,   4.64792E-03,   415.107E-06
C:/temp/dataset/6/15_4.odb,Step-1,Increment      1: Step Time =    1.000,"PART-1-1",           484,       14.0024,      -3.77677,            0.,NA,NA,"",   36.1120E-03,  -33.9872E-03,   12.2043E-03,   191.133E-06
C:/temp/dataset/6/15_4.odb,Step-1,Increment      1: Step Time =    1.000,"PART-1-1",           485,       13.0359,      -4.87313,            0.,NA,NA,"",   32.8952E-03,  -31.3641E-03,   9.91904E-03,   224.177E-06
C:/temp/dataset/6/15_4.odb,Step-1,Increment      1: Step Time =    1.000,"PART-1-1",           486,       14.0335,      -5.94012,            0.,NA,NA,"",   31.3487E-03,  -29.0209E-03,   11.8545E-03,   262.027E-06
C:/temp/dataset/6/15_4.odb,Step-1,Increment      1: Step Time =    1.000,"PART-1-1",           487,           15.,      -4.84375,            0.,NA,NA,"",   34.6897E-03,  -31.6280E-03,   14.2494E-03,   245.202E-06
C:/temp/dataset/6/15_4.odb,Step-1,Increment      1: Step Time =    1.000,"PART-1-1",           488,       13.0510,      -7.01836,            0.,NA,NA,"",   28.1387E-03,  -26.4740E-03,   9.53507E-03,   275.430E-06
C:/temp/dataset/6/15_4.odb,Step-1,Increment      1: Step Time =    1.000,"PART-1-1",           489,       14.0175,      -8.10950,            0.,NA,NA,"",   26.6745E-03,  -24.1831E-03,   11.2563E-03,   335.539E-06
C:/temp/dataset/6/15_4.odb,Step-1,Increment      1: Step Time =    1.000,"PART-1-1",           490,           15.,      -7.03125,            0.,NA,NA,"",   30.0070E-03,  -26.7046E-03,   13.6851E-03,   336.455E-06
C:/temp/dataset/6/15_4.odb,Step-1,Increment      1: Step Time =    1.000,"PART-1-1",           491,         13.75,            5.,            0.,NA,NA,"",   55.4926E-03,  -54.1508E-03,   12.1291E-03,   3.40314E-06
C:/temp/dataset/6/15_4.odb,Step-1,Increment      1: Step Time =    1.000,"PART-1-1",           492,       12.4982,       3.90020,            0.,NA,NA,"",   52.5444E-03,  -51.7041E-03,   9.35932E-03,   26.6268E-06
C:/temp/dataset/6/15_4.odb,Step-1,Increment      1: Step Time =    1.000,"PART-1-1",           493,       13.7482,       2.80645,            0.,NA,NA,"",   50.7086E-03,  -49.2381E-03,   12.1233E-03,   25.5842E-06
C:/temp/dataset/6/15_4.odb,Step-1,Increment      1: Step Time =    1.000,"PART-1-1",           494,           15.,       3.90625,            0.,NA,NA,"",   53.8233E-03,  -51.7126E-03,   14.9247E-03,   4.20531E-06
C:/temp/dataset/6/15_4.odb,Step-1,Increment      1: Step Time =    1.000,"PART-1-1",           495,         11.25,            5.,            0.,NA,NA,"",   54.5582E-03,  -54.1550E-03,   6.62046E-03,   32.0718E-06
C:/temp/dataset/6/15_4.odb,Step-1,Increment      1: Step Time =    1.000,"PART-1-1",           496,       11.2740,       2.82937,            0.,NA,NA,"",   49.7679E-03,  -49.3144E-03,   6.70350E-03,   91.8025E-06
C:/temp/dataset/6/15_4.odb,Step-1,Increment      1: Step Time =    1.000,"PART-1-1",           497,       11.1422,   446.578E-03,            0.,NA,NA,"",   44.2513E-03,  -43.7871E-03,   6.39261E-03,   155.161E-06
C:/temp/dataset/6/15_4.odb,Step-1,Increment      1: Step Time =    1.000,"PART-1-1",           498,       10.2035,  -836.101E-03,            0.,NA,NA,"",   40.9699E-03,  -40.7372E-03,   4.35997E-03,   201.862E-06
C:/temp/dataset/6/15_4.odb,Step-1,Increment      1: Step Time =    1.000,"PART-1-1",           499,       11.7017,      -1.82731,            0.,NA,NA,"",   39.1374E-03,  -38.4218E-03,   7.44993E-03,   182.031E-06
C:/temp/dataset/6/15_4.odb,Step-1,Increment      1: Step Time =    1.000,"PART-1-1",           500,       12.5035,       1.67834,            0.,NA,NA,"",   47.5874E-03,  -46.6580E-03,   9.35909E-03,   85.6888E-06
C:/temp/dataset/6/15_4.odb,Step-1,Increment      1: Step Time =    1.000,"PART-1-1",           501,       9.91277,       1.59761,            0.,NA,NA,"",   46.6683E-03,  -46.5125E-03,   3.80987E-03,   159.403E-06
C:/temp/dataset/6/15_4.odb,Step-1,Increment      1: Step Time =    1.000,"PART-1-1",           502,       5.19643,       3.92738,            0.,NA,NA,"",   52.8893E-03,  -52.5186E-03,  -6.25059E-03,   281.846E-06
C:/temp/dataset/6/15_4.odb,Step-1,Increment      1: Step Time =    1.000,"PART-1-1",           503,          3.75,            5.,            0.,NA,NA,"",   56.2068E-03,  -55.3858E-03,  -9.57155E-03,   413.185E-06
C:/temp/dataset/6/15_4.odb,Step-1,Increment      1: Step Time =    1.000,"PART-1-1",           504,       2.66615,       3.61346,            0.,NA,NA,"",   53.7903E-03,  -52.4932E-03,  -11.7410E-03,   405.219E-06
C:/temp/dataset/6/15_4.odb,Step-1,Increment      1: Step Time =    1.000,"PART-1-1",           505,      -1.00804,       2.95894,            0.,NA,NA,"",   55.9396E-03,  -52.1058E-03,  -20.3525E-03,   605.174E-06
C:/temp/dataset/6/15_4.odb,Step-1,Increment      1: Step Time =    1.000,"PART-1-1",           506,   87.8012E-03,       3.95476,            0.,NA,NA,"",   57.3265E-03,  -54.4706E-03,  -17.8685E-03,   612.156E-06
C:/temp/dataset/6/15_4.odb,Step-1,Increment      1: Step Time =    1.000,"PART-1-1",           507,         -1.25,            5.,            0.,NA,NA,"",   62.0661E-03,  -58.1667E-03,  -21.6525E-03,   947.535E-06
C:/temp/dataset/6/15_4.odb,Step-1,Increment      1: Step Time =    1.000,"PART-1-1",           508,      -2.34584,       4.00418,            0.,NA,NA,"",   61.1990E-03,  -56.2454E-03,  -24.1199E-03,   862.525E-06
C:/temp/dataset/6/15_4.odb,Step-1,Increment      1: Step Time =    1.000,"PART-1-1",           509,      -3.27281,       2.96378,            0.,NA,NA,"",   59.3928E-03,  -53.1488E-03,  -26.5088E-03,   536.582E-06
C:/temp/dataset/6/15_4.odb,Step-1,Increment      1: Step Time =    1.000,"PART-1-1",           510,         -3.75,            5.,            0.,NA,NA,"",   67.4245E-03,  -60.9978E-03,  -28.7286E-03,   1.70416E-03
C:/temp/dataset/6/15_4.odb,Step-1,Increment      1: Step Time =    1.000,"PART-1-1",           511,      -4.67697,       3.95960,            0.,NA,NA,"",   65.6510E-03,  -57.8175E-03,  -31.0996E-03,   1.06810E-03
C:/temp/dataset/6/15_4.odb,Step-1,Increment      1: Step Time =    1.000,"PART-1-1",           512,      -7.93004,       8.58536,            0.,NA,NA,"",   105.624E-03,  -91.3750E-03,  -52.9816E-03,   829.142E-06
C:/temp/dataset/6/15_4.odb,Step-1,Increment      1: Step Time =    1.000,"PART-1-1",           513,      -8.65034,       7.25415,            0.,NA,NA,"",   99.5189E-03,  -81.3957E-03,  -57.2603E-03,   1.38862E-03
C:/temp/dataset/6/15_4.odb,Step-1,Increment      1: Step Time =    1.000,"PART-1-1",           514,      -7.51010,       6.50150,            0.,NA,NA,"",   89.3938E-03,  -75.2445E-03,  -48.2650E-03,   777.064E-06
C:/temp/dataset/6/15_4.odb,Step-1,Increment      1: Step Time =    1.000,"PART-1-1",           515,      -6.78981,       7.83270,            0.,NA,NA,"",   95.5536E-03,  -85.0578E-03,  -43.5392E-03,   224.087E-06
C:/temp/dataset/6/15_4.odb,Step-1,Increment      1: Step Time =    1.000,"PART-1-1",           516,      -7.08495,       12.0475,            0.,NA,NA,"",   131.139E-03,  -122.344E-03,  -47.2160E-03,   306.972E-06
C:/temp/dataset/6/15_4.odb,Step-1,Increment      1: Step Time =    1.000,"PART-1-1",           517,      -6.02998,       11.1050,            0.,NA,NA,"",   119.169E-03,  -113.299E-03,  -36.9391E-03,   287.054E-06
C:/temp/dataset/6/15_4.odb,Step-1,Increment      1: Step Time =    1.000,"PART-1-1",           518,           -5.,       12.2917,            0.,NA,NA,"",   127.895E-03,  -125.152E-03,  -26.3468E-03,   886.783E-06
C:/temp/dataset/6/15_4.odb,Step-1,Increment      1: Step Time =    1.000,"PART-1-1",           519,      -6.05497,       13.2342,            0.,NA,NA,"",   139.415E-03,  -134.488E-03,  -36.7368E-03,   296.147E-06
C:/temp/dataset/6/15_4.odb,Step-1,Increment      1: Step Time =    1.000,"PART-1-1",           520,      -9.96524,       21.0498,            0.,NA,NA,"",   251.353E-03,  -233.720E-03,  -92.4827E-03,   1.97400E-03
C:/temp/dataset/6/15_4.odb,Step-1,Increment      1: Step Time =    1.000,"PART-1-1",           521,      -8.51702,       20.1362,            0.,NA,NA,"",   230.673E-03,  -219.733E-03,  -70.1950E-03,   1.11509E-03
C:/temp/dataset/6/15_4.odb,Step-1,Increment      1: Step Time =    1.000,"PART-1-1",           522,      -8.09442,       21.6565,            0.,NA,NA,"",   250.445E-03,  -241.718E-03,  -65.5357E-03,   854.239E-06
C:/temp/dataset/6/15_4.odb,Step-1,Increment      1: Step Time =    1.000,"PART-1-1",           523,      -9.54264,       22.5701,            0.,NA,NA,"",   271.193E-03,  -256.249E-03,  -88.7813E-03,   1.71106E-03
C:/temp/dataset/6/15_4.odb,Step-1,Increment      1: Step Time =    1.000,"PART-1-1",           524,      -7.38593,       19.0122,            0.,NA,NA,"",   210.809E-03,  -203.886E-03,  -53.5791E-03,   448.401E-06
C:/temp/dataset/6/15_4.odb,Step-1,Increment      1: Step Time =    1.000,"PART-1-1",           525,      -6.14460,       17.5723,            0.,NA,NA,"",   188.635E-03,  -184.980E-03,  -36.9557E-03,   279.023E-06
C:/temp/dataset/6/15_4.odb,Step-1,Increment      1: Step Time =    1.000,"PART-1-1",           526,           -5.,       18.5417,            0.,NA,NA,"",   199.223E-03,  -198.054E-03,  -21.5504E-03,   961.710E-06
C:/temp/dataset/6/15_4.odb,Step-1,Increment      1: Step Time =    1.000,"PART-1-1",           527,      -9.12859,       24.1056,            0.,NA,NA,"",   292.797E-03,  -280.322E-03,  -84.5579E-03,   1.43862E-03
C:/temp/dataset/6/15_4.odb,Step-1,Increment      1: Step Time =    1.000,"PART-1-1",           528,      -7.82088,       23.2603,            0.,NA,NA,"",   273.613E-03,  -266.353E-03,  -62.6100E-03,   678.970E-06
C:/temp/dataset/6/15_4.odb,Step-1,Increment      1: Step Time =    1.000,"PART-1-1",           529,      -7.11221,       24.6459,            0.,NA,NA,"",   293.398E-03,  -288.778E-03,  -51.8593E-03,   218.315E-06
C:/temp/dataset/6/15_4.odb,Step-1,Increment      1: Step Time =    1.000,"PART-1-1",           530,      -8.41993,       25.4912,            0.,NA,NA,"",   312.048E-03,  -303.056E-03,  -74.3709E-03,   934.628E-06
C:/temp/dataset/6/15_4.odb,Step-1,Increment      1: Step Time =    1.000,"PART-1-1",           531,           -5.,       28.9583,            0.,NA,NA,"",   365.654E-03,  -365.338E-03,  -15.1993E-03,   193.572E-06
C:/temp/dataset/6/15_4.odb,Step-1,Increment      1: Step Time =    1.000,"PART-1-1",           532,         -6.25,           30.,            0.,NA,NA,"",   385.871E-03,  -384.017E-03,  -37.7853E-03,   211.022E-06
C:/temp/dataset/6/15_4.odb,Step-1,Increment      1: Step Time =    1.000,"PART-1-1",           533,      -6.22481,       27.8751,            0.,NA,NA,"",   347.352E-03,  -345.375E-03,  -37.0103E-03,   424.688E-06
C:/temp/dataset/6/15_4.odb,Step-1,Increment      1: Step Time =    1.000,"PART-1-1",           534,      -11.1386,       27.5393,            0.,NA,NA,"",   363.322E-03,  -340.510E-03,  -126.712E-03,   3.18992E-03
C:/temp/dataset/6/15_4.odb,Step-1,Increment      1: Step Time =    1.000,"PART-1-1",           535,        -11.25,           30.,            0.,NA,NA,"",   410.598E-03,  -386.927E-03,  -137.398E-03,   3.47310E-03
C:/temp/dataset/6/15_4.odb,Step-1,Increment      1: Step Time =    1.000,"PART-1-1",           536,      -13.1147,       13.7606,            0.,NA,NA,"",   184.054E-03,  -145.203E-03,  -113.101E-03,   3.81184E-03
C:/temp/dataset/6/15_4.odb,Step-1,Increment      1: Step Time =    1.000,"PART-1-1",           537,      -14.0658,       14.9906,            0.,NA,NA,"",   205.474E-03,  -160.496E-03,  -128.298E-03,   4.38119E-03
C:/temp/dataset/6/15_4.odb,Step-1,Increment      1: Step Time =    1.000,"PART-1-1",           538,          -15.,         13.75,            0.,NA,NA,"",   199.779E-03,  -148.688E-03,  -133.430E-03,   4.92620E-03
C:/temp/dataset/6/15_4.odb,Step-1,Increment      1: Step Time =    1.000,"PART-1-1",           539,      -9.42834,       18.6970,            0.,NA,NA,"",   216.114E-03,  -200.416E-03,  -80.8633E-03,   1.65548E-03
C:/temp/dataset/6/15_4.odb,Step-1,Increment      1: Step Time =    1.000,"PART-1-1",           540,      -8.29725,       17.5730,            0.,NA,NA,"",   196.087E-03,  -185.151E-03,  -64.5686E-03,   990.495E-06
C:/temp/dataset/6/15_4.odb,Step-1,Increment      1: Step Time =    1.000,"PART-1-1",           541,      -12.7588,       6.21303,            0.,NA,NA,"",   115.748E-03,  -78.9014E-03,  -84.6885E-03,   3.52813E-03
C:/temp/dataset/6/15_4.odb,Step-1,Increment      1: Step Time =    1.000,"PART-1-1",           542,          -15.,          6.25,            0.,NA,NA,"",   130.295E-03,  -83.3002E-03,  -100.189E-03,   4.76835E-03
C:/temp/dataset/6/15_4.odb,Step-1,Increment      1: Step Time =    1.000,"PART-1-1",           543,      -9.01063,       9.47069,            0.,NA,NA,"",   117.583E-03,  -99.2967E-03,  -62.9755E-03,   1.44694E-03
C:/temp/dataset/6/15_4.odb,Step-1,Increment      1: Step Time =    1.000,"PART-1-1",           544,      -10.0811,       10.4578,            0.,NA,NA,"",   131.583E-03,  -108.770E-03,  -74.0478E-03,   2.03587E-03
C:/temp/dataset/6/15_4.odb,Step-1,Increment      1: Step Time =    1.000,"PART-1-1",           545,      -10.9384,       9.05000,            0.,NA,NA,"",   125.220E-03,  -97.4810E-03,  -78.5967E-03,   2.55612E-03
C:/temp/dataset/6/15_4.odb,Step-1,Increment      1: Step Time =    1.000,"PART-1-1",           546,      -9.86794,       8.06293,            0.,NA,NA,"",   111.503E-03,  -88.4896E-03,  -67.8412E-03,   1.97253E-03
C:/temp/dataset/6/15_4.odb,Step-1,Increment      1: Step Time =    1.000,"PART-1-1",           547,      -7.23366,       1.29985,            0.,NA,NA,"",   63.5133E-03,  -47.5937E-03,  -42.0569E-03,   1.07272E-03
C:/temp/dataset/6/15_4.odb,Step-1,Increment      1: Step Time =    1.000,"PART-1-1",           548,      -8.34685,   784.410E-03,            0.,NA,NA,"",   65.7678E-03,  -46.2143E-03,  -46.7937E-03,   1.51966E-03
C:/temp/dataset/6/15_4.odb,Step-1,Increment      1: Step Time =    1.000,"PART-1-1",           549,      -7.43977,  -685.632E-03,            0.,NA,NA,"",   57.8920E-03,  -40.6609E-03,  -41.2088E-03,   1.17577E-03
C:/temp/dataset/6/15_4.odb,Step-1,Increment      1: Step Time =    1.000,"PART-1-1",           550,      -12.4903,      -8.57964,            0.,NA,NA,"",   50.0678E-03,  -24.6940E-03,  -43.5544E-03,   2.56990E-03
C:/temp/dataset/6/15_4.odb,Step-1,Increment      1: Step Time =    1.000,"PART-1-1",           551,          -15.,         -8.75,            0.,NA,NA,"",   55.7090E-03,  -27.4767E-03,  -48.4615E-03,   2.97495E-03
C:/temp/dataset/6/15_4.odb,Step-1,Increment      1: Step Time =    1.000,"PART-1-1",           552,      -13.5658,      -9.92286,            0.,NA,NA,"",   48.7220E-03,  -23.5083E-03,  -42.6755E-03,   2.67451E-03
C:/temp/dataset/6/15_4.odb,Step-1,Increment      1: Step Time =    1.000,"PART-1-1",           553,      -11.9783,      -7.15971,            0.,NA,NA,"",   52.9242E-03,  -26.9660E-03,  -45.5391E-03,   2.50271E-03
C:/temp/dataset/6/15_4.odb,Step-1,Increment      1: Step Time =    1.000,"PART-1-1",           554,      -11.8960,      -5.22799,            0.,NA,NA,"",   58.6546E-03,  -31.2237E-03,  -49.6533E-03,   2.55190E-03
C:/temp/dataset/6/15_4.odb,Step-1,Increment      1: Step Time =    1.000,"PART-1-1",           555,      -12.4565,      -16.3452,            0.,NA,NA,"",   29.7575E-03,  -13.3695E-03,  -26.5851E-03,   2.30186E-03
C:/temp/dataset/6/15_4.odb,Step-1,Increment      1: Step Time =    1.000,"PART-1-1",           556,          -15.,        -16.25,            0.,NA,NA,"",   34.1893E-03,  -16.2076E-03,  -30.1036E-03,   2.50255E-03
C:/temp/dataset/6/15_4.odb,Step-1,Increment      1: Step Time =    1.000,"PART-1-1",           557,      -13.7435,      -17.5611,            0.,NA,NA,"",   28.9836E-03,  -13.3495E-03,  -25.7263E-03,   2.35335E-03
C:/temp/dataset/6/15_4.odb,Step-1,Increment      1: Step Time =    1.000,"PART-1-1",           558,      -9.99221,      -8.41662,            0.,NA,NA,"",   44.1361E-03,  -22.4454E-03,  -38.0026E-03,   2.11244E-03
C:/temp/dataset/6/15_4.odb,Step-1,Increment      1: Step Time =    1.000,"PART-1-1",           559,      -11.4633,      -9.12095,            0.,NA,NA,"",   45.9530E-03,  -22.5671E-03,  -40.0300E-03,   2.36734E-03
C:/temp/dataset/6/15_4.odb,Step-1,Increment      1: Step Time =    1.000,"PART-1-1",           560,      -10.8070,      -10.1141,            0.,NA,NA,"",   41.7266E-03,  -20.1509E-03,  -36.5383E-03,   2.26305E-03
C:/temp/dataset/6/15_4.odb,Step-1,Increment      1: Step Time =    1.000,"PART-1-1",           561,      -13.9189,      -24.9166,            0.,NA,NA,"",   12.4057E-03,  -6.33056E-03,  -10.6689E-03,   2.29800E-03
C:/temp/dataset/6/15_4.odb,Step-1,Increment      1: Step Time =    1.000,"PART-1-1",           562,      -12.9076,      -23.6273,            0.,NA,NA,"",   13.9596E-03,  -6.42754E-03,  -12.3918E-03,   2.26292E-03
C:/temp/dataset/6/15_4.odb,Step-1,Increment      1: Step Time =    1.000,"PART-1-1",           563,          -15.,        -23.75,            0.,NA,NA,"",   16.3913E-03,  -8.47022E-03,  -14.0332E-03,   2.32339E-03
C:/temp/dataset/6/15_4.odb,Step-1,Increment      1: Step Time =    1.000,"PART-1-1",           564,          -15.,        -28.75,            0.,NA,NA,"",   4.62866E-03,  -3.26063E-03,  -3.28523E-03,   2.83490E-03
C:/temp/dataset/6/15_4.odb,Step-1,Increment      1: Step Time =    1.000,"PART-1-1",           565,        -13.75,          -30.,            0.,NA,NA,"",            0.,  -251.041E-42,  -3.85202E-39,   2.64143E-03
C:/temp/dataset/6/15_4.odb,Step-1,Increment      1: Step Time =    1.000,"PART-1-1",           566,      -13.7642,      -27.4123,            0.,NA,NA,"",   6.37053E-03,  -3.64711E-03,  -5.22324E-03,   2.37865E-03
C:/temp/dataset/6/15_4.odb,Step-1,Increment      1: Step Time =    1.000,"PART-1-1",           567,            5.,      -6.25625,            0.,NA,NA,"",   28.7255E-03,  -27.9209E-03,  -6.75083E-03,   29.8794E-06
C:/temp/dataset/6/15_4.odb,Step-1,Increment      1: Step Time =    1.000,"PART-1-1",           568,       7.03347,      -6.11658,            0.,NA,NA,"",   28.3201E-03,  -28.2144E-03,  -2.44511E-03,   143.818E-06
C:/temp/dataset/6/15_4.odb,Step-1,Increment      1: Step Time =    1.000,"PART-1-1",           569,       6.04361,      -4.83741,            0.,NA,NA,"",   31.4235E-03,  -31.1005E-03,  -4.49397E-03,   118.589E-06
C:/temp/dataset/6/15_4.odb,Step-1,Increment      1: Step Time =    1.000,"PART-1-1",           570,           15.,      -2.65625,            0.,NA,NA,"",   39.4789E-03,  -36.6656E-03,   14.6363E-03,   157.759E-06
C:/temp/dataset/6/15_4.odb,Step-1,Increment      1: Step Time =    1.000,"PART-1-1",           571,       12.8875,      -2.72454,            0.,NA,NA,"",   37.6895E-03,  -36.3649E-03,   9.90418E-03,   178.701E-06
C:/temp/dataset/6/15_4.odb,Step-1,Increment      1: Step Time =    1.000,"PART-1-1",           572,       10.0248,      -7.91896,            0.,NA,NA,"",   24.4509E-03,  -24.2130E-03,   3.40263E-03,   220.196E-06
C:/temp/dataset/6/15_4.odb,Step-1,Increment      1: Step Time =    1.000,"PART-1-1",           573,       8.98203,      -8.99604,            0.,NA,NA,"",   21.8495E-03,  -21.8079E-03,   1.34752E-03,   200.455E-06
C:/temp/dataset/6/15_4.odb,Step-1,Increment      1: Step Time =    1.000,"PART-1-1",           574,       9.98204,      -10.2112,            0.,NA,NA,"",   19.4903E-03,  -19.2418E-03,   3.10269E-03,   223.320E-06
C:/temp/dataset/6/15_4.odb,Step-1,Increment      1: Step Time =    1.000,"PART-1-1",           575,            5.,      -11.2813,            0.,NA,NA,"",   18.2448E-03,  -17.2189E-03,  -6.03188E-03,   279.443E-06
C:/temp/dataset/6/15_4.odb,Step-1,Increment      1: Step Time =    1.000,"PART-1-1",           576,       6.96001,      -11.3098,            0.,NA,NA,"",   17.1398E-03,  -16.9836E-03,  -2.30900E-03,   182.463E-06
C:/temp/dataset/6/15_4.odb,Step-1,Increment      1: Step Time =    1.000,"PART-1-1",           577,       12.1169,      -5.93459,            0.,NA,NA,"",   29.8829E-03,  -28.8419E-03,   7.81877E-03,   236.749E-06
C:/temp/dataset/6/15_4.odb,Step-1,Increment      1: Step Time =    1.000,"PART-1-1",           578,       11.1088,      -6.97100,            0.,NA,NA,"",   26.9975E-03,  -26.4042E-03,   5.62906E-03,   241.026E-06
C:/temp/dataset/6/15_4.odb,Step-1,Increment      1: Step Time =    1.000,"PART-1-1",           579,           15.,      -11.4063,            0.,NA,NA,"",   21.2199E-03,  -17.5039E-03,   11.9958E-03,   531.828E-06
C:/temp/dataset/6/15_4.odb,Step-1,Increment      1: Step Time =    1.000,"PART-1-1",           580,       13.9991,      -10.3053,            0.,NA,NA,"",   22.1558E-03,  -19.5109E-03,   10.4977E-03,   412.457E-06
C:/temp/dataset/6/15_4.odb,Step-1,Increment      1: Step Time =    1.000,"PART-1-1",           581,       12.9941,      -11.4223,            0.,NA,NA,"",   18.9462E-03,  -17.0660E-03,   8.22874E-03,   385.800E-06
C:/temp/dataset/6/15_4.odb,Step-1,Increment      1: Step Time =    1.000,"PART-1-1",           582,           15.,      -9.21875,            0.,NA,NA,"",   25.4957E-03,  -21.9696E-03,   12.9370E-03,   431.961E-06
C:/temp/dataset/6/15_4.odb,Step-1,Increment      1: Step Time =    1.000,"PART-1-1",           583,       9.25975,      -25.9916,            0.,NA,NA,"",   471.110E-06,   27.5753E-06,   470.302E-06,   151.596E-06
C:/temp/dataset/6/15_4.odb,Step-1,Increment      1: Step Time =    1.000,"PART-1-1",           584,       7.97004,      -27.0667,            0.,NA,NA,"",   239.758E-06,   213.441E-06,   109.210E-06,   61.1027E-06
C:/temp/dataset/6/15_4.odb,Step-1,Increment      1: Step Time =    1.000,"PART-1-1",           585,       9.98268,      -20.3187,            0.,NA,NA,"",   3.40631E-03,  -2.90182E-03,   1.78392E-03,   245.624E-06
C:/temp/dataset/6/15_4.odb,Step-1,Increment      1: Step Time =    1.000,"PART-1-1",           586,       8.47236,      -19.9740,            0.,NA,NA,"",   3.06039E-03,  -3.00966E-03,   554.904E-06,   180.475E-06
C:/temp/dataset/6/15_4.odb,Step-1,Increment      1: Step Time =    1.000,"PART-1-1",           587,       7.80775,      -21.2882,            0.,NA,NA,"",   1.84330E-03,  -1.84315E-03,   23.6278E-06,   135.002E-06
C:/temp/dataset/6/15_4.odb,Step-1,Increment      1: Step Time =    1.000,"PART-1-1",           588,       9.31806,      -21.6330,            0.,NA,NA,"",   2.04817E-03,  -1.76350E-03,   1.04166E-03,   167.212E-06
C:/temp/dataset/6/15_4.odb,Step-1,Increment      1: Step Time =    1.000,"PART-1-1",           589,          3.75,          -20.,            0.,NA,NA,"",   2.13527E-03,  -1.99533E-03,  -760.290E-06,   457.109E-06
C:/temp/dataset/6/15_4.odb,Step-1,Increment      1: Step Time =    1.000,"PART-1-1",           590,       2.69482,      -20.9389,            0.,NA,NA,"",   1.91543E-03,  -1.81087E-03,  -624.197E-06,   217.949E-06
C:/temp/dataset/6/15_4.odb,Step-1,Increment      1: Step Time =    1.000,"PART-1-1",           591,       4.10336,      -21.5712,            0.,NA,NA,"",   2.00149E-03,  -1.75527E-03,  -961.767E-06,   482.271E-06
C:/temp/dataset/6/15_4.odb,Step-1,Increment      1: Step Time =    1.000,"PART-1-1",           592,       5.15854,      -20.6323,            0.,NA,NA,"",   2.65418E-03,  -2.19831E-03,  -1.48732E-03,   686.466E-06
C:/temp/dataset/6/15_4.odb,Step-1,Increment      1: Step Time =    1.000,"PART-1-1",           593,          1.25,          -20.,            0.,NA,NA,"",   2.03856E-03,  -1.95835E-03,  -566.209E-06,   144.539E-06
C:/temp/dataset/6/15_4.odb,Step-1,Increment      1: Step Time =    1.000,"PART-1-1",           594,       1.58638,      -22.3782,            0.,NA,NA,"",   1.30133E-03,  -1.18891E-03,  -529.126E-06,   337.804E-06
C:/temp/dataset/6/15_4.odb,Step-1,Increment      1: Step Time =    1.000,"PART-1-1",           595,      -7.18878,      -21.5166,            0.,NA,NA,"",   11.0590E-03,  -3.46755E-03,  -10.5013E-03,   1.75404E-03
C:/temp/dataset/6/15_4.odb,Step-1,Increment      1: Step Time =    1.000,"PART-1-1",           596,      -8.69544,      -20.4918,            0.,NA,NA,"",   15.0992E-03,  -5.64497E-03,  -14.0043E-03,   1.85020E-03
C:/temp/dataset/6/15_4.odb,Step-1,Increment      1: Step Time =    1.000,"PART-1-1",           597,      -9.53108,      -21.9939,            0.,NA,NA,"",   13.2354E-03,  -4.80589E-03,  -12.3321E-03,   1.94876E-03
C:/temp/dataset/6/15_4.odb,Step-1,Increment      1: Step Time =    1.000,"PART-1-1",           598,      -8.02442,      -23.0186,            0.,NA,NA,"",   9.47629E-03,  -2.62912E-03,  -9.10427E-03,   1.77970E-03
C:/temp/dataset/6/15_4.odb,Step-1,Increment      1: Step Time =    1.000,"PART-1-1",           599,           -5.,      -18.7437,            0.,NA,NA,"",   12.6418E-03,  -4.80496E-03,  -11.6931E-03,   2.27812E-03
C:/temp/dataset/6/15_4.odb,Step-1,Increment      1: Step Time =    1.000,"PART-1-1",           600,      -6.23242,      -17.5731,            0.,NA,NA,"",   16.8116E-03,  -6.79563E-03,  -15.3769E-03,   1.91933E-03
C:/temp/dataset/6/15_4.odb,Step-1,Increment      1: Step Time =    1.000,"PART-1-1",           601,      -7.41830,      -18.9573,            0.,NA,NA,"",   16.1197E-03,  -6.41569E-03,  -14.7880E-03,   1.72408E-03
C:/temp/dataset/6/15_4.odb,Step-1,Increment      1: Step Time =    1.000,"PART-1-1",           602,      -6.18588,      -20.1280,            0.,NA,NA,"",   12.0820E-03,  -4.50095E-03,  -11.2123E-03,   1.86209E-03
C:/temp/dataset/6/15_4.odb,Step-1,Increment      1: Step Time =    1.000,"PART-1-1",           603,           -5.,      -16.2312,            0.,NA,NA,"",   17.7555E-03,  -6.94073E-03,  -16.3427E-03,   1.78376E-03
C:/temp/dataset/6/15_4.odb,Step-1,Increment      1: Step Time =    1.000,"PART-1-1",           604,      -7.44257,      -16.3835,            0.,NA,NA,"",   21.0933E-03,  -8.83994E-03,  -19.1516E-03,   1.91712E-03
C:/temp/dataset/6/15_4.odb,Step-1,Increment      1: Step Time =    1.000,"PART-1-1",           605,      -12.6830,      -26.0788,            0.,NA,NA,"",   8.28642E-03,  -4.00588E-03,  -7.25380E-03,   2.25342E-03
C:/temp/dataset/6/15_4.odb,Step-1,Increment      1: Step Time =    1.000,"PART-1-1",           606,          -15.,        -26.25,            0.,NA,NA,"",   10.9062E-03,  -6.25683E-03,  -8.93295E-03,   2.37081E-03
C:/temp/dataset/6/15_4.odb,Step-1,Increment      1: Step Time =    1.000,"PART-1-1",           607,         -8.75,          -30.,            0.,NA,NA,"",            0.,   130.160E-42,  -2.54208E-39,   1.32996E-03
C:/temp/dataset/6/15_4.odb,Step-1,Increment      1: Step Time =    1.000,"PART-1-1",           608,          -15.,        -18.75,            0.,NA,NA,"",   28.0330E-03,  -13.4009E-03,  -24.6224E-03,   2.40325E-03
C:/temp/dataset/6/15_4.odb,Step-1,Increment      1: Step Time =    1.000,"PART-1-1",           609,      -12.5734,      -18.8685,            0.,NA,NA,"",   24.1339E-03,  -10.7540E-03,  -21.6055E-03,   2.24766E-03
C:/temp/dataset/6/15_4.odb,Step-1,Increment      1: Step Time =    1.000,"PART-1-1",           610,           -5.,      -11.2063,            0.,NA,NA,"",   27.0349E-03,  -13.6616E-03,  -23.3291E-03,   1.38914E-03
C:/temp/dataset/6/15_4.odb,Step-1,Increment      1: Step Time =    1.000,"PART-1-1",           611,      -7.25264,      -11.4522,            0.,NA,NA,"",   30.7714E-03,  -14.8526E-03,  -26.9495E-03,   1.75129E-03
C:/temp/dataset/6/15_4.odb,Step-1,Increment      1: Step Time =    1.000,"PART-1-1",           612,           -5.,      -6.23750,            0.,NA,NA,"",   37.5369E-03,  -23.9461E-03,  -28.9068E-03,   1.24091E-03
C:/temp/dataset/6/15_4.odb,Step-1,Increment      1: Step Time =    1.000,"PART-1-1",           613,      -6.16987,      -5.46941,            0.,NA,NA,"",   42.1444E-03,  -26.6539E-03,  -32.6453E-03,   1.18372E-03
C:/temp/dataset/6/15_4.odb,Step-1,Increment      1: Step Time =    1.000,"PART-1-1",           614,      -7.24309,      -6.98789,            0.,NA,NA,"",   40.8815E-03,  -23.3550E-03,  -33.5536E-03,   1.49418E-03
C:/temp/dataset/6/15_4.odb,Step-1,Increment      1: Step Time =    1.000,"PART-1-1",           615,           -5.,       16.4583,            0.,NA,NA,"",   173.015E-03,  -171.456E-03,  -23.1678E-03,   943.127E-06
C:/temp/dataset/6/15_4.odb,Step-1,Increment      1: Step Time =    1.000,"PART-1-1",           616,      -7.23328,       16.4840,            0.,NA,NA,"",   178.592E-03,  -171.312E-03,  -50.4711E-03,   369.554E-06
C:/temp/dataset/6/15_4.odb,Step-1,Increment      1: Step Time =    1.000,"PART-1-1",           617,      -6.08867,       15.3700,            0.,NA,NA,"",   162.304E-03,  -158.106E-03,  -36.6756E-03,   296.520E-06
C:/temp/dataset/6/15_4.odb,Step-1,Increment      1: Step Time =    1.000,"PART-1-1",           618,      -13.1522,       16.1892,            0.,NA,NA,"",   211.625E-03,  -172.888E-03,  -122.045E-03,   3.84694E-03
C:/temp/dataset/6/15_4.odb,Step-1,Increment      1: Step Time =    1.000,"PART-1-1",           619,      -14.0864,       17.4486,            0.,NA,NA,"",   235.161E-03,  -190.100E-03,  -138.429E-03,   4.40705E-03
C:/temp/dataset/6/15_4.odb,Step-1,Increment      1: Step Time =    1.000,"PART-1-1",           620,          -15.,         16.25,            0.,NA,NA,"",   228.711E-03,  -177.139E-03,  -144.674E-03,   4.94120E-03
C:/temp/dataset/6/15_4.odb,Step-1,Increment      1: Step Time =    1.000,"PART-1-1",           621,           -5.,       24.7917,            0.,NA,NA,"",   292.341E-03,  -291.857E-03,  -16.8044E-03,   915.096E-06
C:/temp/dataset/6/15_4.odb,Step-1,Increment      1: Step Time =    1.000,"PART-1-1",           622,      -6.14442,       25.7689,            0.,NA,NA,"",   310.032E-03,  -307.967E-03,  -35.7216E-03,   308.825E-06
C:/temp/dataset/6/15_4.odb,Step-1,Increment      1: Step Time =    1.000,"PART-1-1",           623,           -5.,        26.875,            0.,NA,NA,"",   328.171E-03,  -327.802E-03,  -15.5496E-03,   648.213E-06
C:/temp/dataset/6/15_4.odb,Step-1,Increment      1: Step Time =    1.000,"PART-1-1",           624,      -7.36924,       26.7689,            0.,NA,NA,"",   330.143E-03,  -325.199E-03,  -56.9205E-03,   246.962E-06
C:/temp/dataset/6/15_4.odb,Step-1,Increment      1: Step Time =    1.000,"PART-1-1",           625,      -13.1175,       20.9132,            0.,NA,NA,"",   273.136E-03,  -235.519E-03,  -138.327E-03,   3.84670E-03
C:/temp/dataset/6/15_4.odb,Step-1,Increment      1: Step Time =    1.000,"PART-1-1",           626,      -14.0212,       22.2867,            0.,NA,NA,"",   301.688E-03,  -257.550E-03,  -157.109E-03,   4.39245E-03
C:/temp/dataset/6/15_4.odb,Step-1,Increment      1: Step Time =    1.000,"PART-1-1",           627,          -15.,         21.25,            0.,NA,NA,"",   295.873E-03,  -243.966E-03,  -167.395E-03,   4.97054E-03
C:/temp/dataset/6/15_4.odb,Step-1,Increment      1: Step Time =    1.000,"PART-1-1",           628,      -14.0963,       19.8765,            0.,NA,NA,"",   267.426E-03,  -222.464E-03,  -148.413E-03,   4.42419E-03
C:/temp/dataset/6/15_4.odb,Step-1,Increment      1: Step Time =    1.000,"PART-1-1",           629,         -1.25,           -5.,            0.,NA,NA,"",   36.0224E-03,  -28.8299E-03,  -21.5975E-03,   377.010E-06
C:/temp/dataset/6/15_4.odb,Step-1,Increment      1: Step Time =    1.000,"PART-1-1",           630,      -1.77292,      -3.03732,            0.,NA,NA,"",   40.7639E-03,  -33.8900E-03,  -22.6531E-03,   350.894E-06
C:/temp/dataset/6/15_4.odb,Step-1,Increment      1: Step Time =    1.000,"PART-1-1",           631,      -12.1053,      -2.30059,            0.,NA,NA,"",   69.4114E-03,  -39.2924E-03,  -57.2193E-03,   2.74073E-03
C:/temp/dataset/6/15_4.odb,Step-1,Increment      1: Step Time =    1.000,"PART-1-1",           632,      -10.7648,      -1.40855,            0.,NA,NA,"",   67.5070E-03,  -40.5856E-03,  -53.9444E-03,   2.35385E-03
C:/temp/dataset/6/15_4.odb,Step-1,Increment      1: Step Time =    1.000,"PART-1-1",           633,      -11.5438,  -354.672E-03,            0.,NA,NA,"",   74.6190E-03,  -44.9110E-03,  -59.5903E-03,   2.68332E-03
C:/temp/dataset/6/15_4.odb,Step-1,Increment      1: Step Time =    1.000,"PART-1-1",           634,          3.75,           -5.,            0.,NA,NA,"",   31.8699E-03,  -30.4546E-03,  -9.39204E-03,   235.546E-06
C:/temp/dataset/6/15_4.odb,Step-1,Increment      1: Step Time =    1.000,"PART-1-1",           635,       4.52066,      -3.83856,            0.,NA,NA,"",   34.0989E-03,  -33.2342E-03,  -7.63014E-03,   190.924E-06
C:/temp/dataset/6/15_4.odb,Step-1,Increment      1: Step Time =    1.000,"PART-1-1",           636,       2.94662,      -2.72704,            0.,NA,NA,"",   37.4114E-03,  -35.7648E-03,  -10.9769E-03,   249.735E-06
C:/temp/dataset/6/15_4.odb,Step-1,Increment      1: Step Time =    1.000,"PART-1-1",           637,       1.50395,       2.56821,            0.,NA,NA,"",   52.1004E-03,  -50.1202E-03,  -14.2271E-03,   438.423E-06
C:/temp/dataset/6/15_4.odb,Step-1,Increment      1: Step Time =    1.000,"PART-1-1",           638,          1.25,            5.,            0.,NA,NA,"",   58.5791E-03,  -56.5382E-03,  -15.3279E-03,   626.018E-06
C:/temp/dataset/6/15_4.odb,Step-1,Increment      1: Step Time =    1.000,"PART-1-1",           639,          6.25,            5.,            0.,NA,NA,"",   54.8282E-03,  -54.6739E-03,  -4.11012E-03,   243.953E-06
C:/temp/dataset/6/15_4.odb,Step-1,Increment      1: Step Time =    1.000,"PART-1-1",           640,  -213.968E-03,      -26.0734,            0.,NA,NA,"",   820.875E-06,   452.906E-06,  -684.626E-06,   271.756E-06
C:/temp/dataset/6/15_4.odb,Step-1,Increment      1: Step Time =    1.000,"PART-1-1",           641,       1.14210,      -23.8512,            0.,NA,NA,"",   725.130E-06,  -462.889E-06,  -558.164E-06,   271.619E-06
C:/temp/dataset/6/15_4.odb,Step-1,Increment      1: Step Time =    1.000,"PART-1-1",           642,  -234.527E-03,      -23.9674,            0.,NA,NA,"",   854.883E-06,  -226.882E-06,  -824.226E-06,   236.179E-06
C:/temp/dataset/6/15_4.odb,Step-1,Increment      1: Step Time =    1.000,"PART-1-1",           643,           -5.,        14.375,            0.,NA,NA,"",   149.233E-03,  -147.163E-03,  -24.7720E-03,   918.362E-06
C:/temp/dataset/6/15_4.odb,Step-1,Increment      1: Step Time =    1.000,"PART-1-1",           644,      -7.14364,       14.2292,            0.,NA,NA,"",   153.044E-03,  -145.132E-03,  -48.5703E-03,   328.696E-06
C:/temp/dataset/6/15_4.odb,Step-1,Increment      1: Step Time =    1.000,"PART-1-1",           645,           -5.,       6.04167,            0.,NA,NA,"",   78.1223E-03,  -71.7145E-03,  -30.9859E-03,   1.36345E-03
C:/temp/dataset/6/15_4.odb,Step-1,Increment      1: Step Time =    1.000,"PART-1-1",           646,      -5.82078,       6.95384,            0.,NA,NA,"",   86.2655E-03,  -78.2446E-03,  -36.3250E-03,   467.250E-06
C:/temp/dataset/6/15_4.odb,Step-1,Increment      1: Step Time =    1.000,"PART-1-1",           647,      -6.45742,       5.85906,            0.,NA,NA,"",   81.1928E-03,  -70.1560E-03,  -40.8707E-03,   584.355E-06
C:/temp/dataset/6/15_4.odb,Step-1,Increment      1: Step Time =    1.000,"PART-1-1",           648,      -5.63664,       4.94688,            0.,NA,NA,"",   72.7417E-03,  -63.3906E-03,  -35.6790E-03,   1.18211E-03
C:/temp/dataset/6/15_4.odb,Step-1,Increment      1: Step Time =    1.000,"PART-1-1",           649,           -5.,         8.125,            0.,NA,NA,"",   92.4931E-03,  -87.7327E-03,  -29.2908E-03,   833.760E-06
C:/temp/dataset/6/15_4.odb,Step-1,Increment      1: Step Time =    1.000,"PART-1-1",           650,      -5.96903,       9.00386,            0.,NA,NA,"",   101.564E-03,  -94.6424E-03,  -36.8527E-03,   309.424E-06
C:/temp/dataset/6/15_4.odb,Step-1,Increment      1: Step Time =    1.000,"PART-1-1",           651,          -15.,         -3.75,            0.,NA,NA,"",   73.9259E-03,  -39.1164E-03,  -62.7291E-03,   3.43881E-03
C:/temp/dataset/6/15_4.odb,Step-1,Increment      1: Step Time =    1.000,"PART-1-1",           652,      -12.7846,      -3.59401,            0.,NA,NA,"",   67.1253E-03,  -36.4369E-03,  -56.3751E-03,   2.87924E-03
C:/temp/dataset/6/15_4.odb,Step-1,Increment      1: Step Time =    1.000,"PART-1-1",           653,      -11.5430,      -4.20540,            0.,NA,NA,"",   60.8222E-03,  -33.3873E-03,  -50.8393E-03,   2.47643E-03
C:/temp/dataset/6/15_4.odb,Step-1,Increment      1: Step Time =    1.000,"PART-1-1",           654,      -10.1018,      -4.29084,            0.,NA,NA,"",   55.8783E-03,  -31.8066E-03,  -45.9426E-03,   2.09218E-03
C:/temp/dataset/6/15_4.odb,Step-1,Increment      1: Step Time =    1.000,"PART-1-1",           655,          -15.,        -11.25,            0.,NA,NA,"",   47.8940E-03,  -23.0553E-03,  -41.9796E-03,   2.80477E-03
C:/temp/dataset/6/15_4.odb,Step-1,Increment      1: Step Time =    1.000,"PART-1-1",           656,      -12.2331,      -11.1785,            0.,NA,NA,"",   42.1932E-03,  -19.9151E-03,  -37.1975E-03,   2.44377E-03
C:/temp/dataset/6/15_4.odb,Step-1,Increment      1: Step Time =    1.000,"PART-1-1",           657,       5.21391,      -1.02834,            0.,NA,NA,"",   40.6753E-03,  -40.2312E-03,  -5.99402E-03,   278.509E-06
C:/temp/dataset/6/15_4.odb,Step-1,Increment      1: Step Time =    1.000,"PART-1-1",           658,       6.72319,      -1.59046,            0.,NA,NA,"",   38.9670E-03,  -38.8610E-03,  -2.87310E-03,   258.075E-06
C:/temp/dataset/6/15_4.odb,Step-1,Increment      1: Step Time =    1.000,"PART-1-1",           659,       10.9187,      -16.2245,            0.,NA,NA,"",   8.94111E-03,  -8.15348E-03,   3.66938E-03,   307.313E-06
C:/temp/dataset/6/15_4.odb,Step-1,Increment      1: Step Time =    1.000,"PART-1-1",           660,       11.9858,      -14.8752,            0.,NA,NA,"",   11.8431E-03,  -10.4970E-03,   5.48378E-03,   378.795E-06
C:/temp/dataset/6/15_4.odb,Step-1,Increment      1: Step Time =    1.000,"PART-1-1",           661,       10.9746,      -13.7451,            0.,NA,NA,"",   13.0626E-03,  -12.3467E-03,   4.26486E-03,   291.134E-06
C:/temp/dataset/6/15_4.odb,Step-1,Increment      1: Step Time =    1.000,"PART-1-1",           662,       11.9830,      -12.5543,            0.,NA,NA,"",   15.9287E-03,  -14.6954E-03,   6.14581E-03,   340.578E-06
C:/temp/dataset/6/15_4.odb,Step-1,Increment      1: Step Time =    1.000,"PART-1-1",           663,           15.,      -20.1563,            0.,NA,NA,"",   7.70131E-03,  -4.31065E-03,   6.38189E-03,   824.480E-06
C:/temp/dataset/6/15_4.odb,Step-1,Increment      1: Step Time =    1.000,"PART-1-1",           664,       14.0841,      -19.1367,            0.,NA,NA,"",   7.95236E-03,  -5.02640E-03,   6.16241E-03,   696.520E-06
C:/temp/dataset/6/15_4.odb,Step-1,Increment      1: Step Time =    1.000,"PART-1-1",           665,       13.0385,      -20.2889,            0.,NA,NA,"",   5.73710E-03,  -3.57066E-03,   4.49051E-03,   557.220E-06
C:/temp/dataset/6/15_4.odb,Step-1,Increment      1: Step Time =    1.000,"PART-1-1",           666,           15.,      -17.9688,            0.,NA,NA,"",   10.4367E-03,  -6.70306E-03,   7.99954E-03,   798.462E-06
C:/temp/dataset/6/15_4.odb,Step-1,Increment      1: Step Time =    1.000,"PART-1-1",           667,          1.25,          -30.,            0.,NA,NA,"",            0.,   193.843E-42,  -458.335E-42,   323.430E-06
C:/temp/dataset/6/15_4.odb,Step-1,Increment      1: Step Time =    1.000,"PART-1-1",           668,       3.30543,      -22.6598,            0.,NA,NA,"",   1.37600E-03,  -1.21247E-03,  -650.618E-06,   433.923E-06
C:/temp/dataset/6/15_4.odb,Step-1,Increment      1: Step Time =    1.000,"PART-1-1",           669,       2.86115,      -24.1329,            0.,NA,NA,"",   729.267E-06,  -520.081E-06,  -511.220E-06,   331.682E-06
C:/temp/dataset/6/15_4.odb,Step-1,Increment      1: Step Time =    1.000,"PART-1-1",           670,      -10.6801,      -21.6169,            0.,NA,NA,"",   15.4779E-03,  -6.17871E-03,  -14.1912E-03,   2.06776E-03
C:/temp/dataset/6/15_4.odb,Step-1,Increment      1: Step Time =    1.000,"PART-1-1",           671,      -11.3394,      -20.4213,            0.,NA,NA,"",   18.9114E-03,  -7.98286E-03,  -17.1440E-03,   2.12194E-03
C:/temp/dataset/6/15_4.odb,Step-1,Increment      1: Step Time =    1.000,"PART-1-1",           672,      -12.1593,      -22.4638,            0.,NA,NA,"",   15.5684E-03,  -6.75847E-03,  -14.0249E-03,   2.18932E-03
C:/temp/dataset/6/15_4.odb,Step-1,Increment      1: Step Time =    1.000,"PART-1-1",           673,      -9.92443,      -16.4516,            0.,NA,NA,"",   25.1601E-03,  -10.8374E-03,  -22.7064E-03,   2.07359E-03
C:/temp/dataset/6/15_4.odb,Step-1,Increment      1: Step Time =    1.000,"PART-1-1",           674,      -8.71114,      -17.7111,            0.,NA,NA,"",   20.5493E-03,  -8.52640E-03,  -18.6969E-03,   1.96337E-03
C:/temp/dataset/6/15_4.odb,Step-1,Increment      1: Step Time =    1.000,"PART-1-1",           675,      -9.25100,      -7.50767,            0.,NA,NA,"",   44.5856E-03,  -23.6329E-03,  -37.8069E-03,   1.94200E-03
C:/temp/dataset/6/15_4.odb,Step-1,Increment      1: Step Time =    1.000,"PART-1-1",           676,      -8.32615,      -6.25855,            0.,NA,NA,"",   45.3693E-03,  -25.7004E-03,  -37.3880E-03,   1.67206E-03
C:/temp/dataset/6/15_4.odb,Step-1,Increment      1: Step Time =    1.000,"PART-1-1",           677,      -7.58018,      -5.09368,            0.,NA,NA,"",   46.4208E-03,  -28.1441E-03,  -36.9161E-03,   1.42460E-03
C:/temp/dataset/6/15_4.odb,Step-1,Increment      1: Step Time =    1.000,"PART-1-1",           678,      -6.67379,      -3.84489,            0.,NA,NA,"",   47.2451E-03,  -31.0549E-03,  -35.6047E-03,   1.09553E-03
C:/temp/dataset/6/15_4.odb,Step-1,Increment      1: Step Time =    1.000,"PART-1-1",           679,      -2.40491,      -1.03021,            0.,NA,NA,"",   46.3022E-03,  -39.5275E-03,  -24.1137E-03,   276.512E-06
C:/temp/dataset/6/15_4.odb,Step-1,Increment      1: Step Time =    1.000,"PART-1-1",           680,      -3.32453,      -2.14711,            0.,NA,NA,"",   44.8302E-03,  -35.9433E-03,  -26.7922E-03,   348.949E-06
C:/temp/dataset/6/15_4.odb,Step-1,Increment      1: Step Time =    1.000,"PART-1-1",           681,       10.4745,      -24.8101,            0.,NA,NA,"",   1.17112E-03,  -374.986E-06,   1.10946E-03,   272.077E-06
C:/temp/dataset/6/15_4.odb,Step-1,Increment      1: Step Time =    1.000,"PART-1-1",           682,       8.16019,      -23.0435,            0.,NA,NA,"",   915.647E-06,  -882.551E-06,   243.952E-06,   54.0347E-06
C:/temp/dataset/6/15_4.odb,Step-1,Increment      1: Step Time =    1.000,"PART-1-1",           683,       9.40124,      -23.8494,            0.,NA,NA,"",   1.00256E-03,  -608.414E-06,   796.839E-06,   157.709E-06
C:/temp/dataset/6/15_4.odb,Step-1,Increment      1: Step Time =    1.000,"PART-1-1",           684,       5.67200,      -27.0943,            0.,NA,NA,"",   254.446E-06,   198.264E-06,  -159.481E-06,   85.5323E-06
C:/temp/dataset/6/15_4.odb,Step-1,Increment      1: Step Time =    1.000,"PART-1-1",           685,       4.86106,      -26.0050,            0.,NA,NA,"",   306.587E-06,   29.5576E-06,  -305.159E-06,   146.658E-06
C:/temp/dataset/6/15_4.odb,Step-1,Increment      1: Step Time =    1.000,"PART-1-1",           686,      -2.55341,      -23.8484,            0.,NA,NA,"",   2.11530E-03,   17.9657E-06,  -2.11522E-03,   425.863E-06
C:/temp/dataset/6/15_4.odb,Step-1,Increment      1: Step Time =    1.000,"PART-1-1",           687,      -4.82130,      -23.8875,            0.,NA,NA,"",   4.38342E-03,  -221.272E-06,  -4.37783E-03,   1.01301E-03
C:/temp/dataset/6/15_4.odb,Step-1,Increment      1: Step Time =    1.000,"PART-1-1",           688,      -5.84083,      -25.1777,            0.,NA,NA,"",   4.18385E-03,   32.0601E-06,  -4.18373E-03,   1.15583E-03
C:/temp/dataset/6/15_4.odb,Step-1,Increment      1: Step Time =    1.000,"PART-1-1",           689,           15.,      -26.7188,            0.,NA,NA,"",   2.06405E-03,  -878.613E-06,   1.86771E-03,   674.245E-06
C:/temp/dataset/6/15_4.odb,Step-1,Increment      1: Step Time =    1.000,"PART-1-1",           690,       10.9874,      -11.4075,            0.,NA,NA,"",   17.4901E-03,  -16.8433E-03,   4.71253E-03,   274.299E-06
C:/temp/dataset/6/15_4.odb,Step-1,Increment      1: Step Time =    1.000,"PART-1-1",           691,       7.29436,      -19.7763,            0.,NA,NA,"",   3.07900E-03,  -3.05377E-03,  -393.282E-06,   251.697E-06
C:/temp/dataset/6/15_4.odb,Step-1,Increment      1: Step Time =    1.000,"PART-1-1",           692,       7.78340,      -18.7858,            0.,NA,NA,"",   4.28494E-03,  -4.28457E-03,  -56.2006E-06,   250.942E-06
C:/temp/dataset/6/15_4.odb,Step-1,Increment      1: Step Time =    1.000,"PART-1-1",           693,       10.8970,      -2.99004,            0.,NA,NA,"",   36.0792E-03,  -35.6331E-03,   5.65577E-03,   212.386E-06
C:/temp/dataset/6/15_4.odb,Step-1,Increment      1: Step Time =    1.000,"PART-1-1",           694,       12.0828,      -3.88727,            0.,NA,NA,"",   34.5357E-03,  -33.5862E-03,   8.04256E-03,   206.025E-06
C:/temp/dataset/6/15_4.odb,Step-1,Increment      1: Step Time =    1.000,"PART-1-1",           695,           15.,       1.71875,            0.,NA,NA,"",   49.0996E-03,  -46.7751E-03,   14.9284E-03,   21.7011E-06
C:/temp/dataset/6/15_4.odb,Step-1,Increment      1: Step Time =    1.000,"PART-1-1",           696,       4.00043,  -427.215E-03,            0.,NA,NA,"",   42.6351E-03,  -41.7674E-03,  -8.55801E-03,   297.698E-06
C:/temp/dataset/6/15_4.odb,Step-1,Increment      1: Step Time =    1.000,"PART-1-1",           697,       2.09609,       1.00148,            0.,NA,NA,"",   47.4387E-03,  -45.6911E-03,  -12.7575E-03,   323.300E-06
C:/temp/dataset/6/15_4.odb,Step-1,Increment      1: Step Time =    1.000,"PART-1-1",           698,       2.38138,  -554.063E-03,            0.,NA,NA,"",   43.1660E-03,  -41.4294E-03,  -12.1207E-03,   301.950E-06
C:/temp/dataset/6/15_4.odb,Step-1,Increment      1: Step Time =    1.000,"PART-1-1",           699,   35.7305E-03,       2.11113,            0.,NA,NA,"",   52.2791E-03,  -49.2087E-03,  -17.6523E-03,   448.050E-06
C:/temp/dataset/6/15_4.odb,Step-1,Increment      1: Step Time =    1.000,"PART-1-1",           700,           -5.,       10.2083,            0.,NA,NA,"",   108.989E-03,  -105.362E-03,  -27.8795E-03,   840.177E-06
C:/temp/dataset/6/15_4.odb,Step-1,Increment      1: Step Time =    1.000,"PART-1-1",           701,      -6.99901,       9.90050,            0.,NA,NA,"",   112.066E-03,  -102.295E-03,  -45.7657E-03,   265.007E-06
C:/temp/dataset/6/15_4.odb,Step-1,Increment      1: Step Time =    1.000,"PART-1-1",           702,      -11.2396,       16.2208,            0.,NA,NA,"",   197.215E-03,  -170.589E-03,  -98.9598E-03,   2.71826E-03
C:/temp/dataset/6/15_4.odb,Step-1,Increment      1: Step Time =    1.000,"PART-1-1",           703,      -10.2112,       15.1096,            0.,NA,NA,"",   177.752E-03,  -156.493E-03,  -84.2957E-03,   2.11230E-03
C:/temp/dataset/6/15_4.odb,Step-1,Increment      1: Step Time =    1.000,"PART-1-1",           704,      -9.25876,       16.3324,            0.,NA,NA,"",   186.016E-03,  -170.187E-03,  -75.0890E-03,   1.55548E-03
C:/temp/dataset/6/15_4.odb,Step-1,Increment      1: Step Time =    1.000,"PART-1-1",           705,      -10.2871,       17.4437,            0.,NA,NA,"",   205.443E-03,  -184.744E-03,  -89.8691E-03,   2.16063E-03
C:/temp/dataset/6/15_4.odb,Step-1,Increment      1: Step Time =    1.000,"PART-1-1",           706,      -8.19479,       15.2434,            0.,NA,NA,"",   168.290E-03,  -156.794E-03,  -61.1316E-03,   934.616E-06
C:/temp/dataset/6/15_4.odb,Step-1,Increment      1: Step Time =    1.000,"PART-1-1",           707,      -9.19446,       14.0222,            0.,NA,NA,"",   160.179E-03,  -143.583E-03,  -71.0030E-03,   1.51724E-03
C:/temp/dataset/6/15_4.odb,Step-1,Increment      1: Step Time =    1.000,"PART-1-1",           708,      -8.14331,       13.0080,            0.,NA,NA,"",   144.685E-03,  -132.296E-03,  -58.5789E-03,   909.515E-06
C:/temp/dataset/6/15_4.odb,Step-1,Increment      1: Step Time =    1.000,"PART-1-1",           709,          -15.,         18.75,            0.,NA,NA,"",   260.711E-03,  -208.894E-03,  -155.993E-03,   4.95737E-03
C:/temp/dataset/6/15_4.odb,Step-1,Increment      1: Step Time =    1.000,"PART-1-1",           710,      -13.1826,       18.5751,            0.,NA,NA,"",   241.641E-03,  -203.113E-03,  -130.903E-03,   3.87606E-03
C:/temp/dataset/6/15_4.odb,Step-1,Increment      1: Step Time =    1.000,"PART-1-1",           711,      -11.2313,       23.3702,            0.,NA,NA,"",   294.522E-03,  -270.255E-03,  -117.068E-03,   2.76576E-03
C:/temp/dataset/6/15_4.odb,Step-1,Increment      1: Step Time =    1.000,"PART-1-1",           712,      -10.8173,       24.9058,            0.,NA,NA,"",   316.044E-03,  -294.716E-03,  -114.135E-03,   2.51336E-03
C:/temp/dataset/6/15_4.odb,Step-1,Increment      1: Step Time =    1.000,"PART-1-1",           713,      -13.5418,       24.7667,            0.,NA,NA,"",   336.308E-03,  -296.226E-03,  -159.227E-03,   4.11328E-03
C:/temp/dataset/6/15_4.odb,Step-1,Increment      1: Step Time =    1.000,"PART-1-1",           714,      -12.2278,       25.9824,            0.,NA,NA,"",   344.992E-03,  -314.704E-03,  -141.353E-03,   3.61008E-03
C:/temp/dataset/6/15_4.odb,Step-1,Increment      1: Step Time =    1.000,"PART-1-1",           715,          -15.,         26.25,            0.,NA,NA,"",   375.928E-03,  -324.245E-03,  -190.230E-03,   4.74312E-03
C:/temp/dataset/6/15_4.odb,Step-1,Increment      1: Step Time =    1.000,"PART-1-1",           716,          -15.,         23.75,            0.,NA,NA,"",   334.279E-03,  -282.411E-03,  -178.848E-03,   4.95382E-03
C:/temp/dataset/6/15_4.odb,Step-1,Increment      1: Step Time =    1.000,"PART-1-1",           717,      -12.5630,       23.3034,            0.,NA,NA,"",   304.098E-03,  -270.942E-03,  -138.081E-03,   3.55547E-03
C:/temp/dataset/6/15_4.odb,Step-1,Increment      1: Step Time =    1.000,"PART-1-1",           718,      -11.1827,       13.8735,            0.,NA,NA,"",   170.892E-03,  -143.718E-03,  -92.4615E-03,   2.67695E-03
C:/temp/dataset/6/15_4.odb,Step-1,Increment      1: Step Time =    1.000,"PART-1-1",           719,      -10.1659,       12.7861,            0.,NA,NA,"",   153.344E-03,  -131.255E-03,  -79.2867E-03,   2.08100E-03
C:/temp/dataset/6/15_4.odb,Step-1,Increment      1: Step Time =    1.000,"PART-1-1",           720,      -11.4858,       20.4947,            0.,NA,NA,"",   253.884E-03,  -227.182E-03,  -113.338E-03,   2.87709E-03
C:/temp/dataset/6/15_4.odb,Step-1,Increment      1: Step Time =    1.000,"PART-1-1",           721,      -10.4732,       19.7487,            0.,NA,NA,"",   236.468E-03,  -215.586E-03,  -97.1589E-03,   2.26935E-03
C:/temp/dataset/6/15_4.odb,Step-1,Increment      1: Step Time =    1.000,"PART-1-1",           722,      -10.9778,       21.7959,            0.,NA,NA,"",   268.875E-03,  -245.706E-03,  -109.190E-03,   2.57772E-03
C:/temp/dataset/6/15_4.odb,Step-1,Increment      1: Step Time =    1.000,"PART-1-1",           723,      -9.13796,       11.7463,            0.,NA,NA,"",   137.653E-03,  -120.121E-03,  -67.2253E-03,   1.48834E-03
C:/temp/dataset/6/15_4.odb,Step-1,Increment      1: Step Time =    1.000,"PART-1-1",           724,      -11.1090,       11.4975,            0.,NA,NA,"",   147.149E-03,  -119.460E-03,  -85.9196E-03,   2.63033E-03
C:/temp/dataset/6/15_4.odb,Step-1,Increment      1: Step Time =    1.000,"PART-1-1",           725,      -7.95801,       5.48811,            0.,NA,NA,"",   85.1325E-03,  -68.6712E-03,  -50.3171E-03,   1.29412E-03
C:/temp/dataset/6/15_4.odb,Step-1,Increment      1: Step Time =    1.000,"PART-1-1",           726,      -9.27172,       5.51676,            0.,NA,NA,"",   91.5981E-03,  -69.9960E-03,  -59.0827E-03,   1.85457E-03
C:/temp/dataset/6/15_4.odb,Step-1,Increment      1: Step Time =    1.000,"PART-1-1",           727,      -9.10783,       4.19071,            0.,NA,NA,"",   83.4909E-03,  -62.0779E-03,  -55.8308E-03,   1.89941E-03
C:/temp/dataset/6/15_4.odb,Step-1,Increment      1: Step Time =    1.000,"PART-1-1",           728,      -7.79412,       4.16207,            0.,NA,NA,"",   77.3348E-03,  -60.7613E-03,  -47.8408E-03,   1.34848E-03
C:/temp/dataset/6/15_4.odb,Step-1,Increment      1: Step Time =    1.000,"PART-1-1",           729,      -10.3652,   710.465E-03,            0.,NA,NA,"",   73.7743E-03,  -47.5393E-03,  -56.4151E-03,   2.30848E-03
C:/temp/dataset/6/15_4.odb,Step-1,Increment      1: Step Time =    1.000,"PART-1-1",           730,      -11.5756,       2.14983,            0.,NA,NA,"",   85.6676E-03,  -54.8215E-03,  -65.8297E-03,   2.84902E-03
C:/temp/dataset/6/15_4.odb,Step-1,Increment      1: Step Time =    1.000,"PART-1-1",           731,      -10.9514,      -7.70102,            0.,NA,NA,"",   48.5633E-03,  -24.7764E-03,  -41.7675E-03,   2.29514E-03
C:/temp/dataset/6/15_4.odb,Step-1,Increment      1: Step Time =    1.000,"PART-1-1",           732,      -11.1587,      -15.1039,            0.,NA,NA,"",   30.3390E-03,  -13.5035E-03,  -27.1682E-03,   2.21817E-03
C:/temp/dataset/6/15_4.odb,Step-1,Increment      1: Step Time =    1.000,"PART-1-1",           733,      -11.0422,      -12.5823,            0.,NA,NA,"",   36.0648E-03,  -16.5978E-03,  -32.0185E-03,   2.26426E-03
C:/temp/dataset/6/15_4.odb,Step-1,Increment      1: Step Time =    1.000,"PART-1-1",           734,      -9.98828,      -19.2456,            0.,NA,NA,"",   19.4531E-03,  -7.98654E-03,  -17.7380E-03,   1.99233E-03
C:/temp/dataset/6/15_4.odb,Step-1,Increment      1: Step Time =    1.000,"PART-1-1",           735,      -11.2222,      -17.6929,            0.,NA,NA,"",   24.6514E-03,  -10.7031E-03,  -22.2066E-03,   2.13972E-03
C:/temp/dataset/6/15_4.odb,Step-1,Increment      1: Step Time =    1.000,"PART-1-1",           736,      -9.72809,       26.4627,            0.,NA,NA,"",   335.034E-03,  -320.222E-03,  -98.5198E-03,   1.81151E-03
C:/temp/dataset/6/15_4.odb,Step-1,Increment      1: Step Time =    1.000,"PART-1-1",           737,      -8.07960,       10.7858,            0.,NA,NA,"",   123.919E-03,  -110.514E-03,  -56.0583E-03,   881.776E-06
C:/temp/dataset/6/15_4.odb,Step-1,Increment      1: Step Time =    1.000,"PART-1-1",           738,      -11.3320,       18.4953,            0.,NA,NA,"",   225.841E-03,  -199.453E-03,  -105.937E-03,   2.77924E-03
C:/temp/dataset/6/15_4.odb,Step-1,Increment      1: Step Time =    1.000,"PART-1-1",           739,      -10.4893,       6.32554,            0.,NA,NA,"",   103.072E-03,  -76.5471E-03,  -69.0247E-03,   2.40834E-03
C:/temp/dataset/6/15_4.odb,Step-1,Increment      1: Step Time =    1.000,"PART-1-1",           740,      -11.8356,       7.66802,            0.,NA,NA,"",   120.302E-03,  -87.7641E-03,  -82.2803E-03,   3.06394E-03
C:/temp/dataset/6/15_4.odb,Step-1,Increment      1: Step Time =    1.000,"PART-1-1",           741,      -11.4125,       4.87054,            0.,NA,NA,"",   99.2797E-03,  -68.5570E-03,  -71.8081E-03,   2.87644E-03
C:/temp/dataset/6/15_4.odb,Step-1,Increment      1: Step Time =    1.000,"PART-1-1",           742,       10.1911,      -5.79504,            0.,NA,NA,"",   29.3012E-03,  -29.0358E-03,   3.93506E-03,   218.754E-06
C:/temp/dataset/6/15_4.odb,Step-1,Increment      1: Step Time =    1.000,"PART-1-1",           743,       9.10708,      -6.74300,            0.,NA,NA,"",   26.8770E-03,  -26.8230E-03,   1.70272E-03,   204.805E-06
C:/temp/dataset/6/15_4.odb,Step-1,Increment      1: Step Time =    1.000,"PART-1-1",           744,       11.1638,      -4.94873,            0.,NA,NA,"",   31.6243E-03,  -31.0497E-03,   6.00089E-03,   225.082E-06
C:/temp/dataset/6/15_4.odb,Step-1,Increment      1: Step Time =    1.000,"PART-1-1",           745,       10.4293,      -4.08570,            0.,NA,NA,"",   33.3433E-03,  -33.0265E-03,   4.58526E-03,   216.766E-06
C:/temp/dataset/6/15_4.odb,Step-1,Increment      1: Step Time =    1.000,"PART-1-1",           746,       9.97038,      -14.8971,            0.,NA,NA,"",   10.5544E-03,  -10.2249E-03,   2.61633E-03,   229.098E-06
C:/temp/dataset/6/15_4.odb,Step-1,Increment      1: Step Time =    1.000,"PART-1-1",           747,       9.96577,      -12.5508,            0.,NA,NA,"",   14.7889E-03,  -14.5119E-03,   2.84852E-03,   223.630E-06
C:/temp/dataset/6/15_4.odb,Step-1,Increment      1: Step Time =    1.000,"PART-1-1",           748,       8.96159,      -13.7029,            0.,NA,NA,"",   12.3675E-03,  -12.3092E-03,   1.20012E-03,   197.391E-06
C:/temp/dataset/6/15_4.odb,Step-1,Increment      1: Step Time =    1.000,"PART-1-1",           749,       6.92617,      -22.4012,            0.,NA,NA,"",   1.24457E-03,  -1.18838E-03,  -369.759E-06,   157.516E-06
C:/temp/dataset/6/15_4.odb,Step-1,Increment      1: Step Time =    1.000,"PART-1-1",           750,       5.94981,      -23.5281,            0.,NA,NA,"",   874.900E-06,  -726.682E-06,  -487.221E-06,   241.210E-06
C:/temp/dataset/6/15_4.odb,Step-1,Increment      1: Step Time =    1.000,"PART-1-1",           751,       7.18383,      -24.1705,            0.,NA,NA,"",   442.407E-06,  -431.431E-06,  -97.9361E-06,   78.5457E-06
C:/temp/dataset/6/15_4.odb,Step-1,Increment      1: Step Time =    1.000,"PART-1-1",           752,       11.0968,      -20.2176,            0.,NA,NA,"",   4.23151E-03,  -3.19349E-03,   2.77621E-03,   347.056E-06
C:/temp/dataset/6/15_4.odb,Step-1,Increment      1: Step Time =    1.000,"PART-1-1",           753,       6.43355,      -20.8801,            0.,NA,NA,"",   2.19855E-03,  -2.02228E-03,  -862.554E-06,   305.065E-06
C:/temp/dataset/6/15_4.odb,Step-1,Increment      1: Step Time =    1.000,"PART-1-1",           754,       8.96045,      -11.3546,            0.,NA,NA,"",   16.8939E-03,  -16.8490E-03,   1.23181E-03,   196.418E-06
C:/temp/dataset/6/15_4.odb,Step-1,Increment      1: Step Time =    1.000,"PART-1-1",           755,       8.17216,      -2.03287,            0.,NA,NA,"",   37.8251E-03,  -37.8250E-03,   92.8075E-06,   240.498E-06
C:/temp/dataset/6/15_4.odb,Step-1,Increment      1: Step Time =    1.000,"PART-1-1",           756,       9.68046,      -2.49017,            0.,NA,NA,"",   36.9085E-03,  -36.7719E-03,   3.17238E-03,   220.243E-06
C:/temp/dataset/6/15_4.odb,Step-1,Increment      1: Step Time =    1.000,"PART-1-1",           757,      -5.24373,       2.94722,            0.,NA,NA,"",   63.2376E-03,  -53.5924E-03,  -33.5684E-03,   294.594E-06
C:/temp/dataset/6/15_4.odb,Step-1,Increment      1: Step Time =    1.000,"PART-1-1",           758,      -6.20341,       3.93450,            0.,NA,NA,"",   69.9531E-03,  -58.4248E-03,  -38.4706E-03,   780.859E-06
C:/temp/dataset/6/15_4.odb,Step-1,Increment      1: Step Time =    1.000,"PART-1-1",           759,       7.87036,      -17.0650,            0.,NA,NA,"",   6.68064E-03,  -6.67954E-03,  -121.213E-06,   268.950E-06
C:/temp/dataset/6/15_4.odb,Step-1,Increment      1: Step Time =    1.000,"PART-1-1",           760,      -8.77165,      -4.61616,            0.,NA,NA,"",   50.9108E-03,  -29.9981E-03,  -41.1342E-03,   1.68826E-03
C:/temp/dataset/6/15_4.odb,Step-1,Increment      1: Step Time =    1.000,"PART-1-1",           761,       8.90402,      -15.9271,            0.,NA,NA,"",   8.53712E-03,  -8.46453E-03,   1.11094E-03,   209.994E-06
C:/temp/dataset/6/15_4.odb,Step-1,Increment      1: Step Time =    1.000,"PART-1-1",           762,       7.94609,      -14.8939,            0.,NA,NA,"",   10.2072E-03,  -10.2037E-03,  -267.002E-06,   208.464E-06
C:/temp/dataset/6/15_4.odb,Step-1,Increment      1: Step Time =    1.000,"PART-1-1",           763,      -12.3095,       21.7291,            0.,NA,NA,"",   278.099E-03,  -246.333E-03,  -129.071E-03,   3.36335E-03
C:/temp/dataset/6/15_4.odb,Step-1,Increment      1: Step Time =    1.000,"PART-1-1",           764,      -12.2938,       19.6789,            0.,NA,NA,"",   248.927E-03,  -216.736E-03,  -122.435E-03,   3.35613E-03
C:/temp/dataset/6/15_4.odb,Step-1,Increment      1: Step Time =    1.000,"PART-1-1",           765,       3.72209,      -1.78065,            0.,NA,NA,"",   39.3525E-03,  -38.2609E-03,  -9.20443E-03,   265.468E-06
C:/temp/dataset/6/15_4.odb,Step-1,Increment      1: Step Time =    1.000,"PART-1-1",           766,       6.45852,      -3.38063,            0.,NA,NA,"",   34.6941E-03,  -34.5140E-03,  -3.53025E-03,   215.467E-06
C:/temp/dataset/6/15_4.odb,Step-1,Increment      1: Step Time =    1.000,"PART-1-1",           767,       4.93556,      -2.38177,            0.,NA,NA,"",   37.4209E-03,  -36.8266E-03,  -6.64283E-03,   262.320E-06
C:/temp/dataset/6/15_4.odb,Step-1,Increment      1: Step Time =    1.000,"PART-1-1",           768,      -2.94024,   945.156E-03,            0.,NA,NA,"",   52.4645E-03,  -45.8331E-03,  -25.5314E-03,   262.277E-06
C:/temp/dataset/6/15_4.odb,Step-1,Increment      1: Step Time =    1.000,"PART-1-1",           769,      -1.69279,      -25.0756,            0.,NA,NA,"",   1.37172E-03,   405.508E-06,  -1.31041E-03,   370.668E-06
C:/temp/dataset/6/15_4.odb,Step-1,Increment      1: Step Time =    1.000,"PART-1-1",           770,      -6.93923,      -23.9860,            0.,NA,NA,"",   6.68185E-03,  -1.13289E-03,  -6.58511E-03,   1.53291E-03
C:/temp/dataset/6/15_4.odb,Step-1,Increment      1: Step Time =    1.000,"PART-1-1",           771,      -5.91970,      -22.6959,            0.,NA,NA,"",   7.16653E-03,  -1.43321E-03,  -7.02175E-03,   1.47848E-03
C:/temp/dataset/6/15_4.odb,Step-1,Increment      1: Step Time =    1.000,"PART-1-1",           772,      -12.2208,       17.3915,            0.,NA,NA,"",   218.629E-03,  -186.295E-03,  -114.423E-03,   3.30198E-03
C:/temp/dataset/6/15_4.odb,Step-1,Increment      1: Step Time =    1.000,"PART-1-1",           773,      -12.0398,       10.1961,            0.,NA,NA,"",   141.826E-03,  -108.668E-03,  -91.1356E-03,   3.16767E-03
C:/temp/dataset/6/15_4.odb,Step-1,Increment      1: Step Time =    1.000,"PART-1-1",           774,      -10.8637,      -2.91198,            0.,NA,NA,"",   62.7377E-03,  -36.1893E-03,  -51.2480E-03,   2.34510E-03
C:/temp/dataset/6/15_4.odb,Step-1,Increment      1: Step Time =    1.000,"PART-1-1",           775,      -9.61620,      -11.5179,            0.,NA,NA,"",   35.5829E-03,  -16.7632E-03,  -31.3870E-03,   2.08612E-03
C:/temp/dataset/6/15_4.odb,Step-1,Increment      1: Step Time =    1.000,"PART-1-1",           776,      -11.8201,      -24.5932,            0.,NA,NA,"",   10.5690E-03,  -4.50464E-03,  -9.56092E-03,   2.17838E-03
C:/temp/dataset/6/15_4.odb,Step-1,Increment      1: Step Time =    1.000,"PART-1-1",           777,      -11.0718,      -23.4296,            0.,NA,NA,"",   12.1620E-03,  -4.82860E-03,  -11.1624E-03,   2.10066E-03
C:/temp/dataset/6/15_4.odb,Step-1,Increment      1: Step Time =    1.000,"PART-1-1",           778,       4.75405,      -23.0816,            0.,NA,NA,"",   1.20700E-03,  -981.941E-06,  -701.880E-06,   348.228E-06
C:/temp/dataset/6/15_4.odb,Step-1,Increment      1: Step Time =    1.000,"PART-1-1",           779,       5.55198,      -21.9930,            0.,NA,NA,"",   1.70443E-03,  -1.45483E-03,  -888.004E-06,   390.969E-06
C:/temp/dataset/6/15_4.odb,Step-1,Increment      1: Step Time =    1.000,"PART-1-1",           780,       7.01336,      -26.0950,            0.,NA,NA,"",   94.2168E-06,   80.7397E-06,  -48.5582E-06,   30.7856E-06
C:/temp/dataset/6/15_4.odb,Step-1,Increment      1: Step Time =    1.000,"PART-1-1",           781,       4.10189,      -23.9882,            0.,NA,NA,"",   832.125E-06,  -614.907E-06,  -560.644E-06,   325.001E-06
C:/temp/dataset/6/15_4.odb,Step-1,Increment      1: Step Time =    1.000,"PART-1-1",           782,       4.14804,      -25.2051,            0.,NA,NA,"",   454.845E-06,  -176.865E-06,  -419.049E-06,   231.785E-06
C:/temp/dataset/6/15_4.odb,Step-1,Increment      1: Step Time =    1.000,"PART-1-1",           783,      -12.1264,       12.6156,            0.,NA,NA,"",   164.814E-03,  -131.750E-03,  -99.0225E-03,   3.22558E-03
C:/temp/dataset/6/15_4.odb,Step-1,Increment      1: Step Time =    1.000,"PART-1-1",           784,      -12.1709,       15.0185,            0.,NA,NA,"",   190.362E-03,  -157.683E-03,  -106.648E-03,   3.26282E-03
C:/temp/dataset/6/15_4.odb,Step-1,Increment      1: Step Time =    1.000,"PART-1-1",           785,      -10.3060,       3.43341,            0.,NA,NA,"",   85.5864E-03,  -59.3755E-03,  -61.6408E-03,   2.36276E-03
C:/temp/dataset/6/15_4.odb,Step-1,Increment      1: Step Time =    1.000,"PART-1-1",           786,      -9.35047,  -311.861E-03,            0.,NA,NA,"",   65.8305E-03,  -42.9809E-03,  -49.8628E-03,   1.87078E-03
C:/temp/dataset/6/15_4.odb,Step-1,Increment      1: Step Time =    1.000,"PART-1-1",           787,      -9.47746,      -1.56252,            0.,NA,NA,"",   62.1504E-03,  -39.0029E-03,  -48.3885E-03,   1.92454E-03
C:/temp/dataset/6/15_4.odb,Step-1,Increment      1: Step Time =    1.000,"PART-1-1",           788,      -7.56677,      -1.93629,            0.,NA,NA,"",   54.6717E-03,  -36.7784E-03,  -40.4518E-03,   1.23829E-03
C:/temp/dataset/6/15_4.odb,Step-1,Increment      1: Step Time =    1.000,"PART-1-1",           789,      -9.57637,      -3.06595,            0.,NA,NA,"",   57.8273E-03,  -34.6644E-03,  -46.2859E-03,   1.91660E-03
C:/temp/dataset/6/15_4.odb,Step-1,Increment      1: Step Time =    1.000,"PART-1-1",           790,      -8.24618,      -3.39128,            0.,NA,NA,"",   52.6892E-03,  -32.9236E-03,  -41.1362E-03,   1.53303E-03
C:/temp/dataset/6/15_4.odb,Step-1,Increment      1: Step Time =    1.000,"PART-1-1",           791,       7.98922,      -7.69035,            0.,NA,NA,"",   24.6803E-03,  -24.6746E-03,  -530.050E-06,   167.321E-06
C:/temp/dataset/6/15_4.odb,Step-1,Increment      1: Step Time =    1.000,"PART-1-1",           792,       7.96586,      -10.1263,            0.,NA,NA,"",   19.3942E-03,  -19.3863E-03,  -551.053E-06,   165.822E-06
C:/temp/dataset/6/15_4.odb,Step-1,Increment      1: Step Time =    1.000,"PART-1-1",           793,       7.95460,      -12.5381,            0.,NA,NA,"",   14.5226E-03,  -14.5155E-03,  -454.080E-06,   176.074E-06
C:/temp/dataset/6/15_4.odb,Step-1,Increment      1: Step Time =    1.000,"PART-1-1",           794,      -6.90534,       4.84567,            0.,NA,NA,"",   77.0992E-03,  -63.9332E-03,  -43.0910E-03,   1.02712E-03
C:/temp/dataset/6/15_4.odb,Step-1,Increment      1: Step Time =    1.000,"PART-1-1",           795,      -7.09219,       3.25090,            0.,NA,NA,"",   70.2893E-03,  -55.6745E-03,  -42.9062E-03,   1.06225E-03
C:/temp/dataset/6/15_4.odb,Step-1,Increment      1: Step Time =    1.000,"PART-1-1",           796,      -5.99438,      -2.38990,            0.,NA,NA,"",   49.2549E-03,  -35.0113E-03,  -34.6447E-03,   733.373E-06
C:/temp/dataset/6/15_4.odb,Step-1,Increment      1: Step Time =    1.000,"PART-1-1",           797,      -8.16339,       2.56404,            0.,NA,NA,"",   71.7346E-03,  -53.2808E-03,  -48.0313E-03,   1.50035E-03
C:/temp/dataset/6/15_4.odb,Step-1,Increment      1: Step Time =    1.000,"PART-1-1",           798,      -6.16245,       1.98671,            0.,NA,NA,"",   62.4139E-03,  -49.8936E-03,  -37.4983E-03,   603.718E-06
C:/temp/dataset/6/15_4.odb,Step-1,Increment      1: Step Time =    1.000,"PART-1-1",           799,      -9.36160,       1.80674,            0.,NA,NA,"",   73.7875E-03,  -50.9836E-03,  -53.3411E-03,   1.95907E-03
C:/temp/dataset/6/15_4.odb,Step-1,Increment      1: Step Time =    1.000,"PART-1-1",           800,      -4.18828,       1.89018,            0.,NA,NA,"",   57.4449E-03,  -49.2566E-03,  -29.5584E-03,   234.324E-06
C:/temp/dataset/6/15_4.odb,Step-1,Increment      1: Step Time =    1.000,"PART-1-1",           801,      -2.02478,       2.01876,            0.,NA,NA,"",   54.4719E-03,  -49.4099E-03,  -22.9315E-03,   519.805E-06
C:/temp/dataset/6/15_4.odb,Step-1,Increment      1: Step Time =    1.000,"PART-1-1",           802,       5.29765,      -24.4346,            0.,NA,NA,"",   605.227E-06,  -409.893E-06,  -445.295E-06,   220.460E-06
C:/temp/dataset/6/15_4.odb,Step-1,Increment      1: Step Time =    1.000,"PART-1-1",           803,       8.18651,      -25.0309,            0.,NA,NA,"",   275.847E-06,  -159.522E-06,   225.043E-06,   38.3370E-06
C:/temp/dataset/6/15_4.odb,Step-1,Increment      1: Step Time =    1.000,"PART-1-1",           804,       6.01068,      -25.2345,            0.,NA,NA,"",   298.011E-06,  -135.094E-06,  -265.631E-06,   142.043E-06
