ODB Name,Step,Frame,Part Instance Name,    êﬂì_ÉâÉxÉã,X,Y,Z,Section Name,Material Name,Section Point,   U-Magnitude,          U-U1,          U-U2,       S-Mises
C:/temp/dataset/6/15_6.odb,Step-1,Increment      1: Step Time =    1.000,"PART-1-1",             1,            5.,           -5.,            0.,NA,NA,"",   43.5476E-03,  -42.3174E-03,  -10.2779E-03,   218.101E-06
C:/temp/dataset/6/15_6.odb,Step-1,Increment      1: Step Time =    1.000,"PART-1-1",             2,            0.,           -5.,            0.,NA,NA,"",   48.8704E-03,  -40.1180E-03,  -27.9080E-03,   589.669E-06
C:/temp/dataset/6/15_6.odb,Step-1,Increment      1: Step Time =    1.000,"PART-1-1",             3,            5.,      -10.0250,            0.,NA,NA,"",   28.5926E-03,  -27.0470E-03,  -9.27342E-03,   379.930E-06
C:/temp/dataset/6/15_6.odb,Step-1,Increment      1: Step Time =    1.000,"PART-1-1",             4,            5.,      -15.0500,            0.,NA,NA,"",   15.4937E-03,  -13.8827E-03,  -6.87928E-03,   655.617E-06
C:/temp/dataset/6/15_6.odb,Step-1,Increment      1: Step Time =    1.000,"PART-1-1",             5,            5.,          -20.,            0.,NA,NA,"",   4.03907E-03,  -3.23138E-03,  -2.42327E-03,   1.51262E-03
C:/temp/dataset/6/15_6.odb,Step-1,Increment      1: Step Time =    1.000,"PART-1-1",             6,            0.,          -20.,            0.,NA,NA,"",   3.35436E-03,  -3.06214E-03,  -1.36931E-03,   448.903E-06
C:/temp/dataset/6/15_6.odb,Step-1,Increment      1: Step Time =    1.000,"PART-1-1",             7,           -5.,          -20.,            0.,NA,NA,"",   14.4840E-03,  -5.58945E-03,  -13.3620E-03,   3.20504E-03
C:/temp/dataset/6/15_6.odb,Step-1,Increment      1: Step Time =    1.000,"PART-1-1",             8,           -5.,      -14.9750,            0.,NA,NA,"",   29.7815E-03,  -11.3193E-03,  -27.5465E-03,   2.46073E-03
C:/temp/dataset/6/15_6.odb,Step-1,Increment      1: Step Time =    1.000,"PART-1-1",             9,           -5.,      -9.95000,            0.,NA,NA,"",   43.2985E-03,  -21.4967E-03,  -37.5853E-03,   1.93603E-03
C:/temp/dataset/6/15_6.odb,Step-1,Increment      1: Step Time =    1.000,"PART-1-1",            10,           -5.,           -5.,            0.,NA,NA,"",   59.5810E-03,  -38.1256E-03,  -45.7857E-03,   1.52621E-03
C:/temp/dataset/6/15_6.odb,Step-1,Increment      1: Step Time =    1.000,"PART-1-1",            11,           15.,          -30.,            0.,NA,NA,"",            0.,  -261.596E-42,   486.192E-42,   937.598E-06
C:/temp/dataset/6/15_6.odb,Step-1,Increment      1: Step Time =    1.000,"PART-1-1",            12,          -15.,          -30.,            0.,NA,NA,"",            0.,  -1.69411E-39,  -2.91129E-39,   5.53943E-03
C:/temp/dataset/6/15_6.odb,Step-1,Increment      1: Step Time =    1.000,"PART-1-1",            13,           15.,        -21.25,            0.,NA,NA,"",   8.70761E-03,  -4.37330E-03,   7.52972E-03,   1.13415E-03
C:/temp/dataset/6/15_6.odb,Step-1,Increment      1: Step Time =    1.000,"PART-1-1",            14,           15.,         -12.5,            0.,NA,NA,"",   26.1903E-03,  -20.9047E-03,   15.7774E-03,   842.627E-06
C:/temp/dataset/6/15_6.odb,Step-1,Increment      1: Step Time =    1.000,"PART-1-1",            15,           15.,         -3.75,            0.,NA,NA,"",   51.6444E-03,  -47.4656E-03,   20.3509E-03,   330.257E-06
C:/temp/dataset/6/15_6.odb,Step-1,Increment      1: Step Time =    1.000,"PART-1-1",            16,           15.,            5.,            0.,NA,NA,"",   79.5206E-03,  -76.6621E-03,   21.1292E-03,   7.40335E-06
C:/temp/dataset/6/15_6.odb,Step-1,Increment      1: Step Time =    1.000,"PART-1-1",            17,           10.,            5.,            0.,NA,NA,"",   76.9055E-03,  -76.7373E-03,   5.08309E-03,   109.551E-06
C:/temp/dataset/6/15_6.odb,Step-1,Increment      1: Step Time =    1.000,"PART-1-1",            18,            5.,            5.,            0.,NA,NA,"",   78.7288E-03,  -77.9972E-03,  -10.7078E-03,   483.326E-06
C:/temp/dataset/6/15_6.odb,Step-1,Increment      1: Step Time =    1.000,"PART-1-1",            19,            0.,            5.,            0.,NA,NA,"",   86.0538E-03,  -81.3796E-03,  -27.9753E-03,   1.04762E-03
C:/temp/dataset/6/15_6.odb,Step-1,Increment      1: Step Time =    1.000,"PART-1-1",            20,           -5.,            5.,            0.,NA,NA,"",   102.122E-03,  -89.7183E-03,  -48.7798E-03,   2.90735E-03
C:/temp/dataset/6/15_6.odb,Step-1,Increment      1: Step Time =    1.000,"PART-1-1",            21,           -5.,         11.25,            0.,NA,NA,"",   169.724E-03,  -164.452E-03,  -41.9724E-03,   1.23247E-03
C:/temp/dataset/6/15_6.odb,Step-1,Increment      1: Step Time =    1.000,"PART-1-1",            22,           -5.,          17.5,            0.,NA,NA,"",   267.979E-03,  -265.634E-03,  -35.3692E-03,   1.39757E-03
C:/temp/dataset/6/15_6.odb,Step-1,Increment      1: Step Time =    1.000,"PART-1-1",            23,           -5.,         23.75,            0.,NA,NA,"",   398.869E-03,  -397.836E-03,  -28.6940E-03,   1.45624E-03
C:/temp/dataset/6/15_6.odb,Step-1,Increment      1: Step Time =    1.000,"PART-1-1",            24,           -5.,           30.,            0.,NA,NA,"",   559.390E-03,  -558.785E-03,  -26.0126E-03,   216.242E-06
C:/temp/dataset/6/15_6.odb,Step-1,Increment      1: Step Time =    1.000,"PART-1-1",            25,          -10.,           30.,            0.,NA,NA,"",   585.775E-03,  -561.773E-03,  -165.965E-03,   3.36359E-03
C:/temp/dataset/6/15_6.odb,Step-1,Increment      1: Step Time =    1.000,"PART-1-1",            26,          -15.,           30.,            0.,NA,NA,"",   645.441E-03,  -568.308E-03,  -305.974E-03,   5.98504E-03
C:/temp/dataset/6/15_6.odb,Step-1,Increment      1: Step Time =    1.000,"PART-1-1",            27,          -15.,          22.5,            0.,NA,NA,"",   458.443E-03,  -379.735E-03,  -256.849E-03,   7.44246E-03
C:/temp/dataset/6/15_6.odb,Step-1,Increment      1: Step Time =    1.000,"PART-1-1",            28,          -15.,           15.,            0.,NA,NA,"",   311.080E-03,  -233.514E-03,  -205.529E-03,   7.34514E-03
C:/temp/dataset/6/15_6.odb,Step-1,Increment      1: Step Time =    1.000,"PART-1-1",            29,          -15.,           7.5,            0.,NA,NA,"",   203.862E-03,  -131.471E-03,  -155.805E-03,   7.15581E-03
C:/temp/dataset/6/15_6.odb,Step-1,Increment      1: Step Time =    1.000,"PART-1-1",            30,          -15.,            0.,            0.,NA,NA,"",   132.408E-03,  -72.5102E-03,  -110.789E-03,   5.88275E-03
C:/temp/dataset/6/15_6.odb,Step-1,Increment      1: Step Time =    1.000,"PART-1-1",            31,          -15.,          -7.5,            0.,NA,NA,"",   87.0254E-03,  -42.1345E-03,  -76.1453E-03,   4.55052E-03
C:/temp/dataset/6/15_6.odb,Step-1,Increment      1: Step Time =    1.000,"PART-1-1",            32,          -15.,          -15.,            0.,NA,NA,"",   54.3618E-03,  -25.1763E-03,  -48.1805E-03,   3.77038E-03
C:/temp/dataset/6/15_6.odb,Step-1,Increment      1: Step Time =    1.000,"PART-1-1",            33,          -15.,         -22.5,            0.,NA,NA,"",   28.0955E-03,  -13.9726E-03,  -24.3746E-03,   3.43433E-03
C:/temp/dataset/6/15_6.odb,Step-1,Increment      1: Step Time =    1.000,"PART-1-1",            34,           2.5,           -5.,            0.,NA,NA,"",   45.4122E-03,  -41.3570E-03,  -18.7583E-03,   492.763E-06
C:/temp/dataset/6/15_6.odb,Step-1,Increment      1: Step Time =    1.000,"PART-1-1",            35,            5.,      -7.51250,            0.,NA,NA,"",   35.9751E-03,  -34.5649E-03,  -9.97384E-03,   243.524E-06
C:/temp/dataset/6/15_6.odb,Step-1,Increment      1: Step Time =    1.000,"PART-1-1",            36,            5.,      -12.5375,            0.,NA,NA,"",   21.7291E-03,  -20.1047E-03,  -8.24339E-03,   529.903E-06
C:/temp/dataset/6/15_6.odb,Step-1,Increment      1: Step Time =    1.000,"PART-1-1",            37,            5.,      -17.5250,            0.,NA,NA,"",   9.96873E-03,  -8.45490E-03,  -5.28113E-03,   863.696E-06
C:/temp/dataset/6/15_6.odb,Step-1,Increment      1: Step Time =    1.000,"PART-1-1",            38,           2.5,          -20.,            0.,NA,NA,"",   2.47386E-03,  -2.30803E-03,  -890.474E-06,   357.208E-06
C:/temp/dataset/6/15_6.odb,Step-1,Increment      1: Step Time =    1.000,"PART-1-1",            39,          -2.5,          -20.,            0.,NA,NA,"",   6.09067E-03,  -4.50826E-03,  -4.09534E-03,   899.692E-06
C:/temp/dataset/6/15_6.odb,Step-1,Increment      1: Step Time =    1.000,"PART-1-1",            40,           -5.,      -17.4875,            0.,NA,NA,"",   23.1265E-03,  -7.89146E-03,  -21.7385E-03,   3.01805E-03
C:/temp/dataset/6/15_6.odb,Step-1,Increment      1: Step Time =    1.000,"PART-1-1",            41,           -5.,      -12.4625,            0.,NA,NA,"",   36.4838E-03,  -15.8240E-03,  -32.8735E-03,   2.22774E-03
C:/temp/dataset/6/15_6.odb,Step-1,Increment      1: Step Time =    1.000,"PART-1-1",            42,           -5.,      -7.47500,            0.,NA,NA,"",   50.4674E-03,  -28.5961E-03,  -41.5840E-03,   1.72823E-03
C:/temp/dataset/6/15_6.odb,Step-1,Increment      1: Step Time =    1.000,"PART-1-1",            43,          -2.5,           -5.,            0.,NA,NA,"",   54.1525E-03,  -38.9508E-03,  -37.6208E-03,   673.647E-06
C:/temp/dataset/6/15_6.odb,Step-1,Increment      1: Step Time =    1.000,"PART-1-1",            44,          12.5,          -30.,            0.,NA,NA,"",            0.,  -213.677E-42,   1.10314E-39,   460.110E-06
C:/temp/dataset/6/15_6.odb,Step-1,Increment      1: Step Time =    1.000,"PART-1-1",            45,           10.,          -30.,            0.,NA,NA,"",            0.,   402.686E-42,   632.351E-42,   322.176E-06
C:/temp/dataset/6/15_6.odb,Step-1,Increment      1: Step Time =    1.000,"PART-1-1",            46,           7.5,          -30.,            0.,NA,NA,"",            0.,   277.599E-42,   168.302E-42,   236.580E-06
C:/temp/dataset/6/15_6.odb,Step-1,Increment      1: Step Time =    1.000,"PART-1-1",            47,            5.,          -30.,            0.,NA,NA,"",            0.,   364.340E-42,  -485.474E-42,   257.230E-06
C:/temp/dataset/6/15_6.odb,Step-1,Increment      1: Step Time =    1.000,"PART-1-1",            48,           2.5,          -30.,            0.,NA,NA,"",            0.,   563.225E-42,  -881.026E-42,   374.263E-06
C:/temp/dataset/6/15_6.odb,Step-1,Increment      1: Step Time =    1.000,"PART-1-1",            49,            0.,          -30.,            0.,NA,NA,"",            0.,   68.8808E-42,  -657.124E-42,   612.633E-06
C:/temp/dataset/6/15_6.odb,Step-1,Increment      1: Step Time =    1.000,"PART-1-1",            50,          -2.5,          -30.,            0.,NA,NA,"",            0.,   1.28437E-39,  -2.26796E-39,   965.069E-06
C:/temp/dataset/6/15_6.odb,Step-1,Increment      1: Step Time =    1.000,"PART-1-1",            51,           -5.,          -30.,            0.,NA,NA,"",            0.,   1.57659E-39,  -3.41863E-39,   1.36053E-03
C:/temp/dataset/6/15_6.odb,Step-1,Increment      1: Step Time =    1.000,"PART-1-1",            52,          -7.5,          -30.,            0.,NA,NA,"",            0.,   1.62890E-39,  -4.61643E-39,   1.76564E-03
C:/temp/dataset/6/15_6.odb,Step-1,Increment      1: Step Time =    1.000,"PART-1-1",            53,          -10.,          -30.,            0.,NA,NA,"",            0.,  -2.01602E-39,  -5.21167E-39,   2.21808E-03
C:/temp/dataset/6/15_6.odb,Step-1,Increment      1: Step Time =    1.000,"PART-1-1",            54,         -12.5,          -30.,            0.,NA,NA,"",            0.,  -790.388E-42,  -5.70368E-39,   2.48755E-03
C:/temp/dataset/6/15_6.odb,Step-1,Increment      1: Step Time =    1.000,"PART-1-1",            55,           15.,      -23.4375,            0.,NA,NA,"",   5.91607E-03,  -2.51324E-03,   5.35569E-03,   1.06422E-03
C:/temp/dataset/6/15_6.odb,Step-1,Increment      1: Step Time =    1.000,"PART-1-1",            56,           15.,       -25.625,            0.,NA,NA,"",   3.65080E-03,  -1.40454E-03,   3.36981E-03,   949.911E-06
C:/temp/dataset/6/15_6.odb,Step-1,Increment      1: Step Time =    1.000,"PART-1-1",            57,           15.,      -27.8125,            0.,NA,NA,"",   1.81507E-03,  -812.016E-06,   1.62331E-03,   888.451E-06
C:/temp/dataset/6/15_6.odb,Step-1,Increment      1: Step Time =    1.000,"PART-1-1",            58,           15.,      -14.6875,            0.,NA,NA,"",   20.9000E-03,  -15.5172E-03,   14.0009E-03,   970.954E-06
C:/temp/dataset/6/15_6.odb,Step-1,Increment      1: Step Time =    1.000,"PART-1-1",            59,           15.,       -16.875,            0.,NA,NA,"",   16.1893E-03,  -10.8868E-03,   11.9821E-03,   1.08197E-03
C:/temp/dataset/6/15_6.odb,Step-1,Increment      1: Step Time =    1.000,"PART-1-1",            60,           15.,      -19.0625,            0.,NA,NA,"",   12.1183E-03,  -7.14918E-03,   9.78475E-03,   1.14413E-03
C:/temp/dataset/6/15_6.odb,Step-1,Increment      1: Step Time =    1.000,"PART-1-1",            61,           15.,       -5.9375,            0.,NA,NA,"",   44.7989E-03,  -40.2917E-03,   19.5838E-03,   460.804E-06
C:/temp/dataset/6/15_6.odb,Step-1,Increment      1: Step Time =    1.000,"PART-1-1",            62,           15.,        -8.125,            0.,NA,NA,"",   38.2178E-03,  -33.4060E-03,   18.5645E-03,   586.555E-06
C:/temp/dataset/6/15_6.odb,Step-1,Increment      1: Step Time =    1.000,"PART-1-1",            63,           15.,      -10.3125,            0.,NA,NA,"",   31.9885E-03,  -26.9085E-03,   17.2974E-03,   712.869E-06
C:/temp/dataset/6/15_6.odb,Step-1,Increment      1: Step Time =    1.000,"PART-1-1",            64,           15.,        2.8125,            0.,NA,NA,"",   72.6462E-03,  -69.4993E-03,   21.1498E-03,   9.12189E-06
C:/temp/dataset/6/15_6.odb,Step-1,Increment      1: Step Time =    1.000,"PART-1-1",            65,           15.,      625.E-03,            0.,NA,NA,"",   65.6846E-03,  -62.2026E-03,   21.1020E-03,   78.1697E-06
C:/temp/dataset/6/15_6.odb,Step-1,Increment      1: Step Time =    1.000,"PART-1-1",            66,           15.,       -1.5625,            0.,NA,NA,"",   58.6480E-03,  -54.8147E-03,   20.8551E-03,   196.991E-06
C:/temp/dataset/6/15_6.odb,Step-1,Increment      1: Step Time =    1.000,"PART-1-1",            67,          12.5,            5.,            0.,NA,NA,"",   77.7367E-03,  -76.6393E-03,   13.0158E-03,   10.7349E-06
C:/temp/dataset/6/15_6.odb,Step-1,Increment      1: Step Time =    1.000,"PART-1-1",            68,           7.5,            5.,            0.,NA,NA,"",   77.2013E-03,  -77.1521E-03,  -2.75567E-03,   279.642E-06
C:/temp/dataset/6/15_6.odb,Step-1,Increment      1: Step Time =    1.000,"PART-1-1",            69,           2.5,            5.,            0.,NA,NA,"",   81.6180E-03,  -79.3678E-03,  -19.0329E-03,   750.370E-06
C:/temp/dataset/6/15_6.odb,Step-1,Increment      1: Step Time =    1.000,"PART-1-1",            70,          -2.5,            5.,            0.,NA,NA,"",   92.2714E-03,  -84.1658E-03,  -37.8170E-03,   1.66272E-03
C:/temp/dataset/6/15_6.odb,Step-1,Increment      1: Step Time =    1.000,"PART-1-1",            71,           -5.,       9.16667,            0.,NA,NA,"",   144.193E-03,  -137.310E-03,  -44.0158E-03,   1.14257E-03
C:/temp/dataset/6/15_6.odb,Step-1,Increment      1: Step Time =    1.000,"PART-1-1",            72,           -5.,       7.08333,            0.,NA,NA,"",   121.898E-03,  -112.959E-03,  -45.8189E-03,   1.44068E-03
C:/temp/dataset/6/15_6.odb,Step-1,Increment      1: Step Time =    1.000,"PART-1-1",            73,           -5.,       15.4167,            0.,NA,NA,"",   231.592E-03,  -228.517E-03,  -37.6150E-03,   1.35465E-03
C:/temp/dataset/6/15_6.odb,Step-1,Increment      1: Step Time =    1.000,"PART-1-1",            74,           -5.,       13.3333,            0.,NA,NA,"",   198.837E-03,  -194.807E-03,  -39.8287E-03,   1.29671E-03
C:/temp/dataset/6/15_6.odb,Step-1,Increment      1: Step Time =    1.000,"PART-1-1",            75,           -5.,       21.6667,            0.,NA,NA,"",   351.599E-03,  -350.241E-03,  -30.8714E-03,   1.46439E-03
C:/temp/dataset/6/15_6.odb,Step-1,Increment      1: Step Time =    1.000,"PART-1-1",            76,           -5.,       19.5833,            0.,NA,NA,"",   307.987E-03,  -306.203E-03,  -33.1008E-03,   1.43383E-03
C:/temp/dataset/6/15_6.odb,Step-1,Increment      1: Step Time =    1.000,"PART-1-1",            77,           -5.,       27.9167,            0.,NA,NA,"",   503.967E-03,  -503.316E-03,  -25.5989E-03,   576.207E-06
C:/temp/dataset/6/15_6.odb,Step-1,Increment      1: Step Time =    1.000,"PART-1-1",            78,           -5.,       25.8333,            0.,NA,NA,"",   449.751E-03,  -448.955E-03,  -26.7516E-03,   1.29709E-03
C:/temp/dataset/6/15_6.odb,Step-1,Increment      1: Step Time =    1.000,"PART-1-1",            79,          -7.5,           30.,            0.,NA,NA,"",   565.869E-03,  -558.320E-03,  -92.1207E-03,   1.33360E-03
C:/temp/dataset/6/15_6.odb,Step-1,Increment      1: Step Time =    1.000,"PART-1-1",            80,         -12.5,           30.,            0.,NA,NA,"",   611.825E-03,  -562.924E-03,  -239.678E-03,   6.15945E-03
C:/temp/dataset/6/15_6.odb,Step-1,Increment      1: Step Time =    1.000,"PART-1-1",            81,          -15.,           25.,            0.,NA,NA,"",   517.161E-03,  -438.489E-03,  -274.194E-03,   7.42769E-03
C:/temp/dataset/6/15_6.odb,Step-1,Increment      1: Step Time =    1.000,"PART-1-1",            82,          -15.,          27.5,            0.,NA,NA,"",   580.422E-03,  -502.202E-03,  -291.004E-03,   6.69503E-03
C:/temp/dataset/6/15_6.odb,Step-1,Increment      1: Step Time =    1.000,"PART-1-1",            83,          -15.,          17.5,            0.,NA,NA,"",   355.508E-03,  -277.306E-03,  -222.457E-03,   7.38437E-03
C:/temp/dataset/6/15_6.odb,Step-1,Increment      1: Step Time =    1.000,"PART-1-1",            84,          -15.,           20.,            0.,NA,NA,"",   404.580E-03,  -326.028E-03,  -239.564E-03,   7.42310E-03
C:/temp/dataset/6/15_6.odb,Step-1,Increment      1: Step Time =    1.000,"PART-1-1",            85,          -15.,           10.,            0.,NA,NA,"",   235.439E-03,  -160.576E-03,  -172.183E-03,   7.25864E-03
C:/temp/dataset/6/15_6.odb,Step-1,Increment      1: Step Time =    1.000,"PART-1-1",            86,          -15.,          12.5,            0.,NA,NA,"",   271.121E-03,  -194.606E-03,  -188.772E-03,   7.30445E-03
C:/temp/dataset/6/15_6.odb,Step-1,Increment      1: Step Time =    1.000,"PART-1-1",            87,          -15.,           2.5,            0.,NA,NA,"",   152.566E-03,  -87.8916E-03,  -124.706E-03,   6.44974E-03
C:/temp/dataset/6/15_6.odb,Step-1,Increment      1: Step Time =    1.000,"PART-1-1",            88,          -15.,            5.,            0.,NA,NA,"",   176.277E-03,  -107.319E-03,  -139.844E-03,   6.90157E-03
C:/temp/dataset/6/15_6.odb,Step-1,Increment      1: Step Time =    1.000,"PART-1-1",            89,          -15.,           -5.,            0.,NA,NA,"",   100.275E-03,  -50.3185E-03,  -86.7362E-03,   4.89150E-03
C:/temp/dataset/6/15_6.odb,Step-1,Increment      1: Step Time =    1.000,"PART-1-1",            90,          -15.,          -2.5,            0.,NA,NA,"",   115.203E-03,  -60.2652E-03,  -98.1830E-03,   5.32975E-03
C:/temp/dataset/6/15_6.odb,Step-1,Increment      1: Step Time =    1.000,"PART-1-1",            91,          -15.,         -12.5,            0.,NA,NA,"",   64.2616E-03,  -29.8181E-03,  -56.9248E-03,   4.01437E-03
C:/temp/dataset/6/15_6.odb,Step-1,Increment      1: Step Time =    1.000,"PART-1-1",            92,          -15.,          -10.,            0.,NA,NA,"",   75.1019E-03,  -35.3805E-03,  -66.2459E-03,   4.27938E-03
C:/temp/dataset/6/15_6.odb,Step-1,Increment      1: Step Time =    1.000,"PART-1-1",            93,          -15.,          -20.,            0.,NA,NA,"",   36.5156E-03,  -17.4216E-03,  -32.0917E-03,   3.45809E-03
C:/temp/dataset/6/15_6.odb,Step-1,Increment      1: Step Time =    1.000,"PART-1-1",            94,          -15.,         -17.5,            0.,NA,NA,"",   45.1999E-03,  -21.1328E-03,  -39.9555E-03,   3.57195E-03
C:/temp/dataset/6/15_6.odb,Step-1,Increment      1: Step Time =    1.000,"PART-1-1",            95,          -15.,         -27.5,            0.,NA,NA,"",   11.6388E-03,  -7.08082E-03,  -9.23703E-03,   3.68832E-03
C:/temp/dataset/6/15_6.odb,Step-1,Increment      1: Step Time =    1.000,"PART-1-1",            96,          -15.,          -25.,            0.,NA,NA,"",   19.8583E-03,  -10.6940E-03,  -16.7329E-03,   3.33648E-03
C:/temp/dataset/6/15_6.odb,Step-1,Increment      1: Step Time =    1.000,"PART-1-1",            97,       13.0047,      -3.80353,            0.,NA,NA,"",   49.0359E-03,  -47.0138E-03,   13.9361E-03,   307.686E-06
C:/temp/dataset/6/15_6.odb,Step-1,Increment      1: Step Time =    1.000,"PART-1-1",            98,       6.97971,      -7.55833,            0.,NA,NA,"",   34.5593E-03,  -34.3171E-03,  -4.08438E-03,   192.219E-06
C:/temp/dataset/6/15_6.odb,Step-1,Increment      1: Step Time =    1.000,"PART-1-1",            99,       6.96639,      -10.0829,            0.,NA,NA,"",   26.9113E-03,  -26.6419E-03,  -3.79827E-03,   247.975E-06
C:/temp/dataset/6/15_6.odb,Step-1,Increment      1: Step Time =    1.000,"PART-1-1",           100,       12.9900,      -12.5465,            0.,NA,NA,"",   22.8255E-03,  -20.1431E-03,   10.7359E-03,   584.007E-06
C:/temp/dataset/6/15_6.odb,Step-1,Increment      1: Step Time =    1.000,"PART-1-1",           101,       6.90028,      -17.1420,            0.,NA,NA,"",   9.05540E-03,  -8.83252E-03,  -1.99672E-03,   583.215E-06
C:/temp/dataset/6/15_6.odb,Step-1,Increment      1: Step Time =    1.000,"PART-1-1",           102,       7.03871,      -19.0570,            0.,NA,NA,"",   5.23331E-03,  -5.11323E-03,  -1.11460E-03,   433.915E-06
C:/temp/dataset/6/15_6.odb,Step-1,Increment      1: Step Time =    1.000,"PART-1-1",           103,       5.31709,      -21.2647,            0.,NA,NA,"",   2.85552E-03,  -2.34235E-03,  -1.63322E-03,   739.268E-06
C:/temp/dataset/6/15_6.odb,Step-1,Increment      1: Step Time =    1.000,"PART-1-1",           104,      -4.83361,      -22.6144,            0.,NA,NA,"",   8.30085E-03,  -1.16676E-03,  -8.21844E-03,   1.78443E-03
C:/temp/dataset/6/15_6.odb,Step-1,Increment      1: Step Time =    1.000,"PART-1-1",           105,      -7.46484,      -17.6587,            0.,NA,NA,"",   27.6225E-03,  -10.5277E-03,  -25.5376E-03,   2.89280E-03
C:/temp/dataset/6/15_6.odb,Step-1,Increment      1: Step Time =    1.000,"PART-1-1",           106,      -12.5283,      -27.3245,            0.,NA,NA,"",   8.10018E-03,  -4.08352E-03,  -6.99556E-03,   3.39927E-03
C:/temp/dataset/6/15_6.odb,Step-1,Increment      1: Step Time =    1.000,"PART-1-1",           107,      -12.4870,      -17.6221,            0.,NA,NA,"",   39.2269E-03,  -17.0564E-03,  -35.3247E-03,   3.33790E-03
C:/temp/dataset/6/15_6.odb,Step-1,Increment      1: Step Time =    1.000,"PART-1-1",           108,      -7.32043,      -12.6401,            0.,NA,NA,"",   41.7692E-03,  -18.0235E-03,  -37.6805E-03,   2.69124E-03
C:/temp/dataset/6/15_6.odb,Step-1,Increment      1: Step Time =    1.000,"PART-1-1",           109,      -7.14644,      -8.03697,            0.,NA,NA,"",   55.5583E-03,  -28.7138E-03,  -47.5631E-03,   2.39881E-03
C:/temp/dataset/6/15_6.odb,Step-1,Increment      1: Step Time =    1.000,"PART-1-1",           110,      -12.6601,       4.88622,            0.,NA,NA,"",   154.813E-03,  -100.101E-03,  -118.097E-03,   5.08730E-03
C:/temp/dataset/6/15_6.odb,Step-1,Increment      1: Step Time =    1.000,"PART-1-1",           111,      -13.0978,       12.5399,            0.,NA,NA,"",   248.855E-03,  -189.846E-03,  -160.895E-03,   5.64397E-03
C:/temp/dataset/6/15_6.odb,Step-1,Increment      1: Step Time =    1.000,"PART-1-1",           112,      -6.45576,       21.8628,            0.,NA,NA,"",   359.239E-03,  -353.697E-03,  -62.8553E-03,   158.296E-06
C:/temp/dataset/6/15_6.odb,Step-1,Increment      1: Step Time =    1.000,"PART-1-1",           113,      -7.28884,       25.7044,            0.,NA,NA,"",   452.323E-03,  -444.433E-03,  -84.1119E-03,   435.096E-06
C:/temp/dataset/6/15_6.odb,Step-1,Increment      1: Step Time =    1.000,"PART-1-1",           114,      -9.90518,       27.6474,            0.,NA,NA,"",   519.013E-03,  -495.010E-03,  -156.012E-03,   3.20782E-03
C:/temp/dataset/6/15_6.odb,Step-1,Increment      1: Step Time =    1.000,"PART-1-1",           115,      -3.01211,      -3.13168,            0.,NA,NA,"",   60.6035E-03,  -45.9981E-03,  -39.4584E-03,   648.977E-06
C:/temp/dataset/6/15_6.odb,Step-1,Increment      1: Step Time =    1.000,"PART-1-1",           116,      -2.19169,       3.00836,            0.,NA,NA,"",   82.6294E-03,  -74.4902E-03,  -35.7607E-03,   1.07384E-03
C:/temp/dataset/6/15_6.odb,Step-1,Increment      1: Step Time =    1.000,"PART-1-1",           117,       1.85193,      -2.77696,            0.,NA,NA,"",   53.4462E-03,  -49.2897E-03,  -20.6644E-03,   348.376E-06
C:/temp/dataset/6/15_6.odb,Step-1,Increment      1: Step Time =    1.000,"PART-1-1",           118,       2.83229,       2.22691,            0.,NA,NA,"",   71.0830E-03,  -68.9619E-03,  -17.2351E-03,   511.501E-06
C:/temp/dataset/6/15_6.odb,Step-1,Increment      1: Step Time =    1.000,"PART-1-1",           119,       7.74921,       3.07964,            0.,NA,NA,"",   70.8158E-03,  -70.7938E-03,  -1.76180E-03,   292.992E-06
C:/temp/dataset/6/15_6.odb,Step-1,Increment      1: Step Time =    1.000,"PART-1-1",           120,      -2.47342,      -22.6017,            0.,NA,NA,"",   3.43500E-03,  -839.503E-06,  -3.33084E-03,   652.100E-06
C:/temp/dataset/6/15_6.odb,Step-1,Increment      1: Step Time =    1.000,"PART-1-1",           121,      -7.48266,       20.3798,            0.,NA,NA,"",   332.545E-03,  -321.700E-03,  -84.2374E-03,   764.071E-06
C:/temp/dataset/6/15_6.odb,Step-1,Increment      1: Step Time =    1.000,"PART-1-1",           122,      -7.10993,       13.1351,            0.,NA,NA,"",   204.343E-03,  -191.154E-03,  -72.2221E-03,   511.328E-06
C:/temp/dataset/6/15_6.odb,Step-1,Increment      1: Step Time =    1.000,"PART-1-1",           123,      -6.64156,       6.82435,            0.,NA,NA,"",   127.086E-03,  -110.041E-03,  -63.5759E-03,   584.047E-06
C:/temp/dataset/6/15_6.odb,Step-1,Increment      1: Step Time =    1.000,"PART-1-1",           124,      -12.9641,      -2.37512,            0.,NA,NA,"",   105.237E-03,  -56.3511E-03,  -88.8782E-03,   4.47325E-03
C:/temp/dataset/6/15_6.odb,Step-1,Increment      1: Step Time =    1.000,"PART-1-1",           125,      -12.1317,      -9.84573,            0.,NA,NA,"",   66.3837E-03,  -30.6500E-03,  -58.8844E-03,   3.66445E-03
C:/temp/dataset/6/15_6.odb,Step-1,Increment      1: Step Time =    1.000,"PART-1-1",           126,       4.04132,      -2.67712,            0.,NA,NA,"",   51.8400E-03,  -50.1220E-03,  -13.2355E-03,   325.477E-06
C:/temp/dataset/6/15_6.odb,Step-1,Increment      1: Step Time =    1.000,"PART-1-1",           127,       6.95362,      -12.5367,            0.,NA,NA,"",   20.0440E-03,  -19.7662E-03,  -3.32550E-03,   315.237E-06
C:/temp/dataset/6/15_6.odb,Step-1,Increment      1: Step Time =    1.000,"PART-1-1",           128,       6.92458,      -14.9216,            0.,NA,NA,"",   14.0191E-03,  -13.7577E-03,  -2.69422E-03,   414.469E-06
C:/temp/dataset/6/15_6.odb,Step-1,Increment      1: Step Time =    1.000,"PART-1-1",           129,       12.9089,      -21.3671,            0.,NA,NA,"",   6.18379E-03,  -3.36188E-03,   5.19009E-03,   744.212E-06
C:/temp/dataset/6/15_6.odb,Step-1,Increment      1: Step Time =    1.000,"PART-1-1",           130,   283.131E-03,      -22.8786,            0.,NA,NA,"",   1.37978E-03,  -912.901E-06,  -1.03461E-03,   381.431E-06
C:/temp/dataset/6/15_6.odb,Step-1,Increment      1: Step Time =    1.000,"PART-1-1",           131,      -12.9776,      -22.4214,            0.,NA,NA,"",   24.5068E-03,  -11.0144E-03,  -21.8921E-03,   3.29902E-03
C:/temp/dataset/6/15_6.odb,Step-1,Increment      1: Step Time =    1.000,"PART-1-1",           132,      -7.42030,      -15.1083,            0.,NA,NA,"",   34.7016E-03,  -13.9716E-03,  -31.7646E-03,   2.88845E-03
C:/temp/dataset/6/15_6.odb,Step-1,Increment      1: Step Time =    1.000,"PART-1-1",           133,      -7.18486,      -10.2642,            0.,NA,NA,"",   48.6009E-03,  -22.9083E-03,  -42.8632E-03,   2.54498E-03
C:/temp/dataset/6/15_6.odb,Step-1,Increment      1: Step Time =    1.000,"PART-1-1",           134,      -7.33974,      -5.93881,            0.,NA,NA,"",   63.5021E-03,  -35.6361E-03,  -52.5603E-03,   2.11270E-03
C:/temp/dataset/6/15_6.odb,Step-1,Increment      1: Step Time =    1.000,"PART-1-1",           135,  -533.729E-03,      -2.94296,            0.,NA,NA,"",   56.2323E-03,  -47.8606E-03,  -29.5201E-03,   436.033E-06
C:/temp/dataset/6/15_6.odb,Step-1,Increment      1: Step Time =    1.000,"PART-1-1",           136,       10.2172,      -28.0250,            0.,NA,NA,"",   552.706E-06,   319.138E-06,   451.259E-06,   308.314E-06
C:/temp/dataset/6/15_6.odb,Step-1,Increment      1: Step Time =    1.000,"PART-1-1",           137,       7.82196,      -28.0777,            0.,NA,NA,"",   408.918E-06,   403.172E-06,   68.3108E-06,   122.933E-06
C:/temp/dataset/6/15_6.odb,Step-1,Increment      1: Step Time =    1.000,"PART-1-1",           138,       5.43540,      -28.0544,            0.,NA,NA,"",   431.263E-06,   396.428E-06,  -169.803E-06,   139.630E-06
C:/temp/dataset/6/15_6.odb,Step-1,Increment      1: Step Time =    1.000,"PART-1-1",           139,       2.98405,      -27.8165,            0.,NA,NA,"",   598.316E-06,   496.299E-06,  -334.170E-06,   232.665E-06
C:/temp/dataset/6/15_6.odb,Step-1,Increment      1: Step Time =    1.000,"PART-1-1",           140,   324.250E-03,      -27.0908,            0.,NA,NA,"",   1.11110E-03,   857.256E-06,  -706.864E-06,   406.770E-06
C:/temp/dataset/6/15_6.odb,Step-1,Increment      1: Step Time =    1.000,"PART-1-1",           141,      -2.46293,      -27.5198,            0.,NA,NA,"",   1.85609E-03,   1.22653E-03,  -1.39308E-03,   798.838E-06
C:/temp/dataset/6/15_6.odb,Step-1,Increment      1: Step Time =    1.000,"PART-1-1",           142,      -4.88996,      -27.5861,            0.,NA,NA,"",   2.67493E-03,   1.12338E-03,  -2.42761E-03,   1.32387E-03
C:/temp/dataset/6/15_6.odb,Step-1,Increment      1: Step Time =    1.000,"PART-1-1",           143,      -7.26500,      -27.4866,            0.,NA,NA,"",   3.75278E-03,   371.481E-06,  -3.73434E-03,   1.91313E-03
C:/temp/dataset/6/15_6.odb,Step-1,Increment      1: Step Time =    1.000,"PART-1-1",           144,      -9.86695,      -26.8928,            0.,NA,NA,"",   6.50036E-03,  -1.65873E-03,  -6.28516E-03,   2.65986E-03
C:/temp/dataset/6/15_6.odb,Step-1,Increment      1: Step Time =    1.000,"PART-1-1",           145,       12.7710,      -23.5898,            0.,NA,NA,"",   3.92731E-03,  -1.52971E-03,   3.61714E-03,   705.999E-06
C:/temp/dataset/6/15_6.odb,Step-1,Increment      1: Step Time =    1.000,"PART-1-1",           146,       12.6989,      -25.7990,            0.,NA,NA,"",   2.27646E-03,  -515.185E-06,   2.21740E-03,   677.491E-06
C:/temp/dataset/6/15_6.odb,Step-1,Increment      1: Step Time =    1.000,"PART-1-1",           147,       12.6207,      -27.9366,            0.,NA,NA,"",   995.994E-06,  -79.7593E-06,   992.796E-06,   629.026E-06
C:/temp/dataset/6/15_6.odb,Step-1,Increment      1: Step Time =    1.000,"PART-1-1",           148,       12.9983,      -14.8223,            0.,NA,NA,"",   17.3344E-03,  -14.4748E-03,   9.53736E-03,   658.534E-06
C:/temp/dataset/6/15_6.odb,Step-1,Increment      1: Step Time =    1.000,"PART-1-1",           149,       13.0558,      -17.0719,            0.,NA,NA,"",   12.7612E-03,  -9.71486E-03,   8.27469E-03,   727.437E-06
C:/temp/dataset/6/15_6.odb,Step-1,Increment      1: Step Time =    1.000,"PART-1-1",           150,       13.1682,      -19.2108,            0.,NA,NA,"",   9.30461E-03,  -6.12758E-03,   7.00204E-03,   785.754E-06
C:/temp/dataset/6/15_6.odb,Step-1,Increment      1: Step Time =    1.000,"PART-1-1",           151,       13.0670,      -5.94273,            0.,NA,NA,"",   42.1642E-03,  -39.9195E-03,   13.5740E-03,   372.888E-06
C:/temp/dataset/6/15_6.odb,Step-1,Increment      1: Step Time =    1.000,"PART-1-1",           152,       13.0350,      -8.09399,            0.,NA,NA,"",   35.4358E-03,  -33.0543E-03,   12.7714E-03,   439.992E-06
C:/temp/dataset/6/15_6.odb,Step-1,Increment      1: Step Time =    1.000,"PART-1-1",           153,       12.9982,      -10.2981,            0.,NA,NA,"",   28.9217E-03,  -26.4058E-03,   11.7983E-03,   509.774E-06
C:/temp/dataset/6/15_6.odb,Step-1,Increment      1: Step Time =    1.000,"PART-1-1",           154,       12.5107,   556.281E-03,            0.,NA,NA,"",   63.2264E-03,  -61.8763E-03,   12.9961E-03,   189.645E-06
C:/temp/dataset/6/15_6.odb,Step-1,Increment      1: Step Time =    1.000,"PART-1-1",           155,       12.7702,      -1.64554,            0.,NA,NA,"",   56.0139E-03,  -54.3399E-03,   13.5915E-03,   251.051E-06
C:/temp/dataset/6/15_6.odb,Step-1,Increment      1: Step Time =    1.000,"PART-1-1",           156,       10.0517,       2.85834,            0.,NA,NA,"",   69.9603E-03,  -69.7553E-03,   5.35227E-03,   203.976E-06
C:/temp/dataset/6/15_6.odb,Step-1,Increment      1: Step Time =    1.000,"PART-1-1",           157,       5.39286,       2.85476,            0.,NA,NA,"",   71.1225E-03,  -70.5425E-03,  -9.06409E-03,   411.120E-06
C:/temp/dataset/6/15_6.odb,Step-1,Increment      1: Step Time =    1.000,"PART-1-1",           158,   175.602E-03,       2.90951,            0.,NA,NA,"",   77.5032E-03,  -72.8055E-03,  -26.5725E-03,   739.284E-06
C:/temp/dataset/6/15_6.odb,Step-1,Increment      1: Step Time =    1.000,"PART-1-1",           159,      -4.35394,       2.91920,            0.,NA,NA,"",   87.9668E-03,  -75.2084E-03,  -45.6273E-03,   497.928E-06
C:/temp/dataset/6/15_6.odb,Step-1,Increment      1: Step Time =    1.000,"PART-1-1",           160,      -7.05997,       10.9599,            0.,NA,NA,"",   174.728E-03,  -159.962E-03,  -70.2988E-03,   501.203E-06
C:/temp/dataset/6/15_6.odb,Step-1,Increment      1: Step Time =    1.000,"PART-1-1",           161,      -6.93805,       8.84105,            0.,NA,NA,"",   149.178E-03,  -132.926E-03,  -67.7125E-03,   410.477E-06
C:/temp/dataset/6/15_6.odb,Step-1,Increment      1: Step Time =    1.000,"PART-1-1",           162,      -7.28921,       17.6445,            0.,NA,NA,"",   278.714E-03,  -267.524E-03,  -78.1801E-03,   615.150E-06
C:/temp/dataset/6/15_6.odb,Step-1,Increment      1: Step Time =    1.000,"PART-1-1",           163,      -7.17735,       15.3234,            0.,NA,NA,"",   238.208E-03,  -226.221E-03,  -74.6129E-03,   541.760E-06
C:/temp/dataset/6/15_6.odb,Step-1,Increment      1: Step Time =    1.000,"PART-1-1",           164,      -6.93557,       23.5874,            0.,NA,NA,"",   399.883E-03,  -392.919E-03,  -74.3027E-03,   255.093E-06
C:/temp/dataset/6/15_6.odb,Step-1,Increment      1: Step Time =    1.000,"PART-1-1",           165,      -13.1925,       19.7530,            0.,NA,NA,"",   374.390E-03,  -315.978E-03,  -200.813E-03,   5.80554E-03
C:/temp/dataset/6/15_6.odb,Step-1,Increment      1: Step Time =    1.000,"PART-1-1",           166,      -7.44963,       27.8335,            0.,NA,NA,"",   507.663E-03,  -499.757E-03,  -89.2473E-03,   897.938E-06
C:/temp/dataset/6/15_6.odb,Step-1,Increment      1: Step Time =    1.000,"PART-1-1",           167,      -13.0424,       22.0734,            0.,NA,NA,"",   421.033E-03,  -364.859E-03,  -210.112E-03,   5.69731E-03
C:/temp/dataset/6/15_6.odb,Step-1,Increment      1: Step Time =    1.000,"PART-1-1",           168,      -13.1316,       14.9813,            0.,NA,NA,"",   286.892E-03,  -227.970E-03,  -174.174E-03,   5.70513E-03
C:/temp/dataset/6/15_6.odb,Step-1,Increment      1: Step Time =    1.000,"PART-1-1",           169,      -13.1727,       17.3972,            0.,NA,NA,"",   329.100E-03,  -270.307E-03,  -187.726E-03,   5.76845E-03
C:/temp/dataset/6/15_6.odb,Step-1,Increment      1: Step Time =    1.000,"PART-1-1",           170,      -12.8574,       7.53984,            0.,NA,NA,"",   182.949E-03,  -125.972E-03,  -132.670E-03,   5.35579E-03
C:/temp/dataset/6/15_6.odb,Step-1,Increment      1: Step Time =    1.000,"PART-1-1",           171,      -13.0166,       10.0884,            0.,NA,NA,"",   214.603E-03,  -156.138E-03,  -147.225E-03,   5.53698E-03
C:/temp/dataset/6/15_6.odb,Step-1,Increment      1: Step Time =    1.000,"PART-1-1",           172,      -12.8045,  -118.323E-03,            0.,NA,NA,"",   117.875E-03,  -66.7323E-03,  -97.1665E-03,   4.67230E-03
C:/temp/dataset/6/15_6.odb,Step-1,Increment      1: Step Time =    1.000,"PART-1-1",           173,      -12.7039,       2.28772,            0.,NA,NA,"",   133.804E-03,  -80.6622E-03,  -106.757E-03,   4.90382E-03
C:/temp/dataset/6/15_6.odb,Step-1,Increment      1: Step Time =    1.000,"PART-1-1",           174,      -12.8488,      -7.31355,            0.,NA,NA,"",   79.7854E-03,  -38.5725E-03,  -69.8417E-03,   3.97875E-03
C:/temp/dataset/6/15_6.odb,Step-1,Increment      1: Step Time =    1.000,"PART-1-1",           175,      -12.6051,      -4.81291,            0.,NA,NA,"",   90.5690E-03,  -46.1926E-03,  -77.9037E-03,   4.08603E-03
C:/temp/dataset/6/15_6.odb,Step-1,Increment      1: Step Time =    1.000,"PART-1-1",           176,      -12.4260,      -15.0682,            0.,NA,NA,"",   47.7724E-03,  -20.8859E-03,  -42.9649E-03,   3.45993E-03
C:/temp/dataset/6/15_6.odb,Step-1,Increment      1: Step Time =    1.000,"PART-1-1",           177,      -12.3344,      -12.5112,            0.,NA,NA,"",   56.7333E-03,  -25.2534E-03,  -50.8029E-03,   3.58324E-03
C:/temp/dataset/6/15_6.odb,Step-1,Increment      1: Step Time =    1.000,"PART-1-1",           178,      -12.6598,      -20.1148,            0.,NA,NA,"",   31.3883E-03,  -13.7199E-03,  -28.2310E-03,   3.28059E-03
C:/temp/dataset/6/15_6.odb,Step-1,Increment      1: Step Time =    1.000,"PART-1-1",           179,      -8.70618,       22.9331,            0.,NA,NA,"",   395.035E-03,  -378.009E-03,  -114.726E-03,   1.79911E-03
C:/temp/dataset/6/15_6.odb,Step-1,Increment      1: Step Time =    1.000,"PART-1-1",           180,      -9.21222,       15.1634,            0.,NA,NA,"",   249.534E-03,  -224.525E-03,  -108.885E-03,   2.29763E-03
C:/temp/dataset/6/15_6.odb,Step-1,Increment      1: Step Time =    1.000,"PART-1-1",           181,      -9.55138,       19.8926,            0.,NA,NA,"",   337.326E-03,  -312.731E-03,  -126.445E-03,   2.58752E-03
C:/temp/dataset/6/15_6.odb,Step-1,Increment      1: Step Time =    1.000,"PART-1-1",           182,      -8.92203,       8.32966,            0.,NA,NA,"",   156.811E-03,  -128.006E-03,  -90.5775E-03,   2.14384E-03
C:/temp/dataset/6/15_6.odb,Step-1,Increment      1: Step Time =    1.000,"PART-1-1",           183,      -9.17670,       12.8809,            0.,NA,NA,"",   214.856E-03,  -188.366E-03,  -103.349E-03,   2.26932E-03
C:/temp/dataset/6/15_6.odb,Step-1,Increment      1: Step Time =    1.000,"PART-1-1",           184,      -9.09923,       10.6117,            0.,NA,NA,"",   184.246E-03,  -156.371E-03,  -97.4420E-03,   2.21512E-03
C:/temp/dataset/6/15_6.odb,Step-1,Increment      1: Step Time =    1.000,"PART-1-1",           185,      -9.30530,       17.5014,            0.,NA,NA,"",   289.982E-03,  -265.850E-03,  -115.816E-03,   2.37585E-03
C:/temp/dataset/6/15_6.odb,Step-1,Increment      1: Step Time =    1.000,"PART-1-1",           186,      -8.37864,       6.17865,            0.,NA,NA,"",   131.945E-03,  -104.480E-03,  -80.5829E-03,   2.11541E-03
C:/temp/dataset/6/15_6.odb,Step-1,Increment      1: Step Time =    1.000,"PART-1-1",           187,       10.9988,      -10.2527,            0.,NA,NA,"",   27.0281E-03,  -26.2053E-03,   6.61824E-03,   352.554E-06
C:/temp/dataset/6/15_6.odb,Step-1,Increment      1: Step Time =    1.000,"PART-1-1",           188,       10.8643,      -17.5211,            0.,NA,NA,"",   9.37419E-03,  -8.27350E-03,   4.40734E-03,   416.482E-06
C:/temp/dataset/6/15_6.odb,Step-1,Increment      1: Step Time =    1.000,"PART-1-1",           189,       11.0508,      -8.01555,            0.,NA,NA,"",   33.7896E-03,  -33.0066E-03,   7.23220E-03,   337.905E-06
C:/temp/dataset/6/15_6.odb,Step-1,Increment      1: Step Time =    1.000,"PART-1-1",           190,       10.6332,      -2.00908,            0.,NA,NA,"",   53.4074E-03,  -52.9507E-03,   6.96980E-03,   317.936E-06
C:/temp/dataset/6/15_6.odb,Step-1,Increment      1: Step Time =    1.000,"PART-1-1",           191,       11.1668,      -5.92645,            0.,NA,NA,"",   40.5172E-03,  -39.7250E-03,   7.97258E-03,   329.398E-06
C:/temp/dataset/6/15_6.odb,Step-1,Increment      1: Step Time =    1.000,"PART-1-1",           192,       10.9732,      -14.9280,            0.,NA,NA,"",   14.7930E-03,  -13.7745E-03,   5.39407E-03,   397.569E-06
C:/temp/dataset/6/15_6.odb,Step-1,Increment      1: Step Time =    1.000,"PART-1-1",           193,       10.5476,      -23.6927,            0.,NA,NA,"",   2.09440E-03,  -909.851E-06,   1.88644E-03,   382.288E-06
C:/temp/dataset/6/15_6.odb,Step-1,Increment      1: Step Time =    1.000,"PART-1-1",           194,       10.5707,      -21.1850,            0.,NA,NA,"",   3.97627E-03,  -2.87429E-03,   2.74758E-03,   398.401E-06
C:/temp/dataset/6/15_6.odb,Step-1,Increment      1: Step Time =    1.000,"PART-1-1",           195,       10.9760,      -12.5622,            0.,NA,NA,"",   20.6155E-03,  -19.7164E-03,   6.02195E-03,   372.949E-06
C:/temp/dataset/6/15_6.odb,Step-1,Increment      1: Step Time =    1.000,"PART-1-1",           196,       11.6229,      -19.2502,            0.,NA,NA,"",   7.37655E-03,  -5.57503E-03,   4.83038E-03,   541.184E-06
C:/temp/dataset/6/15_6.odb,Step-1,Increment      1: Step Time =    1.000,"PART-1-1",           197,       11.1609,      -3.97100,            0.,NA,NA,"",   46.9927E-03,  -46.2545E-03,   8.29665E-03,   320.693E-06
C:/temp/dataset/6/15_6.odb,Step-1,Increment      1: Step Time =    1.000,"PART-1-1",           198,      -9.55101,       25.2781,            0.,NA,NA,"",   456.419E-03,  -434.334E-03,  -140.257E-03,   2.51260E-03
C:/temp/dataset/6/15_6.odb,Step-1,Increment      1: Step Time =    1.000,"PART-1-1",           199,      -6.13353,       2.97524,            0.,NA,NA,"",   95.0387E-03,  -76.2120E-03,  -56.7809E-03,   1.00933E-03
C:/temp/dataset/6/15_6.odb,Step-1,Increment      1: Step Time =    1.000,"PART-1-1",           200,       8.52809,      -18.5145,            0.,NA,NA,"",   6.16658E-03,  -6.11603E-03,   787.918E-06,   270.762E-06
C:/temp/dataset/6/15_6.odb,Step-1,Increment      1: Step Time =    1.000,"PART-1-1",           201,      -9.31256,      -6.57829,            0.,NA,NA,"",   68.7190E-03,  -35.5532E-03,  -58.8071E-03,   2.87991E-03
C:/temp/dataset/6/15_6.odb,Step-1,Increment      1: Step Time =    1.000,"PART-1-1",           202,      -7.82061,      -4.24854,            0.,NA,NA,"",   71.4402E-03,  -42.1235E-03,  -57.7002E-03,   2.12639E-03
C:/temp/dataset/6/15_6.odb,Step-1,Increment      1: Step Time =    1.000,"PART-1-1",           203,       7.55002,      -20.4955,            0.,NA,NA,"",   3.11871E-03,  -3.10028E-03,  -338.518E-06,   271.646E-06
C:/temp/dataset/6/15_6.odb,Step-1,Increment      1: Step Time =    1.000,"PART-1-1",           204,      -9.18944,      -8.43706,            0.,NA,NA,"",   61.3702E-03,  -29.9523E-03,  -53.5645E-03,   2.91866E-03
C:/temp/dataset/6/15_6.odb,Step-1,Increment      1: Step Time =    1.000,"PART-1-1",           205,      -12.3720,       27.4312,            0.,NA,NA,"",   541.319E-03,  -493.543E-03,  -222.353E-03,   6.04935E-03
C:/temp/dataset/6/15_6.odb,Step-1,Increment      1: Step Time =    1.000,"PART-1-1",           206,      -10.3791,       22.2070,            0.,NA,NA,"",   393.221E-03,  -363.087E-03,  -150.966E-03,   3.31710E-03
C:/temp/dataset/6/15_6.odb,Step-1,Increment      1: Step Time =    1.000,"PART-1-1",           207,       3.40286,  -884.176E-03,            0.,NA,NA,"",   58.7988E-03,  -56.7985E-03,  -15.2062E-03,   368.593E-06
C:/temp/dataset/6/15_6.odb,Step-1,Increment      1: Step Time =    1.000,"PART-1-1",           208,       7.88020,       1.44192,            0.,NA,NA,"",   65.1098E-03,  -65.0977E-03,  -1.25486E-03,   335.035E-06
C:/temp/dataset/6/15_6.odb,Step-1,Increment      1: Step Time =    1.000,"PART-1-1",           209,      -1.17287,  -897.893E-03,            0.,NA,NA,"",   64.4089E-03,  -56.1263E-03,  -31.5966E-03,   419.239E-06
C:/temp/dataset/6/15_6.odb,Step-1,Increment      1: Step Time =    1.000,"PART-1-1",           210,       10.4014,      -25.9274,            0.,NA,NA,"",   1.09678E-03,   22.3399E-06,   1.09655E-03,   355.164E-06
C:/temp/dataset/6/15_6.odb,Step-1,Increment      1: Step Time =    1.000,"PART-1-1",           211,       2.00108,      -24.8239,            0.,NA,NA,"",   691.240E-06,  -76.7339E-06,  -686.968E-06,   380.724E-06
C:/temp/dataset/6/15_6.odb,Step-1,Increment      1: Step Time =    1.000,"PART-1-1",           212,      -4.80900,      -25.1606,            0.,NA,NA,"",   5.13413E-03,   654.467E-06,  -5.09225E-03,   1.41176E-03
C:/temp/dataset/6/15_6.odb,Step-1,Increment      1: Step Time =    1.000,"PART-1-1",           213,      -11.5765,       21.3848,            0.,NA,NA,"",   388.236E-03,  -346.848E-03,  -174.425E-03,   4.38821E-03
C:/temp/dataset/6/15_6.odb,Step-1,Increment      1: Step Time =    1.000,"PART-1-1",           214,      -11.0630,       10.3038,            0.,NA,NA,"",   197.590E-03,  -154.905E-03,  -122.662E-03,   3.88226E-03
C:/temp/dataset/6/15_6.odb,Step-1,Increment      1: Step Time =    1.000,"PART-1-1",           215,      -10.2832,  -591.021E-03,            0.,NA,NA,"",   99.5575E-03,  -60.0439E-03,  -79.4129E-03,   3.29316E-03
C:/temp/dataset/6/15_6.odb,Step-1,Increment      1: Step Time =    1.000,"PART-1-1",           216,      -11.1869,      -5.64306,            0.,NA,NA,"",   80.3271E-03,  -41.0413E-03,  -69.0511E-03,   3.51590E-03
C:/temp/dataset/6/15_6.odb,Step-1,Increment      1: Step Time =    1.000,"PART-1-1",           217,      -9.48237,      -10.3825,            0.,NA,NA,"",   55.4877E-03,  -25.4713E-03,  -49.2961E-03,   3.06539E-03
C:/temp/dataset/6/15_6.odb,Step-1,Increment      1: Step Time =    1.000,"PART-1-1",           218,      -10.0191,      -20.7277,            0.,NA,NA,"",   24.1960E-03,  -9.26920E-03,  -22.3501E-03,   2.97567E-03
C:/temp/dataset/6/15_6.odb,Step-1,Increment      1: Step Time =    1.000,"PART-1-1",           219,      -12.8377,      -24.8331,            0.,NA,NA,"",   16.4071E-03,  -7.69163E-03,  -14.4925E-03,   3.38791E-03
C:/temp/dataset/6/15_6.odb,Step-1,Increment      1: Step Time =    1.000,"PART-1-1",           220,  -752.185E-03,      -25.0561,            0.,NA,NA,"",   1.53908E-03,   616.328E-06,  -1.41029E-03,   415.498E-06
C:/temp/dataset/6/15_6.odb,Step-1,Increment      1: Step Time =    1.000,"PART-1-1",           221,      -11.3411,      -22.5061,            0.,NA,NA,"",   21.2237E-03,  -8.55298E-03,  -19.4240E-03,   3.14953E-03
C:/temp/dataset/6/15_6.odb,Step-1,Increment      1: Step Time =    1.000,"PART-1-1",           222,       5.90860,      -26.1342,            0.,NA,NA,"",   368.231E-06,   220.493E-06,  -294.919E-06,   142.716E-06
C:/temp/dataset/6/15_6.odb,Step-1,Increment      1: Step Time =    1.000,"PART-1-1",           223,       3.81352,      -25.8758,            0.,NA,NA,"",   536.019E-06,   166.567E-06,  -509.482E-06,   270.942E-06
C:/temp/dataset/6/15_6.odb,Step-1,Increment      1: Step Time =    1.000,"PART-1-1",           224,      -6.87266,      -25.1947,            0.,NA,NA,"",   7.46335E-03,  -479.026E-06,  -7.44796E-03,   2.08783E-03
C:/temp/dataset/6/15_6.odb,Step-1,Increment      1: Step Time =    1.000,"PART-1-1",           225,       9.77381,   336.875E-03,            0.,NA,NA,"",   61.2772E-03,  -61.1106E-03,   4.51567E-03,   304.136E-06
C:/temp/dataset/6/15_6.odb,Step-1,Increment      1: Step Time =    1.000,"PART-1-1",           226,       4.59800,   29.7464E-03,            0.,NA,NA,"",   61.3276E-03,  -60.2678E-03,  -11.3520E-03,   396.523E-06
C:/temp/dataset/6/15_6.odb,Step-1,Increment      1: Step Time =    1.000,"PART-1-1",           227,      -11.1551,       12.6912,            0.,NA,NA,"",   230.136E-03,  -188.091E-03,  -132.606E-03,   3.96492E-03
C:/temp/dataset/6/15_6.odb,Step-1,Increment      1: Step Time =    1.000,"PART-1-1",           228,      -11.2689,       17.3859,            0.,NA,NA,"",   306.636E-03,  -266.213E-03,  -152.170E-03,   4.09489E-03
C:/temp/dataset/6/15_6.odb,Step-1,Increment      1: Step Time =    1.000,"PART-1-1",           229,      -11.2102,       15.0558,            0.,NA,NA,"",   266.437E-03,  -225.275E-03,  -142.266E-03,   4.02923E-03
C:/temp/dataset/6/15_6.odb,Step-1,Increment      1: Step Time =    1.000,"PART-1-1",           230,      -10.8139,       7.79620,            0.,NA,NA,"",   166.783E-03,  -124.596E-03,  -110.870E-03,   3.73732E-03
C:/temp/dataset/6/15_6.odb,Step-1,Increment      1: Step Time =    1.000,"PART-1-1",           231,      -10.1648,       4.85487,            0.,NA,NA,"",   134.075E-03,  -94.9550E-03,  -94.6559E-03,   3.43865E-03
C:/temp/dataset/6/15_6.odb,Step-1,Increment      1: Step Time =    1.000,"PART-1-1",           232,      -10.4473,       2.01195,            0.,NA,NA,"",   115.630E-03,  -74.6657E-03,  -88.2915E-03,   3.55652E-03
C:/temp/dataset/6/15_6.odb,Step-1,Increment      1: Step Time =    1.000,"PART-1-1",           233,      -10.4810,      -3.59789,            0.,NA,NA,"",   86.1227E-03,  -47.3199E-03,  -71.9579E-03,   3.28840E-03
C:/temp/dataset/6/15_6.odb,Step-1,Increment      1: Step Time =    1.000,"PART-1-1",           234,      -9.89141,      -15.1395,            0.,NA,NA,"",   40.9283E-03,  -17.1323E-03,  -37.1700E-03,   3.11955E-03
C:/temp/dataset/6/15_6.odb,Step-1,Increment      1: Step Time =    1.000,"PART-1-1",           235,      -9.95744,      -17.7636,            0.,NA,NA,"",   32.9919E-03,  -13.4396E-03,  -30.1304E-03,   2.98784E-03
C:/temp/dataset/6/15_6.odb,Step-1,Increment      1: Step Time =    1.000,"PART-1-1",           236,      -3.63694,      -1.16253,            0.,NA,NA,"",   68.5271E-03,  -54.2534E-03,  -41.8632E-03,   377.829E-06
C:/temp/dataset/6/15_6.odb,Step-1,Increment      1: Step Time =    1.000,"PART-1-1",           237,      -7.00580,      -22.7773,            0.,NA,NA,"",   12.8419E-03,  -2.83814E-03,  -12.5243E-03,   2.55297E-03
C:/temp/dataset/6/15_6.odb,Step-1,Increment      1: Step Time =    1.000,"PART-1-1",           238,       7.08723,      -4.67483,            0.,NA,NA,"",   43.7488E-03,  -43.5791E-03,  -3.85062E-03,   227.425E-06
C:/temp/dataset/6/15_6.odb,Step-1,Increment      1: Step Time =    1.000,"PART-1-1",           239,       8.96532,      -10.1697,            0.,NA,NA,"",   26.3557E-03,  -26.3166E-03,   1.43482E-03,   249.493E-06
C:/temp/dataset/6/15_6.odb,Step-1,Increment      1: Step Time =    1.000,"PART-1-1",           240,       8.99874,      -7.82238,            0.,NA,NA,"",   33.5064E-03,  -33.4682E-03,   1.59965E-03,   251.258E-06
C:/temp/dataset/6/15_6.odb,Step-1,Increment      1: Step Time =    1.000,"PART-1-1",           241,       8.96760,      -14.8663,            0.,NA,NA,"",   13.8148E-03,  -13.7387E-03,   1.44764E-03,   251.733E-06
C:/temp/dataset/6/15_6.odb,Step-1,Increment      1: Step Time =    1.000,"PART-1-1",           242,      -12.0836,       24.5335,            0.,NA,NA,"",   465.065E-03,  -419.794E-03,  -200.146E-03,   4.94354E-03
C:/temp/dataset/6/15_6.odb,Step-1,Increment      1: Step Time =    1.000,"PART-1-1",           243,       9.21542,      -5.66363,            0.,NA,NA,"",   40.4971E-03,  -40.4279E-03,   2.36797E-03,   281.133E-06
C:/temp/dataset/6/15_6.odb,Step-1,Increment      1: Step Time =    1.000,"PART-1-1",           244,       8.72776,      -2.97127,            0.,NA,NA,"",   49.5158E-03,  -49.5020E-03,   1.17266E-03,   338.602E-06
C:/temp/dataset/6/15_6.odb,Step-1,Increment      1: Step Time =    1.000,"PART-1-1",           245,       9.39471,      -19.4524,            0.,NA,NA,"",   5.09210E-03,  -4.75331E-03,   1.82634E-03,   274.785E-06
C:/temp/dataset/6/15_6.odb,Step-1,Increment      1: Step Time =    1.000,"PART-1-1",           246,       8.06548,      -22.0810,            0.,NA,NA,"",   1.67552E-03,  -1.66482E-03,   189.072E-06,   127.074E-06
C:/temp/dataset/6/15_6.odb,Step-1,Increment      1: Step Time =    1.000,"PART-1-1",           247,      -7.53738,       4.79758,            0.,NA,NA,"",   114.897E-03,  -90.8993E-03,  -70.2753E-03,   1.76374E-03
C:/temp/dataset/6/15_6.odb,Step-1,Increment      1: Step Time =    1.000,"PART-1-1",           248,      -10.8025,      -24.3532,            0.,NA,NA,"",   14.6528E-03,  -5.44909E-03,  -13.6019E-03,   3.04987E-03
C:/temp/dataset/6/15_6.odb,Step-1,Increment      1: Step Time =    1.000,"PART-1-1",           249,       5.82981,      -2.08643,            0.,NA,NA,"",   52.9765E-03,  -52.4379E-03,  -7.53536E-03,   354.010E-06
C:/temp/dataset/6/15_6.odb,Step-1,Increment      1: Step Time =    1.000,"PART-1-1",           250,      -8.67175,      -2.53401,            0.,NA,NA,"",   81.9343E-03,  -49.5503E-03,  -65.2533E-03,   2.45163E-03
C:/temp/dataset/6/15_6.odb,Step-1,Increment      1: Step Time =    1.000,"PART-1-1",           251,       5.78686,      -22.7214,            0.,NA,NA,"",   1.63820E-03,  -1.32856E-03,  -958.446E-06,   436.199E-06
C:/temp/dataset/6/15_6.odb,Step-1,Increment      1: Step Time =    1.000,"PART-1-1",           252,      -8.27594,       1.60152,            0.,NA,NA,"",   99.1927E-03,  -69.4471E-03,  -70.8258E-03,   2.24870E-03
C:/temp/dataset/6/15_6.odb,Step-1,Increment      1: Step Time =    1.000,"PART-1-1",           253,       8.25490,      -24.0061,            0.,NA,NA,"",   600.552E-06,  -499.708E-06,   333.098E-06,   52.8221E-06
C:/temp/dataset/6/15_6.odb,Step-1,Increment      1: Step Time =    1.000,"PART-1-1",           254,      -9.04303,      -23.2600,            0.,NA,NA,"",   15.1028E-03,  -4.58456E-03,  -14.3901E-03,   2.80279E-03
C:/temp/dataset/6/15_6.odb,Step-1,Increment      1: Step Time =    1.000,"PART-1-1",           255,       7.61656,      -1.09448,            0.,NA,NA,"",   56.1067E-03,  -56.0692E-03,  -2.05103E-03,   370.588E-06
C:/temp/dataset/6/15_6.odb,Step-1,Increment      1: Step Time =    1.000,"PART-1-1",           256,      -4.02262,   861.151E-03,            0.,NA,NA,"",   77.5082E-03,  -63.9652E-03,  -43.7718E-03,   144.250E-06
C:/temp/dataset/6/15_6.odb,Step-1,Increment      1: Step Time =    1.000,"PART-1-1",           257,  -104.141E-03,       1.31276,            0.,NA,NA,"",   71.3970E-03,  -65.9456E-03,  -27.3625E-03,   500.005E-06
C:/temp/dataset/6/15_6.odb,Step-1,Increment      1: Step Time =    1.000,"PART-1-1",           258,       3.72123,      -23.4419,            0.,NA,NA,"",   1.31799E-03,  -1.00733E-03,  -849.927E-06,   564.708E-06
C:/temp/dataset/6/15_6.odb,Step-1,Increment      1: Step Time =    1.000,"PART-1-1",           259,      -10.7950,      -8.39617,            0.,NA,NA,"",   67.3708E-03,  -32.2357E-03,  -59.1582E-03,   3.37299E-03
C:/temp/dataset/6/15_6.odb,Step-1,Increment      1: Step Time =    1.000,"PART-1-1",           260,      -1.85786,       1.02916,            0.,NA,NA,"",   73.2618E-03,  -64.8372E-03,  -34.1092E-03,   525.627E-06
C:/temp/dataset/6/15_6.odb,Step-1,Increment      1: Step Time =    1.000,"PART-1-1",           261,      -6.46179,      -1.33856,            0.,NA,NA,"",   76.9515E-03,  -53.4131E-03,  -55.3948E-03,   1.23037E-03
C:/temp/dataset/6/15_6.odb,Step-1,Increment      1: Step Time =    1.000,"PART-1-1",           262,      -11.1078,      -7.00587,            0.,NA,NA,"",   74.1802E-03,  -36.6380E-03,  -64.5008E-03,   3.46586E-03
C:/temp/dataset/6/15_6.odb,Step-1,Increment      1: Step Time =    1.000,"PART-1-1",           263,      -5.52697,      -3.44125,            0.,NA,NA,"",   66.0001E-03,  -44.1718E-03,  -49.0394E-03,   1.05116E-03
C:/temp/dataset/6/15_6.odb,Step-1,Increment      1: Step Time =    1.000,"PART-1-1",           264,      -9.72268,      -4.98378,            0.,NA,NA,"",   76.6820E-03,  -41.3163E-03,  -64.5995E-03,   2.95929E-03
C:/temp/dataset/6/15_6.odb,Step-1,Increment      1: Step Time =    1.000,"PART-1-1",           265,      -6.27329,       4.89376,            0.,NA,NA,"",   108.015E-03,  -90.3510E-03,  -59.1949E-03,   1.39158E-03
C:/temp/dataset/6/15_6.odb,Step-1,Increment      1: Step Time =    1.000,"PART-1-1",           266,       12.4963,       2.80040,            0.,NA,NA,"",   70.6608E-03,  -69.4506E-03,   13.0220E-03,   95.2944E-06
C:/temp/dataset/6/15_6.odb,Step-1,Increment      1: Step Time =    1.000,"PART-1-1",           267,      -7.37176,      -20.2559,            0.,NA,NA,"",   20.1832E-03,  -6.95066E-03,  -18.9486E-03,   2.50064E-03
C:/temp/dataset/6/15_6.odb,Step-1,Increment      1: Step Time =    1.000,"PART-1-1",           268,       2.88963,      -21.8777,            0.,NA,NA,"",   2.06220E-03,  -1.89996E-03,  -801.767E-06,   690.747E-06
C:/temp/dataset/6/15_6.odb,Step-1,Increment      1: Step Time =    1.000,"PART-1-1",           269,      -8.05085,       3.52655,            0.,NA,NA,"",   109.188E-03,  -81.5713E-03,  -72.5824E-03,   2.24054E-03
C:/temp/dataset/6/15_6.odb,Step-1,Increment      1: Step Time =    1.000,"PART-1-1",           270,       8.95558,      -12.5395,            0.,NA,NA,"",   19.6908E-03,  -19.6416E-03,   1.39170E-03,   248.755E-06
C:/temp/dataset/6/15_6.odb,Step-1,Increment      1: Step Time =    1.000,"PART-1-1",           271,       1.35989,  -223.950E-03,            0.,NA,NA,"",   63.3330E-03,  -59.3410E-03,  -22.1295E-03,   397.802E-06
C:/temp/dataset/6/15_6.odb,Step-1,Increment      1: Step Time =    1.000,"PART-1-1",           272,      -9.75004,      -12.6533,            0.,NA,NA,"",   48.6108E-03,  -21.1343E-03,  -43.7762E-03,   3.14542E-03
C:/temp/dataset/6/15_6.odb,Step-1,Increment      1: Step Time =    1.000,"PART-1-1",           273,      -8.51206,      -25.1011,            0.,NA,NA,"",   9.56615E-03,  -1.98662E-03,  -9.35759E-03,   2.54485E-03
C:/temp/dataset/6/15_6.odb,Step-1,Increment      1: Step Time =    1.000,"PART-1-1",           274,      -6.19138,   998.181E-03,            0.,NA,NA,"",   85.5849E-03,  -64.8356E-03,  -55.8670E-03,   949.047E-06
C:/temp/dataset/6/15_6.odb,Step-1,Increment      1: Step Time =    1.000,"PART-1-1",           275,      -2.63339,      -25.0950,            0.,NA,NA,"",   2.93925E-03,   917.307E-06,  -2.79244E-03,   782.243E-06
C:/temp/dataset/6/15_6.odb,Step-1,Increment      1: Step Time =    1.000,"PART-1-1",           276,       8.11811,      -26.0558,            0.,NA,NA,"",   310.258E-06,   223.729E-06,   214.954E-06,   68.4088E-06
C:/temp/dataset/6/15_6.odb,Step-1,Increment      1: Step Time =    1.000,"PART-1-1",           277,       6.33403,   764.508E-03,            0.,NA,NA,"",   63.1120E-03,  -62.8299E-03,  -5.95977E-03,   386.545E-06
C:/temp/dataset/6/15_6.odb,Step-1,Increment      1: Step Time =    1.000,"PART-1-1",           278,       8.84044,      -16.9880,            0.,NA,NA,"",   9.10975E-03,  -9.02442E-03,   1.24393E-03,   292.196E-06
C:/temp/dataset/6/15_6.odb,Step-1,Increment      1: Step Time =    1.000,"PART-1-1",           279,      -11.3950,       19.6047,            0.,NA,NA,"",   349.780E-03,  -309.303E-03,  -163.333E-03,   4.21626E-03
C:/temp/dataset/6/15_6.odb,Step-1,Increment      1: Step Time =    1.000,"PART-1-1",           280,      -11.2464,      -2.22607,            0.,NA,NA,"",   96.6436E-03,  -53.9753E-03,  -80.1664E-03,   3.69809E-03
C:/temp/dataset/6/15_6.odb,Step-1,Increment      1: Step Time =    1.000,"PART-1-1",           281,      -8.41776,  -32.7016E-03,            0.,NA,NA,"",   91.7596E-03,  -60.7567E-03,  -68.7637E-03,   2.28625E-03
C:/temp/dataset/6/15_6.odb,Step-1,Increment      1: Step Time =    1.000,"PART-1-1",           282,       4.48255,      -24.5345,            0.,NA,NA,"",   778.977E-06,  -384.223E-06,  -677.627E-06,   369.879E-06
C:/temp/dataset/6/15_6.odb,Step-1,Increment      1: Step Time =    1.000,"PART-1-1",           283,       6.11275,      -24.3348,            0.,NA,NA,"",   646.401E-06,  -406.200E-06,  -502.829E-06,   248.527E-06
C:/temp/dataset/6/15_6.odb,Step-1,Increment      1: Step Time =    1.000,"PART-1-1",           284,       9.69767,      -4.20039,            0.,NA,NA,"",   45.5265E-03,  -45.3568E-03,   3.92686E-03,   313.182E-06
C:/temp/dataset/6/15_6.odb,Step-1,Increment      1: Step Time =    1.000,"PART-1-1",           285,       13.8851,      -1.60402,            0.,NA,NA,"",   57.2059E-03,  -54.5724E-03,   17.1571E-03,   206.277E-06
C:/temp/dataset/6/15_6.odb,Step-1,Increment      1: Step Time =    1.000,"PART-1-1",           286,           15.,   -468.75E-03,            0.,NA,NA,"",   62.1693E-03,  -58.5127E-03,   21.0068E-03,   137.552E-06
C:/temp/dataset/6/15_6.odb,Step-1,Increment      1: Step Time =    1.000,"PART-1-1",           287,       13.7553,   590.641E-03,            0.,NA,NA,"",   64.3193E-03,  -62.0363E-03,   16.9844E-03,   120.358E-06
C:/temp/dataset/6/15_6.odb,Step-1,Increment      1: Step Time =    1.000,"PART-1-1",           288,       12.6405,  -544.629E-03,            0.,NA,NA,"",   59.6177E-03,  -58.1120E-03,   13.3143E-03,   219.553E-06
C:/temp/dataset/6/15_6.odb,Step-1,Increment      1: Step Time =    1.000,"PART-1-1",           289,       6.57104,       2.96720,            0.,NA,NA,"",   70.8523E-03,  -70.6465E-03,  -5.39680E-03,   349.963E-06
C:/temp/dataset/6/15_6.odb,Step-1,Increment      1: Step Time =    1.000,"PART-1-1",           290,       5.86345,       1.80964,            0.,NA,NA,"",   67.1119E-03,  -66.6940E-03,  -7.47820E-03,   384.675E-06
C:/temp/dataset/6/15_6.odb,Step-1,Increment      1: Step Time =    1.000,"PART-1-1",           291,       7.10711,       1.10321,            0.,NA,NA,"",   64.0795E-03,  -63.9783E-03,  -3.60041E-03,   359.931E-06
C:/temp/dataset/6/15_6.odb,Step-1,Increment      1: Step Time =    1.000,"PART-1-1",           292,       7.81470,       2.26078,            0.,NA,NA,"",   67.9885E-03,  -67.9720E-03,  -1.49848E-03,   306.523E-06
C:/temp/dataset/6/15_6.odb,Step-1,Increment      1: Step Time =    1.000,"PART-1-1",           293,       6.97305,      -8.82061,            0.,NA,NA,"",   30.6656E-03,  -30.4077E-03,  -3.96873E-03,   219.460E-06
C:/temp/dataset/6/15_6.odb,Step-1,Increment      1: Step Time =    1.000,"PART-1-1",           294,       5.98985,      -7.53541,            0.,NA,NA,"",   35.1203E-03,  -34.4206E-03,  -6.97541E-03,   194.678E-06
C:/temp/dataset/6/15_6.odb,Step-1,Increment      1: Step Time =    1.000,"PART-1-1",           295,            5.,      -8.76875,            0.,NA,NA,"",   32.2392E-03,  -30.7559E-03,  -9.66659E-03,   304.926E-06
C:/temp/dataset/6/15_6.odb,Step-1,Increment      1: Step Time =    1.000,"PART-1-1",           296,       5.98320,      -10.0539,            0.,NA,NA,"",   27.5980E-03,  -26.8255E-03,  -6.48384E-03,   295.491E-06
C:/temp/dataset/6/15_6.odb,Step-1,Increment      1: Step Time =    1.000,"PART-1-1",           297,       12.0429,      -8.05477,            0.,NA,NA,"",   34.4857E-03,  -33.0106E-03,   9.97837E-03,   379.890E-06
C:/temp/dataset/6/15_6.odb,Step-1,Increment      1: Step Time =    1.000,"PART-1-1",           298,       11.0248,      -9.13413,            0.,NA,NA,"",   30.3508E-03,  -29.5493E-03,   6.92878E-03,   345.094E-06
C:/temp/dataset/6/15_6.odb,Step-1,Increment      1: Step Time =    1.000,"PART-1-1",           299,       11.9985,      -10.2754,            0.,NA,NA,"",   27.8382E-03,  -26.2794E-03,   9.18469E-03,   420.986E-06
C:/temp/dataset/6/15_6.odb,Step-1,Increment      1: Step Time =    1.000,"PART-1-1",           300,       13.0166,      -9.19606,            0.,NA,NA,"",   32.1241E-03,  -29.6751E-03,   12.3022E-03,   474.785E-06
C:/temp/dataset/6/15_6.odb,Step-1,Increment      1: Step Time =    1.000,"PART-1-1",           301,       13.9992,      -14.7549,            0.,NA,NA,"",   18.9982E-03,  -14.9601E-03,   11.7101E-03,   809.003E-06
C:/temp/dataset/6/15_6.odb,Step-1,Increment      1: Step Time =    1.000,"PART-1-1",           302,       13.0271,      -15.9471,            0.,NA,NA,"",   14.9418E-03,  -11.9810E-03,   8.92811E-03,   692.552E-06
C:/temp/dataset/6/15_6.odb,Step-1,Increment      1: Step Time =    1.000,"PART-1-1",           303,       14.0279,      -16.9735,            0.,NA,NA,"",   14.3842E-03,  -10.2634E-03,   10.0781E-03,   900.806E-06
C:/temp/dataset/6/15_6.odb,Step-1,Increment      1: Step Time =    1.000,"PART-1-1",           304,           15.,      -15.7813,            0.,NA,NA,"",   18.4673E-03,  -13.0980E-03,   13.0185E-03,   1.02607E-03
C:/temp/dataset/6/15_6.odb,Step-1,Increment      1: Step Time =    1.000,"PART-1-1",           305,       6.96949,      -18.0995,            0.,NA,NA,"",   6.95996E-03,  -6.80731E-03,  -1.44964E-03,   449.814E-06
C:/temp/dataset/6/15_6.odb,Step-1,Increment      1: Step Time =    1.000,"PART-1-1",           306,       5.95014,      -17.3335,            0.,NA,NA,"",   9.24316E-03,  -8.56018E-03,  -3.48703E-03,   651.552E-06
C:/temp/dataset/6/15_6.odb,Step-1,Increment      1: Step Time =    1.000,"PART-1-1",           307,            5.,      -18.7625,            0.,NA,NA,"",   7.28598E-03,  -6.05046E-03,  -4.05924E-03,   1.25273E-03
C:/temp/dataset/6/15_6.odb,Step-1,Increment      1: Step Time =    1.000,"PART-1-1",           308,       6.01935,      -19.5285,            0.,NA,NA,"",   4.60261E-03,  -4.11716E-03,  -2.05742E-03,   877.945E-06
C:/temp/dataset/6/15_6.odb,Step-1,Increment      1: Step Time =    1.000,"PART-1-1",           309,       7.66098,      -29.0388,            0.,NA,NA,"",   277.980E-06,   276.769E-06,   25.9213E-06,   178.532E-06
C:/temp/dataset/6/15_6.odb,Step-1,Increment      1: Step Time =    1.000,"PART-1-1",           310,       6.62868,      -28.0660,            0.,NA,NA,"",   404.420E-06,   398.825E-06,  -67.0368E-06,   106.704E-06
C:/temp/dataset/6/15_6.odb,Step-1,Increment      1: Step Time =    1.000,"PART-1-1",           311,       5.21770,      -29.0272,            0.,NA,NA,"",   280.977E-06,   265.760E-06,  -91.2121E-06,   196.272E-06
C:/temp/dataset/6/15_6.odb,Step-1,Increment      1: Step Time =    1.000,"PART-1-1",           312,          6.25,          -30.,            0.,NA,NA,"",            0.,   214.834E-42,  -112.140E-42,   233.732E-06
C:/temp/dataset/6/15_6.odb,Step-1,Increment      1: Step Time =    1.000,"PART-1-1",           313,   162.125E-03,      -28.5454,            0.,NA,NA,"",   807.657E-06,   681.938E-06,  -432.749E-06,   481.894E-06
C:/temp/dataset/6/15_6.odb,Step-1,Increment      1: Step Time =    1.000,"PART-1-1",           314,      -1.06934,      -27.3053,            0.,NA,NA,"",   1.48504E-03,   1.09123E-03,  -1.00725E-03,   584.035E-06
C:/temp/dataset/6/15_6.odb,Step-1,Increment      1: Step Time =    1.000,"PART-1-1",           315,      -2.48147,      -28.7599,            0.,NA,NA,"",   1.12228E-03,   854.766E-06,  -727.242E-06,   873.022E-06
C:/temp/dataset/6/15_6.odb,Step-1,Increment      1: Step Time =    1.000,"PART-1-1",           316,         -1.25,          -30.,            0.,NA,NA,"",            0.,   488.190E-42,  -1.18128E-39,   784.155E-06
C:/temp/dataset/6/15_6.odb,Step-1,Increment      1: Step Time =    1.000,"PART-1-1",           317,          -15.,        -21.25,            0.,NA,NA,"",   32.2803E-03,  -15.6642E-03,  -28.2250E-03,   3.44521E-03
C:/temp/dataset/6/15_6.odb,Step-1,Increment      1: Step Time =    1.000,"PART-1-1",           318,      -13.9888,      -22.4607,            0.,NA,NA,"",   26.2758E-03,  -12.4660E-03,  -23.1304E-03,   3.36621E-03
C:/temp/dataset/6/15_6.odb,Step-1,Increment      1: Step Time =    1.000,"PART-1-1",           319,      -12.8187,      -21.2681,            0.,NA,NA,"",   27.9471E-03,  -12.3465E-03,  -25.0720E-03,   3.29414E-03
C:/temp/dataset/6/15_6.odb,Step-1,Increment      1: Step Time =    1.000,"PART-1-1",           320,      -13.8299,      -20.0574,            0.,NA,NA,"",   33.9572E-03,  -15.5441E-03,  -30.1906E-03,   3.37032E-03
C:/temp/dataset/6/15_6.odb,Step-1,Increment      1: Step Time =    1.000,"PART-1-1",           321,      -12.5142,      -28.6623,            0.,NA,NA,"",   3.57771E-03,  -1.77773E-03,  -3.10478E-03,   2.97632E-03
C:/temp/dataset/6/15_6.odb,Step-1,Increment      1: Step Time =    1.000,"PART-1-1",           322,        -11.25,          -30.,            0.,NA,NA,"",            0.,  -371.355E-42,  -4.68641E-39,   2.43361E-03
C:/temp/dataset/6/15_6.odb,Step-1,Increment      1: Step Time =    1.000,"PART-1-1",           323,      -9.93348,      -28.4464,            0.,NA,NA,"",   2.97487E-03,  -549.061E-06,  -2.92376E-03,   2.36938E-03
C:/temp/dataset/6/15_6.odb,Step-1,Increment      1: Step Time =    1.000,"PART-1-1",           324,      -11.1976,      -27.1087,            0.,NA,NA,"",   7.12859E-03,  -2.77028E-03,  -6.56828E-03,   3.00637E-03
C:/temp/dataset/6/15_6.odb,Step-1,Increment      1: Step Time =    1.000,"PART-1-1",           325,      -7.37036,      -13.8742,            0.,NA,NA,"",   38.2261E-03,  -15.8765E-03,  -34.7732E-03,   2.77807E-03
C:/temp/dataset/6/15_6.odb,Step-1,Increment      1: Step Time =    1.000,"PART-1-1",           326,      -6.21015,      -15.0417,            0.,NA,NA,"",   32.1303E-03,  -12.5642E-03,  -29.5719E-03,   2.67847E-03
C:/temp/dataset/6/15_6.odb,Step-1,Increment      1: Step Time =    1.000,"PART-1-1",           327,           -5.,      -13.7188,            0.,NA,NA,"",   33.1284E-03,  -13.4476E-03,  -30.2762E-03,   2.34544E-03
C:/temp/dataset/6/15_6.odb,Step-1,Increment      1: Step Time =    1.000,"PART-1-1",           328,      -6.16021,      -12.5513,            0.,NA,NA,"",   39.0012E-03,  -16.8741E-03,  -35.1618E-03,   2.45576E-03
C:/temp/dataset/6/15_6.odb,Step-1,Increment      1: Step Time =    1.000,"PART-1-1",           329,      -9.33590,      -9.40979,            0.,NA,NA,"",   58.4004E-03,  -27.5961E-03,  -51.4690E-03,   3.00585E-03
C:/temp/dataset/6/15_6.odb,Step-1,Increment      1: Step Time =    1.000,"PART-1-1",           330,      -8.33361,      -10.3234,            0.,NA,NA,"",   51.9727E-03,  -24.1183E-03,  -46.0377E-03,   2.80100E-03
C:/temp/dataset/6/15_6.odb,Step-1,Increment      1: Step Time =    1.000,"PART-1-1",           331,      -7.16565,      -9.15059,            0.,NA,NA,"",   52.0360E-03,  -25.6695E-03,  -45.2639E-03,   2.44932E-03
C:/temp/dataset/6/15_6.odb,Step-1,Increment      1: Step Time =    1.000,"PART-1-1",           332,      -8.16794,      -8.23701,            0.,NA,NA,"",   58.4451E-03,  -29.2660E-03,  -50.5898E-03,   2.66944E-03
C:/temp/dataset/6/15_6.odb,Step-1,Increment      1: Step Time =    1.000,"PART-1-1",           333,      -11.1473,      -6.32447,            0.,NA,NA,"",   77.2188E-03,  -38.7925E-03,  -66.7674E-03,   3.49279E-03
C:/temp/dataset/6/15_6.odb,Step-1,Increment      1: Step Time =    1.000,"PART-1-1",           334,      -10.2102,      -6.79208,            0.,NA,NA,"",   71.4499E-03,  -36.0205E-03,  -61.7058E-03,   3.17012E-03
C:/temp/dataset/6/15_6.odb,Step-1,Increment      1: Step Time =    1.000,"PART-1-1",           335,      -9.51762,      -5.78103,            0.,NA,NA,"",   72.6133E-03,  -38.3514E-03,  -61.6593E-03,   2.91029E-03
C:/temp/dataset/6/15_6.odb,Step-1,Increment      1: Step Time =    1.000,"PART-1-1",           336,      -10.4548,      -5.31342,            0.,NA,NA,"",   78.5237E-03,  -41.1041E-03,  -66.9061E-03,   3.24267E-03
C:/temp/dataset/6/15_6.odb,Step-1,Increment      1: Step Time =    1.000,"PART-1-1",           337,      -5.04937,      -1.25055,            0.,NA,NA,"",   72.2130E-03,  -53.6471E-03,  -48.3395E-03,   629.721E-06
C:/temp/dataset/6/15_6.odb,Step-1,Increment      1: Step Time =    1.000,"PART-1-1",           338,      -3.82978,  -150.691E-03,            0.,NA,NA,"",   72.8408E-03,  -58.9575E-03,  -42.7761E-03,   241.318E-06
C:/temp/dataset/6/15_6.odb,Step-1,Increment      1: Step Time =    1.000,"PART-1-1",           339,      -5.10700,   929.666E-03,            0.,NA,NA,"",   81.1459E-03,  -64.3181E-03,  -49.4757E-03,   431.781E-06
C:/temp/dataset/6/15_6.odb,Step-1,Increment      1: Step Time =    1.000,"PART-1-1",           340,      -6.32658,  -170.190E-03,            0.,NA,NA,"",   81.1088E-03,  -58.9105E-03,  -55.7511E-03,   1.07002E-03
C:/temp/dataset/6/15_6.odb,Step-1,Increment      1: Step Time =    1.000,"PART-1-1",           341,          -15.,          3.75,            0.,NA,NA,"",   163.952E-03,  -97.0452E-03,  -132.145E-03,   6.67807E-03
C:/temp/dataset/6/15_6.odb,Step-1,Increment      1: Step Time =    1.000,"PART-1-1",           342,      -13.8520,       2.39386,            0.,NA,NA,"",   143.172E-03,  -84.0665E-03,  -115.892E-03,   5.66265E-03
C:/temp/dataset/6/15_6.odb,Step-1,Increment      1: Step Time =    1.000,"PART-1-1",           343,      -12.6820,       3.58697,            0.,NA,NA,"",   143.823E-03,  -89.7667E-03,  -112.370E-03,   4.99800E-03
C:/temp/dataset/6/15_6.odb,Step-1,Increment      1: Step Time =    1.000,"PART-1-1",           344,      -13.8301,       4.94311,            0.,NA,NA,"",   165.436E-03,  -103.476E-03,  -129.080E-03,   5.98510E-03
C:/temp/dataset/6/15_6.odb,Step-1,Increment      1: Step Time =    1.000,"PART-1-1",           345,          -15.,         11.25,            0.,NA,NA,"",   252.756E-03,  -176.979E-03,  -180.455E-03,   7.28017E-03
C:/temp/dataset/6/15_6.odb,Step-1,Increment      1: Step Time =    1.000,"PART-1-1",           346,      -14.0083,       10.0442,            0.,NA,NA,"",   224.808E-03,  -158.162E-03,  -159.761E-03,   6.39638E-03
C:/temp/dataset/6/15_6.odb,Step-1,Increment      1: Step Time =    1.000,"PART-1-1",           347,      -13.0572,       11.3141,            0.,NA,NA,"",   231.170E-03,  -172.403E-03,  -154.002E-03,   5.58975E-03
C:/temp/dataset/6/15_6.odb,Step-1,Increment      1: Step Time =    1.000,"PART-1-1",           348,      -14.0489,       12.5200,            0.,NA,NA,"",   259.727E-03,  -192.045E-03,  -174.862E-03,   6.47399E-03
C:/temp/dataset/6/15_6.odb,Step-1,Increment      1: Step Time =    1.000,"PART-1-1",           349,           -5.,       22.7083,            0.,NA,NA,"",   374.787E-03,  -373.603E-03,  -29.7606E-03,   1.45144E-03
C:/temp/dataset/6/15_6.odb,Step-1,Increment      1: Step Time =    1.000,"PART-1-1",           350,      -5.96779,       23.6687,            0.,NA,NA,"",   398.542E-03,  -395.192E-03,  -51.5654E-03,   601.560E-06
C:/temp/dataset/6/15_6.odb,Step-1,Increment      1: Step Time =    1.000,"PART-1-1",           351,      -6.69567,       22.7251,            0.,NA,NA,"",   379.223E-03,  -372.999E-03,  -68.4193E-03,   43.6206E-06
C:/temp/dataset/6/15_6.odb,Step-1,Increment      1: Step Time =    1.000,"PART-1-1",           352,      -5.72788,       21.7648,            0.,NA,NA,"",   354.968E-03,  -351.869E-03,  -46.8024E-03,   800.415E-06
C:/temp/dataset/6/15_6.odb,Step-1,Increment      1: Step Time =    1.000,"PART-1-1",           353,      -9.95259,       28.8237,            0.,NA,NA,"",   550.211E-03,  -526.193E-03,  -160.789E-03,   3.35242E-03
C:/temp/dataset/6/15_6.odb,Step-1,Increment      1: Step Time =    1.000,"PART-1-1",           354,      -8.67740,       27.7404,            0.,NA,NA,"",   511.788E-03,  -496.949E-03,  -122.347E-03,   1.20639E-03
C:/temp/dataset/6/15_6.odb,Step-1,Increment      1: Step Time =    1.000,"PART-1-1",           355,      -7.47481,       28.9167,            0.,NA,NA,"",   537.122E-03,  -529.419E-03,  -90.6387E-03,   935.819E-06
C:/temp/dataset/6/15_6.odb,Step-1,Increment      1: Step Time =    1.000,"PART-1-1",           356,         -8.75,           30.,            0.,NA,NA,"",   573.990E-03,  -560.007E-03,  -125.926E-03,   1.33272E-03
C:/temp/dataset/6/15_6.odb,Step-1,Increment      1: Step Time =    1.000,"PART-1-1",           357,      -12.4360,       28.7156,            0.,NA,NA,"",   576.794E-03,  -528.491E-03,  -231.058E-03,   6.11631E-03
C:/temp/dataset/6/15_6.odb,Step-1,Increment      1: Step Time =    1.000,"PART-1-1",           358,        -13.75,           30.,            0.,NA,NA,"",   627.778E-03,  -565.396E-03,  -272.822E-03,   5.80091E-03
C:/temp/dataset/6/15_6.odb,Step-1,Increment      1: Step Time =    1.000,"PART-1-1",           359,          -15.,         28.75,            0.,NA,NA,"",   612.867E-03,  -535.165E-03,  -298.671E-03,   6.31158E-03
C:/temp/dataset/6/15_6.odb,Step-1,Increment      1: Step Time =    1.000,"PART-1-1",           360,      -13.6860,       27.4656,            0.,NA,NA,"",   560.037E-03,  -497.822E-03,  -256.543E-03,   6.28079E-03
C:/temp/dataset/6/15_6.odb,Step-1,Increment      1: Step Time =    1.000,"PART-1-1",           361,         -3.75,           -5.,            0.,NA,NA,"",   57.3502E-03,  -38.4339E-03,  -42.5662E-03,   534.641E-06
C:/temp/dataset/6/15_6.odb,Step-1,Increment      1: Step Time =    1.000,"PART-1-1",           362,      -2.75606,      -4.06584,            0.,NA,NA,"",   57.3244E-03,  -42.4430E-03,  -38.5315E-03,   609.227E-06
C:/temp/dataset/6/15_6.odb,Step-1,Increment      1: Step Time =    1.000,"PART-1-1",           363,      -4.26954,      -3.28646,            0.,NA,NA,"",   62.9671E-03,  -44.8446E-03,  -44.2020E-03,   561.970E-06
C:/temp/dataset/6/15_6.odb,Step-1,Increment      1: Step Time =    1.000,"PART-1-1",           364,      -5.26349,      -4.22062,            0.,NA,NA,"",   62.5482E-03,  -40.9782E-03,  -47.2553E-03,   1.11453E-03
C:/temp/dataset/6/15_6.odb,Step-1,Increment      1: Step Time =    1.000,"PART-1-1",           365,   659.099E-03,      -2.85996,            0.,NA,NA,"",   54.6601E-03,  -48.6152E-03,  -24.9859E-03,   378.759E-06
C:/temp/dataset/6/15_6.odb,Step-1,Increment      1: Step Time =    1.000,"PART-1-1",           366,  -266.865E-03,      -3.97148,            0.,NA,NA,"",   52.4875E-03,  -43.9437E-03,  -28.7035E-03,   504.550E-06
C:/temp/dataset/6/15_6.odb,Step-1,Increment      1: Step Time =    1.000,"PART-1-1",           367,          1.25,           -5.,            0.,NA,NA,"",   46.9178E-03,  -40.7573E-03,  -23.2405E-03,   533.348E-06
C:/temp/dataset/6/15_6.odb,Step-1,Increment      1: Step Time =    1.000,"PART-1-1",           368,       2.17596,      -3.88848,            0.,NA,NA,"",   49.3249E-03,  -45.2276E-03,  -19.6828E-03,   400.974E-06
C:/temp/dataset/6/15_6.odb,Step-1,Increment      1: Step Time =    1.000,"PART-1-1",           369,   93.5104E-03,  -560.922E-03,            0.,NA,NA,"",   63.7022E-03,  -57.8257E-03,  -26.7236E-03,   378.751E-06
C:/temp/dataset/6/15_6.odb,Step-1,Increment      1: Step Time =    1.000,"PART-1-1",           370,   627.873E-03,   544.404E-03,            0.,NA,NA,"",   67.2462E-03,  -62.5476E-03,  -24.6951E-03,   439.487E-06
C:/temp/dataset/6/15_6.odb,Step-1,Increment      1: Step Time =    1.000,"PART-1-1",           371,  -981.002E-03,       1.17096,            0.,NA,NA,"",   72.2593E-03,  -65.4259E-03,  -30.6733E-03,   506.846E-06
C:/temp/dataset/6/15_6.odb,Step-1,Increment      1: Step Time =    1.000,"PART-1-1",           372,      -1.51537,   65.6335E-03,            0.,NA,NA,"",   68.7061E-03,  -60.3624E-03,  -32.8162E-03,   422.397E-06
C:/temp/dataset/6/15_6.odb,Step-1,Increment      1: Step Time =    1.000,"PART-1-1",           373,       4.11258,       2.54084,            0.,NA,NA,"",   70.9903E-03,  -69.7718E-03,  -13.0964E-03,   462.026E-06
C:/temp/dataset/6/15_6.odb,Step-1,Increment      1: Step Time =    1.000,"PART-1-1",           374,       3.71515,       1.12833,            0.,NA,NA,"",   66.0759E-03,  -64.5252E-03,  -14.2310E-03,   430.595E-06
C:/temp/dataset/6/15_6.odb,Step-1,Increment      1: Step Time =    1.000,"PART-1-1",           375,       5.46602,   397.127E-03,            0.,NA,NA,"",   62.1732E-03,  -61.5708E-03,  -8.63425E-03,   390.475E-06
C:/temp/dataset/6/15_6.odb,Step-1,Increment      1: Step Time =    1.000,"PART-1-1",           376,       8.69518,  -378.803E-03,            0.,NA,NA,"",   58.6251E-03,  -58.6122E-03,   1.22866E-03,   335.668E-06
C:/temp/dataset/6/15_6.odb,Step-1,Increment      1: Step Time =    1.000,"PART-1-1",           377,       8.82700,   889.396E-03,            0.,NA,NA,"",   63.1015E-03,  -63.0801E-03,   1.64209E-03,   314.928E-06
C:/temp/dataset/6/15_6.odb,Step-1,Increment      1: Step Time =    1.000,"PART-1-1",           378,       6.97530,  -164.986E-03,            0.,NA,NA,"",   59.5552E-03,  -59.4221E-03,  -3.97874E-03,   371.812E-06
C:/temp/dataset/6/15_6.odb,Step-1,Increment      1: Step Time =    1.000,"PART-1-1",           379,      -3.65351,      -22.6081,            0.,NA,NA,"",   5.83065E-03,  -717.021E-06,  -5.78640E-03,   1.05121E-03
C:/temp/dataset/6/15_6.odb,Step-1,Increment      1: Step Time =    1.000,"PART-1-1",           380,      -2.48671,      -21.3009,            0.,NA,NA,"",   4.43298E-03,  -2.31159E-03,  -3.78257E-03,   274.147E-06
C:/temp/dataset/6/15_6.odb,Step-1,Increment      1: Step Time =    1.000,"PART-1-1",           381,         -3.75,          -20.,            0.,NA,NA,"",   8.57701E-03,  -5.13584E-03,  -6.86936E-03,   991.789E-06
C:/temp/dataset/6/15_6.odb,Step-1,Increment      1: Step Time =    1.000,"PART-1-1",           382,      -4.91680,      -21.3072,            0.,NA,NA,"",   10.9387E-03,  -2.64710E-03,  -10.6136E-03,   2.23412E-03
C:/temp/dataset/6/15_6.odb,Step-1,Increment      1: Step Time =    1.000,"PART-1-1",           383,       12.8399,      -22.4784,            0.,NA,NA,"",   4.96942E-03,  -2.33298E-03,   4.38775E-03,   724.606E-06
C:/temp/dataset/6/15_6.odb,Step-1,Increment      1: Step Time =    1.000,"PART-1-1",           384,       11.7398,      -21.2760,            0.,NA,NA,"",   5.03046E-03,  -3.08366E-03,   3.97449E-03,   568.976E-06
C:/temp/dataset/6/15_6.odb,Step-1,Increment      1: Step Time =    1.000,"PART-1-1",           385,       10.5591,      -22.4389,            0.,NA,NA,"",   2.89150E-03,  -1.74209E-03,   2.30779E-03,   386.984E-06
C:/temp/dataset/6/15_6.odb,Step-1,Increment      1: Step Time =    1.000,"PART-1-1",           386,       11.6593,      -23.6412,            0.,NA,NA,"",   2.98083E-03,  -1.17932E-03,   2.73762E-03,   542.939E-06
C:/temp/dataset/6/15_6.odb,Step-1,Increment      1: Step Time =    1.000,"PART-1-1",           387,          8.75,            5.,            0.,NA,NA,"",   76.9066E-03,  -76.8978E-03,   1.16540E-03,   195.541E-06
C:/temp/dataset/6/15_6.odb,Step-1,Increment      1: Step Time =    1.000,"PART-1-1",           388,       7.62461,       4.03982,            0.,NA,NA,"",   74.0684E-03,  -74.0344E-03,  -2.24633E-03,   266.096E-06
C:/temp/dataset/6/15_6.odb,Step-1,Increment      1: Step Time =    1.000,"PART-1-1",           389,       8.90047,       2.96899,            0.,NA,NA,"",   70.2707E-03,  -70.2478E-03,   1.79181E-03,   246.754E-06
C:/temp/dataset/6/15_6.odb,Step-1,Increment      1: Step Time =    1.000,"PART-1-1",           390,       10.0259,       3.92917,            0.,NA,NA,"",   73.4911E-03,  -73.3054E-03,   5.22183E-03,   140.525E-06
C:/temp/dataset/6/15_6.odb,Step-1,Increment      1: Step Time =    1.000,"PART-1-1",           391,      -6.96921,       21.1213,            0.,NA,NA,"",   345.420E-03,  -337.430E-03,  -73.8655E-03,   298.880E-06
C:/temp/dataset/6/15_6.odb,Step-1,Increment      1: Step Time =    1.000,"PART-1-1",           392,      -6.24133,       19.9816,            0.,NA,NA,"",   318.972E-03,  -313.604E-03,  -58.2707E-03,   335.895E-06
C:/temp/dataset/6/15_6.odb,Step-1,Increment      1: Step Time =    1.000,"PART-1-1",           393,           -5.,        20.625,            0.,NA,NA,"",   329.362E-03,  -327.804E-03,  -32.0022E-03,   1.44935E-03
C:/temp/dataset/6/15_6.odb,Step-1,Increment      1: Step Time =    1.000,"PART-1-1",           394,      -12.9370,       8.81410,            0.,NA,NA,"",   198.167E-03,  -140.403E-03,  -139.847E-03,   5.44417E-03
C:/temp/dataset/6/15_6.odb,Step-1,Increment      1: Step Time =    1.000,"PART-1-1",           395,          -15.,          8.75,            0.,NA,NA,"",   219.142E-03,  -145.402E-03,  -163.955E-03,   7.20682E-03
C:/temp/dataset/6/15_6.odb,Step-1,Increment      1: Step Time =    1.000,"PART-1-1",           396,      -13.9287,       7.51992,            0.,NA,NA,"",   193.239E-03,  -128.507E-03,  -144.316E-03,   6.25086E-03
C:/temp/dataset/6/15_6.odb,Step-1,Increment      1: Step Time =    1.000,"PART-1-1",           397,          -15.,          1.25,            0.,NA,NA,"",   142.083E-03,  -79.7507E-03,  -117.590E-03,   6.16616E-03
C:/temp/dataset/6/15_6.odb,Step-1,Increment      1: Step Time =    1.000,"PART-1-1",           398,      -13.9023,  -59.1614E-03,            0.,NA,NA,"",   125.212E-03,  -69.4575E-03,  -104.181E-03,   5.26269E-03
C:/temp/dataset/6/15_6.odb,Step-1,Increment      1: Step Time =    1.000,"PART-1-1",           399,      -12.7542,       1.08470,            0.,NA,NA,"",   125.527E-03,  -73.2861E-03,  -101.913E-03,   4.78431E-03
C:/temp/dataset/6/15_6.odb,Step-1,Increment      1: Step Time =    1.000,"PART-1-1",           400,          -15.,         -1.25,            0.,NA,NA,"",   123.484E-03,  -66.0527E-03,  -104.333E-03,   5.60386E-03
C:/temp/dataset/6/15_6.odb,Step-1,Increment      1: Step Time =    1.000,"PART-1-1",           401,      -13.9820,      -2.43756,            0.,NA,NA,"",   110.343E-03,  -58.2013E-03,  -93.7457E-03,   4.89599E-03
C:/temp/dataset/6/15_6.odb,Step-1,Increment      1: Step Time =    1.000,"PART-1-1",           402,      -12.8843,      -1.24672,            0.,NA,NA,"",   111.379E-03,  -61.2836E-03,  -93.0030E-03,   4.57445E-03
C:/temp/dataset/6/15_6.odb,Step-1,Increment      1: Step Time =    1.000,"PART-1-1",           403,      -12.3802,      -13.7897,            0.,NA,NA,"",   52.1848E-03,  -22.9786E-03,  -46.8533E-03,   3.51901E-03
C:/temp/dataset/6/15_6.odb,Step-1,Increment      1: Step Time =    1.000,"PART-1-1",           404,      -13.6672,      -12.5056,            0.,NA,NA,"",   60.5947E-03,  -27.4675E-03,  -54.0116E-03,   3.79606E-03
C:/temp/dataset/6/15_6.odb,Step-1,Increment      1: Step Time =    1.000,"PART-1-1",           405,          -15.,        -13.75,            0.,NA,NA,"",   59.2064E-03,  -27.3988E-03,  -52.4853E-03,   3.89440E-03
C:/temp/dataset/6/15_6.odb,Step-1,Increment      1: Step Time =    1.000,"PART-1-1",           406,      -13.7130,      -15.0341,            0.,NA,NA,"",   51.1480E-03,  -22.9788E-03,  -45.6956E-03,   3.61369E-03
C:/temp/dataset/6/15_6.odb,Step-1,Increment      1: Step Time =    1.000,"PART-1-1",           407,       9.21271,      -3.58583,            0.,NA,NA,"",   47.4831E-03,  -47.4143E-03,   2.55533E-03,   323.446E-06
C:/temp/dataset/6/15_6.odb,Step-1,Increment      1: Step Time =    1.000,"PART-1-1",           408,       7.90749,      -3.82305,            0.,NA,NA,"",   46.5339E-03,  -46.5145E-03,  -1.34328E-03,   284.286E-06
C:/temp/dataset/6/15_6.odb,Step-1,Increment      1: Step Time =    1.000,"PART-1-1",           409,       8.15132,      -5.16923,            0.,NA,NA,"",   42.0073E-03,  -42.0013E-03,  -704.271E-06,   248.676E-06
C:/temp/dataset/6/15_6.odb,Step-1,Increment      1: Step Time =    1.000,"PART-1-1",           410,       9.45655,      -4.93201,            0.,NA,NA,"",   42.9893E-03,  -42.8747E-03,   3.13643E-03,   299.625E-06
C:/temp/dataset/6/15_6.odb,Step-1,Increment      1: Step Time =    1.000,"PART-1-1",           411,       6.91243,      -16.0318,            0.,NA,NA,"",   11.4394E-03,  -11.1944E-03,  -2.35456E-03,   461.166E-06
C:/temp/dataset/6/15_6.odb,Step-1,Increment      1: Step Time =    1.000,"PART-1-1",           412,       5.96229,      -14.9858,            0.,NA,NA,"",   14.5946E-03,  -13.7960E-03,  -4.76149E-03,   525.344E-06
C:/temp/dataset/6/15_6.odb,Step-1,Increment      1: Step Time =    1.000,"PART-1-1",           413,            5.,      -16.2875,            0.,NA,NA,"",   12.7216E-03,  -11.1414E-03,  -6.14065E-03,   761.797E-06
C:/temp/dataset/6/15_6.odb,Step-1,Increment      1: Step Time =    1.000,"PART-1-1",           414,       6.93910,      -13.7291,            0.,NA,NA,"",   16.9450E-03,  -16.6707E-03,  -3.03656E-03,   357.385E-06
C:/temp/dataset/6/15_6.odb,Step-1,Increment      1: Step Time =    1.000,"PART-1-1",           415,       5.97681,      -12.5371,            0.,NA,NA,"",   20.7124E-03,  -19.9042E-03,  -5.72927E-03,   407.903E-06
C:/temp/dataset/6/15_6.odb,Step-1,Increment      1: Step Time =    1.000,"PART-1-1",           416,            5.,      -13.7937,            0.,NA,NA,"",   18.5274E-03,  -16.8979E-03,  -7.59782E-03,   595.094E-06
C:/temp/dataset/6/15_6.odb,Step-1,Increment      1: Step Time =    1.000,"PART-1-1",           417,         -1.25,          -20.,            0.,NA,NA,"",   4.36647E-03,  -3.75152E-03,  -2.23432E-03,   515.044E-06
C:/temp/dataset/6/15_6.odb,Step-1,Increment      1: Step Time =    1.000,"PART-1-1",           418,      -1.09514,      -22.7401,            0.,NA,NA,"",   2.03080E-03,  -836.584E-06,  -1.85048E-03,   289.249E-06
C:/temp/dataset/6/15_6.odb,Step-1,Increment      1: Step Time =    1.000,"PART-1-1",           419,   141.566E-03,      -21.4393,            0.,NA,NA,"",   2.30872E-03,  -2.04438E-03,  -1.07270E-03,   218.893E-06
C:/temp/dataset/6/15_6.odb,Step-1,Increment      1: Step Time =    1.000,"PART-1-1",           420,      -7.69236,      -25.1479,            0.,NA,NA,"",   8.49856E-03,  -1.18088E-03,  -8.41611E-03,   2.31063E-03
C:/temp/dataset/6/15_6.odb,Step-1,Increment      1: Step Time =    1.000,"PART-1-1",           421,      -9.18951,      -25.9970,            0.,NA,NA,"",   8.12852E-03,  -1.84799E-03,  -7.91567E-03,   2.59593E-03
C:/temp/dataset/6/15_6.odb,Step-1,Increment      1: Step Time =    1.000,"PART-1-1",           422,      -8.56598,      -27.1897,            0.,NA,NA,"",   4.96072E-03,  -460.331E-06,  -4.93932E-03,   2.26537E-03
C:/temp/dataset/6/15_6.odb,Step-1,Increment      1: Step Time =    1.000,"PART-1-1",           423,      -7.06883,      -26.3407,            0.,NA,NA,"",   5.56555E-03,   60.1292E-06,  -5.56522E-03,   1.99744E-03
C:/temp/dataset/6/15_6.odb,Step-1,Increment      1: Step Time =    1.000,"PART-1-1",           424,      -9.82073,      -13.8964,            0.,NA,NA,"",   44.7228E-03,  -19.0282E-03,  -40.4730E-03,   3.13537E-03
C:/temp/dataset/6/15_6.odb,Step-1,Increment      1: Step Time =    1.000,"PART-1-1",           425,      -8.65586,      -15.1239,            0.,NA,NA,"",   37.7886E-03,  -15.5124E-03,  -34.4578E-03,   2.99293E-03
C:/temp/dataset/6/15_6.odb,Step-1,Increment      1: Step Time =    1.000,"PART-1-1",           426,      -8.53523,      -12.6467,            0.,NA,NA,"",   45.1128E-03,  -19.5243E-03,  -40.6690E-03,   2.91717E-03
C:/temp/dataset/6/15_6.odb,Step-1,Increment      1: Step Time =    1.000,"PART-1-1",           427,      -6.09243,      -10.1071,            0.,NA,NA,"",   45.8292E-03,  -22.1145E-03,  -40.1406E-03,   2.24284E-03
C:/temp/dataset/6/15_6.odb,Step-1,Increment      1: Step Time =    1.000,"PART-1-1",           428,           -5.,      -8.71250,            0.,NA,NA,"",   46.7472E-03,  -24.7867E-03,  -39.6349E-03,   1.83980E-03
C:/temp/dataset/6/15_6.odb,Step-1,Increment      1: Step Time =    1.000,"PART-1-1",           429,      -6.07322,      -7.75598,            0.,NA,NA,"",   53.0459E-03,  -28.5987E-03,  -44.6764E-03,   2.04971E-03
C:/temp/dataset/6/15_6.odb,Step-1,Increment      1: Step Time =    1.000,"PART-1-1",           430,      -12.7270,      -6.06323,            0.,NA,NA,"",   85.0747E-03,  -42.1977E-03,  -73.8719E-03,   4.03304E-03
C:/temp/dataset/6/15_6.odb,Step-1,Increment      1: Step Time =    1.000,"PART-1-1",           431,      -13.8025,      -4.90646,            0.,NA,NA,"",   95.5499E-03,  -48.1344E-03,  -82.5401E-03,   4.48168E-03
C:/temp/dataset/6/15_6.odb,Step-1,Increment      1: Step Time =    1.000,"PART-1-1",           432,          -15.,         -6.25,            0.,NA,NA,"",   93.4626E-03,  -46.0298E-03,  -81.3420E-03,   4.71958E-03
C:/temp/dataset/6/15_6.odb,Step-1,Increment      1: Step Time =    1.000,"PART-1-1",           433,      -13.9244,      -7.40677,            0.,NA,NA,"",   83.5006E-03,  -40.2793E-03,  -73.1433E-03,   4.26170E-03
C:/temp/dataset/6/15_6.odb,Step-1,Increment      1: Step Time =    1.000,"PART-1-1",           434,       1.60591,      -1.50045,            0.,NA,NA,"",   58.2738E-03,  -54.2150E-03,  -21.3676E-03,   334.645E-06
C:/temp/dataset/6/15_6.odb,Step-1,Increment      1: Step Time =    1.000,"PART-1-1",           435,  -853.298E-03,      -1.92043,            0.,NA,NA,"",   60.2185E-03,  -51.8896E-03,  -30.5572E-03,   412.548E-06
C:/temp/dataset/6/15_6.odb,Step-1,Increment      1: Step Time =    1.000,"PART-1-1",           436,         13.75,          -30.,            0.,NA,NA,"",            0.,   45.5198E-42,   1.08058E-39,   648.264E-06
C:/temp/dataset/6/15_6.odb,Step-1,Increment      1: Step Time =    1.000,"PART-1-1",           437,           15.,      -28.9063,            0.,NA,NA,"",   969.828E-06,  -578.374E-06,   778.492E-06,   842.282E-06
C:/temp/dataset/6/15_6.odb,Step-1,Increment      1: Step Time =    1.000,"PART-1-1",           438,       13.8103,      -27.8746,            0.,NA,NA,"",   1.34296E-03,  -377.082E-06,   1.28893E-03,   756.229E-06
C:/temp/dataset/6/15_6.odb,Step-1,Increment      1: Step Time =    1.000,"PART-1-1",           439,       12.5603,      -28.9683,            0.,NA,NA,"",   442.030E-06,   63.1624E-06,   437.494E-06,   539.272E-06
C:/temp/dataset/6/15_6.odb,Step-1,Increment      1: Step Time =    1.000,"PART-1-1",           440,       12.6598,      -26.8678,            0.,NA,NA,"",   1.60465E-03,  -236.245E-06,   1.58717E-03,   645.081E-06
C:/temp/dataset/6/15_6.odb,Step-1,Increment      1: Step Time =    1.000,"PART-1-1",           441,       11.5501,      -25.8632,            0.,NA,NA,"",   1.65855E-03,  -203.986E-06,   1.64596E-03,   514.126E-06
C:/temp/dataset/6/15_6.odb,Step-1,Increment      1: Step Time =    1.000,"PART-1-1",           442,       10.3093,      -26.9762,            0.,NA,NA,"",   793.180E-06,   237.785E-06,   756.698E-06,   334.494E-06
C:/temp/dataset/6/15_6.odb,Step-1,Increment      1: Step Time =    1.000,"PART-1-1",           443,       11.4189,      -27.9808,            0.,NA,NA,"",   715.207E-06,   173.318E-06,   693.889E-06,   462.171E-06
C:/temp/dataset/6/15_6.odb,Step-1,Increment      1: Step Time =    1.000,"PART-1-1",           444,       10.1086,      -29.0125,            0.,NA,NA,"",   321.573E-06,   247.817E-06,   204.928E-06,   303.521E-06
C:/temp/dataset/6/15_6.odb,Step-1,Increment      1: Step Time =    1.000,"PART-1-1",           445,       9.01957,      -28.0513,            0.,NA,NA,"",   455.392E-06,   386.121E-06,   241.438E-06,   198.173E-06
C:/temp/dataset/6/15_6.odb,Step-1,Increment      1: Step Time =    1.000,"PART-1-1",           446,          8.75,          -30.,            0.,NA,NA,"",            0.,   231.726E-42,   241.776E-42,   262.279E-06
C:/temp/dataset/6/15_6.odb,Step-1,Increment      1: Step Time =    1.000,"PART-1-1",           447,       4.20973,      -27.9354,            0.,NA,NA,"",   490.497E-06,   419.909E-06,  -253.503E-06,   181.797E-06
C:/temp/dataset/6/15_6.odb,Step-1,Increment      1: Step Time =    1.000,"PART-1-1",           448,       2.74203,      -28.9082,            0.,NA,NA,"",   398.929E-06,   351.038E-06,  -189.517E-06,   290.602E-06
C:/temp/dataset/6/15_6.odb,Step-1,Increment      1: Step Time =    1.000,"PART-1-1",           449,          3.75,          -30.,            0.,NA,NA,"",            0.,   219.191E-42,  -380.220E-42,   311.241E-06
C:/temp/dataset/6/15_6.odb,Step-1,Increment      1: Step Time =    1.000,"PART-1-1",           450,       1.16266,      -25.9573,            0.,NA,NA,"",   873.224E-06,   520.611E-06,  -701.060E-06,   337.951E-06
C:/temp/dataset/6/15_6.odb,Step-1,Increment      1: Step Time =    1.000,"PART-1-1",           451,       1.65415,      -27.4536,            0.,NA,NA,"",   793.446E-06,   641.365E-06,  -467.127E-06,   313.116E-06
C:/temp/dataset/6/15_6.odb,Step-1,Increment      1: Step Time =    1.000,"PART-1-1",           452,       3.39879,      -26.8461,            0.,NA,NA,"",   587.765E-06,   409.350E-06,  -421.782E-06,   219.421E-06
C:/temp/dataset/6/15_6.odb,Step-1,Increment      1: Step Time =    1.000,"PART-1-1",           453,       2.90730,      -25.3498,            0.,NA,NA,"",   601.814E-06,   45.7755E-06,  -600.070E-06,   315.541E-06
C:/temp/dataset/6/15_6.odb,Step-1,Increment      1: Step Time =    1.000,"PART-1-1",           454,      -3.67645,      -27.5530,            0.,NA,NA,"",   2.27149E-03,   1.25805E-03,  -1.89129E-03,   1.04719E-03
C:/temp/dataset/6/15_6.odb,Step-1,Increment      1: Step Time =    1.000,"PART-1-1",           455,      -2.54816,      -26.3074,            0.,NA,NA,"",   2.42427E-03,   1.23681E-03,  -2.08504E-03,   774.882E-06
C:/temp/dataset/6/15_6.odb,Step-1,Increment      1: Step Time =    1.000,"PART-1-1",           456,      -3.72120,      -25.1278,            0.,NA,NA,"",   3.94791E-03,   869.239E-06,  -3.85103E-03,   1.07541E-03
C:/temp/dataset/6/15_6.odb,Step-1,Increment      1: Step Time =    1.000,"PART-1-1",           457,      -4.84948,      -26.3734,            0.,NA,NA,"",   3.88478E-03,   1.04910E-03,  -3.74044E-03,   1.36778E-03
C:/temp/dataset/6/15_6.odb,Step-1,Increment      1: Step Time =    1.000,"PART-1-1",           458,      -4.94498,      -28.7931,            0.,NA,NA,"",   1.44209E-03,   817.696E-06,  -1.18785E-03,   1.33187E-03
C:/temp/dataset/6/15_6.odb,Step-1,Increment      1: Step Time =    1.000,"PART-1-1",           459,         -3.75,          -30.,            0.,NA,NA,"",            0.,   582.335E-42,  -1.93543E-39,   1.15897E-03
C:/temp/dataset/6/15_6.odb,Step-1,Increment      1: Step Time =    1.000,"PART-1-1",           460,      -6.07748,      -27.5364,            0.,NA,NA,"",   3.18254E-03,   839.520E-06,  -3.06982E-03,   1.61301E-03
C:/temp/dataset/6/15_6.odb,Step-1,Increment      1: Step Time =    1.000,"PART-1-1",           461,      -7.38250,      -28.7433,            0.,NA,NA,"",   1.83917E-03,   439.428E-06,  -1.78590E-03,   1.82155E-03
C:/temp/dataset/6/15_6.odb,Step-1,Increment      1: Step Time =    1.000,"PART-1-1",           462,         -6.25,          -30.,            0.,NA,NA,"",            0.,   498.174E-42,  -2.85816E-39,   1.55801E-03
C:/temp/dataset/6/15_6.odb,Step-1,Increment      1: Step Time =    1.000,"PART-1-1",           463,      -8.77755,      -24.1806,            0.,NA,NA,"",   12.2235E-03,  -3.18691E-03,  -11.8008E-03,   2.67432E-03
C:/temp/dataset/6/15_6.odb,Step-1,Increment      1: Step Time =    1.000,"PART-1-1",           464,      -9.92276,      -23.8066,            0.,NA,NA,"",   14.9312E-03,  -4.98319E-03,  -14.0751E-03,   2.92704E-03
C:/temp/dataset/6/15_6.odb,Step-1,Increment      1: Step Time =    1.000,"PART-1-1",           465,      -10.3347,      -25.6230,            0.,NA,NA,"",   10.3651E-03,  -3.42871E-03,  -9.78154E-03,   2.87896E-03
C:/temp/dataset/6/15_6.odb,Step-1,Increment      1: Step Time =    1.000,"PART-1-1",           466,       13.9544,      -21.3085,            0.,NA,NA,"",   7.42345E-03,  -3.82525E-03,   6.36200E-03,   936.895E-06
C:/temp/dataset/6/15_6.odb,Step-1,Increment      1: Step Time =    1.000,"PART-1-1",           467,       13.8855,      -23.5136,            0.,NA,NA,"",   4.92258E-03,  -1.97492E-03,   4.50904E-03,   881.660E-06
C:/temp/dataset/6/15_6.odb,Step-1,Increment      1: Step Time =    1.000,"PART-1-1",           468,           15.,      -22.3438,            0.,NA,NA,"",   7.23992E-03,  -3.33578E-03,   6.42565E-03,   1.09938E-03
C:/temp/dataset/6/15_6.odb,Step-1,Increment      1: Step Time =    1.000,"PART-1-1",           469,       12.7349,      -24.6944,            0.,NA,NA,"",   3.05537E-03,  -939.904E-06,   2.90721E-03,   690.002E-06
C:/temp/dataset/6/15_6.odb,Step-1,Increment      1: Step Time =    1.000,"PART-1-1",           470,       13.8494,      -25.7120,            0.,NA,NA,"",   2.97689E-03,  -928.357E-06,   2.82843E-03,   812.849E-06
C:/temp/dataset/6/15_6.odb,Step-1,Increment      1: Step Time =    1.000,"PART-1-1",           471,           15.,      -24.5313,            0.,NA,NA,"",   4.72350E-03,  -1.87637E-03,   4.33482E-03,   1.00672E-03
C:/temp/dataset/6/15_6.odb,Step-1,Increment      1: Step Time =    1.000,"PART-1-1",           472,         11.25,          -30.,            0.,NA,NA,"",            0.,   174.344E-42,   685.033E-42,   385.333E-06
C:/temp/dataset/6/15_6.odb,Step-1,Increment      1: Step Time =    1.000,"PART-1-1",           473,       13.9950,      -12.5232,            0.,NA,NA,"",   24.3762E-03,  -20.4920E-03,   13.2013E-03,   706.303E-06
C:/temp/dataset/6/15_6.odb,Step-1,Increment      1: Step Time =    1.000,"PART-1-1",           474,       12.9942,      -13.6844,            0.,NA,NA,"",   19.9886E-03,  -17.2156E-03,   10.1573E-03,   620.513E-06
C:/temp/dataset/6/15_6.odb,Step-1,Increment      1: Step Time =    1.000,"PART-1-1",           475,           15.,      -13.5938,            0.,NA,NA,"",   23.4765E-03,  -18.1251E-03,   14.9207E-03,   906.647E-06
C:/temp/dataset/6/15_6.odb,Step-1,Increment      1: Step Time =    1.000,"PART-1-1",           476,       9.85236,      -17.2546,            0.,NA,NA,"",   9.06396E-03,  -8.59914E-03,   2.86533E-03,   302.557E-06
C:/temp/dataset/6/15_6.odb,Step-1,Increment      1: Step Time =    1.000,"PART-1-1",           477,       8.68427,      -17.7513,            0.,NA,NA,"",   7.57923E-03,  -7.51436E-03,   989.514E-06,   275.716E-06
C:/temp/dataset/6/15_6.odb,Step-1,Increment      1: Step Time =    1.000,"PART-1-1",           478,       8.96140,      -18.9835,            0.,NA,NA,"",   5.56644E-03,  -5.40284E-03,   1.33965E-03,   251.606E-06
C:/temp/dataset/6/15_6.odb,Step-1,Increment      1: Step Time =    1.000,"PART-1-1",           479,       10.1295,      -18.4868,            0.,NA,NA,"",   7.08730E-03,  -6.40897E-03,   3.02572E-03,   336.927E-06
C:/temp/dataset/6/15_6.odb,Step-1,Increment      1: Step Time =    1.000,"PART-1-1",           480,       11.2436,      -18.3856,            0.,NA,NA,"",   8.27498E-03,  -6.82843E-03,   4.67417E-03,   471.656E-06
C:/temp/dataset/6/15_6.odb,Step-1,Increment      1: Step Time =    1.000,"PART-1-1",           481,       12.3956,      -19.2305,            0.,NA,NA,"",   8.30244E-03,  -5.83520E-03,   5.90601E-03,   661.390E-06
C:/temp/dataset/6/15_6.odb,Step-1,Increment      1: Step Time =    1.000,"PART-1-1",           482,       13.1120,      -18.1414,            0.,NA,NA,"",   10.9347E-03,  -7.80345E-03,   7.65990E-03,   756.259E-06
C:/temp/dataset/6/15_6.odb,Step-1,Increment      1: Step Time =    1.000,"PART-1-1",           483,       11.9600,      -17.2965,            0.,NA,NA,"",   10.9416E-03,  -8.95781E-03,   6.28294E-03,   565.556E-06
C:/temp/dataset/6/15_6.odb,Step-1,Increment      1: Step Time =    1.000,"PART-1-1",           484,       14.0024,      -3.77677,            0.,NA,NA,"",   50.2272E-03,  -47.2312E-03,   17.0876E-03,   305.158E-06
C:/temp/dataset/6/15_6.odb,Step-1,Increment      1: Step Time =    1.000,"PART-1-1",           485,       13.0359,      -4.87313,            0.,NA,NA,"",   45.5693E-03,  -43.4372E-03,   13.7755E-03,   339.151E-06
C:/temp/dataset/6/15_6.odb,Step-1,Increment      1: Step Time =    1.000,"PART-1-1",           486,       14.0335,      -5.94012,            0.,NA,NA,"",   43.3656E-03,  -40.0920E-03,   16.5288E-03,   406.687E-06
C:/temp/dataset/6/15_6.odb,Step-1,Increment      1: Step Time =    1.000,"PART-1-1",           487,           15.,      -4.84375,            0.,NA,NA,"",   48.1944E-03,  -43.8489E-03,   19.9994E-03,   395.891E-06
C:/temp/dataset/6/15_6.odb,Step-1,Increment      1: Step Time =    1.000,"PART-1-1",           488,       13.0510,      -7.01836,            0.,NA,NA,"",   38.7595E-03,  -36.4461E-03,   13.1900E-03,   406.145E-06
C:/temp/dataset/6/15_6.odb,Step-1,Increment      1: Step Time =    1.000,"PART-1-1",           489,       14.0175,      -8.10950,            0.,NA,NA,"",   36.6998E-03,  -33.2103E-03,   15.6190E-03,   504.734E-06
C:/temp/dataset/6/15_6.odb,Step-1,Increment      1: Step Time =    1.000,"PART-1-1",           490,           15.,      -7.03125,            0.,NA,NA,"",   41.4696E-03,  -36.8065E-03,   19.1052E-03,   523.649E-06
C:/temp/dataset/6/15_6.odb,Step-1,Increment      1: Step Time =    1.000,"PART-1-1",           491,         13.75,            5.,            0.,NA,NA,"",   78.5222E-03,  -76.6469E-03,   17.0585E-03,   5.56088E-06
C:/temp/dataset/6/15_6.odb,Step-1,Increment      1: Step Time =    1.000,"PART-1-1",           492,       12.4982,       3.90020,            0.,NA,NA,"",   74.2264E-03,  -73.0750E-03,   13.0229E-03,   47.0907E-06
C:/temp/dataset/6/15_6.odb,Step-1,Increment      1: Step Time =    1.000,"PART-1-1",           493,       13.7482,       2.80645,            0.,NA,NA,"",   71.5302E-03,  -69.4680E-03,   17.0520E-03,   45.0982E-06
C:/temp/dataset/6/15_6.odb,Step-1,Increment      1: Step Time =    1.000,"PART-1-1",           494,           15.,       3.90625,            0.,NA,NA,"",   76.0845E-03,  -73.0883E-03,   21.1414E-03,   6.65294E-06
C:/temp/dataset/6/15_6.odb,Step-1,Increment      1: Step Time =    1.000,"PART-1-1",           495,         11.25,            5.,            0.,NA,NA,"",   77.1904E-03,  -76.6609E-03,   9.02642E-03,   58.8311E-06
C:/temp/dataset/6/15_6.odb,Step-1,Increment      1: Step Time =    1.000,"PART-1-1",           496,       11.2740,       2.82937,            0.,NA,NA,"",   70.1813E-03,  -69.5810E-03,   9.15965E-03,   148.979E-06
C:/temp/dataset/6/15_6.odb,Step-1,Increment      1: Step Time =    1.000,"PART-1-1",           497,       11.1422,   446.578E-03,            0.,NA,NA,"",   62.0950E-03,  -61.4804E-03,   8.71474E-03,   243.010E-06
C:/temp/dataset/6/15_6.odb,Step-1,Increment      1: Step Time =    1.000,"PART-1-1",           498,       10.2035,  -836.101E-03,            0.,NA,NA,"",   57.3060E-03,  -57.0150E-03,   5.76789E-03,   307.862E-06
C:/temp/dataset/6/15_6.odb,Step-1,Increment      1: Step Time =    1.000,"PART-1-1",           499,       11.7017,      -1.82731,            0.,NA,NA,"",   54.6116E-03,  -53.6420E-03,   10.2455E-03,   279.997E-06
C:/temp/dataset/6/15_6.odb,Step-1,Increment      1: Step Time =    1.000,"PART-1-1",           500,       12.5035,       1.67834,            0.,NA,NA,"",   66.9668E-03,  -65.6879E-03,   13.0254E-03,   141.096E-06
C:/temp/dataset/6/15_6.odb,Step-1,Increment      1: Step Time =    1.000,"PART-1-1",           501,       9.91277,       1.59761,            0.,NA,NA,"",   65.6641E-03,  -65.4771E-03,   4.95229E-03,   248.107E-06
C:/temp/dataset/6/15_6.odb,Step-1,Increment      1: Step Time =    1.000,"PART-1-1",           502,       5.19643,       3.92738,            0.,NA,NA,"",   74.9969E-03,  -74.3455E-03,  -9.86358E-03,   423.585E-06
C:/temp/dataset/6/15_6.odb,Step-1,Increment      1: Step Time =    1.000,"PART-1-1",           503,          3.75,            5.,            0.,NA,NA,"",   79.9879E-03,  -78.6047E-03,  -14.8109E-03,   616.284E-06
C:/temp/dataset/6/15_6.odb,Step-1,Increment      1: Step Time =    1.000,"PART-1-1",           504,       2.66615,       3.61346,            0.,NA,NA,"",   76.4648E-03,  -74.3028E-03,  -18.0544E-03,   581.840E-06
C:/temp/dataset/6/15_6.odb,Step-1,Increment      1: Step Time =    1.000,"PART-1-1",           505,      -1.00804,       2.95894,            0.,NA,NA,"",   79.8849E-03,  -73.6350E-03,  -30.9755E-03,   830.152E-06
C:/temp/dataset/6/15_6.odb,Step-1,Increment      1: Step Time =    1.000,"PART-1-1",           506,   87.8012E-03,       3.95476,            0.,NA,NA,"",   81.8347E-03,  -77.1716E-03,  -27.2298E-03,   863.799E-06
C:/temp/dataset/6/15_6.odb,Step-1,Increment      1: Step Time =    1.000,"PART-1-1",           507,         -1.25,            5.,            0.,NA,NA,"",   88.9052E-03,  -82.6074E-03,  -32.8657E-03,   1.34086E-03
C:/temp/dataset/6/15_6.odb,Step-1,Increment      1: Step Time =    1.000,"PART-1-1",           508,      -2.34584,       4.00418,            0.,NA,NA,"",   87.6741E-03,  -79.6682E-03,  -36.6024E-03,   1.20322E-03
C:/temp/dataset/6/15_6.odb,Step-1,Increment      1: Step Time =    1.000,"PART-1-1",           509,      -3.27281,       2.96378,            0.,NA,NA,"",   85.1512E-03,  -75.0641E-03,  -40.2010E-03,   717.164E-06
C:/temp/dataset/6/15_6.odb,Step-1,Increment      1: Step Time =    1.000,"PART-1-1",           510,         -3.75,            5.,            0.,NA,NA,"",   96.8822E-03,  -86.5890E-03,  -43.4569E-03,   2.37807E-03
C:/temp/dataset/6/15_6.odb,Step-1,Increment      1: Step Time =    1.000,"PART-1-1",           511,      -4.67697,       3.95960,            0.,NA,NA,"",   94.4055E-03,  -81.8285E-03,  -47.0797E-03,   1.44910E-03
C:/temp/dataset/6/15_6.odb,Step-1,Increment      1: Step Time =    1.000,"PART-1-1",           512,      -7.93004,       8.58536,            0.,NA,NA,"",   152.504E-03,  -130.246E-03,  -79.3308E-03,   1.28107E-03
C:/temp/dataset/6/15_6.odb,Step-1,Increment      1: Step Time =    1.000,"PART-1-1",           513,      -8.65034,       7.25415,            0.,NA,NA,"",   143.939E-03,  -115.837E-03,  -85.4417E-03,   2.08805E-03
C:/temp/dataset/6/15_6.odb,Step-1,Increment      1: Step Time =    1.000,"PART-1-1",           514,      -7.51010,       6.50150,            0.,NA,NA,"",   129.097E-03,  -106.954E-03,  -72.2969E-03,   1.18181E-03
C:/temp/dataset/6/15_6.odb,Step-1,Increment      1: Step Time =    1.000,"PART-1-1",           515,      -6.78981,       7.83270,            0.,NA,NA,"",   137.707E-03,  -121.109E-03,  -65.5423E-03,   368.476E-06
C:/temp/dataset/6/15_6.odb,Step-1,Increment      1: Step Time =    1.000,"PART-1-1",           516,      -7.08495,       12.0475,            0.,NA,NA,"",   189.045E-03,  -175.108E-03,  -71.2403E-03,   505.002E-06
C:/temp/dataset/6/15_6.odb,Step-1,Increment      1: Step Time =    1.000,"PART-1-1",           517,      -6.02998,       11.1050,            0.,NA,NA,"",   171.472E-03,  -161.993E-03,  -56.2222E-03,   371.921E-06
C:/temp/dataset/6/15_6.odb,Step-1,Increment      1: Step Time =    1.000,"PART-1-1",           518,           -5.,       12.2917,            0.,NA,NA,"",   183.828E-03,  -179.218E-03,  -40.9104E-03,   1.26395E-03
C:/temp/dataset/6/15_6.odb,Step-1,Increment      1: Step Time =    1.000,"PART-1-1",           519,      -6.05497,       13.2342,            0.,NA,NA,"",   200.755E-03,  -192.765E-03,  -56.0754E-03,   398.241E-06
C:/temp/dataset/6/15_6.odb,Step-1,Increment      1: Step Time =    1.000,"PART-1-1",           520,      -9.96524,       21.0498,            0.,NA,NA,"",   364.611E-03,  -337.360E-03,  -138.310E-03,   2.95734E-03
C:/temp/dataset/6/15_6.odb,Step-1,Increment      1: Step Time =    1.000,"PART-1-1",           521,      -8.51702,       20.1362,            0.,NA,NA,"",   334.084E-03,  -316.976E-03,  -105.537E-03,   1.67647E-03
C:/temp/dataset/6/15_6.odb,Step-1,Increment      1: Step Time =    1.000,"PART-1-1",           522,      -8.09442,       21.6565,            0.,NA,NA,"",   362.891E-03,  -349.163E-03,  -98.8693E-03,   1.28599E-03
C:/temp/dataset/6/15_6.odb,Step-1,Increment      1: Step Time =    1.000,"PART-1-1",           523,      -9.54264,       22.5701,            0.,NA,NA,"",   393.533E-03,  -370.350E-03,  -133.075E-03,   2.56384E-03
C:/temp/dataset/6/15_6.odb,Step-1,Increment      1: Step Time =    1.000,"PART-1-1",           524,      -7.38593,       19.0122,            0.,NA,NA,"",   304.859E-03,  -293.874E-03,  -81.1003E-03,   686.449E-06
C:/temp/dataset/6/15_6.odb,Step-1,Increment      1: Step Time =    1.000,"PART-1-1",           525,      -6.14460,       17.5723,            0.,NA,NA,"",   272.291E-03,  -266.326E-03,  -56.6838E-03,   394.100E-06
C:/temp/dataset/6/15_6.odb,Step-1,Increment      1: Step Time =    1.000,"PART-1-1",           526,           -5.,       18.5417,            0.,NA,NA,"",   287.533E-03,  -285.488E-03,  -34.2383E-03,   1.41479E-03
C:/temp/dataset/6/15_6.odb,Step-1,Increment      1: Step Time =    1.000,"PART-1-1",           527,      -9.12859,       24.1056,            0.,NA,NA,"",   425.088E-03,  -405.651E-03,  -127.071E-03,   2.15688E-03
C:/temp/dataset/6/15_6.odb,Step-1,Increment      1: Step Time =    1.000,"PART-1-1",           528,      -7.82088,       23.2603,            0.,NA,NA,"",   396.749E-03,  -385.270E-03,  -94.7482E-03,   1.02081E-03
C:/temp/dataset/6/15_6.odb,Step-1,Increment      1: Step Time =    1.000,"PART-1-1",           529,      -7.11221,       24.6459,            0.,NA,NA,"",   425.640E-03,  -418.223E-03,  -79.1116E-03,   328.978E-06
C:/temp/dataset/6/15_6.odb,Step-1,Increment      1: Step Time =    1.000,"PART-1-1",           530,      -8.41993,       25.4912,            0.,NA,NA,"",   453.192E-03,  -439.063E-03,  -112.278E-03,   1.40149E-03
C:/temp/dataset/6/15_6.odb,Step-1,Increment      1: Step Time =    1.000,"PART-1-1",           531,           -5.,       28.9583,            0.,NA,NA,"",   531.610E-03,  -530.989E-03,  -25.6879E-03,   290.169E-06
C:/temp/dataset/6/15_6.odb,Step-1,Increment      1: Step Time =    1.000,"PART-1-1",           532,         -6.25,           30.,            0.,NA,NA,"",   561.432E-03,  -558.322E-03,  -59.0187E-03,   316.213E-06
C:/temp/dataset/6/15_6.odb,Step-1,Increment      1: Step Time =    1.000,"PART-1-1",           533,      -6.22481,       27.8751,            0.,NA,NA,"",   504.789E-03,  -501.487E-03,  -57.6362E-03,   635.255E-06
C:/temp/dataset/6/15_6.odb,Step-1,Increment      1: Step Time =    1.000,"PART-1-1",           534,      -11.1386,       27.5393,            0.,NA,NA,"",   528.960E-03,  -493.815E-03,  -189.591E-03,   4.77859E-03
C:/temp/dataset/6/15_6.odb,Step-1,Increment      1: Step Time =    1.000,"PART-1-1",           535,        -11.25,           30.,            0.,NA,NA,"",   598.519E-03,  -562.010E-03,  -205.839E-03,   5.20298E-03
C:/temp/dataset/6/15_6.odb,Step-1,Increment      1: Step Time =    1.000,"PART-1-1",           536,      -13.1147,       13.7606,            0.,NA,NA,"",   267.313E-03,  -208.326E-03,  -167.500E-03,   5.67452E-03
C:/temp/dataset/6/15_6.odb,Step-1,Increment      1: Step Time =    1.000,"PART-1-1",           537,      -14.0658,       14.9906,            0.,NA,NA,"",   298.674E-03,  -230.566E-03,  -189.856E-03,   6.52514E-03
C:/temp/dataset/6/15_6.odb,Step-1,Increment      1: Step Time =    1.000,"PART-1-1",           538,          -15.,         13.75,            0.,NA,NA,"",   290.553E-03,  -213.450E-03,  -197.129E-03,   7.32436E-03
C:/temp/dataset/6/15_6.odb,Step-1,Increment      1: Step Time =    1.000,"PART-1-1",           539,      -9.42834,       18.6970,            0.,NA,NA,"",   313.052E-03,  -288.721E-03,  -121.002E-03,   2.48362E-03
C:/temp/dataset/6/15_6.odb,Step-1,Increment      1: Step Time =    1.000,"PART-1-1",           540,      -8.29725,       17.5730,            0.,NA,NA,"",   283.605E-03,  -266.486E-03,  -97.0430E-03,   1.49588E-03
C:/temp/dataset/6/15_6.odb,Step-1,Increment      1: Step Time =    1.000,"PART-1-1",           541,      -12.7588,       6.21303,            0.,NA,NA,"",   168.234E-03,  -112.321E-03,  -125.246E-03,   5.22155E-03
C:/temp/dataset/6/15_6.odb,Step-1,Increment      1: Step Time =    1.000,"PART-1-1",           542,          -15.,          6.25,            0.,NA,NA,"",   189.571E-03,  -118.779E-03,  -147.745E-03,   7.03146E-03
C:/temp/dataset/6/15_6.odb,Step-1,Increment      1: Step Time =    1.000,"PART-1-1",           543,      -9.01063,       9.47069,            0.,NA,NA,"",   170.030E-03,  -141.714E-03,  -93.9535E-03,   2.18455E-03
C:/temp/dataset/6/15_6.odb,Step-1,Increment      1: Step Time =    1.000,"PART-1-1",           544,      -10.0811,       10.4578,            0.,NA,NA,"",   190.525E-03,  -155.440E-03,  -110.174E-03,   3.04960E-03
C:/temp/dataset/6/15_6.odb,Step-1,Increment      1: Step Time =    1.000,"PART-1-1",           545,      -10.9384,       9.05000,            0.,NA,NA,"",   181.560E-03,  -139.121E-03,  -116.660E-03,   3.80827E-03
C:/temp/dataset/6/15_6.odb,Step-1,Increment      1: Step Time =    1.000,"PART-1-1",           546,      -9.86794,       8.06293,            0.,NA,NA,"",   161.506E-03,  -126.101E-03,  -100.910E-03,   2.95037E-03
C:/temp/dataset/6/15_6.odb,Step-1,Increment      1: Step Time =    1.000,"PART-1-1",           547,      -7.23366,       1.29985,            0.,NA,NA,"",   91.9036E-03,  -66.9354E-03,  -62.9756E-03,   1.60536E-03
C:/temp/dataset/6/15_6.odb,Step-1,Increment      1: Step Time =    1.000,"PART-1-1",           548,      -8.34685,   784.410E-03,            0.,NA,NA,"",   95.3577E-03,  -64.9449E-03,  -69.8230E-03,   2.26125E-03
C:/temp/dataset/6/15_6.odb,Step-1,Increment      1: Step Time =    1.000,"PART-1-1",           549,      -7.43977,  -685.632E-03,            0.,NA,NA,"",   83.8664E-03,  -56.8740E-03,  -61.6354E-03,   1.75678E-03
C:/temp/dataset/6/15_6.odb,Step-1,Increment      1: Step Time =    1.000,"PART-1-1",           550,      -12.4903,      -8.57964,            0.,NA,NA,"",   72.8752E-03,  -34.4308E-03,  -64.2286E-03,   3.81693E-03
C:/temp/dataset/6/15_6.odb,Step-1,Increment      1: Step Time =    1.000,"PART-1-1",           551,          -15.,         -8.75,            0.,NA,NA,"",   80.9140E-03,  -38.5935E-03,  -71.1169E-03,   4.41557E-03
C:/temp/dataset/6/15_6.odb,Step-1,Increment      1: Step Time =    1.000,"PART-1-1",           552,      -13.5658,      -9.92286,            0.,NA,NA,"",   70.8671E-03,  -32.9097E-03,  -62.7623E-03,   3.96612E-03
C:/temp/dataset/6/15_6.odb,Step-1,Increment      1: Step Time =    1.000,"PART-1-1",           553,      -11.9783,      -7.15971,            0.,NA,NA,"",   77.0297E-03,  -37.5520E-03,  -67.2565E-03,   3.72259E-03
C:/temp/dataset/6/15_6.odb,Step-1,Increment      1: Step Time =    1.000,"PART-1-1",           554,      -11.8960,      -5.22799,            0.,NA,NA,"",   85.3392E-03,  -43.5477E-03,  -73.3920E-03,   3.79740E-03
C:/temp/dataset/6/15_6.odb,Step-1,Increment      1: Step Time =    1.000,"PART-1-1",           555,      -12.4565,      -16.3452,            0.,NA,NA,"",   43.4533E-03,  -18.9331E-03,  -39.1117E-03,   3.39706E-03
C:/temp/dataset/6/15_6.odb,Step-1,Increment      1: Step Time =    1.000,"PART-1-1",           556,          -15.,        -16.25,            0.,NA,NA,"",   49.7057E-03,  -23.0954E-03,  -44.0143E-03,   3.67033E-03
C:/temp/dataset/6/15_6.odb,Step-1,Increment      1: Step Time =    1.000,"PART-1-1",           557,      -13.7435,      -17.5611,            0.,NA,NA,"",   42.2596E-03,  -19.0509E-03,  -37.7218E-03,   3.45581E-03
C:/temp/dataset/6/15_6.odb,Step-1,Increment      1: Step Time =    1.000,"PART-1-1",           558,      -9.99221,      -8.41662,            0.,NA,NA,"",   64.3413E-03,  -31.0546E-03,  -56.3508E-03,   3.14494E-03
C:/temp/dataset/6/15_6.odb,Step-1,Increment      1: Step Time =    1.000,"PART-1-1",           559,      -11.4633,      -9.12095,            0.,NA,NA,"",   66.9496E-03,  -31.3687E-03,  -59.1461E-03,   3.51811E-03
C:/temp/dataset/6/15_6.odb,Step-1,Increment      1: Step Time =    1.000,"PART-1-1",           560,      -10.8070,      -10.1141,            0.,NA,NA,"",   60.8584E-03,  -27.9610E-03,  -54.0549E-03,   3.36364E-03
C:/temp/dataset/6/15_6.odb,Step-1,Increment      1: Step Time =    1.000,"PART-1-1",           561,      -13.9189,      -24.9166,            0.,NA,NA,"",   18.1617E-03,  -9.23334E-03,  -15.6395E-03,   3.36738E-03
C:/temp/dataset/6/15_6.odb,Step-1,Increment      1: Step Time =    1.000,"PART-1-1",           562,      -12.9076,      -23.6273,            0.,NA,NA,"",   20.4553E-03,  -9.33160E-03,  -18.2027E-03,   3.32420E-03
C:/temp/dataset/6/15_6.odb,Step-1,Increment      1: Step Time =    1.000,"PART-1-1",           563,          -15.,        -23.75,            0.,NA,NA,"",   23.9475E-03,  -12.3297E-03,  -20.5295E-03,   3.39371E-03
C:/temp/dataset/6/15_6.odb,Step-1,Increment      1: Step Time =    1.000,"PART-1-1",           564,          -15.,        -28.75,            0.,NA,NA,"",   6.78677E-03,  -4.78427E-03,  -4.81362E-03,   4.15147E-03
C:/temp/dataset/6/15_6.odb,Step-1,Increment      1: Step Time =    1.000,"PART-1-1",           565,        -13.75,          -30.,            0.,NA,NA,"",            0.,  -373.101E-42,  -5.64956E-39,   3.87627E-03
C:/temp/dataset/6/15_6.odb,Step-1,Increment      1: Step Time =    1.000,"PART-1-1",           566,      -13.7642,      -27.4123,            0.,NA,NA,"",   9.33953E-03,  -5.34532E-03,  -7.65862E-03,   3.48761E-03
C:/temp/dataset/6/15_6.odb,Step-1,Increment      1: Step Time =    1.000,"PART-1-1",           567,            5.,      -6.25625,            0.,NA,NA,"",   39.8266E-03,  -38.5015E-03,  -10.1878E-03,   140.783E-06
C:/temp/dataset/6/15_6.odb,Step-1,Increment      1: Step Time =    1.000,"PART-1-1",           568,       7.03347,      -6.11658,            0.,NA,NA,"",   39.0706E-03,  -38.8634E-03,  -4.01929E-03,   176.313E-06
C:/temp/dataset/6/15_6.odb,Step-1,Increment      1: Step Time =    1.000,"PART-1-1",           569,       6.04361,      -4.83741,            0.,NA,NA,"",   43.5191E-03,  -42.9462E-03,  -7.03810E-03,   136.846E-06
C:/temp/dataset/6/15_6.odb,Step-1,Increment      1: Step Time =    1.000,"PART-1-1",           570,           15.,      -2.65625,            0.,NA,NA,"",   55.1331E-03,  -51.1257E-03,   20.6354E-03,   264.146E-06
C:/temp/dataset/6/15_6.odb,Step-1,Increment      1: Step Time =    1.000,"PART-1-1",           571,       12.8875,      -2.72454,            0.,NA,NA,"",   52.5032E-03,  -50.6609E-03,   13.7864E-03,   276.857E-06
C:/temp/dataset/6/15_6.odb,Step-1,Increment      1: Step Time =    1.000,"PART-1-1",           572,       10.0248,      -7.91896,            0.,NA,NA,"",   33.5107E-03,  -33.2175E-03,   4.42309E-03,   284.831E-06
C:/temp/dataset/6/15_6.odb,Step-1,Increment      1: Step Time =    1.000,"PART-1-1",           573,       8.98203,      -8.99604,            0.,NA,NA,"",   29.8748E-03,  -29.8366E-03,   1.50989E-03,   250.437E-06
C:/temp/dataset/6/15_6.odb,Step-1,Increment      1: Step Time =    1.000,"PART-1-1",           574,       9.98204,      -10.2112,            0.,NA,NA,"",   26.5429E-03,  -26.2351E-03,   4.03058E-03,   284.205E-06
C:/temp/dataset/6/15_6.odb,Step-1,Increment      1: Step Time =    1.000,"PART-1-1",           575,            5.,      -11.2813,            0.,NA,NA,"",   25.0906E-03,  -23.4964E-03,  -8.80096E-03,   454.082E-06
C:/temp/dataset/6/15_6.odb,Step-1,Increment      1: Step Time =    1.000,"PART-1-1",           576,       6.96001,      -11.3098,            0.,NA,NA,"",   23.3978E-03,  -23.1215E-03,  -3.58545E-03,   281.096E-06
C:/temp/dataset/6/15_6.odb,Step-1,Increment      1: Step Time =    1.000,"PART-1-1",           577,       12.1169,      -5.93459,            0.,NA,NA,"",   41.2355E-03,  -39.8105E-03,   10.7469E-03,   344.678E-06
C:/temp/dataset/6/15_6.odb,Step-1,Increment      1: Step Time =    1.000,"PART-1-1",           578,       11.1088,      -6.97100,            0.,NA,NA,"",   37.1143E-03,  -36.3270E-03,   7.60396E-03,   332.736E-06
C:/temp/dataset/6/15_6.odb,Step-1,Increment      1: Step Time =    1.000,"PART-1-1",           579,           15.,      -11.4063,            0.,NA,NA,"",   29.0305E-03,  -23.8375E-03,   16.5694E-03,   777.575E-06
C:/temp/dataset/6/15_6.odb,Step-1,Increment      1: Step Time =    1.000,"PART-1-1",           580,       13.9991,      -10.3053,            0.,NA,NA,"",   30.3207E-03,  -26.6308E-03,   14.4964E-03,   603.625E-06
C:/temp/dataset/6/15_6.odb,Step-1,Increment      1: Step Time =    1.000,"PART-1-1",           581,       12.9941,      -11.4223,            0.,NA,NA,"",   25.8016E-03,  -23.2021E-03,   11.2865E-03,   546.467E-06
C:/temp/dataset/6/15_6.odb,Step-1,Increment      1: Step Time =    1.000,"PART-1-1",           582,           15.,      -9.21875,            0.,NA,NA,"",   35.0542E-03,  -30.1024E-03,   17.9622E-03,   649.594E-06
C:/temp/dataset/6/15_6.odb,Step-1,Increment      1: Step Time =    1.000,"PART-1-1",           583,       9.25975,      -25.9916,            0.,NA,NA,"",   637.141E-06,   159.806E-06,   616.774E-06,   205.513E-06
C:/temp/dataset/6/15_6.odb,Step-1,Increment      1: Step Time =    1.000,"PART-1-1",           584,       7.97004,      -27.0667,            0.,NA,NA,"",   408.004E-06,   385.997E-06,   132.190E-06,   94.2007E-06
C:/temp/dataset/6/15_6.odb,Step-1,Increment      1: Step Time =    1.000,"PART-1-1",           585,       9.98268,      -20.3187,            0.,NA,NA,"",   4.39864E-03,  -3.71753E-03,   2.35116E-03,   320.276E-06
C:/temp/dataset/6/15_6.odb,Step-1,Increment      1: Step Time =    1.000,"PART-1-1",           586,       8.47236,      -19.9740,            0.,NA,NA,"",   3.92640E-03,  -3.87225E-03,   649.809E-06,   229.907E-06
C:/temp/dataset/6/15_6.odb,Step-1,Increment      1: Step Time =    1.000,"PART-1-1",           587,       7.80775,      -21.2882,            0.,NA,NA,"",   2.30932E-03,  -2.30870E-03,  -53.5005E-06,   186.793E-06
C:/temp/dataset/6/15_6.odb,Step-1,Increment      1: Step Time =    1.000,"PART-1-1",           588,       9.31806,      -21.6330,            0.,NA,NA,"",   2.57249E-03,  -2.19029E-03,   1.34920E-03,   216.589E-06
C:/temp/dataset/6/15_6.odb,Step-1,Increment      1: Step Time =    1.000,"PART-1-1",           589,          3.75,          -20.,            0.,NA,NA,"",   2.78753E-03,  -2.57148E-03,  -1.07601E-03,   609.550E-06
C:/temp/dataset/6/15_6.odb,Step-1,Increment      1: Step Time =    1.000,"PART-1-1",           590,       2.69482,      -20.9389,            0.,NA,NA,"",   2.50101E-03,  -2.34202E-03,  -877.488E-06,   297.671E-06
C:/temp/dataset/6/15_6.odb,Step-1,Increment      1: Step Time =    1.000,"PART-1-1",           591,       4.10336,      -21.5712,            0.,NA,NA,"",   2.61961E-03,  -2.24730E-03,  -1.34611E-03,   674.922E-06
C:/temp/dataset/6/15_6.odb,Step-1,Increment      1: Step Time =    1.000,"PART-1-1",           592,       5.15854,      -20.6323,            0.,NA,NA,"",   3.53087E-03,  -2.83160E-03,  -2.10929E-03,   958.268E-06
C:/temp/dataset/6/15_6.odb,Step-1,Increment      1: Step Time =    1.000,"PART-1-1",           593,          1.25,          -20.,            0.,NA,NA,"",   2.73146E-03,  -2.60108E-03,  -833.791E-06,   236.949E-06
C:/temp/dataset/6/15_6.odb,Step-1,Increment      1: Step Time =    1.000,"PART-1-1",           594,       1.58638,      -22.3782,            0.,NA,NA,"",   1.65151E-03,  -1.46893E-03,  -754.820E-06,   467.284E-06
C:/temp/dataset/6/15_6.odb,Step-1,Increment      1: Step Time =    1.000,"PART-1-1",           595,      -7.18878,      -21.5166,            0.,NA,NA,"",   16.4384E-03,  -4.84830E-03,  -15.7072E-03,   2.62329E-03
C:/temp/dataset/6/15_6.odb,Step-1,Increment      1: Step Time =    1.000,"PART-1-1",           596,      -8.69544,      -20.4918,            0.,NA,NA,"",   22.3060E-03,  -7.99489E-03,  -20.8240E-03,   2.74679E-03
C:/temp/dataset/6/15_6.odb,Step-1,Increment      1: Step Time =    1.000,"PART-1-1",           597,      -9.53108,      -21.9939,            0.,NA,NA,"",   19.5301E-03,  -6.85783E-03,  -18.2865E-03,   2.88924E-03
C:/temp/dataset/6/15_6.odb,Step-1,Increment      1: Step Time =    1.000,"PART-1-1",           598,      -8.02442,      -23.0186,            0.,NA,NA,"",   14.0633E-03,  -3.68597E-03,  -13.5717E-03,   2.65631E-03
C:/temp/dataset/6/15_6.odb,Step-1,Increment      1: Step Time =    1.000,"PART-1-1",           599,           -5.,      -18.7437,            0.,NA,NA,"",   18.8869E-03,  -6.54514E-03,  -17.7166E-03,   3.47362E-03
C:/temp/dataset/6/15_6.odb,Step-1,Increment      1: Step Time =    1.000,"PART-1-1",           600,      -6.23242,      -17.5731,            0.,NA,NA,"",   24.9371E-03,  -9.36011E-03,  -23.1138E-03,   2.89772E-03
C:/temp/dataset/6/15_6.odb,Step-1,Increment      1: Step Time =    1.000,"PART-1-1",           601,      -7.41830,      -18.9573,            0.,NA,NA,"",   23.8525E-03,  -8.99758E-03,  -22.0904E-03,   2.57759E-03
C:/temp/dataset/6/15_6.odb,Step-1,Increment      1: Step Time =    1.000,"PART-1-1",           602,      -6.18588,      -20.1280,            0.,NA,NA,"",   17.9833E-03,  -6.29848E-03,  -16.8442E-03,   2.81186E-03
C:/temp/dataset/6/15_6.odb,Step-1,Increment      1: Step Time =    1.000,"PART-1-1",           603,           -5.,      -16.2312,            0.,NA,NA,"",   26.4822E-03,  -9.33767E-03,  -24.7813E-03,   2.70122E-03
C:/temp/dataset/6/15_6.odb,Step-1,Increment      1: Step Time =    1.000,"PART-1-1",           604,      -7.44257,      -16.3835,            0.,NA,NA,"",   31.1261E-03,  -12.2272E-03,  -28.6239E-03,   2.87627E-03
C:/temp/dataset/6/15_6.odb,Step-1,Increment      1: Step Time =    1.000,"PART-1-1",           605,      -12.6830,      -26.0788,            0.,NA,NA,"",   12.1586E-03,  -5.84891E-03,  -10.6593E-03,   3.31236E-03
C:/temp/dataset/6/15_6.odb,Step-1,Increment      1: Step Time =    1.000,"PART-1-1",           606,          -15.,        -26.25,            0.,NA,NA,"",   15.9628E-03,  -9.15414E-03,  -13.0772E-03,   3.46619E-03
C:/temp/dataset/6/15_6.odb,Step-1,Increment      1: Step Time =    1.000,"PART-1-1",           607,         -8.75,          -30.,            0.,NA,NA,"",            0.,   196.979E-42,  -3.76685E-39,   1.97193E-03
C:/temp/dataset/6/15_6.odb,Step-1,Increment      1: Step Time =    1.000,"PART-1-1",           608,          -15.,        -18.75,            0.,NA,NA,"",   40.8134E-03,  -19.2438E-03,  -35.9918E-03,   3.51320E-03
C:/temp/dataset/6/15_6.odb,Step-1,Increment      1: Step Time =    1.000,"PART-1-1",           609,      -12.5734,      -18.8685,            0.,NA,NA,"",   35.2895E-03,  -15.3729E-03,  -31.7652E-03,   3.30840E-03
C:/temp/dataset/6/15_6.odb,Step-1,Increment      1: Step Time =    1.000,"PART-1-1",           610,           -5.,      -11.2063,            0.,NA,NA,"",   39.8610E-03,  -18.4966E-03,  -35.3098E-03,   2.08517E-03
C:/temp/dataset/6/15_6.odb,Step-1,Increment      1: Step Time =    1.000,"PART-1-1",           611,      -7.25264,      -11.4522,            0.,NA,NA,"",   45.1525E-03,  -20.3263E-03,  -40.3185E-03,   2.61550E-03
C:/temp/dataset/6/15_6.odb,Step-1,Increment      1: Step Time =    1.000,"PART-1-1",           612,           -5.,      -6.23750,            0.,NA,NA,"",   54.6075E-03,  -32.8362E-03,  -43.6322E-03,   1.81967E-03
C:/temp/dataset/6/15_6.odb,Step-1,Increment      1: Step Time =    1.000,"PART-1-1",           613,      -6.16987,      -5.46941,            0.,NA,NA,"",   61.1942E-03,  -36.6843E-03,  -48.9795E-03,   1.75471E-03
C:/temp/dataset/6/15_6.odb,Step-1,Increment      1: Step Time =    1.000,"PART-1-1",           614,      -7.24309,      -6.98789,            0.,NA,NA,"",   59.5561E-03,  -32.1119E-03,  -50.1573E-03,   2.22993E-03
C:/temp/dataset/6/15_6.odb,Step-1,Increment      1: Step Time =    1.000,"PART-1-1",           615,           -5.,       16.4583,            0.,NA,NA,"",   249.332E-03,  -246.647E-03,  -36.4953E-03,   1.37549E-03
C:/temp/dataset/6/15_6.odb,Step-1,Increment      1: Step Time =    1.000,"PART-1-1",           616,      -7.23328,       16.4840,            0.,NA,NA,"",   257.901E-03,  -246.342E-03,  -76.3430E-03,   577.517E-06
C:/temp/dataset/6/15_6.odb,Step-1,Increment      1: Step Time =    1.000,"PART-1-1",           617,      -6.08867,       15.3700,            0.,NA,NA,"",   233.969E-03,  -227.137E-03,  -56.1281E-03,   409.996E-06
C:/temp/dataset/6/15_6.odb,Step-1,Increment      1: Step Time =    1.000,"PART-1-1",           618,      -13.1522,       16.1892,            0.,NA,NA,"",   307.432E-03,  -248.566E-03,  -180.913E-03,   5.73698E-03
C:/temp/dataset/6/15_6.odb,Step-1,Increment      1: Step Time =    1.000,"PART-1-1",           619,      -14.0864,       17.4486,            0.,NA,NA,"",   341.948E-03,  -273.638E-03,  -205.063E-03,   6.57646E-03
C:/temp/dataset/6/15_6.odb,Step-1,Increment      1: Step Time =    1.000,"PART-1-1",           620,          -15.,         16.25,            0.,NA,NA,"",   332.724E-03,  -254.797E-03,  -213.971E-03,   7.36466E-03
C:/temp/dataset/6/15_6.odb,Step-1,Increment      1: Step Time =    1.000,"PART-1-1",           621,           -5.,       24.7917,            0.,NA,NA,"",   423.855E-03,  -422.952E-03,  -27.6600E-03,   1.36699E-03
C:/temp/dataset/6/15_6.odb,Step-1,Increment      1: Step Time =    1.000,"PART-1-1",           622,      -6.14442,       25.7689,            0.,NA,NA,"",   449.937E-03,  -446.498E-03,  -55.5226E-03,   460.092E-06
C:/temp/dataset/6/15_6.odb,Step-1,Increment      1: Step Time =    1.000,"PART-1-1",           623,           -5.,        26.875,            0.,NA,NA,"",   476.490E-03,  -475.781E-03,  -25.9881E-03,   970.288E-06
C:/temp/dataset/6/15_6.odb,Step-1,Increment      1: Step Time =    1.000,"PART-1-1",           624,      -7.36924,       26.7689,            0.,NA,NA,"",   479.611E-03,  -471.695E-03,  -86.7776E-03,   368.729E-06
C:/temp/dataset/6/15_6.odb,Step-1,Increment      1: Step Time =    1.000,"PART-1-1",           625,      -13.1175,       20.9132,            0.,NA,NA,"",   397.196E-03,  -339.898E-03,  -205.510E-03,   5.75167E-03
C:/temp/dataset/6/15_6.odb,Step-1,Increment      1: Step Time =    1.000,"PART-1-1",           626,      -14.0212,       22.2867,            0.,NA,NA,"",   439.188E-03,  -372.094E-03,  -233.308E-03,   6.57247E-03
C:/temp/dataset/6/15_6.odb,Step-1,Increment      1: Step Time =    1.000,"PART-1-1",           627,          -15.,         21.25,            0.,NA,NA,"",   430.891E-03,  -352.235E-03,  -248.188E-03,   7.43406E-03
C:/temp/dataset/6/15_6.odb,Step-1,Increment      1: Step Time =    1.000,"PART-1-1",           628,      -14.0963,       19.8765,            0.,NA,NA,"",   389.074E-03,  -320.830E-03,  -220.106E-03,   6.61225E-03
C:/temp/dataset/6/15_6.odb,Step-1,Increment      1: Step Time =    1.000,"PART-1-1",           629,         -1.25,           -5.,            0.,NA,NA,"",   51.3240E-03,  -39.4787E-03,  -32.7961E-03,   510.143E-06
C:/temp/dataset/6/15_6.odb,Step-1,Increment      1: Step Time =    1.000,"PART-1-1",           630,      -1.77292,      -3.03732,            0.,NA,NA,"",   58.2229E-03,  -46.9664E-03,  -34.4102E-03,   496.761E-06
C:/temp/dataset/6/15_6.odb,Step-1,Increment      1: Step Time =    1.000,"PART-1-1",           631,      -12.1053,      -2.30059,            0.,NA,NA,"",   100.968E-03,  -55.0845E-03,  -84.6183E-03,   4.07135E-03
C:/temp/dataset/6/15_6.odb,Step-1,Increment      1: Step Time =    1.000,"PART-1-1",           632,      -10.7648,      -1.40855,            0.,NA,NA,"",   98.1499E-03,  -56.8750E-03,  -79.9915E-03,   3.49778E-03
C:/temp/dataset/6/15_6.odb,Step-1,Increment      1: Step Time =    1.000,"PART-1-1",           633,      -11.5438,  -354.672E-03,            0.,NA,NA,"",   108.515E-03,  -63.1502E-03,  -88.2471E-03,   3.97936E-03
C:/temp/dataset/6/15_6.odb,Step-1,Increment      1: Step Time =    1.000,"PART-1-1",           634,          3.75,           -5.,            0.,NA,NA,"",   44.3083E-03,  -41.8816E-03,  -14.4621E-03,   407.307E-06
C:/temp/dataset/6/15_6.odb,Step-1,Increment      1: Step Time =    1.000,"PART-1-1",           635,       4.52066,      -3.83856,            0.,NA,NA,"",   47.5263E-03,  -46.0502E-03,  -11.7527E-03,   245.947E-06
C:/temp/dataset/6/15_6.odb,Step-1,Increment      1: Step Time =    1.000,"PART-1-1",           636,       2.94662,      -2.72704,            0.,NA,NA,"",   52.5271E-03,  -49.7461E-03,  -16.8648E-03,   322.496E-06
C:/temp/dataset/6/15_6.odb,Step-1,Increment      1: Step Time =    1.000,"PART-1-1",           637,       1.50395,       2.56821,            0.,NA,NA,"",   74.0591E-03,  -70.7815E-03,  -21.7882E-03,   602.751E-06
C:/temp/dataset/6/15_6.odb,Step-1,Increment      1: Step Time =    1.000,"PART-1-1",           638,          1.25,            5.,            0.,NA,NA,"",   83.6302E-03,  -80.2868E-03,  -23.4104E-03,   902.457E-06
C:/temp/dataset/6/15_6.odb,Step-1,Increment      1: Step Time =    1.000,"PART-1-1",           639,          6.25,            5.,            0.,NA,NA,"",   77.8061E-03,  -77.5169E-03,  -6.70281E-03,   382.647E-06
C:/temp/dataset/6/15_6.odb,Step-1,Increment      1: Step Time =    1.000,"PART-1-1",           640,  -213.968E-03,      -26.0734,            0.,NA,NA,"",   1.31998E-03,   836.342E-06,  -1.02121E-03,   409.787E-06
C:/temp/dataset/6/15_6.odb,Step-1,Increment      1: Step Time =    1.000,"PART-1-1",           641,       1.14210,      -23.8512,            0.,NA,NA,"",   920.837E-06,  -438.168E-06,  -809.907E-06,   376.310E-06
C:/temp/dataset/6/15_6.odb,Step-1,Increment      1: Step Time =    1.000,"PART-1-1",           642,  -234.527E-03,      -23.9674,            0.,NA,NA,"",   1.23356E-03,  -92.7368E-06,  -1.23007E-03,   337.516E-06
C:/temp/dataset/6/15_6.odb,Step-1,Increment      1: Step Time =    1.000,"PART-1-1",           643,           -5.,        14.375,            0.,NA,NA,"",   214.759E-03,  -211.238E-03,  -38.7290E-03,   1.32561E-03
C:/temp/dataset/6/15_6.odb,Step-1,Increment      1: Step Time =    1.000,"PART-1-1",           644,      -7.14364,       14.2292,            0.,NA,NA,"",   220.776E-03,  -208.221E-03,  -73.3878E-03,   526.362E-06
C:/temp/dataset/6/15_6.odb,Step-1,Increment      1: Step Time =    1.000,"PART-1-1",           645,           -5.,       6.04167,            0.,NA,NA,"",   112.243E-03,  -101.843E-03,  -47.1849E-03,   1.83882E-03
C:/temp/dataset/6/15_6.odb,Step-1,Increment      1: Step Time =    1.000,"PART-1-1",           646,      -5.82078,       6.95384,            0.,NA,NA,"",   124.118E-03,  -111.270E-03,  -54.9954E-03,   594.485E-06
C:/temp/dataset/6/15_6.odb,Step-1,Increment      1: Step Time =    1.000,"PART-1-1",           647,      -6.45742,       5.85906,            0.,NA,NA,"",   117.075E-03,  -99.6271E-03,  -61.4904E-03,   835.973E-06
C:/temp/dataset/6/15_6.odb,Step-1,Increment      1: Step Time =    1.000,"PART-1-1",           648,      -5.63664,       4.94688,            0.,NA,NA,"",   104.811E-03,  -89.9083E-03,  -53.8688E-03,   1.60961E-03
C:/temp/dataset/6/15_6.odb,Step-1,Increment      1: Step Time =    1.000,"PART-1-1",           649,           -5.,         8.125,            0.,NA,NA,"",   132.785E-03,  -124.954E-03,  -44.9273E-03,   1.14590E-03
C:/temp/dataset/6/15_6.odb,Step-1,Increment      1: Step Time =    1.000,"PART-1-1",           650,      -5.96903,       9.00386,            0.,NA,NA,"",   146.091E-03,  -134.956E-03,  -55.9411E-03,   388.133E-06
C:/temp/dataset/6/15_6.odb,Step-1,Increment      1: Step Time =    1.000,"PART-1-1",           651,          -15.,         -3.75,            0.,NA,NA,"",   107.498E-03,  -55.0437E-03,  -92.3364E-03,   5.10944E-03
C:/temp/dataset/6/15_6.odb,Step-1,Increment      1: Step Time =    1.000,"PART-1-1",           652,      -12.7846,      -3.59401,            0.,NA,NA,"",   97.6456E-03,  -51.0375E-03,  -83.2456E-03,   4.27736E-03
C:/temp/dataset/6/15_6.odb,Step-1,Increment      1: Step Time =    1.000,"PART-1-1",           653,      -11.5430,      -4.20540,            0.,NA,NA,"",   88.4817E-03,  -46.5958E-03,  -75.2186E-03,   3.68670E-03
C:/temp/dataset/6/15_6.odb,Step-1,Increment      1: Step Time =    1.000,"PART-1-1",           654,      -10.1018,      -4.29084,            0.,NA,NA,"",   81.2721E-03,  -44.2445E-03,  -68.1732E-03,   3.12227E-03
C:/temp/dataset/6/15_6.odb,Step-1,Increment      1: Step Time =    1.000,"PART-1-1",           655,          -15.,        -11.25,            0.,NA,NA,"",   69.5510E-03,  -32.4648E-03,  -61.5091E-03,   4.14875E-03
C:/temp/dataset/6/15_6.odb,Step-1,Increment      1: Step Time =    1.000,"PART-1-1",           656,      -12.2331,      -11.1785,            0.,NA,NA,"",   61.4791E-03,  -27.8017E-03,  -54.8338E-03,   3.62414E-03
C:/temp/dataset/6/15_6.odb,Step-1,Increment      1: Step Time =    1.000,"PART-1-1",           657,       5.21391,      -1.02834,            0.,NA,NA,"",   57.0735E-03,  -56.2916E-03,  -9.41493E-03,   371.832E-06
C:/temp/dataset/6/15_6.odb,Step-1,Increment      1: Step Time =    1.000,"PART-1-1",           658,       6.72319,      -1.59046,            0.,NA,NA,"",   54.4847E-03,  -54.2751E-03,  -4.77369E-03,   361.777E-06
C:/temp/dataset/6/15_6.odb,Step-1,Increment      1: Step Time =    1.000,"PART-1-1",           659,       10.9187,      -16.2245,            0.,NA,NA,"",   11.9272E-03,  -10.8683E-03,   4.91307E-03,   406.313E-06
C:/temp/dataset/6/15_6.odb,Step-1,Increment      1: Step Time =    1.000,"PART-1-1",           660,       11.9858,      -14.8752,            0.,NA,NA,"",   15.9311E-03,  -14.0902E-03,   7.43405E-03,   517.431E-06
C:/temp/dataset/6/15_6.odb,Step-1,Increment      1: Step Time =    1.000,"PART-1-1",           661,       10.9746,      -13.7451,            0.,NA,NA,"",   17.5990E-03,  -16.6437E-03,   5.71936E-03,   384.391E-06
C:/temp/dataset/6/15_6.odb,Step-1,Increment      1: Step Time =    1.000,"PART-1-1",           662,       11.9830,      -12.5543,            0.,NA,NA,"",   21.5805E-03,  -19.8981E-03,   8.35360E-03,   467.158E-06
C:/temp/dataset/6/15_6.odb,Step-1,Increment      1: Step Time =    1.000,"PART-1-1",           663,           15.,      -20.1563,            0.,NA,NA,"",   10.3299E-03,  -5.64023E-03,   8.65416E-03,   1.13989E-03
C:/temp/dataset/6/15_6.odb,Step-1,Increment      1: Step Time =    1.000,"PART-1-1",           664,       14.0841,      -19.1367,            0.,NA,NA,"",   10.6614E-03,  -6.60430E-03,   8.36957E-03,   963.595E-06
C:/temp/dataset/6/15_6.odb,Step-1,Increment      1: Step Time =    1.000,"PART-1-1",           665,       13.0385,      -20.2889,            0.,NA,NA,"",   7.63422E-03,  -4.62332E-03,   6.07505E-03,   764.485E-06
C:/temp/dataset/6/15_6.odb,Step-1,Increment      1: Step Time =    1.000,"PART-1-1",           666,           15.,      -17.9688,            0.,NA,NA,"",   14.0703E-03,  -8.89919E-03,   10.8985E-03,   1.11320E-03
C:/temp/dataset/6/15_6.odb,Step-1,Increment      1: Step Time =    1.000,"PART-1-1",           667,          1.25,          -30.,            0.,NA,NA,"",            0.,   313.675E-42,  -680.861E-42,   497.916E-06
C:/temp/dataset/6/15_6.odb,Step-1,Increment      1: Step Time =    1.000,"PART-1-1",           668,       3.30543,      -22.6598,            0.,NA,NA,"",   1.75243E-03,  -1.50038E-03,  -905.469E-06,   603.740E-06
C:/temp/dataset/6/15_6.odb,Step-1,Increment      1: Step Time =    1.000,"PART-1-1",           669,       2.86115,      -24.1329,            0.,NA,NA,"",   895.511E-06,  -537.426E-06,  -716.320E-06,   458.005E-06
C:/temp/dataset/6/15_6.odb,Step-1,Increment      1: Step Time =    1.000,"PART-1-1",           670,      -10.6801,      -21.6169,            0.,NA,NA,"",   22.7642E-03,  -8.86085E-03,  -20.9688E-03,   3.05476E-03
C:/temp/dataset/6/15_6.odb,Step-1,Increment      1: Step Time =    1.000,"PART-1-1",           671,      -11.3394,      -20.4213,            0.,NA,NA,"",   27.7499E-03,  -11.4342E-03,  -25.2847E-03,   3.12962E-03
C:/temp/dataset/6/15_6.odb,Step-1,Increment      1: Step Time =    1.000,"PART-1-1",           672,      -12.1593,      -22.4638,            0.,NA,NA,"",   22.8325E-03,  -9.76409E-03,  -20.6394E-03,   3.22214E-03
C:/temp/dataset/6/15_6.odb,Step-1,Increment      1: Step Time =    1.000,"PART-1-1",           673,      -9.92443,      -16.4516,            0.,NA,NA,"",   36.9100E-03,  -15.2069E-03,  -33.6318E-03,   3.08099E-03
C:/temp/dataset/6/15_6.odb,Step-1,Increment      1: Step Time =    1.000,"PART-1-1",           674,      -8.71114,      -17.7111,            0.,NA,NA,"",   30.2601E-03,  -11.9590E-03,  -27.7967E-03,   2.92900E-03
C:/temp/dataset/6/15_6.odb,Step-1,Increment      1: Step Time =    1.000,"PART-1-1",           675,      -9.25100,      -7.50767,            0.,NA,NA,"",   64.9721E-03,  -32.6461E-03,  -56.1748E-03,   2.89642E-03
C:/temp/dataset/6/15_6.odb,Step-1,Increment      1: Step Time =    1.000,"PART-1-1",           676,      -8.32615,      -6.25855,            0.,NA,NA,"",   66.0402E-03,  -35.4765E-03,  -55.7021E-03,   2.50005E-03
C:/temp/dataset/6/15_6.odb,Step-1,Increment      1: Step Time =    1.000,"PART-1-1",           677,      -7.58018,      -5.09368,            0.,NA,NA,"",   67.4583E-03,  -38.8770E-03,  -55.1289E-03,   2.14004E-03
C:/temp/dataset/6/15_6.odb,Step-1,Increment      1: Step Time =    1.000,"PART-1-1",           678,      -6.67379,      -3.84489,            0.,NA,NA,"",   68.4986E-03,  -42.9690E-03,  -53.3453E-03,   1.64193E-03
C:/temp/dataset/6/15_6.odb,Step-1,Increment      1: Step Time =    1.000,"PART-1-1",           679,      -2.40491,      -1.03021,            0.,NA,NA,"",   66.2354E-03,  -55.2042E-03,  -36.6009E-03,   379.419E-06
C:/temp/dataset/6/15_6.odb,Step-1,Increment      1: Step Time =    1.000,"PART-1-1",           680,      -3.32453,      -2.14711,            0.,NA,NA,"",   64.3653E-03,  -49.9774E-03,  -40.5605E-03,   489.202E-06
C:/temp/dataset/6/15_6.odb,Step-1,Increment      1: Step Time =    1.000,"PART-1-1",           681,       10.4745,      -24.8101,            0.,NA,NA,"",   1.52072E-03,  -356.977E-06,   1.47823E-03,   367.449E-06
C:/temp/dataset/6/15_6.odb,Step-1,Increment      1: Step Time =    1.000,"PART-1-1",           682,       8.16019,      -23.0435,            0.,NA,NA,"",   1.06030E-03,  -1.02296E-03,   278.889E-06,   82.4174E-06
C:/temp/dataset/6/15_6.odb,Step-1,Increment      1: Step Time =    1.000,"PART-1-1",           683,       9.40124,      -23.8494,            0.,NA,NA,"",   1.23281E-03,  -656.802E-06,   1.04328E-03,   209.657E-06
C:/temp/dataset/6/15_6.odb,Step-1,Increment      1: Step Time =    1.000,"PART-1-1",           684,       5.67200,      -27.0943,            0.,NA,NA,"",   441.757E-06,   375.864E-06,  -232.110E-06,   123.620E-06
C:/temp/dataset/6/15_6.odb,Step-1,Increment      1: Step Time =    1.000,"PART-1-1",           685,       4.86106,      -26.0050,            0.,NA,NA,"",   467.367E-06,   177.273E-06,  -432.442E-06,   199.888E-06
C:/temp/dataset/6/15_6.odb,Step-1,Increment      1: Step Time =    1.000,"PART-1-1",           686,      -2.55341,      -23.8484,            0.,NA,NA,"",   3.21199E-03,   270.469E-06,  -3.20058E-03,   663.983E-06
C:/temp/dataset/6/15_6.odb,Step-1,Increment      1: Step Time =    1.000,"PART-1-1",           687,      -4.82130,      -23.8875,            0.,NA,NA,"",   6.59568E-03,  -110.326E-06,  -6.59476E-03,   1.54177E-03
C:/temp/dataset/6/15_6.odb,Step-1,Increment      1: Step Time =    1.000,"PART-1-1",           688,      -5.84083,      -25.1777,            0.,NA,NA,"",   6.28002E-03,   200.650E-06,  -6.27682E-03,   1.74097E-03
C:/temp/dataset/6/15_6.odb,Step-1,Increment      1: Step Time =    1.000,"PART-1-1",           689,           15.,      -26.7188,            0.,NA,NA,"",   2.70342E-03,  -1.08353E-03,   2.47677E-03,   908.777E-06
C:/temp/dataset/6/15_6.odb,Step-1,Increment      1: Step Time =    1.000,"PART-1-1",           690,       10.9874,      -11.4075,            0.,NA,NA,"",   23.7431E-03,  -22.8848E-03,   6.32626E-03,   362.686E-06
C:/temp/dataset/6/15_6.odb,Step-1,Increment      1: Step Time =    1.000,"PART-1-1",           691,       7.29436,      -19.7763,            0.,NA,NA,"",   3.99743E-03,  -3.94273E-03,  -659.073E-06,   344.824E-06
C:/temp/dataset/6/15_6.odb,Step-1,Increment      1: Step Time =    1.000,"PART-1-1",           692,       7.78340,      -18.7858,            0.,NA,NA,"",   5.61103E-03,  -5.60679E-03,  -218.020E-06,   337.916E-06
C:/temp/dataset/6/15_6.odb,Step-1,Increment      1: Step Time =    1.000,"PART-1-1",           693,       10.8970,      -2.99004,            0.,NA,NA,"",   50.1671E-03,  -49.5805E-03,   7.64895E-03,   317.247E-06
C:/temp/dataset/6/15_6.odb,Step-1,Increment      1: Step Time =    1.000,"PART-1-1",           694,       12.0828,      -3.88727,            0.,NA,NA,"",   47.9283E-03,  -46.6282E-03,   11.0877E-03,   309.497E-06
C:/temp/dataset/6/15_6.odb,Step-1,Increment      1: Step Time =    1.000,"PART-1-1",           695,           15.,       1.71875,            0.,NA,NA,"",   69.1798E-03,  -65.8697E-03,   21.1431E-03,   41.5554E-06
C:/temp/dataset/6/15_6.odb,Step-1,Increment      1: Step Time =    1.000,"PART-1-1",           696,       4.00043,  -427.215E-03,            0.,NA,NA,"",   60.0308E-03,  -58.5469E-03,  -13.2645E-03,   383.798E-06
C:/temp/dataset/6/15_6.odb,Step-1,Increment      1: Step Time =    1.000,"PART-1-1",           697,       2.09609,       1.00148,            0.,NA,NA,"",   67.2018E-03,  -64.2844E-03,  -19.5855E-03,   421.318E-06
C:/temp/dataset/6/15_6.odb,Step-1,Increment      1: Step Time =    1.000,"PART-1-1",           698,       2.38138,  -554.063E-03,            0.,NA,NA,"",   60.9557E-03,  -58.0424E-03,  -18.6192E-03,   380.311E-06
C:/temp/dataset/6/15_6.odb,Step-1,Increment      1: Step Time =    1.000,"PART-1-1",           699,   35.7305E-03,       2.11113,            0.,NA,NA,"",   74.4506E-03,  -69.4075E-03,  -26.9350E-03,   601.140E-06
C:/temp/dataset/6/15_6.odb,Step-1,Increment      1: Step Time =    1.000,"PART-1-1",           700,           -5.,       10.2083,            0.,NA,NA,"",   156.517E-03,  -150.490E-03,  -43.0148E-03,   1.17923E-03
C:/temp/dataset/6/15_6.odb,Step-1,Increment      1: Step Time =    1.000,"PART-1-1",           701,      -6.99901,       9.90050,            0.,NA,NA,"",   161.500E-03,  -146.039E-03,  -68.9540E-03,   455.219E-06
C:/temp/dataset/6/15_6.odb,Step-1,Increment      1: Step Time =    1.000,"PART-1-1",           702,      -11.2396,       16.2208,            0.,NA,NA,"",   285.988E-03,  -245.210E-03,  -147.178E-03,   4.06199E-03
C:/temp/dataset/6/15_6.odb,Step-1,Increment      1: Step Time =    1.000,"PART-1-1",           703,      -10.2112,       15.1096,            0.,NA,NA,"",   257.432E-03,  -224.703E-03,  -125.618E-03,   3.16322E-03
C:/temp/dataset/6/15_6.odb,Step-1,Increment      1: Step Time =    1.000,"PART-1-1",           704,      -9.25876,       16.3324,            0.,NA,NA,"",   269.190E-03,  -244.647E-03,  -112.298E-03,   2.33743E-03
C:/temp/dataset/6/15_6.odb,Step-1,Increment      1: Step Time =    1.000,"PART-1-1",           705,      -10.2871,       17.4437,            0.,NA,NA,"",   297.718E-03,  -265.839E-03,  -134.036E-03,   3.23493E-03
C:/temp/dataset/6/15_6.odb,Step-1,Increment      1: Step Time =    1.000,"PART-1-1",           706,      -8.19479,       15.2434,            0.,NA,NA,"",   243.163E-03,  -225.168E-03,  -91.8021E-03,   1.41870E-03
C:/temp/dataset/6/15_6.odb,Step-1,Increment      1: Step Time =    1.000,"PART-1-1",           707,      -9.19446,       14.0222,            0.,NA,NA,"",   231.661E-03,  -205.939E-03,  -106.094E-03,   2.28411E-03
C:/temp/dataset/6/15_6.odb,Step-1,Increment      1: Step Time =    1.000,"PART-1-1",           708,      -8.14331,       13.0080,            0.,NA,NA,"",   208.928E-03,  -189.549E-03,  -87.8754E-03,   1.38838E-03
C:/temp/dataset/6/15_6.odb,Step-1,Increment      1: Step Time =    1.000,"PART-1-1",           709,          -15.,         18.75,            0.,NA,NA,"",   379.452E-03,  -301.046E-03,  -230.987E-03,   7.40324E-03
C:/temp/dataset/6/15_6.odb,Step-1,Increment      1: Step Time =    1.000,"PART-1-1",           710,      -13.1826,       18.5751,            0.,NA,NA,"",   351.200E-03,  -292.594E-03,  -194.243E-03,   5.78886E-03
C:/temp/dataset/6/15_6.odb,Step-1,Increment      1: Step Time =    1.000,"PART-1-1",           711,      -11.2313,       23.3702,            0.,NA,NA,"",   428.052E-03,  -390.773E-03,  -174.716E-03,   4.14085E-03
C:/temp/dataset/6/15_6.odb,Step-1,Increment      1: Step Time =    1.000,"PART-1-1",           712,      -10.8173,       24.9058,            0.,NA,NA,"",   459.502E-03,  -426.640E-03,  -170.646E-03,   3.76390E-03
C:/temp/dataset/6/15_6.odb,Step-1,Increment      1: Step Time =    1.000,"PART-1-1",           713,      -13.5418,       24.7667,            0.,NA,NA,"",   489.824E-03,  -428.726E-03,  -236.900E-03,   6.15941E-03
C:/temp/dataset/6/15_6.odb,Step-1,Increment      1: Step Time =    1.000,"PART-1-1",           714,      -12.2278,       25.9824,            0.,NA,NA,"",   502.276E-03,  -455.874E-03,  -210.855E-03,   5.40627E-03
C:/temp/dataset/6/15_6.odb,Step-1,Increment      1: Step Time =    1.000,"PART-1-1",           715,          -15.,         26.25,            0.,NA,NA,"",   548.310E-03,  -469.755E-03,  -282.798E-03,   7.10575E-03
C:/temp/dataset/6/15_6.odb,Step-1,Increment      1: Step Time =    1.000,"PART-1-1",           716,          -15.,         23.75,            0.,NA,NA,"",   487.176E-03,  -408.459E-03,  -265.521E-03,   7.41672E-03
C:/temp/dataset/6/15_6.odb,Step-1,Increment      1: Step Time =    1.000,"PART-1-1",           717,      -12.5630,       23.3034,            0.,NA,NA,"",   442.384E-03,  -391.724E-03,  -205.562E-03,   5.32079E-03
C:/temp/dataset/6/15_6.odb,Step-1,Increment      1: Step Time =    1.000,"PART-1-1",           718,      -11.1827,       13.8735,            0.,NA,NA,"",   247.731E-03,  -206.137E-03,  -137.398E-03,   3.99754E-03
C:/temp/dataset/6/15_6.odb,Step-1,Increment      1: Step Time =    1.000,"PART-1-1",           719,      -10.1659,       12.7861,            0.,NA,NA,"",   222.022E-03,  -188.035E-03,  -118.052E-03,   3.11700E-03
C:/temp/dataset/6/15_6.odb,Step-1,Increment      1: Step Time =    1.000,"PART-1-1",           720,      -11.4858,       20.4947,            0.,NA,NA,"",   368.668E-03,  -327.749E-03,  -168.809E-03,   4.30369E-03
C:/temp/dataset/6/15_6.odb,Step-1,Increment      1: Step Time =    1.000,"PART-1-1",           721,      -10.4732,       19.7487,            0.,NA,NA,"",   342.993E-03,  -310.838E-03,  -144.996E-03,   3.39712E-03
C:/temp/dataset/6/15_6.odb,Step-1,Increment      1: Step Time =    1.000,"PART-1-1",           722,      -10.9778,       21.7959,            0.,NA,NA,"",   390.460E-03,  -354.848E-03,  -162.917E-03,   3.85781E-03
C:/temp/dataset/6/15_6.odb,Step-1,Increment      1: Step Time =    1.000,"PART-1-1",           723,      -9.13796,       11.7463,            0.,NA,NA,"",   199.033E-03,  -171.878E-03,  -100.360E-03,   2.24479E-03
C:/temp/dataset/6/15_6.odb,Step-1,Increment      1: Step Time =    1.000,"PART-1-1",           724,      -11.1090,       11.4975,            0.,NA,NA,"",   213.305E-03,  -170.942E-03,  -127.584E-03,   3.92451E-03
C:/temp/dataset/6/15_6.odb,Step-1,Increment      1: Step Time =    1.000,"PART-1-1",           725,      -7.95801,       5.48811,            0.,NA,NA,"",   123.117E-03,  -97.4692E-03,  -75.2159E-03,   1.92863E-03
C:/temp/dataset/6/15_6.odb,Step-1,Increment      1: Step Time =    1.000,"PART-1-1",           726,      -9.27172,       5.51676,            0.,NA,NA,"",   132.721E-03,  -99.3818E-03,  -87.9663E-03,   2.75951E-03
C:/temp/dataset/6/15_6.odb,Step-1,Increment      1: Step Time =    1.000,"PART-1-1",           727,      -9.10783,       4.19071,            0.,NA,NA,"",   121.026E-03,  -87.9367E-03,  -83.1531E-03,   2.81678E-03
C:/temp/dataset/6/15_6.odb,Step-1,Increment      1: Step Time =    1.000,"PART-1-1",           728,      -7.79412,       4.16207,            0.,NA,NA,"",   111.893E-03,  -86.0382E-03,  -71.5363E-03,   2.00128E-03
C:/temp/dataset/6/15_6.odb,Step-1,Increment      1: Step Time =    1.000,"PART-1-1",           729,      -10.3652,   710.465E-03,            0.,NA,NA,"",   107.197E-03,  -66.9077E-03,  -83.7534E-03,   3.42348E-03
C:/temp/dataset/6/15_6.odb,Step-1,Increment      1: Step Time =    1.000,"PART-1-1",           730,      -11.5756,       2.14983,            0.,NA,NA,"",   124.543E-03,  -77.4781E-03,  -97.5093E-03,   4.21634E-03
C:/temp/dataset/6/15_6.odb,Step-1,Increment      1: Step Time =    1.000,"PART-1-1",           731,      -10.9514,      -7.70102,            0.,NA,NA,"",   70.7297E-03,  -34.3911E-03,  -61.8056E-03,   3.41586E-03
C:/temp/dataset/6/15_6.odb,Step-1,Increment      1: Step Time =    1.000,"PART-1-1",           732,      -11.1587,      -15.1039,            0.,NA,NA,"",   44.3648E-03,  -18.9546E-03,  -40.1118E-03,   3.28759E-03
C:/temp/dataset/6/15_6.odb,Step-1,Increment      1: Step Time =    1.000,"PART-1-1",           733,      -11.0422,      -12.5823,            0.,NA,NA,"",   52.6644E-03,  -23.1273E-03,  -47.3145E-03,   3.36120E-03
C:/temp/dataset/6/15_6.odb,Step-1,Increment      1: Step Time =    1.000,"PART-1-1",           734,      -9.98828,      -19.2456,            0.,NA,NA,"",   28.6055E-03,  -11.3370E-03,  -26.2630E-03,   2.94992E-03
C:/temp/dataset/6/15_6.odb,Step-1,Increment      1: Step Time =    1.000,"PART-1-1",           735,      -11.2222,      -17.6929,            0.,NA,NA,"",   36.1082E-03,  -15.1721E-03,  -32.7660E-03,   3.16252E-03
C:/temp/dataset/6/15_6.odb,Step-1,Increment      1: Step Time =    1.000,"PART-1-1",           736,      -9.72809,       26.4627,            0.,NA,NA,"",   487.144E-03,  -464.144E-03,  -147.918E-03,   2.71497E-03
C:/temp/dataset/6/15_6.odb,Step-1,Increment      1: Step Time =    1.000,"PART-1-1",           737,      -8.07960,       10.7858,            0.,NA,NA,"",   178.897E-03,  -157.948E-03,  -84.0038E-03,   1.35480E-03
C:/temp/dataset/6/15_6.odb,Step-1,Increment      1: Step Time =    1.000,"PART-1-1",           738,      -11.3320,       18.4953,            0.,NA,NA,"",   327.702E-03,  -287.270E-03,  -157.685E-03,   4.15549E-03
C:/temp/dataset/6/15_6.odb,Step-1,Increment      1: Step Time =    1.000,"PART-1-1",           739,      -10.4893,       6.32554,            0.,NA,NA,"",   149.511E-03,  -108.858E-03,  -102.486E-03,   3.57855E-03
C:/temp/dataset/6/15_6.odb,Step-1,Increment      1: Step Time =    1.000,"PART-1-1",           740,      -11.8356,       7.66802,            0.,NA,NA,"",   174.658E-03,  -125.097E-03,  -121.887E-03,   4.54638E-03
C:/temp/dataset/6/15_6.odb,Step-1,Increment      1: Step Time =    1.000,"PART-1-1",           741,      -11.4125,       4.87054,            0.,NA,NA,"",   144.213E-03,  -97.3324E-03,  -106.413E-03,   4.25856E-03
C:/temp/dataset/6/15_6.odb,Step-1,Increment      1: Step Time =    1.000,"PART-1-1",           742,       10.1911,      -5.79504,            0.,NA,NA,"",   40.3984E-03,  -40.0663E-03,   5.16987E-03,   300.855E-06
C:/temp/dataset/6/15_6.odb,Step-1,Increment      1: Step Time =    1.000,"PART-1-1",           743,       9.10708,      -6.74300,            0.,NA,NA,"",   36.9603E-03,  -36.9077E-03,   1.97138E-03,   264.608E-06
C:/temp/dataset/6/15_6.odb,Step-1,Increment      1: Step Time =    1.000,"PART-1-1",           744,       11.1638,      -4.94873,            0.,NA,NA,"",   43.7282E-03,  -42.9636E-03,   8.14160E-03,   324.581E-06
C:/temp/dataset/6/15_6.odb,Step-1,Increment      1: Step Time =    1.000,"PART-1-1",           745,       10.4293,      -4.08570,            0.,NA,NA,"",   46.2077E-03,  -45.8028E-03,   6.10340E-03,   315.256E-06
C:/temp/dataset/6/15_6.odb,Step-1,Increment      1: Step Time =    1.000,"PART-1-1",           746,       9.97038,      -14.8971,            0.,NA,NA,"",   14.1406E-03,  -13.7196E-03,   3.42465E-03,   291.597E-06
C:/temp/dataset/6/15_6.odb,Step-1,Increment      1: Step Time =    1.000,"PART-1-1",           747,       9.96577,      -12.5508,            0.,NA,NA,"",   19.9944E-03,  -19.6469E-03,   3.71177E-03,   283.894E-06
C:/temp/dataset/6/15_6.odb,Step-1,Increment      1: Step Time =    1.000,"PART-1-1",           748,       8.96159,      -13.7029,            0.,NA,NA,"",   16.6644E-03,  -16.6040E-03,   1.41786E-03,   252.487E-06
C:/temp/dataset/6/15_6.odb,Step-1,Increment      1: Step Time =    1.000,"PART-1-1",           749,       6.92617,      -22.4012,            0.,NA,NA,"",   1.54969E-03,  -1.44286E-03,  -565.426E-06,   231.661E-06
C:/temp/dataset/6/15_6.odb,Step-1,Increment      1: Step Time =    1.000,"PART-1-1",           750,       5.94981,      -23.5281,            0.,NA,NA,"",   1.08716E-03,  -831.362E-06,  -700.542E-06,   341.094E-06
C:/temp/dataset/6/15_6.odb,Step-1,Increment      1: Step Time =    1.000,"PART-1-1",           751,       7.18383,      -24.1705,            0.,NA,NA,"",   463.301E-06,  -431.050E-06,  -169.835E-06,   115.266E-06
C:/temp/dataset/6/15_6.odb,Step-1,Increment      1: Step Time =    1.000,"PART-1-1",           752,       11.0968,      -20.2176,            0.,NA,NA,"",   5.54168E-03,  -4.10893E-03,   3.71845E-03,   466.299E-06
C:/temp/dataset/6/15_6.odb,Step-1,Increment      1: Step Time =    1.000,"PART-1-1",           753,       6.43355,      -20.8801,            0.,NA,NA,"",   2.86470E-03,  -2.56773E-03,  -1.27014E-03,   436.869E-06
C:/temp/dataset/6/15_6.odb,Step-1,Increment      1: Step Time =    1.000,"PART-1-1",           754,       8.96045,      -11.3546,            0.,NA,NA,"",   22.9470E-03,  -22.9039E-03,   1.40614E-03,   248.588E-06
C:/temp/dataset/6/15_6.odb,Step-1,Increment      1: Step Time =    1.000,"PART-1-1",           755,       8.17216,      -2.03287,            0.,NA,NA,"",   52.7573E-03,  -52.7556E-03,  -422.749E-06,   352.681E-06
C:/temp/dataset/6/15_6.odb,Step-1,Increment      1: Step Time =    1.000,"PART-1-1",           756,       9.68046,      -2.49017,            0.,NA,NA,"",   51.3862E-03,  -51.2259E-03,   4.05606E-03,   328.168E-06
C:/temp/dataset/6/15_6.odb,Step-1,Increment      1: Step Time =    1.000,"PART-1-1",           757,      -5.24373,       2.94722,            0.,NA,NA,"",   91.0612E-03,  -75.6663E-03,  -50.6632E-03,   430.905E-06
C:/temp/dataset/6/15_6.odb,Step-1,Increment      1: Step Time =    1.000,"PART-1-1",           758,      -6.20341,       3.93450,            0.,NA,NA,"",   100.934E-03,  -82.6830E-03,  -57.8899E-03,   1.14113E-03
C:/temp/dataset/6/15_6.odb,Step-1,Increment      1: Step Time =    1.000,"PART-1-1",           759,       7.87036,      -17.0650,            0.,NA,NA,"",   8.87823E-03,  -8.87141E-03,  -347.806E-06,   374.843E-06
C:/temp/dataset/6/15_6.odb,Step-1,Increment      1: Step Time =    1.000,"PART-1-1",           760,      -8.77165,      -4.61616,            0.,NA,NA,"",   74.0161E-03,  -41.5839E-03,  -61.2304E-03,   2.52999E-03
C:/temp/dataset/6/15_6.odb,Step-1,Increment      1: Step Time =    1.000,"PART-1-1",           761,       8.90402,      -15.9271,            0.,NA,NA,"",   11.3861E-03,  -11.3069E-03,   1.34062E-03,   270.653E-06
C:/temp/dataset/6/15_6.odb,Step-1,Increment      1: Step Time =    1.000,"PART-1-1",           762,       7.94609,      -14.8939,            0.,NA,NA,"",   13.7231E-03,  -13.7097E-03,  -604.985E-06,   293.362E-06
C:/temp/dataset/6/15_6.odb,Step-1,Increment      1: Step Time =    1.000,"PART-1-1",           763,      -12.3095,       21.7291,            0.,NA,NA,"",   404.264E-03,  -355.722E-03,  -192.072E-03,   5.03176E-03
C:/temp/dataset/6/15_6.odb,Step-1,Increment      1: Step Time =    1.000,"PART-1-1",           764,      -12.2938,       19.6789,            0.,NA,NA,"",   361.624E-03,  -312.476E-03,  -182.017E-03,   5.01712E-03
C:/temp/dataset/6/15_6.odb,Step-1,Increment      1: Step Time =    1.000,"PART-1-1",           765,       3.72209,      -1.78065,            0.,NA,NA,"",   55.2673E-03,  -53.4089E-03,  -14.2116E-03,   329.323E-06
C:/temp/dataset/6/15_6.odb,Step-1,Increment      1: Step Time =    1.000,"PART-1-1",           766,       6.45852,      -3.38063,            0.,NA,NA,"",   48.2540E-03,  -47.9187E-03,  -5.67786E-03,   297.029E-06
C:/temp/dataset/6/15_6.odb,Step-1,Increment      1: Step Time =    1.000,"PART-1-1",           767,       4.93556,      -2.38177,            0.,NA,NA,"",   52.3414E-03,  -51.3105E-03,  -10.3373E-03,   333.403E-06
C:/temp/dataset/6/15_6.odb,Step-1,Increment      1: Step Time =    1.000,"PART-1-1",           768,      -2.94024,   945.156E-03,            0.,NA,NA,"",   75.1398E-03,  -64.3934E-03,  -38.7230E-03,   330.845E-06
C:/temp/dataset/6/15_6.odb,Step-1,Increment      1: Step Time =    1.000,"PART-1-1",           769,      -1.69279,      -25.0756,            0.,NA,NA,"",   2.13363E-03,   803.202E-06,  -1.97667E-03,   569.020E-06
C:/temp/dataset/6/15_6.odb,Step-1,Increment      1: Step Time =    1.000,"PART-1-1",           770,      -6.93923,      -23.9860,            0.,NA,NA,"",   9.96489E-03,  -1.49783E-03,  -9.85168E-03,   2.30008E-03
C:/temp/dataset/6/15_6.odb,Step-1,Increment      1: Step Time =    1.000,"PART-1-1",           771,      -5.91970,      -22.6959,            0.,NA,NA,"",   10.7172E-03,  -1.87401E-03,  -10.5521E-03,   2.23305E-03
C:/temp/dataset/6/15_6.odb,Step-1,Increment      1: Step Time =    1.000,"PART-1-1",           772,      -12.2208,       17.3915,            0.,NA,NA,"",   317.410E-03,  -268.080E-03,  -169.948E-03,   4.93135E-03
C:/temp/dataset/6/15_6.odb,Step-1,Increment      1: Step Time =    1.000,"PART-1-1",           773,      -12.0398,       10.1961,            0.,NA,NA,"",   205.826E-03,  -155.334E-03,  -135.040E-03,   4.71017E-03
C:/temp/dataset/6/15_6.odb,Step-1,Increment      1: Step Time =    1.000,"PART-1-1",           774,      -10.8637,      -2.91198,            0.,NA,NA,"",   91.2396E-03,  -50.5573E-03,  -75.9514E-03,   3.49038E-03
C:/temp/dataset/6/15_6.odb,Step-1,Increment      1: Step Time =    1.000,"PART-1-1",           775,      -9.61620,      -11.5179,            0.,NA,NA,"",   52.0215E-03,  -23.1841E-03,  -46.5697E-03,   3.10463E-03
C:/temp/dataset/6/15_6.odb,Step-1,Increment      1: Step Time =    1.000,"PART-1-1",           776,      -11.8201,      -24.5932,            0.,NA,NA,"",   15.5250E-03,  -6.53843E-03,  -14.0810E-03,   3.20957E-03
C:/temp/dataset/6/15_6.odb,Step-1,Increment      1: Step Time =    1.000,"PART-1-1",           777,      -11.0718,      -23.4296,            0.,NA,NA,"",   17.8875E-03,  -6.96782E-03,  -16.4746E-03,   3.10128E-03
C:/temp/dataset/6/15_6.odb,Step-1,Increment      1: Step Time =    1.000,"PART-1-1",           778,       4.75405,      -23.0816,            0.,NA,NA,"",   1.53966E-03,  -1.18228E-03,  -986.291E-06,   487.486E-06
C:/temp/dataset/6/15_6.odb,Step-1,Increment      1: Step Time =    1.000,"PART-1-1",           779,       5.55198,      -21.9930,            0.,NA,NA,"",   2.21765E-03,  -1.82062E-03,  -1.26621E-03,   556.170E-06
C:/temp/dataset/6/15_6.odb,Step-1,Increment      1: Step Time =    1.000,"PART-1-1",           780,       7.01336,      -26.0950,            0.,NA,NA,"",   248.079E-06,   232.398E-06,  -86.8017E-06,   46.7054E-06
C:/temp/dataset/6/15_6.odb,Step-1,Increment      1: Step Time =    1.000,"PART-1-1",           781,       4.10189,      -23.9882,            0.,NA,NA,"",   1.03647E-03,  -679.155E-06,  -782.952E-06,   450.472E-06
C:/temp/dataset/6/15_6.odb,Step-1,Increment      1: Step Time =    1.000,"PART-1-1",           782,       4.14804,      -25.2051,            0.,NA,NA,"",   594.574E-06,  -86.6032E-06,  -588.233E-06,   317.667E-06
C:/temp/dataset/6/15_6.odb,Step-1,Increment      1: Step Time =    1.000,"PART-1-1",           783,      -12.1264,       12.6156,            0.,NA,NA,"",   239.152E-03,  -188.781E-03,  -146.818E-03,   4.80444E-03
C:/temp/dataset/6/15_6.odb,Step-1,Increment      1: Step Time =    1.000,"PART-1-1",           784,      -12.1709,       15.0185,            0.,NA,NA,"",   276.259E-03,  -226.439E-03,  -158.255E-03,   4.86697E-03
C:/temp/dataset/6/15_6.odb,Step-1,Increment      1: Step Time =    1.000,"PART-1-1",           785,      -10.3060,       3.43341,            0.,NA,NA,"",   124.264E-03,  -84.0369E-03,  -91.5392E-03,   3.50146E-03
C:/temp/dataset/6/15_6.odb,Step-1,Increment      1: Step Time =    1.000,"PART-1-1",           786,      -9.35047,  -311.861E-03,            0.,NA,NA,"",   95.5936E-03,  -60.2822E-03,  -74.1902E-03,   2.78136E-03
C:/temp/dataset/6/15_6.odb,Step-1,Increment      1: Step Time =    1.000,"PART-1-1",           787,      -9.47746,      -1.56252,            0.,NA,NA,"",   90.2893E-03,  -54.5372E-03,  -71.9573E-03,   2.86580E-03
C:/temp/dataset/6/15_6.odb,Step-1,Increment      1: Step Time =    1.000,"PART-1-1",           788,      -7.56677,      -1.93629,            0.,NA,NA,"",   79.2655E-03,  -51.2553E-03,  -60.4641E-03,   1.85322E-03
C:/temp/dataset/6/15_6.odb,Step-1,Increment      1: Step Time =    1.000,"PART-1-1",           789,      -9.57637,      -3.06595,            0.,NA,NA,"",   84.0517E-03,  -48.2981E-03,  -68.7895E-03,   2.86034E-03
C:/temp/dataset/6/15_6.odb,Step-1,Increment      1: Step Time =    1.000,"PART-1-1",           790,      -8.24618,      -3.39128,            0.,NA,NA,"",   76.5130E-03,  -45.7307E-03,  -61.3429E-03,   2.29773E-03
C:/temp/dataset/6/15_6.odb,Step-1,Increment      1: Step Time =    1.000,"PART-1-1",           791,       7.98922,      -7.69035,            0.,NA,NA,"",   33.8969E-03,  -33.8753E-03,  -1.20829E-03,   205.081E-06
C:/temp/dataset/6/15_6.odb,Step-1,Increment      1: Step Time =    1.000,"PART-1-1",           792,       7.96586,      -10.1263,            0.,NA,NA,"",   26.4816E-03,  -26.4566E-03,  -1.15160E-03,   221.541E-06
C:/temp/dataset/6/15_6.odb,Step-1,Increment      1: Step Time =    1.000,"PART-1-1",           793,       7.95460,      -12.5381,            0.,NA,NA,"",   19.6947E-03,  -19.6725E-03,  -934.795E-06,   246.218E-06
C:/temp/dataset/6/15_6.odb,Step-1,Increment      1: Step Time =    1.000,"PART-1-1",           794,      -6.90534,       4.84567,            0.,NA,NA,"",   111.341E-03,  -90.6394E-03,  -64.6640E-03,   1.50966E-03
C:/temp/dataset/6/15_6.odb,Step-1,Increment      1: Step Time =    1.000,"PART-1-1",           795,      -7.09219,       3.25090,            0.,NA,NA,"",   101.618E-03,  -78.6756E-03,  -64.3142E-03,   1.58183E-03
C:/temp/dataset/6/15_6.odb,Step-1,Increment      1: Step Time =    1.000,"PART-1-1",           796,      -5.99438,      -2.38990,            0.,NA,NA,"",   71.2367E-03,  -48.6520E-03,  -52.0351E-03,   1.09742E-03
C:/temp/dataset/6/15_6.odb,Step-1,Increment      1: Step Time =    1.000,"PART-1-1",           797,      -8.16339,       2.56404,            0.,NA,NA,"",   103.920E-03,  -75.1962E-03,  -71.7278E-03,   2.22763E-03
C:/temp/dataset/6/15_6.odb,Step-1,Increment      1: Step Time =    1.000,"PART-1-1",           798,      -6.16245,       1.98671,            0.,NA,NA,"",   90.0911E-03,  -70.2778E-03,  -56.3687E-03,   918.385E-06
C:/temp/dataset/6/15_6.odb,Step-1,Increment      1: Step Time =    1.000,"PART-1-1",           799,      -9.36160,       1.80674,            0.,NA,NA,"",   107.088E-03,  -71.8741E-03,  -79.3843E-03,   2.90534E-03
C:/temp/dataset/6/15_6.odb,Step-1,Increment      1: Step Time =    1.000,"PART-1-1",           800,      -4.18828,       1.89018,            0.,NA,NA,"",   82.5213E-03,  -69.3636E-03,  -44.7040E-03,   282.096E-06
C:/temp/dataset/6/15_6.odb,Step-1,Increment      1: Step Time =    1.000,"PART-1-1",           801,      -2.02478,       2.01876,            0.,NA,NA,"",   77.8723E-03,  -69.6403E-03,  -34.8473E-03,   692.770E-06
C:/temp/dataset/6/15_6.odb,Step-1,Increment      1: Step Time =    1.000,"PART-1-1",           802,       5.29765,      -24.4346,            0.,NA,NA,"",   749.944E-06,  -405.979E-06,  -630.553E-06,   305.433E-06
C:/temp/dataset/6/15_6.odb,Step-1,Increment      1: Step Time =    1.000,"PART-1-1",           803,       8.18651,      -25.0309,            0.,NA,NA,"",   285.642E-06,  -73.4374E-06,   276.041E-06,   57.5386E-06
C:/temp/dataset/6/15_6.odb,Step-1,Increment      1: Step Time =    1.000,"PART-1-1",           804,       6.01068,      -25.2345,            0.,NA,NA,"",   386.900E-06,  -42.4616E-06,  -384.563E-06,   196.803E-06
