ODB Name,Step,Frame,Part Instance Name,    êﬂì_ÉâÉxÉã,X,Y,Z,Section Name,Material Name,Section Point,   U-Magnitude,          U-U1,          U-U2,       S-Mises
C:/temp/dataset/6/15_8.odb,Step-1,Increment      1: Step Time =    1.000,"PART-1-1",             1,            5.,           -5.,            0.,NA,NA,"",   53.5120E-03,  -51.6508E-03,  -13.9901E-03,   460.153E-06
C:/temp/dataset/6/15_8.odb,Step-1,Increment      1: Step Time =    1.000,"PART-1-1",             2,            0.,           -5.,            0.,NA,NA,"",   61.5232E-03,  -48.5708E-03,  -37.7621E-03,   737.253E-06
C:/temp/dataset/6/15_8.odb,Step-1,Increment      1: Step Time =    1.000,"PART-1-1",             3,            5.,      -10.0250,            0.,NA,NA,"",   34.8803E-03,  -32.7118E-03,  -12.1070E-03,   565.816E-06
C:/temp/dataset/6/15_8.odb,Step-1,Increment      1: Step Time =    1.000,"PART-1-1",             4,            5.,      -15.0500,            0.,NA,NA,"",   18.6924E-03,  -16.5064E-03,  -8.77178E-03,   875.750E-06
C:/temp/dataset/6/15_8.odb,Step-1,Increment      1: Step Time =    1.000,"PART-1-1",             5,            5.,          -20.,            0.,NA,NA,"",   4.74641E-03,  -3.63621E-03,  -3.05063E-03,   1.85738E-03
C:/temp/dataset/6/15_8.odb,Step-1,Increment      1: Step Time =    1.000,"PART-1-1",             6,            0.,          -20.,            0.,NA,NA,"",   4.09063E-03,  -3.66170E-03,  -1.82351E-03,   608.539E-06
C:/temp/dataset/6/15_8.odb,Step-1,Increment      1: Step Time =    1.000,"PART-1-1",             7,           -5.,          -20.,            0.,NA,NA,"",   19.2276E-03,  -6.88338E-03,  -17.9532E-03,   4.36226E-03
C:/temp/dataset/6/15_8.odb,Step-1,Increment      1: Step Time =    1.000,"PART-1-1",             8,           -5.,      -14.9750,            0.,NA,NA,"",   39.4560E-03,  -13.4415E-03,  -37.0959E-03,   3.30183E-03
C:/temp/dataset/6/15_8.odb,Step-1,Increment      1: Step Time =    1.000,"PART-1-1",             9,           -5.,      -9.95000,            0.,NA,NA,"",   56.7088E-03,  -25.7629E-03,  -50.5189E-03,   2.57856E-03
C:/temp/dataset/6/15_8.odb,Step-1,Increment      1: Step Time =    1.000,"PART-1-1",            10,           -5.,           -5.,            0.,NA,NA,"",   76.8786E-03,  -46.3668E-03,  -61.3225E-03,   1.93202E-03
C:/temp/dataset/6/15_8.odb,Step-1,Increment      1: Step Time =    1.000,"PART-1-1",            11,           15.,          -30.,            0.,NA,NA,"",            0.,  -295.136E-42,   552.564E-42,   1.06455E-03
C:/temp/dataset/6/15_8.odb,Step-1,Increment      1: Step Time =    1.000,"PART-1-1",            12,          -15.,          -30.,            0.,NA,NA,"",            0.,  -2.20913E-39,  -3.79368E-39,   7.22154E-03
C:/temp/dataset/6/15_8.odb,Step-1,Increment      1: Step Time =    1.000,"PART-1-1",            13,           15.,        -21.25,            0.,NA,NA,"",   10.2496E-03,  -4.94274E-03,   8.97902E-03,   1.38166E-03
C:/temp/dataset/6/15_8.odb,Step-1,Increment      1: Step Time =    1.000,"PART-1-1",            14,           15.,         -12.5,            0.,NA,NA,"",   31.5679E-03,  -25.0338E-03,   19.2312E-03,   1.08251E-03
C:/temp/dataset/6/15_8.odb,Step-1,Increment      1: Step Time =    1.000,"PART-1-1",            15,           15.,         -3.75,            0.,NA,NA,"",   63.7332E-03,  -58.4536E-03,   25.3986E-03,   479.136E-06
C:/temp/dataset/6/15_8.odb,Step-1,Increment      1: Step Time =    1.000,"PART-1-1",            16,           15.,            5.,            0.,NA,NA,"",   99.9002E-03,  -96.3032E-03,   26.5657E-03,   11.1159E-06
C:/temp/dataset/6/15_8.odb,Step-1,Increment      1: Step Time =    1.000,"PART-1-1",            17,           10.,            5.,            0.,NA,NA,"",   96.6005E-03,  -96.4288E-03,   5.75628E-03,   167.461E-06
C:/temp/dataset/6/15_8.odb,Step-1,Increment      1: Step Time =    1.000,"PART-1-1",            18,            5.,            5.,            0.,NA,NA,"",   99.3359E-03,  -98.2114E-03,  -14.9044E-03,   658.822E-06
C:/temp/dataset/6/15_8.odb,Step-1,Increment      1: Step Time =    1.000,"PART-1-1",            19,            0.,            5.,            0.,NA,NA,"",   109.348E-03,  -102.597E-03,  -37.8262E-03,   1.32754E-03
C:/temp/dataset/6/15_8.odb,Step-1,Increment      1: Step Time =    1.000,"PART-1-1",            20,           -5.,            5.,            0.,NA,NA,"",   130.667E-03,  -112.970E-03,  -65.6630E-03,   3.50692E-03
C:/temp/dataset/6/15_8.odb,Step-1,Increment      1: Step Time =    1.000,"PART-1-1",            21,           -5.,         11.25,            0.,NA,NA,"",   216.659E-03,  -208.855E-03,  -57.6268E-03,   1.54572E-03
C:/temp/dataset/6/15_8.odb,Step-1,Increment      1: Step Time =    1.000,"PART-1-1",            22,           -5.,          17.5,            0.,NA,NA,"",   343.377E-03,  -339.791E-03,  -49.4910E-03,   1.81909E-03
C:/temp/dataset/6/15_8.odb,Step-1,Increment      1: Step Time =    1.000,"PART-1-1",            23,           -5.,         23.75,            0.,NA,NA,"",   513.489E-03,  -511.830E-03,  -41.2399E-03,   1.93056E-03
C:/temp/dataset/6/15_8.odb,Step-1,Increment      1: Step Time =    1.000,"PART-1-1",            24,           -5.,           30.,            0.,NA,NA,"",   723.149E-03,  -722.126E-03,  -38.4589E-03,   287.897E-06
C:/temp/dataset/6/15_8.odb,Step-1,Increment      1: Step Time =    1.000,"PART-1-1",            25,          -10.,           30.,            0.,NA,NA,"",   758.461E-03,  -725.351E-03,  -221.652E-03,   4.48261E-03
C:/temp/dataset/6/15_8.odb,Step-1,Increment      1: Step Time =    1.000,"PART-1-1",            26,          -15.,           30.,            0.,NA,NA,"",   837.692E-03,  -733.323E-03,  -404.925E-03,   7.96883E-03
C:/temp/dataset/6/15_8.odb,Step-1,Increment      1: Step Time =    1.000,"PART-1-1",            27,          -15.,          22.5,            0.,NA,NA,"",   593.656E-03,  -487.589E-03,  -338.651E-03,   9.89967E-03
C:/temp/dataset/6/15_8.odb,Step-1,Increment      1: Step Time =    1.000,"PART-1-1",            28,          -15.,           15.,            0.,NA,NA,"",   402.211E-03,  -298.097E-03,  -270.022E-03,   9.72040E-03
C:/temp/dataset/6/15_8.odb,Step-1,Increment      1: Step Time =    1.000,"PART-1-1",            29,          -15.,           7.5,            0.,NA,NA,"",   263.648E-03,  -166.701E-03,  -204.258E-03,   9.38698E-03
C:/temp/dataset/6/15_8.odb,Step-1,Increment      1: Step Time =    1.000,"PART-1-1",            30,          -15.,            0.,            0.,NA,NA,"",   171.337E-03,  -91.0123E-03,  -145.166E-03,   7.73461E-03
C:/temp/dataset/6/15_8.odb,Step-1,Increment      1: Step Time =    1.000,"PART-1-1",            31,          -15.,          -7.5,            0.,NA,NA,"",   112.416E-03,  -52.4755E-03,  -99.4172E-03,   6.01267E-03
C:/temp/dataset/6/15_8.odb,Step-1,Increment      1: Step Time =    1.000,"PART-1-1",            32,          -15.,          -15.,            0.,NA,NA,"",   70.2281E-03,  -31.7426E-03,  -62.6450E-03,   4.92559E-03
C:/temp/dataset/6/15_8.odb,Step-1,Increment      1: Step Time =    1.000,"PART-1-1",            33,          -15.,         -22.5,            0.,NA,NA,"",   36.4629E-03,  -18.0295E-03,  -31.6935E-03,   4.45751E-03
C:/temp/dataset/6/15_8.odb,Step-1,Increment      1: Step Time =    1.000,"PART-1-1",            34,           2.5,           -5.,            0.,NA,NA,"",   56.3026E-03,  -50.1762E-03,  -25.5408E-03,   666.205E-06
C:/temp/dataset/6/15_8.odb,Step-1,Increment      1: Step Time =    1.000,"PART-1-1",            35,            5.,      -7.51250,            0.,NA,NA,"",   44.0751E-03,  -42.0495E-03,  -13.2081E-03,   439.665E-06
C:/temp/dataset/6/15_8.odb,Step-1,Increment      1: Step Time =    1.000,"PART-1-1",            36,            5.,      -12.5375,            0.,NA,NA,"",   26.3691E-03,  -24.1333E-03,  -10.6261E-03,   737.694E-06
C:/temp/dataset/6/15_8.odb,Step-1,Increment      1: Step Time =    1.000,"PART-1-1",            37,            5.,      -17.5250,            0.,NA,NA,"",   11.9458E-03,  -9.91106E-03,  -6.66883E-03,   1.11295E-03
C:/temp/dataset/6/15_8.odb,Step-1,Increment      1: Step Time =    1.000,"PART-1-1",            38,           2.5,          -20.,            0.,NA,NA,"",   2.85067E-03,  -2.61816E-03,  -1.12765E-03,   462.879E-06
C:/temp/dataset/6/15_8.odb,Step-1,Increment      1: Step Time =    1.000,"PART-1-1",            39,          -2.5,          -20.,            0.,NA,NA,"",   7.84179E-03,  -5.58512E-03,  -5.50455E-03,   1.19424E-03
C:/temp/dataset/6/15_8.odb,Step-1,Increment      1: Step Time =    1.000,"PART-1-1",            40,           -5.,      -17.4875,            0.,NA,NA,"",   30.7672E-03,  -9.41963E-03,  -29.2897E-03,   4.07495E-03
C:/temp/dataset/6/15_8.odb,Step-1,Increment      1: Step Time =    1.000,"PART-1-1",            41,           -5.,      -12.4625,            0.,NA,NA,"",   48.0812E-03,  -18.8496E-03,  -44.2323E-03,   2.97824E-03
C:/temp/dataset/6/15_8.odb,Step-1,Increment      1: Step Time =    1.000,"PART-1-1",            42,           -5.,      -7.47500,            0.,NA,NA,"",   65.6486E-03,  -34.5305E-03,  -55.8335E-03,   2.28313E-03
C:/temp/dataset/6/15_8.odb,Step-1,Increment      1: Step Time =    1.000,"PART-1-1",            43,          -2.5,           -5.,            0.,NA,NA,"",   69.1868E-03,  -47.1570E-03,  -50.6264E-03,   801.812E-06
C:/temp/dataset/6/15_8.odb,Step-1,Increment      1: Step Time =    1.000,"PART-1-1",            44,          12.5,          -30.,            0.,NA,NA,"",            0.,  -289.099E-42,   1.54667E-39,   549.829E-06
C:/temp/dataset/6/15_8.odb,Step-1,Increment      1: Step Time =    1.000,"PART-1-1",            45,           10.,          -30.,            0.,NA,NA,"",            0.,   632.259E-42,   925.031E-42,   399.961E-06
C:/temp/dataset/6/15_8.odb,Step-1,Increment      1: Step Time =    1.000,"PART-1-1",            46,           7.5,          -30.,            0.,NA,NA,"",            0.,   433.651E-42,   253.767E-42,   317.543E-06
C:/temp/dataset/6/15_8.odb,Step-1,Increment      1: Step Time =    1.000,"PART-1-1",            47,            5.,          -30.,            0.,NA,NA,"",            0.,   624.608E-42,  -813.961E-42,   355.533E-06
C:/temp/dataset/6/15_8.odb,Step-1,Increment      1: Step Time =    1.000,"PART-1-1",            48,           2.5,          -30.,            0.,NA,NA,"",            0.,   978.548E-42,  -1.45525E-39,   515.101E-06
C:/temp/dataset/6/15_8.odb,Step-1,Increment      1: Step Time =    1.000,"PART-1-1",            49,            0.,          -30.,            0.,NA,NA,"",            0.,   75.4964E-42,  -933.336E-42,   835.823E-06
C:/temp/dataset/6/15_8.odb,Step-1,Increment      1: Step Time =    1.000,"PART-1-1",            50,          -2.5,          -30.,            0.,NA,NA,"",            0.,   2.19453E-39,  -3.72378E-39,   1.30140E-03
C:/temp/dataset/6/15_8.odb,Step-1,Increment      1: Step Time =    1.000,"PART-1-1",            51,           -5.,          -30.,            0.,NA,NA,"",            0.,   2.69377E-39,  -5.55218E-39,   1.81588E-03
C:/temp/dataset/6/15_8.odb,Step-1,Increment      1: Step Time =    1.000,"PART-1-1",            52,          -7.5,          -30.,            0.,NA,NA,"",            0.,   2.81710E-39,  -7.42510E-39,   2.33651E-03
C:/temp/dataset/6/15_8.odb,Step-1,Increment      1: Step Time =    1.000,"PART-1-1",            53,          -10.,          -30.,            0.,NA,NA,"",            0.,  -3.53267E-39,  -8.23264E-39,   2.91529E-03
C:/temp/dataset/6/15_8.odb,Step-1,Increment      1: Step Time =    1.000,"PART-1-1",            54,         -12.5,          -30.,            0.,NA,NA,"",            0.,  -1.02299E-39,  -8.86131E-39,   3.25187E-03
C:/temp/dataset/6/15_8.odb,Step-1,Increment      1: Step Time =    1.000,"PART-1-1",            55,           15.,      -23.4375,            0.,NA,NA,"",   6.91261E-03,  -2.75240E-03,   6.34101E-03,   1.28623E-03
C:/temp/dataset/6/15_8.odb,Step-1,Increment      1: Step Time =    1.000,"PART-1-1",            56,           15.,       -25.625,            0.,NA,NA,"",   4.22163E-03,  -1.48807E-03,   3.95066E-03,   1.13809E-03
C:/temp/dataset/6/15_8.odb,Step-1,Increment      1: Step Time =    1.000,"PART-1-1",            57,           15.,      -27.8125,            0.,NA,NA,"",   2.06148E-03,  -863.786E-06,   1.87178E-03,   1.04347E-03
C:/temp/dataset/6/15_8.odb,Step-1,Increment      1: Step Time =    1.000,"PART-1-1",            58,           15.,      -14.6875,            0.,NA,NA,"",   25.0472E-03,  -18.4188E-03,   16.9737E-03,   1.22352E-03
C:/temp/dataset/6/15_8.odb,Step-1,Increment      1: Step Time =    1.000,"PART-1-1",            59,           15.,       -16.875,            0.,NA,NA,"",   19.2896E-03,  -12.7782E-03,   14.4501E-03,   1.34397E-03
C:/temp/dataset/6/15_8.odb,Step-1,Increment      1: Step Time =    1.000,"PART-1-1",            60,           15.,      -19.0625,            0.,NA,NA,"",   14.3536E-03,  -8.26262E-03,   11.7370E-03,   1.40577E-03
C:/temp/dataset/6/15_8.odb,Step-1,Increment      1: Step Time =    1.000,"PART-1-1",            61,           15.,       -5.9375,            0.,NA,NA,"",   54.9564E-03,  -49.2898E-03,   24.3049E-03,   647.919E-06
C:/temp/dataset/6/15_8.odb,Step-1,Increment      1: Step Time =    1.000,"PART-1-1",            62,           15.,        -8.125,            0.,NA,NA,"",   46.6032E-03,  -40.5899E-03,   22.8980E-03,   797.488E-06
C:/temp/dataset/6/15_8.odb,Step-1,Increment      1: Step Time =    1.000,"PART-1-1",            63,           15.,      -10.3125,            0.,NA,NA,"",   38.7791E-03,  -32.4678E-03,   21.2053E-03,   939.393E-06
C:/temp/dataset/6/15_8.odb,Step-1,Increment      1: Step Time =    1.000,"PART-1-1",            64,           15.,        2.8125,            0.,NA,NA,"",   90.9737E-03,  -86.9993E-03,   26.5956E-03,   15.5305E-06
C:/temp/dataset/6/15_8.odb,Step-1,Increment      1: Step Time =    1.000,"PART-1-1",            65,           15.,      625.E-03,            0.,NA,NA,"",   81.9220E-03,  -77.5126E-03,   26.5144E-03,   122.682E-06
C:/temp/dataset/6/15_8.odb,Step-1,Increment      1: Step Time =    1.000,"PART-1-1",            66,           15.,       -1.5625,            0.,NA,NA,"",   72.7846E-03,  -67.9290E-03,   26.1391E-03,   294.780E-06
C:/temp/dataset/6/15_8.odb,Step-1,Increment      1: Step Time =    1.000,"PART-1-1",            67,          12.5,            5.,            0.,NA,NA,"",   97.5984E-03,  -96.2711E-03,   16.0413E-03,   19.7503E-06
C:/temp/dataset/6/15_8.odb,Step-1,Increment      1: Step Time =    1.000,"PART-1-1",            68,           7.5,            5.,            0.,NA,NA,"",   97.1390E-03,  -97.0368E-03,  -4.45421E-03,   401.217E-06
C:/temp/dataset/6/15_8.odb,Step-1,Increment      1: Step Time =    1.000,"PART-1-1",            69,           2.5,            5.,            0.,NA,NA,"",   103.334E-03,  -100.027E-03,  -25.9342E-03,   975.475E-06
C:/temp/dataset/6/15_8.odb,Step-1,Increment      1: Step Time =    1.000,"PART-1-1",            70,          -2.5,            5.,            0.,NA,NA,"",   117.679E-03,  -106.092E-03,  -50.9219E-03,   2.07238E-03
C:/temp/dataset/6/15_8.odb,Step-1,Increment      1: Step Time =    1.000,"PART-1-1",            71,           -5.,       9.16667,            0.,NA,NA,"",   183.978E-03,  -173.887E-03,  -60.0933E-03,   1.40548E-03
C:/temp/dataset/6/15_8.odb,Step-1,Increment      1: Step Time =    1.000,"PART-1-1",            72,           -5.,       7.08333,            0.,NA,NA,"",   155.601E-03,  -142.617E-03,  -62.2251E-03,   1.73007E-03
C:/temp/dataset/6/15_8.odb,Step-1,Increment      1: Step Time =    1.000,"PART-1-1",            73,           -5.,       15.4167,            0.,NA,NA,"",   296.316E-03,  -291.669E-03,  -52.2737E-03,   1.74601E-03
C:/temp/dataset/6/15_8.odb,Step-1,Increment      1: Step Time =    1.000,"PART-1-1",            74,           -5.,       13.3333,            0.,NA,NA,"",   254.076E-03,  -248.050E-03,  -55.0043E-03,   1.65138E-03
C:/temp/dataset/6/15_8.odb,Step-1,Increment      1: Step Time =    1.000,"PART-1-1",            75,           -5.,       21.6667,            0.,NA,NA,"",   451.932E-03,  -449.793E-03,  -43.9169E-03,   1.93327E-03
C:/temp/dataset/6/15_8.odb,Step-1,Increment      1: Step Time =    1.000,"PART-1-1",            76,           -5.,       19.5833,            0.,NA,NA,"",   395.254E-03,  -392.488E-03,  -46.6754E-03,   1.88133E-03
C:/temp/dataset/6/15_8.odb,Step-1,Increment      1: Step Time =    1.000,"PART-1-1",            77,           -5.,       27.9167,            0.,NA,NA,"",   650.701E-03,  -649.612E-03,  -37.6292E-03,   767.622E-06
C:/temp/dataset/6/15_8.odb,Step-1,Increment      1: Step Time =    1.000,"PART-1-1",            78,           -5.,       25.8333,            0.,NA,NA,"",   579.869E-03,  -578.563E-03,  -38.8964E-03,   1.72467E-03
C:/temp/dataset/6/15_8.odb,Step-1,Increment      1: Step Time =    1.000,"PART-1-1",            79,          -7.5,           30.,            0.,NA,NA,"",   731.911E-03,  -721.180E-03,  -124.875E-03,   1.77763E-03
C:/temp/dataset/6/15_8.odb,Step-1,Increment      1: Step Time =    1.000,"PART-1-1",            80,         -12.5,           30.,            0.,NA,NA,"",   793.113E-03,  -726.477E-03,  -318.212E-03,   8.20473E-03
C:/temp/dataset/6/15_8.odb,Step-1,Increment      1: Step Time =    1.000,"PART-1-1",            81,          -15.,           25.,            0.,NA,NA,"",   670.200E-03,  -564.033E-03,  -361.986E-03,   9.88695E-03
C:/temp/dataset/6/15_8.odb,Step-1,Increment      1: Step Time =    1.000,"PART-1-1",            82,          -15.,          27.5,            0.,NA,NA,"",   752.784E-03,  -647.080E-03,  -384.671E-03,   8.91399E-03
C:/temp/dataset/6/15_8.odb,Step-1,Increment      1: Step Time =    1.000,"PART-1-1",            83,          -15.,          17.5,            0.,NA,NA,"",   459.814E-03,  -354.716E-03,  -292.584E-03,   9.79361E-03
C:/temp/dataset/6/15_8.odb,Step-1,Increment      1: Step Time =    1.000,"PART-1-1",            84,          -15.,           20.,            0.,NA,NA,"",   523.560E-03,  -417.850E-03,  -315.463E-03,   9.86175E-03
C:/temp/dataset/6/15_8.odb,Step-1,Increment      1: Step Time =    1.000,"PART-1-1",            85,          -15.,           10.,            0.,NA,NA,"",   304.397E-03,  -204.103E-03,  -225.830E-03,   9.55001E-03
C:/temp/dataset/6/15_8.odb,Step-1,Increment      1: Step Time =    1.000,"PART-1-1",            86,          -15.,          12.5,            0.,NA,NA,"",   350.497E-03,  -247.906E-03,  -247.771E-03,   9.64052E-03
C:/temp/dataset/6/15_8.odb,Step-1,Increment      1: Step Time =    1.000,"PART-1-1",            87,          -15.,           2.5,            0.,NA,NA,"",   197.435E-03,  -110.749E-03,  -163.448E-03,   8.45475E-03
C:/temp/dataset/6/15_8.odb,Step-1,Increment      1: Step Time =    1.000,"PART-1-1",            88,          -15.,            5.,            0.,NA,NA,"",   228.061E-03,  -135.691E-03,  -183.302E-03,   9.03951E-03
C:/temp/dataset/6/15_8.odb,Step-1,Increment      1: Step Time =    1.000,"PART-1-1",            89,          -15.,           -5.,            0.,NA,NA,"",   129.616E-03,  -62.7346E-03,  -113.423E-03,   6.46661E-03
C:/temp/dataset/6/15_8.odb,Step-1,Increment      1: Step Time =    1.000,"PART-1-1",            90,          -15.,          -2.5,            0.,NA,NA,"",   149.010E-03,  -75.3539E-03,  -128.552E-03,   7.03298E-03
C:/temp/dataset/6/15_8.odb,Step-1,Increment      1: Step Time =    1.000,"PART-1-1",            91,          -15.,         -12.5,            0.,NA,NA,"",   82.9748E-03,  -37.3468E-03,  -74.0947E-03,   5.26773E-03
C:/temp/dataset/6/15_8.odb,Step-1,Increment      1: Step Time =    1.000,"PART-1-1",            92,          -15.,          -10.,            0.,NA,NA,"",   96.9751E-03,  -44.1282E-03,  -86.3532E-03,   5.63780E-03
C:/temp/dataset/6/15_8.odb,Step-1,Increment      1: Step Time =    1.000,"PART-1-1",            93,          -15.,          -20.,            0.,NA,NA,"",   47.3049E-03,  -22.3213E-03,  -41.7075E-03,   4.48851E-03
C:/temp/dataset/6/15_8.odb,Step-1,Increment      1: Step Time =    1.000,"PART-1-1",            94,          -15.,         -17.5,            0.,NA,NA,"",   58.4587E-03,  -26.8592E-03,  -51.9231E-03,   4.64719E-03
C:/temp/dataset/6/15_8.odb,Step-1,Increment      1: Step Time =    1.000,"PART-1-1",            95,          -15.,         -27.5,            0.,NA,NA,"",   15.1602E-03,  -9.22786E-03,  -12.0283E-03,   4.79697E-03
C:/temp/dataset/6/15_8.odb,Step-1,Increment      1: Step Time =    1.000,"PART-1-1",            96,          -15.,          -25.,            0.,NA,NA,"",   25.8176E-03,  -13.8789E-03,  -21.7699E-03,   4.33414E-03
C:/temp/dataset/6/15_8.odb,Step-1,Increment      1: Step Time =    1.000,"PART-1-1",            97,       13.0047,      -3.80353,            0.,NA,NA,"",   60.3293E-03,  -57.8331E-03,   17.1744E-03,   419.518E-06
C:/temp/dataset/6/15_8.odb,Step-1,Increment      1: Step Time =    1.000,"PART-1-1",            98,       6.97971,      -7.55833,            0.,NA,NA,"",   42.0901E-03,  -41.6894E-03,  -5.79400E-03,   258.499E-06
C:/temp/dataset/6/15_8.odb,Step-1,Increment      1: Step Time =    1.000,"PART-1-1",            99,       6.96639,      -10.0829,            0.,NA,NA,"",   32.5733E-03,  -32.1427E-03,  -5.27883E-03,   353.048E-06
C:/temp/dataset/6/15_8.odb,Step-1,Increment      1: Step Time =    1.000,"PART-1-1",           100,       12.9900,      -12.5465,            0.,NA,NA,"",   27.3468E-03,  -24.0660E-03,   12.9875E-03,   729.814E-06
C:/temp/dataset/6/15_8.odb,Step-1,Increment      1: Step Time =    1.000,"PART-1-1",           101,       6.90028,      -17.1420,            0.,NA,NA,"",   10.6642E-03,  -10.3179E-03,  -2.69567E-03,   740.657E-06
C:/temp/dataset/6/15_8.odb,Step-1,Increment      1: Step Time =    1.000,"PART-1-1",           102,       7.03871,      -19.0570,            0.,NA,NA,"",   6.03966E-03,  -5.83819E-03,  -1.54697E-03,   530.781E-06
C:/temp/dataset/6/15_8.odb,Step-1,Increment      1: Step Time =    1.000,"PART-1-1",           103,       5.31709,      -21.2647,            0.,NA,NA,"",   3.30968E-03,  -2.58899E-03,  -2.06182E-03,   933.679E-06
C:/temp/dataset/6/15_8.odb,Step-1,Increment      1: Step Time =    1.000,"PART-1-1",           104,      -4.83361,      -22.6144,            0.,NA,NA,"",   11.0781E-03,  -1.18789E-03,  -11.0143E-03,   2.41739E-03
C:/temp/dataset/6/15_8.odb,Step-1,Increment      1: Step Time =    1.000,"PART-1-1",           105,      -7.46484,      -17.6587,            0.,NA,NA,"",   36.3176E-03,  -12.9754E-03,  -33.9206E-03,   3.86423E-03
C:/temp/dataset/6/15_8.odb,Step-1,Increment      1: Step Time =    1.000,"PART-1-1",           106,      -12.5283,      -27.3245,            0.,NA,NA,"",   10.5753E-03,  -5.31659E-03,  -9.14167E-03,   4.44318E-03
C:/temp/dataset/6/15_8.odb,Step-1,Increment      1: Step Time =    1.000,"PART-1-1",           107,      -12.4870,      -17.6221,            0.,NA,NA,"",   50.9716E-03,  -21.5542E-03,  -46.1900E-03,   4.37340E-03
C:/temp/dataset/6/15_8.odb,Step-1,Increment      1: Step Time =    1.000,"PART-1-1",           108,      -7.32043,      -12.6401,            0.,NA,NA,"",   54.6496E-03,  -21.8249E-03,  -50.1024E-03,   3.57755E-03
C:/temp/dataset/6/15_8.odb,Step-1,Increment      1: Step Time =    1.000,"PART-1-1",           109,      -7.14644,      -8.03697,            0.,NA,NA,"",   72.2066E-03,  -34.8424E-03,  -63.2440E-03,   3.16950E-03
C:/temp/dataset/6/15_8.odb,Step-1,Increment      1: Step Time =    1.000,"PART-1-1",           110,      -12.6601,       4.88622,            0.,NA,NA,"",   200.129E-03,  -126.279E-03,  -155.259E-03,   6.68875E-03
C:/temp/dataset/6/15_8.odb,Step-1,Increment      1: Step Time =    1.000,"PART-1-1",           111,      -13.0978,       12.5399,            0.,NA,NA,"",   321.282E-03,  -241.666E-03,  -211.707E-03,   7.46136E-03
C:/temp/dataset/6/15_8.odb,Step-1,Increment      1: Step Time =    1.000,"PART-1-1",           112,      -6.45576,       21.8628,            0.,NA,NA,"",   462.141E-03,  -454.148E-03,  -85.5800E-03,   199.578E-06
C:/temp/dataset/6/15_8.odb,Step-1,Increment      1: Step Time =    1.000,"PART-1-1",           113,      -7.28884,       25.7044,            0.,NA,NA,"",   583.558E-03,  -572.360E-03,  -113.773E-03,   579.948E-06
C:/temp/dataset/6/15_8.odb,Step-1,Increment      1: Step Time =    1.000,"PART-1-1",           114,      -9.90518,       27.6474,            0.,NA,NA,"",   671.142E-03,  -638.066E-03,  -208.093E-03,   4.27490E-03
C:/temp/dataset/6/15_8.odb,Step-1,Increment      1: Step Time =    1.000,"PART-1-1",           115,      -3.01211,      -3.13168,            0.,NA,NA,"",   77.4493E-03,  -56.3870E-03,  -53.0934E-03,   810.265E-06
C:/temp/dataset/6/15_8.odb,Step-1,Increment      1: Step Time =    1.000,"PART-1-1",           116,      -2.19169,       3.00836,            0.,NA,NA,"",   105.114E-03,  -93.3945E-03,  -48.2338E-03,   1.29449E-03
C:/temp/dataset/6/15_8.odb,Step-1,Increment      1: Step Time =    1.000,"PART-1-1",           117,       1.85193,      -2.77696,            0.,NA,NA,"",   66.8605E-03,  -60.6603E-03,  -28.1185E-03,   437.921E-06
C:/temp/dataset/6/15_8.odb,Step-1,Increment      1: Step Time =    1.000,"PART-1-1",           118,       2.83229,       2.22691,            0.,NA,NA,"",   89.4935E-03,  -86.3375E-03,  -23.5565E-03,   619.472E-06
C:/temp/dataset/6/15_8.odb,Step-1,Increment      1: Step Time =    1.000,"PART-1-1",           119,       7.74921,       3.07964,            0.,NA,NA,"",   88.7742E-03,  -88.7191E-03,  -3.12797E-03,   395.569E-06
C:/temp/dataset/6/15_8.odb,Step-1,Increment      1: Step Time =    1.000,"PART-1-1",           120,      -2.47342,      -22.6017,            0.,NA,NA,"",   4.54308E-03,  -748.677E-06,  -4.48096E-03,   911.701E-06
C:/temp/dataset/6/15_8.odb,Step-1,Increment      1: Step Time =    1.000,"PART-1-1",           121,      -7.48266,       20.3798,            0.,NA,NA,"",   427.705E-03,  -412.436E-03,  -113.260E-03,   1.03188E-03
C:/temp/dataset/6/15_8.odb,Step-1,Increment      1: Step Time =    1.000,"PART-1-1",           122,      -7.10993,       13.1351,            0.,NA,NA,"",   261.862E-03,  -243.280E-03,  -96.8844E-03,   733.393E-06
C:/temp/dataset/6/15_8.odb,Step-1,Increment      1: Step Time =    1.000,"PART-1-1",           123,      -6.64156,       6.82435,            0.,NA,NA,"",   162.855E-03,  -138.896E-03,  -85.0281E-03,   728.779E-06
C:/temp/dataset/6/15_8.odb,Step-1,Increment      1: Step Time =    1.000,"PART-1-1",           124,      -12.9641,      -2.37512,            0.,NA,NA,"",   136.154E-03,  -70.1652E-03,  -116.683E-03,   5.90247E-03
C:/temp/dataset/6/15_8.odb,Step-1,Increment      1: Step Time =    1.000,"PART-1-1",           125,      -12.1317,      -9.84573,            0.,NA,NA,"",   86.0004E-03,  -37.8547E-03,  -77.2211E-03,   4.83611E-03
C:/temp/dataset/6/15_8.odb,Step-1,Increment      1: Step Time =    1.000,"PART-1-1",           126,       4.04132,      -2.67712,            0.,NA,NA,"",   64.3942E-03,  -61.7873E-03,  -18.1368E-03,   351.342E-06
C:/temp/dataset/6/15_8.odb,Step-1,Increment      1: Step Time =    1.000,"PART-1-1",           127,       6.95362,      -12.5367,            0.,NA,NA,"",   24.0880E-03,  -23.6552E-03,  -4.54557E-03,   432.389E-06
C:/temp/dataset/6/15_8.odb,Step-1,Increment      1: Step Time =    1.000,"PART-1-1",           128,       6.92458,      -14.9216,            0.,NA,NA,"",   16.7019E-03,  -16.2986E-03,  -3.64811E-03,   549.125E-06
C:/temp/dataset/6/15_8.odb,Step-1,Increment      1: Step Time =    1.000,"PART-1-1",           129,       12.9089,      -21.3671,            0.,NA,NA,"",   7.20898E-03,  -3.71871E-03,   6.17581E-03,   899.098E-06
C:/temp/dataset/6/15_8.odb,Step-1,Increment      1: Step Time =    1.000,"PART-1-1",           130,   283.131E-03,      -22.8786,            0.,NA,NA,"",   1.60078E-03,  -841.522E-06,  -1.36174E-03,   471.861E-06
C:/temp/dataset/6/15_8.odb,Step-1,Increment      1: Step Time =    1.000,"PART-1-1",           131,      -12.9776,      -22.4214,            0.,NA,NA,"",   31.9065E-03,  -14.1721E-03,  -28.5863E-03,   4.30725E-03
C:/temp/dataset/6/15_8.odb,Step-1,Increment      1: Step Time =    1.000,"PART-1-1",           132,      -7.42030,      -15.1083,            0.,NA,NA,"",   45.5138E-03,  -17.0173E-03,  -42.2128E-03,   3.85062E-03
C:/temp/dataset/6/15_8.odb,Step-1,Increment      1: Step Time =    1.000,"PART-1-1",           133,      -7.18486,      -10.2642,            0.,NA,NA,"",   63.3882E-03,  -27.7191E-03,  -57.0063E-03,   3.37409E-03
C:/temp/dataset/6/15_8.odb,Step-1,Increment      1: Step Time =    1.000,"PART-1-1",           134,      -7.33974,      -5.93881,            0.,NA,NA,"",   82.2365E-03,  -43.4526E-03,  -69.8191E-03,   2.81607E-03
C:/temp/dataset/6/15_8.odb,Step-1,Increment      1: Step Time =    1.000,"PART-1-1",           135,  -533.729E-03,      -2.94296,            0.,NA,NA,"",   71.0710E-03,  -58.7840E-03,  -39.9442E-03,   556.196E-06
C:/temp/dataset/6/15_8.odb,Step-1,Increment      1: Step Time =    1.000,"PART-1-1",           136,       10.2172,      -28.0250,            0.,NA,NA,"",   706.709E-06,   472.385E-06,   525.633E-06,   373.026E-06
C:/temp/dataset/6/15_8.odb,Step-1,Increment      1: Step Time =    1.000,"PART-1-1",           137,       7.82196,      -28.0777,            0.,NA,NA,"",   582.004E-06,   578.276E-06,   65.7683E-06,   172.298E-06
C:/temp/dataset/6/15_8.odb,Step-1,Increment      1: Step Time =    1.000,"PART-1-1",           138,       5.43540,      -28.0544,            0.,NA,NA,"",   628.062E-06,   587.826E-06,  -221.185E-06,   196.646E-06
C:/temp/dataset/6/15_8.odb,Step-1,Increment      1: Step Time =    1.000,"PART-1-1",           139,       2.98405,      -27.8165,            0.,NA,NA,"",   869.604E-06,   756.679E-06,  -428.542E-06,   315.482E-06
C:/temp/dataset/6/15_8.odb,Step-1,Increment      1: Step Time =    1.000,"PART-1-1",           140,   324.250E-03,      -27.0908,            0.,NA,NA,"",   1.59051E-03,   1.28917E-03,  -931.539E-06,   550.902E-06
C:/temp/dataset/6/15_8.odb,Step-1,Increment      1: Step Time =    1.000,"PART-1-1",           141,      -2.46293,      -27.5198,            0.,NA,NA,"",   2.55367E-03,   1.74755E-03,  -1.86206E-03,   1.07998E-03
C:/temp/dataset/6/15_8.odb,Step-1,Increment      1: Step Time =    1.000,"PART-1-1",           142,      -4.88996,      -27.5861,            0.,NA,NA,"",   3.60351E-03,   1.58229E-03,  -3.23754E-03,   1.77319E-03
C:/temp/dataset/6/15_8.odb,Step-1,Increment      1: Step Time =    1.000,"PART-1-1",           143,      -7.26500,      -27.4866,            0.,NA,NA,"",   4.98279E-03,   561.362E-06,  -4.95107E-03,   2.54067E-03
C:/temp/dataset/6/15_8.odb,Step-1,Increment      1: Step Time =    1.000,"PART-1-1",           144,      -9.86695,      -26.8928,            0.,NA,NA,"",   8.53904E-03,  -2.11772E-03,  -8.27227E-03,   3.50283E-03
C:/temp/dataset/6/15_8.odb,Step-1,Increment      1: Step Time =    1.000,"PART-1-1",           145,       12.7710,      -23.5898,            0.,NA,NA,"",   4.56544E-03,  -1.57299E-03,   4.28590E-03,   847.428E-06
C:/temp/dataset/6/15_8.odb,Step-1,Increment      1: Step Time =    1.000,"PART-1-1",           146,       12.6989,      -25.7990,            0.,NA,NA,"",   2.65407E-03,  -432.311E-06,   2.61862E-03,   807.402E-06
C:/temp/dataset/6/15_8.odb,Step-1,Increment      1: Step Time =    1.000,"PART-1-1",           147,       12.6207,      -27.9366,            0.,NA,NA,"",   1.16658E-03,  -1.91269E-06,   1.16658E-03,   745.665E-06
C:/temp/dataset/6/15_8.odb,Step-1,Increment      1: Step Time =    1.000,"PART-1-1",           148,       12.9983,      -14.8223,            0.,NA,NA,"",   20.6184E-03,  -17.1212E-03,   11.4884E-03,   813.360E-06
C:/temp/dataset/6/15_8.odb,Step-1,Increment      1: Step Time =    1.000,"PART-1-1",           149,       13.0558,      -17.0719,            0.,NA,NA,"",   15.0705E-03,  -11.3377E-03,   9.92864E-03,   891.086E-06
C:/temp/dataset/6/15_8.odb,Step-1,Increment      1: Step Time =    1.000,"PART-1-1",           150,       13.1682,      -19.2108,            0.,NA,NA,"",   10.9232E-03,  -7.01665E-03,   8.37151E-03,   956.797E-06
C:/temp/dataset/6/15_8.odb,Step-1,Increment      1: Step Time =    1.000,"PART-1-1",           151,       13.0670,      -5.94273,            0.,NA,NA,"",   51.5414E-03,  -48.7733E-03,   16.6638E-03,   496.470E-06
C:/temp/dataset/6/15_8.odb,Step-1,Increment      1: Step Time =    1.000,"PART-1-1",           152,       13.0350,      -8.09399,            0.,NA,NA,"",   43.0331E-03,  -40.1061E-03,   15.5994E-03,   570.924E-06
C:/temp/dataset/6/15_8.odb,Step-1,Increment      1: Step Time =    1.000,"PART-1-1",           153,       12.9982,      -10.2981,            0.,NA,NA,"",   34.8890E-03,  -31.8066E-03,   14.3383E-03,   647.251E-06
C:/temp/dataset/6/15_8.odb,Step-1,Increment      1: Step Time =    1.000,"PART-1-1",           154,       12.5107,   556.281E-03,            0.,NA,NA,"",   78.7150E-03,  -77.0674E-03,   16.0211E-03,   271.007E-06
C:/temp/dataset/6/15_8.odb,Step-1,Increment      1: Step Time =    1.000,"PART-1-1",           155,       12.7702,      -1.64554,            0.,NA,NA,"",   69.3397E-03,  -67.2814E-03,   16.7693E-03,   349.402E-06
C:/temp/dataset/6/15_8.odb,Step-1,Increment      1: Step Time =    1.000,"PART-1-1",           156,       10.0517,       2.85834,            0.,NA,NA,"",   87.5527E-03,  -87.3380E-03,   6.12858E-03,   286.502E-06
C:/temp/dataset/6/15_8.odb,Step-1,Increment      1: Step Time =    1.000,"PART-1-1",           157,       5.39286,       2.85476,            0.,NA,NA,"",   89.3233E-03,  -88.4137E-03,  -12.7154E-03,   529.695E-06
C:/temp/dataset/6/15_8.odb,Step-1,Increment      1: Step Time =    1.000,"PART-1-1",           158,   175.602E-03,       2.90951,            0.,NA,NA,"",   98.1430E-03,  -91.3001E-03,  -36.0048E-03,   899.840E-06
C:/temp/dataset/6/15_8.odb,Step-1,Increment      1: Step Time =    1.000,"PART-1-1",           159,      -4.35394,       2.91920,            0.,NA,NA,"",   112.413E-03,  -94.2128E-03,  -61.3238E-03,   553.712E-06
C:/temp/dataset/6/15_8.odb,Step-1,Increment      1: Step Time =    1.000,"PART-1-1",           160,      -7.05997,       10.9599,            0.,NA,NA,"",   223.825E-03,  -203.051E-03,  -94.1693E-03,   735.003E-06
C:/temp/dataset/6/15_8.odb,Step-1,Increment      1: Step Time =    1.000,"PART-1-1",           161,      -6.93805,       8.84105,            0.,NA,NA,"",   191.102E-03,  -168.265E-03,  -90.5934E-03,   630.315E-06
C:/temp/dataset/6/15_8.odb,Step-1,Increment      1: Step Time =    1.000,"PART-1-1",           162,      -7.28921,       17.6445,            0.,NA,NA,"",   357.880E-03,  -342.106E-03,  -105.078E-03,   845.219E-06
C:/temp/dataset/6/15_8.odb,Step-1,Increment      1: Step Time =    1.000,"PART-1-1",           163,      -7.17735,       15.3234,            0.,NA,NA,"",   305.507E-03,  -288.606E-03,  -100.206E-03,   760.062E-06
C:/temp/dataset/6/15_8.odb,Step-1,Increment      1: Step Time =    1.000,"PART-1-1",           164,      -6.93557,       23.5874,            0.,NA,NA,"",   515.135E-03,  -505.198E-03,  -100.695E-03,   346.332E-06
C:/temp/dataset/6/15_8.odb,Step-1,Increment      1: Step Time =    1.000,"PART-1-1",           165,      -13.1925,       19.7530,            0.,NA,NA,"",   483.794E-03,  -404.787E-03,  -264.962E-03,   7.71182E-03
C:/temp/dataset/6/15_8.odb,Step-1,Increment      1: Step Time =    1.000,"PART-1-1",           166,      -7.44963,       27.8335,            0.,NA,NA,"",   655.833E-03,  -644.616E-03,  -120.781E-03,   1.19418E-03
C:/temp/dataset/6/15_8.odb,Step-1,Increment      1: Step Time =    1.000,"PART-1-1",           167,      -13.0424,       22.0734,            0.,NA,NA,"",   544.363E-03,  -468.266E-03,  -277.593E-03,   7.57562E-03
C:/temp/dataset/6/15_8.odb,Step-1,Increment      1: Step Time =    1.000,"PART-1-1",           168,      -13.1316,       14.9813,            0.,NA,NA,"",   370.411E-03,  -290.852E-03,  -229.367E-03,   7.55670E-03
C:/temp/dataset/6/15_8.odb,Step-1,Increment      1: Step Time =    1.000,"PART-1-1",           169,      -13.1727,       17.3972,            0.,NA,NA,"",   425.048E-03,  -345.600E-03,  -247.441E-03,   7.65277E-03
C:/temp/dataset/6/15_8.odb,Step-1,Increment      1: Step Time =    1.000,"PART-1-1",           170,      -12.8574,       7.53984,            0.,NA,NA,"",   236.353E-03,  -159.503E-03,  -174.418E-03,   7.05047E-03
C:/temp/dataset/6/15_8.odb,Step-1,Increment      1: Step Time =    1.000,"PART-1-1",           171,      -13.0166,       10.0884,            0.,NA,NA,"",   277.120E-03,  -198.272E-03,  -193.606E-03,   7.30441E-03
C:/temp/dataset/6/15_8.odb,Step-1,Increment      1: Step Time =    1.000,"PART-1-1",           172,      -12.8045,  -118.323E-03,            0.,NA,NA,"",   152.506E-03,  -83.4363E-03,  -127.657E-03,   6.15234E-03
C:/temp/dataset/6/15_8.odb,Step-1,Increment      1: Step Time =    1.000,"PART-1-1",           173,      -12.7039,       2.28772,            0.,NA,NA,"",   173.072E-03,  -101.316E-03,  -140.318E-03,   6.44686E-03
C:/temp/dataset/6/15_8.odb,Step-1,Increment      1: Step Time =    1.000,"PART-1-1",           174,      -12.8488,      -7.31355,            0.,NA,NA,"",   103.239E-03,  -47.7253E-03,  -91.5452E-03,   5.25598E-03
C:/temp/dataset/6/15_8.odb,Step-1,Increment      1: Step Time =    1.000,"PART-1-1",           175,      -12.6051,      -4.81291,            0.,NA,NA,"",   117.184E-03,  -57.2378E-03,  -102.254E-03,   5.40072E-03
C:/temp/dataset/6/15_8.odb,Step-1,Increment      1: Step Time =    1.000,"PART-1-1",           176,      -12.4260,      -15.0682,            0.,NA,NA,"",   61.9946E-03,  -26.1336E-03,  -56.2171E-03,   4.54583E-03
C:/temp/dataset/6/15_8.odb,Step-1,Increment      1: Step Time =    1.000,"PART-1-1",           177,      -12.3344,      -12.5112,            0.,NA,NA,"",   73.5506E-03,  -31.3481E-03,  -66.5356E-03,   4.71930E-03
C:/temp/dataset/6/15_8.odb,Step-1,Increment      1: Step Time =    1.000,"PART-1-1",           178,      -12.6598,      -20.1148,            0.,NA,NA,"",   40.8368E-03,  -17.5104E-03,  -36.8921E-03,   4.28811E-03
C:/temp/dataset/6/15_8.odb,Step-1,Increment      1: Step Time =    1.000,"PART-1-1",           179,      -8.70618,       22.9331,            0.,NA,NA,"",   509.237E-03,  -485.604E-03,  -153.333E-03,   2.39959E-03
C:/temp/dataset/6/15_8.odb,Step-1,Increment      1: Step Time =    1.000,"PART-1-1",           180,      -9.21222,       15.1634,            0.,NA,NA,"",   320.828E-03,  -286.368E-03,  -144.653E-03,   3.07223E-03
C:/temp/dataset/6/15_8.odb,Step-1,Increment      1: Step Time =    1.000,"PART-1-1",           181,      -9.55138,       19.8926,            0.,NA,NA,"",   434.515E-03,  -400.661E-03,  -168.148E-03,   3.44835E-03
C:/temp/dataset/6/15_8.odb,Step-1,Increment      1: Step Time =    1.000,"PART-1-1",           182,      -8.92203,       8.32966,            0.,NA,NA,"",   201.639E-03,  -161.981E-03,  -120.086E-03,   2.87877E-03
C:/temp/dataset/6/15_8.odb,Step-1,Increment      1: Step Time =    1.000,"PART-1-1",           183,      -9.17670,       12.8809,            0.,NA,NA,"",   276.151E-03,  -239.670E-03,  -137.178E-03,   3.04011E-03
C:/temp/dataset/6/15_8.odb,Step-1,Increment      1: Step Time =    1.000,"PART-1-1",           184,      -9.09923,       10.6117,            0.,NA,NA,"",   236.820E-03,  -198.444E-03,  -129.242E-03,   2.97376E-03
C:/temp/dataset/6/15_8.odb,Step-1,Increment      1: Step Time =    1.000,"PART-1-1",           185,      -9.30530,       17.5014,            0.,NA,NA,"",   373.108E-03,  -339.856E-03,  -153.973E-03,   3.17117E-03
C:/temp/dataset/6/15_8.odb,Step-1,Increment      1: Step Time =    1.000,"PART-1-1",           186,      -8.37864,       6.17865,            0.,NA,NA,"",   169.719E-03,  -131.792E-03,  -106.938E-03,   2.80774E-03
C:/temp/dataset/6/15_8.odb,Step-1,Increment      1: Step Time =    1.000,"PART-1-1",           187,       10.9988,      -10.2527,            0.,NA,NA,"",   32.5035E-03,  -31.5464E-03,   7.82973E-03,   410.128E-06
C:/temp/dataset/6/15_8.odb,Step-1,Increment      1: Step Time =    1.000,"PART-1-1",           188,       10.8643,      -17.5211,            0.,NA,NA,"",   10.9038E-03,  -9.59305E-03,   5.18330E-03,   483.945E-06
C:/temp/dataset/6/15_8.odb,Step-1,Increment      1: Step Time =    1.000,"PART-1-1",           189,       11.0508,      -8.01555,            0.,NA,NA,"",   40.9356E-03,  -40.0249E-03,   8.58675E-03,   404.124E-06
C:/temp/dataset/6/15_8.odb,Step-1,Increment      1: Step Time =    1.000,"PART-1-1",           190,       10.6332,      -2.00908,            0.,NA,NA,"",   65.9806E-03,  -65.4627E-03,   8.25062E-03,   428.676E-06
C:/temp/dataset/6/15_8.odb,Step-1,Increment      1: Step Time =    1.000,"PART-1-1",           191,       11.1668,      -5.92645,            0.,NA,NA,"",   49.4244E-03,  -48.4973E-03,   9.52754E-03,   414.082E-06
C:/temp/dataset/6/15_8.odb,Step-1,Increment      1: Step Time =    1.000,"PART-1-1",           192,       10.9732,      -14.9280,            0.,NA,NA,"",   17.4638E-03,  -16.2634E-03,   6.36281E-03,   460.963E-06
C:/temp/dataset/6/15_8.odb,Step-1,Increment      1: Step Time =    1.000,"PART-1-1",           193,       10.5476,      -23.6927,            0.,NA,NA,"",   2.36214E-03,  -838.518E-06,   2.20830E-03,   454.711E-06
C:/temp/dataset/6/15_8.odb,Step-1,Increment      1: Step Time =    1.000,"PART-1-1",           194,       10.5707,      -21.1850,            0.,NA,NA,"",   4.48947E-03,  -3.13465E-03,   3.21392E-03,   468.293E-06
C:/temp/dataset/6/15_8.odb,Step-1,Increment      1: Step Time =    1.000,"PART-1-1",           195,       10.9760,      -12.5622,            0.,NA,NA,"",   24.5856E-03,  -23.5349E-03,   7.11087E-03,   431.450E-06
C:/temp/dataset/6/15_8.odb,Step-1,Increment      1: Step Time =    1.000,"PART-1-1",           196,       11.6229,      -19.2502,            0.,NA,NA,"",   8.54922E-03,  -6.34873E-03,   5.72561E-03,   646.371E-06
C:/temp/dataset/6/15_8.odb,Step-1,Increment      1: Step Time =    1.000,"PART-1-1",           197,       11.1609,      -3.97100,            0.,NA,NA,"",   57.6963E-03,  -56.8317E-03,   9.95066E-03,   420.748E-06
C:/temp/dataset/6/15_8.odb,Step-1,Increment      1: Step Time =    1.000,"PART-1-1",           198,      -9.55101,       25.2781,            0.,NA,NA,"",   589.396E-03,  -558.929E-03,  -187.048E-03,   3.34777E-03
C:/temp/dataset/6/15_8.odb,Step-1,Increment      1: Step Time =    1.000,"PART-1-1",           199,      -6.13353,       2.97524,            0.,NA,NA,"",   121.980E-03,  -95.4804E-03,  -75.9113E-03,   1.34368E-03
C:/temp/dataset/6/15_8.odb,Step-1,Increment      1: Step Time =    1.000,"PART-1-1",           200,       8.52809,      -18.5145,            0.,NA,NA,"",   7.05726E-03,  -7.01641E-03,   758.177E-06,   308.425E-06
C:/temp/dataset/6/15_8.odb,Step-1,Increment      1: Step Time =    1.000,"PART-1-1",           201,      -9.31256,      -6.57829,            0.,NA,NA,"",   89.0432E-03,  -43.5350E-03,  -77.6749E-03,   3.82118E-03
C:/temp/dataset/6/15_8.odb,Step-1,Increment      1: Step Time =    1.000,"PART-1-1",           202,      -7.82061,      -4.24854,            0.,NA,NA,"",   92.3516E-03,  -51.6476E-03,  -76.5594E-03,   2.84587E-03
C:/temp/dataset/6/15_8.odb,Step-1,Increment      1: Step Time =    1.000,"PART-1-1",           203,       7.55002,      -20.4955,            0.,NA,NA,"",   3.47606E-03,  -3.43113E-03,  -557.095E-06,   329.009E-06
C:/temp/dataset/6/15_8.odb,Step-1,Increment      1: Step Time =    1.000,"PART-1-1",           204,      -9.18944,      -8.43706,            0.,NA,NA,"",   79.6564E-03,  -36.5856E-03,  -70.7576E-03,   3.86645E-03
C:/temp/dataset/6/15_8.odb,Step-1,Increment      1: Step Time =    1.000,"PART-1-1",           205,      -12.3720,       27.4312,            0.,NA,NA,"",   700.959E-03,  -635.921E-03,  -294.871E-03,   8.05522E-03
C:/temp/dataset/6/15_8.odb,Step-1,Increment      1: Step Time =    1.000,"PART-1-1",           206,      -10.3791,       22.2070,            0.,NA,NA,"",   507.358E-03,  -466.067E-03,  -200.483E-03,   4.41508E-03
C:/temp/dataset/6/15_8.odb,Step-1,Increment      1: Step Time =    1.000,"PART-1-1",           207,       3.40286,  -884.176E-03,            0.,NA,NA,"",   73.4952E-03,  -70.4846E-03,  -20.8200E-03,   403.367E-06
C:/temp/dataset/6/15_8.odb,Step-1,Increment      1: Step Time =    1.000,"PART-1-1",           208,       7.88020,       1.44192,            0.,NA,NA,"",   81.3139E-03,  -81.2772E-03,  -2.44366E-03,   443.496E-06
C:/temp/dataset/6/15_8.odb,Step-1,Increment      1: Step Time =    1.000,"PART-1-1",           209,      -1.17287,  -897.893E-03,            0.,NA,NA,"",   81.6170E-03,  -69.5410E-03,  -42.7245E-03,   506.880E-06
C:/temp/dataset/6/15_8.odb,Step-1,Increment      1: Step Time =    1.000,"PART-1-1",           210,       10.4014,      -25.9274,            0.,NA,NA,"",   1.29905E-03,   203.695E-06,   1.28298E-03,   425.907E-06
C:/temp/dataset/6/15_8.odb,Step-1,Increment      1: Step Time =    1.000,"PART-1-1",           211,       2.00108,      -24.8239,            0.,NA,NA,"",   885.267E-06,   169.707E-06,  -868.848E-06,   468.938E-06
C:/temp/dataset/6/15_8.odb,Step-1,Increment      1: Step Time =    1.000,"PART-1-1",           212,      -4.80900,      -25.1606,            0.,NA,NA,"",   6.89609E-03,   1.08171E-03,  -6.81072E-03,   1.90183E-03
C:/temp/dataset/6/15_8.odb,Step-1,Increment      1: Step Time =    1.000,"PART-1-1",           213,      -11.5765,       21.3848,            0.,NA,NA,"",   501.256E-03,  -444.899E-03,  -230.917E-03,   5.83572E-03
C:/temp/dataset/6/15_8.odb,Step-1,Increment      1: Step Time =    1.000,"PART-1-1",           214,      -11.0630,       10.3038,            0.,NA,NA,"",   254.656E-03,  -196.605E-03,  -161.853E-03,   5.14699E-03
C:/temp/dataset/6/15_8.odb,Step-1,Increment      1: Step Time =    1.000,"PART-1-1",           215,      -10.2832,  -591.021E-03,            0.,NA,NA,"",   128.708E-03,  -74.7068E-03,  -104.807E-03,   4.34823E-03
C:/temp/dataset/6/15_8.odb,Step-1,Increment      1: Step Time =    1.000,"PART-1-1",           216,      -11.1869,      -5.64306,            0.,NA,NA,"",   103.988E-03,  -50.6003E-03,  -90.8466E-03,   4.65505E-03
C:/temp/dataset/6/15_8.odb,Step-1,Increment      1: Step Time =    1.000,"PART-1-1",           217,      -9.48237,      -10.3825,            0.,NA,NA,"",   72.1259E-03,  -31.1416E-03,  -65.0565E-03,   4.05633E-03
C:/temp/dataset/6/15_8.odb,Step-1,Increment      1: Step Time =    1.000,"PART-1-1",           218,      -10.0191,      -20.7277,            0.,NA,NA,"",   31.6784E-03,  -11.7513E-03,  -29.4182E-03,   3.91577E-03
C:/temp/dataset/6/15_8.odb,Step-1,Increment      1: Step Time =    1.000,"PART-1-1",           219,      -12.8377,      -24.8331,            0.,NA,NA,"",   21.3894E-03,  -9.95913E-03,  -18.9294E-03,   4.42618E-03
C:/temp/dataset/6/15_8.odb,Step-1,Increment      1: Step Time =    1.000,"PART-1-1",           220,  -752.185E-03,      -25.0561,            0.,NA,NA,"",   2.16836E-03,   1.07874E-03,  -1.88099E-03,   555.889E-06
C:/temp/dataset/6/15_8.odb,Step-1,Increment      1: Step Time =    1.000,"PART-1-1",           221,      -11.3411,      -22.5061,            0.,NA,NA,"",   27.7273E-03,  -10.9585E-03,  -25.4699E-03,   4.13057E-03
C:/temp/dataset/6/15_8.odb,Step-1,Increment      1: Step Time =    1.000,"PART-1-1",           222,       5.90860,      -26.1342,            0.,NA,NA,"",   585.042E-06,   444.181E-06,  -380.758E-06,   175.203E-06
C:/temp/dataset/6/15_8.odb,Step-1,Increment      1: Step Time =    1.000,"PART-1-1",           223,       3.81352,      -25.8758,            0.,NA,NA,"",   759.673E-06,   413.708E-06,  -637.141E-06,   330.378E-06
C:/temp/dataset/6/15_8.odb,Step-1,Increment      1: Step Time =    1.000,"PART-1-1",           224,      -6.87266,      -25.1947,            0.,NA,NA,"",   9.91187E-03,  -455.919E-06,  -9.90138E-03,   2.78392E-03
C:/temp/dataset/6/15_8.odb,Step-1,Increment      1: Step Time =    1.000,"PART-1-1",           225,       9.77381,   336.875E-03,            0.,NA,NA,"",   76.2352E-03,  -76.0665E-03,   5.06793E-03,   415.238E-06
C:/temp/dataset/6/15_8.odb,Step-1,Increment      1: Step Time =    1.000,"PART-1-1",           226,       4.59800,   29.7464E-03,            0.,NA,NA,"",   76.6258E-03,  -75.0000E-03,  -15.7005E-03,   462.457E-06
C:/temp/dataset/6/15_8.odb,Step-1,Increment      1: Step Time =    1.000,"PART-1-1",           227,      -11.1551,       12.6912,            0.,NA,NA,"",   296.538E-03,  -239.340E-03,  -175.075E-03,   5.26174E-03
C:/temp/dataset/6/15_8.odb,Step-1,Increment      1: Step Time =    1.000,"PART-1-1",           228,      -11.2689,       17.3859,            0.,NA,NA,"",   395.331E-03,  -340.290E-03,  -201.219E-03,   5.44113E-03
C:/temp/dataset/6/15_8.odb,Step-1,Increment      1: Step Time =    1.000,"PART-1-1",           229,      -11.2102,       15.0558,            0.,NA,NA,"",   343.355E-03,  -287.333E-03,  -187.970E-03,   5.35070E-03
C:/temp/dataset/6/15_8.odb,Step-1,Increment      1: Step Time =    1.000,"PART-1-1",           230,      -10.8139,       7.79620,            0.,NA,NA,"",   215.056E-03,  -157.649E-03,  -146.273E-03,   4.94483E-03
C:/temp/dataset/6/15_8.odb,Step-1,Increment      1: Step Time =    1.000,"PART-1-1",           231,      -10.1648,       4.85487,            0.,NA,NA,"",   172.992E-03,  -119.584E-03,  -125.004E-03,   4.53264E-03
C:/temp/dataset/6/15_8.odb,Step-1,Increment      1: Step Time =    1.000,"PART-1-1",           232,      -10.4473,       2.01195,            0.,NA,NA,"",   149.400E-03,  -93.5121E-03,  -116.515E-03,   4.68228E-03
C:/temp/dataset/6/15_8.odb,Step-1,Increment      1: Step Time =    1.000,"PART-1-1",           233,      -10.4810,      -3.59789,            0.,NA,NA,"",   111.428E-03,  -58.4569E-03,  -94.8636E-03,   4.35796E-03
C:/temp/dataset/6/15_8.odb,Step-1,Increment      1: Step Time =    1.000,"PART-1-1",           234,      -9.89141,      -15.1395,            0.,NA,NA,"",   53.3588E-03,  -21.2107E-03,  -48.9619E-03,   4.12435E-03
C:/temp/dataset/6/15_8.odb,Step-1,Increment      1: Step Time =    1.000,"PART-1-1",           235,      -9.95744,      -17.7636,            0.,NA,NA,"",   43.0925E-03,  -16.8396E-03,  -39.6660E-03,   3.93988E-03
C:/temp/dataset/6/15_8.odb,Step-1,Increment      1: Step Time =    1.000,"PART-1-1",           236,      -3.63694,      -1.16253,            0.,NA,NA,"",   87.5695E-03,  -67.0859E-03,  -56.2842E-03,   480.931E-06
C:/temp/dataset/6/15_8.odb,Step-1,Increment      1: Step Time =    1.000,"PART-1-1",           237,      -7.00580,      -22.7773,            0.,NA,NA,"",   17.0109E-03,  -3.44047E-03,  -16.6594E-03,   3.40475E-03
C:/temp/dataset/6/15_8.odb,Step-1,Increment      1: Step Time =    1.000,"PART-1-1",           238,       7.08723,      -4.67483,            0.,NA,NA,"",   53.6331E-03,  -53.3351E-03,  -5.64638E-03,   293.091E-06
C:/temp/dataset/6/15_8.odb,Step-1,Increment      1: Step Time =    1.000,"PART-1-1",           239,       8.96532,      -10.1697,            0.,NA,NA,"",   31.7215E-03,  -31.6949E-03,   1.29946E-03,   275.239E-06
C:/temp/dataset/6/15_8.odb,Step-1,Increment      1: Step Time =    1.000,"PART-1-1",           240,       8.99874,      -7.82238,            0.,NA,NA,"",   40.6180E-03,  -40.5929E-03,   1.42815E-03,   269.695E-06
C:/temp/dataset/6/15_8.odb,Step-1,Increment      1: Step Time =    1.000,"PART-1-1",           241,       8.96760,      -14.8663,            0.,NA,NA,"",   16.3029E-03,  -16.2367E-03,   1.46802E-03,   283.905E-06
C:/temp/dataset/6/15_8.odb,Step-1,Increment      1: Step Time =    1.000,"PART-1-1",           242,      -12.0836,       24.5335,            0.,NA,NA,"",   601.392E-03,  -539.789E-03,  -265.140E-03,   6.57857E-03
C:/temp/dataset/6/15_8.odb,Step-1,Increment      1: Step Time =    1.000,"PART-1-1",           243,       9.21542,      -5.66363,            0.,NA,NA,"",   49.4158E-03,  -49.3591E-03,   2.36460E-03,   335.495E-06
C:/temp/dataset/6/15_8.odb,Step-1,Increment      1: Step Time =    1.000,"PART-1-1",           244,       8.72776,      -2.97127,            0.,NA,NA,"",   60.9878E-03,  -60.9826E-03,   795.521E-06,   443.160E-06
C:/temp/dataset/6/15_8.odb,Step-1,Increment      1: Step Time =    1.000,"PART-1-1",           245,       9.39471,      -19.4524,            0.,NA,NA,"",   5.75410E-03,  -5.37489E-03,   2.05432E-03,   302.691E-06
C:/temp/dataset/6/15_8.odb,Step-1,Increment      1: Step Time =    1.000,"PART-1-1",           246,       8.06548,      -22.0810,            0.,NA,NA,"",   1.73235E-03,  -1.72763E-03,   127.700E-06,   170.724E-06
C:/temp/dataset/6/15_8.odb,Step-1,Increment      1: Step Time =    1.000,"PART-1-1",           247,      -7.53738,       4.79758,            0.,NA,NA,"",   147.726E-03,  -114.373E-03,  -93.4975E-03,   2.33285E-03
C:/temp/dataset/6/15_8.odb,Step-1,Increment      1: Step Time =    1.000,"PART-1-1",           248,      -10.8025,      -24.3532,            0.,NA,NA,"",   19.1828E-03,  -6.99696E-03,  -17.8612E-03,   4.00718E-03
C:/temp/dataset/6/15_8.odb,Step-1,Increment      1: Step Time =    1.000,"PART-1-1",           249,       5.82981,      -2.08643,            0.,NA,NA,"",   65.6534E-03,  -64.7967E-03,  -10.5715E-03,   428.153E-06
C:/temp/dataset/6/15_8.odb,Step-1,Increment      1: Step Time =    1.000,"PART-1-1",           250,      -8.67175,      -2.53401,            0.,NA,NA,"",   105.876E-03,  -61.1656E-03,  -86.4203E-03,   3.25604E-03
C:/temp/dataset/6/15_8.odb,Step-1,Increment      1: Step Time =    1.000,"PART-1-1",           251,       5.78686,      -22.7214,            0.,NA,NA,"",   1.83354E-03,  -1.36954E-03,  -1.21911E-03,   550.692E-06
C:/temp/dataset/6/15_8.odb,Step-1,Increment      1: Step Time =    1.000,"PART-1-1",           252,      -8.27594,       1.60152,            0.,NA,NA,"",   127.892E-03,  -86.7475E-03,  -93.9742E-03,   2.97257E-03
C:/temp/dataset/6/15_8.odb,Step-1,Increment      1: Step Time =    1.000,"PART-1-1",           253,       8.25490,      -24.0061,            0.,NA,NA,"",   502.754E-06,  -368.737E-06,   341.752E-06,   78.0433E-06
C:/temp/dataset/6/15_8.odb,Step-1,Increment      1: Step Time =    1.000,"PART-1-1",           254,      -9.04303,      -23.2600,            0.,NA,NA,"",   19.8660E-03,  -5.79228E-03,  -19.0028E-03,   3.70244E-03
C:/temp/dataset/6/15_8.odb,Step-1,Increment      1: Step Time =    1.000,"PART-1-1",           255,       7.61656,      -1.09448,            0.,NA,NA,"",   69.5902E-03,  -69.5059E-03,  -3.42393E-03,   482.287E-06
C:/temp/dataset/6/15_8.odb,Step-1,Increment      1: Step Time =    1.000,"PART-1-1",           256,      -4.02262,   861.151E-03,            0.,NA,NA,"",   99.0204E-03,  -79.6517E-03,  -58.8272E-03,   167.583E-06
C:/temp/dataset/6/15_8.odb,Step-1,Increment      1: Step Time =    1.000,"PART-1-1",           257,  -104.141E-03,       1.31276,            0.,NA,NA,"",   90.2975E-03,  -82.3314E-03,  -37.0833E-03,   570.607E-06
C:/temp/dataset/6/15_8.odb,Step-1,Increment      1: Step Time =    1.000,"PART-1-1",           258,       3.72123,      -23.4419,            0.,NA,NA,"",   1.44120E-03,  -989.483E-06,  -1.04784E-03,   695.803E-06
C:/temp/dataset/6/15_8.odb,Step-1,Increment      1: Step Time =    1.000,"PART-1-1",           259,      -10.7950,      -8.39617,            0.,NA,NA,"",   87.3335E-03,  -39.6020E-03,  -77.8385E-03,   4.46103E-03
C:/temp/dataset/6/15_8.odb,Step-1,Increment      1: Step Time =    1.000,"PART-1-1",           260,      -1.85786,       1.02916,            0.,NA,NA,"",   93.0402E-03,  -80.8326E-03,  -46.0712E-03,   601.746E-06
C:/temp/dataset/6/15_8.odb,Step-1,Increment      1: Step Time =    1.000,"PART-1-1",           261,      -6.46179,      -1.33856,            0.,NA,NA,"",   99.0681E-03,  -66.0291E-03,  -73.8556E-03,   1.64220E-03
C:/temp/dataset/6/15_8.odb,Step-1,Increment      1: Step Time =    1.000,"PART-1-1",           262,      -11.1078,      -7.00587,            0.,NA,NA,"",   96.0783E-03,  -45.0910E-03,  -84.8401E-03,   4.58728E-03
C:/temp/dataset/6/15_8.odb,Step-1,Increment      1: Step Time =    1.000,"PART-1-1",           263,      -5.52697,      -3.44125,            0.,NA,NA,"",   85.0019E-03,  -54.1059E-03,  -65.5582E-03,   1.38796E-03
C:/temp/dataset/6/15_8.odb,Step-1,Increment      1: Step Time =    1.000,"PART-1-1",           264,      -9.72268,      -4.98378,            0.,NA,NA,"",   99.2561E-03,  -50.7947E-03,  -85.2741E-03,   3.93063E-03
C:/temp/dataset/6/15_8.odb,Step-1,Increment      1: Step Time =    1.000,"PART-1-1",           265,      -6.27329,       4.89376,            0.,NA,NA,"",   138.553E-03,  -113.704E-03,  -79.1739E-03,   1.77577E-03
C:/temp/dataset/6/15_8.odb,Step-1,Increment      1: Step Time =    1.000,"PART-1-1",           266,       12.4963,       2.80040,            0.,NA,NA,"",   88.4001E-03,  -86.9294E-03,   16.0579E-03,   142.124E-06
C:/temp/dataset/6/15_8.odb,Step-1,Increment      1: Step Time =    1.000,"PART-1-1",           267,      -7.37176,      -20.2559,            0.,NA,NA,"",   26.6189E-03,  -8.66462E-03,  -25.1693E-03,   3.31145E-03
C:/temp/dataset/6/15_8.odb,Step-1,Increment      1: Step Time =    1.000,"PART-1-1",           268,       2.88963,      -21.8777,            0.,NA,NA,"",   2.31117E-03,  -2.08758E-03,  -991.724E-06,   848.957E-06
C:/temp/dataset/6/15_8.odb,Step-1,Increment      1: Step Time =    1.000,"PART-1-1",           269,      -8.05085,       3.52655,            0.,NA,NA,"",   140.610E-03,  -102.373E-03,  -96.3900E-03,   2.95028E-03
C:/temp/dataset/6/15_8.odb,Step-1,Increment      1: Step Time =    1.000,"PART-1-1",           270,       8.95558,      -12.5395,            0.,NA,NA,"",   23.4976E-03,  -23.4601E-03,   1.32706E-03,   278.983E-06
C:/temp/dataset/6/15_8.odb,Step-1,Increment      1: Step Time =    1.000,"PART-1-1",           271,       1.35989,  -223.950E-03,            0.,NA,NA,"",   79.6694E-03,  -73.7682E-03,  -30.0910E-03,   433.158E-06
C:/temp/dataset/6/15_8.odb,Step-1,Increment      1: Step Time =    1.000,"PART-1-1",           272,      -9.75004,      -12.6533,            0.,NA,NA,"",   63.2784E-03,  -25.9485E-03,  -57.7134E-03,   4.16151E-03
C:/temp/dataset/6/15_8.odb,Step-1,Increment      1: Step Time =    1.000,"PART-1-1",           273,      -8.51206,      -25.1011,            0.,NA,NA,"",   12.6165E-03,  -2.46334E-03,  -12.3737E-03,   3.36976E-03
C:/temp/dataset/6/15_8.odb,Step-1,Increment      1: Step Time =    1.000,"PART-1-1",           274,      -6.19138,   998.181E-03,            0.,NA,NA,"",   109.953E-03,  -80.7735E-03,  -74.6017E-03,   1.28634E-03
C:/temp/dataset/6/15_8.odb,Step-1,Increment      1: Step Time =    1.000,"PART-1-1",           275,      -2.63339,      -25.0950,            0.,NA,NA,"",   4.02420E-03,   1.46254E-03,  -3.74903E-03,   1.07034E-03
C:/temp/dataset/6/15_8.odb,Step-1,Increment      1: Step Time =    1.000,"PART-1-1",           276,       8.11811,      -26.0558,            0.,NA,NA,"",   495.426E-06,   440.858E-06,   226.033E-06,   94.6385E-06
C:/temp/dataset/6/15_8.odb,Step-1,Increment      1: Step Time =    1.000,"PART-1-1",           277,       6.33403,   764.508E-03,            0.,NA,NA,"",   78.8001E-03,  -78.3303E-03,  -8.59190E-03,   486.951E-06
C:/temp/dataset/6/15_8.odb,Step-1,Increment      1: Step Time =    1.000,"PART-1-1",           278,       8.84044,      -16.9880,            0.,NA,NA,"",   10.5933E-03,  -10.5161E-03,   1.27609E-03,   329.202E-06
C:/temp/dataset/6/15_8.odb,Step-1,Increment      1: Step Time =    1.000,"PART-1-1",           279,      -11.3950,       19.6047,            0.,NA,NA,"",   451.271E-03,  -396.147E-03,  -216.132E-03,   5.60512E-03
C:/temp/dataset/6/15_8.odb,Step-1,Increment      1: Step Time =    1.000,"PART-1-1",           280,      -11.2464,      -2.22607,            0.,NA,NA,"",   125.024E-03,  -66.9950E-03,  -105.559E-03,   4.88668E-03
C:/temp/dataset/6/15_8.odb,Step-1,Increment      1: Step Time =    1.000,"PART-1-1",           281,      -8.41776,  -32.7016E-03,            0.,NA,NA,"",   118.411E-03,  -75.5486E-03,  -91.1782E-03,   3.02731E-03
C:/temp/dataset/6/15_8.odb,Step-1,Increment      1: Step Time =    1.000,"PART-1-1",           282,       4.48255,      -24.5345,            0.,NA,NA,"",   876.493E-06,  -241.945E-06,  -842.439E-06,   452.059E-06
C:/temp/dataset/6/15_8.odb,Step-1,Increment      1: Step Time =    1.000,"PART-1-1",           283,       6.11275,      -24.3348,            0.,NA,NA,"",   702.620E-06,  -273.064E-06,  -647.388E-06,   309.728E-06
C:/temp/dataset/6/15_8.odb,Step-1,Increment      1: Step Time =    1.000,"PART-1-1",           284,       9.69767,      -4.20039,            0.,NA,NA,"",   55.8300E-03,  -55.6603E-03,   4.34929E-03,   400.982E-06
C:/temp/dataset/6/15_8.odb,Step-1,Increment      1: Step Time =    1.000,"PART-1-1",           285,       13.8851,      -1.60402,            0.,NA,NA,"",   70.8913E-03,  -67.5962E-03,   21.3620E-03,   296.083E-06
C:/temp/dataset/6/15_8.odb,Step-1,Increment      1: Step Time =    1.000,"PART-1-1",           286,           15.,   -468.75E-03,            0.,NA,NA,"",   77.3537E-03,  -72.7209E-03,   26.3677E-03,   208.777E-06
C:/temp/dataset/6/15_8.odb,Step-1,Increment      1: Step Time =    1.000,"PART-1-1",           287,       13.7553,   590.641E-03,            0.,NA,NA,"",   80.1323E-03,  -77.2838E-03,   21.1754E-03,   175.753E-06
C:/temp/dataset/6/15_8.odb,Step-1,Increment      1: Step Time =    1.000,"PART-1-1",           288,       12.6405,  -544.629E-03,            0.,NA,NA,"",   74.0188E-03,  -72.1737E-03,   16.4239E-03,   308.750E-06
C:/temp/dataset/6/15_8.odb,Step-1,Increment      1: Step Time =    1.000,"PART-1-1",           289,       6.57104,       2.96720,            0.,NA,NA,"",   88.8908E-03,  -88.5402E-03,  -7.88745E-03,   459.949E-06
C:/temp/dataset/6/15_8.odb,Step-1,Increment      1: Step Time =    1.000,"PART-1-1",           290,       5.86345,       1.80964,            0.,NA,NA,"",   84.0498E-03,  -83.3774E-03,  -10.6102E-03,   489.521E-06
C:/temp/dataset/6/15_8.odb,Step-1,Increment      1: Step Time =    1.000,"PART-1-1",           291,       7.10711,       1.10321,            0.,NA,NA,"",   80.0117E-03,  -79.8223E-03,  -5.50245E-03,   464.550E-06
C:/temp/dataset/6/15_8.odb,Step-1,Increment      1: Step Time =    1.000,"PART-1-1",           292,       7.81470,       2.26078,            0.,NA,NA,"",   85.0766E-03,  -85.0314E-03,  -2.77371E-03,   409.456E-06
C:/temp/dataset/6/15_8.odb,Step-1,Increment      1: Step Time =    1.000,"PART-1-1",           293,       6.97305,      -8.82061,            0.,NA,NA,"",   37.2306E-03,  -36.8114E-03,  -5.57129E-03,   303.624E-06
C:/temp/dataset/6/15_8.odb,Step-1,Increment      1: Step Time =    1.000,"PART-1-1",           294,       5.98985,      -7.53541,            0.,NA,NA,"",   42.8888E-03,  -41.8314E-03,  -9.46508E-03,   331.527E-06
C:/temp/dataset/6/15_8.odb,Step-1,Increment      1: Step Time =    1.000,"PART-1-1",           295,            5.,      -8.76875,            0.,NA,NA,"",   39.4302E-03,  -37.3282E-03,  -12.7022E-03,   487.873E-06
C:/temp/dataset/6/15_8.odb,Step-1,Increment      1: Step Time =    1.000,"PART-1-1",           296,       5.98320,      -10.0539,            0.,NA,NA,"",   33.5327E-03,  -32.4028E-03,  -8.63134E-03,   445.930E-06
C:/temp/dataset/6/15_8.odb,Step-1,Increment      1: Step Time =    1.000,"PART-1-1",           297,       12.0429,      -8.05477,            0.,NA,NA,"",   41.8175E-03,  -40.0386E-03,   12.0671E-03,   476.402E-06
C:/temp/dataset/6/15_8.odb,Step-1,Increment      1: Step Time =    1.000,"PART-1-1",           298,       11.0248,      -9.13413,            0.,NA,NA,"",   36.6345E-03,  -35.7028E-03,   8.20971E-03,   406.910E-06
C:/temp/dataset/6/15_8.odb,Step-1,Increment      1: Step Time =    1.000,"PART-1-1",           299,       11.9985,      -10.2754,            0.,NA,NA,"",   33.5176E-03,  -31.6410E-03,   11.0579E-03,   516.533E-06
C:/temp/dataset/6/15_8.odb,Step-1,Increment      1: Step Time =    1.000,"PART-1-1",           300,       13.0166,      -9.19606,            0.,NA,NA,"",   38.8818E-03,  -35.8769E-03,   14.9882E-03,   608.964E-06
C:/temp/dataset/6/15_8.odb,Step-1,Increment      1: Step Time =    1.000,"PART-1-1",           301,       13.9992,      -14.7549,            0.,NA,NA,"",   22.6881E-03,  -17.7234E-03,   14.1644E-03,   1.01277E-03
C:/temp/dataset/6/15_8.odb,Step-1,Increment      1: Step Time =    1.000,"PART-1-1",           302,       13.0271,      -15.9471,            0.,NA,NA,"",   17.7088E-03,  -14.0852E-03,   10.7335E-03,   851.773E-06
C:/temp/dataset/6/15_8.odb,Step-1,Increment      1: Step Time =    1.000,"PART-1-1",           303,       14.0279,      -16.9735,            0.,NA,NA,"",   17.0719E-03,  -12.0102E-03,   12.1328E-03,   1.11356E-03
C:/temp/dataset/6/15_8.odb,Step-1,Increment      1: Step Time =    1.000,"PART-1-1",           304,           15.,      -15.7813,            0.,NA,NA,"",   22.0679E-03,  -15.4662E-03,   15.7413E-03,   1.28326E-03
C:/temp/dataset/6/15_8.odb,Step-1,Increment      1: Step Time =    1.000,"PART-1-1",           305,       6.96949,      -18.0995,            0.,NA,NA,"",   8.12081E-03,  -7.87320E-03,  -1.99005E-03,   565.548E-06
C:/temp/dataset/6/15_8.odb,Step-1,Increment      1: Step Time =    1.000,"PART-1-1",           306,       5.95014,      -17.3335,            0.,NA,NA,"",   10.9773E-03,  -10.0115E-03,  -4.50234E-03,   846.107E-06
C:/temp/dataset/6/15_8.odb,Step-1,Increment      1: Step Time =    1.000,"PART-1-1",           307,            5.,      -18.7625,            0.,NA,NA,"",   8.67571E-03,  -7.01227E-03,  -5.10842E-03,   1.58161E-03
C:/temp/dataset/6/15_8.odb,Step-1,Increment      1: Step Time =    1.000,"PART-1-1",           308,       6.01935,      -19.5285,            0.,NA,NA,"",   5.37339E-03,  -4.66438E-03,  -2.66775E-03,   1.08723E-03
C:/temp/dataset/6/15_8.odb,Step-1,Increment      1: Step Time =    1.000,"PART-1-1",           309,       7.66098,      -29.0388,            0.,NA,NA,"",   382.192E-06,   381.544E-06,   22.2437E-06,   244.168E-06
C:/temp/dataset/6/15_8.odb,Step-1,Increment      1: Step Time =    1.000,"PART-1-1",           310,       6.62868,      -28.0660,            0.,NA,NA,"",   587.964E-06,   579.920E-06,  -96.9249E-06,   160.512E-06
C:/temp/dataset/6/15_8.odb,Step-1,Increment      1: Step Time =    1.000,"PART-1-1",           311,       5.21770,      -29.0272,            0.,NA,NA,"",   398.853E-06,   380.281E-06,  -120.291E-06,   274.610E-06
C:/temp/dataset/6/15_8.odb,Step-1,Increment      1: Step Time =    1.000,"PART-1-1",           312,          6.25,          -30.,            0.,NA,NA,"",            0.,   294.643E-42,  -164.644E-42,   322.294E-06
C:/temp/dataset/6/15_8.odb,Step-1,Increment      1: Step Time =    1.000,"PART-1-1",           313,   162.125E-03,      -28.5454,            0.,NA,NA,"",   1.13567E-03,   980.973E-06,  -572.231E-06,   659.205E-06
C:/temp/dataset/6/15_8.odb,Step-1,Increment      1: Step Time =    1.000,"PART-1-1",           314,      -1.06934,      -27.3053,            0.,NA,NA,"",   2.07889E-03,   1.58724E-03,  -1.34256E-03,   790.491E-06
C:/temp/dataset/6/15_8.odb,Step-1,Increment      1: Step Time =    1.000,"PART-1-1",           315,      -2.48147,      -28.7599,            0.,NA,NA,"",   1.53799E-03,   1.19383E-03,  -969.626E-06,   1.17947E-03
C:/temp/dataset/6/15_8.odb,Step-1,Increment      1: Step Time =    1.000,"PART-1-1",           316,         -1.25,          -30.,            0.,NA,NA,"",            0.,   680.059E-42,  -1.56917E-39,   1.06218E-03
C:/temp/dataset/6/15_8.odb,Step-1,Increment      1: Step Time =    1.000,"PART-1-1",           317,          -15.,        -21.25,            0.,NA,NA,"",   41.8558E-03,  -20.1441E-03,  -36.6896E-03,   4.47148E-03
C:/temp/dataset/6/15_8.odb,Step-1,Increment      1: Step Time =    1.000,"PART-1-1",           318,      -13.9888,      -22.4607,            0.,NA,NA,"",   34.1508E-03,  -16.0678E-03,  -30.1348E-03,   4.38181E-03
C:/temp/dataset/6/15_8.odb,Step-1,Increment      1: Step Time =    1.000,"PART-1-1",           319,      -12.8187,      -21.2681,            0.,NA,NA,"",   36.3734E-03,  -15.8250E-03,  -32.7505E-03,   4.30354E-03
C:/temp/dataset/6/15_8.odb,Step-1,Increment      1: Step Time =    1.000,"PART-1-1",           320,      -13.8299,      -20.0574,            0.,NA,NA,"",   44.0810E-03,  -19.8844E-03,  -39.3414E-03,   4.38981E-03
C:/temp/dataset/6/15_8.odb,Step-1,Increment      1: Step Time =    1.000,"PART-1-1",           321,      -12.5142,      -28.6623,            0.,NA,NA,"",   4.67490E-03,  -2.32275E-03,  -4.05704E-03,   3.89002E-03
C:/temp/dataset/6/15_8.odb,Step-1,Increment      1: Step Time =    1.000,"PART-1-1",           322,        -11.25,          -30.,            0.,NA,NA,"",            0.,  -489.972E-42,  -6.13867E-39,   3.18862E-03
C:/temp/dataset/6/15_8.odb,Step-1,Increment      1: Step Time =    1.000,"PART-1-1",           323,      -9.93348,      -28.4464,            0.,NA,NA,"",   3.90872E-03,  -702.730E-06,  -3.84503E-03,   3.11723E-03
C:/temp/dataset/6/15_8.odb,Step-1,Increment      1: Step Time =    1.000,"PART-1-1",           324,      -11.1976,      -27.1087,            0.,NA,NA,"",   9.33040E-03,  -3.59035E-03,  -8.61196E-03,   3.94264E-03
C:/temp/dataset/6/15_8.odb,Step-1,Increment      1: Step Time =    1.000,"PART-1-1",           325,      -7.37036,      -13.8742,            0.,NA,NA,"",   50.0811E-03,  -19.2662E-03,  -46.2270E-03,   3.69767E-03
C:/temp/dataset/6/15_8.odb,Step-1,Increment      1: Step Time =    1.000,"PART-1-1",           326,      -6.21015,      -15.0417,            0.,NA,NA,"",   42.3291E-03,  -15.1232E-03,  -39.5353E-03,   3.58084E-03
C:/temp/dataset/6/15_8.odb,Step-1,Increment      1: Step Time =    1.000,"PART-1-1",           327,           -5.,      -13.7188,            0.,NA,NA,"",   43.7793E-03,  -15.9870E-03,  -40.7559E-03,   3.14162E-03
C:/temp/dataset/6/15_8.odb,Step-1,Increment      1: Step Time =    1.000,"PART-1-1",           328,      -6.16021,      -12.5513,            0.,NA,NA,"",   51.1909E-03,  -20.2739E-03,  -47.0051E-03,   3.27247E-03
C:/temp/dataset/6/15_8.odb,Step-1,Increment      1: Step Time =    1.000,"PART-1-1",           329,      -9.33590,      -9.40979,            0.,NA,NA,"",   75.8602E-03,  -33.7128E-03,  -67.9575E-03,   3.97817E-03
C:/temp/dataset/6/15_8.odb,Step-1,Increment      1: Step Time =    1.000,"PART-1-1",           330,      -8.33361,      -10.3234,            0.,NA,NA,"",   67.6631E-03,  -29.3370E-03,  -60.9724E-03,   3.70996E-03
C:/temp/dataset/6/15_8.odb,Step-1,Increment      1: Step Time =    1.000,"PART-1-1",           331,      -7.16565,      -9.15059,            0.,NA,NA,"",   67.7500E-03,  -31.0949E-03,  -60.1928E-03,   3.24565E-03
C:/temp/dataset/6/15_8.odb,Step-1,Increment      1: Step Time =    1.000,"PART-1-1",           332,      -8.16794,      -8.23701,            0.,NA,NA,"",   75.9077E-03,  -35.6246E-03,  -67.0288E-03,   3.53229E-03
C:/temp/dataset/6/15_8.odb,Step-1,Increment      1: Step Time =    1.000,"PART-1-1",           333,      -11.1473,      -6.32447,            0.,NA,NA,"",   99.9869E-03,  -47.7810E-03,  -87.8313E-03,   4.62345E-03
C:/temp/dataset/6/15_8.odb,Step-1,Increment      1: Step Time =    1.000,"PART-1-1",           334,      -10.2102,      -6.79208,            0.,NA,NA,"",   92.5693E-03,  -44.2159E-03,  -81.3267E-03,   4.20010E-03
C:/temp/dataset/6/15_8.odb,Step-1,Increment      1: Step Time =    1.000,"PART-1-1",           335,      -9.51762,      -5.78103,            0.,NA,NA,"",   94.0339E-03,  -47.0517E-03,  -81.4157E-03,   3.86498E-03
C:/temp/dataset/6/15_8.odb,Step-1,Increment      1: Step Time =    1.000,"PART-1-1",           336,      -10.4548,      -5.31342,            0.,NA,NA,"",   101.655E-03,  -50.6009E-03,  -88.1661E-03,   4.29944E-03
C:/temp/dataset/6/15_8.odb,Step-1,Increment      1: Step Time =    1.000,"PART-1-1",           337,      -5.04937,      -1.25055,            0.,NA,NA,"",   92.6616E-03,  -66.3052E-03,  -64.7286E-03,   848.861E-06
C:/temp/dataset/6/15_8.odb,Step-1,Increment      1: Step Time =    1.000,"PART-1-1",           338,      -3.82978,  -150.691E-03,            0.,NA,NA,"",   93.0601E-03,  -73.1726E-03,  -57.4974E-03,   305.558E-06
C:/temp/dataset/6/15_8.odb,Step-1,Increment      1: Step Time =    1.000,"PART-1-1",           339,      -5.10700,   929.666E-03,            0.,NA,NA,"",   103.972E-03,  -80.1010E-03,  -66.2866E-03,   618.438E-06
C:/temp/dataset/6/15_8.odb,Step-1,Increment      1: Step Time =    1.000,"PART-1-1",           340,      -6.32658,  -170.190E-03,            0.,NA,NA,"",   104.304E-03,  -73.1198E-03,  -74.3834E-03,   1.43950E-03
C:/temp/dataset/6/15_8.odb,Step-1,Increment      1: Step Time =    1.000,"PART-1-1",           341,          -15.,          3.75,            0.,NA,NA,"",   212.148E-03,  -122.501E-03,  -173.206E-03,   8.75001E-03
C:/temp/dataset/6/15_8.odb,Step-1,Increment      1: Step Time =    1.000,"PART-1-1",           342,      -13.8520,       2.39386,            0.,NA,NA,"",   185.244E-03,  -105.757E-03,  -152.089E-03,   7.43332E-03
C:/temp/dataset/6/15_8.odb,Step-1,Increment      1: Step Time =    1.000,"PART-1-1",           343,      -12.6820,       3.58697,            0.,NA,NA,"",   185.984E-03,  -113.009E-03,  -147.712E-03,   6.57092E-03
C:/temp/dataset/6/15_8.odb,Step-1,Increment      1: Step Time =    1.000,"PART-1-1",           344,      -13.8301,       4.94311,            0.,NA,NA,"",   213.969E-03,  -130.678E-03,  -169.428E-03,   7.85224E-03
C:/temp/dataset/6/15_8.odb,Step-1,Increment      1: Step Time =    1.000,"PART-1-1",           345,          -15.,         11.25,            0.,NA,NA,"",   326.761E-03,  -225.206E-03,  -236.759E-03,   9.59361E-03
C:/temp/dataset/6/15_8.odb,Step-1,Increment      1: Step Time =    1.000,"PART-1-1",           346,      -14.0083,       10.0442,            0.,NA,NA,"",   290.501E-03,  -200.931E-03,  -209.803E-03,   8.42521E-03
C:/temp/dataset/6/15_8.odb,Step-1,Increment      1: Step Time =    1.000,"PART-1-1",           347,      -13.0572,       11.3141,            0.,NA,NA,"",   298.470E-03,  -219.199E-03,  -202.574E-03,   7.38205E-03
C:/temp/dataset/6/15_8.odb,Step-1,Increment      1: Step Time =    1.000,"PART-1-1",           348,      -14.0489,       12.5200,            0.,NA,NA,"",   335.566E-03,  -244.548E-03,  -229.784E-03,   8.55048E-03
C:/temp/dataset/6/15_8.odb,Step-1,Increment      1: Step Time =    1.000,"PART-1-1",           349,           -5.,       22.7083,            0.,NA,NA,"",   482.113E-03,  -480.232E-03,  -42.5467E-03,   1.92011E-03
C:/temp/dataset/6/15_8.odb,Step-1,Increment      1: Step Time =    1.000,"PART-1-1",           350,      -5.96779,       23.6687,            0.,NA,NA,"",   513.209E-03,  -508.266E-03,  -71.0519E-03,   792.981E-06
C:/temp/dataset/6/15_8.odb,Step-1,Increment      1: Step Time =    1.000,"PART-1-1",           351,      -6.69567,       22.7251,            0.,NA,NA,"",   488.188E-03,  -479.263E-03,  -92.9232E-03,   66.4754E-06
C:/temp/dataset/6/15_8.odb,Step-1,Increment      1: Step Time =    1.000,"PART-1-1",           352,      -5.72788,       21.7648,            0.,NA,NA,"",   456.442E-03,  -451.839E-03,  -64.6641E-03,   1.05096E-03
C:/temp/dataset/6/15_8.odb,Step-1,Increment      1: Step Time =    1.000,"PART-1-1",           353,      -9.95259,       28.8237,            0.,NA,NA,"",   711.893E-03,  -678.783E-03,  -214.582E-03,   4.46826E-03
C:/temp/dataset/6/15_8.odb,Step-1,Increment      1: Step Time =    1.000,"PART-1-1",           354,      -8.67740,       27.7404,            0.,NA,NA,"",   661.434E-03,  -640.765E-03,  -164.056E-03,   1.60955E-03
C:/temp/dataset/6/15_8.odb,Step-1,Increment      1: Step Time =    1.000,"PART-1-1",           355,      -7.47481,       28.9167,            0.,NA,NA,"",   694.343E-03,  -683.403E-03,  -122.772E-03,   1.24511E-03
C:/temp/dataset/6/15_8.odb,Step-1,Increment      1: Step Time =    1.000,"PART-1-1",           356,         -8.75,           30.,            0.,NA,NA,"",   742.758E-03,  -723.251E-03,  -169.110E-03,   1.77204E-03
C:/temp/dataset/6/15_8.odb,Step-1,Increment      1: Step Time =    1.000,"PART-1-1",           357,      -12.4360,       28.7156,            0.,NA,NA,"",   747.330E-03,  -681.541E-03,  -306.600E-03,   8.14587E-03
C:/temp/dataset/6/15_8.odb,Step-1,Increment      1: Step Time =    1.000,"PART-1-1",           358,        -13.75,           30.,            0.,NA,NA,"",   814.285E-03,  -729.608E-03,  -361.568E-03,   7.72545E-03
C:/temp/dataset/6/15_8.odb,Step-1,Increment      1: Step Time =    1.000,"PART-1-1",           359,          -15.,         28.75,            0.,NA,NA,"",   795.155E-03,  -690.083E-03,  -395.041E-03,   8.40338E-03
C:/temp/dataset/6/15_8.odb,Step-1,Increment      1: Step Time =    1.000,"PART-1-1",           360,      -13.6860,       27.4656,            0.,NA,NA,"",   725.781E-03,  -641.433E-03,  -339.589E-03,   8.36316E-03
C:/temp/dataset/6/15_8.odb,Step-1,Increment      1: Step Time =    1.000,"PART-1-1",           361,         -3.75,           -5.,            0.,NA,NA,"",   73.7259E-03,  -46.6097E-03,  -57.1230E-03,   582.493E-06
C:/temp/dataset/6/15_8.odb,Step-1,Increment      1: Step Time =    1.000,"PART-1-1",           362,      -2.75606,      -4.06584,            0.,NA,NA,"",   73.2723E-03,  -51.7632E-03,  -51.8594E-03,   743.821E-06
C:/temp/dataset/6/15_8.odb,Step-1,Increment      1: Step Time =    1.000,"PART-1-1",           363,      -4.26954,      -3.28646,            0.,NA,NA,"",   80.8408E-03,  -54.9302E-03,  -59.3119E-03,   708.642E-06
C:/temp/dataset/6/15_8.odb,Step-1,Increment      1: Step Time =    1.000,"PART-1-1",           364,      -5.26349,      -4.22062,            0.,NA,NA,"",   80.6173E-03,  -49.9989E-03,  -63.2396E-03,   1.44409E-03
C:/temp/dataset/6/15_8.odb,Step-1,Increment      1: Step Time =    1.000,"PART-1-1",           365,   659.099E-03,      -2.85996,            0.,NA,NA,"",   68.7130E-03,  -59.7695E-03,  -33.8982E-03,   480.298E-06
C:/temp/dataset/6/15_8.odb,Step-1,Increment      1: Step Time =    1.000,"PART-1-1",           366,  -266.865E-03,      -3.97148,            0.,NA,NA,"",   66.2231E-03,  -53.6357E-03,  -38.8420E-03,   638.004E-06
C:/temp/dataset/6/15_8.odb,Step-1,Increment      1: Step Time =    1.000,"PART-1-1",           367,          1.25,           -5.,            0.,NA,NA,"",   58.5997E-03,  -49.3819E-03,  -31.5493E-03,   693.309E-06
C:/temp/dataset/6/15_8.odb,Step-1,Increment      1: Step Time =    1.000,"PART-1-1",           368,       2.17596,      -3.88848,            0.,NA,NA,"",   61.4776E-03,  -55.3362E-03,  -26.7844E-03,   537.032E-06
C:/temp/dataset/6/15_8.odb,Step-1,Increment      1: Step Time =    1.000,"PART-1-1",           369,   93.5104E-03,  -560.922E-03,            0.,NA,NA,"",   80.3998E-03,  -71.7717E-03,  -36.2347E-03,   428.928E-06
C:/temp/dataset/6/15_8.odb,Step-1,Increment      1: Step Time =    1.000,"PART-1-1",           370,   627.873E-03,   544.404E-03,            0.,NA,NA,"",   84.8323E-03,  -77.9268E-03,  -33.5251E-03,   489.329E-06
C:/temp/dataset/6/15_8.odb,Step-1,Increment      1: Step Time =    1.000,"PART-1-1",           371,  -981.002E-03,       1.17096,            0.,NA,NA,"",   91.5695E-03,  -81.6274E-03,  -41.4962E-03,   575.709E-06
C:/temp/dataset/6/15_8.odb,Step-1,Increment      1: Step Time =    1.000,"PART-1-1",           372,      -1.51537,   65.6335E-03,            0.,NA,NA,"",   87.1602E-03,  -75.0330E-03,  -44.3503E-03,   485.090E-06
C:/temp/dataset/6/15_8.odb,Step-1,Increment      1: Step Time =    1.000,"PART-1-1",           373,       4.11258,       2.54084,            0.,NA,NA,"",   89.2509E-03,  -87.4063E-03,  -18.0515E-03,   575.570E-06
C:/temp/dataset/6/15_8.odb,Step-1,Increment      1: Step Time =    1.000,"PART-1-1",           374,       3.71515,       1.12833,            0.,NA,NA,"",   82.8887E-03,  -80.5506E-03,  -19.5486E-03,   511.771E-06
C:/temp/dataset/6/15_8.odb,Step-1,Increment      1: Step Time =    1.000,"PART-1-1",           375,       5.46602,   397.127E-03,            0.,NA,NA,"",   77.6436E-03,  -76.6936E-03,  -12.1085E-03,   474.856E-06
C:/temp/dataset/6/15_8.odb,Step-1,Increment      1: Step Time =    1.000,"PART-1-1",           376,       8.69518,  -378.803E-03,            0.,NA,NA,"",   72.8181E-03,  -72.8135E-03,   820.801E-06,   446.086E-06
C:/temp/dataset/6/15_8.odb,Step-1,Increment      1: Step Time =    1.000,"PART-1-1",           377,       8.82700,   889.396E-03,            0.,NA,NA,"",   78.6492E-03,  -78.6378E-03,   1.33670E-03,   422.247E-06
C:/temp/dataset/6/15_8.odb,Step-1,Increment      1: Step Time =    1.000,"PART-1-1",           378,       6.97530,  -164.986E-03,            0.,NA,NA,"",   74.1208E-03,  -73.8801E-03,  -5.96816E-03,   475.070E-06
C:/temp/dataset/6/15_8.odb,Step-1,Increment      1: Step Time =    1.000,"PART-1-1",           379,      -3.65351,      -22.6081,            0.,NA,NA,"",   7.80393E-03,  -579.519E-06,  -7.78238E-03,   1.44102E-03
C:/temp/dataset/6/15_8.odb,Step-1,Increment      1: Step Time =    1.000,"PART-1-1",           380,      -2.48671,      -21.3009,            0.,NA,NA,"",   5.74400E-03,  -2.65138E-03,  -5.09546E-03,   367.962E-06
C:/temp/dataset/6/15_8.odb,Step-1,Increment      1: Step Time =    1.000,"PART-1-1",           381,         -3.75,          -20.,            0.,NA,NA,"",   11.2086E-03,  -6.36271E-03,  -9.22760E-03,   1.34501E-03
C:/temp/dataset/6/15_8.odb,Step-1,Increment      1: Step Time =    1.000,"PART-1-1",           382,      -4.91680,      -21.3072,            0.,NA,NA,"",   14.5766E-03,  -3.07202E-03,  -14.2492E-03,   3.03046E-03
C:/temp/dataset/6/15_8.odb,Step-1,Increment      1: Step Time =    1.000,"PART-1-1",           383,       12.8399,      -22.4784,            0.,NA,NA,"",   5.78158E-03,  -2.50706E-03,   5.20973E-03,   872.601E-06
C:/temp/dataset/6/15_8.odb,Step-1,Increment      1: Step Time =    1.000,"PART-1-1",           384,       11.7398,      -21.2760,            0.,NA,NA,"",   5.79501E-03,  -3.38290E-03,   4.70512E-03,   680.710E-06
C:/temp/dataset/6/15_8.odb,Step-1,Increment      1: Step Time =    1.000,"PART-1-1",           385,       10.5591,      -22.4389,            0.,NA,NA,"",   3.24680E-03,  -1.80317E-03,   2.70006E-03,   457.774E-06
C:/temp/dataset/6/15_8.odb,Step-1,Increment      1: Step Time =    1.000,"PART-1-1",           386,       11.6593,      -23.6412,            0.,NA,NA,"",   3.43316E-03,  -1.15612E-03,   3.23265E-03,   648.749E-06
C:/temp/dataset/6/15_8.odb,Step-1,Increment      1: Step Time =    1.000,"PART-1-1",           387,          8.75,            5.,            0.,NA,NA,"",   96.6708E-03,  -96.6685E-03,   662.685E-06,   285.643E-06
C:/temp/dataset/6/15_8.odb,Step-1,Increment      1: Step Time =    1.000,"PART-1-1",           388,       7.62461,       4.03982,            0.,NA,NA,"",   93.0339E-03,  -92.9573E-03,  -3.77336E-03,   371.451E-06
C:/temp/dataset/6/15_8.odb,Step-1,Increment      1: Step Time =    1.000,"PART-1-1",           389,       8.90047,       2.96899,            0.,NA,NA,"",   88.0051E-03,  -87.9922E-03,   1.50441E-03,   338.187E-06
C:/temp/dataset/6/15_8.odb,Step-1,Increment      1: Step Time =    1.000,"PART-1-1",           390,       10.0259,       3.92917,            0.,NA,NA,"",   92.1578E-03,  -91.9656E-03,   5.94907E-03,   202.980E-06
C:/temp/dataset/6/15_8.odb,Step-1,Increment      1: Step Time =    1.000,"PART-1-1",           391,      -6.96921,       21.1213,            0.,NA,NA,"",   444.295E-03,  -432.932E-03,  -99.8409E-03,   413.061E-06
C:/temp/dataset/6/15_8.odb,Step-1,Increment      1: Step Time =    1.000,"PART-1-1",           392,      -6.24133,       19.9816,            0.,NA,NA,"",   409.778E-03,  -402.007E-03,  -79.4294E-03,   427.436E-06
C:/temp/dataset/6/15_8.odb,Step-1,Increment      1: Step Time =    1.000,"PART-1-1",           393,           -5.,        20.625,            0.,NA,NA,"",   423.018E-03,  -420.584E-03,  -45.3167E-03,   1.90755E-03
C:/temp/dataset/6/15_8.odb,Step-1,Increment      1: Step Time =    1.000,"PART-1-1",           394,      -12.9370,       8.81410,            0.,NA,NA,"",   255.947E-03,  -178.043E-03,  -183.874E-03,   7.17478E-03
C:/temp/dataset/6/15_8.odb,Step-1,Increment      1: Step Time =    1.000,"PART-1-1",           395,          -15.,          8.75,            0.,NA,NA,"",   283.362E-03,  -184.598E-03,  -214.983E-03,   9.46804E-03
C:/temp/dataset/6/15_8.odb,Step-1,Increment      1: Step Time =    1.000,"PART-1-1",           396,      -13.9287,       7.51992,            0.,NA,NA,"",   249.804E-03,  -162.822E-03,  -189.450E-03,   8.21220E-03
C:/temp/dataset/6/15_8.odb,Step-1,Increment      1: Step Time =    1.000,"PART-1-1",           397,          -15.,          1.25,            0.,NA,NA,"",   183.871E-03,  -100.299E-03,  -154.105E-03,   8.09448E-03
C:/temp/dataset/6/15_8.odb,Step-1,Increment      1: Step Time =    1.000,"PART-1-1",           398,      -13.9023,  -59.1614E-03,            0.,NA,NA,"",   162.016E-03,  -87.0097E-03,  -136.670E-03,   6.92508E-03
C:/temp/dataset/6/15_8.odb,Step-1,Increment      1: Step Time =    1.000,"PART-1-1",           399,      -12.7542,       1.08470,            0.,NA,NA,"",   162.392E-03,  -91.8441E-03,  -133.925E-03,   6.29488E-03
C:/temp/dataset/6/15_8.odb,Step-1,Increment      1: Step Time =    1.000,"PART-1-1",           400,          -15.,         -1.25,            0.,NA,NA,"",   159.761E-03,  -82.7440E-03,  -136.664E-03,   7.38079E-03
C:/temp/dataset/6/15_8.odb,Step-1,Increment      1: Step Time =    1.000,"PART-1-1",           401,      -13.9820,      -2.43756,            0.,NA,NA,"",   142.746E-03,  -72.6184E-03,  -122.894E-03,   6.46075E-03
C:/temp/dataset/6/15_8.odb,Step-1,Increment      1: Step Time =    1.000,"PART-1-1",           402,      -12.8843,      -1.24672,            0.,NA,NA,"",   144.104E-03,  -76.4612E-03,  -122.146E-03,   6.02961E-03
C:/temp/dataset/6/15_8.odb,Step-1,Increment      1: Step Time =    1.000,"PART-1-1",           403,      -12.3802,      -13.7897,            0.,NA,NA,"",   67.6853E-03,  -28.6283E-03,  -61.3328E-03,   4.62899E-03
C:/temp/dataset/6/15_8.odb,Step-1,Increment      1: Step Time =    1.000,"PART-1-1",           404,      -13.6672,      -12.5056,            0.,NA,NA,"",   78.4035E-03,  -34.2597E-03,  -70.5222E-03,   4.98921E-03
C:/temp/dataset/6/15_8.odb,Step-1,Increment      1: Step Time =    1.000,"PART-1-1",           405,          -15.,        -13.75,            0.,NA,NA,"",   76.4616E-03,  -34.4214E-03,  -68.2755E-03,   5.09938E-03
C:/temp/dataset/6/15_8.odb,Step-1,Increment      1: Step Time =    1.000,"PART-1-1",           406,      -13.7130,      -15.0341,            0.,NA,NA,"",   66.2290E-03,  -28.8726E-03,  -59.6041E-03,   4.73335E-03
C:/temp/dataset/6/15_8.odb,Step-1,Increment      1: Step Time =    1.000,"PART-1-1",           407,       9.21271,      -3.58583,            0.,NA,NA,"",   58.3524E-03,  -58.2952E-03,   2.58283E-03,   417.521E-06
C:/temp/dataset/6/15_8.odb,Step-1,Increment      1: Step Time =    1.000,"PART-1-1",           408,       7.90749,      -3.82305,            0.,NA,NA,"",   57.1712E-03,  -57.1193E-03,  -2.43468E-03,   362.741E-06
C:/temp/dataset/6/15_8.odb,Step-1,Increment      1: Step Time =    1.000,"PART-1-1",           409,       8.15132,      -5.16923,            0.,NA,NA,"",   51.3681E-03,  -51.3438E-03,  -1.58113E-03,   298.341E-06
C:/temp/dataset/6/15_8.odb,Step-1,Increment      1: Step Time =    1.000,"PART-1-1",           410,       9.45655,      -4.93201,            0.,NA,NA,"",   52.5849E-03,  -52.4786E-03,   3.34104E-03,   373.727E-06
C:/temp/dataset/6/15_8.odb,Step-1,Increment      1: Step Time =    1.000,"PART-1-1",           411,       6.91243,      -16.0318,            0.,NA,NA,"",   13.5580E-03,  -13.1796E-03,  -3.18081E-03,   599.312E-06
C:/temp/dataset/6/15_8.odb,Step-1,Increment      1: Step Time =    1.000,"PART-1-1",           412,       5.96229,      -14.9858,            0.,NA,NA,"",   17.5001E-03,  -16.3707E-03,  -6.18499E-03,   704.519E-06
C:/temp/dataset/6/15_8.odb,Step-1,Increment      1: Step Time =    1.000,"PART-1-1",           413,            5.,      -16.2875,            0.,NA,NA,"",   15.3002E-03,  -13.1686E-03,  -7.78998E-03,   997.918E-06
C:/temp/dataset/6/15_8.odb,Step-1,Increment      1: Step Time =    1.000,"PART-1-1",           414,       6.93910,      -13.7291,            0.,NA,NA,"",   20.2817E-03,  -19.8573E-03,  -4.12708E-03,   482.464E-06
C:/temp/dataset/6/15_8.odb,Step-1,Increment      1: Step Time =    1.000,"PART-1-1",           415,       5.97681,      -12.5371,            0.,NA,NA,"",   25.0113E-03,  -23.8526E-03,  -7.52459E-03,   571.942E-06
C:/temp/dataset/6/15_8.odb,Step-1,Increment      1: Step Time =    1.000,"PART-1-1",           416,            5.,      -13.7937,            0.,NA,NA,"",   22.4202E-03,  -20.1944E-03,  -9.73922E-03,   809.440E-06
C:/temp/dataset/6/15_8.odb,Step-1,Increment      1: Step Time =    1.000,"PART-1-1",           417,         -1.25,          -20.,            0.,NA,NA,"",   5.47919E-03,  -4.58907E-03,  -2.99365E-03,   679.851E-06
C:/temp/dataset/6/15_8.odb,Step-1,Increment      1: Step Time =    1.000,"PART-1-1",           418,      -1.09514,      -22.7401,            0.,NA,NA,"",   2.59121E-03,  -743.878E-06,  -2.48214E-03,   385.788E-06
C:/temp/dataset/6/15_8.odb,Step-1,Increment      1: Step Time =    1.000,"PART-1-1",           419,   141.566E-03,      -21.4393,            0.,NA,NA,"",   2.71176E-03,  -2.31092E-03,  -1.41890E-03,   274.720E-06
C:/temp/dataset/6/15_8.odb,Step-1,Increment      1: Step Time =    1.000,"PART-1-1",           420,      -7.69236,      -25.1479,            0.,NA,NA,"",   11.2453E-03,  -1.39273E-03,  -11.1587E-03,   3.06839E-03
C:/temp/dataset/6/15_8.odb,Step-1,Increment      1: Step Time =    1.000,"PART-1-1",           421,      -9.18951,      -25.9970,            0.,NA,NA,"",   10.6984E-03,  -2.32794E-03,  -10.4420E-03,   3.42769E-03
C:/temp/dataset/6/15_8.odb,Step-1,Increment      1: Step Time =    1.000,"PART-1-1",           422,      -8.56598,      -27.1897,            0.,NA,NA,"",   6.54755E-03,  -539.742E-06,  -6.52527E-03,   2.99385E-03
C:/temp/dataset/6/15_8.odb,Step-1,Increment      1: Step Time =    1.000,"PART-1-1",           423,      -7.06883,      -26.3407,            0.,NA,NA,"",   7.39138E-03,   199.638E-06,  -7.38869E-03,   2.65815E-03
C:/temp/dataset/6/15_8.odb,Step-1,Increment      1: Step Time =    1.000,"PART-1-1",           424,      -9.82073,      -13.8964,            0.,NA,NA,"",   58.2624E-03,  -23.4469E-03,  -53.3363E-03,   4.14705E-03
C:/temp/dataset/6/15_8.odb,Step-1,Increment      1: Step Time =    1.000,"PART-1-1",           425,      -8.65586,      -15.1239,            0.,NA,NA,"",   49.4001E-03,  -19.0659E-03,  -45.5727E-03,   3.97246E-03
C:/temp/dataset/6/15_8.odb,Step-1,Increment      1: Step Time =    1.000,"PART-1-1",           426,      -8.53523,      -12.6467,            0.,NA,NA,"",   58.8580E-03,  -23.8171E-03,  -53.8238E-03,   3.86786E-03
C:/temp/dataset/6/15_8.odb,Step-1,Increment      1: Step Time =    1.000,"PART-1-1",           427,      -6.09243,      -10.1071,            0.,NA,NA,"",   59.8898E-03,  -26.6269E-03,  -53.6451E-03,   2.97839E-03
C:/temp/dataset/6/15_8.odb,Step-1,Increment      1: Step Time =    1.000,"PART-1-1",           428,           -5.,      -8.71250,            0.,NA,NA,"",   61.0269E-03,  -29.8134E-03,  -53.2489E-03,   2.44008E-03
C:/temp/dataset/6/15_8.odb,Step-1,Increment      1: Step Time =    1.000,"PART-1-1",           429,      -6.07322,      -7.75598,            0.,NA,NA,"",   68.9663E-03,  -34.6064E-03,  -59.6552E-03,   2.70936E-03
C:/temp/dataset/6/15_8.odb,Step-1,Increment      1: Step Time =    1.000,"PART-1-1",           430,      -12.7270,      -6.06323,            0.,NA,NA,"",   110.078E-03,  -52.2317E-03,  -96.8965E-03,   5.32956E-03
C:/temp/dataset/6/15_8.odb,Step-1,Increment      1: Step Time =    1.000,"PART-1-1",           431,      -13.8025,      -4.90646,            0.,NA,NA,"",   123.575E-03,  -59.8263E-03,  -108.128E-03,   5.92411E-03
C:/temp/dataset/6/15_8.odb,Step-1,Increment      1: Step Time =    1.000,"PART-1-1",           432,          -15.,         -6.25,            0.,NA,NA,"",   120.769E-03,  -57.3409E-03,  -106.289E-03,   6.23789E-03
C:/temp/dataset/6/15_8.odb,Step-1,Increment      1: Step Time =    1.000,"PART-1-1",           433,      -13.9244,      -7.40677,            0.,NA,NA,"",   107.961E-03,  -50.0021E-03,  -95.6840E-03,   5.62974E-03
C:/temp/dataset/6/15_8.odb,Step-1,Increment      1: Step Time =    1.000,"PART-1-1",           434,       1.60591,      -1.50045,            0.,NA,NA,"",   73.1217E-03,  -67.0965E-03,  -29.0662E-03,   378.556E-06
C:/temp/dataset/6/15_8.odb,Step-1,Increment      1: Step Time =    1.000,"PART-1-1",           435,  -853.298E-03,      -1.92043,            0.,NA,NA,"",   76.2176E-03,  -64.0355E-03,  -41.3349E-03,   515.701E-06
C:/temp/dataset/6/15_8.odb,Step-1,Increment      1: Step Time =    1.000,"PART-1-1",           436,         13.75,          -30.,            0.,NA,NA,"",            0.,   67.0872E-42,   1.25516E-39,   744.432E-06
C:/temp/dataset/6/15_8.odb,Step-1,Increment      1: Step Time =    1.000,"PART-1-1",           437,           15.,      -28.9063,            0.,NA,NA,"",   1.09404E-03,  -634.664E-06,   891.138E-06,   974.019E-06
C:/temp/dataset/6/15_8.odb,Step-1,Increment      1: Step Time =    1.000,"PART-1-1",           438,       13.8103,      -27.8746,            0.,NA,NA,"",   1.55244E-03,  -354.760E-06,   1.51136E-03,   892.159E-06
C:/temp/dataset/6/15_8.odb,Step-1,Increment      1: Step Time =    1.000,"PART-1-1",           439,       12.5603,      -28.9683,            0.,NA,NA,"",   527.266E-06,   118.929E-06,   513.678E-06,   640.201E-06
C:/temp/dataset/6/15_8.odb,Step-1,Increment      1: Step Time =    1.000,"PART-1-1",           440,       12.6598,      -26.8678,            0.,NA,NA,"",   1.87623E-03,  -142.618E-06,   1.87080E-03,   767.846E-06
C:/temp/dataset/6/15_8.odb,Step-1,Increment      1: Step Time =    1.000,"PART-1-1",           441,       11.5501,      -25.8632,            0.,NA,NA,"",   1.94070E-03,  -63.7473E-06,   1.93966E-03,   613.386E-06
C:/temp/dataset/6/15_8.odb,Step-1,Increment      1: Step Time =    1.000,"PART-1-1",           442,       10.3093,      -26.9762,            0.,NA,NA,"",   978.827E-06,   420.411E-06,   883.944E-06,   402.338E-06
C:/temp/dataset/6/15_8.odb,Step-1,Increment      1: Step Time =    1.000,"PART-1-1",           443,       11.4189,      -27.9808,            0.,NA,NA,"",   868.658E-06,   298.507E-06,   815.758E-06,   550.222E-06
C:/temp/dataset/6/15_8.odb,Step-1,Increment      1: Step Time =    1.000,"PART-1-1",           444,       10.1086,      -29.0125,            0.,NA,NA,"",   417.029E-06,   342.896E-06,   237.352E-06,   373.079E-06
C:/temp/dataset/6/15_8.odb,Step-1,Increment      1: Step Time =    1.000,"PART-1-1",           445,       9.01957,      -28.0513,            0.,NA,NA,"",   618.475E-06,   554.543E-06,   273.850E-06,   248.645E-06
C:/temp/dataset/6/15_8.odb,Step-1,Increment      1: Step Time =    1.000,"PART-1-1",           446,          8.75,          -30.,            0.,NA,NA,"",            0.,   308.663E-42,   266.077E-42,   337.865E-06
C:/temp/dataset/6/15_8.odb,Step-1,Increment      1: Step Time =    1.000,"PART-1-1",           447,       4.20973,      -27.9354,            0.,NA,NA,"",   714.953E-06,   637.177E-06,  -324.289E-06,   251.005E-06
C:/temp/dataset/6/15_8.odb,Step-1,Increment      1: Step Time =    1.000,"PART-1-1",           448,       2.74203,      -28.9082,            0.,NA,NA,"",   570.109E-06,   514.069E-06,  -246.489E-06,   400.311E-06
C:/temp/dataset/6/15_8.odb,Step-1,Increment      1: Step Time =    1.000,"PART-1-1",           449,          3.75,          -30.,            0.,NA,NA,"",            0.,   313.185E-42,  -501.441E-42,   429.683E-06
C:/temp/dataset/6/15_8.odb,Step-1,Increment      1: Step Time =    1.000,"PART-1-1",           450,       1.16266,      -25.9573,            0.,NA,NA,"",   1.28067E-03,   901.795E-06,  -909.336E-06,   436.147E-06
C:/temp/dataset/6/15_8.odb,Step-1,Increment      1: Step Time =    1.000,"PART-1-1",           451,       1.65415,      -27.4536,            0.,NA,NA,"",   1.15056E-03,   978.289E-06,  -605.589E-06,   424.845E-06
C:/temp/dataset/6/15_8.odb,Step-1,Increment      1: Step Time =    1.000,"PART-1-1",           452,       3.39879,      -26.8461,            0.,NA,NA,"",   869.294E-06,   686.540E-06,  -533.231E-06,   278.818E-06
C:/temp/dataset/6/15_8.odb,Step-1,Increment      1: Step Time =    1.000,"PART-1-1",           453,       2.90730,      -25.3498,            0.,NA,NA,"",   806.503E-06,   294.333E-06,  -750.876E-06,   386.907E-06
C:/temp/dataset/6/15_8.odb,Step-1,Increment      1: Step Time =    1.000,"PART-1-1",           454,      -3.67645,      -27.5530,            0.,NA,NA,"",   3.08960E-03,   1.77692E-03,  -2.52748E-03,   1.40726E-03
C:/temp/dataset/6/15_8.odb,Step-1,Increment      1: Step Time =    1.000,"PART-1-1",           455,      -2.54816,      -26.3074,            0.,NA,NA,"",   3.33574E-03,   1.82314E-03,  -2.79344E-03,   1.05275E-03
C:/temp/dataset/6/15_8.odb,Step-1,Increment      1: Step Time =    1.000,"PART-1-1",           456,      -3.72120,      -25.1278,            0.,NA,NA,"",   5.34436E-03,   1.38270E-03,  -5.16240E-03,   1.45701E-03
C:/temp/dataset/6/15_8.odb,Step-1,Increment      1: Step Time =    1.000,"PART-1-1",           457,      -4.84948,      -26.3734,            0.,NA,NA,"",   5.22858E-03,   1.54095E-03,  -4.99635E-03,   1.83763E-03
C:/temp/dataset/6/15_8.odb,Step-1,Increment      1: Step Time =    1.000,"PART-1-1",           458,      -4.94498,      -28.7931,            0.,NA,NA,"",   1.94150E-03,   1.12686E-03,  -1.58102E-03,   1.78059E-03
C:/temp/dataset/6/15_8.odb,Step-1,Increment      1: Step Time =    1.000,"PART-1-1",           459,         -3.75,          -30.,            0.,NA,NA,"",            0.,   797.555E-42,  -2.57293E-39,   1.55286E-03
C:/temp/dataset/6/15_8.odb,Step-1,Increment      1: Step Time =    1.000,"PART-1-1",           460,      -6.07748,      -27.5364,            0.,NA,NA,"",   4.25374E-03,   1.19305E-03,  -4.08300E-03,   2.14935E-03
C:/temp/dataset/6/15_8.odb,Step-1,Increment      1: Step Time =    1.000,"PART-1-1",           461,      -7.38250,      -28.7433,            0.,NA,NA,"",   2.44120E-03,   608.806E-06,  -2.36407E-03,   2.41461E-03
C:/temp/dataset/6/15_8.odb,Step-1,Increment      1: Step Time =    1.000,"PART-1-1",           462,         -6.25,          -30.,            0.,NA,NA,"",            0.,   673.681E-42,  -3.78600E-39,   2.06867E-03
C:/temp/dataset/6/15_8.odb,Step-1,Increment      1: Step Time =    1.000,"PART-1-1",           463,      -8.77755,      -24.1806,            0.,NA,NA,"",   16.1001E-03,  -4.00127E-03,  -15.5950E-03,   3.53768E-03
C:/temp/dataset/6/15_8.odb,Step-1,Increment      1: Step Time =    1.000,"PART-1-1",           464,      -9.92276,      -23.8066,            0.,NA,NA,"",   19.5907E-03,  -6.35219E-03,  -18.5323E-03,   3.85572E-03
C:/temp/dataset/6/15_8.odb,Step-1,Increment      1: Step Time =    1.000,"PART-1-1",           465,      -10.3347,      -25.6230,            0.,NA,NA,"",   13.5914E-03,  -4.39955E-03,  -12.8596E-03,   3.78672E-03
C:/temp/dataset/6/15_8.odb,Step-1,Increment      1: Step Time =    1.000,"PART-1-1",           466,       13.9544,      -21.3085,            0.,NA,NA,"",   8.70794E-03,  -4.27791E-03,   7.58470E-03,   1.13731E-03
C:/temp/dataset/6/15_8.odb,Step-1,Increment      1: Step Time =    1.000,"PART-1-1",           467,       13.8855,      -23.5136,            0.,NA,NA,"",   5.74573E-03,  -2.10547E-03,   5.34607E-03,   1.06185E-03
C:/temp/dataset/6/15_8.odb,Step-1,Increment      1: Step Time =    1.000,"PART-1-1",           468,           15.,      -22.3438,            0.,NA,NA,"",   8.49250E-03,  -3.71526E-03,   7.63671E-03,   1.33414E-03
C:/temp/dataset/6/15_8.odb,Step-1,Increment      1: Step Time =    1.000,"PART-1-1",           469,       12.7349,      -24.6944,            0.,NA,NA,"",   3.55446E-03,  -900.709E-06,   3.43844E-03,   825.474E-06
C:/temp/dataset/6/15_8.odb,Step-1,Increment      1: Step Time =    1.000,"PART-1-1",           470,       13.8494,      -25.7120,            0.,NA,NA,"",   3.45747E-03,  -921.017E-06,   3.33254E-03,   970.427E-06
C:/temp/dataset/6/15_8.odb,Step-1,Increment      1: Step Time =    1.000,"PART-1-1",           471,           15.,      -24.5313,            0.,NA,NA,"",   5.49382E-03,  -2.01855E-03,   5.10955E-03,   1.21169E-03
C:/temp/dataset/6/15_8.odb,Step-1,Increment      1: Step Time =    1.000,"PART-1-1",           472,         11.25,          -30.,            0.,NA,NA,"",            0.,   236.381E-42,   797.255E-42,   464.474E-06
C:/temp/dataset/6/15_8.odb,Step-1,Increment      1: Step Time =    1.000,"PART-1-1",           473,       13.9950,      -12.5232,            0.,NA,NA,"",   29.2941E-03,  -24.5075E-03,   16.0477E-03,   899.269E-06
C:/temp/dataset/6/15_8.odb,Step-1,Increment      1: Step Time =    1.000,"PART-1-1",           474,       12.9942,      -13.6844,            0.,NA,NA,"",   23.8628E-03,  -20.4719E-03,   12.2610E-03,   770.655E-06
C:/temp/dataset/6/15_8.odb,Step-1,Increment      1: Step Time =    1.000,"PART-1-1",           475,           15.,      -13.5938,            0.,NA,NA,"",   28.2158E-03,  -21.6142E-03,   18.1372E-03,   1.15286E-03
C:/temp/dataset/6/15_8.odb,Step-1,Increment      1: Step Time =    1.000,"PART-1-1",           476,       9.85236,      -17.2546,            0.,NA,NA,"",   10.5164E-03,  -9.99190E-03,   3.27987E-03,   334.761E-06
C:/temp/dataset/6/15_8.odb,Step-1,Increment      1: Step Time =    1.000,"PART-1-1",           477,       8.68427,      -17.7513,            0.,NA,NA,"",   8.75141E-03,  -8.69589E-03,   984.211E-06,   311.112E-06
C:/temp/dataset/6/15_8.odb,Step-1,Increment      1: Step Time =    1.000,"PART-1-1",           478,       8.96140,      -18.9835,            0.,NA,NA,"",   6.32418E-03,  -6.15649E-03,   1.44668E-03,   274.934E-06
C:/temp/dataset/6/15_8.odb,Step-1,Increment      1: Step Time =    1.000,"PART-1-1",           479,       10.1295,      -18.4868,            0.,NA,NA,"",   8.14439E-03,  -7.35263E-03,   3.50284E-03,   381.571E-06
C:/temp/dataset/6/15_8.odb,Step-1,Increment      1: Step Time =    1.000,"PART-1-1",           480,       11.2436,      -18.3856,            0.,NA,NA,"",   9.60063E-03,  -7.85227E-03,   5.52395E-03,   557.032E-06
C:/temp/dataset/6/15_8.odb,Step-1,Increment      1: Step Time =    1.000,"PART-1-1",           481,       12.3956,      -19.2305,            0.,NA,NA,"",   9.69115E-03,  -6.66211E-03,   7.03809E-03,   799.275E-06
C:/temp/dataset/6/15_8.odb,Step-1,Increment      1: Step Time =    1.000,"PART-1-1",           482,       13.1120,      -18.1414,            0.,NA,NA,"",   12.8735E-03,  -9.03045E-03,   9.17488E-03,   923.704E-06
C:/temp/dataset/6/15_8.odb,Step-1,Increment      1: Step Time =    1.000,"PART-1-1",           483,       11.9600,      -17.2965,            0.,NA,NA,"",   12.8291E-03,  -10.4181E-03,   7.48654E-03,   680.810E-06
C:/temp/dataset/6/15_8.odb,Step-1,Increment      1: Step Time =    1.000,"PART-1-1",           484,       14.0024,      -3.77677,            0.,NA,NA,"",   61.8789E-03,  -58.1296E-03,   21.2122E-03,   430.838E-06
C:/temp/dataset/6/15_8.odb,Step-1,Increment      1: Step Time =    1.000,"PART-1-1",           485,       13.0359,      -4.87313,            0.,NA,NA,"",   55.8840E-03,  -53.2529E-03,   16.9454E-03,   456.262E-06
C:/temp/dataset/6/15_8.odb,Step-1,Increment      1: Step Time =    1.000,"PART-1-1",           486,       14.0335,      -5.94012,            0.,NA,NA,"",   53.0960E-03,  -49.0112E-03,   20.4226E-03,   560.145E-06
C:/temp/dataset/6/15_8.odb,Step-1,Increment      1: Step Time =    1.000,"PART-1-1",           487,           15.,      -4.84375,            0.,NA,NA,"",   59.2997E-03,  -53.8217E-03,   24.8934E-03,   564.109E-06
C:/temp/dataset/6/15_8.odb,Step-1,Increment      1: Step Time =    1.000,"PART-1-1",           488,       13.0510,      -7.01836,            0.,NA,NA,"",   47.2237E-03,  -44.3756E-03,   16.1518E-03,   533.339E-06
C:/temp/dataset/6/15_8.odb,Step-1,Increment      1: Step Time =    1.000,"PART-1-1",           489,       14.0175,      -8.10950,            0.,NA,NA,"",   44.6546E-03,  -40.3196E-03,   19.1928E-03,   675.189E-06
C:/temp/dataset/6/15_8.odb,Step-1,Increment      1: Step Time =    1.000,"PART-1-1",           490,           15.,      -7.03125,            0.,NA,NA,"",   50.7196E-03,  -44.8743E-03,   23.6386E-03,   722.679E-06
C:/temp/dataset/6/15_8.odb,Step-1,Increment      1: Step Time =    1.000,"PART-1-1",           491,         13.75,            5.,            0.,NA,NA,"",   98.6046E-03,  -96.2803E-03,   21.2831E-03,   8.58409E-06
C:/temp/dataset/6/15_8.odb,Step-1,Increment      1: Step Time =    1.000,"PART-1-1",           492,       12.4982,       3.90020,            0.,NA,NA,"",   93.0406E-03,  -91.6448E-03,   16.0557E-03,   72.0672E-06
C:/temp/dataset/6/15_8.odb,Step-1,Increment      1: Step Time =    1.000,"PART-1-1",           493,       13.7482,       2.80645,            0.,NA,NA,"",   89.5191E-03,  -86.9538E-03,   21.2769E-03,   68.8434E-06
C:/temp/dataset/6/15_8.odb,Step-1,Increment      1: Step Time =    1.000,"PART-1-1",           494,           15.,       3.90625,            0.,NA,NA,"",   95.4399E-03,  -91.6627E-03,   26.5843E-03,   9.70466E-06
C:/temp/dataset/6/15_8.odb,Step-1,Increment      1: Step Time =    1.000,"PART-1-1",           495,         11.25,            5.,            0.,NA,NA,"",   96.9211E-03,  -96.3094E-03,   10.8713E-03,   92.3005E-06
C:/temp/dataset/6/15_8.odb,Step-1,Increment      1: Step Time =    1.000,"PART-1-1",           496,       11.2740,       2.82937,            0.,NA,NA,"",   87.8024E-03,  -87.1030E-03,   11.0598E-03,   213.183E-06
C:/temp/dataset/6/15_8.odb,Step-1,Increment      1: Step Time =    1.000,"PART-1-1",           497,       11.1422,   446.578E-03,            0.,NA,NA,"",   77.2638E-03,  -76.5478E-03,   10.4939E-03,   337.355E-06
C:/temp/dataset/6/15_8.odb,Step-1,Increment      1: Step Time =    1.000,"PART-1-1",           498,       10.2035,  -836.101E-03,            0.,NA,NA,"",   71.0515E-03,  -70.7352E-03,   6.69631E-03,   417.294E-06
C:/temp/dataset/6/15_8.odb,Step-1,Increment      1: Step Time =    1.000,"PART-1-1",           499,       11.7017,      -1.82731,            0.,NA,NA,"",   67.5270E-03,  -66.3669E-03,   12.4635E-03,   382.357E-06
C:/temp/dataset/6/15_8.odb,Step-1,Increment      1: Step Time =    1.000,"PART-1-1",           500,       12.5035,       1.67834,            0.,NA,NA,"",   83.5877E-03,  -82.0300E-03,   16.0623E-03,   204.388E-06
C:/temp/dataset/6/15_8.odb,Step-1,Increment      1: Step Time =    1.000,"PART-1-1",           501,       9.91277,       1.59761,            0.,NA,NA,"",   81.9520E-03,  -81.7589E-03,   5.62138E-03,   342.546E-06
C:/temp/dataset/6/15_8.odb,Step-1,Increment      1: Step Time =    1.000,"PART-1-1",           502,       5.19643,       3.92738,            0.,NA,NA,"",   94.4129E-03,  -93.4020E-03,  -13.7793E-03,   566.127E-06
C:/temp/dataset/6/15_8.odb,Step-1,Increment      1: Step Time =    1.000,"PART-1-1",           503,          3.75,            5.,            0.,NA,NA,"",   101.093E-03,  -99.0270E-03,  -20.3319E-03,   816.869E-06
C:/temp/dataset/6/15_8.odb,Step-1,Increment      1: Step Time =    1.000,"PART-1-1",           504,       2.66615,       3.61346,            0.,NA,NA,"",   96.5368E-03,  -93.3385E-03,  -24.6431E-03,   742.673E-06
C:/temp/dataset/6/15_8.odb,Step-1,Increment      1: Step Time =    1.000,"PART-1-1",           505,      -1.00804,       2.95894,            0.,NA,NA,"",   101.387E-03,  -92.3348E-03,  -41.8762E-03,   1.00624E-03
C:/temp/dataset/6/15_8.odb,Step-1,Increment      1: Step Time =    1.000,"PART-1-1",           506,   87.8012E-03,       3.95476,            0.,NA,NA,"",   103.800E-03,  -97.0368E-03,  -36.8564E-03,   1.08110E-03
C:/temp/dataset/6/15_8.odb,Step-1,Increment      1: Step Time =    1.000,"PART-1-1",           507,         -1.25,            5.,            0.,NA,NA,"",   113.181E-03,  -104.144E-03,  -44.3185E-03,   1.68312E-03
C:/temp/dataset/6/15_8.odb,Step-1,Increment      1: Step Time =    1.000,"PART-1-1",           508,      -2.34584,       4.00418,            0.,NA,NA,"",   111.647E-03,  -100.150E-03,  -49.3466E-03,   1.48666E-03
C:/temp/dataset/6/15_8.odb,Step-1,Increment      1: Step Time =    1.000,"PART-1-1",           509,      -3.27281,       2.96378,            0.,NA,NA,"",   108.544E-03,  -94.0639E-03,  -54.1646E-03,   842.526E-06
C:/temp/dataset/6/15_8.odb,Step-1,Increment      1: Step Time =    1.000,"PART-1-1",           510,         -3.75,            5.,            0.,NA,NA,"",   123.758E-03,  -109.108E-03,  -58.4093E-03,   2.93893E-03
C:/temp/dataset/6/15_8.odb,Step-1,Increment      1: Step Time =    1.000,"PART-1-1",           511,      -4.67697,       3.95960,            0.,NA,NA,"",   120.716E-03,  -102.772E-03,  -63.3258E-03,   1.73470E-03
C:/temp/dataset/6/15_8.odb,Step-1,Increment      1: Step Time =    1.000,"PART-1-1",           512,      -7.93004,       8.58536,            0.,NA,NA,"",   195.747E-03,  -164.837E-03,  -105.574E-03,   1.75901E-03
C:/temp/dataset/6/15_8.odb,Step-1,Increment      1: Step Time =    1.000,"PART-1-1",           513,      -8.65034,       7.25415,            0.,NA,NA,"",   185.103E-03,  -146.357E-03,  -113.325E-03,   2.79290E-03
C:/temp/dataset/6/15_8.odb,Step-1,Increment      1: Step Time =    1.000,"PART-1-1",           514,      -7.51010,       6.50150,            0.,NA,NA,"",   165.766E-03,  -134.958E-03,  -96.2543E-03,   1.60409E-03
C:/temp/dataset/6/15_8.odb,Step-1,Increment      1: Step Time =    1.000,"PART-1-1",           515,      -6.78981,       7.83270,            0.,NA,NA,"",   176.423E-03,  -153.093E-03,  -87.6800E-03,   554.073E-06
C:/temp/dataset/6/15_8.odb,Step-1,Increment      1: Step Time =    1.000,"PART-1-1",           516,      -7.08495,       12.0475,            0.,NA,NA,"",   242.198E-03,  -222.574E-03,  -95.5015E-03,   732.702E-06
C:/temp/dataset/6/15_8.odb,Step-1,Increment      1: Step Time =    1.000,"PART-1-1",           517,      -6.02998,       11.1050,            0.,NA,NA,"",   219.264E-03,  -205.672E-03,  -75.9993E-03,   419.946E-06
C:/temp/dataset/6/15_8.odb,Step-1,Increment      1: Step Time =    1.000,"PART-1-1",           518,           -5.,       12.2917,            0.,NA,NA,"",   234.769E-03,  -227.911E-03,  -56.3311E-03,   1.59775E-03
C:/temp/dataset/6/15_8.odb,Step-1,Increment      1: Step Time =    1.000,"PART-1-1",           519,      -6.05497,       13.2342,            0.,NA,NA,"",   256.881E-03,  -245.381E-03,  -75.9994E-03,   470.994E-06
C:/temp/dataset/6/15_8.odb,Step-1,Increment      1: Step Time =    1.000,"PART-1-1",           520,      -9.96524,       21.0498,            0.,NA,NA,"",   470.057E-03,  -432.638E-03,  -183.786E-03,   3.93850E-03
C:/temp/dataset/6/15_8.odb,Step-1,Increment      1: Step Time =    1.000,"PART-1-1",           521,      -8.51702,       20.1362,            0.,NA,NA,"",   429.992E-03,  -406.230E-03,  -140.960E-03,   2.24083E-03
C:/temp/dataset/6/15_8.odb,Step-1,Increment      1: Step Time =    1.000,"PART-1-1",           522,      -8.09442,       21.6565,            0.,NA,NA,"",   467.279E-03,  -448.107E-03,  -132.478E-03,   1.72136E-03
C:/temp/dataset/6/15_8.odb,Step-1,Increment      1: Step Time =    1.000,"PART-1-1",           523,      -9.54264,       22.5701,            0.,NA,NA,"",   507.515E-03,  -475.571E-03,  -177.209E-03,   3.41519E-03
C:/temp/dataset/6/15_8.odb,Step-1,Increment      1: Step Time =    1.000,"PART-1-1",           524,      -7.38593,       19.0122,            0.,NA,NA,"",   391.768E-03,  -376.293E-03,  -109.022E-03,   934.305E-06
C:/temp/dataset/6/15_8.odb,Step-1,Increment      1: Step Time =    1.000,"PART-1-1",           525,      -6.14460,       17.5723,            0.,NA,NA,"",   349.244E-03,  -340.615E-03,  -77.1544E-03,   493.151E-06
C:/temp/dataset/6/15_8.odb,Step-1,Increment      1: Step Time =    1.000,"PART-1-1",           526,           -5.,       18.5417,            0.,NA,NA,"",   368.717E-03,  -365.568E-03,  -48.0876E-03,   1.84904E-03
C:/temp/dataset/6/15_8.odb,Step-1,Increment      1: Step Time =    1.000,"PART-1-1",           527,      -9.12859,       24.1056,            0.,NA,NA,"",   548.467E-03,  -521.577E-03,  -169.627E-03,   2.87510E-03
C:/temp/dataset/6/15_8.odb,Step-1,Increment      1: Step Time =    1.000,"PART-1-1",           528,      -7.82088,       23.2603,            0.,NA,NA,"",   511.248E-03,  -495.141E-03,  -127.321E-03,   1.36481E-03
C:/temp/dataset/6/15_8.odb,Step-1,Increment      1: Step Time =    1.000,"PART-1-1",           529,      -7.11221,       24.6459,            0.,NA,NA,"",   548.729E-03,  -538.176E-03,  -107.103E-03,   441.329E-06
C:/temp/dataset/6/15_8.odb,Step-1,Increment      1: Step Time =    1.000,"PART-1-1",           530,      -8.41993,       25.4912,            0.,NA,NA,"",   584.918E-03,  -565.216E-03,  -150.531E-03,   1.86884E-03
C:/temp/dataset/6/15_8.odb,Step-1,Increment      1: Step Time =    1.000,"PART-1-1",           531,           -5.,       28.9583,            0.,NA,NA,"",   686.834E-03,  -685.789E-03,  -37.8861E-03,   386.752E-06
C:/temp/dataset/6/15_8.odb,Step-1,Increment      1: Step Time =    1.000,"PART-1-1",           532,         -6.25,           30.,            0.,NA,NA,"",   725.947E-03,  -721.347E-03,  -81.5989E-03,   421.200E-06
C:/temp/dataset/6/15_8.odb,Step-1,Increment      1: Step Time =    1.000,"PART-1-1",           533,      -6.22481,       27.8751,            0.,NA,NA,"",   651.911E-03,  -647.047E-03,  -79.4871E-03,   844.321E-06
C:/temp/dataset/6/15_8.odb,Step-1,Increment      1: Step Time =    1.000,"PART-1-1",           534,      -11.1386,       27.5393,            0.,NA,NA,"",   684.462E-03,  -636.374E-03,  -252.025E-03,   6.36391E-03
C:/temp/dataset/6/15_8.odb,Step-1,Increment      1: Step Time =    1.000,"PART-1-1",           535,        -11.25,           30.,            0.,NA,NA,"",   775.429E-03,  -725.425E-03,  -273.949E-03,   6.92929E-03
C:/temp/dataset/6/15_8.odb,Step-1,Increment      1: Step Time =    1.000,"PART-1-1",           536,      -13.1147,       13.7606,            0.,NA,NA,"",   345.109E-03,  -265.494E-03,  -220.484E-03,   7.50901E-03
C:/temp/dataset/6/15_8.odb,Step-1,Increment      1: Step Time =    1.000,"PART-1-1",           537,      -14.0658,       14.9906,            0.,NA,NA,"",   385.916E-03,  -294.242E-03,  -249.706E-03,   8.63841E-03
C:/temp/dataset/6/15_8.odb,Step-1,Increment      1: Step Time =    1.000,"PART-1-1",           538,          -15.,         13.75,            0.,NA,NA,"",   375.634E-03,  -272.202E-03,  -258.858E-03,   9.67993E-03
C:/temp/dataset/6/15_8.odb,Step-1,Increment      1: Step Time =    1.000,"PART-1-1",           539,      -9.42834,       18.6970,            0.,NA,NA,"",   403.011E-03,  -369.505E-03,  -160.887E-03,   3.31237E-03
C:/temp/dataset/6/15_8.odb,Step-1,Increment      1: Step Time =    1.000,"PART-1-1",           540,      -8.29725,       17.5730,            0.,NA,NA,"",   364.524E-03,  -340.715E-03,  -129.580E-03,   2.00843E-03
C:/temp/dataset/6/15_8.odb,Step-1,Increment      1: Step Time =    1.000,"PART-1-1",           541,      -12.7588,       6.21303,            0.,NA,NA,"",   217.409E-03,  -141.972E-03,  -164.654E-03,   6.86972E-03
C:/temp/dataset/6/15_8.odb,Step-1,Increment      1: Step Time =    1.000,"PART-1-1",           542,          -15.,          6.25,            0.,NA,NA,"",   245.214E-03,  -150.405E-03,  -193.671E-03,   9.21662E-03
C:/temp/dataset/6/15_8.odb,Step-1,Increment      1: Step Time =    1.000,"PART-1-1",           543,      -9.01063,       9.47069,            0.,NA,NA,"",   218.575E-03,  -179.592E-03,  -124.587E-03,   2.93246E-03
C:/temp/dataset/6/15_8.odb,Step-1,Increment      1: Step Time =    1.000,"PART-1-1",           544,      -10.0811,       10.4578,            0.,NA,NA,"",   245.242E-03,  -197.266E-03,  -145.705E-03,   4.06129E-03
C:/temp/dataset/6/15_8.odb,Step-1,Increment      1: Step Time =    1.000,"PART-1-1",           545,      -10.9384,       9.05000,            0.,NA,NA,"",   234.042E-03,  -176.309E-03,  -153.918E-03,   5.04429E-03
C:/temp/dataset/6/15_8.odb,Step-1,Increment      1: Step Time =    1.000,"PART-1-1",           546,      -9.86794,       8.06293,            0.,NA,NA,"",   207.987E-03,  -159.555E-03,  -133.420E-03,   3.92375E-03
C:/temp/dataset/6/15_8.odb,Step-1,Increment      1: Step Time =    1.000,"PART-1-1",           547,      -7.23366,       1.29985,            0.,NA,NA,"",   118.309E-03,  -83.4939E-03,  -83.8193E-03,   2.13671E-03
C:/temp/dataset/6/15_8.odb,Step-1,Increment      1: Step Time =    1.000,"PART-1-1",           548,      -8.34685,   784.410E-03,            0.,NA,NA,"",   123.001E-03,  -80.9435E-03,  -92.6140E-03,   2.99221E-03
C:/temp/dataset/6/15_8.odb,Step-1,Increment      1: Step Time =    1.000,"PART-1-1",           549,      -7.43977,  -685.632E-03,            0.,NA,NA,"",   108.109E-03,  -70.5176E-03,  -81.9443E-03,   2.33423E-03
C:/temp/dataset/6/15_8.odb,Step-1,Increment      1: Step Time =    1.000,"PART-1-1",           550,      -12.4903,      -8.57964,            0.,NA,NA,"",   94.3440E-03,  -42.5487E-03,  -84.2045E-03,   5.03968E-03
C:/temp/dataset/6/15_8.odb,Step-1,Increment      1: Step Time =    1.000,"PART-1-1",           551,          -15.,         -8.75,            0.,NA,NA,"",   104.497E-03,  -48.0844E-03,  -92.7764E-03,   5.82593E-03
C:/temp/dataset/6/15_8.odb,Step-1,Increment      1: Step Time =    1.000,"PART-1-1",           552,      -13.5658,      -9.92286,            0.,NA,NA,"",   91.6657E-03,  -40.8531E-03,  -82.0587E-03,   5.22847E-03
C:/temp/dataset/6/15_8.odb,Step-1,Increment      1: Step Time =    1.000,"PART-1-1",           553,      -11.9783,      -7.15971,            0.,NA,NA,"",   99.7264E-03,  -46.3392E-03,  -88.3064E-03,   4.92226E-03
C:/temp/dataset/6/15_8.odb,Step-1,Increment      1: Step Time =    1.000,"PART-1-1",           554,      -11.8960,      -5.22799,            0.,NA,NA,"",   110.444E-03,  -53.8278E-03,  -96.4391E-03,   5.02327E-03
C:/temp/dataset/6/15_8.odb,Step-1,Increment      1: Step Time =    1.000,"PART-1-1",           555,      -12.4565,      -16.3452,            0.,NA,NA,"",   56.4246E-03,  -23.8059E-03,  -51.1567E-03,   4.45711E-03
C:/temp/dataset/6/15_8.odb,Step-1,Increment      1: Step Time =    1.000,"PART-1-1",           556,          -15.,        -16.25,            0.,NA,NA,"",   64.2448E-03,  -29.2330E-03,  -57.2086E-03,   4.78524E-03
C:/temp/dataset/6/15_8.odb,Step-1,Increment      1: Step Time =    1.000,"PART-1-1",           557,      -13.7435,      -17.5611,            0.,NA,NA,"",   54.7845E-03,  -24.1531E-03,  -49.1728E-03,   4.51141E-03
C:/temp/dataset/6/15_8.odb,Step-1,Increment      1: Step Time =    1.000,"PART-1-1",           558,      -9.99221,      -8.41662,            0.,NA,NA,"",   83.4584E-03,  -38.0421E-03,  -74.2840E-03,   4.16251E-03
C:/temp/dataset/6/15_8.odb,Step-1,Increment      1: Step Time =    1.000,"PART-1-1",           559,      -11.4633,      -9.12095,            0.,NA,NA,"",   86.7672E-03,  -38.6315E-03,  -77.6926E-03,   4.64796E-03
C:/temp/dataset/6/15_8.odb,Step-1,Increment      1: Step Time =    1.000,"PART-1-1",           560,      -10.8070,      -10.1141,            0.,NA,NA,"",   78.9657E-03,  -34.3674E-03,  -71.0948E-03,   4.44467E-03
C:/temp/dataset/6/15_8.odb,Step-1,Increment      1: Step Time =    1.000,"PART-1-1",           561,      -13.9189,      -24.9166,            0.,NA,NA,"",   23.6402E-03,  -11.9751E-03,  -20.3828E-03,   4.38693E-03
C:/temp/dataset/6/15_8.odb,Step-1,Increment      1: Step Time =    1.000,"PART-1-1",           562,      -12.9076,      -23.6273,            0.,NA,NA,"",   26.6505E-03,  -12.0461E-03,  -23.7727E-03,   4.34150E-03
C:/temp/dataset/6/15_8.odb,Step-1,Increment      1: Step Time =    1.000,"PART-1-1",           563,          -15.,        -23.75,            0.,NA,NA,"",   31.1064E-03,  -15.9582E-03,  -26.7011E-03,   4.40681E-03
C:/temp/dataset/6/15_8.odb,Step-1,Increment      1: Step Time =    1.000,"PART-1-1",           564,          -15.,        -28.75,            0.,NA,NA,"",   8.84791E-03,  -6.24185E-03,  -6.27095E-03,   5.40530E-03
C:/temp/dataset/6/15_8.odb,Step-1,Increment      1: Step Time =    1.000,"PART-1-1",           565,        -13.75,          -30.,            0.,NA,NA,"",            0.,  -493.270E-42,  -7.36679E-39,   5.05776E-03
C:/temp/dataset/6/15_8.odb,Step-1,Increment      1: Step Time =    1.000,"PART-1-1",           566,      -13.7642,      -27.4123,            0.,NA,NA,"",   12.1743E-03,  -6.96656E-03,  -9.98406E-03,   4.54640E-03
C:/temp/dataset/6/15_8.odb,Step-1,Increment      1: Step Time =    1.000,"PART-1-1",           567,            5.,      -6.25625,            0.,NA,NA,"",   48.9165E-03,  -46.9700E-03,  -13.6620E-03,   348.682E-06
C:/temp/dataset/6/15_8.odb,Step-1,Increment      1: Step Time =    1.000,"PART-1-1",           568,       7.03347,      -6.11658,            0.,NA,NA,"",   47.7059E-03,  -47.3506E-03,  -5.81143E-03,   202.176E-06
C:/temp/dataset/6/15_8.odb,Step-1,Increment      1: Step Time =    1.000,"PART-1-1",           569,       6.04361,      -4.83741,            0.,NA,NA,"",   53.3776E-03,  -52.4766E-03,  -9.76602E-03,   224.170E-06
C:/temp/dataset/6/15_8.odb,Step-1,Increment      1: Step Time =    1.000,"PART-1-1",           570,           15.,      -2.65625,            0.,NA,NA,"",   68.2345E-03,  -63.1633E-03,   25.8137E-03,   387.699E-06
C:/temp/dataset/6/15_8.odb,Step-1,Increment      1: Step Time =    1.000,"PART-1-1",           571,       12.8875,      -2.72454,            0.,NA,NA,"",   64.7970E-03,  -62.5264E-03,   17.0031E-03,   380.524E-06
C:/temp/dataset/6/15_8.odb,Step-1,Increment      1: Step Time =    1.000,"PART-1-1",           572,       10.0248,      -7.91896,            0.,NA,NA,"",   40.5934E-03,  -40.2819E-03,   5.01961E-03,   321.404E-06
C:/temp/dataset/6/15_8.odb,Step-1,Increment      1: Step Time =    1.000,"PART-1-1",           573,       8.98203,      -8.99604,            0.,NA,NA,"",   36.0925E-03,  -36.0671E-03,   1.35380E-03,   271.826E-06
C:/temp/dataset/6/15_8.odb,Step-1,Increment      1: Step Time =    1.000,"PART-1-1",           574,       9.98204,      -10.2112,            0.,NA,NA,"",   31.9138E-03,  -31.5849E-03,   4.56966E-03,   313.342E-06
C:/temp/dataset/6/15_8.odb,Step-1,Increment      1: Step Time =    1.000,"PART-1-1",           575,            5.,      -11.2813,            0.,NA,NA,"",   30.5314E-03,  -28.3171E-03,  -11.4154E-03,   650.828E-06
C:/temp/dataset/6/15_8.odb,Step-1,Increment      1: Step Time =    1.000,"PART-1-1",           576,       6.96001,      -11.3098,            0.,NA,NA,"",   28.2231E-03,  -27.7878E-03,  -4.93773E-03,   392.556E-06
C:/temp/dataset/6/15_8.odb,Step-1,Increment      1: Step Time =    1.000,"PART-1-1",           577,       12.1169,      -5.93459,            0.,NA,NA,"",   50.3443E-03,  -48.6197E-03,   13.0641E-03,   446.920E-06
C:/temp/dataset/6/15_8.odb,Step-1,Increment      1: Step Time =    1.000,"PART-1-1",           578,       11.1088,      -6.97100,            0.,NA,NA,"",   45.1169E-03,  -44.1986E-03,   9.05609E-03,   407.267E-06
C:/temp/dataset/6/15_8.odb,Step-1,Increment      1: Step Time =    1.000,"PART-1-1",           579,           15.,      -11.4063,            0.,NA,NA,"",   35.0917E-03,  -28.6569E-03,   20.2537E-03,   1.01070E-03
C:/temp/dataset/6/15_8.odb,Step-1,Increment      1: Step Time =    1.000,"PART-1-1",           580,       13.9991,      -10.3053,            0.,NA,NA,"",   36.6646E-03,  -32.1011E-03,   17.7148E-03,   785.709E-06
C:/temp/dataset/6/15_8.odb,Step-1,Increment      1: Step Time =    1.000,"PART-1-1",           581,       12.9941,      -11.4223,            0.,NA,NA,"",   31.0198E-03,  -27.8381E-03,   13.6846E-03,   687.933E-06
C:/temp/dataset/6/15_8.odb,Step-1,Increment      1: Step Time =    1.000,"PART-1-1",           582,           15.,      -9.21875,            0.,NA,NA,"",   42.6196E-03,  -36.4499E-03,   22.0869E-03,   868.247E-06
C:/temp/dataset/6/15_8.odb,Step-1,Increment      1: Step Time =    1.000,"PART-1-1",           583,       9.25975,      -25.9916,            0.,NA,NA,"",   796.358E-06,   365.525E-06,   707.515E-06,   248.083E-06
C:/temp/dataset/6/15_8.odb,Step-1,Increment      1: Step Time =    1.000,"PART-1-1",           584,       7.97004,      -27.0667,            0.,NA,NA,"",   614.221E-06,   599.142E-06,   135.260E-06,   132.484E-06
C:/temp/dataset/6/15_8.odb,Step-1,Increment      1: Step Time =    1.000,"PART-1-1",           585,       9.98268,      -20.3187,            0.,NA,NA,"",   4.94758E-03,  -4.13643E-03,   2.71449E-03,   365.945E-06
C:/temp/dataset/6/15_8.odb,Step-1,Increment      1: Step Time =    1.000,"PART-1-1",           586,       8.47236,      -19.9740,            0.,NA,NA,"",   4.37943E-03,  -4.33392E-03,   629.698E-06,   256.871E-06
C:/temp/dataset/6/15_8.odb,Step-1,Increment      1: Step Time =    1.000,"PART-1-1",           587,       7.80775,      -21.2882,            0.,NA,NA,"",   2.49708E-03,  -2.49007E-03,  -186.983E-06,   234.917E-06
C:/temp/dataset/6/15_8.odb,Step-1,Increment      1: Step Time =    1.000,"PART-1-1",           588,       9.31806,      -21.6330,            0.,NA,NA,"",   2.78611E-03,  -2.33326E-03,   1.52260E-03,   246.789E-06
C:/temp/dataset/6/15_8.odb,Step-1,Increment      1: Step Time =    1.000,"PART-1-1",           589,          3.75,          -20.,            0.,NA,NA,"",   3.18669E-03,  -2.88577E-03,  -1.35179E-03,   715.728E-06
C:/temp/dataset/6/15_8.odb,Step-1,Increment      1: Step Time =    1.000,"PART-1-1",           590,       2.69482,      -20.9389,            0.,NA,NA,"",   2.85876E-03,  -2.64107E-03,  -1.09419E-03,   360.798E-06
C:/temp/dataset/6/15_8.odb,Step-1,Increment      1: Step Time =    1.000,"PART-1-1",           591,       4.10336,      -21.5712,            0.,NA,NA,"",   3.00656E-03,  -2.49991E-03,  -1.67030E-03,   837.554E-06
C:/temp/dataset/6/15_8.odb,Step-1,Increment      1: Step Time =    1.000,"PART-1-1",           592,       5.15854,      -20.6323,            0.,NA,NA,"",   4.13924E-03,  -3.17513E-03,  -2.65552E-03,   1.18658E-03
C:/temp/dataset/6/15_8.odb,Step-1,Increment      1: Step Time =    1.000,"PART-1-1",           593,          1.25,          -20.,            0.,NA,NA,"",   3.22606E-03,  -3.03567E-03,  -1.09187E-03,   342.298E-06
C:/temp/dataset/6/15_8.odb,Step-1,Increment      1: Step Time =    1.000,"PART-1-1",           594,       1.58638,      -22.3782,            0.,NA,NA,"",   1.82498E-03,  -1.55444E-03,  -956.164E-06,   572.198E-06
C:/temp/dataset/6/15_8.odb,Step-1,Increment      1: Step Time =    1.000,"PART-1-1",           595,      -7.18878,      -21.5166,            0.,NA,NA,"",   21.7326E-03,  -6.01330E-03,  -20.8841E-03,   3.48772E-03
C:/temp/dataset/6/15_8.odb,Step-1,Increment      1: Step Time =    1.000,"PART-1-1",           596,      -8.69544,      -20.4918,            0.,NA,NA,"",   29.3077E-03,  -10.0556E-03,  -27.5287E-03,   3.62558E-03
C:/temp/dataset/6/15_8.odb,Step-1,Increment      1: Step Time =    1.000,"PART-1-1",           597,      -9.53108,      -21.9939,            0.,NA,NA,"",   25.6281E-03,  -8.69545E-03,  -24.1079E-03,   3.80846E-03
C:/temp/dataset/6/15_8.odb,Step-1,Increment      1: Step Time =    1.000,"PART-1-1",           598,      -8.02442,      -23.0186,            0.,NA,NA,"",   18.5608E-03,  -4.58575E-03,  -17.9854E-03,   3.52460E-03
C:/temp/dataset/6/15_8.odb,Step-1,Increment      1: Step Time =    1.000,"PART-1-1",           599,           -5.,      -18.7437,            0.,NA,NA,"",   25.1166E-03,  -7.87863E-03,  -23.8489E-03,   4.70409E-03
C:/temp/dataset/6/15_8.odb,Step-1,Increment      1: Step Time =    1.000,"PART-1-1",           600,      -6.23242,      -17.5731,            0.,NA,NA,"",   32.9207E-03,  -11.4123E-03,  -30.8794E-03,   3.88773E-03
C:/temp/dataset/6/15_8.odb,Step-1,Increment      1: Step Time =    1.000,"PART-1-1",           601,      -7.41830,      -18.9573,            0.,NA,NA,"",   31.3981E-03,  -11.1956E-03,  -29.3342E-03,   3.42591E-03
C:/temp/dataset/6/15_8.odb,Step-1,Increment      1: Step Time =    1.000,"PART-1-1",           602,      -6.18588,      -20.1280,            0.,NA,NA,"",   23.8116E-03,  -7.81867E-03,  -22.4914E-03,   3.77358E-03
C:/temp/dataset/6/15_8.odb,Step-1,Increment      1: Step Time =    1.000,"PART-1-1",           603,           -5.,      -16.2312,            0.,NA,NA,"",   35.1732E-03,  -11.0729E-03,  -33.3848E-03,   3.63479E-03
C:/temp/dataset/6/15_8.odb,Step-1,Increment      1: Step Time =    1.000,"PART-1-1",           604,      -7.44257,      -16.3835,            0.,NA,NA,"",   40.8731E-03,  -14.9788E-03,  -38.0296E-03,   3.83583E-03
C:/temp/dataset/6/15_8.odb,Step-1,Increment      1: Step Time =    1.000,"PART-1-1",           605,      -12.6830,      -26.0788,            0.,NA,NA,"",   15.8625E-03,  -7.59422E-03,  -13.9264E-03,   4.32892E-03
C:/temp/dataset/6/15_8.odb,Step-1,Increment      1: Step Time =    1.000,"PART-1-1",           606,          -15.,        -26.25,            0.,NA,NA,"",   20.7732E-03,  -11.9090E-03,  -17.0205E-03,   4.50534E-03
C:/temp/dataset/6/15_8.odb,Step-1,Increment      1: Step Time =    1.000,"PART-1-1",           607,         -8.75,          -30.,            0.,NA,NA,"",            0.,   264.565E-42,  -4.96240E-39,   2.59938E-03
C:/temp/dataset/6/15_8.odb,Step-1,Increment      1: Step Time =    1.000,"PART-1-1",           608,          -15.,        -18.75,            0.,NA,NA,"",   52.8267E-03,  -24.5588E-03,  -46.7710E-03,   4.56536E-03
C:/temp/dataset/6/15_8.odb,Step-1,Increment      1: Step Time =    1.000,"PART-1-1",           609,      -12.5734,      -18.8685,            0.,NA,NA,"",   45.8833E-03,  -19.5261E-03,  -41.5212E-03,   4.32942E-03
C:/temp/dataset/6/15_8.odb,Step-1,Increment      1: Step Time =    1.000,"PART-1-1",           610,           -5.,      -11.2063,            0.,NA,NA,"",   52.3744E-03,  -22.0946E-03,  -47.4858E-03,   2.78246E-03
C:/temp/dataset/6/15_8.odb,Step-1,Increment      1: Step Time =    1.000,"PART-1-1",           611,      -7.25264,      -11.4522,            0.,NA,NA,"",   58.9884E-03,  -24.5910E-03,  -53.6182E-03,   3.47269E-03
C:/temp/dataset/6/15_8.odb,Step-1,Increment      1: Step Time =    1.000,"PART-1-1",           612,           -5.,      -6.23750,            0.,NA,NA,"",   70.7802E-03,  -39.8072E-03,  -58.5254E-03,   2.37338E-03
C:/temp/dataset/6/15_8.odb,Step-1,Increment      1: Step Time =    1.000,"PART-1-1",           613,      -6.16987,      -5.46941,            0.,NA,NA,"",   79.1261E-03,  -44.6620E-03,  -65.3166E-03,   2.31535E-03
C:/temp/dataset/6/15_8.odb,Step-1,Increment      1: Step Time =    1.000,"PART-1-1",           614,      -7.24309,      -6.98789,            0.,NA,NA,"",   77.2471E-03,  -39.0534E-03,  -66.6479E-03,   2.95904E-03
C:/temp/dataset/6/15_8.odb,Step-1,Increment      1: Step Time =    1.000,"PART-1-1",           615,           -5.,       16.4583,            0.,NA,NA,"",   319.244E-03,  -315.163E-03,  -50.8875E-03,   1.78175E-03
C:/temp/dataset/6/15_8.odb,Step-1,Increment      1: Step Time =    1.000,"PART-1-1",           616,      -7.23328,       16.4840,            0.,NA,NA,"",   330.951E-03,  -314.655E-03,  -102.570E-03,   801.431E-06
C:/temp/dataset/6/15_8.odb,Step-1,Increment      1: Step Time =    1.000,"PART-1-1",           617,      -6.08867,       15.3700,            0.,NA,NA,"",   299.693E-03,  -289.832E-03,  -76.2483E-03,   500.975E-06
C:/temp/dataset/6/15_8.odb,Step-1,Increment      1: Step Time =    1.000,"PART-1-1",           618,      -13.1522,       16.1892,            0.,NA,NA,"",   396.984E-03,  -317.470E-03,  -238.347E-03,   7.60500E-03
C:/temp/dataset/6/15_8.odb,Step-1,Increment      1: Step Time =    1.000,"PART-1-1",           619,      -14.0864,       17.4486,            0.,NA,NA,"",   441.976E-03,  -349.934E-03,  -269.980E-03,   8.72314E-03
C:/temp/dataset/6/15_8.odb,Step-1,Increment      1: Step Time =    1.000,"PART-1-1",           620,          -15.,         16.25,            0.,NA,NA,"",   430.260E-03,  -325.598E-03,  -281.264E-03,   9.75688E-03
C:/temp/dataset/6/15_8.odb,Step-1,Increment      1: Step Time =    1.000,"PART-1-1",           621,           -5.,       24.7917,            0.,NA,NA,"",   546.072E-03,  -544.606E-03,  -39.9814E-03,   1.81457E-03
C:/temp/dataset/6/15_8.odb,Step-1,Increment      1: Step Time =    1.000,"PART-1-1",           622,      -6.14442,       25.7689,            0.,NA,NA,"",   580.257E-03,  -575.199E-03,  -76.4506E-03,   608.740E-06
C:/temp/dataset/6/15_8.odb,Step-1,Increment      1: Step Time =    1.000,"PART-1-1",           623,           -5.,        26.875,            0.,NA,NA,"",   614.793E-03,  -613.617E-03,  -38.0104E-03,   1.29075E-03
C:/temp/dataset/6/15_8.odb,Step-1,Increment      1: Step Time =    1.000,"PART-1-1",           624,      -7.36924,       26.7689,            0.,NA,NA,"",   619.185E-03,  -607.953E-03,  -117.404E-03,   489.283E-06
C:/temp/dataset/6/15_8.odb,Step-1,Increment      1: Step Time =    1.000,"PART-1-1",           625,      -13.1175,       20.9132,            0.,NA,NA,"",   513.395E-03,  -435.835E-03,  -271.334E-03,   7.64408E-03
C:/temp/dataset/6/15_8.odb,Step-1,Increment      1: Step Time =    1.000,"PART-1-1",           626,      -14.0212,       22.2867,            0.,NA,NA,"",   568.291E-03,  -477.657E-03,  -307.894E-03,   8.74099E-03
C:/temp/dataset/6/15_8.odb,Step-1,Increment      1: Step Time =    1.000,"PART-1-1",           627,          -15.,         21.25,            0.,NA,NA,"",   557.784E-03,  -451.861E-03,  -327.023E-03,   9.88239E-03
C:/temp/dataset/6/15_8.odb,Step-1,Increment      1: Step Time =    1.000,"PART-1-1",           628,      -14.0963,       19.8765,            0.,NA,NA,"",   503.144E-03,  -411.088E-03,  -290.105E-03,   8.78394E-03
C:/temp/dataset/6/15_8.odb,Step-1,Increment      1: Step Time =    1.000,"PART-1-1",           629,         -1.25,           -5.,            0.,NA,NA,"",   65.1160E-03,  -47.7763E-03,  -44.2440E-03,   607.948E-06
C:/temp/dataset/6/15_8.odb,Step-1,Increment      1: Step Time =    1.000,"PART-1-1",           630,      -1.77292,      -3.03732,            0.,NA,NA,"",   74.0076E-03,  -57.6266E-03,  -46.4360E-03,   628.746E-06
C:/temp/dataset/6/15_8.odb,Step-1,Increment      1: Step Time =    1.000,"PART-1-1",           631,      -12.1053,      -2.30059,            0.,NA,NA,"",   130.632E-03,  -68.4776E-03,  -111.245E-03,   5.37658E-03
C:/temp/dataset/6/15_8.odb,Step-1,Increment      1: Step Time =    1.000,"PART-1-1",           632,      -10.7648,      -1.40855,            0.,NA,NA,"",   126.939E-03,  -70.6705E-03,  -105.447E-03,   4.62096E-03
C:/temp/dataset/6/15_8.odb,Step-1,Increment      1: Step Time =    1.000,"PART-1-1",           633,      -11.5438,  -354.672E-03,            0.,NA,NA,"",   140.358E-03,  -78.7622E-03,  -116.177E-03,   5.24649E-03
C:/temp/dataset/6/15_8.odb,Step-1,Increment      1: Step Time =    1.000,"PART-1-1",           634,          3.75,           -5.,            0.,NA,NA,"",   54.6342E-03,  -50.9337E-03,  -19.7648E-03,   620.003E-06
C:/temp/dataset/6/15_8.odb,Step-1,Increment      1: Step Time =    1.000,"PART-1-1",           635,       4.52066,      -3.83856,            0.,NA,NA,"",   58.7314E-03,  -56.4912E-03,  -16.0663E-03,   325.200E-06
C:/temp/dataset/6/15_8.odb,Step-1,Increment      1: Step Time =    1.000,"PART-1-1",           636,       2.94662,      -2.72704,            0.,NA,NA,"",   65.4639E-03,  -61.2898E-03,  -23.0018E-03,   371.961E-06
C:/temp/dataset/6/15_8.odb,Step-1,Increment      1: Step Time =    1.000,"PART-1-1",           637,       1.50395,       2.56821,            0.,NA,NA,"",   93.5103E-03,  -88.6926E-03,  -29.6278E-03,   733.217E-06
C:/temp/dataset/6/15_8.odb,Step-1,Increment      1: Step Time =    1.000,"PART-1-1",           638,          1.25,            5.,            0.,NA,NA,"",   106.073E-03,  -101.209E-03,  -31.7528E-03,   1.15552E-03
C:/temp/dataset/6/15_8.odb,Step-1,Increment      1: Step Time =    1.000,"PART-1-1",           639,          6.25,            5.,            0.,NA,NA,"",   98.0255E-03,  -97.5514E-03,  -9.62895E-03,   531.614E-06
C:/temp/dataset/6/15_8.odb,Step-1,Increment      1: Step Time =    1.000,"PART-1-1",           640,  -213.968E-03,      -26.0734,            0.,NA,NA,"",   1.88840E-03,   1.31643E-03,  -1.35392E-03,   552.526E-06
C:/temp/dataset/6/15_8.odb,Step-1,Increment      1: Step Time =    1.000,"PART-1-1",           641,       1.14210,      -23.8512,            0.,NA,NA,"",   1.07510E-03,  -255.235E-06,  -1.04436E-03,   463.312E-06
C:/temp/dataset/6/15_8.odb,Step-1,Increment      1: Step Time =    1.000,"PART-1-1",           642,  -234.527E-03,      -23.9674,            0.,NA,NA,"",   1.64317E-03,   194.064E-06,  -1.63167E-03,   432.453E-06
C:/temp/dataset/6/15_8.odb,Step-1,Increment      1: Step Time =    1.000,"PART-1-1",           643,           -5.,        14.375,            0.,NA,NA,"",   274.592E-03,  -269.300E-03,  -53.6501E-03,   1.69862E-03
C:/temp/dataset/6/15_8.odb,Step-1,Increment      1: Step Time =    1.000,"PART-1-1",           644,      -7.14364,       14.2292,            0.,NA,NA,"",   283.024E-03,  -265.328E-03,  -98.5063E-03,   746.517E-06
C:/temp/dataset/6/15_8.odb,Step-1,Increment      1: Step Time =    1.000,"PART-1-1",           645,           -5.,       6.04167,            0.,NA,NA,"",   143.365E-03,  -128.376E-03,  -63.8221E-03,   2.18159E-03
C:/temp/dataset/6/15_8.odb,Step-1,Increment      1: Step Time =    1.000,"PART-1-1",           646,      -5.82078,       6.95384,            0.,NA,NA,"",   158.755E-03,  -140.466E-03,  -73.9768E-03,   655.210E-06
C:/temp/dataset/6/15_8.odb,Step-1,Increment      1: Step Time =    1.000,"PART-1-1",           647,      -6.45742,       5.85906,            0.,NA,NA,"",   150.104E-03,  -125.584E-03,  -82.2186E-03,   1.07621E-03
C:/temp/dataset/6/15_8.odb,Step-1,Increment      1: Step Time =    1.000,"PART-1-1",           648,      -5.63664,       4.94688,            0.,NA,NA,"",   134.290E-03,  -113.182E-03,  -72.2743E-03,   1.93827E-03
C:/temp/dataset/6/15_8.odb,Step-1,Increment      1: Step Time =    1.000,"PART-1-1",           649,           -5.,         8.125,            0.,NA,NA,"",   169.426E-03,  -157.994E-03,  -61.1789E-03,   1.39011E-03
C:/temp/dataset/6/15_8.odb,Step-1,Increment      1: Step Time =    1.000,"PART-1-1",           650,      -5.96903,       9.00386,            0.,NA,NA,"",   186.773E-03,  -170.862E-03,  -75.4335E-03,   419.439E-06
C:/temp/dataset/6/15_8.odb,Step-1,Increment      1: Step Time =    1.000,"PART-1-1",           651,          -15.,         -3.75,            0.,NA,NA,"",   138.999E-03,  -68.7130E-03,  -120.828E-03,   6.74851E-03
C:/temp/dataset/6/15_8.odb,Step-1,Increment      1: Step Time =    1.000,"PART-1-1",           652,      -12.7846,      -3.59401,            0.,NA,NA,"",   126.332E-03,  -63.3877E-03,  -109.278E-03,   5.64875E-03
C:/temp/dataset/6/15_8.odb,Step-1,Increment      1: Step Time =    1.000,"PART-1-1",           653,      -11.5430,      -4.20540,            0.,NA,NA,"",   114.500E-03,  -57.6366E-03,  -98.9357E-03,   4.87899E-03
C:/temp/dataset/6/15_8.odb,Step-1,Increment      1: Step Time =    1.000,"PART-1-1",           654,      -10.1018,      -4.29084,            0.,NA,NA,"",   105.170E-03,  -54.5264E-03,  -89.9309E-03,   4.14218E-03
C:/temp/dataset/6/15_8.odb,Step-1,Increment      1: Step Time =    1.000,"PART-1-1",           655,          -15.,        -11.25,            0.,NA,NA,"",   89.8008E-03,  -40.5626E-03,  -80.1178E-03,   5.45529E-03
C:/temp/dataset/6/15_8.odb,Step-1,Increment      1: Step Time =    1.000,"PART-1-1",           656,      -12.2331,      -11.1785,            0.,NA,NA,"",   79.6741E-03,  -34.4064E-03,  -71.8620E-03,   4.77815E-03
C:/temp/dataset/6/15_8.odb,Step-1,Increment      1: Step Time =    1.000,"PART-1-1",           657,       5.21391,      -1.02834,            0.,NA,NA,"",   71.0361E-03,  -69.8178E-03,  -13.0993E-03,   439.245E-06
C:/temp/dataset/6/15_8.odb,Step-1,Increment      1: Step Time =    1.000,"PART-1-1",           658,       6.72319,      -1.59046,            0.,NA,NA,"",   67.5391E-03,  -67.1793E-03,  -6.96226E-03,   453.224E-06
C:/temp/dataset/6/15_8.odb,Step-1,Increment      1: Step Time =    1.000,"PART-1-1",           659,       10.9187,      -16.2245,            0.,NA,NA,"",   13.9846E-03,  -12.7312E-03,   5.78667E-03,   471.636E-06
C:/temp/dataset/6/15_8.odb,Step-1,Increment      1: Step Time =    1.000,"PART-1-1",           660,       11.9858,      -14.8752,            0.,NA,NA,"",   18.8721E-03,  -16.6475E-03,   8.88912E-03,   625.040E-06
C:/temp/dataset/6/15_8.odb,Step-1,Increment      1: Step Time =    1.000,"PART-1-1",           661,       10.9746,      -13.7451,            0.,NA,NA,"",   20.8874E-03,  -19.7667E-03,   6.74998E-03,   445.437E-06
C:/temp/dataset/6/15_8.odb,Step-1,Increment      1: Step Time =    1.000,"PART-1-1",           662,       11.9830,      -12.5543,            0.,NA,NA,"",   25.7854E-03,  -23.7585E-03,   10.0209E-03,   567.410E-06
C:/temp/dataset/6/15_8.odb,Step-1,Increment      1: Step Time =    1.000,"PART-1-1",           663,           15.,      -20.1563,            0.,NA,NA,"",   12.1980E-03,  -6.45297E-03,   10.3513E-03,   1.39463E-03
C:/temp/dataset/6/15_8.odb,Step-1,Increment      1: Step Time =    1.000,"PART-1-1",           664,       14.0841,      -19.1367,            0.,NA,NA,"",   12.5818E-03,  -7.59678E-03,   10.0295E-03,   1.17985E-03
C:/temp/dataset/6/15_8.odb,Step-1,Increment      1: Step Time =    1.000,"PART-1-1",           665,       13.0385,      -20.2889,            0.,NA,NA,"",   8.92884E-03,  -5.21764E-03,   7.24571E-03,   927.249E-06
C:/temp/dataset/6/15_8.odb,Step-1,Increment      1: Step Time =    1.000,"PART-1-1",           666,           15.,      -17.9688,            0.,NA,NA,"",   16.7155E-03,  -10.3719E-03,   13.1085E-03,   1.37503E-03
C:/temp/dataset/6/15_8.odb,Step-1,Increment      1: Step Time =    1.000,"PART-1-1",           667,          1.25,          -30.,            0.,NA,NA,"",            0.,   447.573E-42,  -899.048E-42,   681.031E-06
C:/temp/dataset/6/15_8.odb,Step-1,Increment      1: Step Time =    1.000,"PART-1-1",           668,       3.30543,      -22.6598,            0.,NA,NA,"",   1.94357E-03,  -1.59100E-03,  -1.11633E-03,   744.140E-06
C:/temp/dataset/6/15_8.odb,Step-1,Increment      1: Step Time =    1.000,"PART-1-1",           669,       2.86115,      -24.1329,            0.,NA,NA,"",   977.478E-06,  -404.671E-06,  -889.778E-06,   560.350E-06
C:/temp/dataset/6/15_8.odb,Step-1,Increment      1: Step Time =    1.000,"PART-1-1",           670,      -10.6801,      -21.6169,            0.,NA,NA,"",   29.7723E-03,  -11.2940E-03,  -27.5469E-03,   4.01235E-03
C:/temp/dataset/6/15_8.odb,Step-1,Increment      1: Step Time =    1.000,"PART-1-1",           671,      -11.3394,      -20.4213,            0.,NA,NA,"",   36.2086E-03,  -14.5546E-03,  -33.1546E-03,   4.10382E-03
C:/temp/dataset/6/15_8.odb,Step-1,Increment      1: Step Time =    1.000,"PART-1-1",           672,      -12.1593,      -22.4638,            0.,NA,NA,"",   29.7746E-03,  -12.5411E-03,  -27.0046E-03,   4.21618E-03
C:/temp/dataset/6/15_8.odb,Step-1,Increment      1: Step Time =    1.000,"PART-1-1",           673,      -9.92443,      -16.4516,            0.,NA,NA,"",   48.1637E-03,  -18.9305E-03,  -44.2875E-03,   4.07001E-03
C:/temp/dataset/6/15_8.odb,Step-1,Increment      1: Step Time =    1.000,"PART-1-1",           674,      -8.71114,      -17.7111,            0.,NA,NA,"",   39.6387E-03,  -14.8813E-03,  -36.7393E-03,   3.88460E-03
C:/temp/dataset/6/15_8.odb,Step-1,Increment      1: Step Time =    1.000,"PART-1-1",           675,      -9.25100,      -7.50767,            0.,NA,NA,"",   84.2575E-03,  -39.9184E-03,  -74.2014E-03,   3.84051E-03
C:/temp/dataset/6/15_8.odb,Step-1,Increment      1: Step Time =    1.000,"PART-1-1",           676,      -8.32615,      -6.25855,            0.,NA,NA,"",   85.5620E-03,  -43.3412E-03,  -73.7726E-03,   3.32332E-03
C:/temp/dataset/6/15_8.odb,Step-1,Increment      1: Step Time =    1.000,"PART-1-1",           677,      -7.58018,      -5.09368,            0.,NA,NA,"",   87.2635E-03,  -47.5315E-03,  -73.1824E-03,   2.85823E-03
C:/temp/dataset/6/15_8.odb,Step-1,Increment      1: Step Time =    1.000,"PART-1-1",           678,      -6.67379,      -3.84489,            0.,NA,NA,"",   88.4138E-03,  -52.6309E-03,  -71.0422E-03,   2.18884E-03
C:/temp/dataset/6/15_8.odb,Step-1,Increment      1: Step Time =    1.000,"PART-1-1",           679,      -2.40491,      -1.03021,            0.,NA,NA,"",   84.2887E-03,  -68.3268E-03,  -49.3561E-03,   467.365E-06
C:/temp/dataset/6/15_8.odb,Step-1,Increment      1: Step Time =    1.000,"PART-1-1",           680,      -3.32453,      -2.14711,            0.,NA,NA,"",   82.2527E-03,  -61.5524E-03,  -54.5601E-03,   610.931E-06
C:/temp/dataset/6/15_8.odb,Step-1,Increment      1: Step Time =    1.000,"PART-1-1",           681,       10.4745,      -24.8101,            0.,NA,NA,"",   1.74308E-03,  -210.965E-06,   1.73027E-03,   438.654E-06
C:/temp/dataset/6/15_8.odb,Step-1,Increment      1: Step Time =    1.000,"PART-1-1",           682,       8.16019,      -23.0435,            0.,NA,NA,"",   1.00992E-03,  -976.184E-06,   258.851E-06,   117.115E-06
C:/temp/dataset/6/15_8.odb,Step-1,Increment      1: Step Time =    1.000,"PART-1-1",           683,       9.40124,      -23.8494,            0.,NA,NA,"",   1.31303E-03,  -545.920E-06,   1.19416E-03,   246.740E-06
C:/temp/dataset/6/15_8.odb,Step-1,Increment      1: Step Time =    1.000,"PART-1-1",           684,       5.67200,      -27.0943,            0.,NA,NA,"",   672.539E-06,   601.758E-06,  -300.326E-06,   162.934E-06
C:/temp/dataset/6/15_8.odb,Step-1,Increment      1: Step Time =    1.000,"PART-1-1",           685,       4.86106,      -26.0050,            0.,NA,NA,"",   679.372E-06,   407.036E-06,  -543.937E-06,   242.975E-06
C:/temp/dataset/6/15_8.odb,Step-1,Increment      1: Step Time =    1.000,"PART-1-1",           686,      -2.55341,      -23.8484,            0.,NA,NA,"",   4.35498E-03,   672.681E-06,  -4.30272E-03,   918.773E-06
C:/temp/dataset/6/15_8.odb,Step-1,Increment      1: Step Time =    1.000,"PART-1-1",           687,      -4.82130,      -23.8875,            0.,NA,NA,"",   8.82958E-03,   136.281E-06,  -8.82853E-03,   2.08448E-03
C:/temp/dataset/6/15_8.odb,Step-1,Increment      1: Step Time =    1.000,"PART-1-1",           688,      -5.84083,      -25.1777,            0.,NA,NA,"",   8.38289E-03,   462.222E-06,  -8.37014E-03,   2.33067E-03
C:/temp/dataset/6/15_8.odb,Step-1,Increment      1: Step Time =    1.000,"PART-1-1",           689,           15.,      -26.7188,            0.,NA,NA,"",   3.10058E-03,  -1.14199E-03,   2.88261E-03,   1.07907E-03
C:/temp/dataset/6/15_8.odb,Step-1,Increment      1: Step Time =    1.000,"PART-1-1",           690,       10.9874,      -11.4075,            0.,NA,NA,"",   28.4374E-03,  -27.4370E-03,   7.47642E-03,   421.185E-06
C:/temp/dataset/6/15_8.odb,Step-1,Increment      1: Step Time =    1.000,"PART-1-1",           691,       7.29436,      -19.7763,            0.,NA,NA,"",   4.53833E-03,  -4.43369E-03,  -968.938E-06,   422.145E-06
C:/temp/dataset/6/15_8.odb,Step-1,Increment      1: Step Time =    1.000,"PART-1-1",           692,       7.78340,      -18.7858,            0.,NA,NA,"",   6.43361E-03,  -6.41684E-03,  -464.305E-06,   404.566E-06
C:/temp/dataset/6/15_8.odb,Step-1,Increment      1: Step Time =    1.000,"PART-1-1",           693,       10.8970,      -2.99004,            0.,NA,NA,"",   61.7859E-03,  -61.1086E-03,   9.12338E-03,   421.481E-06
C:/temp/dataset/6/15_8.odb,Step-1,Increment      1: Step Time =    1.000,"PART-1-1",           694,       12.0828,      -3.88727,            0.,NA,NA,"",   58.8983E-03,  -57.3242E-03,   13.5256E-03,   413.458E-06
C:/temp/dataset/6/15_8.odb,Step-1,Increment      1: Step Time =    1.000,"PART-1-1",           695,           15.,       1.71875,            0.,NA,NA,"",   86.4669E-03,  -82.2799E-03,   26.5810E-03,   67.0879E-06
C:/temp/dataset/6/15_8.odb,Step-1,Increment      1: Step Time =    1.000,"PART-1-1",           696,       4.00043,  -427.215E-03,            0.,NA,NA,"",   75.0123E-03,  -72.7616E-03,  -18.2371E-03,   431.067E-06
C:/temp/dataset/6/15_8.odb,Step-1,Increment      1: Step Time =    1.000,"PART-1-1",           697,       2.09609,       1.00148,            0.,NA,NA,"",   84.5442E-03,  -80.2196E-03,  -26.6935E-03,   479.564E-06
C:/temp/dataset/6/15_8.odb,Step-1,Increment      1: Step Time =    1.000,"PART-1-1",           698,       2.38138,  -554.063E-03,            0.,NA,NA,"",   76.4328E-03,  -72.0921E-03,  -25.3909E-03,   413.507E-06
C:/temp/dataset/6/15_8.odb,Step-1,Increment      1: Step Time =    1.000,"PART-1-1",           699,   35.7305E-03,       2.11113,            0.,NA,NA,"",   94.2101E-03,  -86.8514E-03,  -36.5019E-03,   709.797E-06
C:/temp/dataset/6/15_8.odb,Step-1,Increment      1: Step Time =    1.000,"PART-1-1",           700,           -5.,       10.2083,            0.,NA,NA,"",   199.735E-03,  -190.856E-03,  -58.8901E-03,   1.46545E-03
C:/temp/dataset/6/15_8.odb,Step-1,Increment      1: Step Time =    1.000,"PART-1-1",           701,      -6.99901,       9.90050,            0.,NA,NA,"",   206.868E-03,  -185.127E-03,  -92.3164E-03,   683.944E-06
C:/temp/dataset/6/15_8.odb,Step-1,Increment      1: Step Time =    1.000,"PART-1-1",           702,      -11.2396,       16.2208,            0.,NA,NA,"",   368.619E-03,  -313.106E-03,  -194.537E-03,   5.39581E-03
C:/temp/dataset/6/15_8.odb,Step-1,Increment      1: Step Time =    1.000,"PART-1-1",           703,      -10.2112,       15.1096,            0.,NA,NA,"",   331.378E-03,  -286.590E-03,  -166.366E-03,   4.21108E-03
C:/temp/dataset/6/15_8.odb,Step-1,Increment      1: Step Time =    1.000,"PART-1-1",           704,      -9.25876,       16.3324,            0.,NA,NA,"",   346.216E-03,  -312.398E-03,  -149.242E-03,   3.12258E-03
C:/temp/dataset/6/15_8.odb,Step-1,Increment      1: Step Time =    1.000,"PART-1-1",           705,      -10.2871,       17.4437,            0.,NA,NA,"",   383.453E-03,  -339.819E-03,  -177.651E-03,   4.30550E-03
C:/temp/dataset/6/15_8.odb,Step-1,Increment      1: Step Time =    1.000,"PART-1-1",           706,      -8.19479,       15.2434,            0.,NA,NA,"",   312.247E-03,  -287.217E-03,  -122.495E-03,   1.91437E-03
C:/temp/dataset/6/15_8.odb,Step-1,Increment      1: Step Time =    1.000,"PART-1-1",           707,      -9.19446,       14.0222,            0.,NA,NA,"",   297.785E-03,  -262.351E-03,  -140.883E-03,   3.05696E-03
C:/temp/dataset/6/15_8.odb,Step-1,Increment      1: Step Time =    1.000,"PART-1-1",           708,      -8.14331,       13.0080,            0.,NA,NA,"",   268.139E-03,  -241.198E-03,  -117.143E-03,   1.88364E-03
C:/temp/dataset/6/15_8.odb,Step-1,Increment      1: Step Time =    1.000,"PART-1-1",           709,          -15.,         18.75,            0.,NA,NA,"",   490.903E-03,  -385.461E-03,  -303.984E-03,   9.82700E-03
C:/temp/dataset/6/15_8.odb,Step-1,Increment      1: Step Time =    1.000,"PART-1-1",           710,      -13.1826,       18.5751,            0.,NA,NA,"",   453.699E-03,  -374.467E-03,  -256.159E-03,   7.68478E-03
C:/temp/dataset/6/15_8.odb,Step-1,Increment      1: Step Time =    1.000,"PART-1-1",           711,      -11.2313,       23.3702,            0.,NA,NA,"",   552.929E-03,  -502.046E-03,  -231.689E-03,   5.51085E-03
C:/temp/dataset/6/15_8.odb,Step-1,Increment      1: Step Time =    1.000,"PART-1-1",           712,      -10.8173,       24.9058,            0.,NA,NA,"",   593.763E-03,  -548.790E-03,  -226.682E-03,   5.01082E-03
C:/temp/dataset/6/15_8.odb,Step-1,Increment      1: Step Time =    1.000,"PART-1-1",           713,      -13.5418,       24.7667,            0.,NA,NA,"",   634.107E-03,  -551.357E-03,  -313.204E-03,   8.19751E-03
C:/temp/dataset/6/15_8.odb,Step-1,Increment      1: Step Time =    1.000,"PART-1-1",           714,      -12.2278,       25.9824,            0.,NA,NA,"",   649.953E-03,  -586.800E-03,  -279.471E-03,   7.19671E-03
C:/temp/dataset/6/15_8.odb,Step-1,Increment      1: Step Time =    1.000,"PART-1-1",           715,          -15.,         26.25,            0.,NA,NA,"",   710.852E-03,  -604.767E-03,  -373.587E-03,   9.45980E-03
C:/temp/dataset/6/15_8.odb,Step-1,Increment      1: Step Time =    1.000,"PART-1-1",           716,          -15.,         23.75,            0.,NA,NA,"",   631.095E-03,  -524.943E-03,  -350.309E-03,   9.86895E-03
C:/temp/dataset/6/15_8.odb,Step-1,Increment      1: Step Time =    1.000,"PART-1-1",           717,      -12.5630,       23.3034,            0.,NA,NA,"",   571.998E-03,  -503.222E-03,  -271.936E-03,   7.07752E-03
C:/temp/dataset/6/15_8.odb,Step-1,Increment      1: Step Time =    1.000,"PART-1-1",           718,      -11.1827,       13.8735,            0.,NA,NA,"",   319.216E-03,  -262.618E-03,  -181.468E-03,   5.30678E-03
C:/temp/dataset/6/15_8.odb,Step-1,Increment      1: Step Time =    1.000,"PART-1-1",           719,      -10.1659,       12.7861,            0.,NA,NA,"",   285.739E-03,  -239.251E-03,  -156.223E-03,   4.15058E-03
C:/temp/dataset/6/15_8.odb,Step-1,Increment      1: Step Time =    1.000,"PART-1-1",           720,      -11.4858,       20.4947,            0.,NA,NA,"",   475.811E-03,  -420.090E-03,  -223.429E-03,   5.72234E-03
C:/temp/dataset/6/15_8.odb,Step-1,Increment      1: Step Time =    1.000,"PART-1-1",           721,      -10.4732,       19.7487,            0.,NA,NA,"",   442.163E-03,  -398.166E-03,  -192.280E-03,   4.52048E-03
C:/temp/dataset/6/15_8.odb,Step-1,Increment      1: Step Time =    1.000,"PART-1-1",           722,      -10.9778,       21.7959,            0.,NA,NA,"",   503.957E-03,  -455.323E-03,  -215.993E-03,   5.13217E-03
C:/temp/dataset/6/15_8.odb,Step-1,Increment      1: Step Time =    1.000,"PART-1-1",           723,      -9.13796,       11.7463,            0.,NA,NA,"",   255.806E-03,  -218.414E-03,  -133.161E-03,   3.01000E-03
C:/temp/dataset/6/15_8.odb,Step-1,Increment      1: Step Time =    1.000,"PART-1-1",           724,      -11.1090,       11.4975,            0.,NA,NA,"",   274.867E-03,  -217.245E-03,  -168.394E-03,   5.20555E-03
C:/temp/dataset/6/15_8.odb,Step-1,Increment      1: Step Time =    1.000,"PART-1-1",           725,      -7.95801,       5.48811,            0.,NA,NA,"",   158.329E-03,  -122.800E-03,  -99.9411E-03,   2.55787E-03
C:/temp/dataset/6/15_8.odb,Step-1,Increment      1: Step Time =    1.000,"PART-1-1",           726,      -9.27172,       5.51676,            0.,NA,NA,"",   171.007E-03,  -125.256E-03,  -116.422E-03,   3.65131E-03
C:/temp/dataset/6/15_8.odb,Step-1,Increment      1: Step Time =    1.000,"PART-1-1",           727,      -9.10783,       4.19071,            0.,NA,NA,"",   156.022E-03,  -110.557E-03,  -110.091E-03,   3.71443E-03
C:/temp/dataset/6/15_8.odb,Step-1,Increment      1: Step Time =    1.000,"PART-1-1",           728,      -7.79412,       4.16207,            0.,NA,NA,"",   143.983E-03,  -108.123E-03,  -95.0822E-03,   2.64258E-03
C:/temp/dataset/6/15_8.odb,Step-1,Increment      1: Step Time =    1.000,"PART-1-1",           729,      -10.3652,   710.465E-03,            0.,NA,NA,"",   138.547E-03,  -83.5314E-03,  -110.534E-03,   4.51393E-03
C:/temp/dataset/6/15_8.odb,Step-1,Increment      1: Step Time =    1.000,"PART-1-1",           730,      -11.5756,       2.14983,            0.,NA,NA,"",   161.021E-03,  -97.1693E-03,  -128.398E-03,   5.54739E-03
C:/temp/dataset/6/15_8.odb,Step-1,Increment      1: Step Time =    1.000,"PART-1-1",           731,      -10.9514,      -7.70102,            0.,NA,NA,"",   91.6449E-03,  -42.2843E-03,  -81.3069E-03,   4.51945E-03
C:/temp/dataset/6/15_8.odb,Step-1,Increment      1: Step Time =    1.000,"PART-1-1",           732,      -11.1587,      -15.1039,            0.,NA,NA,"",   57.7004E-03,  -23.6036E-03,  -52.6518E-03,   4.33205E-03
C:/temp/dataset/6/15_8.odb,Step-1,Increment      1: Step Time =    1.000,"PART-1-1",           733,      -11.0422,      -12.5823,            0.,NA,NA,"",   68.4084E-03,  -28.5629E-03,  -62.1601E-03,   4.43594E-03
C:/temp/dataset/6/15_8.odb,Step-1,Increment      1: Step Time =    1.000,"PART-1-1",           734,      -9.98828,      -19.2456,            0.,NA,NA,"",   37.4099E-03,  -14.2932E-03,  -34.5717E-03,   3.88333E-03
C:/temp/dataset/6/15_8.odb,Step-1,Increment      1: Step Time =    1.000,"PART-1-1",           735,      -11.2222,      -17.6929,            0.,NA,NA,"",   47.0354E-03,  -19.0985E-03,  -42.9834E-03,   4.15574E-03
C:/temp/dataset/6/15_8.odb,Step-1,Increment      1: Step Time =    1.000,"PART-1-1",           736,      -9.72809,       26.4627,            0.,NA,NA,"",   629.507E-03,  -597.796E-03,  -197.278E-03,   3.61812E-03
C:/temp/dataset/6/15_8.odb,Step-1,Increment      1: Step Time =    1.000,"PART-1-1",           737,      -8.07960,       10.7858,            0.,NA,NA,"",   229.566E-03,  -200.462E-03,  -111.872E-03,   1.84953E-03
C:/temp/dataset/6/15_8.odb,Step-1,Increment      1: Step Time =    1.000,"PART-1-1",           738,      -11.3320,       18.4953,            0.,NA,NA,"",   422.630E-03,  -367.572E-03,  -208.583E-03,   5.52298E-03
C:/temp/dataset/6/15_8.odb,Step-1,Increment      1: Step Time =    1.000,"PART-1-1",           739,      -10.4893,       6.32554,            0.,NA,NA,"",   192.838E-03,  -137.439E-03,  -135.267E-03,   4.72755E-03
C:/temp/dataset/6/15_8.odb,Step-1,Increment      1: Step Time =    1.000,"PART-1-1",           740,      -11.8356,       7.66802,            0.,NA,NA,"",   225.453E-03,  -158.330E-03,  -160.501E-03,   5.99733E-03
C:/temp/dataset/6/15_8.odb,Step-1,Increment      1: Step Time =    1.000,"PART-1-1",           741,      -11.4125,       4.87054,            0.,NA,NA,"",   186.277E-03,  -122.670E-03,  -140.183E-03,   5.60505E-03
C:/temp/dataset/6/15_8.odb,Step-1,Increment      1: Step Time =    1.000,"PART-1-1",           742,       10.1911,      -5.79504,            0.,NA,NA,"",   49.2763E-03,  -48.9159E-03,   5.94896E-03,   366.998E-06
C:/temp/dataset/6/15_8.odb,Step-1,Increment      1: Step Time =    1.000,"PART-1-1",           743,       9.10708,      -6.74300,            0.,NA,NA,"",   44.9514E-03,  -44.9122E-03,   1.87774E-03,   299.364E-06
C:/temp/dataset/6/15_8.odb,Step-1,Increment      1: Step Time =    1.000,"PART-1-1",           744,       11.1638,      -4.94873,            0.,NA,NA,"",   53.5144E-03,  -52.6192E-03,   9.74754E-03,   416.385E-06
C:/temp/dataset/6/15_8.odb,Step-1,Increment      1: Step Time =    1.000,"PART-1-1",           745,       10.4293,      -4.08570,            0.,NA,NA,"",   56.6938E-03,  -56.2424E-03,   7.14013E-03,   408.124E-06
C:/temp/dataset/6/15_8.odb,Step-1,Increment      1: Step Time =    1.000,"PART-1-1",           746,       9.97038,      -14.8971,            0.,NA,NA,"",   16.6698E-03,  -16.2023E-03,   3.92011E-03,   321.495E-06
C:/temp/dataset/6/15_8.odb,Step-1,Increment      1: Step Time =    1.000,"PART-1-1",           747,       9.96577,      -12.5508,            0.,NA,NA,"",   23.8324E-03,  -23.4550E-03,   4.22450E-03,   311.935E-06
C:/temp/dataset/6/15_8.odb,Step-1,Increment      1: Step Time =    1.000,"PART-1-1",           748,       8.96159,      -13.7029,            0.,NA,NA,"",   19.7850E-03,  -19.7357E-03,   1.39649E-03,   283.976E-06
C:/temp/dataset/6/15_8.odb,Step-1,Increment      1: Step Time =    1.000,"PART-1-1",           749,       6.92617,      -22.4012,            0.,NA,NA,"",   1.67299E-03,  -1.48612E-03,  -768.349E-06,   304.022E-06
C:/temp/dataset/6/15_8.odb,Step-1,Increment      1: Step Time =    1.000,"PART-1-1",           750,       5.94981,      -23.5281,            0.,NA,NA,"",   1.18447E-03,  -775.608E-06,  -895.210E-06,   428.383E-06
C:/temp/dataset/6/15_8.odb,Step-1,Increment      1: Step Time =    1.000,"PART-1-1",           751,       7.18383,      -24.1705,            0.,NA,NA,"",   392.071E-06,  -296.594E-06,  -256.421E-06,   152.015E-06
C:/temp/dataset/6/15_8.odb,Step-1,Increment      1: Step Time =    1.000,"PART-1-1",           752,       11.0968,      -20.2176,            0.,NA,NA,"",   6.35139E-03,  -4.59851E-03,   4.38108E-03,   552.316E-06
C:/temp/dataset/6/15_8.odb,Step-1,Increment      1: Step Time =    1.000,"PART-1-1",           753,       6.43355,      -20.8801,            0.,NA,NA,"",   3.27694E-03,  -2.82329E-03,  -1.66354E-03,   557.696E-06
C:/temp/dataset/6/15_8.odb,Step-1,Increment      1: Step Time =    1.000,"PART-1-1",           754,       8.96045,      -11.3546,            0.,NA,NA,"",   27.5079E-03,  -27.4769E-03,   1.30493E-03,   275.810E-06
C:/temp/dataset/6/15_8.odb,Step-1,Increment      1: Step Time =    1.000,"PART-1-1",           755,       8.17216,      -2.03287,            0.,NA,NA,"",   65.2101E-03,  -65.1974E-03,  -1.28706E-03,   461.330E-06
C:/temp/dataset/6/15_8.odb,Step-1,Increment      1: Step Time =    1.000,"PART-1-1",           756,       9.68046,      -2.49017,            0.,NA,NA,"",   63.3818E-03,  -63.2216E-03,   4.50345E-03,   435.466E-06
C:/temp/dataset/6/15_8.odb,Step-1,Increment      1: Step Time =    1.000,"PART-1-1",           757,      -5.24373,       2.94722,            0.,NA,NA,"",   116.624E-03,  -94.7851E-03,  -67.9489E-03,   575.445E-06
C:/temp/dataset/6/15_8.odb,Step-1,Increment      1: Step Time =    1.000,"PART-1-1",           758,      -6.20341,       3.93450,            0.,NA,NA,"",   129.524E-03,  -103.840E-03,  -77.4197E-03,   1.48951E-03
C:/temp/dataset/6/15_8.odb,Step-1,Increment      1: Step Time =    1.000,"PART-1-1",           759,       7.87036,      -17.0650,            0.,NA,NA,"",   10.3681E-03,  -10.3459E-03,  -678.898E-06,   466.835E-06
C:/temp/dataset/6/15_8.odb,Step-1,Increment      1: Step Time =    1.000,"PART-1-1",           760,      -8.77165,      -4.61616,            0.,NA,NA,"",   95.7632E-03,  -51.0454E-03,  -81.0245E-03,   3.37048E-03
C:/temp/dataset/6/15_8.odb,Step-1,Increment      1: Step Time =    1.000,"PART-1-1",           761,       8.90402,      -15.9271,            0.,NA,NA,"",   13.3501E-03,  -13.2800E-03,   1.36605E-03,   306.561E-06
C:/temp/dataset/6/15_8.odb,Step-1,Increment      1: Step Time =    1.000,"PART-1-1",           762,       7.94609,      -14.8939,            0.,NA,NA,"",   16.2534E-03,  -16.2181E-03,  -1.07117E-03,   372.040E-06
C:/temp/dataset/6/15_8.odb,Step-1,Increment      1: Step Time =    1.000,"PART-1-1",           763,      -12.3095,       21.7291,            0.,NA,NA,"",   522.323E-03,  -456.408E-03,  -253.994E-03,   6.69110E-03
C:/temp/dataset/6/15_8.odb,Step-1,Increment      1: Step Time =    1.000,"PART-1-1",           764,      -12.2938,       19.6789,            0.,NA,NA,"",   466.934E-03,  -400.250E-03,  -240.474E-03,   6.66665E-03
C:/temp/dataset/6/15_8.odb,Step-1,Increment      1: Step Time =    1.000,"PART-1-1",           765,       3.72209,      -1.78065,            0.,NA,NA,"",   68.8777E-03,  -66.0682E-03,  -19.4710E-03,   352.572E-06
C:/temp/dataset/6/15_8.odb,Step-1,Increment      1: Step Time =    1.000,"PART-1-1",           766,       6.45852,      -3.38063,            0.,NA,NA,"",   59.4651E-03,  -58.9160E-03,  -8.06256E-03,   369.473E-06
C:/temp/dataset/6/15_8.odb,Step-1,Increment      1: Step Time =    1.000,"PART-1-1",           767,       4.93556,      -2.38177,            0.,NA,NA,"",   64.9253E-03,  -63.3391E-03,  -14.2636E-03,   371.721E-06
C:/temp/dataset/6/15_8.odb,Step-1,Increment      1: Step Time =    1.000,"PART-1-1",           768,      -2.94024,   945.156E-03,            0.,NA,NA,"",   95.7053E-03,  -80.2298E-03,  -52.1794E-03,   362.387E-06
C:/temp/dataset/6/15_8.odb,Step-1,Increment      1: Step Time =    1.000,"PART-1-1",           769,      -1.69279,      -25.0756,            0.,NA,NA,"",   2.96038E-03,   1.32079E-03,  -2.64941E-03,   777.767E-06
C:/temp/dataset/6/15_8.odb,Step-1,Increment      1: Step Time =    1.000,"PART-1-1",           770,      -6.93923,      -23.9860,            0.,NA,NA,"",   13.2164E-03,  -1.74000E-03,  -13.1014E-03,   3.06760E-03
C:/temp/dataset/6/15_8.odb,Step-1,Increment      1: Step Time =    1.000,"PART-1-1",           771,      -5.91970,      -22.6959,            0.,NA,NA,"",   14.2563E-03,  -2.14613E-03,  -14.0939E-03,   2.99709E-03
C:/temp/dataset/6/15_8.odb,Step-1,Increment      1: Step Time =    1.000,"PART-1-1",           772,      -12.2208,       17.3915,            0.,NA,NA,"",   409.600E-03,  -342.706E-03,  -224.332E-03,   6.54646E-03
C:/temp/dataset/6/15_8.odb,Step-1,Increment      1: Step Time =    1.000,"PART-1-1",           773,      -12.0398,       10.1961,            0.,NA,NA,"",   265.554E-03,  -197.193E-03,  -177.859E-03,   6.22627E-03
C:/temp/dataset/6/15_8.odb,Step-1,Increment      1: Step Time =    1.000,"PART-1-1",           774,      -10.8637,      -2.91198,            0.,NA,NA,"",   118.038E-03,  -62.6056E-03,  -100.067E-03,   4.61836E-03
C:/temp/dataset/6/15_8.odb,Step-1,Increment      1: Step Time =    1.000,"PART-1-1",           775,      -9.61620,      -11.5179,            0.,NA,NA,"",   67.6723E-03,  -28.3915E-03,  -61.4285E-03,   4.10777E-03
C:/temp/dataset/6/15_8.odb,Step-1,Increment      1: Step Time =    1.000,"PART-1-1",           776,      -11.8201,      -24.5932,            0.,NA,NA,"",   20.2774E-03,  -8.43891E-03,  -18.4380E-03,   4.20445E-03
C:/temp/dataset/6/15_8.odb,Step-1,Increment      1: Step Time =    1.000,"PART-1-1",           777,      -11.0718,      -23.4296,            0.,NA,NA,"",   23.3934E-03,  -8.93921E-03,  -21.6181E-03,   4.07072E-03
C:/temp/dataset/6/15_8.odb,Step-1,Increment      1: Step Time =    1.000,"PART-1-1",           778,       4.75405,      -23.0816,            0.,NA,NA,"",   1.71958E-03,  -1.20242E-03,  -1.22929E-03,   605.123E-06
C:/temp/dataset/6/15_8.odb,Step-1,Increment      1: Step Time =    1.000,"PART-1-1",           779,       5.55198,      -21.9930,            0.,NA,NA,"",   2.53381E-03,  -1.96177E-03,  -1.60364E-03,   702.836E-06
C:/temp/dataset/6/15_8.odb,Step-1,Increment      1: Step Time =    1.000,"PART-1-1",           780,       7.01336,      -26.0950,            0.,NA,NA,"",   472.207E-06,   452.813E-06,  -133.940E-06,   69.6367E-06
C:/temp/dataset/6/15_8.odb,Step-1,Increment      1: Step Time =    1.000,"PART-1-1",           781,       4.10189,      -23.9882,            0.,NA,NA,"",   1.13601E-03,  -592.841E-06,  -969.045E-06,   553.127E-06
C:/temp/dataset/6/15_8.odb,Step-1,Increment      1: Step Time =    1.000,"PART-1-1",           782,       4.14804,      -25.2051,            0.,NA,NA,"",   741.034E-06,   114.087E-06,  -732.199E-06,   385.911E-06
C:/temp/dataset/6/15_8.odb,Step-1,Increment      1: Step Time =    1.000,"PART-1-1",           783,      -12.1264,       12.6156,            0.,NA,NA,"",   308.478E-03,  -240.256E-03,  -193.483E-03,   6.36145E-03
C:/temp/dataset/6/15_8.odb,Step-1,Increment      1: Step Time =    1.000,"PART-1-1",           784,      -12.1709,       15.0185,            0.,NA,NA,"",   356.366E-03,  -288.849E-03,  -208.717E-03,   6.45336E-03
C:/temp/dataset/6/15_8.odb,Step-1,Increment      1: Step Time =    1.000,"PART-1-1",           785,      -10.3060,       3.43341,            0.,NA,NA,"",   160.456E-03,  -105.560E-03,  -120.845E-03,   4.61329E-03
C:/temp/dataset/6/15_8.odb,Step-1,Increment      1: Step Time =    1.000,"PART-1-1",           786,      -9.35047,  -311.861E-03,            0.,NA,NA,"",   123.491E-03,  -74.9712E-03,  -98.1296E-03,   3.67687E-03
C:/temp/dataset/6/15_8.odb,Step-1,Increment      1: Step Time =    1.000,"PART-1-1",           787,      -9.47746,      -1.56252,            0.,NA,NA,"",   116.698E-03,  -67.5991E-03,  -95.1250E-03,   3.79427E-03
C:/temp/dataset/6/15_8.odb,Step-1,Increment      1: Step Time =    1.000,"PART-1-1",           788,      -7.56677,      -1.93629,            0.,NA,NA,"",   102.273E-03,  -63.2924E-03,  -80.3363E-03,   2.46627E-03
C:/temp/dataset/6/15_8.odb,Step-1,Increment      1: Step Time =    1.000,"PART-1-1",           789,      -9.57637,      -3.06595,            0.,NA,NA,"",   108.699E-03,  -59.6285E-03,  -90.8838E-03,   3.79513E-03
C:/temp/dataset/6/15_8.odb,Step-1,Increment      1: Step Time =    1.000,"PART-1-1",           790,      -8.24618,      -3.39128,            0.,NA,NA,"",   98.8819E-03,  -56.2608E-03,  -81.3164E-03,   3.06196E-03
C:/temp/dataset/6/15_8.odb,Step-1,Increment      1: Step Time =    1.000,"PART-1-1",           791,       7.98922,      -7.69035,            0.,NA,NA,"",   41.1707E-03,  -41.1149E-03,  -2.14333E-03,   228.607E-06
C:/temp/dataset/6/15_8.odb,Step-1,Increment      1: Step Time =    1.000,"PART-1-1",           792,       7.96586,      -10.1263,            0.,NA,NA,"",   31.9466E-03,  -31.8868E-03,  -1.95455E-03,   273.349E-06
C:/temp/dataset/6/15_8.odb,Step-1,Increment      1: Step Time =    1.000,"PART-1-1",           793,       7.95460,      -12.5381,            0.,NA,NA,"",   23.5688E-03,  -23.5161E-03,  -1.57395E-03,   314.062E-06
C:/temp/dataset/6/15_8.odb,Step-1,Increment      1: Step Time =    1.000,"PART-1-1",           794,      -6.90534,       4.84567,            0.,NA,NA,"",   142.991E-03,  -114.052E-03,  -86.2475E-03,   1.97781E-03
C:/temp/dataset/6/15_8.odb,Step-1,Increment      1: Step Time =    1.000,"PART-1-1",           795,      -7.09219,       3.25090,            0.,NA,NA,"",   130.670E-03,  -98.6522E-03,  -85.6876E-03,   2.09677E-03
C:/temp/dataset/6/15_8.odb,Step-1,Increment      1: Step Time =    1.000,"PART-1-1",           796,      -5.99438,      -2.38990,            0.,NA,NA,"",   91.7114E-03,  -59.8810E-03,  -69.4640E-03,   1.46080E-03
C:/temp/dataset/6/15_8.odb,Step-1,Increment      1: Step Time =    1.000,"PART-1-1",           797,      -8.16339,       2.56404,            0.,NA,NA,"",   133.910E-03,  -94.1591E-03,  -95.2156E-03,   2.94161E-03
C:/temp/dataset/6/15_8.odb,Step-1,Increment      1: Step Time =    1.000,"PART-1-1",           798,      -6.16245,       1.98671,            0.,NA,NA,"",   115.681E-03,  -87.8094E-03,  -75.3105E-03,   1.24408E-03
C:/temp/dataset/6/15_8.odb,Step-1,Increment      1: Step Time =    1.000,"PART-1-1",           799,      -9.36160,       1.80674,            0.,NA,NA,"",   138.241E-03,  -89.8925E-03,  -105.023E-03,   3.83115E-03
C:/temp/dataset/6/15_8.odb,Step-1,Increment      1: Step Time =    1.000,"PART-1-1",           800,      -4.18828,       1.89018,            0.,NA,NA,"",   105.433E-03,  -86.6427E-03,  -60.0763E-03,   287.026E-06
C:/temp/dataset/6/15_8.odb,Step-1,Increment      1: Step Time =    1.000,"PART-1-1",           801,      -2.02478,       2.01876,            0.,NA,NA,"",   98.9675E-03,  -87.0719E-03,  -47.0430E-03,   810.862E-06
C:/temp/dataset/6/15_8.odb,Step-1,Increment      1: Step Time =    1.000,"PART-1-1",           802,       5.29765,      -24.4346,            0.,NA,NA,"",   838.202E-06,  -272.762E-06,  -792.580E-06,   375.133E-06
C:/temp/dataset/6/15_8.odb,Step-1,Increment      1: Step Time =    1.000,"PART-1-1",           803,       8.18651,      -25.0309,            0.,NA,NA,"",   310.531E-06,   115.536E-06,   288.237E-06,   82.4351E-06
C:/temp/dataset/6/15_8.odb,Step-1,Increment      1: Step Time =    1.000,"PART-1-1",           804,       6.01068,      -25.2345,            0.,NA,NA,"",   516.979E-06,   149.243E-06,  -494.969E-06,   242.596E-06
