ODB Name,Step,Frame,Part Instance Name,    êﬂì_ÉâÉxÉã,X,Y,Z,Section Name,Material Name,Section Point,   U-Magnitude,          U-U1,          U-U2,       S-Mises
C:/temp/dataset/6/17_6.odb,Step-1,Increment      1: Step Time =    1.000,"PART-1-1",             1,            5.,           -5.,            0.,NA,NA,"",   642.193E-03,   640.889E-03,  -40.9020E-03,   29.3302E-03
C:/temp/dataset/6/17_6.odb,Step-1,Increment      1: Step Time =    1.000,"PART-1-1",             2,            0.,           -5.,            0.,NA,NA,"",   664.336E-03,   659.620E-03,  -79.0161E-03,   6.08500E-03
C:/temp/dataset/6/17_6.odb,Step-1,Increment      1: Step Time =    1.000,"PART-1-1",             3,            5.,      -10.0250,            0.,NA,NA,"",   451.480E-03,   450.255E-03,   33.2323E-03,   7.71216E-03
C:/temp/dataset/6/17_6.odb,Step-1,Increment      1: Step Time =    1.000,"PART-1-1",             4,            5.,      -15.0500,            0.,NA,NA,"",   274.466E-03,   269.152E-03,   53.7488E-03,   472.246E-06
C:/temp/dataset/6/17_6.odb,Step-1,Increment      1: Step Time =    1.000,"PART-1-1",             5,            5.,          -20.,            0.,NA,NA,"",   93.3945E-03,   90.0683E-03,   24.7033E-03,   22.6526E-03
C:/temp/dataset/6/17_6.odb,Step-1,Increment      1: Step Time =    1.000,"PART-1-1",             6,            0.,          -20.,            0.,NA,NA,"",   55.9326E-03,   55.9326E-03,  -78.8995E-06,   1.57545E-03
C:/temp/dataset/6/17_6.odb,Step-1,Increment      1: Step Time =    1.000,"PART-1-1",             7,           -5.,          -20.,            0.,NA,NA,"",   78.4237E-03,   75.4217E-03,  -21.4907E-03,   15.1481E-03
C:/temp/dataset/6/17_6.odb,Step-1,Increment      1: Step Time =    1.000,"PART-1-1",             8,           -5.,      -14.9750,            0.,NA,NA,"",   228.728E-03,   221.317E-03,  -57.7515E-03,   3.27072E-03
C:/temp/dataset/6/17_6.odb,Step-1,Increment      1: Step Time =    1.000,"PART-1-1",             9,           -5.,      -9.95000,            0.,NA,NA,"",   394.908E-03,   389.266E-03,  -66.5173E-03,   616.008E-06
C:/temp/dataset/6/17_6.odb,Step-1,Increment      1: Step Time =    1.000,"PART-1-1",            10,           -5.,           -5.,            0.,NA,NA,"",   601.328E-03,   599.333E-03,  -48.9399E-03,   21.8683E-03
C:/temp/dataset/6/17_6.odb,Step-1,Increment      1: Step Time =    1.000,"PART-1-1",            11,           15.,          -30.,            0.,NA,NA,"",            0.,   7.05070E-39,  -12.6080E-39,   24.5342E-03
C:/temp/dataset/6/17_6.odb,Step-1,Increment      1: Step Time =    1.000,"PART-1-1",            12,          -15.,          -30.,            0.,NA,NA,"",            0.,   6.49032E-39,   11.3946E-39,   21.5764E-03
C:/temp/dataset/6/17_6.odb,Step-1,Increment      1: Step Time =    1.000,"PART-1-1",            13,           15.,        -21.25,            0.,NA,NA,"",   183.723E-03,   116.621E-03,  -141.964E-03,   17.4607E-03
C:/temp/dataset/6/17_6.odb,Step-1,Increment      1: Step Time =    1.000,"PART-1-1",            14,           15.,         -12.5,            0.,NA,NA,"",   450.053E-03,   377.469E-03,  -245.081E-03,   5.38483E-03
C:/temp/dataset/6/17_6.odb,Step-1,Increment      1: Step Time =    1.000,"PART-1-1",            15,           15.,         -3.75,            0.,NA,NA,"",   689.608E-03,   647.574E-03,  -237.079E-03,   5.40633E-03
C:/temp/dataset/6/17_6.odb,Step-1,Increment      1: Step Time =    1.000,"PART-1-1",            16,           15.,            5.,            0.,NA,NA,"",   822.557E-03,   793.118E-03,  -218.093E-03,   176.137E-06
C:/temp/dataset/6/17_6.odb,Step-1,Increment      1: Step Time =    1.000,"PART-1-1",            17,           10.,            5.,            0.,NA,NA,"",   801.186E-03,   789.041E-03,  -138.971E-03,   2.96284E-03
C:/temp/dataset/6/17_6.odb,Step-1,Increment      1: Step Time =    1.000,"PART-1-1",            18,            5.,            5.,            0.,NA,NA,"",   777.955E-03,   773.287E-03,  -85.0941E-03,   2.32292E-03
C:/temp/dataset/6/17_6.odb,Step-1,Increment      1: Step Time =    1.000,"PART-1-1",            19,            0.,            5.,            0.,NA,NA,"",   789.374E-03,   786.120E-03,  -71.5997E-03,   8.85368E-03
C:/temp/dataset/6/17_6.odb,Step-1,Increment      1: Step Time =    1.000,"PART-1-1",            20,           -5.,            5.,            0.,NA,NA,"",   881.638E-03,   878.231E-03,  -77.4337E-03,   43.2409E-03
C:/temp/dataset/6/17_6.odb,Step-1,Increment      1: Step Time =    1.000,"PART-1-1",            21,           -5.,         11.25,            0.,NA,NA,"",       1.31526,       1.30675,  -149.339E-03,   1.73974E-03
C:/temp/dataset/6/17_6.odb,Step-1,Increment      1: Step Time =    1.000,"PART-1-1",            22,           -5.,          17.5,            0.,NA,NA,"",       1.68322,       1.67569,  -158.993E-03,   582.747E-06
C:/temp/dataset/6/17_6.odb,Step-1,Increment      1: Step Time =    1.000,"PART-1-1",            23,           -5.,         23.75,            0.,NA,NA,"",       2.03704,       2.03014,  -167.519E-03,   57.1575E-06
C:/temp/dataset/6/17_6.odb,Step-1,Increment      1: Step Time =    1.000,"PART-1-1",            24,           -5.,           30.,            0.,NA,NA,"",       2.39020,       2.38360,  -177.462E-03,   540.175E-09
C:/temp/dataset/6/17_6.odb,Step-1,Increment      1: Step Time =    1.000,"PART-1-1",            25,          -10.,           30.,            0.,NA,NA,"",       2.39392,       2.39160,   105.386E-03,   3.77132E-06
C:/temp/dataset/6/17_6.odb,Step-1,Increment      1: Step Time =    1.000,"PART-1-1",            26,          -15.,           30.,            0.,NA,NA,"",       2.43081,       2.39961,   388.265E-03,   1.40807E-06
C:/temp/dataset/6/17_6.odb,Step-1,Increment      1: Step Time =    1.000,"PART-1-1",            27,          -15.,          22.5,            0.,NA,NA,"",       2.01527,       1.97514,   400.146E-03,   119.195E-06
C:/temp/dataset/6/17_6.odb,Step-1,Increment      1: Step Time =    1.000,"PART-1-1",            28,          -15.,           15.,            0.,NA,NA,"",       1.61248,       1.56051,   406.093E-03,   3.19343E-03
C:/temp/dataset/6/17_6.odb,Step-1,Increment      1: Step Time =    1.000,"PART-1-1",            29,          -15.,           7.5,            0.,NA,NA,"",       1.18019,       1.11328,   391.746E-03,   11.6705E-03
C:/temp/dataset/6/17_6.odb,Step-1,Increment      1: Step Time =    1.000,"PART-1-1",            30,          -15.,            0.,            0.,NA,NA,"",   812.264E-03,   752.446E-03,   305.937E-03,   10.9292E-03
C:/temp/dataset/6/17_6.odb,Step-1,Increment      1: Step Time =    1.000,"PART-1-1",            31,          -15.,          -7.5,            0.,NA,NA,"",   564.709E-03,   498.872E-03,   264.619E-03,   5.80111E-03
C:/temp/dataset/6/17_6.odb,Step-1,Increment      1: Step Time =    1.000,"PART-1-1",            32,          -15.,          -15.,            0.,NA,NA,"",   321.936E-03,   246.817E-03,   206.698E-03,   12.9359E-03
C:/temp/dataset/6/17_6.odb,Step-1,Increment      1: Step Time =    1.000,"PART-1-1",            33,          -15.,         -22.5,            0.,NA,NA,"",   132.752E-03,   80.2315E-03,   105.764E-03,   15.9583E-03
C:/temp/dataset/6/17_6.odb,Step-1,Increment      1: Step Time =    1.000,"PART-1-1",            34,           2.5,           -5.,            0.,NA,NA,"",   670.194E-03,   665.997E-03,  -74.8939E-03,   5.01573E-03
C:/temp/dataset/6/17_6.odb,Step-1,Increment      1: Step Time =    1.000,"PART-1-1",            35,            5.,      -7.51250,            0.,NA,NA,"",   542.550E-03,   542.456E-03,   10.0887E-03,   15.4027E-03
C:/temp/dataset/6/17_6.odb,Step-1,Increment      1: Step Time =    1.000,"PART-1-1",            36,            5.,      -12.5375,            0.,NA,NA,"",   362.423E-03,   359.183E-03,   48.3526E-03,   3.86303E-03
C:/temp/dataset/6/17_6.odb,Step-1,Increment      1: Step Time =    1.000,"PART-1-1",            37,            5.,      -17.5250,            0.,NA,NA,"",   189.633E-03,   182.791E-03,   50.4770E-03,   6.15531E-03
C:/temp/dataset/6/17_6.odb,Step-1,Increment      1: Step Time =    1.000,"PART-1-1",            38,           2.5,          -20.,            0.,NA,NA,"",   61.6344E-03,   61.1059E-03,   8.05450E-03,   8.21321E-03
C:/temp/dataset/6/17_6.odb,Step-1,Increment      1: Step Time =    1.000,"PART-1-1",            39,          -2.5,          -20.,            0.,NA,NA,"",   56.8666E-03,   56.4283E-03,  -7.04750E-03,   4.70906E-03
C:/temp/dataset/6/17_6.odb,Step-1,Increment      1: Step Time =    1.000,"PART-1-1",            40,           -5.,      -17.4875,            0.,NA,NA,"",   154.818E-03,   147.456E-03,  -47.1764E-03,   7.74913E-03
C:/temp/dataset/6/17_6.odb,Step-1,Increment      1: Step Time =    1.000,"PART-1-1",            41,           -5.,      -12.4625,            0.,NA,NA,"",   308.590E-03,   301.810E-03,  -64.3316E-03,   1.30893E-03
C:/temp/dataset/6/17_6.odb,Step-1,Increment      1: Step Time =    1.000,"PART-1-1",            42,           -5.,      -7.47500,            0.,NA,NA,"",   487.400E-03,   483.016E-03,  -65.2260E-03,   5.06784E-03
C:/temp/dataset/6/17_6.odb,Step-1,Increment      1: Step Time =    1.000,"PART-1-1",            43,          -2.5,           -5.,            0.,NA,NA,"",   644.812E-03,   641.029E-03,  -69.7471E-03,   13.6948E-03
C:/temp/dataset/6/17_6.odb,Step-1,Increment      1: Step Time =    1.000,"PART-1-1",            44,          12.5,          -30.,            0.,NA,NA,"",            0.,   6.95304E-39,  -19.7334E-39,   9.09583E-03
C:/temp/dataset/6/17_6.odb,Step-1,Increment      1: Step Time =    1.000,"PART-1-1",            45,           10.,          -30.,            0.,NA,NA,"",            0.,  -2.61486E-39,  -9.70711E-39,   5.65458E-03
C:/temp/dataset/6/17_6.odb,Step-1,Increment      1: Step Time =    1.000,"PART-1-1",            46,           7.5,          -30.,            0.,NA,NA,"",            0.,  -588.114E-42,  -3.57630E-39,   2.05712E-03
C:/temp/dataset/6/17_6.odb,Step-1,Increment      1: Step Time =    1.000,"PART-1-1",            47,            5.,          -30.,            0.,NA,NA,"",            0.,   2.17953E-39,  -574.614E-42,   2.05071E-03
C:/temp/dataset/6/17_6.odb,Step-1,Increment      1: Step Time =    1.000,"PART-1-1",            48,           2.5,          -30.,            0.,NA,NA,"",            0.,   3.61840E-39,   217.133E-42,   3.70416E-03
C:/temp/dataset/6/17_6.odb,Step-1,Increment      1: Step Time =    1.000,"PART-1-1",            49,            0.,          -30.,            0.,NA,NA,"",            0.,   4.27342E-39,   3.23482E-39,   4.28636E-03
C:/temp/dataset/6/17_6.odb,Step-1,Increment      1: Step Time =    1.000,"PART-1-1",            50,          -2.5,          -30.,            0.,NA,NA,"",            0.,   3.46289E-39,  -1.62249E-39,   3.66321E-03
C:/temp/dataset/6/17_6.odb,Step-1,Increment      1: Step Time =    1.000,"PART-1-1",            51,           -5.,          -30.,            0.,NA,NA,"",            0.,   1.68645E-39,   70.8875E-42,   2.23660E-03
C:/temp/dataset/6/17_6.odb,Step-1,Increment      1: Step Time =    1.000,"PART-1-1",            52,          -7.5,          -30.,            0.,NA,NA,"",            0.,  -629.786E-42,   4.11739E-39,   2.45517E-03
C:/temp/dataset/6/17_6.odb,Step-1,Increment      1: Step Time =    1.000,"PART-1-1",            53,          -10.,          -30.,            0.,NA,NA,"",            0.,   3.14596E-39,   9.95665E-39,   5.38052E-03
C:/temp/dataset/6/17_6.odb,Step-1,Increment      1: Step Time =    1.000,"PART-1-1",            54,         -12.5,          -30.,            0.,NA,NA,"",            0.,   2.77724E-39,   16.0265E-39,   8.36752E-03
C:/temp/dataset/6/17_6.odb,Step-1,Increment      1: Step Time =    1.000,"PART-1-1",            55,           15.,      -23.4375,            0.,NA,NA,"",   132.446E-03,   78.3673E-03,  -106.774E-03,   17.7306E-03
C:/temp/dataset/6/17_6.odb,Step-1,Increment      1: Step Time =    1.000,"PART-1-1",            56,           15.,       -25.625,            0.,NA,NA,"",   87.9989E-03,   50.2661E-03,  -72.2297E-03,   17.1324E-03
C:/temp/dataset/6/17_6.odb,Step-1,Increment      1: Step Time =    1.000,"PART-1-1",            57,           15.,      -27.8125,            0.,NA,NA,"",   48.2612E-03,   28.6223E-03,  -38.8575E-03,   18.7982E-03
C:/temp/dataset/6/17_6.odb,Step-1,Increment      1: Step Time =    1.000,"PART-1-1",            58,           15.,      -14.6875,            0.,NA,NA,"",   378.329E-03,   301.027E-03,  -229.163E-03,   9.46429E-03
C:/temp/dataset/6/17_6.odb,Step-1,Increment      1: Step Time =    1.000,"PART-1-1",            59,           15.,       -16.875,            0.,NA,NA,"",   308.238E-03,   229.614E-03,  -205.640E-03,   13.1896E-03
C:/temp/dataset/6/17_6.odb,Step-1,Increment      1: Step Time =    1.000,"PART-1-1",            60,           15.,      -19.0625,            0.,NA,NA,"",   242.641E-03,   167.218E-03,  -175.821E-03,   16.0238E-03
C:/temp/dataset/6/17_6.odb,Step-1,Increment      1: Step Time =    1.000,"PART-1-1",            61,           15.,       -5.9375,            0.,NA,NA,"",   642.424E-03,   593.125E-03,  -246.801E-03,   4.72485E-03
C:/temp/dataset/6/17_6.odb,Step-1,Increment      1: Step Time =    1.000,"PART-1-1",            62,           15.,        -8.125,            0.,NA,NA,"",   585.406E-03,   527.878E-03,  -253.071E-03,   2.28859E-03
C:/temp/dataset/6/17_6.odb,Step-1,Increment      1: Step Time =    1.000,"PART-1-1",            63,           15.,      -10.3125,            0.,NA,NA,"",   520.222E-03,   454.576E-03,  -252.965E-03,   1.33709E-03
C:/temp/dataset/6/17_6.odb,Step-1,Increment      1: Step Time =    1.000,"PART-1-1",            64,           15.,        2.8125,            0.,NA,NA,"",   790.601E-03,   759.933E-03,  -218.063E-03,   664.111E-06
C:/temp/dataset/6/17_6.odb,Step-1,Increment      1: Step Time =    1.000,"PART-1-1",            65,           15.,      625.E-03,            0.,NA,NA,"",   760.134E-03,   727.357E-03,  -220.805E-03,   2.54211E-03
C:/temp/dataset/6/17_6.odb,Step-1,Increment      1: Step Time =    1.000,"PART-1-1",            66,           15.,       -1.5625,            0.,NA,NA,"",   727.812E-03,   691.348E-03,  -227.484E-03,   4.45031E-03
C:/temp/dataset/6/17_6.odb,Step-1,Increment      1: Step Time =    1.000,"PART-1-1",            67,          12.5,            5.,            0.,NA,NA,"",   812.891E-03,   793.041E-03,  -178.540E-03,   836.408E-06
C:/temp/dataset/6/17_6.odb,Step-1,Increment      1: Step Time =    1.000,"PART-1-1",            68,           7.5,            5.,            0.,NA,NA,"",   788.124E-03,   780.956E-03,  -106.055E-03,   4.03680E-03
C:/temp/dataset/6/17_6.odb,Step-1,Increment      1: Step Time =    1.000,"PART-1-1",            69,           2.5,            5.,            0.,NA,NA,"",   776.806E-03,   773.120E-03,  -75.5837E-03,   2.88964E-03
C:/temp/dataset/6/17_6.odb,Step-1,Increment      1: Step Time =    1.000,"PART-1-1",            70,          -2.5,            5.,            0.,NA,NA,"",   816.164E-03,   813.337E-03,  -67.8704E-03,   18.8332E-03
C:/temp/dataset/6/17_6.odb,Step-1,Increment      1: Step Time =    1.000,"PART-1-1",            71,           -5.,       9.16667,            0.,NA,NA,"",       1.18528,       1.17700,  -139.833E-03,   4.83877E-03
C:/temp/dataset/6/17_6.odb,Step-1,Increment      1: Step Time =    1.000,"PART-1-1",            72,           -5.,       7.08333,            0.,NA,NA,"",       1.04782,       1.04038,  -124.674E-03,   16.0935E-03
C:/temp/dataset/6/17_6.odb,Step-1,Increment      1: Step Time =    1.000,"PART-1-1",            73,           -5.,       15.4167,            0.,NA,NA,"",       1.56345,       1.55556,  -156.801E-03,   624.134E-06
C:/temp/dataset/6/17_6.odb,Step-1,Increment      1: Step Time =    1.000,"PART-1-1",            74,           -5.,       13.3333,            0.,NA,NA,"",       1.44109,       1.43282,  -154.141E-03,   82.0579E-06
C:/temp/dataset/6/17_6.odb,Step-1,Increment      1: Step Time =    1.000,"PART-1-1",            75,           -5.,       21.6667,            0.,NA,NA,"",       1.91938,       1.91233,  -164.350E-03,   146.352E-06
C:/temp/dataset/6/17_6.odb,Step-1,Increment      1: Step Time =    1.000,"PART-1-1",            76,           -5.,       19.5833,            0.,NA,NA,"",       1.80158,       1.79433,  -161.476E-03,   338.003E-06
C:/temp/dataset/6/17_6.odb,Step-1,Increment      1: Step Time =    1.000,"PART-1-1",            77,           -5.,       27.9167,            0.,NA,NA,"",       2.27244,       2.26576,  -174.126E-03,   1.15792E-06
C:/temp/dataset/6/17_6.odb,Step-1,Increment      1: Step Time =    1.000,"PART-1-1",            78,           -5.,       25.8333,            0.,NA,NA,"",       2.15472,       2.14794,  -170.798E-03,   13.2483E-06
C:/temp/dataset/6/17_6.odb,Step-1,Increment      1: Step Time =    1.000,"PART-1-1",            79,          -7.5,           30.,            0.,NA,NA,"",       2.38788,       2.38761,  -36.0449E-03,   1.24712E-06
C:/temp/dataset/6/17_6.odb,Step-1,Increment      1: Step Time =    1.000,"PART-1-1",            80,         -12.5,           30.,            0.,NA,NA,"",       2.40828,       2.39560,   246.820E-03,   2.00557E-06
C:/temp/dataset/6/17_6.odb,Step-1,Increment      1: Step Time =    1.000,"PART-1-1",            81,          -15.,           25.,            0.,NA,NA,"",       2.15343,       2.11666,   396.253E-03,   29.4765E-06
C:/temp/dataset/6/17_6.odb,Step-1,Increment      1: Step Time =    1.000,"PART-1-1",            82,          -15.,          27.5,            0.,NA,NA,"",       2.29197,       2.25815,   392.270E-03,   2.66572E-06
C:/temp/dataset/6/17_6.odb,Step-1,Increment      1: Step Time =    1.000,"PART-1-1",            83,          -15.,          17.5,            0.,NA,NA,"",       1.74149,       1.69344,   406.237E-03,   1.48215E-03
C:/temp/dataset/6/17_6.odb,Step-1,Increment      1: Step Time =    1.000,"PART-1-1",            84,          -15.,           20.,            0.,NA,NA,"",       1.87765,       1.83376,   403.590E-03,   378.723E-06
C:/temp/dataset/6/17_6.odb,Step-1,Increment      1: Step Time =    1.000,"PART-1-1",            85,          -15.,           10.,            0.,NA,NA,"",       1.33540,       1.27280,   404.087E-03,   8.20321E-03
C:/temp/dataset/6/17_6.odb,Step-1,Increment      1: Step Time =    1.000,"PART-1-1",            86,          -15.,          12.5,            0.,NA,NA,"",       1.48125,       1.42383,   408.440E-03,   6.10231E-03
C:/temp/dataset/6/17_6.odb,Step-1,Increment      1: Step Time =    1.000,"PART-1-1",            87,          -15.,           2.5,            0.,NA,NA,"",   911.556E-03,   848.578E-03,   332.943E-03,   14.2562E-03
C:/temp/dataset/6/17_6.odb,Step-1,Increment      1: Step Time =    1.000,"PART-1-1",            88,          -15.,            5.,            0.,NA,NA,"",       1.03219,   965.869E-03,   364.033E-03,   14.9712E-03
C:/temp/dataset/6/17_6.odb,Step-1,Increment      1: Step Time =    1.000,"PART-1-1",            89,          -15.,           -5.,            0.,NA,NA,"",   646.121E-03,   584.603E-03,   275.157E-03,   5.43293E-03
C:/temp/dataset/6/17_6.odb,Step-1,Increment      1: Step Time =    1.000,"PART-1-1",            90,          -15.,          -2.5,            0.,NA,NA,"",   726.809E-03,   667.667E-03,   287.180E-03,   7.18896E-03
C:/temp/dataset/6/17_6.odb,Step-1,Increment      1: Step Time =    1.000,"PART-1-1",            91,          -15.,         -12.5,            0.,NA,NA,"",   399.964E-03,   325.960E-03,   231.778E-03,   10.4567E-03
C:/temp/dataset/6/17_6.odb,Step-1,Increment      1: Step Time =    1.000,"PART-1-1",            92,          -15.,          -10.,            0.,NA,NA,"",   481.770E-03,   411.320E-03,   250.836E-03,   7.93274E-03
C:/temp/dataset/6/17_6.odb,Step-1,Increment      1: Step Time =    1.000,"PART-1-1",            93,          -15.,          -20.,            0.,NA,NA,"",   186.823E-03,   121.908E-03,   141.568E-03,   16.0025E-03
C:/temp/dataset/6/17_6.odb,Step-1,Increment      1: Step Time =    1.000,"PART-1-1",            94,          -15.,         -17.5,            0.,NA,NA,"",   250.240E-03,   177.775E-03,   176.114E-03,   14.9663E-03
C:/temp/dataset/6/17_6.odb,Step-1,Increment      1: Step Time =    1.000,"PART-1-1",            95,          -15.,         -27.5,            0.,NA,NA,"",   47.2347E-03,   28.1176E-03,   37.9541E-03,   15.8921E-03
C:/temp/dataset/6/17_6.odb,Step-1,Increment      1: Step Time =    1.000,"PART-1-1",            96,          -15.,          -25.,            0.,NA,NA,"",   87.1540E-03,   50.4392E-03,   71.0753E-03,   15.0041E-03
C:/temp/dataset/6/17_6.odb,Step-1,Increment      1: Step Time =    1.000,"PART-1-1",            97,       13.0047,      -3.80353,            0.,NA,NA,"",   678.266E-03,   650.255E-03,  -192.908E-03,   1.84462E-03
C:/temp/dataset/6/17_6.odb,Step-1,Increment      1: Step Time =    1.000,"PART-1-1",            98,       6.97971,      -7.55833,            0.,NA,NA,"",   547.782E-03,   545.523E-03,  -49.7006E-03,   13.7074E-03
C:/temp/dataset/6/17_6.odb,Step-1,Increment      1: Step Time =    1.000,"PART-1-1",            99,       6.96639,      -10.0829,            0.,NA,NA,"",   454.141E-03,   453.086E-03,  -30.9349E-03,   9.09904E-03
C:/temp/dataset/6/17_6.odb,Step-1,Increment      1: Step Time =    1.000,"PART-1-1",           100,       12.9900,      -12.5465,            0.,NA,NA,"",   413.445E-03,   372.031E-03,  -180.360E-03,   7.45032E-03
C:/temp/dataset/6/17_6.odb,Step-1,Increment      1: Step Time =    1.000,"PART-1-1",           101,       6.90028,      -17.1420,            0.,NA,NA,"",   194.777E-03,   194.734E-03,  -4.06196E-03,   7.50416E-03
C:/temp/dataset/6/17_6.odb,Step-1,Increment      1: Step Time =    1.000,"PART-1-1",           102,       7.03871,      -19.0570,            0.,NA,NA,"",   130.634E-03,   130.431E-03,  -7.29390E-03,   8.81275E-03
C:/temp/dataset/6/17_6.odb,Step-1,Increment      1: Step Time =    1.000,"PART-1-1",           103,       5.31709,      -21.2647,            0.,NA,NA,"",   73.1674E-03,   71.3641E-03,   16.1443E-03,   7.66484E-03
C:/temp/dataset/6/17_6.odb,Step-1,Increment      1: Step Time =    1.000,"PART-1-1",           104,      -4.83361,      -22.6144,            0.,NA,NA,"",   49.8420E-03,   48.9100E-03,  -9.59398E-03,   5.96441E-03
C:/temp/dataset/6/17_6.odb,Step-1,Increment      1: Step Time =    1.000,"PART-1-1",           105,      -7.46484,      -17.6587,            0.,NA,NA,"",   142.884E-03,   142.379E-03,   11.9989E-03,   5.96266E-03
C:/temp/dataset/6/17_6.odb,Step-1,Increment      1: Step Time =    1.000,"PART-1-1",           106,      -12.5283,      -27.3245,            0.,NA,NA,"",   29.3510E-03,   16.7706E-03,   24.0879E-03,   11.6053E-03
C:/temp/dataset/6/17_6.odb,Step-1,Increment      1: Step Time =    1.000,"PART-1-1",           107,      -12.4870,      -17.6221,            0.,NA,NA,"",   197.994E-03,   159.868E-03,   116.807E-03,   10.2759E-03
C:/temp/dataset/6/17_6.odb,Step-1,Increment      1: Step Time =    1.000,"PART-1-1",           108,      -7.32043,      -12.6401,            0.,NA,NA,"",   297.164E-03,   297.039E-03,   8.61703E-03,   3.17155E-03
C:/temp/dataset/6/17_6.odb,Step-1,Increment      1: Step Time =    1.000,"PART-1-1",           109,      -7.14644,      -8.03697,            0.,NA,NA,"",   463.613E-03,   463.512E-03,   9.68586E-03,   6.53053E-03
C:/temp/dataset/6/17_6.odb,Step-1,Increment      1: Step Time =    1.000,"PART-1-1",           110,      -12.6601,       4.88622,            0.,NA,NA,"",   976.379E-03,   944.387E-03,   247.890E-03,   7.93466E-03
C:/temp/dataset/6/17_6.odb,Step-1,Increment      1: Step Time =    1.000,"PART-1-1",           111,      -13.0978,       12.5399,            0.,NA,NA,"",       1.44510,       1.41342,   300.958E-03,   7.02197E-03
C:/temp/dataset/6/17_6.odb,Step-1,Increment      1: Step Time =    1.000,"PART-1-1",           112,      -6.45576,       21.8628,            0.,NA,NA,"",       1.92757,       1.92582,  -82.1951E-03,   141.367E-06
C:/temp/dataset/6/17_6.odb,Step-1,Increment      1: Step Time =    1.000,"PART-1-1",           113,      -7.28884,       25.7044,            0.,NA,NA,"",       2.14471,       2.14431,  -41.1083E-03,   33.4782E-06
C:/temp/dataset/6/17_6.odb,Step-1,Increment      1: Step Time =    1.000,"PART-1-1",           114,      -9.90518,       27.6474,            0.,NA,NA,"",       2.26074,       2.25836,   103.801E-03,   14.3562E-06
C:/temp/dataset/6/17_6.odb,Step-1,Increment      1: Step Time =    1.000,"PART-1-1",           115,      -3.01211,      -3.13168,            0.,NA,NA,"",   664.852E-03,   660.993E-03,  -71.5349E-03,   10.9594E-03
C:/temp/dataset/6/17_6.odb,Step-1,Increment      1: Step Time =    1.000,"PART-1-1",           116,      -2.19169,       3.00836,            0.,NA,NA,"",   790.924E-03,   787.230E-03,  -76.3500E-03,   17.4453E-03
C:/temp/dataset/6/17_6.odb,Step-1,Increment      1: Step Time =    1.000,"PART-1-1",           117,       1.85193,      -2.77696,            0.,NA,NA,"",   681.866E-03,   677.281E-03,  -78.9359E-03,   12.1238E-03
C:/temp/dataset/6/17_6.odb,Step-1,Increment      1: Step Time =    1.000,"PART-1-1",           118,       2.83229,       2.22691,            0.,NA,NA,"",   753.450E-03,   749.338E-03,  -78.6139E-03,   9.08013E-03
C:/temp/dataset/6/17_6.odb,Step-1,Increment      1: Step Time =    1.000,"PART-1-1",           119,       7.74921,       3.07964,            0.,NA,NA,"",   767.013E-03,   759.625E-03,  -106.199E-03,   1.63527E-03
C:/temp/dataset/6/17_6.odb,Step-1,Increment      1: Step Time =    1.000,"PART-1-1",           120,      -2.47342,      -22.6017,            0.,NA,NA,"",   50.0392E-03,   49.6131E-03,  -6.51666E-03,   7.54728E-03
C:/temp/dataset/6/17_6.odb,Step-1,Increment      1: Step Time =    1.000,"PART-1-1",           121,      -7.48266,       20.3798,            0.,NA,NA,"",       1.84373,       1.84360,  -21.5314E-03,   217.910E-06
C:/temp/dataset/6/17_6.odb,Step-1,Increment      1: Step Time =    1.000,"PART-1-1",           122,      -7.10993,       13.1351,            0.,NA,NA,"",       1.42475,       1.42443,  -30.2789E-03,   2.09252E-03
C:/temp/dataset/6/17_6.odb,Step-1,Increment      1: Step Time =    1.000,"PART-1-1",           123,      -6.64156,       6.82435,            0.,NA,NA,"",       1.02463,       1.02432,  -24.8709E-03,   18.1217E-03
C:/temp/dataset/6/17_6.odb,Step-1,Increment      1: Step Time =    1.000,"PART-1-1",           124,      -12.9641,      -2.37512,            0.,NA,NA,"",   699.207E-03,   664.721E-03,   216.878E-03,   6.53964E-03
C:/temp/dataset/6/17_6.odb,Step-1,Increment      1: Step Time =    1.000,"PART-1-1",           125,      -12.1317,      -9.84573,            0.,NA,NA,"",   436.490E-03,   406.394E-03,   159.271E-03,   6.96979E-03
C:/temp/dataset/6/17_6.odb,Step-1,Increment      1: Step Time =    1.000,"PART-1-1",           126,       4.04132,      -2.67712,            0.,NA,NA,"",   679.072E-03,   675.652E-03,  -68.0617E-03,   13.8003E-03
C:/temp/dataset/6/17_6.odb,Step-1,Increment      1: Step Time =    1.000,"PART-1-1",           127,       6.95362,      -12.5367,            0.,NA,NA,"",   361.987E-03,   361.625E-03,  -16.1748E-03,   6.45571E-03
C:/temp/dataset/6/17_6.odb,Step-1,Increment      1: Step Time =    1.000,"PART-1-1",           128,       6.92458,      -14.9216,            0.,NA,NA,"",   273.650E-03,   273.538E-03,  -7.80185E-03,   5.26539E-03
C:/temp/dataset/6/17_6.odb,Step-1,Increment      1: Step Time =    1.000,"PART-1-1",           129,       12.9089,      -21.3671,            0.,NA,NA,"",   141.096E-03,   100.339E-03,  -99.1975E-03,   12.5457E-03
C:/temp/dataset/6/17_6.odb,Step-1,Increment      1: Step Time =    1.000,"PART-1-1",           130,   283.131E-03,      -22.8786,            0.,NA,NA,"",   50.3894E-03,   50.3496E-03,   2.00379E-03,   6.20805E-03
C:/temp/dataset/6/17_6.odb,Step-1,Increment      1: Step Time =    1.000,"PART-1-1",           131,      -12.9776,      -22.4214,            0.,NA,NA,"",   104.117E-03,   68.5353E-03,   78.3793E-03,   11.9057E-03
C:/temp/dataset/6/17_6.odb,Step-1,Increment      1: Step Time =    1.000,"PART-1-1",           132,      -7.42030,      -15.1083,            0.,NA,NA,"",   217.045E-03,   216.761E-03,   11.1116E-03,   3.47860E-03
C:/temp/dataset/6/17_6.odb,Step-1,Increment      1: Step Time =    1.000,"PART-1-1",           133,      -7.18486,      -10.2642,            0.,NA,NA,"",   380.549E-03,   380.475E-03,   7.50301E-03,   3.98564E-03
C:/temp/dataset/6/17_6.odb,Step-1,Increment      1: Step Time =    1.000,"PART-1-1",           134,      -7.33974,      -5.93881,            0.,NA,NA,"",   546.760E-03,   546.393E-03,   20.0510E-03,   6.48635E-03
C:/temp/dataset/6/17_6.odb,Step-1,Increment      1: Step Time =    1.000,"PART-1-1",           135,  -533.729E-03,      -2.94296,            0.,NA,NA,"",   677.912E-03,   672.868E-03,  -82.5502E-03,   8.60897E-03
C:/temp/dataset/6/17_6.odb,Step-1,Increment      1: Step Time =    1.000,"PART-1-1",           136,       10.2172,      -28.0250,            0.,NA,NA,"",   11.5833E-03,   5.89739E-03,  -9.96963E-03,   6.58436E-03
C:/temp/dataset/6/17_6.odb,Step-1,Increment      1: Step Time =    1.000,"PART-1-1",           137,       7.82196,      -28.0777,            0.,NA,NA,"",   6.19496E-03,   5.29262E-03,  -3.21959E-03,   2.87999E-03
C:/temp/dataset/6/17_6.odb,Step-1,Increment      1: Step Time =    1.000,"PART-1-1",           138,       5.43540,      -28.0544,            0.,NA,NA,"",   7.99292E-03,   7.95301E-03,   797.769E-06,   3.37471E-03
C:/temp/dataset/6/17_6.odb,Step-1,Increment      1: Step Time =    1.000,"PART-1-1",           139,       2.98405,      -27.8165,            0.,NA,NA,"",   13.0440E-03,   12.8447E-03,   2.27144E-03,   4.77440E-03
C:/temp/dataset/6/17_6.odb,Step-1,Increment      1: Step Time =    1.000,"PART-1-1",           140,   324.250E-03,      -27.0908,            0.,NA,NA,"",   19.7852E-03,   19.7457E-03,   1.24906E-03,   5.42155E-03
C:/temp/dataset/6/17_6.odb,Step-1,Increment      1: Step Time =    1.000,"PART-1-1",           141,      -2.46293,      -27.5198,            0.,NA,NA,"",   15.1252E-03,   15.0905E-03,  -1.02441E-03,   4.78926E-03
C:/temp/dataset/6/17_6.odb,Step-1,Increment      1: Step Time =    1.000,"PART-1-1",           142,      -4.88996,      -27.5861,            0.,NA,NA,"",   11.2308E-03,   11.2116E-03,  -655.072E-06,   3.77810E-03
C:/temp/dataset/6/17_6.odb,Step-1,Increment      1: Step Time =    1.000,"PART-1-1",           143,      -7.26500,      -27.4866,            0.,NA,NA,"",   9.12266E-03,   8.59017E-03,   3.07114E-03,   2.82740E-03
C:/temp/dataset/6/17_6.odb,Step-1,Increment      1: Step Time =    1.000,"PART-1-1",           144,      -9.86695,      -26.8928,            0.,NA,NA,"",   18.2013E-03,   12.1781E-03,   13.5270E-03,   5.62989E-03
C:/temp/dataset/6/17_6.odb,Step-1,Increment      1: Step Time =    1.000,"PART-1-1",           145,       12.7710,      -23.5898,            0.,NA,NA,"",   93.8421E-03,   60.9667E-03,  -71.3401E-03,   12.6494E-03
C:/temp/dataset/6/17_6.odb,Step-1,Increment      1: Step Time =    1.000,"PART-1-1",           146,       12.6989,      -25.7990,            0.,NA,NA,"",   55.6525E-03,   33.0318E-03,  -44.7895E-03,   13.0594E-03
C:/temp/dataset/6/17_6.odb,Step-1,Increment      1: Step Time =    1.000,"PART-1-1",           147,       12.6207,      -27.9366,            0.,NA,NA,"",   24.7442E-03,   13.4006E-03,  -20.8014E-03,   13.0408E-03
C:/temp/dataset/6/17_6.odb,Step-1,Increment      1: Step Time =    1.000,"PART-1-1",           148,       12.9983,      -14.8223,            0.,NA,NA,"",   333.752E-03,   289.539E-03,  -166.005E-03,   9.19682E-03
C:/temp/dataset/6/17_6.odb,Step-1,Increment      1: Step Time =    1.000,"PART-1-1",           149,       13.0558,      -17.0719,            0.,NA,NA,"",   260.426E-03,   213.974E-03,  -148.449E-03,   10.8392E-03
C:/temp/dataset/6/17_6.odb,Step-1,Increment      1: Step Time =    1.000,"PART-1-1",           150,       13.1682,      -19.2108,            0.,NA,NA,"",   199.551E-03,   152.172E-03,  -129.090E-03,   12.2785E-03
C:/temp/dataset/6/17_6.odb,Step-1,Increment      1: Step Time =    1.000,"PART-1-1",           151,       13.0670,      -5.94273,            0.,NA,NA,"",   627.947E-03,   596.318E-03,  -196.780E-03,   2.51978E-03
C:/temp/dataset/6/17_6.odb,Step-1,Increment      1: Step Time =    1.000,"PART-1-1",           152,       13.0350,      -8.09399,            0.,NA,NA,"",   565.539E-03,   530.582E-03,  -195.749E-03,   4.09506E-03
C:/temp/dataset/6/17_6.odb,Step-1,Increment      1: Step Time =    1.000,"PART-1-1",           153,       12.9982,      -10.2981,            0.,NA,NA,"",   492.459E-03,   454.262E-03,  -190.162E-03,   5.79131E-03
C:/temp/dataset/6/17_6.odb,Step-1,Increment      1: Step Time =    1.000,"PART-1-1",           154,       12.5107,   556.281E-03,            0.,NA,NA,"",   750.086E-03,   728.537E-03,  -178.502E-03,   2.62183E-03
C:/temp/dataset/6/17_6.odb,Step-1,Increment      1: Step Time =    1.000,"PART-1-1",           155,       12.7702,      -1.64554,            0.,NA,NA,"",   717.627E-03,   693.327E-03,  -185.166E-03,   2.16120E-03
C:/temp/dataset/6/17_6.odb,Step-1,Increment      1: Step Time =    1.000,"PART-1-1",           156,       10.0517,       2.85834,            0.,NA,NA,"",   772.026E-03,   759.690E-03,  -137.457E-03,   2.14982E-03
C:/temp/dataset/6/17_6.odb,Step-1,Increment      1: Step Time =    1.000,"PART-1-1",           157,       5.39286,       2.85476,            0.,NA,NA,"",   759.612E-03,   754.753E-03,  -85.7822E-03,   3.81349E-03
C:/temp/dataset/6/17_6.odb,Step-1,Increment      1: Step Time =    1.000,"PART-1-1",           158,   175.602E-03,       2.90951,            0.,NA,NA,"",   772.882E-03,   768.866E-03,  -78.6873E-03,   11.4863E-03
C:/temp/dataset/6/17_6.odb,Step-1,Increment      1: Step Time =    1.000,"PART-1-1",           159,      -4.35394,       2.91920,            0.,NA,NA,"",   806.781E-03,   803.990E-03,  -67.0520E-03,   14.1154E-03
C:/temp/dataset/6/17_6.odb,Step-1,Increment      1: Step Time =    1.000,"PART-1-1",           160,      -7.05997,       10.9599,            0.,NA,NA,"",       1.29117,       1.29089,  -26.7787E-03,   4.54216E-03
C:/temp/dataset/6/17_6.odb,Step-1,Increment      1: Step Time =    1.000,"PART-1-1",           161,      -6.93805,       8.84105,            0.,NA,NA,"",       1.15631,       1.15608,  -23.0416E-03,   8.60060E-03
C:/temp/dataset/6/17_6.odb,Step-1,Increment      1: Step Time =    1.000,"PART-1-1",           162,      -7.28921,       17.6445,            0.,NA,NA,"",       1.68827,       1.68803,  -28.1407E-03,   163.473E-06
C:/temp/dataset/6/17_6.odb,Step-1,Increment      1: Step Time =    1.000,"PART-1-1",           163,      -7.17735,       15.3234,            0.,NA,NA,"",       1.55445,       1.55415,  -30.7328E-03,   580.592E-06
C:/temp/dataset/6/17_6.odb,Step-1,Increment      1: Step Time =    1.000,"PART-1-1",           164,      -6.93557,       23.5874,            0.,NA,NA,"",       2.02489,       2.02407,  -57.7215E-03,   80.4475E-06
C:/temp/dataset/6/17_6.odb,Step-1,Increment      1: Step Time =    1.000,"PART-1-1",           165,      -13.1925,       19.7530,            0.,NA,NA,"",       1.84171,       1.81673,   302.327E-03,   256.746E-06
C:/temp/dataset/6/17_6.odb,Step-1,Increment      1: Step Time =    1.000,"PART-1-1",           166,      -7.44963,       27.8335,            0.,NA,NA,"",       2.26525,       2.26498,  -35.4230E-03,   9.60682E-06
C:/temp/dataset/6/17_6.odb,Step-1,Increment      1: Step Time =    1.000,"PART-1-1",           167,      -13.0424,       22.0734,            0.,NA,NA,"",       1.96931,       1.94781,   290.218E-03,   145.217E-06
C:/temp/dataset/6/17_6.odb,Step-1,Increment      1: Step Time =    1.000,"PART-1-1",           168,      -13.1316,       14.9813,            0.,NA,NA,"",       1.58174,       1.55199,   305.329E-03,   3.37622E-03
C:/temp/dataset/6/17_6.odb,Step-1,Increment      1: Step Time =    1.000,"PART-1-1",           169,      -13.1727,       17.3972,            0.,NA,NA,"",       1.71154,       1.68413,   305.047E-03,   648.198E-06
C:/temp/dataset/6/17_6.odb,Step-1,Increment      1: Step Time =    1.000,"PART-1-1",           170,      -12.8574,       7.53984,            0.,NA,NA,"",       1.13196,       1.09896,   271.316E-03,   11.2833E-03
C:/temp/dataset/6/17_6.odb,Step-1,Increment      1: Step Time =    1.000,"PART-1-1",           171,      -13.0166,       10.0884,            0.,NA,NA,"",       1.29525,       1.26229,   290.361E-03,   9.49007E-03
C:/temp/dataset/6/17_6.odb,Step-1,Increment      1: Step Time =    1.000,"PART-1-1",           172,      -12.8045,  -118.323E-03,            0.,NA,NA,"",   770.792E-03,   738.015E-03,   222.382E-03,   8.11878E-03
C:/temp/dataset/6/17_6.odb,Step-1,Increment      1: Step Time =    1.000,"PART-1-1",           173,      -12.7039,       2.28772,            0.,NA,NA,"",   858.131E-03,   825.840E-03,   233.189E-03,   8.57176E-03
C:/temp/dataset/6/17_6.odb,Step-1,Increment      1: Step Time =    1.000,"PART-1-1",           174,      -12.8488,      -7.31355,            0.,NA,NA,"",   535.070E-03,   498.910E-03,   193.361E-03,   5.67085E-03
C:/temp/dataset/6/17_6.odb,Step-1,Increment      1: Step Time =    1.000,"PART-1-1",           175,      -12.6051,      -4.81291,            0.,NA,NA,"",   616.026E-03,   584.463E-03,   194.656E-03,   4.73940E-03
C:/temp/dataset/6/17_6.odb,Step-1,Increment      1: Step Time =    1.000,"PART-1-1",           176,      -12.4260,      -15.0682,            0.,NA,NA,"",   268.324E-03,   231.316E-03,   135.981E-03,   9.30601E-03
C:/temp/dataset/6/17_6.odb,Step-1,Increment      1: Step Time =    1.000,"PART-1-1",           177,      -12.3344,      -12.5112,            0.,NA,NA,"",   348.038E-03,   313.680E-03,   150.783E-03,   8.23227E-03
C:/temp/dataset/6/17_6.odb,Step-1,Increment      1: Step Time =    1.000,"PART-1-1",           178,      -12.6598,      -20.1148,            0.,NA,NA,"",   142.826E-03,   104.938E-03,   96.8878E-03,   11.1940E-03
C:/temp/dataset/6/17_6.odb,Step-1,Increment      1: Step Time =    1.000,"PART-1-1",           179,      -8.70618,       22.9331,            0.,NA,NA,"",       1.99034,       1.98986,   43.6454E-03,   119.448E-06
C:/temp/dataset/6/17_6.odb,Step-1,Increment      1: Step Time =    1.000,"PART-1-1",           180,      -9.21222,       15.1634,            0.,NA,NA,"",       1.55147,       1.54912,   85.3685E-03,   1.33100E-03
C:/temp/dataset/6/17_6.odb,Step-1,Increment      1: Step Time =    1.000,"PART-1-1",           181,      -9.55138,       19.8926,            0.,NA,NA,"",       1.82179,       1.81922,   96.7938E-03,   256.841E-06
C:/temp/dataset/6/17_6.odb,Step-1,Increment      1: Step Time =    1.000,"PART-1-1",           182,      -8.92203,       8.32966,            0.,NA,NA,"",       1.12909,       1.12622,   80.4874E-03,   10.6127E-03
C:/temp/dataset/6/17_6.odb,Step-1,Increment      1: Step Time =    1.000,"PART-1-1",           183,      -9.17670,       12.8809,            0.,NA,NA,"",       1.41648,       1.41385,   86.2464E-03,   3.75584E-03
C:/temp/dataset/6/17_6.odb,Step-1,Increment      1: Step Time =    1.000,"PART-1-1",           184,      -9.09923,       10.6117,            0.,NA,NA,"",       1.27593,       1.27309,   85.1557E-03,   7.12096E-03
C:/temp/dataset/6/17_6.odb,Step-1,Increment      1: Step Time =    1.000,"PART-1-1",           185,      -9.30530,       17.5014,            0.,NA,NA,"",       1.68560,       1.68336,   87.0381E-03,   278.416E-06
C:/temp/dataset/6/17_6.odb,Step-1,Increment      1: Step Time =    1.000,"PART-1-1",           186,      -8.37864,       6.17865,            0.,NA,NA,"",   989.730E-03,   988.020E-03,   58.1452E-03,   13.4712E-03
C:/temp/dataset/6/17_6.odb,Step-1,Increment      1: Step Time =    1.000,"PART-1-1",           187,       10.9988,      -10.2527,            0.,NA,NA,"",   473.952E-03,   453.889E-03,  -136.437E-03,   8.49117E-03
C:/temp/dataset/6/17_6.odb,Step-1,Increment      1: Step Time =    1.000,"PART-1-1",           188,       10.8643,      -17.5211,            0.,NA,NA,"",   212.201E-03,   190.846E-03,  -92.7752E-03,   9.88352E-03
C:/temp/dataset/6/17_6.odb,Step-1,Increment      1: Step Time =    1.000,"PART-1-1",           189,       11.0508,      -8.01555,            0.,NA,NA,"",   552.940E-03,   533.464E-03,  -145.458E-03,   6.86542E-03
C:/temp/dataset/6/17_6.odb,Step-1,Increment      1: Step Time =    1.000,"PART-1-1",           190,       10.6332,      -2.00908,            0.,NA,NA,"",   703.709E-03,   688.960E-03,  -143.324E-03,   1.76592E-03
C:/temp/dataset/6/17_6.odb,Step-1,Increment      1: Step Time =    1.000,"PART-1-1",           191,       11.1668,      -5.92645,            0.,NA,NA,"",   617.944E-03,   598.961E-03,  -151.989E-03,   4.22369E-03
C:/temp/dataset/6/17_6.odb,Step-1,Increment      1: Step Time =    1.000,"PART-1-1",           192,       10.9732,      -14.9280,            0.,NA,NA,"",   301.573E-03,   279.969E-03,  -112.085E-03,   9.58790E-03
C:/temp/dataset/6/17_6.odb,Step-1,Increment      1: Step Time =    1.000,"PART-1-1",           193,       10.5476,      -23.6927,            0.,NA,NA,"",   63.5541E-03,   49.0625E-03,  -40.3979E-03,   7.99154E-03
C:/temp/dataset/6/17_6.odb,Step-1,Increment      1: Step Time =    1.000,"PART-1-1",           194,       10.5707,      -21.1850,            0.,NA,NA,"",   109.524E-03,   91.9994E-03,  -59.4283E-03,   8.98181E-03
C:/temp/dataset/6/17_6.odb,Step-1,Increment      1: Step Time =    1.000,"PART-1-1",           195,       10.9760,      -12.5622,            0.,NA,NA,"",   388.294E-03,   367.566E-03,  -125.168E-03,   9.19064E-03
C:/temp/dataset/6/17_6.odb,Step-1,Increment      1: Step Time =    1.000,"PART-1-1",           196,       11.6229,      -19.2502,            0.,NA,NA,"",   172.171E-03,   143.358E-03,  -95.3498E-03,   10.4275E-03
C:/temp/dataset/6/17_6.odb,Step-1,Increment      1: Step Time =    1.000,"PART-1-1",           197,       11.1609,      -3.97100,            0.,NA,NA,"",   666.829E-03,   649.023E-03,  -153.071E-03,   1.83492E-03
C:/temp/dataset/6/17_6.odb,Step-1,Increment      1: Step Time =    1.000,"PART-1-1",           198,      -9.55101,       25.2781,            0.,NA,NA,"",       2.12558,       2.12377,   87.5996E-03,   50.4242E-06
C:/temp/dataset/6/17_6.odb,Step-1,Increment      1: Step Time =    1.000,"PART-1-1",           199,      -6.13353,       2.97524,            0.,NA,NA,"",   814.687E-03,   814.116E-03,  -30.5028E-03,   9.17763E-03
C:/temp/dataset/6/17_6.odb,Step-1,Increment      1: Step Time =    1.000,"PART-1-1",           200,       8.52809,      -18.5145,            0.,NA,NA,"",   156.083E-03,   151.263E-03,  -38.4898E-03,   8.47159E-03
C:/temp/dataset/6/17_6.odb,Step-1,Increment      1: Step Time =    1.000,"PART-1-1",           201,      -9.31256,      -6.57829,            0.,NA,NA,"",   527.391E-03,   520.979E-03,   81.9908E-03,   4.55885E-03
C:/temp/dataset/6/17_6.odb,Step-1,Increment      1: Step Time =    1.000,"PART-1-1",           202,      -7.82061,      -4.24854,            0.,NA,NA,"",   607.349E-03,   606.406E-03,   33.8291E-03,   6.13663E-03
C:/temp/dataset/6/17_6.odb,Step-1,Increment      1: Step Time =    1.000,"PART-1-1",           203,       7.55002,      -20.4955,            0.,NA,NA,"",   94.2531E-03,   93.3307E-03,  -13.1536E-03,   7.47150E-03
C:/temp/dataset/6/17_6.odb,Step-1,Increment      1: Step Time =    1.000,"PART-1-1",           204,      -9.18944,      -8.43706,            0.,NA,NA,"",   457.777E-03,   451.703E-03,   74.3207E-03,   5.68300E-03
C:/temp/dataset/6/17_6.odb,Step-1,Increment      1: Step Time =    1.000,"PART-1-1",           205,      -12.3720,       27.4312,            0.,NA,NA,"",       2.26321,       2.25005,   243.696E-03,   11.9570E-06
C:/temp/dataset/6/17_6.odb,Step-1,Increment      1: Step Time =    1.000,"PART-1-1",           206,      -10.3791,       22.2070,            0.,NA,NA,"",       1.95631,       1.95133,   139.578E-03,   158.043E-06
C:/temp/dataset/6/17_6.odb,Step-1,Increment      1: Step Time =    1.000,"PART-1-1",           207,       3.40286,  -884.176E-03,            0.,NA,NA,"",   706.042E-03,   702.039E-03,  -75.0835E-03,   11.9828E-03
C:/temp/dataset/6/17_6.odb,Step-1,Increment      1: Step Time =    1.000,"PART-1-1",           208,       7.88020,       1.44192,            0.,NA,NA,"",   746.870E-03,   739.397E-03,  -105.393E-03,   2.11191E-03
C:/temp/dataset/6/17_6.odb,Step-1,Increment      1: Step Time =    1.000,"PART-1-1",           209,      -1.17287,  -897.893E-03,            0.,NA,NA,"",   711.202E-03,   706.272E-03,  -83.5954E-03,   11.6974E-03
C:/temp/dataset/6/17_6.odb,Step-1,Increment      1: Step Time =    1.000,"PART-1-1",           210,       10.4014,      -25.9274,            0.,NA,NA,"",   32.5632E-03,   22.5426E-03,  -23.4987E-03,   7.23727E-03
C:/temp/dataset/6/17_6.odb,Step-1,Increment      1: Step Time =    1.000,"PART-1-1",           211,       2.00108,      -24.8239,            0.,NA,NA,"",   37.0786E-03,   36.5520E-03,   6.22713E-03,   6.93576E-03
C:/temp/dataset/6/17_6.odb,Step-1,Increment      1: Step Time =    1.000,"PART-1-1",           212,      -4.80900,      -25.1606,            0.,NA,NA,"",   28.0927E-03,   27.7953E-03,  -4.07660E-03,   4.63562E-03
C:/temp/dataset/6/17_6.odb,Step-1,Increment      1: Step Time =    1.000,"PART-1-1",           213,      -11.5765,       21.3848,            0.,NA,NA,"",       1.91798,       1.90659,   208.653E-03,   194.776E-06
C:/temp/dataset/6/17_6.odb,Step-1,Increment      1: Step Time =    1.000,"PART-1-1",           214,      -11.0630,       10.3038,            0.,NA,NA,"",       1.27626,       1.26241,   187.518E-03,   9.05711E-03
C:/temp/dataset/6/17_6.odb,Step-1,Increment      1: Step Time =    1.000,"PART-1-1",           215,      -10.2832,  -591.021E-03,            0.,NA,NA,"",   725.280E-03,   715.138E-03,   120.868E-03,   6.10744E-03
C:/temp/dataset/6/17_6.odb,Step-1,Increment      1: Step Time =    1.000,"PART-1-1",           216,      -11.1869,      -5.64306,            0.,NA,NA,"",   572.762E-03,   554.300E-03,   144.248E-03,   3.68998E-03
C:/temp/dataset/6/17_6.odb,Step-1,Increment      1: Step Time =    1.000,"PART-1-1",           217,      -9.48237,      -10.3825,            0.,NA,NA,"",   388.224E-03,   380.379E-03,   77.6516E-03,   5.82986E-03
C:/temp/dataset/6/17_6.odb,Step-1,Increment      1: Step Time =    1.000,"PART-1-1",           218,      -10.0191,      -20.7277,            0.,NA,NA,"",   94.1186E-03,   81.0189E-03,   47.8985E-03,   6.81583E-03
C:/temp/dataset/6/17_6.odb,Step-1,Increment      1: Step Time =    1.000,"PART-1-1",           219,      -12.8377,      -24.8331,            0.,NA,NA,"",   64.5058E-03,   39.2655E-03,   51.1782E-03,   11.8802E-03
C:/temp/dataset/6/17_6.odb,Step-1,Increment      1: Step Time =    1.000,"PART-1-1",           220,  -752.185E-03,      -25.0561,            0.,NA,NA,"",   34.5671E-03,   34.5618E-03,  -608.313E-06,   6.38717E-03
C:/temp/dataset/6/17_6.odb,Step-1,Increment      1: Step Time =    1.000,"PART-1-1",           221,      -11.3411,      -22.5061,            0.,NA,NA,"",   80.8231E-03,   59.2519E-03,   54.9689E-03,   8.86321E-03
C:/temp/dataset/6/17_6.odb,Step-1,Increment      1: Step Time =    1.000,"PART-1-1",           222,       5.90860,      -26.1342,            0.,NA,NA,"",   20.1264E-03,   20.0308E-03,   1.95992E-03,   3.78084E-03
C:/temp/dataset/6/17_6.odb,Step-1,Increment      1: Step Time =    1.000,"PART-1-1",           223,       3.81352,      -25.8758,            0.,NA,NA,"",   26.3835E-03,   25.7467E-03,   5.76181E-03,   5.78718E-03
C:/temp/dataset/6/17_6.odb,Step-1,Increment      1: Step Time =    1.000,"PART-1-1",           224,      -6.87266,      -25.1947,            0.,NA,NA,"",   24.1897E-03,   24.0611E-03,   2.49073E-03,   2.41803E-03
C:/temp/dataset/6/17_6.odb,Step-1,Increment      1: Step Time =    1.000,"PART-1-1",           225,       9.77381,   336.875E-03,            0.,NA,NA,"",   737.371E-03,   725.720E-03,  -130.561E-03,   2.19105E-03
C:/temp/dataset/6/17_6.odb,Step-1,Increment      1: Step Time =    1.000,"PART-1-1",           226,       4.59800,   29.7464E-03,            0.,NA,NA,"",   721.108E-03,   716.940E-03,  -77.4233E-03,   9.38126E-03
C:/temp/dataset/6/17_6.odb,Step-1,Increment      1: Step Time =    1.000,"PART-1-1",           227,      -11.1551,       12.6912,            0.,NA,NA,"",       1.42387,       1.41051,   194.616E-03,   5.42096E-03
C:/temp/dataset/6/17_6.odb,Step-1,Increment      1: Step Time =    1.000,"PART-1-1",           228,      -11.2689,       17.3859,            0.,NA,NA,"",       1.69204,       1.68037,   198.342E-03,   410.522E-06
C:/temp/dataset/6/17_6.odb,Step-1,Increment      1: Step Time =    1.000,"PART-1-1",           229,      -11.2102,       15.0558,            0.,NA,NA,"",       1.56140,       1.54881,   197.858E-03,   2.09377E-03
C:/temp/dataset/6/17_6.odb,Step-1,Increment      1: Step Time =    1.000,"PART-1-1",           230,      -10.8139,       7.79620,            0.,NA,NA,"",       1.11526,       1.10202,   171.315E-03,   11.2441E-03
C:/temp/dataset/6/17_6.odb,Step-1,Increment      1: Step Time =    1.000,"PART-1-1",           231,      -10.1648,       4.85487,            0.,NA,NA,"",   936.880E-03,   927.271E-03,   133.843E-03,   8.76513E-03
C:/temp/dataset/6/17_6.odb,Step-1,Increment      1: Step Time =    1.000,"PART-1-1",           232,      -10.4473,       2.01195,            0.,NA,NA,"",   814.995E-03,   803.700E-03,   135.214E-03,   6.67905E-03
C:/temp/dataset/6/17_6.odb,Step-1,Increment      1: Step Time =    1.000,"PART-1-1",           233,      -10.4810,      -3.59789,            0.,NA,NA,"",   634.272E-03,   622.103E-03,   123.647E-03,   3.58336E-03
C:/temp/dataset/6/17_6.odb,Step-1,Increment      1: Step Time =    1.000,"PART-1-1",           234,      -9.89141,      -15.1395,            0.,NA,NA,"",   231.700E-03,   219.965E-03,   72.8018E-03,   6.32736E-03
C:/temp/dataset/6/17_6.odb,Step-1,Increment      1: Step Time =    1.000,"PART-1-1",           235,      -9.95744,      -17.7636,            0.,NA,NA,"",   158.116E-03,   145.017E-03,   63.0134E-03,   7.23163E-03
C:/temp/dataset/6/17_6.odb,Step-1,Increment      1: Step Time =    1.000,"PART-1-1",           236,      -3.63694,      -1.16253,            0.,NA,NA,"",   703.751E-03,   700.353E-03,  -69.0762E-03,   7.76721E-03
C:/temp/dataset/6/17_6.odb,Step-1,Increment      1: Step Time =    1.000,"PART-1-1",           237,      -7.00580,      -22.7773,            0.,NA,NA,"",   45.5129E-03,   45.4148E-03,   2.98537E-03,   830.323E-06
C:/temp/dataset/6/17_6.odb,Step-1,Increment      1: Step Time =    1.000,"PART-1-1",           238,       7.08723,      -4.67483,            0.,NA,NA,"",   644.259E-03,   640.218E-03,  -72.0488E-03,   8.13269E-03
C:/temp/dataset/6/17_6.odb,Step-1,Increment      1: Step Time =    1.000,"PART-1-1",           239,       8.96532,      -10.1697,            0.,NA,NA,"",   462.260E-03,   454.376E-03,  -85.0073E-03,   9.16595E-03
C:/temp/dataset/6/17_6.odb,Step-1,Increment      1: Step Time =    1.000,"PART-1-1",           240,       8.99874,      -7.82238,            0.,NA,NA,"",   549.124E-03,   540.298E-03,  -98.0594E-03,   9.47170E-03
C:/temp/dataset/6/17_6.odb,Step-1,Increment      1: Step Time =    1.000,"PART-1-1",           241,       8.96760,      -14.8663,            0.,NA,NA,"",   284.665E-03,   277.700E-03,  -62.5861E-03,   8.47895E-03
C:/temp/dataset/6/17_6.odb,Step-1,Increment      1: Step Time =    1.000,"PART-1-1",           242,      -12.0836,       24.5335,            0.,NA,NA,"",       2.09847,       2.08560,   232.056E-03,   63.7363E-06
C:/temp/dataset/6/17_6.odb,Step-1,Increment      1: Step Time =    1.000,"PART-1-1",           243,       9.21542,      -5.66363,            0.,NA,NA,"",   619.361E-03,   609.485E-03,  -110.165E-03,   6.44765E-03
C:/temp/dataset/6/17_6.odb,Step-1,Increment      1: Step Time =    1.000,"PART-1-1",           244,       8.72776,      -2.97127,            0.,NA,NA,"",   681.709E-03,   673.364E-03,  -106.341E-03,   3.62176E-03
C:/temp/dataset/6/17_6.odb,Step-1,Increment      1: Step Time =    1.000,"PART-1-1",           245,       9.39471,      -19.4524,            0.,NA,NA,"",   137.152E-03,   127.618E-03,  -50.2431E-03,   8.76218E-03
C:/temp/dataset/6/17_6.odb,Step-1,Increment      1: Step Time =    1.000,"PART-1-1",           246,       8.06548,      -22.0810,            0.,NA,NA,"",   67.0651E-03,   65.1864E-03,  -15.7626E-03,   3.96820E-03
C:/temp/dataset/6/17_6.odb,Step-1,Increment      1: Step Time =    1.000,"PART-1-1",           247,      -7.53738,       4.79758,            0.,NA,NA,"",   903.308E-03,   903.043E-03,   21.8886E-03,   12.2886E-03
C:/temp/dataset/6/17_6.odb,Step-1,Increment      1: Step Time =    1.000,"PART-1-1",           248,      -10.8025,      -24.3532,            0.,NA,NA,"",   49.8105E-03,   35.4512E-03,   34.9900E-03,   7.58186E-03
C:/temp/dataset/6/17_6.odb,Step-1,Increment      1: Step Time =    1.000,"PART-1-1",           249,       5.82981,      -2.08643,            0.,NA,NA,"",   690.293E-03,   686.450E-03,  -72.7387E-03,   9.90071E-03
C:/temp/dataset/6/17_6.odb,Step-1,Increment      1: Step Time =    1.000,"PART-1-1",           250,      -8.67175,      -2.53401,            0.,NA,NA,"",   659.437E-03,   656.692E-03,   60.1042E-03,   4.96332E-03
C:/temp/dataset/6/17_6.odb,Step-1,Increment      1: Step Time =    1.000,"PART-1-1",           251,       5.78686,      -22.7214,            0.,NA,NA,"",   54.2819E-03,   53.6127E-03,   8.49724E-03,   4.49203E-03
C:/temp/dataset/6/17_6.odb,Step-1,Increment      1: Step Time =    1.000,"PART-1-1",           252,      -8.27594,       1.60152,            0.,NA,NA,"",   780.470E-03,   779.086E-03,   46.4756E-03,   5.51934E-03
C:/temp/dataset/6/17_6.odb,Step-1,Increment      1: Step Time =    1.000,"PART-1-1",           253,       8.25490,      -24.0061,            0.,NA,NA,"",   41.3545E-03,   39.2529E-03,  -13.0155E-03,   2.72734E-03
C:/temp/dataset/6/17_6.odb,Step-1,Increment      1: Step Time =    1.000,"PART-1-1",           254,      -9.04303,      -23.2600,            0.,NA,NA,"",   47.9104E-03,   42.3332E-03,   22.4343E-03,   4.25891E-03
C:/temp/dataset/6/17_6.odb,Step-1,Increment      1: Step Time =    1.000,"PART-1-1",           255,       7.61656,      -1.09448,            0.,NA,NA,"",   710.617E-03,   704.241E-03,  -94.9830E-03,   4.30198E-03
C:/temp/dataset/6/17_6.odb,Step-1,Increment      1: Step Time =    1.000,"PART-1-1",           256,      -4.02262,   861.151E-03,            0.,NA,NA,"",   752.400E-03,   749.414E-03,  -66.9592E-03,   8.89600E-03
C:/temp/dataset/6/17_6.odb,Step-1,Increment      1: Step Time =    1.000,"PART-1-1",           257,  -104.141E-03,       1.31276,            0.,NA,NA,"",   750.235E-03,   745.674E-03,  -82.5977E-03,   12.7090E-03
C:/temp/dataset/6/17_6.odb,Step-1,Increment      1: Step Time =    1.000,"PART-1-1",           258,       3.72123,      -23.4419,            0.,NA,NA,"",   48.7468E-03,   47.3346E-03,   11.6485E-03,   7.84265E-03
C:/temp/dataset/6/17_6.odb,Step-1,Increment      1: Step Time =    1.000,"PART-1-1",           259,      -10.7950,      -8.39617,            0.,NA,NA,"",   472.079E-03,   455.526E-03,   123.913E-03,   5.68185E-03
C:/temp/dataset/6/17_6.odb,Step-1,Increment      1: Step Time =    1.000,"PART-1-1",           260,      -1.85786,       1.02916,            0.,NA,NA,"",   752.024E-03,   747.498E-03,  -82.3792E-03,   13.5563E-03
C:/temp/dataset/6/17_6.odb,Step-1,Increment      1: Step Time =    1.000,"PART-1-1",           261,      -6.46179,      -1.33856,            0.,NA,NA,"",   693.129E-03,   693.029E-03,  -11.7260E-03,   2.64617E-03
C:/temp/dataset/6/17_6.odb,Step-1,Increment      1: Step Time =    1.000,"PART-1-1",           262,      -11.1078,      -7.00587,            0.,NA,NA,"",   524.854E-03,   506.350E-03,   138.133E-03,   4.61034E-03
C:/temp/dataset/6/17_6.odb,Step-1,Increment      1: Step Time =    1.000,"PART-1-1",           263,      -5.52697,      -3.44125,            0.,NA,NA,"",   642.092E-03,   641.127E-03,  -35.1844E-03,   5.46205E-03
C:/temp/dataset/6/17_6.odb,Step-1,Increment      1: Step Time =    1.000,"PART-1-1",           264,      -9.72268,      -4.98378,            0.,NA,NA,"",   585.202E-03,   577.189E-03,   96.5103E-03,   3.16655E-03
C:/temp/dataset/6/17_6.odb,Step-1,Increment      1: Step Time =    1.000,"PART-1-1",           265,      -6.27329,       4.89376,            0.,NA,NA,"",   894.441E-03,   893.947E-03,  -29.7359E-03,   18.5596E-03
C:/temp/dataset/6/17_6.odb,Step-1,Increment      1: Step Time =    1.000,"PART-1-1",           266,       12.4963,       2.80040,            0.,NA,NA,"",   780.796E-03,   760.300E-03,  -177.723E-03,   2.12215E-03
C:/temp/dataset/6/17_6.odb,Step-1,Increment      1: Step Time =    1.000,"PART-1-1",           267,      -7.37176,      -20.2559,            0.,NA,NA,"",   80.7101E-03,   80.1684E-03,   9.33558E-03,   4.99128E-03
C:/temp/dataset/6/17_6.odb,Step-1,Increment      1: Step Time =    1.000,"PART-1-1",           268,       2.88963,      -21.8777,            0.,NA,NA,"",   60.4462E-03,   59.5324E-03,   10.4709E-03,   9.77963E-03
C:/temp/dataset/6/17_6.odb,Step-1,Increment      1: Step Time =    1.000,"PART-1-1",           269,      -8.05085,       3.52655,            0.,NA,NA,"",   849.039E-03,   848.083E-03,   40.2810E-03,   9.09506E-03
C:/temp/dataset/6/17_6.odb,Step-1,Increment      1: Step Time =    1.000,"PART-1-1",           270,       8.95558,      -12.5395,            0.,NA,NA,"",   371.909E-03,   364.766E-03,  -72.5366E-03,   8.83152E-03
C:/temp/dataset/6/17_6.odb,Step-1,Increment      1: Step Time =    1.000,"PART-1-1",           271,       1.35989,  -223.950E-03,            0.,NA,NA,"",   719.491E-03,   714.959E-03,  -80.6289E-03,   13.3112E-03
C:/temp/dataset/6/17_6.odb,Step-1,Increment      1: Step Time =    1.000,"PART-1-1",           272,      -9.75004,      -12.6533,            0.,NA,NA,"",   310.776E-03,   300.867E-03,   77.8507E-03,   6.11423E-03
C:/temp/dataset/6/17_6.odb,Step-1,Increment      1: Step Time =    1.000,"PART-1-1",           273,      -8.51206,      -25.1011,            0.,NA,NA,"",   27.2705E-03,   24.3448E-03,   12.2886E-03,   3.02223E-03
C:/temp/dataset/6/17_6.odb,Step-1,Increment      1: Step Time =    1.000,"PART-1-1",           274,      -6.19138,   998.181E-03,            0.,NA,NA,"",   755.714E-03,   755.352E-03,  -23.3916E-03,   3.68412E-03
C:/temp/dataset/6/17_6.odb,Step-1,Increment      1: Step Time =    1.000,"PART-1-1",           275,      -2.63339,      -25.0950,            0.,NA,NA,"",   32.4059E-03,   32.1114E-03,  -4.35900E-03,   6.49362E-03
C:/temp/dataset/6/17_6.odb,Step-1,Increment      1: Step Time =    1.000,"PART-1-1",           276,       8.11811,      -26.0558,            0.,NA,NA,"",   20.2267E-03,   18.7106E-03,  -7.68329E-03,   2.89416E-03
C:/temp/dataset/6/17_6.odb,Step-1,Increment      1: Step Time =    1.000,"PART-1-1",           277,       6.33403,   764.508E-03,            0.,NA,NA,"",   734.200E-03,   728.858E-03,  -88.4057E-03,   4.94245E-03
C:/temp/dataset/6/17_6.odb,Step-1,Increment      1: Step Time =    1.000,"PART-1-1",           278,       8.84044,      -16.9880,            0.,NA,NA,"",   208.185E-03,   201.832E-03,  -51.0367E-03,   9.07734E-03
C:/temp/dataset/6/17_6.odb,Step-1,Increment      1: Step Time =    1.000,"PART-1-1",           279,      -11.3950,       19.6047,            0.,NA,NA,"",       1.81691,       1.80569,   201.560E-03,   301.452E-06
C:/temp/dataset/6/17_6.odb,Step-1,Increment      1: Step Time =    1.000,"PART-1-1",           280,      -11.2464,      -2.22607,            0.,NA,NA,"",   683.271E-03,   665.707E-03,   153.928E-03,   5.50251E-03
C:/temp/dataset/6/17_6.odb,Step-1,Increment      1: Step Time =    1.000,"PART-1-1",           281,      -8.41776,  -32.7016E-03,            0.,NA,NA,"",   730.854E-03,   729.078E-03,   50.9270E-03,   4.91862E-03
C:/temp/dataset/6/17_6.odb,Step-1,Increment      1: Step Time =    1.000,"PART-1-1",           282,       4.48255,      -24.5345,            0.,NA,NA,"",   37.1709E-03,   36.1982E-03,   8.44800E-03,   5.97349E-03
C:/temp/dataset/6/17_6.odb,Step-1,Increment      1: Step Time =    1.000,"PART-1-1",           283,       6.11275,      -24.3348,            0.,NA,NA,"",   35.9507E-03,   35.7718E-03,   3.58203E-03,   3.47115E-03
C:/temp/dataset/6/17_6.odb,Step-1,Increment      1: Step Time =    1.000,"PART-1-1",           284,       9.69767,      -4.20039,            0.,NA,NA,"",   657.365E-03,   645.815E-03,  -122.685E-03,   3.65191E-03
C:/temp/dataset/6/17_6.odb,Step-1,Increment      1: Step Time =    1.000,"PART-1-1",           285,       13.8851,      -1.60402,            0.,NA,NA,"",   722.890E-03,   692.649E-03,  -206.901E-03,   3.01763E-03
C:/temp/dataset/6/17_6.odb,Step-1,Increment      1: Step Time =    1.000,"PART-1-1",           286,           15.,   -468.75E-03,            0.,NA,NA,"",   744.485E-03,   710.082E-03,  -223.697E-03,   3.50692E-03
C:/temp/dataset/6/17_6.odb,Step-1,Increment      1: Step Time =    1.000,"PART-1-1",           287,       13.7553,   590.641E-03,            0.,NA,NA,"",   755.277E-03,   728.170E-03,  -200.526E-03,   2.15426E-03
C:/temp/dataset/6/17_6.odb,Step-1,Increment      1: Step Time =    1.000,"PART-1-1",           288,       12.6405,  -544.629E-03,            0.,NA,NA,"",   734.550E-03,   711.736E-03,  -181.648E-03,   2.33451E-03
C:/temp/dataset/6/17_6.odb,Step-1,Increment      1: Step Time =    1.000,"PART-1-1",           289,       6.57104,       2.96720,            0.,NA,NA,"",   762.708E-03,   756.861E-03,  -94.2615E-03,   2.26102E-03
C:/temp/dataset/6/17_6.odb,Step-1,Increment      1: Step Time =    1.000,"PART-1-1",           290,       5.86345,       1.80964,            0.,NA,NA,"",   747.568E-03,   742.455E-03,  -87.2839E-03,   4.34809E-03
C:/temp/dataset/6/17_6.odb,Step-1,Increment      1: Step Time =    1.000,"PART-1-1",           291,       7.10711,       1.10321,            0.,NA,NA,"",   740.498E-03,   734.240E-03,  -96.0691E-03,   3.28403E-03
C:/temp/dataset/6/17_6.odb,Step-1,Increment      1: Step Time =    1.000,"PART-1-1",           292,       7.81470,       2.26078,            0.,NA,NA,"",   757.165E-03,   749.720E-03,  -105.922E-03,   1.80075E-03
C:/temp/dataset/6/17_6.odb,Step-1,Increment      1: Step Time =    1.000,"PART-1-1",           293,       6.97305,      -8.82061,            0.,NA,NA,"",   502.121E-03,   500.513E-03,  -40.1613E-03,   10.3754E-03
C:/temp/dataset/6/17_6.odb,Step-1,Increment      1: Step Time =    1.000,"PART-1-1",           294,       5.98985,      -7.53541,            0.,NA,NA,"",   545.861E-03,   545.301E-03,  -24.7198E-03,   12.5345E-03
C:/temp/dataset/6/17_6.odb,Step-1,Increment      1: Step Time =    1.000,"PART-1-1",           295,            5.,      -8.76875,            0.,NA,NA,"",   494.949E-03,   494.394E-03,   23.4285E-03,   10.6498E-03
C:/temp/dataset/6/17_6.odb,Step-1,Increment      1: Step Time =    1.000,"PART-1-1",           296,       5.98320,      -10.0539,            0.,NA,NA,"",   451.501E-03,   451.501E-03,   76.3789E-06,   7.98723E-03
C:/temp/dataset/6/17_6.odb,Step-1,Increment      1: Step Time =    1.000,"PART-1-1",           297,       12.0429,      -8.05477,            0.,NA,NA,"",   558.570E-03,   532.107E-03,  -169.893E-03,   5.44644E-03
C:/temp/dataset/6/17_6.odb,Step-1,Increment      1: Step Time =    1.000,"PART-1-1",           298,       11.0248,      -9.13413,            0.,NA,NA,"",   514.486E-03,   494.662E-03,  -141.440E-03,   7.65051E-03
C:/temp/dataset/6/17_6.odb,Step-1,Increment      1: Step Time =    1.000,"PART-1-1",           299,       11.9985,      -10.2754,            0.,NA,NA,"",   482.406E-03,   454.183E-03,  -162.582E-03,   7.12000E-03
C:/temp/dataset/6/17_6.odb,Step-1,Increment      1: Step Time =    1.000,"PART-1-1",           300,       13.0166,      -9.19606,            0.,NA,NA,"",   529.861E-03,   493.256E-03,  -193.523E-03,   4.86475E-03
C:/temp/dataset/6/17_6.odb,Step-1,Increment      1: Step Time =    1.000,"PART-1-1",           301,       13.9992,      -14.7549,            0.,NA,NA,"",   354.273E-03,   295.168E-03,  -195.922E-03,   8.94658E-03
C:/temp/dataset/6/17_6.odb,Step-1,Increment      1: Step Time =    1.000,"PART-1-1",           302,       13.0271,      -15.9471,            0.,NA,NA,"",   296.243E-03,   250.722E-03,  -157.792E-03,   9.98330E-03
C:/temp/dataset/6/17_6.odb,Step-1,Increment      1: Step Time =    1.000,"PART-1-1",           303,       14.0279,      -16.9735,            0.,NA,NA,"",   282.679E-03,   221.533E-03,  -175.587E-03,   11.7589E-03
C:/temp/dataset/6/17_6.odb,Step-1,Increment      1: Step Time =    1.000,"PART-1-1",           304,           15.,      -15.7813,            0.,NA,NA,"",   342.880E-03,   264.424E-03,  -218.280E-03,   11.3217E-03
C:/temp/dataset/6/17_6.odb,Step-1,Increment      1: Step Time =    1.000,"PART-1-1",           305,       6.96949,      -18.0995,            0.,NA,NA,"",   160.548E-03,   160.396E-03,  -6.97058E-03,   7.39480E-03
C:/temp/dataset/6/17_6.odb,Step-1,Increment      1: Step Time =    1.000,"PART-1-1",           306,       5.95014,      -17.3335,            0.,NA,NA,"",   188.607E-03,   187.526E-03,   20.1725E-03,   4.09413E-03
C:/temp/dataset/6/17_6.odb,Step-1,Increment      1: Step Time =    1.000,"PART-1-1",           307,            5.,      -18.7625,            0.,NA,NA,"",   147.280E-03,   141.400E-03,   41.2018E-03,   12.7542E-03
C:/temp/dataset/6/17_6.odb,Step-1,Increment      1: Step Time =    1.000,"PART-1-1",           308,       6.01935,      -19.5285,            0.,NA,NA,"",   110.693E-03,   110.135E-03,   11.1007E-03,   12.8157E-03
C:/temp/dataset/6/17_6.odb,Step-1,Increment      1: Step Time =    1.000,"PART-1-1",           309,       7.66098,      -29.0388,            0.,NA,NA,"",   2.25353E-03,   1.60782E-03,  -1.57903E-03,   2.40163E-03
C:/temp/dataset/6/17_6.odb,Step-1,Increment      1: Step Time =    1.000,"PART-1-1",           310,       6.62868,      -28.0660,            0.,NA,NA,"",   6.44465E-03,   6.38555E-03,  -870.723E-06,   2.75460E-03
C:/temp/dataset/6/17_6.odb,Step-1,Increment      1: Step Time =    1.000,"PART-1-1",           311,       5.21770,      -29.0272,            0.,NA,NA,"",   3.50967E-03,   3.50317E-03,   213.492E-06,   2.62471E-03
C:/temp/dataset/6/17_6.odb,Step-1,Increment      1: Step Time =    1.000,"PART-1-1",           312,          6.25,          -30.,            0.,NA,NA,"",            0.,   1.10494E-39,  -1.93636E-39,   1.55814E-03
C:/temp/dataset/6/17_6.odb,Step-1,Increment      1: Step Time =    1.000,"PART-1-1",           313,   162.125E-03,      -28.5454,            0.,NA,NA,"",   9.73999E-03,   9.72586E-03,   524.406E-06,   4.81531E-03
C:/temp/dataset/6/17_6.odb,Step-1,Increment      1: Step Time =    1.000,"PART-1-1",           314,      -1.06934,      -27.3053,            0.,NA,NA,"",   17.8519E-03,   17.8499E-03,  -263.831E-06,   5.00155E-03
C:/temp/dataset/6/17_6.odb,Step-1,Increment      1: Step Time =    1.000,"PART-1-1",           315,      -2.48147,      -28.7599,            0.,NA,NA,"",   7.30038E-03,   7.29810E-03,  -182.428E-06,   4.14857E-03
C:/temp/dataset/6/17_6.odb,Step-1,Increment      1: Step Time =    1.000,"PART-1-1",           316,         -1.25,          -30.,            0.,NA,NA,"",            0.,   3.97500E-39,   530.711E-42,   3.95999E-03
C:/temp/dataset/6/17_6.odb,Step-1,Increment      1: Step Time =    1.000,"PART-1-1",           317,          -15.,        -21.25,            0.,NA,NA,"",   158.660E-03,   99.3484E-03,   123.704E-03,   16.0096E-03
C:/temp/dataset/6/17_6.odb,Step-1,Increment      1: Step Time =    1.000,"PART-1-1",           318,      -13.9888,      -22.4607,            0.,NA,NA,"",   118.186E-03,   73.9221E-03,   92.2137E-03,   13.9244E-03
C:/temp/dataset/6/17_6.odb,Step-1,Increment      1: Step Time =    1.000,"PART-1-1",           319,      -12.8187,      -21.2681,            0.,NA,NA,"",   122.507E-03,   85.1918E-03,   88.0356E-03,   11.5146E-03
C:/temp/dataset/6/17_6.odb,Step-1,Increment      1: Step Time =    1.000,"PART-1-1",           320,      -13.8299,      -20.0574,            0.,NA,NA,"",   163.930E-03,   112.889E-03,   118.865E-03,   13.5569E-03
C:/temp/dataset/6/17_6.odb,Step-1,Increment      1: Step Time =    1.000,"PART-1-1",           321,      -12.5142,      -28.6623,            0.,NA,NA,"",   12.3092E-03,   6.11467E-03,   10.6831E-03,   10.1550E-03
C:/temp/dataset/6/17_6.odb,Step-1,Increment      1: Step Time =    1.000,"PART-1-1",           322,        -11.25,          -30.,            0.,NA,NA,"",            0.,   636.457E-42,   13.9494E-39,   7.23731E-03
C:/temp/dataset/6/17_6.odb,Step-1,Increment      1: Step Time =    1.000,"PART-1-1",           323,      -9.93348,      -28.4464,            0.,NA,NA,"",   7.64847E-03,   3.69440E-03,   6.69705E-03,   5.36729E-03
C:/temp/dataset/6/17_6.odb,Step-1,Increment      1: Step Time =    1.000,"PART-1-1",           324,      -11.1976,      -27.1087,            0.,NA,NA,"",   22.9884E-03,   13.4499E-03,   18.6431E-03,   8.48926E-03
C:/temp/dataset/6/17_6.odb,Step-1,Increment      1: Step Time =    1.000,"PART-1-1",           325,      -7.37036,      -13.8742,            0.,NA,NA,"",   256.200E-03,   256.020E-03,   9.60076E-03,   3.11402E-03
C:/temp/dataset/6/17_6.odb,Step-1,Increment      1: Step Time =    1.000,"PART-1-1",           326,      -6.21015,      -15.0417,            0.,NA,NA,"",   219.916E-03,   218.786E-03,  -22.2640E-03,   2.27715E-03
C:/temp/dataset/6/17_6.odb,Step-1,Increment      1: Step Time =    1.000,"PART-1-1",           327,           -5.,      -13.7188,            0.,NA,NA,"",   267.830E-03,   260.662E-03,  -61.5508E-03,   2.28490E-03
C:/temp/dataset/6/17_6.odb,Step-1,Increment      1: Step Time =    1.000,"PART-1-1",           328,      -6.16021,      -12.5513,            0.,NA,NA,"",   300.293E-03,   299.113E-03,  -26.5940E-03,   1.45281E-03
C:/temp/dataset/6/17_6.odb,Step-1,Increment      1: Step Time =    1.000,"PART-1-1",           329,      -9.33590,      -9.40979,            0.,NA,NA,"",   422.519E-03,   415.605E-03,   76.1267E-03,   5.89892E-03
C:/temp/dataset/6/17_6.odb,Step-1,Increment      1: Step Time =    1.000,"PART-1-1",           330,      -8.33361,      -10.3234,            0.,NA,NA,"",   382.641E-03,   380.215E-03,   43.0165E-03,   4.95007E-03
C:/temp/dataset/6/17_6.odb,Step-1,Increment      1: Step Time =    1.000,"PART-1-1",           331,      -7.16565,      -9.15059,            0.,NA,NA,"",   421.735E-03,   421.647E-03,   8.57350E-03,   4.60924E-03
C:/temp/dataset/6/17_6.odb,Step-1,Increment      1: Step Time =    1.000,"PART-1-1",           332,      -8.16794,      -8.23701,            0.,NA,NA,"",   459.682E-03,   457.675E-03,   42.9088E-03,   5.81079E-03
C:/temp/dataset/6/17_6.odb,Step-1,Increment      1: Step Time =    1.000,"PART-1-1",           333,      -11.1473,      -6.32447,            0.,NA,NA,"",   549.064E-03,   530.581E-03,   141.262E-03,   4.13766E-03
C:/temp/dataset/6/17_6.odb,Step-1,Increment      1: Step Time =    1.000,"PART-1-1",           334,      -10.2102,      -6.79208,            0.,NA,NA,"",   524.929E-03,   513.277E-03,   109.985E-03,   4.53209E-03
C:/temp/dataset/6/17_6.odb,Step-1,Increment      1: Step Time =    1.000,"PART-1-1",           335,      -9.51762,      -5.78103,            0.,NA,NA,"",   556.602E-03,   549.394E-03,   89.2870E-03,   3.56802E-03
C:/temp/dataset/6/17_6.odb,Step-1,Increment      1: Step Time =    1.000,"PART-1-1",           336,      -10.4548,      -5.31342,            0.,NA,NA,"",   578.072E-03,   565.362E-03,   120.551E-03,   3.23778E-03
C:/temp/dataset/6/17_6.odb,Step-1,Increment      1: Step Time =    1.000,"PART-1-1",           337,      -5.04937,      -1.25055,            0.,NA,NA,"",   698.585E-03,   697.066E-03,  -46.0444E-03,   2.98355E-03
C:/temp/dataset/6/17_6.odb,Step-1,Increment      1: Step Time =    1.000,"PART-1-1",           338,      -3.82978,  -150.691E-03,            0.,NA,NA,"",   727.288E-03,   724.127E-03,  -67.7313E-03,   7.98118E-03
C:/temp/dataset/6/17_6.odb,Step-1,Increment      1: Step Time =    1.000,"PART-1-1",           339,      -5.10700,   929.666E-03,            0.,NA,NA,"",   754.064E-03,   752.479E-03,  -48.8540E-03,   5.28163E-03
C:/temp/dataset/6/17_6.odb,Step-1,Increment      1: Step Time =    1.000,"PART-1-1",           340,      -6.32658,  -170.190E-03,            0.,NA,NA,"",   724.002E-03,   723.800E-03,  -17.0746E-03,   2.02658E-03
C:/temp/dataset/6/17_6.odb,Step-1,Increment      1: Step Time =    1.000,"PART-1-1",           341,          -15.,          3.75,            0.,NA,NA,"",   968.849E-03,   904.003E-03,   348.491E-03,   14.5903E-03
C:/temp/dataset/6/17_6.odb,Step-1,Increment      1: Step Time =    1.000,"PART-1-1",           342,      -13.8520,       2.39386,            0.,NA,NA,"",   883.336E-03,   836.596E-03,   283.530E-03,   11.2520E-03
C:/temp/dataset/6/17_6.odb,Step-1,Increment      1: Step Time =    1.000,"PART-1-1",           343,      -12.6820,       3.58697,            0.,NA,NA,"",   913.848E-03,   881.532E-03,   240.873E-03,   8.06942E-03
C:/temp/dataset/6/17_6.odb,Step-1,Increment      1: Step Time =    1.000,"PART-1-1",           344,      -13.8301,       4.94311,            0.,NA,NA,"",       1.00203,   954.479E-03,   305.008E-03,   11.0942E-03
C:/temp/dataset/6/17_6.odb,Step-1,Increment      1: Step Time =    1.000,"PART-1-1",           345,          -15.,         11.25,            0.,NA,NA,"",       1.40958,       1.34947,   407.252E-03,   6.53016E-03
C:/temp/dataset/6/17_6.odb,Step-1,Increment      1: Step Time =    1.000,"PART-1-1",           346,      -14.0083,       10.0442,            0.,NA,NA,"",       1.31373,       1.26737,   345.936E-03,   8.48040E-03
C:/temp/dataset/6/17_6.odb,Step-1,Increment      1: Step Time =    1.000,"PART-1-1",           347,      -13.0572,       11.3141,            0.,NA,NA,"",       1.37111,       1.33875,   296.126E-03,   7.90889E-03
C:/temp/dataset/6/17_6.odb,Step-1,Increment      1: Step Time =    1.000,"PART-1-1",           348,      -14.0489,       12.5200,            0.,NA,NA,"",       1.46209,       1.41867,   353.664E-03,   6.42668E-03
C:/temp/dataset/6/17_6.odb,Step-1,Increment      1: Step Time =    1.000,"PART-1-1",           349,           -5.,       22.7083,            0.,NA,NA,"",       1.97820,       1.97123,  -165.916E-03,   99.0632E-06
C:/temp/dataset/6/17_6.odb,Step-1,Increment      1: Step Time =    1.000,"PART-1-1",           350,      -5.96779,       23.6687,            0.,NA,NA,"",       2.03024,       2.02711,  -112.643E-03,   53.2639E-06
C:/temp/dataset/6/17_6.odb,Step-1,Increment      1: Step Time =    1.000,"PART-1-1",           351,      -6.69567,       22.7251,            0.,NA,NA,"",       1.97618,       1.97495,  -69.9445E-03,   107.583E-06
C:/temp/dataset/6/17_6.odb,Step-1,Increment      1: Step Time =    1.000,"PART-1-1",           352,      -5.72788,       21.7648,            0.,NA,NA,"",       1.92303,       1.91908,  -123.305E-03,   123.896E-06
C:/temp/dataset/6/17_6.odb,Step-1,Increment      1: Step Time =    1.000,"PART-1-1",           353,      -9.95259,       28.8237,            0.,NA,NA,"",       2.32733,       2.32498,   104.591E-03,   9.13541E-06
C:/temp/dataset/6/17_6.odb,Step-1,Increment      1: Step Time =    1.000,"PART-1-1",           354,      -8.67740,       27.7404,            0.,NA,NA,"",       2.26193,       2.26167,   34.1883E-03,   10.8326E-06
C:/temp/dataset/6/17_6.odb,Step-1,Increment      1: Step Time =    1.000,"PART-1-1",           355,      -7.47481,       28.9167,            0.,NA,NA,"",       2.32656,       2.32629,  -35.7338E-03,   5.10789E-06
C:/temp/dataset/6/17_6.odb,Step-1,Increment      1: Step Time =    1.000,"PART-1-1",           356,         -8.75,           30.,            0.,NA,NA,"",       2.38986,       2.38961,   34.6700E-03,   2.66719E-06
C:/temp/dataset/6/17_6.odb,Step-1,Increment      1: Step Time =    1.000,"PART-1-1",           357,      -12.4360,       28.7156,            0.,NA,NA,"",       2.33574,       2.32283,   245.257E-03,   6.00231E-06
C:/temp/dataset/6/17_6.odb,Step-1,Increment      1: Step Time =    1.000,"PART-1-1",           358,        -13.75,           30.,            0.,NA,NA,"",       2.41854,       2.39760,   317.541E-03,   1.11979E-06
C:/temp/dataset/6/17_6.odb,Step-1,Increment      1: Step Time =    1.000,"PART-1-1",           359,          -15.,         28.75,            0.,NA,NA,"",       2.36135,       2.32888,   390.268E-03,   718.699E-09
C:/temp/dataset/6/17_6.odb,Step-1,Increment      1: Step Time =    1.000,"PART-1-1",           360,      -13.6860,       27.4656,            0.,NA,NA,"",       2.27642,       2.25410,   317.978E-03,   5.87440E-06
C:/temp/dataset/6/17_6.odb,Step-1,Increment      1: Step Time =    1.000,"PART-1-1",           361,         -3.75,           -5.,            0.,NA,NA,"",   624.802E-03,   622.066E-03,  -58.4018E-03,   18.5600E-03
C:/temp/dataset/6/17_6.odb,Step-1,Increment      1: Step Time =    1.000,"PART-1-1",           362,      -2.75606,      -4.06584,            0.,NA,NA,"",   650.448E-03,   646.459E-03,  -71.9255E-03,   10.4330E-03
C:/temp/dataset/6/17_6.odb,Step-1,Increment      1: Step Time =    1.000,"PART-1-1",           363,      -4.26954,      -3.28646,            0.,NA,NA,"",   652.944E-03,   650.201E-03,  -59.7867E-03,   7.39413E-03
C:/temp/dataset/6/17_6.odb,Step-1,Increment      1: Step Time =    1.000,"PART-1-1",           364,      -5.26349,      -4.22062,            0.,NA,NA,"",   622.906E-03,   621.393E-03,  -43.3949E-03,   12.8250E-03
C:/temp/dataset/6/17_6.odb,Step-1,Increment      1: Step Time =    1.000,"PART-1-1",           365,   659.099E-03,      -2.85996,            0.,NA,NA,"",   680.811E-03,   675.878E-03,  -81.8073E-03,   9.50975E-03
C:/temp/dataset/6/17_6.odb,Step-1,Increment      1: Step Time =    1.000,"PART-1-1",           366,  -266.865E-03,      -3.97148,            0.,NA,NA,"",   668.764E-03,   663.825E-03,  -81.1243E-03,   5.76017E-03
C:/temp/dataset/6/17_6.odb,Step-1,Increment      1: Step Time =    1.000,"PART-1-1",           367,          1.25,           -5.,            0.,NA,NA,"",   669.926E-03,   665.158E-03,  -79.7828E-03,   2.23012E-03
C:/temp/dataset/6/17_6.odb,Step-1,Increment      1: Step Time =    1.000,"PART-1-1",           368,       2.17596,      -3.88848,            0.,NA,NA,"",   669.931E-03,   665.613E-03,  -75.9362E-03,   5.02026E-03
C:/temp/dataset/6/17_6.odb,Step-1,Increment      1: Step Time =    1.000,"PART-1-1",           369,   93.5104E-03,  -560.922E-03,            0.,NA,NA,"",   716.214E-03,   711.309E-03,  -83.6746E-03,   12.5915E-03
C:/temp/dataset/6/17_6.odb,Step-1,Increment      1: Step Time =    1.000,"PART-1-1",           370,   627.873E-03,   544.404E-03,            0.,NA,NA,"",   734.380E-03,   729.744E-03,  -82.3858E-03,   12.8889E-03
C:/temp/dataset/6/17_6.odb,Step-1,Increment      1: Step Time =    1.000,"PART-1-1",           371,  -981.002E-03,       1.17096,            0.,NA,NA,"",   751.244E-03,   746.666E-03,  -82.8127E-03,   13.2193E-03
C:/temp/dataset/6/17_6.odb,Step-1,Increment      1: Step Time =    1.000,"PART-1-1",           372,      -1.51537,   65.6335E-03,            0.,NA,NA,"",   730.957E-03,   726.205E-03,  -83.2151E-03,   12.4397E-03
C:/temp/dataset/6/17_6.odb,Step-1,Increment      1: Step Time =    1.000,"PART-1-1",           373,       4.11258,       2.54084,            0.,NA,NA,"",   755.741E-03,   751.460E-03,  -80.3204E-03,   6.39674E-03
C:/temp/dataset/6/17_6.odb,Step-1,Increment      1: Step Time =    1.000,"PART-1-1",           374,       3.71515,       1.12833,            0.,NA,NA,"",   737.185E-03,   732.998E-03,  -78.4573E-03,   8.91718E-03
C:/temp/dataset/6/17_6.odb,Step-1,Increment      1: Step Time =    1.000,"PART-1-1",           375,       5.46602,   397.127E-03,            0.,NA,NA,"",   727.629E-03,   723.026E-03,  -81.7157E-03,   6.96736E-03
C:/temp/dataset/6/17_6.odb,Step-1,Increment      1: Step Time =    1.000,"PART-1-1",           376,       8.69518,  -378.803E-03,            0.,NA,NA,"",   724.045E-03,   715.286E-03,  -112.286E-03,   2.70677E-03
C:/temp/dataset/6/17_6.odb,Step-1,Increment      1: Step Time =    1.000,"PART-1-1",           377,       8.82700,   889.396E-03,            0.,NA,NA,"",   742.123E-03,   732.880E-03,  -116.764E-03,   1.74176E-03
C:/temp/dataset/6/17_6.odb,Step-1,Increment      1: Step Time =    1.000,"PART-1-1",           378,       6.97530,  -164.986E-03,            0.,NA,NA,"",   722.526E-03,   716.758E-03,  -91.1188E-03,   4.53876E-03
C:/temp/dataset/6/17_6.odb,Step-1,Increment      1: Step Time =    1.000,"PART-1-1",           379,      -3.65351,      -22.6081,            0.,NA,NA,"",   51.4070E-03,   50.2707E-03,  -10.7488E-03,   6.34102E-03
C:/temp/dataset/6/17_6.odb,Step-1,Increment      1: Step Time =    1.000,"PART-1-1",           380,      -2.48671,      -21.3009,            0.,NA,NA,"",   58.1676E-03,   57.5787E-03,  -8.25656E-03,   3.98691E-03
C:/temp/dataset/6/17_6.odb,Step-1,Increment      1: Step Time =    1.000,"PART-1-1",           381,         -3.75,          -20.,            0.,NA,NA,"",   65.4192E-03,   64.4894E-03,  -10.9904E-03,   9.23812E-03
C:/temp/dataset/6/17_6.odb,Step-1,Increment      1: Step Time =    1.000,"PART-1-1",           382,      -4.91680,      -21.3072,            0.,NA,NA,"",   62.7065E-03,   60.6854E-03,  -15.7922E-03,   8.27859E-03
C:/temp/dataset/6/17_6.odb,Step-1,Increment      1: Step Time =    1.000,"PART-1-1",           383,       12.8399,      -22.4784,            0.,NA,NA,"",   116.272E-03,   79.0852E-03,  -85.2333E-03,   12.5940E-03
C:/temp/dataset/6/17_6.odb,Step-1,Increment      1: Step Time =    1.000,"PART-1-1",           384,       11.7398,      -21.2760,            0.,NA,NA,"",   124.189E-03,   95.8763E-03,  -78.9346E-03,   10.6675E-03
C:/temp/dataset/6/17_6.odb,Step-1,Increment      1: Step Time =    1.000,"PART-1-1",           385,       10.5591,      -22.4389,            0.,NA,NA,"",   84.4796E-03,   68.3065E-03,  -49.7094E-03,   8.40140E-03
C:/temp/dataset/6/17_6.odb,Step-1,Increment      1: Step Time =    1.000,"PART-1-1",           386,       11.6593,      -23.6412,            0.,NA,NA,"",   77.5618E-03,   54.4251E-03,  -55.2607E-03,   10.3068E-03
C:/temp/dataset/6/17_6.odb,Step-1,Increment      1: Step Time =    1.000,"PART-1-1",           387,          8.75,            5.,            0.,NA,NA,"",   794.598E-03,   785.291E-03,  -121.259E-03,   3.50379E-03
C:/temp/dataset/6/17_6.odb,Step-1,Increment      1: Step Time =    1.000,"PART-1-1",           388,       7.62461,       4.03982,            0.,NA,NA,"",   777.825E-03,   770.575E-03,  -105.953E-03,   2.73190E-03
C:/temp/dataset/6/17_6.odb,Step-1,Increment      1: Step Time =    1.000,"PART-1-1",           389,       8.90047,       2.96899,            0.,NA,NA,"",   769.309E-03,   759.786E-03,  -120.669E-03,   1.60925E-03
C:/temp/dataset/6/17_6.odb,Step-1,Increment      1: Step Time =    1.000,"PART-1-1",           390,       10.0259,       3.92917,            0.,NA,NA,"",   786.078E-03,   773.863E-03,  -138.042E-03,   2.27858E-03
C:/temp/dataset/6/17_6.odb,Step-1,Increment      1: Step Time =    1.000,"PART-1-1",           391,      -6.96921,       21.1213,            0.,NA,NA,"",       1.88543,       1.88472,  -51.9075E-03,   164.592E-06
C:/temp/dataset/6/17_6.odb,Step-1,Increment      1: Step Time =    1.000,"PART-1-1",           392,      -6.24133,       19.9816,            0.,NA,NA,"",       1.82134,       1.81904,  -91.5174E-03,   205.729E-06
C:/temp/dataset/6/17_6.odb,Step-1,Increment      1: Step Time =    1.000,"PART-1-1",           393,           -5.,        20.625,            0.,NA,NA,"",       1.86051,       1.85337,  -162.877E-03,   242.133E-06
C:/temp/dataset/6/17_6.odb,Step-1,Increment      1: Step Time =    1.000,"PART-1-1",           394,      -12.9370,       8.81410,            0.,NA,NA,"",       1.21342,       1.18041,   281.125E-03,   10.7073E-03
C:/temp/dataset/6/17_6.odb,Step-1,Increment      1: Step Time =    1.000,"PART-1-1",           395,          -15.,          8.75,            0.,NA,NA,"",       1.26041,       1.19550,   399.270E-03,   9.75256E-03
C:/temp/dataset/6/17_6.odb,Step-1,Increment      1: Step Time =    1.000,"PART-1-1",           396,      -13.9287,       7.51992,            0.,NA,NA,"",       1.15306,       1.10555,   327.603E-03,   11.0231E-03
C:/temp/dataset/6/17_6.odb,Step-1,Increment      1: Step Time =    1.000,"PART-1-1",           397,          -15.,          1.25,            0.,NA,NA,"",   859.625E-03,   798.386E-03,   318.645E-03,   12.6058E-03
C:/temp/dataset/6/17_6.odb,Step-1,Increment      1: Step Time =    1.000,"PART-1-1",           398,      -13.9023,  -59.1614E-03,            0.,NA,NA,"",   790.668E-03,   744.782E-03,   265.435E-03,   9.22107E-03
C:/temp/dataset/6/17_6.odb,Step-1,Increment      1: Step Time =    1.000,"PART-1-1",           399,      -12.7542,       1.08470,            0.,NA,NA,"",   812.573E-03,   780.044E-03,   227.613E-03,   8.25936E-03
C:/temp/dataset/6/17_6.odb,Step-1,Increment      1: Step Time =    1.000,"PART-1-1",           400,          -15.,         -1.25,            0.,NA,NA,"",   768.435E-03,   709.308E-03,   295.591E-03,   9.04107E-03
C:/temp/dataset/6/17_6.odb,Step-1,Increment      1: Step Time =    1.000,"PART-1-1",           401,      -13.9820,      -2.43756,            0.,NA,NA,"",   712.472E-03,   666.005E-03,   253.089E-03,   6.72101E-03
C:/temp/dataset/6/17_6.odb,Step-1,Increment      1: Step Time =    1.000,"PART-1-1",           402,      -12.8843,      -1.24672,            0.,NA,NA,"",   734.439E-03,   700.891E-03,   219.437E-03,   7.33300E-03
C:/temp/dataset/6/17_6.odb,Step-1,Increment      1: Step Time =    1.000,"PART-1-1",           403,      -12.3802,      -13.7897,            0.,NA,NA,"",   307.111E-03,   271.345E-03,   143.836E-03,   8.75957E-03
C:/temp/dataset/6/17_6.odb,Step-1,Increment      1: Step Time =    1.000,"PART-1-1",           404,      -13.6672,      -12.5056,            0.,NA,NA,"",   371.525E-03,   319.333E-03,   189.888E-03,   9.13522E-03
C:/temp/dataset/6/17_6.odb,Step-1,Increment      1: Step Time =    1.000,"PART-1-1",           405,          -15.,        -13.75,            0.,NA,NA,"",   360.294E-03,   285.369E-03,   219.946E-03,   11.6922E-03
C:/temp/dataset/6/17_6.odb,Step-1,Increment      1: Step Time =    1.000,"PART-1-1",           406,      -13.7130,      -15.0341,            0.,NA,NA,"",   292.915E-03,   238.476E-03,   170.084E-03,   10.9518E-03
C:/temp/dataset/6/17_6.odb,Step-1,Increment      1: Step Time =    1.000,"PART-1-1",           407,       9.21271,      -3.58583,            0.,NA,NA,"",   670.230E-03,   660.440E-03,  -114.137E-03,   3.43485E-03
C:/temp/dataset/6/17_6.odb,Step-1,Increment      1: Step Time =    1.000,"PART-1-1",           408,       7.90749,      -3.82305,            0.,NA,NA,"",   663.525E-03,   657.436E-03,  -89.6856E-03,   5.75125E-03
C:/temp/dataset/6/17_6.odb,Step-1,Increment      1: Step Time =    1.000,"PART-1-1",           409,       8.15132,      -5.16923,            0.,NA,NA,"",   631.358E-03,   624.946E-03,  -89.7515E-03,   7.30419E-03
C:/temp/dataset/6/17_6.odb,Step-1,Increment      1: Step Time =    1.000,"PART-1-1",           410,       9.45655,      -4.93201,            0.,NA,NA,"",   639.414E-03,   628.689E-03,  -116.617E-03,   4.57463E-03
C:/temp/dataset/6/17_6.odb,Step-1,Increment      1: Step Time =    1.000,"PART-1-1",           411,       6.91243,      -16.0318,            0.,NA,NA,"",   233.425E-03,   233.361E-03,  -5.47620E-03,   5.85516E-03
C:/temp/dataset/6/17_6.odb,Step-1,Increment      1: Step Time =    1.000,"PART-1-1",           412,       5.96229,      -14.9858,            0.,NA,NA,"",   272.087E-03,   271.213E-03,   21.7941E-03,   2.49075E-03
C:/temp/dataset/6/17_6.odb,Step-1,Increment      1: Step Time =    1.000,"PART-1-1",           413,            5.,      -16.2875,            0.,NA,NA,"",   232.720E-03,   226.468E-03,   53.5801E-03,   2.84908E-03
C:/temp/dataset/6/17_6.odb,Step-1,Increment      1: Step Time =    1.000,"PART-1-1",           414,       6.93910,      -13.7291,            0.,NA,NA,"",   317.496E-03,   317.296E-03,  -11.2606E-03,   5.66387E-03
C:/temp/dataset/6/17_6.odb,Step-1,Increment      1: Step Time =    1.000,"PART-1-1",           415,       5.97681,      -12.5371,            0.,NA,NA,"",   360.620E-03,   360.332E-03,   14.4052E-03,   4.73360E-03
C:/temp/dataset/6/17_6.odb,Step-1,Increment      1: Step Time =    1.000,"PART-1-1",           416,            5.,      -13.7937,            0.,NA,NA,"",   318.173E-03,   313.862E-03,   52.1971E-03,   1.83537E-03
C:/temp/dataset/6/17_6.odb,Step-1,Increment      1: Step Time =    1.000,"PART-1-1",           417,         -1.25,          -20.,            0.,NA,NA,"",   54.8149E-03,   54.7539E-03,  -2.58499E-03,   1.26880E-03
C:/temp/dataset/6/17_6.odb,Step-1,Increment      1: Step Time =    1.000,"PART-1-1",           418,      -1.09514,      -22.7401,            0.,NA,NA,"",   49.8753E-03,   49.8014E-03,  -2.71516E-03,   6.29814E-03
C:/temp/dataset/6/17_6.odb,Step-1,Increment      1: Step Time =    1.000,"PART-1-1",           419,   141.566E-03,      -21.4393,            0.,NA,NA,"",   55.3992E-03,   55.3866E-03,   1.18135E-03,   3.25569E-03
C:/temp/dataset/6/17_6.odb,Step-1,Increment      1: Step Time =    1.000,"PART-1-1",           420,      -7.69236,      -25.1479,            0.,NA,NA,"",   24.8587E-03,   23.8736E-03,   6.92840E-03,   2.18320E-03
C:/temp/dataset/6/17_6.odb,Step-1,Increment      1: Step Time =    1.000,"PART-1-1",           421,      -9.18951,      -25.9970,            0.,NA,NA,"",   22.5005E-03,   17.7669E-03,   13.8060E-03,   4.31125E-03
C:/temp/dataset/6/17_6.odb,Step-1,Increment      1: Step Time =    1.000,"PART-1-1",           422,      -8.56598,      -27.1897,            0.,NA,NA,"",   12.0343E-03,   9.57617E-03,   7.28849E-03,   3.80991E-03
C:/temp/dataset/6/17_6.odb,Step-1,Increment      1: Step Time =    1.000,"PART-1-1",           423,      -7.06883,      -26.3407,            0.,NA,NA,"",   15.9803E-03,   15.6586E-03,   3.19041E-03,   2.56192E-03
C:/temp/dataset/6/17_6.odb,Step-1,Increment      1: Step Time =    1.000,"PART-1-1",           424,      -9.82073,      -13.8964,            0.,NA,NA,"",   270.199E-03,   259.430E-03,   75.5221E-03,   6.23132E-03
C:/temp/dataset/6/17_6.odb,Step-1,Increment      1: Step Time =    1.000,"PART-1-1",           425,      -8.65586,      -15.1239,            0.,NA,NA,"",   221.832E-03,   217.766E-03,   42.2802E-03,   4.68227E-03
C:/temp/dataset/6/17_6.odb,Step-1,Increment      1: Step Time =    1.000,"PART-1-1",           426,      -8.53523,      -12.6467,            0.,NA,NA,"",   301.784E-03,   298.566E-03,   43.9481E-03,   4.56281E-03
C:/temp/dataset/6/17_6.odb,Step-1,Increment      1: Step Time =    1.000,"PART-1-1",           427,      -6.09243,      -10.1071,            0.,NA,NA,"",   385.554E-03,   384.491E-03,  -28.6202E-03,   2.10348E-03
C:/temp/dataset/6/17_6.odb,Step-1,Increment      1: Step Time =    1.000,"PART-1-1",           428,           -5.,      -8.71250,            0.,NA,NA,"",   439.448E-03,   434.350E-03,  -66.7404E-03,   2.15540E-03
C:/temp/dataset/6/17_6.odb,Step-1,Increment      1: Step Time =    1.000,"PART-1-1",           429,      -6.07322,      -7.75598,            0.,NA,NA,"",   474.779E-03,   474.135E-03,  -24.7208E-03,   4.01489E-03
C:/temp/dataset/6/17_6.odb,Step-1,Increment      1: Step Time =    1.000,"PART-1-1",           430,      -12.7270,      -6.06323,            0.,NA,NA,"",   576.003E-03,   542.260E-03,   194.251E-03,   5.04419E-03
C:/temp/dataset/6/17_6.odb,Step-1,Increment      1: Step Time =    1.000,"PART-1-1",           431,      -13.8025,      -4.90646,            0.,NA,NA,"",   629.818E-03,   584.267E-03,   235.166E-03,   5.09155E-03
C:/temp/dataset/6/17_6.odb,Step-1,Increment      1: Step Time =    1.000,"PART-1-1",           432,          -15.,         -6.25,            0.,NA,NA,"",   605.628E-03,   542.140E-03,   269.944E-03,   5.59347E-03
C:/temp/dataset/6/17_6.odb,Step-1,Increment      1: Step Time =    1.000,"PART-1-1",           433,      -13.9244,      -7.40677,            0.,NA,NA,"",   548.573E-03,   498.746E-03,   228.439E-03,   5.72854E-03
C:/temp/dataset/6/17_6.odb,Step-1,Increment      1: Step Time =    1.000,"PART-1-1",           434,       1.60591,      -1.50045,            0.,NA,NA,"",   698.574E-03,   693.998E-03,  -79.8222E-03,   12.3822E-03
C:/temp/dataset/6/17_6.odb,Step-1,Increment      1: Step Time =    1.000,"PART-1-1",           435,  -853.298E-03,      -1.92043,            0.,NA,NA,"",   693.098E-03,   688.068E-03,  -83.3505E-03,   10.3036E-03
C:/temp/dataset/6/17_6.odb,Step-1,Increment      1: Step Time =    1.000,"PART-1-1",           436,         13.75,          -30.,            0.,NA,NA,"",            0.,   732.460E-42,  -24.5774E-39,   16.1046E-03
C:/temp/dataset/6/17_6.odb,Step-1,Increment      1: Step Time =    1.000,"PART-1-1",           437,           15.,      -28.9063,            0.,NA,NA,"",   26.4376E-03,   17.8997E-03,  -19.4563E-03,   19.7859E-03
C:/temp/dataset/6/17_6.odb,Step-1,Increment      1: Step Time =    1.000,"PART-1-1",           438,       13.8103,      -27.8746,            0.,NA,NA,"",   33.4895E-03,   19.1677E-03,  -27.4616E-03,   15.6052E-03
C:/temp/dataset/6/17_6.odb,Step-1,Increment      1: Step Time =    1.000,"PART-1-1",           439,       12.5603,      -28.9683,            0.,NA,NA,"",   10.1800E-03,   4.33879E-03,  -9.20905E-03,   11.1552E-03
C:/temp/dataset/6/17_6.odb,Step-1,Increment      1: Step Time =    1.000,"PART-1-1",           440,       12.6598,      -26.8678,            0.,NA,NA,"",   39.3847E-03,   22.2496E-03,  -32.4979E-03,   12.7268E-03
C:/temp/dataset/6/17_6.odb,Step-1,Increment      1: Step Time =    1.000,"PART-1-1",           441,       11.5501,      -25.8632,            0.,NA,NA,"",   43.1330E-03,   26.9649E-03,  -33.6652E-03,   10.0995E-03
C:/temp/dataset/6/17_6.odb,Step-1,Increment      1: Step Time =    1.000,"PART-1-1",           442,       10.3093,      -26.9762,            0.,NA,NA,"",   21.0912E-03,   13.2757E-03,  -16.3889E-03,   6.99914E-03
C:/temp/dataset/6/17_6.odb,Step-1,Increment      1: Step Time =    1.000,"PART-1-1",           443,       11.4189,      -27.9808,            0.,NA,NA,"",   16.7607E-03,   8.54211E-03,  -14.4206E-03,   9.62535E-03
C:/temp/dataset/6/17_6.odb,Step-1,Increment      1: Step Time =    1.000,"PART-1-1",           444,       10.1086,      -29.0125,            0.,NA,NA,"",   4.93673E-03,   1.47631E-03,  -4.71082E-03,   5.88442E-03
C:/temp/dataset/6/17_6.odb,Step-1,Increment      1: Step Time =    1.000,"PART-1-1",           445,       9.01957,      -28.0513,            0.,NA,NA,"",   8.02873E-03,   5.05095E-03,  -6.24086E-03,   4.48618E-03
C:/temp/dataset/6/17_6.odb,Step-1,Increment      1: Step Time =    1.000,"PART-1-1",           446,          8.75,          -30.,            0.,NA,NA,"",            0.,  -102.642E-42,  -7.38777E-39,   3.87411E-03
C:/temp/dataset/6/17_6.odb,Step-1,Increment      1: Step Time =    1.000,"PART-1-1",           447,       4.20973,      -27.9354,            0.,NA,NA,"",   10.6044E-03,   10.4346E-03,   1.89022E-03,   4.05347E-03
C:/temp/dataset/6/17_6.odb,Step-1,Increment      1: Step Time =    1.000,"PART-1-1",           448,       2.74203,      -28.9082,            0.,NA,NA,"",   6.30763E-03,   6.25484E-03,   814.336E-06,   4.16897E-03
C:/temp/dataset/6/17_6.odb,Step-1,Increment      1: Step Time =    1.000,"PART-1-1",           449,          3.75,          -30.,            0.,NA,NA,"",            0.,   2.86144E-39,   735.588E-42,   2.88782E-03
C:/temp/dataset/6/17_6.odb,Step-1,Increment      1: Step Time =    1.000,"PART-1-1",           450,       1.16266,      -25.9573,            0.,NA,NA,"",   28.1663E-03,   27.9817E-03,   3.21908E-03,   6.24025E-03
C:/temp/dataset/6/17_6.odb,Step-1,Increment      1: Step Time =    1.000,"PART-1-1",           451,       1.65415,      -27.4536,            0.,NA,NA,"",   16.8015E-03,   16.6545E-03,   2.21756E-03,   5.01559E-03
C:/temp/dataset/6/17_6.odb,Step-1,Increment      1: Step Time =    1.000,"PART-1-1",           452,       3.39879,      -26.8461,            0.,NA,NA,"",   19.3747E-03,   18.9692E-03,   3.94290E-03,   5.27587E-03
C:/temp/dataset/6/17_6.odb,Step-1,Increment      1: Step Time =    1.000,"PART-1-1",           453,       2.90730,      -25.3498,            0.,NA,NA,"",   32.0472E-03,   31.3561E-03,   6.61962E-03,   6.26794E-03
C:/temp/dataset/6/17_6.odb,Step-1,Increment      1: Step Time =    1.000,"PART-1-1",           454,      -3.67645,      -27.5530,            0.,NA,NA,"",   13.3760E-03,   13.3161E-03,  -1.26405E-03,   4.26702E-03
C:/temp/dataset/6/17_6.odb,Step-1,Increment      1: Step Time =    1.000,"PART-1-1",           455,      -2.54816,      -26.3074,            0.,NA,NA,"",   23.4992E-03,   23.3717E-03,  -2.44404E-03,   5.49159E-03
C:/temp/dataset/6/17_6.odb,Step-1,Increment      1: Step Time =    1.000,"PART-1-1",           456,      -3.72120,      -25.1278,            0.,NA,NA,"",   30.2634E-03,   29.8814E-03,  -4.79356E-03,   5.55550E-03
C:/temp/dataset/6/17_6.odb,Step-1,Increment      1: Step Time =    1.000,"PART-1-1",           457,      -4.84948,      -26.3734,            0.,NA,NA,"",   19.0038E-03,   18.8858E-03,  -2.11451E-03,   4.19823E-03
C:/temp/dataset/6/17_6.odb,Step-1,Increment      1: Step Time =    1.000,"PART-1-1",           458,      -4.94498,      -28.7931,            0.,NA,NA,"",   4.85218E-03,   4.85077E-03,   117.026E-06,   2.91029E-03
C:/temp/dataset/6/17_6.odb,Step-1,Increment      1: Step Time =    1.000,"PART-1-1",           459,         -3.75,          -30.,            0.,NA,NA,"",            0.,   2.87190E-39,   613.959E-42,   2.94896E-03
C:/temp/dataset/6/17_6.odb,Step-1,Increment      1: Step Time =    1.000,"PART-1-1",           460,      -6.07748,      -27.5364,            0.,NA,NA,"",   9.71058E-03,   9.68381E-03,   720.549E-06,   3.10028E-03
C:/temp/dataset/6/17_6.odb,Step-1,Increment      1: Step Time =    1.000,"PART-1-1",           461,      -7.38250,      -28.7433,            0.,NA,NA,"",   3.52692E-03,   2.92532E-03,   1.97019E-03,   2.48666E-03
C:/temp/dataset/6/17_6.odb,Step-1,Increment      1: Step Time =    1.000,"PART-1-1",           462,         -6.25,          -30.,            0.,NA,NA,"",            0.,   1.27275E-39,   2.77445E-39,   2.05884E-03
C:/temp/dataset/6/17_6.odb,Step-1,Increment      1: Step Time =    1.000,"PART-1-1",           463,      -8.77755,      -24.1806,            0.,NA,NA,"",   36.7232E-03,   32.6497E-03,   16.8104E-03,   3.41827E-03
C:/temp/dataset/6/17_6.odb,Step-1,Increment      1: Step Time =    1.000,"PART-1-1",           464,      -9.92276,      -23.8066,            0.,NA,NA,"",   48.4963E-03,   38.5738E-03,   29.3931E-03,   5.92176E-03
C:/temp/dataset/6/17_6.odb,Step-1,Increment      1: Step Time =    1.000,"PART-1-1",           465,      -10.3347,      -25.6230,            0.,NA,NA,"",   32.2749E-03,   22.5636E-03,   23.0771E-03,   6.61354E-03
C:/temp/dataset/6/17_6.odb,Step-1,Increment      1: Step Time =    1.000,"PART-1-1",           466,       13.9544,      -21.3085,            0.,NA,NA,"",   161.394E-03,   107.973E-03,  -119.958E-03,   14.9476E-03
C:/temp/dataset/6/17_6.odb,Step-1,Increment      1: Step Time =    1.000,"PART-1-1",           467,       13.8855,      -23.5136,            0.,NA,NA,"",   112.389E-03,   68.9864E-03,  -88.7250E-03,   15.1766E-03
C:/temp/dataset/6/17_6.odb,Step-1,Increment      1: Step Time =    1.000,"PART-1-1",           468,           15.,      -22.3438,            0.,NA,NA,"",   157.153E-03,   96.0112E-03,  -124.414E-03,   17.6059E-03
C:/temp/dataset/6/17_6.odb,Step-1,Increment      1: Step Time =    1.000,"PART-1-1",           469,       12.7349,      -24.6944,            0.,NA,NA,"",   74.0480E-03,   45.9058E-03,  -58.1013E-03,   12.7878E-03
C:/temp/dataset/6/17_6.odb,Step-1,Increment      1: Step Time =    1.000,"PART-1-1",           470,       13.8494,      -25.7120,            0.,NA,NA,"",   71.4291E-03,   41.2450E-03,  -58.3177E-03,   15.1438E-03
C:/temp/dataset/6/17_6.odb,Step-1,Increment      1: Step Time =    1.000,"PART-1-1",           471,           15.,      -24.5313,            0.,NA,NA,"",   109.445E-03,   63.2008E-03,  -89.3529E-03,   17.4309E-03
C:/temp/dataset/6/17_6.odb,Step-1,Increment      1: Step Time =    1.000,"PART-1-1",           472,         11.25,          -30.,            0.,NA,NA,"",            0.,   397.258E-42,  -15.3540E-39,   7.72006E-03
C:/temp/dataset/6/17_6.odb,Step-1,Increment      1: Step Time =    1.000,"PART-1-1",           473,       13.9950,      -12.5232,            0.,NA,NA,"",   430.140E-03,   374.796E-03,  -211.064E-03,   5.98475E-03
C:/temp/dataset/6/17_6.odb,Step-1,Increment      1: Step Time =    1.000,"PART-1-1",           474,       12.9942,      -13.6844,            0.,NA,NA,"",   373.290E-03,   330.373E-03,  -173.778E-03,   8.28431E-03
C:/temp/dataset/6/17_6.odb,Step-1,Increment      1: Step Time =    1.000,"PART-1-1",           475,           15.,      -13.5938,            0.,NA,NA,"",   414.180E-03,   338.894E-03,  -238.110E-03,   7.41950E-03
C:/temp/dataset/6/17_6.odb,Step-1,Increment      1: Step Time =    1.000,"PART-1-1",           476,       9.85236,      -17.2546,            0.,NA,NA,"",   208.738E-03,   195.831E-03,  -72.2645E-03,   9.20315E-03
C:/temp/dataset/6/17_6.odb,Step-1,Increment      1: Step Time =    1.000,"PART-1-1",           477,       8.68427,      -17.7513,            0.,NA,NA,"",   181.510E-03,   175.987E-03,  -44.4347E-03,   8.74549E-03
C:/temp/dataset/6/17_6.odb,Step-1,Increment      1: Step Time =    1.000,"PART-1-1",           478,       8.96140,      -18.9835,            0.,NA,NA,"",   146.019E-03,   138.994E-03,  -44.7455E-03,   8.59650E-03
C:/temp/dataset/6/17_6.odb,Step-1,Increment      1: Step Time =    1.000,"PART-1-1",           479,       10.1295,      -18.4868,            0.,NA,NA,"",   173.241E-03,   158.150E-03,  -70.7175E-03,   9.26210E-03
C:/temp/dataset/6/17_6.odb,Step-1,Increment      1: Step Time =    1.000,"PART-1-1",           480,       11.2436,      -18.3856,            0.,NA,NA,"",   190.942E-03,   165.858E-03,  -94.6039E-03,   10.0097E-03
C:/temp/dataset/6/17_6.odb,Step-1,Increment      1: Step Time =    1.000,"PART-1-1",           481,       12.3956,      -19.2305,            0.,NA,NA,"",   185.196E-03,   147.649E-03,  -111.793E-03,   11.2765E-03
C:/temp/dataset/6/17_6.odb,Step-1,Increment      1: Step Time =    1.000,"PART-1-1",           482,       13.1120,      -18.1414,            0.,NA,NA,"",   228.898E-03,   181.664E-03,  -139.257E-03,   11.5211E-03
C:/temp/dataset/6/17_6.odb,Step-1,Increment      1: Step Time =    1.000,"PART-1-1",           483,       11.9600,      -17.2965,            0.,NA,NA,"",   234.929E-03,   202.256E-03,  -119.517E-03,   10.2064E-03
C:/temp/dataset/6/17_6.odb,Step-1,Increment      1: Step Time =    1.000,"PART-1-1",           484,       14.0024,      -3.77677,            0.,NA,NA,"",   683.894E-03,   649.225E-03,  -214.983E-03,   3.56128E-03
C:/temp/dataset/6/17_6.odb,Step-1,Increment      1: Step Time =    1.000,"PART-1-1",           485,       13.0359,      -4.87313,            0.,NA,NA,"",   654.517E-03,   624.787E-03,  -195.023E-03,   1.91482E-03
C:/temp/dataset/6/17_6.odb,Step-1,Increment      1: Step Time =    1.000,"PART-1-1",           486,       14.0335,      -5.94012,            0.,NA,NA,"",   634.802E-03,   595.039E-03,  -221.136E-03,   3.11271E-03
C:/temp/dataset/6/17_6.odb,Step-1,Increment      1: Step Time =    1.000,"PART-1-1",           487,           15.,      -4.84375,            0.,NA,NA,"",   667.251E-03,   621.766E-03,  -242.137E-03,   5.07877E-03
C:/temp/dataset/6/17_6.odb,Step-1,Increment      1: Step Time =    1.000,"PART-1-1",           488,       13.0510,      -7.01836,            0.,NA,NA,"",   598.046E-03,   564.768E-03,  -196.712E-03,   3.16222E-03
C:/temp/dataset/6/17_6.odb,Step-1,Increment      1: Step Time =    1.000,"PART-1-1",           489,       14.0175,      -8.10950,            0.,NA,NA,"",   574.629E-03,   529.522E-03,  -223.170E-03,   2.28228E-03
C:/temp/dataset/6/17_6.odb,Step-1,Increment      1: Step Time =    1.000,"PART-1-1",           490,           15.,      -7.03125,            0.,NA,NA,"",   615.087E-03,   561.738E-03,  -250.564E-03,   3.50738E-03
C:/temp/dataset/6/17_6.odb,Step-1,Increment      1: Step Time =    1.000,"PART-1-1",           491,         13.75,            5.,            0.,NA,NA,"",   817.777E-03,   793.306E-03,  -198.557E-03,   306.655E-06
C:/temp/dataset/6/17_6.odb,Step-1,Increment      1: Step Time =    1.000,"PART-1-1",           492,       12.4982,       3.90020,            0.,NA,NA,"",   796.218E-03,   776.064E-03,  -178.012E-03,   1.30169E-03
C:/temp/dataset/6/17_6.odb,Step-1,Increment      1: Step Time =    1.000,"PART-1-1",           493,       13.7482,       2.80645,            0.,NA,NA,"",   785.776E-03,   760.278E-03,  -198.548E-03,   1.21973E-03
C:/temp/dataset/6/17_6.odb,Step-1,Increment      1: Step Time =    1.000,"PART-1-1",           494,           15.,       3.90625,            0.,NA,NA,"",   806.356E-03,   776.350E-03,  -217.924E-03,   266.792E-06
C:/temp/dataset/6/17_6.odb,Step-1,Increment      1: Step Time =    1.000,"PART-1-1",           495,         11.25,            5.,            0.,NA,NA,"",   807.279E-03,   791.597E-03,  -158.351E-03,   1.91597E-03
C:/temp/dataset/6/17_6.odb,Step-1,Increment      1: Step Time =    1.000,"PART-1-1",           496,       11.2740,       2.82937,            0.,NA,NA,"",   776.284E-03,   760.204E-03,  -157.186E-03,   2.08691E-03
C:/temp/dataset/6/17_6.odb,Step-1,Increment      1: Step Time =    1.000,"PART-1-1",           497,       11.1422,   446.578E-03,            0.,NA,NA,"",   743.493E-03,   727.371E-03,  -153.991E-03,   2.16992E-03
C:/temp/dataset/6/17_6.odb,Step-1,Increment      1: Step Time =    1.000,"PART-1-1",           498,       10.2035,  -836.101E-03,            0.,NA,NA,"",   721.543E-03,   708.519E-03,  -136.475E-03,   1.94383E-03
C:/temp/dataset/6/17_6.odb,Step-1,Increment      1: Step Time =    1.000,"PART-1-1",           499,       11.7017,      -1.82731,            0.,NA,NA,"",   710.464E-03,   691.224E-03,  -164.224E-03,   1.64678E-03
C:/temp/dataset/6/17_6.odb,Step-1,Increment      1: Step Time =    1.000,"PART-1-1",           500,       12.5035,       1.67834,            0.,NA,NA,"",   765.519E-03,   744.547E-03,  -177.961E-03,   2.32758E-03
C:/temp/dataset/6/17_6.odb,Step-1,Increment      1: Step Time =    1.000,"PART-1-1",           501,       9.91277,       1.59761,            0.,NA,NA,"",   754.980E-03,   742.964E-03,  -134.162E-03,   2.04899E-03
C:/temp/dataset/6/17_6.odb,Step-1,Increment      1: Step Time =    1.000,"PART-1-1",           502,       5.19643,       3.92738,            0.,NA,NA,"",   770.229E-03,   765.488E-03,  -85.3269E-03,   2.32174E-03
C:/temp/dataset/6/17_6.odb,Step-1,Increment      1: Step Time =    1.000,"PART-1-1",           503,          3.75,            5.,            0.,NA,NA,"",   775.750E-03,   771.697E-03,  -79.1898E-03,   469.569E-06
C:/temp/dataset/6/17_6.odb,Step-1,Increment      1: Step Time =    1.000,"PART-1-1",           504,       2.66615,       3.61346,            0.,NA,NA,"",   768.811E-03,   764.888E-03,  -77.5646E-03,   5.32144E-03
C:/temp/dataset/6/17_6.odb,Step-1,Increment      1: Step Time =    1.000,"PART-1-1",           505,      -1.00804,       2.95894,            0.,NA,NA,"",   781.432E-03,   777.426E-03,  -79.0250E-03,   13.1463E-03
C:/temp/dataset/6/17_6.odb,Step-1,Increment      1: Step Time =    1.000,"PART-1-1",           506,   87.8012E-03,       3.95476,            0.,NA,NA,"",   783.417E-03,   779.802E-03,  -75.1695E-03,   9.26204E-03
C:/temp/dataset/6/17_6.odb,Step-1,Increment      1: Step Time =    1.000,"PART-1-1",           507,         -1.25,            5.,            0.,NA,NA,"",   800.093E-03,   797.191E-03,  -68.0833E-03,   13.4098E-03
C:/temp/dataset/6/17_6.odb,Step-1,Increment      1: Step Time =    1.000,"PART-1-1",           508,      -2.34584,       4.00418,            0.,NA,NA,"",   809.608E-03,   806.202E-03,  -74.1776E-03,   15.1438E-03
C:/temp/dataset/6/17_6.odb,Step-1,Increment      1: Step Time =    1.000,"PART-1-1",           509,      -3.27281,       2.96378,            0.,NA,NA,"",   802.363E-03,   798.655E-03,  -77.0444E-03,   14.4646E-03
C:/temp/dataset/6/17_6.odb,Step-1,Increment      1: Step Time =    1.000,"PART-1-1",           510,         -3.75,            5.,            0.,NA,NA,"",   842.651E-03,   840.306E-03,  -62.8163E-03,   29.0949E-03
C:/temp/dataset/6/17_6.odb,Step-1,Increment      1: Step Time =    1.000,"PART-1-1",           511,      -4.67697,       3.95960,            0.,NA,NA,"",   840.584E-03,   837.431E-03,  -72.7447E-03,   24.3050E-03
C:/temp/dataset/6/17_6.odb,Step-1,Increment      1: Step Time =    1.000,"PART-1-1",           512,      -7.93004,       8.58536,            0.,NA,NA,"",       1.14101,       1.14061,   30.2759E-03,   9.38585E-03
C:/temp/dataset/6/17_6.odb,Step-1,Increment      1: Step Time =    1.000,"PART-1-1",           513,      -8.65034,       7.25415,            0.,NA,NA,"",       1.05923,       1.05694,   69.6208E-03,   12.0422E-03
C:/temp/dataset/6/17_6.odb,Step-1,Increment      1: Step Time =    1.000,"PART-1-1",           514,      -7.51010,       6.50150,            0.,NA,NA,"",       1.00393,       1.00375,   18.9754E-03,   14.2700E-03
C:/temp/dataset/6/17_6.odb,Step-1,Increment      1: Step Time =    1.000,"PART-1-1",           515,      -6.78981,       7.83270,            0.,NA,NA,"",       1.09022,       1.08994,  -24.7488E-03,   11.5586E-03
C:/temp/dataset/6/17_6.odb,Step-1,Increment      1: Step Time =    1.000,"PART-1-1",           516,      -7.08495,       12.0475,            0.,NA,NA,"",       1.35856,       1.35825,  -28.9286E-03,   3.31818E-03
C:/temp/dataset/6/17_6.odb,Step-1,Increment      1: Step Time =    1.000,"PART-1-1",           517,      -6.02998,       11.1050,            0.,NA,NA,"",       1.30169,       1.29880,  -86.7307E-03,   2.76832E-03
C:/temp/dataset/6/17_6.odb,Step-1,Increment      1: Step Time =    1.000,"PART-1-1",           518,           -5.,       12.2917,            0.,NA,NA,"",       1.37869,       1.37026,  -152.180E-03,   821.588E-06
C:/temp/dataset/6/17_6.odb,Step-1,Increment      1: Step Time =    1.000,"PART-1-1",           519,      -6.05497,       13.2342,            0.,NA,NA,"",       1.43162,       1.42869,  -91.6170E-03,   993.644E-06
C:/temp/dataset/6/17_6.odb,Step-1,Increment      1: Step Time =    1.000,"PART-1-1",           520,      -9.96524,       21.0498,            0.,NA,NA,"",       1.88897,       1.88527,   118.183E-03,   193.966E-06
C:/temp/dataset/6/17_6.odb,Step-1,Increment      1: Step Time =    1.000,"PART-1-1",           521,      -8.51702,       20.1362,            0.,NA,NA,"",       1.83182,       1.83143,   37.6561E-03,   212.302E-06
C:/temp/dataset/6/17_6.odb,Step-1,Increment      1: Step Time =    1.000,"PART-1-1",           522,      -8.09442,       21.6565,            0.,NA,NA,"",       1.91678,       1.91675,   11.0986E-03,   154.174E-06
C:/temp/dataset/6/17_6.odb,Step-1,Increment      1: Step Time =    1.000,"PART-1-1",           523,      -9.54264,       22.5701,            0.,NA,NA,"",       1.97273,       1.97060,   91.6285E-03,   129.507E-06
C:/temp/dataset/6/17_6.odb,Step-1,Increment      1: Step Time =    1.000,"PART-1-1",           524,      -7.38593,       19.0122,            0.,NA,NA,"",       1.76616,       1.76598,  -24.8284E-03,   187.772E-06
C:/temp/dataset/6/17_6.odb,Step-1,Increment      1: Step Time =    1.000,"PART-1-1",           525,      -6.14460,       17.5723,            0.,NA,NA,"",       1.68453,       1.68193,  -93.5637E-03,   306.247E-06
C:/temp/dataset/6/17_6.odb,Step-1,Increment      1: Step Time =    1.000,"PART-1-1",           526,           -5.,       18.5417,            0.,NA,NA,"",       1.74252,       1.73514,  -160.187E-03,   451.801E-06
C:/temp/dataset/6/17_6.odb,Step-1,Increment      1: Step Time =    1.000,"PART-1-1",           527,      -9.12859,       24.1056,            0.,NA,NA,"",       2.05785,       2.05681,   65.6211E-03,   80.1632E-06
C:/temp/dataset/6/17_6.odb,Step-1,Increment      1: Step Time =    1.000,"PART-1-1",           528,      -7.82088,       23.2603,            0.,NA,NA,"",       2.00699,       2.00698,  -7.04474E-03,   90.2069E-06
C:/temp/dataset/6/17_6.odb,Step-1,Increment      1: Step Time =    1.000,"PART-1-1",           529,      -7.11221,       24.6459,            0.,NA,NA,"",       2.08477,       2.08419,  -49.4100E-03,   55.4157E-06
C:/temp/dataset/6/17_6.odb,Step-1,Increment      1: Step Time =    1.000,"PART-1-1",           530,      -8.41993,       25.4912,            0.,NA,NA,"",       2.13418,       2.13405,   23.2474E-03,   36.2649E-06
C:/temp/dataset/6/17_6.odb,Step-1,Increment      1: Step Time =    1.000,"PART-1-1",           531,           -5.,       28.9583,            0.,NA,NA,"",       2.33132,       2.32468,  -175.794E-03,   625.770E-09
C:/temp/dataset/6/17_6.odb,Step-1,Increment      1: Step Time =    1.000,"PART-1-1",           532,         -6.25,           30.,            0.,NA,NA,"",       2.38799,       2.38561,  -106.755E-03,   719.619E-09
C:/temp/dataset/6/17_6.odb,Step-1,Increment      1: Step Time =    1.000,"PART-1-1",           533,      -6.22481,       27.8751,            0.,NA,NA,"",       2.26779,       2.26537,  -104.778E-03,   4.33173E-06
C:/temp/dataset/6/17_6.odb,Step-1,Increment      1: Step Time =    1.000,"PART-1-1",           534,      -11.1386,       27.5393,            0.,NA,NA,"",       2.26089,       2.25420,   173.748E-03,   12.3545E-06
C:/temp/dataset/6/17_6.odb,Step-1,Increment      1: Step Time =    1.000,"PART-1-1",           535,        -11.25,           30.,            0.,NA,NA,"",       2.40007,       2.39360,   176.102E-03,   2.02425E-06
C:/temp/dataset/6/17_6.odb,Step-1,Increment      1: Step Time =    1.000,"PART-1-1",           536,      -13.1147,       13.7606,            0.,NA,NA,"",       1.51488,       1.48413,   303.714E-03,   5.15575E-03
C:/temp/dataset/6/17_6.odb,Step-1,Increment      1: Step Time =    1.000,"PART-1-1",           537,      -14.0658,       14.9906,            0.,NA,NA,"",       1.59688,       1.55639,   357.329E-03,   3.36185E-03
C:/temp/dataset/6/17_6.odb,Step-1,Increment      1: Step Time =    1.000,"PART-1-1",           538,          -15.,         13.75,            0.,NA,NA,"",       1.55051,       1.49603,   407.397E-03,   5.20568E-03
C:/temp/dataset/6/17_6.odb,Step-1,Increment      1: Step Time =    1.000,"PART-1-1",           539,      -9.42834,       18.6970,            0.,NA,NA,"",       1.75379,       1.75138,   91.9471E-03,   220.713E-06
C:/temp/dataset/6/17_6.odb,Step-1,Increment      1: Step Time =    1.000,"PART-1-1",           540,      -8.29725,       17.5730,            0.,NA,NA,"",       1.68594,       1.68568,   29.5359E-03,   184.750E-06
C:/temp/dataset/6/17_6.odb,Step-1,Increment      1: Step Time =    1.000,"PART-1-1",           541,      -12.7588,       6.21303,            0.,NA,NA,"",       1.05070,       1.01808,   259.765E-03,   9.03500E-03
C:/temp/dataset/6/17_6.odb,Step-1,Increment      1: Step Time =    1.000,"PART-1-1",           542,          -15.,          6.25,            0.,NA,NA,"",       1.10141,       1.03408,   379.186E-03,   13.1789E-03
C:/temp/dataset/6/17_6.odb,Step-1,Increment      1: Step Time =    1.000,"PART-1-1",           543,      -9.01063,       9.47069,            0.,NA,NA,"",       1.20299,       1.20014,   82.6977E-03,   8.92358E-03
C:/temp/dataset/6/17_6.odb,Step-1,Increment      1: Step Time =    1.000,"PART-1-1",           544,      -10.0811,       10.4578,            0.,NA,NA,"",       1.27445,       1.26710,   136.682E-03,   7.88266E-03
C:/temp/dataset/6/17_6.odb,Step-1,Increment      1: Step Time =    1.000,"PART-1-1",           545,      -10.9384,       9.05000,            0.,NA,NA,"",       1.19538,       1.18183,   179.502E-03,   10.0585E-03
C:/temp/dataset/6/17_6.odb,Step-1,Increment      1: Step Time =    1.000,"PART-1-1",           546,      -9.86794,       8.06293,            0.,NA,NA,"",       1.12068,       1.11353,   126.344E-03,   10.7830E-03
C:/temp/dataset/6/17_6.odb,Step-1,Increment      1: Step Time =    1.000,"PART-1-1",           547,      -7.23366,       1.29985,            0.,NA,NA,"",   766.287E-03,   766.238E-03,   8.68070E-03,   3.98472E-03
C:/temp/dataset/6/17_6.odb,Step-1,Increment      1: Step Time =    1.000,"PART-1-1",           548,      -8.34685,   784.410E-03,            0.,NA,NA,"",   755.047E-03,   753.485E-03,   48.5463E-03,   4.84959E-03
C:/temp/dataset/6/17_6.odb,Step-1,Increment      1: Step Time =    1.000,"PART-1-1",           549,      -7.43977,  -685.632E-03,            0.,NA,NA,"",   710.026E-03,   709.812E-03,   17.4145E-03,   3.31144E-03
C:/temp/dataset/6/17_6.odb,Step-1,Increment      1: Step Time =    1.000,"PART-1-1",           550,      -12.4903,      -8.57964,            0.,NA,NA,"",   485.990E-03,   452.877E-03,   176.320E-03,   6.31343E-03
C:/temp/dataset/6/17_6.odb,Step-1,Increment      1: Step Time =    1.000,"PART-1-1",           551,          -15.,         -8.75,            0.,NA,NA,"",   523.275E-03,   455.064E-03,   258.327E-03,   6.88001E-03
C:/temp/dataset/6/17_6.odb,Step-1,Increment      1: Step Time =    1.000,"PART-1-1",           552,      -13.5658,      -9.92286,            0.,NA,NA,"",   456.452E-03,   408.454E-03,   203.750E-03,   7.26331E-03
C:/temp/dataset/6/17_6.odb,Step-1,Increment      1: Step Time =    1.000,"PART-1-1",           553,      -11.9783,      -7.15971,            0.,NA,NA,"",   528.930E-03,   502.325E-03,   165.640E-03,   5.05576E-03
C:/temp/dataset/6/17_6.odb,Step-1,Increment      1: Step Time =    1.000,"PART-1-1",           554,      -11.8960,      -5.22799,            0.,NA,NA,"",   593.848E-03,   569.264E-03,   169.096E-03,   4.09244E-03
C:/temp/dataset/6/17_6.odb,Step-1,Increment      1: Step Time =    1.000,"PART-1-1",           555,      -12.4565,      -16.3452,            0.,NA,NA,"",   231.697E-03,   193.887E-03,   126.851E-03,   9.77030E-03
C:/temp/dataset/6/17_6.odb,Step-1,Increment      1: Step Time =    1.000,"PART-1-1",           556,          -15.,        -16.25,            0.,NA,NA,"",   285.156E-03,   210.834E-03,   191.997E-03,   13.9563E-03
C:/temp/dataset/6/17_6.odb,Step-1,Increment      1: Step Time =    1.000,"PART-1-1",           557,      -13.7435,      -17.5611,            0.,NA,NA,"",   222.380E-03,   168.203E-03,   145.467E-03,   12.5220E-03
C:/temp/dataset/6/17_6.odb,Step-1,Increment      1: Step Time =    1.000,"PART-1-1",           558,      -9.99221,      -8.41662,            0.,NA,NA,"",   464.227E-03,   453.522E-03,   99.1178E-03,   5.56028E-03
C:/temp/dataset/6/17_6.odb,Step-1,Increment      1: Step Time =    1.000,"PART-1-1",           559,      -11.4633,      -9.12095,            0.,NA,NA,"",   453.506E-03,   430.704E-03,   141.992E-03,   6.24566E-03
C:/temp/dataset/6/17_6.odb,Step-1,Increment      1: Step Time =    1.000,"PART-1-1",           560,      -10.8070,      -10.1141,            0.,NA,NA,"",   410.472E-03,   393.130E-03,   118.048E-03,   6.33830E-03
C:/temp/dataset/6/17_6.odb,Step-1,Increment      1: Step Time =    1.000,"PART-1-1",           561,      -13.9189,      -24.9166,            0.,NA,NA,"",   75.9437E-03,   44.6068E-03,   61.4628E-03,   13.4587E-03
C:/temp/dataset/6/17_6.odb,Step-1,Increment      1: Step Time =    1.000,"PART-1-1",           562,      -12.9076,      -23.6273,            0.,NA,NA,"",   83.4051E-03,   52.6618E-03,   64.6773E-03,   11.8273E-03
C:/temp/dataset/6/17_6.odb,Step-1,Increment      1: Step Time =    1.000,"PART-1-1",           563,          -15.,        -23.75,            0.,NA,NA,"",   109.046E-03,   64.1266E-03,   88.1982E-03,   15.4920E-03
C:/temp/dataset/6/17_6.odb,Step-1,Increment      1: Step Time =    1.000,"PART-1-1",           564,          -15.,        -28.75,            0.,NA,NA,"",   26.4974E-03,   18.0427E-03,   19.4056E-03,   17.0701E-03
C:/temp/dataset/6/17_6.odb,Step-1,Increment      1: Step Time =    1.000,"PART-1-1",           565,        -13.75,          -30.,            0.,NA,NA,"",            0.,   461.605E-42,   21.4932E-39,   14.4232E-03
C:/temp/dataset/6/17_6.odb,Step-1,Increment      1: Step Time =    1.000,"PART-1-1",           566,      -13.7642,      -27.4123,            0.,NA,NA,"",   36.4221E-03,   21.1014E-03,   29.6867E-03,   13.5675E-03
C:/temp/dataset/6/17_6.odb,Step-1,Increment      1: Step Time =    1.000,"PART-1-1",           567,            5.,      -6.25625,            0.,NA,NA,"",   586.333E-03,   586.194E-03,  -12.7712E-03,   21.8047E-03
C:/temp/dataset/6/17_6.odb,Step-1,Increment      1: Step Time =    1.000,"PART-1-1",           568,       7.03347,      -6.11658,            0.,NA,NA,"",   602.893E-03,   599.473E-03,  -64.1284E-03,   10.3022E-03
C:/temp/dataset/6/17_6.odb,Step-1,Increment      1: Step Time =    1.000,"PART-1-1",           569,       6.04361,      -4.83741,            0.,NA,NA,"",   644.821E-03,   642.527E-03,  -54.3432E-03,   16.9345E-03
C:/temp/dataset/6/17_6.odb,Step-1,Increment      1: Step Time =    1.000,"PART-1-1",           570,           15.,      -2.65625,            0.,NA,NA,"",   709.685E-03,   670.669E-03,  -232.068E-03,   4.93421E-03
C:/temp/dataset/6/17_6.odb,Step-1,Increment      1: Step Time =    1.000,"PART-1-1",           571,       12.8875,      -2.72454,            0.,NA,NA,"",   699.103E-03,   673.098E-03,  -188.903E-03,   1.79747E-03
C:/temp/dataset/6/17_6.odb,Step-1,Increment      1: Step Time =    1.000,"PART-1-1",           572,       10.0248,      -7.91896,            0.,NA,NA,"",   550.512E-03,   536.956E-03,  -121.415E-03,   8.02242E-03
C:/temp/dataset/6/17_6.odb,Step-1,Increment      1: Step Time =    1.000,"PART-1-1",           573,       8.98203,      -8.99604,            0.,NA,NA,"",   506.000E-03,   497.642E-03,  -91.5868E-03,   9.45777E-03
C:/temp/dataset/6/17_6.odb,Step-1,Increment      1: Step Time =    1.000,"PART-1-1",           574,       9.98204,      -10.2112,            0.,NA,NA,"",   467.608E-03,   454.296E-03,  -110.781E-03,   8.83382E-03
C:/temp/dataset/6/17_6.odb,Step-1,Increment      1: Step Time =    1.000,"PART-1-1",           575,            5.,      -11.2813,            0.,NA,NA,"",   406.813E-03,   404.655E-03,   41.8538E-03,   5.80671E-03
C:/temp/dataset/6/17_6.odb,Step-1,Increment      1: Step Time =    1.000,"PART-1-1",           576,       6.96001,      -11.3098,            0.,NA,NA,"",   408.142E-03,   407.506E-03,  -22.7704E-03,   7.44286E-03
C:/temp/dataset/6/17_6.odb,Step-1,Increment      1: Step Time =    1.000,"PART-1-1",           577,       12.1169,      -5.93459,            0.,NA,NA,"",   622.425E-03,   597.638E-03,  -173.903E-03,   3.20852E-03
C:/temp/dataset/6/17_6.odb,Step-1,Increment      1: Step Time =    1.000,"PART-1-1",           578,       11.1088,      -6.97100,            0.,NA,NA,"",   586.941E-03,   567.661E-03,  -149.203E-03,   5.56064E-03
C:/temp/dataset/6/17_6.odb,Step-1,Increment      1: Step Time =    1.000,"PART-1-1",           579,           15.,      -11.4063,            0.,NA,NA,"",   485.551E-03,   416.229E-03,  -250.026E-03,   3.35886E-03
C:/temp/dataset/6/17_6.odb,Step-1,Increment      1: Step Time =    1.000,"PART-1-1",           580,       13.9991,      -10.3053,            0.,NA,NA,"",   505.056E-03,   454.619E-03,  -220.006E-03,   3.37167E-03
C:/temp/dataset/6/17_6.odb,Step-1,Increment      1: Step Time =    1.000,"PART-1-1",           581,       12.9941,      -11.4223,            0.,NA,NA,"",   453.222E-03,   413.361E-03,  -185.858E-03,   6.57192E-03
C:/temp/dataset/6/17_6.odb,Step-1,Increment      1: Step Time =    1.000,"PART-1-1",           582,           15.,      -9.21875,            0.,NA,NA,"",   553.658E-03,   491.997E-03,  -253.921E-03,   518.585E-06
C:/temp/dataset/6/17_6.odb,Step-1,Increment      1: Step Time =    1.000,"PART-1-1",           583,       9.25975,      -25.9916,            0.,NA,NA,"",   24.8310E-03,   19.8532E-03,  -14.9142E-03,   4.85313E-03
C:/temp/dataset/6/17_6.odb,Step-1,Increment      1: Step Time =    1.000,"PART-1-1",           584,       7.97004,      -27.0667,            0.,NA,NA,"",   12.2089E-03,   11.0482E-03,  -5.19575E-03,   2.87102E-03
C:/temp/dataset/6/17_6.odb,Step-1,Increment      1: Step Time =    1.000,"PART-1-1",           585,       9.98268,      -20.3187,            0.,NA,NA,"",   121.837E-03,   108.456E-03,  -55.5114E-03,   8.67611E-03
C:/temp/dataset/6/17_6.odb,Step-1,Increment      1: Step Time =    1.000,"PART-1-1",           586,       8.47236,      -19.9740,            0.,NA,NA,"",   114.216E-03,   109.987E-03,  -30.7926E-03,   7.86475E-03
C:/temp/dataset/6/17_6.odb,Step-1,Increment      1: Step Time =    1.000,"PART-1-1",           587,       7.80775,      -21.2882,            0.,NA,NA,"",   79.3795E-03,   78.0386E-03,  -14.5283E-03,   5.50200E-03
C:/temp/dataset/6/17_6.odb,Step-1,Increment      1: Step Time =    1.000,"PART-1-1",           588,       9.31806,      -21.6330,            0.,NA,NA,"",   85.5436E-03,   77.5446E-03,  -36.1184E-03,   6.55945E-03
C:/temp/dataset/6/17_6.odb,Step-1,Increment      1: Step Time =    1.000,"PART-1-1",           589,          3.75,          -20.,            0.,NA,NA,"",   73.2505E-03,   72.3617E-03,   11.3765E-03,   14.0686E-03
C:/temp/dataset/6/17_6.odb,Step-1,Increment      1: Step Time =    1.000,"PART-1-1",           590,       2.69482,      -20.9389,            0.,NA,NA,"",   65.0385E-03,   64.2262E-03,   10.2465E-03,   6.09825E-03
C:/temp/dataset/6/17_6.odb,Step-1,Increment      1: Step Time =    1.000,"PART-1-1",           591,       4.10336,      -21.5712,            0.,NA,NA,"",   68.4939E-03,   66.3474E-03,   17.0127E-03,   8.68858E-03
C:/temp/dataset/6/17_6.odb,Step-1,Increment      1: Step Time =    1.000,"PART-1-1",           592,       5.15854,      -20.6323,            0.,NA,NA,"",   83.1668E-03,   80.3164E-03,   21.5870E-03,   13.5467E-03
C:/temp/dataset/6/17_6.odb,Step-1,Increment      1: Step Time =    1.000,"PART-1-1",           593,          1.25,          -20.,            0.,NA,NA,"",   57.5383E-03,   57.4822E-03,   2.53887E-03,   3.60255E-03
C:/temp/dataset/6/17_6.odb,Step-1,Increment      1: Step Time =    1.000,"PART-1-1",           594,       1.58638,      -22.3782,            0.,NA,NA,"",   54.4487E-03,   54.0434E-03,   6.63120E-03,   6.88442E-03
C:/temp/dataset/6/17_6.odb,Step-1,Increment      1: Step Time =    1.000,"PART-1-1",           595,      -7.18878,      -21.5166,            0.,NA,NA,"",   59.9263E-03,   59.7160E-03,   5.01613E-03,   2.44728E-03
C:/temp/dataset/6/17_6.odb,Step-1,Increment      1: Step Time =    1.000,"PART-1-1",           596,      -8.69544,      -20.4918,            0.,NA,NA,"",   85.2800E-03,   80.4408E-03,   28.3190E-03,   5.40457E-03
C:/temp/dataset/6/17_6.odb,Step-1,Increment      1: Step Time =    1.000,"PART-1-1",           597,      -9.53108,      -21.9939,            0.,NA,NA,"",   68.5357E-03,   59.5055E-03,   34.0037E-03,   5.57382E-03
C:/temp/dataset/6/17_6.odb,Step-1,Increment      1: Step Time =    1.000,"PART-1-1",           598,      -8.02442,      -23.0186,            0.,NA,NA,"",   45.1836E-03,   43.4298E-03,   12.4665E-03,   1.95538E-03
C:/temp/dataset/6/17_6.odb,Step-1,Increment      1: Step Time =    1.000,"PART-1-1",           599,           -5.,      -18.7437,            0.,NA,NA,"",   118.767E-03,   113.407E-03,  -35.2784E-03,   11.2515E-03
C:/temp/dataset/6/17_6.odb,Step-1,Increment      1: Step Time =    1.000,"PART-1-1",           600,      -6.23242,      -17.5731,            0.,NA,NA,"",   143.792E-03,   143.129E-03,  -13.7927E-03,   4.48680E-03
C:/temp/dataset/6/17_6.odb,Step-1,Increment      1: Step Time =    1.000,"PART-1-1",           601,      -7.41830,      -18.9573,            0.,NA,NA,"",   107.659E-03,   107.005E-03,   11.8425E-03,   4.82228E-03
C:/temp/dataset/6/17_6.odb,Step-1,Increment      1: Step Time =    1.000,"PART-1-1",           602,      -6.18588,      -20.1280,            0.,NA,NA,"",   77.1629E-03,   76.7847E-03,  -7.63054E-03,   7.28111E-03
C:/temp/dataset/6/17_6.odb,Step-1,Increment      1: Step Time =    1.000,"PART-1-1",           603,           -5.,      -16.2312,            0.,NA,NA,"",   192.090E-03,   184.502E-03,  -53.4553E-03,   5.00482E-03
C:/temp/dataset/6/17_6.odb,Step-1,Increment      1: Step Time =    1.000,"PART-1-1",           604,      -7.44257,      -16.3835,            0.,NA,NA,"",   178.304E-03,   177.919E-03,   11.7092E-03,   4.20283E-03
C:/temp/dataset/6/17_6.odb,Step-1,Increment      1: Step Time =    1.000,"PART-1-1",           605,      -12.6830,      -26.0788,            0.,NA,NA,"",   45.8554E-03,   26.9235E-03,   37.1193E-03,   11.4026E-03
C:/temp/dataset/6/17_6.odb,Step-1,Increment      1: Step Time =    1.000,"PART-1-1",           606,          -15.,        -26.25,            0.,NA,NA,"",   67.3600E-03,   39.2642E-03,   54.7329E-03,   15.2540E-03
C:/temp/dataset/6/17_6.odb,Step-1,Increment      1: Step Time =    1.000,"PART-1-1",           607,         -8.75,          -30.,            0.,NA,NA,"",            0.,   241.127E-42,   7.36168E-39,   3.84040E-03
C:/temp/dataset/6/17_6.odb,Step-1,Increment      1: Step Time =    1.000,"PART-1-1",           608,          -15.,        -18.75,            0.,NA,NA,"",   217.392E-03,   148.074E-03,   159.165E-03,   15.4948E-03
C:/temp/dataset/6/17_6.odb,Step-1,Increment      1: Step Time =    1.000,"PART-1-1",           609,      -12.5734,      -18.8685,            0.,NA,NA,"",   168.948E-03,   130.484E-03,   107.319E-03,   10.7161E-03
C:/temp/dataset/6/17_6.odb,Step-1,Increment      1: Step Time =    1.000,"PART-1-1",           610,           -5.,      -11.2063,            0.,NA,NA,"",   350.903E-03,   344.657E-03,  -65.9136E-03,   486.097E-06
C:/temp/dataset/6/17_6.odb,Step-1,Increment      1: Step Time =    1.000,"PART-1-1",           611,      -7.25264,      -11.4522,            0.,NA,NA,"",   338.168E-03,   338.078E-03,   7.81430E-03,   3.44718E-03
C:/temp/dataset/6/17_6.odb,Step-1,Increment      1: Step Time =    1.000,"PART-1-1",           612,           -5.,      -6.23750,            0.,NA,NA,"",   536.788E-03,   533.477E-03,  -59.5221E-03,   9.76049E-03
C:/temp/dataset/6/17_6.odb,Step-1,Increment      1: Step Time =    1.000,"PART-1-1",           613,      -6.16987,      -5.46941,            0.,NA,NA,"",   571.401E-03,   571.193E-03,  -15.4393E-03,   11.7328E-03
C:/temp/dataset/6/17_6.odb,Step-1,Increment      1: Step Time =    1.000,"PART-1-1",           614,      -7.24309,      -6.98789,            0.,NA,NA,"",   506.741E-03,   506.477E-03,   16.3588E-03,   5.49280E-03
C:/temp/dataset/6/17_6.odb,Step-1,Increment      1: Step Time =    1.000,"PART-1-1",           615,           -5.,       16.4583,            0.,NA,NA,"",       1.62358,       1.61588,  -157.909E-03,   602.898E-06
C:/temp/dataset/6/17_6.odb,Step-1,Increment      1: Step Time =    1.000,"PART-1-1",           616,      -7.23328,       16.4840,            0.,NA,NA,"",       1.62172,       1.62145,  -29.4822E-03,   240.044E-06
C:/temp/dataset/6/17_6.odb,Step-1,Increment      1: Step Time =    1.000,"PART-1-1",           617,      -6.08867,       15.3700,            0.,NA,NA,"",       1.55770,       1.55489,  -93.5843E-03,   355.596E-06
C:/temp/dataset/6/17_6.odb,Step-1,Increment      1: Step Time =    1.000,"PART-1-1",           618,      -13.1522,       16.1892,            0.,NA,NA,"",       1.64644,       1.61781,   305.685E-03,   1.29217E-03
C:/temp/dataset/6/17_6.odb,Step-1,Increment      1: Step Time =    1.000,"PART-1-1",           619,      -14.0864,       17.4486,            0.,NA,NA,"",       1.72566,       1.68867,   355.378E-03,   757.931E-06
C:/temp/dataset/6/17_6.odb,Step-1,Increment      1: Step Time =    1.000,"PART-1-1",           620,          -15.,         16.25,            0.,NA,NA,"",       1.67417,       1.62411,   406.336E-03,   1.11378E-03
C:/temp/dataset/6/17_6.odb,Step-1,Increment      1: Step Time =    1.000,"PART-1-1",           621,           -5.,       24.7917,            0.,NA,NA,"",       2.09587,       2.08904,  -169.149E-03,   34.7324E-06
C:/temp/dataset/6/17_6.odb,Step-1,Increment      1: Step Time =    1.000,"PART-1-1",           622,      -6.14442,       25.7689,            0.,NA,NA,"",       2.14874,       2.14613,  -105.965E-03,   18.3778E-06
C:/temp/dataset/6/17_6.odb,Step-1,Increment      1: Step Time =    1.000,"PART-1-1",           623,           -5.,        26.875,            0.,NA,NA,"",       2.21358,       2.20685,  -172.459E-03,   7.11628E-06
C:/temp/dataset/6/17_6.odb,Step-1,Increment      1: Step Time =    1.000,"PART-1-1",           624,      -7.36924,       26.7689,            0.,NA,NA,"",       2.20497,       2.20464,  -38.2648E-03,   21.2515E-06
C:/temp/dataset/6/17_6.odb,Step-1,Increment      1: Step Time =    1.000,"PART-1-1",           625,      -13.1175,       20.9132,            0.,NA,NA,"",       1.90543,       1.88226,   296.287E-03,   204.300E-06
C:/temp/dataset/6/17_6.odb,Step-1,Increment      1: Step Time =    1.000,"PART-1-1",           626,      -14.0212,       22.2867,            0.,NA,NA,"",       1.99158,       1.96145,   345.114E-03,   102.392E-06
C:/temp/dataset/6/17_6.odb,Step-1,Increment      1: Step Time =    1.000,"PART-1-1",           627,          -15.,         21.25,            0.,NA,NA,"",       1.94633,       1.90438,   401.948E-03,   244.952E-06
C:/temp/dataset/6/17_6.odb,Step-1,Increment      1: Step Time =    1.000,"PART-1-1",           628,      -14.0963,       19.8765,            0.,NA,NA,"",       1.85903,       1.82522,   352.929E-03,   274.117E-06
C:/temp/dataset/6/17_6.odb,Step-1,Increment      1: Step Time =    1.000,"PART-1-1",           629,         -1.25,           -5.,            0.,NA,NA,"",   656.377E-03,   652.062E-03,  -75.1334E-03,   9.12429E-03
C:/temp/dataset/6/17_6.odb,Step-1,Increment      1: Step Time =    1.000,"PART-1-1",           630,      -1.77292,      -3.03732,            0.,NA,NA,"",   672.780E-03,   668.024E-03,  -79.8527E-03,   9.00233E-03
C:/temp/dataset/6/17_6.odb,Step-1,Increment      1: Step Time =    1.000,"PART-1-1",           631,      -12.1053,      -2.30059,            0.,NA,NA,"",   690.366E-03,   664.929E-03,   185.673E-03,   5.80902E-03
C:/temp/dataset/6/17_6.odb,Step-1,Increment      1: Step Time =    1.000,"PART-1-1",           632,      -10.7648,      -1.40855,            0.,NA,NA,"",   704.184E-03,   690.577E-03,   137.762E-03,   5.64813E-03
C:/temp/dataset/6/17_6.odb,Step-1,Increment      1: Step Time =    1.000,"PART-1-1",           633,      -11.5438,  -354.672E-03,            0.,NA,NA,"",   745.724E-03,   725.778E-03,   171.321E-03,   6.88168E-03
C:/temp/dataset/6/17_6.odb,Step-1,Increment      1: Step Time =    1.000,"PART-1-1",           634,          3.75,           -5.,            0.,NA,NA,"",   662.065E-03,   658.561E-03,  -68.0294E-03,   13.0541E-03
C:/temp/dataset/6/17_6.odb,Step-1,Increment      1: Step Time =    1.000,"PART-1-1",           635,       4.52066,      -3.83856,            0.,NA,NA,"",   660.709E-03,   658.365E-03,  -55.6093E-03,   17.9743E-03
C:/temp/dataset/6/17_6.odb,Step-1,Increment      1: Step Time =    1.000,"PART-1-1",           636,       2.94662,      -2.72704,            0.,NA,NA,"",   678.572E-03,   674.767E-03,  -71.7600E-03,   11.9249E-03
C:/temp/dataset/6/17_6.odb,Step-1,Increment      1: Step Time =    1.000,"PART-1-1",           637,       1.50395,       2.56821,            0.,NA,NA,"",   761.918E-03,   757.837E-03,  -78.7519E-03,   9.82272E-03
C:/temp/dataset/6/17_6.odb,Step-1,Increment      1: Step Time =    1.000,"PART-1-1",           638,          1.25,            5.,            0.,NA,NA,"",   781.369E-03,   777.927E-03,  -73.2671E-03,   5.93432E-03
C:/temp/dataset/6/17_6.odb,Step-1,Increment      1: Step Time =    1.000,"PART-1-1",           639,          6.25,            5.,            0.,NA,NA,"",   782.266E-03,   776.601E-03,  -93.9711E-03,   3.17859E-03
C:/temp/dataset/6/17_6.odb,Step-1,Increment      1: Step Time =    1.000,"PART-1-1",           640,  -213.968E-03,      -26.0734,            0.,NA,NA,"",   27.1376E-03,   27.1292E-03,   673.608E-06,   5.95214E-03
C:/temp/dataset/6/17_6.odb,Step-1,Increment      1: Step Time =    1.000,"PART-1-1",           641,       1.14210,      -23.8512,            0.,NA,NA,"",   44.3801E-03,   44.1471E-03,   4.54123E-03,   6.62708E-03
C:/temp/dataset/6/17_6.odb,Step-1,Increment      1: Step Time =    1.000,"PART-1-1",           642,  -234.527E-03,      -23.9674,            0.,NA,NA,"",   42.6702E-03,   42.6652E-03,   650.529E-06,   6.42400E-03
C:/temp/dataset/6/17_6.odb,Step-1,Increment      1: Step Time =    1.000,"PART-1-1",           643,           -5.,        14.375,            0.,NA,NA,"",       1.50266,       1.49458,  -155.628E-03,   353.025E-06
C:/temp/dataset/6/17_6.odb,Step-1,Increment      1: Step Time =    1.000,"PART-1-1",           644,      -7.14364,       14.2292,            0.,NA,NA,"",       1.49013,       1.48982,  -30.6914E-03,   1.31797E-03
C:/temp/dataset/6/17_6.odb,Step-1,Increment      1: Step Time =    1.000,"PART-1-1",           645,           -5.,       6.04167,            0.,NA,NA,"",   977.625E-03,   971.919E-03,  -105.469E-03,   25.6585E-03
C:/temp/dataset/6/17_6.odb,Step-1,Increment      1: Step Time =    1.000,"PART-1-1",           646,      -5.82078,       6.95384,            0.,NA,NA,"",       1.03336,       1.03106,  -68.8889E-03,   11.9987E-03
C:/temp/dataset/6/17_6.odb,Step-1,Increment      1: Step Time =    1.000,"PART-1-1",           647,      -6.45742,       5.85906,            0.,NA,NA,"",   955.241E-03,   954.928E-03,  -24.4472E-03,   16.7364E-03
C:/temp/dataset/6/17_6.odb,Step-1,Increment      1: Step Time =    1.000,"PART-1-1",           648,      -5.63664,       4.94688,            0.,NA,NA,"",   886.028E-03,   884.397E-03,  -53.7444E-03,   27.5209E-03
C:/temp/dataset/6/17_6.odb,Step-1,Increment      1: Step Time =    1.000,"PART-1-1",           649,           -5.,         8.125,            0.,NA,NA,"",       1.11984,       1.11184,  -133.594E-03,   7.71801E-03
C:/temp/dataset/6/17_6.odb,Step-1,Increment      1: Step Time =    1.000,"PART-1-1",           650,      -5.96903,       9.00386,            0.,NA,NA,"",       1.16961,       1.16688,  -79.8276E-03,   5.87841E-03
C:/temp/dataset/6/17_6.odb,Step-1,Increment      1: Step Time =    1.000,"PART-1-1",           651,          -15.,         -3.75,            0.,NA,NA,"",   686.395E-03,   626.371E-03,   280.708E-03,   6.27030E-03
C:/temp/dataset/6/17_6.odb,Step-1,Increment      1: Step Time =    1.000,"PART-1-1",           652,      -12.7846,      -3.59401,            0.,NA,NA,"",   657.815E-03,   624.933E-03,   205.375E-03,   5.53119E-03
C:/temp/dataset/6/17_6.odb,Step-1,Increment      1: Step Time =    1.000,"PART-1-1",           653,      -11.5430,      -4.20540,            0.,NA,NA,"",   623.696E-03,   602.893E-03,   159.739E-03,   3.83518E-03
C:/temp/dataset/6/17_6.odb,Step-1,Increment      1: Step Time =    1.000,"PART-1-1",           654,      -10.1018,      -4.29084,            0.,NA,NA,"",   609.823E-03,   599.860E-03,   109.777E-03,   3.09923E-03
C:/temp/dataset/6/17_6.odb,Step-1,Increment      1: Step Time =    1.000,"PART-1-1",           655,          -15.,        -11.25,            0.,NA,NA,"",   440.555E-03,   368.125E-03,   242.017E-03,   9.19169E-03
C:/temp/dataset/6/17_6.odb,Step-1,Increment      1: Step Time =    1.000,"PART-1-1",           656,      -12.2331,      -11.1785,            0.,NA,NA,"",   391.623E-03,   359.427E-03,   155.502E-03,   7.58491E-03
C:/temp/dataset/6/17_6.odb,Step-1,Increment      1: Step Time =    1.000,"PART-1-1",           657,       5.21391,      -1.02834,            0.,NA,NA,"",   705.640E-03,   701.616E-03,  -75.2533E-03,   9.13481E-03
C:/temp/dataset/6/17_6.odb,Step-1,Increment      1: Step Time =    1.000,"PART-1-1",           658,       6.72319,      -1.59046,            0.,NA,NA,"",   700.345E-03,   695.460E-03,  -82.5686E-03,   6.92157E-03
C:/temp/dataset/6/17_6.odb,Step-1,Increment      1: Step Time =    1.000,"PART-1-1",           659,       10.9187,      -16.2245,            0.,NA,NA,"",   255.533E-03,   233.956E-03,  -102.768E-03,   9.71572E-03
C:/temp/dataset/6/17_6.odb,Step-1,Increment      1: Step Time =    1.000,"PART-1-1",           660,       11.9858,      -14.8752,            0.,NA,NA,"",   316.429E-03,   284.628E-03,  -138.254E-03,   9.27393E-03
C:/temp/dataset/6/17_6.odb,Step-1,Increment      1: Step Time =    1.000,"PART-1-1",           661,       10.9746,      -13.7451,            0.,NA,NA,"",   344.479E-03,   323.314E-03,  -118.886E-03,   9.33784E-03
C:/temp/dataset/6/17_6.odb,Step-1,Increment      1: Step Time =    1.000,"PART-1-1",           662,       11.9830,      -12.5543,            0.,NA,NA,"",   399.816E-03,   369.788E-03,  -152.019E-03,   8.26232E-03
C:/temp/dataset/6/17_6.odb,Step-1,Increment      1: Step Time =    1.000,"PART-1-1",           663,           15.,      -20.1563,            0.,NA,NA,"",   212.227E-03,   140.345E-03,  -159.196E-03,   16.7529E-03
C:/temp/dataset/6/17_6.odb,Step-1,Increment      1: Step Time =    1.000,"PART-1-1",           664,       14.0841,      -19.1367,            0.,NA,NA,"",   219.862E-03,   159.353E-03,  -151.480E-03,   14.0447E-03
C:/temp/dataset/6/17_6.odb,Step-1,Increment      1: Step Time =    1.000,"PART-1-1",           665,       13.0385,      -20.2889,            0.,NA,NA,"",   168.986E-03,   124.657E-03,  -114.091E-03,   12.4137E-03
C:/temp/dataset/6/17_6.odb,Step-1,Increment      1: Step Time =    1.000,"PART-1-1",           666,           15.,      -17.9688,            0.,NA,NA,"",   274.700E-03,   197.061E-03,  -191.381E-03,   14.6132E-03
C:/temp/dataset/6/17_6.odb,Step-1,Increment      1: Step Time =    1.000,"PART-1-1",           667,          1.25,          -30.,            0.,NA,NA,"",            0.,   4.01175E-39,   1.05394E-39,   4.00173E-03
C:/temp/dataset/6/17_6.odb,Step-1,Increment      1: Step Time =    1.000,"PART-1-1",           668,       3.30543,      -22.6598,            0.,NA,NA,"",   56.1465E-03,   54.7715E-03,   12.3497E-03,   8.20187E-03
C:/temp/dataset/6/17_6.odb,Step-1,Increment      1: Step Time =    1.000,"PART-1-1",           669,       2.86115,      -24.1329,            0.,NA,NA,"",   42.7431E-03,   41.8273E-03,   8.80016E-03,   7.33481E-03
C:/temp/dataset/6/17_6.odb,Step-1,Increment      1: Step Time =    1.000,"PART-1-1",           670,      -10.6801,      -21.6169,            0.,NA,NA,"",   86.8046E-03,   69.3068E-03,   52.2648E-03,   7.82705E-03
C:/temp/dataset/6/17_6.odb,Step-1,Increment      1: Step Time =    1.000,"PART-1-1",           671,      -11.3394,      -20.4213,            0.,NA,NA,"",   116.777E-03,   92.4078E-03,   71.3987E-03,   8.99458E-03
C:/temp/dataset/6/17_6.odb,Step-1,Increment      1: Step Time =    1.000,"PART-1-1",           672,      -12.1593,      -22.4638,            0.,NA,NA,"",   92.0314E-03,   63.6330E-03,   66.4878E-03,   10.3684E-03
C:/temp/dataset/6/17_6.odb,Step-1,Increment      1: Step Time =    1.000,"PART-1-1",           673,      -9.92443,      -16.4516,            0.,NA,NA,"",   193.483E-03,   181.054E-03,   68.2284E-03,   6.65030E-03
C:/temp/dataset/6/17_6.odb,Step-1,Increment      1: Step Time =    1.000,"PART-1-1",           674,      -8.71114,      -17.7111,            0.,NA,NA,"",   147.805E-03,   142.804E-03,   38.1213E-03,   5.40209E-03
C:/temp/dataset/6/17_6.odb,Step-1,Increment      1: Step Time =    1.000,"PART-1-1",           675,      -9.25100,      -7.50767,            0.,NA,NA,"",   492.596E-03,   486.354E-03,   78.1751E-03,   5.05484E-03
C:/temp/dataset/6/17_6.odb,Step-1,Increment      1: Step Time =    1.000,"PART-1-1",           676,      -8.32615,      -6.25855,            0.,NA,NA,"",   535.487E-03,   533.071E-03,   50.8097E-03,   5.27706E-03
C:/temp/dataset/6/17_6.odb,Step-1,Increment      1: Step Time =    1.000,"PART-1-1",           677,      -7.58018,      -5.09368,            0.,NA,NA,"",   579.192E-03,   578.535E-03,   27.5786E-03,   5.95022E-03
C:/temp/dataset/6/17_6.odb,Step-1,Increment      1: Step Time =    1.000,"PART-1-1",           678,      -6.67379,      -3.84489,            0.,NA,NA,"",   624.897E-03,   624.890E-03,  -3.08317E-03,   6.11771E-03
C:/temp/dataset/6/17_6.odb,Step-1,Increment      1: Step Time =    1.000,"PART-1-1",           679,      -2.40491,      -1.03021,            0.,NA,NA,"",   708.353E-03,   703.907E-03,  -79.2421E-03,   9.97634E-03
C:/temp/dataset/6/17_6.odb,Step-1,Increment      1: Step Time =    1.000,"PART-1-1",           680,      -3.32453,      -2.14711,            0.,NA,NA,"",   682.509E-03,   678.793E-03,  -71.1202E-03,   8.63756E-03
C:/temp/dataset/6/17_6.odb,Step-1,Increment      1: Step Time =    1.000,"PART-1-1",           681,       10.4745,      -24.8101,            0.,NA,NA,"",   46.8461E-03,   34.5608E-03,  -31.6245E-03,   7.59644E-03
C:/temp/dataset/6/17_6.odb,Step-1,Increment      1: Step Time =    1.000,"PART-1-1",           682,       8.16019,      -23.0435,            0.,NA,NA,"",   53.2387E-03,   51.2733E-03,  -14.3317E-03,   3.17141E-03
C:/temp/dataset/6/17_6.odb,Step-1,Increment      1: Step Time =    1.000,"PART-1-1",           683,       9.40124,      -23.8494,            0.,NA,NA,"",   50.3412E-03,   43.3221E-03,  -25.6403E-03,   5.37005E-03
C:/temp/dataset/6/17_6.odb,Step-1,Increment      1: Step Time =    1.000,"PART-1-1",           684,       5.67200,      -27.0943,            0.,NA,NA,"",   13.5244E-03,   13.4506E-03,   1.41056E-03,   3.58596E-03
C:/temp/dataset/6/17_6.odb,Step-1,Increment      1: Step Time =    1.000,"PART-1-1",           685,       4.86106,      -26.0050,            0.,NA,NA,"",   23.3256E-03,   22.8709E-03,   4.58318E-03,   4.75917E-03
C:/temp/dataset/6/17_6.odb,Step-1,Increment      1: Step Time =    1.000,"PART-1-1",           686,      -2.55341,      -23.8484,            0.,NA,NA,"",   42.2303E-03,   41.8276E-03,  -5.81795E-03,   6.46844E-03
C:/temp/dataset/6/17_6.odb,Step-1,Increment      1: Step Time =    1.000,"PART-1-1",           687,      -4.82130,      -23.8875,            0.,NA,NA,"",   38.2091E-03,   37.6709E-03,  -6.39064E-03,   5.17096E-03
C:/temp/dataset/6/17_6.odb,Step-1,Increment      1: Step Time =    1.000,"PART-1-1",           688,      -5.84083,      -25.1777,            0.,NA,NA,"",   25.7981E-03,   25.7550E-03,  -1.49108E-03,   3.45311E-03
C:/temp/dataset/6/17_6.odb,Step-1,Increment      1: Step Time =    1.000,"PART-1-1",           689,           15.,      -26.7188,            0.,NA,NA,"",   68.4328E-03,   39.5706E-03,  -55.8320E-03,   17.6724E-03
C:/temp/dataset/6/17_6.odb,Step-1,Increment      1: Step Time =    1.000,"PART-1-1",           690,       10.9874,      -11.4075,            0.,NA,NA,"",   431.407E-03,   411.002E-03,  -131.108E-03,   8.77049E-03
C:/temp/dataset/6/17_6.odb,Step-1,Increment      1: Step Time =    1.000,"PART-1-1",           691,       7.29436,      -19.7763,            0.,NA,NA,"",   110.071E-03,   109.509E-03,  -11.1075E-03,   8.02034E-03
C:/temp/dataset/6/17_6.odb,Step-1,Increment      1: Step Time =    1.000,"PART-1-1",           692,       7.78340,      -18.7858,            0.,NA,NA,"",   142.619E-03,   140.840E-03,  -22.4572E-03,   8.35806E-03
C:/temp/dataset/6/17_6.odb,Step-1,Increment      1: Step Time =    1.000,"PART-1-1",           693,       10.8970,      -2.99004,            0.,NA,NA,"",   686.396E-03,   670.253E-03,  -147.988E-03,   1.44824E-03
C:/temp/dataset/6/17_6.odb,Step-1,Increment      1: Step Time =    1.000,"PART-1-1",           694,       12.0828,      -3.88727,            0.,NA,NA,"",   672.252E-03,   649.657E-03,  -172.823E-03,   1.44673E-03
C:/temp/dataset/6/17_6.odb,Step-1,Increment      1: Step Time =    1.000,"PART-1-1",           695,           15.,       1.71875,            0.,NA,NA,"",   775.357E-03,   743.786E-03,  -219.002E-03,   1.61497E-03
C:/temp/dataset/6/17_6.odb,Step-1,Increment      1: Step Time =    1.000,"PART-1-1",           696,       4.00043,  -427.215E-03,            0.,NA,NA,"",   713.391E-03,   709.359E-03,  -75.7448E-03,   10.9338E-03
C:/temp/dataset/6/17_6.odb,Step-1,Increment      1: Step Time =    1.000,"PART-1-1",           697,       2.09609,       1.00148,            0.,NA,NA,"",   737.757E-03,   733.473E-03,  -79.3827E-03,   10.9513E-03
C:/temp/dataset/6/17_6.odb,Step-1,Increment      1: Step Time =    1.000,"PART-1-1",           698,       2.38138,  -554.063E-03,            0.,NA,NA,"",   712.530E-03,   708.265E-03,  -77.8457E-03,   12.5453E-03
C:/temp/dataset/6/17_6.odb,Step-1,Increment      1: Step Time =    1.000,"PART-1-1",           699,   35.7305E-03,       2.11113,            0.,NA,NA,"",   762.478E-03,   758.185E-03,  -80.7983E-03,   12.1627E-03
C:/temp/dataset/6/17_6.odb,Step-1,Increment      1: Step Time =    1.000,"PART-1-1",           700,           -5.,       10.2083,            0.,NA,NA,"",       1.25078,       1.24232,  -145.237E-03,   3.10416E-03
C:/temp/dataset/6/17_6.odb,Step-1,Increment      1: Step Time =    1.000,"PART-1-1",           701,      -6.99901,       9.90050,            0.,NA,NA,"",       1.22424,       1.22397,  -25.6382E-03,   6.28444E-03
C:/temp/dataset/6/17_6.odb,Step-1,Increment      1: Step Time =    1.000,"PART-1-1",           702,      -11.2396,       16.2208,            0.,NA,NA,"",       1.62699,       1.61484,   198.425E-03,   1.04843E-03
C:/temp/dataset/6/17_6.odb,Step-1,Increment      1: Step Time =    1.000,"PART-1-1",           703,      -10.2112,       15.1096,            0.,NA,NA,"",       1.55518,       1.54871,   141.716E-03,   1.64247E-03
C:/temp/dataset/6/17_6.odb,Step-1,Increment      1: Step Time =    1.000,"PART-1-1",           704,      -9.25876,       16.3324,            0.,NA,NA,"",       1.61892,       1.61662,   86.2851E-03,   703.255E-06
C:/temp/dataset/6/17_6.odb,Step-1,Increment      1: Step Time =    1.000,"PART-1-1",           705,      -10.2871,       17.4437,            0.,NA,NA,"",       1.68792,       1.68186,   142.815E-03,   324.099E-06
C:/temp/dataset/6/17_6.odb,Step-1,Increment      1: Step Time =    1.000,"PART-1-1",           706,      -8.19479,       15.2434,            0.,NA,NA,"",       1.55171,       1.55147,   27.5335E-03,   934.572E-06
C:/temp/dataset/6/17_6.odb,Step-1,Increment      1: Step Time =    1.000,"PART-1-1",           707,      -9.19446,       14.0222,            0.,NA,NA,"",       1.48468,       1.48219,   85.8238E-03,   2.51635E-03
C:/temp/dataset/6/17_6.odb,Step-1,Increment      1: Step Time =    1.000,"PART-1-1",           708,      -8.14331,       13.0080,            0.,NA,NA,"",       1.41910,       1.41881,   28.5101E-03,   2.84685E-03
C:/temp/dataset/6/17_6.odb,Step-1,Increment      1: Step Time =    1.000,"PART-1-1",           709,          -15.,         18.75,            0.,NA,NA,"",       1.80920,       1.76326,   405.127E-03,   658.432E-06
C:/temp/dataset/6/17_6.odb,Step-1,Increment      1: Step Time =    1.000,"PART-1-1",           710,      -13.1826,       18.5751,            0.,NA,NA,"",       1.77644,       1.75029,   303.657E-03,   349.327E-06
C:/temp/dataset/6/17_6.odb,Step-1,Increment      1: Step Time =    1.000,"PART-1-1",           711,      -11.2313,       23.3702,            0.,NA,NA,"",       2.02697,       2.01843,   185.797E-03,   99.1999E-06
C:/temp/dataset/6/17_6.odb,Step-1,Increment      1: Step Time =    1.000,"PART-1-1",           712,      -10.8173,       24.9058,            0.,NA,NA,"",       2.11075,       2.10469,   159.846E-03,   50.0764E-06
C:/temp/dataset/6/17_6.odb,Step-1,Increment      1: Step Time =    1.000,"PART-1-1",           713,      -13.5418,       24.7667,            0.,NA,NA,"",       2.12447,       2.10112,   314.133E-03,   33.8522E-06
C:/temp/dataset/6/17_6.odb,Step-1,Increment      1: Step Time =    1.000,"PART-1-1",           714,      -12.2278,       25.9824,            0.,NA,NA,"",       2.18084,       2.16783,   237.867E-03,   34.6504E-06
C:/temp/dataset/6/17_6.odb,Step-1,Increment      1: Step Time =    1.000,"PART-1-1",           715,          -15.,         26.25,            0.,NA,NA,"",       2.22266,       2.18741,   394.271E-03,   16.0248E-06
C:/temp/dataset/6/17_6.odb,Step-1,Increment      1: Step Time =    1.000,"PART-1-1",           716,          -15.,         23.75,            0.,NA,NA,"",       2.08430,       2.04591,   398.226E-03,   76.1033E-06
C:/temp/dataset/6/17_6.odb,Step-1,Increment      1: Step Time =    1.000,"PART-1-1",           717,      -12.5630,       23.3034,            0.,NA,NA,"",       2.03355,       2.01671,   261.154E-03,   106.146E-06
C:/temp/dataset/6/17_6.odb,Step-1,Increment      1: Step Time =    1.000,"PART-1-1",           718,      -11.1827,       13.8735,            0.,NA,NA,"",       1.49358,       1.48059,   196.604E-03,   3.70001E-03
C:/temp/dataset/6/17_6.odb,Step-1,Increment      1: Step Time =    1.000,"PART-1-1",           719,      -10.1659,       12.7861,            0.,NA,NA,"",       1.41865,       1.41166,   140.640E-03,   4.47942E-03
C:/temp/dataset/6/17_6.odb,Step-1,Increment      1: Step Time =    1.000,"PART-1-1",           720,      -11.4858,       20.4947,            0.,NA,NA,"",       1.86740,       1.85610,   205.075E-03,   229.277E-06
C:/temp/dataset/6/17_6.odb,Step-1,Increment      1: Step Time =    1.000,"PART-1-1",           721,      -10.4732,       19.7487,            0.,NA,NA,"",       1.81859,       1.81245,   149.241E-03,   251.600E-06
C:/temp/dataset/6/17_6.odb,Step-1,Increment      1: Step Time =    1.000,"PART-1-1",           722,      -10.9778,       21.7959,            0.,NA,NA,"",       1.93681,       1.92896,   174.135E-03,   168.444E-06
C:/temp/dataset/6/17_6.odb,Step-1,Increment      1: Step Time =    1.000,"PART-1-1",           723,      -9.13796,       11.7463,            0.,NA,NA,"",       1.34699,       1.34427,   85.5604E-03,   5.44940E-03
C:/temp/dataset/6/17_6.odb,Step-1,Increment      1: Step Time =    1.000,"PART-1-1",           724,      -11.1090,       11.4975,            0.,NA,NA,"",       1.35099,       1.33739,   191.223E-03,   7.11235E-03
C:/temp/dataset/6/17_6.odb,Step-1,Increment      1: Step Time =    1.000,"PART-1-1",           725,      -7.95801,       5.48811,            0.,NA,NA,"",   945.244E-03,   944.420E-03,   39.4444E-03,   12.2984E-03
C:/temp/dataset/6/17_6.odb,Step-1,Increment      1: Step Time =    1.000,"PART-1-1",           726,      -9.27172,       5.51676,            0.,NA,NA,"",   960.998E-03,   956.128E-03,   96.6246E-03,   10.4362E-03
C:/temp/dataset/6/17_6.odb,Step-1,Increment      1: Step Time =    1.000,"PART-1-1",           727,      -9.10783,       4.19071,            0.,NA,NA,"",   890.606E-03,   886.448E-03,   85.9658E-03,   8.42096E-03
C:/temp/dataset/6/17_6.odb,Step-1,Increment      1: Step Time =    1.000,"PART-1-1",           728,      -7.79412,       4.16207,            0.,NA,NA,"",   874.609E-03,   874.039E-03,   31.5564E-03,   10.3684E-03
C:/temp/dataset/6/17_6.odb,Step-1,Increment      1: Step Time =    1.000,"PART-1-1",           729,      -10.3652,   710.465E-03,            0.,NA,NA,"",   767.905E-03,   757.251E-03,   127.468E-03,   6.09235E-03
C:/temp/dataset/6/17_6.odb,Step-1,Increment      1: Step Time =    1.000,"PART-1-1",           730,      -11.5756,       2.14983,            0.,NA,NA,"",   835.062E-03,   814.588E-03,   183.779E-03,   7.39208E-03
C:/temp/dataset/6/17_6.odb,Step-1,Increment      1: Step Time =    1.000,"PART-1-1",           731,      -10.9514,      -7.70102,            0.,NA,NA,"",   498.682E-03,   481.135E-03,   131.124E-03,   5.11845E-03
C:/temp/dataset/6/17_6.odb,Step-1,Increment      1: Step Time =    1.000,"PART-1-1",           732,      -11.1587,      -15.1039,            0.,NA,NA,"",   247.936E-03,   225.083E-03,   103.972E-03,   7.72653E-03
C:/temp/dataset/6/17_6.odb,Step-1,Increment      1: Step Time =    1.000,"PART-1-1",           733,      -11.0422,      -12.5823,            0.,NA,NA,"",   327.335E-03,   306.837E-03,   114.015E-03,   7.08196E-03
C:/temp/dataset/6/17_6.odb,Step-1,Increment      1: Step Time =    1.000,"PART-1-1",           734,      -9.98828,      -19.2456,            0.,NA,NA,"",   123.400E-03,   110.146E-03,   55.6370E-03,   7.02253E-03
C:/temp/dataset/6/17_6.odb,Step-1,Increment      1: Step Time =    1.000,"PART-1-1",           735,      -11.2222,      -17.6929,            0.,NA,NA,"",   176.372E-03,   152.068E-03,   89.3445E-03,   8.56497E-03
C:/temp/dataset/6/17_6.odb,Step-1,Increment      1: Step Time =    1.000,"PART-1-1",           736,      -9.72809,       26.4627,            0.,NA,NA,"",       2.19315,       2.19106,   95.6930E-03,   30.4354E-06
C:/temp/dataset/6/17_6.odb,Step-1,Increment      1: Step Time =    1.000,"PART-1-1",           737,      -8.07960,       10.7858,            0.,NA,NA,"",       1.28182,       1.28146,   30.2835E-03,   5.63570E-03
C:/temp/dataset/6/17_6.odb,Step-1,Increment      1: Step Time =    1.000,"PART-1-1",           738,      -11.3320,       18.4953,            0.,NA,NA,"",       1.75439,       1.74295,   199.990E-03,   248.353E-06
C:/temp/dataset/6/17_6.odb,Step-1,Increment      1: Step Time =    1.000,"PART-1-1",           739,      -10.4893,       6.32554,            0.,NA,NA,"",       1.02206,       1.01056,   152.944E-03,   9.91621E-03
C:/temp/dataset/6/17_6.odb,Step-1,Increment      1: Step Time =    1.000,"PART-1-1",           740,      -11.8356,       7.66802,            0.,NA,NA,"",       1.12202,       1.10014,   220.489E-03,   10.8356E-03
C:/temp/dataset/6/17_6.odb,Step-1,Increment      1: Step Time =    1.000,"PART-1-1",           741,      -11.4125,       4.87054,            0.,NA,NA,"",   955.361E-03,   936.309E-03,   189.846E-03,   8.07155E-03
C:/temp/dataset/6/17_6.odb,Step-1,Increment      1: Step Time =    1.000,"PART-1-1",           742,       10.1911,      -5.79504,            0.,NA,NA,"",   618.021E-03,   604.059E-03,  -130.623E-03,   5.40743E-03
C:/temp/dataset/6/17_6.odb,Step-1,Increment      1: Step Time =    1.000,"PART-1-1",           743,       9.10708,      -6.74300,            0.,NA,NA,"",   585.649E-03,   576.260E-03,  -104.444E-03,   7.91028E-03
C:/temp/dataset/6/17_6.odb,Step-1,Increment      1: Step Time =    1.000,"PART-1-1",           744,       11.1638,      -4.94873,            0.,NA,NA,"",   643.777E-03,   625.408E-03,  -152.689E-03,   2.91952E-03
C:/temp/dataset/6/17_6.odb,Step-1,Increment      1: Step Time =    1.000,"PART-1-1",           745,       10.4293,      -4.08570,            0.,NA,NA,"",   661.872E-03,   647.388E-03,  -137.709E-03,   2.65322E-03
C:/temp/dataset/6/17_6.odb,Step-1,Increment      1: Step Time =    1.000,"PART-1-1",           746,       9.97038,      -14.8971,            0.,NA,NA,"",   291.990E-03,   278.610E-03,  -87.3786E-03,   9.03778E-03
C:/temp/dataset/6/17_6.odb,Step-1,Increment      1: Step Time =    1.000,"PART-1-1",           747,       9.96577,      -12.5508,            0.,NA,NA,"",   379.268E-03,   366.119E-03,  -98.9991E-03,   8.98136E-03
C:/temp/dataset/6/17_6.odb,Step-1,Increment      1: Step Time =    1.000,"PART-1-1",           748,       8.96159,      -13.7029,            0.,NA,NA,"",   327.924E-03,   320.928E-03,  -67.3734E-03,   8.69719E-03
C:/temp/dataset/6/17_6.odb,Step-1,Increment      1: Step Time =    1.000,"PART-1-1",           749,       6.92617,      -22.4012,            0.,NA,NA,"",   58.1971E-03,   58.1860E-03,  -1.13893E-03,   2.37810E-03
C:/temp/dataset/6/17_6.odb,Step-1,Increment      1: Step Time =    1.000,"PART-1-1",           750,       5.94981,      -23.5281,            0.,NA,NA,"",   44.7472E-03,   44.3745E-03,   5.76330E-03,   3.92009E-03
C:/temp/dataset/6/17_6.odb,Step-1,Increment      1: Step Time =    1.000,"PART-1-1",           751,       7.18383,      -24.1705,            0.,NA,NA,"",   37.0309E-03,   36.8745E-03,  -3.39883E-03,   2.01395E-03
C:/temp/dataset/6/17_6.odb,Step-1,Increment      1: Step Time =    1.000,"PART-1-1",           752,       11.0968,      -20.2176,            0.,NA,NA,"",   139.173E-03,   116.181E-03,  -76.6228E-03,   9.70205E-03
C:/temp/dataset/6/17_6.odb,Step-1,Increment      1: Step Time =    1.000,"PART-1-1",           753,       6.43355,      -20.8801,            0.,NA,NA,"",   80.1787E-03,   80.0276E-03,   4.91975E-03,   5.62224E-03
C:/temp/dataset/6/17_6.odb,Step-1,Increment      1: Step Time =    1.000,"PART-1-1",           754,       8.96045,      -11.3546,            0.,NA,NA,"",   417.082E-03,   409.603E-03,  -78.6279E-03,   9.08475E-03
C:/temp/dataset/6/17_6.odb,Step-1,Increment      1: Step Time =    1.000,"PART-1-1",           755,       8.17216,      -2.03287,            0.,NA,NA,"",   696.979E-03,   689.771E-03,  -99.9787E-03,   3.82691E-03
C:/temp/dataset/6/17_6.odb,Step-1,Increment      1: Step Time =    1.000,"PART-1-1",           756,       9.68046,      -2.49017,            0.,NA,NA,"",   692.537E-03,   681.206E-03,  -124.759E-03,   2.54304E-03
C:/temp/dataset/6/17_6.odb,Step-1,Increment      1: Step Time =    1.000,"PART-1-1",           757,      -5.24373,       2.94722,            0.,NA,NA,"",   810.925E-03,   809.050E-03,  -55.1203E-03,   10.7775E-03
C:/temp/dataset/6/17_6.odb,Step-1,Increment      1: Step Time =    1.000,"PART-1-1",           758,      -6.20341,       3.93450,            0.,NA,NA,"",   848.810E-03,   848.229E-03,  -31.4144E-03,   13.2030E-03
C:/temp/dataset/6/17_6.odb,Step-1,Increment      1: Step Time =    1.000,"PART-1-1",           759,       7.87036,      -17.0650,            0.,NA,NA,"",   199.632E-03,   197.587E-03,  -28.4994E-03,   7.52353E-03
C:/temp/dataset/6/17_6.odb,Step-1,Increment      1: Step Time =    1.000,"PART-1-1",           760,      -8.77165,      -4.61616,            0.,NA,NA,"",   594.707E-03,   591.142E-03,   65.0198E-03,   4.14782E-03
C:/temp/dataset/6/17_6.odb,Step-1,Increment      1: Step Time =    1.000,"PART-1-1",           761,       8.90402,      -15.9271,            0.,NA,NA,"",   245.927E-03,   239.307E-03,  -56.6764E-03,   8.67295E-03
C:/temp/dataset/6/17_6.odb,Step-1,Increment      1: Step Time =    1.000,"PART-1-1",           762,       7.94609,      -14.8939,            0.,NA,NA,"",   277.677E-03,   275.342E-03,  -35.9356E-03,   6.99695E-03
C:/temp/dataset/6/17_6.odb,Step-1,Increment      1: Step Time =    1.000,"PART-1-1",           763,      -12.3095,       21.7291,            0.,NA,NA,"",       1.94326,       1.92719,   249.419E-03,   150.821E-06
C:/temp/dataset/6/17_6.odb,Step-1,Increment      1: Step Time =    1.000,"PART-1-1",           764,      -12.2938,       19.6789,            0.,NA,NA,"",       1.82861,       1.81116,   251.990E-03,   249.418E-06
C:/temp/dataset/6/17_6.odb,Step-1,Increment      1: Step Time =    1.000,"PART-1-1",           765,       3.72209,      -1.78065,            0.,NA,NA,"",   692.512E-03,   688.733E-03,  -72.2455E-03,   12.4891E-03
C:/temp/dataset/6/17_6.odb,Step-1,Increment      1: Step Time =    1.000,"PART-1-1",           766,       6.45852,      -3.38063,            0.,NA,NA,"",   671.193E-03,   667.657E-03,  -68.8033E-03,   8.10461E-03
C:/temp/dataset/6/17_6.odb,Step-1,Increment      1: Step Time =    1.000,"PART-1-1",           767,       4.93556,      -2.38177,            0.,NA,NA,"",   683.504E-03,   680.242E-03,  -66.6981E-03,   11.7555E-03
C:/temp/dataset/6/17_6.odb,Step-1,Increment      1: Step Time =    1.000,"PART-1-1",           768,      -2.94024,   945.156E-03,            0.,NA,NA,"",   752.557E-03,   748.583E-03,  -77.2409E-03,   11.2185E-03
C:/temp/dataset/6/17_6.odb,Step-1,Increment      1: Step Time =    1.000,"PART-1-1",           769,      -1.69279,      -25.0756,            0.,NA,NA,"",   33.6710E-03,   33.5733E-03,  -2.56373E-03,   6.42406E-03
C:/temp/dataset/6/17_6.odb,Step-1,Increment      1: Step Time =    1.000,"PART-1-1",           770,      -6.93923,      -23.9860,            0.,NA,NA,"",   34.0283E-03,   33.9193E-03,   2.72150E-03,   1.41772E-03
C:/temp/dataset/6/17_6.odb,Step-1,Increment      1: Step Time =    1.000,"PART-1-1",           771,      -5.91970,      -22.6959,            0.,NA,NA,"",   47.0059E-03,   46.6797E-03,  -5.52788E-03,   3.44133E-03
C:/temp/dataset/6/17_6.odb,Step-1,Increment      1: Step Time =    1.000,"PART-1-1",           772,      -12.2208,       17.3915,            0.,NA,NA,"",       1.70112,       1.68237,   251.873E-03,   327.204E-06
C:/temp/dataset/6/17_6.odb,Step-1,Increment      1: Step Time =    1.000,"PART-1-1",           773,      -12.0398,       10.1961,            0.,NA,NA,"",       1.28411,       1.26179,   238.339E-03,   9.15053E-03
C:/temp/dataset/6/17_6.odb,Step-1,Increment      1: Step Time =    1.000,"PART-1-1",           774,      -10.8637,      -2.91198,            0.,NA,NA,"",   658.659E-03,   643.963E-03,   138.356E-03,   4.47561E-03
C:/temp/dataset/6/17_6.odb,Step-1,Increment      1: Step Time =    1.000,"PART-1-1",           775,      -9.61620,      -11.5179,            0.,NA,NA,"",   348.816E-03,   340.002E-03,   77.9176E-03,   6.00247E-03
C:/temp/dataset/6/17_6.odb,Step-1,Increment      1: Step Time =    1.000,"PART-1-1",           776,      -11.8201,      -24.5932,            0.,NA,NA,"",   56.9668E-03,   36.9004E-03,   43.4001E-03,   9.70209E-03
C:/temp/dataset/6/17_6.odb,Step-1,Increment      1: Step Time =    1.000,"PART-1-1",           777,      -11.0718,      -23.4296,            0.,NA,NA,"",   64.3938E-03,   46.5591E-03,   44.4839E-03,   8.25841E-03
C:/temp/dataset/6/17_6.odb,Step-1,Increment      1: Step Time =    1.000,"PART-1-1",           778,       4.75405,      -23.0816,            0.,NA,NA,"",   51.3896E-03,   49.9936E-03,   11.8968E-03,   6.16418E-03
C:/temp/dataset/6/17_6.odb,Step-1,Increment      1: Step Time =    1.000,"PART-1-1",           779,       5.55198,      -21.9930,            0.,NA,NA,"",   63.3181E-03,   62.1754E-03,   11.9751E-03,   5.70553E-03
C:/temp/dataset/6/17_6.odb,Step-1,Increment      1: Step Time =    1.000,"PART-1-1",           780,       7.01336,      -26.0950,            0.,NA,NA,"",   19.0372E-03,   18.9244E-03,  -2.06857E-03,   2.78321E-03
C:/temp/dataset/6/17_6.odb,Step-1,Increment      1: Step Time =    1.000,"PART-1-1",           781,       4.10189,      -23.9882,            0.,NA,NA,"",   43.1153E-03,   41.8719E-03,   10.2799E-03,   6.64014E-03
C:/temp/dataset/6/17_6.odb,Step-1,Increment      1: Step Time =    1.000,"PART-1-1",           782,       4.14804,      -25.2051,            0.,NA,NA,"",   31.6078E-03,   30.7852E-03,   7.16445E-03,   5.88604E-03
C:/temp/dataset/6/17_6.odb,Step-1,Increment      1: Step Time =    1.000,"PART-1-1",           783,      -12.1264,       12.6156,            0.,NA,NA,"",       1.43305,       1.41150,   247.635E-03,   6.05820E-03
C:/temp/dataset/6/17_6.odb,Step-1,Increment      1: Step Time =    1.000,"PART-1-1",           784,      -12.1709,       15.0185,            0.,NA,NA,"",       1.57051,       1.55021,   251.722E-03,   2.51684E-03
C:/temp/dataset/6/17_6.odb,Step-1,Increment      1: Step Time =    1.000,"PART-1-1",           785,      -10.3060,       3.43341,            0.,NA,NA,"",   870.995E-03,   860.526E-03,   134.636E-03,   6.53309E-03
C:/temp/dataset/6/17_6.odb,Step-1,Increment      1: Step Time =    1.000,"PART-1-1",           786,      -9.35047,  -311.861E-03,            0.,NA,NA,"",   727.146E-03,   722.092E-03,   85.5837E-03,   5.46496E-03
C:/temp/dataset/6/17_6.odb,Step-1,Increment      1: Step Time =    1.000,"PART-1-1",           787,      -9.47746,      -1.56252,            0.,NA,NA,"",   690.584E-03,   684.799E-03,   89.1974E-03,   5.05009E-03
C:/temp/dataset/6/17_6.odb,Step-1,Increment      1: Step Time =    1.000,"PART-1-1",           788,      -7.56677,      -1.93629,            0.,NA,NA,"",   675.756E-03,   675.383E-03,   22.4388E-03,   3.85984E-03
C:/temp/dataset/6/17_6.odb,Step-1,Increment      1: Step Time =    1.000,"PART-1-1",           789,      -9.57637,      -3.06595,            0.,NA,NA,"",   646.086E-03,   639.492E-03,   92.0681E-03,   4.08988E-03
C:/temp/dataset/6/17_6.odb,Step-1,Increment      1: Step Time =    1.000,"PART-1-1",           790,      -8.24618,      -3.39128,            0.,NA,NA,"",   633.820E-03,   632.121E-03,   46.3748E-03,   4.78163E-03
C:/temp/dataset/6/17_6.odb,Step-1,Increment      1: Step Time =    1.000,"PART-1-1",           791,       7.98922,      -7.69035,            0.,NA,NA,"",   548.430E-03,   543.316E-03,  -74.7200E-03,   10.8303E-03
C:/temp/dataset/6/17_6.odb,Step-1,Increment      1: Step Time =    1.000,"PART-1-1",           792,       7.96586,      -10.1263,            0.,NA,NA,"",   457.728E-03,   453.952E-03,  -58.6742E-03,   9.10951E-03
C:/temp/dataset/6/17_6.odb,Step-1,Increment      1: Step Time =    1.000,"PART-1-1",           793,       7.95460,      -12.5381,            0.,NA,NA,"",   365.939E-03,   363.114E-03,  -45.3820E-03,   7.57075E-03
C:/temp/dataset/6/17_6.odb,Step-1,Increment      1: Step Time =    1.000,"PART-1-1",           794,      -6.90534,       4.84567,            0.,NA,NA,"",   899.243E-03,   899.232E-03,  -4.35073E-03,   14.5876E-03
C:/temp/dataset/6/17_6.odb,Step-1,Increment      1: Step Time =    1.000,"PART-1-1",           795,      -7.09219,       3.25090,            0.,NA,NA,"",   829.531E-03,   829.528E-03,   2.24696E-03,   8.56817E-03
C:/temp/dataset/6/17_6.odb,Step-1,Increment      1: Step Time =    1.000,"PART-1-1",           796,      -5.99438,      -2.38990,            0.,NA,NA,"",   667.394E-03,   666.982E-03,  -23.4423E-03,   3.52719E-03
C:/temp/dataset/6/17_6.odb,Step-1,Increment      1: Step Time =    1.000,"PART-1-1",           797,      -8.16339,       2.56404,            0.,NA,NA,"",   812.718E-03,   811.583E-03,   42.9256E-03,   6.67231E-03
C:/temp/dataset/6/17_6.odb,Step-1,Increment      1: Step Time =    1.000,"PART-1-1",           798,      -6.16245,       1.98671,            0.,NA,NA,"",   783.886E-03,   783.436E-03,  -26.5614E-03,   6.15835E-03
C:/temp/dataset/6/17_6.odb,Step-1,Increment      1: Step Time =    1.000,"PART-1-1",           799,      -9.36160,       1.80674,            0.,NA,NA,"",   795.990E-03,   790.932E-03,   89.5883E-03,   5.93646E-03
C:/temp/dataset/6/17_6.odb,Step-1,Increment      1: Step Time =    1.000,"PART-1-1",           800,      -4.18828,       1.89018,            0.,NA,NA,"",   778.663E-03,   775.820E-03,  -66.4809E-03,   11.2892E-03
C:/temp/dataset/6/17_6.odb,Step-1,Increment      1: Step Time =    1.000,"PART-1-1",           801,      -2.02478,       2.01876,            0.,NA,NA,"",   772.799E-03,   768.617E-03,  -80.2876E-03,   14.4805E-03
C:/temp/dataset/6/17_6.odb,Step-1,Increment      1: Step Time =    1.000,"PART-1-1",           802,       5.29765,      -24.4346,            0.,NA,NA,"",   36.5229E-03,   35.8771E-03,   6.83761E-03,   4.73884E-03
C:/temp/dataset/6/17_6.odb,Step-1,Increment      1: Step Time =    1.000,"PART-1-1",           803,       8.18651,      -25.0309,            0.,NA,NA,"",   29.8675E-03,   28.0988E-03,  -10.1254E-03,   2.70337E-03
C:/temp/dataset/6/17_6.odb,Step-1,Increment      1: Step Time =    1.000,"PART-1-1",           804,       6.01068,      -25.2345,            0.,NA,NA,"",   27.5730E-03,   27.4334E-03,   2.77106E-03,   3.61870E-03
