ODB Name,Step,Frame,Part Instance Name,    êﬂì_ÉâÉxÉã,X,Y,Z,Section Name,Material Name,Section Point,   U-Magnitude,          U-U1,          U-U2,       S-Mises
C:/temp/dataset/6/18_8.odb,Step-1,Increment      1: Step Time =    1.000,"PART-1-1",             1,            5.,           -5.,            0.,NA,NA,"",   740.816E-03,   740.707E-03,  -12.7226E-03,   31.4493E-03
C:/temp/dataset/6/18_8.odb,Step-1,Increment      1: Step Time =    1.000,"PART-1-1",             2,            0.,           -5.,            0.,NA,NA,"",   779.630E-03,   778.564E-03,  -40.7543E-03,   1.68037E-03
C:/temp/dataset/6/18_8.odb,Step-1,Increment      1: Step Time =    1.000,"PART-1-1",             3,            5.,      -10.0250,            0.,NA,NA,"",   519.764E-03,   516.303E-03,   59.8831E-03,   6.69022E-03
C:/temp/dataset/6/18_8.odb,Step-1,Increment      1: Step Time =    1.000,"PART-1-1",             4,            5.,      -15.0500,            0.,NA,NA,"",   316.874E-03,   307.874E-03,   74.9837E-03,   2.04361E-03
C:/temp/dataset/6/18_8.odb,Step-1,Increment      1: Step Time =    1.000,"PART-1-1",             5,            5.,          -20.,            0.,NA,NA,"",   110.248E-03,   104.873E-03,   34.0042E-03,   26.6933E-03
C:/temp/dataset/6/18_8.odb,Step-1,Increment      1: Step Time =    1.000,"PART-1-1",             6,            0.,          -20.,            0.,NA,NA,"",   69.4081E-03,   69.4072E-03,  -353.027E-06,   1.14723E-03
C:/temp/dataset/6/18_8.odb,Step-1,Increment      1: Step Time =    1.000,"PART-1-1",             7,           -5.,          -20.,            0.,NA,NA,"",   105.932E-03,   100.003E-03,  -34.9454E-03,   22.1235E-03
C:/temp/dataset/6/18_8.odb,Step-1,Increment      1: Step Time =    1.000,"PART-1-1",             8,           -5.,      -14.9750,            0.,NA,NA,"",   306.884E-03,   295.196E-03,  -83.8865E-03,   3.17865E-03
C:/temp/dataset/6/18_8.odb,Step-1,Increment      1: Step Time =    1.000,"PART-1-1",             9,           -5.,      -9.95000,            0.,NA,NA,"",   511.519E-03,   504.278E-03,  -85.7675E-03,   4.15048E-03
C:/temp/dataset/6/18_8.odb,Step-1,Increment      1: Step Time =    1.000,"PART-1-1",            10,           -5.,           -5.,            0.,NA,NA,"",   739.403E-03,   738.454E-03,  -37.4455E-03,   27.2355E-03
C:/temp/dataset/6/18_8.odb,Step-1,Increment      1: Step Time =    1.000,"PART-1-1",            11,           15.,          -30.,            0.,NA,NA,"",            0.,   7.67595E-39,  -13.7274E-39,   26.7280E-03
C:/temp/dataset/6/18_8.odb,Step-1,Increment      1: Step Time =    1.000,"PART-1-1",            12,          -15.,          -30.,            0.,NA,NA,"",            0.,   7.82449E-39,   13.7618E-39,   26.0473E-03
C:/temp/dataset/6/18_8.odb,Step-1,Increment      1: Step Time =    1.000,"PART-1-1",            13,           15.,        -21.25,            0.,NA,NA,"",   201.715E-03,   130.335E-03,  -153.954E-03,   18.9772E-03
C:/temp/dataset/6/18_8.odb,Step-1,Increment      1: Step Time =    1.000,"PART-1-1",            14,           15.,         -12.5,            0.,NA,NA,"",   503.437E-03,   426.338E-03,  -267.741E-03,   5.92310E-03
C:/temp/dataset/6/18_8.odb,Step-1,Increment      1: Step Time =    1.000,"PART-1-1",            15,           15.,         -3.75,            0.,NA,NA,"",   788.371E-03,   744.608E-03,  -259.014E-03,   6.24363E-03
C:/temp/dataset/6/18_8.odb,Step-1,Increment      1: Step Time =    1.000,"PART-1-1",            16,           15.,            5.,            0.,NA,NA,"",   959.804E-03,   929.880E-03,  -237.795E-03,   206.896E-06
C:/temp/dataset/6/18_8.odb,Step-1,Increment      1: Step Time =    1.000,"PART-1-1",            17,           10.,            5.,            0.,NA,NA,"",   935.401E-03,   925.625E-03,  -134.880E-03,   3.48067E-03
C:/temp/dataset/6/18_8.odb,Step-1,Increment      1: Step Time =    1.000,"PART-1-1",            18,            5.,            5.,            0.,NA,NA,"",   906.759E-03,   904.895E-03,  -58.1092E-03,   4.15027E-03
C:/temp/dataset/6/18_8.odb,Step-1,Increment      1: Step Time =    1.000,"PART-1-1",            19,            0.,            5.,            0.,NA,NA,"",   907.865E-03,   907.383E-03,  -29.5870E-03,   6.44996E-03
C:/temp/dataset/6/18_8.odb,Step-1,Increment      1: Step Time =    1.000,"PART-1-1",            20,           -5.,            5.,            0.,NA,NA,"",   977.999E-03,   977.998E-03,  -1.77753E-03,   22.9629E-03
C:/temp/dataset/6/18_8.odb,Step-1,Increment      1: Step Time =    1.000,"PART-1-1",            21,           -5.,         11.25,            0.,NA,NA,"",       1.20657,       1.20657,  -3.64534E-03,   1.09127E-03
C:/temp/dataset/6/18_8.odb,Step-1,Increment      1: Step Time =    1.000,"PART-1-1",            22,           -5.,          17.5,            0.,NA,NA,"",       1.38386,       1.38385,  -3.82149E-03,   57.8901E-06
C:/temp/dataset/6/18_8.odb,Step-1,Increment      1: Step Time =    1.000,"PART-1-1",            23,           -5.,         23.75,            0.,NA,NA,"",       1.56040,       1.56038,  -6.28044E-03,   4.53839E-06
C:/temp/dataset/6/18_8.odb,Step-1,Increment      1: Step Time =    1.000,"PART-1-1",            24,           -5.,           30.,            0.,NA,NA,"",       1.73710,       1.73708,  -8.78803E-03,   142.973E-09
C:/temp/dataset/6/18_8.odb,Step-1,Increment      1: Step Time =    1.000,"PART-1-1",            25,          -10.,           30.,            0.,NA,NA,"",       1.74413,       1.73908,   132.573E-03,   1.46438E-06
C:/temp/dataset/6/18_8.odb,Step-1,Increment      1: Step Time =    1.000,"PART-1-1",            26,          -15.,           30.,            0.,NA,NA,"",       1.76251,       1.74109,   273.945E-03,   164.199E-09
C:/temp/dataset/6/18_8.odb,Step-1,Increment      1: Step Time =    1.000,"PART-1-1",            27,          -15.,          22.5,            0.,NA,NA,"",       1.55390,       1.52902,   276.958E-03,   5.95450E-06
C:/temp/dataset/6/18_8.odb,Step-1,Increment      1: Step Time =    1.000,"PART-1-1",            28,          -15.,           15.,            0.,NA,NA,"",       1.34598,       1.31661,   279.644E-03,   245.667E-06
C:/temp/dataset/6/18_8.odb,Step-1,Increment      1: Step Time =    1.000,"PART-1-1",            29,          -15.,           7.5,            0.,NA,NA,"",       1.15429,       1.12174,   272.208E-03,   4.43963E-03
C:/temp/dataset/6/18_8.odb,Step-1,Increment      1: Step Time =    1.000,"PART-1-1",            30,          -15.,            0.,            0.,NA,NA,"",   943.734E-03,   903.648E-03,   272.126E-03,   3.97013E-03
C:/temp/dataset/6/18_8.odb,Step-1,Increment      1: Step Time =    1.000,"PART-1-1",            31,          -15.,          -7.5,            0.,NA,NA,"",   685.312E-03,   627.061E-03,   276.492E-03,   718.328E-06
C:/temp/dataset/6/18_8.odb,Step-1,Increment      1: Step Time =    1.000,"PART-1-1",            32,          -15.,          -15.,            0.,NA,NA,"",   401.127E-03,   321.686E-03,   239.626E-03,   12.6547E-03
C:/temp/dataset/6/18_8.odb,Step-1,Increment      1: Step Time =    1.000,"PART-1-1",            33,          -15.,         -22.5,            0.,NA,NA,"",   164.127E-03,   102.891E-03,   127.871E-03,   19.0382E-03
C:/temp/dataset/6/18_8.odb,Step-1,Increment      1: Step Time =    1.000,"PART-1-1",            34,           2.5,           -5.,            0.,NA,NA,"",   776.338E-03,   775.328E-03,  -39.5922E-03,   7.53464E-03
C:/temp/dataset/6/18_8.odb,Step-1,Increment      1: Step Time =    1.000,"PART-1-1",            35,            5.,      -7.51250,            0.,NA,NA,"",   625.004E-03,   623.836E-03,   38.1819E-03,   15.1558E-03
C:/temp/dataset/6/18_8.odb,Step-1,Increment      1: Step Time =    1.000,"PART-1-1",            36,            5.,      -12.5375,            0.,NA,NA,"",   417.445E-03,   411.050E-03,   72.7887E-03,   2.44984E-03
C:/temp/dataset/6/18_8.odb,Step-1,Increment      1: Step Time =    1.000,"PART-1-1",            37,            5.,      -17.5250,            0.,NA,NA,"",   220.223E-03,   209.570E-03,   67.6646E-03,   8.43846E-03
C:/temp/dataset/6/18_8.odb,Step-1,Increment      1: Step Time =    1.000,"PART-1-1",            38,           2.5,          -20.,            0.,NA,NA,"",   74.2451E-03,   73.4107E-03,   11.0992E-03,   8.95546E-03
C:/temp/dataset/6/18_8.odb,Step-1,Increment      1: Step Time =    1.000,"PART-1-1",            39,          -2.5,          -20.,            0.,NA,NA,"",   72.8341E-03,   71.9711E-03,  -11.1788E-03,   7.30154E-03
C:/temp/dataset/6/18_8.odb,Step-1,Increment      1: Step Time =    1.000,"PART-1-1",            40,           -5.,      -17.4875,            0.,NA,NA,"",   210.676E-03,   198.311E-03,  -71.1133E-03,   10.4271E-03
C:/temp/dataset/6/18_8.odb,Step-1,Increment      1: Step Time =    1.000,"PART-1-1",            41,           -5.,      -12.4625,            0.,NA,NA,"",   407.250E-03,   397.368E-03,  -89.1693E-03,   481.867E-06
C:/temp/dataset/6/18_8.odb,Step-1,Increment      1: Step Time =    1.000,"PART-1-1",            42,           -5.,      -7.47500,            0.,NA,NA,"",   618.249E-03,   613.696E-03,  -74.8876E-03,   10.1871E-03
C:/temp/dataset/6/18_8.odb,Step-1,Increment      1: Step Time =    1.000,"PART-1-1",            43,          -2.5,           -5.,            0.,NA,NA,"",   772.658E-03,   771.799E-03,  -36.4221E-03,   10.1200E-03
C:/temp/dataset/6/18_8.odb,Step-1,Increment      1: Step Time =    1.000,"PART-1-1",            44,          12.5,          -30.,            0.,NA,NA,"",            0.,   7.59314E-39,  -21.1034E-39,   9.68210E-03
C:/temp/dataset/6/18_8.odb,Step-1,Increment      1: Step Time =    1.000,"PART-1-1",            45,           10.,          -30.,            0.,NA,NA,"",            0.,  -2.45466E-39,  -9.82418E-39,   5.81984E-03
C:/temp/dataset/6/18_8.odb,Step-1,Increment      1: Step Time =    1.000,"PART-1-1",            46,           7.5,          -30.,            0.,NA,NA,"",            0.,   30.1321E-42,  -3.03506E-39,   2.11166E-03
C:/temp/dataset/6/18_8.odb,Step-1,Increment      1: Step Time =    1.000,"PART-1-1",            47,            5.,          -30.,            0.,NA,NA,"",            0.,   3.30263E-39,  -527.352E-42,   3.20728E-03
C:/temp/dataset/6/18_8.odb,Step-1,Increment      1: Step Time =    1.000,"PART-1-1",            48,           2.5,          -30.,            0.,NA,NA,"",            0.,   5.21890E-39,  -350.940E-42,   5.21839E-03
C:/temp/dataset/6/18_8.odb,Step-1,Increment      1: Step Time =    1.000,"PART-1-1",            49,            0.,          -30.,            0.,NA,NA,"",            0.,   5.64373E-39,   3.55102E-39,   5.93775E-03
C:/temp/dataset/6/18_8.odb,Step-1,Increment      1: Step Time =    1.000,"PART-1-1",            50,          -2.5,          -30.,            0.,NA,NA,"",            0.,   5.23247E-39,  -3.64285E-39,   5.16543E-03
C:/temp/dataset/6/18_8.odb,Step-1,Increment      1: Step Time =    1.000,"PART-1-1",            51,           -5.,          -30.,            0.,NA,NA,"",            0.,   2.93440E-39,  -1.79786E-39,   3.16424E-03
C:/temp/dataset/6/18_8.odb,Step-1,Increment      1: Step Time =    1.000,"PART-1-1",            52,          -7.5,          -30.,            0.,NA,NA,"",            0.,  -142.546E-42,   3.18475E-39,   2.34987E-03
C:/temp/dataset/6/18_8.odb,Step-1,Increment      1: Step Time =    1.000,"PART-1-1",            53,          -10.,          -30.,            0.,NA,NA,"",            0.,   3.46543E-39,   10.8557E-39,   5.87339E-03
C:/temp/dataset/6/18_8.odb,Step-1,Increment      1: Step Time =    1.000,"PART-1-1",            54,         -12.5,          -30.,            0.,NA,NA,"",            0.,   3.42417E-39,   18.7668E-39,   9.79768E-03
C:/temp/dataset/6/18_8.odb,Step-1,Increment      1: Step Time =    1.000,"PART-1-1",            55,           15.,      -23.4375,            0.,NA,NA,"",   145.083E-03,   87.4565E-03,  -115.760E-03,   19.1696E-03
C:/temp/dataset/6/18_8.odb,Step-1,Increment      1: Step Time =    1.000,"PART-1-1",            56,           15.,       -25.625,            0.,NA,NA,"",   96.3081E-03,   55.8817E-03,  -78.4378E-03,   18.4968E-03
C:/temp/dataset/6/18_8.odb,Step-1,Increment      1: Step Time =    1.000,"PART-1-1",            57,           15.,      -27.8125,            0.,NA,NA,"",   52.7735E-03,   31.5202E-03,  -42.3264E-03,   20.4098E-03
C:/temp/dataset/6/18_8.odb,Step-1,Increment      1: Step Time =    1.000,"PART-1-1",            58,           15.,      -14.6875,            0.,NA,NA,"",   420.994E-03,   338.780E-03,  -249.929E-03,   10.4211E-03
C:/temp/dataset/6/18_8.odb,Step-1,Increment      1: Step Time =    1.000,"PART-1-1",            59,           15.,       -16.875,            0.,NA,NA,"",   341.263E-03,   257.611E-03,  -223.823E-03,   14.4893E-03
C:/temp/dataset/6/18_8.odb,Step-1,Increment      1: Step Time =    1.000,"PART-1-1",            60,           15.,      -19.0625,            0.,NA,NA,"",   267.394E-03,   187.164E-03,  -190.969E-03,   17.5219E-03
C:/temp/dataset/6/18_8.odb,Step-1,Increment      1: Step Time =    1.000,"PART-1-1",            61,           15.,       -5.9375,            0.,NA,NA,"",   730.421E-03,   678.681E-03,  -270.012E-03,   5.43546E-03
C:/temp/dataset/6/18_8.odb,Step-1,Increment      1: Step Time =    1.000,"PART-1-1",            62,           15.,        -8.125,            0.,NA,NA,"",   661.935E-03,   601.202E-03,  -276.974E-03,   2.65026E-03
C:/temp/dataset/6/18_8.odb,Step-1,Increment      1: Step Time =    1.000,"PART-1-1",            63,           15.,      -10.3125,            0.,NA,NA,"",   585.042E-03,   515.473E-03,  -276.697E-03,   1.42554E-03
C:/temp/dataset/6/18_8.odb,Step-1,Increment      1: Step Time =    1.000,"PART-1-1",            64,           15.,        2.8125,            0.,NA,NA,"",   918.049E-03,   886.774E-03,  -237.586E-03,   724.663E-06
C:/temp/dataset/6/18_8.odb,Step-1,Increment      1: Step Time =    1.000,"PART-1-1",            65,           15.,      625.E-03,            0.,NA,NA,"",   878.188E-03,   844.607E-03,  -240.527E-03,   2.89827E-03
C:/temp/dataset/6/18_8.odb,Step-1,Increment      1: Step Time =    1.000,"PART-1-1",            66,           15.,       -1.5625,            0.,NA,NA,"",   836.495E-03,   798.862E-03,  -248.081E-03,   5.13790E-03
C:/temp/dataset/6/18_8.odb,Step-1,Increment      1: Step Time =    1.000,"PART-1-1",            67,          12.5,            5.,            0.,NA,NA,"",   948.546E-03,   930.010E-03,  -186.603E-03,   921.604E-06
C:/temp/dataset/6/18_8.odb,Step-1,Increment      1: Step Time =    1.000,"PART-1-1",            68,           7.5,            5.,            0.,NA,NA,"",   920.265E-03,   915.861E-03,  -89.9228E-03,   5.21041E-03
C:/temp/dataset/6/18_8.odb,Step-1,Increment      1: Step Time =    1.000,"PART-1-1",            69,           2.5,            5.,            0.,NA,NA,"",   900.875E-03,   899.985E-03,  -40.0210E-03,   717.457E-06
C:/temp/dataset/6/18_8.odb,Step-1,Increment      1: Step Time =    1.000,"PART-1-1",            70,          -2.5,            5.,            0.,NA,NA,"",   929.331E-03,   929.146E-03,  -18.5419E-03,   14.2688E-03
C:/temp/dataset/6/18_8.odb,Step-1,Increment      1: Step Time =    1.000,"PART-1-1",            71,           -5.,       9.16667,            0.,NA,NA,"",       1.14429,       1.14428,  -5.51839E-03,   1.93367E-03
C:/temp/dataset/6/18_8.odb,Step-1,Increment      1: Step Time =    1.000,"PART-1-1",            72,           -5.,       7.08333,            0.,NA,NA,"",       1.07418,       1.07414,  -9.01421E-03,   5.83824E-03
C:/temp/dataset/6/18_8.odb,Step-1,Increment      1: Step Time =    1.000,"PART-1-1",            73,           -5.,       15.4167,            0.,NA,NA,"",       1.32510,       1.32509,  -3.19949E-03,   200.868E-06
C:/temp/dataset/6/18_8.odb,Step-1,Increment      1: Step Time =    1.000,"PART-1-1",            74,           -5.,       13.3333,            0.,NA,NA,"",       1.26620,       1.26620,  -3.00332E-03,   539.639E-06
C:/temp/dataset/6/18_8.odb,Step-1,Increment      1: Step Time =    1.000,"PART-1-1",            75,           -5.,       21.6667,            0.,NA,NA,"",       1.50151,       1.50150,  -5.43827E-03,   6.26446E-06
C:/temp/dataset/6/18_8.odb,Step-1,Increment      1: Step Time =    1.000,"PART-1-1",            76,           -5.,       19.5833,            0.,NA,NA,"",       1.44266,       1.44265,  -4.60568E-03,   7.69756E-06
C:/temp/dataset/6/18_8.odb,Step-1,Increment      1: Step Time =    1.000,"PART-1-1",            77,           -5.,       27.9167,            0.,NA,NA,"",       1.67820,       1.67818,  -7.95504E-03,   597.197E-09
C:/temp/dataset/6/18_8.odb,Step-1,Increment      1: Step Time =    1.000,"PART-1-1",            78,           -5.,       25.8333,            0.,NA,NA,"",       1.61930,       1.61928,  -7.11972E-03,   2.28690E-06
C:/temp/dataset/6/18_8.odb,Step-1,Increment      1: Step Time =    1.000,"PART-1-1",            79,          -7.5,           30.,            0.,NA,NA,"",       1.73918,       1.73808,   61.8921E-03,   693.475E-09
C:/temp/dataset/6/18_8.odb,Step-1,Increment      1: Step Time =    1.000,"PART-1-1",            80,         -12.5,           30.,            0.,NA,NA,"",       1.75192,       1.74009,   203.258E-03,   654.164E-09
C:/temp/dataset/6/18_8.odb,Step-1,Increment      1: Step Time =    1.000,"PART-1-1",            81,          -15.,           25.,            0.,NA,NA,"",       1.62334,       1.59972,   275.948E-03,   3.14214E-06
C:/temp/dataset/6/18_8.odb,Step-1,Increment      1: Step Time =    1.000,"PART-1-1",            82,          -15.,          27.5,            0.,NA,NA,"",       1.69288,       1.67040,   274.944E-03,   869.973E-09
C:/temp/dataset/6/18_8.odb,Step-1,Increment      1: Step Time =    1.000,"PART-1-1",            83,          -15.,          17.5,            0.,NA,NA,"",       1.41524,       1.38749,   278.918E-03,   49.1061E-06
C:/temp/dataset/6/18_8.odb,Step-1,Increment      1: Step Time =    1.000,"PART-1-1",            84,          -15.,           20.,            0.,NA,NA,"",       1.48454,       1.45829,   277.967E-03,   4.01134E-06
C:/temp/dataset/6/18_8.odb,Step-1,Increment      1: Step Time =    1.000,"PART-1-1",            85,          -15.,           10.,            0.,NA,NA,"",       1.21010,       1.17777,   277.842E-03,   2.36485E-03
C:/temp/dataset/6/18_8.odb,Step-1,Increment      1: Step Time =    1.000,"PART-1-1",            86,          -15.,          12.5,            0.,NA,NA,"",       1.27705,       1.24610,   279.487E-03,   796.928E-06
C:/temp/dataset/6/18_8.odb,Step-1,Increment      1: Step Time =    1.000,"PART-1-1",            87,          -15.,           2.5,            0.,NA,NA,"",       1.02856,   992.496E-03,   269.990E-03,   7.67549E-03
C:/temp/dataset/6/18_8.odb,Step-1,Increment      1: Step Time =    1.000,"PART-1-1",            88,          -15.,            5.,            0.,NA,NA,"",       1.09907,       1.06490,   271.943E-03,   7.62865E-03
C:/temp/dataset/6/18_8.odb,Step-1,Increment      1: Step Time =    1.000,"PART-1-1",            89,          -15.,           -5.,            0.,NA,NA,"",   772.322E-03,   722.038E-03,   274.122E-03,   792.420E-06
C:/temp/dataset/6/18_8.odb,Step-1,Increment      1: Step Time =    1.000,"PART-1-1",            90,          -15.,          -2.5,            0.,NA,NA,"",   854.213E-03,   810.120E-03,   270.898E-03,   1.21441E-03
C:/temp/dataset/6/18_8.odb,Step-1,Increment      1: Step Time =    1.000,"PART-1-1",            91,          -15.,         -12.5,            0.,NA,NA,"",   495.917E-03,   421.454E-03,   261.363E-03,   8.42354E-03
C:/temp/dataset/6/18_8.odb,Step-1,Increment      1: Step Time =    1.000,"PART-1-1",            92,          -15.,          -10.,            0.,NA,NA,"",   592.025E-03,   525.221E-03,   273.197E-03,   4.23830E-03
C:/temp/dataset/6/18_8.odb,Step-1,Increment      1: Step Time =    1.000,"PART-1-1",            93,          -15.,          -20.,            0.,NA,NA,"",   232.268E-03,   158.451E-03,   169.829E-03,   18.5054E-03
C:/temp/dataset/6/18_8.odb,Step-1,Increment      1: Step Time =    1.000,"PART-1-1",            94,          -15.,         -17.5,            0.,NA,NA,"",   312.027E-03,   232.215E-03,   208.416E-03,   16.3054E-03
C:/temp/dataset/6/18_8.odb,Step-1,Increment      1: Step Time =    1.000,"PART-1-1",            95,          -15.,         -27.5,            0.,NA,NA,"",   57.4468E-03,   34.3330E-03,   46.0585E-03,   19.3302E-03
C:/temp/dataset/6/18_8.odb,Step-1,Increment      1: Step Time =    1.000,"PART-1-1",            96,          -15.,          -25.,            0.,NA,NA,"",   106.984E-03,   63.2853E-03,   86.2585E-03,   18.1520E-03
C:/temp/dataset/6/18_8.odb,Step-1,Increment      1: Step Time =    1.000,"PART-1-1",            97,       13.0047,      -3.80353,            0.,NA,NA,"",   775.515E-03,   747.941E-03,  -204.958E-03,   2.45096E-03
C:/temp/dataset/6/18_8.odb,Step-1,Increment      1: Step Time =    1.000,"PART-1-1",            98,       6.97971,      -7.55833,            0.,NA,NA,"",   626.082E-03,   625.203E-03,  -33.1760E-03,   14.0653E-03
C:/temp/dataset/6/18_8.odb,Step-1,Increment      1: Step Time =    1.000,"PART-1-1",            99,       6.96639,      -10.0829,            0.,NA,NA,"",   517.769E-03,   517.547E-03,  -15.1485E-03,   8.86575E-03
C:/temp/dataset/6/18_8.odb,Step-1,Increment      1: Step Time =    1.000,"PART-1-1",           100,       12.9900,      -12.5465,            0.,NA,NA,"",   462.810E-03,   420.672E-03,  -192.944E-03,   7.97852E-03
C:/temp/dataset/6/18_8.odb,Step-1,Increment      1: Step Time =    1.000,"PART-1-1",           101,       6.90028,      -17.1420,            0.,NA,NA,"",   221.813E-03,   221.720E-03,   6.42971E-03,   8.87162E-03
C:/temp/dataset/6/18_8.odb,Step-1,Increment      1: Step Time =    1.000,"PART-1-1",           102,       7.03871,      -19.0570,            0.,NA,NA,"",   149.056E-03,   149.055E-03,   601.636E-06,   9.70946E-03
C:/temp/dataset/6/18_8.odb,Step-1,Increment      1: Step Time =    1.000,"PART-1-1",           103,       5.31709,      -21.2647,            0.,NA,NA,"",   87.7545E-03,   84.5756E-03,   23.4056E-03,   9.71138E-03
C:/temp/dataset/6/18_8.odb,Step-1,Increment      1: Step Time =    1.000,"PART-1-1",           104,      -4.83361,      -22.6144,            0.,NA,NA,"",   67.3404E-03,   65.0784E-03,  -17.3068E-03,   8.61223E-03
C:/temp/dataset/6/18_8.odb,Step-1,Increment      1: Step Time =    1.000,"PART-1-1",           105,      -7.46484,      -17.6587,            0.,NA,NA,"",   191.823E-03,   191.753E-03,   5.19223E-03,   9.60474E-03
C:/temp/dataset/6/18_8.odb,Step-1,Increment      1: Step Time =    1.000,"PART-1-1",           106,      -12.5283,      -27.3245,            0.,NA,NA,"",   35.1312E-03,   20.8232E-03,   28.2947E-03,   13.6371E-03
C:/temp/dataset/6/18_8.odb,Step-1,Increment      1: Step Time =    1.000,"PART-1-1",           107,      -12.4870,      -17.6221,            0.,NA,NA,"",   250.192E-03,   211.765E-03,   133.236E-03,   11.4434E-03
C:/temp/dataset/6/18_8.odb,Step-1,Increment      1: Step Time =    1.000,"PART-1-1",           108,      -7.32043,      -12.6401,            0.,NA,NA,"",   392.883E-03,   392.882E-03,  -1.00595E-03,   5.59299E-03
C:/temp/dataset/6/18_8.odb,Step-1,Increment      1: Step Time =    1.000,"PART-1-1",           109,      -7.14644,      -8.03697,            0.,NA,NA,"",   594.710E-03,   594.693E-03,   4.44806E-03,   10.5739E-03
C:/temp/dataset/6/18_8.odb,Step-1,Increment      1: Step Time =    1.000,"PART-1-1",           110,      -12.6601,       4.88622,            0.,NA,NA,"",       1.06605,       1.04560,   207.763E-03,   8.72446E-03
C:/temp/dataset/6/18_8.odb,Step-1,Increment      1: Step Time =    1.000,"PART-1-1",           111,      -13.0978,       12.5399,            0.,NA,NA,"",       1.26659,       1.24608,   227.013E-03,   503.810E-06
C:/temp/dataset/6/18_8.odb,Step-1,Increment      1: Step Time =    1.000,"PART-1-1",           112,      -6.45576,       21.8628,            0.,NA,NA,"",       1.50805,       1.50762,   35.6247E-03,   3.77113E-06
C:/temp/dataset/6/18_8.odb,Step-1,Increment      1: Step Time =    1.000,"PART-1-1",           113,      -7.28884,       25.7044,            0.,NA,NA,"",       1.61758,       1.61655,   57.6387E-03,   1.83504E-06
C:/temp/dataset/6/18_8.odb,Step-1,Increment      1: Step Time =    1.000,"PART-1-1",           114,      -9.90518,       27.6474,            0.,NA,NA,"",       1.67764,       1.67253,   130.831E-03,   1.03541E-06
C:/temp/dataset/6/18_8.odb,Step-1,Increment      1: Step Time =    1.000,"PART-1-1",           115,      -3.01211,      -3.13168,            0.,NA,NA,"",   787.986E-03,   787.174E-03,  -35.7759E-03,   11.8630E-03
C:/temp/dataset/6/18_8.odb,Step-1,Increment      1: Step Time =    1.000,"PART-1-1",           116,      -2.19169,       3.00836,            0.,NA,NA,"",   902.236E-03,   901.801E-03,  -28.0030E-03,   12.8426E-03
C:/temp/dataset/6/18_8.odb,Step-1,Increment      1: Step Time =    1.000,"PART-1-1",           117,       1.85193,      -2.77696,            0.,NA,NA,"",   792.816E-03,   791.836E-03,  -39.4088E-03,   12.0949E-03
C:/temp/dataset/6/18_8.odb,Step-1,Increment      1: Step Time =    1.000,"PART-1-1",           118,       2.83229,       2.22691,            0.,NA,NA,"",   870.989E-03,   869.987E-03,  -41.7690E-03,   8.01752E-03
C:/temp/dataset/6/18_8.odb,Step-1,Increment      1: Step Time =    1.000,"PART-1-1",           119,       7.74921,       3.07964,            0.,NA,NA,"",   891.382E-03,   886.791E-03,  -90.3509E-03,   2.32237E-03
C:/temp/dataset/6/18_8.odb,Step-1,Increment      1: Step Time =    1.000,"PART-1-1",           120,      -2.47342,      -22.6017,            0.,NA,NA,"",   65.7083E-03,   64.7729E-03,  -11.0474E-03,   10.3988E-03
C:/temp/dataset/6/18_8.odb,Step-1,Increment      1: Step Time =    1.000,"PART-1-1",           121,      -7.48266,       20.3798,            0.,NA,NA,"",       1.46758,       1.46613,   65.2474E-03,   21.2225E-06
C:/temp/dataset/6/18_8.odb,Step-1,Increment      1: Step Time =    1.000,"PART-1-1",           122,      -7.10993,       13.1351,            0.,NA,NA,"",       1.26300,       1.26169,   57.6025E-03,   455.054E-06
C:/temp/dataset/6/18_8.odb,Step-1,Increment      1: Step Time =    1.000,"PART-1-1",           123,      -6.64156,       6.82435,            0.,NA,NA,"",       1.06991,       1.06892,   46.1043E-03,   6.34317E-03
C:/temp/dataset/6/18_8.odb,Step-1,Increment      1: Step Time =    1.000,"PART-1-1",           124,      -12.9641,      -2.37512,            0.,NA,NA,"",   836.966E-03,   812.733E-03,   199.940E-03,   873.132E-06
C:/temp/dataset/6/18_8.odb,Step-1,Increment      1: Step Time =    1.000,"PART-1-1",           125,      -12.1317,      -9.84573,            0.,NA,NA,"",   550.419E-03,   524.580E-03,   166.663E-03,   7.10371E-03
C:/temp/dataset/6/18_8.odb,Step-1,Increment      1: Step Time =    1.000,"PART-1-1",           126,       4.04132,      -2.67712,            0.,NA,NA,"",   787.622E-03,   786.845E-03,  -34.9664E-03,   12.9884E-03
C:/temp/dataset/6/18_8.odb,Step-1,Increment      1: Step Time =    1.000,"PART-1-1",           127,       6.95362,      -12.5367,            0.,NA,NA,"",   412.075E-03,   412.072E-03,  -1.65305E-03,   6.26322E-03
C:/temp/dataset/6/18_8.odb,Step-1,Increment      1: Step Time =    1.000,"PART-1-1",           128,       6.92458,      -14.9216,            0.,NA,NA,"",   311.326E-03,   311.288E-03,   4.84593E-03,   5.61987E-03
C:/temp/dataset/6/18_8.odb,Step-1,Increment      1: Step Time =    1.000,"PART-1-1",           129,       12.9089,      -21.3671,            0.,NA,NA,"",   154.584E-03,   112.766E-03,  -105.736E-03,   13.3369E-03
C:/temp/dataset/6/18_8.odb,Step-1,Increment      1: Step Time =    1.000,"PART-1-1",           130,   283.131E-03,      -22.8786,            0.,NA,NA,"",   64.0481E-03,   64.0341E-03,   1.33868E-03,   7.62440E-03
C:/temp/dataset/6/18_8.odb,Step-1,Increment      1: Step Time =    1.000,"PART-1-1",           131,      -12.9776,      -22.4214,            0.,NA,NA,"",   128.159E-03,   89.1880E-03,   92.0337E-03,   13.7718E-03
C:/temp/dataset/6/18_8.odb,Step-1,Increment      1: Step Time =    1.000,"PART-1-1",           132,      -7.42030,      -15.1083,            0.,NA,NA,"",   290.001E-03,   289.990E-03,   2.50645E-03,   6.01512E-03
C:/temp/dataset/6/18_8.odb,Step-1,Increment      1: Step Time =    1.000,"PART-1-1",           133,      -7.18486,      -10.2642,            0.,NA,NA,"",   496.143E-03,   496.142E-03,  -870.522E-06,   6.93553E-03
C:/temp/dataset/6/18_8.odb,Step-1,Increment      1: Step Time =    1.000,"PART-1-1",           134,      -7.33974,      -5.93881,            0.,NA,NA,"",   687.843E-03,   687.566E-03,   19.5218E-03,   8.91804E-03
C:/temp/dataset/6/18_8.odb,Step-1,Increment      1: Step Time =    1.000,"PART-1-1",           135,  -533.729E-03,      -2.94296,            0.,NA,NA,"",   793.365E-03,   792.315E-03,  -40.7990E-03,   7.83262E-03
C:/temp/dataset/6/18_8.odb,Step-1,Increment      1: Step Time =    1.000,"PART-1-1",           136,       10.2172,      -28.0250,            0.,NA,NA,"",   12.5630E-03,   7.39957E-03,  -10.1526E-03,   6.81969E-03
C:/temp/dataset/6/18_8.odb,Step-1,Increment      1: Step Time =    1.000,"PART-1-1",           137,       7.82196,      -28.0777,            0.,NA,NA,"",   7.89364E-03,   7.40360E-03,  -2.73793E-03,   3.30855E-03
C:/temp/dataset/6/18_8.odb,Step-1,Increment      1: Step Time =    1.000,"PART-1-1",           138,       5.43540,      -28.0544,            0.,NA,NA,"",   11.1975E-03,   11.0989E-03,   1.48290E-03,   4.59458E-03
C:/temp/dataset/6/18_8.odb,Step-1,Increment      1: Step Time =    1.000,"PART-1-1",           139,       2.98405,      -27.8165,            0.,NA,NA,"",   17.6342E-03,   17.4294E-03,   2.67953E-03,   6.25899E-03
C:/temp/dataset/6/18_8.odb,Step-1,Increment      1: Step Time =    1.000,"PART-1-1",           140,   324.250E-03,      -27.0908,            0.,NA,NA,"",   26.4285E-03,   26.4201E-03,   667.710E-06,   7.08104E-03
C:/temp/dataset/6/18_8.odb,Step-1,Increment      1: Step Time =    1.000,"PART-1-1",           141,      -2.46293,      -27.5198,            0.,NA,NA,"",   20.7096E-03,   20.5425E-03,  -2.62561E-03,   6.51731E-03
C:/temp/dataset/6/18_8.odb,Step-1,Increment      1: Step Time =    1.000,"PART-1-1",           142,      -4.88996,      -27.5861,            0.,NA,NA,"",   15.6883E-03,   15.4805E-03,  -2.54531E-03,   5.28948E-03
C:/temp/dataset/6/18_8.odb,Step-1,Increment      1: Step Time =    1.000,"PART-1-1",           143,      -7.26500,      -27.4866,            0.,NA,NA,"",   11.9987E-03,   11.8555E-03,   1.84783E-03,   3.46613E-03
C:/temp/dataset/6/18_8.odb,Step-1,Increment      1: Step Time =    1.000,"PART-1-1",           144,      -9.86695,      -26.8928,            0.,NA,NA,"",   21.5746E-03,   16.0096E-03,   14.4623E-03,   6.12564E-03
C:/temp/dataset/6/18_8.odb,Step-1,Increment      1: Step Time =    1.000,"PART-1-1",           145,       12.7710,      -23.5898,            0.,NA,NA,"",   102.420E-03,   68.7397E-03,  -75.9261E-03,   13.4130E-03
C:/temp/dataset/6/18_8.odb,Step-1,Increment      1: Step Time =    1.000,"PART-1-1",           146,       12.6989,      -25.7990,            0.,NA,NA,"",   60.5679E-03,   37.3486E-03,  -47.6817E-03,   13.8651E-03
C:/temp/dataset/6/18_8.odb,Step-1,Increment      1: Step Time =    1.000,"PART-1-1",           147,       12.6207,      -27.9366,            0.,NA,NA,"",   26.8524E-03,   15.1183E-03,  -22.1920E-03,   13.9295E-03
C:/temp/dataset/6/18_8.odb,Step-1,Increment      1: Step Time =    1.000,"PART-1-1",           148,       12.9983,      -14.8223,            0.,NA,NA,"",   371.494E-03,   326.309E-03,  -177.567E-03,   9.82692E-03
C:/temp/dataset/6/18_8.odb,Step-1,Increment      1: Step Time =    1.000,"PART-1-1",           149,       13.0558,      -17.0719,            0.,NA,NA,"",   288.202E-03,   240.518E-03,  -158.781E-03,   11.5772E-03
C:/temp/dataset/6/18_8.odb,Step-1,Increment      1: Step Time =    1.000,"PART-1-1",           150,       13.1682,      -19.2108,            0.,NA,NA,"",   219.657E-03,   170.803E-03,  -138.114E-03,   13.1226E-03
C:/temp/dataset/6/18_8.odb,Step-1,Increment      1: Step Time =    1.000,"PART-1-1",           151,       13.0670,      -5.94273,            0.,NA,NA,"",   714.244E-03,   682.687E-03,  -209.961E-03,   3.05725E-03
C:/temp/dataset/6/18_8.odb,Step-1,Increment      1: Step Time =    1.000,"PART-1-1",           152,       13.0350,      -8.09399,            0.,NA,NA,"",   639.895E-03,   604.727E-03,  -209.214E-03,   4.57285E-03
C:/temp/dataset/6/18_8.odb,Step-1,Increment      1: Step Time =    1.000,"PART-1-1",           153,       12.9982,      -10.2981,            0.,NA,NA,"",   554.259E-03,   515.598E-03,  -203.373E-03,   6.26805E-03
C:/temp/dataset/6/18_8.odb,Step-1,Increment      1: Step Time =    1.000,"PART-1-1",           154,       12.5107,   556.281E-03,            0.,NA,NA,"",   866.401E-03,   846.076E-03,  -186.564E-03,   3.21465E-03
C:/temp/dataset/6/18_8.odb,Step-1,Increment      1: Step Time =    1.000,"PART-1-1",           155,       12.7702,      -1.64554,            0.,NA,NA,"",   824.746E-03,   801.324E-03,  -195.156E-03,   2.75828E-03
C:/temp/dataset/6/18_8.odb,Step-1,Increment      1: Step Time =    1.000,"PART-1-1",           156,       10.0517,       2.85834,            0.,NA,NA,"",   896.718E-03,   886.788E-03,  -133.081E-03,   2.87323E-03
C:/temp/dataset/6/18_8.odb,Step-1,Increment      1: Step Time =    1.000,"PART-1-1",           157,       5.39286,       2.85476,            0.,NA,NA,"",   881.425E-03,   879.452E-03,  -58.9473E-03,   3.29866E-03
C:/temp/dataset/6/18_8.odb,Step-1,Increment      1: Step Time =    1.000,"PART-1-1",           158,   175.602E-03,       2.90951,            0.,NA,NA,"",   887.490E-03,   886.791E-03,  -35.2212E-03,   9.61548E-03
C:/temp/dataset/6/18_8.odb,Step-1,Increment      1: Step Time =    1.000,"PART-1-1",           159,      -4.35394,       2.91920,            0.,NA,NA,"",   917.316E-03,   917.239E-03,  -11.8616E-03,   8.97055E-03
C:/temp/dataset/6/18_8.odb,Step-1,Increment      1: Step Time =    1.000,"PART-1-1",           160,      -7.05997,       10.9599,            0.,NA,NA,"",       1.20095,       1.19960,   56.9905E-03,   518.295E-06
C:/temp/dataset/6/18_8.odb,Step-1,Increment      1: Step Time =    1.000,"PART-1-1",           161,      -6.93805,       8.84105,            0.,NA,NA,"",       1.13745,       1.13615,   54.3456E-03,   865.845E-06
C:/temp/dataset/6/18_8.odb,Step-1,Increment      1: Step Time =    1.000,"PART-1-1",           162,      -7.28921,       17.6445,            0.,NA,NA,"",       1.39019,       1.38886,   60.8793E-03,   94.8751E-06
C:/temp/dataset/6/18_8.odb,Step-1,Increment      1: Step Time =    1.000,"PART-1-1",           163,      -7.17735,       15.3234,            0.,NA,NA,"",       1.32472,       1.32342,   58.6466E-03,   249.436E-06
C:/temp/dataset/6/18_8.odb,Step-1,Increment      1: Step Time =    1.000,"PART-1-1",           164,      -6.93557,       23.5874,            0.,NA,NA,"",       1.55731,       1.55656,   48.4980E-03,   987.364E-09
C:/temp/dataset/6/18_8.odb,Step-1,Increment      1: Step Time =    1.000,"PART-1-1",           165,      -13.1925,       19.7530,            0.,NA,NA,"",       1.46821,       1.45057,   226.938E-03,   25.6485E-06
C:/temp/dataset/6/18_8.odb,Step-1,Increment      1: Step Time =    1.000,"PART-1-1",           166,      -7.44963,       27.8335,            0.,NA,NA,"",       1.67793,       1.67681,   61.3335E-03,   1.44797E-06
C:/temp/dataset/6/18_8.odb,Step-1,Increment      1: Step Time =    1.000,"PART-1-1",           167,      -13.0424,       22.0734,            0.,NA,NA,"",       1.53230,       1.51617,   221.765E-03,   3.74374E-06
C:/temp/dataset/6/18_8.odb,Step-1,Increment      1: Step Time =    1.000,"PART-1-1",           168,      -13.1316,       14.9813,            0.,NA,NA,"",       1.33469,       1.31523,   227.095E-03,   281.118E-06
C:/temp/dataset/6/18_8.odb,Step-1,Increment      1: Step Time =    1.000,"PART-1-1",           169,      -13.1727,       17.3972,            0.,NA,NA,"",       1.40236,       1.38381,   227.307E-03,   95.0054E-06
C:/temp/dataset/6/18_8.odb,Step-1,Increment      1: Step Time =    1.000,"PART-1-1",           170,      -12.8574,       7.53984,            0.,NA,NA,"",       1.13617,       1.11448,   220.931E-03,   4.98132E-03
C:/temp/dataset/6/18_8.odb,Step-1,Increment      1: Step Time =    1.000,"PART-1-1",           171,      -13.0166,       10.0884,            0.,NA,NA,"",       1.19958,       1.17813,   225.858E-03,   877.801E-06
C:/temp/dataset/6/18_8.odb,Step-1,Increment      1: Step Time =    1.000,"PART-1-1",           172,      -12.8045,  -118.323E-03,            0.,NA,NA,"",   911.888E-03,   890.765E-03,   195.137E-03,   4.55419E-03
C:/temp/dataset/6/18_8.odb,Step-1,Increment      1: Step Time =    1.000,"PART-1-1",           173,      -12.7039,       2.28772,            0.,NA,NA,"",   990.075E-03,   969.947E-03,   198.623E-03,   8.73050E-03
C:/temp/dataset/6/18_8.odb,Step-1,Increment      1: Step Time =    1.000,"PART-1-1",           174,      -12.8488,      -7.31355,            0.,NA,NA,"",   661.657E-03,   631.833E-03,   196.412E-03,   3.88424E-03
C:/temp/dataset/6/18_8.odb,Step-1,Increment      1: Step Time =    1.000,"PART-1-1",           175,      -12.6051,      -4.81291,            0.,NA,NA,"",   751.726E-03,   727.666E-03,   188.665E-03,   1.40420E-03
C:/temp/dataset/6/18_8.odb,Step-1,Increment      1: Step Time =    1.000,"PART-1-1",           176,      -12.4260,      -15.0682,            0.,NA,NA,"",   341.051E-03,   305.404E-03,   151.803E-03,   10.1259E-03
C:/temp/dataset/6/18_8.odb,Step-1,Increment      1: Step Time =    1.000,"PART-1-1",           177,      -12.3344,      -12.5112,            0.,NA,NA,"",   441.884E-03,   410.463E-03,   163.650E-03,   8.69300E-03
C:/temp/dataset/6/18_8.odb,Step-1,Increment      1: Step Time =    1.000,"PART-1-1",           178,      -12.6598,      -20.1148,            0.,NA,NA,"",   178.200E-03,   138.362E-03,   112.299E-03,   12.6995E-03
C:/temp/dataset/6/18_8.odb,Step-1,Increment      1: Step Time =    1.000,"PART-1-1",           179,      -8.70618,       22.9331,            0.,NA,NA,"",       1.54194,       1.53877,   98.8143E-03,   3.97614E-06
C:/temp/dataset/6/18_8.odb,Step-1,Increment      1: Step Time =    1.000,"PART-1-1",           180,      -9.21222,       15.1634,            0.,NA,NA,"",       1.32461,       1.31946,   116.669E-03,   298.321E-06
C:/temp/dataset/6/18_8.odb,Step-1,Increment      1: Step Time =    1.000,"PART-1-1",           181,      -9.55138,       19.8926,            0.,NA,NA,"",       1.45843,       1.45315,   123.954E-03,   34.8409E-06
C:/temp/dataset/6/18_8.odb,Step-1,Increment      1: Step Time =    1.000,"PART-1-1",           182,      -8.92203,       8.32966,            0.,NA,NA,"",       1.12868,       1.12306,   112.476E-03,   2.06619E-03
C:/temp/dataset/6/18_8.odb,Step-1,Increment      1: Step Time =    1.000,"PART-1-1",           183,      -9.17670,       12.8809,            0.,NA,NA,"",       1.26046,       1.25500,   117.225E-03,   523.118E-06
C:/temp/dataset/6/18_8.odb,Step-1,Increment      1: Step Time =    1.000,"PART-1-1",           184,      -9.09923,       10.6117,            0.,NA,NA,"",       1.19617,       1.19047,   116.710E-03,   571.169E-06
C:/temp/dataset/6/18_8.odb,Step-1,Increment      1: Step Time =    1.000,"PART-1-1",           185,      -9.30530,       17.5014,            0.,NA,NA,"",       1.39052,       1.38550,   118.064E-03,   118.583E-06
C:/temp/dataset/6/18_8.odb,Step-1,Increment      1: Step Time =    1.000,"PART-1-1",           186,      -8.37864,       6.17865,            0.,NA,NA,"",       1.05682,       1.05261,   94.2243E-03,   7.86418E-03
C:/temp/dataset/6/18_8.odb,Step-1,Increment      1: Step Time =    1.000,"PART-1-1",           187,       10.9988,      -10.2527,            0.,NA,NA,"",   534.603E-03,   515.919E-03,  -140.099E-03,   9.11531E-03
C:/temp/dataset/6/18_8.odb,Step-1,Increment      1: Step Time =    1.000,"PART-1-1",           188,       10.8643,      -17.5211,            0.,NA,NA,"",   235.403E-03,   215.240E-03,  -95.3213E-03,   10.3553E-03
C:/temp/dataset/6/18_8.odb,Step-1,Increment      1: Step Time =    1.000,"PART-1-1",           189,       11.0508,      -8.01555,            0.,NA,NA,"",   626.760E-03,   608.742E-03,  -149.200E-03,   7.46941E-03
C:/temp/dataset/6/18_8.odb,Step-1,Increment      1: Step Time =    1.000,"PART-1-1",           190,       10.6332,      -2.00908,            0.,NA,NA,"",   809.038E-03,   796.359E-03,  -142.675E-03,   2.23141E-03
C:/temp/dataset/6/18_8.odb,Step-1,Increment      1: Step Time =    1.000,"PART-1-1",           191,       11.1668,      -5.92645,            0.,NA,NA,"",   703.781E-03,   686.325E-03,  -155.777E-03,   4.70115E-03
C:/temp/dataset/6/18_8.odb,Step-1,Increment      1: Step Time =    1.000,"PART-1-1",           192,       10.9732,      -14.9280,            0.,NA,NA,"",   336.639E-03,   316.235E-03,  -115.416E-03,   10.1471E-03
C:/temp/dataset/6/18_8.odb,Step-1,Increment      1: Step Time =    1.000,"PART-1-1",           193,       10.5476,      -23.6927,            0.,NA,NA,"",   69.7631E-03,   56.4050E-03,  -41.0532E-03,   8.03091E-03
C:/temp/dataset/6/18_8.odb,Step-1,Increment      1: Step Time =    1.000,"PART-1-1",           194,       10.5707,      -21.1850,            0.,NA,NA,"",   120.601E-03,   104.383E-03,  -60.4044E-03,   9.15244E-03
C:/temp/dataset/6/18_8.odb,Step-1,Increment      1: Step Time =    1.000,"PART-1-1",           195,       10.9760,      -12.5622,            0.,NA,NA,"",   435.798E-03,   416.364E-03,  -128.690E-03,   9.79045E-03
C:/temp/dataset/6/18_8.odb,Step-1,Increment      1: Step Time =    1.000,"PART-1-1",           196,       11.6229,      -19.2502,            0.,NA,NA,"",   189.759E-03,   161.466E-03,  -99.6862E-03,   10.9122E-03
C:/temp/dataset/6/18_8.odb,Step-1,Increment      1: Step Time =    1.000,"PART-1-1",           197,       11.1609,      -3.97100,            0.,NA,NA,"",   762.973E-03,   746.851E-03,  -156.016E-03,   2.17343E-03
C:/temp/dataset/6/18_8.odb,Step-1,Increment      1: Step Time =    1.000,"PART-1-1",           198,      -9.55101,       25.2781,            0.,NA,NA,"",       1.61001,       1.60540,   121.763E-03,   1.49490E-06
C:/temp/dataset/6/18_8.odb,Step-1,Increment      1: Step Time =    1.000,"PART-1-1",           199,      -6.13353,       2.97524,            0.,NA,NA,"",   932.561E-03,   932.330E-03,   20.7610E-03,   9.62150E-03
C:/temp/dataset/6/18_8.odb,Step-1,Increment      1: Step Time =    1.000,"PART-1-1",           200,       8.52809,      -18.5145,            0.,NA,NA,"",   175.059E-03,   171.697E-03,  -34.1440E-03,   8.94518E-03
C:/temp/dataset/6/18_8.odb,Step-1,Increment      1: Step Time =    1.000,"PART-1-1",           201,      -9.31256,      -6.57829,            0.,NA,NA,"",   665.396E-03,   660.594E-03,   79.7959E-03,   6.88901E-03
C:/temp/dataset/6/18_8.odb,Step-1,Increment      1: Step Time =    1.000,"PART-1-1",           202,      -7.82061,      -4.24854,            0.,NA,NA,"",   751.625E-03,   750.764E-03,   35.9821E-03,   5.34515E-03
C:/temp/dataset/6/18_8.odb,Step-1,Increment      1: Step Time =    1.000,"PART-1-1",           203,       7.55002,      -20.4955,            0.,NA,NA,"",   107.633E-03,   107.379E-03,  -7.39678E-03,   7.64109E-03
C:/temp/dataset/6/18_8.odb,Step-1,Increment      1: Step Time =    1.000,"PART-1-1",           204,      -9.18944,      -8.43706,            0.,NA,NA,"",   585.788E-03,   581.295E-03,   72.4160E-03,   8.42110E-03
C:/temp/dataset/6/18_8.odb,Step-1,Increment      1: Step Time =    1.000,"PART-1-1",           205,      -12.3720,       27.4312,            0.,NA,NA,"",       1.67944,       1.66741,   200.665E-03,   1.64579E-06
C:/temp/dataset/6/18_8.odb,Step-1,Increment      1: Step Time =    1.000,"PART-1-1",           206,      -10.3791,       22.2070,            0.,NA,NA,"",       1.52594,       1.51890,   146.405E-03,   7.40639E-06
C:/temp/dataset/6/18_8.odb,Step-1,Increment      1: Step Time =    1.000,"PART-1-1",           207,       3.40286,  -884.176E-03,            0.,NA,NA,"",   818.387E-03,   817.448E-03,  -39.1902E-03,   10.9072E-03
C:/temp/dataset/6/18_8.odb,Step-1,Increment      1: Step Time =    1.000,"PART-1-1",           208,       7.88020,       1.44192,            0.,NA,NA,"",   865.450E-03,   860.777E-03,  -89.8165E-03,   2.20780E-03
C:/temp/dataset/6/18_8.odb,Step-1,Increment      1: Step Time =    1.000,"PART-1-1",           209,      -1.17287,  -897.893E-03,            0.,NA,NA,"",   825.864E-03,   824.917E-03,  -39.5324E-03,   11.2337E-03
C:/temp/dataset/6/18_8.odb,Step-1,Increment      1: Step Time =    1.000,"PART-1-1",           210,       10.4014,      -25.9274,            0.,NA,NA,"",   35.6901E-03,   26.5408E-03,  -23.8614E-03,   7.30283E-03
C:/temp/dataset/6/18_8.odb,Step-1,Increment      1: Step Time =    1.000,"PART-1-1",           211,       2.00108,      -24.8239,            0.,NA,NA,"",   47.4773E-03,   46.9302E-03,   7.18729E-03,   8.64654E-03
C:/temp/dataset/6/18_8.odb,Step-1,Increment      1: Step Time =    1.000,"PART-1-1",           212,      -4.80900,      -25.1606,            0.,NA,NA,"",   38.4189E-03,   37.4301E-03,  -8.66026E-03,   6.54095E-03
C:/temp/dataset/6/18_8.odb,Step-1,Increment      1: Step Time =    1.000,"PART-1-1",           213,      -11.5765,       21.3848,            0.,NA,NA,"",       1.50697,       1.49611,   180.592E-03,   12.3428E-06
C:/temp/dataset/6/18_8.odb,Step-1,Increment      1: Step Time =    1.000,"PART-1-1",           214,      -11.0630,       10.3038,            0.,NA,NA,"",       1.19554,       1.18304,   172.468E-03,   644.243E-06
C:/temp/dataset/6/18_8.odb,Step-1,Increment      1: Step Time =    1.000,"PART-1-1",           215,      -10.2832,  -591.021E-03,            0.,NA,NA,"",   872.799E-03,   865.151E-03,   115.285E-03,   4.45873E-03
C:/temp/dataset/6/18_8.odb,Step-1,Increment      1: Step Time =    1.000,"PART-1-1",           216,      -11.1869,      -5.64306,            0.,NA,NA,"",   710.646E-03,   696.609E-03,   140.550E-03,   3.68596E-03
C:/temp/dataset/6/18_8.odb,Step-1,Increment      1: Step Time =    1.000,"PART-1-1",           217,      -9.48237,      -10.3825,            0.,NA,NA,"",   501.812E-03,   495.850E-03,   77.1268E-03,   8.26416E-03
C:/temp/dataset/6/18_8.odb,Step-1,Increment      1: Step Time =    1.000,"PART-1-1",           218,      -10.0191,      -20.7277,            0.,NA,NA,"",   119.938E-03,   108.143E-03,   51.8674E-03,   7.98872E-03
C:/temp/dataset/6/18_8.odb,Step-1,Increment      1: Step Time =    1.000,"PART-1-1",           219,      -12.8377,      -24.8331,            0.,NA,NA,"",   78.3759E-03,   50.1355E-03,   60.2430E-03,   13.8982E-03
C:/temp/dataset/6/18_8.odb,Step-1,Increment      1: Step Time =    1.000,"PART-1-1",           220,  -752.185E-03,      -25.0561,            0.,NA,NA,"",   45.4435E-03,   45.3752E-03,  -2.48980E-03,   8.22442E-03
C:/temp/dataset/6/18_8.odb,Step-1,Increment      1: Step Time =    1.000,"PART-1-1",           221,      -11.3411,      -22.5061,            0.,NA,NA,"",   99.8968E-03,   78.0204E-03,   62.3874E-03,   10.0459E-03
C:/temp/dataset/6/18_8.odb,Step-1,Increment      1: Step Time =    1.000,"PART-1-1",           222,       5.90860,      -26.1342,            0.,NA,NA,"",   26.1878E-03,   25.8969E-03,   3.89254E-03,   5.10985E-03
C:/temp/dataset/6/18_8.odb,Step-1,Increment      1: Step Time =    1.000,"PART-1-1",           223,       3.81352,      -25.8758,            0.,NA,NA,"",   34.2409E-03,   33.4255E-03,   7.42818E-03,   7.40537E-03
C:/temp/dataset/6/18_8.odb,Step-1,Increment      1: Step Time =    1.000,"PART-1-1",           224,      -6.87266,      -25.1947,            0.,NA,NA,"",   32.4657E-03,   32.4528E-03,  -914.265E-06,   3.47393E-03
C:/temp/dataset/6/18_8.odb,Step-1,Increment      1: Step Time =    1.000,"PART-1-1",           225,       9.77381,   336.875E-03,            0.,NA,NA,"",   852.175E-03,   842.995E-03,  -124.743E-03,   2.88842E-03
C:/temp/dataset/6/18_8.odb,Step-1,Increment      1: Step Time =    1.000,"PART-1-1",           226,       4.59800,   29.7464E-03,            0.,NA,NA,"",   835.229E-03,   833.950E-03,  -46.2036E-03,   8.27173E-03
C:/temp/dataset/6/18_8.odb,Step-1,Increment      1: Step Time =    1.000,"PART-1-1",           227,      -11.1551,       12.6912,            0.,NA,NA,"",       1.26190,       1.24995,   173.269E-03,   564.837E-06
C:/temp/dataset/6/18_8.odb,Step-1,Increment      1: Step Time =    1.000,"PART-1-1",           228,      -11.2689,       17.3859,            0.,NA,NA,"",       1.39369,       1.38284,   173.618E-03,   123.061E-06
C:/temp/dataset/6/18_8.odb,Step-1,Increment      1: Step Time =    1.000,"PART-1-1",           229,      -11.2102,       15.0558,            0.,NA,NA,"",       1.32816,       1.31682,   173.188E-03,   305.016E-06
C:/temp/dataset/6/18_8.odb,Step-1,Increment      1: Step Time =    1.000,"PART-1-1",           230,      -10.8139,       7.79620,            0.,NA,NA,"",       1.12563,       1.11345,   165.128E-03,   3.55006E-03
C:/temp/dataset/6/18_8.odb,Step-1,Increment      1: Step Time =    1.000,"PART-1-1",           231,      -10.1648,       4.85487,            0.,NA,NA,"",       1.03390,       1.02469,   137.662E-03,   9.39819E-03
C:/temp/dataset/6/18_8.odb,Step-1,Increment      1: Step Time =    1.000,"PART-1-1",           232,      -10.4473,       2.01195,            0.,NA,NA,"",   952.711E-03,   943.714E-03,   130.623E-03,   9.14491E-03
C:/temp/dataset/6/18_8.odb,Step-1,Increment      1: Step Time =    1.000,"PART-1-1",           233,      -10.4810,      -3.59789,            0.,NA,NA,"",   779.332E-03,   770.394E-03,   117.694E-03,   1.92657E-03
C:/temp/dataset/6/18_8.odb,Step-1,Increment      1: Step Time =    1.000,"PART-1-1",           234,      -9.89141,      -15.1395,            0.,NA,NA,"",   302.935E-03,   293.133E-03,   76.4392E-03,   8.60885E-03
C:/temp/dataset/6/18_8.odb,Step-1,Increment      1: Step Time =    1.000,"PART-1-1",           235,      -9.95744,      -17.7636,            0.,NA,NA,"",   205.624E-03,   194.171E-03,   67.6681E-03,   9.50324E-03
C:/temp/dataset/6/18_8.odb,Step-1,Increment      1: Step Time =    1.000,"PART-1-1",           236,      -3.63694,      -1.16253,            0.,NA,NA,"",   825.563E-03,   824.996E-03,  -30.6012E-03,   10.2564E-03
C:/temp/dataset/6/18_8.odb,Step-1,Increment      1: Step Time =    1.000,"PART-1-1",           237,      -7.00580,      -22.7773,            0.,NA,NA,"",   60.8031E-03,   60.7564E-03,  -2.38237E-03,   2.01749E-03
C:/temp/dataset/6/18_8.odb,Step-1,Increment      1: Step Time =    1.000,"PART-1-1",           238,       7.08723,      -4.67483,            0.,NA,NA,"",   740.314E-03,   738.263E-03,  -55.0594E-03,   9.00027E-03
C:/temp/dataset/6/18_8.odb,Step-1,Increment      1: Step Time =    1.000,"PART-1-1",           239,       8.96532,      -10.1697,            0.,NA,NA,"",   523.555E-03,   517.536E-03,  -79.1555E-03,   9.56122E-03
C:/temp/dataset/6/18_8.odb,Step-1,Increment      1: Step Time =    1.000,"PART-1-1",           240,       8.99874,      -7.82238,            0.,NA,NA,"",   624.443E-03,   617.637E-03,  -91.9485E-03,   10.0790E-03
C:/temp/dataset/6/18_8.odb,Step-1,Increment      1: Step Time =    1.000,"PART-1-1",           241,       8.96760,      -14.8663,            0.,NA,NA,"",   320.007E-03,   314.681E-03,  -58.1394E-03,   8.92124E-03
C:/temp/dataset/6/18_8.odb,Step-1,Increment      1: Step Time =    1.000,"PART-1-1",           242,      -12.0836,       24.5335,            0.,NA,NA,"",       1.59715,       1.58536,   193.667E-03,   1.70121E-06
C:/temp/dataset/6/18_8.odb,Step-1,Increment      1: Step Time =    1.000,"PART-1-1",           243,       9.21542,      -5.66363,            0.,NA,NA,"",   707.382E-03,   699.641E-03,  -104.366E-03,   6.95334E-03
C:/temp/dataset/6/18_8.odb,Step-1,Increment      1: Step Time =    1.000,"PART-1-1",           244,       8.72776,      -2.97127,            0.,NA,NA,"",   783.925E-03,   777.973E-03,  -96.4184E-03,   3.63848E-03
C:/temp/dataset/6/18_8.odb,Step-1,Increment      1: Step Time =    1.000,"PART-1-1",           245,       9.39471,      -19.4524,            0.,NA,NA,"",   152.619E-03,   144.746E-03,  -48.3865E-03,   9.00957E-03
C:/temp/dataset/6/18_8.odb,Step-1,Increment      1: Step Time =    1.000,"PART-1-1",           246,       8.06548,      -22.0810,            0.,NA,NA,"",   76.7564E-03,   75.8304E-03,  -11.8866E-03,   3.43358E-03
C:/temp/dataset/6/18_8.odb,Step-1,Increment      1: Step Time =    1.000,"PART-1-1",           247,      -7.53738,       4.79758,            0.,NA,NA,"",       1.00243,       1.00024,   66.3512E-03,   10.8982E-03
C:/temp/dataset/6/18_8.odb,Step-1,Increment      1: Step Time =    1.000,"PART-1-1",           248,      -10.8025,      -24.3532,            0.,NA,NA,"",   60.6905E-03,   46.4292E-03,   39.0854E-03,   8.47467E-03
C:/temp/dataset/6/18_8.odb,Step-1,Increment      1: Step Time =    1.000,"PART-1-1",           249,       5.82981,      -2.08643,            0.,NA,NA,"",   798.930E-03,   797.522E-03,  -47.4115E-03,   9.04939E-03
C:/temp/dataset/6/18_8.odb,Step-1,Increment      1: Step Time =    1.000,"PART-1-1",           250,      -8.67175,      -2.53401,            0.,NA,NA,"",   806.055E-03,   803.599E-03,   62.8697E-03,   2.75583E-03
C:/temp/dataset/6/18_8.odb,Step-1,Increment      1: Step Time =    1.000,"PART-1-1",           251,       5.78686,      -22.7214,            0.,NA,NA,"",   66.0617E-03,   64.6021E-03,   13.8100E-03,   6.01746E-03
C:/temp/dataset/6/18_8.odb,Step-1,Increment      1: Step Time =    1.000,"PART-1-1",           252,      -8.27594,       1.60152,            0.,NA,NA,"",   917.380E-03,   914.886E-03,   67.5947E-03,   8.73965E-03
C:/temp/dataset/6/18_8.odb,Step-1,Increment      1: Step Time =    1.000,"PART-1-1",           253,       8.25490,      -24.0061,            0.,NA,NA,"",   47.9132E-03,   46.7211E-03,  -10.6218E-03,   2.26972E-03
C:/temp/dataset/6/18_8.odb,Step-1,Increment      1: Step Time =    1.000,"PART-1-1",           254,      -9.04303,      -23.2600,            0.,NA,NA,"",   60.5988E-03,   56.3760E-03,   22.2252E-03,   4.47995E-03
C:/temp/dataset/6/18_8.odb,Step-1,Increment      1: Step Time =    1.000,"PART-1-1",           255,       7.61656,      -1.09448,            0.,NA,NA,"",   820.920E-03,   817.178E-03,  -78.2955E-03,   3.92916E-03
C:/temp/dataset/6/18_8.odb,Step-1,Increment      1: Step Time =    1.000,"PART-1-1",           256,      -4.02262,   861.151E-03,            0.,NA,NA,"",   870.528E-03,   870.278E-03,  -20.8491E-03,   8.84066E-03
C:/temp/dataset/6/18_8.odb,Step-1,Increment      1: Step Time =    1.000,"PART-1-1",           257,  -104.141E-03,       1.31276,            0.,NA,NA,"",   863.342E-03,   862.516E-03,  -37.7503E-03,   11.5487E-03
C:/temp/dataset/6/18_8.odb,Step-1,Increment      1: Step Time =    1.000,"PART-1-1",           258,       3.72123,      -23.4419,            0.,NA,NA,"",   60.6575E-03,   58.7521E-03,   15.0841E-03,   9.69466E-03
C:/temp/dataset/6/18_8.odb,Step-1,Increment      1: Step Time =    1.000,"PART-1-1",           259,      -10.7950,      -8.39617,            0.,NA,NA,"",   597.772E-03,   584.594E-03,   124.827E-03,   6.98031E-03
C:/temp/dataset/6/18_8.odb,Step-1,Increment      1: Step Time =    1.000,"PART-1-1",           260,      -1.85786,       1.02916,            0.,NA,NA,"",   864.945E-03,   864.236E-03,  -35.0006E-03,   11.8162E-03
C:/temp/dataset/6/18_8.odb,Step-1,Increment      1: Step Time =    1.000,"PART-1-1",           261,      -6.46179,      -1.33856,            0.,NA,NA,"",   830.120E-03,   830.059E-03,   10.1110E-03,   5.66322E-03
C:/temp/dataset/6/18_8.odb,Step-1,Increment      1: Step Time =    1.000,"PART-1-1",           262,      -11.1078,      -7.00587,            0.,NA,NA,"",   657.416E-03,   642.939E-03,   137.201E-03,   5.34806E-03
C:/temp/dataset/6/18_8.odb,Step-1,Increment      1: Step Time =    1.000,"PART-1-1",           263,      -5.52697,      -3.44125,            0.,NA,NA,"",   777.323E-03,   777.101E-03,  -18.5817E-03,   9.12781E-03
C:/temp/dataset/6/18_8.odb,Step-1,Increment      1: Step Time =    1.000,"PART-1-1",           264,      -9.72268,      -4.98378,            0.,NA,NA,"",   728.339E-03,   722.330E-03,   93.3704E-03,   4.37328E-03
C:/temp/dataset/6/18_8.odb,Step-1,Increment      1: Step Time =    1.000,"PART-1-1",           265,      -6.27329,       4.89376,            0.,NA,NA,"",   991.474E-03,   990.921E-03,   33.1195E-03,   14.4240E-03
C:/temp/dataset/6/18_8.odb,Step-1,Increment      1: Step Time =    1.000,"PART-1-1",           266,       12.4963,       2.80040,            0.,NA,NA,"",   906.506E-03,   887.313E-03,  -185.551E-03,   2.51056E-03
C:/temp/dataset/6/18_8.odb,Step-1,Increment      1: Step Time =    1.000,"PART-1-1",           267,      -7.37176,      -20.2559,            0.,NA,NA,"",   107.583E-03,   107.513E-03,   3.88839E-03,   7.23323E-03
C:/temp/dataset/6/18_8.odb,Step-1,Increment      1: Step Time =    1.000,"PART-1-1",           268,       2.88963,      -21.8777,            0.,NA,NA,"",   74.0010E-03,   72.7618E-03,   13.4857E-03,   11.3099E-03
C:/temp/dataset/6/18_8.odb,Step-1,Increment      1: Step Time =    1.000,"PART-1-1",           269,      -8.05085,       3.52655,            0.,NA,NA,"",   968.660E-03,   965.939E-03,   72.5534E-03,   11.4618E-03
C:/temp/dataset/6/18_8.odb,Step-1,Increment      1: Step Time =    1.000,"PART-1-1",           270,       8.95558,      -12.5395,            0.,NA,NA,"",   419.661E-03,   414.244E-03,  -67.2142E-03,   9.22211E-03
C:/temp/dataset/6/18_8.odb,Step-1,Increment      1: Step Time =    1.000,"PART-1-1",           271,       1.35989,  -223.950E-03,            0.,NA,NA,"",   832.628E-03,   831.721E-03,  -38.8479E-03,   12.1792E-03
C:/temp/dataset/6/18_8.odb,Step-1,Increment      1: Step Time =    1.000,"PART-1-1",           272,      -9.75004,      -12.6533,            0.,NA,NA,"",   404.896E-03,   397.029E-03,   79.4288E-03,   8.48949E-03
C:/temp/dataset/6/18_8.odb,Step-1,Increment      1: Step Time =    1.000,"PART-1-1",           273,      -8.51206,      -25.1011,            0.,NA,NA,"",   34.4132E-03,   32.5401E-03,   11.1988E-03,   2.97047E-03
C:/temp/dataset/6/18_8.odb,Step-1,Increment      1: Step Time =    1.000,"PART-1-1",           274,      -6.19138,   998.181E-03,            0.,NA,NA,"",   885.071E-03,   884.959E-03,   14.0582E-03,   6.91200E-03
C:/temp/dataset/6/18_8.odb,Step-1,Increment      1: Step Time =    1.000,"PART-1-1",           275,      -2.63339,      -25.0950,            0.,NA,NA,"",   43.5103E-03,   42.7485E-03,  -8.10616E-03,   8.72880E-03
C:/temp/dataset/6/18_8.odb,Step-1,Increment      1: Step Time =    1.000,"PART-1-1",           276,       8.11811,      -26.0558,            0.,NA,NA,"",   24.1808E-03,   23.3273E-03,  -6.36785E-03,   3.07754E-03
C:/temp/dataset/6/18_8.odb,Step-1,Increment      1: Step Time =    1.000,"PART-1-1",           277,       6.33403,   764.508E-03,            0.,NA,NA,"",   850.412E-03,   847.913E-03,  -65.1406E-03,   4.07136E-03
C:/temp/dataset/6/18_8.odb,Step-1,Increment      1: Step Time =    1.000,"PART-1-1",           278,       8.84044,      -16.9880,            0.,NA,NA,"",   233.376E-03,   228.598E-03,  -46.9829E-03,   9.65015E-03
C:/temp/dataset/6/18_8.odb,Step-1,Increment      1: Step Time =    1.000,"PART-1-1",           279,      -11.3950,       19.6047,            0.,NA,NA,"",       1.45638,       1.44569,   176.196E-03,   39.9759E-06
C:/temp/dataset/6/18_8.odb,Step-1,Increment      1: Step Time =    1.000,"PART-1-1",           280,      -11.2464,      -2.22607,            0.,NA,NA,"",   828.612E-03,   816.198E-03,   142.898E-03,   1.17924E-03
C:/temp/dataset/6/18_8.odb,Step-1,Increment      1: Step Time =    1.000,"PART-1-1",           281,      -8.41776,  -32.7016E-03,            0.,NA,NA,"",   874.505E-03,   872.186E-03,   63.6444E-03,   6.17589E-03
C:/temp/dataset/6/18_8.odb,Step-1,Increment      1: Step Time =    1.000,"PART-1-1",           282,       4.48255,      -24.5345,            0.,NA,NA,"",   46.9737E-03,   45.5504E-03,   11.4756E-03,   7.66519E-03
C:/temp/dataset/6/18_8.odb,Step-1,Increment      1: Step Time =    1.000,"PART-1-1",           283,       6.11275,      -24.3348,            0.,NA,NA,"",   44.7349E-03,   44.1709E-03,   7.08159E-03,   4.82288E-03
C:/temp/dataset/6/18_8.odb,Step-1,Increment      1: Step Time =    1.000,"PART-1-1",           284,       9.69767,      -4.20039,            0.,NA,NA,"",   752.900E-03,   743.522E-03,  -118.467E-03,   3.93038E-03
C:/temp/dataset/6/18_8.odb,Step-1,Increment      1: Step Time =    1.000,"PART-1-1",           285,       13.8851,      -1.60402,            0.,NA,NA,"",   830.705E-03,   800.405E-03,  -222.313E-03,   3.63865E-03
C:/temp/dataset/6/18_8.odb,Step-1,Increment      1: Step Time =    1.000,"PART-1-1",           286,           15.,   -468.75E-03,            0.,NA,NA,"",   857.891E-03,   822.525E-03,  -243.782E-03,   4.02909E-03
C:/temp/dataset/6/18_8.odb,Step-1,Increment      1: Step Time =    1.000,"PART-1-1",           287,       13.7553,   590.641E-03,            0.,NA,NA,"",   872.375E-03,   845.564E-03,  -214.616E-03,   2.58667E-03
C:/temp/dataset/6/18_8.odb,Step-1,Increment      1: Step Time =    1.000,"PART-1-1",           288,       12.6405,  -544.629E-03,            0.,NA,NA,"",   846.328E-03,   824.579E-03,  -190.628E-03,   2.91592E-03
C:/temp/dataset/6/18_8.odb,Step-1,Increment      1: Step Time =    1.000,"PART-1-1",           289,       6.57104,       2.96720,            0.,NA,NA,"",   885.861E-03,   882.869E-03,  -72.7534E-03,   2.23697E-03
C:/temp/dataset/6/18_8.odb,Step-1,Increment      1: Step Time =    1.000,"PART-1-1",           290,       5.86345,       1.80964,            0.,NA,NA,"",   866.593E-03,   864.367E-03,  -62.0789E-03,   3.64733E-03
C:/temp/dataset/6/18_8.odb,Step-1,Increment      1: Step Time =    1.000,"PART-1-1",           291,       7.10711,       1.10321,            0.,NA,NA,"",   857.823E-03,   854.397E-03,  -76.5990E-03,   2.72885E-03
C:/temp/dataset/6/18_8.odb,Step-1,Increment      1: Step Time =    1.000,"PART-1-1",           292,       7.81470,       2.26078,            0.,NA,NA,"",   878.556E-03,   873.917E-03,  -90.1646E-03,   2.17034E-03
C:/temp/dataset/6/18_8.odb,Step-1,Increment      1: Step Time =    1.000,"PART-1-1",           293,       6.97305,      -8.82061,            0.,NA,NA,"",   573.085E-03,   572.583E-03,  -23.9643E-03,   10.2783E-03
C:/temp/dataset/6/18_8.odb,Step-1,Increment      1: Step Time =    1.000,"PART-1-1",           294,       5.98985,      -7.53541,            0.,NA,NA,"",   625.836E-03,   625.830E-03,  -2.71569E-03,   12.2395E-03
C:/temp/dataset/6/18_8.odb,Step-1,Increment      1: Step Time =    1.000,"PART-1-1",           295,            5.,      -8.76875,            0.,NA,NA,"",   570.039E-03,   567.760E-03,   50.9278E-03,   9.79340E-03
C:/temp/dataset/6/18_8.odb,Step-1,Increment      1: Step Time =    1.000,"PART-1-1",           296,       5.98320,      -10.0539,            0.,NA,NA,"",   517.126E-03,   516.693E-03,   21.1667E-03,   7.24155E-03
C:/temp/dataset/6/18_8.odb,Step-1,Increment      1: Step Time =    1.000,"PART-1-1",           297,       12.0429,      -8.05477,            0.,NA,NA,"",   632.494E-03,   606.804E-03,  -178.433E-03,   5.98244E-03
C:/temp/dataset/6/18_8.odb,Step-1,Increment      1: Step Time =    1.000,"PART-1-1",           298,       11.0248,      -9.13413,            0.,NA,NA,"",   581.724E-03,   563.314E-03,  -145.186E-03,   8.25658E-03
C:/temp/dataset/6/18_8.odb,Step-1,Increment      1: Step Time =    1.000,"PART-1-1",           299,       11.9985,      -10.2754,            0.,NA,NA,"",   543.439E-03,   515.851E-03,  -170.951E-03,   7.66714E-03
C:/temp/dataset/6/18_8.odb,Step-1,Increment      1: Step Time =    1.000,"PART-1-1",           300,       13.0166,      -9.19606,            0.,NA,NA,"",   597.936E-03,   560.990E-03,  -206.923E-03,   5.31848E-03
C:/temp/dataset/6/18_8.odb,Step-1,Increment      1: Step Time =    1.000,"PART-1-1",           301,       13.9992,      -14.7549,            0.,NA,NA,"",   394.190E-03,   332.387E-03,  -211.907E-03,   9.67844E-03
C:/temp/dataset/6/18_8.odb,Step-1,Increment      1: Step Time =    1.000,"PART-1-1",           302,       13.0271,      -15.9471,            0.,NA,NA,"",   328.793E-03,   282.163E-03,  -168.788E-03,   10.6605E-03
C:/temp/dataset/6/18_8.odb,Step-1,Increment      1: Step Time =    1.000,"PART-1-1",           303,       14.0279,      -16.9735,            0.,NA,NA,"",   312.827E-03,   248.747E-03,  -189.699E-03,   12.7454E-03
C:/temp/dataset/6/18_8.odb,Step-1,Increment      1: Step Time =    1.000,"PART-1-1",           304,           15.,      -15.7813,            0.,NA,NA,"",   380.568E-03,   297.104E-03,  -237.827E-03,   12.4492E-03
C:/temp/dataset/6/18_8.odb,Step-1,Increment      1: Step Time =    1.000,"PART-1-1",           305,       6.96949,      -18.0995,            0.,NA,NA,"",   182.816E-03,   182.805E-03,   1.97669E-03,   8.35633E-03
C:/temp/dataset/6/18_8.odb,Step-1,Increment      1: Step Time =    1.000,"PART-1-1",           306,       5.95014,      -17.3335,            0.,NA,NA,"",   216.797E-03,   214.182E-03,   33.5664E-03,   5.86774E-03
C:/temp/dataset/6/18_8.odb,Step-1,Increment      1: Step Time =    1.000,"PART-1-1",           307,            5.,      -18.7625,            0.,NA,NA,"",   171.785E-03,   162.732E-03,   55.0287E-03,   16.3228E-03
C:/temp/dataset/6/18_8.odb,Step-1,Increment      1: Step Time =    1.000,"PART-1-1",           308,       6.01935,      -19.5285,            0.,NA,NA,"",   128.383E-03,   126.730E-03,   20.5404E-03,   15.1077E-03
C:/temp/dataset/6/18_8.odb,Step-1,Increment      1: Step Time =    1.000,"PART-1-1",           309,       7.66098,      -29.0388,            0.,NA,NA,"",   2.97377E-03,   2.62518E-03,  -1.39705E-03,   2.65402E-03
C:/temp/dataset/6/18_8.odb,Step-1,Increment      1: Step Time =    1.000,"PART-1-1",           310,       6.62868,      -28.0660,            0.,NA,NA,"",   8.99731E-03,   8.99460E-03,  -220.959E-06,   3.64743E-03
C:/temp/dataset/6/18_8.odb,Step-1,Increment      1: Step Time =    1.000,"PART-1-1",           311,       5.21770,      -29.0272,            0.,NA,NA,"",   5.16761E-03,   5.14671E-03,   464.310E-06,   3.77715E-03
C:/temp/dataset/6/18_8.odb,Step-1,Increment      1: Step Time =    1.000,"PART-1-1",           312,          6.25,          -30.,            0.,NA,NA,"",            0.,   1.96849E-39,  -1.56674E-39,   2.24978E-03
C:/temp/dataset/6/18_8.odb,Step-1,Increment      1: Step Time =    1.000,"PART-1-1",           313,   162.125E-03,      -28.5454,            0.,NA,NA,"",   13.2761E-03,   13.2751E-03,   165.721E-06,   6.45807E-03
C:/temp/dataset/6/18_8.odb,Step-1,Increment      1: Step Time =    1.000,"PART-1-1",           314,      -1.06934,      -27.3053,            0.,NA,NA,"",   24.1141E-03,   24.0681E-03,  -1.48808E-03,   6.64712E-03
C:/temp/dataset/6/18_8.odb,Step-1,Increment      1: Step Time =    1.000,"PART-1-1",           315,      -2.48147,      -28.7599,            0.,NA,NA,"",   10.1170E-03,   10.0769E-03,  -899.948E-06,   5.75390E-03
C:/temp/dataset/6/18_8.odb,Step-1,Increment      1: Step Time =    1.000,"PART-1-1",           316,         -1.25,          -30.,            0.,NA,NA,"",            0.,   5.51298E-39,  -423.556E-42,   5.53535E-03
C:/temp/dataset/6/18_8.odb,Step-1,Increment      1: Step Time =    1.000,"PART-1-1",           317,          -15.,        -21.25,            0.,NA,NA,"",   196.757E-03,   128.405E-03,   149.082E-03,   18.8155E-03
C:/temp/dataset/6/18_8.odb,Step-1,Increment      1: Step Time =    1.000,"PART-1-1",           318,      -13.9888,      -22.4607,            0.,NA,NA,"",   145.626E-03,   95.4547E-03,   109.978E-03,   16.3889E-03
C:/temp/dataset/6/18_8.odb,Step-1,Increment      1: Step Time =    1.000,"PART-1-1",           319,      -12.8187,      -21.2681,            0.,NA,NA,"",   151.775E-03,   111.703E-03,   102.752E-03,   13.1621E-03
C:/temp/dataset/6/18_8.odb,Step-1,Increment      1: Step Time =    1.000,"PART-1-1",           320,      -13.8299,      -20.0574,            0.,NA,NA,"",   203.748E-03,   147.767E-03,   140.279E-03,   15.5112E-03
C:/temp/dataset/6/18_8.odb,Step-1,Increment      1: Step Time =    1.000,"PART-1-1",           321,      -12.5142,      -28.6623,            0.,NA,NA,"",   14.5804E-03,   7.42250E-03,   12.5497E-03,   11.9264E-03
C:/temp/dataset/6/18_8.odb,Step-1,Increment      1: Step Time =    1.000,"PART-1-1",           322,        -11.25,          -30.,            0.,NA,NA,"",            0.,   704.804E-42,   15.9304E-39,   8.27817E-03
C:/temp/dataset/6/18_8.odb,Step-1,Increment      1: Step Time =    1.000,"PART-1-1",           323,      -9.93348,      -28.4464,            0.,NA,NA,"",   8.72126E-03,   4.86740E-03,   7.23662E-03,   5.83739E-03
C:/temp/dataset/6/18_8.odb,Step-1,Increment      1: Step Time =    1.000,"PART-1-1",           324,      -11.1976,      -27.1087,            0.,NA,NA,"",   27.2330E-03,   17.1343E-03,   21.1673E-03,   9.70606E-03
C:/temp/dataset/6/18_8.odb,Step-1,Increment      1: Step Time =    1.000,"PART-1-1",           325,      -7.37036,      -13.8742,            0.,NA,NA,"",   340.721E-03,   340.721E-03,   205.805E-06,   5.47100E-03
C:/temp/dataset/6/18_8.odb,Step-1,Increment      1: Step Time =    1.000,"PART-1-1",           326,      -6.21015,      -15.0417,            0.,NA,NA,"",   295.110E-03,   292.540E-03,  -38.8636E-03,   3.30353E-03
C:/temp/dataset/6/18_8.odb,Step-1,Increment      1: Step Time =    1.000,"PART-1-1",           327,           -5.,      -13.7188,            0.,NA,NA,"",   356.459E-03,   345.553E-03,  -87.4996E-03,   1.37984E-03
C:/temp/dataset/6/18_8.odb,Step-1,Increment      1: Step Time =    1.000,"PART-1-1",           328,      -6.16021,      -12.5513,            0.,NA,NA,"",   397.337E-03,   395.008E-03,  -42.9635E-03,   2.97520E-03
C:/temp/dataset/6/18_8.odb,Step-1,Increment      1: Step Time =    1.000,"PART-1-1",           329,      -9.33590,      -9.40979,            0.,NA,NA,"",   543.618E-03,   538.447E-03,   74.8065E-03,   8.48541E-03
C:/temp/dataset/6/18_8.odb,Step-1,Increment      1: Step Time =    1.000,"PART-1-1",           330,      -8.33361,      -10.3234,            0.,NA,NA,"",   497.547E-03,   496.035E-03,   38.7591E-03,   7.65159E-03
C:/temp/dataset/6/18_8.odb,Step-1,Increment      1: Step Time =    1.000,"PART-1-1",           331,      -7.16565,      -9.15059,            0.,NA,NA,"",   545.633E-03,   545.631E-03,   1.57194E-03,   8.03743E-03
C:/temp/dataset/6/18_8.odb,Step-1,Increment      1: Step Time =    1.000,"PART-1-1",           332,      -8.16794,      -8.23701,            0.,NA,NA,"",   589.716E-03,   588.398E-03,   39.4028E-03,   8.93877E-03
C:/temp/dataset/6/18_8.odb,Step-1,Increment      1: Step Time =    1.000,"PART-1-1",           333,      -11.1473,      -6.32447,            0.,NA,NA,"",   684.498E-03,   670.241E-03,   138.979E-03,   4.52705E-03
C:/temp/dataset/6/18_8.odb,Step-1,Increment      1: Step Time =    1.000,"PART-1-1",           334,      -10.2102,      -6.79208,            0.,NA,NA,"",   660.486E-03,   651.590E-03,   108.033E-03,   6.17199E-03
C:/temp/dataset/6/18_8.odb,Step-1,Increment      1: Step Time =    1.000,"PART-1-1",           335,      -9.51762,      -5.78103,            0.,NA,NA,"",   697.432E-03,   692.019E-03,   86.7176E-03,   5.52907E-03
C:/temp/dataset/6/18_8.odb,Step-1,Increment      1: Step Time =    1.000,"PART-1-1",           336,      -10.4548,      -5.31342,            0.,NA,NA,"",   718.884E-03,   709.337E-03,   116.769E-03,   4.04228E-03
C:/temp/dataset/6/18_8.odb,Step-1,Increment      1: Step Time =    1.000,"PART-1-1",           337,      -5.04937,      -1.25055,            0.,NA,NA,"",   827.604E-03,   827.471E-03,  -14.8669E-03,   7.29789E-03
C:/temp/dataset/6/18_8.odb,Step-1,Increment      1: Step Time =    1.000,"PART-1-1",           338,      -3.82978,  -150.691E-03,            0.,NA,NA,"",   847.634E-03,   847.245E-03,  -25.6833E-03,   9.21234E-03
C:/temp/dataset/6/18_8.odb,Step-1,Increment      1: Step Time =    1.000,"PART-1-1",           339,      -5.10700,   929.666E-03,            0.,NA,NA,"",   877.237E-03,   877.217E-03,  -5.85860E-03,   7.27434E-03
C:/temp/dataset/6/18_8.odb,Step-1,Increment      1: Step Time =    1.000,"PART-1-1",           340,      -6.32658,  -170.190E-03,            0.,NA,NA,"",   857.899E-03,   857.811E-03,   12.2653E-03,   6.04706E-03
C:/temp/dataset/6/18_8.odb,Step-1,Increment      1: Step Time =    1.000,"PART-1-1",           341,          -15.,          3.75,            0.,NA,NA,"",       1.06502,       1.03001,   270.810E-03,   6.91811E-03
C:/temp/dataset/6/18_8.odb,Step-1,Increment      1: Step Time =    1.000,"PART-1-1",           342,      -13.8520,       2.39386,            0.,NA,NA,"",       1.00940,   981.726E-03,   234.755E-03,   7.97069E-03
C:/temp/dataset/6/18_8.odb,Step-1,Increment      1: Step Time =    1.000,"PART-1-1",           343,      -12.6820,       3.58697,            0.,NA,NA,"",       1.02903,       1.00877,   203.194E-03,   8.49082E-03
C:/temp/dataset/6/18_8.odb,Step-1,Increment      1: Step Time =    1.000,"PART-1-1",           344,      -13.8301,       4.94311,            0.,NA,NA,"",       1.08257,       1.05570,   239.731E-03,   7.98036E-03
C:/temp/dataset/6/18_8.odb,Step-1,Increment      1: Step Time =    1.000,"PART-1-1",           345,          -15.,         11.25,            0.,NA,NA,"",       1.24301,       1.21130,   278.959E-03,   1.23144E-03
C:/temp/dataset/6/18_8.odb,Step-1,Increment      1: Step Time =    1.000,"PART-1-1",           346,      -14.0083,       10.0442,            0.,NA,NA,"",       1.20432,       1.17776,   251.523E-03,   1.16908E-03
C:/temp/dataset/6/18_8.odb,Step-1,Increment      1: Step Time =    1.000,"PART-1-1",           347,      -13.0572,       11.3141,            0.,NA,NA,"",       1.23276,       1.21179,   226.398E-03,   593.435E-06
C:/temp/dataset/6/18_8.odb,Step-1,Increment      1: Step Time =    1.000,"PART-1-1",           348,      -14.0489,       12.5200,            0.,NA,NA,"",       1.27147,       1.24600,   253.194E-03,   545.373E-06
C:/temp/dataset/6/18_8.odb,Step-1,Increment      1: Step Time =    1.000,"PART-1-1",           349,           -5.,       22.7083,            0.,NA,NA,"",       1.53095,       1.53094,  -5.85957E-03,   4.93281E-06
C:/temp/dataset/6/18_8.odb,Step-1,Increment      1: Step Time =    1.000,"PART-1-1",           350,      -5.96779,       23.6687,            0.,NA,NA,"",       1.55861,       1.55847,   21.1089E-03,   2.17696E-06
C:/temp/dataset/6/18_8.odb,Step-1,Increment      1: Step Time =    1.000,"PART-1-1",           351,      -6.69567,       22.7251,            0.,NA,NA,"",       1.53267,       1.53209,   42.0613E-03,   1.76571E-06
C:/temp/dataset/6/18_8.odb,Step-1,Increment      1: Step Time =    1.000,"PART-1-1",           352,      -5.72788,       21.7648,            0.,NA,NA,"",       1.50464,       1.50456,   15.0922E-03,   2.48341E-06
C:/temp/dataset/6/18_8.odb,Step-1,Increment      1: Step Time =    1.000,"PART-1-1",           353,      -9.95259,       28.8237,            0.,NA,NA,"",       1.71088,       1.70581,   131.702E-03,   1.11666E-06
C:/temp/dataset/6/18_8.odb,Step-1,Increment      1: Step Time =    1.000,"PART-1-1",           354,      -8.67740,       27.7404,            0.,NA,NA,"",       1.67742,       1.67467,   96.0819E-03,   1.04645E-06
C:/temp/dataset/6/18_8.odb,Step-1,Increment      1: Step Time =    1.000,"PART-1-1",           355,      -7.47481,       28.9167,            0.,NA,NA,"",       1.70856,       1.70745,   61.6127E-03,   939.246E-09
C:/temp/dataset/6/18_8.odb,Step-1,Increment      1: Step Time =    1.000,"PART-1-1",           356,         -8.75,           30.,            0.,NA,NA,"",       1.74130,       1.73858,   97.2322E-03,   1.13611E-06
C:/temp/dataset/6/18_8.odb,Step-1,Increment      1: Step Time =    1.000,"PART-1-1",           357,      -12.4360,       28.7156,            0.,NA,NA,"",       1.71567,       1.70375,   201.961E-03,   999.177E-09
C:/temp/dataset/6/18_8.odb,Step-1,Increment      1: Step Time =    1.000,"PART-1-1",           358,        -13.75,           30.,            0.,NA,NA,"",       1.75686,       1.74059,   238.602E-03,   246.946E-09
C:/temp/dataset/6/18_8.odb,Step-1,Increment      1: Step Time =    1.000,"PART-1-1",           359,          -15.,         28.75,            0.,NA,NA,"",       1.72768,       1.70574,   274.444E-03,   322.343E-09
C:/temp/dataset/6/18_8.odb,Step-1,Increment      1: Step Time =    1.000,"PART-1-1",           360,      -13.6860,       27.4656,            0.,NA,NA,"",       1.68576,       1.66890,   237.805E-03,   1.05333E-06
C:/temp/dataset/6/18_8.odb,Step-1,Increment      1: Step Time =    1.000,"PART-1-1",           361,         -3.75,           -5.,            0.,NA,NA,"",   758.250E-03,   757.601E-03,  -31.3644E-03,   16.6531E-03
C:/temp/dataset/6/18_8.odb,Step-1,Increment      1: Step Time =    1.000,"PART-1-1",           362,      -2.75606,      -4.06584,            0.,NA,NA,"",   775.387E-03,   774.487E-03,  -37.3648E-03,   7.64033E-03
C:/temp/dataset/6/18_8.odb,Step-1,Increment      1: Step Time =    1.000,"PART-1-1",           363,      -4.26954,      -3.28646,            0.,NA,NA,"",   781.164E-03,   780.447E-03,  -33.4526E-03,   9.93902E-03
C:/temp/dataset/6/18_8.odb,Step-1,Increment      1: Step Time =    1.000,"PART-1-1",           364,      -5.26349,      -4.22062,            0.,NA,NA,"",   758.209E-03,   757.615E-03,  -29.9981E-03,   15.2386E-03
C:/temp/dataset/6/18_8.odb,Step-1,Increment      1: Step Time =    1.000,"PART-1-1",           365,   659.099E-03,      -2.85996,            0.,NA,NA,"",   793.742E-03,   792.712E-03,  -40.4348E-03,   9.03409E-03
C:/temp/dataset/6/18_8.odb,Step-1,Increment      1: Step Time =    1.000,"PART-1-1",           366,  -266.865E-03,      -3.97148,            0.,NA,NA,"",   784.584E-03,   783.520E-03,  -40.8621E-03,   3.60929E-03
C:/temp/dataset/6/18_8.odb,Step-1,Increment      1: Step Time =    1.000,"PART-1-1",           367,          1.25,           -5.,            0.,NA,NA,"",   780.226E-03,   779.073E-03,  -42.3995E-03,   2.67471E-03
C:/temp/dataset/6/18_8.odb,Step-1,Increment      1: Step Time =    1.000,"PART-1-1",           368,       2.17596,      -3.88848,            0.,NA,NA,"",   778.778E-03,   777.839E-03,  -38.2215E-03,   6.39169E-03
C:/temp/dataset/6/18_8.odb,Step-1,Increment      1: Step Time =    1.000,"PART-1-1",           369,   93.5104E-03,  -560.922E-03,            0.,NA,NA,"",   829.460E-03,   828.505E-03,  -39.7956E-03,   11.8554E-03
C:/temp/dataset/6/18_8.odb,Step-1,Increment      1: Step Time =    1.000,"PART-1-1",           370,   627.873E-03,   544.404E-03,            0.,NA,NA,"",   847.688E-03,   846.792E-03,  -38.9591E-03,   11.7469E-03
C:/temp/dataset/6/18_8.odb,Step-1,Increment      1: Step Time =    1.000,"PART-1-1",           371,  -981.002E-03,       1.17096,            0.,NA,NA,"",   864.015E-03,   863.234E-03,  -36.7241E-03,   11.6800E-03
C:/temp/dataset/6/18_8.odb,Step-1,Increment      1: Step Time =    1.000,"PART-1-1",           372,      -1.51537,   65.6335E-03,            0.,NA,NA,"",   844.941E-03,   844.101E-03,  -37.6616E-03,   11.5255E-03
C:/temp/dataset/6/18_8.odb,Step-1,Increment      1: Step Time =    1.000,"PART-1-1",           373,       4.11258,       2.54084,            0.,NA,NA,"",   875.404E-03,   874.080E-03,  -48.1355E-03,   5.48623E-03
C:/temp/dataset/6/18_8.odb,Step-1,Increment      1: Step Time =    1.000,"PART-1-1",           374,       3.71515,       1.12833,            0.,NA,NA,"",   853.280E-03,   852.140E-03,  -44.1083E-03,   7.88885E-03
C:/temp/dataset/6/18_8.odb,Step-1,Increment      1: Step Time =    1.000,"PART-1-1",           375,       5.46602,   397.127E-03,            0.,NA,NA,"",   842.746E-03,   840.991E-03,  -54.3570E-03,   5.94054E-03
C:/temp/dataset/6/18_8.odb,Step-1,Increment      1: Step Time =    1.000,"PART-1-1",           376,       8.69518,  -378.803E-03,            0.,NA,NA,"",   836.354E-03,   830.233E-03,  -101.002E-03,   2.80819E-03
C:/temp/dataset/6/18_8.odb,Step-1,Increment      1: Step Time =    1.000,"PART-1-1",           377,       8.82700,   889.396E-03,            0.,NA,NA,"",   858.913E-03,   852.349E-03,  -105.991E-03,   2.19934E-03
C:/temp/dataset/6/18_8.odb,Step-1,Increment      1: Step Time =    1.000,"PART-1-1",           378,       6.97530,  -164.986E-03,            0.,NA,NA,"",   836.001E-03,   832.982E-03,  -70.9860E-03,   3.88213E-03
C:/temp/dataset/6/18_8.odb,Step-1,Increment      1: Step Time =    1.000,"PART-1-1",           379,      -3.65351,      -22.6081,            0.,NA,NA,"",   68.8350E-03,   66.4777E-03,  -17.8598E-03,   8.84689E-03
C:/temp/dataset/6/18_8.odb,Step-1,Increment      1: Step Time =    1.000,"PART-1-1",           380,      -2.48671,      -21.3009,            0.,NA,NA,"",   75.9100E-03,   74.7481E-03,  -13.2304E-03,   5.82003E-03
C:/temp/dataset/6/18_8.odb,Step-1,Increment      1: Step Time =    1.000,"PART-1-1",           381,         -3.75,          -20.,            0.,NA,NA,"",   85.8690E-03,   83.9944E-03,  -17.8446E-03,   13.6397E-03
C:/temp/dataset/6/18_8.odb,Step-1,Increment      1: Step Time =    1.000,"PART-1-1",           382,      -4.91680,      -21.3072,            0.,NA,NA,"",   84.7977E-03,   80.5396E-03,  -26.5335E-03,   12.2513E-03
C:/temp/dataset/6/18_8.odb,Step-1,Increment      1: Step Time =    1.000,"PART-1-1",           383,       12.8399,      -22.4784,            0.,NA,NA,"",   127.127E-03,   89.0039E-03,  -90.7728E-03,   13.3717E-03
C:/temp/dataset/6/18_8.odb,Step-1,Increment      1: Step Time =    1.000,"PART-1-1",           384,       11.7398,      -21.2760,            0.,NA,NA,"",   136.172E-03,   108.216E-03,  -82.6568E-03,   11.1348E-03
C:/temp/dataset/6/18_8.odb,Step-1,Increment      1: Step Time =    1.000,"PART-1-1",           385,       10.5591,      -22.4389,            0.,NA,NA,"",   92.8486E-03,   77.9236E-03,  -50.4853E-03,   8.49480E-03
C:/temp/dataset/6/18_8.odb,Step-1,Increment      1: Step Time =    1.000,"PART-1-1",           386,       11.6593,      -23.6412,            0.,NA,NA,"",   84.6710E-03,   61.8758E-03,  -57.7975E-03,   10.7064E-03
C:/temp/dataset/6/18_8.odb,Step-1,Increment      1: Step Time =    1.000,"PART-1-1",           387,          8.75,            5.,            0.,NA,NA,"",   927.894E-03,   921.223E-03,  -111.065E-03,   4.35078E-03
C:/temp/dataset/6/18_8.odb,Step-1,Increment      1: Step Time =    1.000,"PART-1-1",           388,       7.62461,       4.03982,            0.,NA,NA,"",   905.880E-03,   901.409E-03,  -89.8934E-03,   3.66381E-03
C:/temp/dataset/6/18_8.odb,Step-1,Increment      1: Step Time =    1.000,"PART-1-1",           389,       8.90047,       2.96899,            0.,NA,NA,"",   893.877E-03,   887.020E-03,  -110.506E-03,   2.39599E-03
C:/temp/dataset/6/18_8.odb,Step-1,Increment      1: Step Time =    1.000,"PART-1-1",           390,       10.0259,       3.92917,            0.,NA,NA,"",   915.320E-03,   905.493E-03,  -133.768E-03,   2.81424E-03
C:/temp/dataset/6/18_8.odb,Step-1,Increment      1: Step Time =    1.000,"PART-1-1",           391,      -6.96921,       21.1213,            0.,NA,NA,"",       1.48773,       1.48688,   50.4341E-03,   12.6019E-06
C:/temp/dataset/6/18_8.odb,Step-1,Increment      1: Step Time =    1.000,"PART-1-1",           392,      -6.24133,       19.9816,            0.,NA,NA,"",       1.45471,       1.45439,   30.3113E-03,   13.4108E-06
C:/temp/dataset/6/18_8.odb,Step-1,Increment      1: Step Time =    1.000,"PART-1-1",           393,           -5.,        20.625,            0.,NA,NA,"",       1.47208,       1.47207,  -5.01815E-03,   1.94784E-06
C:/temp/dataset/6/18_8.odb,Step-1,Increment      1: Step Time =    1.000,"PART-1-1",           394,      -12.9370,       8.81410,            0.,NA,NA,"",       1.16734,       1.14563,   224.057E-03,   2.00207E-03
C:/temp/dataset/6/18_8.odb,Step-1,Increment      1: Step Time =    1.000,"PART-1-1",           395,          -15.,          8.75,            0.,NA,NA,"",       1.17799,       1.14544,   275.010E-03,   1.91582E-03
C:/temp/dataset/6/18_8.odb,Step-1,Increment      1: Step Time =    1.000,"PART-1-1",           396,      -13.9287,       7.51992,            0.,NA,NA,"",       1.14563,       1.11815,   249.425E-03,   4.80309E-03
C:/temp/dataset/6/18_8.odb,Step-1,Increment      1: Step Time =    1.000,"PART-1-1",           397,          -15.,          1.25,            0.,NA,NA,"",   990.416E-03,   952.699E-03,   270.718E-03,   6.53423E-03
C:/temp/dataset/6/18_8.odb,Step-1,Increment      1: Step Time =    1.000,"PART-1-1",           398,      -13.9023,  -59.1614E-03,            0.,NA,NA,"",   926.381E-03,   897.143E-03,   230.905E-03,   4.29920E-03
C:/temp/dataset/6/18_8.odb,Step-1,Increment      1: Step Time =    1.000,"PART-1-1",           399,      -12.7542,       1.08470,            0.,NA,NA,"",   951.763E-03,   931.338E-03,   196.121E-03,   6.87921E-03
C:/temp/dataset/6/18_8.odb,Step-1,Increment      1: Step Time =    1.000,"PART-1-1",           400,          -15.,         -1.25,            0.,NA,NA,"",   895.553E-03,   853.409E-03,   271.494E-03,   599.105E-06
C:/temp/dataset/6/18_8.odb,Step-1,Increment      1: Step Time =    1.000,"PART-1-1",           401,      -13.9820,      -2.43756,            0.,NA,NA,"",   845.056E-03,   811.489E-03,   235.811E-03,   999.966E-06
C:/temp/dataset/6/18_8.odb,Step-1,Increment      1: Step Time =    1.000,"PART-1-1",           402,      -12.8843,      -1.24672,            0.,NA,NA,"",   874.399E-03,   851.935E-03,   196.924E-03,   1.76590E-03
C:/temp/dataset/6/18_8.odb,Step-1,Increment      1: Step Time =    1.000,"PART-1-1",           403,      -12.3802,      -13.7897,            0.,NA,NA,"",   390.463E-03,   356.873E-03,   158.439E-03,   9.35822E-03
C:/temp/dataset/6/18_8.odb,Step-1,Increment      1: Step Time =    1.000,"PART-1-1",           404,      -13.6672,      -12.5056,            0.,NA,NA,"",   465.637E-03,   415.534E-03,   210.116E-03,   8.00447E-03
C:/temp/dataset/6/18_8.odb,Step-1,Increment      1: Step Time =    1.000,"PART-1-1",           405,          -15.,        -13.75,            0.,NA,NA,"",   448.061E-03,   370.690E-03,   251.689E-03,   10.5302E-03
C:/temp/dataset/6/18_8.odb,Step-1,Increment      1: Step Time =    1.000,"PART-1-1",           406,      -13.7130,      -15.0341,            0.,NA,NA,"",   367.944E-03,   312.925E-03,   193.547E-03,   10.9405E-03
C:/temp/dataset/6/18_8.odb,Step-1,Increment      1: Step Time =    1.000,"PART-1-1",           407,       9.21271,      -3.58583,            0.,NA,NA,"",   769.196E-03,   761.702E-03,  -107.105E-03,   3.54906E-03
C:/temp/dataset/6/18_8.odb,Step-1,Increment      1: Step Time =    1.000,"PART-1-1",           408,       7.90749,      -3.82305,            0.,NA,NA,"",   762.717E-03,   758.902E-03,  -76.1938E-03,   5.96508E-03
C:/temp/dataset/6/18_8.odb,Step-1,Increment      1: Step Time =    1.000,"PART-1-1",           409,       8.15132,      -5.16923,            0.,NA,NA,"",   723.153E-03,   718.886E-03,  -78.4360E-03,   7.85160E-03
C:/temp/dataset/6/18_8.odb,Step-1,Increment      1: Step Time =    1.000,"PART-1-1",           410,       9.45655,      -4.93201,            0.,NA,NA,"",   731.312E-03,   722.743E-03,  -111.619E-03,   4.89216E-03
C:/temp/dataset/6/18_8.odb,Step-1,Increment      1: Step Time =    1.000,"PART-1-1",           411,       6.91243,      -16.0318,            0.,NA,NA,"",   265.613E-03,   265.542E-03,   6.13826E-03,   6.60702E-03
C:/temp/dataset/6/18_8.odb,Step-1,Increment      1: Step Time =    1.000,"PART-1-1",           412,       5.96229,      -14.9858,            0.,NA,NA,"",   311.804E-03,   309.400E-03,   38.6473E-03,   2.87133E-03
C:/temp/dataset/6/18_8.odb,Step-1,Increment      1: Step Time =    1.000,"PART-1-1",           413,            5.,      -16.2875,            0.,NA,NA,"",   269.320E-03,   259.245E-03,   72.9751E-03,   4.97535E-03
C:/temp/dataset/6/18_8.odb,Step-1,Increment      1: Step Time =    1.000,"PART-1-1",           414,       6.93910,      -13.7291,            0.,NA,NA,"",   361.272E-03,   361.264E-03,   2.41100E-03,   5.64509E-03
C:/temp/dataset/6/18_8.odb,Step-1,Increment      1: Step Time =    1.000,"PART-1-1",           415,       5.97681,      -12.5371,            0.,NA,NA,"",   412.804E-03,   411.424E-03,   33.7239E-03,   3.92673E-03
C:/temp/dataset/6/18_8.odb,Step-1,Increment      1: Step Time =    1.000,"PART-1-1",           416,            5.,      -13.7937,            0.,NA,NA,"",   366.795E-03,   359.013E-03,   75.1547E-03,   436.654E-06
C:/temp/dataset/6/18_8.odb,Step-1,Increment      1: Step Time =    1.000,"PART-1-1",           417,         -1.25,          -20.,            0.,NA,NA,"",   68.9735E-03,   68.8468E-03,  -4.17866E-03,   2.61939E-03
C:/temp/dataset/6/18_8.odb,Step-1,Increment      1: Step Time =    1.000,"PART-1-1",           418,      -1.09514,      -22.7401,            0.,NA,NA,"",   64.4038E-03,   64.1832E-03,  -5.32586E-03,   8.16803E-03
C:/temp/dataset/6/18_8.odb,Step-1,Increment      1: Step Time =    1.000,"PART-1-1",           419,   141.566E-03,      -21.4393,            0.,NA,NA,"",   69.4999E-03,   69.4958E-03,   755.544E-06,   3.75697E-03
C:/temp/dataset/6/18_8.odb,Step-1,Increment      1: Step Time =    1.000,"PART-1-1",           420,      -7.69236,      -25.1479,            0.,NA,NA,"",   32.4080E-03,   32.0874E-03,   4.54698E-03,   2.42385E-03
C:/temp/dataset/6/18_8.odb,Step-1,Increment      1: Step Time =    1.000,"PART-1-1",           421,      -9.18951,      -25.9970,            0.,NA,NA,"",   27.4194E-03,   23.6072E-03,   13.9472E-03,   4.49459E-03
C:/temp/dataset/6/18_8.odb,Step-1,Increment      1: Step Time =    1.000,"PART-1-1",           422,      -8.56598,      -27.1897,            0.,NA,NA,"",   14.6507E-03,   12.9492E-03,   6.85288E-03,   4.07857E-03
C:/temp/dataset/6/18_8.odb,Step-1,Increment      1: Step Time =    1.000,"PART-1-1",           423,      -7.06883,      -26.3407,            0.,NA,NA,"",   21.3195E-03,   21.2964E-03,   991.876E-06,   3.38046E-03
C:/temp/dataset/6/18_8.odb,Step-1,Increment      1: Step Time =    1.000,"PART-1-1",           424,      -9.82073,      -13.8964,            0.,NA,NA,"",   352.990E-03,   344.229E-03,   78.1571E-03,   8.58544E-03
C:/temp/dataset/6/18_8.odb,Step-1,Increment      1: Step Time =    1.000,"PART-1-1",           425,      -8.65586,      -15.1239,            0.,NA,NA,"",   293.724E-03,   290.979E-03,   40.0596E-03,   7.21263E-03
C:/temp/dataset/6/18_8.odb,Step-1,Increment      1: Step Time =    1.000,"PART-1-1",           426,      -8.53523,      -12.6467,            0.,NA,NA,"",   396.786E-03,   394.731E-03,   40.3326E-03,   6.99488E-03
C:/temp/dataset/6/18_8.odb,Step-1,Increment      1: Step Time =    1.000,"PART-1-1",           427,      -6.09243,      -10.1071,            0.,NA,NA,"",   501.882E-03,   500.131E-03,  -41.8945E-03,   5.07191E-03
C:/temp/dataset/6/18_8.odb,Step-1,Increment      1: Step Time =    1.000,"PART-1-1",           428,           -5.,      -8.71250,            0.,NA,NA,"",   563.469E-03,   557.489E-03,  -81.8729E-03,   6.95983E-03
C:/temp/dataset/6/18_8.odb,Step-1,Increment      1: Step Time =    1.000,"PART-1-1",           429,      -6.07322,      -7.75598,            0.,NA,NA,"",   606.533E-03,   605.745E-03,  -30.9163E-03,   8.38833E-03
C:/temp/dataset/6/18_8.odb,Step-1,Increment      1: Step Time =    1.000,"PART-1-1",           430,      -12.7270,      -6.06323,            0.,NA,NA,"",   707.749E-03,   680.963E-03,   192.865E-03,   2.59169E-03
C:/temp/dataset/6/18_8.odb,Step-1,Increment      1: Step Time =    1.000,"PART-1-1",           431,      -13.8025,      -4.90646,            0.,NA,NA,"",   760.697E-03,   724.852E-03,   230.759E-03,   525.811E-06
C:/temp/dataset/6/18_8.odb,Step-1,Increment      1: Step Time =    1.000,"PART-1-1",           432,          -15.,         -6.25,            0.,NA,NA,"",   729.617E-03,   675.541E-03,   275.654E-03,   84.2931E-06
C:/temp/dataset/6/18_8.odb,Step-1,Increment      1: Step Time =    1.000,"PART-1-1",           433,      -13.9244,      -7.40677,            0.,NA,NA,"",   671.997E-03,   629.461E-03,   235.286E-03,   2.24489E-03
C:/temp/dataset/6/18_8.odb,Step-1,Increment      1: Step Time =    1.000,"PART-1-1",           434,       1.60591,      -1.50045,            0.,NA,NA,"",   810.810E-03,   809.875E-03,  -38.9284E-03,   11.6743E-03
C:/temp/dataset/6/18_8.odb,Step-1,Increment      1: Step Time =    1.000,"PART-1-1",           435,  -853.298E-03,      -1.92043,            0.,NA,NA,"",   808.317E-03,   807.308E-03,  -40.3746E-03,   9.84173E-03
C:/temp/dataset/6/18_8.odb,Step-1,Increment      1: Step Time =    1.000,"PART-1-1",           436,         13.75,          -30.,            0.,NA,NA,"",            0.,   793.603E-42,  -26.5511E-39,   17.4483E-03
C:/temp/dataset/6/18_8.odb,Step-1,Increment      1: Step Time =    1.000,"PART-1-1",           437,           15.,      -28.9063,            0.,NA,NA,"",   28.8557E-03,   19.5678E-03,  -21.2074E-03,   21.5285E-03
C:/temp/dataset/6/18_8.odb,Step-1,Increment      1: Step Time =    1.000,"PART-1-1",           438,       13.8103,      -27.8746,            0.,NA,NA,"",   36.4580E-03,   21.2685E-03,  -29.6114E-03,   16.8073E-03
C:/temp/dataset/6/18_8.odb,Step-1,Increment      1: Step Time =    1.000,"PART-1-1",           439,       12.5603,      -28.9683,            0.,NA,NA,"",   10.9891E-03,   4.92715E-03,  -9.82265E-03,   11.9112E-03
C:/temp/dataset/6/18_8.odb,Step-1,Increment      1: Step Time =    1.000,"PART-1-1",           440,       12.6598,      -26.8678,            0.,NA,NA,"",   42.7947E-03,   25.1595E-03,  -34.6177E-03,   13.5356E-03
C:/temp/dataset/6/18_8.odb,Step-1,Increment      1: Step Time =    1.000,"PART-1-1",           441,       11.5501,      -25.8632,            0.,NA,NA,"",   46.9161E-03,   30.9987E-03,  -35.2166E-03,   10.5203E-03
C:/temp/dataset/6/18_8.odb,Step-1,Increment      1: Step Time =    1.000,"PART-1-1",           442,       10.3093,      -26.9762,            0.,NA,NA,"",   23.0620E-03,   15.9528E-03,  -16.6542E-03,   7.15593E-03
C:/temp/dataset/6/18_8.odb,Step-1,Increment      1: Step Time =    1.000,"PART-1-1",           443,       11.4189,      -27.9808,            0.,NA,NA,"",   18.1216E-03,   10.0248E-03,  -15.0962E-03,   10.1379E-03
C:/temp/dataset/6/18_8.odb,Step-1,Increment      1: Step Time =    1.000,"PART-1-1",           444,       10.1086,      -29.0125,            0.,NA,NA,"",   5.25690E-03,   2.09249E-03,  -4.82250E-03,   6.07289E-03
C:/temp/dataset/6/18_8.odb,Step-1,Increment      1: Step Time =    1.000,"PART-1-1",           445,       9.01957,      -28.0513,            0.,NA,NA,"",   9.08274E-03,   6.79094E-03,  -6.03153E-03,   4.65619E-03
C:/temp/dataset/6/18_8.odb,Step-1,Increment      1: Step Time =    1.000,"PART-1-1",           446,          8.75,          -30.,            0.,NA,NA,"",            0.,   331.212E-42,  -7.38443E-39,   3.91629E-03
C:/temp/dataset/6/18_8.odb,Step-1,Increment      1: Step Time =    1.000,"PART-1-1",           447,       4.20973,      -27.9354,            0.,NA,NA,"",   14.5415E-03,   14.3216E-03,   2.51916E-03,   5.41309E-03
C:/temp/dataset/6/18_8.odb,Step-1,Increment      1: Step Time =    1.000,"PART-1-1",           448,       2.74203,      -28.9082,            0.,NA,NA,"",   8.74206E-03,   8.69518E-03,   904.106E-06,   5.64177E-03
C:/temp/dataset/6/18_8.odb,Step-1,Increment      1: Step Time =    1.000,"PART-1-1",           449,          3.75,          -30.,            0.,NA,NA,"",            0.,   4.18412E-39,   947.360E-42,   4.23321E-03
C:/temp/dataset/6/18_8.odb,Step-1,Increment      1: Step Time =    1.000,"PART-1-1",           450,       1.16266,      -25.9573,            0.,NA,NA,"",   36.8594E-03,   36.7238E-03,   3.15850E-03,   7.92490E-03
C:/temp/dataset/6/18_8.odb,Step-1,Increment      1: Step Time =    1.000,"PART-1-1",           451,       1.65415,      -27.4536,            0.,NA,NA,"",   22.4784E-03,   22.3638E-03,   2.26731E-03,   6.55810E-03
C:/temp/dataset/6/18_8.odb,Step-1,Increment      1: Step Time =    1.000,"PART-1-1",           452,       3.39879,      -26.8461,            0.,NA,NA,"",   25.6564E-03,   25.1860E-03,   4.89039E-03,   6.82597E-03
C:/temp/dataset/6/18_8.odb,Step-1,Increment      1: Step Time =    1.000,"PART-1-1",           453,       2.90730,      -25.3498,            0.,NA,NA,"",   41.2180E-03,   40.4196E-03,   8.07357E-03,   7.91855E-03
C:/temp/dataset/6/18_8.odb,Step-1,Increment      1: Step Time =    1.000,"PART-1-1",           454,      -3.67645,      -27.5530,            0.,NA,NA,"",   18.5307E-03,   18.2616E-03,  -3.14706E-03,   5.88477E-03
C:/temp/dataset/6/18_8.odb,Step-1,Increment      1: Step Time =    1.000,"PART-1-1",           455,      -2.54816,      -26.3074,            0.,NA,NA,"",   31.8337E-03,   31.4265E-03,  -5.07553E-03,   7.40856E-03
C:/temp/dataset/6/18_8.odb,Step-1,Increment      1: Step Time =    1.000,"PART-1-1",           456,      -3.72120,      -25.1278,            0.,NA,NA,"",   41.0396E-03,   40.0172E-03,  -9.10345E-03,   7.60918E-03
C:/temp/dataset/6/18_8.odb,Step-1,Increment      1: Step Time =    1.000,"PART-1-1",           457,      -4.84948,      -26.3734,            0.,NA,NA,"",   26.2376E-03,   25.6962E-03,  -5.30291E-03,   5.92024E-03
C:/temp/dataset/6/18_8.odb,Step-1,Increment      1: Step Time =    1.000,"PART-1-1",           458,      -4.94498,      -28.7931,            0.,NA,NA,"",   6.88032E-03,   6.84616E-03,  -684.703E-06,   4.12367E-03
C:/temp/dataset/6/18_8.odb,Step-1,Increment      1: Step Time =    1.000,"PART-1-1",           459,         -3.75,          -30.,            0.,NA,NA,"",            0.,   4.07661E-39,  -709.196E-42,   4.18137E-03
C:/temp/dataset/6/18_8.odb,Step-1,Increment      1: Step Time =    1.000,"PART-1-1",           460,      -6.07748,      -27.5364,            0.,NA,NA,"",   13.4518E-03,   13.4155E-03,  -987.867E-06,   4.20587E-03
C:/temp/dataset/6/18_8.odb,Step-1,Increment      1: Step Time =    1.000,"PART-1-1",           461,      -7.38250,      -28.7433,            0.,NA,NA,"",   4.46358E-03,   4.19767E-03,   1.51761E-03,   2.70060E-03
C:/temp/dataset/6/18_8.odb,Step-1,Increment      1: Step Time =    1.000,"PART-1-1",           462,         -6.25,          -30.,            0.,NA,NA,"",            0.,   1.94959E-39,   1.77124E-39,   2.37025E-03
C:/temp/dataset/6/18_8.odb,Step-1,Increment      1: Step Time =    1.000,"PART-1-1",           463,      -8.77755,      -24.1806,            0.,NA,NA,"",   46.3813E-03,   43.5285E-03,   16.0154E-03,   3.37262E-03
C:/temp/dataset/6/18_8.odb,Step-1,Increment      1: Step Time =    1.000,"PART-1-1",           464,      -9.92276,      -23.8066,            0.,NA,NA,"",   59.9667E-03,   51.0413E-03,   31.4769E-03,   6.46164E-03
C:/temp/dataset/6/18_8.odb,Step-1,Increment      1: Step Time =    1.000,"PART-1-1",           465,      -10.3347,      -25.6230,            0.,NA,NA,"",   38.8669E-03,   29.5103E-03,   25.2938E-03,   7.29382E-03
C:/temp/dataset/6/18_8.odb,Step-1,Increment      1: Step Time =    1.000,"PART-1-1",           466,       13.9544,      -21.3085,            0.,NA,NA,"",   176.984E-03,   120.962E-03,  -129.196E-03,   16.0990E-03
C:/temp/dataset/6/18_8.odb,Step-1,Increment      1: Step Time =    1.000,"PART-1-1",           467,       13.8855,      -23.5136,            0.,NA,NA,"",   122.872E-03,   77.3190E-03,  -95.4953E-03,   16.2792E-03
C:/temp/dataset/6/18_8.odb,Step-1,Increment      1: Step Time =    1.000,"PART-1-1",           468,           15.,      -22.3438,            0.,NA,NA,"",   172.312E-03,   107.235E-03,  -134.878E-03,   19.0845E-03
C:/temp/dataset/6/18_8.odb,Step-1,Increment      1: Step Time =    1.000,"PART-1-1",           469,       12.7349,      -24.6944,            0.,NA,NA,"",   80.6964E-03,   51.8430E-03,  -61.8402E-03,   13.5636E-03
C:/temp/dataset/6/18_8.odb,Step-1,Increment      1: Step Time =    1.000,"PART-1-1",           470,       13.8494,      -25.7120,            0.,NA,NA,"",   77.9444E-03,   46.1409E-03,  -62.8199E-03,   16.2345E-03
C:/temp/dataset/6/18_8.odb,Step-1,Increment      1: Step Time =    1.000,"PART-1-1",           471,           15.,      -24.5313,            0.,NA,NA,"",   119.818E-03,   70.4349E-03,  -96.9299E-03,   18.8304E-03
C:/temp/dataset/6/18_8.odb,Step-1,Increment      1: Step Time =    1.000,"PART-1-1",           472,         11.25,          -30.,            0.,NA,NA,"",            0.,   615.620E-42,  -16.1869E-39,   8.14229E-03
C:/temp/dataset/6/18_8.odb,Step-1,Increment      1: Step Time =    1.000,"PART-1-1",           473,       13.9950,      -12.5232,            0.,NA,NA,"",   481.238E-03,   423.528E-03,  -228.505E-03,   6.43555E-03
C:/temp/dataset/6/18_8.odb,Step-1,Increment      1: Step Time =    1.000,"PART-1-1",           474,       12.9942,      -13.6844,            0.,NA,NA,"",   416.691E-03,   372.921E-03,  -185.905E-03,   8.85393E-03
C:/temp/dataset/6/18_8.odb,Step-1,Increment      1: Step Time =    1.000,"PART-1-1",           475,           15.,      -13.5938,            0.,NA,NA,"",   462.091E-03,   382.061E-03,  -259.918E-03,   8.16657E-03
C:/temp/dataset/6/18_8.odb,Step-1,Increment      1: Step Time =    1.000,"PART-1-1",           476,       9.85236,      -17.2546,            0.,NA,NA,"",   232.599E-03,   221.316E-03,  -71.5649E-03,   9.63890E-03
C:/temp/dataset/6/18_8.odb,Step-1,Increment      1: Step Time =    1.000,"PART-1-1",           477,       8.68427,      -17.7513,            0.,NA,NA,"",   203.478E-03,   199.474E-03,  -40.1678E-03,   9.25242E-03
C:/temp/dataset/6/18_8.odb,Step-1,Increment      1: Step Time =    1.000,"PART-1-1",           478,       8.96140,      -18.9835,            0.,NA,NA,"",   163.130E-03,   157.712E-03,  -41.6948E-03,   8.93711E-03
C:/temp/dataset/6/18_8.odb,Step-1,Increment      1: Step Time =    1.000,"PART-1-1",           479,       10.1295,      -18.4868,            0.,NA,NA,"",   192.249E-03,   178.703E-03,  -70.8868E-03,   9.60562E-03
C:/temp/dataset/6/18_8.odb,Step-1,Increment      1: Step Time =    1.000,"PART-1-1",           480,       11.2436,      -18.3856,            0.,NA,NA,"",   211.106E-03,   186.911E-03,  -98.1337E-03,   10.4551E-03
C:/temp/dataset/6/18_8.odb,Step-1,Increment      1: Step Time =    1.000,"PART-1-1",           481,       12.3956,      -19.2305,            0.,NA,NA,"",   203.913E-03,   165.994E-03,  -118.434E-03,   11.9275E-03
C:/temp/dataset/6/18_8.odb,Step-1,Increment      1: Step Time =    1.000,"PART-1-1",           482,       13.1120,      -18.1414,            0.,NA,NA,"",   252.622E-03,   204.020E-03,  -148.976E-03,   12.3064E-03
C:/temp/dataset/6/18_8.odb,Step-1,Increment      1: Step Time =    1.000,"PART-1-1",           483,       11.9600,      -17.2965,            0.,NA,NA,"",   260.129E-03,   227.680E-03,  -125.812E-03,   10.7688E-03
C:/temp/dataset/6/18_8.odb,Step-1,Increment      1: Step Time =    1.000,"PART-1-1",           484,       14.0024,      -3.77677,            0.,NA,NA,"",   781.804E-03,   746.594E-03,  -231.981E-03,   4.27820E-03
C:/temp/dataset/6/18_8.odb,Step-1,Increment      1: Step Time =    1.000,"PART-1-1",           485,       13.0359,      -4.87313,            0.,NA,NA,"",   746.421E-03,   716.951E-03,  -207.668E-03,   2.46886E-03
C:/temp/dataset/6/18_8.odb,Step-1,Increment      1: Step Time =    1.000,"PART-1-1",           486,       14.0335,      -5.94012,            0.,NA,NA,"",   721.817E-03,   681.016E-03,  -239.243E-03,   3.74682E-03
C:/temp/dataset/6/18_8.odb,Step-1,Increment      1: Step Time =    1.000,"PART-1-1",           487,           15.,      -4.84375,            0.,NA,NA,"",   760.738E-03,   713.182E-03,  -264.750E-03,   5.85544E-03
C:/temp/dataset/6/18_8.odb,Step-1,Increment      1: Step Time =    1.000,"PART-1-1",           488,       13.0510,      -7.01836,            0.,NA,NA,"",   678.450E-03,   645.102E-03,  -210.092E-03,   3.63521E-03
C:/temp/dataset/6/18_8.odb,Step-1,Increment      1: Step Time =    1.000,"PART-1-1",           489,       14.0175,      -8.10950,            0.,NA,NA,"",   649.886E-03,   603.268E-03,  -241.702E-03,   2.66846E-03
C:/temp/dataset/6/18_8.odb,Step-1,Increment      1: Step Time =    1.000,"PART-1-1",           490,           15.,      -7.03125,            0.,NA,NA,"",   697.412E-03,   641.242E-03,  -274.214E-03,   4.04276E-03
C:/temp/dataset/6/18_8.odb,Step-1,Increment      1: Step Time =    1.000,"PART-1-1",           491,         13.75,            5.,            0.,NA,NA,"",   954.159E-03,   930.197E-03,  -212.494E-03,   335.932E-06
C:/temp/dataset/6/18_8.odb,Step-1,Increment      1: Step Time =    1.000,"PART-1-1",           492,       12.4982,       3.90020,            0.,NA,NA,"",   926.779E-03,   907.936E-03,  -185.930E-03,   1.50919E-03
C:/temp/dataset/6/18_8.odb,Step-1,Increment      1: Step Time =    1.000,"PART-1-1",           493,       13.7482,       2.80645,            0.,NA,NA,"",   912.285E-03,   887.226E-03,  -212.355E-03,   1.42226E-03
C:/temp/dataset/6/18_8.odb,Step-1,Increment      1: Step Time =    1.000,"PART-1-1",           494,           15.,       3.90625,            0.,NA,NA,"",   938.670E-03,   908.122E-03,  -237.520E-03,   291.829E-06
C:/temp/dataset/6/18_8.odb,Step-1,Increment      1: Step Time =    1.000,"PART-1-1",           495,         11.25,            5.,            0.,NA,NA,"",   942.240E-03,   928.491E-03,  -160.378E-03,   2.21739E-03
C:/temp/dataset/6/18_8.odb,Step-1,Increment      1: Step Time =    1.000,"PART-1-1",           496,       11.2740,       2.82937,            0.,NA,NA,"",   901.461E-03,   887.333E-03,  -158.971E-03,   2.64093E-03
C:/temp/dataset/6/18_8.odb,Step-1,Increment      1: Step Time =    1.000,"PART-1-1",           497,       11.1422,   446.578E-03,            0.,NA,NA,"",   858.902E-03,   844.765E-03,  -155.196E-03,   2.86802E-03
C:/temp/dataset/6/18_8.odb,Step-1,Increment      1: Step Time =    1.000,"PART-1-1",           498,       10.2035,  -836.101E-03,            0.,NA,NA,"",   831.791E-03,   821.062E-03,  -133.165E-03,   2.45926E-03
C:/temp/dataset/6/18_8.odb,Step-1,Increment      1: Step Time =    1.000,"PART-1-1",           499,       11.7017,      -1.82731,            0.,NA,NA,"",   816.531E-03,   798.863E-03,  -168.939E-03,   2.26470E-03
C:/temp/dataset/6/18_8.odb,Step-1,Increment      1: Step Time =    1.000,"PART-1-1",           500,       12.5035,       1.67834,            0.,NA,NA,"",   886.488E-03,   866.788E-03,  -185.850E-03,   2.81066E-03
C:/temp/dataset/6/18_8.odb,Step-1,Increment      1: Step Time =    1.000,"PART-1-1",           501,       9.91277,       1.59761,            0.,NA,NA,"",   874.608E-03,   865.048E-03,  -128.967E-03,   2.75325E-03
C:/temp/dataset/6/18_8.odb,Step-1,Increment      1: Step Time =    1.000,"PART-1-1",           502,       5.19643,       3.92738,            0.,NA,NA,"",   895.359E-03,   893.457E-03,  -58.3285E-03,   3.06952E-03
C:/temp/dataset/6/18_8.odb,Step-1,Increment      1: Step Time =    1.000,"PART-1-1",           503,          3.75,            5.,            0.,NA,NA,"",   902.362E-03,   901.105E-03,  -47.6026E-03,   1.96898E-03
C:/temp/dataset/6/18_8.odb,Step-1,Increment      1: Step Time =    1.000,"PART-1-1",           504,       2.66615,       3.61346,            0.,NA,NA,"",   889.278E-03,   888.326E-03,  -41.1351E-03,   4.33310E-03
C:/temp/dataset/6/18_8.odb,Step-1,Increment      1: Step Time =    1.000,"PART-1-1",           505,      -1.00804,       2.95894,            0.,NA,NA,"",   894.171E-03,   893.570E-03,  -32.7695E-03,   10.6867E-03
C:/temp/dataset/6/18_8.odb,Step-1,Increment      1: Step Time =    1.000,"PART-1-1",           506,   87.8012E-03,       3.95476,            0.,NA,NA,"",   899.969E-03,   899.381E-03,  -32.5395E-03,   7.19178E-03
C:/temp/dataset/6/18_8.odb,Step-1,Increment      1: Step Time =    1.000,"PART-1-1",           507,         -1.25,            5.,            0.,NA,NA,"",   916.436E-03,   916.127E-03,  -23.8166E-03,   10.3026E-03
C:/temp/dataset/6/18_8.odb,Step-1,Increment      1: Step Time =    1.000,"PART-1-1",           508,      -2.34584,       4.00418,            0.,NA,NA,"",   919.706E-03,   919.380E-03,  -24.5007E-03,   11.9053E-03
C:/temp/dataset/6/18_8.odb,Step-1,Increment      1: Step Time =    1.000,"PART-1-1",           509,      -3.27281,       2.96378,            0.,NA,NA,"",   910.875E-03,   910.577E-03,  -23.3106E-03,   10.5947E-03
C:/temp/dataset/6/18_8.odb,Step-1,Increment      1: Step Time =    1.000,"PART-1-1",           510,         -3.75,            5.,            0.,NA,NA,"",   950.382E-03,   950.341E-03,  -8.86566E-03,   20.6248E-03
C:/temp/dataset/6/18_8.odb,Step-1,Increment      1: Step Time =    1.000,"PART-1-1",           511,      -4.67697,       3.95960,            0.,NA,NA,"",   943.931E-03,   943.897E-03,  -7.96887E-03,   14.8799E-03
C:/temp/dataset/6/18_8.odb,Step-1,Increment      1: Step Time =    1.000,"PART-1-1",           512,      -7.93004,       8.58536,            0.,NA,NA,"",       1.13249,       1.12939,   83.7821E-03,   1.51771E-03
C:/temp/dataset/6/18_8.odb,Step-1,Increment      1: Step Time =    1.000,"PART-1-1",           513,      -8.65034,       7.25415,            0.,NA,NA,"",       1.09402,       1.08907,   104.012E-03,   4.91518E-03
C:/temp/dataset/6/18_8.odb,Step-1,Increment      1: Step Time =    1.000,"PART-1-1",           514,      -7.51010,       6.50150,            0.,NA,NA,"",       1.06166,       1.05927,   71.1962E-03,   6.33559E-03
C:/temp/dataset/6/18_8.odb,Step-1,Increment      1: Step Time =    1.000,"PART-1-1",           515,      -6.78981,       7.83270,            0.,NA,NA,"",       1.10452,       1.10339,   50.1126E-03,   2.58001E-03
C:/temp/dataset/6/18_8.odb,Step-1,Increment      1: Step Time =    1.000,"PART-1-1",           516,      -7.08495,       12.0475,            0.,NA,NA,"",       1.23216,       1.23083,   57.2880E-03,   475.155E-06
C:/temp/dataset/6/18_8.odb,Step-1,Increment      1: Step Time =    1.000,"PART-1-1",           517,      -6.02998,       11.1050,            0.,NA,NA,"",       1.20345,       1.20316,   26.4945E-03,   653.116E-06
C:/temp/dataset/6/18_8.odb,Step-1,Increment      1: Step Time =    1.000,"PART-1-1",           518,           -5.,       12.2917,            0.,NA,NA,"",       1.23656,       1.23656,  -3.20038E-03,   810.518E-06
C:/temp/dataset/6/18_8.odb,Step-1,Increment      1: Step Time =    1.000,"PART-1-1",           519,      -6.05497,       13.2342,            0.,NA,NA,"",       1.26431,       1.26402,   27.1437E-03,   391.686E-06
C:/temp/dataset/6/18_8.odb,Step-1,Increment      1: Step Time =    1.000,"PART-1-1",           520,      -9.96524,       21.0498,            0.,NA,NA,"",       1.49216,       1.48602,   135.174E-03,   21.0872E-06
C:/temp/dataset/6/18_8.odb,Step-1,Increment      1: Step Time =    1.000,"PART-1-1",           521,      -8.51702,       20.1362,            0.,NA,NA,"",       1.46271,       1.45965,   94.5992E-03,   25.7000E-06
C:/temp/dataset/6/18_8.odb,Step-1,Increment      1: Step Time =    1.000,"PART-1-1",           522,      -8.09442,       21.6565,            0.,NA,NA,"",       1.50468,       1.50244,   82.0313E-03,   12.0532E-06
C:/temp/dataset/6/18_8.odb,Step-1,Increment      1: Step Time =    1.000,"PART-1-1",           523,      -9.54264,       22.5701,            0.,NA,NA,"",       1.53374,       1.52884,   122.609E-03,   5.40667E-06
C:/temp/dataset/6/18_8.odb,Step-1,Increment      1: Step Time =    1.000,"PART-1-1",           524,      -7.38593,       19.0122,            0.,NA,NA,"",       1.42887,       1.42748,   63.0640E-03,   57.2733E-06
C:/temp/dataset/6/18_8.odb,Step-1,Increment      1: Step Time =    1.000,"PART-1-1",           525,      -6.14460,       17.5723,            0.,NA,NA,"",       1.38666,       1.38637,   28.4974E-03,   60.2738E-06
C:/temp/dataset/6/18_8.odb,Step-1,Increment      1: Step Time =    1.000,"PART-1-1",           526,           -5.,       18.5417,            0.,NA,NA,"",       1.41325,       1.41325,  -4.19921E-03,   33.1036E-06
C:/temp/dataset/6/18_8.odb,Step-1,Increment      1: Step Time =    1.000,"PART-1-1",           527,      -9.12859,       24.1056,            0.,NA,NA,"",       1.57595,       1.57208,   110.288E-03,   2.26344E-06
C:/temp/dataset/6/18_8.odb,Step-1,Increment      1: Step Time =    1.000,"PART-1-1",           528,      -7.82088,       23.2603,            0.,NA,NA,"",       1.54942,       1.54766,   73.6553E-03,   2.25150E-06
C:/temp/dataset/6/18_8.odb,Step-1,Increment      1: Step Time =    1.000,"PART-1-1",           529,      -7.11221,       24.6459,            0.,NA,NA,"",       1.58744,       1.58655,   53.0683E-03,   1.17073E-06
C:/temp/dataset/6/18_8.odb,Step-1,Increment      1: Step Time =    1.000,"PART-1-1",           530,      -8.41993,       25.4912,            0.,NA,NA,"",       1.61347,       1.61097,   89.7001E-03,   1.36102E-06
C:/temp/dataset/6/18_8.odb,Step-1,Increment      1: Step Time =    1.000,"PART-1-1",           531,           -5.,       28.9583,            0.,NA,NA,"",       1.70765,       1.70763,  -8.37167E-03,   243.396E-09
C:/temp/dataset/6/18_8.odb,Step-1,Increment      1: Step Time =    1.000,"PART-1-1",           532,         -6.25,           30.,            0.,NA,NA,"",       1.73779,       1.73758,   26.5521E-03,   249.867E-09
C:/temp/dataset/6/18_8.odb,Step-1,Increment      1: Step Time =    1.000,"PART-1-1",           533,      -6.22481,       27.8751,            0.,NA,NA,"",       1.67771,       1.67750,   26.6896E-03,   875.008E-09
C:/temp/dataset/6/18_8.odb,Step-1,Increment      1: Step Time =    1.000,"PART-1-1",           534,      -11.1386,       27.5393,            0.,NA,NA,"",       1.67817,       1.66997,   165.747E-03,   1.08541E-06
C:/temp/dataset/6/18_8.odb,Step-1,Increment      1: Step Time =    1.000,"PART-1-1",           535,        -11.25,           30.,            0.,NA,NA,"",       1.74767,       1.73959,   167.915E-03,   1.13615E-06
C:/temp/dataset/6/18_8.odb,Step-1,Increment      1: Step Time =    1.000,"PART-1-1",           536,      -13.1147,       13.7606,            0.,NA,NA,"",       1.30058,       1.28061,   227.060E-03,   389.329E-06
C:/temp/dataset/6/18_8.odb,Step-1,Increment      1: Step Time =    1.000,"PART-1-1",           537,      -14.0658,       14.9906,            0.,NA,NA,"",       1.34004,       1.31588,   253.273E-03,   211.839E-06
C:/temp/dataset/6/18_8.odb,Step-1,Increment      1: Step Time =    1.000,"PART-1-1",           538,          -15.,         13.75,            0.,NA,NA,"",       1.31139,       1.28121,   279.720E-03,   508.903E-06
C:/temp/dataset/6/18_8.odb,Step-1,Increment      1: Step Time =    1.000,"PART-1-1",           539,      -9.42834,       18.6970,            0.,NA,NA,"",       1.42447,       1.41932,   120.991E-03,   75.2286E-06
C:/temp/dataset/6/18_8.odb,Step-1,Increment      1: Step Time =    1.000,"PART-1-1",           540,      -8.29725,       17.5730,            0.,NA,NA,"",       1.39008,       1.38719,   89.4744E-03,   96.2604E-06
C:/temp/dataset/6/18_8.odb,Step-1,Increment      1: Step Time =    1.000,"PART-1-1",           541,      -12.7588,       6.21303,            0.,NA,NA,"",       1.10246,       1.08126,   215.113E-03,   7.05918E-03
C:/temp/dataset/6/18_8.odb,Step-1,Increment      1: Step Time =    1.000,"PART-1-1",           542,          -15.,          6.25,            0.,NA,NA,"",       1.13098,       1.09782,   271.861E-03,   6.70968E-03
C:/temp/dataset/6/18_8.odb,Step-1,Increment      1: Step Time =    1.000,"PART-1-1",           543,      -9.01063,       9.47069,            0.,NA,NA,"",       1.16309,       1.15740,   114.844E-03,   1.08836E-03
C:/temp/dataset/6/18_8.odb,Step-1,Increment      1: Step Time =    1.000,"PART-1-1",           544,      -10.0811,       10.4578,            0.,NA,NA,"",       1.19552,       1.18671,   144.874E-03,   554.466E-06
C:/temp/dataset/6/18_8.odb,Step-1,Increment      1: Step Time =    1.000,"PART-1-1",           545,      -10.9384,       9.05000,            0.,NA,NA,"",       1.16073,       1.14829,   169.450E-03,   1.74514E-03
C:/temp/dataset/6/18_8.odb,Step-1,Increment      1: Step Time =    1.000,"PART-1-1",           546,      -9.86794,       8.06293,            0.,NA,NA,"",       1.12636,       1.11776,   138.976E-03,   2.78717E-03
C:/temp/dataset/6/18_8.odb,Step-1,Increment      1: Step Time =    1.000,"PART-1-1",           547,      -7.23366,       1.29985,            0.,NA,NA,"",   900.107E-03,   899.254E-03,   39.1936E-03,   7.79480E-03
C:/temp/dataset/6/18_8.odb,Step-1,Increment      1: Step Time =    1.000,"PART-1-1",           548,      -8.34685,   784.410E-03,            0.,NA,NA,"",   895.929E-03,   893.543E-03,   65.3491E-03,   7.39602E-03
C:/temp/dataset/6/18_8.odb,Step-1,Increment      1: Step Time =    1.000,"PART-1-1",           549,      -7.43977,  -685.632E-03,            0.,NA,NA,"",   851.040E-03,   850.296E-03,   35.5785E-03,   5.69902E-03
C:/temp/dataset/6/18_8.odb,Step-1,Increment      1: Step Time =    1.000,"PART-1-1",           550,      -12.4903,      -8.57964,            0.,NA,NA,"",   607.099E-03,   579.179E-03,   181.990E-03,   5.54082E-03
C:/temp/dataset/6/18_8.odb,Step-1,Increment      1: Step Time =    1.000,"PART-1-1",           551,          -15.,         -8.75,            0.,NA,NA,"",   639.292E-03,   576.726E-03,   275.829E-03,   2.48020E-03
C:/temp/dataset/6/18_8.odb,Step-1,Increment      1: Step Time =    1.000,"PART-1-1",           552,      -13.5658,      -9.92286,            0.,NA,NA,"",   567.983E-03,   524.687E-03,   217.505E-03,   5.23357E-03
C:/temp/dataset/6/18_8.odb,Step-1,Increment      1: Step Time =    1.000,"PART-1-1",           553,      -11.9783,      -7.15971,            0.,NA,NA,"",   658.505E-03,   637.165E-03,   166.283E-03,   4.60785E-03
C:/temp/dataset/6/18_8.odb,Step-1,Increment      1: Step Time =    1.000,"PART-1-1",           554,      -11.8960,      -5.22799,            0.,NA,NA,"",   730.948E-03,   712.226E-03,   164.377E-03,   2.51809E-03
C:/temp/dataset/6/18_8.odb,Step-1,Increment      1: Step Time =    1.000,"PART-1-1",           555,      -12.4565,      -16.3452,            0.,NA,NA,"",   293.891E-03,   256.606E-03,   143.267E-03,   10.7286E-03
C:/temp/dataset/6/18_8.odb,Step-1,Increment      1: Step Time =    1.000,"PART-1-1",           556,          -15.,        -16.25,            0.,NA,NA,"",   355.612E-03,   275.320E-03,   225.075E-03,   14.4871E-03
C:/temp/dataset/6/18_8.odb,Step-1,Increment      1: Step Time =    1.000,"PART-1-1",           557,      -13.7435,      -17.5611,            0.,NA,NA,"",   278.482E-03,   221.286E-03,   169.070E-03,   13.6139E-03
C:/temp/dataset/6/18_8.odb,Step-1,Increment      1: Step Time =    1.000,"PART-1-1",           558,      -9.99221,      -8.41662,            0.,NA,NA,"",   591.226E-03,   582.951E-03,   98.5732E-03,   7.57680E-03
C:/temp/dataset/6/18_8.odb,Step-1,Increment      1: Step Time =    1.000,"PART-1-1",           559,      -11.4633,      -9.12095,            0.,NA,NA,"",   573.363E-03,   554.521E-03,   145.779E-03,   6.93107E-03
C:/temp/dataset/6/18_8.odb,Step-1,Increment      1: Step Time =    1.000,"PART-1-1",           560,      -10.8070,      -10.1141,            0.,NA,NA,"",   524.493E-03,   510.256E-03,   121.371E-03,   7.69136E-03
C:/temp/dataset/6/18_8.odb,Step-1,Increment      1: Step Time =    1.000,"PART-1-1",           561,      -13.9189,      -24.9166,            0.,NA,NA,"",   92.6923E-03,   56.3694E-03,   73.5824E-03,   16.0402E-03
C:/temp/dataset/6/18_8.odb,Step-1,Increment      1: Step Time =    1.000,"PART-1-1",           562,      -12.9076,      -23.6273,            0.,NA,NA,"",   101.996E-03,   67.9576E-03,   76.0594E-03,   13.7569E-03
C:/temp/dataset/6/18_8.odb,Step-1,Increment      1: Step Time =    1.000,"PART-1-1",           563,          -15.,        -23.75,            0.,NA,NA,"",   134.369E-03,   81.4285E-03,   106.885E-03,   18.6047E-03
C:/temp/dataset/6/18_8.odb,Step-1,Increment      1: Step Time =    1.000,"PART-1-1",           564,          -15.,        -28.75,            0.,NA,NA,"",   32.0465E-03,   21.7653E-03,   23.5212E-03,   20.7098E-03
C:/temp/dataset/6/18_8.odb,Step-1,Increment      1: Step Time =    1.000,"PART-1-1",           565,        -13.75,          -30.,            0.,NA,NA,"",            0.,   408.446E-42,   25.7267E-39,   17.2630E-03
C:/temp/dataset/6/18_8.odb,Step-1,Increment      1: Step Time =    1.000,"PART-1-1",           566,      -13.7642,      -27.4123,            0.,NA,NA,"",   43.9991E-03,   25.8932E-03,   35.5733E-03,   16.2579E-03
C:/temp/dataset/6/18_8.odb,Step-1,Increment      1: Step Time =    1.000,"PART-1-1",           567,            5.,      -6.25625,            0.,NA,NA,"",   675.473E-03,   675.294E-03,   15.5301E-03,   21.8547E-03
C:/temp/dataset/6/18_8.odb,Step-1,Increment      1: Step Time =    1.000,"PART-1-1",           568,       7.03347,      -6.11658,            0.,NA,NA,"",   690.424E-03,   688.771E-03,  -47.7575E-03,   10.7438E-03
C:/temp/dataset/6/18_8.odb,Step-1,Increment      1: Step Time =    1.000,"PART-1-1",           569,       6.04361,      -4.83741,            0.,NA,NA,"",   742.256E-03,   741.558E-03,  -32.1800E-03,   17.7828E-03
C:/temp/dataset/6/18_8.odb,Step-1,Increment      1: Step Time =    1.000,"PART-1-1",           570,           15.,      -2.65625,            0.,NA,NA,"",   813.508E-03,   773.066E-03,  -253.306E-03,   5.70016E-03
C:/temp/dataset/6/18_8.odb,Step-1,Increment      1: Step Time =    1.000,"PART-1-1",           571,       12.8875,      -2.72454,            0.,NA,NA,"",   801.415E-03,   776.082E-03,  -199.906E-03,   2.37541E-03
C:/temp/dataset/6/18_8.odb,Step-1,Increment      1: Step Time =    1.000,"PART-1-1",           572,       10.0248,      -7.91896,            0.,NA,NA,"",   624.919E-03,   613.242E-03,  -120.244E-03,   8.61184E-03
C:/temp/dataset/6/18_8.odb,Step-1,Increment      1: Step Time =    1.000,"PART-1-1",           573,       8.98203,      -8.99604,            0.,NA,NA,"",   574.211E-03,   567.797E-03,  -85.5869E-03,   9.93669E-03
C:/temp/dataset/6/18_8.odb,Step-1,Increment      1: Step Time =    1.000,"PART-1-1",           574,       9.98204,      -10.2112,            0.,NA,NA,"",   528.385E-03,   516.869E-03,  -109.714E-03,   9.35468E-03
C:/temp/dataset/6/18_8.odb,Step-1,Increment      1: Step Time =    1.000,"PART-1-1",           575,            5.,      -11.2813,            0.,NA,NA,"",   468.362E-03,   463.472E-03,   67.5001E-03,   4.57939E-03
C:/temp/dataset/6/18_8.odb,Step-1,Increment      1: Step Time =    1.000,"PART-1-1",           576,       6.96001,      -11.3098,            0.,NA,NA,"",   464.933E-03,   464.872E-03,  -7.53251E-03,   7.15274E-03
C:/temp/dataset/6/18_8.odb,Step-1,Increment      1: Step Time =    1.000,"PART-1-1",           577,       12.1169,      -5.93459,            0.,NA,NA,"",   708.348E-03,   684.475E-03,  -182.348E-03,   3.70564E-03
C:/temp/dataset/6/18_8.odb,Step-1,Increment      1: Step Time =    1.000,"PART-1-1",           578,       11.1088,      -6.97100,            0.,NA,NA,"",   666.863E-03,   649.069E-03,  -153.020E-03,   6.07916E-03
C:/temp/dataset/6/18_8.odb,Step-1,Increment      1: Step Time =    1.000,"PART-1-1",           579,           15.,      -11.4063,            0.,NA,NA,"",   544.590E-03,   471.029E-03,  -273.331E-03,   3.67171E-03
C:/temp/dataset/6/18_8.odb,Step-1,Increment      1: Step Time =    1.000,"PART-1-1",           580,       13.9991,      -10.3053,            0.,NA,NA,"",   568.126E-03,   515.733E-03,  -238.302E-03,   3.61814E-03
C:/temp/dataset/6/18_8.odb,Step-1,Increment      1: Step Time =    1.000,"PART-1-1",           581,       12.9941,      -11.4223,            0.,NA,NA,"",   508.720E-03,   468.262E-03,  -198.814E-03,   7.05947E-03
C:/temp/dataset/6/18_8.odb,Step-1,Increment      1: Step Time =    1.000,"PART-1-1",           582,           15.,      -9.21875,            0.,NA,NA,"",   624.330E-03,   559.094E-03,  -277.851E-03,   655.966E-06
C:/temp/dataset/6/18_8.odb,Step-1,Increment      1: Step Time =    1.000,"PART-1-1",           583,       9.25975,      -25.9916,            0.,NA,NA,"",   27.9943E-03,   24.0558E-03,  -14.3179E-03,   4.76927E-03
C:/temp/dataset/6/18_8.odb,Step-1,Increment      1: Step Time =    1.000,"PART-1-1",           584,       7.97004,      -27.0667,            0.,NA,NA,"",   15.0135E-03,   14.3794E-03,  -4.31706E-03,   3.18486E-03
C:/temp/dataset/6/18_8.odb,Step-1,Increment      1: Step Time =    1.000,"PART-1-1",           585,       9.98268,      -20.3187,            0.,NA,NA,"",   134.838E-03,   123.037E-03,  -55.1662E-03,   8.83108E-03
C:/temp/dataset/6/18_8.odb,Step-1,Increment      1: Step Time =    1.000,"PART-1-1",           586,       8.47236,      -19.9740,            0.,NA,NA,"",   128.279E-03,   125.455E-03,  -26.7716E-03,   8.04055E-03
C:/temp/dataset/6/18_8.odb,Step-1,Increment      1: Step Time =    1.000,"PART-1-1",           587,       7.80775,      -21.2882,            0.,NA,NA,"",   90.7853E-03,   90.2620E-03,  -9.73358E-03,   5.34952E-03
C:/temp/dataset/6/18_8.odb,Step-1,Increment      1: Step Time =    1.000,"PART-1-1",           588,       9.31806,      -21.6330,            0.,NA,NA,"",   95.2794E-03,   88.8654E-03,  -34.3673E-03,   6.35740E-03
C:/temp/dataset/6/18_8.odb,Step-1,Increment      1: Step Time =    1.000,"PART-1-1",           589,          3.75,          -20.,            0.,NA,NA,"",   86.8887E-03,   85.3927E-03,   16.0543E-03,   15.6449E-03
C:/temp/dataset/6/18_8.odb,Step-1,Increment      1: Step Time =    1.000,"PART-1-1",           590,       2.69482,      -20.9389,            0.,NA,NA,"",   78.7802E-03,   77.6348E-03,   13.3848E-03,   6.56159E-03
C:/temp/dataset/6/18_8.odb,Step-1,Increment      1: Step Time =    1.000,"PART-1-1",           591,       4.10336,      -21.5712,            0.,NA,NA,"",   82.9452E-03,   79.8158E-03,   22.5688E-03,   10.3900E-03
C:/temp/dataset/6/18_8.odb,Step-1,Increment      1: Step Time =    1.000,"PART-1-1",           592,       5.15854,      -20.6323,            0.,NA,NA,"",   99.1482E-03,   94.4658E-03,   30.1095E-03,   15.9930E-03
C:/temp/dataset/6/18_8.odb,Step-1,Increment      1: Step Time =    1.000,"PART-1-1",           593,          1.25,          -20.,            0.,NA,NA,"",   70.3065E-03,   70.2112E-03,   3.65926E-03,   3.29034E-03
C:/temp/dataset/6/18_8.odb,Step-1,Increment      1: Step Time =    1.000,"PART-1-1",           594,       1.58638,      -22.3782,            0.,NA,NA,"",   67.8206E-03,   67.3632E-03,   7.86303E-03,   8.07701E-03
C:/temp/dataset/6/18_8.odb,Step-1,Increment      1: Step Time =    1.000,"PART-1-1",           595,      -7.18878,      -21.5166,            0.,NA,NA,"",   79.8373E-03,   79.8329E-03,  -837.286E-06,   3.90178E-03
C:/temp/dataset/6/18_8.odb,Step-1,Increment      1: Step Time =    1.000,"PART-1-1",           596,      -8.69544,      -20.4918,            0.,NA,NA,"",   111.270E-03,   107.831E-03,   27.4522E-03,   6.97524E-03
C:/temp/dataset/6/18_8.odb,Step-1,Increment      1: Step Time =    1.000,"PART-1-1",           597,      -9.53108,      -21.9939,            0.,NA,NA,"",   86.9734E-03,   79.3249E-03,   35.6643E-03,   6.27828E-03
C:/temp/dataset/6/18_8.odb,Step-1,Increment      1: Step Time =    1.000,"PART-1-1",           598,      -8.02442,      -23.0186,            0.,NA,NA,"",   58.8377E-03,   58.0526E-03,   9.57999E-03,   1.88997E-03
C:/temp/dataset/6/18_8.odb,Step-1,Increment      1: Step Time =    1.000,"PART-1-1",           599,           -5.,      -18.7437,            0.,NA,NA,"",   162.141E-03,   152.673E-03,  -54.5963E-03,   15.8777E-03
C:/temp/dataset/6/18_8.odb,Step-1,Increment      1: Step Time =    1.000,"PART-1-1",           600,      -6.23242,      -17.5731,            0.,NA,NA,"",   194.630E-03,   192.730E-03,  -27.1276E-03,   6.76500E-03
C:/temp/dataset/6/18_8.odb,Step-1,Increment      1: Step Time =    1.000,"PART-1-1",           601,      -7.41830,      -18.9573,            0.,NA,NA,"",   143.968E-03,   143.831E-03,   6.27083E-03,   7.62067E-03
C:/temp/dataset/6/18_8.odb,Step-1,Increment      1: Step Time =    1.000,"PART-1-1",           602,      -6.18588,      -20.1280,            0.,NA,NA,"",   103.860E-03,   102.401E-03,  -17.3469E-03,   11.1673E-03
C:/temp/dataset/6/18_8.odb,Step-1,Increment      1: Step Time =    1.000,"PART-1-1",           603,           -5.,      -16.2312,            0.,NA,NA,"",   259.794E-03,   247.443E-03,  -79.1530E-03,   6.01063E-03
C:/temp/dataset/6/18_8.odb,Step-1,Increment      1: Step Time =    1.000,"PART-1-1",           604,      -7.44257,      -16.3835,            0.,NA,NA,"",   239.015E-03,   238.983E-03,   3.95523E-03,   7.03747E-03
C:/temp/dataset/6/18_8.odb,Step-1,Increment      1: Step Time =    1.000,"PART-1-1",           605,      -12.6830,      -26.0788,            0.,NA,NA,"",   55.3058E-03,   33.9576E-03,   43.6533E-03,   13.3563E-03
C:/temp/dataset/6/18_8.odb,Step-1,Increment      1: Step Time =    1.000,"PART-1-1",           606,          -15.,        -26.25,            0.,NA,NA,"",   82.3204E-03,   48.5842E-03,   66.4546E-03,   18.5042E-03
C:/temp/dataset/6/18_8.odb,Step-1,Increment      1: Step Time =    1.000,"PART-1-1",           607,         -8.75,          -30.,            0.,NA,NA,"",            0.,   475.646E-42,   7.50447E-39,   3.96407E-03
C:/temp/dataset/6/18_8.odb,Step-1,Increment      1: Step Time =    1.000,"PART-1-1",           608,          -15.,        -18.75,            0.,NA,NA,"",   270.779E-03,   193.130E-03,   189.795E-03,   17.4214E-03
C:/temp/dataset/6/18_8.odb,Step-1,Increment      1: Step Time =    1.000,"PART-1-1",           609,      -12.5734,      -18.8685,            0.,NA,NA,"",   212.250E-03,   172.617E-03,   123.505E-03,   12.0154E-03
C:/temp/dataset/6/18_8.odb,Step-1,Increment      1: Step Time =    1.000,"PART-1-1",           610,           -5.,      -11.2063,            0.,NA,NA,"",   458.950E-03,   450.333E-03,  -88.5149E-03,   2.40154E-03
C:/temp/dataset/6/18_8.odb,Step-1,Increment      1: Step Time =    1.000,"PART-1-1",           611,      -7.25264,      -11.4522,            0.,NA,NA,"",   444.162E-03,   444.159E-03,  -1.46826E-03,   6.07130E-03
C:/temp/dataset/6/18_8.odb,Step-1,Increment      1: Step Time =    1.000,"PART-1-1",           612,           -5.,      -6.23750,            0.,NA,NA,"",   672.209E-03,   669.531E-03,  -59.9467E-03,   18.0351E-03
C:/temp/dataset/6/18_8.odb,Step-1,Increment      1: Step Time =    1.000,"PART-1-1",           613,      -6.16987,      -5.46941,            0.,NA,NA,"",   712.777E-03,   712.661E-03,  -12.8894E-03,   15.4421E-03
C:/temp/dataset/6/18_8.odb,Step-1,Increment      1: Step Time =    1.000,"PART-1-1",           614,      -7.24309,      -6.98789,            0.,NA,NA,"",   643.832E-03,   643.684E-03,   13.8347E-03,   8.76021E-03
C:/temp/dataset/6/18_8.odb,Step-1,Increment      1: Step Time =    1.000,"PART-1-1",           615,           -5.,       16.4583,            0.,NA,NA,"",       1.35448,       1.35447,  -3.47431E-03,   129.469E-06
C:/temp/dataset/6/18_8.odb,Step-1,Increment      1: Step Time =    1.000,"PART-1-1",           616,      -7.23328,       16.4840,            0.,NA,NA,"",       1.35744,       1.35612,   59.7659E-03,   169.855E-06
C:/temp/dataset/6/18_8.odb,Step-1,Increment      1: Step Time =    1.000,"PART-1-1",           617,      -6.08867,       15.3700,            0.,NA,NA,"",       1.32458,       1.32429,   27.6423E-03,   173.174E-06
C:/temp/dataset/6/18_8.odb,Step-1,Increment      1: Step Time =    1.000,"PART-1-1",           618,      -13.1522,       16.1892,            0.,NA,NA,"",       1.36853,       1.34954,   227.201E-03,   188.676E-06
C:/temp/dataset/6/18_8.odb,Step-1,Increment      1: Step Time =    1.000,"PART-1-1",           619,      -14.0864,       17.4486,            0.,NA,NA,"",       1.40857,       1.38564,   253.092E-03,   60.2078E-06
C:/temp/dataset/6/18_8.odb,Step-1,Increment      1: Step Time =    1.000,"PART-1-1",           620,          -15.,         16.25,            0.,NA,NA,"",       1.38061,       1.35205,   279.342E-03,   147.123E-06
C:/temp/dataset/6/18_8.odb,Step-1,Increment      1: Step Time =    1.000,"PART-1-1",           621,           -5.,       24.7917,            0.,NA,NA,"",       1.58985,       1.58983,  -6.70060E-03,   3.43414E-06
C:/temp/dataset/6/18_8.odb,Step-1,Increment      1: Step Time =    1.000,"PART-1-1",           622,      -6.14442,       25.7689,            0.,NA,NA,"",       1.61811,       1.61791,   25.2600E-03,   1.58729E-06
C:/temp/dataset/6/18_8.odb,Step-1,Increment      1: Step Time =    1.000,"PART-1-1",           623,           -5.,        26.875,            0.,NA,NA,"",       1.64875,       1.64873,  -7.53775E-03,   1.44786E-06
C:/temp/dataset/6/18_8.odb,Step-1,Increment      1: Step Time =    1.000,"PART-1-1",           624,      -7.36924,       26.7689,            0.,NA,NA,"",       1.64775,       1.64668,   59.4861E-03,   1.57308E-06
C:/temp/dataset/6/18_8.odb,Step-1,Increment      1: Step Time =    1.000,"PART-1-1",           625,      -13.1175,       20.9132,            0.,NA,NA,"",       1.50025,       1.48338,   224.352E-03,   15.3870E-06
C:/temp/dataset/6/18_8.odb,Step-1,Increment      1: Step Time =    1.000,"PART-1-1",           626,      -14.0212,       22.2867,            0.,NA,NA,"",       1.54288,       1.52260,   249.361E-03,   2.63888E-06
C:/temp/dataset/6/18_8.odb,Step-1,Increment      1: Step Time =    1.000,"PART-1-1",           627,          -15.,         21.25,            0.,NA,NA,"",       1.51921,       1.49366,   277.465E-03,   2.02057E-06
C:/temp/dataset/6/18_8.odb,Step-1,Increment      1: Step Time =    1.000,"PART-1-1",           628,      -14.0963,       19.8765,            0.,NA,NA,"",       1.47617,       1.45443,   252.445E-03,   12.5331E-06
C:/temp/dataset/6/18_8.odb,Step-1,Increment      1: Step Time =    1.000,"PART-1-1",           629,         -1.25,           -5.,            0.,NA,NA,"",   777.644E-03,   776.733E-03,  -37.6364E-03,   4.19462E-03
C:/temp/dataset/6/18_8.odb,Step-1,Increment      1: Step Time =    1.000,"PART-1-1",           630,      -1.77292,      -3.03732,            0.,NA,NA,"",   791.797E-03,   790.789E-03,  -39.9360E-03,   8.53844E-03
C:/temp/dataset/6/18_8.odb,Step-1,Increment      1: Step Time =    1.000,"PART-1-1",           631,      -12.1053,      -2.30059,            0.,NA,NA,"",   832.447E-03,   814.709E-03,   170.928E-03,   550.836E-06
C:/temp/dataset/6/18_8.odb,Step-1,Increment      1: Step Time =    1.000,"PART-1-1",           632,      -10.7648,      -1.40855,            0.,NA,NA,"",   851.341E-03,   841.607E-03,   128.371E-03,   2.66948E-03
C:/temp/dataset/6/18_8.odb,Step-1,Increment      1: Step Time =    1.000,"PART-1-1",           633,      -11.5438,  -354.672E-03,            0.,NA,NA,"",   891.239E-03,   877.724E-03,   154.620E-03,   4.23511E-03
C:/temp/dataset/6/18_8.odb,Step-1,Increment      1: Step Time =    1.000,"PART-1-1",           634,          3.75,           -5.,            0.,NA,NA,"",   763.963E-03,   763.112E-03,  -36.0535E-03,   16.5572E-03
C:/temp/dataset/6/18_8.odb,Step-1,Increment      1: Step Time =    1.000,"PART-1-1",           635,       4.52066,      -3.83856,            0.,NA,NA,"",   765.698E-03,   765.301E-03,  -24.6422E-03,   18.6851E-03
C:/temp/dataset/6/18_8.odb,Step-1,Increment      1: Step Time =    1.000,"PART-1-1",           636,       2.94662,      -2.72704,            0.,NA,NA,"",   788.135E-03,   787.362E-03,  -34.8907E-03,   11.3415E-03
C:/temp/dataset/6/18_8.odb,Step-1,Increment      1: Step Time =    1.000,"PART-1-1",           637,       1.50395,       2.56821,            0.,NA,NA,"",   878.267E-03,   877.436E-03,  -38.1930E-03,   8.54857E-03
C:/temp/dataset/6/18_8.odb,Step-1,Increment      1: Step Time =    1.000,"PART-1-1",           638,          1.25,            5.,            0.,NA,NA,"",   902.655E-03,   902.001E-03,  -34.3415E-03,   3.51131E-03
C:/temp/dataset/6/18_8.odb,Step-1,Increment      1: Step Time =    1.000,"PART-1-1",           639,          6.25,            5.,            0.,NA,NA,"",   912.909E-03,   910.050E-03,  -72.1902E-03,   4.68303E-03
C:/temp/dataset/6/18_8.odb,Step-1,Increment      1: Step Time =    1.000,"PART-1-1",           640,  -213.968E-03,      -26.0734,            0.,NA,NA,"",   35.9174E-03,   35.9143E-03,  -468.495E-06,   7.72127E-03
C:/temp/dataset/6/18_8.odb,Step-1,Increment      1: Step Time =    1.000,"PART-1-1",           641,       1.14210,      -23.8512,            0.,NA,NA,"",   56.4942E-03,   56.2935E-03,   4.75712E-03,   8.21944E-03
C:/temp/dataset/6/18_8.odb,Step-1,Increment      1: Step Time =    1.000,"PART-1-1",           642,  -234.527E-03,      -23.9674,            0.,NA,NA,"",   55.1442E-03,   55.1395E-03,  -723.163E-06,   8.10558E-03
C:/temp/dataset/6/18_8.odb,Step-1,Increment      1: Step Time =    1.000,"PART-1-1",           643,           -5.,        14.375,            0.,NA,NA,"",       1.29569,       1.29569,  -3.02139E-03,   368.893E-06
C:/temp/dataset/6/18_8.odb,Step-1,Increment      1: Step Time =    1.000,"PART-1-1",           644,      -7.14364,       14.2292,            0.,NA,NA,"",       1.29389,       1.29258,   58.1271E-03,   346.794E-06
C:/temp/dataset/6/18_8.odb,Step-1,Increment      1: Step Time =    1.000,"PART-1-1",           645,           -5.,       6.04167,            0.,NA,NA,"",       1.03570,       1.03567,  -7.23663E-03,   7.79663E-03
C:/temp/dataset/6/18_8.odb,Step-1,Increment      1: Step Time =    1.000,"PART-1-1",           646,      -5.82078,       6.95384,            0.,NA,NA,"",       1.07129,       1.07110,   20.5511E-03,   2.80299E-03
C:/temp/dataset/6/18_8.odb,Step-1,Increment      1: Step Time =    1.000,"PART-1-1",           647,      -6.45742,       5.85906,            0.,NA,NA,"",       1.03023,       1.02939,   41.4596E-03,   9.36488E-03
C:/temp/dataset/6/18_8.odb,Step-1,Increment      1: Step Time =    1.000,"PART-1-1",           648,      -5.63664,       4.94688,            0.,NA,NA,"",   983.874E-03,   983.728E-03,   16.9520E-03,   16.1589E-03
C:/temp/dataset/6/18_8.odb,Step-1,Increment      1: Step Time =    1.000,"PART-1-1",           649,           -5.,         8.125,            0.,NA,NA,"",       1.11167,       1.11165,  -7.28700E-03,   1.73144E-03
C:/temp/dataset/6/18_8.odb,Step-1,Increment      1: Step Time =    1.000,"PART-1-1",           650,      -5.96903,       9.00386,            0.,NA,NA,"",       1.14075,       1.14049,   24.2896E-03,   807.354E-06
C:/temp/dataset/6/18_8.odb,Step-1,Increment      1: Step Time =    1.000,"PART-1-1",           651,          -15.,         -3.75,            0.,NA,NA,"",   813.552E-03,   766.613E-03,   272.345E-03,   463.130E-06
C:/temp/dataset/6/18_8.odb,Step-1,Increment      1: Step Time =    1.000,"PART-1-1",           652,      -12.7846,      -3.59401,            0.,NA,NA,"",   795.120E-03,   770.980E-03,   194.437E-03,   532.993E-06
C:/temp/dataset/6/18_8.odb,Step-1,Increment      1: Step Time =    1.000,"PART-1-1",           653,      -11.5430,      -4.20540,            0.,NA,NA,"",   764.611E-03,   749.259E-03,   152.450E-03,   1.61890E-03
C:/temp/dataset/6/18_8.odb,Step-1,Increment      1: Step Time =    1.000,"PART-1-1",           654,      -10.1018,      -4.29084,            0.,NA,NA,"",   754.098E-03,   746.680E-03,   105.508E-03,   3.00628E-03
C:/temp/dataset/6/18_8.odb,Step-1,Increment      1: Step Time =    1.000,"PART-1-1",           655,          -15.,        -11.25,            0.,NA,NA,"",   544.077E-03,   473.241E-03,   268.446E-03,   6.31844E-03
C:/temp/dataset/6/18_8.odb,Step-1,Increment      1: Step Time =    1.000,"PART-1-1",           656,      -12.2331,      -11.1785,            0.,NA,NA,"",   495.913E-03,   467.369E-03,   165.820E-03,   7.85486E-03
C:/temp/dataset/6/18_8.odb,Step-1,Increment      1: Step Time =    1.000,"PART-1-1",           657,       5.21391,      -1.02834,            0.,NA,NA,"",   817.364E-03,   816.028E-03,  -46.7051E-03,   8.14196E-03
C:/temp/dataset/6/18_8.odb,Step-1,Increment      1: Step Time =    1.000,"PART-1-1",           658,       6.72319,      -1.59046,            0.,NA,NA,"",   809.630E-03,   807.291E-03,  -61.4902E-03,   6.19636E-03
C:/temp/dataset/6/18_8.odb,Step-1,Increment      1: Step Time =    1.000,"PART-1-1",           659,       10.9187,      -16.2245,            0.,NA,NA,"",   284.371E-03,   263.985E-03,  -105.731E-03,   10.2264E-03
C:/temp/dataset/6/18_8.odb,Step-1,Increment      1: Step Time =    1.000,"PART-1-1",           660,       11.9858,      -14.8752,            0.,NA,NA,"",   352.574E-03,   321.103E-03,  -145.609E-03,   9.83128E-03
C:/temp/dataset/6/18_8.odb,Step-1,Increment      1: Step Time =    1.000,"PART-1-1",           661,       10.9746,      -13.7451,            0.,NA,NA,"",   385.596E-03,   365.676E-03,  -122.333E-03,   9.90705E-03
C:/temp/dataset/6/18_8.odb,Step-1,Increment      1: Step Time =    1.000,"PART-1-1",           662,       11.9830,      -12.5543,            0.,NA,NA,"",   448.017E-03,   418.474E-03,  -159.994E-03,   8.80844E-03
C:/temp/dataset/6/18_8.odb,Step-1,Increment      1: Step Time =    1.000,"PART-1-1",           663,           15.,      -20.1563,            0.,NA,NA,"",   233.408E-03,   156.951E-03,  -172.759E-03,   18.2620E-03
C:/temp/dataset/6/18_8.odb,Step-1,Increment      1: Step Time =    1.000,"PART-1-1",           664,       14.0841,      -19.1367,            0.,NA,NA,"",   242.116E-03,   178.581E-03,  -163.490E-03,   15.2073E-03
C:/temp/dataset/6/18_8.odb,Step-1,Increment      1: Step Time =    1.000,"PART-1-1",           665,       13.0385,      -20.2889,            0.,NA,NA,"",   185.562E-03,   139.963E-03,  -121.835E-03,   13.2314E-03
C:/temp/dataset/6/18_8.odb,Step-1,Increment      1: Step Time =    1.000,"PART-1-1",           666,           15.,      -17.9688,            0.,NA,NA,"",   303.402E-03,   220.803E-03,  -208.083E-03,   16.0133E-03
C:/temp/dataset/6/18_8.odb,Step-1,Increment      1: Step Time =    1.000,"PART-1-1",           667,          1.25,          -30.,            0.,NA,NA,"",            0.,   5.61420E-39,   719.725E-42,   5.57234E-03
C:/temp/dataset/6/18_8.odb,Step-1,Increment      1: Step Time =    1.000,"PART-1-1",           668,       3.30543,      -22.6598,            0.,NA,NA,"",   69.2384E-03,   67.4059E-03,   15.8243E-03,   9.80324E-03
C:/temp/dataset/6/18_8.odb,Step-1,Increment      1: Step Time =    1.000,"PART-1-1",           669,       2.86115,      -24.1329,            0.,NA,NA,"",   53.9390E-03,   52.8327E-03,   10.8688E-03,   9.06448E-03
C:/temp/dataset/6/18_8.odb,Step-1,Increment      1: Step Time =    1.000,"PART-1-1",           670,      -10.6801,      -21.6169,            0.,NA,NA,"",   108.788E-03,   91.9878E-03,   58.0777E-03,   8.93700E-03
C:/temp/dataset/6/18_8.odb,Step-1,Increment      1: Step Time =    1.000,"PART-1-1",           671,      -11.3394,      -20.4213,            0.,NA,NA,"",   146.849E-03,   122.672E-03,   80.7229E-03,   10.2980E-03
C:/temp/dataset/6/18_8.odb,Step-1,Increment      1: Step Time =    1.000,"PART-1-1",           672,      -12.1593,      -22.4638,            0.,NA,NA,"",   113.376E-03,   83.2968E-03,   76.9140E-03,   11.8934E-03
C:/temp/dataset/6/18_8.odb,Step-1,Increment      1: Step Time =    1.000,"PART-1-1",           673,      -9.92443,      -16.4516,            0.,NA,NA,"",   252.719E-03,   242.094E-03,   72.5082E-03,   8.92470E-03
C:/temp/dataset/6/18_8.odb,Step-1,Increment      1: Step Time =    1.000,"PART-1-1",           674,      -8.71114,      -17.7111,            0.,NA,NA,"",   195.504E-03,   191.886E-03,   37.4372E-03,   8.08167E-03
C:/temp/dataset/6/18_8.odb,Step-1,Increment      1: Step Time =    1.000,"PART-1-1",           675,      -9.25100,      -7.50767,            0.,NA,NA,"",   626.032E-03,   621.393E-03,   76.0735E-03,   7.65299E-03
C:/temp/dataset/6/18_8.odb,Step-1,Increment      1: Step Time =    1.000,"PART-1-1",           676,      -8.32615,      -6.25855,            0.,NA,NA,"",   675.561E-03,   673.786E-03,   48.9383E-03,   8.02927E-03
C:/temp/dataset/6/18_8.odb,Step-1,Increment      1: Step Time =    1.000,"PART-1-1",           677,      -7.58018,      -5.09368,            0.,NA,NA,"",   722.700E-03,   722.136E-03,   28.5364E-03,   7.34447E-03
C:/temp/dataset/6/18_8.odb,Step-1,Increment      1: Step Time =    1.000,"PART-1-1",           678,      -6.67379,      -3.84489,            0.,NA,NA,"",   766.196E-03,   766.180E-03,   4.96564E-03,   6.60065E-03
C:/temp/dataset/6/18_8.odb,Step-1,Increment      1: Step Time =    1.000,"PART-1-1",           679,      -2.40491,      -1.03021,            0.,NA,NA,"",   825.639E-03,   824.827E-03,  -36.6178E-03,   10.7691E-03
C:/temp/dataset/6/18_8.odb,Step-1,Increment      1: Step Time =    1.000,"PART-1-1",           680,      -3.32453,      -2.14711,            0.,NA,NA,"",   804.727E-03,   803.980E-03,  -34.6859E-03,   10.1299E-03
C:/temp/dataset/6/18_8.odb,Step-1,Increment      1: Step Time =    1.000,"PART-1-1",           681,       10.4745,      -24.8101,            0.,NA,NA,"",   51.3920E-03,   40.1294E-03,  -32.1057E-03,   7.64284E-03
C:/temp/dataset/6/18_8.odb,Step-1,Increment      1: Step Time =    1.000,"PART-1-1",           682,       8.16019,      -23.0435,            0.,NA,NA,"",   61.3172E-03,   60.2821E-03,  -11.2189E-03,   2.57138E-03
C:/temp/dataset/6/18_8.odb,Step-1,Increment      1: Step Time =    1.000,"PART-1-1",           683,       9.40124,      -23.8494,            0.,NA,NA,"",   56.2496E-03,   50.5957E-03,  -24.5782E-03,   5.06271E-03
C:/temp/dataset/6/18_8.odb,Step-1,Increment      1: Step Time =    1.000,"PART-1-1",           684,       5.67200,      -27.0943,            0.,NA,NA,"",   18.1903E-03,   17.9949E-03,   2.65919E-03,   4.85929E-03
C:/temp/dataset/6/18_8.odb,Step-1,Increment      1: Step Time =    1.000,"PART-1-1",           685,       4.86106,      -26.0050,            0.,NA,NA,"",   30.3682E-03,   29.6594E-03,   6.52250E-03,   6.23477E-03
C:/temp/dataset/6/18_8.odb,Step-1,Increment      1: Step Time =    1.000,"PART-1-1",           686,      -2.55341,      -23.8484,            0.,NA,NA,"",   56.0992E-03,   55.1560E-03,  -10.2437E-03,   8.74761E-03
C:/temp/dataset/6/18_8.odb,Step-1,Increment      1: Step Time =    1.000,"PART-1-1",           687,      -4.82130,      -23.8875,            0.,NA,NA,"",   51.8552E-03,   50.3453E-03,  -12.4223E-03,   7.41488E-03
C:/temp/dataset/6/18_8.odb,Step-1,Increment      1: Step Time =    1.000,"PART-1-1",           688,      -5.84083,      -25.1777,            0.,NA,NA,"",   35.2342E-03,   34.7705E-03,  -5.69738E-03,   4.98192E-03
C:/temp/dataset/6/18_8.odb,Step-1,Increment      1: Step Time =    1.000,"PART-1-1",           689,           15.,      -26.7188,            0.,NA,NA,"",   74.8737E-03,   43.8109E-03,  -60.7180E-03,   19.1311E-03
C:/temp/dataset/6/18_8.odb,Step-1,Increment      1: Step Time =    1.000,"PART-1-1",           690,       10.9874,      -11.4075,            0.,NA,NA,"",   485.402E-03,   466.331E-03,  -134.722E-03,   9.37307E-03
C:/temp/dataset/6/18_8.odb,Step-1,Increment      1: Step Time =    1.000,"PART-1-1",           691,       7.29436,      -19.7763,            0.,NA,NA,"",   125.535E-03,   125.458E-03,  -4.42164E-03,   8.58444E-03
C:/temp/dataset/6/18_8.odb,Step-1,Increment      1: Step Time =    1.000,"PART-1-1",           692,       7.78340,      -18.7858,            0.,NA,NA,"",   161.183E-03,   160.366E-03,  -16.2056E-03,   9.02442E-03
C:/temp/dataset/6/18_8.odb,Step-1,Increment      1: Step Time =    1.000,"PART-1-1",           693,       10.8970,      -2.99004,            0.,NA,NA,"",   787.294E-03,   773.039E-03,  -149.139E-03,   1.75359E-03
C:/temp/dataset/6/18_8.odb,Step-1,Increment      1: Step Time =    1.000,"PART-1-1",           694,       12.0828,      -3.88727,            0.,NA,NA,"",   768.824E-03,   747.379E-03,  -180.319E-03,   2.00829E-03
C:/temp/dataset/6/18_8.odb,Step-1,Increment      1: Step Time =    1.000,"PART-1-1",           695,           15.,       1.71875,            0.,NA,NA,"",   898.068E-03,   865.805E-03,  -238.556E-03,   1.82336E-03
C:/temp/dataset/6/18_8.odb,Step-1,Increment      1: Step Time =    1.000,"PART-1-1",           696,       4.00043,  -427.215E-03,            0.,NA,NA,"",   826.560E-03,   825.487E-03,  -42.1150E-03,   9.80935E-03
C:/temp/dataset/6/18_8.odb,Step-1,Increment      1: Step Time =    1.000,"PART-1-1",           697,       2.09609,       1.00148,            0.,NA,NA,"",   852.431E-03,   851.508E-03,  -39.6628E-03,   9.88239E-03
C:/temp/dataset/6/18_8.odb,Step-1,Increment      1: Step Time =    1.000,"PART-1-1",           698,       2.38138,  -554.063E-03,            0.,NA,NA,"",   825.486E-03,   824.579E-03,  -38.7046E-03,   11.4536E-03
C:/temp/dataset/6/18_8.odb,Step-1,Increment      1: Step Time =    1.000,"PART-1-1",           699,   35.7305E-03,       2.11113,            0.,NA,NA,"",   876.209E-03,   875.446E-03,  -36.5505E-03,   10.6334E-03
C:/temp/dataset/6/18_8.odb,Step-1,Increment      1: Step Time =    1.000,"PART-1-1",           700,           -5.,       10.2083,            0.,NA,NA,"",       1.17595,       1.17594,  -4.40853E-03,   1.48210E-03
C:/temp/dataset/6/18_8.odb,Step-1,Increment      1: Step Time =    1.000,"PART-1-1",           701,      -6.99901,       9.90050,            0.,NA,NA,"",       1.16976,       1.16843,   55.6064E-03,   321.997E-06
C:/temp/dataset/6/18_8.odb,Step-1,Increment      1: Step Time =    1.000,"PART-1-1",           702,      -11.2396,       16.2208,            0.,NA,NA,"",       1.36091,       1.34983,   173.364E-03,   207.267E-06
C:/temp/dataset/6/18_8.odb,Step-1,Increment      1: Step Time =    1.000,"PART-1-1",           703,      -10.2112,       15.1096,            0.,NA,NA,"",       1.32609,       1.31814,   145.001E-03,   272.943E-06
C:/temp/dataset/6/18_8.odb,Step-1,Increment      1: Step Time =    1.000,"PART-1-1",           704,      -9.25876,       16.3324,            0.,NA,NA,"",       1.35756,       1.35248,   117.329E-03,   201.280E-06
C:/temp/dataset/6/18_8.odb,Step-1,Increment      1: Step Time =    1.000,"PART-1-1",           705,      -10.2871,       17.4437,            0.,NA,NA,"",       1.39183,       1.38417,   145.859E-03,   111.460E-06
C:/temp/dataset/6/18_8.odb,Step-1,Increment      1: Step Time =    1.000,"PART-1-1",           706,      -8.19479,       15.2434,            0.,NA,NA,"",       1.32438,       1.32148,   87.6825E-03,   241.371E-06
C:/temp/dataset/6/18_8.odb,Step-1,Increment      1: Step Time =    1.000,"PART-1-1",           707,      -9.19446,       14.0222,            0.,NA,NA,"",       1.29256,       1.28726,   116.902E-03,   393.324E-06
C:/temp/dataset/6/18_8.odb,Step-1,Increment      1: Step Time =    1.000,"PART-1-1",           708,      -8.14331,       13.0080,            0.,NA,NA,"",       1.26145,       1.25841,   87.4694E-03,   422.926E-06
C:/temp/dataset/6/18_8.odb,Step-1,Increment      1: Step Time =    1.000,"PART-1-1",           709,          -15.,         18.75,            0.,NA,NA,"",       1.44989,       1.42289,   278.459E-03,   27.4173E-06
C:/temp/dataset/6/18_8.odb,Step-1,Increment      1: Step Time =    1.000,"PART-1-1",           710,      -13.1826,       18.5751,            0.,NA,NA,"",       1.43529,       1.41721,   227.125E-03,   60.2149E-06
C:/temp/dataset/6/18_8.odb,Step-1,Increment      1: Step Time =    1.000,"PART-1-1",           711,      -11.2313,       23.3702,            0.,NA,NA,"",       1.56141,       1.55213,   170.034E-03,   3.40531E-06
C:/temp/dataset/6/18_8.odb,Step-1,Increment      1: Step Time =    1.000,"PART-1-1",           712,      -10.8173,       24.9058,            0.,NA,NA,"",       1.60316,       1.59538,   157.714E-03,   1.42876E-06
C:/temp/dataset/6/18_8.odb,Step-1,Increment      1: Step Time =    1.000,"PART-1-1",           713,      -13.5418,       24.7667,            0.,NA,NA,"",       1.60976,       1.59254,   234.808E-03,   1.60119E-06
C:/temp/dataset/6/18_8.odb,Step-1,Increment      1: Step Time =    1.000,"PART-1-1",           714,      -12.2278,       25.9824,            0.,NA,NA,"",       1.63829,       1.62638,   197.166E-03,   1.48624E-06
C:/temp/dataset/6/18_8.odb,Step-1,Increment      1: Step Time =    1.000,"PART-1-1",           715,          -15.,         26.25,            0.,NA,NA,"",       1.65810,       1.63506,   275.446E-03,   1.94625E-06
C:/temp/dataset/6/18_8.odb,Step-1,Increment      1: Step Time =    1.000,"PART-1-1",           716,          -15.,         23.75,            0.,NA,NA,"",       1.58861,       1.56437,   276.453E-03,   4.08995E-06
C:/temp/dataset/6/18_8.odb,Step-1,Increment      1: Step Time =    1.000,"PART-1-1",           717,      -12.5630,       23.3034,            0.,NA,NA,"",       1.56462,       1.55077,   207.716E-03,   1.89246E-06
C:/temp/dataset/6/18_8.odb,Step-1,Increment      1: Step Time =    1.000,"PART-1-1",           718,      -11.1827,       13.8735,            0.,NA,NA,"",       1.29496,       1.28333,   173.164E-03,   415.442E-06
C:/temp/dataset/6/18_8.odb,Step-1,Increment      1: Step Time =    1.000,"PART-1-1",           719,      -10.1659,       12.7861,            0.,NA,NA,"",       1.26089,       1.25248,   145.390E-03,   490.021E-06
C:/temp/dataset/6/18_8.odb,Step-1,Increment      1: Step Time =    1.000,"PART-1-1",           720,      -11.4858,       20.4947,            0.,NA,NA,"",       1.48168,       1.47090,   178.390E-03,   26.1364E-06
C:/temp/dataset/6/18_8.odb,Step-1,Increment      1: Step Time =    1.000,"PART-1-1",           721,      -10.4732,       19.7487,            0.,NA,NA,"",       1.45717,       1.44942,   150.079E-03,   34.9864E-06
C:/temp/dataset/6/18_8.odb,Step-1,Increment      1: Step Time =    1.000,"PART-1-1",           722,      -10.9778,       21.7959,            0.,NA,NA,"",       1.51635,       1.50751,   163.498E-03,   9.92501E-06
C:/temp/dataset/6/18_8.odb,Step-1,Increment      1: Step Time =    1.000,"PART-1-1",           723,      -9.13796,       11.7463,            0.,NA,NA,"",       1.22847,       1.22289,   116.988E-03,   472.239E-06
C:/temp/dataset/6/18_8.odb,Step-1,Increment      1: Step Time =    1.000,"PART-1-1",           724,      -11.1090,       11.4975,            0.,NA,NA,"",       1.22856,       1.21633,   172.913E-03,   479.346E-06
C:/temp/dataset/6/18_8.odb,Step-1,Increment      1: Step Time =    1.000,"PART-1-1",           725,      -7.95801,       5.48811,            0.,NA,NA,"",       1.02992,       1.02679,   80.3448E-03,   9.24665E-03
C:/temp/dataset/6/18_8.odb,Step-1,Increment      1: Step Time =    1.000,"PART-1-1",           726,      -9.27172,       5.51676,            0.,NA,NA,"",       1.04401,       1.03752,   116.220E-03,   8.27142E-03
C:/temp/dataset/6/18_8.odb,Step-1,Increment      1: Step Time =    1.000,"PART-1-1",           727,      -9.10783,       4.19071,            0.,NA,NA,"",       1.00119,   995.654E-03,   105.101E-03,   10.3677E-03
C:/temp/dataset/6/18_8.odb,Step-1,Increment      1: Step Time =    1.000,"PART-1-1",           728,      -7.79412,       4.16207,            0.,NA,NA,"",   984.991E-03,   982.520E-03,   69.7300E-03,   11.1730E-03
C:/temp/dataset/6/18_8.odb,Step-1,Increment      1: Step Time =    1.000,"PART-1-1",           729,      -10.3652,   710.465E-03,            0.,NA,NA,"",   912.735E-03,   904.517E-03,   122.203E-03,   6.80420E-03
C:/temp/dataset/6/18_8.odb,Step-1,Increment      1: Step Time =    1.000,"PART-1-1",           730,      -11.5756,       2.14983,            0.,NA,NA,"",   970.832E-03,   956.838E-03,   164.244E-03,   8.80966E-03
C:/temp/dataset/6/18_8.odb,Step-1,Increment      1: Step Time =    1.000,"PART-1-1",           731,      -10.9514,      -7.70102,            0.,NA,NA,"",   628.063E-03,   614.197E-03,   131.249E-03,   6.12859E-03
C:/temp/dataset/6/18_8.odb,Step-1,Increment      1: Step Time =    1.000,"PART-1-1",           732,      -11.1587,      -15.1039,            0.,NA,NA,"",   319.522E-03,   298.714E-03,   113.421E-03,   9.21151E-03
C:/temp/dataset/6/18_8.odb,Step-1,Increment      1: Step Time =    1.000,"PART-1-1",           733,      -11.0422,      -12.5823,            0.,NA,NA,"",   421.181E-03,   403.423E-03,   121.011E-03,   8.47183E-03
C:/temp/dataset/6/18_8.odb,Step-1,Increment      1: Step Time =    1.000,"PART-1-1",           734,      -9.98828,      -19.2456,            0.,NA,NA,"",   159.195E-03,   147.433E-03,   60.0533E-03,   8.66444E-03
C:/temp/dataset/6/18_8.odb,Step-1,Increment      1: Step Time =    1.000,"PART-1-1",           735,      -11.2222,      -17.6929,            0.,NA,NA,"",   225.791E-03,   202.646E-03,   99.5796E-03,   10.1071E-03
C:/temp/dataset/6/18_8.odb,Step-1,Increment      1: Step Time =    1.000,"PART-1-1",           736,      -9.72809,       26.4627,            0.,NA,NA,"",       1.64382,       1.63897,   126.297E-03,   1.24102E-06
C:/temp/dataset/6/18_8.odb,Step-1,Increment      1: Step Time =    1.000,"PART-1-1",           737,      -8.07960,       10.7858,            0.,NA,NA,"",       1.19816,       1.19499,   87.0550E-03,   413.918E-06
C:/temp/dataset/6/18_8.odb,Step-1,Increment      1: Step Time =    1.000,"PART-1-1",           738,      -11.3320,       18.4953,            0.,NA,NA,"",       1.42504,       1.41426,   174.890E-03,   80.1388E-06
C:/temp/dataset/6/18_8.odb,Step-1,Increment      1: Step Time =    1.000,"PART-1-1",           739,      -10.4893,       6.32554,            0.,NA,NA,"",       1.08086,       1.07001,   152.793E-03,   6.50436E-03
C:/temp/dataset/6/18_8.odb,Step-1,Increment      1: Step Time =    1.000,"PART-1-1",           740,      -11.8356,       7.66802,            0.,NA,NA,"",       1.13037,       1.11371,   193.323E-03,   3.97052E-03
C:/temp/dataset/6/18_8.odb,Step-1,Increment      1: Step Time =    1.000,"PART-1-1",           741,      -11.4125,       4.87054,            0.,NA,NA,"",       1.04961,       1.03531,   172.663E-03,   8.92767E-03
C:/temp/dataset/6/18_8.odb,Step-1,Increment      1: Step Time =    1.000,"PART-1-1",           742,       10.1911,      -5.79504,            0.,NA,NA,"",   704.777E-03,   692.754E-03,  -129.624E-03,   5.88938E-03
C:/temp/dataset/6/18_8.odb,Step-1,Increment      1: Step Time =    1.000,"PART-1-1",           743,       9.10708,      -6.74300,            0.,NA,NA,"",   667.391E-03,   660.078E-03,  -98.5294E-03,   8.46334E-03
C:/temp/dataset/6/18_8.odb,Step-1,Increment      1: Step Time =    1.000,"PART-1-1",           744,       11.1638,      -4.94873,            0.,NA,NA,"",   734.909E-03,   718.143E-03,  -156.083E-03,   3.25881E-03
C:/temp/dataset/6/18_8.odb,Step-1,Increment      1: Step Time =    1.000,"PART-1-1",           745,       10.4293,      -4.08570,            0.,NA,NA,"",   757.624E-03,   745.122E-03,  -137.066E-03,   2.93128E-03
C:/temp/dataset/6/18_8.odb,Step-1,Increment      1: Step Time =    1.000,"PART-1-1",           746,       9.97038,      -14.8971,            0.,NA,NA,"",   326.910E-03,   315.171E-03,  -86.8216E-03,   9.51966E-03
C:/temp/dataset/6/18_8.odb,Step-1,Increment      1: Step Time =    1.000,"PART-1-1",           747,       9.96577,      -12.5508,            0.,NA,NA,"",   426.645E-03,   415.209E-03,  -98.1195E-03,   9.46932E-03
C:/temp/dataset/6/18_8.odb,Step-1,Increment      1: Step Time =    1.000,"PART-1-1",           748,       8.96159,      -13.7029,            0.,NA,NA,"",   369.342E-03,   364.021E-03,  -62.4661E-03,   9.12458E-03
C:/temp/dataset/6/18_8.odb,Step-1,Increment      1: Step Time =    1.000,"PART-1-1",           749,       6.92617,      -22.4012,            0.,NA,NA,"",   68.9693E-03,   68.8572E-03,   3.92969E-03,   2.82737E-03
C:/temp/dataset/6/18_8.odb,Step-1,Increment      1: Step Time =    1.000,"PART-1-1",           750,       5.94981,      -23.5281,            0.,NA,NA,"",   55.0127E-03,   54.0743E-03,   10.1175E-03,   5.35476E-03
C:/temp/dataset/6/18_8.odb,Step-1,Increment      1: Step Time =    1.000,"PART-1-1",           751,       7.18383,      -24.1705,            0.,NA,NA,"",   44.7392E-03,   44.7387E-03,  -213.308E-06,   2.66567E-03
C:/temp/dataset/6/18_8.odb,Step-1,Increment      1: Step Time =    1.000,"PART-1-1",           752,       11.0968,      -20.2176,            0.,NA,NA,"",   153.216E-03,   131.199E-03,  -79.1320E-03,   10.0297E-03
C:/temp/dataset/6/18_8.odb,Step-1,Increment      1: Step Time =    1.000,"PART-1-1",           753,       6.43355,      -20.8801,            0.,NA,NA,"",   94.0747E-03,   93.2824E-03,   12.1838E-03,   6.49915E-03
C:/temp/dataset/6/18_8.odb,Step-1,Increment      1: Step Time =    1.000,"PART-1-1",           754,       8.96045,      -11.3546,            0.,NA,NA,"",   471.495E-03,   465.809E-03,  -73.0066E-03,   9.48868E-03
C:/temp/dataset/6/18_8.odb,Step-1,Increment      1: Step Time =    1.000,"PART-1-1",           755,       8.17216,      -2.03287,            0.,NA,NA,"",   803.485E-03,   798.801E-03,  -86.6292E-03,   3.65527E-03
C:/temp/dataset/6/18_8.odb,Step-1,Increment      1: Step Time =    1.000,"PART-1-1",           756,       9.68046,      -2.49017,            0.,NA,NA,"",   796.147E-03,   787.134E-03,  -119.459E-03,   2.71954E-03
C:/temp/dataset/6/18_8.odb,Step-1,Increment      1: Step Time =    1.000,"PART-1-1",           757,      -5.24373,       2.94722,            0.,NA,NA,"",   924.361E-03,   924.360E-03,   1.15113E-03,   8.94127E-03
C:/temp/dataset/6/18_8.odb,Step-1,Increment      1: Step Time =    1.000,"PART-1-1",           758,      -6.20341,       3.93450,            0.,NA,NA,"",   959.175E-03,   958.809E-03,   26.4595E-03,   12.3125E-03
C:/temp/dataset/6/18_8.odb,Step-1,Increment      1: Step Time =    1.000,"PART-1-1",           759,       7.87036,      -17.0650,            0.,NA,NA,"",   225.342E-03,   224.333E-03,  -21.3044E-03,   8.28412E-03
C:/temp/dataset/6/18_8.odb,Step-1,Increment      1: Step Time =    1.000,"PART-1-1",           760,      -8.77165,      -4.61616,            0.,NA,NA,"",   739.338E-03,   736.571E-03,   63.8999E-03,   4.70959E-03
C:/temp/dataset/6/18_8.odb,Step-1,Increment      1: Step Time =    1.000,"PART-1-1",           761,       8.90402,      -15.9271,            0.,NA,NA,"",   276.074E-03,   271.054E-03,  -52.4086E-03,   9.18762E-03
C:/temp/dataset/6/18_8.odb,Step-1,Increment      1: Step Time =    1.000,"PART-1-1",           762,       7.94609,      -14.8939,            0.,NA,NA,"",   313.833E-03,   312.631E-03,  -27.4442E-03,   7.34789E-03
C:/temp/dataset/6/18_8.odb,Step-1,Increment      1: Step Time =    1.000,"PART-1-1",           763,      -12.3095,       21.7291,            0.,NA,NA,"",       1.51952,       1.50614,   201.177E-03,   8.19524E-06
C:/temp/dataset/6/18_8.odb,Step-1,Increment      1: Step Time =    1.000,"PART-1-1",           764,      -12.2938,       19.6789,            0.,NA,NA,"",       1.46208,       1.44812,   201.564E-03,   30.4934E-06
C:/temp/dataset/6/18_8.odb,Step-1,Increment      1: Step Time =    1.000,"PART-1-1",           765,       3.72209,      -1.78065,            0.,NA,NA,"",   803.213E-03,   802.330E-03,  -37.6630E-03,   11.6323E-03
C:/temp/dataset/6/18_8.odb,Step-1,Increment      1: Step Time =    1.000,"PART-1-1",           766,       6.45852,      -3.38063,            0.,NA,NA,"",   774.615E-03,   773.165E-03,  -47.3815E-03,   7.83343E-03
C:/temp/dataset/6/18_8.odb,Step-1,Increment      1: Step Time =    1.000,"PART-1-1",           767,       4.93556,      -2.38177,            0.,NA,NA,"",   792.078E-03,   791.210E-03,  -37.0689E-03,   10.7775E-03
C:/temp/dataset/6/18_8.odb,Step-1,Increment      1: Step Time =    1.000,"PART-1-1",           768,      -2.94024,   945.156E-03,            0.,NA,NA,"",   867.388E-03,   866.873E-03,  -29.8846E-03,   10.3085E-03
C:/temp/dataset/6/18_8.odb,Step-1,Increment      1: Step Time =    1.000,"PART-1-1",           769,      -1.69279,      -25.0756,            0.,NA,NA,"",   44.7134E-03,   44.3923E-03,  -5.34872E-03,   8.46545E-03
C:/temp/dataset/6/18_8.odb,Step-1,Increment      1: Step Time =    1.000,"PART-1-1",           770,      -6.93923,      -23.9860,            0.,NA,NA,"",   45.5195E-03,   45.4881E-03,  -1.68926E-03,   2.49101E-03
C:/temp/dataset/6/18_8.odb,Step-1,Increment      1: Step Time =    1.000,"PART-1-1",           771,      -5.91970,      -22.6959,            0.,NA,NA,"",   63.6544E-03,   62.3302E-03,  -12.9161E-03,   5.47030E-03
C:/temp/dataset/6/18_8.odb,Step-1,Increment      1: Step Time =    1.000,"PART-1-1",           772,      -12.2208,       17.3915,            0.,NA,NA,"",       1.39776,       1.38331,   200.463E-03,   100.865E-06
C:/temp/dataset/6/18_8.odb,Step-1,Increment      1: Step Time =    1.000,"PART-1-1",           773,      -12.0398,       10.1961,            0.,NA,NA,"",       1.19740,       1.18067,   199.478E-03,   477.798E-06
C:/temp/dataset/6/18_8.odb,Step-1,Increment      1: Step Time =    1.000,"PART-1-1",           774,      -10.8637,      -2.91198,            0.,NA,NA,"",   804.010E-03,   793.401E-03,   130.179E-03,   1.22499E-03
C:/temp/dataset/6/18_8.odb,Step-1,Increment      1: Step Time =    1.000,"PART-1-1",           775,      -9.61620,      -11.5179,            0.,NA,NA,"",   452.944E-03,   446.112E-03,   78.3705E-03,   8.41588E-03
C:/temp/dataset/6/18_8.odb,Step-1,Increment      1: Step Time =    1.000,"PART-1-1",           776,      -11.8201,      -24.5932,            0.,NA,NA,"",   69.1263E-03,   47.7264E-03,   50.0063E-03,   11.1532E-03
C:/temp/dataset/6/18_8.odb,Step-1,Increment      1: Step Time =    1.000,"PART-1-1",           777,      -11.0718,      -23.4296,            0.,NA,NA,"",   79.0638E-03,   61.1436E-03,   50.1253E-03,   9.30550E-03
C:/temp/dataset/6/18_8.odb,Step-1,Increment      1: Step Time =    1.000,"PART-1-1",           778,       4.75405,      -23.0816,            0.,NA,NA,"",   63.3924E-03,   61.2060E-03,   16.5051E-03,   7.83859E-03
C:/temp/dataset/6/18_8.odb,Step-1,Increment      1: Step Time =    1.000,"PART-1-1",           779,       5.55198,      -21.9930,            0.,NA,NA,"",   76.5012E-03,   74.2982E-03,   18.2267E-03,   7.39012E-03
C:/temp/dataset/6/18_8.odb,Step-1,Increment      1: Step Time =    1.000,"PART-1-1",           780,       7.01336,      -26.0950,            0.,NA,NA,"",   24.1232E-03,   24.1214E-03,  -299.917E-06,   3.65355E-03
C:/temp/dataset/6/18_8.odb,Step-1,Increment      1: Step Time =    1.000,"PART-1-1",           781,       4.10189,      -23.9882,            0.,NA,NA,"",   54.0468E-03,   52.3116E-03,   13.5852E-03,   8.35606E-03
C:/temp/dataset/6/18_8.odb,Step-1,Increment      1: Step Time =    1.000,"PART-1-1",           782,       4.14804,      -25.2051,            0.,NA,NA,"",   40.4635E-03,   39.3390E-03,   9.47340E-03,   7.53515E-03
C:/temp/dataset/6/18_8.odb,Step-1,Increment      1: Step Time =    1.000,"PART-1-1",           783,      -12.1264,       12.6156,            0.,NA,NA,"",       1.26390,       1.24794,   200.261E-03,   477.869E-06
C:/temp/dataset/6/18_8.odb,Step-1,Increment      1: Step Time =    1.000,"PART-1-1",           784,      -12.1709,       15.0185,            0.,NA,NA,"",       1.33113,       1.31599,   200.159E-03,   254.971E-06
C:/temp/dataset/6/18_8.odb,Step-1,Increment      1: Step Time =    1.000,"PART-1-1",           785,      -10.3060,       3.43341,            0.,NA,NA,"",   993.182E-03,   984.081E-03,   134.146E-03,   9.32683E-03
C:/temp/dataset/6/18_8.odb,Step-1,Increment      1: Step Time =    1.000,"PART-1-1",           786,      -9.35047,  -311.861E-03,            0.,NA,NA,"",   873.717E-03,   869.193E-03,   88.7974E-03,   5.32212E-03
C:/temp/dataset/6/18_8.odb,Step-1,Increment      1: Step Time =    1.000,"PART-1-1",           787,      -9.47746,      -1.56252,            0.,NA,NA,"",   838.275E-03,   833.552E-03,   88.8518E-03,   3.19998E-03
C:/temp/dataset/6/18_8.odb,Step-1,Increment      1: Step Time =    1.000,"PART-1-1",           788,      -7.56677,      -1.93629,            0.,NA,NA,"",   818.838E-03,   818.130E-03,   34.0370E-03,   4.02693E-03
C:/temp/dataset/6/18_8.odb,Step-1,Increment      1: Step Time =    1.000,"PART-1-1",           789,      -9.57637,      -3.06595,            0.,NA,NA,"",   792.923E-03,   787.851E-03,   89.5424E-03,   1.98427E-03
C:/temp/dataset/6/18_8.odb,Step-1,Increment      1: Step Time =    1.000,"PART-1-1",           790,      -8.24618,      -3.39128,            0.,NA,NA,"",   779.360E-03,   777.806E-03,   49.1883E-03,   3.54890E-03
C:/temp/dataset/6/18_8.odb,Step-1,Increment      1: Step Time =    1.000,"PART-1-1",           791,       7.98922,      -7.69035,            0.,NA,NA,"",   625.069E-03,   621.830E-03,  -63.5582E-03,   11.2181E-03
C:/temp/dataset/6/18_8.odb,Step-1,Increment      1: Step Time =    1.000,"PART-1-1",           792,       7.96586,      -10.1263,            0.,NA,NA,"",   519.942E-03,   517.726E-03,  -47.9522E-03,   9.22415E-03
C:/temp/dataset/6/18_8.odb,Step-1,Increment      1: Step Time =    1.000,"PART-1-1",           793,       7.95460,      -12.5381,            0.,NA,NA,"",   414.543E-03,   413.014E-03,  -35.5635E-03,   7.67917E-03
C:/temp/dataset/6/18_8.odb,Step-1,Increment      1: Step Time =    1.000,"PART-1-1",           794,      -6.90534,       4.84567,            0.,NA,NA,"",   997.186E-03,   995.948E-03,   49.6806E-03,   12.1666E-03
C:/temp/dataset/6/18_8.odb,Step-1,Increment      1: Step Time =    1.000,"PART-1-1",           795,      -7.09219,       3.25090,            0.,NA,NA,"",   949.679E-03,   948.581E-03,   45.6629E-03,   10.7366E-03
C:/temp/dataset/6/18_8.odb,Step-1,Increment      1: Step Time =    1.000,"PART-1-1",           796,      -5.99438,      -2.38990,            0.,NA,NA,"",   803.436E-03,   803.425E-03,  -4.17189E-03,   6.77159E-03
C:/temp/dataset/6/18_8.odb,Step-1,Increment      1: Step Time =    1.000,"PART-1-1",           797,      -8.16339,       2.56404,            0.,NA,NA,"",   942.381E-03,   939.795E-03,   69.7722E-03,   10.0598E-03
C:/temp/dataset/6/18_8.odb,Step-1,Increment      1: Step Time =    1.000,"PART-1-1",           798,      -6.16245,       1.98671,            0.,NA,NA,"",   908.397E-03,   908.229E-03,   17.4623E-03,   8.03648E-03
C:/temp/dataset/6/18_8.odb,Step-1,Increment      1: Step Time =    1.000,"PART-1-1",           799,      -9.36160,       1.80674,            0.,NA,NA,"",   934.187E-03,   928.984E-03,   98.4596E-03,   8.96139E-03
C:/temp/dataset/6/18_8.odb,Step-1,Increment      1: Step Time =    1.000,"PART-1-1",           800,      -4.18828,       1.89018,            0.,NA,NA,"",   893.665E-03,   893.519E-03,  -16.1157E-03,   8.99835E-03
C:/temp/dataset/6/18_8.odb,Step-1,Increment      1: Step Time =    1.000,"PART-1-1",           801,      -2.02478,       2.01876,            0.,NA,NA,"",   884.452E-03,   883.874E-03,  -31.9830E-03,   11.7642E-03
C:/temp/dataset/6/18_8.odb,Step-1,Increment      1: Step Time =    1.000,"PART-1-1",           802,       5.29765,      -24.4346,            0.,NA,NA,"",   45.9166E-03,   44.7610E-03,   10.2365E-03,   6.25531E-03
C:/temp/dataset/6/18_8.odb,Step-1,Increment      1: Step Time =    1.000,"PART-1-1",           803,       8.18651,      -25.0309,            0.,NA,NA,"",   35.1031E-03,   34.1121E-03,  -8.28207E-03,   2.56043E-03
C:/temp/dataset/6/18_8.odb,Step-1,Increment      1: Step Time =    1.000,"PART-1-1",           804,       6.01068,      -25.2345,            0.,NA,NA,"",   35.0086E-03,   34.5830E-03,   5.44235E-03,   4.96402E-03
