ODB Name,Step,Frame,Part Instance Name,    êﬂì_ÉâÉxÉã,X,Y,Z,Section Name,Material Name,Section Point,   U-Magnitude,          U-U1,          U-U2,       S-Mises
C:/temp/dataset/6/19_4.odb,Step-1,Increment      1: Step Time =    1.000,"PART-1-1",             1,            5.,           -5.,            0.,NA,NA,"",   302.544E-03,   302.236E-03,   13.6533E-03,   11.9834E-03
C:/temp/dataset/6/19_4.odb,Step-1,Increment      1: Step Time =    1.000,"PART-1-1",             2,            0.,           -5.,            0.,NA,NA,"",   326.414E-03,   326.295E-03,   8.82360E-03,   2.25009E-03
C:/temp/dataset/6/19_4.odb,Step-1,Increment      1: Step Time =    1.000,"PART-1-1",             3,            5.,      -10.0250,            0.,NA,NA,"",   212.100E-03,   208.982E-03,   36.2308E-03,   1.79214E-03
C:/temp/dataset/6/19_4.odb,Step-1,Increment      1: Step Time =    1.000,"PART-1-1",             4,            5.,      -15.0500,            0.,NA,NA,"",   130.258E-03,   124.745E-03,   37.4947E-03,   1.55395E-03
C:/temp/dataset/6/19_4.odb,Step-1,Increment      1: Step Time =    1.000,"PART-1-1",             5,            5.,          -20.,            0.,NA,NA,"",   47.0738E-03,   44.0106E-03,   16.7036E-03,   11.0691E-03
C:/temp/dataset/6/19_4.odb,Step-1,Increment      1: Step Time =    1.000,"PART-1-1",             6,            0.,          -20.,            0.,NA,NA,"",   31.9750E-03,   31.9722E-03,  -427.029E-06,   404.930E-06
C:/temp/dataset/6/19_4.odb,Step-1,Increment      1: Step Time =    1.000,"PART-1-1",             7,           -5.,          -20.,            0.,NA,NA,"",   54.0387E-03,   49.9664E-03,  -20.5802E-03,   12.1618E-03
C:/temp/dataset/6/19_4.odb,Step-1,Increment      1: Step Time =    1.000,"PART-1-1",             8,           -5.,      -14.9750,            0.,NA,NA,"",   154.859E-03,   148.353E-03,  -44.4140E-03,   976.991E-06
C:/temp/dataset/6/19_4.odb,Step-1,Increment      1: Step Time =    1.000,"PART-1-1",             9,           -5.,      -9.95000,            0.,NA,NA,"",   247.206E-03,   244.292E-03,  -37.8482E-03,   4.27594E-03
C:/temp/dataset/6/19_4.odb,Step-1,Increment      1: Step Time =    1.000,"PART-1-1",            10,           -5.,           -5.,            0.,NA,NA,"",   327.256E-03,   327.253E-03,  -1.53954E-03,   10.7016E-03
C:/temp/dataset/6/19_4.odb,Step-1,Increment      1: Step Time =    1.000,"PART-1-1",            11,           15.,          -30.,            0.,NA,NA,"",            0.,   2.98121E-39,  -5.31924E-39,   10.3349E-03
C:/temp/dataset/6/19_4.odb,Step-1,Increment      1: Step Time =    1.000,"PART-1-1",            12,          -15.,          -30.,            0.,NA,NA,"",            0.,   3.44120E-39,   6.08542E-39,   11.5229E-03
C:/temp/dataset/6/19_4.odb,Step-1,Increment      1: Step Time =    1.000,"PART-1-1",            13,           15.,        -21.25,            0.,NA,NA,"",   78.2063E-03,   52.6204E-03,  -57.8561E-03,   7.11393E-03
C:/temp/dataset/6/19_4.odb,Step-1,Increment      1: Step Time =    1.000,"PART-1-1",            14,           15.,         -12.5,            0.,NA,NA,"",   198.284E-03,   171.450E-03,  -99.6057E-03,   2.19272E-03
C:/temp/dataset/6/19_4.odb,Step-1,Increment      1: Step Time =    1.000,"PART-1-1",            15,           15.,         -3.75,            0.,NA,NA,"",   316.859E-03,   302.651E-03,  -93.8198E-03,   2.61327E-03
C:/temp/dataset/6/19_4.odb,Step-1,Increment      1: Step Time =    1.000,"PART-1-1",            16,           15.,            5.,            0.,NA,NA,"",   393.143E-03,   383.931E-03,  -84.6089E-03,   88.4503E-06
C:/temp/dataset/6/19_4.odb,Step-1,Increment      1: Step Time =    1.000,"PART-1-1",            17,           10.,            5.,            0.,NA,NA,"",   383.923E-03,   382.000E-03,  -38.3696E-03,   1.48087E-03
C:/temp/dataset/6/19_4.odb,Step-1,Increment      1: Step Time =    1.000,"PART-1-1",            18,            5.,            5.,            0.,NA,NA,"",   371.706E-03,   371.703E-03,  -1.46430E-03,   2.56192E-03
C:/temp/dataset/6/19_4.odb,Step-1,Increment      1: Step Time =    1.000,"PART-1-1",            19,            0.,            5.,            0.,NA,NA,"",   365.640E-03,   365.375E-03,   13.9090E-03,   285.511E-06
C:/temp/dataset/6/19_4.odb,Step-1,Increment      1: Step Time =    1.000,"PART-1-1",            20,           -5.,            5.,            0.,NA,NA,"",   376.923E-03,   376.149E-03,   24.1436E-03,   3.31048E-03
C:/temp/dataset/6/19_4.odb,Step-1,Increment      1: Step Time =    1.000,"PART-1-1",            21,           -5.,         11.25,            0.,NA,NA,"",   415.277E-03,   414.504E-03,   25.3149E-03,   104.144E-06
C:/temp/dataset/6/19_4.odb,Step-1,Increment      1: Step Time =    1.000,"PART-1-1",            22,           -5.,          17.5,            0.,NA,NA,"",   447.448E-03,   446.726E-03,   25.4087E-03,   1.94434E-06
C:/temp/dataset/6/19_4.odb,Step-1,Increment      1: Step Time =    1.000,"PART-1-1",            23,           -5.,         23.75,            0.,NA,NA,"",   479.646E-03,   478.977E-03,   25.3229E-03,   470.213E-09
C:/temp/dataset/6/19_4.odb,Step-1,Increment      1: Step Time =    1.000,"PART-1-1",            24,           -5.,           30.,            0.,NA,NA,"",   511.864E-03,   511.241E-03,   25.2388E-03,   9.75250E-09
C:/temp/dataset/6/19_4.odb,Step-1,Increment      1: Step Time =    1.000,"PART-1-1",            25,          -10.,           30.,            0.,NA,NA,"",   513.850E-03,   511.308E-03,   51.0502E-03,   108.251E-09
C:/temp/dataset/6/19_4.odb,Step-1,Increment      1: Step Time =    1.000,"PART-1-1",            26,          -15.,           30.,            0.,NA,NA,"",   517.119E-03,   511.375E-03,   76.8621E-03,   13.6069E-09
C:/temp/dataset/6/19_4.odb,Step-1,Increment      1: Step Time =    1.000,"PART-1-1",            27,          -15.,          22.5,            0.,NA,NA,"",   478.881E-03,   472.656E-03,   76.9634E-03,   694.687E-09
C:/temp/dataset/6/19_4.odb,Step-1,Increment      1: Step Time =    1.000,"PART-1-1",            28,          -15.,           15.,            0.,NA,NA,"",   440.691E-03,   433.903E-03,   77.0518E-03,   13.2564E-06
C:/temp/dataset/6/19_4.odb,Step-1,Increment      1: Step Time =    1.000,"PART-1-1",            29,          -15.,           7.5,            0.,NA,NA,"",   402.976E-03,   395.661E-03,   76.4351E-03,   248.769E-06
C:/temp/dataset/6/19_4.odb,Step-1,Increment      1: Step Time =    1.000,"PART-1-1",            30,          -15.,            0.,            0.,NA,NA,"",   379.367E-03,   371.499E-03,   76.8615E-03,   2.90502E-03
C:/temp/dataset/6/19_4.odb,Step-1,Increment      1: Step Time =    1.000,"PART-1-1",            31,          -15.,          -7.5,            0.,NA,NA,"",   317.588E-03,   299.794E-03,   104.813E-03,   3.85473E-03
C:/temp/dataset/6/19_4.odb,Step-1,Increment      1: Step Time =    1.000,"PART-1-1",            32,          -15.,          -15.,            0.,NA,NA,"",   186.269E-03,   155.553E-03,   102.466E-03,   3.98299E-03
C:/temp/dataset/6/19_4.odb,Step-1,Increment      1: Step Time =    1.000,"PART-1-1",            33,          -15.,         -22.5,            0.,NA,NA,"",   75.0939E-03,   48.6407E-03,   57.2116E-03,   8.35109E-03
C:/temp/dataset/6/19_4.odb,Step-1,Increment      1: Step Time =    1.000,"PART-1-1",            34,           2.5,           -5.,            0.,NA,NA,"",   319.794E-03,   319.692E-03,   8.07872E-03,   4.52370E-03
C:/temp/dataset/6/19_4.odb,Step-1,Increment      1: Step Time =    1.000,"PART-1-1",            35,            5.,      -7.51250,            0.,NA,NA,"",   254.883E-03,   253.083E-03,   30.2347E-03,   5.05907E-03
C:/temp/dataset/6/19_4.odb,Step-1,Increment      1: Step Time =    1.000,"PART-1-1",            36,            5.,      -12.5375,            0.,NA,NA,"",   170.734E-03,   166.243E-03,   38.8998E-03,   160.010E-06
C:/temp/dataset/6/19_4.odb,Step-1,Increment      1: Step Time =    1.000,"PART-1-1",            37,            5.,      -17.5250,            0.,NA,NA,"",   91.4421E-03,   85.4698E-03,   32.5050E-03,   4.02744E-03
C:/temp/dataset/6/19_4.odb,Step-1,Increment      1: Step Time =    1.000,"PART-1-1",            38,           2.5,          -20.,            0.,NA,NA,"",   32.8790E-03,   32.4286E-03,   5.42361E-03,   3.37981E-03
C:/temp/dataset/6/19_4.odb,Step-1,Increment      1: Step Time =    1.000,"PART-1-1",            39,          -2.5,          -20.,            0.,NA,NA,"",   34.9112E-03,   34.2950E-03,  -6.53038E-03,   4.19017E-03
C:/temp/dataset/6/19_4.odb,Step-1,Increment      1: Step Time =    1.000,"PART-1-1",            40,           -5.,      -17.4875,            0.,NA,NA,"",   107.979E-03,   100.552E-03,  -39.3546E-03,   5.30406E-03
C:/temp/dataset/6/19_4.odb,Step-1,Increment      1: Step Time =    1.000,"PART-1-1",            41,           -5.,      -12.4625,            0.,NA,NA,"",   201.657E-03,   196.744E-03,  -44.2437E-03,   1.58821E-03
C:/temp/dataset/6/19_4.odb,Step-1,Increment      1: Step Time =    1.000,"PART-1-1",            42,           -5.,      -7.47500,            0.,NA,NA,"",   289.093E-03,   287.922E-03,  -25.9966E-03,   7.36477E-03
C:/temp/dataset/6/19_4.odb,Step-1,Increment      1: Step Time =    1.000,"PART-1-1",            43,          -2.5,           -5.,            0.,NA,NA,"",   330.717E-03,   330.618E-03,   8.07953E-03,   2.62355E-03
C:/temp/dataset/6/19_4.odb,Step-1,Increment      1: Step Time =    1.000,"PART-1-1",            44,          12.5,          -30.,            0.,NA,NA,"",            0.,   3.00032E-39,  -7.86375E-39,   3.59457E-03
C:/temp/dataset/6/19_4.odb,Step-1,Increment      1: Step Time =    1.000,"PART-1-1",            45,           10.,          -30.,            0.,NA,NA,"",            0.,  -629.226E-42,  -3.32389E-39,   2.07957E-03
C:/temp/dataset/6/19_4.odb,Step-1,Increment      1: Step Time =    1.000,"PART-1-1",            46,           7.5,          -30.,            0.,NA,NA,"",            0.,   454.011E-42,  -701.627E-42,   985.330E-06
C:/temp/dataset/6/19_4.odb,Step-1,Increment      1: Step Time =    1.000,"PART-1-1",            47,            5.,          -30.,            0.,NA,NA,"",            0.,   1.87071E-39,  -253.718E-42,   1.84241E-03
C:/temp/dataset/6/19_4.odb,Step-1,Increment      1: Step Time =    1.000,"PART-1-1",            48,           2.5,          -30.,            0.,NA,NA,"",            0.,   2.79864E-39,  -584.776E-42,   2.73056E-03
C:/temp/dataset/6/19_4.odb,Step-1,Increment      1: Step Time =    1.000,"PART-1-1",            49,            0.,          -30.,            0.,NA,NA,"",            0.,   2.74536E-39,   1.31916E-39,   3.07675E-03
C:/temp/dataset/6/19_4.odb,Step-1,Increment      1: Step Time =    1.000,"PART-1-1",            50,          -2.5,          -30.,            0.,NA,NA,"",            0.,   2.91178E-39,  -2.58943E-39,   2.75184E-03
C:/temp/dataset/6/19_4.odb,Step-1,Increment      1: Step Time =    1.000,"PART-1-1",            51,           -5.,          -30.,            0.,NA,NA,"",            0.,   1.80148E-39,  -1.87752E-39,   1.78459E-03
C:/temp/dataset/6/19_4.odb,Step-1,Increment      1: Step Time =    1.000,"PART-1-1",            52,          -7.5,          -30.,            0.,NA,NA,"",            0.,   262.504E-42,   397.454E-42,   802.292E-06
C:/temp/dataset/6/19_4.odb,Step-1,Increment      1: Step Time =    1.000,"PART-1-1",            53,          -10.,          -30.,            0.,NA,NA,"",            0.,   1.32441E-39,   4.14595E-39,   2.24212E-03
C:/temp/dataset/6/19_4.odb,Step-1,Increment      1: Step Time =    1.000,"PART-1-1",            54,         -12.5,          -30.,            0.,NA,NA,"",            0.,   1.52010E-39,   8.03980E-39,   4.15938E-03
C:/temp/dataset/6/19_4.odb,Step-1,Increment      1: Step Time =    1.000,"PART-1-1",            55,           15.,      -23.4375,            0.,NA,NA,"",   56.2277E-03,   35.4157E-03,  -43.6724E-03,   7.15295E-03
C:/temp/dataset/6/19_4.odb,Step-1,Increment      1: Step Time =    1.000,"PART-1-1",            56,           15.,       -25.625,            0.,NA,NA,"",   37.3926E-03,   22.5897E-03,  -29.7978E-03,   6.91562E-03
C:/temp/dataset/6/19_4.odb,Step-1,Increment      1: Step Time =    1.000,"PART-1-1",            57,           15.,      -27.8125,            0.,NA,NA,"",   20.5355E-03,   12.5610E-03,  -16.2458E-03,   7.74840E-03
C:/temp/dataset/6/19_4.odb,Step-1,Increment      1: Step Time =    1.000,"PART-1-1",            58,           15.,      -14.6875,            0.,NA,NA,"",   165.024E-03,   136.114E-03,  -93.3054E-03,   3.92653E-03
C:/temp/dataset/6/19_4.odb,Step-1,Increment      1: Step Time =    1.000,"PART-1-1",            59,           15.,       -16.875,            0.,NA,NA,"",   133.166E-03,   103.516E-03,  -83.7724E-03,   5.47816E-03
C:/temp/dataset/6/19_4.odb,Step-1,Increment      1: Step Time =    1.000,"PART-1-1",            60,           15.,      -19.0625,            0.,NA,NA,"",   103.935E-03,   75.3276E-03,  -71.6114E-03,   6.60738E-03
C:/temp/dataset/6/19_4.odb,Step-1,Increment      1: Step Time =    1.000,"PART-1-1",            61,           15.,       -5.9375,            0.,NA,NA,"",   292.076E-03,   274.905E-03,  -98.6686E-03,   2.28370E-03
C:/temp/dataset/6/19_4.odb,Step-1,Increment      1: Step Time =    1.000,"PART-1-1",            62,           15.,        -8.125,            0.,NA,NA,"",   263.327E-03,   242.782E-03,  -101.970E-03,   1.16441E-03
C:/temp/dataset/6/19_4.odb,Step-1,Increment      1: Step Time =    1.000,"PART-1-1",            63,           15.,      -10.3125,            0.,NA,NA,"",   231.561E-03,   207.655E-03,  -102.468E-03,   445.328E-06
C:/temp/dataset/6/19_4.odb,Step-1,Increment      1: Step Time =    1.000,"PART-1-1",            64,           15.,        2.8125,            0.,NA,NA,"",   374.316E-03,   364.632E-03,  -84.5916E-03,   278.203E-06
C:/temp/dataset/6/19_4.odb,Step-1,Increment      1: Step Time =    1.000,"PART-1-1",            65,           15.,      625.E-03,            0.,NA,NA,"",   356.375E-03,   345.880E-03,  -85.8472E-03,   1.18600E-03
C:/temp/dataset/6/19_4.odb,Step-1,Increment      1: Step Time =    1.000,"PART-1-1",            66,           15.,       -1.5625,            0.,NA,NA,"",   337.851E-03,   325.894E-03,  -89.0872E-03,   2.14146E-03
C:/temp/dataset/6/19_4.odb,Step-1,Increment      1: Step Time =    1.000,"PART-1-1",            67,          12.5,            5.,            0.,NA,NA,"",   388.833E-03,   383.902E-03,  -61.7255E-03,   358.547E-06
C:/temp/dataset/6/19_4.odb,Step-1,Increment      1: Step Time =    1.000,"PART-1-1",            68,           7.5,            5.,            0.,NA,NA,"",   377.936E-03,   377.538E-03,  -17.3580E-03,   2.46843E-03
C:/temp/dataset/6/19_4.odb,Step-1,Increment      1: Step Time =    1.000,"PART-1-1",            69,           2.5,            5.,            0.,NA,NA,"",   367.006E-03,   366.909E-03,   8.41763E-03,   1.48050E-03
C:/temp/dataset/6/19_4.odb,Step-1,Increment      1: Step Time =    1.000,"PART-1-1",            70,          -2.5,            5.,            0.,NA,NA,"",   368.540E-03,   368.099E-03,   18.0364E-03,   2.27032E-03
C:/temp/dataset/6/19_4.odb,Step-1,Increment      1: Step Time =    1.000,"PART-1-1",            71,           -5.,       9.16667,            0.,NA,NA,"",   404.331E-03,   403.556E-03,   25.0242E-03,   259.806E-06
C:/temp/dataset/6/19_4.odb,Step-1,Increment      1: Step Time =    1.000,"PART-1-1",            72,           -5.,       7.08333,            0.,NA,NA,"",   392.530E-03,   391.776E-03,   24.3249E-03,   938.523E-06
C:/temp/dataset/6/19_4.odb,Step-1,Increment      1: Step Time =    1.000,"PART-1-1",            73,           -5.,       15.4167,            0.,NA,NA,"",   436.731E-03,   435.991E-03,   25.4273E-03,   11.0683E-06
C:/temp/dataset/6/19_4.odb,Step-1,Increment      1: Step Time =    1.000,"PART-1-1",            74,           -5.,       13.3333,            0.,NA,NA,"",   426.018E-03,   425.260E-03,   25.4122E-03,   40.3451E-06
C:/temp/dataset/6/19_4.odb,Step-1,Increment      1: Step Time =    1.000,"PART-1-1",            75,           -5.,       21.6667,            0.,NA,NA,"",   468.909E-03,   468.223E-03,   25.3518E-03,   847.470E-09
C:/temp/dataset/6/19_4.odb,Step-1,Increment      1: Step Time =    1.000,"PART-1-1",            76,           -5.,       19.5833,            0.,NA,NA,"",   458.176E-03,   457.472E-03,   25.3811E-03,   773.840E-09
C:/temp/dataset/6/19_4.odb,Step-1,Increment      1: Step Time =    1.000,"PART-1-1",            77,           -5.,       27.9167,            0.,NA,NA,"",   501.124E-03,   500.486E-03,   25.2666E-03,   42.3513E-09
C:/temp/dataset/6/19_4.odb,Step-1,Increment      1: Step Time =    1.000,"PART-1-1",            78,           -5.,       25.8333,            0.,NA,NA,"",   490.384E-03,   489.731E-03,   25.2945E-03,   190.695E-09
C:/temp/dataset/6/19_4.odb,Step-1,Increment      1: Step Time =    1.000,"PART-1-1",            79,          -7.5,           30.,            0.,NA,NA,"",   512.695E-03,   511.274E-03,   38.1445E-03,   48.9105E-09
C:/temp/dataset/6/19_4.odb,Step-1,Increment      1: Step Time =    1.000,"PART-1-1",            80,         -12.5,           30.,            0.,NA,NA,"",   515.326E-03,   511.341E-03,   63.9561E-03,   47.3298E-09
C:/temp/dataset/6/19_4.odb,Step-1,Increment      1: Step Time =    1.000,"PART-1-1",            81,          -15.,           25.,            0.,NA,NA,"",   491.619E-03,   485.563E-03,   76.9291E-03,   296.163E-09
C:/temp/dataset/6/19_4.odb,Step-1,Increment      1: Step Time =    1.000,"PART-1-1",            82,          -15.,          27.5,            0.,NA,NA,"",   504.365E-03,   498.469E-03,   76.8955E-03,   58.2429E-09
C:/temp/dataset/6/19_4.odb,Step-1,Increment      1: Step Time =    1.000,"PART-1-1",            83,          -15.,          17.5,            0.,NA,NA,"",   453.423E-03,   446.831E-03,   77.0322E-03,   1.21326E-06
C:/temp/dataset/6/19_4.odb,Step-1,Increment      1: Step Time =    1.000,"PART-1-1",            84,          -15.,           20.,            0.,NA,NA,"",   466.151E-03,   459.747E-03,   76.9986E-03,   934.447E-09
C:/temp/dataset/6/19_4.odb,Step-1,Increment      1: Step Time =    1.000,"PART-1-1",            85,          -15.,           10.,            0.,NA,NA,"",   415.295E-03,   408.124E-03,   76.8435E-03,   142.366E-06
C:/temp/dataset/6/19_4.odb,Step-1,Increment      1: Step Time =    1.000,"PART-1-1",            86,          -15.,          12.5,            0.,NA,NA,"",   427.959E-03,   420.972E-03,   77.0189E-03,   51.8734E-06
C:/temp/dataset/6/19_4.odb,Step-1,Increment      1: Step Time =    1.000,"PART-1-1",            87,          -15.,           2.5,            0.,NA,NA,"",   382.530E-03,   374.959E-03,   75.7302E-03,   685.203E-06
C:/temp/dataset/6/19_4.odb,Step-1,Increment      1: Step Time =    1.000,"PART-1-1",            88,          -15.,            5.,            0.,NA,NA,"",   391.670E-03,   384.261E-03,   75.8206E-03,   209.619E-06
C:/temp/dataset/6/19_4.odb,Step-1,Increment      1: Step Time =    1.000,"PART-1-1",            89,          -15.,           -5.,            0.,NA,NA,"",   353.371E-03,   340.582E-03,   94.2047E-03,   5.79712E-03
C:/temp/dataset/6/19_4.odb,Step-1,Increment      1: Step Time =    1.000,"PART-1-1",            90,          -15.,          -2.5,            0.,NA,NA,"",   373.573E-03,   363.849E-03,   84.6826E-03,   5.47262E-03
C:/temp/dataset/6/19_4.odb,Step-1,Increment      1: Step Time =    1.000,"PART-1-1",            91,          -15.,         -12.5,            0.,NA,NA,"",   229.618E-03,   202.513E-03,   108.226E-03,   1.53772E-03
C:/temp/dataset/6/19_4.odb,Step-1,Increment      1: Step Time =    1.000,"PART-1-1",            92,          -15.,          -10.,            0.,NA,NA,"",   272.721E-03,   250.230E-03,   108.452E-03,   1.02578E-03
C:/temp/dataset/6/19_4.odb,Step-1,Increment      1: Step Time =    1.000,"PART-1-1",            93,          -15.,          -20.,            0.,NA,NA,"",   107.170E-03,   76.1504E-03,   75.4090E-03,   7.77214E-03
C:/temp/dataset/6/19_4.odb,Step-1,Increment      1: Step Time =    1.000,"PART-1-1",            94,          -15.,         -17.5,            0.,NA,NA,"",   144.739E-03,   112.380E-03,   91.2143E-03,   6.25522E-03
C:/temp/dataset/6/19_4.odb,Step-1,Increment      1: Step Time =    1.000,"PART-1-1",            95,          -15.,         -27.5,            0.,NA,NA,"",   25.6651E-03,   15.2882E-03,   20.6148E-03,   8.69578E-03
C:/temp/dataset/6/19_4.odb,Step-1,Increment      1: Step Time =    1.000,"PART-1-1",            96,          -15.,          -25.,            0.,NA,NA,"",   48.4430E-03,   29.1301E-03,   38.7062E-03,   8.10932E-03
C:/temp/dataset/6/19_4.odb,Step-1,Increment      1: Step Time =    1.000,"PART-1-1",            97,       13.0047,      -3.80353,            0.,NA,NA,"",   312.066E-03,   303.941E-03,  -70.7469E-03,   1.19249E-03
C:/temp/dataset/6/19_4.odb,Step-1,Increment      1: Step Time =    1.000,"PART-1-1",            98,       6.97971,      -7.55833,            0.,NA,NA,"",   253.106E-03,   253.106E-03,   473.065E-06,   4.95863E-03
C:/temp/dataset/6/19_4.odb,Step-1,Increment      1: Step Time =    1.000,"PART-1-1",            99,       6.96639,      -10.0829,            0.,NA,NA,"",   209.130E-03,   209.057E-03,   5.51611E-03,   2.92364E-03
C:/temp/dataset/6/19_4.odb,Step-1,Increment      1: Step Time =    1.000,"PART-1-1",           100,       12.9900,      -12.5465,            0.,NA,NA,"",   182.751E-03,   169.076E-03,  -69.3632E-03,   2.92275E-03
C:/temp/dataset/6/19_4.odb,Step-1,Increment      1: Step Time =    1.000,"PART-1-1",           101,       6.90028,      -17.1420,            0.,NA,NA,"",   90.4062E-03,   90.0194E-03,   8.35439E-03,   3.81789E-03
C:/temp/dataset/6/19_4.odb,Step-1,Increment      1: Step Time =    1.000,"PART-1-1",           102,       7.03871,      -19.0570,            0.,NA,NA,"",   61.3183E-03,   61.1364E-03,   4.71965E-03,   3.86613E-03
C:/temp/dataset/6/19_4.odb,Step-1,Increment      1: Step Time =    1.000,"PART-1-1",           103,       5.31709,      -21.2647,            0.,NA,NA,"",   38.4083E-03,   36.5106E-03,   11.9237E-03,   4.42729E-03
C:/temp/dataset/6/19_4.odb,Step-1,Increment      1: Step Time =    1.000,"PART-1-1",           104,      -4.83361,      -22.6144,            0.,NA,NA,"",   34.2420E-03,   32.4277E-03,  -10.9982E-03,   4.66647E-03
C:/temp/dataset/6/19_4.odb,Step-1,Increment      1: Step Time =    1.000,"PART-1-1",           105,      -7.46484,      -17.6587,            0.,NA,NA,"",   96.8889E-03,   96.8511E-03,  -2.70663E-03,   5.73886E-03
C:/temp/dataset/6/19_4.odb,Step-1,Increment      1: Step Time =    1.000,"PART-1-1",           106,      -12.5283,      -27.3245,            0.,NA,NA,"",   15.3123E-03,   9.37240E-03,   12.1089E-03,   5.82956E-03
C:/temp/dataset/6/19_4.odb,Step-1,Increment      1: Step Time =    1.000,"PART-1-1",           107,      -12.4870,      -17.6221,            0.,NA,NA,"",   118.118E-03,   104.351E-03,   55.3421E-03,   4.72611E-03
C:/temp/dataset/6/19_4.odb,Step-1,Increment      1: Step Time =    1.000,"PART-1-1",           108,      -7.32043,      -12.6401,            0.,NA,NA,"",   195.061E-03,   194.987E-03,  -5.38085E-03,   3.66046E-03
C:/temp/dataset/6/19_4.odb,Step-1,Increment      1: Step Time =    1.000,"PART-1-1",           109,      -7.14644,      -8.03697,            0.,NA,NA,"",   282.950E-03,   282.947E-03,   1.29126E-03,   5.55323E-03
C:/temp/dataset/6/19_4.odb,Step-1,Increment      1: Step Time =    1.000,"PART-1-1",           110,      -12.6601,       4.88622,            0.,NA,NA,"",   389.167E-03,   383.658E-03,   65.2472E-03,   520.468E-06
C:/temp/dataset/6/19_4.odb,Step-1,Increment      1: Step Time =    1.000,"PART-1-1",           111,      -13.0978,       12.5399,            0.,NA,NA,"",   426.468E-03,   421.130E-03,   67.2637E-03,   51.9364E-06
C:/temp/dataset/6/19_4.odb,Step-1,Increment      1: Step Time =    1.000,"PART-1-1",           112,      -6.45576,       21.8628,            0.,NA,NA,"",   470.404E-03,   469.255E-03,   32.8628E-03,   213.811E-09
C:/temp/dataset/6/19_4.odb,Step-1,Increment      1: Step Time =    1.000,"PART-1-1",           113,      -7.28884,       25.7044,            0.,NA,NA,"",   490.502E-03,   489.096E-03,   37.1116E-03,   215.705E-09
C:/temp/dataset/6/19_4.odb,Step-1,Increment      1: Step Time =    1.000,"PART-1-1",           114,      -9.90518,       27.6474,            0.,NA,NA,"",   501.719E-03,   499.162E-03,   50.5919E-03,   108.289E-09
C:/temp/dataset/6/19_4.odb,Step-1,Increment      1: Step Time =    1.000,"PART-1-1",           115,      -3.01211,      -3.13168,            0.,NA,NA,"",   333.348E-03,   333.203E-03,   9.81796E-03,   3.98702E-03
C:/temp/dataset/6/19_4.odb,Step-1,Increment      1: Step Time =    1.000,"PART-1-1",           116,      -2.19169,       3.00836,            0.,NA,NA,"",   361.506E-03,   361.148E-03,   16.0757E-03,   2.62711E-03
C:/temp/dataset/6/19_4.odb,Step-1,Increment      1: Step Time =    1.000,"PART-1-1",           117,       1.85193,      -2.77696,            0.,NA,NA,"",   327.837E-03,   327.671E-03,   10.4313E-03,   4.42492E-03
C:/temp/dataset/6/19_4.odb,Step-1,Increment      1: Step Time =    1.000,"PART-1-1",           118,       2.83229,       2.22691,            0.,NA,NA,"",   355.061E-03,   354.952E-03,   8.80172E-03,   2.07770E-03
C:/temp/dataset/6/19_4.odb,Step-1,Increment      1: Step Time =    1.000,"PART-1-1",           119,       7.74921,       3.07964,            0.,NA,NA,"",   364.541E-03,   364.114E-03,  -17.6286E-03,   1.33039E-03
C:/temp/dataset/6/19_4.odb,Step-1,Increment      1: Step Time =    1.000,"PART-1-1",           120,      -2.47342,      -22.6017,            0.,NA,NA,"",   32.2888E-03,   31.5678E-03,  -6.78528E-03,   5.40430E-03
C:/temp/dataset/6/19_4.odb,Step-1,Increment      1: Step Time =    1.000,"PART-1-1",           121,      -7.48266,       20.3798,            0.,NA,NA,"",   463.191E-03,   461.614E-03,   38.1828E-03,   796.341E-09
C:/temp/dataset/6/19_4.odb,Step-1,Increment      1: Step Time =    1.000,"PART-1-1",           122,      -7.10993,       13.1351,            0.,NA,NA,"",   425.838E-03,   424.283E-03,   36.3588E-03,   46.9497E-06
C:/temp/dataset/6/19_4.odb,Step-1,Increment      1: Step Time =    1.000,"PART-1-1",           123,      -6.64156,       6.82435,            0.,NA,NA,"",   392.259E-03,   390.794E-03,   33.8719E-03,   550.743E-06
C:/temp/dataset/6/19_4.odb,Step-1,Increment      1: Step Time =    1.000,"PART-1-1",           124,      -12.9641,      -2.37512,            0.,NA,NA,"",   367.865E-03,   361.297E-03,   69.2053E-03,   3.63881E-03
C:/temp/dataset/6/19_4.odb,Step-1,Increment      1: Step Time =    1.000,"PART-1-1",           125,      -12.1317,      -9.84573,            0.,NA,NA,"",   260.612E-03,   253.241E-03,   61.5427E-03,   3.90426E-03
C:/temp/dataset/6/19_4.odb,Step-1,Increment      1: Step Time =    1.000,"PART-1-1",           126,       4.04132,      -2.67712,            0.,NA,NA,"",   323.940E-03,   323.815E-03,   8.97517E-03,   4.00606E-03
C:/temp/dataset/6/19_4.odb,Step-1,Increment      1: Step Time =    1.000,"PART-1-1",           127,       6.95362,      -12.5367,            0.,NA,NA,"",   166.545E-03,   166.314E-03,   8.77421E-03,   2.14187E-03
C:/temp/dataset/6/19_4.odb,Step-1,Increment      1: Step Time =    1.000,"PART-1-1",           128,       6.92458,      -14.9216,            0.,NA,NA,"",   126.159E-03,   125.808E-03,   9.41233E-03,   2.27298E-03
C:/temp/dataset/6/19_4.odb,Step-1,Increment      1: Step Time =    1.000,"PART-1-1",           129,       12.9089,      -21.3671,            0.,NA,NA,"",   60.1324E-03,   45.9352E-03,  -38.8055E-03,   4.88428E-03
C:/temp/dataset/6/19_4.odb,Step-1,Increment      1: Step Time =    1.000,"PART-1-1",           130,   283.131E-03,      -22.8786,            0.,NA,NA,"",   30.2561E-03,   30.2556E-03,  -168.504E-06,   3.50256E-03
C:/temp/dataset/6/19_4.odb,Step-1,Increment      1: Step Time =    1.000,"PART-1-1",           131,      -12.9776,      -22.4214,            0.,NA,NA,"",   58.3166E-03,   42.8748E-03,   39.5295E-03,   5.77069E-03
C:/temp/dataset/6/19_4.odb,Step-1,Increment      1: Step Time =    1.000,"PART-1-1",           132,      -7.42030,      -15.1083,            0.,NA,NA,"",   145.680E-03,   145.618E-03,  -4.25410E-03,   3.85183E-03
C:/temp/dataset/6/19_4.odb,Step-1,Increment      1: Step Time =    1.000,"PART-1-1",           133,      -7.18486,      -10.2642,            0.,NA,NA,"",   241.952E-03,   241.924E-03,  -3.66546E-03,   4.29498E-03
C:/temp/dataset/6/19_4.odb,Step-1,Increment      1: Step Time =    1.000,"PART-1-1",           134,      -7.33974,      -5.93881,            0.,NA,NA,"",   316.368E-03,   316.196E-03,   10.4359E-03,   3.46693E-03
C:/temp/dataset/6/19_4.odb,Step-1,Increment      1: Step Time =    1.000,"PART-1-1",           135,  -533.729E-03,      -2.94296,            0.,NA,NA,"",   331.091E-03,   330.916E-03,   10.7565E-03,   2.80113E-03
C:/temp/dataset/6/19_4.odb,Step-1,Increment      1: Step Time =    1.000,"PART-1-1",           136,       10.2172,      -28.0250,            0.,NA,NA,"",   5.08117E-03,   3.66734E-03,  -3.51695E-03,   2.48922E-03
C:/temp/dataset/6/19_4.odb,Step-1,Increment      1: Step Time =    1.000,"PART-1-1",           137,       7.82196,      -28.0777,            0.,NA,NA,"",   4.04496E-03,   3.98939E-03,  -668.207E-06,   1.53612E-03
C:/temp/dataset/6/19_4.odb,Step-1,Increment      1: Step Time =    1.000,"PART-1-1",           138,       5.43540,      -28.0544,            0.,NA,NA,"",   5.87625E-03,   5.81451E-03,   849.574E-06,   2.31729E-03
C:/temp/dataset/6/19_4.odb,Step-1,Increment      1: Step Time =    1.000,"PART-1-1",           139,       2.98405,      -27.8165,            0.,NA,NA,"",   8.87306E-03,   8.80849E-03,   1.06852E-03,   3.03549E-03
C:/temp/dataset/6/19_4.odb,Step-1,Increment      1: Step Time =    1.000,"PART-1-1",           140,   324.250E-03,      -27.0908,            0.,NA,NA,"",   13.1542E-03,   13.1519E-03,  -244.577E-06,   3.44979E-03
C:/temp/dataset/6/19_4.odb,Step-1,Increment      1: Step Time =    1.000,"PART-1-1",           141,      -2.46293,      -27.5198,            0.,NA,NA,"",   10.5940E-03,   10.4065E-03,  -1.98457E-03,   3.34433E-03
C:/temp/dataset/6/19_4.odb,Step-1,Increment      1: Step Time =    1.000,"PART-1-1",           142,      -4.88996,      -27.5861,            0.,NA,NA,"",   8.23002E-03,   7.94276E-03,  -2.15542E-03,   2.83768E-03
C:/temp/dataset/6/19_4.odb,Step-1,Increment      1: Step Time =    1.000,"PART-1-1",           143,      -7.26500,      -27.4866,            0.,NA,NA,"",   6.04338E-03,   6.03713E-03,  -274.811E-06,   1.76330E-03
C:/temp/dataset/6/19_4.odb,Step-1,Increment      1: Step Time =    1.000,"PART-1-1",           144,      -9.86695,      -26.8928,            0.,NA,NA,"",   9.35161E-03,   7.69489E-03,   5.31424E-03,   2.34398E-03
C:/temp/dataset/6/19_4.odb,Step-1,Increment      1: Step Time =    1.000,"PART-1-1",           145,       12.7710,      -23.5898,            0.,NA,NA,"",   39.7996E-03,   28.3753E-03,  -27.9079E-03,   4.90325E-03
C:/temp/dataset/6/19_4.odb,Step-1,Increment      1: Step Time =    1.000,"PART-1-1",           146,       12.6989,      -25.7990,            0.,NA,NA,"",   23.5346E-03,   15.6390E-03,  -17.5869E-03,   5.09537E-03
C:/temp/dataset/6/19_4.odb,Step-1,Increment      1: Step Time =    1.000,"PART-1-1",           147,       12.6207,      -27.9366,            0.,NA,NA,"",   10.4276E-03,   6.39832E-03,  -8.23384E-03,   5.20129E-03
C:/temp/dataset/6/19_4.odb,Step-1,Increment      1: Step Time =    1.000,"PART-1-1",           148,       12.9983,      -14.8223,            0.,NA,NA,"",   146.032E-03,   131.090E-03,  -64.3497E-03,   3.59067E-03
C:/temp/dataset/6/19_4.odb,Step-1,Increment      1: Step Time =    1.000,"PART-1-1",           149,       13.0558,      -17.0719,            0.,NA,NA,"",   112.790E-03,   96.7568E-03,  -57.9624E-03,   4.24068E-03
C:/temp/dataset/6/19_4.odb,Step-1,Increment      1: Step Time =    1.000,"PART-1-1",           150,       13.1682,      -19.2108,            0.,NA,NA,"",   85.6221E-03,   68.9757E-03,  -50.7295E-03,   4.82545E-03
C:/temp/dataset/6/19_4.odb,Step-1,Increment      1: Step Time =    1.000,"PART-1-1",           151,       13.0670,      -5.94273,            0.,NA,NA,"",   286.030E-03,   276.441E-03,  -73.4421E-03,   1.35870E-03
C:/temp/dataset/6/19_4.odb,Step-1,Increment      1: Step Time =    1.000,"PART-1-1",           152,       13.0350,      -8.09399,            0.,NA,NA,"",   255.032E-03,   244.091E-03,  -73.8993E-03,   1.81064E-03
C:/temp/dataset/6/19_4.odb,Step-1,Increment      1: Step Time =    1.000,"PART-1-1",           153,       12.9982,      -10.2981,            0.,NA,NA,"",   219.868E-03,   207.579E-03,  -72.4757E-03,   2.34455E-03
C:/temp/dataset/6/19_4.odb,Step-1,Increment      1: Step Time =    1.000,"PART-1-1",           154,       12.5107,   556.281E-03,            0.,NA,NA,"",   351.874E-03,   346.367E-03,  -62.0117E-03,   1.44528E-03
C:/temp/dataset/6/19_4.odb,Step-1,Increment      1: Step Time =    1.000,"PART-1-1",           155,       12.7702,      -1.64554,            0.,NA,NA,"",   333.445E-03,   326.829E-03,  -66.0936E-03,   1.29918E-03
C:/temp/dataset/6/19_4.odb,Step-1,Increment      1: Step Time =    1.000,"PART-1-1",           156,       10.0517,       2.85834,            0.,NA,NA,"",   366.295E-03,   364.350E-03,  -37.7041E-03,   1.41294E-03
C:/temp/dataset/6/19_4.odb,Step-1,Increment      1: Step Time =    1.000,"PART-1-1",           157,       5.39286,       2.85476,            0.,NA,NA,"",   360.202E-03,   360.198E-03,  -1.67360E-03,   1.18021E-03
C:/temp/dataset/6/19_4.odb,Step-1,Increment      1: Step Time =    1.000,"PART-1-1",           158,   175.602E-03,       2.90951,            0.,NA,NA,"",   358.806E-03,   358.558E-03,   13.3222E-03,   2.31984E-03
C:/temp/dataset/6/19_4.odb,Step-1,Increment      1: Step Time =    1.000,"PART-1-1",           159,      -4.35394,       2.91920,            0.,NA,NA,"",   364.887E-03,   364.313E-03,   20.4647E-03,   1.92620E-03
C:/temp/dataset/6/19_4.odb,Step-1,Increment      1: Step Time =    1.000,"PART-1-1",           160,      -7.05997,       10.9599,            0.,NA,NA,"",   414.655E-03,   413.078E-03,   36.1354E-03,   89.2067E-06
C:/temp/dataset/6/19_4.odb,Step-1,Increment      1: Step Time =    1.000,"PART-1-1",           161,      -6.93805,       8.84105,            0.,NA,NA,"",   403.545E-03,   401.977E-03,   35.5339E-03,   105.586E-06
C:/temp/dataset/6/19_4.odb,Step-1,Increment      1: Step Time =    1.000,"PART-1-1",           162,      -7.28921,       17.6445,            0.,NA,NA,"",   449.047E-03,   447.502E-03,   37.2213E-03,   5.84071E-06
C:/temp/dataset/6/19_4.odb,Step-1,Increment      1: Step Time =    1.000,"PART-1-1",           163,      -7.17735,       15.3234,            0.,NA,NA,"",   437.084E-03,   435.543E-03,   36.6760E-03,   19.7985E-06
C:/temp/dataset/6/19_4.odb,Step-1,Increment      1: Step Time =    1.000,"PART-1-1",           164,      -6.93557,       23.5874,            0.,NA,NA,"",   479.465E-03,   478.163E-03,   35.3162E-03,   251.958E-09
C:/temp/dataset/6/19_4.odb,Step-1,Increment      1: Step Time =    1.000,"PART-1-1",           165,      -13.1925,       19.7530,            0.,NA,NA,"",   463.415E-03,   458.448E-03,   67.6681E-03,   990.762E-09
C:/temp/dataset/6/19_4.odb,Step-1,Increment      1: Step Time =    1.000,"PART-1-1",           166,      -7.44963,       27.8335,            0.,NA,NA,"",   501.525E-03,   500.089E-03,   37.9133E-03,   122.849E-09
C:/temp/dataset/6/19_4.odb,Step-1,Increment      1: Step Time =    1.000,"PART-1-1",           167,      -13.0424,       22.0734,            0.,NA,NA,"",   475.156E-03,   470.428E-03,   66.8622E-03,   208.132E-09
C:/temp/dataset/6/19_4.odb,Step-1,Increment      1: Step Time =    1.000,"PART-1-1",           168,      -13.1316,       14.9813,            0.,NA,NA,"",   438.982E-03,   433.775E-03,   67.4138E-03,   20.7353E-06
C:/temp/dataset/6/19_4.odb,Step-1,Increment      1: Step Time =    1.000,"PART-1-1",           169,      -13.1727,       17.3972,            0.,NA,NA,"",   451.365E-03,   446.274E-03,   67.5967E-03,   5.83903E-06
C:/temp/dataset/6/19_4.odb,Step-1,Increment      1: Step Time =    1.000,"PART-1-1",           170,      -12.8574,       7.53984,            0.,NA,NA,"",   401.188E-03,   395.707E-03,   66.0904E-03,   51.4089E-06
C:/temp/dataset/6/19_4.odb,Step-1,Increment      1: Step Time =    1.000,"PART-1-1",           171,      -13.0166,       10.0884,            0.,NA,NA,"",   413.923E-03,   408.487E-03,   66.8633E-03,   88.9706E-06
C:/temp/dataset/6/19_4.odb,Step-1,Increment      1: Step Time =    1.000,"PART-1-1",           172,      -12.8045,  -118.323E-03,            0.,NA,NA,"",   375.541E-03,   369.365E-03,   67.8283E-03,   3.99598E-03
C:/temp/dataset/6/19_4.odb,Step-1,Increment      1: Step Time =    1.000,"PART-1-1",           173,      -12.7039,       2.28772,            0.,NA,NA,"",   380.237E-03,   374.423E-03,   66.2391E-03,   1.92028E-03
C:/temp/dataset/6/19_4.odb,Step-1,Increment      1: Step Time =    1.000,"PART-1-1",           174,      -12.8488,      -7.31355,            0.,NA,NA,"",   309.905E-03,   301.906E-03,   69.9561E-03,   3.96451E-03
C:/temp/dataset/6/19_4.odb,Step-1,Increment      1: Step Time =    1.000,"PART-1-1",           175,      -12.6051,      -4.81291,            0.,NA,NA,"",   345.428E-03,   339.046E-03,   66.0949E-03,   3.00566E-03
C:/temp/dataset/6/19_4.odb,Step-1,Increment      1: Step Time =    1.000,"PART-1-1",           176,      -12.4260,      -15.0682,            0.,NA,NA,"",   162.332E-03,   150.234E-03,   61.4923E-03,   4.24885E-03
C:/temp/dataset/6/19_4.odb,Step-1,Increment      1: Step Time =    1.000,"PART-1-1",           177,      -12.3344,      -12.5112,            0.,NA,NA,"",   210.309E-03,   200.370E-03,   63.8881E-03,   3.78744E-03
C:/temp/dataset/6/19_4.odb,Step-1,Increment      1: Step Time =    1.000,"PART-1-1",           178,      -12.6598,      -20.1148,            0.,NA,NA,"",   82.6812E-03,   67.6815E-03,   47.4910E-03,   5.22025E-03
C:/temp/dataset/6/19_4.odb,Step-1,Increment      1: Step Time =    1.000,"PART-1-1",           179,      -8.70618,       22.9331,            0.,NA,NA,"",   476.887E-03,   474.809E-03,   44.4646E-03,   254.852E-09
C:/temp/dataset/6/19_4.odb,Step-1,Increment      1: Step Time =    1.000,"PART-1-1",           180,      -9.21222,       15.1634,            0.,NA,NA,"",   437.276E-03,   434.720E-03,   47.2103E-03,   24.4729E-06
C:/temp/dataset/6/19_4.odb,Step-1,Increment      1: Step Time =    1.000,"PART-1-1",           181,      -9.55138,       19.8926,            0.,NA,NA,"",   461.719E-03,   459.125E-03,   48.8688E-03,   1.71409E-06
C:/temp/dataset/6/19_4.odb,Step-1,Increment      1: Step Time =    1.000,"PART-1-1",           182,      -8.92203,       8.32966,            0.,NA,NA,"",   401.979E-03,   399.326E-03,   46.1082E-03,   115.748E-06
C:/temp/dataset/6/19_4.odb,Step-1,Increment      1: Step Time =    1.000,"PART-1-1",           183,      -9.17670,       12.8809,            0.,NA,NA,"",   425.565E-03,   422.948E-03,   47.1194E-03,   56.8813E-06
C:/temp/dataset/6/19_4.odb,Step-1,Increment      1: Step Time =    1.000,"PART-1-1",           184,      -9.09923,       10.6117,            0.,NA,NA,"",   413.893E-03,   411.231E-03,   46.8689E-03,   101.307E-06
C:/temp/dataset/6/19_4.odb,Step-1,Increment      1: Step Time =    1.000,"PART-1-1",           185,      -9.30530,       17.5014,            0.,NA,NA,"",   449.314E-03,   446.781E-03,   47.6367E-03,   7.81711E-06
C:/temp/dataset/6/19_4.odb,Step-1,Increment      1: Step Time =    1.000,"PART-1-1",           186,      -8.37864,       6.17865,            0.,NA,NA,"",   390.155E-03,   387.774E-03,   43.0432E-03,   742.555E-06
C:/temp/dataset/6/19_4.odb,Step-1,Increment      1: Step Time =    1.000,"PART-1-1",           187,       10.9988,      -10.2527,            0.,NA,NA,"",   212.906E-03,   207.797E-03,  -46.3611E-03,   3.39824E-03
C:/temp/dataset/6/19_4.odb,Step-1,Increment      1: Step Time =    1.000,"PART-1-1",           188,       10.8643,      -17.5211,            0.,NA,NA,"",   92.8387E-03,   86.8816E-03,  -32.7201E-03,   3.74081E-03
C:/temp/dataset/6/19_4.odb,Step-1,Increment      1: Step Time =    1.000,"PART-1-1",           189,       11.0508,      -8.01555,            0.,NA,NA,"",   250.591E-03,   245.791E-03,  -48.8081E-03,   2.84936E-03
C:/temp/dataset/6/19_4.odb,Step-1,Increment      1: Step Time =    1.000,"PART-1-1",           190,       10.6332,      -2.00908,            0.,NA,NA,"",   327.612E-03,   324.752E-03,  -43.1949E-03,   1.15236E-03
C:/temp/dataset/6/19_4.odb,Step-1,Increment      1: Step Time =    1.000,"PART-1-1",           191,       11.1668,      -5.92645,            0.,NA,NA,"",   282.533E-03,   277.981E-03,  -50.5143E-03,   1.88017E-03
C:/temp/dataset/6/19_4.odb,Step-1,Increment      1: Step Time =    1.000,"PART-1-1",           192,       10.9732,      -14.9280,            0.,NA,NA,"",   133.130E-03,   127.204E-03,  -39.2788E-03,   3.70861E-03
C:/temp/dataset/6/19_4.odb,Step-1,Increment      1: Step Time =    1.000,"PART-1-1",           193,       10.5476,      -23.6927,            0.,NA,NA,"",   27.7536E-03,   23.9113E-03,  -14.0895E-03,   2.72857E-03
C:/temp/dataset/6/19_4.odb,Step-1,Increment      1: Step Time =    1.000,"PART-1-1",           194,       10.5707,      -21.1850,            0.,NA,NA,"",   47.6654E-03,   42.9675E-03,  -20.6346E-03,   3.18343E-03
C:/temp/dataset/6/19_4.odb,Step-1,Increment      1: Step Time =    1.000,"PART-1-1",           195,       10.9760,      -12.5622,            0.,NA,NA,"",   172.931E-03,   167.459E-03,  -43.1594E-03,   3.60818E-03
C:/temp/dataset/6/19_4.odb,Step-1,Increment      1: Step Time =    1.000,"PART-1-1",           196,       11.6229,      -19.2502,            0.,NA,NA,"",   74.3900E-03,   65.4313E-03,  -35.3923E-03,   3.92228E-03
C:/temp/dataset/6/19_4.odb,Step-1,Increment      1: Step Time =    1.000,"PART-1-1",           197,       11.1609,      -3.97100,            0.,NA,NA,"",   307.564E-03,   303.510E-03,  -49.7772E-03,   1.02864E-03
C:/temp/dataset/6/19_4.odb,Step-1,Increment      1: Step Time =    1.000,"PART-1-1",           198,      -9.55101,       25.2781,            0.,NA,NA,"",   489.364E-03,   486.926E-03,   48.7949E-03,   224.280E-09
C:/temp/dataset/6/19_4.odb,Step-1,Increment      1: Step Time =    1.000,"PART-1-1",           199,      -6.13353,       2.97524,            0.,NA,NA,"",   369.000E-03,   367.947E-03,   27.8578E-03,   2.49424E-03
C:/temp/dataset/6/19_4.odb,Step-1,Increment      1: Step Time =    1.000,"PART-1-1",           200,       8.52809,      -18.5145,            0.,NA,NA,"",   70.4262E-03,   69.8794E-03,  -8.75898E-03,   3.34106E-03
C:/temp/dataset/6/19_4.odb,Step-1,Increment      1: Step Time =    1.000,"PART-1-1",           201,      -9.31256,      -6.57829,            0.,NA,NA,"",   311.005E-03,   309.617E-03,   29.3466E-03,   3.27129E-03
C:/temp/dataset/6/19_4.odb,Step-1,Increment      1: Step Time =    1.000,"PART-1-1",           202,      -7.82061,      -4.24854,            0.,NA,NA,"",   335.846E-03,   335.297E-03,   19.1931E-03,   2.87164E-03
C:/temp/dataset/6/19_4.odb,Step-1,Increment      1: Step Time =    1.000,"PART-1-1",           203,       7.55002,      -20.4955,            0.,NA,NA,"",   44.6982E-03,   44.6918E-03,   756.903E-06,   2.76581E-03
C:/temp/dataset/6/19_4.odb,Step-1,Increment      1: Step Time =    1.000,"PART-1-1",           204,      -9.18944,      -8.43706,            0.,NA,NA,"",   279.780E-03,   278.635E-03,   25.2876E-03,   4.56359E-03
C:/temp/dataset/6/19_4.odb,Step-1,Increment      1: Step Time =    1.000,"PART-1-1",           205,      -12.3720,       27.4312,            0.,NA,NA,"",   502.089E-03,   498.079E-03,   63.3294E-03,   141.487E-09
C:/temp/dataset/6/19_4.odb,Step-1,Increment      1: Step Time =    1.000,"PART-1-1",           206,      -10.3791,       22.2070,            0.,NA,NA,"",   474.067E-03,   471.083E-03,   53.1102E-03,   312.773E-09
C:/temp/dataset/6/19_4.odb,Step-1,Increment      1: Step Time =    1.000,"PART-1-1",           207,       3.40286,  -884.176E-03,            0.,NA,NA,"",   336.028E-03,   335.905E-03,   9.10165E-03,   3.07032E-03
C:/temp/dataset/6/19_4.odb,Step-1,Increment      1: Step Time =    1.000,"PART-1-1",           208,       7.88020,       1.44192,            0.,NA,NA,"",   353.210E-03,   352.769E-03,  -17.6425E-03,   1.14398E-03
C:/temp/dataset/6/19_4.odb,Step-1,Increment      1: Step Time =    1.000,"PART-1-1",           209,      -1.17287,  -897.893E-03,            0.,NA,NA,"",   340.686E-03,   340.470E-03,   12.1171E-03,   3.46636E-03
C:/temp/dataset/6/19_4.odb,Step-1,Increment      1: Step Time =    1.000,"PART-1-1",           210,       10.4014,      -25.9274,            0.,NA,NA,"",   14.3621E-03,   11.7866E-03,  -8.20640E-03,   2.51990E-03
C:/temp/dataset/6/19_4.odb,Step-1,Increment      1: Step Time =    1.000,"PART-1-1",           211,       2.00108,      -24.8239,            0.,NA,NA,"",   22.5533E-03,   22.3765E-03,   2.81844E-03,   3.96544E-03
C:/temp/dataset/6/19_4.odb,Step-1,Increment      1: Step Time =    1.000,"PART-1-1",           212,      -4.80900,      -25.1606,            0.,NA,NA,"",   19.7507E-03,   18.8099E-03,  -6.02304E-03,   3.51217E-03
C:/temp/dataset/6/19_4.odb,Step-1,Increment      1: Step Time =    1.000,"PART-1-1",           213,      -11.5765,       21.3848,            0.,NA,NA,"",   470.605E-03,   466.853E-03,   59.3028E-03,   442.277E-09
C:/temp/dataset/6/19_4.odb,Step-1,Increment      1: Step Time =    1.000,"PART-1-1",           214,      -11.0630,       10.3038,            0.,NA,NA,"",   413.547E-03,   409.601E-03,   56.9962E-03,   92.3364E-06
C:/temp/dataset/6/19_4.odb,Step-1,Increment      1: Step Time =    1.000,"PART-1-1",           215,      -10.2832,  -591.021E-03,            0.,NA,NA,"",   366.405E-03,   363.197E-03,   48.3783E-03,   3.84938E-03
C:/temp/dataset/6/19_4.odb,Step-1,Increment      1: Step Time =    1.000,"PART-1-1",           216,      -11.1869,      -5.64306,            0.,NA,NA,"",   329.369E-03,   325.503E-03,   50.3172E-03,   2.60748E-03
C:/temp/dataset/6/19_4.odb,Step-1,Increment      1: Step Time =    1.000,"PART-1-1",           217,      -9.48237,      -10.3825,            0.,NA,NA,"",   243.198E-03,   241.729E-03,   26.6931E-03,   4.77544E-03
C:/temp/dataset/6/19_4.odb,Step-1,Increment      1: Step Time =    1.000,"PART-1-1",           218,      -10.0191,      -20.7277,            0.,NA,NA,"",   57.2577E-03,   53.7749E-03,   19.6649E-03,   3.56696E-03
C:/temp/dataset/6/19_4.odb,Step-1,Increment      1: Step Time =    1.000,"PART-1-1",           219,      -12.8377,      -24.8331,            0.,NA,NA,"",   34.9762E-03,   23.4982E-03,   25.9069E-03,   5.91521E-03
C:/temp/dataset/6/19_4.odb,Step-1,Increment      1: Step Time =    1.000,"PART-1-1",           220,  -752.185E-03,      -25.0561,            0.,NA,NA,"",   22.2883E-03,   22.1808E-03,  -2.18632E-03,   3.95679E-03
C:/temp/dataset/6/19_4.odb,Step-1,Increment      1: Step Time =    1.000,"PART-1-1",           221,      -11.3411,      -22.5061,            0.,NA,NA,"",   45.7889E-03,   38.0578E-03,   25.4604E-03,   4.09729E-03
C:/temp/dataset/6/19_4.odb,Step-1,Increment      1: Step Time =    1.000,"PART-1-1",           222,       5.90860,      -26.1342,            0.,NA,NA,"",   12.7661E-03,   12.5489E-03,   2.34482E-03,   2.52975E-03
C:/temp/dataset/6/19_4.odb,Step-1,Increment      1: Step Time =    1.000,"PART-1-1",           223,       3.81352,      -25.8758,            0.,NA,NA,"",   16.5008E-03,   16.1560E-03,   3.35532E-03,   3.46840E-03
C:/temp/dataset/6/19_4.odb,Step-1,Increment      1: Step Time =    1.000,"PART-1-1",           224,      -6.87266,      -25.1947,            0.,NA,NA,"",   16.5180E-03,   16.2953E-03,  -2.70329E-03,   2.05342E-03
C:/temp/dataset/6/19_4.odb,Step-1,Increment      1: Step Time =    1.000,"PART-1-1",           225,       9.77381,   336.875E-03,            0.,NA,NA,"",   346.736E-03,   345.032E-03,  -34.3354E-03,   1.47940E-03
C:/temp/dataset/6/19_4.odb,Step-1,Increment      1: Step Time =    1.000,"PART-1-1",           226,       4.59800,   29.7464E-03,            0.,NA,NA,"",   341.902E-03,   341.871E-03,   4.61088E-03,   2.11491E-03
C:/temp/dataset/6/19_4.odb,Step-1,Increment      1: Step Time =    1.000,"PART-1-1",           227,      -11.1551,       12.6912,            0.,NA,NA,"",   425.801E-03,   421.924E-03,   57.3288E-03,   58.3616E-06
C:/temp/dataset/6/19_4.odb,Step-1,Increment      1: Step Time =    1.000,"PART-1-1",           228,      -11.2689,       17.3859,            0.,NA,NA,"",   449.923E-03,   446.198E-03,   57.7744E-03,   8.11958E-06
C:/temp/dataset/6/19_4.odb,Step-1,Increment      1: Step Time =    1.000,"PART-1-1",           229,      -11.2102,       15.0558,            0.,NA,NA,"",   437.948E-03,   434.154E-03,   57.5229E-03,   24.4485E-06
C:/temp/dataset/6/19_4.odb,Step-1,Increment      1: Step Time =    1.000,"PART-1-1",           230,      -10.8139,       7.79620,            0.,NA,NA,"",   400.750E-03,   396.833E-03,   55.8899E-03,   117.469E-06
C:/temp/dataset/6/19_4.odb,Step-1,Increment      1: Step Time =    1.000,"PART-1-1",           231,      -10.1648,       4.85487,            0.,NA,NA,"",   386.175E-03,   382.639E-03,   52.1443E-03,   1.00289E-03
C:/temp/dataset/6/19_4.odb,Step-1,Increment      1: Step Time =    1.000,"PART-1-1",           232,      -10.4473,       2.01195,            0.,NA,NA,"",   375.811E-03,   372.141E-03,   52.3900E-03,   2.71867E-03
C:/temp/dataset/6/19_4.odb,Step-1,Increment      1: Step Time =    1.000,"PART-1-1",           233,      -10.4810,      -3.59789,            0.,NA,NA,"",   349.149E-03,   346.188E-03,   45.3791E-03,   2.73126E-03
C:/temp/dataset/6/19_4.odb,Step-1,Increment      1: Step Time =    1.000,"PART-1-1",           234,      -9.89141,      -15.1395,            0.,NA,NA,"",   148.807E-03,   146.106E-03,   28.2244E-03,   4.78261E-03
C:/temp/dataset/6/19_4.odb,Step-1,Increment      1: Step Time =    1.000,"PART-1-1",           235,      -9.95744,      -17.7636,            0.,NA,NA,"",   100.424E-03,   97.1079E-03,   25.5923E-03,   4.97083E-03
C:/temp/dataset/6/19_4.odb,Step-1,Increment      1: Step Time =    1.000,"PART-1-1",           236,      -3.63694,      -1.16253,            0.,NA,NA,"",   343.272E-03,   343.052E-03,   12.2899E-03,   4.25845E-03
C:/temp/dataset/6/19_4.odb,Step-1,Increment      1: Step Time =    1.000,"PART-1-1",           237,      -7.00580,      -22.7773,            0.,NA,NA,"",   30.7218E-03,   30.3806E-03,  -4.56541E-03,   1.58756E-03
C:/temp/dataset/6/19_4.odb,Step-1,Increment      1: Step Time =    1.000,"PART-1-1",           238,       7.08723,      -4.67483,            0.,NA,NA,"",   300.623E-03,   300.563E-03,  -6.00153E-03,   3.66657E-03
C:/temp/dataset/6/19_4.odb,Step-1,Increment      1: Step Time =    1.000,"PART-1-1",           239,       8.96532,      -10.1697,            0.,NA,NA,"",   209.743E-03,   208.685E-03,  -21.0357E-03,   3.45442E-03
C:/temp/dataset/6/19_4.odb,Step-1,Increment      1: Step Time =    1.000,"PART-1-1",           240,       8.99874,      -7.82238,            0.,NA,NA,"",   250.829E-03,   249.625E-03,  -24.5478E-03,   3.73854E-03
C:/temp/dataset/6/19_4.odb,Step-1,Increment      1: Step Time =    1.000,"PART-1-1",           241,       8.96760,      -14.8663,            0.,NA,NA,"",   127.843E-03,   126.836E-03,  -16.0113E-03,   3.29419E-03
C:/temp/dataset/6/19_4.odb,Step-1,Increment      1: Step Time =    1.000,"PART-1-1",           242,      -12.0836,       24.5335,            0.,NA,NA,"",   487.063E-03,   483.116E-03,   61.8789E-03,   269.413E-09
C:/temp/dataset/6/19_4.odb,Step-1,Increment      1: Step Time =    1.000,"PART-1-1",           243,       9.21542,      -5.66363,            0.,NA,NA,"",   285.121E-03,   283.707E-03,  -28.3607E-03,   2.67607E-03
C:/temp/dataset/6/19_4.odb,Step-1,Increment      1: Step Time =    1.000,"PART-1-1",           244,       8.72776,      -2.97127,            0.,NA,NA,"",   318.022E-03,   317.179E-03,  -23.1427E-03,   1.49687E-03
C:/temp/dataset/6/19_4.odb,Step-1,Increment      1: Step Time =    1.000,"PART-1-1",           245,       9.39471,      -19.4524,            0.,NA,NA,"",   60.9532E-03,   59.0883E-03,  -14.9624E-03,   3.21422E-03
C:/temp/dataset/6/19_4.odb,Step-1,Increment      1: Step Time =    1.000,"PART-1-1",           246,       8.06548,      -22.0810,            0.,NA,NA,"",   32.2814E-03,   32.2305E-03,  -1.81218E-03,   963.763E-06
C:/temp/dataset/6/19_4.odb,Step-1,Increment      1: Step Time =    1.000,"PART-1-1",           247,      -7.53738,       4.79758,            0.,NA,NA,"",   381.480E-03,   379.612E-03,   37.7104E-03,   1.59600E-03
C:/temp/dataset/6/19_4.odb,Step-1,Increment      1: Step Time =    1.000,"PART-1-1",           248,      -10.8025,      -24.3532,            0.,NA,NA,"",   27.2857E-03,   22.4426E-03,   15.5191E-03,   3.36793E-03
C:/temp/dataset/6/19_4.odb,Step-1,Increment      1: Step Time =    1.000,"PART-1-1",           249,       5.82981,      -2.08643,            0.,NA,NA,"",   327.025E-03,   327.023E-03,   1.10647E-03,   2.71935E-03
C:/temp/dataset/6/19_4.odb,Step-1,Increment      1: Step Time =    1.000,"PART-1-1",           250,      -8.67175,      -2.53401,            0.,NA,NA,"",   350.950E-03,   349.581E-03,   30.9661E-03,   3.84448E-03
C:/temp/dataset/6/19_4.odb,Step-1,Increment      1: Step Time =    1.000,"PART-1-1",           251,       5.78686,      -22.7214,            0.,NA,NA,"",   29.5891E-03,   28.6016E-03,   7.58050E-03,   2.91030E-03
C:/temp/dataset/6/19_4.odb,Step-1,Increment      1: Step Time =    1.000,"PART-1-1",           252,      -8.27594,       1.60152,            0.,NA,NA,"",   368.814E-03,   366.887E-03,   37.6617E-03,   3.13790E-03
C:/temp/dataset/6/19_4.odb,Step-1,Increment      1: Step Time =    1.000,"PART-1-1",           253,       8.25490,      -24.0061,            0.,NA,NA,"",   20.7463E-03,   20.6251E-03,  -2.23916E-03,   745.015E-06
C:/temp/dataset/6/19_4.odb,Step-1,Increment      1: Step Time =    1.000,"PART-1-1",           254,      -9.04303,      -23.2600,            0.,NA,NA,"",   28.7917E-03,   27.9211E-03,   7.02690E-03,   1.67546E-03
C:/temp/dataset/6/19_4.odb,Step-1,Increment      1: Step Time =    1.000,"PART-1-1",           255,       7.61656,      -1.09448,            0.,NA,NA,"",   334.590E-03,   334.320E-03,  -13.4353E-03,   1.41535E-03
C:/temp/dataset/6/19_4.odb,Step-1,Increment      1: Step Time =    1.000,"PART-1-1",           256,      -4.02262,   861.151E-03,            0.,NA,NA,"",   354.411E-03,   354.010E-03,   16.8600E-03,   2.96691E-03
C:/temp/dataset/6/19_4.odb,Step-1,Increment      1: Step Time =    1.000,"PART-1-1",           257,  -104.141E-03,       1.31276,            0.,NA,NA,"",   351.191E-03,   350.947E-03,   13.0940E-03,   3.16408E-03
C:/temp/dataset/6/19_4.odb,Step-1,Increment      1: Step Time =    1.000,"PART-1-1",           258,       3.72123,      -23.4419,            0.,NA,NA,"",   27.8159E-03,   26.9404E-03,   6.92387E-03,   4.35005E-03
C:/temp/dataset/6/19_4.odb,Step-1,Increment      1: Step Time =    1.000,"PART-1-1",           259,      -10.7950,      -8.39617,            0.,NA,NA,"",   284.015E-03,   280.548E-03,   44.2444E-03,   4.20581E-03
C:/temp/dataset/6/19_4.odb,Step-1,Increment      1: Step Time =    1.000,"PART-1-1",           260,      -1.85786,       1.02916,            0.,NA,NA,"",   351.662E-03,   351.379E-03,   14.1124E-03,   3.26664E-03
C:/temp/dataset/6/19_4.odb,Step-1,Increment      1: Step Time =    1.000,"PART-1-1",           261,      -6.46179,      -1.33856,            0.,NA,NA,"",   350.066E-03,   349.517E-03,   19.5983E-03,   4.21459E-03
C:/temp/dataset/6/19_4.odb,Step-1,Increment      1: Step Time =    1.000,"PART-1-1",           262,      -11.1078,      -7.00587,            0.,NA,NA,"",   308.939E-03,   305.095E-03,   48.5840E-03,   3.37557E-03
C:/temp/dataset/6/19_4.odb,Step-1,Increment      1: Step Time =    1.000,"PART-1-1",           263,      -5.52697,      -3.44125,            0.,NA,NA,"",   336.017E-03,   335.934E-03,   7.46115E-03,   6.24259E-03
C:/temp/dataset/6/19_4.odb,Step-1,Increment      1: Step Time =    1.000,"PART-1-1",           264,      -9.72268,      -4.98378,            0.,NA,NA,"",   333.036E-03,   331.103E-03,   35.8255E-03,   2.19495E-03
C:/temp/dataset/6/19_4.odb,Step-1,Increment      1: Step Time =    1.000,"PART-1-1",           265,      -6.27329,       4.89376,            0.,NA,NA,"",   379.427E-03,   378.154E-03,   31.0489E-03,   2.17211E-03
C:/temp/dataset/6/19_4.odb,Step-1,Increment      1: Step Time =    1.000,"PART-1-1",           266,       12.4963,       2.80040,            0.,NA,NA,"",   369.850E-03,   364.719E-03,  -61.3923E-03,   1.07857E-03
C:/temp/dataset/6/19_4.odb,Step-1,Increment      1: Step Time =    1.000,"PART-1-1",           267,      -7.37176,      -20.2559,            0.,NA,NA,"",   54.0795E-03,   54.0207E-03,  -2.52291E-03,   3.96643E-03
C:/temp/dataset/6/19_4.odb,Step-1,Increment      1: Step Time =    1.000,"PART-1-1",           268,       2.88963,      -21.8777,            0.,NA,NA,"",   33.3226E-03,   32.7510E-03,   6.14523E-03,   4.66978E-03
C:/temp/dataset/6/19_4.odb,Step-1,Increment      1: Step Time =    1.000,"PART-1-1",           269,      -8.05085,       3.52655,            0.,NA,NA,"",   376.277E-03,   374.237E-03,   39.1277E-03,   2.24227E-03
C:/temp/dataset/6/19_4.odb,Step-1,Increment      1: Step Time =    1.000,"PART-1-1",           270,       8.95558,      -12.5395,            0.,NA,NA,"",   167.823E-03,   166.857E-03,  -17.9762E-03,   3.35195E-03
C:/temp/dataset/6/19_4.odb,Step-1,Increment      1: Step Time =    1.000,"PART-1-1",           271,       1.35989,  -223.950E-03,            0.,NA,NA,"",   341.557E-03,   341.352E-03,   11.8360E-03,   3.44748E-03
C:/temp/dataset/6/19_4.odb,Step-1,Increment      1: Step Time =    1.000,"PART-1-1",           272,      -9.75004,      -12.6533,            0.,NA,NA,"",   198.112E-03,   196.079E-03,   28.3068E-03,   4.84045E-03
C:/temp/dataset/6/19_4.odb,Step-1,Increment      1: Step Time =    1.000,"PART-1-1",           273,      -8.51206,      -25.1011,            0.,NA,NA,"",   16.3712E-03,   16.1247E-03,   2.83037E-03,   1.09690E-03
C:/temp/dataset/6/19_4.odb,Step-1,Increment      1: Step Time =    1.000,"PART-1-1",           274,      -6.19138,   998.181E-03,            0.,NA,NA,"",   360.332E-03,   359.489E-03,   24.6371E-03,   3.00113E-03
C:/temp/dataset/6/19_4.odb,Step-1,Increment      1: Step Time =    1.000,"PART-1-1",           275,      -2.63339,      -25.0950,            0.,NA,NA,"",   21.8655E-03,   21.2217E-03,  -5.26686E-03,   4.41337E-03
C:/temp/dataset/6/19_4.odb,Step-1,Increment      1: Step Time =    1.000,"PART-1-1",           276,       8.11811,      -26.0558,            0.,NA,NA,"",   11.0937E-03,   11.0017E-03,  -1.42617E-03,   1.35549E-03
C:/temp/dataset/6/19_4.odb,Step-1,Increment      1: Step Time =    1.000,"PART-1-1",           277,       6.33403,   764.508E-03,            0.,NA,NA,"",   347.407E-03,   347.362E-03,  -5.57782E-03,   1.04836E-03
C:/temp/dataset/6/19_4.odb,Step-1,Increment      1: Step Time =    1.000,"PART-1-1",           278,       8.84044,      -16.9880,            0.,NA,NA,"",   93.3566E-03,   92.4526E-03,  -12.9602E-03,   3.61852E-03
C:/temp/dataset/6/19_4.odb,Step-1,Increment      1: Step Time =    1.000,"PART-1-1",           279,      -11.3950,       19.6047,            0.,NA,NA,"",   461.369E-03,   457.660E-03,   58.3904E-03,   2.02735E-06
C:/temp/dataset/6/19_4.odb,Step-1,Increment      1: Step Time =    1.000,"PART-1-1",           280,      -11.2464,      -2.22607,            0.,NA,NA,"",   361.894E-03,   357.790E-03,   54.3438E-03,   3.57270E-03
C:/temp/dataset/6/19_4.odb,Step-1,Increment      1: Step Time =    1.000,"PART-1-1",           281,      -8.41776,  -32.7016E-03,            0.,NA,NA,"",   362.600E-03,   360.875E-03,   35.3323E-03,   3.70840E-03
C:/temp/dataset/6/19_4.odb,Step-1,Increment      1: Step Time =    1.000,"PART-1-1",           282,       4.48255,      -24.5345,            0.,NA,NA,"",   21.9591E-03,   21.2621E-03,   5.48842E-03,   3.57743E-03
C:/temp/dataset/6/19_4.odb,Step-1,Increment      1: Step Time =    1.000,"PART-1-1",           283,       6.11275,      -24.3348,            0.,NA,NA,"",   20.6955E-03,   20.2448E-03,   4.29595E-03,   2.42900E-03
C:/temp/dataset/6/19_4.odb,Step-1,Increment      1: Step Time =    1.000,"PART-1-1",           284,       9.69767,      -4.20039,            0.,NA,NA,"",   304.112E-03,   302.249E-03,  -33.6108E-03,   1.60738E-03
C:/temp/dataset/6/19_4.odb,Step-1,Increment      1: Step Time =    1.000,"PART-1-1",           285,       13.8851,      -1.60402,            0.,NA,NA,"",   335.638E-03,   326.474E-03,  -77.8975E-03,   1.59947E-03
C:/temp/dataset/6/19_4.odb,Step-1,Increment      1: Step Time =    1.000,"PART-1-1",           286,           15.,   -468.75E-03,            0.,NA,NA,"",   347.317E-03,   336.182E-03,  -87.2410E-03,   1.66764E-03
C:/temp/dataset/6/19_4.odb,Step-1,Increment      1: Step Time =    1.000,"PART-1-1",           287,       13.7553,   590.641E-03,            0.,NA,NA,"",   354.112E-03,   346.206E-03,  -74.4098E-03,   1.13072E-03
C:/temp/dataset/6/19_4.odb,Step-1,Increment      1: Step Time =    1.000,"PART-1-1",           288,       12.6405,  -544.629E-03,            0.,NA,NA,"",   342.948E-03,   336.934E-03,  -63.9409E-03,   1.34220E-03
C:/temp/dataset/6/19_4.odb,Step-1,Increment      1: Step Time =    1.000,"PART-1-1",           289,       6.57104,       2.96720,            0.,NA,NA,"",   362.214E-03,   362.104E-03,  -8.91953E-03,   1.14077E-03
C:/temp/dataset/6/19_4.odb,Step-1,Increment      1: Step Time =    1.000,"PART-1-1",           290,       5.86345,       1.80964,            0.,NA,NA,"",   354.058E-03,   354.040E-03,  -3.53785E-03,   1.04616E-03
C:/temp/dataset/6/19_4.odb,Step-1,Increment      1: Step Time =    1.000,"PART-1-1",           291,       7.10711,       1.10321,            0.,NA,NA,"",   350.217E-03,   350.036E-03,  -11.2833E-03,   950.816E-06
C:/temp/dataset/6/19_4.odb,Step-1,Increment      1: Step Time =    1.000,"PART-1-1",           292,       7.81470,       2.26078,            0.,NA,NA,"",   358.875E-03,   358.442E-03,  -17.6322E-03,   1.19212E-03
C:/temp/dataset/6/19_4.odb,Step-1,Increment      1: Step Time =    1.000,"PART-1-1",           293,       6.97305,      -8.82061,            0.,NA,NA,"",   231.516E-03,   231.495E-03,   3.09681E-03,   3.46067E-03
C:/temp/dataset/6/19_4.odb,Step-1,Increment      1: Step Time =    1.000,"PART-1-1",           294,       5.98985,      -7.53541,            0.,NA,NA,"",   253.959E-03,   253.602E-03,   13.4592E-03,   4.02237E-03
C:/temp/dataset/6/19_4.odb,Step-1,Increment      1: Step Time =    1.000,"PART-1-1",           295,            5.,      -8.76875,            0.,NA,NA,"",   232.554E-03,   230.069E-03,   33.9096E-03,   2.91678E-03
C:/temp/dataset/6/19_4.odb,Step-1,Increment      1: Step Time =    1.000,"PART-1-1",           296,       5.98320,      -10.0539,            0.,NA,NA,"",   209.922E-03,   208.928E-03,   20.4039E-03,   2.11472E-03
C:/temp/dataset/6/19_4.odb,Step-1,Increment      1: Step Time =    1.000,"PART-1-1",           297,       12.0429,      -8.05477,            0.,NA,NA,"",   252.447E-03,   244.951E-03,  -61.0603E-03,   2.31209E-03
C:/temp/dataset/6/19_4.odb,Step-1,Increment      1: Step Time =    1.000,"PART-1-1",           298,       11.0248,      -9.13413,            0.,NA,NA,"",   232.107E-03,   227.136E-03,  -47.7780E-03,   3.10720E-03
C:/temp/dataset/6/19_4.odb,Step-1,Increment      1: Step Time =    1.000,"PART-1-1",           299,       11.9985,      -10.2754,            0.,NA,NA,"",   215.954E-03,   207.704E-03,  -59.1188E-03,   2.86184E-03
C:/temp/dataset/6/19_4.odb,Step-1,Increment      1: Step Time =    1.000,"PART-1-1",           300,       13.0166,      -9.19606,            0.,NA,NA,"",   237.744E-03,   226.123E-03,  -73.4226E-03,   2.03017E-03
C:/temp/dataset/6/19_4.odb,Step-1,Increment      1: Step Time =    1.000,"PART-1-1",           301,       13.9992,      -14.7549,            0.,NA,NA,"",   154.689E-03,   133.511E-03,  -78.1240E-03,   3.57624E-03
C:/temp/dataset/6/19_4.odb,Step-1,Increment      1: Step Time =    1.000,"PART-1-1",           302,       13.0271,      -15.9471,            0.,NA,NA,"",   128.958E-03,   113.400E-03,  -61.4044E-03,   3.89618E-03
C:/temp/dataset/6/19_4.odb,Step-1,Increment      1: Step Time =    1.000,"PART-1-1",           303,       14.0279,      -16.9735,            0.,NA,NA,"",   122.210E-03,   99.9921E-03,  -70.2627E-03,   4.74673E-03
C:/temp/dataset/6/19_4.odb,Step-1,Increment      1: Step Time =    1.000,"PART-1-1",           304,           15.,      -15.7813,            0.,NA,NA,"",   148.834E-03,   119.358E-03,  -88.9104E-03,   4.70000E-03
C:/temp/dataset/6/19_4.odb,Step-1,Increment      1: Step Time =    1.000,"PART-1-1",           305,       6.96949,      -18.0995,            0.,NA,NA,"",   74.7414E-03,   74.5116E-03,   5.85567E-03,   3.43327E-03
C:/temp/dataset/6/19_4.odb,Step-1,Increment      1: Step Time =    1.000,"PART-1-1",           306,       5.95014,      -17.3335,            0.,NA,NA,"",   89.2183E-03,   87.1724E-03,   18.9972E-03,   2.92814E-03
C:/temp/dataset/6/19_4.odb,Step-1,Increment      1: Step Time =    1.000,"PART-1-1",           307,            5.,      -18.7625,            0.,NA,NA,"",   71.9187E-03,   66.9171E-03,   26.3516E-03,   7.27760E-03
C:/temp/dataset/6/19_4.odb,Step-1,Increment      1: Step Time =    1.000,"PART-1-1",           308,       6.01935,      -19.5285,            0.,NA,NA,"",   53.7989E-03,   52.4065E-03,   12.1605E-03,   6.32135E-03
C:/temp/dataset/6/19_4.odb,Step-1,Increment      1: Step Time =    1.000,"PART-1-1",           309,       7.66098,      -29.0388,            0.,NA,NA,"",   1.66280E-03,   1.61942E-03,  -377.337E-06,   1.24264E-03
C:/temp/dataset/6/19_4.odb,Step-1,Increment      1: Step Time =    1.000,"PART-1-1",           310,       6.62868,      -28.0660,            0.,NA,NA,"",   4.80926E-03,   4.80197E-03,   264.812E-06,   1.85744E-03
C:/temp/dataset/6/19_4.odb,Step-1,Increment      1: Step Time =    1.000,"PART-1-1",           311,       5.21770,      -29.0272,            0.,NA,NA,"",   2.83415E-03,   2.82050E-03,   277.922E-06,   2.01877E-03
C:/temp/dataset/6/19_4.odb,Step-1,Increment      1: Step Time =    1.000,"PART-1-1",           312,          6.25,          -30.,            0.,NA,NA,"",            0.,   1.25667E-39,  -355.704E-42,   1.34127E-03
C:/temp/dataset/6/19_4.odb,Step-1,Increment      1: Step Time =    1.000,"PART-1-1",           313,   162.125E-03,      -28.5454,            0.,NA,NA,"",   6.73833E-03,   6.73470E-03,  -221.234E-06,   3.23797E-03
C:/temp/dataset/6/19_4.odb,Step-1,Increment      1: Step Time =    1.000,"PART-1-1",           314,      -1.06934,      -27.3053,            0.,NA,NA,"",   12.1534E-03,   12.0763E-03,  -1.36623E-03,   3.31565E-03
C:/temp/dataset/6/19_4.odb,Step-1,Increment      1: Step Time =    1.000,"PART-1-1",           315,      -2.48147,      -28.7599,            0.,NA,NA,"",   5.23310E-03,   5.17143E-03,  -801.011E-06,   3.01135E-03
C:/temp/dataset/6/19_4.odb,Step-1,Increment      1: Step Time =    1.000,"PART-1-1",           316,         -1.25,          -30.,            0.,NA,NA,"",            0.,   2.83774E-39,  -835.570E-42,   2.90644E-03
C:/temp/dataset/6/19_4.odb,Step-1,Increment      1: Step Time =    1.000,"PART-1-1",           317,          -15.,        -21.25,            0.,NA,NA,"",   90.4309E-03,   61.2796E-03,   66.5024E-03,   8.08648E-03
C:/temp/dataset/6/19_4.odb,Step-1,Increment      1: Step Time =    1.000,"PART-1-1",           318,      -13.9888,      -22.4607,            0.,NA,NA,"",   66.3296E-03,   45.4685E-03,   48.2931E-03,   7.04605E-03
C:/temp/dataset/6/19_4.odb,Step-1,Increment      1: Step Time =    1.000,"PART-1-1",           319,      -12.8187,      -21.2681,            0.,NA,NA,"",   69.7206E-03,   54.2327E-03,   43.8152E-03,   5.43828E-03
C:/temp/dataset/6/19_4.odb,Step-1,Increment      1: Step Time =    1.000,"PART-1-1",           320,      -13.8299,      -20.0574,            0.,NA,NA,"",   94.0071E-03,   71.6264E-03,   60.8850E-03,   6.41043E-03
C:/temp/dataset/6/19_4.odb,Step-1,Increment      1: Step Time =    1.000,"PART-1-1",           321,      -12.5142,      -28.6623,            0.,NA,NA,"",   6.24482E-03,   3.19723E-03,   5.36428E-03,   5.08772E-03
C:/temp/dataset/6/19_4.odb,Step-1,Increment      1: Step Time =    1.000,"PART-1-1",           322,        -11.25,          -30.,            0.,NA,NA,"",            0.,   238.352E-42,   6.55915E-39,   3.40151E-03
C:/temp/dataset/6/19_4.odb,Step-1,Increment      1: Step Time =    1.000,"PART-1-1",           323,      -9.93348,      -28.4464,            0.,NA,NA,"",   3.55105E-03,   2.29323E-03,   2.71128E-03,   2.21862E-03
C:/temp/dataset/6/19_4.odb,Step-1,Increment      1: Step Time =    1.000,"PART-1-1",           324,      -11.1976,      -27.1087,            0.,NA,NA,"",   11.7033E-03,   7.92981E-03,   8.60724E-03,   3.98427E-03
C:/temp/dataset/6/19_4.odb,Step-1,Increment      1: Step Time =    1.000,"PART-1-1",           325,      -7.37036,      -13.8742,            0.,NA,NA,"",   170.299E-03,   170.219E-03,  -5.20541E-03,   3.56102E-03
C:/temp/dataset/6/19_4.odb,Step-1,Increment      1: Step Time =    1.000,"PART-1-1",           326,      -6.21015,      -15.0417,            0.,NA,NA,"",   148.904E-03,   147.092E-03,  -23.1636E-03,   1.94533E-03
C:/temp/dataset/6/19_4.odb,Step-1,Increment      1: Step Time =    1.000,"PART-1-1",           327,           -5.,      -13.7188,            0.,NA,NA,"",   178.260E-03,   172.482E-03,  -45.0179E-03,   463.378E-06
C:/temp/dataset/6/19_4.odb,Step-1,Increment      1: Step Time =    1.000,"PART-1-1",           328,      -6.16021,      -12.5513,            0.,NA,NA,"",   197.353E-03,   195.949E-03,  -23.4964E-03,   2.27848E-03
C:/temp/dataset/6/19_4.odb,Step-1,Increment      1: Step Time =    1.000,"PART-1-1",           329,      -9.33590,      -9.40979,            0.,NA,NA,"",   261.786E-03,   260.507E-03,   25.8488E-03,   4.71819E-03
C:/temp/dataset/6/19_4.odb,Step-1,Increment      1: Step Time =    1.000,"PART-1-1",           330,      -8.33361,      -10.3234,            0.,NA,NA,"",   242.277E-03,   241.988E-03,   11.8354E-03,   4.48025E-03
C:/temp/dataset/6/19_4.odb,Step-1,Increment      1: Step Time =    1.000,"PART-1-1",           331,      -7.16565,      -9.15059,            0.,NA,NA,"",   263.117E-03,   263.113E-03,  -1.41856E-03,   4.69550E-03
C:/temp/dataset/6/19_4.odb,Step-1,Increment      1: Step Time =    1.000,"PART-1-1",           332,      -8.16794,      -8.23701,            0.,NA,NA,"",   281.382E-03,   281.054E-03,   13.5719E-03,   4.73695E-03
C:/temp/dataset/6/19_4.odb,Step-1,Increment      1: Step Time =    1.000,"PART-1-1",           333,      -11.1473,      -6.32447,            0.,NA,NA,"",   319.582E-03,   315.739E-03,   49.4106E-03,   2.95491E-03
C:/temp/dataset/6/19_4.odb,Step-1,Increment      1: Step Time =    1.000,"PART-1-1",           334,      -10.2102,      -6.79208,            0.,NA,NA,"",   309.834E-03,   307.409E-03,   38.6866E-03,   3.26351E-03
C:/temp/dataset/6/19_4.odb,Step-1,Increment      1: Step Time =    1.000,"PART-1-1",           335,      -9.51762,      -5.78103,            0.,NA,NA,"",   322.586E-03,   320.937E-03,   32.5729E-03,   2.53096E-03
C:/temp/dataset/6/19_4.odb,Step-1,Increment      1: Step Time =    1.000,"PART-1-1",           336,      -10.4548,      -5.31342,            0.,NA,NA,"",   331.219E-03,   328.431E-03,   42.8840E-03,   2.32528E-03
C:/temp/dataset/6/19_4.odb,Step-1,Increment      1: Step Time =    1.000,"PART-1-1",           337,      -5.04937,      -1.25055,            0.,NA,NA,"",   346.327E-03,   346.023E-03,   14.5083E-03,   3.92843E-03
C:/temp/dataset/6/19_4.odb,Step-1,Increment      1: Step Time =    1.000,"PART-1-1",           338,      -3.82978,  -150.691E-03,            0.,NA,NA,"",   348.852E-03,   348.544E-03,   14.6465E-03,   3.51511E-03
C:/temp/dataset/6/19_4.odb,Step-1,Increment      1: Step Time =    1.000,"PART-1-1",           339,      -5.10700,   929.666E-03,            0.,NA,NA,"",   357.207E-03,   356.640E-03,   20.1240E-03,   2.80565E-03
C:/temp/dataset/6/19_4.odb,Step-1,Increment      1: Step Time =    1.000,"PART-1-1",           340,      -6.32658,  -170.190E-03,            0.,NA,NA,"",   355.359E-03,   354.647E-03,   22.4835E-03,   3.56426E-03
C:/temp/dataset/6/19_4.odb,Step-1,Increment      1: Step Time =    1.000,"PART-1-1",           341,          -15.,          3.75,            0.,NA,NA,"",   386.694E-03,   379.223E-03,   75.6477E-03,   58.3821E-06
C:/temp/dataset/6/19_4.odb,Step-1,Increment      1: Step Time =    1.000,"PART-1-1",           342,      -13.8520,       2.39386,            0.,NA,NA,"",   381.468E-03,   374.718E-03,   71.4426E-03,   942.209E-06
C:/temp/dataset/6/19_4.odb,Step-1,Increment      1: Step Time =    1.000,"PART-1-1",           343,      -12.6820,       3.58697,            0.,NA,NA,"",   384.284E-03,   378.645E-03,   65.5879E-03,   1.08337E-03
C:/temp/dataset/6/19_4.odb,Step-1,Increment      1: Step Time =    1.000,"PART-1-1",           344,      -13.8301,       4.94311,            0.,NA,NA,"",   390.409E-03,   383.948E-03,   70.7290E-03,   203.161E-06
C:/temp/dataset/6/19_4.odb,Step-1,Increment      1: Step Time =    1.000,"PART-1-1",           345,          -15.,         11.25,            0.,NA,NA,"",   421.609E-03,   414.526E-03,   76.9554E-03,   94.4163E-06
C:/temp/dataset/6/19_4.odb,Step-1,Increment      1: Step Time =    1.000,"PART-1-1",           346,      -14.0083,       10.0442,            0.,NA,NA,"",   414.561E-03,   408.290E-03,   71.8345E-03,   92.9110E-06
C:/temp/dataset/6/19_4.odb,Step-1,Increment      1: Step Time =    1.000,"PART-1-1",           347,      -13.0572,       11.3141,            0.,NA,NA,"",   420.177E-03,   414.791E-03,   67.0623E-03,   67.1608E-06
C:/temp/dataset/6/19_4.odb,Step-1,Increment      1: Step Time =    1.000,"PART-1-1",           348,      -14.0489,       12.5200,            0.,NA,NA,"",   427.178E-03,   421.045E-03,   72.1267E-03,   42.3453E-06
C:/temp/dataset/6/19_4.odb,Step-1,Increment      1: Step Time =    1.000,"PART-1-1",           349,           -5.,       22.7083,            0.,NA,NA,"",   474.277E-03,   473.600E-03,   25.3373E-03,   623.206E-09
C:/temp/dataset/6/19_4.odb,Step-1,Increment      1: Step Time =    1.000,"PART-1-1",           350,      -5.96779,       23.6687,            0.,NA,NA,"",   479.529E-03,   478.570E-03,   30.3196E-03,   285.247E-09
C:/temp/dataset/6/19_4.odb,Step-1,Increment      1: Step Time =    1.000,"PART-1-1",           351,      -6.69567,       22.7251,            0.,NA,NA,"",   474.934E-03,   473.709E-03,   34.0894E-03,   230.425E-09
C:/temp/dataset/6/19_4.odb,Step-1,Increment      1: Step Time =    1.000,"PART-1-1",           352,      -5.72788,       21.7648,            0.,NA,NA,"",   469.642E-03,   468.739E-03,   29.1073E-03,   462.383E-09
C:/temp/dataset/6/19_4.odb,Step-1,Increment      1: Step Time =    1.000,"PART-1-1",           353,      -9.95259,       28.8237,            0.,NA,NA,"",   507.784E-03,   505.235E-03,   50.8210E-03,   100.553E-09
C:/temp/dataset/6/19_4.odb,Step-1,Increment      1: Step Time =    1.000,"PART-1-1",           354,      -8.67740,       27.7404,            0.,NA,NA,"",   501.581E-03,   499.625E-03,   44.2525E-03,   99.6067E-09
C:/temp/dataset/6/19_4.odb,Step-1,Increment      1: Step Time =    1.000,"PART-1-1",           355,      -7.47481,       28.9167,            0.,NA,NA,"",   507.110E-03,   505.682E-03,   38.0289E-03,   77.4143E-09
C:/temp/dataset/6/19_4.odb,Step-1,Increment      1: Step Time =    1.000,"PART-1-1",           356,         -8.75,           30.,            0.,NA,NA,"",   513.232E-03,   511.291E-03,   44.5973E-03,   83.3069E-09
C:/temp/dataset/6/19_4.odb,Step-1,Increment      1: Step Time =    1.000,"PART-1-1",           357,      -12.4360,       28.7156,            0.,NA,NA,"",   508.707E-03,   504.710E-03,   63.6427E-03,   83.0283E-09
C:/temp/dataset/6/19_4.odb,Step-1,Increment      1: Step Time =    1.000,"PART-1-1",           358,        -13.75,           30.,            0.,NA,NA,"",   516.183E-03,   511.358E-03,   70.4091E-03,   17.4083E-09
C:/temp/dataset/6/19_4.odb,Step-1,Increment      1: Step Time =    1.000,"PART-1-1",           359,          -15.,         28.75,            0.,NA,NA,"",   510.741E-03,   504.922E-03,   76.8788E-03,   23.7481E-09
C:/temp/dataset/6/19_4.odb,Step-1,Increment      1: Step Time =    1.000,"PART-1-1",           360,      -13.6860,       27.4656,            0.,NA,NA,"",   503.182E-03,   498.274E-03,   70.1125E-03,   85.5518E-09
C:/temp/dataset/6/19_4.odb,Step-1,Increment      1: Step Time =    1.000,"PART-1-1",           361,         -3.75,           -5.,            0.,NA,NA,"",   329.618E-03,   329.539E-03,   7.23327E-03,   3.78405E-03
C:/temp/dataset/6/19_4.odb,Step-1,Increment      1: Step Time =    1.000,"PART-1-1",           362,      -2.75606,      -4.06584,            0.,NA,NA,"",   330.579E-03,   330.466E-03,   8.67209E-03,   1.72506E-03
C:/temp/dataset/6/19_4.odb,Step-1,Increment      1: Step Time =    1.000,"PART-1-1",           363,      -4.26954,      -3.28646,            0.,NA,NA,"",   333.645E-03,   333.576E-03,   6.75858E-03,   4.71265E-03
C:/temp/dataset/6/19_4.odb,Step-1,Increment      1: Step Time =    1.000,"PART-1-1",           364,      -5.26349,      -4.22062,            0.,NA,NA,"",   330.870E-03,   330.863E-03,   2.09148E-03,   6.81912E-03
C:/temp/dataset/6/19_4.odb,Step-1,Increment      1: Step Time =    1.000,"PART-1-1",           365,   659.099E-03,      -2.85996,            0.,NA,NA,"",   329.572E-03,   329.394E-03,   10.8205E-03,   3.27622E-03
C:/temp/dataset/6/19_4.odb,Step-1,Increment      1: Step Time =    1.000,"PART-1-1",           366,  -266.865E-03,      -3.97148,            0.,NA,NA,"",   328.365E-03,   328.217E-03,   9.87531E-03,   2.17427E-03
C:/temp/dataset/6/19_4.odb,Step-1,Increment      1: Step Time =    1.000,"PART-1-1",           367,          1.25,           -5.,            0.,NA,NA,"",   323.713E-03,   323.615E-03,   8.00077E-03,   3.33292E-03
C:/temp/dataset/6/19_4.odb,Step-1,Increment      1: Step Time =    1.000,"PART-1-1",           368,       2.17596,      -3.88848,            0.,NA,NA,"",   322.069E-03,   321.918E-03,   9.85841E-03,   3.59408E-03
C:/temp/dataset/6/19_4.odb,Step-1,Increment      1: Step Time =    1.000,"PART-1-1",           369,   93.5104E-03,  -560.922E-03,            0.,NA,NA,"",   340.983E-03,   340.765E-03,   12.2031E-03,   3.51708E-03
C:/temp/dataset/6/19_4.odb,Step-1,Increment      1: Step Time =    1.000,"PART-1-1",           370,   627.873E-03,   544.404E-03,            0.,NA,NA,"",   346.454E-03,   346.233E-03,   12.3681E-03,   3.28011E-03
C:/temp/dataset/6/19_4.odb,Step-1,Increment      1: Step Time =    1.000,"PART-1-1",           371,  -981.002E-03,       1.17096,            0.,NA,NA,"",   351.297E-03,   351.034E-03,   13.6006E-03,   3.17121E-03
C:/temp/dataset/6/19_4.odb,Step-1,Increment      1: Step Time =    1.000,"PART-1-1",           372,      -1.51537,   65.6335E-03,            0.,NA,NA,"",   346.146E-03,   345.901E-03,   13.0197E-03,   3.42005E-03
C:/temp/dataset/6/19_4.odb,Step-1,Increment      1: Step Time =    1.000,"PART-1-1",           373,       4.11258,       2.54084,            0.,NA,NA,"",   357.335E-03,   357.306E-03,   4.51922E-03,   1.43313E-03
C:/temp/dataset/6/19_4.odb,Step-1,Increment      1: Step Time =    1.000,"PART-1-1",           374,       3.71515,       1.12833,            0.,NA,NA,"",   348.774E-03,   348.706E-03,   6.87427E-03,   2.01814E-03
C:/temp/dataset/6/19_4.odb,Step-1,Increment      1: Step Time =    1.000,"PART-1-1",           375,       5.46602,   397.127E-03,            0.,NA,NA,"",   344.579E-03,   344.579E-03,   31.0514E-06,   1.43988E-03
C:/temp/dataset/6/19_4.odb,Step-1,Increment      1: Step Time =    1.000,"PART-1-1",           376,       8.69518,  -378.803E-03,            0.,NA,NA,"",   340.453E-03,   339.628E-03,  -23.6869E-03,   1.29350E-03
C:/temp/dataset/6/19_4.odb,Step-1,Increment      1: Step Time =    1.000,"PART-1-1",           377,       8.82700,   889.396E-03,            0.,NA,NA,"",   350.062E-03,   349.131E-03,  -25.5126E-03,   1.22363E-03
C:/temp/dataset/6/19_4.odb,Step-1,Increment      1: Step Time =    1.000,"PART-1-1",           378,       6.97530,  -164.986E-03,            0.,NA,NA,"",   341.250E-03,   341.127E-03,  -9.16662E-03,   1.16203E-03
C:/temp/dataset/6/19_4.odb,Step-1,Increment      1: Step Time =    1.000,"PART-1-1",           379,      -3.65351,      -22.6081,            0.,NA,NA,"",   34.5962E-03,   32.8825E-03,  -10.7536E-03,   4.65655E-03
C:/temp/dataset/6/19_4.odb,Step-1,Increment      1: Step Time =    1.000,"PART-1-1",           380,      -2.48671,      -21.3009,            0.,NA,NA,"",   37.0975E-03,   36.2677E-03,  -7.80258E-03,   3.23235E-03
C:/temp/dataset/6/19_4.odb,Step-1,Increment      1: Step Time =    1.000,"PART-1-1",           381,         -3.75,          -20.,            0.,NA,NA,"",   42.3800E-03,   41.0455E-03,  -10.5514E-03,   7.59320E-03
C:/temp/dataset/6/19_4.odb,Step-1,Increment      1: Step Time =    1.000,"PART-1-1",           382,      -4.91680,      -21.3072,            0.,NA,NA,"",   43.1947E-03,   40.1080E-03,  -16.0353E-03,   6.80677E-03
C:/temp/dataset/6/19_4.odb,Step-1,Increment      1: Step Time =    1.000,"PART-1-1",           383,       12.8399,      -22.4784,            0.,NA,NA,"",   49.4180E-03,   36.4786E-03,  -33.3384E-03,   4.89278E-03
C:/temp/dataset/6/19_4.odb,Step-1,Increment      1: Step Time =    1.000,"PART-1-1",           384,       11.7398,      -21.2760,            0.,NA,NA,"",   53.2591E-03,   44.3008E-03,  -29.5631E-03,   3.98801E-03
C:/temp/dataset/6/19_4.odb,Step-1,Increment      1: Step Time =    1.000,"PART-1-1",           385,       10.5591,      -22.4389,            0.,NA,NA,"",   36.7935E-03,   32.4879E-03,  -17.2713E-03,   2.91617E-03
C:/temp/dataset/6/19_4.odb,Step-1,Increment      1: Step Time =    1.000,"PART-1-1",           386,       11.6593,      -23.6412,            0.,NA,NA,"",   33.1313E-03,   25.8533E-03,  -20.7192E-03,   3.80842E-03
C:/temp/dataset/6/19_4.odb,Step-1,Increment      1: Step Time =    1.000,"PART-1-1",           387,          8.75,            5.,            0.,NA,NA,"",   381.022E-03,   380.038E-03,  -27.3657E-03,   1.97801E-03
C:/temp/dataset/6/19_4.odb,Step-1,Increment      1: Step Time =    1.000,"PART-1-1",           388,       7.62461,       4.03982,            0.,NA,NA,"",   371.131E-03,   370.724E-03,  -17.3677E-03,   1.82465E-03
C:/temp/dataset/6/19_4.odb,Step-1,Increment      1: Step Time =    1.000,"PART-1-1",           389,       8.90047,       2.96899,            0.,NA,NA,"",   365.381E-03,   364.365E-03,  -27.2313E-03,   1.31900E-03
C:/temp/dataset/6/19_4.odb,Step-1,Increment      1: Step Time =    1.000,"PART-1-1",           390,       10.0259,       3.92917,            0.,NA,NA,"",   374.729E-03,   372.802E-03,  -37.9452E-03,   1.27359E-03
C:/temp/dataset/6/19_4.odb,Step-1,Increment      1: Step Time =    1.000,"PART-1-1",           391,      -6.96921,       21.1213,            0.,NA,NA,"",   466.788E-03,   465.434E-03,   35.5228E-03,   364.535E-09
C:/temp/dataset/6/19_4.odb,Step-1,Increment      1: Step Time =    1.000,"PART-1-1",           392,      -6.24133,       19.9816,            0.,NA,NA,"",   460.641E-03,   459.543E-03,   31.7813E-03,   513.698E-09
C:/temp/dataset/6/19_4.odb,Step-1,Increment      1: Step Time =    1.000,"PART-1-1",           393,           -5.,        20.625,            0.,NA,NA,"",   463.542E-03,   462.847E-03,   25.3666E-03,   733.042E-09
C:/temp/dataset/6/19_4.odb,Step-1,Increment      1: Step Time =    1.000,"PART-1-1",           394,      -12.9370,       8.81410,            0.,NA,NA,"",   407.469E-03,   402.011E-03,   66.4679E-03,   53.9878E-06
C:/temp/dataset/6/19_4.odb,Step-1,Increment      1: Step Time =    1.000,"PART-1-1",           395,          -15.,          8.75,            0.,NA,NA,"",   409.064E-03,   401.816E-03,   76.6642E-03,   190.550E-06
C:/temp/dataset/6/19_4.odb,Step-1,Increment      1: Step Time =    1.000,"PART-1-1",           396,      -13.9287,       7.51992,            0.,NA,NA,"",   402.027E-03,   395.661E-03,   71.2585E-03,   126.540E-06
C:/temp/dataset/6/19_4.odb,Step-1,Increment      1: Step Time =    1.000,"PART-1-1",           397,          -15.,          1.25,            0.,NA,NA,"",   379.035E-03,   371.362E-03,   75.8800E-03,   1.09443E-03
C:/temp/dataset/6/19_4.odb,Step-1,Increment      1: Step Time =    1.000,"PART-1-1",           398,      -13.9023,  -59.1614E-03,            0.,NA,NA,"",   378.158E-03,   370.736E-03,   74.5526E-03,   3.30797E-03
C:/temp/dataset/6/19_4.odb,Step-1,Increment      1: Step Time =    1.000,"PART-1-1",           399,      -12.7542,       1.08470,            0.,NA,NA,"",   377.838E-03,   371.825E-03,   67.1394E-03,   2.98083E-03
C:/temp/dataset/6/19_4.odb,Step-1,Increment      1: Step Time =    1.000,"PART-1-1",           400,          -15.,         -1.25,            0.,NA,NA,"",   379.199E-03,   370.612E-03,   80.2435E-03,   4.44168E-03
C:/temp/dataset/6/19_4.odb,Step-1,Increment      1: Step Time =    1.000,"PART-1-1",           401,      -13.9820,      -2.43756,            0.,NA,NA,"",   371.074E-03,   362.962E-03,   77.1680E-03,   4.04213E-03
C:/temp/dataset/6/19_4.odb,Step-1,Increment      1: Step Time =    1.000,"PART-1-1",           402,      -12.8843,      -1.24672,            0.,NA,NA,"",   372.582E-03,   366.226E-03,   68.5251E-03,   3.76092E-03
C:/temp/dataset/6/19_4.odb,Step-1,Increment      1: Step Time =    1.000,"PART-1-1",           403,      -12.3802,      -13.7897,            0.,NA,NA,"",   186.011E-03,   174.978E-03,   63.1094E-03,   3.95104E-03
C:/temp/dataset/6/19_4.odb,Step-1,Increment      1: Step Time =    1.000,"PART-1-1",           404,      -13.6672,      -12.5056,            0.,NA,NA,"",   218.371E-03,   201.327E-03,   84.5779E-03,   2.29438E-03
C:/temp/dataset/6/19_4.odb,Step-1,Increment      1: Step Time =    1.000,"PART-1-1",           405,          -15.,        -13.75,            0.,NA,NA,"",   207.854E-03,   178.780E-03,   106.023E-03,   2.75039E-03
C:/temp/dataset/6/19_4.odb,Step-1,Increment      1: Step Time =    1.000,"PART-1-1",           406,      -13.7130,      -15.0341,            0.,NA,NA,"",   172.671E-03,   152.684E-03,   80.6392E-03,   3.70884E-03
C:/temp/dataset/6/19_4.odb,Step-1,Increment      1: Step Time =    1.000,"PART-1-1",           407,       9.21271,      -3.58583,            0.,NA,NA,"",   311.376E-03,   310.090E-03,  -28.2769E-03,   1.45270E-03
C:/temp/dataset/6/19_4.odb,Step-1,Increment      1: Step Time =    1.000,"PART-1-1",           408,       7.90749,      -3.82305,            0.,NA,NA,"",   309.574E-03,   309.225E-03,  -14.6984E-03,   2.33964E-03
C:/temp/dataset/6/19_4.odb,Step-1,Increment      1: Step Time =    1.000,"PART-1-1",           409,       8.15132,      -5.16923,            0.,NA,NA,"",   292.496E-03,   292.014E-03,  -16.7815E-03,   3.05048E-03
C:/temp/dataset/6/19_4.odb,Step-1,Increment      1: Step Time =    1.000,"PART-1-1",           410,       9.45655,      -4.93201,            0.,NA,NA,"",   295.078E-03,   293.439E-03,  -31.0539E-03,   1.91756E-03
C:/temp/dataset/6/19_4.odb,Step-1,Increment      1: Step Time =    1.000,"PART-1-1",           411,       6.91243,      -16.0318,            0.,NA,NA,"",   107.881E-03,   107.500E-03,   9.06119E-03,   2.77494E-03
C:/temp/dataset/6/19_4.odb,Step-1,Increment      1: Step Time =    1.000,"PART-1-1",           412,       5.96229,      -14.9858,            0.,NA,NA,"",   127.300E-03,   125.209E-03,   22.9739E-03,   1.52659E-03
C:/temp/dataset/6/19_4.odb,Step-1,Increment      1: Step Time =    1.000,"PART-1-1",           413,            5.,      -16.2875,            0.,NA,NA,"",   111.178E-03,   105.305E-03,   35.6567E-03,   2.72258E-03
C:/temp/dataset/6/19_4.odb,Step-1,Increment      1: Step Time =    1.000,"PART-1-1",           414,       6.93910,      -13.7291,            0.,NA,NA,"",   146.161E-03,   145.858E-03,   9.40618E-03,   2.06879E-03
C:/temp/dataset/6/19_4.odb,Step-1,Increment      1: Step Time =    1.000,"PART-1-1",           415,       5.97681,      -12.5371,            0.,NA,NA,"",   167.827E-03,   166.225E-03,   23.1324E-03,   1.10990E-03
C:/temp/dataset/6/19_4.odb,Step-1,Increment      1: Step Time =    1.000,"PART-1-1",           416,            5.,      -13.7937,            0.,NA,NA,"",   150.332E-03,   145.271E-03,   38.6794E-03,   737.197E-06
C:/temp/dataset/6/19_4.odb,Step-1,Increment      1: Step Time =    1.000,"PART-1-1",           417,         -1.25,          -20.,            0.,NA,NA,"",   32.3425E-03,   32.2428E-03,  -2.53771E-03,   1.83719E-03
C:/temp/dataset/6/19_4.odb,Step-1,Increment      1: Step Time =    1.000,"PART-1-1",           418,      -1.09514,      -22.7401,            0.,NA,NA,"",   31.0251E-03,   30.8120E-03,  -3.63062E-03,   4.00758E-03
C:/temp/dataset/6/19_4.odb,Step-1,Increment      1: Step Time =    1.000,"PART-1-1",           419,   141.566E-03,      -21.4393,            0.,NA,NA,"",   32.3789E-03,   32.3784E-03,  -188.884E-06,   1.70757E-03
C:/temp/dataset/6/19_4.odb,Step-1,Increment      1: Step Time =    1.000,"PART-1-1",           420,      -7.69236,      -25.1479,            0.,NA,NA,"",   16.0265E-03,   16.0248E-03,  -227.913E-06,   1.27796E-03
C:/temp/dataset/6/19_4.odb,Step-1,Increment      1: Step Time =    1.000,"PART-1-1",           421,      -9.18951,      -25.9970,            0.,NA,NA,"",   12.4393E-03,   11.5631E-03,   4.58586E-03,   1.63411E-03
C:/temp/dataset/6/19_4.odb,Step-1,Increment      1: Step Time =    1.000,"PART-1-1",           422,      -8.56598,      -27.1897,            0.,NA,NA,"",   6.70289E-03,   6.43020E-03,   1.89243E-03,   1.61234E-03
C:/temp/dataset/6/19_4.odb,Step-1,Increment      1: Step Time =    1.000,"PART-1-1",           423,      -7.06883,      -26.3407,            0.,NA,NA,"",   10.8166E-03,   10.7452E-03,  -1.24081E-03,   1.87399E-03
C:/temp/dataset/6/19_4.odb,Step-1,Increment      1: Step Time =    1.000,"PART-1-1",           424,      -9.82073,      -13.8964,            0.,NA,NA,"",   173.244E-03,   170.909E-03,   28.3515E-03,   4.83818E-03
C:/temp/dataset/6/19_4.odb,Step-1,Increment      1: Step Time =    1.000,"PART-1-1",           425,      -8.65586,      -15.1239,            0.,NA,NA,"",   146.207E-03,   145.685E-03,   12.3367E-03,   4.36077E-03
C:/temp/dataset/6/19_4.odb,Step-1,Increment      1: Step Time =    1.000,"PART-1-1",           426,      -8.53523,      -12.6467,            0.,NA,NA,"",   195.940E-03,   195.569E-03,   12.0473E-03,   4.22040E-03
C:/temp/dataset/6/19_4.odb,Step-1,Increment      1: Step Time =    1.000,"PART-1-1",           427,      -6.09243,      -10.1071,            0.,NA,NA,"",   244.132E-03,   243.319E-03,  -19.9109E-03,   3.88287E-03
C:/temp/dataset/6/19_4.odb,Step-1,Increment      1: Step Time =    1.000,"PART-1-1",           428,           -5.,      -8.71250,            0.,NA,NA,"",   268.326E-03,   266.316E-03,  -32.7888E-03,   5.81631E-03
C:/temp/dataset/6/19_4.odb,Step-1,Increment      1: Step Time =    1.000,"PART-1-1",           429,      -6.07322,      -7.75598,            0.,NA,NA,"",   286.420E-03,   286.221E-03,  -10.6758E-03,   5.72421E-03
C:/temp/dataset/6/19_4.odb,Step-1,Increment      1: Step Time =    1.000,"PART-1-1",           430,      -12.7270,      -6.06323,            0.,NA,NA,"",   329.363E-03,   322.309E-03,   67.8022E-03,   3.16207E-03
C:/temp/dataset/6/19_4.odb,Step-1,Increment      1: Step Time =    1.000,"PART-1-1",           431,      -13.8025,      -4.90646,            0.,NA,NA,"",   349.507E-03,   340.245E-03,   79.9298E-03,   3.95106E-03
C:/temp/dataset/6/19_4.odb,Step-1,Increment      1: Step Time =    1.000,"PART-1-1",           432,          -15.,         -6.25,            0.,NA,NA,"",   338.685E-03,   323.663E-03,   99.7501E-03,   5.08961E-03
C:/temp/dataset/6/19_4.odb,Step-1,Increment      1: Step Time =    1.000,"PART-1-1",           433,      -13.9244,      -7.40677,            0.,NA,NA,"",   312.978E-03,   301.222E-03,   84.9760E-03,   3.57978E-03
C:/temp/dataset/6/19_4.odb,Step-1,Increment      1: Step Time =    1.000,"PART-1-1",           434,       1.60591,      -1.50045,            0.,NA,NA,"",   334.256E-03,   334.063E-03,   11.3484E-03,   3.68659E-03
C:/temp/dataset/6/19_4.odb,Step-1,Increment      1: Step Time =    1.000,"PART-1-1",           435,  -853.298E-03,      -1.92043,            0.,NA,NA,"",   335.612E-03,   335.415E-03,   11.4842E-03,   3.18451E-03
C:/temp/dataset/6/19_4.odb,Step-1,Increment      1: Step Time =    1.000,"PART-1-1",           436,         13.75,          -30.,            0.,NA,NA,"",            0.,   359.413E-42,  -10.0747E-39,   6.69430E-03
C:/temp/dataset/6/19_4.odb,Step-1,Increment      1: Step Time =    1.000,"PART-1-1",           437,           15.,      -28.9063,            0.,NA,NA,"",   11.2138E-03,   7.67786E-03,  -8.17309E-03,   8.26828E-03
C:/temp/dataset/6/19_4.odb,Step-1,Increment      1: Step Time =    1.000,"PART-1-1",           438,       13.8103,      -27.8746,            0.,NA,NA,"",   14.1437E-03,   8.67679E-03,  -11.1695E-03,   6.31972E-03
C:/temp/dataset/6/19_4.odb,Step-1,Increment      1: Step Time =    1.000,"PART-1-1",           439,       12.5603,      -28.9683,            0.,NA,NA,"",   4.24260E-03,   2.16784E-03,  -3.64693E-03,   4.45024E-03
C:/temp/dataset/6/19_4.odb,Step-1,Increment      1: Step Time =    1.000,"PART-1-1",           440,       12.6598,      -26.8678,            0.,NA,NA,"",   16.6217E-03,   10.6056E-03,  -12.7985E-03,   5.00224E-03
C:/temp/dataset/6/19_4.odb,Step-1,Increment      1: Step Time =    1.000,"PART-1-1",           441,       11.5501,      -25.8632,            0.,NA,NA,"",   18.3871E-03,   13.3302E-03,  -12.6646E-03,   3.77331E-03
C:/temp/dataset/6/19_4.odb,Step-1,Increment      1: Step Time =    1.000,"PART-1-1",           442,       10.3093,      -26.9762,            0.,NA,NA,"",   9.33020E-03,   7.35403E-03,  -5.74203E-03,   2.53979E-03
C:/temp/dataset/6/19_4.odb,Step-1,Increment      1: Step Time =    1.000,"PART-1-1",           443,       11.4189,      -27.9808,            0.,NA,NA,"",   7.09801E-03,   4.54922E-03,  -5.44852E-03,   3.72884E-03
C:/temp/dataset/6/19_4.odb,Step-1,Increment      1: Step Time =    1.000,"PART-1-1",           444,       10.1086,      -29.0125,            0.,NA,NA,"",   2.08520E-03,   1.22713E-03,  -1.68589E-03,   2.19716E-03
C:/temp/dataset/6/19_4.odb,Step-1,Increment      1: Step Time =    1.000,"PART-1-1",           445,       9.01957,      -28.0513,            0.,NA,NA,"",   4.06729E-03,   3.58558E-03,  -1.92003E-03,   1.78585E-03
C:/temp/dataset/6/19_4.odb,Step-1,Increment      1: Step Time =    1.000,"PART-1-1",           446,          8.75,          -30.,            0.,NA,NA,"",            0.,   464.144E-42,  -2.48970E-39,   1.43363E-03
C:/temp/dataset/6/19_4.odb,Step-1,Increment      1: Step Time =    1.000,"PART-1-1",           447,       4.20973,      -27.9354,            0.,NA,NA,"",   7.43060E-03,   7.34022E-03,   1.15546E-03,   2.67279E-03
C:/temp/dataset/6/19_4.odb,Step-1,Increment      1: Step Time =    1.000,"PART-1-1",           448,       2.74203,      -28.9082,            0.,NA,NA,"",   4.50491E-03,   4.49358E-03,   319.335E-06,   2.83516E-03
C:/temp/dataset/6/19_4.odb,Step-1,Increment      1: Step Time =    1.000,"PART-1-1",           449,          3.75,          -30.,            0.,NA,NA,"",            0.,   2.26611E-39,   366.987E-42,   2.29533E-03
C:/temp/dataset/6/19_4.odb,Step-1,Increment      1: Step Time =    1.000,"PART-1-1",           450,       1.16266,      -25.9573,            0.,NA,NA,"",   17.9486E-03,   17.9272E-03,   874.863E-06,   3.72432E-03
C:/temp/dataset/6/19_4.odb,Step-1,Increment      1: Step Time =    1.000,"PART-1-1",           451,       1.65415,      -27.4536,            0.,NA,NA,"",   11.1947E-03,   11.1729E-03,   697.287E-06,   3.18691E-03
C:/temp/dataset/6/19_4.odb,Step-1,Increment      1: Step Time =    1.000,"PART-1-1",           452,       3.39879,      -26.8461,            0.,NA,NA,"",   12.6375E-03,   12.4613E-03,   2.10317E-03,   3.24817E-03
C:/temp/dataset/6/19_4.odb,Step-1,Increment      1: Step Time =    1.000,"PART-1-1",           453,       2.90730,      -25.3498,            0.,NA,NA,"",   19.6635E-03,   19.3623E-03,   3.42836E-03,   3.67328E-03
C:/temp/dataset/6/19_4.odb,Step-1,Increment      1: Step Time =    1.000,"PART-1-1",           454,      -3.67645,      -27.5530,            0.,NA,NA,"",   9.60820E-03,   9.31760E-03,  -2.34516E-03,   3.08022E-03
C:/temp/dataset/6/19_4.odb,Step-1,Increment      1: Step Time =    1.000,"PART-1-1",           455,      -2.54816,      -26.3074,            0.,NA,NA,"",   16.1290E-03,   15.7440E-03,  -3.50301E-03,   3.76395E-03
C:/temp/dataset/6/19_4.odb,Step-1,Increment      1: Step Time =    1.000,"PART-1-1",           456,      -3.72120,      -25.1278,            0.,NA,NA,"",   20.8710E-03,   19.9968E-03,  -5.97721E-03,   3.94106E-03
C:/temp/dataset/6/19_4.odb,Step-1,Increment      1: Step Time =    1.000,"PART-1-1",           457,      -4.84948,      -26.3734,            0.,NA,NA,"",   13.6102E-03,   13.0217E-03,  -3.95915E-03,   3.18522E-03
C:/temp/dataset/6/19_4.odb,Step-1,Increment      1: Step Time =    1.000,"PART-1-1",           458,      -4.94498,      -28.7931,            0.,NA,NA,"",   3.66497E-03,   3.57945E-03,  -787.100E-06,   2.26702E-03
C:/temp/dataset/6/19_4.odb,Step-1,Increment      1: Step Time =    1.000,"PART-1-1",           459,         -3.75,          -30.,            0.,NA,NA,"",            0.,   2.14325E-39,  -1.16701E-39,   2.27463E-03
C:/temp/dataset/6/19_4.odb,Step-1,Increment      1: Step Time =    1.000,"PART-1-1",           460,      -6.07748,      -27.5364,            0.,NA,NA,"",   7.05623E-03,   6.88895E-03,  -1.52734E-03,   2.25953E-03
C:/temp/dataset/6/19_4.odb,Step-1,Increment      1: Step Time =    1.000,"PART-1-1",           461,      -7.38250,      -28.7433,            0.,NA,NA,"",   2.20432E-03,   2.19788E-03,   168.387E-06,   1.22117E-03
C:/temp/dataset/6/19_4.odb,Step-1,Increment      1: Step Time =    1.000,"PART-1-1",           462,         -6.25,          -30.,            0.,NA,NA,"",            0.,   1.08196E-39,  -129.226E-42,   1.18449E-03
C:/temp/dataset/6/19_4.odb,Step-1,Increment      1: Step Time =    1.000,"PART-1-1",           463,      -8.77755,      -24.1806,            0.,NA,NA,"",   22.0338E-03,   21.5493E-03,   4.59532E-03,   1.17302E-03
C:/temp/dataset/6/19_4.odb,Step-1,Increment      1: Step Time =    1.000,"PART-1-1",           464,      -9.92276,      -23.8066,            0.,NA,NA,"",   27.5988E-03,   25.0259E-03,   11.6360E-03,   2.48512E-03
C:/temp/dataset/6/19_4.odb,Step-1,Increment      1: Step Time =    1.000,"PART-1-1",           465,      -10.3347,      -25.6230,            0.,NA,NA,"",   17.2040E-03,   14.1943E-03,   9.72108E-03,   2.83862E-03
C:/temp/dataset/6/19_4.odb,Step-1,Increment      1: Step Time =    1.000,"PART-1-1",           466,       13.9544,      -21.3085,            0.,NA,NA,"",   68.6982E-03,   49.0466E-03,  -48.1028E-03,   5.97828E-03
C:/temp/dataset/6/19_4.odb,Step-1,Increment      1: Step Time =    1.000,"PART-1-1",           467,       13.8855,      -23.5136,            0.,NA,NA,"",   47.6405E-03,   31.5930E-03,  -35.6580E-03,   6.02496E-03
C:/temp/dataset/6/19_4.odb,Step-1,Increment      1: Step Time =    1.000,"PART-1-1",           468,           15.,      -22.3438,            0.,NA,NA,"",   66.7744E-03,   43.3703E-03,  -50.7724E-03,   7.13766E-03
C:/temp/dataset/6/19_4.odb,Step-1,Increment      1: Step Time =    1.000,"PART-1-1",           469,       12.7349,      -24.6944,            0.,NA,NA,"",   31.3528E-03,   21.5547E-03,  -22.7682E-03,   4.96779E-03
C:/temp/dataset/6/19_4.odb,Step-1,Increment      1: Step Time =    1.000,"PART-1-1",           470,       13.8494,      -25.7120,            0.,NA,NA,"",   30.2290E-03,   18.9269E-03,  -23.5704E-03,   6.02569E-03
C:/temp/dataset/6/19_4.odb,Step-1,Increment      1: Step Time =    1.000,"PART-1-1",           471,           15.,      -24.5313,            0.,NA,NA,"",   46.4685E-03,   28.5287E-03,  -36.6802E-03,   7.03277E-03
C:/temp/dataset/6/19_4.odb,Step-1,Increment      1: Step Time =    1.000,"PART-1-1",           472,         11.25,          -30.,            0.,NA,NA,"",            0.,   434.602E-42,  -5.90625E-39,   2.99262E-03
C:/temp/dataset/6/19_4.odb,Step-1,Increment      1: Step Time =    1.000,"PART-1-1",           473,       13.9950,      -12.5232,            0.,NA,NA,"",   189.736E-03,   170.239E-03,  -83.7763E-03,   2.34018E-03
C:/temp/dataset/6/19_4.odb,Step-1,Increment      1: Step Time =    1.000,"PART-1-1",           474,       12.9942,      -13.6844,            0.,NA,NA,"",   164.167E-03,   149.822E-03,  -67.1124E-03,   3.23333E-03
C:/temp/dataset/6/19_4.odb,Step-1,Increment      1: Step Time =    1.000,"PART-1-1",           475,           15.,      -13.5938,            0.,NA,NA,"",   181.562E-03,   153.556E-03,  -96.8773E-03,   3.05751E-03
C:/temp/dataset/6/19_4.odb,Step-1,Increment      1: Step Time =    1.000,"PART-1-1",           476,       9.85236,      -17.2546,            0.,NA,NA,"",   92.3318E-03,   89.4187E-03,  -23.0100E-03,   3.50908E-03
C:/temp/dataset/6/19_4.odb,Step-1,Increment      1: Step Time =    1.000,"PART-1-1",           477,       8.68427,      -17.7513,            0.,NA,NA,"",   81.5849E-03,   80.8802E-03,  -10.6999E-03,   3.45410E-03
C:/temp/dataset/6/19_4.odb,Step-1,Increment      1: Step Time =    1.000,"PART-1-1",           478,       8.96140,      -18.9835,            0.,NA,NA,"",   65.4002E-03,   64.2828E-03,  -12.0379E-03,   3.25410E-03
C:/temp/dataset/6/19_4.odb,Step-1,Increment      1: Step Time =    1.000,"PART-1-1",           479,       10.1295,      -18.4868,            0.,NA,NA,"",   76.1441E-03,   72.4443E-03,  -23.4467E-03,   3.44063E-03
C:/temp/dataset/6/19_4.odb,Step-1,Increment      1: Step Time =    1.000,"PART-1-1",           480,       11.2436,      -18.3856,            0.,NA,NA,"",   83.0030E-03,   75.5729E-03,  -34.3256E-03,   3.75120E-03
C:/temp/dataset/6/19_4.odb,Step-1,Increment      1: Step Time =    1.000,"PART-1-1",           481,       12.3956,      -19.2305,            0.,NA,NA,"",   79.6713E-03,   67.1445E-03,  -42.8851E-03,   4.33595E-03
C:/temp/dataset/6/19_4.odb,Step-1,Increment      1: Step Time =    1.000,"PART-1-1",           482,       13.1120,      -18.1414,            0.,NA,NA,"",   98.6623E-03,   82.2018E-03,  -54.5630E-03,   4.51408E-03
C:/temp/dataset/6/19_4.odb,Step-1,Increment      1: Step Time =    1.000,"PART-1-1",           483,       11.9600,      -17.2965,            0.,NA,NA,"",   102.105E-03,   91.7246E-03,  -44.8556E-03,   3.90064E-03
C:/temp/dataset/6/19_4.odb,Step-1,Increment      1: Step Time =    1.000,"PART-1-1",           484,       14.0024,      -3.77677,            0.,NA,NA,"",   314.372E-03,   303.411E-03,  -82.2878E-03,   1.87666E-03
C:/temp/dataset/6/19_4.odb,Step-1,Increment      1: Step Time =    1.000,"PART-1-1",           485,       13.0359,      -4.87313,            0.,NA,NA,"",   299.642E-03,   290.823E-03,  -72.1640E-03,   1.17252E-03
C:/temp/dataset/6/19_4.odb,Step-1,Increment      1: Step Time =    1.000,"PART-1-1",           486,       14.0335,      -5.94012,            0.,NA,NA,"",   288.814E-03,   275.788E-03,  -85.7554E-03,   1.65772E-03
C:/temp/dataset/6/19_4.odb,Step-1,Increment      1: Step Time =    1.000,"PART-1-1",           487,           15.,      -4.84375,            0.,NA,NA,"",   304.981E-03,   289.369E-03,  -96.3292E-03,   2.45555E-03
C:/temp/dataset/6/19_4.odb,Step-1,Increment      1: Step Time =    1.000,"PART-1-1",           488,       13.0510,      -7.01836,            0.,NA,NA,"",   271.044E-03,   260.787E-03,  -73.8553E-03,   1.50956E-03
C:/temp/dataset/6/19_4.odb,Step-1,Increment      1: Step Time =    1.000,"PART-1-1",           489,       14.0175,      -8.10950,            0.,NA,NA,"",   258.734E-03,   243.532E-03,  -87.3832E-03,   1.14668E-03
C:/temp/dataset/6/19_4.odb,Step-1,Increment      1: Step Time =    1.000,"PART-1-1",           490,           15.,      -7.03125,            0.,NA,NA,"",   278.156E-03,   259.328E-03,  -100.597E-03,   1.72375E-03
C:/temp/dataset/6/19_4.odb,Step-1,Increment      1: Step Time =    1.000,"PART-1-1",           491,         13.75,            5.,            0.,NA,NA,"",   390.950E-03,   384.018E-03,  -73.2983E-03,   129.771E-06
C:/temp/dataset/6/19_4.odb,Step-1,Increment      1: Step Time =    1.000,"PART-1-1",           492,       12.4982,       3.90020,            0.,NA,NA,"",   379.017E-03,   373.994E-03,  -61.4992E-03,   631.442E-06
C:/temp/dataset/6/19_4.odb,Step-1,Increment      1: Step Time =    1.000,"PART-1-1",           493,       13.7482,       2.80645,            0.,NA,NA,"",   372.054E-03,   364.755E-03,  -73.3350E-03,   599.296E-06
C:/temp/dataset/6/19_4.odb,Step-1,Increment      1: Step Time =    1.000,"PART-1-1",           494,           15.,       3.90625,            0.,NA,NA,"",   383.623E-03,   374.193E-03,  -84.5351E-03,   112.937E-06
C:/temp/dataset/6/19_4.odb,Step-1,Increment      1: Step Time =    1.000,"PART-1-1",           495,         11.25,            5.,            0.,NA,NA,"",   386.488E-03,   383.247E-03,  -49.9502E-03,   924.990E-06
C:/temp/dataset/6/19_4.odb,Step-1,Increment      1: Step Time =    1.000,"PART-1-1",           496,       11.2740,       2.82937,            0.,NA,NA,"",   368.012E-03,   364.671E-03,  -49.4693E-03,   1.22698E-03
C:/temp/dataset/6/19_4.odb,Step-1,Increment      1: Step Time =    1.000,"PART-1-1",           497,       11.1422,   446.578E-03,            0.,NA,NA,"",   349.090E-03,   345.764E-03,  -48.0697E-03,   1.41081E-03
C:/temp/dataset/6/19_4.odb,Step-1,Increment      1: Step Time =    1.000,"PART-1-1",           498,       10.2035,  -836.101E-03,            0.,NA,NA,"",   337.679E-03,   335.473E-03,  -38.5304E-03,   1.24905E-03
C:/temp/dataset/6/19_4.odb,Step-1,Increment      1: Step Time =    1.000,"PART-1-1",           499,       11.7017,      -1.82731,            0.,NA,NA,"",   330.322E-03,   325.765E-03,  -54.6793E-03,   1.16866E-03
C:/temp/dataset/6/19_4.odb,Step-1,Increment      1: Step Time =    1.000,"PART-1-1",           500,       12.5035,       1.67834,            0.,NA,NA,"",   360.846E-03,   355.549E-03,  -61.5984E-03,   1.24021E-03
C:/temp/dataset/6/19_4.odb,Step-1,Increment      1: Step Time =    1.000,"PART-1-1",           501,       9.91277,       1.59761,            0.,NA,NA,"",   356.500E-03,   354.680E-03,  -35.9767E-03,   1.38902E-03
C:/temp/dataset/6/19_4.odb,Step-1,Increment      1: Step Time =    1.000,"PART-1-1",           502,       5.19643,       3.92738,            0.,NA,NA,"",   366.255E-03,   366.252E-03,  -1.42762E-03,   1.79802E-03
C:/temp/dataset/6/19_4.odb,Step-1,Increment      1: Step Time =    1.000,"PART-1-1",           503,          3.75,            5.,            0.,NA,NA,"",   369.005E-03,   368.981E-03,   4.17681E-03,   2.03751E-03
C:/temp/dataset/6/19_4.odb,Step-1,Increment      1: Step Time =    1.000,"PART-1-1",           504,       2.66615,       3.61346,            0.,NA,NA,"",   361.960E-03,   361.856E-03,   8.68948E-03,   1.40015E-03
C:/temp/dataset/6/19_4.odb,Step-1,Increment      1: Step Time =    1.000,"PART-1-1",           505,      -1.00804,       2.95894,            0.,NA,NA,"",   359.931E-03,   359.635E-03,   14.5863E-03,   2.37522E-03
C:/temp/dataset/6/19_4.odb,Step-1,Increment      1: Step Time =    1.000,"PART-1-1",           506,   87.8012E-03,       3.95476,            0.,NA,NA,"",   362.929E-03,   362.673E-03,   13.6402E-03,   1.26231E-03
C:/temp/dataset/6/19_4.odb,Step-1,Increment      1: Step Time =    1.000,"PART-1-1",           507,         -1.25,            5.,            0.,NA,NA,"",   366.539E-03,   366.188E-03,   16.0217E-03,   1.25740E-03
C:/temp/dataset/6/19_4.odb,Step-1,Increment      1: Step Time =    1.000,"PART-1-1",           508,      -2.34584,       4.00418,            0.,NA,NA,"",   365.789E-03,   365.398E-03,   16.9087E-03,   2.12481E-03
C:/temp/dataset/6/19_4.odb,Step-1,Increment      1: Step Time =    1.000,"PART-1-1",           509,      -3.27281,       2.96378,            0.,NA,NA,"",   363.179E-03,   362.748E-03,   17.6785E-03,   2.16887E-03
C:/temp/dataset/6/19_4.odb,Step-1,Increment      1: Step Time =    1.000,"PART-1-1",           510,         -3.75,            5.,            0.,NA,NA,"",   372.198E-03,   371.613E-03,   20.8501E-03,   3.29834E-03
C:/temp/dataset/6/19_4.odb,Step-1,Increment      1: Step Time =    1.000,"PART-1-1",           511,      -4.67697,       3.95960,            0.,NA,NA,"",   370.303E-03,   369.640E-03,   22.1514E-03,   2.55336E-03
C:/temp/dataset/6/19_4.odb,Step-1,Increment      1: Step Time =    1.000,"PART-1-1",           512,      -7.93004,       8.58536,            0.,NA,NA,"",   402.737E-03,   400.659E-03,   40.8639E-03,   76.2146E-06
C:/temp/dataset/6/19_4.odb,Step-1,Increment      1: Step Time =    1.000,"PART-1-1",           513,      -8.65034,       7.25415,            0.,NA,NA,"",   396.193E-03,   393.664E-03,   44.6947E-03,   362.097E-06
C:/temp/dataset/6/19_4.odb,Step-1,Increment      1: Step Time =    1.000,"PART-1-1",           514,      -7.51010,       6.50150,            0.,NA,NA,"",   391.006E-03,   389.102E-03,   38.5383E-03,   520.785E-06
C:/temp/dataset/6/19_4.odb,Step-1,Increment      1: Step Time =    1.000,"PART-1-1",           515,      -6.78981,       7.83270,            0.,NA,NA,"",   397.990E-03,   396.474E-03,   34.7102E-03,   127.076E-06
C:/temp/dataset/6/19_4.odb,Step-1,Increment      1: Step Time =    1.000,"PART-1-1",           516,      -7.08495,       12.0475,            0.,NA,NA,"",   420.252E-03,   418.686E-03,   36.2457E-03,   67.4765E-06
C:/temp/dataset/6/19_4.odb,Step-1,Increment      1: Step Time =    1.000,"PART-1-1",           517,      -6.02998,       11.1050,            0.,NA,NA,"",   414.939E-03,   413.802E-03,   30.6944E-03,   74.6846E-06
C:/temp/dataset/6/19_4.odb,Step-1,Increment      1: Step Time =    1.000,"PART-1-1",           518,           -5.,       12.2917,            0.,NA,NA,"",   420.658E-03,   419.892E-03,   25.3800E-03,   73.0097E-06
C:/temp/dataset/6/19_4.odb,Step-1,Increment      1: Step Time =    1.000,"PART-1-1",           519,      -6.05497,       13.2342,            0.,NA,NA,"",   425.899E-03,   424.779E-03,   30.8705E-03,   34.1400E-06
C:/temp/dataset/6/19_4.odb,Step-1,Increment      1: Step Time =    1.000,"PART-1-1",           520,      -9.96524,       21.0498,            0.,NA,NA,"",   467.890E-03,   465.104E-03,   50.9892E-03,   959.750E-09
C:/temp/dataset/6/19_4.odb,Step-1,Increment      1: Step Time =    1.000,"PART-1-1",           521,      -8.51702,       20.1362,            0.,NA,NA,"",   462.423E-03,   460.370E-03,   43.5256E-03,   1.15868E-06
C:/temp/dataset/6/19_4.odb,Step-1,Increment      1: Step Time =    1.000,"PART-1-1",           522,      -8.09442,       21.6565,            0.,NA,NA,"",   470.031E-03,   468.211E-03,   41.3236E-03,   421.339E-09
C:/temp/dataset/6/19_4.odb,Step-1,Increment      1: Step Time =    1.000,"PART-1-1",           523,      -9.54264,       22.5701,            0.,NA,NA,"",   475.456E-03,   472.946E-03,   48.7873E-03,   275.801E-09
C:/temp/dataset/6/19_4.odb,Step-1,Increment      1: Step Time =    1.000,"PART-1-1",           524,      -7.38593,       19.0122,            0.,NA,NA,"",   456.117E-03,   454.556E-03,   37.7020E-03,   3.28341E-06
C:/temp/dataset/6/19_4.odb,Step-1,Increment      1: Step Time =    1.000,"PART-1-1",           525,      -6.14460,       17.5723,            0.,NA,NA,"",   448.210E-03,   447.115E-03,   31.3129E-03,   3.29254E-06
C:/temp/dataset/6/19_4.odb,Step-1,Increment      1: Step Time =    1.000,"PART-1-1",           526,           -5.,       18.5417,            0.,NA,NA,"",   452.811E-03,   452.098E-03,   25.3956E-03,   800.899E-09
C:/temp/dataset/6/19_4.odb,Step-1,Increment      1: Step Time =    1.000,"PART-1-1",           527,      -9.12859,       24.1056,            0.,NA,NA,"",   483.123E-03,   480.867E-03,   46.6297E-03,   213.770E-09
C:/temp/dataset/6/19_4.odb,Step-1,Increment      1: Step Time =    1.000,"PART-1-1",           528,      -7.82088,       23.2603,            0.,NA,NA,"",   478.153E-03,   476.486E-03,   39.8904E-03,   224.397E-09
C:/temp/dataset/6/19_4.odb,Step-1,Increment      1: Step Time =    1.000,"PART-1-1",           529,      -7.11221,       24.6459,            0.,NA,NA,"",   484.983E-03,   483.629E-03,   36.2139E-03,   234.160E-09
C:/temp/dataset/6/19_4.odb,Step-1,Increment      1: Step Time =    1.000,"PART-1-1",           530,      -8.41993,       25.4912,            0.,NA,NA,"",   489.897E-03,   488.011E-03,   42.9532E-03,   182.980E-09
C:/temp/dataset/6/19_4.odb,Step-1,Increment      1: Step Time =    1.000,"PART-1-1",           531,           -5.,       28.9583,            0.,NA,NA,"",   506.494E-03,   505.864E-03,   25.2527E-03,   17.8965E-09
C:/temp/dataset/6/19_4.odb,Step-1,Increment      1: Step Time =    1.000,"PART-1-1",           532,         -6.25,           30.,            0.,NA,NA,"",   512.239E-03,   511.258E-03,   31.6917E-03,   17.6867E-09
C:/temp/dataset/6/19_4.odb,Step-1,Increment      1: Step Time =    1.000,"PART-1-1",           533,      -6.22481,       27.8751,            0.,NA,NA,"",   501.284E-03,   500.288E-03,   31.5900E-03,   70.3331E-09
C:/temp/dataset/6/19_4.odb,Step-1,Increment      1: Step Time =    1.000,"PART-1-1",           534,      -11.1386,       27.5393,            0.,NA,NA,"",   501.863E-03,   498.620E-03,   56.9606E-03,   106.822E-09
C:/temp/dataset/6/19_4.odb,Step-1,Increment      1: Step Time =    1.000,"PART-1-1",           535,        -11.25,           30.,            0.,NA,NA,"",   514.548E-03,   511.325E-03,   57.5031E-03,   81.9640E-09
C:/temp/dataset/6/19_4.odb,Step-1,Increment      1: Step Time =    1.000,"PART-1-1",           536,      -13.1147,       13.7606,            0.,NA,NA,"",   432.724E-03,   427.452E-03,   67.3398E-03,   35.4636E-06
C:/temp/dataset/6/19_4.odb,Step-1,Increment      1: Step Time =    1.000,"PART-1-1",           537,      -14.0658,       14.9906,            0.,NA,NA,"",   439.808E-03,   433.837E-03,   72.2273E-03,   13.7742E-06
C:/temp/dataset/6/19_4.odb,Step-1,Increment      1: Step Time =    1.000,"PART-1-1",           538,          -15.,         13.75,            0.,NA,NA,"",   434.324E-03,   427.435E-03,   77.0466E-03,   32.3767E-06
C:/temp/dataset/6/19_4.odb,Step-1,Increment      1: Step Time =    1.000,"PART-1-1",           539,      -9.42834,       18.6970,            0.,NA,NA,"",   455.515E-03,   452.953E-03,   48.2514E-03,   4.71874E-06
C:/temp/dataset/6/19_4.odb,Step-1,Increment      1: Step Time =    1.000,"PART-1-1",           540,      -8.29725,       17.5730,            0.,NA,NA,"",   449.151E-03,   447.143E-03,   42.4289E-03,   6.25824E-06
C:/temp/dataset/6/19_4.odb,Step-1,Increment      1: Step Time =    1.000,"PART-1-1",           541,      -12.7588,       6.21303,            0.,NA,NA,"",   394.920E-03,   389.431E-03,   65.6149E-03,   248.634E-06
C:/temp/dataset/6/19_4.odb,Step-1,Increment      1: Step Time =    1.000,"PART-1-1",           542,          -15.,          6.25,            0.,NA,NA,"",   397.121E-03,   389.760E-03,   76.1070E-03,   230.389E-06
C:/temp/dataset/6/19_4.odb,Step-1,Increment      1: Step Time =    1.000,"PART-1-1",           543,      -9.01063,       9.47069,            0.,NA,NA,"",   407.979E-03,   405.320E-03,   46.5043E-03,   81.9412E-06
C:/temp/dataset/6/19_4.odb,Step-1,Increment      1: Step Time =    1.000,"PART-1-1",           544,      -10.0811,       10.4578,            0.,NA,NA,"",   413.686E-03,   410.409E-03,   51.9660E-03,   86.9247E-06
C:/temp/dataset/6/19_4.odb,Step-1,Increment      1: Step Time =    1.000,"PART-1-1",           545,      -10.9384,       9.05000,            0.,NA,NA,"",   407.095E-03,   403.162E-03,   56.4555E-03,   72.1933E-06
C:/temp/dataset/6/19_4.odb,Step-1,Increment      1: Step Time =    1.000,"PART-1-1",           546,      -9.86794,       8.06293,            0.,NA,NA,"",   401.333E-03,   398.074E-03,   51.0420E-03,   113.535E-06
C:/temp/dataset/6/19_4.odb,Step-1,Increment      1: Step Time =    1.000,"PART-1-1",           547,      -7.23366,       1.29985,            0.,NA,NA,"",   364.581E-03,   363.282E-03,   30.7504E-03,   2.99716E-03
C:/temp/dataset/6/19_4.odb,Step-1,Increment      1: Step Time =    1.000,"PART-1-1",           548,      -8.34685,   784.410E-03,            0.,NA,NA,"",   365.736E-03,   363.905E-03,   36.5529E-03,   3.41993E-03
C:/temp/dataset/6/19_4.odb,Step-1,Increment      1: Step Time =    1.000,"PART-1-1",           549,      -7.43977,  -685.632E-03,            0.,NA,NA,"",   356.482E-03,   355.442E-03,   27.2096E-03,   3.82330E-03
C:/temp/dataset/6/19_4.odb,Step-1,Increment      1: Step Time =    1.000,"PART-1-1",           550,      -12.4903,      -8.57964,            0.,NA,NA,"",   285.883E-03,   278.175E-03,   65.9386E-03,   3.90965E-03
C:/temp/dataset/6/19_4.odb,Step-1,Increment      1: Step Time =    1.000,"PART-1-1",           551,          -15.,         -8.75,            0.,NA,NA,"",   293.983E-03,   273.724E-03,   107.243E-03,   2.00349E-03
C:/temp/dataset/6/19_4.odb,Step-1,Increment      1: Step Time =    1.000,"PART-1-1",           552,      -13.5658,      -9.92286,            0.,NA,NA,"",   265.276E-03,   251.838E-03,   83.3597E-03,   1.96638E-03
C:/temp/dataset/6/19_4.odb,Step-1,Increment      1: Step Time =    1.000,"PART-1-1",           553,      -11.9783,      -7.15971,            0.,NA,NA,"",   309.202E-03,   303.552E-03,   58.8356E-03,   3.43340E-03
C:/temp/dataset/6/19_4.odb,Step-1,Increment      1: Step Time =    1.000,"PART-1-1",           554,      -11.8960,      -5.22799,            0.,NA,NA,"",   337.332E-03,   332.262E-03,   58.2671E-03,   2.67408E-03
C:/temp/dataset/6/19_4.odb,Step-1,Increment      1: Step Time =    1.000,"PART-1-1",           555,      -12.4565,      -16.3452,            0.,NA,NA,"",   139.469E-03,   126.448E-03,   58.8423E-03,   4.43551E-03
C:/temp/dataset/6/19_4.odb,Step-1,Increment      1: Step Time =    1.000,"PART-1-1",           556,          -15.,        -16.25,            0.,NA,NA,"",   165.140E-03,   133.305E-03,   97.4719E-03,   5.12241E-03
C:/temp/dataset/6/19_4.odb,Step-1,Increment      1: Step Time =    1.000,"PART-1-1",           557,      -13.7435,      -17.5611,            0.,NA,NA,"",   129.954E-03,   108.081E-03,   72.1558E-03,   5.23648E-03
C:/temp/dataset/6/19_4.odb,Step-1,Increment      1: Step Time =    1.000,"PART-1-1",           558,      -9.99221,      -8.41662,            0.,NA,NA,"",   281.744E-03,   279.595E-03,   34.7302E-03,   4.31385E-03
C:/temp/dataset/6/19_4.odb,Step-1,Increment      1: Step Time =    1.000,"PART-1-1",           559,      -11.4633,      -9.12095,            0.,NA,NA,"",   272.437E-03,   267.336E-03,   52.4768E-03,   4.07829E-03
C:/temp/dataset/6/19_4.odb,Step-1,Increment      1: Step Time =    1.000,"PART-1-1",           560,      -10.8070,      -10.1141,            0.,NA,NA,"",   251.534E-03,   247.692E-03,   43.7992E-03,   4.33530E-03
C:/temp/dataset/6/19_4.odb,Step-1,Increment      1: Step Time =    1.000,"PART-1-1",           561,      -13.9189,      -24.9166,            0.,NA,NA,"",   41.6290E-03,   26.1255E-03,   32.4103E-03,   7.01511E-03
C:/temp/dataset/6/19_4.odb,Step-1,Increment      1: Step Time =    1.000,"PART-1-1",           562,      -12.9076,      -23.6273,            0.,NA,NA,"",   45.9671E-03,   32.3073E-03,   32.6989E-03,   5.80833E-03
C:/temp/dataset/6/19_4.odb,Step-1,Increment      1: Step Time =    1.000,"PART-1-1",           563,          -15.,        -23.75,            0.,NA,NA,"",   61.1789E-03,   38.0349E-03,   47.9187E-03,   8.23211E-03
C:/temp/dataset/6/19_4.odb,Step-1,Increment      1: Step Time =    1.000,"PART-1-1",           564,          -15.,        -28.75,            0.,NA,NA,"",   14.2027E-03,   9.57137E-03,   10.4931E-03,   9.24040E-03
C:/temp/dataset/6/19_4.odb,Step-1,Increment      1: Step Time =    1.000,"PART-1-1",           565,        -13.75,          -30.,            0.,NA,NA,"",            0.,   59.3240E-42,   11.2905E-39,   7.54327E-03
C:/temp/dataset/6/19_4.odb,Step-1,Increment      1: Step Time =    1.000,"PART-1-1",           566,      -13.7642,      -27.4123,            0.,NA,NA,"",   19.4393E-03,   11.5313E-03,   15.6498E-03,   7.15601E-03
C:/temp/dataset/6/19_4.odb,Step-1,Increment      1: Step Time =    1.000,"PART-1-1",           567,            5.,      -6.25625,            0.,NA,NA,"",   275.460E-03,   274.503E-03,   22.9456E-03,   7.54377E-03
C:/temp/dataset/6/19_4.odb,Step-1,Increment      1: Step Time =    1.000,"PART-1-1",           568,       7.03347,      -6.11658,            0.,NA,NA,"",   279.487E-03,   279.456E-03,  -4.13013E-03,   3.93028E-03
C:/temp/dataset/6/19_4.odb,Step-1,Increment      1: Step Time =    1.000,"PART-1-1",           569,       6.04361,      -4.83741,            0.,NA,NA,"",   302.151E-03,   302.122E-03,   4.23531E-03,   6.65328E-03
C:/temp/dataset/6/19_4.odb,Step-1,Increment      1: Step Time =    1.000,"PART-1-1",           570,           15.,      -2.65625,            0.,NA,NA,"",   327.774E-03,   314.789E-03,  -91.3422E-03,   2.38283E-03
C:/temp/dataset/6/19_4.odb,Step-1,Increment      1: Step Time =    1.000,"PART-1-1",           571,       12.8875,      -2.72454,            0.,NA,NA,"",   323.261E-03,   315.953E-03,  -68.3469E-03,   1.15623E-03
C:/temp/dataset/6/19_4.odb,Step-1,Increment      1: Step Time =    1.000,"PART-1-1",           572,       10.0248,      -7.91896,            0.,NA,NA,"",   250.399E-03,   247.714E-03,  -36.5728E-03,   3.23187E-03
C:/temp/dataset/6/19_4.odb,Step-1,Increment      1: Step Time =    1.000,"PART-1-1",           573,       8.98203,      -8.99604,            0.,NA,NA,"",   230.317E-03,   229.187E-03,  -22.7917E-03,   3.62243E-03
C:/temp/dataset/6/19_4.odb,Step-1,Increment      1: Step Time =    1.000,"PART-1-1",           574,       9.98204,      -10.2112,            0.,NA,NA,"",   210.996E-03,   208.281E-03,  -33.7405E-03,   3.43707E-03
C:/temp/dataset/6/19_4.odb,Step-1,Increment      1: Step Time =    1.000,"PART-1-1",           575,            5.,      -11.2813,            0.,NA,NA,"",   191.286E-03,   187.472E-03,   38.0069E-03,   972.254E-06
C:/temp/dataset/6/19_4.odb,Step-1,Increment      1: Step Time =    1.000,"PART-1-1",           576,       6.96001,      -11.3098,            0.,NA,NA,"",   187.812E-03,   187.663E-03,   7.47989E-03,   2.34950E-03
C:/temp/dataset/6/19_4.odb,Step-1,Increment      1: Step Time =    1.000,"PART-1-1",           577,       12.1169,      -5.93459,            0.,NA,NA,"",   283.984E-03,   277.182E-03,  -61.7837E-03,   1.55581E-03
C:/temp/dataset/6/19_4.odb,Step-1,Increment      1: Step Time =    1.000,"PART-1-1",           578,       11.1088,      -6.97100,            0.,NA,NA,"",   267.153E-03,   262.460E-03,  -49.8532E-03,   2.34820E-03
C:/temp/dataset/6/19_4.odb,Step-1,Increment      1: Step Time =    1.000,"PART-1-1",           579,           15.,      -11.4063,            0.,NA,NA,"",   215.016E-03,   189.568E-03,  -101.468E-03,   1.31712E-03
C:/temp/dataset/6/19_4.odb,Step-1,Increment      1: Step Time =    1.000,"PART-1-1",           580,       13.9991,      -10.3053,            0.,NA,NA,"",   225.072E-03,   207.663E-03,  -86.7959E-03,   1.31522E-03
C:/temp/dataset/6/19_4.odb,Step-1,Increment      1: Step Time =    1.000,"PART-1-1",           581,       12.9941,      -11.4223,            0.,NA,NA,"",   201.336E-03,   188.338E-03,  -71.1707E-03,   2.60236E-03
C:/temp/dataset/6/19_4.odb,Step-1,Increment      1: Step Time =    1.000,"PART-1-1",           582,           15.,      -9.21875,            0.,NA,NA,"",   247.733E-03,   225.483E-03,  -102.612E-03,   373.154E-06
C:/temp/dataset/6/19_4.odb,Step-1,Increment      1: Step Time =    1.000,"PART-1-1",           583,       9.25975,      -25.9916,            0.,NA,NA,"",   11.9143E-03,   11.0388E-03,  -4.48276E-03,   1.65176E-03
C:/temp/dataset/6/19_4.odb,Step-1,Increment      1: Step Time =    1.000,"PART-1-1",           584,       7.97004,      -27.0667,            0.,NA,NA,"",   7.22350E-03,   7.15654E-03,  -981.268E-06,   1.44445E-03
C:/temp/dataset/6/19_4.odb,Step-1,Increment      1: Step Time =    1.000,"PART-1-1",           585,       9.98268,      -20.3187,            0.,NA,NA,"",   53.5845E-03,   50.4297E-03,  -18.1148E-03,   3.08077E-03
C:/temp/dataset/6/19_4.odb,Step-1,Increment      1: Step Time =    1.000,"PART-1-1",           586,       8.47236,      -19.9740,            0.,NA,NA,"",   52.0342E-03,   51.6115E-03,  -6.61962E-03,   2.86673E-03
C:/temp/dataset/6/19_4.odb,Step-1,Increment      1: Step Time =    1.000,"PART-1-1",           587,       7.80775,      -21.2882,            0.,NA,NA,"",   37.9529E-03,   37.9486E-03,  -571.242E-06,   1.83065E-03
C:/temp/dataset/6/19_4.odb,Step-1,Increment      1: Step Time =    1.000,"PART-1-1",           588,       9.31806,      -21.6330,            0.,NA,NA,"",   38.5233E-03,   37.0708E-03,  -10.4787E-03,   2.05641E-03
C:/temp/dataset/6/19_4.odb,Step-1,Increment      1: Step Time =    1.000,"PART-1-1",           589,          3.75,          -20.,            0.,NA,NA,"",   37.5949E-03,   36.7313E-03,   8.01205E-03,   5.98649E-03
C:/temp/dataset/6/19_4.odb,Step-1,Increment      1: Step Time =    1.000,"PART-1-1",           590,       2.69482,      -20.9389,            0.,NA,NA,"",   35.0340E-03,   34.4810E-03,   6.20025E-03,   2.44012E-03
C:/temp/dataset/6/19_4.odb,Step-1,Increment      1: Step Time =    1.000,"PART-1-1",           591,       4.10336,      -21.5712,            0.,NA,NA,"",   36.7370E-03,   35.1530E-03,   10.6713E-03,   4.45252E-03
C:/temp/dataset/6/19_4.odb,Step-1,Increment      1: Step Time =    1.000,"PART-1-1",           592,       5.15854,      -20.6323,            0.,NA,NA,"",   42.9601E-03,   40.2822E-03,   14.9305E-03,   6.68287E-03
C:/temp/dataset/6/19_4.odb,Step-1,Increment      1: Step Time =    1.000,"PART-1-1",           593,          1.25,          -20.,            0.,NA,NA,"",   31.7505E-03,   31.7003E-03,   1.78357E-03,   834.063E-06
C:/temp/dataset/6/19_4.odb,Step-1,Increment      1: Step Time =    1.000,"PART-1-1",           594,       1.58638,      -22.3782,            0.,NA,NA,"",   31.2424E-03,   31.0793E-03,   3.18886E-03,   3.45554E-03
C:/temp/dataset/6/19_4.odb,Step-1,Increment      1: Step Time =    1.000,"PART-1-1",           595,      -7.18878,      -21.5166,            0.,NA,NA,"",   40.2125E-03,   39.9735E-03,  -4.37782E-03,   2.40808E-03
C:/temp/dataset/6/19_4.odb,Step-1,Increment      1: Step Time =    1.000,"PART-1-1",           596,      -8.69544,      -20.4918,            0.,NA,NA,"",   54.6452E-03,   54.0060E-03,   8.33364E-03,   3.52001E-03
C:/temp/dataset/6/19_4.odb,Step-1,Increment      1: Step Time =    1.000,"PART-1-1",           597,      -9.53108,      -21.9939,            0.,NA,NA,"",   41.3700E-03,   39.3659E-03,   12.7201E-03,   2.63357E-03
C:/temp/dataset/6/19_4.odb,Step-1,Increment      1: Step Time =    1.000,"PART-1-1",           598,      -8.02442,      -23.0186,            0.,NA,NA,"",   28.9581E-03,   28.9391E-03,   1.04974E-03,   964.973E-06
C:/temp/dataset/6/19_4.odb,Step-1,Increment      1: Step Time =    1.000,"PART-1-1",           599,           -5.,      -18.7437,            0.,NA,NA,"",   83.3698E-03,   77.4181E-03,  -30.9348E-03,   8.53759E-03
C:/temp/dataset/6/19_4.odb,Step-1,Increment      1: Step Time =    1.000,"PART-1-1",           600,      -6.23242,      -17.5731,            0.,NA,NA,"",   99.1209E-03,   97.5232E-03,  -17.7249E-03,   3.86152E-03
C:/temp/dataset/6/19_4.odb,Step-1,Increment      1: Step Time =    1.000,"PART-1-1",           601,      -7.41830,      -18.9573,            0.,NA,NA,"",   72.4977E-03,   72.4769E-03,  -1.73452E-03,   4.51824E-03
C:/temp/dataset/6/19_4.odb,Step-1,Increment      1: Step Time =    1.000,"PART-1-1",           602,      -6.18588,      -20.1280,            0.,NA,NA,"",   52.8175E-03,   51.3383E-03,  -12.4126E-03,   6.39282E-03
C:/temp/dataset/6/19_4.odb,Step-1,Increment      1: Step Time =    1.000,"PART-1-1",           603,           -5.,      -16.2312,            0.,NA,NA,"",   132.233E-03,   125.081E-03,  -42.9006E-03,   2.68134E-03
C:/temp/dataset/6/19_4.odb,Step-1,Increment      1: Step Time =    1.000,"PART-1-1",           604,      -7.44257,      -16.3835,            0.,NA,NA,"",   120.498E-03,   120.447E-03,  -3.50854E-03,   4.37473E-03
C:/temp/dataset/6/19_4.odb,Step-1,Increment      1: Step Time =    1.000,"PART-1-1",           605,      -12.6830,      -26.0788,            0.,NA,NA,"",   24.3978E-03,   15.6386E-03,   18.7266E-03,   5.68878E-03
C:/temp/dataset/6/19_4.odb,Step-1,Increment      1: Step Time =    1.000,"PART-1-1",           606,          -15.,        -26.25,            0.,NA,NA,"",   37.0419E-03,   21.9912E-03,   29.8075E-03,   8.29290E-03
C:/temp/dataset/6/19_4.odb,Step-1,Increment      1: Step Time =    1.000,"PART-1-1",           607,         -8.75,          -30.,            0.,NA,NA,"",            0.,   286.877E-42,   2.53900E-39,   1.37563E-03
C:/temp/dataset/6/19_4.odb,Step-1,Increment      1: Step Time =    1.000,"PART-1-1",           608,          -15.,        -18.75,            0.,NA,NA,"",   125.328E-03,   93.2397E-03,   83.7460E-03,   7.02331E-03
C:/temp/dataset/6/19_4.odb,Step-1,Increment      1: Step Time =    1.000,"PART-1-1",           609,      -12.5734,      -18.8685,            0.,NA,NA,"",   99.4197E-03,   84.8481E-03,   51.8177E-03,   4.91825E-03
C:/temp/dataset/6/19_4.odb,Step-1,Increment      1: Step Time =    1.000,"PART-1-1",           610,           -5.,      -11.2063,            0.,NA,NA,"",   224.715E-03,   220.790E-03,  -41.8153E-03,   2.95357E-03
C:/temp/dataset/6/19_4.odb,Step-1,Increment      1: Step Time =    1.000,"PART-1-1",           611,      -7.25264,      -11.4522,            0.,NA,NA,"",   218.757E-03,   218.702E-03,  -4.90663E-03,   3.87766E-03
C:/temp/dataset/6/19_4.odb,Step-1,Increment      1: Step Time =    1.000,"PART-1-1",           612,           -5.,      -6.23750,            0.,NA,NA,"",   307.582E-03,   307.205E-03,  -15.2230E-03,   10.3674E-03
C:/temp/dataset/6/19_4.odb,Step-1,Increment      1: Step Time =    1.000,"PART-1-1",           613,      -6.16987,      -5.46941,            0.,NA,NA,"",   322.397E-03,   322.394E-03,   1.41756E-03,   6.50976E-03
C:/temp/dataset/6/19_4.odb,Step-1,Increment      1: Step Time =    1.000,"PART-1-1",           614,      -7.24309,      -6.98789,            0.,NA,NA,"",   301.249E-03,   301.179E-03,   6.50748E-03,   4.21218E-03
C:/temp/dataset/6/19_4.odb,Step-1,Increment      1: Step Time =    1.000,"PART-1-1",           615,           -5.,       16.4583,            0.,NA,NA,"",   442.089E-03,   441.357E-03,   25.4205E-03,   6.65969E-06
C:/temp/dataset/6/19_4.odb,Step-1,Increment      1: Step Time =    1.000,"PART-1-1",           616,      -7.23328,       16.4840,            0.,NA,NA,"",   443.063E-03,   441.520E-03,   36.9487E-03,   12.8001E-06
C:/temp/dataset/6/19_4.odb,Step-1,Increment      1: Step Time =    1.000,"PART-1-1",           617,      -6.08867,       15.3700,            0.,NA,NA,"",   436.873E-03,   435.769E-03,   31.0449E-03,   12.1818E-06
C:/temp/dataset/6/19_4.odb,Step-1,Increment      1: Step Time =    1.000,"PART-1-1",           618,      -13.1522,       16.1892,            0.,NA,NA,"",   445.175E-03,   440.027E-03,   67.5057E-03,   13.0934E-06
C:/temp/dataset/6/19_4.odb,Step-1,Increment      1: Step Time =    1.000,"PART-1-1",           619,      -14.0864,       17.4486,            0.,NA,NA,"",   452.370E-03,   446.552E-03,   72.3128E-03,   3.07357E-06
C:/temp/dataset/6/19_4.odb,Step-1,Increment      1: Step Time =    1.000,"PART-1-1",           620,          -15.,         16.25,            0.,NA,NA,"",   447.057E-03,   440.368E-03,   77.0458E-03,   7.38532E-06
C:/temp/dataset/6/19_4.odb,Step-1,Increment      1: Step Time =    1.000,"PART-1-1",           621,           -5.,       24.7917,            0.,NA,NA,"",   485.015E-03,   484.354E-03,   25.3086E-03,   330.916E-09
C:/temp/dataset/6/19_4.odb,Step-1,Increment      1: Step Time =    1.000,"PART-1-1",           622,      -6.14442,       25.7689,            0.,NA,NA,"",   490.407E-03,   489.414E-03,   31.2031E-03,   156.636E-09
C:/temp/dataset/6/19_4.odb,Step-1,Increment      1: Step Time =    1.000,"PART-1-1",           623,           -5.,        26.875,            0.,NA,NA,"",   495.754E-03,   495.109E-03,   25.2805E-03,   117.158E-09
C:/temp/dataset/6/19_4.odb,Step-1,Increment      1: Step Time =    1.000,"PART-1-1",           624,      -7.36924,       26.7689,            0.,NA,NA,"",   496.013E-03,   494.593E-03,   37.5124E-03,   165.117E-09
C:/temp/dataset/6/19_4.odb,Step-1,Increment      1: Step Time =    1.000,"PART-1-1",           625,      -13.1175,       20.9132,            0.,NA,NA,"",   469.284E-03,   464.439E-03,   67.2652E-03,   477.636E-09
C:/temp/dataset/6/19_4.odb,Step-1,Increment      1: Step Time =    1.000,"PART-1-1",           626,      -14.0212,       22.2867,            0.,NA,NA,"",   476.994E-03,   471.542E-03,   71.9129E-03,   369.579E-09
C:/temp/dataset/6/19_4.odb,Step-1,Increment      1: Step Time =    1.000,"PART-1-1",           627,          -15.,         21.25,            0.,NA,NA,"",   472.515E-03,   466.202E-03,   76.9810E-03,   724.172E-09
C:/temp/dataset/6/19_4.odb,Step-1,Increment      1: Step Time =    1.000,"PART-1-1",           628,      -14.0963,       19.8765,            0.,NA,NA,"",   464.761E-03,   459.098E-03,   72.3331E-03,   515.854E-09
C:/temp/dataset/6/19_4.odb,Step-1,Increment      1: Step Time =    1.000,"PART-1-1",           629,         -1.25,           -5.,            0.,NA,NA,"",   328.926E-03,   328.792E-03,   9.37945E-03,   1.57791E-03
C:/temp/dataset/6/19_4.odb,Step-1,Increment      1: Step Time =    1.000,"PART-1-1",           630,      -1.77292,      -3.03732,            0.,NA,NA,"",   332.513E-03,   332.356E-03,   10.2189E-03,   2.75802E-03
C:/temp/dataset/6/19_4.odb,Step-1,Increment      1: Step Time =    1.000,"PART-1-1",           631,      -12.1053,      -2.30059,            0.,NA,NA,"",   364.788E-03,   359.497E-03,   61.9055E-03,   3.49525E-03
C:/temp/dataset/6/19_4.odb,Step-1,Increment      1: Step Time =    1.000,"PART-1-1",           632,      -10.7648,      -1.40855,            0.,NA,NA,"",   364.438E-03,   360.827E-03,   51.1742E-03,   3.69386E-03
C:/temp/dataset/6/19_4.odb,Step-1,Increment      1: Step Time =    1.000,"PART-1-1",           633,      -11.5438,  -354.672E-03,            0.,NA,NA,"",   371.319E-03,   366.662E-03,   58.6264E-03,   3.64175E-03
C:/temp/dataset/6/19_4.odb,Step-1,Increment      1: Step Time =    1.000,"PART-1-1",           634,          3.75,           -5.,            0.,NA,NA,"",   312.818E-03,   312.723E-03,   7.73710E-03,   7.83019E-03
C:/temp/dataset/6/19_4.odb,Step-1,Increment      1: Step Time =    1.000,"PART-1-1",           635,       4.52066,      -3.83856,            0.,NA,NA,"",   314.658E-03,   314.458E-03,   11.2275E-03,   6.90320E-03
C:/temp/dataset/6/19_4.odb,Step-1,Increment      1: Step Time =    1.000,"PART-1-1",           636,       2.94662,      -2.72704,            0.,NA,NA,"",   325.101E-03,   324.922E-03,   10.7737E-03,   3.72655E-03
C:/temp/dataset/6/19_4.odb,Step-1,Increment      1: Step Time =    1.000,"PART-1-1",           637,       1.50395,       2.56821,            0.,NA,NA,"",   356.820E-03,   356.635E-03,   11.4746E-03,   2.16696E-03
C:/temp/dataset/6/19_4.odb,Step-1,Increment      1: Step Time =    1.000,"PART-1-1",           638,          1.25,            5.,            0.,NA,NA,"",   365.853E-03,   365.671E-03,   11.5539E-03,   635.243E-06
C:/temp/dataset/6/19_4.odb,Step-1,Increment      1: Step Time =    1.000,"PART-1-1",           639,          6.25,            5.,            0.,NA,NA,"",   374.733E-03,   374.633E-03,  -8.66351E-03,   2.51743E-03
C:/temp/dataset/6/19_4.odb,Step-1,Increment      1: Step Time =    1.000,"PART-1-1",           640,  -213.968E-03,      -26.0734,            0.,NA,NA,"",   17.7246E-03,   17.6957E-03,  -1.01245E-03,   3.73837E-03
C:/temp/dataset/6/19_4.odb,Step-1,Increment      1: Step Time =    1.000,"PART-1-1",           641,       1.14210,      -23.8512,            0.,NA,NA,"",   26.6945E-03,   26.6506E-03,   1.52942E-03,   3.77235E-03
C:/temp/dataset/6/19_4.odb,Step-1,Increment      1: Step Time =    1.000,"PART-1-1",           642,  -234.527E-03,      -23.9674,            0.,NA,NA,"",   26.5447E-03,   26.5131E-03,  -1.29454E-03,   3.81664E-03
C:/temp/dataset/6/19_4.odb,Step-1,Increment      1: Step Time =    1.000,"PART-1-1",           643,           -5.,        14.375,            0.,NA,NA,"",   431.376E-03,   430.625E-03,   25.4272E-03,   26.1598E-06
C:/temp/dataset/6/19_4.odb,Step-1,Increment      1: Step Time =    1.000,"PART-1-1",           644,      -7.14364,       14.2292,            0.,NA,NA,"",   431.459E-03,   429.911E-03,   36.5173E-03,   33.2815E-06
C:/temp/dataset/6/19_4.odb,Step-1,Increment      1: Step Time =    1.000,"PART-1-1",           645,           -5.,       6.04167,            0.,NA,NA,"",   386.207E-03,   385.452E-03,   24.1419E-03,   900.346E-06
C:/temp/dataset/6/19_4.odb,Step-1,Increment      1: Step Time =    1.000,"PART-1-1",           646,      -5.82078,       6.95384,            0.,NA,NA,"",   392.333E-03,   391.242E-03,   29.2418E-03,   404.806E-06
C:/temp/dataset/6/19_4.odb,Step-1,Increment      1: Step Time =    1.000,"PART-1-1",           647,      -6.45742,       5.85906,            0.,NA,NA,"",   385.847E-03,   384.452E-03,   32.7714E-03,   1.13601E-03
C:/temp/dataset/6/19_4.odb,Step-1,Increment      1: Step Time =    1.000,"PART-1-1",           648,      -5.63664,       4.94688,            0.,NA,NA,"",   378.092E-03,   377.066E-03,   27.8278E-03,   2.36869E-03
C:/temp/dataset/6/19_4.odb,Step-1,Increment      1: Step Time =    1.000,"PART-1-1",           649,           -5.,         8.125,            0.,NA,NA,"",   398.731E-03,   397.964E-03,   24.7291E-03,   324.214E-06
C:/temp/dataset/6/19_4.odb,Step-1,Increment      1: Step Time =    1.000,"PART-1-1",           650,      -5.96903,       9.00386,            0.,NA,NA,"",   403.941E-03,   402.808E-03,   30.2340E-03,   141.823E-06
C:/temp/dataset/6/19_4.odb,Step-1,Increment      1: Step Time =    1.000,"PART-1-1",           651,          -15.,         -3.75,            0.,NA,NA,"",   365.164E-03,   354.062E-03,   89.3587E-03,   5.37727E-03
C:/temp/dataset/6/19_4.odb,Step-1,Increment      1: Step Time =    1.000,"PART-1-1",           652,      -12.7846,      -3.59401,            0.,NA,NA,"",   358.214E-03,   351.736E-03,   67.8149E-03,   3.07835E-03
C:/temp/dataset/6/19_4.odb,Step-1,Increment      1: Step Time =    1.000,"PART-1-1",           653,      -11.5430,      -4.20540,            0.,NA,NA,"",   347.473E-03,   343.062E-03,   55.1931E-03,   2.63029E-03
C:/temp/dataset/6/19_4.odb,Step-1,Increment      1: Step Time =    1.000,"PART-1-1",           654,      -10.1018,      -4.29084,            0.,NA,NA,"",   341.505E-03,   339.078E-03,   40.6500E-03,   2.27082E-03
C:/temp/dataset/6/19_4.odb,Step-1,Increment      1: Step Time =    1.000,"PART-1-1",           655,          -15.,        -11.25,            0.,NA,NA,"",   251.257E-03,   226.379E-03,   109.008E-03,   389.514E-06
C:/temp/dataset/6/19_4.odb,Step-1,Increment      1: Step Time =    1.000,"PART-1-1",           656,      -12.2331,      -11.1785,            0.,NA,NA,"",   235.542E-03,   226.942E-03,   63.0639E-03,   3.67756E-03
C:/temp/dataset/6/19_4.odb,Step-1,Increment      1: Step Time =    1.000,"PART-1-1",           657,       5.21391,      -1.02834,            0.,NA,NA,"",   334.785E-03,   334.771E-03,   3.04082E-03,   2.23762E-03
C:/temp/dataset/6/19_4.odb,Step-1,Increment      1: Step Time =    1.000,"PART-1-1",           658,       6.72319,      -1.59046,            0.,NA,NA,"",   330.594E-03,   330.546E-03,  -5.66431E-03,   1.87773E-03
C:/temp/dataset/6/19_4.odb,Step-1,Increment      1: Step Time =    1.000,"PART-1-1",           659,       10.9187,      -16.2245,            0.,NA,NA,"",   112.289E-03,   106.308E-03,  -36.1596E-03,   3.71163E-03
C:/temp/dataset/6/19_4.odb,Step-1,Increment      1: Step Time =    1.000,"PART-1-1",           660,       11.9858,      -14.8752,            0.,NA,NA,"",   138.947E-03,   129.061E-03,  -51.4736E-03,   3.57715E-03
C:/temp/dataset/6/19_4.odb,Step-1,Increment      1: Step Time =    1.000,"PART-1-1",           661,       10.9746,      -13.7451,            0.,NA,NA,"",   152.744E-03,   147.045E-03,  -41.3344E-03,   3.63122E-03
C:/temp/dataset/6/19_4.odb,Step-1,Increment      1: Step Time =    1.000,"PART-1-1",           662,       11.9830,      -12.5543,            0.,NA,NA,"",   177.288E-03,   168.229E-03,  -55.9467E-03,   3.23162E-03
C:/temp/dataset/6/19_4.odb,Step-1,Increment      1: Step Time =    1.000,"PART-1-1",           663,           15.,      -20.1563,            0.,NA,NA,"",   90.5901E-03,   63.2573E-03,  -64.8466E-03,   6.86578E-03
C:/temp/dataset/6/19_4.odb,Step-1,Increment      1: Step Time =    1.000,"PART-1-1",           664,       14.0841,      -19.1367,            0.,NA,NA,"",   94.2172E-03,   71.9862E-03,  -60.7855E-03,   5.67405E-03
C:/temp/dataset/6/19_4.odb,Step-1,Increment      1: Step Time =    1.000,"PART-1-1",           665,       13.0385,      -20.2889,            0.,NA,NA,"",   72.2475E-03,   56.7313E-03,  -44.7356E-03,   4.85480E-03
C:/temp/dataset/6/19_4.odb,Step-1,Increment      1: Step Time =    1.000,"PART-1-1",           666,           15.,      -17.9688,            0.,NA,NA,"",   118.148E-03,   88.7771E-03,  -77.9590E-03,   6.04594E-03
C:/temp/dataset/6/19_4.odb,Step-1,Increment      1: Step Time =    1.000,"PART-1-1",           667,          1.25,          -30.,            0.,NA,NA,"",            0.,   2.91470E-39,  -58.4650E-42,   2.89323E-03
C:/temp/dataset/6/19_4.odb,Step-1,Increment      1: Step Time =    1.000,"PART-1-1",           668,       3.30543,      -22.6598,            0.,NA,NA,"",   31.4160E-03,   30.5816E-03,   7.19252E-03,   4.23326E-03
C:/temp/dataset/6/19_4.odb,Step-1,Increment      1: Step Time =    1.000,"PART-1-1",           669,       2.86115,      -24.1329,            0.,NA,NA,"",   25.1750E-03,   24.7309E-03,   4.70758E-03,   4.08936E-03
C:/temp/dataset/6/19_4.odb,Step-1,Increment      1: Step Time =    1.000,"PART-1-1",           670,      -10.6801,      -21.6169,            0.,NA,NA,"",   50.8405E-03,   45.3656E-03,   22.9505E-03,   3.74352E-03
C:/temp/dataset/6/19_4.odb,Step-1,Increment      1: Step Time =    1.000,"PART-1-1",           671,      -11.3394,      -20.4213,            0.,NA,NA,"",   68.8797E-03,   60.5343E-03,   32.8634E-03,   4.34246E-03
C:/temp/dataset/6/19_4.odb,Step-1,Increment      1: Step Time =    1.000,"PART-1-1",           672,      -12.1593,      -22.4638,            0.,NA,NA,"",   51.6817E-03,   40.3309E-03,   32.3174E-03,   4.92589E-03
C:/temp/dataset/6/19_4.odb,Step-1,Increment      1: Step Time =    1.000,"PART-1-1",           673,      -9.92443,      -16.4516,            0.,NA,NA,"",   124.008E-03,   121.002E-03,   27.1413E-03,   4.84433E-03
C:/temp/dataset/6/19_4.odb,Step-1,Increment      1: Step Time =    1.000,"PART-1-1",           674,      -8.71114,      -17.7111,            0.,NA,NA,"",   97.2418E-03,   96.4959E-03,   12.0210E-03,   4.71534E-03
C:/temp/dataset/6/19_4.odb,Step-1,Increment      1: Step Time =    1.000,"PART-1-1",           675,      -9.25100,      -7.50767,            0.,NA,NA,"",   296.035E-03,   294.786E-03,   27.1639E-03,   3.89541E-03
C:/temp/dataset/6/19_4.odb,Step-1,Increment      1: Step Time =    1.000,"PART-1-1",           676,      -8.32615,      -6.25855,            0.,NA,NA,"",   313.566E-03,   312.963E-03,   19.4379E-03,   3.53080E-03
C:/temp/dataset/6/19_4.odb,Step-1,Increment      1: Step Time =    1.000,"PART-1-1",           677,      -7.58018,      -5.09368,            0.,NA,NA,"",   327.569E-03,   327.221E-03,   15.1009E-03,   3.10464E-03
C:/temp/dataset/6/19_4.odb,Step-1,Increment      1: Step Time =    1.000,"PART-1-1",           678,      -6.67379,      -3.84489,            0.,NA,NA,"",   336.772E-03,   336.577E-03,   11.4693E-03,   4.67669E-03
C:/temp/dataset/6/19_4.odb,Step-1,Increment      1: Step Time =    1.000,"PART-1-1",           679,      -2.40491,      -1.03021,            0.,NA,NA,"",   341.716E-03,   341.499E-03,   12.1622E-03,   3.74169E-03
C:/temp/dataset/6/19_4.odb,Step-1,Increment      1: Step Time =    1.000,"PART-1-1",           680,      -3.32453,      -2.14711,            0.,NA,NA,"",   337.631E-03,   337.469E-03,   10.4387E-03,   3.93074E-03
C:/temp/dataset/6/19_4.odb,Step-1,Increment      1: Step Time =    1.000,"PART-1-1",           681,       10.4745,      -24.8101,            0.,NA,NA,"",   20.5559E-03,   17.3523E-03,  -11.0201E-03,   2.61068E-03
C:/temp/dataset/6/19_4.odb,Step-1,Increment      1: Step Time =    1.000,"PART-1-1",           682,       8.16019,      -23.0435,            0.,NA,NA,"",   26.1591E-03,   26.0805E-03,  -2.02710E-03,   672.971E-06
C:/temp/dataset/6/19_4.odb,Step-1,Increment      1: Step Time =    1.000,"PART-1-1",           683,       9.40124,      -23.8494,            0.,NA,NA,"",   23.1611E-03,   21.8652E-03,  -7.63866E-03,   1.56331E-03
C:/temp/dataset/6/19_4.odb,Step-1,Increment      1: Step Time =    1.000,"PART-1-1",           684,       5.67200,      -27.0943,            0.,NA,NA,"",   9.17750E-03,   9.04540E-03,   1.55155E-03,   2.42265E-03
C:/temp/dataset/6/19_4.odb,Step-1,Increment      1: Step Time =    1.000,"PART-1-1",           685,       4.86106,      -26.0050,            0.,NA,NA,"",   14.7123E-03,   14.3554E-03,   3.22065E-03,   2.99042E-03
C:/temp/dataset/6/19_4.odb,Step-1,Increment      1: Step Time =    1.000,"PART-1-1",           686,      -2.55341,      -23.8484,            0.,NA,NA,"",   27.8942E-03,   27.1400E-03,  -6.44222E-03,   4.45851E-03
C:/temp/dataset/6/19_4.odb,Step-1,Increment      1: Step Time =    1.000,"PART-1-1",           687,      -4.82130,      -23.8875,            0.,NA,NA,"",   26.4678E-03,   25.1478E-03,  -8.25408E-03,   4.02050E-03
C:/temp/dataset/6/19_4.odb,Step-1,Increment      1: Step Time =    1.000,"PART-1-1",           688,      -5.84083,      -25.1777,            0.,NA,NA,"",   18.1502E-03,   17.5019E-03,  -4.80757E-03,   2.78068E-03
C:/temp/dataset/6/19_4.odb,Step-1,Increment      1: Step Time =    1.000,"PART-1-1",           689,           15.,      -26.7188,            0.,NA,NA,"",   29.1056E-03,   17.6085E-03,  -23.1750E-03,   7.20815E-03
C:/temp/dataset/6/19_4.odb,Step-1,Increment      1: Step Time =    1.000,"PART-1-1",           690,       10.9874,      -11.4075,            0.,NA,NA,"",   192.951E-03,   187.658E-03,  -44.8808E-03,   3.47159E-03
C:/temp/dataset/6/19_4.odb,Step-1,Increment      1: Step Time =    1.000,"PART-1-1",           691,       7.29436,      -19.7763,            0.,NA,NA,"",   51.8206E-03,   51.7693E-03,   2.30479E-03,   3.29605E-03
C:/temp/dataset/6/19_4.odb,Step-1,Increment      1: Step Time =    1.000,"PART-1-1",           692,       7.78340,      -18.7858,            0.,NA,NA,"",   65.5280E-03,   65.5041E-03,  -1.77095E-03,   3.48771E-03
C:/temp/dataset/6/19_4.odb,Step-1,Increment      1: Step Time =    1.000,"PART-1-1",           693,       10.8970,      -2.99004,            0.,NA,NA,"",   318.114E-03,   314.710E-03,  -46.4067E-03,   914.011E-06
C:/temp/dataset/6/19_4.odb,Step-1,Increment      1: Step Time =    1.000,"PART-1-1",           694,       12.0828,      -3.88727,            0.,NA,NA,"",   309.609E-03,   303.698E-03,  -60.2071E-03,   1.03746E-03
C:/temp/dataset/6/19_4.odb,Step-1,Increment      1: Step Time =    1.000,"PART-1-1",           695,           15.,       1.71875,            0.,NA,NA,"",   365.302E-03,   355.273E-03,  -85.0095E-03,   735.801E-06
C:/temp/dataset/6/19_4.odb,Step-1,Increment      1: Step Time =    1.000,"PART-1-1",           696,       4.00043,  -427.215E-03,            0.,NA,NA,"",   338.841E-03,   338.766E-03,   7.09721E-03,   2.63508E-03
C:/temp/dataset/6/19_4.odb,Step-1,Increment      1: Step Time =    1.000,"PART-1-1",           697,       2.09609,       1.00148,            0.,NA,NA,"",   348.190E-03,   348.024E-03,   10.7515E-03,   2.64834E-03
C:/temp/dataset/6/19_4.odb,Step-1,Increment      1: Step Time =    1.000,"PART-1-1",           698,       2.38138,  -554.063E-03,            0.,NA,NA,"",   338.930E-03,   338.759E-03,   10.7641E-03,   3.22106E-03
C:/temp/dataset/6/19_4.odb,Step-1,Increment      1: Step Time =    1.000,"PART-1-1",           699,   35.7305E-03,       2.11113,            0.,NA,NA,"",   355.181E-03,   354.934E-03,   13.2456E-03,   2.75276E-03
C:/temp/dataset/6/19_4.odb,Step-1,Increment      1: Step Time =    1.000,"PART-1-1",           700,           -5.,       10.2083,            0.,NA,NA,"",   409.852E-03,   409.076E-03,   25.2064E-03,   178.058E-06
C:/temp/dataset/6/19_4.odb,Step-1,Increment      1: Step Time =    1.000,"PART-1-1",           701,      -6.99901,       9.90050,            0.,NA,NA,"",   409.136E-03,   407.564E-03,   35.8299E-03,   94.3501E-06
C:/temp/dataset/6/19_4.odb,Step-1,Increment      1: Step Time =    1.000,"PART-1-1",           702,      -11.2396,       16.2208,            0.,NA,NA,"",   443.936E-03,   440.177E-03,   57.6454E-03,   15.9578E-06
C:/temp/dataset/6/19_4.odb,Step-1,Increment      1: Step Time =    1.000,"PART-1-1",           703,      -10.2112,       15.1096,            0.,NA,NA,"",   437.582E-03,   434.437E-03,   52.3713E-03,   22.4010E-06
C:/temp/dataset/6/19_4.odb,Step-1,Increment      1: Step Time =    1.000,"PART-1-1",           704,      -9.25876,       16.3324,            0.,NA,NA,"",   443.293E-03,   440.750E-03,   47.4199E-03,   15.8426E-06
C:/temp/dataset/6/19_4.odb,Step-1,Increment      1: Step Time =    1.000,"PART-1-1",           705,      -10.2871,       17.4437,            0.,NA,NA,"",   449.590E-03,   446.490E-03,   52.7063E-03,   7.36784E-06
C:/temp/dataset/6/19_4.odb,Step-1,Increment      1: Step Time =    1.000,"PART-1-1",           706,      -8.19479,       15.2434,            0.,NA,NA,"",   437.151E-03,   435.134E-03,   41.9442E-03,   19.7485E-06
C:/temp/dataset/6/19_4.odb,Step-1,Increment      1: Step Time =    1.000,"PART-1-1",           707,      -9.19446,       14.0222,            0.,NA,NA,"",   431.420E-03,   428.835E-03,   47.1577E-03,   39.3607E-06
C:/temp/dataset/6/19_4.odb,Step-1,Increment      1: Step Time =    1.000,"PART-1-1",           708,      -8.14331,       13.0080,            0.,NA,NA,"",   425.676E-03,   423.624E-03,   41.7437E-03,   45.8055E-06
C:/temp/dataset/6/19_4.odb,Step-1,Increment      1: Step Time =    1.000,"PART-1-1",           709,          -15.,         18.75,            0.,NA,NA,"",   459.787E-03,   453.290E-03,   77.0162E-03,   321.483E-09
C:/temp/dataset/6/19_4.odb,Step-1,Increment      1: Step Time =    1.000,"PART-1-1",           710,      -13.1826,       18.5751,            0.,NA,NA,"",   457.391E-03,   452.363E-03,   67.6326E-03,   3.44917E-06
C:/temp/dataset/6/19_4.odb,Step-1,Increment      1: Step Time =    1.000,"PART-1-1",           711,      -11.2313,       23.3702,            0.,NA,NA,"",   480.551E-03,   477.099E-03,   57.4945E-03,   209.774E-09
C:/temp/dataset/6/19_4.odb,Step-1,Increment      1: Step Time =    1.000,"PART-1-1",           712,      -10.8173,       24.9058,            0.,NA,NA,"",   488.167E-03,   485.021E-03,   55.3368E-03,   199.541E-09
C:/temp/dataset/6/19_4.odb,Step-1,Increment      1: Step Time =    1.000,"PART-1-1",           713,      -13.5418,       24.7667,            0.,NA,NA,"",   489.287E-03,   484.339E-03,   69.4041E-03,   188.687E-09
C:/temp/dataset/6/19_4.odb,Step-1,Increment      1: Step Time =    1.000,"PART-1-1",           714,      -12.2278,       25.9824,            0.,NA,NA,"",   494.576E-03,   490.597E-03,   62.6042E-03,   194.447E-09
C:/temp/dataset/6/19_4.odb,Step-1,Increment      1: Step Time =    1.000,"PART-1-1",           715,          -15.,         26.25,            0.,NA,NA,"",   497.991E-03,   492.016E-03,   76.9122E-03,   173.056E-09
C:/temp/dataset/6/19_4.odb,Step-1,Increment      1: Step Time =    1.000,"PART-1-1",           716,          -15.,         23.75,            0.,NA,NA,"",   485.249E-03,   479.110E-03,   76.9462E-03,   468.738E-09
C:/temp/dataset/6/19_4.odb,Step-1,Increment      1: Step Time =    1.000,"PART-1-1",           717,      -12.5630,       23.3034,            0.,NA,NA,"",   481.098E-03,   476.772E-03,   64.3705E-03,   207.361E-09
C:/temp/dataset/6/19_4.odb,Step-1,Increment      1: Step Time =    1.000,"PART-1-1",           718,      -11.1827,       13.8735,            0.,NA,NA,"",   431.873E-03,   428.039E-03,   57.4190E-03,   39.9495E-06
C:/temp/dataset/6/19_4.odb,Step-1,Increment      1: Step Time =    1.000,"PART-1-1",           719,      -10.1659,       12.7861,            0.,NA,NA,"",   425.654E-03,   422.437E-03,   52.2363E-03,   52.0880E-06
C:/temp/dataset/6/19_4.odb,Step-1,Increment      1: Step Time =    1.000,"PART-1-1",           720,      -11.4858,       20.4947,            0.,NA,NA,"",   465.987E-03,   462.257E-03,   58.8463E-03,   1.22633E-06
C:/temp/dataset/6/19_4.odb,Step-1,Increment      1: Step Time =    1.000,"PART-1-1",           721,      -10.4732,       19.7487,            0.,NA,NA,"",   461.519E-03,   458.392E-03,   53.6296E-03,   1.78089E-06
C:/temp/dataset/6/19_4.odb,Step-1,Increment      1: Step Time =    1.000,"PART-1-1",           722,      -10.9778,       21.7959,            0.,NA,NA,"",   472.324E-03,   468.968E-03,   56.2064E-03,   352.795E-09
C:/temp/dataset/6/19_4.odb,Step-1,Increment      1: Step Time =    1.000,"PART-1-1",           723,      -9.13796,       11.7463,            0.,NA,NA,"",   419.737E-03,   417.098E-03,   46.9858E-03,   71.5002E-06
C:/temp/dataset/6/19_4.odb,Step-1,Increment      1: Step Time =    1.000,"PART-1-1",           724,      -11.1090,       11.4975,            0.,NA,NA,"",   419.663E-03,   415.753E-03,   57.1561E-03,   68.4481E-06
C:/temp/dataset/6/19_4.odb,Step-1,Increment      1: Step Time =    1.000,"PART-1-1",           725,      -7.95801,       5.48811,            0.,NA,NA,"",   385.885E-03,   383.759E-03,   40.4545E-03,   1.14759E-03
C:/temp/dataset/6/19_4.odb,Step-1,Increment      1: Step Time =    1.000,"PART-1-1",           726,      -9.27172,       5.51676,            0.,NA,NA,"",   387.964E-03,   385.040E-03,   47.5443E-03,   802.977E-06
C:/temp/dataset/6/19_4.odb,Step-1,Increment      1: Step Time =    1.000,"PART-1-1",           727,      -9.10783,       4.19071,            0.,NA,NA,"",   381.495E-03,   378.727E-03,   45.8681E-03,   1.58660E-03
C:/temp/dataset/6/19_4.odb,Step-1,Increment      1: Step Time =    1.000,"PART-1-1",           728,      -7.79412,       4.16207,            0.,NA,NA,"",   378.715E-03,   376.757E-03,   38.4537E-03,   1.89618E-03
C:/temp/dataset/6/19_4.odb,Step-1,Increment      1: Step Time =    1.000,"PART-1-1",           729,      -10.3652,   710.465E-03,            0.,NA,NA,"",   371.380E-03,   367.906E-03,   50.6800E-03,   3.28651E-03
C:/temp/dataset/6/19_4.odb,Step-1,Increment      1: Step Time =    1.000,"PART-1-1",           730,      -11.5756,       2.14983,            0.,NA,NA,"",   378.421E-03,   373.682E-03,   59.7037E-03,   2.22854E-03
C:/temp/dataset/6/19_4.odb,Step-1,Increment      1: Step Time =    1.000,"PART-1-1",           731,      -10.9514,      -7.70102,            0.,NA,NA,"",   296.857E-03,   293.200E-03,   46.4548E-03,   3.77300E-03
C:/temp/dataset/6/19_4.odb,Step-1,Increment      1: Step Time =    1.000,"PART-1-1",           732,      -11.1587,      -15.1039,            0.,NA,NA,"",   154.505E-03,   147.990E-03,   44.3943E-03,   4.46627E-03
C:/temp/dataset/6/19_4.odb,Step-1,Increment      1: Step Time =    1.000,"PART-1-1",           733,      -11.0422,      -12.5823,            0.,NA,NA,"",   203.400E-03,   198.210E-03,   45.6539E-03,   4.29323E-03
C:/temp/dataset/6/19_4.odb,Step-1,Increment      1: Step Time =    1.000,"PART-1-1",           734,      -9.98828,      -19.2456,            0.,NA,NA,"",   77.0693E-03,   73.6308E-03,   22.7634E-03,   4.20173E-03
C:/temp/dataset/6/19_4.odb,Step-1,Increment      1: Step Time =    1.000,"PART-1-1",           735,      -11.2222,      -17.6929,            0.,NA,NA,"",   108.302E-03,   100.664E-03,   39.9514E-03,   4.63673E-03
C:/temp/dataset/6/19_4.odb,Step-1,Increment      1: Step Time =    1.000,"PART-1-1",           736,      -9.72809,       26.4627,            0.,NA,NA,"",   495.542E-03,   493.044E-03,   49.6934E-03,   162.491E-09
C:/temp/dataset/6/19_4.odb,Step-1,Increment      1: Step Time =    1.000,"PART-1-1",           737,      -8.07960,       10.7858,            0.,NA,NA,"",   414.245E-03,   412.159E-03,   41.5189E-03,   79.9878E-06
C:/temp/dataset/6/19_4.odb,Step-1,Increment      1: Step Time =    1.000,"PART-1-1",           738,      -11.3320,       18.4953,            0.,NA,NA,"",   455.646E-03,   451.929E-03,   58.0813E-03,   5.05305E-06
C:/temp/dataset/6/19_4.odb,Step-1,Increment      1: Step Time =    1.000,"PART-1-1",           739,      -10.4893,       6.32554,            0.,NA,NA,"",   393.291E-03,   389.540E-03,   54.1875E-03,   505.932E-06
C:/temp/dataset/6/19_4.odb,Step-1,Increment      1: Step Time =    1.000,"PART-1-1",           740,      -11.8356,       7.66802,            0.,NA,NA,"",   400.938E-03,   396.267E-03,   61.0267E-03,   79.9570E-06
C:/temp/dataset/6/19_4.odb,Step-1,Increment      1: Step Time =    1.000,"PART-1-1",           741,      -11.4125,       4.87054,            0.,NA,NA,"",   387.804E-03,   383.309E-03,   58.8770E-03,   717.257E-06
C:/temp/dataset/6/19_4.odb,Step-1,Increment      1: Step Time =    1.000,"PART-1-1",           742,       10.1911,      -5.79504,            0.,NA,NA,"",   283.466E-03,   280.730E-03,  -39.2907E-03,   2.29261E-03
C:/temp/dataset/6/19_4.odb,Step-1,Increment      1: Step Time =    1.000,"PART-1-1",           743,       9.10708,      -6.74300,            0.,NA,NA,"",   268.517E-03,   267.197E-03,  -26.5897E-03,   3.18482E-03
C:/temp/dataset/6/19_4.odb,Step-1,Increment      1: Step Time =    1.000,"PART-1-1",           744,       11.1638,      -4.94873,            0.,NA,NA,"",   295.645E-03,   291.350E-03,  -50.2100E-03,   1.35027E-03
C:/temp/dataset/6/19_4.odb,Step-1,Increment      1: Step Time =    1.000,"PART-1-1",           745,       10.4293,      -4.08570,            0.,NA,NA,"",   305.686E-03,   302.838E-03,  -41.6319E-03,   1.26722E-03
C:/temp/dataset/6/19_4.odb,Step-1,Increment      1: Step Time =    1.000,"PART-1-1",           746,       9.97038,      -14.8971,            0.,NA,NA,"",   129.874E-03,   126.894E-03,  -27.6641E-03,   3.48406E-03
C:/temp/dataset/6/19_4.odb,Step-1,Increment      1: Step Time =    1.000,"PART-1-1",           747,       9.96577,      -12.5508,            0.,NA,NA,"",   169.892E-03,   167.107E-03,  -30.6367E-03,   3.46234E-03
C:/temp/dataset/6/19_4.odb,Step-1,Increment      1: Step Time =    1.000,"PART-1-1",           748,       8.96159,      -13.7029,            0.,NA,NA,"",   147.610E-03,   146.637E-03,  -16.9190E-03,   3.34674E-03
C:/temp/dataset/6/19_4.odb,Step-1,Increment      1: Step Time =    1.000,"PART-1-1",           749,       6.92617,      -22.4012,            0.,NA,NA,"",   30.1459E-03,   29.8604E-03,   4.13941E-03,   1.42713E-03
C:/temp/dataset/6/19_4.odb,Step-1,Increment      1: Step Time =    1.000,"PART-1-1",           750,       5.94981,      -23.5281,            0.,NA,NA,"",   25.0135E-03,   24.3325E-03,   5.79728E-03,   2.64386E-03
C:/temp/dataset/6/19_4.odb,Step-1,Increment      1: Step Time =    1.000,"PART-1-1",           751,       7.18383,      -24.1705,            0.,NA,NA,"",   20.2196E-03,   20.1496E-03,   1.68140E-03,   1.45096E-03
C:/temp/dataset/6/19_4.odb,Step-1,Increment      1: Step Time =    1.000,"PART-1-1",           752,       11.0968,      -20.2176,            0.,NA,NA,"",   60.2209E-03,   53.4990E-03,  -27.6480E-03,   3.55198E-03
C:/temp/dataset/6/19_4.odb,Step-1,Increment      1: Step Time =    1.000,"PART-1-1",           753,       6.43355,      -20.8801,            0.,NA,NA,"",   40.2669E-03,   39.4333E-03,   8.15058E-03,   2.76734E-03
C:/temp/dataset/6/19_4.odb,Step-1,Increment      1: Step Time =    1.000,"PART-1-1",           754,       8.96045,      -11.3546,            0.,NA,NA,"",   188.698E-03,   187.695E-03,  -19.4302E-03,   3.44077E-03
C:/temp/dataset/6/19_4.odb,Step-1,Increment      1: Step Time =    1.000,"PART-1-1",           755,       8.17216,      -2.03287,            0.,NA,NA,"",   326.803E-03,   326.307E-03,  -18.0119E-03,   1.42255E-03
C:/temp/dataset/6/19_4.odb,Step-1,Increment      1: Step Time =    1.000,"PART-1-1",           756,       9.68046,      -2.49017,            0.,NA,NA,"",   322.619E-03,   320.913E-03,  -33.1300E-03,   1.23800E-03
C:/temp/dataset/6/19_4.odb,Step-1,Increment      1: Step Time =    1.000,"PART-1-1",           757,      -5.24373,       2.94722,            0.,NA,NA,"",   366.810E-03,   366.049E-03,   23.6159E-03,   2.13028E-03
C:/temp/dataset/6/19_4.odb,Step-1,Increment      1: Step Time =    1.000,"PART-1-1",           758,      -6.20341,       3.93450,            0.,NA,NA,"",   373.822E-03,   372.654E-03,   29.5233E-03,   2.40482E-03
C:/temp/dataset/6/19_4.odb,Step-1,Increment      1: Step Time =    1.000,"PART-1-1",           759,       7.87036,      -17.0650,            0.,NA,NA,"",   90.9406E-03,   90.9005E-03,  -2.70254E-03,   3.30322E-03
C:/temp/dataset/6/19_4.odb,Step-1,Increment      1: Step Time =    1.000,"PART-1-1",           760,      -8.77165,      -4.61616,            0.,NA,NA,"",   334.522E-03,   333.425E-03,   27.0731E-03,   2.29009E-03
C:/temp/dataset/6/19_4.odb,Step-1,Increment      1: Step Time =    1.000,"PART-1-1",           761,       8.90402,      -15.9271,            0.,NA,NA,"",   110.339E-03,   109.391E-03,  -14.4364E-03,   3.42903E-03
C:/temp/dataset/6/19_4.odb,Step-1,Increment      1: Step Time =    1.000,"PART-1-1",           762,       7.94609,      -14.8939,            0.,NA,NA,"",   126.226E-03,   126.175E-03,  -3.60356E-03,   2.76816E-03
C:/temp/dataset/6/19_4.odb,Step-1,Increment      1: Step Time =    1.000,"PART-1-1",           763,      -12.3095,       21.7291,            0.,NA,NA,"",   472.867E-03,   468.641E-03,   63.0824E-03,   233.069E-09
C:/temp/dataset/6/19_4.odb,Step-1,Increment      1: Step Time =    1.000,"PART-1-1",           764,      -12.2938,       19.6789,            0.,NA,NA,"",   462.370E-03,   458.053E-03,   63.0290E-03,   1.46099E-06
C:/temp/dataset/6/19_4.odb,Step-1,Increment      1: Step Time =    1.000,"PART-1-1",           765,       3.72209,      -1.78065,            0.,NA,NA,"",   330.236E-03,   330.116E-03,   8.89624E-03,   3.49176E-03
C:/temp/dataset/6/19_4.odb,Step-1,Increment      1: Step Time =    1.000,"PART-1-1",           766,       6.45852,      -3.38063,            0.,NA,NA,"",   316.052E-03,   316.051E-03,  -1.01543E-03,   2.76012E-03
C:/temp/dataset/6/19_4.odb,Step-1,Increment      1: Step Time =    1.000,"PART-1-1",           767,       4.93556,      -2.38177,            0.,NA,NA,"",   325.041E-03,   324.973E-03,   6.62880E-03,   3.22038E-03
C:/temp/dataset/6/19_4.odb,Step-1,Increment      1: Step Time =    1.000,"PART-1-1",           768,      -2.94024,   945.156E-03,            0.,NA,NA,"",   352.796E-03,   352.473E-03,   15.0905E-03,   3.03145E-03
C:/temp/dataset/6/19_4.odb,Step-1,Increment      1: Step Time =    1.000,"PART-1-1",           769,      -1.69279,      -25.0756,            0.,NA,NA,"",   22.1868E-03,   21.8725E-03,  -3.72074E-03,   4.18648E-03
C:/temp/dataset/6/19_4.odb,Step-1,Increment      1: Step Time =    1.000,"PART-1-1",           770,      -6.93923,      -23.9860,            0.,NA,NA,"",   23.0574E-03,   22.7643E-03,  -3.66462E-03,   1.74225E-03
C:/temp/dataset/6/19_4.odb,Step-1,Increment      1: Step Time =    1.000,"PART-1-1",           771,      -5.91970,      -22.6959,            0.,NA,NA,"",   32.5409E-03,   31.1685E-03,  -9.35050E-03,   3.25256E-03
C:/temp/dataset/6/19_4.odb,Step-1,Increment      1: Step Time =    1.000,"PART-1-1",           772,      -12.2208,       17.3915,            0.,NA,NA,"",   450.616E-03,   446.235E-03,   62.6850E-03,   6.48191E-06
C:/temp/dataset/6/19_4.odb,Step-1,Increment      1: Step Time =    1.000,"PART-1-1",           773,      -12.0398,       10.1961,            0.,NA,NA,"",   413.700E-03,   409.035E-03,   61.9514E-03,   76.6660E-06
C:/temp/dataset/6/19_4.odb,Step-1,Increment      1: Step Time =    1.000,"PART-1-1",           774,      -10.8637,      -2.91198,            0.,NA,NA,"",   355.971E-03,   352.446E-03,   49.9730E-03,   3.11945E-03
C:/temp/dataset/6/19_4.odb,Step-1,Increment      1: Step Time =    1.000,"PART-1-1",           775,      -9.61620,      -11.5179,            0.,NA,NA,"",   220.764E-03,   219.054E-03,   27.4217E-03,   4.82473E-03
C:/temp/dataset/6/19_4.odb,Step-1,Increment      1: Step Time =    1.000,"PART-1-1",           776,      -11.8201,      -24.5932,            0.,NA,NA,"",   30.8246E-03,   22.7124E-03,   20.8399E-03,   4.62413E-03
C:/temp/dataset/6/19_4.odb,Step-1,Increment      1: Step Time =    1.000,"PART-1-1",           777,      -11.0718,      -23.4296,            0.,NA,NA,"",   35.9200E-03,   29.6992E-03,   20.2041E-03,   3.75311E-03
C:/temp/dataset/6/19_4.odb,Step-1,Increment      1: Step Time =    1.000,"PART-1-1",           778,       4.75405,      -23.0816,            0.,NA,NA,"",   28.7680E-03,   27.6100E-03,   8.08005E-03,   3.60977E-03
C:/temp/dataset/6/19_4.odb,Step-1,Increment      1: Step Time =    1.000,"PART-1-1",           779,       5.55198,      -21.9930,            0.,NA,NA,"",   33.8729E-03,   32.4836E-03,   9.60128E-03,   3.44800E-03
C:/temp/dataset/6/19_4.odb,Step-1,Increment      1: Step Time =    1.000,"PART-1-1",           780,       7.01336,      -26.0950,            0.,NA,NA,"",   11.6116E-03,   11.5801E-03,   854.652E-06,   1.85046E-03
C:/temp/dataset/6/19_4.odb,Step-1,Increment      1: Step Time =    1.000,"PART-1-1",           781,       4.10189,      -23.9882,            0.,NA,NA,"",   25.0067E-03,   24.1873E-03,   6.34920E-03,   3.82279E-03
C:/temp/dataset/6/19_4.odb,Step-1,Increment      1: Step Time =    1.000,"PART-1-1",           782,       4.14804,      -25.2051,            0.,NA,NA,"",   19.1997E-03,   18.6873E-03,   4.40600E-03,   3.51875E-03
C:/temp/dataset/6/19_4.odb,Step-1,Increment      1: Step Time =    1.000,"PART-1-1",           783,      -12.1264,       12.6156,            0.,NA,NA,"",   426.099E-03,   421.520E-03,   62.3003E-03,   48.5442E-06
C:/temp/dataset/6/19_4.odb,Step-1,Increment      1: Step Time =    1.000,"PART-1-1",           784,      -12.1709,       15.0185,            0.,NA,NA,"",   438.435E-03,   433.961E-03,   62.4692E-03,   20.4987E-06
C:/temp/dataset/6/19_4.odb,Step-1,Increment      1: Step Time =    1.000,"PART-1-1",           785,      -10.3060,       3.43341,            0.,NA,NA,"",   380.572E-03,   376.951E-03,   52.3686E-03,   1.82738E-03
C:/temp/dataset/6/19_4.odb,Step-1,Increment      1: Step Time =    1.000,"PART-1-1",           786,      -9.35047,  -311.861E-03,            0.,NA,NA,"",   364.440E-03,   362.059E-03,   41.5961E-03,   3.72123E-03
C:/temp/dataset/6/19_4.odb,Step-1,Increment      1: Step Time =    1.000,"PART-1-1",           787,      -9.47746,      -1.56252,            0.,NA,NA,"",   359.154E-03,   356.914E-03,   40.0545E-03,   3.75346E-03
C:/temp/dataset/6/19_4.odb,Step-1,Increment      1: Step Time =    1.000,"PART-1-1",           788,      -7.56677,      -1.93629,            0.,NA,NA,"",   350.609E-03,   349.767E-03,   24.2972E-03,   4.04260E-03
C:/temp/dataset/6/19_4.odb,Step-1,Increment      1: Step Time =    1.000,"PART-1-1",           789,      -9.57637,      -3.06595,            0.,NA,NA,"",   350.296E-03,   348.251E-03,   37.7942E-03,   3.13818E-03
C:/temp/dataset/6/19_4.odb,Step-1,Increment      1: Step Time =    1.000,"PART-1-1",           790,      -8.24618,      -3.39128,            0.,NA,NA,"",   343.864E-03,   342.942E-03,   25.1633E-03,   3.32521E-03
C:/temp/dataset/6/19_4.odb,Step-1,Increment      1: Step Time =    1.000,"PART-1-1",           791,       7.98922,      -7.69035,            0.,NA,NA,"",   251.829E-03,   251.522E-03,  -12.4431E-03,   4.01669E-03
C:/temp/dataset/6/19_4.odb,Step-1,Increment      1: Step Time =    1.000,"PART-1-1",           792,       7.96586,      -10.1263,            0.,NA,NA,"",   209.083E-03,   208.927E-03,  -8.07587E-03,   3.21287E-03
C:/temp/dataset/6/19_4.odb,Step-1,Increment      1: Step Time =    1.000,"PART-1-1",           793,       7.95460,      -12.5381,            0.,NA,NA,"",   166.599E-03,   166.523E-03,  -5.03686E-03,   2.72356E-03
C:/temp/dataset/6/19_4.odb,Step-1,Increment      1: Step Time =    1.000,"PART-1-1",           794,      -6.90534,       4.84567,            0.,NA,NA,"",   380.487E-03,   378.933E-03,   34.3550E-03,   1.80607E-03
C:/temp/dataset/6/19_4.odb,Step-1,Increment      1: Step Time =    1.000,"PART-1-1",           795,      -7.09219,       3.25090,            0.,NA,NA,"",   372.679E-03,   371.184E-03,   33.3464E-03,   2.39272E-03
C:/temp/dataset/6/19_4.odb,Step-1,Increment      1: Step Time =    1.000,"PART-1-1",           796,      -5.99438,      -2.38990,            0.,NA,NA,"",   343.160E-03,   342.888E-03,   13.6756E-03,   4.94139E-03
C:/temp/dataset/6/19_4.odb,Step-1,Increment      1: Step Time =    1.000,"PART-1-1",           797,      -8.16339,       2.56404,            0.,NA,NA,"",   372.408E-03,   370.414E-03,   38.4918E-03,   2.67062E-03
C:/temp/dataset/6/19_4.odb,Step-1,Increment      1: Step Time =    1.000,"PART-1-1",           798,      -6.16245,       1.98671,            0.,NA,NA,"",   364.632E-03,   363.672E-03,   26.4381E-03,   2.68820E-03
C:/temp/dataset/6/19_4.odb,Step-1,Increment      1: Step Time =    1.000,"PART-1-1",           799,      -9.36160,       1.80674,            0.,NA,NA,"",   372.531E-03,   369.801E-03,   45.0150E-03,   2.83629E-03
C:/temp/dataset/6/19_4.odb,Step-1,Increment      1: Step Time =    1.000,"PART-1-1",           800,      -4.18828,       1.89018,            0.,NA,NA,"",   359.755E-03,   359.262E-03,   18.8265E-03,   2.45862E-03
C:/temp/dataset/6/19_4.odb,Step-1,Increment      1: Step Time =    1.000,"PART-1-1",           801,      -2.02478,       2.01876,            0.,NA,NA,"",   356.824E-03,   356.505E-03,   15.0887E-03,   2.87915E-03
C:/temp/dataset/6/19_4.odb,Step-1,Increment      1: Step Time =    1.000,"PART-1-1",           802,       5.29765,      -24.4346,            0.,NA,NA,"",   21.3841E-03,   20.7193E-03,   5.29083E-03,   3.00144E-03
C:/temp/dataset/6/19_4.odb,Step-1,Increment      1: Step Time =    1.000,"PART-1-1",           803,       8.18651,      -25.0309,            0.,NA,NA,"",   15.6043E-03,   15.5036E-03,  -1.76987E-03,   1.02933E-03
C:/temp/dataset/6/19_4.odb,Step-1,Increment      1: Step Time =    1.000,"PART-1-1",           804,       6.01068,      -25.2345,            0.,NA,NA,"",   16.5936E-03,   16.2665E-03,   3.27860E-03,   2.47893E-03
