ODB Name,Step,Frame,Part Instance Name,    êﬂì_ÉâÉxÉã,X,Y,Z,Section Name,Material Name,Section Point,   U-Magnitude,          U-U1,          U-U2,       S-Mises
C:/temp/dataset/6/1_10.odb,Step-1,Increment      1: Step Time =    1.000,"PART-1-1",             1,            5.,           -5.,            0.,NA,NA,"",       1.15687,      -1.15214,   104.480E-03,   57.0396E-03
C:/temp/dataset/6/1_10.odb,Step-1,Increment      1: Step Time =    1.000,"PART-1-1",             2,            0.,           -5.,            0.,NA,NA,"",       1.17506,      -1.16067,   183.326E-03,   20.9539E-03
C:/temp/dataset/6/1_10.odb,Step-1,Increment      1: Step Time =    1.000,"PART-1-1",             3,            5.,      -10.0250,            0.,NA,NA,"",   812.503E-03,  -811.553E-03,  -39.2866E-03,   18.3538E-03
C:/temp/dataset/6/1_10.odb,Step-1,Increment      1: Step Time =    1.000,"PART-1-1",             4,            5.,      -15.0500,            0.,NA,NA,"",   490.881E-03,  -484.383E-03,  -79.6080E-03,   4.16642E-03
C:/temp/dataset/6/1_10.odb,Step-1,Increment      1: Step Time =    1.000,"PART-1-1",             5,            5.,          -20.,            0.,NA,NA,"",   159.700E-03,  -156.078E-03,  -33.8213E-03,   39.2128E-03
C:/temp/dataset/6/1_10.odb,Step-1,Increment      1: Step Time =    1.000,"PART-1-1",             6,            0.,          -20.,            0.,NA,NA,"",   87.4832E-03,  -87.4811E-03,  -603.542E-06,   4.67742E-03
C:/temp/dataset/6/1_10.odb,Step-1,Increment      1: Step Time =    1.000,"PART-1-1",             7,           -5.,          -20.,            0.,NA,NA,"",   103.131E-03,  -102.797E-03,   8.29361E-03,   14.5898E-03
C:/temp/dataset/6/1_10.odb,Step-1,Increment      1: Step Time =    1.000,"PART-1-1",             8,           -5.,      -14.9750,            0.,NA,NA,"",   309.055E-03,  -305.435E-03,   47.1647E-03,   6.55451E-03
C:/temp/dataset/6/1_10.odb,Step-1,Increment      1: Step Time =    1.000,"PART-1-1",             9,           -5.,      -9.95000,            0.,NA,NA,"",   587.515E-03,  -583.630E-03,   67.4526E-03,   6.38617E-03
C:/temp/dataset/6/1_10.odb,Step-1,Increment      1: Step Time =    1.000,"PART-1-1",            10,           -5.,           -5.,            0.,NA,NA,"",   997.986E-03,  -995.802E-03,   65.9936E-03,   39.7541E-03
C:/temp/dataset/6/1_10.odb,Step-1,Increment      1: Step Time =    1.000,"PART-1-1",            11,           15.,          -30.,            0.,NA,NA,"",            0.,  -13.9030E-39,   24.7240E-39,   47.8242E-03
C:/temp/dataset/6/1_10.odb,Step-1,Increment      1: Step Time =    1.000,"PART-1-1",            12,          -15.,          -30.,            0.,NA,NA,"",            0.,  -11.3528E-39,  -19.9285E-39,   37.9900E-03
C:/temp/dataset/6/1_10.odb,Step-1,Increment      1: Step Time =    1.000,"PART-1-1",            13,           15.,        -21.25,            0.,NA,NA,"",   353.473E-03,  -225.775E-03,   271.972E-03,   33.8101E-03
C:/temp/dataset/6/1_10.odb,Step-1,Increment      1: Step Time =    1.000,"PART-1-1",            14,           15.,         -12.5,            0.,NA,NA,"",   842.345E-03,  -711.611E-03,   450.727E-03,   11.0568E-03
C:/temp/dataset/6/1_10.odb,Step-1,Increment      1: Step Time =    1.000,"PART-1-1",            15,           15.,         -3.75,            0.,NA,NA,"",       1.26074,      -1.18650,   426.241E-03,   8.53771E-03
C:/temp/dataset/6/1_10.odb,Step-1,Increment      1: Step Time =    1.000,"PART-1-1",            16,           15.,            5.,            0.,NA,NA,"",       1.48205,      -1.42992,   389.630E-03,   282.256E-06
C:/temp/dataset/6/1_10.odb,Step-1,Increment      1: Step Time =    1.000,"PART-1-1",            17,           10.,            5.,            0.,NA,NA,"",       1.44414,      -1.42020,   261.852E-03,   4.71992E-03
C:/temp/dataset/6/1_10.odb,Step-1,Increment      1: Step Time =    1.000,"PART-1-1",            18,            5.,            5.,            0.,NA,NA,"",       1.41274,      -1.40064,   184.452E-03,   645.007E-06
C:/temp/dataset/6/1_10.odb,Step-1,Increment      1: Step Time =    1.000,"PART-1-1",            19,            0.,            5.,            0.,NA,NA,"",       1.46578,      -1.45621,   167.228E-03,   25.2724E-03
C:/temp/dataset/6/1_10.odb,Step-1,Increment      1: Step Time =    1.000,"PART-1-1",            20,           -5.,            5.,            0.,NA,NA,"",       1.72812,      -1.71589,   205.213E-03,   148.769E-03
C:/temp/dataset/6/1_10.odb,Step-1,Increment      1: Step Time =    1.000,"PART-1-1",            21,           -5.,         11.25,            0.,NA,NA,"",       3.19104,      -3.14848,   519.464E-03,   58.2159E-03
C:/temp/dataset/6/1_10.odb,Step-1,Increment      1: Step Time =    1.000,"PART-1-1",            22,           -5.,          17.5,            0.,NA,NA,"",       4.85538,      -4.82263,   563.030E-03,   35.7844E-03
C:/temp/dataset/6/1_10.odb,Step-1,Increment      1: Step Time =    1.000,"PART-1-1",            23,           -5.,         23.75,            0.,NA,NA,"",       6.73837,      -6.72559,   414.831E-03,   14.8015E-03
C:/temp/dataset/6/1_10.odb,Step-1,Increment      1: Step Time =    1.000,"PART-1-1",            24,           -5.,           30.,            0.,NA,NA,"",       8.65011,      -8.64883,   148.843E-03,   10.1950E-03
C:/temp/dataset/6/1_10.odb,Step-1,Increment      1: Step Time =    1.000,"PART-1-1",            25,          -10.,           30.,            0.,NA,NA,"",       8.48615,      -8.38085,      -1.33270,   5.72896E-03
C:/temp/dataset/6/1_10.odb,Step-1,Increment      1: Step Time =    1.000,"PART-1-1",            26,          -15.,           30.,            0.,NA,NA,"",       8.62171,      -8.14815,      -2.81808,   452.886E-06
C:/temp/dataset/6/1_10.odb,Step-1,Increment      1: Step Time =    1.000,"PART-1-1",            27,          -15.,          22.5,            0.,NA,NA,"",       6.37544,      -5.89081,      -2.43815,   15.2196E-03
C:/temp/dataset/6/1_10.odb,Step-1,Increment      1: Step Time =    1.000,"PART-1-1",            28,          -15.,           15.,            0.,NA,NA,"",       4.25874,      -3.79611,      -1.93040,   44.5179E-03
C:/temp/dataset/6/1_10.odb,Step-1,Increment      1: Step Time =    1.000,"PART-1-1",            29,          -15.,           7.5,            0.,NA,NA,"",       2.56185,      -2.18042,      -1.34493,   71.1207E-03
C:/temp/dataset/6/1_10.odb,Step-1,Increment      1: Step Time =    1.000,"PART-1-1",            30,          -15.,            0.,            0.,NA,NA,"",       1.54634,      -1.29292,  -848.258E-03,   47.7721E-03
C:/temp/dataset/6/1_10.odb,Step-1,Increment      1: Step Time =    1.000,"PART-1-1",            31,          -15.,          -7.5,            0.,NA,NA,"",   982.348E-03,  -771.066E-03,  -608.659E-03,   26.5796E-03
C:/temp/dataset/6/1_10.odb,Step-1,Increment      1: Step Time =    1.000,"PART-1-1",            32,          -15.,          -15.,            0.,NA,NA,"",   533.983E-03,  -351.652E-03,  -401.844E-03,   31.1174E-03
C:/temp/dataset/6/1_10.odb,Step-1,Increment      1: Step Time =    1.000,"PART-1-1",            33,          -15.,         -22.5,            0.,NA,NA,"",   223.172E-03,  -119.026E-03,  -188.782E-03,   29.2696E-03
C:/temp/dataset/6/1_10.odb,Step-1,Increment      1: Step Time =    1.000,"PART-1-1",            34,           2.5,           -5.,            0.,NA,NA,"",       1.20303,      -1.19007,   176.153E-03,   9.38996E-03
C:/temp/dataset/6/1_10.odb,Step-1,Increment      1: Step Time =    1.000,"PART-1-1",            35,            5.,      -7.51250,            0.,NA,NA,"",   976.616E-03,  -976.605E-03,   4.65050E-03,   31.9330E-03
C:/temp/dataset/6/1_10.odb,Step-1,Increment      1: Step Time =    1.000,"PART-1-1",            36,            5.,      -12.5375,            0.,NA,NA,"",   650.873E-03,  -647.284E-03,  -68.2579E-03,   11.2294E-03
C:/temp/dataset/6/1_10.odb,Step-1,Increment      1: Step Time =    1.000,"PART-1-1",            37,            5.,      -17.5250,            0.,NA,NA,"",   335.935E-03,  -327.301E-03,  -75.6720E-03,   8.14885E-03
C:/temp/dataset/6/1_10.odb,Step-1,Increment      1: Step Time =    1.000,"PART-1-1",            38,           2.5,          -20.,            0.,NA,NA,"",   101.659E-03,  -101.110E-03,  -10.5484E-03,   16.3754E-03
C:/temp/dataset/6/1_10.odb,Step-1,Increment      1: Step Time =    1.000,"PART-1-1",            39,          -2.5,          -20.,            0.,NA,NA,"",   83.9309E-03,  -83.8353E-03,   4.00464E-03,   3.68864E-03
C:/temp/dataset/6/1_10.odb,Step-1,Increment      1: Step Time =    1.000,"PART-1-1",            40,           -5.,      -17.4875,            0.,NA,NA,"",   199.919E-03,  -196.990E-03,   34.1000E-03,   9.38970E-03
C:/temp/dataset/6/1_10.odb,Step-1,Increment      1: Step Time =    1.000,"PART-1-1",            41,           -5.,      -12.4625,            0.,NA,NA,"",   437.428E-03,  -433.524E-03,   58.3173E-03,   6.05709E-03
C:/temp/dataset/6/1_10.odb,Step-1,Increment      1: Step Time =    1.000,"PART-1-1",            42,           -5.,      -7.47500,            0.,NA,NA,"",   761.167E-03,  -757.459E-03,   75.0402E-03,   9.26689E-03
C:/temp/dataset/6/1_10.odb,Step-1,Increment      1: Step Time =    1.000,"PART-1-1",            43,          -2.5,           -5.,            0.,NA,NA,"",       1.11042,      -1.10015,   150.630E-03,   37.0777E-03
C:/temp/dataset/6/1_10.odb,Step-1,Increment      1: Step Time =    1.000,"PART-1-1",            44,          12.5,          -30.,            0.,NA,NA,"",            0.,  -31.8292E-39,   80.0270E-39,   18.2702E-03
C:/temp/dataset/6/1_10.odb,Step-1,Increment      1: Step Time =    1.000,"PART-1-1",            45,           10.,          -30.,            0.,NA,NA,"",            0.,   15.8356E-39,   39.2174E-39,   11.6479E-03
C:/temp/dataset/6/1_10.odb,Step-1,Increment      1: Step Time =    1.000,"PART-1-1",            46,           7.5,          -30.,            0.,NA,NA,"",            0.,   6.96772E-39,   16.9649E-39,   4.64502E-03
C:/temp/dataset/6/1_10.odb,Step-1,Increment      1: Step Time =    1.000,"PART-1-1",            47,            5.,          -30.,            0.,NA,NA,"",            0.,  -4.32240E-39,   2.56765E-39,   1.68860E-03
C:/temp/dataset/6/1_10.odb,Step-1,Increment      1: Step Time =    1.000,"PART-1-1",            48,           2.5,          -30.,            0.,NA,NA,"",            0.,  -7.25072E-39,  -3.55920E-39,   4.36329E-03
C:/temp/dataset/6/1_10.odb,Step-1,Increment      1: Step Time =    1.000,"PART-1-1",            49,            0.,          -30.,            0.,NA,NA,"",            0.,  -12.6398E-39,  -16.1592E-39,   5.28056E-03
C:/temp/dataset/6/1_10.odb,Step-1,Increment      1: Step Time =    1.000,"PART-1-1",            50,          -2.5,          -30.,            0.,NA,NA,"",            0.,  -4.00858E-39,  -3.06426E-39,   4.47195E-03
C:/temp/dataset/6/1_10.odb,Step-1,Increment      1: Step Time =    1.000,"PART-1-1",            51,           -5.,          -30.,            0.,NA,NA,"",            0.,   2.31218E-39,  -11.6956E-39,   3.92586E-03
C:/temp/dataset/6/1_10.odb,Step-1,Increment      1: Step Time =    1.000,"PART-1-1",            52,          -7.5,          -30.,            0.,NA,NA,"",            0.,   10.6069E-39,  -27.0530E-39,   6.76062E-03
C:/temp/dataset/6/1_10.odb,Step-1,Increment      1: Step Time =    1.000,"PART-1-1",            53,          -10.,          -30.,            0.,NA,NA,"",            0.,  -19.7708E-39,  -42.7040E-39,   11.6137E-03
C:/temp/dataset/6/1_10.odb,Step-1,Increment      1: Step Time =    1.000,"PART-1-1",            54,         -12.5,          -30.,            0.,NA,NA,"",            0.,  -3.45561E-39,  -60.2757E-39,   15.7542E-03
C:/temp/dataset/6/1_10.odb,Step-1,Increment      1: Step Time =    1.000,"PART-1-1",            55,           15.,      -23.4375,            0.,NA,NA,"",   255.668E-03,  -152.021E-03,   205.562E-03,   34.5032E-03
C:/temp/dataset/6/1_10.odb,Step-1,Increment      1: Step Time =    1.000,"PART-1-1",            56,           15.,       -25.625,            0.,NA,NA,"",   170.120E-03,  -97.7748E-03,   139.215E-03,   33.3919E-03
C:/temp/dataset/6/1_10.odb,Step-1,Increment      1: Step Time =    1.000,"PART-1-1",            57,           15.,      -27.8125,            0.,NA,NA,"",   93.4806E-03,  -56.0284E-03,   74.8295E-03,   36.2705E-03
C:/temp/dataset/6/1_10.odb,Step-1,Increment      1: Step Time =    1.000,"PART-1-1",            58,           15.,      -14.6875,            0.,NA,NA,"",   713.497E-03,  -572.308E-03,   426.076E-03,   18.4932E-03
C:/temp/dataset/6/1_10.odb,Step-1,Increment      1: Step Time =    1.000,"PART-1-1",            59,           15.,       -16.875,            0.,NA,NA,"",   585.756E-03,  -439.975E-03,   386.694E-03,   25.4252E-03
C:/temp/dataset/6/1_10.odb,Step-1,Increment      1: Step Time =    1.000,"PART-1-1",            60,           15.,      -19.0625,            0.,NA,NA,"",   464.312E-03,  -322.442E-03,   334.091E-03,   30.8746E-03
C:/temp/dataset/6/1_10.odb,Step-1,Increment      1: Step Time =    1.000,"PART-1-1",            61,           15.,       -5.9375,            0.,NA,NA,"",       1.17980,      -1.09289,   444.434E-03,   7.14548E-03
C:/temp/dataset/6/1_10.odb,Step-1,Increment      1: Step Time =    1.000,"PART-1-1",            62,           15.,        -8.125,            0.,NA,NA,"",       1.08100,  -979.310E-03,   457.716E-03,   2.74428E-03
C:/temp/dataset/6/1_10.odb,Step-1,Increment      1: Step Time =    1.000,"PART-1-1",            63,           15.,      -10.3125,            0.,NA,NA,"",   966.779E-03,  -849.877E-03,   460.837E-03,   3.75050E-03
C:/temp/dataset/6/1_10.odb,Step-1,Increment      1: Step Time =    1.000,"PART-1-1",            64,           15.,        2.8125,            0.,NA,NA,"",       1.42996,      -1.37552,   390.785E-03,   1.21380E-03
C:/temp/dataset/6/1_10.odb,Step-1,Increment      1: Step Time =    1.000,"PART-1-1",            65,           15.,      625.E-03,            0.,NA,NA,"",       1.37980,      -1.32156,   396.638E-03,   4.26707E-03
C:/temp/dataset/6/1_10.odb,Step-1,Increment      1: Step Time =    1.000,"PART-1-1",            66,           15.,       -1.5625,            0.,NA,NA,"",       1.32563,      -1.26098,   408.924E-03,   7.19934E-03
C:/temp/dataset/6/1_10.odb,Step-1,Increment      1: Step Time =    1.000,"PART-1-1",            67,          12.5,            5.,            0.,NA,NA,"",       1.46478,      -1.42829,   324.924E-03,   1.50713E-03
C:/temp/dataset/6/1_10.odb,Step-1,Increment      1: Step Time =    1.000,"PART-1-1",            68,           7.5,            5.,            0.,NA,NA,"",       1.42353,      -1.40759,   212.441E-03,   5.16803E-03
C:/temp/dataset/6/1_10.odb,Step-1,Increment      1: Step Time =    1.000,"PART-1-1",            69,           2.5,            5.,            0.,NA,NA,"",       1.42401,      -1.41338,   173.633E-03,   12.4189E-03
C:/temp/dataset/6/1_10.odb,Step-1,Increment      1: Step Time =    1.000,"PART-1-1",            70,          -2.5,            5.,            0.,NA,NA,"",       1.53773,      -1.52953,   158.546E-03,   50.7379E-03
C:/temp/dataset/6/1_10.odb,Step-1,Increment      1: Step Time =    1.000,"PART-1-1",            71,           -5.,       9.16667,            0.,NA,NA,"",       2.70125,      -2.66213,   458.032E-03,   65.3780E-03
C:/temp/dataset/6/1_10.odb,Step-1,Increment      1: Step Time =    1.000,"PART-1-1",            72,           -5.,       7.08333,            0.,NA,NA,"",       2.23909,      -2.20654,   380.371E-03,   86.6910E-03
C:/temp/dataset/6/1_10.odb,Step-1,Increment      1: Step Time =    1.000,"PART-1-1",            73,           -5.,       15.4167,            0.,NA,NA,"",       4.27126,      -4.23288,   571.342E-03,   43.3008E-03
C:/temp/dataset/6/1_10.odb,Step-1,Increment      1: Step Time =    1.000,"PART-1-1",            74,           -5.,       13.3333,            0.,NA,NA,"",       3.71489,      -3.67292,   556.883E-03,   50.6485E-03
C:/temp/dataset/6/1_10.odb,Step-1,Increment      1: Step Time =    1.000,"PART-1-1",            75,           -5.,       21.6667,            0.,NA,NA,"",       6.08889,      -6.06963,   483.906E-03,   21.8529E-03
C:/temp/dataset/6/1_10.odb,Step-1,Increment      1: Step Time =    1.000,"PART-1-1",            76,           -5.,       19.5833,            0.,NA,NA,"",       5.46261,      -5.43649,   533.542E-03,   28.1786E-03
C:/temp/dataset/6/1_10.odb,Step-1,Increment      1: Step Time =    1.000,"PART-1-1",            77,           -5.,       27.9167,            0.,NA,NA,"",       8.02150,      -8.01798,   237.412E-03,   10.0644E-03
C:/temp/dataset/6/1_10.odb,Step-1,Increment      1: Step Time =    1.000,"PART-1-1",            78,           -5.,       25.8333,            0.,NA,NA,"",       7.38744,      -7.38022,   326.528E-03,   12.2210E-03
C:/temp/dataset/6/1_10.odb,Step-1,Increment      1: Step Time =    1.000,"PART-1-1",            79,          -7.5,           30.,            0.,NA,NA,"",       8.53213,      -8.51134,  -595.231E-03,   9.81914E-03
C:/temp/dataset/6/1_10.odb,Step-1,Increment      1: Step Time =    1.000,"PART-1-1",            80,         -12.5,           30.,            0.,NA,NA,"",       8.51782,      -8.26212,      -2.07136,   1.04033E-03
C:/temp/dataset/6/1_10.odb,Step-1,Increment      1: Step Time =    1.000,"PART-1-1",            81,          -15.,           25.,            0.,NA,NA,"",       7.12454,      -6.64171,      -2.57814,   6.92448E-03
C:/temp/dataset/6/1_10.odb,Step-1,Increment      1: Step Time =    1.000,"PART-1-1",            82,          -15.,          27.5,            0.,NA,NA,"",       7.87562,      -7.39738,      -2.70262,   1.06674E-03
C:/temp/dataset/6/1_10.odb,Step-1,Increment      1: Step Time =    1.000,"PART-1-1",            83,          -15.,          17.5,            0.,NA,NA,"",       4.93098,      -4.45611,      -2.11133,   34.6903E-03
C:/temp/dataset/6/1_10.odb,Step-1,Increment      1: Step Time =    1.000,"PART-1-1",            84,          -15.,           20.,            0.,NA,NA,"",       5.64008,      -5.15804,      -2.28148,   24.8667E-03
C:/temp/dataset/6/1_10.odb,Step-1,Increment      1: Step Time =    1.000,"PART-1-1",            85,          -15.,           10.,            0.,NA,NA,"",       3.06339,      -2.64557,      -1.54445,   64.1740E-03
C:/temp/dataset/6/1_10.odb,Step-1,Increment      1: Step Time =    1.000,"PART-1-1",            86,          -15.,          12.5,            0.,NA,NA,"",       3.63294,      -3.18867,      -1.74088,   54.4646E-03
C:/temp/dataset/6/1_10.odb,Step-1,Increment      1: Step Time =    1.000,"PART-1-1",            87,          -15.,           2.5,            0.,NA,NA,"",       1.80601,      -1.51551,  -982.299E-03,   61.8619E-03
C:/temp/dataset/6/1_10.odb,Step-1,Increment      1: Step Time =    1.000,"PART-1-1",            88,          -15.,            5.,            0.,NA,NA,"",       2.14089,      -1.80441,      -1.15219,   70.9347E-03
C:/temp/dataset/6/1_10.odb,Step-1,Increment      1: Step Time =    1.000,"PART-1-1",            89,          -15.,           -5.,            0.,NA,NA,"",       1.15388,  -936.187E-03,  -674.524E-03,   28.3081E-03
C:/temp/dataset/6/1_10.odb,Step-1,Increment      1: Step Time =    1.000,"PART-1-1",            90,          -15.,          -2.5,            0.,NA,NA,"",       1.33725,      -1.10756,  -749.360E-03,   34.9476E-03
C:/temp/dataset/6/1_10.odb,Step-1,Increment      1: Step Time =    1.000,"PART-1-1",            91,          -15.,         -12.5,            0.,NA,NA,"",   669.636E-03,  -473.515E-03,  -473.493E-03,   29.8003E-03
C:/temp/dataset/6/1_10.odb,Step-1,Increment      1: Step Time =    1.000,"PART-1-1",            92,          -15.,          -10.,            0.,NA,NA,"",   819.892E-03,  -614.760E-03,  -542.488E-03,   28.0704E-03
C:/temp/dataset/6/1_10.odb,Step-1,Increment      1: Step Time =    1.000,"PART-1-1",            93,          -15.,          -20.,            0.,NA,NA,"",   310.970E-03,  -174.792E-03,  -257.197E-03,   30.9279E-03
C:/temp/dataset/6/1_10.odb,Step-1,Increment      1: Step Time =    1.000,"PART-1-1",            94,          -15.,         -17.5,            0.,NA,NA,"",   414.349E-03,  -251.796E-03,  -329.065E-03,   31.6114E-03
C:/temp/dataset/6/1_10.odb,Step-1,Increment      1: Step Time =    1.000,"PART-1-1",            95,          -15.,         -27.5,            0.,NA,NA,"",   81.7981E-03,  -47.3071E-03,  -66.7305E-03,   27.9736E-03
C:/temp/dataset/6/1_10.odb,Step-1,Increment      1: Step Time =    1.000,"PART-1-1",            96,          -15.,          -25.,            0.,NA,NA,"",   148.371E-03,  -79.1234E-03,  -125.513E-03,   26.7768E-03
C:/temp/dataset/6/1_10.odb,Step-1,Increment      1: Step Time =    1.000,"PART-1-1",            97,       13.0047,      -3.80353,            0.,NA,NA,"",       1.23833,      -1.18784,   349.997E-03,   1.97104E-03
C:/temp/dataset/6/1_10.odb,Step-1,Increment      1: Step Time =    1.000,"PART-1-1",            98,       6.97971,      -7.55833,            0.,NA,NA,"",   995.992E-03,  -990.372E-03,   105.659E-03,   27.5439E-03
C:/temp/dataset/6/1_10.odb,Step-1,Increment      1: Step Time =    1.000,"PART-1-1",            99,       6.96639,      -10.0829,            0.,NA,NA,"",   828.301E-03,  -825.175E-03,   71.8992E-03,   19.3616E-03
C:/temp/dataset/6/1_10.odb,Step-1,Increment      1: Step Time =    1.000,"PART-1-1",           100,       12.9900,      -12.5465,            0.,NA,NA,"",   772.493E-03,  -695.430E-03,   336.337E-03,   14.6447E-03
C:/temp/dataset/6/1_10.odb,Step-1,Increment      1: Step Time =    1.000,"PART-1-1",           101,       6.90028,      -17.1420,            0.,NA,NA,"",   357.557E-03,  -356.675E-03,   25.1107E-03,   13.2469E-03
C:/temp/dataset/6/1_10.odb,Step-1,Increment      1: Step Time =    1.000,"PART-1-1",           102,       7.03871,      -19.0570,            0.,NA,NA,"",   239.809E-03,  -237.834E-03,   30.7185E-03,   17.7140E-03
C:/temp/dataset/6/1_10.odb,Step-1,Increment      1: Step Time =    1.000,"PART-1-1",           103,       5.31709,      -21.2647,            0.,NA,NA,"",   122.776E-03,  -121.313E-03,  -18.8988E-03,   12.0935E-03
C:/temp/dataset/6/1_10.odb,Step-1,Increment      1: Step Time =    1.000,"PART-1-1",           104,      -4.83361,      -22.6144,            0.,NA,NA,"",   64.2338E-03,  -64.2203E-03,  -1.31695E-03,   6.19999E-03
C:/temp/dataset/6/1_10.odb,Step-1,Increment      1: Step Time =    1.000,"PART-1-1",           105,      -7.46484,      -17.6587,            0.,NA,NA,"",   196.137E-03,  -188.235E-03,  -55.1089E-03,   5.10040E-03
C:/temp/dataset/6/1_10.odb,Step-1,Increment      1: Step Time =    1.000,"PART-1-1",           106,      -12.5283,      -27.3245,            0.,NA,NA,"",   52.3398E-03,  -26.0281E-03,  -45.4092E-03,   21.8661E-03
C:/temp/dataset/6/1_10.odb,Step-1,Increment      1: Step Time =    1.000,"PART-1-1",           107,      -12.4870,      -17.6221,            0.,NA,NA,"",   320.119E-03,  -218.427E-03,  -234.020E-03,   21.9955E-03
C:/temp/dataset/6/1_10.odb,Step-1,Increment      1: Step Time =    1.000,"PART-1-1",           108,      -7.32043,      -12.6401,            0.,NA,NA,"",   423.995E-03,  -418.723E-03,  -66.6556E-03,   2.92829E-03
C:/temp/dataset/6/1_10.odb,Step-1,Increment      1: Step Time =    1.000,"PART-1-1",           109,      -7.14644,      -8.03697,            0.,NA,NA,"",   710.442E-03,  -706.280E-03,  -76.7925E-03,   6.90566E-03
C:/temp/dataset/6/1_10.odb,Step-1,Increment      1: Step Time =    1.000,"PART-1-1",           110,      -12.6601,       4.88622,            0.,NA,NA,"",       1.92866,      -1.75525,  -799.253E-03,   38.3129E-03
C:/temp/dataset/6/1_10.odb,Step-1,Increment      1: Step Time =    1.000,"PART-1-1",           111,      -13.0978,       12.5399,            0.,NA,NA,"",       3.46287,      -3.21497,      -1.28664,   34.4039E-03
C:/temp/dataset/6/1_10.odb,Step-1,Increment      1: Step Time =    1.000,"PART-1-1",           112,      -6.45576,       21.8628,            0.,NA,NA,"",       6.05331,      -6.05312,   47.7484E-03,   14.9954E-03
C:/temp/dataset/6/1_10.odb,Step-1,Increment      1: Step Time =    1.000,"PART-1-1",           113,      -7.28884,       25.7044,            0.,NA,NA,"",       7.22086,      -7.21228,  -351.893E-03,   14.1949E-03
C:/temp/dataset/6/1_10.odb,Step-1,Increment      1: Step Time =    1.000,"PART-1-1",           114,      -9.90518,       27.6474,            0.,NA,NA,"",       7.77060,      -7.67709,      -1.20191,   8.92064E-03
C:/temp/dataset/6/1_10.odb,Step-1,Increment      1: Step Time =    1.000,"PART-1-1",           115,      -3.01211,      -3.13168,            0.,NA,NA,"",       1.16745,      -1.15697,   156.071E-03,   22.9650E-03
C:/temp/dataset/6/1_10.odb,Step-1,Increment      1: Step Time =    1.000,"PART-1-1",           116,      -2.19169,       3.00836,            0.,NA,NA,"",       1.47675,      -1.46585,   179.044E-03,   45.2900E-03
C:/temp/dataset/6/1_10.odb,Step-1,Increment      1: Step Time =    1.000,"PART-1-1",           117,       1.85193,      -2.77696,            0.,NA,NA,"",       1.22663,      -1.21185,   189.805E-03,   26.1675E-03
C:/temp/dataset/6/1_10.odb,Step-1,Increment      1: Step Time =    1.000,"PART-1-1",           118,       2.83229,       2.22691,            0.,NA,NA,"",       1.37844,      -1.36592,   185.353E-03,   21.5581E-03
C:/temp/dataset/6/1_10.odb,Step-1,Increment      1: Step Time =    1.000,"PART-1-1",           119,       7.74921,       3.07964,            0.,NA,NA,"",       1.39005,      -1.37353,   213.687E-03,   3.03307E-03
C:/temp/dataset/6/1_10.odb,Step-1,Increment      1: Step Time =    1.000,"PART-1-1",           120,      -2.47342,      -22.6017,            0.,NA,NA,"",   68.7389E-03,  -68.7115E-03,   1.94156E-03,   9.44734E-03
C:/temp/dataset/6/1_10.odb,Step-1,Increment      1: Step Time =    1.000,"PART-1-1",           121,      -7.48266,       20.3798,            0.,NA,NA,"",       5.55421,      -5.55087,  -192.625E-03,   17.1590E-03
C:/temp/dataset/6/1_10.odb,Step-1,Increment      1: Step Time =    1.000,"PART-1-1",           122,      -7.10993,       13.1351,            0.,NA,NA,"",       3.52246,      -3.52203,   55.2820E-03,   32.5250E-03
C:/temp/dataset/6/1_10.odb,Step-1,Increment      1: Step Time =    1.000,"PART-1-1",           123,      -6.64156,       6.82435,            0.,NA,NA,"",       2.09543,      -2.09379,   82.8958E-03,   65.3852E-03
C:/temp/dataset/6/1_10.odb,Step-1,Increment      1: Step Time =    1.000,"PART-1-1",           124,      -12.9641,      -2.37512,            0.,NA,NA,"",       1.24234,      -1.09510,  -586.659E-03,   28.1792E-03
C:/temp/dataset/6/1_10.odb,Step-1,Increment      1: Step Time =    1.000,"PART-1-1",           125,      -12.1317,      -9.84573,            0.,NA,NA,"",   704.556E-03,  -598.522E-03,  -371.712E-03,   19.5822E-03
C:/temp/dataset/6/1_10.odb,Step-1,Increment      1: Step Time =    1.000,"PART-1-1",           126,       4.04132,      -2.67712,            0.,NA,NA,"",       1.22454,      -1.21367,   162.790E-03,   29.3676E-03
C:/temp/dataset/6/1_10.odb,Step-1,Increment      1: Step Time =    1.000,"PART-1-1",           127,       6.95362,      -12.5367,            0.,NA,NA,"",   661.860E-03,  -660.261E-03,   45.9689E-03,   14.1342E-03
C:/temp/dataset/6/1_10.odb,Step-1,Increment      1: Step Time =    1.000,"PART-1-1",           128,       6.92458,      -14.9216,            0.,NA,NA,"",   501.643E-03,  -500.651E-03,   31.5362E-03,   10.8856E-03
C:/temp/dataset/6/1_10.odb,Step-1,Increment      1: Step Time =    1.000,"PART-1-1",           129,       12.9089,      -21.3671,            0.,NA,NA,"",   273.962E-03,  -192.300E-03,   195.131E-03,   25.2561E-03
C:/temp/dataset/6/1_10.odb,Step-1,Increment      1: Step Time =    1.000,"PART-1-1",           130,   283.131E-03,      -22.8786,            0.,NA,NA,"",   74.8559E-03,  -74.5981E-03,  -6.20724E-03,   10.4225E-03
C:/temp/dataset/6/1_10.odb,Step-1,Increment      1: Step Time =    1.000,"PART-1-1",           131,      -12.9776,      -22.4214,            0.,NA,NA,"",   177.217E-03,  -96.8227E-03,  -148.429E-03,   23.1420E-03
C:/temp/dataset/6/1_10.odb,Step-1,Increment      1: Step Time =    1.000,"PART-1-1",           132,      -7.42030,      -15.1083,            0.,NA,NA,"",   301.333E-03,  -294.698E-03,  -62.8864E-03,   2.83642E-03
C:/temp/dataset/6/1_10.odb,Step-1,Increment      1: Step Time =    1.000,"PART-1-1",           133,      -7.18486,      -10.2642,            0.,NA,NA,"",   561.885E-03,  -557.567E-03,  -69.5220E-03,   3.62120E-03
C:/temp/dataset/6/1_10.odb,Step-1,Increment      1: Step Time =    1.000,"PART-1-1",           134,      -7.33974,      -5.93881,            0.,NA,NA,"",   872.879E-03,  -867.074E-03,  -100.502E-03,   10.6401E-03
C:/temp/dataset/6/1_10.odb,Step-1,Increment      1: Step Time =    1.000,"PART-1-1",           135,  -533.729E-03,      -2.94296,            0.,NA,NA,"",       1.20975,      -1.19390,   195.148E-03,   21.1031E-03
C:/temp/dataset/6/1_10.odb,Step-1,Increment      1: Step Time =    1.000,"PART-1-1",           136,       10.2172,      -28.0250,            0.,NA,NA,"",   23.4836E-03,  -10.3957E-03,   21.0572E-03,   13.7494E-03
C:/temp/dataset/6/1_10.odb,Step-1,Increment      1: Step Time =    1.000,"PART-1-1",           137,       7.82196,      -28.0777,            0.,NA,NA,"",   10.6378E-03,  -6.98601E-03,   8.02239E-03,   5.65864E-03
C:/temp/dataset/6/1_10.odb,Step-1,Increment      1: Step Time =    1.000,"PART-1-1",           138,       5.43540,      -28.0544,            0.,NA,NA,"",   9.69920E-03,  -9.69580E-03,  -256.850E-06,   4.30829E-03
C:/temp/dataset/6/1_10.odb,Step-1,Increment      1: Step Time =    1.000,"PART-1-1",           139,       2.98405,      -27.8165,            0.,NA,NA,"",   16.8746E-03,  -16.3423E-03,  -4.20459E-03,   6.68404E-03
C:/temp/dataset/6/1_10.odb,Step-1,Increment      1: Step Time =    1.000,"PART-1-1",           140,   324.250E-03,      -27.0908,            0.,NA,NA,"",   25.9714E-03,  -25.5717E-03,  -4.53852E-03,   7.68780E-03
C:/temp/dataset/6/1_10.odb,Step-1,Increment      1: Step Time =    1.000,"PART-1-1",           141,      -2.46293,      -27.5198,            0.,NA,NA,"",   18.1599E-03,  -18.0056E-03,  -2.36234E-03,   6.26219E-03
C:/temp/dataset/6/1_10.odb,Step-1,Increment      1: Step Time =    1.000,"PART-1-1",           142,      -4.88996,      -27.5861,            0.,NA,NA,"",   12.8940E-03,  -12.1524E-03,  -4.30989E-03,   5.14216E-03
C:/temp/dataset/6/1_10.odb,Step-1,Increment      1: Step Time =    1.000,"PART-1-1",           143,      -7.26500,      -27.4866,            0.,NA,NA,"",   14.3418E-03,  -8.74538E-03,  -11.3669E-03,   6.21600E-03
C:/temp/dataset/6/1_10.odb,Step-1,Increment      1: Step Time =    1.000,"PART-1-1",           144,      -9.86695,      -26.8928,            0.,NA,NA,"",   33.6810E-03,  -15.2094E-03,  -30.0513E-03,   12.3143E-03
C:/temp/dataset/6/1_10.odb,Step-1,Increment      1: Step Time =    1.000,"PART-1-1",           145,       12.7710,      -23.5898,            0.,NA,NA,"",   183.586E-03,  -117.060E-03,   141.424E-03,   25.4989E-03
C:/temp/dataset/6/1_10.odb,Step-1,Increment      1: Step Time =    1.000,"PART-1-1",           146,       12.6989,      -25.7990,            0.,NA,NA,"",   109.624E-03,  -63.7671E-03,   89.1693E-03,   26.1788E-03
C:/temp/dataset/6/1_10.odb,Step-1,Increment      1: Step Time =    1.000,"PART-1-1",           147,       12.6207,      -27.9366,            0.,NA,NA,"",   49.1036E-03,  -26.4178E-03,   41.3915E-03,   26.0123E-03
C:/temp/dataset/6/1_10.odb,Step-1,Increment      1: Step Time =    1.000,"PART-1-1",           148,       12.9983,      -14.8223,            0.,NA,NA,"",   629.482E-03,  -545.429E-03,   314.253E-03,   18.1533E-03
C:/temp/dataset/6/1_10.odb,Step-1,Increment      1: Step Time =    1.000,"PART-1-1",           149,       13.0558,      -17.0719,            0.,NA,NA,"",   496.286E-03,  -406.226E-03,   285.097E-03,   21.5247E-03
C:/temp/dataset/6/1_10.odb,Step-1,Increment      1: Step Time =    1.000,"PART-1-1",           150,       13.1682,      -19.2108,            0.,NA,NA,"",   383.950E-03,  -290.865E-03,   250.630E-03,   24.4935E-03
C:/temp/dataset/6/1_10.odb,Step-1,Increment      1: Step Time =    1.000,"PART-1-1",           151,       13.0670,      -5.94273,            0.,NA,NA,"",       1.15100,      -1.09419,   357.136E-03,   4.23810E-03
C:/temp/dataset/6/1_10.odb,Step-1,Increment      1: Step Time =    1.000,"PART-1-1",           152,       13.0350,      -8.09399,            0.,NA,NA,"",       1.04178,  -978.711E-03,   356.988E-03,   7.81801E-03
C:/temp/dataset/6/1_10.odb,Step-1,Increment      1: Step Time =    1.000,"PART-1-1",           153,       12.9982,      -10.2981,            0.,NA,NA,"",   912.919E-03,  -843.136E-03,   350.059E-03,   11.3065E-03
C:/temp/dataset/6/1_10.odb,Step-1,Increment      1: Step Time =    1.000,"PART-1-1",           154,       12.5107,   556.281E-03,            0.,NA,NA,"",       1.36134,      -1.32167,   326.249E-03,   3.71861E-03
C:/temp/dataset/6/1_10.odb,Step-1,Increment      1: Step Time =    1.000,"PART-1-1",           155,       12.7702,      -1.64554,            0.,NA,NA,"",       1.30602,      -1.26177,   337.094E-03,   2.62026E-03
C:/temp/dataset/6/1_10.odb,Step-1,Increment      1: Step Time =    1.000,"PART-1-1",           156,       10.0517,       2.85834,            0.,NA,NA,"",       1.39730,      -1.37283,   260.355E-03,   2.47344E-03
C:/temp/dataset/6/1_10.odb,Step-1,Increment      1: Step Time =    1.000,"PART-1-1",           157,       5.39286,       2.85476,            0.,NA,NA,"",       1.38186,      -1.36903,   187.859E-03,   10.1919E-03
C:/temp/dataset/6/1_10.odb,Step-1,Increment      1: Step Time =    1.000,"PART-1-1",           158,   175.602E-03,       2.90951,            0.,NA,NA,"",       1.42964,      -1.41732,   187.223E-03,   28.3275E-03
C:/temp/dataset/6/1_10.odb,Step-1,Increment      1: Step Time =    1.000,"PART-1-1",           159,      -4.35394,       2.91920,            0.,NA,NA,"",       1.51773,      -1.50921,   160.624E-03,   41.6635E-03
C:/temp/dataset/6/1_10.odb,Step-1,Increment      1: Step Time =    1.000,"PART-1-1",           160,      -7.05997,       10.9599,            0.,NA,NA,"",       2.98638,      -2.98563,   66.9224E-03,   37.7849E-03
C:/temp/dataset/6/1_10.odb,Step-1,Increment      1: Step Time =    1.000,"PART-1-1",           161,      -6.93805,       8.84105,            0.,NA,NA,"",       2.50724,      -2.50629,   68.9879E-03,   45.9530E-03
C:/temp/dataset/6/1_10.odb,Step-1,Increment      1: Step Time =    1.000,"PART-1-1",           162,      -7.28921,       17.6445,            0.,NA,NA,"",       4.75065,      -4.75030,  -57.7385E-03,   22.2002E-03
C:/temp/dataset/6/1_10.odb,Step-1,Increment      1: Step Time =    1.000,"PART-1-1",           163,      -7.17735,       15.3234,            0.,NA,NA,"",       4.10110,      -4.10106,   17.1938E-03,   27.3736E-03
C:/temp/dataset/6/1_10.odb,Step-1,Increment      1: Step Time =    1.000,"PART-1-1",           164,      -6.93557,       23.5874,            0.,NA,NA,"",       6.56961,      -6.56766,  -160.045E-03,   16.9226E-03
C:/temp/dataset/6/1_10.odb,Step-1,Increment      1: Step Time =    1.000,"PART-1-1",           165,      -13.1925,       19.7530,            0.,NA,NA,"",       5.43320,      -5.14618,      -1.74256,   19.7850E-03
C:/temp/dataset/6/1_10.odb,Step-1,Increment      1: Step Time =    1.000,"PART-1-1",           166,      -7.44963,       27.8335,            0.,NA,NA,"",       7.87399,      -7.85879,  -489.031E-03,   9.85898E-03
C:/temp/dataset/6/1_10.odb,Step-1,Increment      1: Step Time =    1.000,"PART-1-1",           167,      -13.0424,       22.0734,            0.,NA,NA,"",       6.12016,      -5.83904,      -1.83356,   15.1157E-03
C:/temp/dataset/6/1_10.odb,Step-1,Increment      1: Step Time =    1.000,"PART-1-1",           168,      -13.1316,       14.9813,            0.,NA,NA,"",       4.08694,      -3.82473,      -1.44032,   29.5484E-03
C:/temp/dataset/6/1_10.odb,Step-1,Increment      1: Step Time =    1.000,"PART-1-1",           169,      -13.1727,       17.3972,            0.,NA,NA,"",       4.75151,      -4.47527,      -1.59650,   24.6557E-03
C:/temp/dataset/6/1_10.odb,Step-1,Increment      1: Step Time =    1.000,"PART-1-1",           170,      -12.8574,       7.53984,            0.,NA,NA,"",       2.37012,      -2.16758,  -958.676E-03,   39.5698E-03
C:/temp/dataset/6/1_10.odb,Step-1,Increment      1: Step Time =    1.000,"PART-1-1",           171,      -13.0166,       10.0884,            0.,NA,NA,"",       2.89156,      -2.66282,      -1.12715,   38.1857E-03
C:/temp/dataset/6/1_10.odb,Step-1,Increment      1: Step Time =    1.000,"PART-1-1",           172,      -12.8045,  -118.323E-03,            0.,NA,NA,"",       1.40570,      -1.25523,  -632.773E-03,   34.2323E-03
C:/temp/dataset/6/1_10.odb,Step-1,Increment      1: Step Time =    1.000,"PART-1-1",           173,      -12.7039,       2.28772,            0.,NA,NA,"",       1.61852,      -1.45916,  -700.310E-03,   38.3589E-03
C:/temp/dataset/6/1_10.odb,Step-1,Increment      1: Step Time =    1.000,"PART-1-1",           174,      -12.8488,      -7.31355,            0.,NA,NA,"",   896.924E-03,  -764.821E-03,  -468.530E-03,   21.1437E-03
C:/temp/dataset/6/1_10.odb,Step-1,Increment      1: Step Time =    1.000,"PART-1-1",           175,      -12.6051,      -4.81291,            0.,NA,NA,"",       1.05661,  -929.397E-03,  -502.639E-03,   21.3021E-03
C:/temp/dataset/6/1_10.odb,Step-1,Increment      1: Step Time =    1.000,"PART-1-1",           176,      -12.4260,      -15.0682,            0.,NA,NA,"",   427.925E-03,  -320.466E-03,  -283.587E-03,   21.4461E-03
C:/temp/dataset/6/1_10.odb,Step-1,Increment      1: Step Time =    1.000,"PART-1-1",           177,      -12.3344,      -12.5112,            0.,NA,NA,"",   555.290E-03,  -446.081E-03,  -330.694E-03,   20.7449E-03
C:/temp/dataset/6/1_10.odb,Step-1,Increment      1: Step Time =    1.000,"PART-1-1",           178,      -12.6598,      -20.1148,            0.,NA,NA,"",   237.075E-03,  -144.139E-03,  -188.225E-03,   22.6468E-03
C:/temp/dataset/6/1_10.odb,Step-1,Increment      1: Step Time =    1.000,"PART-1-1",           179,      -8.70618,       22.9331,            0.,NA,NA,"",       6.31143,      -6.27867,  -642.244E-03,   16.5974E-03
C:/temp/dataset/6/1_10.odb,Step-1,Increment      1: Step Time =    1.000,"PART-1-1",           180,      -9.21222,       15.1634,            0.,NA,NA,"",       4.00744,      -3.97851,  -480.652E-03,   17.9009E-03
C:/temp/dataset/6/1_10.odb,Step-1,Increment      1: Step Time =    1.000,"PART-1-1",           181,      -9.55138,       19.8926,            0.,NA,NA,"",       5.36882,      -5.31694,  -744.616E-03,   16.8752E-03
C:/temp/dataset/6/1_10.odb,Step-1,Increment      1: Step Time =    1.000,"PART-1-1",           182,      -8.92203,       8.32966,            0.,NA,NA,"",       2.36201,      -2.34416,  -289.768E-03,   21.7584E-03
C:/temp/dataset/6/1_10.odb,Step-1,Increment      1: Step Time =    1.000,"PART-1-1",           183,      -9.17670,       12.8809,            0.,NA,NA,"",       3.40766,      -3.38267,  -411.973E-03,   18.9622E-03
C:/temp/dataset/6/1_10.odb,Step-1,Increment      1: Step Time =    1.000,"PART-1-1",           184,      -9.09923,       10.6117,            0.,NA,NA,"",       2.85928,      -2.83758,  -351.590E-03,   20.3972E-03
C:/temp/dataset/6/1_10.odb,Step-1,Increment      1: Step Time =    1.000,"PART-1-1",           185,      -9.30530,       17.5014,            0.,NA,NA,"",       4.66329,      -4.62676,  -582.511E-03,   17.0284E-03
C:/temp/dataset/6/1_10.odb,Step-1,Increment      1: Step Time =    1.000,"PART-1-1",           186,      -8.37864,       6.17865,            0.,NA,NA,"",       1.95097,      -1.94220,  -184.787E-03,   22.7525E-03
C:/temp/dataset/6/1_10.odb,Step-1,Increment      1: Step Time =    1.000,"PART-1-1",           187,       10.9988,      -10.2527,            0.,NA,NA,"",   875.664E-03,  -837.505E-03,   255.682E-03,   16.3441E-03
C:/temp/dataset/6/1_10.odb,Step-1,Increment      1: Step Time =    1.000,"PART-1-1",           188,       10.8643,      -17.5211,            0.,NA,NA,"",   403.979E-03,  -358.672E-03,   185.886E-03,   19.9014E-03
C:/temp/dataset/6/1_10.odb,Step-1,Increment      1: Step Time =    1.000,"PART-1-1",           189,       11.0508,      -8.01555,            0.,NA,NA,"",       1.01552,  -979.150E-03,   269.358E-03,   13.2904E-03
C:/temp/dataset/6/1_10.odb,Step-1,Increment      1: Step Time =    1.000,"PART-1-1",           190,       10.6332,      -2.00908,            0.,NA,NA,"",       1.27920,      -1.25087,   267.700E-03,   3.37539E-03
C:/temp/dataset/6/1_10.odb,Step-1,Increment      1: Step Time =    1.000,"PART-1-1",           191,       11.1668,      -5.92645,            0.,NA,NA,"",       1.12995,      -1.09472,   279.948E-03,   8.40485E-03
C:/temp/dataset/6/1_10.odb,Step-1,Increment      1: Step Time =    1.000,"PART-1-1",           192,       10.9732,      -14.9280,            0.,NA,NA,"",   566.909E-03,  -523.124E-03,   218.465E-03,   18.7831E-03
C:/temp/dataset/6/1_10.odb,Step-1,Increment      1: Step Time =    1.000,"PART-1-1",           193,       10.5476,      -23.6927,            0.,NA,NA,"",   124.647E-03,  -91.1496E-03,   85.0210E-03,   17.3292E-03
C:/temp/dataset/6/1_10.odb,Step-1,Increment      1: Step Time =    1.000,"PART-1-1",           194,       10.5707,      -21.1850,            0.,NA,NA,"",   212.345E-03,  -172.507E-03,   123.821E-03,   19.1423E-03
C:/temp/dataset/6/1_10.odb,Step-1,Increment      1: Step Time =    1.000,"PART-1-1",           195,       10.9760,      -12.5622,            0.,NA,NA,"",   722.875E-03,  -682.310E-03,   238.749E-03,   17.7638E-03
C:/temp/dataset/6/1_10.odb,Step-1,Increment      1: Step Time =    1.000,"PART-1-1",           196,       11.6229,      -19.2502,            0.,NA,NA,"",   331.477E-03,  -271.425E-03,   190.279E-03,   21.3225E-03
C:/temp/dataset/6/1_10.odb,Step-1,Increment      1: Step Time =    1.000,"PART-1-1",           197,       11.1609,      -3.97100,            0.,NA,NA,"",       1.21544,      -1.18219,   282.371E-03,   4.11031E-03
C:/temp/dataset/6/1_10.odb,Step-1,Increment      1: Step Time =    1.000,"PART-1-1",           198,      -9.55101,       25.2781,            0.,NA,NA,"",       7.03656,      -6.96642,  -991.099E-03,   13.8238E-03
C:/temp/dataset/6/1_10.odb,Step-1,Increment      1: Step Time =    1.000,"PART-1-1",           199,      -6.13353,       2.97524,            0.,NA,NA,"",       1.51921,      -1.51742,   73.6878E-03,   32.0784E-03
C:/temp/dataset/6/1_10.odb,Step-1,Increment      1: Step Time =    1.000,"PART-1-1",           200,       8.52809,      -18.5145,            0.,NA,NA,"",   293.774E-03,  -280.207E-03,   88.2432E-03,   17.1910E-03
C:/temp/dataset/6/1_10.odb,Step-1,Increment      1: Step Time =    1.000,"PART-1-1",           201,      -9.31256,      -6.57829,            0.,NA,NA,"",   842.065E-03,  -808.307E-03,  -236.037E-03,   8.26034E-03
C:/temp/dataset/6/1_10.odb,Step-1,Increment      1: Step Time =    1.000,"PART-1-1",           202,      -7.82061,      -4.24854,            0.,NA,NA,"",       1.00166,  -992.641E-03,  -134.112E-03,   17.0601E-03
C:/temp/dataset/6/1_10.odb,Step-1,Increment      1: Step Time =    1.000,"PART-1-1",           203,       7.55002,      -20.4955,            0.,NA,NA,"",   173.531E-03,  -168.733E-03,   40.5268E-03,   16.5432E-03
C:/temp/dataset/6/1_10.odb,Step-1,Increment      1: Step Time =    1.000,"PART-1-1",           204,      -9.18944,      -8.43706,            0.,NA,NA,"",   710.009E-03,  -678.287E-03,  -209.853E-03,   9.62134E-03
C:/temp/dataset/6/1_10.odb,Step-1,Increment      1: Step Time =    1.000,"PART-1-1",           205,      -12.3720,       27.4312,            0.,NA,NA,"",       7.73679,      -7.49596,      -1.91534,   6.01454E-03
C:/temp/dataset/6/1_10.odb,Step-1,Increment      1: Step Time =    1.000,"PART-1-1",           206,      -10.3791,       22.2070,            0.,NA,NA,"",       6.08048,      -5.98344,      -1.08195,   16.3766E-03
C:/temp/dataset/6/1_10.odb,Step-1,Increment      1: Step Time =    1.000,"PART-1-1",           207,       3.40286,  -884.176E-03,            0.,NA,NA,"",       1.27964,      -1.26696,   179.694E-03,   26.9839E-03
C:/temp/dataset/6/1_10.odb,Step-1,Increment      1: Step Time =    1.000,"PART-1-1",           208,       7.88020,       1.44192,            0.,NA,NA,"",       1.35473,      -1.33796,   212.548E-03,   5.59182E-03
C:/temp/dataset/6/1_10.odb,Step-1,Increment      1: Step Time =    1.000,"PART-1-1",           209,      -1.17287,  -897.893E-03,            0.,NA,NA,"",       1.28857,      -1.27335,   197.446E-03,   25.8996E-03
C:/temp/dataset/6/1_10.odb,Step-1,Increment      1: Step Time =    1.000,"PART-1-1",           210,       10.4014,      -25.9274,            0.,NA,NA,"",   64.6092E-03,  -41.2062E-03,   49.7634E-03,   15.6100E-03
C:/temp/dataset/6/1_10.odb,Step-1,Increment      1: Step Time =    1.000,"PART-1-1",           211,       2.00108,      -24.8239,            0.,NA,NA,"",   54.4063E-03,  -53.1642E-03,  -11.5587E-03,   10.9593E-03
C:/temp/dataset/6/1_10.odb,Step-1,Increment      1: Step Time =    1.000,"PART-1-1",           212,      -4.80900,      -25.1606,            0.,NA,NA,"",   34.5603E-03,  -34.2668E-03,  -4.49464E-03,   5.67578E-03
C:/temp/dataset/6/1_10.odb,Step-1,Increment      1: Step Time =    1.000,"PART-1-1",           213,      -11.5765,       21.3848,            0.,NA,NA,"",       5.85163,      -5.68712,      -1.37775,   16.5100E-03
C:/temp/dataset/6/1_10.odb,Step-1,Increment      1: Step Time =    1.000,"PART-1-1",           214,      -11.0630,       10.3038,            0.,NA,NA,"",       2.82685,      -2.72849,  -739.181E-03,   19.7447E-03
C:/temp/dataset/6/1_10.odb,Step-1,Increment      1: Step Time =    1.000,"PART-1-1",           215,      -10.2832,  -591.021E-03,            0.,NA,NA,"",       1.26780,      -1.21616,  -358.158E-03,   23.3786E-03
C:/temp/dataset/6/1_10.odb,Step-1,Increment      1: Step Time =    1.000,"PART-1-1",           216,      -11.1869,      -5.64306,            0.,NA,NA,"",   949.712E-03,  -869.957E-03,  -380.956E-03,   14.2330E-03
C:/temp/dataset/6/1_10.odb,Step-1,Increment      1: Step Time =    1.000,"PART-1-1",           217,      -9.48237,      -10.3825,            0.,NA,NA,"",   590.154E-03,  -552.983E-03,  -206.134E-03,   11.0972E-03
C:/temp/dataset/6/1_10.odb,Step-1,Increment      1: Step Time =    1.000,"PART-1-1",           218,      -10.0191,      -20.7277,            0.,NA,NA,"",   150.273E-03,  -107.257E-03,  -105.251E-03,   14.1026E-03
C:/temp/dataset/6/1_10.odb,Step-1,Increment      1: Step Time =    1.000,"PART-1-1",           219,      -12.8377,      -24.8331,            0.,NA,NA,"",   112.300E-03,  -57.7557E-03,  -96.3102E-03,   22.6691E-03
C:/temp/dataset/6/1_10.odb,Step-1,Increment      1: Step Time =    1.000,"PART-1-1",           220,  -752.185E-03,      -25.0561,            0.,NA,NA,"",   47.1835E-03,  -47.0261E-03,  -3.85013E-03,   9.42036E-03
C:/temp/dataset/6/1_10.odb,Step-1,Increment      1: Step Time =    1.000,"PART-1-1",           221,      -11.3411,      -22.5061,            0.,NA,NA,"",   137.169E-03,  -80.5456E-03,  -111.031E-03,   18.0655E-03
C:/temp/dataset/6/1_10.odb,Step-1,Increment      1: Step Time =    1.000,"PART-1-1",           222,       5.90860,      -26.1342,            0.,NA,NA,"",   29.3833E-03,  -29.3826E-03,   199.110E-06,   4.90257E-03
C:/temp/dataset/6/1_10.odb,Step-1,Increment      1: Step Time =    1.000,"PART-1-1",           223,       3.81352,      -25.8758,            0.,NA,NA,"",   37.8101E-03,  -36.7738E-03,  -8.79137E-03,   8.54606E-03
C:/temp/dataset/6/1_10.odb,Step-1,Increment      1: Step Time =    1.000,"PART-1-1",           224,      -6.87266,      -25.1947,            0.,NA,NA,"",   33.6509E-03,  -29.0570E-03,  -16.9726E-03,   4.69663E-03
C:/temp/dataset/6/1_10.odb,Step-1,Increment      1: Step Time =    1.000,"PART-1-1",           225,       9.77381,   336.875E-03,            0.,NA,NA,"",       1.33775,      -1.31431,   249.323E-03,   3.39586E-03
C:/temp/dataset/6/1_10.odb,Step-1,Increment      1: Step Time =    1.000,"PART-1-1",           226,       4.59800,   29.7464E-03,            0.,NA,NA,"",       1.30913,      -1.29687,   178.720E-03,   21.9193E-03
C:/temp/dataset/6/1_10.odb,Step-1,Increment      1: Step Time =    1.000,"PART-1-1",           227,      -11.1551,       12.6912,            0.,NA,NA,"",       3.39260,      -3.28432,  -850.269E-03,   19.5224E-03
C:/temp/dataset/6/1_10.odb,Step-1,Increment      1: Step Time =    1.000,"PART-1-1",           228,      -11.2689,       17.3859,            0.,NA,NA,"",       4.65647,      -4.52719,      -1.08961,   18.3091E-03
C:/temp/dataset/6/1_10.odb,Step-1,Increment      1: Step Time =    1.000,"PART-1-1",           229,      -11.2102,       15.0558,            0.,NA,NA,"",       4.00700,      -3.88906,  -965.016E-03,   18.9746E-03
C:/temp/dataset/6/1_10.odb,Step-1,Increment      1: Step Time =    1.000,"PART-1-1",           230,      -10.8139,       7.79620,            0.,NA,NA,"",       2.30071,      -2.21841,  -609.864E-03,   18.5206E-03
C:/temp/dataset/6/1_10.odb,Step-1,Increment      1: Step Time =    1.000,"PART-1-1",           231,      -10.1648,       4.85487,            0.,NA,NA,"",       1.79169,      -1.73963,  -428.758E-03,   17.6390E-03
C:/temp/dataset/6/1_10.odb,Step-1,Increment      1: Step Time =    1.000,"PART-1-1",           232,      -10.4473,       2.01195,            0.,NA,NA,"",       1.48081,      -1.42260,  -411.109E-03,   25.8111E-03
C:/temp/dataset/6/1_10.odb,Step-1,Increment      1: Step Time =    1.000,"PART-1-1",           233,      -10.4810,      -3.59789,            0.,NA,NA,"",       1.06903,      -1.01033,  -349.358E-03,   14.5649E-03
C:/temp/dataset/6/1_10.odb,Step-1,Increment      1: Step Time =    1.000,"PART-1-1",           234,      -9.89141,      -15.1395,            0.,NA,NA,"",   345.067E-03,  -299.725E-03,  -170.987E-03,   12.4064E-03
C:/temp/dataset/6/1_10.odb,Step-1,Increment      1: Step Time =    1.000,"PART-1-1",           235,      -9.95744,      -17.7636,            0.,NA,NA,"",   239.573E-03,  -193.429E-03,  -141.353E-03,   13.5869E-03
C:/temp/dataset/6/1_10.odb,Step-1,Increment      1: Step Time =    1.000,"PART-1-1",           236,      -3.63694,      -1.16253,            0.,NA,NA,"",       1.25944,      -1.25053,   149.574E-03,   16.6529E-03
C:/temp/dataset/6/1_10.odb,Step-1,Increment      1: Step Time =    1.000,"PART-1-1",           237,      -7.00580,      -22.7773,            0.,NA,NA,"",   63.5620E-03,  -58.4681E-03,  -24.9322E-03,   3.15621E-03
C:/temp/dataset/6/1_10.odb,Step-1,Increment      1: Step Time =    1.000,"PART-1-1",           238,       7.08723,      -4.67483,            0.,NA,NA,"",       1.16648,      -1.15701,   148.324E-03,   16.0051E-03
C:/temp/dataset/6/1_10.odb,Step-1,Increment      1: Step Time =    1.000,"PART-1-1",           239,       8.96532,      -10.1697,            0.,NA,NA,"",   849.712E-03,  -833.393E-03,   165.729E-03,   18.1920E-03
C:/temp/dataset/6/1_10.odb,Step-1,Increment      1: Step Time =    1.000,"PART-1-1",           240,       8.99874,      -7.82238,            0.,NA,NA,"",       1.00421,  -986.543E-03,   187.534E-03,   18.5169E-03
C:/temp/dataset/6/1_10.odb,Step-1,Increment      1: Step Time =    1.000,"PART-1-1",           241,       8.96760,      -14.8663,            0.,NA,NA,"",   530.455E-03,  -514.274E-03,   130.017E-03,   16.7174E-03
C:/temp/dataset/6/1_10.odb,Step-1,Increment      1: Step Time =    1.000,"PART-1-1",           242,      -12.0836,       24.5335,            0.,NA,NA,"",       6.83637,      -6.62484,      -1.68747,   12.3744E-03
C:/temp/dataset/6/1_10.odb,Step-1,Increment      1: Step Time =    1.000,"PART-1-1",           243,       9.21542,      -5.66363,            0.,NA,NA,"",       1.12831,      -1.10878,   209.036E-03,   13.0351E-03
C:/temp/dataset/6/1_10.odb,Step-1,Increment      1: Step Time =    1.000,"PART-1-1",           244,       8.72776,      -2.97127,            0.,NA,NA,"",       1.23692,      -1.21950,   206.868E-03,   8.57188E-03
C:/temp/dataset/6/1_10.odb,Step-1,Increment      1: Step Time =    1.000,"PART-1-1",           245,       9.39471,      -19.4524,            0.,NA,NA,"",   261.403E-03,  -237.521E-03,   109.156E-03,   18.4298E-03
C:/temp/dataset/6/1_10.odb,Step-1,Increment      1: Step Time =    1.000,"PART-1-1",           246,       8.06548,      -22.0810,            0.,NA,NA,"",   123.833E-03,  -116.315E-03,   42.4902E-03,   10.3336E-03
C:/temp/dataset/6/1_10.odb,Step-1,Increment      1: Step Time =    1.000,"PART-1-1",           247,      -7.53738,       4.79758,            0.,NA,NA,"",       1.72673,      -1.72554,  -63.9494E-03,   25.0449E-03
C:/temp/dataset/6/1_10.odb,Step-1,Increment      1: Step Time =    1.000,"PART-1-1",           248,      -10.8025,      -24.3532,            0.,NA,NA,"",   87.0073E-03,  -47.9664E-03,  -72.5912E-03,   15.8236E-03
C:/temp/dataset/6/1_10.odb,Step-1,Increment      1: Step Time =    1.000,"PART-1-1",           249,       5.82981,      -2.08643,            0.,NA,NA,"",       1.24774,      -1.23718,   161.968E-03,   22.3581E-03
C:/temp/dataset/6/1_10.odb,Step-1,Increment      1: Step Time =    1.000,"PART-1-1",           250,      -8.67175,      -2.53401,            0.,NA,NA,"",       1.11565,      -1.09800,  -197.679E-03,   18.4951E-03
C:/temp/dataset/6/1_10.odb,Step-1,Increment      1: Step Time =    1.000,"PART-1-1",           251,       5.78686,      -22.7214,            0.,NA,NA,"",   89.3055E-03,  -89.0819E-03,  -6.31678E-03,   6.43639E-03
C:/temp/dataset/6/1_10.odb,Step-1,Increment      1: Step Time =    1.000,"PART-1-1",           252,      -8.27594,       1.60152,            0.,NA,NA,"",       1.40021,      -1.39188,  -152.528E-03,   21.1944E-03
C:/temp/dataset/6/1_10.odb,Step-1,Increment      1: Step Time =    1.000,"PART-1-1",           253,       8.25490,      -24.0061,            0.,NA,NA,"",   75.9395E-03,  -68.1088E-03,   33.5856E-03,   7.49070E-03
C:/temp/dataset/6/1_10.odb,Step-1,Increment      1: Step Time =    1.000,"PART-1-1",           254,      -9.04303,      -23.2600,            0.,NA,NA,"",   78.3381E-03,  -54.9367E-03,  -55.8465E-03,   10.2360E-03
C:/temp/dataset/6/1_10.odb,Step-1,Increment      1: Step Time =    1.000,"PART-1-1",           255,       7.61656,      -1.09448,            0.,NA,NA,"",       1.28780,      -1.27309,   194.102E-03,   10.6155E-03
C:/temp/dataset/6/1_10.odb,Step-1,Increment      1: Step Time =    1.000,"PART-1-1",           256,      -4.02262,   861.151E-03,            0.,NA,NA,"",       1.37787,      -1.36949,   151.714E-03,   23.5819E-03
C:/temp/dataset/6/1_10.odb,Step-1,Increment      1: Step Time =    1.000,"PART-1-1",           257,  -104.141E-03,       1.31276,            0.,NA,NA,"",       1.37987,      -1.36560,   197.942E-03,   28.9225E-03
C:/temp/dataset/6/1_10.odb,Step-1,Increment      1: Step Time =    1.000,"PART-1-1",           258,       3.72123,      -23.4419,            0.,NA,NA,"",   76.2726E-03,  -74.2374E-03,  -17.5017E-03,   12.6703E-03
C:/temp/dataset/6/1_10.odb,Step-1,Increment      1: Step Time =    1.000,"PART-1-1",           259,      -10.7950,      -8.39617,            0.,NA,NA,"",   752.255E-03,  -683.840E-03,  -313.449E-03,   14.5140E-03
C:/temp/dataset/6/1_10.odb,Step-1,Increment      1: Step Time =    1.000,"PART-1-1",           260,      -1.85786,       1.02916,            0.,NA,NA,"",       1.38474,      -1.37100,   194.581E-03,   31.9072E-03
C:/temp/dataset/6/1_10.odb,Step-1,Increment      1: Step Time =    1.000,"PART-1-1",           261,      -6.46179,      -1.33856,            0.,NA,NA,"",       1.20685,      -1.20682,  -8.98791E-03,   18.2404E-03
C:/temp/dataset/6/1_10.odb,Step-1,Increment      1: Step Time =    1.000,"PART-1-1",           262,      -11.1078,      -7.00587,            0.,NA,NA,"",   854.787E-03,  -777.486E-03,  -355.214E-03,   14.3678E-03
C:/temp/dataset/6/1_10.odb,Step-1,Increment      1: Step Time =    1.000,"PART-1-1",           263,      -5.52697,      -3.44125,            0.,NA,NA,"",       1.09412,      -1.09340,   39.8621E-03,   19.9871E-03
C:/temp/dataset/6/1_10.odb,Step-1,Increment      1: Step Time =    1.000,"PART-1-1",           264,      -9.72268,      -4.98378,            0.,NA,NA,"",   960.566E-03,  -919.598E-03,  -277.536E-03,   9.19164E-03
C:/temp/dataset/6/1_10.odb,Step-1,Increment      1: Step Time =    1.000,"PART-1-1",           265,      -6.27329,       4.89376,            0.,NA,NA,"",       1.73359,      -1.73108,   93.1282E-03,   45.8720E-03
C:/temp/dataset/6/1_10.odb,Step-1,Increment      1: Step Time =    1.000,"PART-1-1",           266,       12.4963,       2.80040,            0.,NA,NA,"",       1.41258,      -1.37479,   324.541E-03,   3.32037E-03
C:/temp/dataset/6/1_10.odb,Step-1,Increment      1: Step Time =    1.000,"PART-1-1",           267,      -7.37176,      -20.2559,            0.,NA,NA,"",   113.451E-03,  -105.440E-03,  -41.8758E-03,   7.05301E-03
C:/temp/dataset/6/1_10.odb,Step-1,Increment      1: Step Time =    1.000,"PART-1-1",           268,       2.88963,      -21.8777,            0.,NA,NA,"",   97.3853E-03,  -96.0917E-03,  -15.8200E-03,   17.9216E-03
C:/temp/dataset/6/1_10.odb,Step-1,Increment      1: Step Time =    1.000,"PART-1-1",           269,      -8.05085,       3.52655,            0.,NA,NA,"",       1.57551,      -1.57044,  -126.281E-03,   19.3533E-03
C:/temp/dataset/6/1_10.odb,Step-1,Increment      1: Step Time =    1.000,"PART-1-1",           270,       8.95558,      -12.5395,            0.,NA,NA,"",   687.804E-03,  -672.204E-03,   145.657E-03,   17.4535E-03
C:/temp/dataset/6/1_10.odb,Step-1,Increment      1: Step Time =    1.000,"PART-1-1",           271,       1.35989,  -223.950E-03,            0.,NA,NA,"",       1.30964,      -1.29501,   195.203E-03,   29.8387E-03
C:/temp/dataset/6/1_10.odb,Step-1,Increment      1: Step Time =    1.000,"PART-1-1",           272,      -9.75004,      -12.6533,            0.,NA,NA,"",   465.193E-03,  -422.847E-03,  -193.918E-03,   11.9436E-03
C:/temp/dataset/6/1_10.odb,Step-1,Increment      1: Step Time =    1.000,"PART-1-1",           273,      -8.51206,      -25.1011,            0.,NA,NA,"",   45.1917E-03,  -30.2263E-03,  -33.5956E-03,   8.20497E-03
C:/temp/dataset/6/1_10.odb,Step-1,Increment      1: Step Time =    1.000,"PART-1-1",           274,      -6.19138,   998.181E-03,            0.,NA,NA,"",       1.36391,      -1.36341,   37.0818E-03,   19.4355E-03
C:/temp/dataset/6/1_10.odb,Step-1,Increment      1: Step Time =    1.000,"PART-1-1",           275,      -2.63339,      -25.0950,            0.,NA,NA,"",   41.6153E-03,  -41.6069E-03,  -839.007E-06,   8.62479E-03
C:/temp/dataset/6/1_10.odb,Step-1,Increment      1: Step Time =    1.000,"PART-1-1",           276,       8.11811,      -26.0558,            0.,NA,NA,"",   36.2202E-03,  -30.4048E-03,   19.6838E-03,   6.47732E-03
C:/temp/dataset/6/1_10.odb,Step-1,Increment      1: Step Time =    1.000,"PART-1-1",           277,       6.33403,   764.508E-03,            0.,NA,NA,"",       1.33253,      -1.31895,   189.753E-03,   12.7665E-03
C:/temp/dataset/6/1_10.odb,Step-1,Increment      1: Step Time =    1.000,"PART-1-1",           278,       8.84044,      -16.9880,            0.,NA,NA,"",   390.843E-03,  -374.827E-03,   110.737E-03,   17.9655E-03
C:/temp/dataset/6/1_10.odb,Step-1,Increment      1: Step Time =    1.000,"PART-1-1",           279,      -11.3950,       19.6047,            0.,NA,NA,"",       5.30901,      -5.16343,      -1.23472,   17.5300E-03
C:/temp/dataset/6/1_10.odb,Step-1,Increment      1: Step Time =    1.000,"PART-1-1",           280,      -11.2464,      -2.22607,            0.,NA,NA,"",       1.18265,      -1.10043,  -433.270E-03,   21.6926E-03
C:/temp/dataset/6/1_10.odb,Step-1,Increment      1: Step Time =    1.000,"PART-1-1",           281,      -8.41776,  -32.7016E-03,            0.,NA,NA,"",       1.27989,      -1.26853,  -170.123E-03,   21.0029E-03
C:/temp/dataset/6/1_10.odb,Step-1,Increment      1: Step Time =    1.000,"PART-1-1",           282,       4.48255,      -24.5345,            0.,NA,NA,"",   56.5397E-03,  -55.3752E-03,  -11.4160E-03,   8.81469E-03
C:/temp/dataset/6/1_10.odb,Step-1,Increment      1: Step Time =    1.000,"PART-1-1",           283,       6.11275,      -24.3348,            0.,NA,NA,"",   57.2280E-03,  -57.2271E-03,   314.921E-06,   4.38162E-03
C:/temp/dataset/6/1_10.odb,Step-1,Increment      1: Step Time =    1.000,"PART-1-1",           284,       9.69767,      -4.20039,            0.,NA,NA,"",       1.19606,      -1.17344,   231.477E-03,   8.01147E-03
C:/temp/dataset/6/1_10.odb,Step-1,Increment      1: Step Time =    1.000,"PART-1-1",           285,       13.8851,      -1.60402,            0.,NA,NA,"",       1.31623,      -1.26205,   373.767E-03,   4.38464E-03
C:/temp/dataset/6/1_10.odb,Step-1,Increment      1: Step Time =    1.000,"PART-1-1",           286,           15.,   -468.75E-03,            0.,NA,NA,"",       1.35368,      -1.29261,   402.036E-03,   5.75514E-03
C:/temp/dataset/6/1_10.odb,Step-1,Increment      1: Step Time =    1.000,"PART-1-1",           287,       13.7553,   590.641E-03,            0.,NA,NA,"",       1.37095,      -1.32211,   362.659E-03,   3.22132E-03
C:/temp/dataset/6/1_10.odb,Step-1,Increment      1: Step Time =    1.000,"PART-1-1",           288,       12.6405,  -544.629E-03,            0.,NA,NA,"",       1.33498,      -1.29320,   331.380E-03,   3.09951E-03
C:/temp/dataset/6/1_10.odb,Step-1,Increment      1: Step Time =    1.000,"PART-1-1",           289,       6.57104,       2.96720,            0.,NA,NA,"",       1.38454,      -1.37035,   197.680E-03,   6.28561E-03
C:/temp/dataset/6/1_10.odb,Step-1,Increment      1: Step Time =    1.000,"PART-1-1",           290,       5.86345,       1.80964,            0.,NA,NA,"",       1.35858,      -1.34530,   189.514E-03,   11.3079E-03
C:/temp/dataset/6/1_10.odb,Step-1,Increment      1: Step Time =    1.000,"PART-1-1",           291,       7.10711,       1.10321,            0.,NA,NA,"",       1.34367,      -1.32876,   199.590E-03,   8.94889E-03
C:/temp/dataset/6/1_10.odb,Step-1,Increment      1: Step Time =    1.000,"PART-1-1",           292,       7.81470,       2.26078,            0.,NA,NA,"",       1.37309,      -1.35639,   213.476E-03,   4.29185E-03
C:/temp/dataset/6/1_10.odb,Step-1,Increment      1: Step Time =    1.000,"PART-1-1",           293,       6.97305,      -8.82061,            0.,NA,NA,"",   914.362E-03,  -910.097E-03,   88.2140E-03,   21.7566E-03
C:/temp/dataset/6/1_10.odb,Step-1,Increment      1: Step Time =    1.000,"PART-1-1",           294,       5.98985,      -7.53541,            0.,NA,NA,"",   988.826E-03,  -986.757E-03,   63.9282E-03,   26.5894E-03
C:/temp/dataset/6/1_10.odb,Step-1,Increment      1: Step Time =    1.000,"PART-1-1",           295,            5.,      -8.76875,            0.,NA,NA,"",   891.050E-03,  -890.817E-03,  -20.3774E-03,   23.9321E-03
C:/temp/dataset/6/1_10.odb,Step-1,Increment      1: Step Time =    1.000,"PART-1-1",           296,       5.98320,      -10.0539,            0.,NA,NA,"",   818.560E-03,  -818.359E-03,   18.1359E-03,   18.2965E-03
C:/temp/dataset/6/1_10.odb,Step-1,Increment      1: Step Time =    1.000,"PART-1-1",           297,       12.0429,      -8.05477,            0.,NA,NA,"",       1.02749,  -979.024E-03,   311.837E-03,   10.5145E-03
C:/temp/dataset/6/1_10.odb,Step-1,Increment      1: Step Time =    1.000,"PART-1-1",           298,       11.0248,      -9.13413,            0.,NA,NA,"",   947.566E-03,  -910.268E-03,   263.238E-03,   14.7831E-03
C:/temp/dataset/6/1_10.odb,Step-1,Increment      1: Step Time =    1.000,"PART-1-1",           299,       11.9985,      -10.2754,            0.,NA,NA,"",   892.895E-03,  -840.433E-03,   301.552E-03,   13.7913E-03
C:/temp/dataset/6/1_10.odb,Step-1,Increment      1: Step Time =    1.000,"PART-1-1",           300,       13.0166,      -9.19606,            0.,NA,NA,"",   978.994E-03,  -912.593E-03,   354.405E-03,   9.47981E-03
C:/temp/dataset/6/1_10.odb,Step-1,Increment      1: Step Time =    1.000,"PART-1-1",           301,       13.9992,      -14.7549,            0.,NA,NA,"",   668.397E-03,  -558.449E-03,   367.274E-03,   17.7300E-03
C:/temp/dataset/6/1_10.odb,Step-1,Increment      1: Step Time =    1.000,"PART-1-1",           302,       13.0271,      -15.9471,            0.,NA,NA,"",   561.587E-03,  -474.166E-03,   300.910E-03,   19.7745E-03
C:/temp/dataset/6/1_10.odb,Step-1,Increment      1: Step Time =    1.000,"PART-1-1",           303,       14.0279,      -16.9735,            0.,NA,NA,"",   538.188E-03,  -422.513E-03,   333.360E-03,   23.0703E-03
C:/temp/dataset/6/1_10.odb,Step-1,Increment      1: Step Time =    1.000,"PART-1-1",           304,           15.,      -15.7813,            0.,NA,NA,"",   649.132E-03,  -504.756E-03,   408.160E-03,   21.9484E-03
C:/temp/dataset/6/1_10.odb,Step-1,Increment      1: Step Time =    1.000,"PART-1-1",           305,       6.96949,      -18.0995,            0.,NA,NA,"",   295.237E-03,  -293.653E-03,   30.5371E-03,   14.0572E-03
C:/temp/dataset/6/1_10.odb,Step-1,Increment      1: Step Time =    1.000,"PART-1-1",           306,       5.95014,      -17.3335,            0.,NA,NA,"",   340.956E-03,  -340.381E-03,  -19.7975E-03,   5.21514E-03
C:/temp/dataset/6/1_10.odb,Step-1,Increment      1: Step Time =    1.000,"PART-1-1",           307,            5.,      -18.7625,            0.,NA,NA,"",   259.246E-03,  -251.799E-03,  -61.6937E-03,   18.0984E-03
C:/temp/dataset/6/1_10.odb,Step-1,Increment      1: Step Time =    1.000,"PART-1-1",           308,       6.01935,      -19.5285,            0.,NA,NA,"",   197.212E-03,  -197.177E-03,  -3.68545E-03,   22.5816E-03
C:/temp/dataset/6/1_10.odb,Step-1,Increment      1: Step Time =    1.000,"PART-1-1",           309,       7.66098,      -29.0388,            0.,NA,NA,"",   4.00224E-03,  -1.35440E-03,   3.76611E-03,   4.99754E-03
C:/temp/dataset/6/1_10.odb,Step-1,Increment      1: Step Time =    1.000,"PART-1-1",           310,       6.62868,      -28.0660,            0.,NA,NA,"",   8.52503E-03,  -7.85710E-03,   3.30789E-03,   4.08997E-03
C:/temp/dataset/6/1_10.odb,Step-1,Increment      1: Step Time =    1.000,"PART-1-1",           311,       5.21770,      -29.0272,            0.,NA,NA,"",   3.63629E-03,  -3.63624E-03,   19.2902E-06,   2.92213E-03
C:/temp/dataset/6/1_10.odb,Step-1,Increment      1: Step Time =    1.000,"PART-1-1",           312,          6.25,          -30.,            0.,NA,NA,"",            0.,  -380.723E-42,   4.65728E-39,   2.46555E-03
C:/temp/dataset/6/1_10.odb,Step-1,Increment      1: Step Time =    1.000,"PART-1-1",           313,   162.125E-03,      -28.5454,            0.,NA,NA,"",   12.0606E-03,  -11.8409E-03,  -2.29147E-03,   6.41555E-03
C:/temp/dataset/6/1_10.odb,Step-1,Increment      1: Step Time =    1.000,"PART-1-1",           314,      -1.06934,      -27.3053,            0.,NA,NA,"",   22.5146E-03,  -22.3222E-03,  -2.93720E-03,   6.86083E-03
C:/temp/dataset/6/1_10.odb,Step-1,Increment      1: Step Time =    1.000,"PART-1-1",           315,      -2.48147,      -28.7599,            0.,NA,NA,"",   8.40384E-03,  -8.22154E-03,  -1.74092E-03,   5.17661E-03
C:/temp/dataset/6/1_10.odb,Step-1,Increment      1: Step Time =    1.000,"PART-1-1",           316,         -1.25,          -30.,            0.,NA,NA,"",            0.,  -4.47220E-39,  -4.21943E-39,   4.81208E-03
C:/temp/dataset/6/1_10.odb,Step-1,Increment      1: Step Time =    1.000,"PART-1-1",           317,          -15.,        -21.25,            0.,NA,NA,"",   265.291E-03,  -144.480E-03,  -222.496E-03,   30.1250E-03
C:/temp/dataset/6/1_10.odb,Step-1,Increment      1: Step Time =    1.000,"PART-1-1",           318,      -13.9888,      -22.4607,            0.,NA,NA,"",   200.322E-03,  -107.092E-03,  -169.293E-03,   26.1901E-03
C:/temp/dataset/6/1_10.odb,Step-1,Increment      1: Step Time =    1.000,"PART-1-1",           319,      -12.8187,      -21.2681,            0.,NA,NA,"",   206.093E-03,  -118.350E-03,  -168.723E-03,   22.8854E-03
C:/temp/dataset/6/1_10.odb,Step-1,Increment      1: Step Time =    1.000,"PART-1-1",           320,      -13.8299,      -20.0574,            0.,NA,NA,"",   273.519E-03,  -158.366E-03,  -223.009E-03,   26.7402E-03
C:/temp/dataset/6/1_10.odb,Step-1,Increment      1: Step Time =    1.000,"PART-1-1",           321,      -12.5142,      -28.6623,            0.,NA,NA,"",   22.2832E-03,  -9.66560E-03,  -20.0778E-03,   19.0678E-03
C:/temp/dataset/6/1_10.odb,Step-1,Increment      1: Step Time =    1.000,"PART-1-1",           322,        -11.25,          -30.,            0.,NA,NA,"",            0.,  -957.507E-42,  -27.7437E-39,   14.3299E-03
C:/temp/dataset/6/1_10.odb,Step-1,Increment      1: Step Time =    1.000,"PART-1-1",           323,      -9.93348,      -28.4464,            0.,NA,NA,"",   15.1530E-03,  -3.99356E-03,  -14.6173E-03,   11.6784E-03
C:/temp/dataset/6/1_10.odb,Step-1,Increment      1: Step Time =    1.000,"PART-1-1",           324,      -11.1976,      -27.1087,            0.,NA,NA,"",   41.9647E-03,  -18.8951E-03,  -37.4702E-03,   16.8784E-03
C:/temp/dataset/6/1_10.odb,Step-1,Increment      1: Step Time =    1.000,"PART-1-1",           325,      -7.37036,      -13.8742,            0.,NA,NA,"",   360.054E-03,  -354.199E-03,  -64.6723E-03,   2.83058E-03
C:/temp/dataset/6/1_10.odb,Step-1,Increment      1: Step Time =    1.000,"PART-1-1",           326,      -6.21015,      -15.0417,            0.,NA,NA,"",   299.100E-03,  -298.985E-03,  -8.28746E-03,   2.25648E-03
C:/temp/dataset/6/1_10.odb,Step-1,Increment      1: Step Time =    1.000,"PART-1-1",           327,           -5.,      -13.7188,            0.,NA,NA,"",   370.683E-03,  -366.874E-03,   53.0034E-03,   6.30355E-03
C:/temp/dataset/6/1_10.odb,Step-1,Increment      1: Step Time =    1.000,"PART-1-1",           328,      -6.16021,      -12.5513,            0.,NA,NA,"",   424.983E-03,  -424.954E-03,  -4.92482E-03,   1.71725E-03
C:/temp/dataset/6/1_10.odb,Step-1,Increment      1: Step Time =    1.000,"PART-1-1",           329,      -9.33590,      -9.40979,            0.,NA,NA,"",   648.230E-03,  -613.824E-03,  -208.380E-03,   10.6610E-03
C:/temp/dataset/6/1_10.odb,Step-1,Increment      1: Step Time =    1.000,"PART-1-1",           330,      -8.33361,      -10.3234,            0.,NA,NA,"",   571.176E-03,  -554.191E-03,  -138.258E-03,   7.31238E-03
C:/temp/dataset/6/1_10.odb,Step-1,Increment      1: Step Time =    1.000,"PART-1-1",           331,      -7.16565,      -9.15059,            0.,NA,NA,"",   634.041E-03,  -629.792E-03,  -73.2864E-03,   3.80995E-03
C:/temp/dataset/6/1_10.odb,Step-1,Increment      1: Step Time =    1.000,"PART-1-1",           332,      -8.16794,      -8.23701,            0.,NA,NA,"",   706.599E-03,  -691.542E-03,  -145.093E-03,   7.75990E-03
C:/temp/dataset/6/1_10.odb,Step-1,Increment      1: Step Time =    1.000,"PART-1-1",           333,      -11.1473,      -6.32447,            0.,NA,NA,"",   902.274E-03,  -823.735E-03,  -368.182E-03,   14.2690E-03
C:/temp/dataset/6/1_10.odb,Step-1,Increment      1: Step Time =    1.000,"PART-1-1",           334,      -10.2102,      -6.79208,            0.,NA,NA,"",   845.087E-03,  -791.523E-03,  -296.079E-03,   11.0567E-03
C:/temp/dataset/6/1_10.odb,Step-1,Increment      1: Step Time =    1.000,"PART-1-1",           335,      -9.51762,      -5.78103,            0.,NA,NA,"",   901.293E-03,  -863.982E-03,  -256.642E-03,   7.96399E-03
C:/temp/dataset/6/1_10.odb,Step-1,Increment      1: Step Time =    1.000,"PART-1-1",           336,      -10.4548,      -5.31342,            0.,NA,NA,"",   952.371E-03,  -893.299E-03,  -330.192E-03,   11.2087E-03
C:/temp/dataset/6/1_10.odb,Step-1,Increment      1: Step Time =    1.000,"PART-1-1",           337,      -5.04937,      -1.25055,            0.,NA,NA,"",       1.23431,      -1.23144,   84.0416E-03,   12.4405E-03
C:/temp/dataset/6/1_10.odb,Step-1,Increment      1: Step Time =    1.000,"PART-1-1",           338,      -3.82978,  -150.691E-03,            0.,NA,NA,"",       1.31613,      -1.30759,   149.732E-03,   19.4746E-03
C:/temp/dataset/6/1_10.odb,Step-1,Increment      1: Step Time =    1.000,"PART-1-1",           339,      -5.10700,   929.666E-03,            0.,NA,NA,"",       1.37239,      -1.36841,   104.475E-03,   18.6099E-03
C:/temp/dataset/6/1_10.odb,Step-1,Increment      1: Step Time =    1.000,"PART-1-1",           340,      -6.32658,  -170.190E-03,            0.,NA,NA,"",       1.28302,      -1.28296,   12.4609E-03,   17.5122E-03
C:/temp/dataset/6/1_10.odb,Step-1,Increment      1: Step Time =    1.000,"PART-1-1",           341,          -15.,          3.75,            0.,NA,NA,"",       1.96287,      -1.64978,      -1.06352,   66.4913E-03
C:/temp/dataset/6/1_10.odb,Step-1,Increment      1: Step Time =    1.000,"PART-1-1",           342,      -13.8520,       2.39386,            0.,NA,NA,"",       1.70708,      -1.48313,  -845.250E-03,   49.0370E-03
C:/temp/dataset/6/1_10.odb,Step-1,Increment      1: Step Time =    1.000,"PART-1-1",           343,      -12.6820,       3.58697,            0.,NA,NA,"",       1.76181,      -1.59530,  -747.656E-03,   38.2378E-03
C:/temp/dataset/6/1_10.odb,Step-1,Increment      1: Step Time =    1.000,"PART-1-1",           344,      -13.8301,       4.94311,            0.,NA,NA,"",       2.02597,      -1.77534,  -976.080E-03,   54.2798E-03
C:/temp/dataset/6/1_10.odb,Step-1,Increment      1: Step Time =    1.000,"PART-1-1",           345,          -15.,         11.25,            0.,NA,NA,"",       3.34044,      -2.90829,      -1.64329,   59.2424E-03
C:/temp/dataset/6/1_10.odb,Step-1,Increment      1: Step Time =    1.000,"PART-1-1",           346,      -14.0083,       10.0442,            0.,NA,NA,"",       2.96737,      -2.65145,      -1.33233,   50.6772E-03
C:/temp/dataset/6/1_10.odb,Step-1,Increment      1: Step Time =    1.000,"PART-1-1",           347,      -13.0572,       11.3141,            0.,NA,NA,"",       3.16900,      -2.93064,      -1.20579,   36.2678E-03
C:/temp/dataset/6/1_10.odb,Step-1,Increment      1: Step Time =    1.000,"PART-1-1",           348,      -14.0489,       12.5200,            0.,NA,NA,"",       3.53842,      -3.20007,      -1.50996,   43.8666E-03
C:/temp/dataset/6/1_10.odb,Step-1,Increment      1: Step Time =    1.000,"PART-1-1",           349,           -5.,       22.7083,            0.,NA,NA,"",       6.40911,      -6.39309,   452.880E-03,   17.8993E-03
C:/temp/dataset/6/1_10.odb,Step-1,Increment      1: Step Time =    1.000,"PART-1-1",           350,      -5.96779,       23.6687,            0.,NA,NA,"",       6.64512,      -6.64401,   121.712E-03,   15.1301E-03
C:/temp/dataset/6/1_10.odb,Step-1,Increment      1: Step Time =    1.000,"PART-1-1",           351,      -6.69567,       22.7251,            0.,NA,NA,"",       6.30962,      -6.30938,  -55.2749E-03,   15.3015E-03
C:/temp/dataset/6/1_10.odb,Step-1,Increment      1: Step Time =    1.000,"PART-1-1",           352,      -5.72788,       21.7648,            0.,NA,NA,"",       6.06621,      -6.06042,   264.863E-03,   17.4969E-03
C:/temp/dataset/6/1_10.odb,Step-1,Increment      1: Step Time =    1.000,"PART-1-1",           353,      -9.95259,       28.8237,            0.,NA,NA,"",       8.13095,      -8.03146,      -1.26807,   6.66313E-03
C:/temp/dataset/6/1_10.odb,Step-1,Increment      1: Step Time =    1.000,"PART-1-1",           354,      -8.67740,       27.7404,            0.,NA,NA,"",       7.81260,      -7.76661,  -846.421E-03,   9.03171E-03
C:/temp/dataset/6/1_10.odb,Step-1,Increment      1: Step Time =    1.000,"PART-1-1",           355,      -7.47481,       28.9167,            0.,NA,NA,"",       8.20425,      -8.18631,  -542.343E-03,   9.54373E-03
C:/temp/dataset/6/1_10.odb,Step-1,Increment      1: Step Time =    1.000,"PART-1-1",           356,         -8.75,           30.,            0.,NA,NA,"",       8.49965,      -8.44473,  -964.617E-03,   7.88236E-03
C:/temp/dataset/6/1_10.odb,Step-1,Increment      1: Step Time =    1.000,"PART-1-1",           357,      -12.4360,       28.7156,            0.,NA,NA,"",       8.12935,      -7.88094,      -1.99424,   3.10532E-03
C:/temp/dataset/6/1_10.odb,Step-1,Increment      1: Step Time =    1.000,"PART-1-1",           358,        -13.75,           30.,            0.,NA,NA,"",       8.56129,      -8.20503,      -2.44399,   442.258E-06
C:/temp/dataset/6/1_10.odb,Step-1,Increment      1: Step Time =    1.000,"PART-1-1",           359,          -15.,         28.75,            0.,NA,NA,"",       8.24896,      -7.77322,      -2.76086,   441.428E-06
C:/temp/dataset/6/1_10.odb,Step-1,Increment      1: Step Time =    1.000,"PART-1-1",           360,      -13.6860,       27.4656,            0.,NA,NA,"",       7.79599,      -7.44686,      -2.30691,   3.09357E-03
C:/temp/dataset/6/1_10.odb,Step-1,Increment      1: Step Time =    1.000,"PART-1-1",           361,         -3.75,           -5.,            0.,NA,NA,"",       1.05702,      -1.05077,   114.769E-03,   43.1616E-03
C:/temp/dataset/6/1_10.odb,Step-1,Increment      1: Step Time =    1.000,"PART-1-1",           362,      -2.75606,      -4.06584,            0.,NA,NA,"",       1.13045,      -1.11950,   156.919E-03,   27.5703E-03
C:/temp/dataset/6/1_10.odb,Step-1,Increment      1: Step Time =    1.000,"PART-1-1",           363,      -4.26954,      -3.28646,            0.,NA,NA,"",       1.13165,      -1.12609,   112.041E-03,   17.5076E-03
C:/temp/dataset/6/1_10.odb,Step-1,Increment      1: Step Time =    1.000,"PART-1-1",           364,      -5.26349,      -4.22062,            0.,NA,NA,"",       1.05114,      -1.04974,   54.4062E-03,   29.5571E-03
C:/temp/dataset/6/1_10.odb,Step-1,Increment      1: Step Time =    1.000,"PART-1-1",           365,   659.099E-03,      -2.85996,            0.,NA,NA,"",       1.22065,      -1.20482,   195.901E-03,   22.1575E-03
C:/temp/dataset/6/1_10.odb,Step-1,Increment      1: Step Time =    1.000,"PART-1-1",           366,  -266.865E-03,      -3.97148,            0.,NA,NA,"",       1.18632,      -1.17092,   190.528E-03,   17.7110E-03
C:/temp/dataset/6/1_10.odb,Step-1,Increment      1: Step Time =    1.000,"PART-1-1",           367,          1.25,           -5.,            0.,NA,NA,"",       1.19533,      -1.18072,   186.300E-03,   11.8170E-03
C:/temp/dataset/6/1_10.odb,Step-1,Increment      1: Step Time =    1.000,"PART-1-1",           368,       2.17596,      -3.88848,            0.,NA,NA,"",       1.20167,      -1.18791,   181.323E-03,   11.1135E-03
C:/temp/dataset/6/1_10.odb,Step-1,Increment      1: Step Time =    1.000,"PART-1-1",           369,   93.5104E-03,  -560.922E-03,            0.,NA,NA,"",       1.30218,      -1.28655,   201.132E-03,   27.9354E-03
C:/temp/dataset/6/1_10.odb,Step-1,Increment      1: Step Time =    1.000,"PART-1-1",           370,   627.873E-03,   544.404E-03,            0.,NA,NA,"",       1.34330,      -1.32854,   198.603E-03,   29.0272E-03
C:/temp/dataset/6/1_10.odb,Step-1,Increment      1: Step Time =    1.000,"PART-1-1",           371,  -981.002E-03,       1.17096,            0.,NA,NA,"",       1.38291,      -1.36880,   197.067E-03,   30.6750E-03
C:/temp/dataset/6/1_10.odb,Step-1,Increment      1: Step Time =    1.000,"PART-1-1",           372,      -1.51537,   65.6335E-03,            0.,NA,NA,"",       1.33491,      -1.32038,   196.435E-03,   28.1172E-03
C:/temp/dataset/6/1_10.odb,Step-1,Increment      1: Step Time =    1.000,"PART-1-1",           373,       4.11258,       2.54084,            0.,NA,NA,"",       1.37864,      -1.36635,   183.709E-03,   15.9125E-03
C:/temp/dataset/6/1_10.odb,Step-1,Increment      1: Step Time =    1.000,"PART-1-1",           374,       3.71515,       1.12833,            0.,NA,NA,"",       1.34303,      -1.33041,   183.682E-03,   20.9405E-03
C:/temp/dataset/6/1_10.odb,Step-1,Increment      1: Step Time =    1.000,"PART-1-1",           375,       5.46602,   397.127E-03,            0.,NA,NA,"",       1.32085,      -1.30824,   182.090E-03,   17.0388E-03
C:/temp/dataset/6/1_10.odb,Step-1,Increment      1: Step Time =    1.000,"PART-1-1",           376,       8.69518,  -378.803E-03,            0.,NA,NA,"",       1.31331,      -1.29463,   220.724E-03,   6.50085E-03
C:/temp/dataset/6/1_10.odb,Step-1,Increment      1: Step Time =    1.000,"PART-1-1",           377,       8.82700,   889.396E-03,            0.,NA,NA,"",       1.34593,      -1.32637,   228.674E-03,   3.93382E-03
C:/temp/dataset/6/1_10.odb,Step-1,Increment      1: Step Time =    1.000,"PART-1-1",           378,       6.97530,  -164.986E-03,            0.,NA,NA,"",       1.31003,      -1.29602,   191.082E-03,   11.5428E-03
C:/temp/dataset/6/1_10.odb,Step-1,Increment      1: Step Time =    1.000,"PART-1-1",           379,      -3.65351,      -22.6081,            0.,NA,NA,"",   67.3440E-03,  -67.2412E-03,   3.71818E-03,   7.53258E-03
C:/temp/dataset/6/1_10.odb,Step-1,Increment      1: Step Time =    1.000,"PART-1-1",           380,      -2.48671,      -21.3009,            0.,NA,NA,"",   81.6025E-03,  -81.4752E-03,   4.55695E-03,   4.57712E-03
C:/temp/dataset/6/1_10.odb,Step-1,Increment      1: Step Time =    1.000,"PART-1-1",           381,         -3.75,          -20.,            0.,NA,NA,"",   91.7137E-03,  -91.5985E-03,   4.59533E-03,   8.89576E-03
C:/temp/dataset/6/1_10.odb,Step-1,Increment      1: Step Time =    1.000,"PART-1-1",           382,      -4.91680,      -21.3072,            0.,NA,NA,"",   81.3131E-03,  -81.2277E-03,   3.72647E-03,   7.39236E-03
C:/temp/dataset/6/1_10.odb,Step-1,Increment      1: Step Time =    1.000,"PART-1-1",           383,       12.8399,      -22.4784,            0.,NA,NA,"",   226.653E-03,  -151.720E-03,   168.383E-03,   25.3655E-03
C:/temp/dataset/6/1_10.odb,Step-1,Increment      1: Step Time =    1.000,"PART-1-1",           384,       11.7398,      -21.2760,            0.,NA,NA,"",   241.553E-03,  -181.970E-03,   158.855E-03,   22.0176E-03
C:/temp/dataset/6/1_10.odb,Step-1,Increment      1: Step Time =    1.000,"PART-1-1",           385,       10.5591,      -22.4389,            0.,NA,NA,"",   164.769E-03,  -127.591E-03,   104.257E-03,   18.0653E-03
C:/temp/dataset/6/1_10.odb,Step-1,Increment      1: Step Time =    1.000,"PART-1-1",           386,       11.6593,      -23.6412,            0.,NA,NA,"",   152.414E-03,  -103.145E-03,   112.211E-03,   21.3881E-03
C:/temp/dataset/6/1_10.odb,Step-1,Increment      1: Step Time =    1.000,"PART-1-1",           387,          8.75,            5.,            0.,NA,NA,"",       1.43329,      -1.41394,   234.759E-03,   4.95281E-03
C:/temp/dataset/6/1_10.odb,Step-1,Increment      1: Step Time =    1.000,"PART-1-1",           388,       7.62461,       4.03982,            0.,NA,NA,"",       1.40788,      -1.39170,   212.838E-03,   3.35742E-03
C:/temp/dataset/6/1_10.odb,Step-1,Increment      1: Step Time =    1.000,"PART-1-1",           389,       8.90047,       2.96899,            0.,NA,NA,"",       1.39302,      -1.37310,   234.756E-03,   1.68443E-03
C:/temp/dataset/6/1_10.odb,Step-1,Increment      1: Step Time =    1.000,"PART-1-1",           390,       10.0259,       3.92917,            0.,NA,NA,"",       1.42021,      -1.39605,   260.853E-03,   3.24816E-03
C:/temp/dataset/6/1_10.odb,Step-1,Increment      1: Step Time =    1.000,"PART-1-1",           391,      -6.96921,       21.1213,            0.,NA,NA,"",       5.80083,      -5.80036,  -73.9552E-03,   16.2175E-03
C:/temp/dataset/6/1_10.odb,Step-1,Increment      1: Step Time =    1.000,"PART-1-1",           392,      -6.24133,       19.9816,            0.,NA,NA,"",       5.49303,      -5.49042,   169.228E-03,   21.1299E-03
C:/temp/dataset/6/1_10.odb,Step-1,Increment      1: Step Time =    1.000,"PART-1-1",           393,           -5.,        20.625,            0.,NA,NA,"",       5.77358,      -5.75093,   510.962E-03,   24.9645E-03
C:/temp/dataset/6/1_10.odb,Step-1,Increment      1: Step Time =    1.000,"PART-1-1",           394,      -12.9370,       8.81410,            0.,NA,NA,"",       2.61974,      -2.40417,      -1.04067,   38.8114E-03
C:/temp/dataset/6/1_10.odb,Step-1,Increment      1: Step Time =    1.000,"PART-1-1",           395,          -15.,          8.75,            0.,NA,NA,"",       2.80315,      -2.40236,      -1.44440,   67.6166E-03
C:/temp/dataset/6/1_10.odb,Step-1,Increment      1: Step Time =    1.000,"PART-1-1",           396,      -13.9287,       7.51992,            0.,NA,NA,"",       2.45584,      -2.17029,      -1.14934,   55.0431E-03
C:/temp/dataset/6/1_10.odb,Step-1,Increment      1: Step Time =    1.000,"PART-1-1",           397,          -15.,          1.25,            0.,NA,NA,"",       1.66832,      -1.39770,  -910.879E-03,   54.7959E-03
C:/temp/dataset/6/1_10.odb,Step-1,Increment      1: Step Time =    1.000,"PART-1-1",           398,      -13.9023,  -59.1614E-03,            0.,NA,NA,"",       1.47359,      -1.27103,  -745.628E-03,   39.7917E-03
C:/temp/dataset/6/1_10.odb,Step-1,Increment      1: Step Time =    1.000,"PART-1-1",           399,      -12.7542,       1.08470,            0.,NA,NA,"",       1.50576,      -1.35101,  -664.887E-03,   36.2543E-03
C:/temp/dataset/6/1_10.odb,Step-1,Increment      1: Step Time =    1.000,"PART-1-1",           400,          -15.,         -1.25,            0.,NA,NA,"",       1.43731,      -1.19736,  -795.108E-03,   41.2627E-03
C:/temp/dataset/6/1_10.odb,Step-1,Increment      1: Step Time =    1.000,"PART-1-1",           401,      -13.9820,      -2.43756,            0.,NA,NA,"",       1.28878,      -1.09968,  -672.047E-03,   31.0345E-03
C:/temp/dataset/6/1_10.odb,Step-1,Increment      1: Step Time =    1.000,"PART-1-1",           402,      -12.8843,      -1.24672,            0.,NA,NA,"",       1.32166,      -1.17300,  -608.976E-03,   31.2036E-03
C:/temp/dataset/6/1_10.odb,Step-1,Increment      1: Step Time =    1.000,"PART-1-1",           403,      -12.3802,      -13.7897,            0.,NA,NA,"",   489.043E-03,  -380.421E-03,  -307.316E-03,   21.1021E-03
C:/temp/dataset/6/1_10.odb,Step-1,Increment      1: Step Time =    1.000,"PART-1-1",           404,      -13.6672,      -12.5056,            0.,NA,NA,"",   609.163E-03,  -458.418E-03,  -401.164E-03,   25.2256E-03
C:/temp/dataset/6/1_10.odb,Step-1,Increment      1: Step Time =    1.000,"PART-1-1",           405,          -15.,        -13.75,            0.,NA,NA,"",   599.840E-03,  -409.957E-03,  -437.885E-03,   30.4645E-03
C:/temp/dataset/6/1_10.odb,Step-1,Increment      1: Step Time =    1.000,"PART-1-1",           406,      -13.7130,      -15.0341,            0.,NA,NA,"",   478.495E-03,  -334.640E-03,  -342.014E-03,   26.2335E-03
C:/temp/dataset/6/1_10.odb,Step-1,Increment      1: Step Time =    1.000,"PART-1-1",           407,       9.21271,      -3.58583,            0.,NA,NA,"",       1.21763,      -1.19790,   218.279E-03,   8.04355E-03
C:/temp/dataset/6/1_10.odb,Step-1,Increment      1: Step Time =    1.000,"PART-1-1",           408,       7.90749,      -3.82305,            0.,NA,NA,"",       1.20271,      -1.18938,   178.584E-03,   12.6677E-03
C:/temp/dataset/6/1_10.odb,Step-1,Increment      1: Step Time =    1.000,"PART-1-1",           409,       8.15132,      -5.16923,            0.,NA,NA,"",       1.14671,      -1.13317,   175.699E-03,   14.8442E-03
C:/temp/dataset/6/1_10.odb,Step-1,Increment      1: Step Time =    1.000,"PART-1-1",           410,       9.45655,      -4.93201,            0.,NA,NA,"",       1.16403,      -1.14294,   220.564E-03,   9.76108E-03
C:/temp/dataset/6/1_10.odb,Step-1,Increment      1: Step Time =    1.000,"PART-1-1",           411,       6.91243,      -16.0318,            0.,NA,NA,"",   428.329E-03,  -427.438E-03,   27.6063E-03,   11.2190E-03
C:/temp/dataset/6/1_10.odb,Step-1,Increment      1: Step Time =    1.000,"PART-1-1",           412,       5.96229,      -14.9858,            0.,NA,NA,"",   493.082E-03,  -492.598E-03,  -21.8516E-03,   6.55510E-03
C:/temp/dataset/6/1_10.odb,Step-1,Increment      1: Step Time =    1.000,"PART-1-1",           413,            5.,      -16.2875,            0.,NA,NA,"",   414.639E-03,  -406.786E-03,  -80.3155E-03,   1.26622E-03
C:/temp/dataset/6/1_10.odb,Step-1,Increment      1: Step Time =    1.000,"PART-1-1",           414,       6.93910,      -13.7291,            0.,NA,NA,"",   581.253E-03,  -580.044E-03,   37.4706E-03,   12.3046E-03
C:/temp/dataset/6/1_10.odb,Step-1,Increment      1: Step Time =    1.000,"PART-1-1",           415,       5.97681,      -12.5371,            0.,NA,NA,"",   654.084E-03,  -654.033E-03,  -8.15292E-03,   12.0167E-03
C:/temp/dataset/6/1_10.odb,Step-1,Increment      1: Step Time =    1.000,"PART-1-1",           416,            5.,      -13.7937,            0.,NA,NA,"",   570.464E-03,  -565.387E-03,  -75.9389E-03,   7.57973E-03
C:/temp/dataset/6/1_10.odb,Step-1,Increment      1: Step Time =    1.000,"PART-1-1",           417,         -1.25,          -20.,            0.,NA,NA,"",   83.6166E-03,  -83.6059E-03,   1.33705E-03,   1.21111E-03
C:/temp/dataset/6/1_10.odb,Step-1,Increment      1: Step Time =    1.000,"PART-1-1",           418,      -1.09514,      -22.7401,            0.,NA,NA,"",   71.3621E-03,  -71.3552E-03,  -992.088E-06,   9.41273E-03
C:/temp/dataset/6/1_10.odb,Step-1,Increment      1: Step Time =    1.000,"PART-1-1",           419,   141.566E-03,      -21.4393,            0.,NA,NA,"",   84.6884E-03,  -84.6087E-03,  -3.67385E-03,   6.51199E-03
C:/temp/dataset/6/1_10.odb,Step-1,Increment      1: Step Time =    1.000,"PART-1-1",           420,      -7.69236,      -25.1479,            0.,NA,NA,"",   38.1009E-03,  -29.0981E-03,  -24.5964E-03,   6.19191E-03
C:/temp/dataset/6/1_10.odb,Step-1,Increment      1: Step Time =    1.000,"PART-1-1",           421,      -9.18951,      -25.9970,            0.,NA,NA,"",   39.9233E-03,  -22.0105E-03,  -33.3078E-03,   10.2494E-03
C:/temp/dataset/6/1_10.odb,Step-1,Increment      1: Step Time =    1.000,"PART-1-1",           422,      -8.56598,      -27.1897,            0.,NA,NA,"",   21.8903E-03,  -10.5580E-03,  -19.1759E-03,   8.93036E-03
C:/temp/dataset/6/1_10.odb,Step-1,Increment      1: Step Time =    1.000,"PART-1-1",           423,      -7.06883,      -26.3407,            0.,NA,NA,"",   23.1463E-03,  -17.8164E-03,  -14.7758E-03,   5.45505E-03
C:/temp/dataset/6/1_10.odb,Step-1,Increment      1: Step Time =    1.000,"PART-1-1",           424,      -9.82073,      -13.8964,            0.,NA,NA,"",   402.459E-03,  -358.641E-03,  -182.621E-03,   12.1475E-03
C:/temp/dataset/6/1_10.odb,Step-1,Increment      1: Step Time =    1.000,"PART-1-1",           425,      -8.65586,      -15.1239,            0.,NA,NA,"",   318.132E-03,  -295.861E-03,  -116.937E-03,   7.61809E-03
C:/temp/dataset/6/1_10.odb,Step-1,Increment      1: Step Time =    1.000,"PART-1-1",           426,      -8.53523,      -12.6467,            0.,NA,NA,"",   439.445E-03,  -419.527E-03,  -130.802E-03,   7.42265E-03
C:/temp/dataset/6/1_10.odb,Step-1,Increment      1: Step Time =    1.000,"PART-1-1",           427,      -6.09243,      -10.1071,            0.,NA,NA,"",   569.047E-03,  -569.045E-03,  -1.69184E-03,   1.45514E-03
C:/temp/dataset/6/1_10.odb,Step-1,Increment      1: Step Time =    1.000,"PART-1-1",           428,           -5.,      -8.71250,            0.,NA,NA,"",   669.762E-03,  -665.857E-03,   72.2229E-03,   5.39094E-03
C:/temp/dataset/6/1_10.odb,Step-1,Increment      1: Step Time =    1.000,"PART-1-1",           429,      -6.07322,      -7.75598,            0.,NA,NA,"",   731.847E-03,  -731.830E-03,  -5.03202E-03,   3.08783E-03
C:/temp/dataset/6/1_10.odb,Step-1,Increment      1: Step Time =    1.000,"PART-1-1",           430,      -12.7270,      -6.06323,            0.,NA,NA,"",   976.254E-03,  -846.670E-03,  -486.026E-03,   20.9680E-03
C:/temp/dataset/6/1_10.odb,Step-1,Increment      1: Step Time =    1.000,"PART-1-1",           431,      -13.8025,      -4.90646,            0.,NA,NA,"",       1.10272,  -931.124E-03,  -590.760E-03,   24.6600E-03
C:/temp/dataset/6/1_10.odb,Step-1,Increment      1: Step Time =    1.000,"PART-1-1",           432,          -15.,         -6.25,            0.,NA,NA,"",       1.06691,  -852.925E-03,  -640.946E-03,   27.4057E-03
C:/temp/dataset/6/1_10.odb,Step-1,Increment      1: Step Time =    1.000,"PART-1-1",           433,      -13.9244,      -7.40677,            0.,NA,NA,"",   937.373E-03,  -767.107E-03,  -538.717E-03,   23.9529E-03
C:/temp/dataset/6/1_10.odb,Step-1,Increment      1: Step Time =    1.000,"PART-1-1",           434,       1.60591,      -1.50045,            0.,NA,NA,"",       1.26342,      -1.24855,   193.273E-03,   27.3376E-03
C:/temp/dataset/6/1_10.odb,Step-1,Increment      1: Step Time =    1.000,"PART-1-1",           435,  -853.298E-03,      -1.92043,            0.,NA,NA,"",       1.24577,      -1.23005,   197.285E-03,   23.3067E-03
C:/temp/dataset/6/1_10.odb,Step-1,Increment      1: Step Time =    1.000,"PART-1-1",           436,         13.75,          -30.,            0.,NA,NA,"",            0.,  -1.83038E-39,   48.2698E-39,   31.7188E-03
C:/temp/dataset/6/1_10.odb,Step-1,Increment      1: Step Time =    1.000,"PART-1-1",           437,           15.,      -28.9063,            0.,NA,NA,"",   51.4462E-03,  -35.1193E-03,   37.5946E-03,   38.5185E-03
C:/temp/dataset/6/1_10.odb,Step-1,Increment      1: Step Time =    1.000,"PART-1-1",           438,       13.8103,      -27.8746,            0.,NA,NA,"",   65.9232E-03,  -37.9176E-03,   53.9270E-03,   30.6297E-03
C:/temp/dataset/6/1_10.odb,Step-1,Increment      1: Step Time =    1.000,"PART-1-1",           439,       12.5603,      -28.9683,            0.,NA,NA,"",   20.4362E-03,  -8.94046E-03,   18.3768E-03,   22.3114E-03
C:/temp/dataset/6/1_10.odb,Step-1,Increment      1: Step Time =    1.000,"PART-1-1",           440,       12.6598,      -26.8678,            0.,NA,NA,"",   77.9112E-03,  -43.3055E-03,   64.7672E-03,   25.4998E-03
C:/temp/dataset/6/1_10.odb,Step-1,Increment      1: Step Time =    1.000,"PART-1-1",           441,       11.5501,      -25.8632,            0.,NA,NA,"",   85.5855E-03,  -51.0955E-03,   68.6595E-03,   20.8232E-03
C:/temp/dataset/6/1_10.odb,Step-1,Increment      1: Step Time =    1.000,"PART-1-1",           442,       10.3093,      -26.9762,            0.,NA,NA,"",   42.1769E-03,  -23.9667E-03,   34.7057E-03,   14.8432E-03
C:/temp/dataset/6/1_10.odb,Step-1,Increment      1: Step Time =    1.000,"PART-1-1",           443,       11.4189,      -27.9808,            0.,NA,NA,"",   33.7422E-03,  -16.3837E-03,   29.4976E-03,   19.6225E-03
C:/temp/dataset/6/1_10.odb,Step-1,Increment      1: Step Time =    1.000,"PART-1-1",           444,       10.1086,      -29.0125,            0.,NA,NA,"",   10.1465E-03,  -2.40906E-03,   9.85633E-03,   12.2348E-03
C:/temp/dataset/6/1_10.odb,Step-1,Increment      1: Step Time =    1.000,"PART-1-1",           445,       9.01957,      -28.0513,            0.,NA,NA,"",   15.9068E-03,  -7.67852E-03,   13.9308E-03,   9.49038E-03
C:/temp/dataset/6/1_10.odb,Step-1,Increment      1: Step Time =    1.000,"PART-1-1",           446,          8.75,          -30.,            0.,NA,NA,"",            0.,   1.01737E-39,   15.6174E-39,   8.19738E-03
C:/temp/dataset/6/1_10.odb,Step-1,Increment      1: Step Time =    1.000,"PART-1-1",           447,       4.20973,      -27.9354,            0.,NA,NA,"",   13.3386E-03,  -13.0411E-03,  -2.80118E-03,   5.39961E-03
C:/temp/dataset/6/1_10.odb,Step-1,Increment      1: Step Time =    1.000,"PART-1-1",           448,       2.74203,      -28.9082,            0.,NA,NA,"",   7.60417E-03,  -7.40795E-03,  -1.71628E-03,   5.44515E-03
C:/temp/dataset/6/1_10.odb,Step-1,Increment      1: Step Time =    1.000,"PART-1-1",           449,          3.75,          -30.,            0.,NA,NA,"",            0.,  -2.91876E-39,  -1.54726E-39,   2.98114E-03
C:/temp/dataset/6/1_10.odb,Step-1,Increment      1: Step Time =    1.000,"PART-1-1",           450,       1.16266,      -25.9573,            0.,NA,NA,"",   39.1556E-03,  -38.4253E-03,  -7.52716E-03,   9.43939E-03
C:/temp/dataset/6/1_10.odb,Step-1,Increment      1: Step Time =    1.000,"PART-1-1",           451,       1.65415,      -27.4536,            0.,NA,NA,"",   22.1495E-03,  -21.5738E-03,  -5.01713E-03,   7.06535E-03
C:/temp/dataset/6/1_10.odb,Step-1,Increment      1: Step Time =    1.000,"PART-1-1",           452,       3.39879,      -26.8461,            0.,NA,NA,"",   26.4557E-03,  -25.6290E-03,  -6.56189E-03,   7.59122E-03
C:/temp/dataset/6/1_10.odb,Step-1,Increment      1: Step Time =    1.000,"PART-1-1",           453,       2.90730,      -25.3498,            0.,NA,NA,"",   46.6860E-03,  -45.3212E-03,  -11.2057E-03,   9.57055E-03
C:/temp/dataset/6/1_10.odb,Step-1,Increment      1: Step Time =    1.000,"PART-1-1",           454,      -3.67645,      -27.5530,            0.,NA,NA,"",   15.4451E-03,  -15.2003E-03,  -2.73932E-03,   5.60424E-03
C:/temp/dataset/6/1_10.odb,Step-1,Increment      1: Step Time =    1.000,"PART-1-1",           455,      -2.54816,      -26.3074,            0.,NA,NA,"",   29.2733E-03,  -29.2015E-03,  -2.04929E-03,   7.27245E-03
C:/temp/dataset/6/1_10.odb,Step-1,Increment      1: Step Time =    1.000,"PART-1-1",           456,      -3.72120,      -25.1278,            0.,NA,NA,"",   37.7996E-03,  -37.7605E-03,  -1.71923E-03,   7.11889E-03
C:/temp/dataset/6/1_10.odb,Step-1,Increment      1: Step Time =    1.000,"PART-1-1",           457,      -4.84948,      -26.3734,            0.,NA,NA,"",   22.6260E-03,  -22.1034E-03,  -4.83457E-03,   5.33016E-03
C:/temp/dataset/6/1_10.odb,Step-1,Increment      1: Step Time =    1.000,"PART-1-1",           458,      -4.94498,      -28.7931,            0.,NA,NA,"",   5.40597E-03,  -4.62876E-03,  -2.79267E-03,   4.27004E-03
C:/temp/dataset/6/1_10.odb,Step-1,Increment      1: Step Time =    1.000,"PART-1-1",           459,         -3.75,          -30.,            0.,NA,NA,"",            0.,  -2.75045E-39,  -5.63772E-39,   4.04055E-03
C:/temp/dataset/6/1_10.odb,Step-1,Increment      1: Step Time =    1.000,"PART-1-1",           460,      -6.07748,      -27.5364,            0.,NA,NA,"",   12.3095E-03,  -10.0287E-03,  -7.13786E-03,   5.29060E-03
C:/temp/dataset/6/1_10.odb,Step-1,Increment      1: Step Time =    1.000,"PART-1-1",           461,      -7.38250,      -28.7433,            0.,NA,NA,"",   6.58421E-03,  -2.09928E-03,  -6.24058E-03,   6.35386E-03
C:/temp/dataset/6/1_10.odb,Step-1,Increment      1: Step Time =    1.000,"PART-1-1",           462,         -6.25,          -30.,            0.,NA,NA,"",            0.,  -488.707E-42,  -9.98437E-39,   5.25284E-03
C:/temp/dataset/6/1_10.odb,Step-1,Increment      1: Step Time =    1.000,"PART-1-1",           463,      -8.77755,      -24.1806,            0.,NA,NA,"",   60.4420E-03,  -41.6245E-03,  -43.8251E-03,   9.02084E-03
C:/temp/dataset/6/1_10.odb,Step-1,Increment      1: Step Time =    1.000,"PART-1-1",           464,      -9.92276,      -23.8066,            0.,NA,NA,"",   82.8083E-03,  -50.7730E-03,  -65.4165E-03,   13.0292E-03
C:/temp/dataset/6/1_10.odb,Step-1,Increment      1: Step Time =    1.000,"PART-1-1",           465,      -10.3347,      -25.6230,            0.,NA,NA,"",   57.7391E-03,  -29.9411E-03,  -49.3693E-03,   14.1238E-03
C:/temp/dataset/6/1_10.odb,Step-1,Increment      1: Step Time =    1.000,"PART-1-1",           466,       13.9544,      -21.3085,            0.,NA,NA,"",   312.070E-03,  -208.227E-03,   232.442E-03,   29.4324E-03
C:/temp/dataset/6/1_10.odb,Step-1,Increment      1: Step Time =    1.000,"PART-1-1",           467,       13.8855,      -23.5136,            0.,NA,NA,"",   218.422E-03,  -133.456E-03,   172.910E-03,   29.9713E-03
C:/temp/dataset/6/1_10.odb,Step-1,Increment      1: Step Time =    1.000,"PART-1-1",           468,           15.,      -22.3438,            0.,NA,NA,"",   302.942E-03,  -186.107E-03,   239.035E-03,   34.1726E-03
C:/temp/dataset/6/1_10.odb,Step-1,Increment      1: Step Time =    1.000,"PART-1-1",           469,       12.7349,      -24.6944,            0.,NA,NA,"",   145.334E-03,  -88.3053E-03,   115.430E-03,   25.7143E-03
C:/temp/dataset/6/1_10.odb,Step-1,Increment      1: Step Time =    1.000,"PART-1-1",           470,       13.8494,      -25.7120,            0.,NA,NA,"",   139.309E-03,  -80.1705E-03,   113.929E-03,   29.8738E-03
C:/temp/dataset/6/1_10.odb,Step-1,Increment      1: Step Time =    1.000,"PART-1-1",           471,           15.,      -24.5313,            0.,NA,NA,"",   211.454E-03,  -122.731E-03,   172.192E-03,   33.9588E-03
C:/temp/dataset/6/1_10.odb,Step-1,Increment      1: Step Time =    1.000,"PART-1-1",           472,         11.25,          -30.,            0.,NA,NA,"",            0.,  -714.210E-42,   30.9007E-39,   15.5237E-03
C:/temp/dataset/6/1_10.odb,Step-1,Increment      1: Step Time =    1.000,"PART-1-1",           473,       13.9950,      -12.5232,            0.,NA,NA,"",   804.540E-03,  -703.354E-03,   390.613E-03,   12.1765E-03
C:/temp/dataset/6/1_10.odb,Step-1,Increment      1: Step Time =    1.000,"PART-1-1",           474,       12.9942,      -13.6844,            0.,NA,NA,"",   700.633E-03,  -619.927E-03,   326.463E-03,   16.3376E-03
C:/temp/dataset/6/1_10.odb,Step-1,Increment      1: Step Time =    1.000,"PART-1-1",           475,           15.,      -13.5938,            0.,NA,NA,"",   778.116E-03,  -641.595E-03,   440.252E-03,   14.7650E-03
C:/temp/dataset/6/1_10.odb,Step-1,Increment      1: Step Time =    1.000,"PART-1-1",           476,       9.85236,      -17.2546,            0.,NA,NA,"",   395.075E-03,  -365.882E-03,   149.045E-03,   18.5026E-03
C:/temp/dataset/6/1_10.odb,Step-1,Increment      1: Step Time =    1.000,"PART-1-1",           477,       8.68427,      -17.7513,            0.,NA,NA,"",   341.267E-03,  -326.584E-03,   99.0263E-03,   17.5411E-03
C:/temp/dataset/6/1_10.odb,Step-1,Increment      1: Step Time =    1.000,"PART-1-1",           478,       8.96140,      -18.9835,            0.,NA,NA,"",   276.582E-03,  -258.069E-03,   99.4894E-03,   17.8040E-03
C:/temp/dataset/6/1_10.odb,Step-1,Increment      1: Step Time =    1.000,"PART-1-1",           479,       10.1295,      -18.4868,            0.,NA,NA,"",   330.491E-03,  -296.288E-03,   146.417E-03,   19.0410E-03
C:/temp/dataset/6/1_10.odb,Step-1,Increment      1: Step Time =    1.000,"PART-1-1",           480,       11.2436,      -18.3856,            0.,NA,NA,"",   365.640E-03,  -312.866E-03,   189.229E-03,   20.3607E-03
C:/temp/dataset/6/1_10.odb,Step-1,Increment      1: Step Time =    1.000,"PART-1-1",           481,       12.3956,      -19.2305,            0.,NA,NA,"",   356.635E-03,  -280.930E-03,   219.696E-03,   22.7802E-03
C:/temp/dataset/6/1_10.odb,Step-1,Increment      1: Step Time =    1.000,"PART-1-1",           482,       13.1120,      -18.1414,            0.,NA,NA,"",   438.357E-03,  -346.115E-03,   269.000E-03,   22.9367E-03
C:/temp/dataset/6/1_10.odb,Step-1,Increment      1: Step Time =    1.000,"PART-1-1",           483,       11.9600,      -17.2965,            0.,NA,NA,"",   447.858E-03,  -382.110E-03,   233.600E-03,   20.4835E-03
C:/temp/dataset/6/1_10.odb,Step-1,Increment      1: Step Time =    1.000,"PART-1-1",           484,       14.0024,      -3.77677,            0.,NA,NA,"",       1.24952,      -1.18778,   387.928E-03,   5.08031E-03
C:/temp/dataset/6/1_10.odb,Step-1,Increment      1: Step Time =    1.000,"PART-1-1",           485,       13.0359,      -4.87313,            0.,NA,NA,"",       1.19718,      -1.14373,   353.741E-03,   2.71254E-03
C:/temp/dataset/6/1_10.odb,Step-1,Increment      1: Step Time =    1.000,"PART-1-1",           486,       14.0335,      -5.94012,            0.,NA,NA,"",       1.16472,      -1.09407,   399.495E-03,   4.28161E-03
C:/temp/dataset/6/1_10.odb,Step-1,Increment      1: Step Time =    1.000,"PART-1-1",           487,           15.,      -4.84375,            0.,NA,NA,"",       1.22249,      -1.14226,   435.561E-03,   7.86374E-03
C:/temp/dataset/6/1_10.odb,Step-1,Increment      1: Step Time =    1.000,"PART-1-1",           488,       13.0510,      -7.01836,            0.,NA,NA,"",       1.09877,      -1.03892,   357.684E-03,   5.88878E-03
C:/temp/dataset/6/1_10.odb,Step-1,Increment      1: Step Time =    1.000,"PART-1-1",           489,       14.0175,      -8.10950,            0.,NA,NA,"",       1.05983,  -979.377E-03,   405.053E-03,   3.83079E-03
C:/temp/dataset/6/1_10.odb,Step-1,Increment      1: Step Time =    1.000,"PART-1-1",           490,           15.,      -7.03125,            0.,NA,NA,"",       1.13256,      -1.03844,   452.025E-03,   4.94706E-03
C:/temp/dataset/6/1_10.odb,Step-1,Increment      1: Step Time =    1.000,"PART-1-1",           491,         13.75,            5.,            0.,NA,NA,"",       1.47357,      -1.42952,   357.611E-03,   558.308E-06
C:/temp/dataset/6/1_10.odb,Step-1,Increment      1: Step Time =    1.000,"PART-1-1",           492,       12.4982,       3.90020,            0.,NA,NA,"",       1.43773,      -1.40061,   324.585E-03,   2.12125E-03
C:/temp/dataset/6/1_10.odb,Step-1,Increment      1: Step Time =    1.000,"PART-1-1",           493,       13.7482,       2.80645,            0.,NA,NA,"",       1.42144,      -1.37546,   358.642E-03,   1.96846E-03
C:/temp/dataset/6/1_10.odb,Step-1,Increment      1: Step Time =    1.000,"PART-1-1",           494,           15.,       3.90625,            0.,NA,NA,"",       1.45564,      -1.40243,   389.942E-03,   487.422E-06
C:/temp/dataset/6/1_10.odb,Step-1,Increment      1: Step Time =    1.000,"PART-1-1",           495,         11.25,            5.,            0.,NA,NA,"",       1.45473,      -1.42504,   292.403E-03,   3.14894E-03
C:/temp/dataset/6/1_10.odb,Step-1,Increment      1: Step Time =    1.000,"PART-1-1",           496,       11.2740,       2.82937,            0.,NA,NA,"",       1.40456,      -1.37400,   291.431E-03,   2.78869E-03
C:/temp/dataset/6/1_10.odb,Step-1,Increment      1: Step Time =    1.000,"PART-1-1",           497,       11.1422,   446.578E-03,            0.,NA,NA,"",       1.34917,      -1.31842,   286.400E-03,   2.70206E-03
C:/temp/dataset/6/1_10.odb,Step-1,Increment      1: Step Time =    1.000,"PART-1-1",           498,       10.2035,  -836.101E-03,            0.,NA,NA,"",       1.31012,      -1.28452,   257.732E-03,   3.44527E-03
C:/temp/dataset/6/1_10.odb,Step-1,Increment      1: Step Time =    1.000,"PART-1-1",           499,       11.7017,      -1.82731,            0.,NA,NA,"",       1.29241,      -1.25660,   302.156E-03,   1.95595E-03
C:/temp/dataset/6/1_10.odb,Step-1,Increment      1: Step Time =    1.000,"PART-1-1",           500,       12.5035,       1.67834,            0.,NA,NA,"",       1.38728,      -1.34862,   325.229E-03,   3.44911E-03
C:/temp/dataset/6/1_10.odb,Step-1,Increment      1: Step Time =    1.000,"PART-1-1",           501,       9.91277,       1.59761,            0.,NA,NA,"",       1.36848,      -1.34444,   255.365E-03,   2.61404E-03
C:/temp/dataset/6/1_10.odb,Step-1,Increment      1: Step Time =    1.000,"PART-1-1",           502,       5.19643,       3.92738,            0.,NA,NA,"",       1.40081,      -1.38839,   186.125E-03,   5.40945E-03
C:/temp/dataset/6/1_10.odb,Step-1,Increment      1: Step Time =    1.000,"PART-1-1",           503,          3.75,            5.,            0.,NA,NA,"",       1.41465,      -1.40346,   177.602E-03,   6.22329E-03
C:/temp/dataset/6/1_10.odb,Step-1,Increment      1: Step Time =    1.000,"PART-1-1",           504,       2.66615,       3.61346,            0.,NA,NA,"",       1.40950,      -1.39783,   180.995E-03,   14.6627E-03
C:/temp/dataset/6/1_10.odb,Step-1,Increment      1: Step Time =    1.000,"PART-1-1",           505,      -1.00804,       2.95894,            0.,NA,NA,"",       1.45251,      -1.44041,   187.072E-03,   32.8372E-03
C:/temp/dataset/6/1_10.odb,Step-1,Increment      1: Step Time =    1.000,"PART-1-1",           506,   87.8012E-03,       3.95476,            0.,NA,NA,"",       1.45210,      -1.44126,   177.124E-03,   25.0422E-03
C:/temp/dataset/6/1_10.odb,Step-1,Increment      1: Step Time =    1.000,"PART-1-1",           507,         -1.25,            5.,            0.,NA,NA,"",       1.49482,      -1.48646,   157.875E-03,   36.4429E-03
C:/temp/dataset/6/1_10.odb,Step-1,Increment      1: Step Time =    1.000,"PART-1-1",           508,      -2.34584,       4.00418,            0.,NA,NA,"",       1.52350,      -1.51346,   174.570E-03,   39.5731E-03
C:/temp/dataset/6/1_10.odb,Step-1,Increment      1: Step Time =    1.000,"PART-1-1",           509,      -3.27281,       2.96378,            0.,NA,NA,"",       1.50889,      -1.49772,   183.271E-03,   38.4625E-03
C:/temp/dataset/6/1_10.odb,Step-1,Increment      1: Step Time =    1.000,"PART-1-1",           510,         -3.75,            5.,            0.,NA,NA,"",       1.60959,      -1.60276,   148.118E-03,   84.6014E-03
C:/temp/dataset/6/1_10.odb,Step-1,Increment      1: Step Time =    1.000,"PART-1-1",           511,      -4.67697,       3.95960,            0.,NA,NA,"",       1.61031,      -1.60001,   181.781E-03,   77.8705E-03
C:/temp/dataset/6/1_10.odb,Step-1,Increment      1: Step Time =    1.000,"PART-1-1",           512,      -7.93004,       8.58536,            0.,NA,NA,"",       2.42352,      -2.42083,  -114.257E-03,   32.4979E-03
C:/temp/dataset/6/1_10.odb,Step-1,Increment      1: Step Time =    1.000,"PART-1-1",           513,      -8.65034,       7.25415,            0.,NA,NA,"",       2.14977,      -2.13686,  -235.261E-03,   22.5953E-03
C:/temp/dataset/6/1_10.odb,Step-1,Increment      1: Step Time =    1.000,"PART-1-1",           514,      -7.51010,       6.50150,            0.,NA,NA,"",       2.00975,      -2.00898,  -55.6464E-03,   40.7743E-03
C:/temp/dataset/6/1_10.odb,Step-1,Increment      1: Step Time =    1.000,"PART-1-1",           515,      -6.78981,       7.83270,            0.,NA,NA,"",       2.29552,      -2.29413,   79.9624E-03,   51.3638E-03
C:/temp/dataset/6/1_10.odb,Step-1,Increment      1: Step Time =    1.000,"PART-1-1",           516,      -7.08495,       12.0475,            0.,NA,NA,"",       3.24919,      -3.24856,   63.9521E-03,   35.1949E-03
C:/temp/dataset/6/1_10.odb,Step-1,Increment      1: Step Time =    1.000,"PART-1-1",           517,      -6.02998,       11.1050,            0.,NA,NA,"",       3.07700,      -3.06343,   288.741E-03,   47.5301E-03
C:/temp/dataset/6/1_10.odb,Step-1,Increment      1: Step Time =    1.000,"PART-1-1",           518,           -5.,       12.2917,            0.,NA,NA,"",       3.44884,      -3.40612,   541.119E-03,   54.4102E-03
C:/temp/dataset/6/1_10.odb,Step-1,Increment      1: Step Time =    1.000,"PART-1-1",           519,      -6.05497,       13.2342,            0.,NA,NA,"",       3.60719,      -3.59449,   302.535E-03,   41.0804E-03
C:/temp/dataset/6/1_10.odb,Step-1,Increment      1: Step Time =    1.000,"PART-1-1",           520,      -9.96524,       21.0498,            0.,NA,NA,"",       5.72130,      -5.64834,  -910.774E-03,   16.5493E-03
C:/temp/dataset/6/1_10.odb,Step-1,Increment      1: Step Time =    1.000,"PART-1-1",           521,      -8.51702,       20.1362,            0.,NA,NA,"",       5.45239,      -5.43202,  -470.881E-03,   16.1672E-03
C:/temp/dataset/6/1_10.odb,Step-1,Increment      1: Step Time =    1.000,"PART-1-1",           522,      -8.09442,       21.6565,            0.,NA,NA,"",       5.92675,      -5.91229,  -413.798E-03,   16.2243E-03
C:/temp/dataset/6/1_10.odb,Step-1,Increment      1: Step Time =    1.000,"PART-1-1",           523,      -9.54264,       22.5701,            0.,NA,NA,"",       6.19019,      -6.12972,  -863.119E-03,   16.3074E-03
C:/temp/dataset/6/1_10.odb,Step-1,Increment      1: Step Time =    1.000,"PART-1-1",           524,      -7.38593,       19.0122,            0.,NA,NA,"",       5.14759,      -5.14616,  -121.281E-03,   19.5195E-03
C:/temp/dataset/6/1_10.odb,Step-1,Increment      1: Step Time =    1.000,"PART-1-1",           525,      -6.14460,       17.5723,            0.,NA,NA,"",       4.79007,      -4.78354,   250.079E-03,   28.0432E-03
C:/temp/dataset/6/1_10.odb,Step-1,Increment      1: Step Time =    1.000,"PART-1-1",           526,           -5.,       18.5417,            0.,NA,NA,"",       5.15638,      -5.12686,   550.956E-03,   31.9793E-03
C:/temp/dataset/6/1_10.odb,Step-1,Increment      1: Step Time =    1.000,"PART-1-1",           527,      -9.12859,       24.1056,            0.,NA,NA,"",       6.67296,      -6.62289,  -815.910E-03,   15.2576E-03
C:/temp/dataset/6/1_10.odb,Step-1,Increment      1: Step Time =    1.000,"PART-1-1",           528,      -7.82088,       23.2603,            0.,NA,NA,"",       6.43408,      -6.42144,  -403.115E-03,   16.0672E-03
C:/temp/dataset/6/1_10.odb,Step-1,Increment      1: Step Time =    1.000,"PART-1-1",           529,      -7.11221,       24.6459,            0.,NA,NA,"",       6.89556,      -6.89082,  -255.770E-03,   15.8310E-03
C:/temp/dataset/6/1_10.odb,Step-1,Increment      1: Step Time =    1.000,"PART-1-1",           530,      -8.41993,       25.4912,            0.,NA,NA,"",       7.11930,      -7.08741,  -673.108E-03,   13.4448E-03
C:/temp/dataset/6/1_10.odb,Step-1,Increment      1: Step Time =    1.000,"PART-1-1",           531,           -5.,       28.9583,            0.,NA,NA,"",       8.33587,      -8.33364,   193.043E-03,   10.0608E-03
C:/temp/dataset/6/1_10.odb,Step-1,Increment      1: Step Time =    1.000,"PART-1-1",           532,         -6.25,           30.,            0.,NA,NA,"",       8.58270,      -8.57978,  -223.786E-03,   10.0058E-03
C:/temp/dataset/6/1_10.odb,Step-1,Increment      1: Step Time =    1.000,"PART-1-1",           533,      -6.22481,       27.8751,            0.,NA,NA,"",       7.93878,      -7.93776,  -127.083E-03,   9.78032E-03
C:/temp/dataset/6/1_10.odb,Step-1,Increment      1: Step Time =    1.000,"PART-1-1",           534,      -11.1386,       27.5393,            0.,NA,NA,"",       7.74397,      -7.58565,      -1.55787,   7.37021E-03
C:/temp/dataset/6/1_10.odb,Step-1,Increment      1: Step Time =    1.000,"PART-1-1",           535,        -11.25,           30.,            0.,NA,NA,"",       8.49259,      -8.32046,      -1.70122,   3.31893E-03
C:/temp/dataset/6/1_10.odb,Step-1,Increment      1: Step Time =    1.000,"PART-1-1",           536,      -13.1147,       13.7606,            0.,NA,NA,"",       3.76832,      -3.51317,      -1.36304,   31.9645E-03
C:/temp/dataset/6/1_10.odb,Step-1,Increment      1: Step Time =    1.000,"PART-1-1",           537,      -14.0658,       14.9906,            0.,NA,NA,"",       4.16406,      -3.80942,      -1.68157,   36.4049E-03
C:/temp/dataset/6/1_10.odb,Step-1,Increment      1: Step Time =    1.000,"PART-1-1",           538,          -15.,         13.75,            0.,NA,NA,"",       3.93947,      -3.48516,      -1.83659,   49.4543E-03
C:/temp/dataset/6/1_10.odb,Step-1,Increment      1: Step Time =    1.000,"PART-1-1",           539,      -9.42834,       18.6970,            0.,NA,NA,"",       5.01207,      -4.96826,  -661.256E-03,   16.7963E-03
C:/temp/dataset/6/1_10.odb,Step-1,Increment      1: Step Time =    1.000,"PART-1-1",           540,      -8.29725,       17.5730,            0.,NA,NA,"",       4.69755,      -4.68652,  -321.590E-03,   18.4089E-03
C:/temp/dataset/6/1_10.odb,Step-1,Increment      1: Step Time =    1.000,"PART-1-1",           541,      -12.7588,       6.21303,            0.,NA,NA,"",       2.13530,      -1.94754,  -875.538E-03,   38.7461E-03
C:/temp/dataset/6/1_10.odb,Step-1,Increment      1: Step Time =    1.000,"PART-1-1",           542,          -15.,          6.25,            0.,NA,NA,"",       2.34041,      -1.98083,      -1.24653,   71.1254E-03
C:/temp/dataset/6/1_10.odb,Step-1,Increment      1: Step Time =    1.000,"PART-1-1",           543,      -9.01063,       9.47069,            0.,NA,NA,"",       2.60374,      -2.58417,  -318.645E-03,   21.0251E-03
C:/temp/dataset/6/1_10.odb,Step-1,Increment      1: Step Time =    1.000,"PART-1-1",           544,      -10.0811,       10.4578,            0.,NA,NA,"",       2.83305,      -2.77982,  -546.582E-03,   15.9432E-03
C:/temp/dataset/6/1_10.odb,Step-1,Increment      1: Step Time =    1.000,"PART-1-1",           545,      -10.9384,       9.05000,            0.,NA,NA,"",       2.55290,      -2.46287,  -671.990E-03,   18.8218E-03
C:/temp/dataset/6/1_10.odb,Step-1,Increment      1: Step Time =    1.000,"PART-1-1",           546,      -9.86794,       8.06293,            0.,NA,NA,"",       2.32179,      -2.27742,  -451.773E-03,   15.1318E-03
C:/temp/dataset/6/1_10.odb,Step-1,Increment      1: Step Time =    1.000,"PART-1-1",           547,      -7.23366,       1.29985,            0.,NA,NA,"",       1.37676,      -1.37592,  -48.0354E-03,   18.1865E-03
C:/temp/dataset/6/1_10.odb,Step-1,Increment      1: Step Time =    1.000,"PART-1-1",           548,      -8.34685,   784.410E-03,            0.,NA,NA,"",       1.33789,      -1.32812,  -161.421E-03,   20.4062E-03
C:/temp/dataset/6/1_10.odb,Step-1,Increment      1: Step Time =    1.000,"PART-1-1",           549,      -7.43977,  -685.632E-03,            0.,NA,NA,"",       1.23776,      -1.23501,  -82.5336E-03,   18.4686E-03
C:/temp/dataset/6/1_10.odb,Step-1,Increment      1: Step Time =    1.000,"PART-1-1",           550,      -12.4903,      -8.57964,            0.,NA,NA,"",   799.069E-03,  -680.456E-03,  -418.916E-03,   20.3227E-03
C:/temp/dataset/6/1_10.odb,Step-1,Increment      1: Step Time =    1.000,"PART-1-1",           551,          -15.,         -8.75,            0.,NA,NA,"",   899.753E-03,  -691.342E-03,  -575.849E-03,   27.3721E-03
C:/temp/dataset/6/1_10.odb,Step-1,Increment      1: Step Time =    1.000,"PART-1-1",           552,      -13.5658,      -9.92286,            0.,NA,NA,"",   758.026E-03,  -605.126E-03,  -456.536E-03,   23.7957E-03
C:/temp/dataset/6/1_10.odb,Step-1,Increment      1: Step Time =    1.000,"PART-1-1",           553,      -11.9783,      -7.15971,            0.,NA,NA,"",   873.627E-03,  -770.157E-03,  -412.410E-03,   17.6647E-03
C:/temp/dataset/6/1_10.odb,Step-1,Increment      1: Step Time =    1.000,"PART-1-1",           554,      -11.8960,      -5.22799,            0.,NA,NA,"",       1.00116,  -899.047E-03,  -440.490E-03,   17.6493E-03
C:/temp/dataset/6/1_10.odb,Step-1,Increment      1: Step Time =    1.000,"PART-1-1",           555,      -12.4565,      -16.3452,            0.,NA,NA,"",   371.411E-03,  -266.283E-03,  -258.919E-03,   21.7162E-03
C:/temp/dataset/6/1_10.odb,Step-1,Increment      1: Step Time =    1.000,"PART-1-1",           556,          -15.,        -16.25,            0.,NA,NA,"",   472.121E-03,  -298.891E-03,  -365.462E-03,   31.3724E-03
C:/temp/dataset/6/1_10.odb,Step-1,Increment      1: Step Time =    1.000,"PART-1-1",           557,      -13.7435,      -17.5611,            0.,NA,NA,"",   365.656E-03,  -233.748E-03,  -281.187E-03,   26.7649E-03
C:/temp/dataset/6/1_10.odb,Step-1,Increment      1: Step Time =    1.000,"PART-1-1",           558,      -9.99221,      -8.41662,            0.,NA,NA,"",   729.190E-03,  -680.623E-03,  -261.668E-03,   11.9501E-03
C:/temp/dataset/6/1_10.odb,Step-1,Increment      1: Step Time =    1.000,"PART-1-1",           559,      -11.4633,      -9.12095,            0.,NA,NA,"",   726.662E-03,  -639.958E-03,  -344.225E-03,   16.9804E-03
C:/temp/dataset/6/1_10.odb,Step-1,Increment      1: Step Time =    1.000,"PART-1-1",           560,      -10.8070,      -10.1141,            0.,NA,NA,"",   642.663E-03,  -574.503E-03,  -288.032E-03,   15.2917E-03
C:/temp/dataset/6/1_10.odb,Step-1,Increment      1: Step Time =    1.000,"PART-1-1",           561,      -13.9189,      -24.9166,            0.,NA,NA,"",   130.884E-03,  -68.0884E-03,  -111.779E-03,   24.7599E-03
C:/temp/dataset/6/1_10.odb,Step-1,Increment      1: Step Time =    1.000,"PART-1-1",           562,      -12.9076,      -23.6273,            0.,NA,NA,"",   143.636E-03,  -75.7228E-03,  -122.055E-03,   22.7802E-03
C:/temp/dataset/6/1_10.odb,Step-1,Increment      1: Step Time =    1.000,"PART-1-1",           563,          -15.,        -23.75,            0.,NA,NA,"",   184.397E-03,  -97.5704E-03,  -156.468E-03,   28.0468E-03
C:/temp/dataset/6/1_10.odb,Step-1,Increment      1: Step Time =    1.000,"PART-1-1",           564,          -15.,        -28.75,            0.,NA,NA,"",   46.4074E-03,  -31.4968E-03,  -34.0823E-03,   29.8853E-03
C:/temp/dataset/6/1_10.odb,Step-1,Increment      1: Step Time =    1.000,"PART-1-1",           565,        -13.75,          -30.,            0.,NA,NA,"",            0.,  -1.03709E-39,  -38.7151E-39,   25.8326E-03
C:/temp/dataset/6/1_10.odb,Step-1,Increment      1: Step Time =    1.000,"PART-1-1",           566,      -13.7642,      -27.4123,            0.,NA,NA,"",   63.7476E-03,  -34.4272E-03,  -53.6519E-03,   24.6099E-03
C:/temp/dataset/6/1_10.odb,Step-1,Increment      1: Step Time =    1.000,"PART-1-1",           567,            5.,      -6.25625,            0.,NA,NA,"",       1.05724,      -1.05610,   48.9607E-03,   46.0059E-03
C:/temp/dataset/6/1_10.odb,Step-1,Increment      1: Step Time =    1.000,"PART-1-1",           568,       7.03347,      -6.11658,            0.,NA,NA,"",       1.09379,      -1.08580,   131.941E-03,   20.9830E-03
C:/temp/dataset/6/1_10.odb,Step-1,Increment      1: Step Time =    1.000,"PART-1-1",           569,       6.04361,      -4.83741,            0.,NA,NA,"",       1.16388,      -1.15760,   120.768E-03,   34.1618E-03
C:/temp/dataset/6/1_10.odb,Step-1,Increment      1: Step Time =    1.000,"PART-1-1",           570,           15.,      -2.65625,            0.,NA,NA,"",       1.29493,      -1.22589,   417.174E-03,   7.87481E-03
C:/temp/dataset/6/1_10.odb,Step-1,Increment      1: Step Time =    1.000,"PART-1-1",           571,       12.8875,      -2.72454,            0.,NA,NA,"",       1.27422,      -1.22712,   343.248E-03,   1.85000E-03
C:/temp/dataset/6/1_10.odb,Step-1,Increment      1: Step Time =    1.000,"PART-1-1",           572,       10.0248,      -7.91896,            0.,NA,NA,"",       1.00903,  -982.995E-03,   227.719E-03,   15.6725E-03
C:/temp/dataset/6/1_10.odb,Step-1,Increment      1: Step Time =    1.000,"PART-1-1",           573,       8.98203,      -8.99604,            0.,NA,NA,"",   927.706E-03,  -910.731E-03,   176.657E-03,   18.6860E-03
C:/temp/dataset/6/1_10.odb,Step-1,Increment      1: Step Time =    1.000,"PART-1-1",           574,       9.98204,      -10.2112,            0.,NA,NA,"",   861.965E-03,  -835.807E-03,   210.737E-03,   17.2566E-03
C:/temp/dataset/6/1_10.odb,Step-1,Increment      1: Step Time =    1.000,"PART-1-1",           575,            5.,      -11.2813,            0.,NA,NA,"",   731.561E-03,  -729.433E-03,  -55.7645E-03,   14.8600E-03
C:/temp/dataset/6/1_10.odb,Step-1,Increment      1: Step Time =    1.000,"PART-1-1",           576,       6.96001,      -11.3098,            0.,NA,NA,"",   745.288E-03,  -743.069E-03,   57.4751E-03,   16.2362E-03
C:/temp/dataset/6/1_10.odb,Step-1,Increment      1: Step Time =    1.000,"PART-1-1",           577,       12.1169,      -5.93459,            0.,NA,NA,"",       1.13960,      -1.09445,   317.592E-03,   6.12477E-03
C:/temp/dataset/6/1_10.odb,Step-1,Increment      1: Step Time =    1.000,"PART-1-1",           578,       11.1088,      -6.97100,            0.,NA,NA,"",       1.07547,      -1.03963,   275.330E-03,   10.9353E-03
C:/temp/dataset/6/1_10.odb,Step-1,Increment      1: Step Time =    1.000,"PART-1-1",           579,           15.,      -11.4063,            0.,NA,NA,"",   905.482E-03,  -781.380E-03,   457.540E-03,   7.40482E-03
C:/temp/dataset/6/1_10.odb,Step-1,Increment      1: Step Time =    1.000,"PART-1-1",           580,       13.9991,      -10.3053,            0.,NA,NA,"",   937.498E-03,  -846.630E-03,   402.642E-03,   7.10278E-03
C:/temp/dataset/6/1_10.odb,Step-1,Increment      1: Step Time =    1.000,"PART-1-1",           581,       12.9941,      -11.4223,            0.,NA,NA,"",   843.342E-03,  -769.888E-03,   344.236E-03,   12.9165E-03
C:/temp/dataset/6/1_10.odb,Step-1,Increment      1: Step Time =    1.000,"PART-1-1",           582,           15.,      -9.21875,            0.,NA,NA,"",       1.02553,  -916.189E-03,   460.759E-03,   629.097E-06
C:/temp/dataset/6/1_10.odb,Step-1,Increment      1: Step Time =    1.000,"PART-1-1",           583,       9.25975,      -25.9916,            0.,NA,NA,"",   48.0724E-03,  -34.3996E-03,   33.5802E-03,   10.9223E-03
C:/temp/dataset/6/1_10.odb,Step-1,Increment      1: Step Time =    1.000,"PART-1-1",           584,       7.97004,      -27.0667,            0.,NA,NA,"",   21.3604E-03,  -16.7441E-03,   13.2628E-03,   6.01476E-03
C:/temp/dataset/6/1_10.odb,Step-1,Increment      1: Step Time =    1.000,"PART-1-1",           585,       9.98268,      -20.3187,            0.,NA,NA,"",   234.341E-03,  -202.529E-03,   117.889E-03,   18.4378E-03
C:/temp/dataset/6/1_10.odb,Step-1,Increment      1: Step Time =    1.000,"PART-1-1",           586,       8.47236,      -19.9740,            0.,NA,NA,"",   215.252E-03,  -202.334E-03,   73.4455E-03,   16.8683E-03
C:/temp/dataset/6/1_10.odb,Step-1,Increment      1: Step Time =    1.000,"PART-1-1",           587,       7.80775,      -21.2882,            0.,NA,NA,"",   146.185E-03,  -140.120E-03,   41.6702E-03,   12.9295E-03
C:/temp/dataset/6/1_10.odb,Step-1,Increment      1: Step Time =    1.000,"PART-1-1",           588,       9.31806,      -21.6330,            0.,NA,NA,"",   163.935E-03,  -142.598E-03,   80.8744E-03,   14.8900E-03
C:/temp/dataset/6/1_10.odb,Step-1,Increment      1: Step Time =    1.000,"PART-1-1",           589,          3.75,          -20.,            0.,NA,NA,"",   124.385E-03,  -123.572E-03,  -14.1940E-03,   26.1138E-03
C:/temp/dataset/6/1_10.odb,Step-1,Increment      1: Step Time =    1.000,"PART-1-1",           590,       2.69482,      -20.9389,            0.,NA,NA,"",   106.701E-03,  -105.632E-03,  -15.0696E-03,   12.3646E-03
C:/temp/dataset/6/1_10.odb,Step-1,Increment      1: Step Time =    1.000,"PART-1-1",           591,       4.10336,      -21.5712,            0.,NA,NA,"",   112.819E-03,  -110.112E-03,  -24.5649E-03,   14.9699E-03
C:/temp/dataset/6/1_10.odb,Step-1,Increment      1: Step Time =    1.000,"PART-1-1",           592,       5.15854,      -20.6323,            0.,NA,NA,"",   140.563E-03,  -137.654E-03,  -28.4517E-03,   23.6877E-03
C:/temp/dataset/6/1_10.odb,Step-1,Increment      1: Step Time =    1.000,"PART-1-1",           593,          1.25,          -20.,            0.,NA,NA,"",   92.5304E-03,  -92.4887E-03,  -2.77974E-03,   8.47195E-03
C:/temp/dataset/6/1_10.odb,Step-1,Increment      1: Step Time =    1.000,"PART-1-1",           594,       1.58638,      -22.3782,            0.,NA,NA,"",   84.6251E-03,  -83.8263E-03,  -11.6004E-03,   12.4156E-03
C:/temp/dataset/6/1_10.odb,Step-1,Increment      1: Step Time =    1.000,"PART-1-1",           595,      -7.18878,      -21.5166,            0.,NA,NA,"",   84.5046E-03,  -78.2430E-03,  -31.9228E-03,   4.38280E-03
C:/temp/dataset/6/1_10.odb,Step-1,Increment      1: Step Time =    1.000,"PART-1-1",           596,      -8.69544,      -20.4918,            0.,NA,NA,"",   128.473E-03,  -105.541E-03,  -73.2564E-03,   10.1891E-03
C:/temp/dataset/6/1_10.odb,Step-1,Increment      1: Step Time =    1.000,"PART-1-1",           597,      -9.53108,      -21.9939,            0.,NA,NA,"",   110.749E-03,  -78.2136E-03,  -78.4084E-03,   12.1924E-03
C:/temp/dataset/6/1_10.odb,Step-1,Increment      1: Step Time =    1.000,"PART-1-1",           598,      -8.02442,      -23.0186,            0.,NA,NA,"",   68.7834E-03,  -55.8647E-03,  -40.1284E-03,   6.53163E-03
C:/temp/dataset/6/1_10.odb,Step-1,Increment      1: Step Time =    1.000,"PART-1-1",           599,           -5.,      -18.7437,            0.,NA,NA,"",   151.440E-03,  -149.873E-03,   21.7307E-03,   12.0641E-03
C:/temp/dataset/6/1_10.odb,Step-1,Increment      1: Step Time =    1.000,"PART-1-1",           600,      -6.23242,      -17.5731,            0.,NA,NA,"",   190.450E-03,  -189.972E-03,  -13.4729E-03,   3.32775E-03
C:/temp/dataset/6/1_10.odb,Step-1,Increment      1: Step Time =    1.000,"PART-1-1",           601,      -7.41830,      -18.9573,            0.,NA,NA,"",   149.655E-03,  -141.274E-03,  -49.3774E-03,   5.51961E-03
C:/temp/dataset/6/1_10.odb,Step-1,Increment      1: Step Time =    1.000,"PART-1-1",           602,      -6.18588,      -20.1280,            0.,NA,NA,"",   103.844E-03,  -102.877E-03,  -14.1365E-03,   5.69436E-03
C:/temp/dataset/6/1_10.odb,Step-1,Increment      1: Step Time =    1.000,"PART-1-1",           603,           -5.,      -16.2312,            0.,NA,NA,"",   253.120E-03,  -249.732E-03,   41.2753E-03,   7.57259E-03
C:/temp/dataset/6/1_10.odb,Step-1,Increment      1: Step Time =    1.000,"PART-1-1",           604,      -7.44257,      -16.3835,            0.,NA,NA,"",   245.503E-03,  -238.251E-03,  -59.2303E-03,   3.59790E-03
C:/temp/dataset/6/1_10.odb,Step-1,Increment      1: Step Time =    1.000,"PART-1-1",           605,      -12.6830,      -26.0788,            0.,NA,NA,"",   80.7970E-03,  -40.5344E-03,  -69.8936E-03,   21.6645E-03
C:/temp/dataset/6/1_10.odb,Step-1,Increment      1: Step Time =    1.000,"PART-1-1",           606,          -15.,        -26.25,            0.,NA,NA,"",   115.640E-03,  -63.8752E-03,  -96.3979E-03,   27.0201E-03
C:/temp/dataset/6/1_10.odb,Step-1,Increment      1: Step Time =    1.000,"PART-1-1",           607,         -8.75,          -30.,            0.,NA,NA,"",            0.,   603.392E-42,  -17.5829E-39,   9.08829E-03
C:/temp/dataset/6/1_10.odb,Step-1,Increment      1: Step Time =    1.000,"PART-1-1",           608,          -15.,        -18.75,            0.,NA,NA,"",   360.640E-03,  -210.474E-03,  -292.851E-03,   31.2762E-03
C:/temp/dataset/6/1_10.odb,Step-1,Increment      1: Step Time =    1.000,"PART-1-1",           609,      -12.5734,      -18.8685,            0.,NA,NA,"",   276.546E-03,  -178.303E-03,  -211.390E-03,   22.3262E-03
C:/temp/dataset/6/1_10.odb,Step-1,Increment      1: Step Time =    1.000,"PART-1-1",           610,           -5.,      -11.2063,            0.,NA,NA,"",   509.486E-03,  -505.573E-03,   63.0265E-03,   6.12275E-03
C:/temp/dataset/6/1_10.odb,Step-1,Increment      1: Step Time =    1.000,"PART-1-1",           611,      -7.25264,      -11.4522,            0.,NA,NA,"",   490.476E-03,  -485.742E-03,  -67.9800E-03,   3.13513E-03
C:/temp/dataset/6/1_10.odb,Step-1,Increment      1: Step Time =    1.000,"PART-1-1",           612,           -5.,      -6.23750,            0.,NA,NA,"",   860.928E-03,  -857.608E-03,   75.5364E-03,   9.72328E-03
C:/temp/dataset/6/1_10.odb,Step-1,Increment      1: Step Time =    1.000,"PART-1-1",           613,      -6.16987,      -5.46941,            0.,NA,NA,"",   924.814E-03,  -924.578E-03,  -20.8897E-03,   20.6912E-03
C:/temp/dataset/6/1_10.odb,Step-1,Increment      1: Step Time =    1.000,"PART-1-1",           614,      -7.24309,      -6.98789,            0.,NA,NA,"",   792.689E-03,  -787.419E-03,  -91.2536E-03,   6.25123E-03
C:/temp/dataset/6/1_10.odb,Step-1,Increment      1: Step Time =    1.000,"PART-1-1",           615,           -5.,       16.4583,            0.,NA,NA,"",       4.56018,      -4.52443,   569.960E-03,   39.5278E-03
C:/temp/dataset/6/1_10.odb,Step-1,Increment      1: Step Time =    1.000,"PART-1-1",           616,      -7.23328,       16.4840,            0.,NA,NA,"",       4.42145,      -4.42141,  -17.1853E-03,   24.7216E-03
C:/temp/dataset/6/1_10.odb,Step-1,Increment      1: Step Time =    1.000,"PART-1-1",           617,      -6.08867,       15.3700,            0.,NA,NA,"",       4.17414,      -4.16398,   290.952E-03,   34.6868E-03
C:/temp/dataset/6/1_10.odb,Step-1,Increment      1: Step Time =    1.000,"PART-1-1",           618,      -13.1522,       16.1892,            0.,NA,NA,"",       4.41408,      -4.14476,      -1.51827,   27.0919E-03
C:/temp/dataset/6/1_10.odb,Step-1,Increment      1: Step Time =    1.000,"PART-1-1",           619,      -14.0864,       17.4486,            0.,NA,NA,"",       4.83350,      -4.46536,      -1.85022,   28.9656E-03
C:/temp/dataset/6/1_10.odb,Step-1,Increment      1: Step Time =    1.000,"PART-1-1",           620,          -15.,         16.25,            0.,NA,NA,"",       4.58965,      -4.12022,      -2.02204,   39.5969E-03
C:/temp/dataset/6/1_10.odb,Step-1,Increment      1: Step Time =    1.000,"PART-1-1",           621,           -5.,       24.7917,            0.,NA,NA,"",       7.06710,      -7.05738,   370.560E-03,   13.2818E-03
C:/temp/dataset/6/1_10.odb,Step-1,Increment      1: Step Time =    1.000,"PART-1-1",           622,      -6.14442,       25.7689,            0.,NA,NA,"",       7.29519,      -7.29518,  -15.3179E-03,   12.5067E-03
C:/temp/dataset/6/1_10.odb,Step-1,Increment      1: Step Time =    1.000,"PART-1-1",           623,           -5.,        26.875,            0.,NA,NA,"",       7.70567,      -7.70050,   282.115E-03,   10.7960E-03
C:/temp/dataset/6/1_10.odb,Step-1,Increment      1: Step Time =    1.000,"PART-1-1",           624,      -7.36924,       26.7689,            0.,NA,NA,"",       7.54874,      -7.53704,  -420.205E-03,   11.6876E-03
C:/temp/dataset/6/1_10.odb,Step-1,Increment      1: Step Time =    1.000,"PART-1-1",           625,      -13.1175,       20.9132,            0.,NA,NA,"",       5.77401,      -5.48989,      -1.78895,   17.3673E-03
C:/temp/dataset/6/1_10.odb,Step-1,Increment      1: Step Time =    1.000,"PART-1-1",           626,      -14.0212,       22.2867,            0.,NA,NA,"",       6.24108,      -5.86563,      -2.13199,   14.1093E-03
C:/temp/dataset/6/1_10.odb,Step-1,Increment      1: Step Time =    1.000,"PART-1-1",           627,          -15.,         21.25,            0.,NA,NA,"",       6.00520,      -5.52133,      -2.36165,   20.0649E-03
C:/temp/dataset/6/1_10.odb,Step-1,Increment      1: Step Time =    1.000,"PART-1-1",           628,      -14.0963,       19.8765,            0.,NA,NA,"",       5.52996,      -5.15234,      -2.00844,   21.4907E-03
C:/temp/dataset/6/1_10.odb,Step-1,Increment      1: Step Time =    1.000,"PART-1-1",           629,         -1.25,           -5.,            0.,NA,NA,"",       1.14739,      -1.13455,   171.181E-03,   28.1795E-03
C:/temp/dataset/6/1_10.odb,Step-1,Increment      1: Step Time =    1.000,"PART-1-1",           630,      -1.77292,      -3.03732,            0.,NA,NA,"",       1.19212,      -1.17791,   183.543E-03,   21.3071E-03
C:/temp/dataset/6/1_10.odb,Step-1,Increment      1: Step Time =    1.000,"PART-1-1",           631,      -12.1053,      -2.30059,            0.,NA,NA,"",       1.20966,      -1.09624,  -511.411E-03,   24.0404E-03
C:/temp/dataset/6/1_10.odb,Step-1,Increment      1: Step Time =    1.000,"PART-1-1",           632,      -10.7648,      -1.40855,            0.,NA,NA,"",       1.22404,      -1.15741,  -398.350E-03,   21.9653E-03
C:/temp/dataset/6/1_10.odb,Step-1,Increment      1: Step Time =    1.000,"PART-1-1",           633,      -11.5438,  -354.672E-03,            0.,NA,NA,"",       1.32730,      -1.23174,  -494.530E-03,   27.2412E-03
C:/temp/dataset/6/1_10.odb,Step-1,Increment      1: Step Time =    1.000,"PART-1-1",           634,          3.75,           -5.,            0.,NA,NA,"",       1.19253,      -1.18175,   159.934E-03,   22.2885E-03
C:/temp/dataset/6/1_10.odb,Step-1,Increment      1: Step Time =    1.000,"PART-1-1",           635,       4.52066,      -3.83856,            0.,NA,NA,"",       1.18996,      -1.18213,   136.216E-03,   36.0598E-03
C:/temp/dataset/6/1_10.odb,Step-1,Increment      1: Step Time =    1.000,"PART-1-1",           636,       2.94662,      -2.72704,            0.,NA,NA,"",       1.22246,      -1.21004,   173.798E-03,   26.0157E-03
C:/temp/dataset/6/1_10.odb,Step-1,Increment      1: Step Time =    1.000,"PART-1-1",           637,       1.50395,       2.56821,            0.,NA,NA,"",       1.40087,      -1.38824,   187.694E-03,   23.6557E-03
C:/temp/dataset/6/1_10.odb,Step-1,Increment      1: Step Time =    1.000,"PART-1-1",           638,          1.25,            5.,            0.,NA,NA,"",       1.44121,      -1.43109,   170.503E-03,   19.0762E-03
C:/temp/dataset/6/1_10.odb,Step-1,Increment      1: Step Time =    1.000,"PART-1-1",           639,          6.25,            5.,            0.,NA,NA,"",       1.41608,      -1.40249,   195.747E-03,   2.51385E-03
C:/temp/dataset/6/1_10.odb,Step-1,Increment      1: Step Time =    1.000,"PART-1-1",           640,  -213.968E-03,      -26.0734,            0.,NA,NA,"",   36.4302E-03,  -36.1199E-03,  -4.74524E-03,   8.59027E-03
C:/temp/dataset/6/1_10.odb,Step-1,Increment      1: Step Time =    1.000,"PART-1-1",           641,       1.14210,      -23.8512,            0.,NA,NA,"",   65.8032E-03,  -65.0949E-03,  -9.62927E-03,   10.6927E-03
C:/temp/dataset/6/1_10.odb,Step-1,Increment      1: Step Time =    1.000,"PART-1-1",           642,  -234.527E-03,      -23.9674,            0.,NA,NA,"",   60.9110E-03,  -60.6903E-03,  -5.18067E-03,   10.0095E-03
C:/temp/dataset/6/1_10.odb,Step-1,Increment      1: Step Time =    1.000,"PART-1-1",           643,           -5.,        14.375,            0.,NA,NA,"",       3.98927,      -3.94877,   566.988E-03,   46.9729E-03
C:/temp/dataset/6/1_10.odb,Step-1,Increment      1: Step Time =    1.000,"PART-1-1",           644,      -7.14364,       14.2292,            0.,NA,NA,"",       3.80711,      -3.80691,   39.0822E-03,   29.9021E-03
C:/temp/dataset/6/1_10.odb,Step-1,Increment      1: Step Time =    1.000,"PART-1-1",           645,           -5.,       6.04167,            0.,NA,NA,"",       2.01007,      -1.98694,   304.013E-03,   124.173E-03
C:/temp/dataset/6/1_10.odb,Step-1,Increment      1: Step Time =    1.000,"PART-1-1",           646,      -5.82078,       6.95384,            0.,NA,NA,"",       2.15156,      -2.14063,   216.638E-03,   68.1635E-03
C:/temp/dataset/6/1_10.odb,Step-1,Increment      1: Step Time =    1.000,"PART-1-1",           647,      -6.45742,       5.85906,            0.,NA,NA,"",       1.89690,      -1.89503,   84.1635E-03,   51.8518E-03
C:/temp/dataset/6/1_10.odb,Step-1,Increment      1: Step Time =    1.000,"PART-1-1",           648,      -5.63664,       4.94688,            0.,NA,NA,"",       1.72876,      -1.72135,   159.908E-03,   92.7148E-03
C:/temp/dataset/6/1_10.odb,Step-1,Increment      1: Step Time =    1.000,"PART-1-1",           649,           -5.,         8.125,            0.,NA,NA,"",       2.47321,      -2.43701,   421.615E-03,   72.6653E-03
C:/temp/dataset/6/1_10.odb,Step-1,Increment      1: Step Time =    1.000,"PART-1-1",           650,      -5.96903,       9.00386,            0.,NA,NA,"",       2.59503,      -2.58198,   259.974E-03,   55.5585E-03
C:/temp/dataset/6/1_10.odb,Step-1,Increment      1: Step Time =    1.000,"PART-1-1",           651,          -15.,         -3.75,            0.,NA,NA,"",       1.24364,      -1.02100,  -710.075E-03,   31.5385E-03
C:/temp/dataset/6/1_10.odb,Step-1,Increment      1: Step Time =    1.000,"PART-1-1",           652,      -12.7846,      -3.59401,            0.,NA,NA,"",       1.14814,      -1.01174,  -542.764E-03,   24.5658E-03
C:/temp/dataset/6/1_10.odb,Step-1,Increment      1: Step Time =    1.000,"PART-1-1",           653,      -11.5430,      -4.20540,            0.,NA,NA,"",       1.05831,  -967.215E-03,  -429.559E-03,   16.8287E-03
C:/temp/dataset/6/1_10.odb,Step-1,Increment      1: Step Time =    1.000,"PART-1-1",           654,      -10.1018,      -4.29084,            0.,NA,NA,"",       1.01440,  -965.163E-03,  -312.211E-03,   11.7404E-03
C:/temp/dataset/6/1_10.odb,Step-1,Increment      1: Step Time =    1.000,"PART-1-1",           655,          -15.,        -11.25,            0.,NA,NA,"",   743.030E-03,  -541.954E-03,  -508.311E-03,   28.9517E-03
C:/temp/dataset/6/1_10.odb,Step-1,Increment      1: Step Time =    1.000,"PART-1-1",           656,      -12.2331,      -11.1785,            0.,NA,NA,"",   627.521E-03,  -519.759E-03,  -351.616E-03,   20.1402E-03
C:/temp/dataset/6/1_10.odb,Step-1,Increment      1: Step Time =    1.000,"PART-1-1",           657,       5.21391,      -1.02834,            0.,NA,NA,"",       1.27759,      -1.26604,   171.392E-03,   21.2970E-03
C:/temp/dataset/6/1_10.odb,Step-1,Increment      1: Step Time =    1.000,"PART-1-1",           658,       6.72319,      -1.59046,            0.,NA,NA,"",       1.26781,      -1.25559,   175.643E-03,   16.3186E-03
C:/temp/dataset/6/1_10.odb,Step-1,Increment      1: Step Time =    1.000,"PART-1-1",           659,       10.9187,      -16.2245,            0.,NA,NA,"",   483.291E-03,  -438.554E-03,   203.079E-03,   19.2964E-03
C:/temp/dataset/6/1_10.odb,Step-1,Increment      1: Step Time =    1.000,"PART-1-1",           660,       11.9858,      -14.8752,            0.,NA,NA,"",   596.102E-03,  -533.963E-03,   264.994E-03,   18.2949E-03
C:/temp/dataset/6/1_10.odb,Step-1,Increment      1: Step Time =    1.000,"PART-1-1",           661,       10.9746,      -13.7451,            0.,NA,NA,"",   644.259E-03,  -602.125E-03,   229.161E-03,   18.1884E-03
C:/temp/dataset/6/1_10.odb,Step-1,Increment      1: Step Time =    1.000,"PART-1-1",           662,       11.9830,      -12.5543,            0.,NA,NA,"",   745.870E-03,  -688.765E-03,   286.225E-03,   16.1159E-03
C:/temp/dataset/6/1_10.odb,Step-1,Increment      1: Step Time =    1.000,"PART-1-1",           663,           15.,      -20.1563,            0.,NA,NA,"",   407.312E-03,  -271.250E-03,   303.853E-03,   32.3592E-03
C:/temp/dataset/6/1_10.odb,Step-1,Increment      1: Step Time =    1.000,"PART-1-1",           664,       14.0841,      -19.1367,            0.,NA,NA,"",   422.054E-03,  -306.032E-03,   290.645E-03,   27.5089E-03
C:/temp/dataset/6/1_10.odb,Step-1,Increment      1: Step Time =    1.000,"PART-1-1",           665,       13.0385,      -20.2889,            0.,NA,NA,"",   326.660E-03,  -238.657E-03,   223.046E-03,   24.8651E-03
C:/temp/dataset/6/1_10.odb,Step-1,Increment      1: Step Time =    1.000,"PART-1-1",           666,           15.,      -17.9688,            0.,NA,NA,"",   523.916E-03,  -378.892E-03,   361.841E-03,   28.1574E-03
C:/temp/dataset/6/1_10.odb,Step-1,Increment      1: Step Time =    1.000,"PART-1-1",           667,          1.25,          -30.,            0.,NA,NA,"",            0.,  -4.58074E-39,  -3.64528E-39,   4.86735E-03
C:/temp/dataset/6/1_10.odb,Step-1,Increment      1: Step Time =    1.000,"PART-1-1",           668,       3.30543,      -22.6598,            0.,NA,NA,"",   89.3465E-03,  -87.3119E-03,  -18.9587E-03,   14.1890E-03
C:/temp/dataset/6/1_10.odb,Step-1,Increment      1: Step Time =    1.000,"PART-1-1",           669,       2.86115,      -24.1329,            0.,NA,NA,"",   64.8647E-03,  -63.2251E-03,  -14.4917E-03,   11.8292E-03
C:/temp/dataset/6/1_10.odb,Step-1,Increment      1: Step Time =    1.000,"PART-1-1",           670,      -10.6801,      -21.6169,            0.,NA,NA,"",   143.586E-03,  -92.6247E-03,  -109.716E-03,   16.1290E-03
C:/temp/dataset/6/1_10.odb,Step-1,Increment      1: Step Time =    1.000,"PART-1-1",           671,      -11.3394,      -20.4213,            0.,NA,NA,"",   191.346E-03,  -124.381E-03,  -145.404E-03,   18.3779E-03
C:/temp/dataset/6/1_10.odb,Step-1,Increment      1: Step Time =    1.000,"PART-1-1",           672,      -12.1593,      -22.4638,            0.,NA,NA,"",   156.746E-03,  -88.1745E-03,  -129.594E-03,   20.5524E-03
C:/temp/dataset/6/1_10.odb,Step-1,Increment      1: Step Time =    1.000,"PART-1-1",           673,      -9.92443,      -16.4516,            0.,NA,NA,"",   289.418E-03,  -243.545E-03,  -156.361E-03,   12.8144E-03
C:/temp/dataset/6/1_10.odb,Step-1,Increment      1: Step Time =    1.000,"PART-1-1",           674,      -8.71114,      -17.7111,            0.,NA,NA,"",   213.404E-03,  -189.303E-03,  -98.5183E-03,   8.57282E-03
C:/temp/dataset/6/1_10.odb,Step-1,Increment      1: Step Time =    1.000,"PART-1-1",           675,      -9.25100,      -7.50767,            0.,NA,NA,"",   775.007E-03,  -742.242E-03,  -222.964E-03,   8.65491E-03
C:/temp/dataset/6/1_10.odb,Step-1,Increment      1: Step Time =    1.000,"PART-1-1",           676,      -8.32615,      -6.25855,            0.,NA,NA,"",   852.476E-03,  -835.615E-03,  -168.710E-03,   7.36940E-03
C:/temp/dataset/6/1_10.odb,Step-1,Increment      1: Step Time =    1.000,"PART-1-1",           677,      -7.58018,      -5.09368,            0.,NA,NA,"",   940.211E-03,  -932.686E-03,  -118.712E-03,   12.7085E-03
C:/temp/dataset/6/1_10.odb,Step-1,Increment      1: Step Time =    1.000,"PART-1-1",           678,      -6.67379,      -3.84489,            0.,NA,NA,"",       1.04483,      -1.04387,  -44.6781E-03,   20.0310E-03
C:/temp/dataset/6/1_10.odb,Step-1,Increment      1: Step Time =    1.000,"PART-1-1",           679,      -2.40491,      -1.03021,            0.,NA,NA,"",       1.27780,      -1.26478,   181.900E-03,   21.2203E-03
C:/temp/dataset/6/1_10.odb,Step-1,Increment      1: Step Time =    1.000,"PART-1-1",           680,      -3.32453,      -2.14711,            0.,NA,NA,"",       1.20992,      -1.20013,   153.584E-03,   18.3939E-03
C:/temp/dataset/6/1_10.odb,Step-1,Increment      1: Step Time =    1.000,"PART-1-1",           681,       10.4745,      -24.8101,            0.,NA,NA,"",   92.3568E-03,  -63.7420E-03,   66.8336E-03,   16.4334E-03
C:/temp/dataset/6/1_10.odb,Step-1,Increment      1: Step Time =    1.000,"PART-1-1",           682,       8.16019,      -23.0435,            0.,NA,NA,"",   97.9304E-03,  -90.2915E-03,   37.9186E-03,   8.68739E-03
C:/temp/dataset/6/1_10.odb,Step-1,Increment      1: Step Time =    1.000,"PART-1-1",           683,       9.40124,      -23.8494,            0.,NA,NA,"",   97.0313E-03,  -78.1265E-03,   57.5440E-03,   12.5387E-03
C:/temp/dataset/6/1_10.odb,Step-1,Increment      1: Step Time =    1.000,"PART-1-1",           684,       5.67200,      -27.0943,            0.,NA,NA,"",   18.2840E-03,  -18.2823E-03,  -245.830E-06,   4.60781E-03
C:/temp/dataset/6/1_10.odb,Step-1,Increment      1: Step Time =    1.000,"PART-1-1",           685,       4.86106,      -26.0050,            0.,NA,NA,"",   33.4362E-03,  -32.9750E-03,  -5.53409E-03,   6.63841E-03
C:/temp/dataset/6/1_10.odb,Step-1,Increment      1: Step Time =    1.000,"PART-1-1",           686,      -2.55341,      -23.8484,            0.,NA,NA,"",   56.0850E-03,  -56.0817E-03,   607.400E-06,   8.46253E-03
C:/temp/dataset/6/1_10.odb,Step-1,Increment      1: Step Time =    1.000,"PART-1-1",           687,      -4.82130,      -23.8875,            0.,NA,NA,"",   48.3325E-03,  -48.2015E-03,  -3.55528E-03,   5.71659E-03
C:/temp/dataset/6/1_10.odb,Step-1,Increment      1: Step Time =    1.000,"PART-1-1",           688,      -5.84083,      -25.1777,            0.,NA,NA,"",   32.7150E-03,  -31.2381E-03,  -9.71863E-03,   4.66726E-03
C:/temp/dataset/6/1_10.odb,Step-1,Increment      1: Step Time =    1.000,"PART-1-1",           689,           15.,      -26.7188,            0.,NA,NA,"",   132.313E-03,  -77.1090E-03,   107.522E-03,   34.3082E-03
C:/temp/dataset/6/1_10.odb,Step-1,Increment      1: Step Time =    1.000,"PART-1-1",           690,       10.9874,      -11.4075,            0.,NA,NA,"",   799.920E-03,  -760.598E-03,   247.715E-03,   16.9373E-03
C:/temp/dataset/6/1_10.odb,Step-1,Increment      1: Step Time =    1.000,"PART-1-1",           691,       7.29436,      -19.7763,            0.,NA,NA,"",   202.432E-03,  -198.932E-03,   37.4768E-03,   16.6394E-03
C:/temp/dataset/6/1_10.odb,Step-1,Increment      1: Step Time =    1.000,"PART-1-1",           692,       7.78340,      -18.7858,            0.,NA,NA,"",   265.682E-03,  -259.060E-03,   58.9461E-03,   16.7696E-03
C:/temp/dataset/6/1_10.odb,Step-1,Increment      1: Step Time =    1.000,"PART-1-1",           693,       10.8970,      -2.99004,            0.,NA,NA,"",       1.24921,      -1.21867,   274.542E-03,   3.39971E-03
C:/temp/dataset/6/1_10.odb,Step-1,Increment      1: Step Time =    1.000,"PART-1-1",           694,       12.0828,      -3.88727,            0.,NA,NA,"",       1.22645,      -1.18510,   315.774E-03,   2.25495E-03
C:/temp/dataset/6/1_10.odb,Step-1,Increment      1: Step Time =    1.000,"PART-1-1",           695,           15.,       1.71875,            0.,NA,NA,"",       1.40497,      -1.34889,   392.998E-03,   2.76586E-03
C:/temp/dataset/6/1_10.odb,Step-1,Increment      1: Step Time =    1.000,"PART-1-1",           696,       4.00043,  -427.215E-03,            0.,NA,NA,"",       1.29418,      -1.28183,   178.376E-03,   24.9651E-03
C:/temp/dataset/6/1_10.odb,Step-1,Increment      1: Step Time =    1.000,"PART-1-1",           697,       2.09609,       1.00148,            0.,NA,NA,"",       1.34807,      -1.33453,   190.594E-03,   25.0709E-03
C:/temp/dataset/6/1_10.odb,Step-1,Increment      1: Step Time =    1.000,"PART-1-1",           698,       2.38138,  -554.063E-03,            0.,NA,NA,"",       1.29370,      -1.27994,   188.163E-03,   28.2085E-03
C:/temp/dataset/6/1_10.odb,Step-1,Increment      1: Step Time =    1.000,"PART-1-1",           699,   35.7305E-03,       2.11113,            0.,NA,NA,"",       1.40684,      -1.39354,   193.019E-03,   28.7160E-03
C:/temp/dataset/6/1_10.odb,Step-1,Increment      1: Step Time =    1.000,"PART-1-1",           700,           -5.,       10.2083,            0.,NA,NA,"",       2.94160,      -2.90024,   491.508E-03,   61.6205E-03
C:/temp/dataset/6/1_10.odb,Step-1,Increment      1: Step Time =    1.000,"PART-1-1",           701,      -6.99901,       9.90050,            0.,NA,NA,"",       2.74185,      -2.74092,   71.2894E-03,   41.4922E-03
C:/temp/dataset/6/1_10.odb,Step-1,Increment      1: Step Time =    1.000,"PART-1-1",           702,      -11.2396,       16.2208,            0.,NA,NA,"",       4.32687,      -4.20343,      -1.02614,   18.6306E-03
C:/temp/dataset/6/1_10.odb,Step-1,Increment      1: Step Time =    1.000,"PART-1-1",           703,      -10.2112,       15.1096,            0.,NA,NA,"",       3.99762,      -3.93176,  -722.659E-03,   16.1907E-03
C:/temp/dataset/6/1_10.odb,Step-1,Increment      1: Step Time =    1.000,"PART-1-1",           704,      -9.25876,       16.3324,            0.,NA,NA,"",       4.33060,      -4.29813,  -529.356E-03,   17.4116E-03
C:/temp/dataset/6/1_10.odb,Step-1,Increment      1: Step Time =    1.000,"PART-1-1",           705,      -10.2871,       17.4437,            0.,NA,NA,"",       4.65118,      -4.57545,  -835.857E-03,   16.2703E-03
C:/temp/dataset/6/1_10.odb,Step-1,Increment      1: Step Time =    1.000,"PART-1-1",           706,      -8.19479,       15.2434,            0.,NA,NA,"",       4.04413,      -4.03739,  -233.391E-03,   21.3185E-03
C:/temp/dataset/6/1_10.odb,Step-1,Increment      1: Step Time =    1.000,"PART-1-1",           707,      -9.19446,       14.0222,            0.,NA,NA,"",       3.70204,      -3.67529,  -444.201E-03,   18.3947E-03
C:/temp/dataset/6/1_10.odb,Step-1,Increment      1: Step Time =    1.000,"PART-1-1",           708,      -8.14331,       13.0080,            0.,NA,NA,"",       3.45420,      -3.44948,  -180.561E-03,   24.4592E-03
C:/temp/dataset/6/1_10.odb,Step-1,Increment      1: Step Time =    1.000,"PART-1-1",           709,          -15.,         18.75,            0.,NA,NA,"",       5.28157,      -4.80252,      -2.19789,   29.7881E-03
C:/temp/dataset/6/1_10.odb,Step-1,Increment      1: Step Time =    1.000,"PART-1-1",           710,      -13.1826,       18.5751,            0.,NA,NA,"",       5.08863,      -4.80686,      -1.66981,   22.1997E-03
C:/temp/dataset/6/1_10.odb,Step-1,Increment      1: Step Time =    1.000,"PART-1-1",           711,      -11.2313,       23.3702,            0.,NA,NA,"",       6.45401,      -6.30429,      -1.38210,   14.2751E-03
C:/temp/dataset/6/1_10.odb,Step-1,Increment      1: Step Time =    1.000,"PART-1-1",           712,      -10.8173,       24.9058,            0.,NA,NA,"",       6.92455,      -6.79382,      -1.33918,   12.5238E-03
C:/temp/dataset/6/1_10.odb,Step-1,Increment      1: Step Time =    1.000,"PART-1-1",           713,      -13.5418,       24.7667,            0.,NA,NA,"",       6.96709,      -6.63428,      -2.12761,   8.29463E-03
C:/temp/dataset/6/1_10.odb,Step-1,Increment      1: Step Time =    1.000,"PART-1-1",           714,      -12.2278,       25.9824,            0.,NA,NA,"",       7.28787,      -7.06143,      -1.80257,   9.12566E-03
C:/temp/dataset/6/1_10.odb,Step-1,Increment      1: Step Time =    1.000,"PART-1-1",           715,          -15.,         26.25,            0.,NA,NA,"",       7.50056,      -7.01977,      -2.64221,   3.94146E-03
C:/temp/dataset/6/1_10.odb,Step-1,Increment      1: Step Time =    1.000,"PART-1-1",           716,          -15.,         23.75,            0.,NA,NA,"",       6.74918,      -6.26504,      -2.51013,   11.0887E-03
C:/temp/dataset/6/1_10.odb,Step-1,Increment      1: Step Time =    1.000,"PART-1-1",           717,      -12.5630,       23.3034,            0.,NA,NA,"",       6.47413,      -6.22973,      -1.76205,   13.4087E-03
C:/temp/dataset/6/1_10.odb,Step-1,Increment      1: Step Time =    1.000,"PART-1-1",           718,      -11.1827,       13.8735,            0.,NA,NA,"",       3.69357,      -3.58068,  -906.179E-03,   19.2384E-03
C:/temp/dataset/6/1_10.odb,Step-1,Increment      1: Step Time =    1.000,"PART-1-1",           719,      -10.1659,       12.7861,            0.,NA,NA,"",       3.39033,      -3.33102,  -631.396E-03,   16.1604E-03
C:/temp/dataset/6/1_10.odb,Step-1,Increment      1: Step Time =    1.000,"PART-1-1",           720,      -11.4858,       20.4947,            0.,NA,NA,"",       5.57882,      -5.42384,      -1.30581,   16.9242E-03
C:/temp/dataset/6/1_10.odb,Step-1,Increment      1: Step Time =    1.000,"PART-1-1",           721,      -10.4732,       19.7487,            0.,NA,NA,"",       5.33175,      -5.23907,  -989.807E-03,   16.4771E-03
C:/temp/dataset/6/1_10.odb,Step-1,Increment      1: Step Time =    1.000,"PART-1-1",           722,      -10.9778,       21.7959,            0.,NA,NA,"",       5.96270,      -5.83439,      -1.23033,   16.1676E-03
C:/temp/dataset/6/1_10.odb,Step-1,Increment      1: Step Time =    1.000,"PART-1-1",           723,      -9.13796,       11.7463,            0.,NA,NA,"",       3.12716,      -3.10404,  -379.542E-03,   19.6347E-03
C:/temp/dataset/6/1_10.odb,Step-1,Increment      1: Step Time =    1.000,"PART-1-1",           724,      -11.1090,       11.4975,            0.,NA,NA,"",       3.10194,      -2.99887,  -792.964E-03,   19.5444E-03
C:/temp/dataset/6/1_10.odb,Step-1,Increment      1: Step Time =    1.000,"PART-1-1",           725,      -7.95801,       5.48811,            0.,NA,NA,"",       1.83378,      -1.82986,  -119.724E-03,   22.5187E-03
C:/temp/dataset/6/1_10.odb,Step-1,Increment      1: Step Time =    1.000,"PART-1-1",           726,      -9.27172,       5.51676,            0.,NA,NA,"",       1.85953,      -1.83345,  -310.394E-03,   13.3884E-03
C:/temp/dataset/6/1_10.odb,Step-1,Increment      1: Step Time =    1.000,"PART-1-1",           727,      -9.10783,       4.19071,            0.,NA,NA,"",       1.67212,      -1.65042,  -268.502E-03,   15.4829E-03
C:/temp/dataset/6/1_10.odb,Step-1,Increment      1: Step Time =    1.000,"PART-1-1",           728,      -7.79412,       4.16207,            0.,NA,NA,"",       1.64603,      -1.64322,  -96.1052E-03,   19.8989E-03
C:/temp/dataset/6/1_10.odb,Step-1,Increment      1: Step Time =    1.000,"PART-1-1",           729,      -10.3652,   710.465E-03,            0.,NA,NA,"",       1.36729,      -1.31282,  -382.099E-03,   24.3509E-03
C:/temp/dataset/6/1_10.odb,Step-1,Increment      1: Step Time =    1.000,"PART-1-1",           730,      -11.5756,       2.14983,            0.,NA,NA,"",       1.54174,      -1.43843,  -554.862E-03,   30.6922E-03
C:/temp/dataset/6/1_10.odb,Step-1,Increment      1: Step Time =    1.000,"PART-1-1",           731,      -10.9514,      -7.70102,            0.,NA,NA,"",   803.370E-03,  -730.531E-03,  -334.257E-03,   14.3715E-03
C:/temp/dataset/6/1_10.odb,Step-1,Increment      1: Step Time =    1.000,"PART-1-1",           732,      -11.1587,      -15.1039,            0.,NA,NA,"",   383.222E-03,  -308.799E-03,  -226.941E-03,   16.9483E-03
C:/temp/dataset/6/1_10.odb,Step-1,Increment      1: Step Time =    1.000,"PART-1-1",           733,      -11.0422,      -12.5823,            0.,NA,NA,"",   506.260E-03,  -433.176E-03,  -262.027E-03,   16.3578E-03
C:/temp/dataset/6/1_10.odb,Step-1,Increment      1: Step Time =    1.000,"PART-1-1",           734,      -9.98828,      -19.2456,            0.,NA,NA,"",   191.110E-03,  -146.032E-03,  -123.279E-03,   13.9747E-03
C:/temp/dataset/6/1_10.odb,Step-1,Increment      1: Step Time =    1.000,"PART-1-1",           735,      -11.2222,      -17.6929,            0.,NA,NA,"",   277.493E-03,  -204.890E-03,  -187.143E-03,   17.7629E-03
C:/temp/dataset/6/1_10.odb,Step-1,Increment      1: Step Time =    1.000,"PART-1-1",           736,      -9.72809,       26.4627,            0.,NA,NA,"",       7.40495,      -7.32330,      -1.09666,   11.1417E-03
C:/temp/dataset/6/1_10.odb,Step-1,Increment      1: Step Time =    1.000,"PART-1-1",           737,      -8.07960,       10.7858,            0.,NA,NA,"",       2.91143,      -2.90779,  -145.608E-03,   27.8829E-03
C:/temp/dataset/6/1_10.odb,Step-1,Increment      1: Step Time =    1.000,"PART-1-1",           738,      -11.3320,       18.4953,            0.,NA,NA,"",       4.97939,      -4.84208,      -1.16126,   17.9329E-03
C:/temp/dataset/6/1_10.odb,Step-1,Increment      1: Step Time =    1.000,"PART-1-1",           739,      -10.4893,       6.32554,            0.,NA,NA,"",       2.02692,      -1.96063,  -514.127E-03,   16.3981E-03
C:/temp/dataset/6/1_10.odb,Step-1,Increment      1: Step Time =    1.000,"PART-1-1",           740,      -11.8356,       7.66802,            0.,NA,NA,"",       2.32626,      -2.19016,  -784.018E-03,   27.9713E-03
C:/temp/dataset/6/1_10.odb,Step-1,Increment      1: Step Time =    1.000,"PART-1-1",           741,      -11.4125,       4.87054,            0.,NA,NA,"",       1.85035,      -1.74591,  -612.844E-03,   27.1620E-03
C:/temp/dataset/6/1_10.odb,Step-1,Increment      1: Step Time =    1.000,"PART-1-1",           742,       10.1911,      -5.79504,            0.,NA,NA,"",       1.12812,      -1.10152,   243.527E-03,   10.8895E-03
C:/temp/dataset/6/1_10.odb,Step-1,Increment      1: Step Time =    1.000,"PART-1-1",           743,       9.10708,      -6.74300,            0.,NA,NA,"",       1.06883,      -1.05020,   198.683E-03,   15.6922E-03
C:/temp/dataset/6/1_10.odb,Step-1,Increment      1: Step Time =    1.000,"PART-1-1",           744,       11.1638,      -4.94873,            0.,NA,NA,"",       1.17515,      -1.14098,   281.302E-03,   6.17922E-03
C:/temp/dataset/6/1_10.odb,Step-1,Increment      1: Step Time =    1.000,"PART-1-1",           745,       10.4293,      -4.08570,            0.,NA,NA,"",       1.20542,      -1.17780,   256.561E-03,   5.97709E-03
C:/temp/dataset/6/1_10.odb,Step-1,Increment      1: Step Time =    1.000,"PART-1-1",           746,       9.97038,      -14.8971,            0.,NA,NA,"",   546.899E-03,  -518.354E-03,   174.376E-03,   17.7829E-03
C:/temp/dataset/6/1_10.odb,Step-1,Increment      1: Step Time =    1.000,"PART-1-1",           747,       9.96577,      -12.5508,            0.,NA,NA,"",   704.069E-03,  -677.254E-03,   192.459E-03,   17.5627E-03
C:/temp/dataset/6/1_10.odb,Step-1,Increment      1: Step Time =    1.000,"PART-1-1",           748,       8.96159,      -13.7029,            0.,NA,NA,"",   608.627E-03,  -592.883E-03,   137.536E-03,   17.1507E-03
C:/temp/dataset/6/1_10.odb,Step-1,Increment      1: Step Time =    1.000,"PART-1-1",           749,       6.92617,      -22.4012,            0.,NA,NA,"",   101.237E-03,  -100.282E-03,   13.8747E-03,   5.65264E-03
C:/temp/dataset/6/1_10.odb,Step-1,Increment      1: Step Time =    1.000,"PART-1-1",           750,       5.94981,      -23.5281,            0.,NA,NA,"",   72.5300E-03,  -72.4871E-03,  -2.49635E-03,   5.28720E-03
C:/temp/dataset/6/1_10.odb,Step-1,Increment      1: Step Time =    1.000,"PART-1-1",           751,       7.18383,      -24.1705,            0.,NA,NA,"",   63.1325E-03,  -61.3942E-03,   14.7128E-03,   4.15085E-03
C:/temp/dataset/6/1_10.odb,Step-1,Increment      1: Step Time =    1.000,"PART-1-1",           752,       11.0968,      -20.2176,            0.,NA,NA,"",   269.053E-03,  -219.241E-03,   155.957E-03,   20.2121E-03
C:/temp/dataset/6/1_10.odb,Step-1,Increment      1: Step Time =    1.000,"PART-1-1",           753,       6.43355,      -20.8801,            0.,NA,NA,"",   140.485E-03,  -140.383E-03,   5.35881E-03,   10.9821E-03
C:/temp/dataset/6/1_10.odb,Step-1,Increment      1: Step Time =    1.000,"PART-1-1",           754,       8.96045,      -11.3546,            0.,NA,NA,"",   768.926E-03,  -753.057E-03,   155.408E-03,   17.9664E-03
C:/temp/dataset/6/1_10.odb,Step-1,Increment      1: Step Time =    1.000,"PART-1-1",           755,       8.17216,      -2.03287,            0.,NA,NA,"",       1.26346,      -1.24767,   199.144E-03,   9.32674E-03
C:/temp/dataset/6/1_10.odb,Step-1,Increment      1: Step Time =    1.000,"PART-1-1",           756,       9.68046,      -2.49017,            0.,NA,NA,"",       1.25798,      -1.23544,   237.105E-03,   5.90490E-03
C:/temp/dataset/6/1_10.odb,Step-1,Increment      1: Step Time =    1.000,"PART-1-1",           757,      -5.24373,       2.94722,            0.,NA,NA,"",       1.52295,      -1.51706,   133.829E-03,   36.4715E-03
C:/temp/dataset/6/1_10.odb,Step-1,Increment      1: Step Time =    1.000,"PART-1-1",           758,      -6.20341,       3.93450,            0.,NA,NA,"",       1.61136,      -1.60907,   85.9241E-03,   39.5857E-03
C:/temp/dataset/6/1_10.odb,Step-1,Increment      1: Step Time =    1.000,"PART-1-1",           759,       7.87036,      -17.0650,            0.,NA,NA,"",   371.336E-03,  -364.708E-03,   69.8477E-03,   14.5109E-03
C:/temp/dataset/6/1_10.odb,Step-1,Increment      1: Step Time =    1.000,"PART-1-1",           760,      -8.77165,      -4.61616,            0.,NA,NA,"",   975.431E-03,  -953.347E-03,  -206.385E-03,   10.5407E-03
C:/temp/dataset/6/1_10.odb,Step-1,Increment      1: Step Time =    1.000,"PART-1-1",           761,       8.90402,      -15.9271,            0.,NA,NA,"",   459.908E-03,  -443.918E-03,   120.218E-03,   17.0879E-03
C:/temp/dataset/6/1_10.odb,Step-1,Increment      1: Step Time =    1.000,"PART-1-1",           762,       7.94609,      -14.8939,            0.,NA,NA,"",   513.801E-03,  -507.183E-03,   82.1985E-03,   14.0497E-03
C:/temp/dataset/6/1_10.odb,Step-1,Increment      1: Step Time =    1.000,"PART-1-1",           763,      -12.3095,       21.7291,            0.,NA,NA,"",       5.98221,      -5.76324,      -1.60373,   15.4910E-03
C:/temp/dataset/6/1_10.odb,Step-1,Increment      1: Step Time =    1.000,"PART-1-1",           764,      -12.2938,       19.6789,            0.,NA,NA,"",       5.36457,      -5.15448,      -1.48657,   17.9539E-03
C:/temp/dataset/6/1_10.odb,Step-1,Increment      1: Step Time =    1.000,"PART-1-1",           765,       3.72209,      -1.78065,            0.,NA,NA,"",       1.25167,      -1.23970,   172.687E-03,   27.4906E-03
C:/temp/dataset/6/1_10.odb,Step-1,Increment      1: Step Time =    1.000,"PART-1-1",           766,       6.45852,      -3.38063,            0.,NA,NA,"",       1.21254,      -1.20336,   148.917E-03,   18.3954E-03
C:/temp/dataset/6/1_10.odb,Step-1,Increment      1: Step Time =    1.000,"PART-1-1",           767,       4.93556,      -2.38177,            0.,NA,NA,"",       1.23391,      -1.22398,   156.260E-03,   26.3014E-03
C:/temp/dataset/6/1_10.odb,Step-1,Increment      1: Step Time =    1.000,"PART-1-1",           768,      -2.94024,   945.156E-03,            0.,NA,NA,"",       1.38362,      -1.37191,   179.571E-03,   26.9611E-03
C:/temp/dataset/6/1_10.odb,Step-1,Increment      1: Step Time =    1.000,"PART-1-1",           769,      -1.69279,      -25.0756,            0.,NA,NA,"",   44.6401E-03,  -44.5934E-03,  -2.04021E-03,   8.97099E-03
C:/temp/dataset/6/1_10.odb,Step-1,Increment      1: Step Time =    1.000,"PART-1-1",           770,      -6.93923,      -23.9860,            0.,NA,NA,"",   47.4638E-03,  -42.6053E-03,  -20.9190E-03,   3.58147E-03
C:/temp/dataset/6/1_10.odb,Step-1,Increment      1: Step Time =    1.000,"PART-1-1",           771,      -5.91970,      -22.6959,            0.,NA,NA,"",   61.4326E-03,  -60.5400E-03,  -10.4341E-03,   2.61195E-03
C:/temp/dataset/6/1_10.odb,Step-1,Increment      1: Step Time =    1.000,"PART-1-1",           772,      -12.2208,       17.3915,            0.,NA,NA,"",       4.69582,      -4.50029,      -1.34091,   20.4555E-03
C:/temp/dataset/6/1_10.odb,Step-1,Increment      1: Step Time =    1.000,"PART-1-1",           773,      -12.0398,       10.1961,            0.,NA,NA,"",       2.84974,      -2.69291,  -932.335E-03,   27.6107E-03
C:/temp/dataset/6/1_10.odb,Step-1,Increment      1: Step Time =    1.000,"PART-1-1",           774,      -10.8637,      -2.91198,            0.,NA,NA,"",       1.12484,      -1.05521,  -389.620E-03,   18.0856E-03
C:/temp/dataset/6/1_10.odb,Step-1,Increment      1: Step Time =    1.000,"PART-1-1",           775,      -9.61620,      -11.5179,            0.,NA,NA,"",   525.422E-03,  -485.711E-03,  -200.382E-03,   11.5562E-03
C:/temp/dataset/6/1_10.odb,Step-1,Increment      1: Step Time =    1.000,"PART-1-1",           776,      -11.8201,      -24.5932,            0.,NA,NA,"",   99.7624E-03,  -52.0053E-03,  -85.1351E-03,   19.1719E-03
C:/temp/dataset/6/1_10.odb,Step-1,Increment      1: Step Time =    1.000,"PART-1-1",           777,      -11.0718,      -23.4296,            0.,NA,NA,"",   110.782E-03,  -63.2309E-03,  -90.9641E-03,   16.9977E-03
C:/temp/dataset/6/1_10.odb,Step-1,Increment      1: Step Time =    1.000,"PART-1-1",           778,       4.75405,      -23.0816,            0.,NA,NA,"",   81.9637E-03,  -80.5179E-03,  -15.3266E-03,   9.43092E-03
C:/temp/dataset/6/1_10.odb,Step-1,Increment      1: Step Time =    1.000,"PART-1-1",           779,       5.55198,      -21.9930,            0.,NA,NA,"",   105.193E-03,  -104.519E-03,  -11.8841E-03,   8.63874E-03
C:/temp/dataset/6/1_10.odb,Step-1,Increment      1: Step Time =    1.000,"PART-1-1",           780,       7.01336,      -26.0950,            0.,NA,NA,"",   30.2477E-03,  -29.0043E-03,   8.58320E-03,   4.45897E-03
C:/temp/dataset/6/1_10.odb,Step-1,Increment      1: Step Time =    1.000,"PART-1-1",           781,       4.10189,      -23.9882,            0.,NA,NA,"",   66.5414E-03,  -64.8778E-03,  -14.7861E-03,   10.2917E-03
C:/temp/dataset/6/1_10.odb,Step-1,Increment      1: Step Time =    1.000,"PART-1-1",           782,       4.14804,      -25.2051,            0.,NA,NA,"",   46.7383E-03,  -45.5854E-03,  -10.3169E-03,   8.70861E-03
C:/temp/dataset/6/1_10.odb,Step-1,Increment      1: Step Time =    1.000,"PART-1-1",           783,      -12.1264,       12.6156,            0.,NA,NA,"",       3.41822,      -3.24744,      -1.06694,   25.6505E-03
C:/temp/dataset/6/1_10.odb,Step-1,Increment      1: Step Time =    1.000,"PART-1-1",           784,      -12.1709,       15.0185,            0.,NA,NA,"",       4.03800,      -3.85534,      -1.20076,   23.0529E-03
C:/temp/dataset/6/1_10.odb,Step-1,Increment      1: Step Time =    1.000,"PART-1-1",           785,      -10.3060,       3.43341,            0.,NA,NA,"",       1.62000,      -1.56495,  -418.748E-03,   20.6991E-03
C:/temp/dataset/6/1_10.odb,Step-1,Increment      1: Step Time =    1.000,"PART-1-1",           786,      -9.35047,  -311.861E-03,            0.,NA,NA,"",       1.26890,      -1.24110,  -264.178E-03,   21.2857E-03
C:/temp/dataset/6/1_10.odb,Step-1,Increment      1: Step Time =    1.000,"PART-1-1",           787,      -9.47746,      -1.56252,            0.,NA,NA,"",       1.18594,      -1.15427,  -272.229E-03,   19.4830E-03
C:/temp/dataset/6/1_10.odb,Step-1,Increment      1: Step Time =    1.000,"PART-1-1",           788,      -7.56677,      -1.93629,            0.,NA,NA,"",       1.15678,      -1.15237,  -100.877E-03,   18.1884E-03
C:/temp/dataset/6/1_10.odb,Step-1,Increment      1: Step Time =    1.000,"PART-1-1",           789,      -9.57637,      -3.06595,            0.,NA,NA,"",       1.08822,      -1.05274,  -275.602E-03,   15.2029E-03
C:/temp/dataset/6/1_10.odb,Step-1,Increment      1: Step Time =    1.000,"PART-1-1",           790,      -8.24618,      -3.39128,            0.,NA,NA,"",       1.05926,      -1.04651,  -163.871E-03,   16.3378E-03
C:/temp/dataset/6/1_10.odb,Step-1,Increment      1: Step Time =    1.000,"PART-1-1",           791,       7.98922,      -7.69035,            0.,NA,NA,"",       1.00037,  -989.387E-03,   147.816E-03,   21.8415E-03
C:/temp/dataset/6/1_10.odb,Step-1,Increment      1: Step Time =    1.000,"PART-1-1",           792,       7.96586,      -10.1263,            0.,NA,NA,"",   838.497E-03,  -829.870E-03,   119.966E-03,   18.6826E-03
C:/temp/dataset/6/1_10.odb,Step-1,Increment      1: Step Time =    1.000,"PART-1-1",           793,       7.95460,      -12.5381,            0.,NA,NA,"",   673.471E-03,  -666.356E-03,   97.6341E-03,   15.6327E-03
C:/temp/dataset/6/1_10.odb,Step-1,Increment      1: Step Time =    1.000,"PART-1-1",           794,      -6.90534,       4.84567,            0.,NA,NA,"",       1.73041,      -1.73032,   17.8357E-03,   33.7208E-03
C:/temp/dataset/6/1_10.odb,Step-1,Increment      1: Step Time =    1.000,"PART-1-1",           795,      -7.09219,       3.25090,            0.,NA,NA,"",       1.54102,      -1.54094,  -15.1639E-03,   23.8520E-03
C:/temp/dataset/6/1_10.odb,Step-1,Increment      1: Step Time =    1.000,"PART-1-1",           796,      -5.99438,      -2.38990,            0.,NA,NA,"",       1.15004,      -1.14993,   15.5661E-03,   18.2709E-03
C:/temp/dataset/6/1_10.odb,Step-1,Increment      1: Step Time =    1.000,"PART-1-1",           797,      -8.16339,       2.56404,            0.,NA,NA,"",       1.48148,      -1.47498,  -138.563E-03,   19.3801E-03
C:/temp/dataset/6/1_10.odb,Step-1,Increment      1: Step Time =    1.000,"PART-1-1",           798,      -6.16245,       1.98671,            0.,NA,NA,"",       1.43726,      -1.43627,   53.4591E-03,   25.1804E-03
C:/temp/dataset/6/1_10.odb,Step-1,Increment      1: Step Time =    1.000,"PART-1-1",           799,      -9.36160,       1.80674,            0.,NA,NA,"",       1.43221,      -1.40518,  -276.953E-03,   21.5305E-03
C:/temp/dataset/6/1_10.odb,Step-1,Increment      1: Step Time =    1.000,"PART-1-1",           800,      -4.18828,       1.89018,            0.,NA,NA,"",       1.44383,      -1.43549,   154.925E-03,   32.3840E-03
C:/temp/dataset/6/1_10.odb,Step-1,Increment      1: Step Time =    1.000,"PART-1-1",           801,      -2.02478,       2.01876,            0.,NA,NA,"",       1.43434,      -1.42178,   189.374E-03,   35.7735E-03
C:/temp/dataset/6/1_10.odb,Step-1,Increment      1: Step Time =    1.000,"PART-1-1",           802,       5.29765,      -24.4346,            0.,NA,NA,"",   56.4512E-03,  -56.0145E-03,  -7.00846E-03,   6.59724E-03
C:/temp/dataset/6/1_10.odb,Step-1,Increment      1: Step Time =    1.000,"PART-1-1",           803,       8.18651,      -25.0309,            0.,NA,NA,"",   54.1847E-03,  -47.4485E-03,   26.1652E-03,   6.84060E-03
C:/temp/dataset/6/1_10.odb,Step-1,Increment      1: Step Time =    1.000,"PART-1-1",           804,       6.01068,      -25.2345,            0.,NA,NA,"",   42.2746E-03,  -42.2742E-03,   171.904E-06,   4.58773E-03
