ODB Name,Step,Frame,Part Instance Name,    êﬂì_ÉâÉxÉã,X,Y,Z,Section Name,Material Name,Section Point,   U-Magnitude,          U-U1,          U-U2,       S-Mises
C:/temp/dataset/6/1_6.odb,Step-1,Increment      1: Step Time =    1.000,"PART-1-1",             1,            5.,           -5.,            0.,NA,NA,"",   697.846E-03,  -694.351E-03,   69.7558E-03,   34.6089E-03
C:/temp/dataset/6/1_6.odb,Step-1,Increment      1: Step Time =    1.000,"PART-1-1",             2,            0.,           -5.,            0.,NA,NA,"",   709.208E-03,  -698.677E-03,   121.762E-03,   12.7991E-03
C:/temp/dataset/6/1_6.odb,Step-1,Increment      1: Step Time =    1.000,"PART-1-1",             3,            5.,      -10.0250,            0.,NA,NA,"",   490.539E-03,  -490.141E-03,  -19.7508E-03,   11.0910E-03
C:/temp/dataset/6/1_6.odb,Step-1,Increment      1: Step Time =    1.000,"PART-1-1",             4,            5.,      -15.0500,            0.,NA,NA,"",   296.623E-03,  -292.965E-03,  -46.4406E-03,   2.41555E-03
C:/temp/dataset/6/1_6.odb,Step-1,Increment      1: Step Time =    1.000,"PART-1-1",             5,            5.,          -20.,            0.,NA,NA,"",   96.9541E-03,  -94.8058E-03,  -20.2966E-03,   23.7274E-03
C:/temp/dataset/6/1_6.odb,Step-1,Increment      1: Step Time =    1.000,"PART-1-1",             6,            0.,          -20.,            0.,NA,NA,"",   53.2577E-03,  -53.2567E-03,  -321.685E-06,   2.79235E-03
C:/temp/dataset/6/1_6.odb,Step-1,Increment      1: Step Time =    1.000,"PART-1-1",             7,           -5.,          -20.,            0.,NA,NA,"",   63.2908E-03,  -62.9357E-03,   6.69474E-03,   9.32848E-03
C:/temp/dataset/6/1_6.odb,Step-1,Increment      1: Step Time =    1.000,"PART-1-1",             8,           -5.,      -14.9750,            0.,NA,NA,"",   188.642E-03,  -185.844E-03,   32.3728E-03,   4.11292E-03
C:/temp/dataset/6/1_6.odb,Step-1,Increment      1: Step Time =    1.000,"PART-1-1",             9,           -5.,      -9.95000,            0.,NA,NA,"",   355.685E-03,  -352.544E-03,   47.1652E-03,   4.00355E-03
C:/temp/dataset/6/1_6.odb,Step-1,Increment      1: Step Time =    1.000,"PART-1-1",            10,           -5.,           -5.,            0.,NA,NA,"",   600.896E-03,  -598.694E-03,   51.3979E-03,   23.9088E-03
C:/temp/dataset/6/1_6.odb,Step-1,Increment      1: Step Time =    1.000,"PART-1-1",            11,           15.,          -30.,            0.,NA,NA,"",            0.,  -8.33579E-39,   14.8407E-39,   28.7514E-03
C:/temp/dataset/6/1_6.odb,Step-1,Increment      1: Step Time =    1.000,"PART-1-1",            12,          -15.,          -30.,            0.,NA,NA,"",            0.,  -6.78053E-39,  -11.9027E-39,   22.6168E-03
C:/temp/dataset/6/1_6.odb,Step-1,Increment      1: Step Time =    1.000,"PART-1-1",            13,           15.,        -21.25,            0.,NA,NA,"",   212.776E-03,  -134.954E-03,   164.503E-03,   20.3658E-03
C:/temp/dataset/6/1_6.odb,Step-1,Increment      1: Step Time =    1.000,"PART-1-1",            14,           15.,         -12.5,            0.,NA,NA,"",   507.682E-03,  -426.759E-03,   274.988E-03,   6.51348E-03
C:/temp/dataset/6/1_6.odb,Step-1,Increment      1: Step Time =    1.000,"PART-1-1",            15,           15.,         -3.75,            0.,NA,NA,"",   758.783E-03,  -712.285E-03,   261.536E-03,   5.37568E-03
C:/temp/dataset/6/1_6.odb,Step-1,Increment      1: Step Time =    1.000,"PART-1-1",            16,           15.,            5.,            0.,NA,NA,"",   888.452E-03,  -855.514E-03,   239.674E-03,   175.822E-06
C:/temp/dataset/6/1_6.odb,Step-1,Increment      1: Step Time =    1.000,"PART-1-1",            17,           10.,            5.,            0.,NA,NA,"",   865.731E-03,  -849.956E-03,   164.510E-03,   2.94256E-03
C:/temp/dataset/6/1_6.odb,Step-1,Increment      1: Step Time =    1.000,"PART-1-1",            18,            5.,            5.,            0.,NA,NA,"",   845.992E-03,  -837.449E-03,   119.920E-03,   400.675E-06
C:/temp/dataset/6/1_6.odb,Step-1,Increment      1: Step Time =    1.000,"PART-1-1",            19,            0.,            5.,            0.,NA,NA,"",   876.588E-03,  -869.212E-03,   113.476E-03,   14.7644E-03
C:/temp/dataset/6/1_6.odb,Step-1,Increment      1: Step Time =    1.000,"PART-1-1",            20,           -5.,            5.,            0.,NA,NA,"",       1.03075,      -1.02013,   147.564E-03,   88.0732E-03
C:/temp/dataset/6/1_6.odb,Step-1,Increment      1: Step Time =    1.000,"PART-1-1",            21,           -5.,         11.25,            0.,NA,NA,"",       1.90701,      -1.87110,   368.353E-03,   34.6997E-03
C:/temp/dataset/6/1_6.odb,Step-1,Increment      1: Step Time =    1.000,"PART-1-1",            22,           -5.,          17.5,            0.,NA,NA,"",       2.90568,      -2.87116,   446.582E-03,   21.3718E-03
C:/temp/dataset/6/1_6.odb,Step-1,Increment      1: Step Time =    1.000,"PART-1-1",            23,           -5.,         23.75,            0.,NA,NA,"",       4.04032,      -4.01773,   426.706E-03,   8.84906E-03
C:/temp/dataset/6/1_6.odb,Step-1,Increment      1: Step Time =    1.000,"PART-1-1",            24,           -5.,           30.,            0.,NA,NA,"",       5.19522,      -5.18419,   338.368E-03,   6.11764E-03
C:/temp/dataset/6/1_6.odb,Step-1,Increment      1: Step Time =    1.000,"PART-1-1",            25,          -10.,           30.,            0.,NA,NA,"",       5.10790,      -5.07658,  -564.821E-03,   3.45753E-03
C:/temp/dataset/6/1_6.odb,Step-1,Increment      1: Step Time =    1.000,"PART-1-1",            26,          -15.,           30.,            0.,NA,NA,"",       5.20164,      -4.99029,      -1.46765,   272.847E-06
C:/temp/dataset/6/1_6.odb,Step-1,Increment      1: Step Time =    1.000,"PART-1-1",            27,          -15.,          22.5,            0.,NA,NA,"",       3.85048,      -3.61647,      -1.32187,   9.18064E-03
C:/temp/dataset/6/1_6.odb,Step-1,Increment      1: Step Time =    1.000,"PART-1-1",            28,          -15.,           15.,            0.,NA,NA,"",       2.57363,      -2.33216,      -1.08840,   26.7923E-03
C:/temp/dataset/6/1_6.odb,Step-1,Increment      1: Step Time =    1.000,"PART-1-1",            29,          -15.,           7.5,            0.,NA,NA,"",       1.54511,      -1.33414,  -779.384E-03,   42.8736E-03
C:/temp/dataset/6/1_6.odb,Step-1,Increment      1: Step Time =    1.000,"PART-1-1",            30,          -15.,            0.,            0.,NA,NA,"",   927.296E-03,  -785.120E-03,  -493.420E-03,   28.7083E-03
C:/temp/dataset/6/1_6.odb,Step-1,Increment      1: Step Time =    1.000,"PART-1-1",            31,          -15.,          -7.5,            0.,NA,NA,"",   588.140E-03,  -468.730E-03,  -355.248E-03,   15.5865E-03
C:/temp/dataset/6/1_6.odb,Step-1,Increment      1: Step Time =    1.000,"PART-1-1",            32,          -15.,          -15.,            0.,NA,NA,"",   319.638E-03,  -214.696E-03,  -236.801E-03,   18.2719E-03
C:/temp/dataset/6/1_6.odb,Step-1,Increment      1: Step Time =    1.000,"PART-1-1",            33,          -15.,         -22.5,            0.,NA,NA,"",   133.308E-03,  -72.3767E-03,  -111.949E-03,   17.3289E-03
C:/temp/dataset/6/1_6.odb,Step-1,Increment      1: Step Time =    1.000,"PART-1-1",            34,           2.5,           -5.,            0.,NA,NA,"",   726.085E-03,  -716.800E-03,   115.748E-03,   5.82078E-03
C:/temp/dataset/6/1_6.odb,Step-1,Increment      1: Step Time =    1.000,"PART-1-1",            35,            5.,      -7.51250,            0.,NA,NA,"",   589.415E-03,  -589.360E-03,   8.09705E-03,   19.4785E-03
C:/temp/dataset/6/1_6.odb,Step-1,Increment      1: Step Time =    1.000,"PART-1-1",            36,            5.,      -12.5375,            0.,NA,NA,"",   393.142E-03,  -391.254E-03,  -38.4921E-03,   6.75457E-03
C:/temp/dataset/6/1_6.odb,Step-1,Increment      1: Step Time =    1.000,"PART-1-1",            37,            5.,      -17.5250,            0.,NA,NA,"",   203.123E-03,  -198.088E-03,  -44.9468E-03,   4.99202E-03
C:/temp/dataset/6/1_6.odb,Step-1,Increment      1: Step Time =    1.000,"PART-1-1",            38,           2.5,          -20.,            0.,NA,NA,"",   61.7810E-03,  -61.4483E-03,  -6.40263E-03,   9.80994E-03
C:/temp/dataset/6/1_6.odb,Step-1,Increment      1: Step Time =    1.000,"PART-1-1",            39,          -2.5,          -20.,            0.,NA,NA,"",   51.1856E-03,  -51.1064E-03,   2.84738E-03,   2.37727E-03
C:/temp/dataset/6/1_6.odb,Step-1,Increment      1: Step Time =    1.000,"PART-1-1",            40,           -5.,      -17.4875,            0.,NA,NA,"",   122.662E-03,  -120.383E-03,   23.5360E-03,   5.95885E-03
C:/temp/dataset/6/1_6.odb,Step-1,Increment      1: Step Time =    1.000,"PART-1-1",            41,           -5.,      -12.4625,            0.,NA,NA,"",   265.795E-03,  -262.734E-03,   40.2232E-03,   3.79996E-03
C:/temp/dataset/6/1_6.odb,Step-1,Increment      1: Step Time =    1.000,"PART-1-1",            42,           -5.,      -7.47500,            0.,NA,NA,"",   459.451E-03,  -456.314E-03,   53.5931E-03,   5.66126E-03
C:/temp/dataset/6/1_6.odb,Step-1,Increment      1: Step Time =    1.000,"PART-1-1",            43,          -2.5,           -5.,            0.,NA,NA,"",   669.780E-03,  -661.815E-03,   102.985E-03,   22.4730E-03
C:/temp/dataset/6/1_6.odb,Step-1,Increment      1: Step Time =    1.000,"PART-1-1",            44,          12.5,          -30.,            0.,NA,NA,"",            0.,  -13.5578E-39,   35.6845E-39,   10.9697E-03
C:/temp/dataset/6/1_6.odb,Step-1,Increment      1: Step Time =    1.000,"PART-1-1",            45,           10.,          -30.,            0.,NA,NA,"",            0.,   6.47188E-39,   17.8562E-39,   7.01711E-03
C:/temp/dataset/6/1_6.odb,Step-1,Increment      1: Step Time =    1.000,"PART-1-1",            46,           7.5,          -30.,            0.,NA,NA,"",            0.,   2.82613E-39,   7.67220E-39,   2.80063E-03
C:/temp/dataset/6/1_6.odb,Step-1,Increment      1: Step Time =    1.000,"PART-1-1",            47,            5.,          -30.,            0.,NA,NA,"",            0.,  -1.99595E-39,   1.15723E-39,   1.07609E-03
C:/temp/dataset/6/1_6.odb,Step-1,Increment      1: Step Time =    1.000,"PART-1-1",            48,           2.5,          -30.,            0.,NA,NA,"",            0.,  -3.50238E-39,  -1.54614E-39,   2.70280E-03
C:/temp/dataset/6/1_6.odb,Step-1,Increment      1: Step Time =    1.000,"PART-1-1",            49,            0.,          -30.,            0.,NA,NA,"",            0.,  -5.62541E-39,  -6.77247E-39,   3.27360E-03
C:/temp/dataset/6/1_6.odb,Step-1,Increment      1: Step Time =    1.000,"PART-1-1",            50,          -2.5,          -30.,            0.,NA,NA,"",            0.,  -2.34315E-39,  -1.11121E-39,   2.77097E-03
C:/temp/dataset/6/1_6.odb,Step-1,Increment      1: Step Time =    1.000,"PART-1-1",            51,           -5.,          -30.,            0.,NA,NA,"",            0.,   349.389E-42,  -4.67961E-39,   2.29321E-03
C:/temp/dataset/6/1_6.odb,Step-1,Increment      1: Step Time =    1.000,"PART-1-1",            52,          -7.5,          -30.,            0.,NA,NA,"",            0.,   3.82437E-39,  -11.2731E-39,   3.87480E-03
C:/temp/dataset/6/1_6.odb,Step-1,Increment      1: Step Time =    1.000,"PART-1-1",            53,          -10.,          -30.,            0.,NA,NA,"",            0.,  -7.62039E-39,  -18.6374E-39,   6.78224E-03
C:/temp/dataset/6/1_6.odb,Step-1,Increment      1: Step Time =    1.000,"PART-1-1",            54,         -12.5,          -30.,            0.,NA,NA,"",            0.,  -2.43707E-39,  -26.5635E-39,   9.32166E-03
C:/temp/dataset/6/1_6.odb,Step-1,Increment      1: Step Time =    1.000,"PART-1-1",            55,           15.,      -23.4375,            0.,NA,NA,"",   153.882E-03,  -90.8693E-03,   124.187E-03,   20.7922E-03
C:/temp/dataset/6/1_6.odb,Step-1,Increment      1: Step Time =    1.000,"PART-1-1",            56,           15.,       -25.625,            0.,NA,NA,"",   102.383E-03,  -58.4748E-03,   84.0420E-03,   20.1252E-03
C:/temp/dataset/6/1_6.odb,Step-1,Increment      1: Step Time =    1.000,"PART-1-1",            57,           15.,      -27.8125,            0.,NA,NA,"",   56.2464E-03,  -33.5493E-03,   45.1453E-03,   21.8864E-03
C:/temp/dataset/6/1_6.odb,Step-1,Increment      1: Step Time =    1.000,"PART-1-1",            58,           15.,      -14.6875,            0.,NA,NA,"",   429.904E-03,  -342.878E-03,   259.329E-03,   11.0544E-03
C:/temp/dataset/6/1_6.odb,Step-1,Increment      1: Step Time =    1.000,"PART-1-1",            59,           15.,       -16.875,            0.,NA,NA,"",   352.806E-03,  -263.332E-03,   234.794E-03,   15.2752E-03
C:/temp/dataset/6/1_6.odb,Step-1,Increment      1: Step Time =    1.000,"PART-1-1",            60,           15.,      -19.0625,            0.,NA,NA,"",   279.563E-03,  -192.827E-03,   202.418E-03,   18.5841E-03
C:/temp/dataset/6/1_6.odb,Step-1,Increment      1: Step Time =    1.000,"PART-1-1",            61,           15.,       -5.9375,            0.,NA,NA,"",   710.640E-03,  -656.317E-03,   272.500E-03,   4.57373E-03
C:/temp/dataset/6/1_6.odb,Step-1,Increment      1: Step Time =    1.000,"PART-1-1",            62,           15.,        -8.125,            0.,NA,NA,"",   651.454E-03,  -588.061E-03,   280.314E-03,   1.91134E-03
C:/temp/dataset/6/1_6.odb,Step-1,Increment      1: Step Time =    1.000,"PART-1-1",            63,           15.,      -10.3125,            0.,NA,NA,"",   582.730E-03,  -510.088E-03,   281.752E-03,   2.04960E-03
C:/temp/dataset/6/1_6.odb,Step-1,Increment      1: Step Time =    1.000,"PART-1-1",            64,           15.,        2.8125,            0.,NA,NA,"",   857.950E-03,  -823.641E-03,   240.194E-03,   744.392E-06
C:/temp/dataset/6/1_6.odb,Step-1,Increment      1: Step Time =    1.000,"PART-1-1",            65,           15.,      625.E-03,            0.,NA,NA,"",   828.695E-03,  -792.075E-03,   243.622E-03,   2.64674E-03
C:/temp/dataset/6/1_6.odb,Step-1,Increment      1: Step Time =    1.000,"PART-1-1",            66,           15.,       -1.5625,            0.,NA,NA,"",   797.026E-03,  -756.460E-03,   251.036E-03,   4.49733E-03
C:/temp/dataset/6/1_6.odb,Step-1,Increment      1: Step Time =    1.000,"PART-1-1",            67,          12.5,            5.,            0.,NA,NA,"",   878.210E-03,  -854.744E-03,   201.661E-03,   925.296E-06
C:/temp/dataset/6/1_6.odb,Step-1,Increment      1: Step Time =    1.000,"PART-1-1",            68,           7.5,            5.,            0.,NA,NA,"",   853.003E-03,  -842.153E-03,   135.622E-03,   3.31537E-03
C:/temp/dataset/6/1_6.odb,Step-1,Increment      1: Step Time =    1.000,"PART-1-1",            69,           2.5,            5.,            0.,NA,NA,"",   852.191E-03,  -844.391E-03,   115.036E-03,   7.15087E-03
C:/temp/dataset/6/1_6.odb,Step-1,Increment      1: Step Time =    1.000,"PART-1-1",            70,          -2.5,            5.,            0.,NA,NA,"",   918.968E-03,  -912.167E-03,   111.598E-03,   30.4020E-03
C:/temp/dataset/6/1_6.odb,Step-1,Increment      1: Step Time =    1.000,"PART-1-1",            71,           -5.,       9.16667,            0.,NA,NA,"",       1.61386,      -1.58203,   318.923E-03,   38.8720E-03
C:/temp/dataset/6/1_6.odb,Step-1,Increment      1: Step Time =    1.000,"PART-1-1",            72,           -5.,       7.08333,            0.,NA,NA,"",       1.33671,      -1.31081,   261.847E-03,   52.4056E-03
C:/temp/dataset/6/1_6.odb,Step-1,Increment      1: Step Time =    1.000,"PART-1-1",            73,           -5.,       15.4167,            0.,NA,NA,"",       2.55470,      -2.51791,   432.006E-03,   25.8460E-03
C:/temp/dataset/6/1_6.odb,Step-1,Increment      1: Step Time =    1.000,"PART-1-1",            74,           -5.,       13.3333,            0.,NA,NA,"",       2.22088,      -2.18348,   405.897E-03,   30.2056E-03
C:/temp/dataset/6/1_6.odb,Step-1,Increment      1: Step Time =    1.000,"PART-1-1",            75,           -5.,       21.6667,            0.,NA,NA,"",       3.64844,      -3.62139,   443.399E-03,   13.0652E-03
C:/temp/dataset/6/1_6.odb,Step-1,Increment      1: Step Time =    1.000,"PART-1-1",            76,           -5.,       19.5833,            0.,NA,NA,"",       3.27107,      -3.23993,   450.271E-03,   16.8345E-03
C:/temp/dataset/6/1_6.odb,Step-1,Increment      1: Step Time =    1.000,"PART-1-1",            77,           -5.,       27.9167,            0.,NA,NA,"",       4.81561,      -4.80149,   368.489E-03,   6.04588E-03
C:/temp/dataset/6/1_6.odb,Step-1,Increment      1: Step Time =    1.000,"PART-1-1",            78,           -5.,       25.8333,            0.,NA,NA,"",       4.43256,      -4.41462,   398.436E-03,   7.32135E-03
C:/temp/dataset/6/1_6.odb,Step-1,Increment      1: Step Time =    1.000,"PART-1-1",            79,          -7.5,           30.,            0.,NA,NA,"",       5.12986,      -5.12856,  -115.445E-03,   5.90810E-03
C:/temp/dataset/6/1_6.odb,Step-1,Increment      1: Step Time =    1.000,"PART-1-1",            80,         -12.5,           30.,            0.,NA,NA,"",       5.13287,      -5.03171,      -1.01402,   631.755E-06
C:/temp/dataset/6/1_6.odb,Step-1,Increment      1: Step Time =    1.000,"PART-1-1",            81,          -15.,           25.,            0.,NA,NA,"",       4.30129,      -4.07439,      -1.37857,   4.18256E-03
C:/temp/dataset/6/1_6.odb,Step-1,Increment      1: Step Time =    1.000,"PART-1-1",            82,          -15.,          27.5,            0.,NA,NA,"",       4.75296,      -4.53411,      -1.42564,   648.801E-06
C:/temp/dataset/6/1_6.odb,Step-1,Increment      1: Step Time =    1.000,"PART-1-1",            83,          -15.,          17.5,            0.,NA,NA,"",       2.97970,      -2.73791,      -1.17578,   20.8834E-03
C:/temp/dataset/6/1_6.odb,Step-1,Increment      1: Step Time =    1.000,"PART-1-1",            84,          -15.,           20.,            0.,NA,NA,"",       3.40745,      -3.16834,      -1.25393,   14.9812E-03
C:/temp/dataset/6/1_6.odb,Step-1,Increment      1: Step Time =    1.000,"PART-1-1",            85,          -15.,           10.,            0.,NA,NA,"",       1.84980,      -1.62223,  -888.891E-03,   38.6534E-03
C:/temp/dataset/6/1_6.odb,Step-1,Increment      1: Step Time =    1.000,"PART-1-1",            86,          -15.,          12.5,            0.,NA,NA,"",       2.19502,      -1.95779,  -992.575E-03,   32.7840E-03
C:/temp/dataset/6/1_6.odb,Step-1,Increment      1: Step Time =    1.000,"PART-1-1",            87,          -15.,           2.5,            0.,NA,NA,"",       1.08496,  -922.066E-03,  -571.772E-03,   37.2967E-03
C:/temp/dataset/6/1_6.odb,Step-1,Increment      1: Step Time =    1.000,"PART-1-1",            88,          -15.,            5.,            0.,NA,NA,"",       1.28886,      -1.10094,  -670.147E-03,   42.7932E-03
C:/temp/dataset/6/1_6.odb,Step-1,Increment      1: Step Time =    1.000,"PART-1-1",            89,          -15.,           -5.,            0.,NA,NA,"",   690.889E-03,  -568.408E-03,  -392.734E-03,   16.7191E-03
C:/temp/dataset/6/1_6.odb,Step-1,Increment      1: Step Time =    1.000,"PART-1-1",            90,          -15.,          -2.5,            0.,NA,NA,"",   801.035E-03,  -672.123E-03,  -435.784E-03,   20.8472E-03
C:/temp/dataset/6/1_6.odb,Step-1,Increment      1: Step Time =    1.000,"PART-1-1",            91,          -15.,         -12.5,            0.,NA,NA,"",   400.925E-03,  -288.755E-03,  -278.139E-03,   17.4548E-03
C:/temp/dataset/6/1_6.odb,Step-1,Increment      1: Step Time =    1.000,"PART-1-1",            92,          -15.,          -10.,            0.,NA,NA,"",   490.897E-03,  -374.300E-03,  -317.615E-03,   16.4310E-03
C:/temp/dataset/6/1_6.odb,Step-1,Increment      1: Step Time =    1.000,"PART-1-1",            93,          -15.,          -20.,            0.,NA,NA,"",   185.907E-03,  -106.624E-03,  -152.291E-03,   18.2771E-03
C:/temp/dataset/6/1_6.odb,Step-1,Increment      1: Step Time =    1.000,"PART-1-1",            94,          -15.,         -17.5,            0.,NA,NA,"",   247.900E-03,  -153.774E-03,  -194.443E-03,   18.6252E-03
C:/temp/dataset/6/1_6.odb,Step-1,Increment      1: Step Time =    1.000,"PART-1-1",            95,          -15.,         -27.5,            0.,NA,NA,"",   48.7752E-03,  -28.3863E-03,  -39.6640E-03,   16.6065E-03
C:/temp/dataset/6/1_6.odb,Step-1,Increment      1: Step Time =    1.000,"PART-1-1",            96,          -15.,          -25.,            0.,NA,NA,"",   88.5595E-03,  -47.8452E-03,  -74.5226E-03,   15.8769E-03
C:/temp/dataset/6/1_6.odb,Step-1,Increment      1: Step Time =    1.000,"PART-1-1",            97,       13.0047,      -3.80353,            0.,NA,NA,"",   745.680E-03,  -713.650E-03,   216.200E-03,   1.31349E-03
C:/temp/dataset/6/1_6.odb,Step-1,Increment      1: Step Time =    1.000,"PART-1-1",            98,       6.97971,      -7.55833,            0.,NA,NA,"",   601.027E-03,  -597.031E-03,   69.1875E-03,   16.7479E-03
C:/temp/dataset/6/1_6.odb,Step-1,Increment      1: Step Time =    1.000,"PART-1-1",            99,       6.96639,      -10.0829,            0.,NA,NA,"",   499.914E-03,  -497.644E-03,   47.5834E-03,   11.7597E-03
C:/temp/dataset/6/1_6.odb,Step-1,Increment      1: Step Time =    1.000,"PART-1-1",           100,       12.9900,      -12.5465,            0.,NA,NA,"",   465.777E-03,  -417.867E-03,   205.756E-03,   8.82259E-03
C:/temp/dataset/6/1_6.odb,Step-1,Increment      1: Step Time =    1.000,"PART-1-1",           101,       6.90028,      -17.1420,            0.,NA,NA,"",   215.640E-03,  -215.050E-03,   15.9433E-03,   8.05478E-03
C:/temp/dataset/6/1_6.odb,Step-1,Increment      1: Step Time =    1.000,"PART-1-1",           102,       7.03871,      -19.0570,            0.,NA,NA,"",   144.603E-03,  -143.395E-03,   18.6503E-03,   10.5779E-03
C:/temp/dataset/6/1_6.odb,Step-1,Increment      1: Step Time =    1.000,"PART-1-1",           103,       5.31709,      -21.2647,            0.,NA,NA,"",   74.4724E-03,  -73.5845E-03,  -11.4661E-03,   7.31986E-03
C:/temp/dataset/6/1_6.odb,Step-1,Increment      1: Step Time =    1.000,"PART-1-1",           104,      -4.83361,      -22.6144,            0.,NA,NA,"",   39.7075E-03,  -39.7069E-03,   216.530E-06,   3.93310E-03
C:/temp/dataset/6/1_6.odb,Step-1,Increment      1: Step Time =    1.000,"PART-1-1",           105,      -7.46484,      -17.6587,            0.,NA,NA,"",   119.210E-03,  -115.271E-03,  -30.3882E-03,   3.08186E-03
C:/temp/dataset/6/1_6.odb,Step-1,Increment      1: Step Time =    1.000,"PART-1-1",           106,      -12.5283,      -27.3245,            0.,NA,NA,"",   31.1702E-03,  -15.8653E-03,  -26.8304E-03,   12.9190E-03
C:/temp/dataset/6/1_6.odb,Step-1,Increment      1: Step Time =    1.000,"PART-1-1",           107,      -12.4870,      -17.6221,            0.,NA,NA,"",   191.830E-03,  -133.743E-03,  -137.519E-03,   12.9267E-03
C:/temp/dataset/6/1_6.odb,Step-1,Increment      1: Step Time =    1.000,"PART-1-1",           108,      -7.32043,      -12.6401,            0.,NA,NA,"",   256.837E-03,  -254.453E-03,  -34.9075E-03,   1.53099E-03
C:/temp/dataset/6/1_6.odb,Step-1,Increment      1: Step Time =    1.000,"PART-1-1",           109,      -7.14644,      -8.03697,            0.,NA,NA,"",   428.486E-03,  -426.817E-03,  -37.7837E-03,   3.89876E-03
C:/temp/dataset/6/1_6.odb,Step-1,Increment      1: Step Time =    1.000,"PART-1-1",           110,      -12.6601,       4.88622,            0.,NA,NA,"",       1.15985,      -1.06495,  -459.492E-03,   23.4271E-03
C:/temp/dataset/6/1_6.odb,Step-1,Increment      1: Step Time =    1.000,"PART-1-1",           111,      -13.0978,       12.5399,            0.,NA,NA,"",       2.08848,      -1.96057,  -719.667E-03,   20.8166E-03
C:/temp/dataset/6/1_6.odb,Step-1,Increment      1: Step Time =    1.000,"PART-1-1",           112,      -6.45576,       21.8628,            0.,NA,NA,"",       3.63158,      -3.62713,   179.759E-03,   8.97123E-03
C:/temp/dataset/6/1_6.odb,Step-1,Increment      1: Step Time =    1.000,"PART-1-1",           113,      -7.28884,       25.7044,            0.,NA,NA,"",       4.33841,      -4.33838,  -17.0836E-03,   8.51962E-03
C:/temp/dataset/6/1_6.odb,Step-1,Increment      1: Step Time =    1.000,"PART-1-1",           114,      -9.90518,       27.6474,            0.,NA,NA,"",       4.67646,      -4.64836,  -511.884E-03,   5.35960E-03
C:/temp/dataset/6/1_6.odb,Step-1,Increment      1: Step Time =    1.000,"PART-1-1",           115,      -3.01211,      -3.13168,            0.,NA,NA,"",   703.187E-03,  -695.013E-03,   106.905E-03,   13.8834E-03
C:/temp/dataset/6/1_6.odb,Step-1,Increment      1: Step Time =    1.000,"PART-1-1",           116,      -2.19169,       3.00836,            0.,NA,NA,"",   885.041E-03,  -876.484E-03,   122.774E-03,   27.3691E-03
C:/temp/dataset/6/1_6.odb,Step-1,Increment      1: Step Time =    1.000,"PART-1-1",           117,       1.85193,      -2.77696,            0.,NA,NA,"",   738.834E-03,  -728.252E-03,   124.596E-03,   15.8589E-03
C:/temp/dataset/6/1_6.odb,Step-1,Increment      1: Step Time =    1.000,"PART-1-1",           118,       2.83229,       2.22691,            0.,NA,NA,"",   826.868E-03,  -817.892E-03,   121.504E-03,   12.9330E-03
C:/temp/dataset/6/1_6.odb,Step-1,Increment      1: Step Time =    1.000,"PART-1-1",           119,       7.74921,       3.07964,            0.,NA,NA,"",   833.763E-03,  -822.588E-03,   136.052E-03,   1.79668E-03
C:/temp/dataset/6/1_6.odb,Step-1,Increment      1: Step Time =    1.000,"PART-1-1",           120,      -2.47342,      -22.6017,            0.,NA,NA,"",   42.3040E-03,  -42.2733E-03,   1.60969E-03,   5.84289E-03
C:/temp/dataset/6/1_6.odb,Step-1,Increment      1: Step Time =    1.000,"PART-1-1",           121,      -7.48266,       20.3798,            0.,NA,NA,"",       3.33362,      -3.33358,   16.3819E-03,   10.2675E-03
C:/temp/dataset/6/1_6.odb,Step-1,Increment      1: Step Time =    1.000,"PART-1-1",           122,      -7.10993,       13.1351,            0.,NA,NA,"",       2.10965,      -2.10738,   97.7918E-03,   19.3332E-03
C:/temp/dataset/6/1_6.odb,Step-1,Increment      1: Step Time =    1.000,"PART-1-1",           123,      -6.64156,       6.82435,            0.,NA,NA,"",       1.25214,      -1.24971,   78.0472E-03,   39.2493E-03
C:/temp/dataset/6/1_6.odb,Step-1,Increment      1: Step Time =    1.000,"PART-1-1",           124,      -12.9641,      -2.37512,            0.,NA,NA,"",   744.742E-03,  -663.302E-03,  -338.631E-03,   16.7839E-03
C:/temp/dataset/6/1_6.odb,Step-1,Increment      1: Step Time =    1.000,"PART-1-1",           125,      -12.1317,      -9.84573,            0.,NA,NA,"",   422.988E-03,  -363.882E-03,  -215.659E-03,   11.4169E-03
C:/temp/dataset/6/1_6.odb,Step-1,Increment      1: Step Time =    1.000,"PART-1-1",           126,       4.04132,      -2.67712,            0.,NA,NA,"",   737.213E-03,  -729.478E-03,   106.507E-03,   17.9586E-03
C:/temp/dataset/6/1_6.odb,Step-1,Increment      1: Step Time =    1.000,"PART-1-1",           127,       6.95362,      -12.5367,            0.,NA,NA,"",   399.460E-03,  -398.283E-03,   30.6468E-03,   8.56901E-03
C:/temp/dataset/6/1_6.odb,Step-1,Increment      1: Step Time =    1.000,"PART-1-1",           128,       6.92458,      -14.9216,            0.,NA,NA,"",   302.672E-03,  -301.958E-03,   20.7816E-03,   6.61146E-03
C:/temp/dataset/6/1_6.odb,Step-1,Increment      1: Step Time =    1.000,"PART-1-1",           129,       12.9089,      -21.3671,            0.,NA,NA,"",   164.659E-03,  -115.053E-03,   117.794E-03,   15.1583E-03
C:/temp/dataset/6/1_6.odb,Step-1,Increment      1: Step Time =    1.000,"PART-1-1",           130,   283.131E-03,      -22.8786,            0.,NA,NA,"",   45.7645E-03,  -45.6191E-03,  -3.64406E-03,   6.28549E-03
C:/temp/dataset/6/1_6.odb,Step-1,Increment      1: Step Time =    1.000,"PART-1-1",           131,      -12.9776,      -22.4214,            0.,NA,NA,"",   105.776E-03,  -59.2620E-03,  -87.6158E-03,   13.6528E-03
C:/temp/dataset/6/1_6.odb,Step-1,Increment      1: Step Time =    1.000,"PART-1-1",           132,      -7.42030,      -15.1083,            0.,NA,NA,"",   182.932E-03,  -179.752E-03,  -33.9584E-03,   1.53250E-03
C:/temp/dataset/6/1_6.odb,Step-1,Increment      1: Step Time =    1.000,"PART-1-1",           133,      -7.18486,      -10.2642,            0.,NA,NA,"",   339.595E-03,  -337.773E-03,  -35.1336E-03,   1.93958E-03
C:/temp/dataset/6/1_6.odb,Step-1,Increment      1: Step Time =    1.000,"PART-1-1",           134,      -7.33974,      -5.93881,            0.,NA,NA,"",   525.410E-03,  -523.029E-03,  -49.9610E-03,   6.35532E-03
C:/temp/dataset/6/1_6.odb,Step-1,Increment      1: Step Time =    1.000,"PART-1-1",           135,  -533.729E-03,      -2.94296,            0.,NA,NA,"",   728.955E-03,  -717.377E-03,   129.402E-03,   12.7300E-03
C:/temp/dataset/6/1_6.odb,Step-1,Increment      1: Step Time =    1.000,"PART-1-1",           136,       10.2172,      -28.0250,            0.,NA,NA,"",   14.0343E-03,  -6.11830E-03,   12.6304E-03,   8.24464E-03
C:/temp/dataset/6/1_6.odb,Step-1,Increment      1: Step Time =    1.000,"PART-1-1",           137,       7.82196,      -28.0777,            0.,NA,NA,"",   6.37813E-03,  -4.20720E-03,   4.79375E-03,   3.40628E-03
C:/temp/dataset/6/1_6.odb,Step-1,Increment      1: Step Time =    1.000,"PART-1-1",           138,       5.43540,      -28.0544,            0.,NA,NA,"",   5.97341E-03,  -5.97118E-03,  -163.428E-06,   2.66334E-03
C:/temp/dataset/6/1_6.odb,Step-1,Increment      1: Step Time =    1.000,"PART-1-1",           139,       2.98405,      -27.8165,            0.,NA,NA,"",   10.4073E-03,  -10.1028E-03,  -2.49910E-03,   4.09710E-03
C:/temp/dataset/6/1_6.odb,Step-1,Increment      1: Step Time =    1.000,"PART-1-1",           140,   324.250E-03,      -27.0908,            0.,NA,NA,"",   16.0641E-03,  -15.8488E-03,  -2.62104E-03,   4.71039E-03
C:/temp/dataset/6/1_6.odb,Step-1,Increment      1: Step Time =    1.000,"PART-1-1",           141,      -2.46293,      -27.5198,            0.,NA,NA,"",   11.3882E-03,  -11.3233E-03,  -1.21351E-03,   3.85839E-03
C:/temp/dataset/6/1_6.odb,Step-1,Increment      1: Step Time =    1.000,"PART-1-1",           142,      -4.88996,      -27.5861,            0.,NA,NA,"",   8.13250E-03,  -7.80457E-03,  -2.28609E-03,   3.11784E-03
C:/temp/dataset/6/1_6.odb,Step-1,Increment      1: Step Time =    1.000,"PART-1-1",           143,      -7.26500,      -27.4866,            0.,NA,NA,"",   8.62506E-03,  -5.73265E-03,  -6.44426E-03,   3.59584E-03
C:/temp/dataset/6/1_6.odb,Step-1,Increment      1: Step Time =    1.000,"PART-1-1",           144,      -9.86695,      -26.8928,            0.,NA,NA,"",   19.9957E-03,  -9.61380E-03,  -17.5329E-03,   7.18591E-03
C:/temp/dataset/6/1_6.odb,Step-1,Increment      1: Step Time =    1.000,"PART-1-1",           145,       12.7710,      -23.5898,            0.,NA,NA,"",   110.258E-03,  -69.9405E-03,   85.2359E-03,   15.3118E-03
C:/temp/dataset/6/1_6.odb,Step-1,Increment      1: Step Time =    1.000,"PART-1-1",           146,       12.6989,      -25.7990,            0.,NA,NA,"",   65.7765E-03,  -38.0168E-03,   53.6774E-03,   15.7396E-03
C:/temp/dataset/6/1_6.odb,Step-1,Increment      1: Step Time =    1.000,"PART-1-1",           147,       12.6207,      -27.9366,            0.,NA,NA,"",   29.4283E-03,  -15.6786E-03,   24.9040E-03,   15.6351E-03
C:/temp/dataset/6/1_6.odb,Step-1,Increment      1: Step Time =    1.000,"PART-1-1",           148,       12.9983,      -14.8223,            0.,NA,NA,"",   379.309E-03,  -327.437E-03,   191.469E-03,   10.9303E-03
C:/temp/dataset/6/1_6.odb,Step-1,Increment      1: Step Time =    1.000,"PART-1-1",           149,       13.0558,      -17.0719,            0.,NA,NA,"",   298.790E-03,  -243.588E-03,   173.033E-03,   12.9425E-03
C:/temp/dataset/6/1_6.odb,Step-1,Increment      1: Step Time =    1.000,"PART-1-1",           150,       13.1682,      -19.2108,            0.,NA,NA,"",   230.964E-03,  -174.195E-03,   151.659E-03,   14.7103E-03
C:/temp/dataset/6/1_6.odb,Step-1,Increment      1: Step Time =    1.000,"PART-1-1",           151,       13.0670,      -5.94273,            0.,NA,NA,"",   693.693E-03,  -657.783E-03,   220.299E-03,   2.56085E-03
C:/temp/dataset/6/1_6.odb,Step-1,Increment      1: Step Time =    1.000,"PART-1-1",           152,       13.0350,      -8.09399,            0.,NA,NA,"",   628.213E-03,  -588.507E-03,   219.797E-03,   4.69616E-03
C:/temp/dataset/6/1_6.odb,Step-1,Increment      1: Step Time =    1.000,"PART-1-1",           153,       12.9982,      -10.2981,            0.,NA,NA,"",   550.590E-03,  -506.906E-03,   214.931E-03,   6.80689E-03
C:/temp/dataset/6/1_6.odb,Step-1,Increment      1: Step Time =    1.000,"PART-1-1",           154,       12.5107,   556.281E-03,            0.,NA,NA,"",   817.874E-03,  -792.494E-03,   202.166E-03,   2.36614E-03
C:/temp/dataset/6/1_6.odb,Step-1,Increment      1: Step Time =    1.000,"PART-1-1",           155,       12.7702,      -1.64554,            0.,NA,NA,"",   785.592E-03,  -757.402E-03,   208.560E-03,   1.72650E-03
C:/temp/dataset/6/1_6.odb,Step-1,Increment      1: Step Time =    1.000,"PART-1-1",           156,       10.0517,       2.85834,            0.,NA,NA,"",   838.422E-03,  -822.350E-03,   163.374E-03,   1.61679E-03
C:/temp/dataset/6/1_6.odb,Step-1,Increment      1: Step Time =    1.000,"PART-1-1",           157,       5.39286,       2.85476,            0.,NA,NA,"",   828.696E-03,  -819.742E-03,   121.493E-03,   6.03339E-03
C:/temp/dataset/6/1_6.odb,Step-1,Increment      1: Step Time =    1.000,"PART-1-1",           158,   175.602E-03,       2.90951,            0.,NA,NA,"",   857.047E-03,  -847.883E-03,   124.993E-03,   17.0005E-03
C:/temp/dataset/6/1_6.odb,Step-1,Increment      1: Step Time =    1.000,"PART-1-1",           159,      -4.35394,       2.91920,            0.,NA,NA,"",   908.984E-03,  -901.702E-03,   114.827E-03,   25.7020E-03
C:/temp/dataset/6/1_6.odb,Step-1,Increment      1: Step Time =    1.000,"PART-1-1",           160,      -7.05997,       10.9599,            0.,NA,NA,"",       1.78758,      -1.78534,   89.6193E-03,   22.4425E-03
C:/temp/dataset/6/1_6.odb,Step-1,Increment      1: Step Time =    1.000,"PART-1-1",           161,      -6.93805,       8.84105,            0.,NA,NA,"",       1.49981,      -1.49775,   78.6927E-03,   27.4174E-03
C:/temp/dataset/6/1_6.odb,Step-1,Increment      1: Step Time =    1.000,"PART-1-1",           162,      -7.28921,       17.6445,            0.,NA,NA,"",       2.84890,      -2.84805,   69.2687E-03,   13.2415E-03
C:/temp/dataset/6/1_6.odb,Step-1,Increment      1: Step Time =    1.000,"PART-1-1",           163,      -7.17735,       15.3234,            0.,NA,NA,"",       2.45767,      -2.45591,   92.7787E-03,   16.2933E-03
C:/temp/dataset/6/1_6.odb,Step-1,Increment      1: Step Time =    1.000,"PART-1-1",           164,      -6.93557,       23.5874,            0.,NA,NA,"",       3.94456,      -3.94386,   74.0137E-03,   10.1517E-03
C:/temp/dataset/6/1_6.odb,Step-1,Increment      1: Step Time =    1.000,"PART-1-1",           165,      -13.1925,       19.7530,            0.,NA,NA,"",       3.27707,      -3.14212,  -930.726E-03,   11.8920E-03
C:/temp/dataset/6/1_6.odb,Step-1,Increment      1: Step Time =    1.000,"PART-1-1",           166,      -7.44963,       27.8335,            0.,NA,NA,"",       4.73277,      -4.73217,  -75.5026E-03,   5.92642E-03
C:/temp/dataset/6/1_6.odb,Step-1,Increment      1: Step Time =    1.000,"PART-1-1",           167,      -13.0424,       22.0734,            0.,NA,NA,"",       3.69051,      -3.56335,  -960.404E-03,   9.07414E-03
C:/temp/dataset/6/1_6.odb,Step-1,Increment      1: Step Time =    1.000,"PART-1-1",           168,      -13.1316,       14.9813,            0.,NA,NA,"",       2.46519,      -2.33393,  -793.670E-03,   17.8283E-03
C:/temp/dataset/6/1_6.odb,Step-1,Increment      1: Step Time =    1.000,"PART-1-1",           169,      -13.1727,       17.3972,            0.,NA,NA,"",       2.86609,      -2.73206,  -866.233E-03,   14.8445E-03
C:/temp/dataset/6/1_6.odb,Step-1,Increment      1: Step Time =    1.000,"PART-1-1",           170,      -12.8574,       7.53984,            0.,NA,NA,"",       1.42754,      -1.31802,  -548.363E-03,   24.1897E-03
C:/temp/dataset/6/1_6.odb,Step-1,Increment      1: Step Time =    1.000,"PART-1-1",           171,      -13.0166,       10.0884,            0.,NA,NA,"",       1.74321,      -1.62204,  -638.569E-03,   23.2050E-03
C:/temp/dataset/6/1_6.odb,Step-1,Increment      1: Step Time =    1.000,"PART-1-1",           172,      -12.8045,  -118.323E-03,            0.,NA,NA,"",   843.123E-03,  -760.125E-03,  -364.782E-03,   20.5625E-03
C:/temp/dataset/6/1_6.odb,Step-1,Increment      1: Step Time =    1.000,"PART-1-1",           173,      -12.7039,       2.28772,            0.,NA,NA,"",   971.826E-03,  -884.112E-03,  -403.476E-03,   23.2411E-03
C:/temp/dataset/6/1_6.odb,Step-1,Increment      1: Step Time =    1.000,"PART-1-1",           174,      -12.8488,      -7.31355,            0.,NA,NA,"",   537.873E-03,  -464.254E-03,  -271.616E-03,   12.3597E-03
C:/temp/dataset/6/1_6.odb,Step-1,Increment      1: Step Time =    1.000,"PART-1-1",           175,      -12.6051,      -4.81291,            0.,NA,NA,"",   633.513E-03,  -563.185E-03,  -290.106E-03,   12.5414E-03
C:/temp/dataset/6/1_6.odb,Step-1,Increment      1: Step Time =    1.000,"PART-1-1",           176,      -12.4260,      -15.0682,            0.,NA,NA,"",   256.786E-03,  -195.829E-03,  -166.102E-03,   12.5656E-03
C:/temp/dataset/6/1_6.odb,Step-1,Increment      1: Step Time =    1.000,"PART-1-1",           177,      -12.3344,      -12.5112,            0.,NA,NA,"",   333.386E-03,  -271.919E-03,  -192.889E-03,   12.1224E-03
C:/temp/dataset/6/1_6.odb,Step-1,Increment      1: Step Time =    1.000,"PART-1-1",           178,      -12.6598,      -20.1148,            0.,NA,NA,"",   141.765E-03,  -88.3307E-03,  -110.883E-03,   13.3433E-03
C:/temp/dataset/6/1_6.odb,Step-1,Increment      1: Step Time =    1.000,"PART-1-1",           179,      -8.70618,       22.9331,            0.,NA,NA,"",       3.79374,      -3.78692,  -227.391E-03,   9.94736E-03
C:/temp/dataset/6/1_6.odb,Step-1,Increment      1: Step Time =    1.000,"PART-1-1",           180,      -9.21222,       15.1634,            0.,NA,NA,"",       2.40667,      -2.39736,  -211.491E-03,   10.6670E-03
C:/temp/dataset/6/1_6.odb,Step-1,Increment      1: Step Time =    1.000,"PART-1-1",           181,      -9.55138,       19.8926,            0.,NA,NA,"",       3.22778,      -3.21142,  -324.519E-03,   10.1062E-03
C:/temp/dataset/6/1_6.odb,Step-1,Increment      1: Step Time =    1.000,"PART-1-1",           182,      -8.92203,       8.32966,            0.,NA,NA,"",       1.41581,      -1.40866,  -142.118E-03,   13.0021E-03
C:/temp/dataset/6/1_6.odb,Step-1,Increment      1: Step Time =    1.000,"PART-1-1",           183,      -9.17670,       12.8809,            0.,NA,NA,"",       2.04557,      -2.03686,  -188.489E-03,   11.2690E-03
C:/temp/dataset/6/1_6.odb,Step-1,Increment      1: Step Time =    1.000,"PART-1-1",           184,      -9.09923,       10.6117,            0.,NA,NA,"",       1.71543,      -1.70725,  -167.311E-03,   12.1274E-03
C:/temp/dataset/6/1_6.odb,Step-1,Increment      1: Step Time =    1.000,"PART-1-1",           185,      -9.30530,       17.5014,            0.,NA,NA,"",       2.80192,      -2.79063,  -251.264E-03,   10.1780E-03
C:/temp/dataset/6/1_6.odb,Step-1,Increment      1: Step Time =    1.000,"PART-1-1",           186,      -8.37864,       6.17865,            0.,NA,NA,"",       1.16749,      -1.16425,  -86.9030E-03,   13.9649E-03
C:/temp/dataset/6/1_6.odb,Step-1,Increment      1: Step Time =    1.000,"PART-1-1",           187,       10.9988,      -10.2527,            0.,NA,NA,"",   528.331E-03,  -504.105E-03,   158.152E-03,   9.91985E-03
C:/temp/dataset/6/1_6.odb,Step-1,Increment      1: Step Time =    1.000,"PART-1-1",           188,       10.8643,      -17.5211,            0.,NA,NA,"",   243.192E-03,  -215.432E-03,   112.834E-03,   12.0027E-03
C:/temp/dataset/6/1_6.odb,Step-1,Increment      1: Step Time =    1.000,"PART-1-1",           189,       11.0508,      -8.01555,            0.,NA,NA,"",   612.628E-03,  -589.358E-03,   167.245E-03,   8.02809E-03
C:/temp/dataset/6/1_6.odb,Step-1,Increment      1: Step Time =    1.000,"PART-1-1",           190,       10.6332,      -2.00908,            0.,NA,NA,"",   769.791E-03,  -751.393E-03,   167.293E-03,   2.02550E-03
C:/temp/dataset/6/1_6.odb,Step-1,Increment      1: Step Time =    1.000,"PART-1-1",           191,       11.1668,      -5.92645,            0.,NA,NA,"",   681.277E-03,  -658.645E-03,   174.140E-03,   5.01959E-03
C:/temp/dataset/6/1_6.odb,Step-1,Increment      1: Step Time =    1.000,"PART-1-1",           192,       10.9732,      -14.9280,            0.,NA,NA,"",   341.692E-03,  -314.519E-03,   133.535E-03,   11.3847E-03
C:/temp/dataset/6/1_6.odb,Step-1,Increment      1: Step Time =    1.000,"PART-1-1",           193,       10.5476,      -23.6927,            0.,NA,NA,"",   74.7581E-03,  -54.5864E-03,   51.0793E-03,   10.3582E-03
C:/temp/dataset/6/1_6.odb,Step-1,Increment      1: Step Time =    1.000,"PART-1-1",           194,       10.5707,      -21.1850,            0.,NA,NA,"",   127.568E-03,  -103.491E-03,   74.5863E-03,   11.4530E-03
C:/temp/dataset/6/1_6.odb,Step-1,Increment      1: Step Time =    1.000,"PART-1-1",           195,       10.9760,      -12.5622,            0.,NA,NA,"",   436.020E-03,  -410.535E-03,   146.881E-03,   10.7898E-03
C:/temp/dataset/6/1_6.odb,Step-1,Increment      1: Step Time =    1.000,"PART-1-1",           196,       11.6229,      -19.2502,            0.,NA,NA,"",   199.344E-03,  -162.786E-03,   115.060E-03,   12.8025E-03
C:/temp/dataset/6/1_6.odb,Step-1,Increment      1: Step Time =    1.000,"PART-1-1",           197,       11.1609,      -3.97100,            0.,NA,NA,"",   732.194E-03,  -710.759E-03,   175.868E-03,   2.39083E-03
C:/temp/dataset/6/1_6.odb,Step-1,Increment      1: Step Time =    1.000,"PART-1-1",           198,      -9.55101,       25.2781,            0.,NA,NA,"",       4.23315,      -4.21310,  -411.532E-03,   8.29439E-03
C:/temp/dataset/6/1_6.odb,Step-1,Increment      1: Step Time =    1.000,"PART-1-1",           199,      -6.13353,       2.97524,            0.,NA,NA,"",   908.622E-03,  -906.403E-03,   63.4540E-03,   20.2821E-03
C:/temp/dataset/6/1_6.odb,Step-1,Increment      1: Step Time =    1.000,"PART-1-1",           200,       8.52809,      -18.5145,            0.,NA,NA,"",   176.893E-03,  -168.607E-03,   53.5061E-03,   10.3578E-03
C:/temp/dataset/6/1_6.odb,Step-1,Increment      1: Step Time =    1.000,"PART-1-1",           201,      -9.31256,      -6.57829,            0.,NA,NA,"",   506.295E-03,  -488.823E-03,  -131.858E-03,   4.67739E-03
C:/temp/dataset/6/1_6.odb,Step-1,Increment      1: Step Time =    1.000,"PART-1-1",           202,      -7.82061,      -4.24854,            0.,NA,NA,"",   602.008E-03,  -598.103E-03,  -68.4512E-03,   10.3900E-03
C:/temp/dataset/6/1_6.odb,Step-1,Increment      1: Step Time =    1.000,"PART-1-1",           203,       7.55002,      -20.4955,            0.,NA,NA,"",   104.587E-03,  -101.735E-03,   24.2602E-03,   9.82754E-03
C:/temp/dataset/6/1_6.odb,Step-1,Increment      1: Step Time =    1.000,"PART-1-1",           204,      -9.18944,      -8.43706,            0.,NA,NA,"",   427.425E-03,  -410.880E-03,  -117.768E-03,   5.46859E-03
C:/temp/dataset/6/1_6.odb,Step-1,Increment      1: Step Time =    1.000,"PART-1-1",           205,      -12.3720,       27.4312,            0.,NA,NA,"",       4.66225,      -4.56482,  -948.171E-03,   3.62555E-03
C:/temp/dataset/6/1_6.odb,Step-1,Increment      1: Step Time =    1.000,"PART-1-1",           206,      -10.3791,       22.2070,            0.,NA,NA,"",       3.65905,      -3.62430,  -503.084E-03,   9.81212E-03
C:/temp/dataset/6/1_6.odb,Step-1,Increment      1: Step Time =    1.000,"PART-1-1",           207,       3.40286,  -884.176E-03,            0.,NA,NA,"",   769.380E-03,  -760.375E-03,   117.370E-03,   16.3417E-03
C:/temp/dataset/6/1_6.odb,Step-1,Increment      1: Step Time =    1.000,"PART-1-1",           208,       7.88020,       1.44192,            0.,NA,NA,"",   813.397E-03,  -802.092E-03,   135.140E-03,   3.29463E-03
C:/temp/dataset/6/1_6.odb,Step-1,Increment      1: Step Time =    1.000,"PART-1-1",           209,      -1.17287,  -897.893E-03,            0.,NA,NA,"",   775.073E-03,  -763.812E-03,   131.640E-03,   15.6552E-03
C:/temp/dataset/6/1_6.odb,Step-1,Increment      1: Step Time =    1.000,"PART-1-1",           210,       10.4014,      -25.9274,            0.,NA,NA,"",   38.6741E-03,  -24.5863E-03,   29.8530E-03,   9.33801E-03
C:/temp/dataset/6/1_6.odb,Step-1,Increment      1: Step Time =    1.000,"PART-1-1",           211,       2.00108,      -24.8239,            0.,NA,NA,"",   33.2726E-03,  -32.5459E-03,  -6.91580E-03,   6.64750E-03
C:/temp/dataset/6/1_6.odb,Step-1,Increment      1: Step Time =    1.000,"PART-1-1",           212,      -4.80900,      -25.1606,            0.,NA,NA,"",   21.5557E-03,  -21.4563E-03,  -2.06794E-03,   3.49989E-03
C:/temp/dataset/6/1_6.odb,Step-1,Increment      1: Step Time =    1.000,"PART-1-1",           213,      -11.5765,       21.3848,            0.,NA,NA,"",       3.52447,      -3.45588,  -691.931E-03,   9.89470E-03
C:/temp/dataset/6/1_6.odb,Step-1,Increment      1: Step Time =    1.000,"PART-1-1",           214,      -11.0630,       10.3038,            0.,NA,NA,"",       1.70027,      -1.65164,  -403.743E-03,   12.0816E-03
C:/temp/dataset/6/1_6.odb,Step-1,Increment      1: Step Time =    1.000,"PART-1-1",           215,      -10.2832,  -591.021E-03,            0.,NA,NA,"",   760.106E-03,  -733.224E-03,  -200.361E-03,   14.2222E-03
C:/temp/dataset/6/1_6.odb,Step-1,Increment      1: Step Time =    1.000,"PART-1-1",           216,      -11.1869,      -5.64306,            0.,NA,NA,"",   569.996E-03,  -526.687E-03,  -217.937E-03,   8.28688E-03
C:/temp/dataset/6/1_6.odb,Step-1,Increment      1: Step Time =    1.000,"PART-1-1",           217,      -9.48237,      -10.3825,            0.,NA,NA,"",   355.552E-03,  -335.745E-03,  -117.015E-03,   6.36298E-03
C:/temp/dataset/6/1_6.odb,Step-1,Increment      1: Step Time =    1.000,"PART-1-1",           218,      -10.0191,      -20.7277,            0.,NA,NA,"",   90.0818E-03,  -65.9754E-03,  -61.3350E-03,   8.24829E-03
C:/temp/dataset/6/1_6.odb,Step-1,Increment      1: Step Time =    1.000,"PART-1-1",           219,      -12.8377,      -24.8331,            0.,NA,NA,"",   66.9408E-03,  -35.2784E-03,  -56.8903E-03,   13.3741E-03
C:/temp/dataset/6/1_6.odb,Step-1,Increment      1: Step Time =    1.000,"PART-1-1",           220,  -752.185E-03,      -25.0561,            0.,NA,NA,"",   29.0910E-03,  -29.0145E-03,  -2.10801E-03,   5.74681E-03
C:/temp/dataset/6/1_6.odb,Step-1,Increment      1: Step Time =    1.000,"PART-1-1",           221,      -11.3411,      -22.5061,            0.,NA,NA,"",   81.8800E-03,  -49.5389E-03,  -65.1938E-03,   10.6119E-03
C:/temp/dataset/6/1_6.odb,Step-1,Increment      1: Step Time =    1.000,"PART-1-1",           222,       5.90860,      -26.1342,            0.,NA,NA,"",   17.8956E-03,  -17.8955E-03,   48.3986E-06,   3.03278E-03
C:/temp/dataset/6/1_6.odb,Step-1,Increment      1: Step Time =    1.000,"PART-1-1",           223,       3.81352,      -25.8758,            0.,NA,NA,"",   23.1287E-03,  -22.5123E-03,  -5.30381E-03,   5.21736E-03
C:/temp/dataset/6/1_6.odb,Step-1,Increment      1: Step Time =    1.000,"PART-1-1",           224,      -6.87266,      -25.1947,            0.,NA,NA,"",   20.5633E-03,  -18.2827E-03,  -9.41218E-03,   2.69147E-03
C:/temp/dataset/6/1_6.odb,Step-1,Increment      1: Step Time =    1.000,"PART-1-1",           225,       9.77381,   336.875E-03,            0.,NA,NA,"",   803.854E-03,  -788.452E-03,   156.604E-03,   2.09566E-03
C:/temp/dataset/6/1_6.odb,Step-1,Increment      1: Step Time =    1.000,"PART-1-1",           226,       4.59800,   29.7464E-03,            0.,NA,NA,"",   786.573E-03,  -777.961E-03,   116.072E-03,   13.2170E-03
C:/temp/dataset/6/1_6.odb,Step-1,Increment      1: Step Time =    1.000,"PART-1-1",           227,      -11.1551,       12.6912,            0.,NA,NA,"",       2.04147,      -1.99002,  -455.417E-03,   11.8198E-03
C:/temp/dataset/6/1_6.odb,Step-1,Increment      1: Step Time =    1.000,"PART-1-1",           228,      -11.2689,       17.3859,            0.,NA,NA,"",       2.80335,      -2.74688,  -559.851E-03,   10.9921E-03
C:/temp/dataset/6/1_6.odb,Step-1,Increment      1: Step Time =    1.000,"PART-1-1",           229,      -11.2102,       15.0558,            0.,NA,NA,"",       2.41183,      -2.35815,  -505.998E-03,   11.4274E-03
C:/temp/dataset/6/1_6.odb,Step-1,Increment      1: Step Time =    1.000,"PART-1-1",           230,      -10.8139,       7.79620,            0.,NA,NA,"",       1.38246,      -1.34057,  -337.728E-03,   11.5962E-03
C:/temp/dataset/6/1_6.odb,Step-1,Increment      1: Step Time =    1.000,"PART-1-1",           231,      -10.1648,       4.85487,            0.,NA,NA,"",       1.07435,      -1.04786,  -237.118E-03,   11.3369E-03
C:/temp/dataset/6/1_6.odb,Step-1,Increment      1: Step Time =    1.000,"PART-1-1",           232,      -10.4473,       2.01195,            0.,NA,NA,"",   887.698E-03,  -857.334E-03,  -230.190E-03,   15.9052E-03
C:/temp/dataset/6/1_6.odb,Step-1,Increment      1: Step Time =    1.000,"PART-1-1",           233,      -10.4810,      -3.59789,            0.,NA,NA,"",   641.431E-03,  -610.325E-03,  -197.325E-03,   8.70407E-03
C:/temp/dataset/6/1_6.odb,Step-1,Increment      1: Step Time =    1.000,"PART-1-1",           234,      -9.89141,      -15.1395,            0.,NA,NA,"",   208.023E-03,  -183.078E-03,  -98.7740E-03,   7.18201E-03
C:/temp/dataset/6/1_6.odb,Step-1,Increment      1: Step Time =    1.000,"PART-1-1",           235,      -9.95744,      -17.7636,            0.,NA,NA,"",   144.199E-03,  -118.531E-03,  -82.1196E-03,   7.93866E-03
C:/temp/dataset/6/1_6.odb,Step-1,Increment      1: Step Time =    1.000,"PART-1-1",           236,      -3.63694,      -1.16253,            0.,NA,NA,"",   757.221E-03,  -750.013E-03,   104.228E-03,   10.1481E-03
C:/temp/dataset/6/1_6.odb,Step-1,Increment      1: Step Time =    1.000,"PART-1-1",           237,      -7.00580,      -22.7773,            0.,NA,NA,"",   38.7350E-03,  -36.2323E-03,  -13.6975E-03,   1.65163E-03
C:/temp/dataset/6/1_6.odb,Step-1,Increment      1: Step Time =    1.000,"PART-1-1",           238,       7.08723,      -4.67483,            0.,NA,NA,"",   703.319E-03,  -696.754E-03,   95.8728E-03,   9.66175E-03
C:/temp/dataset/6/1_6.odb,Step-1,Increment      1: Step Time =    1.000,"PART-1-1",           239,       8.96532,      -10.1697,            0.,NA,NA,"",   512.798E-03,  -502.119E-03,   104.106E-03,   11.0541E-03
C:/temp/dataset/6/1_6.odb,Step-1,Increment      1: Step Time =    1.000,"PART-1-1",           240,       8.99874,      -7.82238,            0.,NA,NA,"",   605.972E-03,  -594.312E-03,   118.299E-03,   11.2345E-03
C:/temp/dataset/6/1_6.odb,Step-1,Increment      1: Step Time =    1.000,"PART-1-1",           241,       8.96760,      -14.8663,            0.,NA,NA,"",   319.846E-03,  -309.626E-03,   80.2064E-03,   10.1631E-03
C:/temp/dataset/6/1_6.odb,Step-1,Increment      1: Step Time =    1.000,"PART-1-1",           242,      -12.0836,       24.5335,            0.,NA,NA,"",       4.11919,      -4.03191,  -843.456E-03,   7.42949E-03
C:/temp/dataset/6/1_6.odb,Step-1,Increment      1: Step Time =    1.000,"PART-1-1",           243,       9.21542,      -5.66363,            0.,NA,NA,"",   680.456E-03,  -667.562E-03,   131.837E-03,   7.82977E-03
C:/temp/dataset/6/1_6.odb,Step-1,Increment      1: Step Time =    1.000,"PART-1-1",           244,       8.72776,      -2.97127,            0.,NA,NA,"",   744.901E-03,  -733.294E-03,   130.991E-03,   5.11189E-03
C:/temp/dataset/6/1_6.odb,Step-1,Increment      1: Step Time =    1.000,"PART-1-1",           245,       9.39471,      -19.4524,            0.,NA,NA,"",   157.264E-03,  -142.783E-03,   65.9165E-03,   11.0515E-03
C:/temp/dataset/6/1_6.odb,Step-1,Increment      1: Step Time =    1.000,"PART-1-1",           246,       8.06548,      -22.0810,            0.,NA,NA,"",   74.5726E-03,  -70.1151E-03,   25.3958E-03,   6.11159E-03
C:/temp/dataset/6/1_6.odb,Step-1,Increment      1: Step Time =    1.000,"PART-1-1",           247,      -7.53738,       4.79758,            0.,NA,NA,"",       1.03187,      -1.03172,  -17.2108E-03,   15.3950E-03
C:/temp/dataset/6/1_6.odb,Step-1,Increment      1: Step Time =    1.000,"PART-1-1",           248,      -10.8025,      -24.3532,            0.,NA,NA,"",   51.8467E-03,  -29.6323E-03,  -42.5442E-03,   9.26810E-03
C:/temp/dataset/6/1_6.odb,Step-1,Increment      1: Step Time =    1.000,"PART-1-1",           249,       5.82981,      -2.08643,            0.,NA,NA,"",   750.830E-03,  -743.453E-03,   104.995E-03,   13.5580E-03
C:/temp/dataset/6/1_6.odb,Step-1,Increment      1: Step Time =    1.000,"PART-1-1",           250,      -8.67175,      -2.53401,            0.,NA,NA,"",   669.544E-03,  -661.214E-03,  -105.285E-03,   11.3287E-03
C:/temp/dataset/6/1_6.odb,Step-1,Increment      1: Step Time =    1.000,"PART-1-1",           251,       5.78686,      -22.7214,            0.,NA,NA,"",   54.1720E-03,  -54.0279E-03,  -3.94791E-03,   3.91857E-03
C:/temp/dataset/6/1_6.odb,Step-1,Increment      1: Step Time =    1.000,"PART-1-1",           252,      -8.27594,       1.60152,            0.,NA,NA,"",   838.307E-03,  -834.970E-03,  -74.7177E-03,   13.4002E-03
C:/temp/dataset/6/1_6.odb,Step-1,Increment      1: Step Time =    1.000,"PART-1-1",           253,       8.25490,      -24.0061,            0.,NA,NA,"",   45.6615E-03,  -41.0282E-03,   20.0414E-03,   4.43027E-03
C:/temp/dataset/6/1_6.odb,Step-1,Increment      1: Step Time =    1.000,"PART-1-1",           254,      -9.04303,      -23.2600,            0.,NA,NA,"",   46.9108E-03,  -34.0427E-03,  -32.2756E-03,   5.91647E-03
C:/temp/dataset/6/1_6.odb,Step-1,Increment      1: Step Time =    1.000,"PART-1-1",           255,       7.61656,      -1.09448,            0.,NA,NA,"",   774.531E-03,  -764.573E-03,   123.798E-03,   6.35006E-03
C:/temp/dataset/6/1_6.odb,Step-1,Increment      1: Step Time =    1.000,"PART-1-1",           256,      -4.02262,   861.151E-03,            0.,NA,NA,"",   826.955E-03,  -819.970E-03,   107.257E-03,   14.4028E-03
C:/temp/dataset/6/1_6.odb,Step-1,Increment      1: Step Time =    1.000,"PART-1-1",           257,  -104.141E-03,       1.31276,            0.,NA,NA,"",   828.472E-03,  -817.963E-03,   131.542E-03,   17.4345E-03
C:/temp/dataset/6/1_6.odb,Step-1,Increment      1: Step Time =    1.000,"PART-1-1",           258,       3.72123,      -23.4419,            0.,NA,NA,"",   46.4082E-03,  -45.1869E-03,  -10.5767E-03,   7.66815E-03
C:/temp/dataset/6/1_6.odb,Step-1,Increment      1: Step Time =    1.000,"PART-1-1",           259,      -10.7950,      -8.39617,            0.,NA,NA,"",   452.074E-03,  -414.801E-03,  -179.753E-03,   8.38797E-03
C:/temp/dataset/6/1_6.odb,Step-1,Increment      1: Step Time =    1.000,"PART-1-1",           260,      -1.85786,       1.02916,            0.,NA,NA,"",   831.590E-03,  -821.170E-03,   131.231E-03,   19.3448E-03
C:/temp/dataset/6/1_6.odb,Step-1,Increment      1: Step Time =    1.000,"PART-1-1",           261,      -6.46179,      -1.33856,            0.,NA,NA,"",   724.506E-03,  -724.446E-03,   9.27123E-03,   11.4001E-03
C:/temp/dataset/6/1_6.odb,Step-1,Increment      1: Step Time =    1.000,"PART-1-1",           262,      -11.1078,      -7.00587,            0.,NA,NA,"",   513.282E-03,  -471.159E-03,  -203.635E-03,   8.31657E-03
C:/temp/dataset/6/1_6.odb,Step-1,Increment      1: Step Time =    1.000,"PART-1-1",           263,      -5.52697,      -3.44125,            0.,NA,NA,"",   658.159E-03,  -657.119E-03,   36.9873E-03,   12.3089E-03
C:/temp/dataset/6/1_6.odb,Step-1,Increment      1: Step Time =    1.000,"PART-1-1",           264,      -9.72268,      -4.98378,            0.,NA,NA,"",   576.888E-03,  -555.578E-03,  -155.350E-03,   5.39853E-03
C:/temp/dataset/6/1_6.odb,Step-1,Increment      1: Step Time =    1.000,"PART-1-1",           265,      -6.27329,       4.89376,            0.,NA,NA,"",       1.03455,      -1.03160,   78.0450E-03,   27.7259E-03
C:/temp/dataset/6/1_6.odb,Step-1,Increment      1: Step Time =    1.000,"PART-1-1",           266,       12.4963,       2.80040,            0.,NA,NA,"",   847.670E-03,  -823.433E-03,   201.251E-03,   2.07661E-03
C:/temp/dataset/6/1_6.odb,Step-1,Increment      1: Step Time =    1.000,"PART-1-1",           267,      -7.37176,      -20.2559,            0.,NA,NA,"",   68.8715E-03,  -64.8110E-03,  -23.2985E-03,   4.16274E-03
C:/temp/dataset/6/1_6.odb,Step-1,Increment      1: Step Time =    1.000,"PART-1-1",           268,       2.88963,      -21.8777,            0.,NA,NA,"",   59.1743E-03,  -58.3952E-03,  -9.57072E-03,   10.7562E-03
C:/temp/dataset/6/1_6.odb,Step-1,Increment      1: Step Time =    1.000,"PART-1-1",           269,      -8.05085,       3.52655,            0.,NA,NA,"",   942.146E-03,  -940.428E-03,  -56.8785E-03,   12.5466E-03
C:/temp/dataset/6/1_6.odb,Step-1,Increment      1: Step Time =    1.000,"PART-1-1",           270,       8.95558,      -12.5395,            0.,NA,NA,"",   414.981E-03,  -404.926E-03,   90.8004E-03,   10.6207E-03
C:/temp/dataset/6/1_6.odb,Step-1,Increment      1: Step Time =    1.000,"PART-1-1",           271,       1.35989,  -223.950E-03,            0.,NA,NA,"",   787.198E-03,  -776.661E-03,   128.365E-03,   18.0722E-03
C:/temp/dataset/6/1_6.odb,Step-1,Increment      1: Step Time =    1.000,"PART-1-1",           272,      -9.75004,      -12.6533,            0.,NA,NA,"",   280.436E-03,  -257.461E-03,  -111.168E-03,   6.88520E-03
C:/temp/dataset/6/1_6.odb,Step-1,Increment      1: Step Time =    1.000,"PART-1-1",           273,      -8.51206,      -25.1011,            0.,NA,NA,"",   27.0623E-03,  -18.9508E-03,  -19.3193E-03,   4.70056E-03
C:/temp/dataset/6/1_6.odb,Step-1,Increment      1: Step Time =    1.000,"PART-1-1",           274,      -6.19138,   998.181E-03,            0.,NA,NA,"",   817.307E-03,  -816.369E-03,   39.1613E-03,   12.3028E-03
C:/temp/dataset/6/1_6.odb,Step-1,Increment      1: Step Time =    1.000,"PART-1-1",           275,      -2.63339,      -25.0950,            0.,NA,NA,"",   25.8439E-03,  -25.8437E-03,  -100.952E-06,   5.30896E-03
C:/temp/dataset/6/1_6.odb,Step-1,Increment      1: Step Time =    1.000,"PART-1-1",           276,       8.11811,      -26.0558,            0.,NA,NA,"",   21.7454E-03,  -18.3077E-03,   11.7342E-03,   3.86690E-03
C:/temp/dataset/6/1_6.odb,Step-1,Increment      1: Step Time =    1.000,"PART-1-1",           277,       6.33403,   764.508E-03,            0.,NA,NA,"",   800.313E-03,  -790.971E-03,   121.921E-03,   7.61556E-03
C:/temp/dataset/6/1_6.odb,Step-1,Increment      1: Step Time =    1.000,"PART-1-1",           278,       8.84044,      -16.9880,            0.,NA,NA,"",   235.464E-03,  -225.545E-03,   67.6222E-03,   10.8718E-03
C:/temp/dataset/6/1_6.odb,Step-1,Increment      1: Step Time =    1.000,"PART-1-1",           279,      -11.3950,       19.6047,            0.,NA,NA,"",       3.19695,      -3.13528,  -624.882E-03,   10.5092E-03
C:/temp/dataset/6/1_6.odb,Step-1,Increment      1: Step Time =    1.000,"PART-1-1",           280,      -11.2464,      -2.22607,            0.,NA,NA,"",   709.227E-03,  -664.953E-03,  -246.658E-03,   13.0027E-03
C:/temp/dataset/6/1_6.odb,Step-1,Increment      1: Step Time =    1.000,"PART-1-1",           281,      -8.41776,  -32.7016E-03,            0.,NA,NA,"",   767.091E-03,  -762.172E-03,  -86.7354E-03,   13.0446E-03
C:/temp/dataset/6/1_6.odb,Step-1,Increment      1: Step Time =    1.000,"PART-1-1",           282,       4.48255,      -24.5345,            0.,NA,NA,"",   34.4463E-03,  -33.7414E-03,  -6.93264E-03,   5.37973E-03
C:/temp/dataset/6/1_6.odb,Step-1,Increment      1: Step Time =    1.000,"PART-1-1",           283,       6.11275,      -24.3348,            0.,NA,NA,"",   34.7291E-03,  -34.7291E-03,   59.8061E-06,   2.70768E-03
C:/temp/dataset/6/1_6.odb,Step-1,Increment      1: Step Time =    1.000,"PART-1-1",           284,       9.69767,      -4.20039,            0.,NA,NA,"",   720.740E-03,  -705.905E-03,   145.481E-03,   4.75564E-03
C:/temp/dataset/6/1_6.odb,Step-1,Increment      1: Step Time =    1.000,"PART-1-1",           285,       13.8851,      -1.60402,            0.,NA,NA,"",   791.577E-03,  -757.336E-03,   230.297E-03,   2.78536E-03
C:/temp/dataset/6/1_6.odb,Step-1,Increment      1: Step Time =    1.000,"PART-1-1",           286,           15.,   -468.75E-03,            0.,NA,NA,"",   813.452E-03,  -775.087E-03,   246.869E-03,   3.58531E-03
C:/temp/dataset/6/1_6.odb,Step-1,Increment      1: Step Time =    1.000,"PART-1-1",           287,       13.7553,   590.641E-03,            0.,NA,NA,"",   823.537E-03,  -792.581E-03,   223.672E-03,   2.03113E-03
C:/temp/dataset/6/1_6.odb,Step-1,Increment      1: Step Time =    1.000,"PART-1-1",           288,       12.6405,  -544.629E-03,            0.,NA,NA,"",   802.526E-03,  -775.853E-03,   205.185E-03,   2.00047E-03
C:/temp/dataset/6/1_6.odb,Step-1,Increment      1: Step Time =    1.000,"PART-1-1",           289,       6.57104,       2.96720,            0.,NA,NA,"",   830.372E-03,  -820.623E-03,   126.867E-03,   3.68817E-03
C:/temp/dataset/6/1_6.odb,Step-1,Increment      1: Step Time =    1.000,"PART-1-1",           290,       5.86345,       1.80964,            0.,NA,NA,"",   815.347E-03,  -806.148E-03,   122.131E-03,   6.72619E-03
C:/temp/dataset/6/1_6.odb,Step-1,Increment      1: Step Time =    1.000,"PART-1-1",           291,       7.10711,       1.10321,            0.,NA,NA,"",   806.873E-03,  -796.724E-03,   127.572E-03,   5.30446E-03
C:/temp/dataset/6/1_6.odb,Step-1,Increment      1: Step Time =    1.000,"PART-1-1",           292,       7.81470,       2.26078,            0.,NA,NA,"",   823.990E-03,  -812.720E-03,   135.811E-03,   2.52976E-03
C:/temp/dataset/6/1_6.odb,Step-1,Increment      1: Step Time =    1.000,"PART-1-1",           293,       6.97305,      -8.82061,            0.,NA,NA,"",   551.849E-03,  -548.783E-03,   58.0931E-03,   13.2044E-03
C:/temp/dataset/6/1_6.odb,Step-1,Increment      1: Step Time =    1.000,"PART-1-1",           294,       5.98985,      -7.53541,            0.,NA,NA,"",   596.729E-03,  -595.097E-03,   44.0947E-03,   16.1402E-03
C:/temp/dataset/6/1_6.odb,Step-1,Increment      1: Step Time =    1.000,"PART-1-1",           295,            5.,      -8.76875,            0.,NA,NA,"",   537.809E-03,  -537.753E-03,  -7.73852E-03,   14.5009E-03
C:/temp/dataset/6/1_6.odb,Step-1,Increment      1: Step Time =    1.000,"PART-1-1",           296,       5.98320,      -10.0539,            0.,NA,NA,"",   494.086E-03,  -493.857E-03,   15.0490E-03,   11.0703E-03
C:/temp/dataset/6/1_6.odb,Step-1,Increment      1: Step Time =    1.000,"PART-1-1",           297,       12.0429,      -8.05477,            0.,NA,NA,"",   619.731E-03,  -589.008E-03,   192.708E-03,   6.33460E-03
C:/temp/dataset/6/1_6.odb,Step-1,Increment      1: Step Time =    1.000,"PART-1-1",           298,       11.0248,      -9.13413,            0.,NA,NA,"",   571.708E-03,  -547.929E-03,   163.168E-03,   8.95190E-03
C:/temp/dataset/6/1_6.odb,Step-1,Increment      1: Step Time =    1.000,"PART-1-1",           299,       11.9985,      -10.2754,            0.,NA,NA,"",   538.634E-03,  -505.597E-03,   185.735E-03,   8.34224E-03
C:/temp/dataset/6/1_6.odb,Step-1,Increment      1: Step Time =    1.000,"PART-1-1",           300,       13.0166,      -9.19606,            0.,NA,NA,"",   590.425E-03,  -548.735E-03,   217.925E-03,   5.69594E-03
C:/temp/dataset/6/1_6.odb,Step-1,Increment      1: Step Time =    1.000,"PART-1-1",           301,       13.9992,      -14.7549,            0.,NA,NA,"",   402.729E-03,  -334.945E-03,   223.613E-03,   10.6187E-03
C:/temp/dataset/6/1_6.odb,Step-1,Increment      1: Step Time =    1.000,"PART-1-1",           302,       13.0271,      -15.9471,            0.,NA,NA,"",   338.258E-03,  -284.498E-03,   182.974E-03,   11.8981E-03
C:/temp/dataset/6/1_6.odb,Step-1,Increment      1: Step Time =    1.000,"PART-1-1",           303,       14.0279,      -16.9735,            0.,NA,NA,"",   324.064E-03,  -253.129E-03,   202.345E-03,   13.8537E-03
C:/temp/dataset/6/1_6.odb,Step-1,Increment      1: Step Time =    1.000,"PART-1-1",           304,           15.,      -15.7813,            0.,NA,NA,"",   391.052E-03,  -302.253E-03,   248.121E-03,   13.1586E-03
C:/temp/dataset/6/1_6.odb,Step-1,Increment      1: Step Time =    1.000,"PART-1-1",           305,       6.96949,      -18.0995,            0.,NA,NA,"",   178.011E-03,  -177.014E-03,   18.8137E-03,   8.48698E-03
C:/temp/dataset/6/1_6.odb,Step-1,Increment      1: Step Time =    1.000,"PART-1-1",           306,       5.95014,      -17.3335,            0.,NA,NA,"",   205.814E-03,  -205.510E-03,  -11.1847E-03,   3.21841E-03
C:/temp/dataset/6/1_6.odb,Step-1,Increment      1: Step Time =    1.000,"PART-1-1",           307,            5.,      -18.7625,            0.,NA,NA,"",   156.789E-03,  -152.429E-03,  -36.7173E-03,   11.1873E-03
C:/temp/dataset/6/1_6.odb,Step-1,Increment      1: Step Time =    1.000,"PART-1-1",           308,       6.01935,      -19.5285,            0.,NA,NA,"",   119.211E-03,  -119.189E-03,  -2.31081E-03,   13.6301E-03
C:/temp/dataset/6/1_6.odb,Step-1,Increment      1: Step Time =    1.000,"PART-1-1",           309,       7.66098,      -29.0388,            0.,NA,NA,"",   2.40248E-03,  -818.231E-06,   2.25885E-03,   3.00967E-03
C:/temp/dataset/6/1_6.odb,Step-1,Increment      1: Step Time =    1.000,"PART-1-1",           310,       6.62868,      -28.0660,            0.,NA,NA,"",   5.18844E-03,  -4.80105E-03,   1.96720E-03,   2.50116E-03
C:/temp/dataset/6/1_6.odb,Step-1,Increment      1: Step Time =    1.000,"PART-1-1",           311,       5.21770,      -29.0272,            0.,NA,NA,"",   2.26662E-03,  -2.26656E-03,   16.6669E-06,   1.81931E-03
C:/temp/dataset/6/1_6.odb,Step-1,Increment      1: Step Time =    1.000,"PART-1-1",           312,          6.25,          -30.,            0.,NA,NA,"",            0.,  -265.604E-42,   2.83373E-39,   1.50380E-03
C:/temp/dataset/6/1_6.odb,Step-1,Increment      1: Step Time =    1.000,"PART-1-1",           313,   162.125E-03,      -28.5454,            0.,NA,NA,"",   7.50485E-03,  -7.39000E-03,  -1.30794E-03,   3.95262E-03
C:/temp/dataset/6/1_6.odb,Step-1,Increment      1: Step Time =    1.000,"PART-1-1",           314,      -1.06934,      -27.3053,            0.,NA,NA,"",   14.0106E-03,  -13.9182E-03,  -1.60638E-03,   4.21409E-03
C:/temp/dataset/6/1_6.odb,Step-1,Increment      1: Step Time =    1.000,"PART-1-1",           315,      -2.48147,      -28.7599,            0.,NA,NA,"",   5.30156E-03,  -5.21777E-03,  -938.804E-06,   3.20672E-03
C:/temp/dataset/6/1_6.odb,Step-1,Increment      1: Step Time =    1.000,"PART-1-1",           316,         -1.25,          -30.,            0.,NA,NA,"",            0.,  -2.83145E-39,  -2.35309E-39,   2.98776E-03
C:/temp/dataset/6/1_6.odb,Step-1,Increment      1: Step Time =    1.000,"PART-1-1",           317,          -15.,        -21.25,            0.,NA,NA,"",   158.531E-03,  -88.0205E-03,  -131.850E-03,   17.8198E-03
C:/temp/dataset/6/1_6.odb,Step-1,Increment      1: Step Time =    1.000,"PART-1-1",           318,      -13.9888,      -22.4607,            0.,NA,NA,"",   119.600E-03,  -65.3375E-03,  -100.175E-03,   15.4826E-03
C:/temp/dataset/6/1_6.odb,Step-1,Increment      1: Step Time =    1.000,"PART-1-1",           319,      -12.8187,      -21.2681,            0.,NA,NA,"",   123.115E-03,  -72.5037E-03,  -99.5008E-03,   13.4914E-03
C:/temp/dataset/6/1_6.odb,Step-1,Increment      1: Step Time =    1.000,"PART-1-1",           320,      -13.8299,      -20.0574,            0.,NA,NA,"",   163.508E-03,  -96.8462E-03,  -131.740E-03,   15.7829E-03
C:/temp/dataset/6/1_6.odb,Step-1,Increment      1: Step Time =    1.000,"PART-1-1",           321,      -12.5142,      -28.6623,            0.,NA,NA,"",   13.2678E-03,  -5.92204E-03,  -11.8728E-03,   11.2778E-03
C:/temp/dataset/6/1_6.odb,Step-1,Increment      1: Step Time =    1.000,"PART-1-1",           322,        -11.25,          -30.,            0.,NA,NA,"",            0.,  -615.572E-42,  -16.3212E-39,   8.43290E-03
C:/temp/dataset/6/1_6.odb,Step-1,Increment      1: Step Time =    1.000,"PART-1-1",           323,      -9.93348,      -28.4464,            0.,NA,NA,"",   8.94155E-03,  -2.64581E-03,  -8.54114E-03,   6.81878E-03
C:/temp/dataset/6/1_6.odb,Step-1,Increment      1: Step Time =    1.000,"PART-1-1",           324,      -11.1976,      -27.1087,            0.,NA,NA,"",   24.9497E-03,  -11.7157E-03,  -22.0279E-03,   9.92823E-03
C:/temp/dataset/6/1_6.odb,Step-1,Increment      1: Step Time =    1.000,"PART-1-1",           325,      -7.37036,      -13.8742,            0.,NA,NA,"",   218.358E-03,  -215.631E-03,  -34.3982E-03,   1.48282E-03
C:/temp/dataset/6/1_6.odb,Step-1,Increment      1: Step Time =    1.000,"PART-1-1",           326,      -6.21015,      -15.0417,            0.,NA,NA,"",   182.173E-03,  -182.170E-03,  -1.07603E-03,   1.58345E-03
C:/temp/dataset/6/1_6.odb,Step-1,Increment      1: Step Time =    1.000,"PART-1-1",           327,           -5.,      -13.7188,            0.,NA,NA,"",   225.723E-03,  -222.765E-03,   36.4263E-03,   3.95403E-03
C:/temp/dataset/6/1_6.odb,Step-1,Increment      1: Step Time =    1.000,"PART-1-1",           328,      -6.16021,      -12.5513,            0.,NA,NA,"",   257.917E-03,  -257.908E-03,   2.18878E-03,   1.23180E-03
C:/temp/dataset/6/1_6.odb,Step-1,Increment      1: Step Time =    1.000,"PART-1-1",           329,      -9.33590,      -9.40979,            0.,NA,NA,"",   390.401E-03,  -372.251E-03,  -117.652E-03,   6.09294E-03
C:/temp/dataset/6/1_6.odb,Step-1,Increment      1: Step Time =    1.000,"PART-1-1",           330,      -8.33361,      -10.3234,            0.,NA,NA,"",   344.682E-03,  -336.122E-03,  -76.3415E-03,   4.11675E-03
C:/temp/dataset/6/1_6.odb,Step-1,Increment      1: Step Time =    1.000,"PART-1-1",           331,      -7.16565,      -9.15059,            0.,NA,NA,"",   382.790E-03,  -381.039E-03,  -36.5777E-03,   2.05452E-03
C:/temp/dataset/6/1_6.odb,Step-1,Increment      1: Step Time =    1.000,"PART-1-1",           332,      -8.16794,      -8.23701,            0.,NA,NA,"",   425.794E-03,  -418.433E-03,  -78.8320E-03,   4.36259E-03
C:/temp/dataset/6/1_6.odb,Step-1,Increment      1: Step Time =    1.000,"PART-1-1",           333,      -11.1473,      -6.32447,            0.,NA,NA,"",   541.657E-03,  -498.936E-03,  -210.843E-03,   8.27778E-03
C:/temp/dataset/6/1_6.odb,Step-1,Increment      1: Step Time =    1.000,"PART-1-1",           334,      -10.2102,      -6.79208,            0.,NA,NA,"",   507.789E-03,  -479.178E-03,  -168.040E-03,   6.32782E-03
C:/temp/dataset/6/1_6.odb,Step-1,Increment      1: Step Time =    1.000,"PART-1-1",           335,      -9.51762,      -5.78103,            0.,NA,NA,"",   541.585E-03,  -522.224E-03,  -143.516E-03,   4.58068E-03
C:/temp/dataset/6/1_6.odb,Step-1,Increment      1: Step Time =    1.000,"PART-1-1",           336,      -10.4548,      -5.31342,            0.,NA,NA,"",   571.792E-03,  -540.268E-03,  -187.234E-03,   6.51518E-03
C:/temp/dataset/6/1_6.odb,Step-1,Increment      1: Step Time =    1.000,"PART-1-1",           337,      -5.04937,      -1.25055,            0.,NA,NA,"",   741.575E-03,  -738.705E-03,   65.1802E-03,   7.76705E-03
C:/temp/dataset/6/1_6.odb,Step-1,Increment      1: Step Time =    1.000,"PART-1-1",           338,      -3.82978,  -150.691E-03,            0.,NA,NA,"",   790.608E-03,  -783.588E-03,   105.125E-03,   11.8836E-03
C:/temp/dataset/6/1_6.odb,Step-1,Increment      1: Step Time =    1.000,"PART-1-1",           339,      -5.10700,   929.666E-03,            0.,NA,NA,"",   823.058E-03,  -819.218E-03,   79.4121E-03,   11.5373E-03
C:/temp/dataset/6/1_6.odb,Step-1,Increment      1: Step Time =    1.000,"PART-1-1",           340,      -6.32658,  -170.190E-03,            0.,NA,NA,"",   769.568E-03,  -769.218E-03,   23.1963E-03,   11.0947E-03
C:/temp/dataset/6/1_6.odb,Step-1,Increment      1: Step Time =    1.000,"PART-1-1",           341,          -15.,          3.75,            0.,NA,NA,"",       1.18045,      -1.00514,  -618.996E-03,   40.1094E-03
C:/temp/dataset/6/1_6.odb,Step-1,Increment      1: Step Time =    1.000,"PART-1-1",           342,      -13.8520,       2.39386,            0.,NA,NA,"",       1.02545,  -900.783E-03,  -490.045E-03,   29.6314E-03
C:/temp/dataset/6/1_6.odb,Step-1,Increment      1: Step Time =    1.000,"PART-1-1",           343,      -12.6820,       3.58697,            0.,NA,NA,"",       1.05868,  -967.207E-03,  -430.491E-03,   23.2536E-03
C:/temp/dataset/6/1_6.odb,Step-1,Increment      1: Step Time =    1.000,"PART-1-1",           344,      -13.8301,       4.94311,            0.,NA,NA,"",       1.21935,      -1.08046,  -565.181E-03,   32.9061E-03
C:/temp/dataset/6/1_6.odb,Step-1,Increment      1: Step Time =    1.000,"PART-1-1",           345,          -15.,         11.25,            0.,NA,NA,"",       2.01781,      -1.78464,  -941.600E-03,   35.6792E-03
C:/temp/dataset/6/1_6.odb,Step-1,Increment      1: Step Time =    1.000,"PART-1-1",           346,      -14.0083,       10.0442,            0.,NA,NA,"",       1.79059,      -1.62043,  -761.866E-03,   30.6431E-03
C:/temp/dataset/6/1_6.odb,Step-1,Increment      1: Step Time =    1.000,"PART-1-1",           347,      -13.0572,       11.3141,            0.,NA,NA,"",       1.91094,      -1.78626,  -678.945E-03,   21.9890E-03
C:/temp/dataset/6/1_6.odb,Step-1,Increment      1: Step Time =    1.000,"PART-1-1",           348,      -14.0489,       12.5200,            0.,NA,NA,"",       2.13613,      -1.95798,  -854.020E-03,   26.4777E-03
C:/temp/dataset/6/1_6.odb,Step-1,Increment      1: Step Time =    1.000,"PART-1-1",           349,           -5.,       22.7083,            0.,NA,NA,"",       3.84154,      -3.81662,   436.799E-03,   10.7081E-03
C:/temp/dataset/6/1_6.odb,Step-1,Increment      1: Step Time =    1.000,"PART-1-1",           350,      -5.96779,       23.6687,            0.,NA,NA,"",       3.98730,      -3.97966,   246.758E-03,   9.04593E-03
C:/temp/dataset/6/1_6.odb,Step-1,Increment      1: Step Time =    1.000,"PART-1-1",           351,      -6.69567,       22.7251,            0.,NA,NA,"",       3.78698,      -3.78484,   127.327E-03,   9.17024E-03
C:/temp/dataset/6/1_6.odb,Step-1,Increment      1: Step Time =    1.000,"PART-1-1",           352,      -5.72788,       21.7648,            0.,NA,NA,"",       3.63707,      -3.62375,   310.932E-03,   10.4542E-03
C:/temp/dataset/6/1_6.odb,Step-1,Increment      1: Step Time =    1.000,"PART-1-1",           353,      -9.95259,       28.8237,            0.,NA,NA,"",       4.89374,      -4.86401,  -538.630E-03,   4.01164E-03
C:/temp/dataset/6/1_6.odb,Step-1,Increment      1: Step Time =    1.000,"PART-1-1",           354,      -8.67740,       27.7404,            0.,NA,NA,"",       4.69877,      -4.68954,  -294.365E-03,   5.42463E-03
C:/temp/dataset/6/1_6.odb,Step-1,Increment      1: Step Time =    1.000,"PART-1-1",           355,      -7.47481,       28.9167,            0.,NA,NA,"",       4.93204,      -4.93111,  -95.5077E-03,   5.74242E-03
C:/temp/dataset/6/1_6.odb,Step-1,Increment      1: Step Time =    1.000,"PART-1-1",           356,         -8.75,           30.,            0.,NA,NA,"",       5.11316,      -5.10181,  -340.625E-03,   4.74821E-03
C:/temp/dataset/6/1_6.odb,Step-1,Increment      1: Step Time =    1.000,"PART-1-1",           357,      -12.4360,       28.7156,            0.,NA,NA,"",       4.89880,      -4.79947,  -981.489E-03,   1.87473E-03
C:/temp/dataset/6/1_6.odb,Step-1,Increment      1: Step Time =    1.000,"PART-1-1",           358,        -13.75,           30.,            0.,NA,NA,"",       5.16213,      -5.01089,      -1.24041,   267.610E-06
C:/temp/dataset/6/1_6.odb,Step-1,Increment      1: Step Time =    1.000,"PART-1-1",           359,          -15.,         28.75,            0.,NA,NA,"",       4.97746,      -4.76251,      -1.44692,   267.776E-06
C:/temp/dataset/6/1_6.odb,Step-1,Increment      1: Step Time =    1.000,"PART-1-1",           360,      -13.6860,       27.4656,            0.,NA,NA,"",       4.70139,      -4.54943,      -1.18565,   1.86831E-03
C:/temp/dataset/6/1_6.odb,Step-1,Increment      1: Step Time =    1.000,"PART-1-1",           361,         -3.75,           -5.,            0.,NA,NA,"",   637.165E-03,  -631.949E-03,   81.3601E-03,   26.2506E-03
C:/temp/dataset/6/1_6.odb,Step-1,Increment      1: Step Time =    1.000,"PART-1-1",           362,      -2.75606,      -4.06584,            0.,NA,NA,"",   681.430E-03,  -672.982E-03,   106.968E-03,   16.7795E-03
C:/temp/dataset/6/1_6.odb,Step-1,Increment      1: Step Time =    1.000,"PART-1-1",           363,      -4.26954,      -3.28646,            0.,NA,NA,"",   681.233E-03,  -676.465E-03,   80.4588E-03,   10.6773E-03
C:/temp/dataset/6/1_6.odb,Step-1,Increment      1: Step Time =    1.000,"PART-1-1",           364,      -5.26349,      -4.22062,            0.,NA,NA,"",   632.647E-03,  -631.039E-03,   45.0847E-03,   17.9384E-03
C:/temp/dataset/6/1_6.odb,Step-1,Increment      1: Step Time =    1.000,"PART-1-1",           365,   659.099E-03,      -2.85996,            0.,NA,NA,"",   735.419E-03,  -723.998E-03,   129.106E-03,   13.3768E-03
C:/temp/dataset/6/1_6.odb,Step-1,Increment      1: Step Time =    1.000,"PART-1-1",           366,  -266.865E-03,      -3.97148,            0.,NA,NA,"",   715.460E-03,  -704.216E-03,   126.349E-03,   10.7908E-03
C:/temp/dataset/6/1_6.odb,Step-1,Increment      1: Step Time =    1.000,"PART-1-1",           367,          1.25,           -5.,            0.,NA,NA,"",   721.514E-03,  -710.985E-03,   122.813E-03,   7.26414E-03
C:/temp/dataset/6/1_6.odb,Step-1,Increment      1: Step Time =    1.000,"PART-1-1",           368,       2.17596,      -3.88848,            0.,NA,NA,"",   724.475E-03,  -714.604E-03,   119.186E-03,   6.72530E-03
C:/temp/dataset/6/1_6.odb,Step-1,Increment      1: Step Time =    1.000,"PART-1-1",           369,   93.5104E-03,  -560.922E-03,            0.,NA,NA,"",   783.047E-03,  -771.676E-03,   132.958E-03,   16.8912E-03
C:/temp/dataset/6/1_6.odb,Step-1,Increment      1: Step Time =    1.000,"PART-1-1",           370,   627.873E-03,   544.404E-03,            0.,NA,NA,"",   807.002E-03,  -796.276E-03,   131.141E-03,   17.5543E-03
C:/temp/dataset/6/1_6.odb,Step-1,Increment      1: Step Time =    1.000,"PART-1-1",           371,  -981.002E-03,       1.17096,            0.,NA,NA,"",   830.394E-03,  -819.865E-03,   131.822E-03,   18.5443E-03
C:/temp/dataset/6/1_6.odb,Step-1,Increment      1: Step Time =    1.000,"PART-1-1",           372,      -1.51537,   65.6335E-03,            0.,NA,NA,"",   802.302E-03,  -791.429E-03,   131.637E-03,   17.0215E-03
C:/temp/dataset/6/1_6.odb,Step-1,Increment      1: Step Time =    1.000,"PART-1-1",           373,       4.11258,       2.54084,            0.,NA,NA,"",   826.842E-03,  -818.134E-03,   119.682E-03,   9.49917E-03
C:/temp/dataset/6/1_6.odb,Step-1,Increment      1: Step Time =    1.000,"PART-1-1",           374,       3.71515,       1.12833,            0.,NA,NA,"",   806.305E-03,  -797.362E-03,   119.760E-03,   12.5941E-03
C:/temp/dataset/6/1_6.odb,Step-1,Increment      1: Step Time =    1.000,"PART-1-1",           375,       5.46602,   397.127E-03,            0.,NA,NA,"",   793.450E-03,  -784.675E-03,   117.672E-03,   10.2221E-03
C:/temp/dataset/6/1_6.odb,Step-1,Increment      1: Step Time =    1.000,"PART-1-1",           376,       8.69518,  -378.803E-03,            0.,NA,NA,"",   789.517E-03,  -777.076E-03,   139.607E-03,   3.87522E-03
C:/temp/dataset/6/1_6.odb,Step-1,Increment      1: Step Time =    1.000,"PART-1-1",           377,       8.82700,   889.396E-03,            0.,NA,NA,"",   808.458E-03,  -795.442E-03,   144.483E-03,   2.32165E-03
C:/temp/dataset/6/1_6.odb,Step-1,Increment      1: Step Time =    1.000,"PART-1-1",           378,       6.97530,  -164.986E-03,            0.,NA,NA,"",   787.340E-03,  -777.778E-03,   122.337E-03,   6.89006E-03
C:/temp/dataset/6/1_6.odb,Step-1,Increment      1: Step Time =    1.000,"PART-1-1",           379,      -3.65351,      -22.6081,            0.,NA,NA,"",   41.6091E-03,  -41.5000E-03,   3.01140E-03,   4.69396E-03
C:/temp/dataset/6/1_6.odb,Step-1,Increment      1: Step Time =    1.000,"PART-1-1",           380,      -2.48671,      -21.3009,            0.,NA,NA,"",   50.0490E-03,  -49.9454E-03,   3.21868E-03,   2.82933E-03
C:/temp/dataset/6/1_6.odb,Step-1,Increment      1: Step Time =    1.000,"PART-1-1",           381,         -3.75,          -20.,            0.,NA,NA,"",   56.0735E-03,  -55.9589E-03,   3.58381E-03,   5.62108E-03
C:/temp/dataset/6/1_6.odb,Step-1,Increment      1: Step Time =    1.000,"PART-1-1",           382,      -4.91680,      -21.3072,            0.,NA,NA,"",   50.1236E-03,  -49.9949E-03,   3.58980E-03,   4.80228E-03
C:/temp/dataset/6/1_6.odb,Step-1,Increment      1: Step Time =    1.000,"PART-1-1",           383,       12.8399,      -22.4784,            0.,NA,NA,"",   136.173E-03,  -90.7157E-03,   101.557E-03,   15.2286E-03
C:/temp/dataset/6/1_6.odb,Step-1,Increment      1: Step Time =    1.000,"PART-1-1",           384,       11.7398,      -21.2760,            0.,NA,NA,"",   145.116E-03,  -109.002E-03,   95.7980E-03,   13.1968E-03
C:/temp/dataset/6/1_6.odb,Step-1,Increment      1: Step Time =    1.000,"PART-1-1",           385,       10.5591,      -22.4389,            0.,NA,NA,"",   98.9074E-03,  -76.4913E-03,   62.7038E-03,   10.8050E-03
C:/temp/dataset/6/1_6.odb,Step-1,Increment      1: Step Time =    1.000,"PART-1-1",           386,       11.6593,      -23.6412,            0.,NA,NA,"",   91.4554E-03,  -61.6741E-03,   67.5308E-03,   12.8194E-03
C:/temp/dataset/6/1_6.odb,Step-1,Increment      1: Step Time =    1.000,"PART-1-1",           387,          8.75,            5.,            0.,NA,NA,"",   859.069E-03,  -846.118E-03,   148.609E-03,   3.13399E-03
C:/temp/dataset/6/1_6.odb,Step-1,Increment      1: Step Time =    1.000,"PART-1-1",           388,       7.62461,       4.03982,            0.,NA,NA,"",   844.010E-03,  -833.030E-03,   135.699E-03,   2.15438E-03
C:/temp/dataset/6/1_6.odb,Step-1,Increment      1: Step Time =    1.000,"PART-1-1",           389,       8.90047,       2.96899,            0.,NA,NA,"",   835.719E-03,  -822.450E-03,   148.333E-03,   1.07876E-03
C:/temp/dataset/6/1_6.odb,Step-1,Increment      1: Step Time =    1.000,"PART-1-1",           390,       10.0259,       3.92917,            0.,NA,NA,"",   851.734E-03,  -835.838E-03,   163.784E-03,   2.05635E-03
C:/temp/dataset/6/1_6.odb,Step-1,Increment      1: Step Time =    1.000,"PART-1-1",           391,      -6.96921,       21.1213,            0.,NA,NA,"",       3.48084,      -3.47948,   97.0434E-03,   9.70227E-03
C:/temp/dataset/6/1_6.odb,Step-1,Increment      1: Step Time =    1.000,"PART-1-1",           392,      -6.24133,       19.9816,            0.,NA,NA,"",       3.29309,      -3.28489,   232.338E-03,   12.6194E-03
C:/temp/dataset/6/1_6.odb,Step-1,Increment      1: Step Time =    1.000,"PART-1-1",           393,           -5.,        20.625,            0.,NA,NA,"",       3.45840,      -3.42926,   448.004E-03,   14.9218E-03
C:/temp/dataset/6/1_6.odb,Step-1,Increment      1: Step Time =    1.000,"PART-1-1",           394,      -12.9370,       8.81410,            0.,NA,NA,"",       1.57873,      -1.46325,  -592.677E-03,   23.6408E-03
C:/temp/dataset/6/1_6.odb,Step-1,Increment      1: Step Time =    1.000,"PART-1-1",           395,          -15.,          8.75,            0.,NA,NA,"",       1.69179,      -1.47167,  -834.474E-03,   40.7533E-03
C:/temp/dataset/6/1_6.odb,Step-1,Increment      1: Step Time =    1.000,"PART-1-1",           396,      -13.9287,       7.51992,            0.,NA,NA,"",       1.48049,      -1.32393,  -662.612E-03,   33.3575E-03
C:/temp/dataset/6/1_6.odb,Step-1,Increment      1: Step Time =    1.000,"PART-1-1",           397,          -15.,          1.25,            0.,NA,NA,"",       1.00125,  -849.441E-03,  -530.052E-03,   32.9967E-03
C:/temp/dataset/6/1_6.odb,Step-1,Increment      1: Step Time =    1.000,"PART-1-1",           398,      -13.9023,  -59.1614E-03,            0.,NA,NA,"",   883.829E-03,  -770.944E-03,  -432.203E-03,   23.9042E-03
C:/temp/dataset/6/1_6.odb,Step-1,Increment      1: Step Time =    1.000,"PART-1-1",           399,      -12.7542,       1.08470,            0.,NA,NA,"",   903.575E-03,  -818.293E-03,  -383.203E-03,   21.8594E-03
C:/temp/dataset/6/1_6.odb,Step-1,Increment      1: Step Time =    1.000,"PART-1-1",           400,          -15.,         -1.25,            0.,NA,NA,"",   861.356E-03,  -726.730E-03,  -462.382E-03,   24.7204E-03
C:/temp/dataset/6/1_6.odb,Step-1,Increment      1: Step Time =    1.000,"PART-1-1",           401,      -13.9820,      -2.43756,            0.,NA,NA,"",   772.322E-03,  -666.810E-03,  -389.673E-03,   18.4867E-03
C:/temp/dataset/6/1_6.odb,Step-1,Increment      1: Step Time =    1.000,"PART-1-1",           402,      -12.8843,      -1.24672,            0.,NA,NA,"",   792.459E-03,  -710.360E-03,  -351.254E-03,   18.6765E-03
C:/temp/dataset/6/1_6.odb,Step-1,Increment      1: Step Time =    1.000,"PART-1-1",           403,      -12.3802,      -13.7897,            0.,NA,NA,"",   293.566E-03,  -232.185E-03,  -179.641E-03,   12.3480E-03
C:/temp/dataset/6/1_6.odb,Step-1,Increment      1: Step Time =    1.000,"PART-1-1",           404,      -13.6672,      -12.5056,            0.,NA,NA,"",   365.177E-03,  -279.533E-03,  -234.980E-03,   14.7615E-03
C:/temp/dataset/6/1_6.odb,Step-1,Increment      1: Step Time =    1.000,"PART-1-1",           405,          -15.,        -13.75,            0.,NA,NA,"",   359.110E-03,  -250.166E-03,  -257.638E-03,   17.8664E-03
C:/temp/dataset/6/1_6.odb,Step-1,Increment      1: Step Time =    1.000,"PART-1-1",           406,      -13.7130,      -15.0341,            0.,NA,NA,"",   286.720E-03,  -204.440E-03,  -201.029E-03,   15.3897E-03
C:/temp/dataset/6/1_6.odb,Step-1,Increment      1: Step Time =    1.000,"PART-1-1",           407,       9.21271,      -3.58583,            0.,NA,NA,"",   733.531E-03,  -720.491E-03,   137.700E-03,   4.76643E-03
C:/temp/dataset/6/1_6.odb,Step-1,Increment      1: Step Time =    1.000,"PART-1-1",           408,       7.90749,      -3.82305,            0.,NA,NA,"",   724.730E-03,  -715.700E-03,   114.047E-03,   7.58144E-03
C:/temp/dataset/6/1_6.odb,Step-1,Increment      1: Step Time =    1.000,"PART-1-1",           409,       8.15132,      -5.16923,            0.,NA,NA,"",   691.500E-03,  -682.362E-03,   112.046E-03,   8.92842E-03
C:/temp/dataset/6/1_6.odb,Step-1,Increment      1: Step Time =    1.000,"PART-1-1",           410,       9.45655,      -4.93201,            0.,NA,NA,"",   701.734E-03,  -687.858E-03,   138.858E-03,   5.81692E-03
C:/temp/dataset/6/1_6.odb,Step-1,Increment      1: Step Time =    1.000,"PART-1-1",           411,       6.91243,      -16.0318,            0.,NA,NA,"",   258.382E-03,  -257.761E-03,   17.9052E-03,   6.82449E-03
C:/temp/dataset/6/1_6.odb,Step-1,Increment      1: Step Time =    1.000,"PART-1-1",           412,       5.96229,      -14.9858,            0.,NA,NA,"",   297.692E-03,  -297.471E-03,  -11.4886E-03,   3.92699E-03
C:/temp/dataset/6/1_6.odb,Step-1,Increment      1: Step Time =    1.000,"PART-1-1",           413,            5.,      -16.2875,            0.,NA,NA,"",   250.614E-03,  -246.107E-03,  -47.3166E-03,   840.679E-06
C:/temp/dataset/6/1_6.odb,Step-1,Increment      1: Step Time =    1.000,"PART-1-1",           414,       6.93910,      -13.7291,            0.,NA,NA,"",   350.773E-03,  -349.886E-03,   24.9271E-03,   7.46246E-03
C:/temp/dataset/6/1_6.odb,Step-1,Increment      1: Step Time =    1.000,"PART-1-1",           415,       5.97681,      -12.5371,            0.,NA,NA,"",   394.889E-03,  -394.883E-03,  -2.07773E-03,   7.24535E-03
C:/temp/dataset/6/1_6.odb,Step-1,Increment      1: Step Time =    1.000,"PART-1-1",           416,            5.,      -13.7937,            0.,NA,NA,"",   344.640E-03,  -341.858E-03,  -43.7048E-03,   4.51162E-03
C:/temp/dataset/6/1_6.odb,Step-1,Increment      1: Step Time =    1.000,"PART-1-1",           417,         -1.25,          -20.,            0.,NA,NA,"",   50.9353E-03,  -50.9262E-03,   964.761E-06,   696.064E-06
C:/temp/dataset/6/1_6.odb,Step-1,Increment      1: Step Time =    1.000,"PART-1-1",           418,      -1.09514,      -22.7401,            0.,NA,NA,"",   43.7678E-03,  -43.7662E-03,  -363.888E-06,   5.72564E-03
C:/temp/dataset/6/1_6.odb,Step-1,Increment      1: Step Time =    1.000,"PART-1-1",           419,   141.566E-03,      -21.4393,            0.,NA,NA,"",   51.6513E-03,  -51.6060E-03,  -2.16360E-03,   3.89395E-03
C:/temp/dataset/6/1_6.odb,Step-1,Increment      1: Step Time =    1.000,"PART-1-1",           420,      -7.69236,      -25.1479,            0.,NA,NA,"",   23.0028E-03,  -18.2908E-03,  -13.9489E-03,   3.51625E-03
C:/temp/dataset/6/1_6.odb,Step-1,Increment      1: Step Time =    1.000,"PART-1-1",           421,      -9.18951,      -25.9970,            0.,NA,NA,"",   23.7734E-03,  -13.8591E-03,  -19.3158E-03,   5.93717E-03
C:/temp/dataset/6/1_6.odb,Step-1,Increment      1: Step Time =    1.000,"PART-1-1",           422,      -8.56598,      -27.1897,            0.,NA,NA,"",   13.0018E-03,  -6.82985E-03,  -11.0634E-03,   5.17844E-03
C:/temp/dataset/6/1_6.odb,Step-1,Increment      1: Step Time =    1.000,"PART-1-1",           423,      -7.06883,      -26.3407,            0.,NA,NA,"",   14.0732E-03,  -11.3664E-03,  -8.29827E-03,   3.13898E-03
C:/temp/dataset/6/1_6.odb,Step-1,Increment      1: Step Time =    1.000,"PART-1-1",           424,      -9.82073,      -13.8964,            0.,NA,NA,"",   242.659E-03,  -218.714E-03,  -105.108E-03,   7.01704E-03
C:/temp/dataset/6/1_6.odb,Step-1,Increment      1: Step Time =    1.000,"PART-1-1",           425,      -8.65586,      -15.1239,            0.,NA,NA,"",   192.422E-03,  -180.608E-03,  -66.3860E-03,   4.32816E-03
C:/temp/dataset/6/1_6.odb,Step-1,Increment      1: Step Time =    1.000,"PART-1-1",           426,      -8.53523,      -12.6467,            0.,NA,NA,"",   265.550E-03,  -255.213E-03,  -73.3678E-03,   4.19483E-03
C:/temp/dataset/6/1_6.odb,Step-1,Increment      1: Step Time =    1.000,"PART-1-1",           427,      -6.09243,      -10.1071,            0.,NA,NA,"",   344.288E-03,  -344.243E-03,   5.60784E-03,   1.07619E-03
C:/temp/dataset/6/1_6.odb,Step-1,Increment      1: Step Time =    1.000,"PART-1-1",           428,           -5.,      -8.71250,            0.,NA,NA,"",   404.852E-03,  -401.643E-03,   50.8779E-03,   3.41505E-03
C:/temp/dataset/6/1_6.odb,Step-1,Increment      1: Step Time =    1.000,"PART-1-1",           429,      -6.07322,      -7.75598,            0.,NA,NA,"",   441.660E-03,  -441.627E-03,   5.45380E-03,   1.89569E-03
C:/temp/dataset/6/1_6.odb,Step-1,Increment      1: Step Time =    1.000,"PART-1-1",           430,      -12.7270,      -6.06323,            0.,NA,NA,"",   585.386E-03,  -513.467E-03,  -281.119E-03,   12.2963E-03
C:/temp/dataset/6/1_6.odb,Step-1,Increment      1: Step Time =    1.000,"PART-1-1",           431,      -13.8025,      -4.90646,            0.,NA,NA,"",   660.723E-03,  -564.845E-03,  -342.790E-03,   14.5330E-03
C:/temp/dataset/6/1_6.odb,Step-1,Increment      1: Step Time =    1.000,"PART-1-1",           432,          -15.,         -6.25,            0.,NA,NA,"",   638.771E-03,  -518.132E-03,  -373.587E-03,   16.1301E-03
C:/temp/dataset/6/1_6.odb,Step-1,Increment      1: Step Time =    1.000,"PART-1-1",           433,      -13.9244,      -7.40677,            0.,NA,NA,"",   561.669E-03,  -466.004E-03,  -313.549E-03,   14.0285E-03
C:/temp/dataset/6/1_6.odb,Step-1,Increment      1: Step Time =    1.000,"PART-1-1",           434,       1.60591,      -1.50045,            0.,NA,NA,"",   760.190E-03,  -749.522E-03,   126.910E-03,   16.5729E-03
C:/temp/dataset/6/1_6.odb,Step-1,Increment      1: Step Time =    1.000,"PART-1-1",           435,  -853.298E-03,      -1.92043,            0.,NA,NA,"",   749.996E-03,  -738.454E-03,   131.075E-03,   14.0878E-03
C:/temp/dataset/6/1_6.odb,Step-1,Increment      1: Step Time =    1.000,"PART-1-1",           436,         13.75,          -30.,            0.,NA,NA,"",            0.,  -1.04163E-39,   29.0300E-39,   19.0479E-03
C:/temp/dataset/6/1_6.odb,Step-1,Increment      1: Step Time =    1.000,"PART-1-1",           437,           15.,      -28.9063,            0.,NA,NA,"",   30.9347E-03,  -21.0627E-03,   22.6565E-03,   23.1730E-03
C:/temp/dataset/6/1_6.odb,Step-1,Increment      1: Step Time =    1.000,"PART-1-1",           438,       13.8103,      -27.8746,            0.,NA,NA,"",   39.5507E-03,  -22.5945E-03,   32.4615E-03,   18.4431E-03
C:/temp/dataset/6/1_6.odb,Step-1,Increment      1: Step Time =    1.000,"PART-1-1",           439,       12.5603,      -28.9683,            0.,NA,NA,"",   12.2273E-03,  -5.23828E-03,   11.0484E-03,   13.4013E-03
C:/temp/dataset/6/1_6.odb,Step-1,Increment      1: Step Time =    1.000,"PART-1-1",           440,       12.6598,      -26.8678,            0.,NA,NA,"",   46.7171E-03,  -25.7649E-03,   38.9699E-03,   15.3265E-03
C:/temp/dataset/6/1_6.odb,Step-1,Increment      1: Step Time =    1.000,"PART-1-1",           441,       11.5501,      -25.8632,            0.,NA,NA,"",   51.2867E-03,  -30.4481E-03,   41.2703E-03,   12.4946E-03
C:/temp/dataset/6/1_6.odb,Step-1,Increment      1: Step Time =    1.000,"PART-1-1",           442,       10.3093,      -26.9762,            0.,NA,NA,"",   25.2228E-03,  -14.2449E-03,   20.8153E-03,   8.89124E-03
C:/temp/dataset/6/1_6.odb,Step-1,Increment      1: Step Time =    1.000,"PART-1-1",           443,       11.4189,      -27.9808,            0.,NA,NA,"",   20.1798E-03,  -9.66971E-03,   17.7121E-03,   11.7759E-03
C:/temp/dataset/6/1_6.odb,Step-1,Increment      1: Step Time =    1.000,"PART-1-1",           444,       10.1086,      -29.0125,            0.,NA,NA,"",   6.07490E-03,  -1.37051E-03,   5.91828E-03,   7.34968E-03
C:/temp/dataset/6/1_6.odb,Step-1,Increment      1: Step Time =    1.000,"PART-1-1",           445,       9.01957,      -28.0513,            0.,NA,NA,"",   9.50353E-03,  -4.55225E-03,   8.34230E-03,   5.68900E-03
C:/temp/dataset/6/1_6.odb,Step-1,Increment      1: Step Time =    1.000,"PART-1-1",           446,          8.75,          -30.,            0.,NA,NA,"",            0.,   621.934E-42,   9.40845E-39,   4.94135E-03
C:/temp/dataset/6/1_6.odb,Step-1,Increment      1: Step Time =    1.000,"PART-1-1",           447,       4.20973,      -27.9354,            0.,NA,NA,"",   8.22453E-03,  -8.05166E-03,  -1.67737E-03,   3.32336E-03
C:/temp/dataset/6/1_6.odb,Step-1,Increment      1: Step Time =    1.000,"PART-1-1",           448,       2.74203,      -28.9082,            0.,NA,NA,"",   4.71828E-03,  -4.60960E-03,  -1.00685E-03,   3.35054E-03
C:/temp/dataset/6/1_6.odb,Step-1,Increment      1: Step Time =    1.000,"PART-1-1",           449,          3.75,          -30.,            0.,NA,NA,"",            0.,  -1.83432E-39,  -866.955E-42,   1.86329E-03
C:/temp/dataset/6/1_6.odb,Step-1,Increment      1: Step Time =    1.000,"PART-1-1",           450,       1.16266,      -25.9573,            0.,NA,NA,"",   24.0679E-03,  -23.6541E-03,  -4.44340E-03,   5.74936E-03
C:/temp/dataset/6/1_6.odb,Step-1,Increment      1: Step Time =    1.000,"PART-1-1",           451,       1.65415,      -27.4536,            0.,NA,NA,"",   13.6679E-03,  -13.3443E-03,  -2.95666E-03,   4.33112E-03
C:/temp/dataset/6/1_6.odb,Step-1,Increment      1: Step Time =    1.000,"PART-1-1",           452,       3.39879,      -26.8461,            0.,NA,NA,"",   16.2423E-03,  -15.7586E-03,  -3.93406E-03,   4.64420E-03
C:/temp/dataset/6/1_6.odb,Step-1,Increment      1: Step Time =    1.000,"PART-1-1",           453,       2.90730,      -25.3498,            0.,NA,NA,"",   28.5493E-03,  -27.7442E-03,  -6.73199E-03,   5.82451E-03
C:/temp/dataset/6/1_6.odb,Step-1,Increment      1: Step Time =    1.000,"PART-1-1",           454,      -3.67645,      -27.5530,            0.,NA,NA,"",   9.74549E-03,  -9.64631E-03,  -1.38679E-03,   3.43714E-03
C:/temp/dataset/6/1_6.odb,Step-1,Increment      1: Step Time =    1.000,"PART-1-1",           455,      -2.54816,      -26.3074,            0.,NA,NA,"",   18.2608E-03,  -18.2373E-03,  -926.165E-06,   4.47741E-03
C:/temp/dataset/6/1_6.odb,Step-1,Increment      1: Step Time =    1.000,"PART-1-1",           456,      -3.72120,      -25.1278,            0.,NA,NA,"",   23.5537E-03,  -23.5480E-03,  -517.865E-06,   4.39126E-03
C:/temp/dataset/6/1_6.odb,Step-1,Increment      1: Step Time =    1.000,"PART-1-1",           457,      -4.84948,      -26.3734,            0.,NA,NA,"",   14.1916E-03,  -13.9805E-03,  -2.43827E-03,   3.26518E-03
C:/temp/dataset/6/1_6.odb,Step-1,Increment      1: Step Time =    1.000,"PART-1-1",           458,      -4.94498,      -28.7931,            0.,NA,NA,"",   3.41595E-03,  -3.05454E-03,  -1.52922E-03,   2.55331E-03
C:/temp/dataset/6/1_6.odb,Step-1,Increment      1: Step Time =    1.000,"PART-1-1",           459,         -3.75,          -30.,            0.,NA,NA,"",            0.,  -1.80548E-39,  -3.12137E-39,   2.44675E-03
C:/temp/dataset/6/1_6.odb,Step-1,Increment      1: Step Time =    1.000,"PART-1-1",           460,      -6.07748,      -27.5364,            0.,NA,NA,"",   7.61865E-03,  -6.52109E-03,  -3.93943E-03,   3.11758E-03
C:/temp/dataset/6/1_6.odb,Step-1,Increment      1: Step Time =    1.000,"PART-1-1",           461,      -7.38250,      -28.7433,            0.,NA,NA,"",   3.87406E-03,  -1.51762E-03,  -3.56443E-03,   3.65079E-03
C:/temp/dataset/6/1_6.odb,Step-1,Increment      1: Step Time =    1.000,"PART-1-1",           462,         -6.25,          -30.,            0.,NA,NA,"",            0.,  -434.648E-42,  -5.66303E-39,   3.01102E-03
C:/temp/dataset/6/1_6.odb,Step-1,Increment      1: Step Time =    1.000,"PART-1-1",           463,      -8.77755,      -24.1806,            0.,NA,NA,"",   36.1948E-03,  -25.9201E-03,  -25.2629E-03,   5.18098E-03
C:/temp/dataset/6/1_6.odb,Step-1,Increment      1: Step Time =    1.000,"PART-1-1",           464,      -9.92276,      -23.8066,            0.,NA,NA,"",   49.4192E-03,  -31.4443E-03,  -38.1250E-03,   7.59252E-03
C:/temp/dataset/6/1_6.odb,Step-1,Increment      1: Step Time =    1.000,"PART-1-1",           465,      -10.3347,      -25.6230,            0.,NA,NA,"",   34.3579E-03,  -18.6224E-03,  -28.8734E-03,   8.25600E-03
C:/temp/dataset/6/1_6.odb,Step-1,Increment      1: Step Time =    1.000,"PART-1-1",           466,       13.9544,      -21.3085,            0.,NA,NA,"",   187.691E-03,  -124.500E-03,   140.455E-03,   17.6995E-03
C:/temp/dataset/6/1_6.odb,Step-1,Increment      1: Step Time =    1.000,"PART-1-1",           467,       13.8855,      -23.5136,            0.,NA,NA,"",   131.318E-03,  -79.7272E-03,   104.346E-03,   18.0340E-03
C:/temp/dataset/6/1_6.odb,Step-1,Increment      1: Step Time =    1.000,"PART-1-1",           468,           15.,      -22.3438,            0.,NA,NA,"",   182.344E-03,  -111.233E-03,   144.487E-03,   20.5895E-03
C:/temp/dataset/6/1_6.odb,Step-1,Increment      1: Step Time =    1.000,"PART-1-1",           469,       12.7349,      -24.6944,            0.,NA,NA,"",   87.2505E-03,  -52.7111E-03,   69.5284E-03,   15.4508E-03
C:/temp/dataset/6/1_6.odb,Step-1,Increment      1: Step Time =    1.000,"PART-1-1",           470,       13.8494,      -25.7120,            0.,NA,NA,"",   83.7253E-03,  -47.8670E-03,   68.6926E-03,   17.9858E-03
C:/temp/dataset/6/1_6.odb,Step-1,Increment      1: Step Time =    1.000,"PART-1-1",           471,           15.,      -24.5313,            0.,NA,NA,"",   127.265E-03,  -73.3742E-03,   103.984E-03,   20.4643E-03
C:/temp/dataset/6/1_6.odb,Step-1,Increment      1: Step Time =    1.000,"PART-1-1",           472,         11.25,          -30.,            0.,NA,NA,"",            0.,  -384.114E-42,   18.5935E-39,   9.34396E-03
C:/temp/dataset/6/1_6.odb,Step-1,Increment      1: Step Time =    1.000,"PART-1-1",           473,       13.9950,      -12.5232,            0.,NA,NA,"",   484.997E-03,  -422.262E-03,   238.574E-03,   7.24753E-03
C:/temp/dataset/6/1_6.odb,Step-1,Increment      1: Step Time =    1.000,"PART-1-1",           474,       12.9942,      -13.6844,            0.,NA,NA,"",   422.333E-03,  -372.343E-03,   199.314E-03,   9.83869E-03
C:/temp/dataset/6/1_6.odb,Step-1,Increment      1: Step Time =    1.000,"PART-1-1",           475,           15.,      -13.5938,            0.,NA,NA,"",   468.915E-03,  -384.585E-03,   268.282E-03,   8.77800E-03
C:/temp/dataset/6/1_6.odb,Step-1,Increment      1: Step Time =    1.000,"PART-1-1",           476,       9.85236,      -17.2546,            0.,NA,NA,"",   237.912E-03,  -219.963E-03,   90.6550E-03,   11.1783E-03
C:/temp/dataset/6/1_6.odb,Step-1,Increment      1: Step Time =    1.000,"PART-1-1",           477,       8.68427,      -17.7513,            0.,NA,NA,"",   205.545E-03,  -196.510E-03,   60.2699E-03,   10.5935E-03
C:/temp/dataset/6/1_6.odb,Step-1,Increment      1: Step Time =    1.000,"PART-1-1",           478,       8.96140,      -18.9835,            0.,NA,NA,"",   166.467E-03,  -155.211E-03,   60.1716E-03,   10.7006E-03
C:/temp/dataset/6/1_6.odb,Step-1,Increment      1: Step Time =    1.000,"PART-1-1",           479,       10.1295,      -18.4868,            0.,NA,NA,"",   198.874E-03,  -178.009E-03,   88.6768E-03,   11.4567E-03
C:/temp/dataset/6/1_6.odb,Step-1,Increment      1: Step Time =    1.000,"PART-1-1",           480,       11.2436,      -18.3856,            0.,NA,NA,"",   219.997E-03,  -187.786E-03,   114.608E-03,   12.2518E-03
C:/temp/dataset/6/1_6.odb,Step-1,Increment      1: Step Time =    1.000,"PART-1-1",           481,       12.3956,      -19.2305,            0.,NA,NA,"",   214.492E-03,  -168.364E-03,   132.892E-03,   13.6781E-03
C:/temp/dataset/6/1_6.odb,Step-1,Increment      1: Step Time =    1.000,"PART-1-1",           482,       13.1120,      -18.1414,            0.,NA,NA,"",   263.800E-03,  -207.414E-03,   163.001E-03,   13.7833E-03
C:/temp/dataset/6/1_6.odb,Step-1,Increment      1: Step Time =    1.000,"PART-1-1",           483,       11.9600,      -17.2965,            0.,NA,NA,"",   269.608E-03,  -229.323E-03,   141.771E-03,   12.3310E-03
C:/temp/dataset/6/1_6.odb,Step-1,Increment      1: Step Time =    1.000,"PART-1-1",           484,       14.0024,      -3.77677,            0.,NA,NA,"",   752.248E-03,  -713.344E-03,   238.782E-03,   3.25201E-03
C:/temp/dataset/6/1_6.odb,Step-1,Increment      1: Step Time =    1.000,"PART-1-1",           485,       13.0359,      -4.87313,            0.,NA,NA,"",   721.242E-03,  -687.388E-03,   218.378E-03,   1.67239E-03
C:/temp/dataset/6/1_6.odb,Step-1,Increment      1: Step Time =    1.000,"PART-1-1",           486,       14.0335,      -5.94012,            0.,NA,NA,"",   701.783E-03,  -657.391E-03,   245.635E-03,   2.76954E-03
C:/temp/dataset/6/1_6.odb,Step-1,Increment      1: Step Time =    1.000,"PART-1-1",           487,           15.,      -4.84375,            0.,NA,NA,"",   736.082E-03,  -685.884E-03,   267.169E-03,   4.98824E-03
C:/temp/dataset/6/1_6.odb,Step-1,Increment      1: Step Time =    1.000,"PART-1-1",           488,       13.0510,      -7.01836,            0.,NA,NA,"",   662.425E-03,  -624.665E-03,   220.456E-03,   3.53065E-03
C:/temp/dataset/6/1_6.odb,Step-1,Increment      1: Step Time =    1.000,"PART-1-1",           489,       14.0175,      -8.10950,            0.,NA,NA,"",   638.920E-03,  -588.545E-03,   248.664E-03,   2.33730E-03
C:/temp/dataset/6/1_6.odb,Step-1,Increment      1: Step Time =    1.000,"PART-1-1",           490,           15.,      -7.03125,            0.,NA,NA,"",   682.386E-03,  -623.631E-03,   277.010E-03,   3.24414E-03
C:/temp/dataset/6/1_6.odb,Step-1,Increment      1: Step Time =    1.000,"PART-1-1",           491,         13.75,            5.,            0.,NA,NA,"",   883.439E-03,  -855.381E-03,   220.881E-03,   342.396E-06
C:/temp/dataset/6/1_6.odb,Step-1,Increment      1: Step Time =    1.000,"PART-1-1",           492,       12.4982,       3.90020,            0.,NA,NA,"",   862.341E-03,  -838.503E-03,   201.358E-03,   1.31987E-03
C:/temp/dataset/6/1_6.odb,Step-1,Increment      1: Step Time =    1.000,"PART-1-1",           493,       13.7482,       2.80645,            0.,NA,NA,"",   852.937E-03,  -823.717E-03,   221.340E-03,   1.22578E-03
C:/temp/dataset/6/1_6.odb,Step-1,Increment      1: Step Time =    1.000,"PART-1-1",           494,           15.,       3.90625,            0.,NA,NA,"",   872.973E-03,  -839.400E-03,   239.769E-03,   298.913E-06
C:/temp/dataset/6/1_6.odb,Step-1,Increment      1: Step Time =    1.000,"PART-1-1",           495,         11.25,            5.,            0.,NA,NA,"",   872.162E-03,  -852.855E-03,   182.500E-03,   1.95516E-03
C:/temp/dataset/6/1_6.odb,Step-1,Increment      1: Step Time =    1.000,"PART-1-1",           496,       11.2740,       2.82937,            0.,NA,NA,"",   842.844E-03,  -823.023E-03,   181.708E-03,   1.78206E-03
C:/temp/dataset/6/1_6.odb,Step-1,Increment      1: Step Time =    1.000,"PART-1-1",           497,       11.1422,   446.578E-03,            0.,NA,NA,"",   810.661E-03,  -790.750E-03,   178.564E-03,   1.74190E-03
C:/temp/dataset/6/1_6.odb,Step-1,Increment      1: Step Time =    1.000,"PART-1-1",           498,       10.2035,  -836.101E-03,            0.,NA,NA,"",   787.837E-03,  -771.112E-03,   161.468E-03,   2.09430E-03
C:/temp/dataset/6/1_6.odb,Step-1,Increment      1: Step Time =    1.000,"PART-1-1",           499,       11.7017,      -1.82731,            0.,NA,NA,"",   777.584E-03,  -754.565E-03,   187.801E-03,   1.26120E-03
C:/temp/dataset/6/1_6.odb,Step-1,Increment      1: Step Time =    1.000,"PART-1-1",           500,       12.5035,       1.67834,            0.,NA,NA,"",   832.953E-03,  -808.188E-03,   201.600E-03,   2.17735E-03
C:/temp/dataset/6/1_6.odb,Step-1,Increment      1: Step Time =    1.000,"PART-1-1",           501,       9.91277,       1.59761,            0.,NA,NA,"",   821.692E-03,  -805.903E-03,   160.303E-03,   1.66783E-03
C:/temp/dataset/6/1_6.odb,Step-1,Increment      1: Step Time =    1.000,"PART-1-1",           502,       5.19643,       3.92738,            0.,NA,NA,"",   839.437E-03,  -830.718E-03,   120.680E-03,   3.16444E-03
C:/temp/dataset/6/1_6.odb,Step-1,Increment      1: Step Time =    1.000,"PART-1-1",           503,          3.75,            5.,            0.,NA,NA,"",   846.851E-03,  -838.793E-03,   116.542E-03,   3.43905E-03
C:/temp/dataset/6/1_6.odb,Step-1,Increment      1: Step Time =    1.000,"PART-1-1",           504,       2.66615,       3.61346,            0.,NA,NA,"",   844.535E-03,  -836.086E-03,   119.162E-03,   8.65527E-03
C:/temp/dataset/6/1_6.odb,Step-1,Increment      1: Step Time =    1.000,"PART-1-1",           505,      -1.00804,       2.95894,            0.,NA,NA,"",   870.702E-03,  -861.504E-03,   126.227E-03,   19.6552E-03
C:/temp/dataset/6/1_6.odb,Step-1,Increment      1: Step Time =    1.000,"PART-1-1",           506,   87.8012E-03,       3.95476,            0.,NA,NA,"",   869.522E-03,  -861.322E-03,   119.131E-03,   14.7875E-03
C:/temp/dataset/6/1_6.odb,Step-1,Increment      1: Step Time =    1.000,"PART-1-1",           507,         -1.25,            5.,            0.,NA,NA,"",   893.586E-03,  -886.886E-03,   109.219E-03,   21.4383E-03
C:/temp/dataset/6/1_6.odb,Step-1,Increment      1: Step Time =    1.000,"PART-1-1",           508,      -2.34584,       4.00418,            0.,NA,NA,"",   911.923E-03,  -903.890E-03,   120.771E-03,   23.5992E-03
C:/temp/dataset/6/1_6.odb,Step-1,Increment      1: Step Time =    1.000,"PART-1-1",           509,      -3.27281,       2.96378,            0.,NA,NA,"",   904.306E-03,  -895.307E-03,   127.260E-03,   23.2687E-03
C:/temp/dataset/6/1_6.odb,Step-1,Increment      1: Step Time =    1.000,"PART-1-1",           510,         -3.75,            5.,            0.,NA,NA,"",   960.948E-03,  -954.909E-03,   107.567E-03,   49.5947E-03
C:/temp/dataset/6/1_6.odb,Step-1,Increment      1: Step Time =    1.000,"PART-1-1",           511,      -4.67697,       3.95960,            0.,NA,NA,"",   963.380E-03,  -954.540E-03,   130.212E-03,   46.5963E-03
C:/temp/dataset/6/1_6.odb,Step-1,Increment      1: Step Time =    1.000,"PART-1-1",           512,      -7.93004,       8.58536,            0.,NA,NA,"",       1.45107,      -1.45067,  -34.2903E-03,   19.3255E-03
C:/temp/dataset/6/1_6.odb,Step-1,Increment      1: Step Time =    1.000,"PART-1-1",           513,      -8.65034,       7.25415,            0.,NA,NA,"",       1.28762,      -1.28259,  -113.660E-03,   13.6206E-03
C:/temp/dataset/6/1_6.odb,Step-1,Increment      1: Step Time =    1.000,"PART-1-1",           514,      -7.51010,       6.50150,            0.,NA,NA,"",       1.20159,      -1.20157,  -7.65141E-03,   24.3220E-03
C:/temp/dataset/6/1_6.odb,Step-1,Increment      1: Step Time =    1.000,"PART-1-1",           515,      -6.78981,       7.83270,            0.,NA,NA,"",       1.37240,      -1.37004,   80.4361E-03,   30.6311E-03
C:/temp/dataset/6/1_6.odb,Step-1,Increment      1: Step Time =    1.000,"PART-1-1",           516,      -7.08495,       12.0475,            0.,NA,NA,"",       1.94544,      -1.94311,   95.0827E-03,   20.9163E-03
C:/temp/dataset/6/1_6.odb,Step-1,Increment      1: Step Time =    1.000,"PART-1-1",           517,      -6.02998,       11.1050,            0.,NA,NA,"",       1.84015,      -1.82620,   226.108E-03,   28.2732E-03
C:/temp/dataset/6/1_6.odb,Step-1,Increment      1: Step Time =    1.000,"PART-1-1",           518,           -5.,       12.2917,            0.,NA,NA,"",       2.06142,      -2.02446,   388.598E-03,   32.4422E-03
C:/temp/dataset/6/1_6.odb,Step-1,Increment      1: Step Time =    1.000,"PART-1-1",           519,      -6.05497,       13.2342,            0.,NA,NA,"",       2.15826,      -2.14379,   249.514E-03,   24.4512E-03
C:/temp/dataset/6/1_6.odb,Step-1,Increment      1: Step Time =    1.000,"PART-1-1",           520,      -9.96524,       21.0498,            0.,NA,NA,"",       3.44140,      -3.41659,  -412.453E-03,   9.91703E-03
C:/temp/dataset/6/1_6.odb,Step-1,Increment      1: Step Time =    1.000,"PART-1-1",           521,      -8.51702,       20.1362,            0.,NA,NA,"",       3.27522,      -3.27153,  -155.553E-03,   9.67207E-03
C:/temp/dataset/6/1_6.odb,Step-1,Increment      1: Step Time =    1.000,"PART-1-1",           522,      -8.09442,       21.6565,            0.,NA,NA,"",       3.56004,      -3.55854,  -103.536E-03,   9.72323E-03
C:/temp/dataset/6/1_6.odb,Step-1,Increment      1: Step Time =    1.000,"PART-1-1",           523,      -9.54264,       22.5701,            0.,NA,NA,"",       3.72290,      -3.70488,  -365.944E-03,   9.76910E-03
C:/temp/dataset/6/1_6.odb,Step-1,Increment      1: Step Time =    1.000,"PART-1-1",           524,      -7.38593,       19.0122,            0.,NA,NA,"",       3.08827,      -3.08794,   44.8169E-03,   11.6657E-03
C:/temp/dataset/6/1_6.odb,Step-1,Increment      1: Step Time =    1.000,"PART-1-1",           525,      -6.14460,       17.5723,            0.,NA,NA,"",       2.86945,      -2.85800,   256.175E-03,   16.7253E-03
C:/temp/dataset/6/1_6.odb,Step-1,Increment      1: Step Time =    1.000,"PART-1-1",           526,           -5.,       18.5417,            0.,NA,NA,"",       3.08674,      -3.05379,   449.820E-03,   19.1037E-03
C:/temp/dataset/6/1_6.odb,Step-1,Increment      1: Step Time =    1.000,"PART-1-1",           527,      -9.12859,       24.1056,            0.,NA,NA,"",       4.01286,      -4.00016,  -318.991E-03,   9.14941E-03
C:/temp/dataset/6/1_6.odb,Step-1,Increment      1: Step Time =    1.000,"PART-1-1",           528,      -7.82088,       23.2603,            0.,NA,NA,"",       3.86528,      -3.86450,  -77.9941E-03,   9.62408E-03
C:/temp/dataset/6/1_6.odb,Step-1,Increment      1: Step Time =    1.000,"PART-1-1",           529,      -7.11221,       24.6459,            0.,NA,NA,"",       4.14172,      -4.14162,   28.6392E-03,   9.49683E-03
C:/temp/dataset/6/1_6.odb,Step-1,Increment      1: Step Time =    1.000,"PART-1-1",           530,      -8.41993,       25.4912,            0.,NA,NA,"",       4.28012,      -4.27470,  -215.415E-03,   8.06529E-03
C:/temp/dataset/6/1_6.odb,Step-1,Increment      1: Step Time =    1.000,"PART-1-1",           531,           -5.,       28.9583,            0.,NA,NA,"",       5.00549,      -4.99300,   353.394E-03,   6.04168E-03
C:/temp/dataset/6/1_6.odb,Step-1,Increment      1: Step Time =    1.000,"PART-1-1",           532,         -6.25,           30.,            0.,NA,NA,"",       5.15744,      -5.15625,   111.106E-03,   6.01175E-03
C:/temp/dataset/6/1_6.odb,Step-1,Increment      1: Step Time =    1.000,"PART-1-1",           533,      -6.22481,       27.8751,            0.,NA,NA,"",       4.76878,      -4.76656,   145.689E-03,   5.87878E-03
C:/temp/dataset/6/1_6.odb,Step-1,Increment      1: Step Time =    1.000,"PART-1-1",           534,      -11.1386,       27.5393,            0.,NA,NA,"",       4.66344,      -4.60601,  -729.653E-03,   4.43259E-03
C:/temp/dataset/6/1_6.odb,Step-1,Increment      1: Step Time =    1.000,"PART-1-1",           535,        -11.25,           30.,            0.,NA,NA,"",       5.11470,      -5.05347,  -789.015E-03,   2.00607E-03
C:/temp/dataset/6/1_6.odb,Step-1,Increment      1: Step Time =    1.000,"PART-1-1",           536,      -13.1147,       13.7606,            0.,NA,NA,"",       2.27290,      -2.14319,  -756.835E-03,   19.3140E-03
C:/temp/dataset/6/1_6.odb,Step-1,Increment      1: Step Time =    1.000,"PART-1-1",           537,      -14.0658,       14.9906,            0.,NA,NA,"",       2.51414,      -2.33225,  -938.893E-03,   21.9508E-03
C:/temp/dataset/6/1_6.odb,Step-1,Increment      1: Step Time =    1.000,"PART-1-1",           538,          -15.,         13.75,            0.,NA,NA,"",       2.38055,      -2.14063,      -1.04150,   29.7701E-03
C:/temp/dataset/6/1_6.odb,Step-1,Increment      1: Step Time =    1.000,"PART-1-1",           539,      -9.42834,       18.6970,            0.,NA,NA,"",       3.01242,      -2.99874,  -286.785E-03,   10.0566E-03
C:/temp/dataset/6/1_6.odb,Step-1,Increment      1: Step Time =    1.000,"PART-1-1",           540,      -8.29725,       17.5730,            0.,NA,NA,"",       2.81973,      -2.81823,  -92.0128E-03,   10.9777E-03
C:/temp/dataset/6/1_6.odb,Step-1,Increment      1: Step Time =    1.000,"PART-1-1",           541,      -12.7588,       6.21303,            0.,NA,NA,"",       1.28519,      -1.18293,  -502.388E-03,   23.6751E-03
C:/temp/dataset/6/1_6.odb,Step-1,Increment      1: Step Time =    1.000,"PART-1-1",           542,          -15.,          6.25,            0.,NA,NA,"",       1.41039,      -1.21038,  -723.994E-03,   42.9012E-03
C:/temp/dataset/6/1_6.odb,Step-1,Increment      1: Step Time =    1.000,"PART-1-1",           543,      -9.01063,       9.47069,            0.,NA,NA,"",       1.56149,      -1.55389,  -153.886E-03,   12.5287E-03
C:/temp/dataset/6/1_6.odb,Step-1,Increment      1: Step Time =    1.000,"PART-1-1",           544,      -10.0811,       10.4578,            0.,NA,NA,"",       1.70183,      -1.67755,  -286.429E-03,   9.60730E-03
C:/temp/dataset/6/1_6.odb,Step-1,Increment      1: Step Time =    1.000,"PART-1-1",           545,      -10.9384,       9.05000,            0.,NA,NA,"",       1.53481,      -1.48961,  -369.767E-03,   11.6136E-03
C:/temp/dataset/6/1_6.odb,Step-1,Increment      1: Step Time =    1.000,"PART-1-1",           546,      -9.86794,       8.06293,            0.,NA,NA,"",       1.39340,      -1.37235,  -241.292E-03,   9.29457E-03
C:/temp/dataset/6/1_6.odb,Step-1,Increment      1: Step Time =    1.000,"PART-1-1",           547,      -7.23366,       1.29985,            0.,NA,NA,"",   824.466E-03,  -824.380E-03,  -11.9123E-03,   11.5610E-03
C:/temp/dataset/6/1_6.odb,Step-1,Increment      1: Step Time =    1.000,"PART-1-1",           548,      -8.34685,   784.410E-03,            0.,NA,NA,"",   801.451E-03,  -797.368E-03,  -80.8023E-03,   12.7987E-03
C:/temp/dataset/6/1_6.odb,Step-1,Increment      1: Step Time =    1.000,"PART-1-1",           549,      -7.43977,  -685.632E-03,            0.,NA,NA,"",   742.325E-03,  -741.524E-03,  -34.4655E-03,   11.4972E-03
C:/temp/dataset/6/1_6.odb,Step-1,Increment      1: Step Time =    1.000,"PART-1-1",           550,      -12.4903,      -8.57964,            0.,NA,NA,"",   479.443E-03,  -413.336E-03,  -242.938E-03,   11.8637E-03
C:/temp/dataset/6/1_6.odb,Step-1,Increment      1: Step Time =    1.000,"PART-1-1",           551,          -15.,         -8.75,            0.,NA,NA,"",   538.701E-03,  -420.587E-03,  -336.608E-03,   16.0374E-03
C:/temp/dataset/6/1_6.odb,Step-1,Increment      1: Step Time =    1.000,"PART-1-1",           552,      -13.5658,      -9.92286,            0.,NA,NA,"",   454.440E-03,  -368.204E-03,  -266.349E-03,   13.9078E-03
C:/temp/dataset/6/1_6.odb,Step-1,Increment      1: Step Time =    1.000,"PART-1-1",           553,      -11.9783,      -7.15971,            0.,NA,NA,"",   524.249E-03,  -467.126E-03,  -237.971E-03,   10.2818E-03
C:/temp/dataset/6/1_6.odb,Step-1,Increment      1: Step Time =    1.000,"PART-1-1",           554,      -11.8960,      -5.22799,            0.,NA,NA,"",   600.545E-03,  -544.535E-03,  -253.250E-03,   10.3439E-03
C:/temp/dataset/6/1_6.odb,Step-1,Increment      1: Step Time =    1.000,"PART-1-1",           555,      -12.4565,      -16.3452,            0.,NA,NA,"",   222.743E-03,  -162.894E-03,  -151.921E-03,   12.7426E-03
C:/temp/dataset/6/1_6.odb,Step-1,Increment      1: Step Time =    1.000,"PART-1-1",           556,          -15.,        -16.25,            0.,NA,NA,"",   282.547E-03,  -182.537E-03,  -215.669E-03,   18.4536E-03
C:/temp/dataset/6/1_6.odb,Step-1,Increment      1: Step Time =    1.000,"PART-1-1",           557,      -13.7435,      -17.5611,            0.,NA,NA,"",   218.891E-03,  -142.972E-03,  -165.747E-03,   15.7529E-03
C:/temp/dataset/6/1_6.odb,Step-1,Increment      1: Step Time =    1.000,"PART-1-1",           558,      -9.99221,      -8.41662,            0.,NA,NA,"",   438.583E-03,  -412.578E-03,  -148.776E-03,   6.85741E-03
C:/temp/dataset/6/1_6.odb,Step-1,Increment      1: Step Time =    1.000,"PART-1-1",           559,      -11.4633,      -9.12095,            0.,NA,NA,"",   436.493E-03,  -388.642E-03,  -198.706E-03,   9.86233E-03
C:/temp/dataset/6/1_6.odb,Step-1,Increment      1: Step Time =    1.000,"PART-1-1",           560,      -10.8070,      -10.1141,            0.,NA,NA,"",   386.450E-03,  -349.063E-03,  -165.827E-03,   8.86132E-03
C:/temp/dataset/6/1_6.odb,Step-1,Increment      1: Step Time =    1.000,"PART-1-1",           561,      -13.9189,      -24.9166,            0.,NA,NA,"",   78.0609E-03,  -41.3554E-03,  -66.2060E-03,   14.6474E-03
C:/temp/dataset/6/1_6.odb,Step-1,Increment      1: Step Time =    1.000,"PART-1-1",           562,      -12.9076,      -23.6273,            0.,NA,NA,"",   85.6678E-03,  -46.3104E-03,  -72.0716E-03,   13.4396E-03
C:/temp/dataset/6/1_6.odb,Step-1,Increment      1: Step Time =    1.000,"PART-1-1",           563,          -15.,        -23.75,            0.,NA,NA,"",   110.105E-03,  -59.1829E-03,  -92.8461E-03,   16.6175E-03
C:/temp/dataset/6/1_6.odb,Step-1,Increment      1: Step Time =    1.000,"PART-1-1",           564,          -15.,        -28.75,            0.,NA,NA,"",   27.6500E-03,  -18.8018E-03,  -20.2735E-03,   17.7854E-03
C:/temp/dataset/6/1_6.odb,Step-1,Increment      1: Step Time =    1.000,"PART-1-1",           565,        -13.75,          -30.,            0.,NA,NA,"",            0.,  -626.809E-42,  -22.9973E-39,   15.3615E-03
C:/temp/dataset/6/1_6.odb,Step-1,Increment      1: Step Time =    1.000,"PART-1-1",           566,      -13.7642,      -27.4123,            0.,NA,NA,"",   38.0125E-03,  -20.7954E-03,  -31.8199E-03,   14.5795E-03
C:/temp/dataset/6/1_6.odb,Step-1,Increment      1: Step Time =    1.000,"PART-1-1",           567,            5.,      -6.25625,            0.,NA,NA,"",   637.795E-03,  -636.801E-03,   35.5955E-03,   27.7872E-03
C:/temp/dataset/6/1_6.odb,Step-1,Increment      1: Step Time =    1.000,"PART-1-1",           568,       7.03347,      -6.11658,            0.,NA,NA,"",   659.953E-03,  -654.365E-03,   85.7037E-03,   12.6807E-03
C:/temp/dataset/6/1_6.odb,Step-1,Increment      1: Step Time =    1.000,"PART-1-1",           569,       6.04361,      -4.83741,            0.,NA,NA,"",   702.036E-03,  -697.526E-03,   79.4553E-03,   20.6725E-03
C:/temp/dataset/6/1_6.odb,Step-1,Increment      1: Step Time =    1.000,"PART-1-1",           570,           15.,      -2.65625,            0.,NA,NA,"",   778.978E-03,  -735.697E-03,   256.040E-03,   4.94031E-03
C:/temp/dataset/6/1_6.odb,Step-1,Increment      1: Step Time =    1.000,"PART-1-1",           571,       12.8875,      -2.72454,            0.,NA,NA,"",   766.897E-03,  -736.953E-03,   212.208E-03,   1.26546E-03
C:/temp/dataset/6/1_6.odb,Step-1,Increment      1: Step Time =    1.000,"PART-1-1",           572,       10.0248,      -7.91896,            0.,NA,NA,"",   608.805E-03,  -591.934E-03,   142.329E-03,   9.48522E-03
C:/temp/dataset/6/1_6.odb,Step-1,Increment      1: Step Time =    1.000,"PART-1-1",           573,       8.98203,      -8.99604,            0.,NA,NA,"",   559.853E-03,  -548.691E-03,   111.236E-03,   11.3448E-03
C:/temp/dataset/6/1_6.odb,Step-1,Increment      1: Step Time =    1.000,"PART-1-1",           574,       9.98204,      -10.2112,            0.,NA,NA,"",   520.141E-03,  -503.335E-03,   131.153E-03,   10.4800E-03
C:/temp/dataset/6/1_6.odb,Step-1,Increment      1: Step Time =    1.000,"PART-1-1",           575,            5.,      -11.2813,            0.,NA,NA,"",   441.773E-03,  -440.731E-03,  -30.3315E-03,   8.96232E-03
C:/temp/dataset/6/1_6.odb,Step-1,Increment      1: Step Time =    1.000,"PART-1-1",           576,       6.96001,      -11.3098,            0.,NA,NA,"",   449.830E-03,  -448.203E-03,   38.2287E-03,   9.84513E-03
C:/temp/dataset/6/1_6.odb,Step-1,Increment      1: Step Time =    1.000,"PART-1-1",           577,       12.1169,      -5.93459,            0.,NA,NA,"",   686.969E-03,  -658.222E-03,   196.648E-03,   3.65336E-03
C:/temp/dataset/6/1_6.odb,Step-1,Increment      1: Step Time =    1.000,"PART-1-1",           578,       11.1088,      -6.97100,            0.,NA,NA,"",   648.643E-03,  -625.660E-03,   171.138E-03,   6.57388E-03
C:/temp/dataset/6/1_6.odb,Step-1,Increment      1: Step Time =    1.000,"PART-1-1",           579,           15.,      -11.4063,            0.,NA,NA,"",   545.776E-03,  -468.804E-03,   279.452E-03,   4.28167E-03
C:/temp/dataset/6/1_6.odb,Step-1,Increment      1: Step Time =    1.000,"PART-1-1",           580,       13.9991,      -10.3053,            0.,NA,NA,"",   565.260E-03,  -508.621E-03,   246.624E-03,   4.18532E-03
C:/temp/dataset/6/1_6.odb,Step-1,Increment      1: Step Time =    1.000,"PART-1-1",           581,       12.9941,      -11.4223,            0.,NA,NA,"",   508.586E-03,  -462.758E-03,   210.985E-03,   7.77639E-03
C:/temp/dataset/6/1_6.odb,Step-1,Increment      1: Step Time =    1.000,"PART-1-1",           582,           15.,      -9.21875,            0.,NA,NA,"",   618.107E-03,  -550.050E-03,   281.959E-03,   235.047E-06
C:/temp/dataset/6/1_6.odb,Step-1,Increment      1: Step Time =    1.000,"PART-1-1",           583,       9.25975,      -25.9916,            0.,NA,NA,"",   28.7775E-03,  -20.5971E-03,   20.0973E-03,   6.52118E-03
C:/temp/dataset/6/1_6.odb,Step-1,Increment      1: Step Time =    1.000,"PART-1-1",           584,       7.97004,      -27.0667,            0.,NA,NA,"",   12.8143E-03,  -10.0819E-03,   7.90958E-03,   3.60518E-03
C:/temp/dataset/6/1_6.odb,Step-1,Increment      1: Step Time =    1.000,"PART-1-1",           585,       9.98268,      -20.3187,            0.,NA,NA,"",   140.875E-03,  -121.636E-03,   71.0675E-03,   11.0481E-03
C:/temp/dataset/6/1_6.odb,Step-1,Increment      1: Step Time =    1.000,"PART-1-1",           586,       8.47236,      -19.9740,            0.,NA,NA,"",   129.569E-03,  -121.784E-03,   44.2355E-03,   10.0910E-03
C:/temp/dataset/6/1_6.odb,Step-1,Increment      1: Step Time =    1.000,"PART-1-1",           587,       7.80775,      -21.2882,            0.,NA,NA,"",   88.0860E-03,  -84.4888E-03,   24.9156E-03,   7.67189E-03
C:/temp/dataset/6/1_6.odb,Step-1,Increment      1: Step Time =    1.000,"PART-1-1",           588,       9.31806,      -21.6330,            0.,NA,NA,"",   98.5192E-03,  -85.7090E-03,   48.5798E-03,   8.87705E-03
C:/temp/dataset/6/1_6.odb,Step-1,Increment      1: Step Time =    1.000,"PART-1-1",           589,          3.75,          -20.,            0.,NA,NA,"",   75.4728E-03,  -74.9798E-03,  -8.61234E-03,   15.8288E-03
C:/temp/dataset/6/1_6.odb,Step-1,Increment      1: Step Time =    1.000,"PART-1-1",           590,       2.69482,      -20.9389,            0.,NA,NA,"",   64.7928E-03,  -64.1476E-03,  -9.12104E-03,   7.40595E-03
C:/temp/dataset/6/1_6.odb,Step-1,Increment      1: Step Time =    1.000,"PART-1-1",           591,       4.10336,      -21.5712,            0.,NA,NA,"",   68.4611E-03,  -66.8364E-03,  -14.8261E-03,   9.03501E-03
C:/temp/dataset/6/1_6.odb,Step-1,Increment      1: Step Time =    1.000,"PART-1-1",           592,       5.15854,      -20.6323,            0.,NA,NA,"",   85.2862E-03,  -83.5501E-03,  -17.1207E-03,   14.3088E-03
C:/temp/dataset/6/1_6.odb,Step-1,Increment      1: Step Time =    1.000,"PART-1-1",           593,          1.25,          -20.,            0.,NA,NA,"",   56.2805E-03,  -56.2541E-03,  -1.72231E-03,   5.08533E-03
C:/temp/dataset/6/1_6.odb,Step-1,Increment      1: Step Time =    1.000,"PART-1-1",           594,       1.58638,      -22.3782,            0.,NA,NA,"",   51.5495E-03,  -51.0743E-03,  -6.98313E-03,   7.46099E-03
C:/temp/dataset/6/1_6.odb,Step-1,Increment      1: Step Time =    1.000,"PART-1-1",           595,      -7.18878,      -21.5166,            0.,NA,NA,"",   51.3501E-03,  -48.2385E-03,  -17.6032E-03,   2.45082E-03
C:/temp/dataset/6/1_6.odb,Step-1,Increment      1: Step Time =    1.000,"PART-1-1",           596,      -8.69544,      -20.4918,            0.,NA,NA,"",   77.3973E-03,  -64.9327E-03,  -42.1200E-03,   5.94450E-03
C:/temp/dataset/6/1_6.odb,Step-1,Increment      1: Step Time =    1.000,"PART-1-1",           597,      -9.53108,      -21.9939,            0.,NA,NA,"",   66.3440E-03,  -48.2487E-03,  -45.5367E-03,   7.09871E-03
C:/temp/dataset/6/1_6.odb,Step-1,Increment      1: Step Time =    1.000,"PART-1-1",           598,      -8.02442,      -23.0186,            0.,NA,NA,"",   41.4795E-03,  -34.6385E-03,  -22.8193E-03,   3.67880E-03
C:/temp/dataset/6/1_6.odb,Step-1,Increment      1: Step Time =    1.000,"PART-1-1",           599,           -5.,      -18.7437,            0.,NA,NA,"",   93.1065E-03,  -91.8135E-03,   15.4627E-03,   7.67863E-03
C:/temp/dataset/6/1_6.odb,Step-1,Increment      1: Step Time =    1.000,"PART-1-1",           600,      -6.23242,      -17.5731,            0.,NA,NA,"",   116.347E-03,  -116.224E-03,  -5.35697E-03,   2.29503E-03
C:/temp/dataset/6/1_6.odb,Step-1,Increment      1: Step Time =    1.000,"PART-1-1",           601,      -7.41830,      -18.9573,            0.,NA,NA,"",   90.8787E-03,  -86.6307E-03,  -27.4600E-03,   3.22277E-03
C:/temp/dataset/6/1_6.odb,Step-1,Increment      1: Step Time =    1.000,"PART-1-1",           602,      -6.18588,      -20.1280,            0.,NA,NA,"",   63.4462E-03,  -63.0933E-03,  -6.68176E-03,   3.71658E-03
C:/temp/dataset/6/1_6.odb,Step-1,Increment      1: Step Time =    1.000,"PART-1-1",           603,           -5.,      -16.2312,            0.,NA,NA,"",   154.924E-03,  -152.307E-03,   28.3521E-03,   4.77625E-03
C:/temp/dataset/6/1_6.odb,Step-1,Increment      1: Step Time =    1.000,"PART-1-1",           604,      -7.44257,      -16.3835,            0.,NA,NA,"",   149.154E-03,  -145.603E-03,  -32.3508E-03,   2.05165E-03
C:/temp/dataset/6/1_6.odb,Step-1,Increment      1: Step Time =    1.000,"PART-1-1",           605,      -12.6830,      -26.0788,            0.,NA,NA,"",   48.1382E-03,  -24.7416E-03,  -41.2933E-03,   12.7883E-03
C:/temp/dataset/6/1_6.odb,Step-1,Increment      1: Step Time =    1.000,"PART-1-1",           606,          -15.,        -26.25,            0.,NA,NA,"",   68.9841E-03,  -38.4687E-03,  -57.2622E-03,   16.0335E-03
C:/temp/dataset/6/1_6.odb,Step-1,Increment      1: Step Time =    1.000,"PART-1-1",           607,         -8.75,          -30.,            0.,NA,NA,"",            0.,   256.852E-42,  -10.1975E-39,   5.27018E-03
C:/temp/dataset/6/1_6.odb,Step-1,Increment      1: Step Time =    1.000,"PART-1-1",           608,          -15.,        -18.75,            0.,NA,NA,"",   215.688E-03,  -128.493E-03,  -173.236E-03,   18.4559E-03
C:/temp/dataset/6/1_6.odb,Step-1,Increment      1: Step Time =    1.000,"PART-1-1",           609,      -12.5734,      -18.8685,            0.,NA,NA,"",   165.550E-03,  -109.240E-03,  -124.392E-03,   13.1372E-03
C:/temp/dataset/6/1_6.odb,Step-1,Increment      1: Step Time =    1.000,"PART-1-1",           610,           -5.,      -11.2063,            0.,NA,NA,"",   308.981E-03,  -305.870E-03,   43.7330E-03,   3.84401E-03
C:/temp/dataset/6/1_6.odb,Step-1,Increment      1: Step Time =    1.000,"PART-1-1",           611,      -7.25264,      -11.4522,            0.,NA,NA,"",   296.770E-03,  -294.700E-03,  -34.9892E-03,   1.64766E-03
C:/temp/dataset/6/1_6.odb,Step-1,Increment      1: Step Time =    1.000,"PART-1-1",           612,           -5.,      -6.23750,            0.,NA,NA,"",   519.033E-03,  -516.102E-03,   55.0899E-03,   5.89654E-03
C:/temp/dataset/6/1_6.odb,Step-1,Increment      1: Step Time =    1.000,"PART-1-1",           613,      -6.16987,      -5.46941,            0.,NA,NA,"",   556.838E-03,  -556.836E-03,  -1.50702E-03,   12.4006E-03
C:/temp/dataset/6/1_6.odb,Step-1,Increment      1: Step Time =    1.000,"PART-1-1",           614,      -7.24309,      -6.98789,            0.,NA,NA,"",   477.589E-03,  -475.425E-03,  -45.4120E-03,   3.59754E-03
C:/temp/dataset/6/1_6.odb,Step-1,Increment      1: Step Time =    1.000,"PART-1-1",           615,           -5.,       16.4583,            0.,NA,NA,"",       2.72825,      -2.69241,   440.713E-03,   23.6015E-03
C:/temp/dataset/6/1_6.odb,Step-1,Increment      1: Step Time =    1.000,"PART-1-1",           616,      -7.23328,       16.4840,            0.,NA,NA,"",       2.65056,      -2.64927,   82.5606E-03,   14.7349E-03
C:/temp/dataset/6/1_6.odb,Step-1,Increment      1: Step Time =    1.000,"PART-1-1",           617,      -6.08867,       15.3700,            0.,NA,NA,"",       2.49887,      -2.48529,   260.199E-03,   20.6669E-03
C:/temp/dataset/6/1_6.odb,Step-1,Increment      1: Step Time =    1.000,"PART-1-1",           618,      -13.1522,       16.1892,            0.,NA,NA,"",       2.66257,      -2.52982,  -830.226E-03,   16.3285E-03
C:/temp/dataset/6/1_6.odb,Step-1,Increment      1: Step Time =    1.000,"PART-1-1",           619,      -14.0864,       17.4486,            0.,NA,NA,"",       2.91820,      -2.73456,      -1.01887,   17.4557E-03
C:/temp/dataset/6/1_6.odb,Step-1,Increment      1: Step Time =    1.000,"PART-1-1",           620,          -15.,         16.25,            0.,NA,NA,"",       2.77359,      -2.53154,      -1.13318,   23.8355E-03
C:/temp/dataset/6/1_6.odb,Step-1,Increment      1: Step Time =    1.000,"PART-1-1",           621,           -5.,       24.7917,            0.,NA,NA,"",       4.23901,      -4.21886,   412.833E-03,   7.95001E-03
C:/temp/dataset/6/1_6.odb,Step-1,Increment      1: Step Time =    1.000,"PART-1-1",           622,      -6.14442,       25.7689,            0.,NA,NA,"",       4.38014,      -4.37606,   189.027E-03,   7.49754E-03
C:/temp/dataset/6/1_6.odb,Step-1,Increment      1: Step Time =    1.000,"PART-1-1",           623,           -5.,        26.875,            0.,NA,NA,"",       4.62482,      -4.60888,   383.648E-03,   6.47510E-03
C:/temp/dataset/6/1_6.odb,Step-1,Increment      1: Step Time =    1.000,"PART-1-1",           624,      -7.36924,       26.7689,            0.,NA,NA,"",       4.53639,      -4.53615,  -46.0319E-03,   7.01917E-03
C:/temp/dataset/6/1_6.odb,Step-1,Increment      1: Step Time =    1.000,"PART-1-1",           625,      -13.1175,       20.9132,            0.,NA,NA,"",       3.48220,      -3.35115,  -946.293E-03,   10.4297E-03
C:/temp/dataset/6/1_6.odb,Step-1,Increment      1: Step Time =    1.000,"PART-1-1",           626,      -14.0212,       22.2867,            0.,NA,NA,"",       3.76635,      -3.59005,      -1.13880,   8.50152E-03
C:/temp/dataset/6/1_6.odb,Step-1,Increment      1: Step Time =    1.000,"PART-1-1",           627,          -15.,         21.25,            0.,NA,NA,"",       3.62749,      -3.39066,      -1.28922,   12.0944E-03
C:/temp/dataset/6/1_6.odb,Step-1,Increment      1: Step Time =    1.000,"PART-1-1",           628,      -14.0963,       19.8765,            0.,NA,NA,"",       3.33816,      -3.15512,      -1.09020,   12.9492E-03
C:/temp/dataset/6/1_6.odb,Step-1,Increment      1: Step Time =    1.000,"PART-1-1",           629,         -1.25,           -5.,            0.,NA,NA,"",   692.375E-03,  -682.747E-03,   115.064E-03,   17.1594E-03
C:/temp/dataset/6/1_6.odb,Step-1,Increment      1: Step Time =    1.000,"PART-1-1",           630,      -1.77292,      -3.03732,            0.,NA,NA,"",   718.286E-03,  -707.674E-03,   123.014E-03,   12.8603E-03
C:/temp/dataset/6/1_6.odb,Step-1,Increment      1: Step Time =    1.000,"PART-1-1",           631,      -12.1053,      -2.30059,            0.,NA,NA,"",   725.314E-03,  -663.258E-03,  -293.547E-03,   14.3486E-03
C:/temp/dataset/6/1_6.odb,Step-1,Increment      1: Step Time =    1.000,"PART-1-1",           632,      -10.7648,      -1.40855,            0.,NA,NA,"",   734.009E-03,  -698.639E-03,  -225.107E-03,   13.2666E-03
C:/temp/dataset/6/1_6.odb,Step-1,Increment      1: Step Time =    1.000,"PART-1-1",           633,      -11.5438,  -354.672E-03,            0.,NA,NA,"",   795.938E-03,  -744.268E-03,  -282.104E-03,   16.4152E-03
C:/temp/dataset/6/1_6.odb,Step-1,Increment      1: Step Time =    1.000,"PART-1-1",           634,          3.75,           -5.,            0.,NA,NA,"",   719.708E-03,  -712.017E-03,   104.936E-03,   13.3817E-03
C:/temp/dataset/6/1_6.odb,Step-1,Increment      1: Step Time =    1.000,"PART-1-1",           635,       4.52066,      -3.83856,            0.,NA,NA,"",   716.841E-03,  -711.200E-03,   89.7552E-03,   21.9212E-03
C:/temp/dataset/6/1_6.odb,Step-1,Increment      1: Step Time =    1.000,"PART-1-1",           636,       2.94662,      -2.72704,            0.,NA,NA,"",   736.057E-03,  -727.173E-03,   114.014E-03,   15.8232E-03
C:/temp/dataset/6/1_6.odb,Step-1,Increment      1: Step Time =    1.000,"PART-1-1",           637,       1.50395,       2.56821,            0.,NA,NA,"",   840.077E-03,  -830.872E-03,   124.019E-03,   14.1737E-03
C:/temp/dataset/6/1_6.odb,Step-1,Increment      1: Step Time =    1.000,"PART-1-1",           638,          1.25,            5.,            0.,NA,NA,"",   862.211E-03,  -854.617E-03,   114.179E-03,   11.0846E-03
C:/temp/dataset/6/1_6.odb,Step-1,Increment      1: Step Time =    1.000,"PART-1-1",           639,          6.25,            5.,            0.,NA,NA,"",   848.276E-03,  -838.851E-03,   126.097E-03,   1.75698E-03
C:/temp/dataset/6/1_6.odb,Step-1,Increment      1: Step Time =    1.000,"PART-1-1",           640,  -213.968E-03,      -26.0734,            0.,NA,NA,"",   22.4948E-03,  -22.3322E-03,  -2.69940E-03,   5.25302E-03
C:/temp/dataset/6/1_6.odb,Step-1,Increment      1: Step Time =    1.000,"PART-1-1",           641,       1.14210,      -23.8512,            0.,NA,NA,"",   40.2302E-03,  -39.8196E-03,  -5.73309E-03,   6.47173E-03
C:/temp/dataset/6/1_6.odb,Step-1,Increment      1: Step Time =    1.000,"PART-1-1",           642,  -234.527E-03,      -23.9674,            0.,NA,NA,"",   37.3782E-03,  -37.2608E-03,  -2.96032E-03,   6.07541E-03
C:/temp/dataset/6/1_6.odb,Step-1,Increment      1: Step Time =    1.000,"PART-1-1",           643,           -5.,        14.375,            0.,NA,NA,"",       2.38545,      -2.34811,   420.391E-03,   28.0261E-03
C:/temp/dataset/6/1_6.odb,Step-1,Increment      1: Step Time =    1.000,"PART-1-1",           644,      -7.14364,       14.2292,            0.,NA,NA,"",       2.28080,      -2.27875,   96.6738E-03,   17.7916E-03
C:/temp/dataset/6/1_6.odb,Step-1,Increment      1: Step Time =    1.000,"PART-1-1",           645,           -5.,       6.04167,            0.,NA,NA,"",       1.20021,      -1.18146,   211.297E-03,   72.9717E-03
C:/temp/dataset/6/1_6.odb,Step-1,Increment      1: Step Time =    1.000,"PART-1-1",           646,      -5.82078,       6.95384,            0.,NA,NA,"",       1.28502,      -1.27497,   160.340E-03,   40.7775E-03
C:/temp/dataset/6/1_6.odb,Step-1,Increment      1: Step Time =    1.000,"PART-1-1",           647,      -6.45742,       5.85906,            0.,NA,NA,"",       1.13246,      -1.12998,   74.9560E-03,   30.9219E-03
C:/temp/dataset/6/1_6.odb,Step-1,Increment      1: Step Time =    1.000,"PART-1-1",           648,      -5.63664,       4.94688,            0.,NA,NA,"",       1.03074,      -1.02387,   118.825E-03,   55.0212E-03
C:/temp/dataset/6/1_6.odb,Step-1,Increment      1: Step Time =    1.000,"PART-1-1",           649,           -5.,         8.125,            0.,NA,NA,"",       1.47745,      -1.44833,   291.843E-03,   43.1901E-03
C:/temp/dataset/6/1_6.odb,Step-1,Increment      1: Step Time =    1.000,"PART-1-1",           650,      -5.96903,       9.00386,            0.,NA,NA,"",       1.55119,      -1.53870,   196.503E-03,   33.0499E-03
C:/temp/dataset/6/1_6.odb,Step-1,Increment      1: Step Time =    1.000,"PART-1-1",           651,          -15.,         -3.75,            0.,NA,NA,"",   744.750E-03,  -619.671E-03,  -413.110E-03,   18.7292E-03
C:/temp/dataset/6/1_6.odb,Step-1,Increment      1: Step Time =    1.000,"PART-1-1",           652,      -12.7846,      -3.59401,            0.,NA,NA,"",   688.277E-03,  -612.881E-03,  -313.214E-03,   14.5636E-03
C:/temp/dataset/6/1_6.odb,Step-1,Increment      1: Step Time =    1.000,"PART-1-1",           653,      -11.5430,      -4.20540,            0.,NA,NA,"",   634.812E-03,  -585.249E-03,  -245.907E-03,   9.93270E-03
C:/temp/dataset/6/1_6.odb,Step-1,Increment      1: Step Time =    1.000,"PART-1-1",           654,      -10.1018,      -4.29084,            0.,NA,NA,"",   608.911E-03,  -583.046E-03,  -175.585E-03,   6.97250E-03
C:/temp/dataset/6/1_6.odb,Step-1,Increment      1: Step Time =    1.000,"PART-1-1",           655,          -15.,        -11.25,            0.,NA,NA,"",   444.880E-03,  -330.238E-03,  -298.096E-03,   16.9523E-03
C:/temp/dataset/6/1_6.odb,Step-1,Increment      1: Step Time =    1.000,"PART-1-1",           656,      -12.2331,      -11.1785,            0.,NA,NA,"",   376.772E-03,  -316.407E-03,  -204.557E-03,   11.7560E-03
C:/temp/dataset/6/1_6.odb,Step-1,Increment      1: Step Time =    1.000,"PART-1-1",           657,       5.21391,      -1.02834,            0.,NA,NA,"",   768.212E-03,  -760.130E-03,   111.143E-03,   12.8438E-03
C:/temp/dataset/6/1_6.odb,Step-1,Increment      1: Step Time =    1.000,"PART-1-1",           658,       6.72319,      -1.59046,            0.,NA,NA,"",   762.709E-03,  -754.304E-03,   112.920E-03,   9.84043E-03
C:/temp/dataset/6/1_6.odb,Step-1,Increment      1: Step Time =    1.000,"PART-1-1",           659,       10.9187,      -16.2245,            0.,NA,NA,"",   291.128E-03,  -263.545E-03,   123.691E-03,   11.6681E-03
C:/temp/dataset/6/1_6.odb,Step-1,Increment      1: Step Time =    1.000,"PART-1-1",           660,       11.9858,      -14.8752,            0.,NA,NA,"",   359.239E-03,  -320.810E-03,   161.659E-03,   11.0517E-03
C:/temp/dataset/6/1_6.odb,Step-1,Increment      1: Step Time =    1.000,"PART-1-1",           661,       10.9746,      -13.7451,            0.,NA,NA,"",   388.479E-03,  -362.168E-03,   140.534E-03,   11.0353E-03
C:/temp/dataset/6/1_6.odb,Step-1,Increment      1: Step Time =    1.000,"PART-1-1",           662,       11.9830,      -12.5543,            0.,NA,NA,"",   449.814E-03,  -414.162E-03,   175.506E-03,   9.75287E-03
C:/temp/dataset/6/1_6.odb,Step-1,Increment      1: Step Time =    1.000,"PART-1-1",           663,           15.,      -20.1563,            0.,NA,NA,"",   245.209E-03,  -162.166E-03,   183.929E-03,   19.4856E-03
C:/temp/dataset/6/1_6.odb,Step-1,Increment      1: Step Time =    1.000,"PART-1-1",           664,       14.0841,      -19.1367,            0.,NA,NA,"",   253.982E-03,  -183.139E-03,   175.974E-03,   16.5364E-03
C:/temp/dataset/6/1_6.odb,Step-1,Increment      1: Step Time =    1.000,"PART-1-1",           665,       13.0385,      -20.2889,            0.,NA,NA,"",   196.415E-03,  -142.861E-03,   134.795E-03,   14.9306E-03
C:/temp/dataset/6/1_6.odb,Step-1,Increment      1: Step Time =    1.000,"PART-1-1",           666,           15.,      -17.9688,            0.,NA,NA,"",   315.501E-03,  -226.672E-03,   219.456E-03,   16.9350E-03
C:/temp/dataset/6/1_6.odb,Step-1,Increment      1: Step Time =    1.000,"PART-1-1",           667,          1.25,          -30.,            0.,NA,NA,"",            0.,  -2.86904E-39,  -2.07896E-39,   3.01405E-03
C:/temp/dataset/6/1_6.odb,Step-1,Increment      1: Step Time =    1.000,"PART-1-1",           668,       3.30543,      -22.6598,            0.,NA,NA,"",   54.3131E-03,  -53.0933E-03,  -11.4458E-03,   8.55006E-03
C:/temp/dataset/6/1_6.odb,Step-1,Increment      1: Step Time =    1.000,"PART-1-1",           669,       2.86115,      -24.1329,            0.,NA,NA,"",   39.5554E-03,  -38.5811E-03,  -8.72503E-03,   7.16313E-03
C:/temp/dataset/6/1_6.odb,Step-1,Increment      1: Step Time =    1.000,"PART-1-1",           670,      -10.6801,      -21.6169,            0.,NA,NA,"",   85.8572E-03,  -57.0000E-03,  -64.2064E-03,   9.45708E-03
C:/temp/dataset/6/1_6.odb,Step-1,Increment      1: Step Time =    1.000,"PART-1-1",           671,      -11.3394,      -20.4213,            0.,NA,NA,"",   114.501E-03,  -76.3786E-03,  -85.3037E-03,   10.7976E-03
C:/temp/dataset/6/1_6.odb,Step-1,Increment      1: Step Time =    1.000,"PART-1-1",           672,      -12.1593,      -22.4638,            0.,NA,NA,"",   93.5503E-03,  -54.1022E-03,  -76.3192E-03,   12.1027E-03
C:/temp/dataset/6/1_6.odb,Step-1,Increment      1: Step Time =    1.000,"PART-1-1",           673,      -9.92443,      -16.4516,            0.,NA,NA,"",   174.393E-03,  -149.012E-03,  -90.5999E-03,   7.44488E-03
C:/temp/dataset/6/1_6.odb,Step-1,Increment      1: Step Time =    1.000,"PART-1-1",           674,      -8.71114,      -17.7111,            0.,NA,NA,"",   128.992E-03,  -115.979E-03,  -56.4598E-03,   4.94912E-03
C:/temp/dataset/6/1_6.odb,Step-1,Increment      1: Step Time =    1.000,"PART-1-1",           675,      -9.25100,      -7.50767,            0.,NA,NA,"",   466.260E-03,  -449.234E-03,  -124.849E-03,   4.88649E-03
C:/temp/dataset/6/1_6.odb,Step-1,Increment      1: Step Time =    1.000,"PART-1-1",           676,      -8.32615,      -6.25855,            0.,NA,NA,"",   512.868E-03,  -504.696E-03,  -91.1856E-03,   4.26562E-03
C:/temp/dataset/6/1_6.odb,Step-1,Increment      1: Step Time =    1.000,"PART-1-1",           677,      -7.58018,      -5.09368,            0.,NA,NA,"",   565.454E-03,  -562.263E-03,  -59.9872E-03,   7.70509E-03
C:/temp/dataset/6/1_6.odb,Step-1,Increment      1: Step Time =    1.000,"PART-1-1",           678,      -6.67379,      -3.84489,            0.,NA,NA,"",   628.176E-03,  -628.015E-03,  -14.2339E-03,   12.2527E-03
C:/temp/dataset/6/1_6.odb,Step-1,Increment      1: Step Time =    1.000,"PART-1-1",           679,      -2.40491,      -1.03021,            0.,NA,NA,"",   768.530E-03,  -758.607E-03,   123.099E-03,   12.8046E-03
C:/temp/dataset/6/1_6.odb,Step-1,Increment      1: Step Time =    1.000,"PART-1-1",           680,      -3.32453,      -2.14711,            0.,NA,NA,"",   728.118E-03,  -720.370E-03,   105.936E-03,   11.1813E-03
C:/temp/dataset/6/1_6.odb,Step-1,Increment      1: Step Time =    1.000,"PART-1-1",           681,       10.4745,      -24.8101,            0.,NA,NA,"",   55.3419E-03,  -38.1215E-03,   40.1183E-03,   9.82735E-03
C:/temp/dataset/6/1_6.odb,Step-1,Increment      1: Step Time =    1.000,"PART-1-1",           682,       8.16019,      -23.0435,            0.,NA,NA,"",   58.9382E-03,  -54.4168E-03,   22.6389E-03,   5.13363E-03
C:/temp/dataset/6/1_6.odb,Step-1,Increment      1: Step Time =    1.000,"PART-1-1",           683,       9.40124,      -23.8494,            0.,NA,NA,"",   58.2149E-03,  -46.9027E-03,   34.4835E-03,   7.46778E-03
C:/temp/dataset/6/1_6.odb,Step-1,Increment      1: Step Time =    1.000,"PART-1-1",           684,       5.67200,      -27.0943,            0.,NA,NA,"",   11.1832E-03,  -11.1817E-03,  -184.009E-06,   2.85017E-03
C:/temp/dataset/6/1_6.odb,Step-1,Increment      1: Step Time =    1.000,"PART-1-1",           685,       4.86106,      -26.0050,            0.,NA,NA,"",   20.4277E-03,  -20.1471E-03,  -3.37460E-03,   4.07385E-03
C:/temp/dataset/6/1_6.odb,Step-1,Increment      1: Step Time =    1.000,"PART-1-1",           686,      -2.55341,      -23.8484,            0.,NA,NA,"",   34.6662E-03,  -34.6566E-03,   815.030E-06,   5.21930E-03
C:/temp/dataset/6/1_6.odb,Step-1,Increment      1: Step Time =    1.000,"PART-1-1",           687,      -4.82130,      -23.8875,            0.,NA,NA,"",   29.9962E-03,  -29.9668E-03,  -1.32765E-03,   3.58197E-03
C:/temp/dataset/6/1_6.odb,Step-1,Increment      1: Step Time =    1.000,"PART-1-1",           688,      -5.84083,      -25.1777,            0.,NA,NA,"",   20.2811E-03,  -19.6233E-03,  -5.12338E-03,   2.80199E-03
C:/temp/dataset/6/1_6.odb,Step-1,Increment      1: Step Time =    1.000,"PART-1-1",           689,           15.,      -26.7188,            0.,NA,NA,"",   79.6347E-03,  -46.1522E-03,   64.8973E-03,   20.6845E-03
C:/temp/dataset/6/1_6.odb,Step-1,Increment      1: Step Time =    1.000,"PART-1-1",           690,       10.9874,      -11.4075,            0.,NA,NA,"",   482.590E-03,  -457.750E-03,   152.833E-03,   10.2824E-03
C:/temp/dataset/6/1_6.odb,Step-1,Increment      1: Step Time =    1.000,"PART-1-1",           691,       7.29436,      -19.7763,            0.,NA,NA,"",   122.060E-03,  -119.964E-03,   22.5268E-03,   9.94786E-03
C:/temp/dataset/6/1_6.odb,Step-1,Increment      1: Step Time =    1.000,"PART-1-1",           692,       7.78340,      -18.7858,            0.,NA,NA,"",   160.057E-03,  -156.017E-03,   35.7368E-03,   10.0810E-03
C:/temp/dataset/6/1_6.odb,Step-1,Increment      1: Step Time =    1.000,"PART-1-1",           693,       10.8970,      -2.99004,            0.,NA,NA,"",   752.163E-03,  -732.400E-03,   171.289E-03,   1.97941E-03
C:/temp/dataset/6/1_6.odb,Step-1,Increment      1: Step Time =    1.000,"PART-1-1",           694,       12.0828,      -3.88727,            0.,NA,NA,"",   738.684E-03,  -712.263E-03,   195.798E-03,   1.32417E-03
C:/temp/dataset/6/1_6.odb,Step-1,Increment      1: Step Time =    1.000,"PART-1-1",           695,           15.,       1.71875,            0.,NA,NA,"",   843.372E-03,  -808.066E-03,   241.466E-03,   1.71075E-03
C:/temp/dataset/6/1_6.odb,Step-1,Increment      1: Step Time =    1.000,"PART-1-1",           696,       4.00043,  -427.215E-03,            0.,NA,NA,"",   777.841E-03,  -769.112E-03,   116.202E-03,   15.0972E-03
C:/temp/dataset/6/1_6.odb,Step-1,Increment      1: Step Time =    1.000,"PART-1-1",           697,       2.09609,       1.00148,            0.,NA,NA,"",   809.461E-03,  -799.734E-03,   125.110E-03,   15.1222E-03
C:/temp/dataset/6/1_6.odb,Step-1,Increment      1: Step Time =    1.000,"PART-1-1",           698,       2.38138,  -554.063E-03,            0.,NA,NA,"",   777.735E-03,  -767.903E-03,   123.271E-03,   17.0760E-03
C:/temp/dataset/6/1_6.odb,Step-1,Increment      1: Step Time =    1.000,"PART-1-1",           699,   35.7305E-03,       2.11113,            0.,NA,NA,"",   844.029E-03,  -834.184E-03,   128.535E-03,   17.2801E-03
C:/temp/dataset/6/1_6.odb,Step-1,Increment      1: Step Time =    1.000,"PART-1-1",           700,           -5.,       10.2083,            0.,NA,NA,"",       1.75769,      -1.72351,   344.964E-03,   36.6568E-03
C:/temp/dataset/6/1_6.odb,Step-1,Increment      1: Step Time =    1.000,"PART-1-1",           701,      -6.99901,       9.90050,            0.,NA,NA,"",       1.64070,      -1.63845,   85.8726E-03,   24.6848E-03
C:/temp/dataset/6/1_6.odb,Step-1,Increment      1: Step Time =    1.000,"PART-1-1",           702,      -11.2396,       16.2208,            0.,NA,NA,"",       2.60466,      -2.54963,  -532.559E-03,   11.2023E-03
C:/temp/dataset/6/1_6.odb,Step-1,Increment      1: Step Time =    1.000,"PART-1-1",           703,      -10.2112,       15.1096,            0.,NA,NA,"",       2.40346,      -2.37654,  -358.776E-03,   9.69942E-03
C:/temp/dataset/6/1_6.odb,Step-1,Increment      1: Step Time =    1.000,"PART-1-1",           704,      -9.25876,       16.3324,            0.,NA,NA,"",       2.60140,      -2.59118,  -230.371E-03,   10.3987E-03
C:/temp/dataset/6/1_6.odb,Step-1,Increment      1: Step Time =    1.000,"PART-1-1",           705,      -10.2871,       17.4437,            0.,NA,NA,"",       2.79738,      -2.76783,  -405.545E-03,   9.74670E-03
C:/temp/dataset/6/1_6.odb,Step-1,Increment      1: Step Time =    1.000,"PART-1-1",           706,      -8.19479,       15.2434,            0.,NA,NA,"",       2.42604,      -2.42529,  -60.5098E-03,   12.6716E-03
C:/temp/dataset/6/1_6.odb,Step-1,Increment      1: Step Time =    1.000,"PART-1-1",           707,      -9.19446,       14.0222,            0.,NA,NA,"",       2.22278,      -2.21385,  -199.082E-03,   10.9538E-03
C:/temp/dataset/6/1_6.odb,Step-1,Increment      1: Step Time =    1.000,"PART-1-1",           708,      -8.14331,       13.0080,            0.,NA,NA,"",       2.07103,      -2.07050,  -46.8572E-03,   14.5028E-03
C:/temp/dataset/6/1_6.odb,Step-1,Increment      1: Step Time =    1.000,"PART-1-1",           709,          -15.,         18.75,            0.,NA,NA,"",       3.19125,      -2.95047,      -1.21606,   17.9389E-03
C:/temp/dataset/6/1_6.odb,Step-1,Increment      1: Step Time =    1.000,"PART-1-1",           710,      -13.1826,       18.5751,            0.,NA,NA,"",       3.06936,      -2.93477,  -898.921E-03,   13.3531E-03
C:/temp/dataset/6/1_6.odb,Step-1,Increment      1: Step Time =    1.000,"PART-1-1",           711,      -11.2313,       23.3702,            0.,NA,NA,"",       3.88649,      -3.82801,  -671.717E-03,   8.56250E-03
C:/temp/dataset/6/1_6.odb,Step-1,Increment      1: Step Time =    1.000,"PART-1-1",           712,      -10.8173,       24.9058,            0.,NA,NA,"",       4.16892,      -4.12142,  -627.573E-03,   7.51498E-03
C:/temp/dataset/6/1_6.odb,Step-1,Increment      1: Step Time =    1.000,"PART-1-1",           713,      -13.5418,       24.7667,            0.,NA,NA,"",       4.20203,      -4.05336,      -1.10785,   4.99408E-03
C:/temp/dataset/6/1_6.odb,Step-1,Increment      1: Step Time =    1.000,"PART-1-1",           714,      -12.2278,       25.9824,            0.,NA,NA,"",       4.39152,      -4.29906,  -896.435E-03,   5.48620E-03
C:/temp/dataset/6/1_6.odb,Step-1,Increment      1: Step Time =    1.000,"PART-1-1",           715,          -15.,         26.25,            0.,NA,NA,"",       4.52744,      -4.30451,      -1.40318,   2.38377E-03
C:/temp/dataset/6/1_6.odb,Step-1,Increment      1: Step Time =    1.000,"PART-1-1",           716,          -15.,         23.75,            0.,NA,NA,"",       4.07544,      -3.84483,      -1.35150,   6.69214E-03
C:/temp/dataset/6/1_6.odb,Step-1,Increment      1: Step Time =    1.000,"PART-1-1",           717,      -12.5630,       23.3034,            0.,NA,NA,"",       3.90233,      -3.79641,  -903.007E-03,   8.04443E-03
C:/temp/dataset/6/1_6.odb,Step-1,Increment      1: Step Time =    1.000,"PART-1-1",           718,      -11.1827,       13.8735,            0.,NA,NA,"",       2.22289,      -2.17040,  -480.229E-03,   11.6160E-03
C:/temp/dataset/6/1_6.odb,Step-1,Increment      1: Step Time =    1.000,"PART-1-1",           719,      -10.1659,       12.7861,            0.,NA,NA,"",       2.03762,      -2.01197,  -322.272E-03,   9.69134E-03
C:/temp/dataset/6/1_6.odb,Step-1,Increment      1: Step Time =    1.000,"PART-1-1",           720,      -11.4858,       20.4947,            0.,NA,NA,"",       3.35980,      -3.29469,  -658.262E-03,   10.1444E-03
C:/temp/dataset/6/1_6.odb,Step-1,Increment      1: Step Time =    1.000,"PART-1-1",           721,      -10.4732,       19.7487,            0.,NA,NA,"",       3.20803,      -3.17269,  -474.865E-03,   9.87014E-03
C:/temp/dataset/6/1_6.odb,Step-1,Increment      1: Step Time =    1.000,"PART-1-1",           722,      -10.9778,       21.7959,            0.,NA,NA,"",       3.58972,      -3.53958,  -597.859E-03,   9.68592E-03
C:/temp/dataset/6/1_6.odb,Step-1,Increment      1: Step Time =    1.000,"PART-1-1",           723,      -9.13796,       11.7463,            0.,NA,NA,"",       1.87669,      -1.86833,  -176.936E-03,   11.6743E-03
C:/temp/dataset/6/1_6.odb,Step-1,Increment      1: Step Time =    1.000,"PART-1-1",           724,      -11.1090,       11.4975,            0.,NA,NA,"",       1.86619,      -1.81622,  -428.980E-03,   11.8868E-03
C:/temp/dataset/6/1_6.odb,Step-1,Increment      1: Step Time =    1.000,"PART-1-1",           725,      -7.95801,       5.48811,            0.,NA,NA,"",       1.09643,      -1.09532,  -49.3955E-03,   13.7521E-03
C:/temp/dataset/6/1_6.odb,Step-1,Increment      1: Step Time =    1.000,"PART-1-1",           726,      -9.27172,       5.51676,            0.,NA,NA,"",       1.11388,      -1.10168,  -164.444E-03,   8.68157E-03
C:/temp/dataset/6/1_6.odb,Step-1,Increment      1: Step Time =    1.000,"PART-1-1",           727,      -9.10783,       4.19071,            0.,NA,NA,"",       1.00105,  -990.964E-03,  -141.755E-03,   10.1156E-03
C:/temp/dataset/6/1_6.odb,Step-1,Increment      1: Step Time =    1.000,"PART-1-1",           728,      -7.79412,       4.16207,            0.,NA,NA,"",   983.919E-03,  -983.192E-03,  -37.8179E-03,   12.5446E-03
C:/temp/dataset/6/1_6.odb,Step-1,Increment      1: Step Time =    1.000,"PART-1-1",           729,      -10.3652,   710.465E-03,            0.,NA,NA,"",   819.612E-03,  -791.235E-03,  -213.803E-03,   14.8747E-03
C:/temp/dataset/6/1_6.odb,Step-1,Increment      1: Step Time =    1.000,"PART-1-1",           730,      -11.5756,       2.14983,            0.,NA,NA,"",   925.040E-03,  -869.238E-03,  -316.424E-03,   18.6974E-03
C:/temp/dataset/6/1_6.odb,Step-1,Increment      1: Step Time =    1.000,"PART-1-1",           731,      -10.9514,      -7.70102,            0.,NA,NA,"",   482.591E-03,  -442.904E-03,  -191.650E-03,   8.30945E-03
C:/temp/dataset/6/1_6.odb,Step-1,Increment      1: Step Time =    1.000,"PART-1-1",           732,      -11.1587,      -15.1039,            0.,NA,NA,"",   230.411E-03,  -188.685E-03,  -132.239E-03,   9.88566E-03
C:/temp/dataset/6/1_6.odb,Step-1,Increment      1: Step Time =    1.000,"PART-1-1",           733,      -11.0422,      -12.5823,            0.,NA,NA,"",   304.507E-03,  -263.926E-03,  -151.880E-03,   9.51024E-03
C:/temp/dataset/6/1_6.odb,Step-1,Increment      1: Step Time =    1.000,"PART-1-1",           734,      -9.98828,      -19.2456,            0.,NA,NA,"",   114.825E-03,  -89.6506E-03,  -71.7472E-03,   8.17307E-03
C:/temp/dataset/6/1_6.odb,Step-1,Increment      1: Step Time =    1.000,"PART-1-1",           735,      -11.2222,      -17.6929,            0.,NA,NA,"",   166.571E-03,  -125.530E-03,  -109.490E-03,   10.4105E-03
C:/temp/dataset/6/1_6.odb,Step-1,Increment      1: Step Time =    1.000,"PART-1-1",           736,      -9.72809,       26.4627,            0.,NA,NA,"",       4.45564,      -4.43166,  -461.695E-03,   6.68932E-03
C:/temp/dataset/6/1_6.odb,Step-1,Increment      1: Step Time =    1.000,"PART-1-1",           737,      -8.07960,       10.7858,            0.,NA,NA,"",       1.74460,      -1.74411,  -41.0410E-03,   16.5159E-03
C:/temp/dataset/6/1_6.odb,Step-1,Increment      1: Step Time =    1.000,"PART-1-1",           738,      -11.3320,       18.4953,            0.,NA,NA,"",       2.99813,      -2.93909,  -592.067E-03,   10.7579E-03
C:/temp/dataset/6/1_6.odb,Step-1,Increment      1: Step Time =    1.000,"PART-1-1",           739,      -10.4893,       6.32554,            0.,NA,NA,"",       1.21668,      -1.18282,  -285.033E-03,   10.4112E-03
C:/temp/dataset/6/1_6.odb,Step-1,Increment      1: Step Time =    1.000,"PART-1-1",           740,      -11.8356,       7.66802,            0.,NA,NA,"",       1.39961,      -1.32764,  -443.037E-03,   17.2478E-03
C:/temp/dataset/6/1_6.odb,Step-1,Increment      1: Step Time =    1.000,"PART-1-1",           741,      -11.4125,       4.87054,            0.,NA,NA,"",       1.11132,      -1.05552,  -347.725E-03,   16.8434E-03
C:/temp/dataset/6/1_6.odb,Step-1,Increment      1: Step Time =    1.000,"PART-1-1",           742,       10.1911,      -5.79504,            0.,NA,NA,"",   680.258E-03,  -662.966E-03,   152.404E-03,   6.52672E-03
C:/temp/dataset/6/1_6.odb,Step-1,Increment      1: Step Time =    1.000,"PART-1-1",           743,       9.10708,      -6.74300,            0.,NA,NA,"",   644.807E-03,  -632.507E-03,   125.344E-03,   9.47764E-03
C:/temp/dataset/6/1_6.odb,Step-1,Increment      1: Step Time =    1.000,"PART-1-1",           744,       11.1638,      -4.94873,            0.,NA,NA,"",   708.249E-03,  -686.260E-03,   175.112E-03,   3.64797E-03
C:/temp/dataset/6/1_6.odb,Step-1,Increment      1: Step Time =    1.000,"PART-1-1",           745,       10.4293,      -4.08570,            0.,NA,NA,"",   726.272E-03,  -708.325E-03,   160.458E-03,   3.51655E-03
C:/temp/dataset/6/1_6.odb,Step-1,Increment      1: Step Time =    1.000,"PART-1-1",           746,       9.97038,      -14.8971,            0.,NA,NA,"",   329.691E-03,  -311.864E-03,   106.944E-03,   10.7938E-03
C:/temp/dataset/6/1_6.odb,Step-1,Increment      1: Step Time =    1.000,"PART-1-1",           747,       9.96577,      -12.5508,            0.,NA,NA,"",   424.740E-03,  -407.730E-03,   118.997E-03,   10.6762E-03
C:/temp/dataset/6/1_6.odb,Step-1,Increment      1: Step Time =    1.000,"PART-1-1",           748,       8.96159,      -13.7029,            0.,NA,NA,"",   367.112E-03,  -357.062E-03,   85.3132E-03,   10.4316E-03
C:/temp/dataset/6/1_6.odb,Step-1,Increment      1: Step Time =    1.000,"PART-1-1",           749,       6.92617,      -22.4012,            0.,NA,NA,"",   61.1873E-03,  -60.6392E-03,   8.17124E-03,   3.33932E-03
C:/temp/dataset/6/1_6.odb,Step-1,Increment      1: Step Time =    1.000,"PART-1-1",           750,       5.94981,      -23.5281,            0.,NA,NA,"",   44.0045E-03,  -43.9738E-03,  -1.64438E-03,   3.23966E-03
C:/temp/dataset/6/1_6.odb,Step-1,Increment      1: Step Time =    1.000,"PART-1-1",           751,       7.18383,      -24.1705,            0.,NA,NA,"",   38.1259E-03,  -37.1218E-03,   8.69211E-03,   2.46889E-03
C:/temp/dataset/6/1_6.odb,Step-1,Increment      1: Step Time =    1.000,"PART-1-1",           752,       11.0968,      -20.2176,            0.,NA,NA,"",   161.718E-03,  -131.501E-03,   94.1286E-03,   12.1181E-03
C:/temp/dataset/6/1_6.odb,Step-1,Increment      1: Step Time =    1.000,"PART-1-1",           753,       6.43355,      -20.8801,            0.,NA,NA,"",   85.0034E-03,  -84.9480E-03,   3.06994E-03,   6.58119E-03
C:/temp/dataset/6/1_6.odb,Step-1,Increment      1: Step Time =    1.000,"PART-1-1",           754,       8.96045,      -11.3546,            0.,NA,NA,"",   464.002E-03,  -453.688E-03,   97.2880E-03,   10.9265E-03
C:/temp/dataset/6/1_6.odb,Step-1,Increment      1: Step Time =    1.000,"PART-1-1",           755,       8.17216,      -2.03287,            0.,NA,NA,"",   760.405E-03,  -749.795E-03,   126.582E-03,   5.56557E-03
C:/temp/dataset/6/1_6.odb,Step-1,Increment      1: Step Time =    1.000,"PART-1-1",           756,       9.68046,      -2.49017,            0.,NA,NA,"",   757.305E-03,  -742.493E-03,   149.043E-03,   3.51389E-03
C:/temp/dataset/6/1_6.odb,Step-1,Increment      1: Step Time =    1.000,"PART-1-1",           757,      -5.24373,       2.94722,            0.,NA,NA,"",   911.449E-03,  -905.967E-03,   99.8099E-03,   22.1839E-03
C:/temp/dataset/6/1_6.odb,Step-1,Increment      1: Step Time =    1.000,"PART-1-1",           758,      -6.20341,       3.93450,            0.,NA,NA,"",   962.331E-03,  -959.606E-03,   72.3601E-03,   24.0011E-03
C:/temp/dataset/6/1_6.odb,Step-1,Increment      1: Step Time =    1.000,"PART-1-1",           759,       7.87036,      -17.0650,            0.,NA,NA,"",   223.799E-03,  -219.643E-03,   42.9324E-03,   8.79484E-03
C:/temp/dataset/6/1_6.odb,Step-1,Increment      1: Step Time =    1.000,"PART-1-1",           760,      -8.77165,      -4.61616,            0.,NA,NA,"",   586.036E-03,  -575.179E-03,  -112.281E-03,   6.38840E-03
C:/temp/dataset/6/1_6.odb,Step-1,Increment      1: Step Time =    1.000,"PART-1-1",           761,       8.90402,      -15.9271,            0.,NA,NA,"",   277.198E-03,  -267.193E-03,   73.8043E-03,   10.3697E-03
C:/temp/dataset/6/1_6.odb,Step-1,Increment      1: Step Time =    1.000,"PART-1-1",           762,       7.94609,      -14.8939,            0.,NA,NA,"",   309.886E-03,  -305.601E-03,   51.3576E-03,   8.53994E-03
C:/temp/dataset/6/1_6.odb,Step-1,Increment      1: Step Time =    1.000,"PART-1-1",           763,      -12.3095,       21.7291,            0.,NA,NA,"",       3.60524,      -3.50958,  -825.013E-03,   9.29534E-03
C:/temp/dataset/6/1_6.odb,Step-1,Increment      1: Step Time =    1.000,"PART-1-1",           764,      -12.2938,       19.6789,            0.,NA,NA,"",       3.23303,      -3.13837,  -776.603E-03,   10.7841E-03
C:/temp/dataset/6/1_6.odb,Step-1,Increment      1: Step Time =    1.000,"PART-1-1",           765,       3.72209,      -1.78065,            0.,NA,NA,"",   753.032E-03,  -744.531E-03,   112.834E-03,   16.6847E-03
C:/temp/dataset/6/1_6.odb,Step-1,Increment      1: Step Time =    1.000,"PART-1-1",           766,       6.45852,      -3.38063,            0.,NA,NA,"",   730.458E-03,  -724.049E-03,   96.5513E-03,   11.0630E-03
C:/temp/dataset/6/1_6.odb,Step-1,Increment      1: Step Time =    1.000,"PART-1-1",           767,       4.93556,      -2.38177,            0.,NA,NA,"",   742.628E-03,  -735.602E-03,   101.917E-03,   15.9676E-03
C:/temp/dataset/6/1_6.odb,Step-1,Increment      1: Step Time =    1.000,"PART-1-1",           768,      -2.94024,   945.156E-03,            0.,NA,NA,"",   830.710E-03,  -821.530E-03,   123.156E-03,   16.3370E-03
C:/temp/dataset/6/1_6.odb,Step-1,Increment      1: Step Time =    1.000,"PART-1-1",           769,      -1.69279,      -25.0756,            0.,NA,NA,"",   27.6173E-03,  -27.6015E-03,  -934.218E-06,   5.49848E-03
C:/temp/dataset/6/1_6.odb,Step-1,Increment      1: Step Time =    1.000,"PART-1-1",           770,      -6.93923,      -23.9860,            0.,NA,NA,"",   28.9682E-03,  -26.5683E-03,  -11.5448E-03,   1.95279E-03
C:/temp/dataset/6/1_6.odb,Step-1,Increment      1: Step Time =    1.000,"PART-1-1",           771,      -5.91970,      -22.6959,            0.,NA,NA,"",   37.8249E-03,  -37.4835E-03,  -5.07011E-03,   1.68220E-03
C:/temp/dataset/6/1_6.odb,Step-1,Increment      1: Step Time =    1.000,"PART-1-1",           772,      -12.2208,       17.3915,            0.,NA,NA,"",       2.82978,      -2.73878,  -711.846E-03,   12.3131E-03
C:/temp/dataset/6/1_6.odb,Step-1,Increment      1: Step Time =    1.000,"PART-1-1",           773,      -12.0398,       10.1961,            0.,NA,NA,"",       1.71612,      -1.63519,  -520.820E-03,   16.8542E-03
C:/temp/dataset/6/1_6.odb,Step-1,Increment      1: Step Time =    1.000,"PART-1-1",           774,      -10.8637,      -2.91198,            0.,NA,NA,"",   674.703E-03,  -637.494E-03,  -220.965E-03,   10.8259E-03
C:/temp/dataset/6/1_6.odb,Step-1,Increment      1: Step Time =    1.000,"PART-1-1",           775,      -9.61620,      -11.5179,            0.,NA,NA,"",   316.673E-03,  -295.311E-03,  -114.337E-03,   6.64586E-03
C:/temp/dataset/6/1_6.odb,Step-1,Increment      1: Step Time =    1.000,"PART-1-1",           776,      -11.8201,      -24.5932,            0.,NA,NA,"",   59.4396E-03,  -31.9549E-03,  -50.1193E-03,   11.2786E-03
C:/temp/dataset/6/1_6.odb,Step-1,Increment      1: Step Time =    1.000,"PART-1-1",           777,      -11.0718,      -23.4296,            0.,NA,NA,"",   66.0720E-03,  -38.9584E-03,  -53.3643E-03,   9.97205E-03
C:/temp/dataset/6/1_6.odb,Step-1,Increment      1: Step Time =    1.000,"PART-1-1",           778,       4.75405,      -23.0816,            0.,NA,NA,"",   49.8157E-03,  -48.9369E-03,  -9.31575E-03,   5.73388E-03
C:/temp/dataset/6/1_6.odb,Step-1,Increment      1: Step Time =    1.000,"PART-1-1",           779,       5.55198,      -21.9930,            0.,NA,NA,"",   63.8088E-03,  -63.3920E-03,  -7.28150E-03,   5.25346E-03
C:/temp/dataset/6/1_6.odb,Step-1,Increment      1: Step Time =    1.000,"PART-1-1",           780,       7.01336,      -26.0950,            0.,NA,NA,"",   18.2880E-03,  -17.5715E-03,   5.06884E-03,   2.70822E-03
C:/temp/dataset/6/1_6.odb,Step-1,Increment      1: Step Time =    1.000,"PART-1-1",           781,       4.10189,      -23.9882,            0.,NA,NA,"",   40.5158E-03,  -39.5140E-03,  -8.95397E-03,   6.25292E-03
C:/temp/dataset/6/1_6.odb,Step-1,Increment      1: Step Time =    1.000,"PART-1-1",           782,       4.14804,      -25.2051,            0.,NA,NA,"",   28.5266E-03,  -27.8346E-03,  -6.24526E-03,   5.31431E-03
C:/temp/dataset/6/1_6.odb,Step-1,Increment      1: Step Time =    1.000,"PART-1-1",           783,      -12.1264,       12.6156,            0.,NA,NA,"",       2.05929,      -1.97392,  -586.785E-03,   15.5561E-03
C:/temp/dataset/6/1_6.odb,Step-1,Increment      1: Step Time =    1.000,"PART-1-1",           784,      -12.1709,       15.0185,            0.,NA,NA,"",       2.43312,      -2.34502,  -648.812E-03,   13.9211E-03
C:/temp/dataset/6/1_6.odb,Step-1,Increment      1: Step Time =    1.000,"PART-1-1",           785,      -10.3060,       3.43341,            0.,NA,NA,"",   971.170E-03,  -942.733E-03,  -233.292E-03,   12.9377E-03
C:/temp/dataset/6/1_6.odb,Step-1,Increment      1: Step Time =    1.000,"PART-1-1",           786,      -9.35047,  -311.861E-03,            0.,NA,NA,"",   760.630E-03,  -746.949E-03,  -143.615E-03,   13.0847E-03
C:/temp/dataset/6/1_6.odb,Step-1,Increment      1: Step Time =    1.000,"PART-1-1",           787,      -9.47746,      -1.56252,            0.,NA,NA,"",   711.253E-03,  -695.385E-03,  -149.401E-03,   11.8648E-03
C:/temp/dataset/6/1_6.odb,Step-1,Increment      1: Step Time =    1.000,"PART-1-1",           788,      -7.56677,      -1.93629,            0.,NA,NA,"",   694.323E-03,  -692.762E-03,  -46.5239E-03,   11.2596E-03
C:/temp/dataset/6/1_6.odb,Step-1,Increment      1: Step Time =    1.000,"PART-1-1",           789,      -9.57637,      -3.06595,            0.,NA,NA,"",   653.035E-03,  -634.959E-03,  -152.583E-03,   9.22692E-03
C:/temp/dataset/6/1_6.odb,Step-1,Increment      1: Step Time =    1.000,"PART-1-1",           790,      -8.24618,      -3.39128,            0.,NA,NA,"",   636.131E-03,  -630.342E-03,  -85.6218E-03,   9.99399E-03
C:/temp/dataset/6/1_6.odb,Step-1,Increment      1: Step Time =    1.000,"PART-1-1",           791,       7.98922,      -7.69035,            0.,NA,NA,"",   603.668E-03,  -596.222E-03,   94.5168E-03,   13.2401E-03
C:/temp/dataset/6/1_6.odb,Step-1,Increment      1: Step Time =    1.000,"PART-1-1",           792,       7.96586,      -10.1263,            0.,NA,NA,"",   506.055E-03,  -500.230E-03,   76.5615E-03,   11.3490E-03
C:/temp/dataset/6/1_6.odb,Step-1,Increment      1: Step Time =    1.000,"PART-1-1",           793,       7.95460,      -12.5381,            0.,NA,NA,"",   406.387E-03,  -401.653E-03,   61.8452E-03,   9.49481E-03
C:/temp/dataset/6/1_6.odb,Step-1,Increment      1: Step Time =    1.000,"PART-1-1",           794,      -6.90534,       4.84567,            0.,NA,NA,"",       1.03332,      -1.03281,   32.3627E-03,   20.3119E-03
C:/temp/dataset/6/1_6.odb,Step-1,Increment      1: Step Time =    1.000,"PART-1-1",           795,      -7.09219,       3.25090,            0.,NA,NA,"",   921.142E-03,  -921.087E-03,   10.0466E-03,   15.1290E-03
C:/temp/dataset/6/1_6.odb,Step-1,Increment      1: Step Time =    1.000,"PART-1-1",           796,      -5.99438,      -2.38990,            0.,NA,NA,"",   691.117E-03,  -690.727E-03,   23.2031E-03,   11.3293E-03
C:/temp/dataset/6/1_6.odb,Step-1,Increment      1: Step Time =    1.000,"PART-1-1",           797,      -8.16339,       2.56404,            0.,NA,NA,"",   886.434E-03,  -884.023E-03,  -65.3433E-03,   12.4604E-03
C:/temp/dataset/6/1_6.odb,Step-1,Increment      1: Step Time =    1.000,"PART-1-1",           798,      -6.16245,       1.98671,            0.,NA,NA,"",   860.442E-03,  -858.985E-03,   50.0463E-03,   15.8222E-03
C:/temp/dataset/6/1_6.odb,Step-1,Increment      1: Step Time =    1.000,"PART-1-1",           799,      -9.36160,       1.80674,            0.,NA,NA,"",   857.871E-03,  -844.727E-03,  -149.594E-03,   13.4343E-03
C:/temp/dataset/6/1_6.odb,Step-1,Increment      1: Step Time =    1.000,"PART-1-1",           800,      -4.18828,       1.89018,            0.,NA,NA,"",   865.708E-03,  -858.671E-03,   110.163E-03,   19.7102E-03
C:/temp/dataset/6/1_6.odb,Step-1,Increment      1: Step Time =    1.000,"PART-1-1",           801,      -2.02478,       2.01876,            0.,NA,NA,"",   860.587E-03,  -850.928E-03,   128.579E-03,   21.5993E-03
C:/temp/dataset/6/1_6.odb,Step-1,Increment      1: Step Time =    1.000,"PART-1-1",           802,       5.29765,      -24.4346,            0.,NA,NA,"",   34.3415E-03,  -34.0692E-03,  -4.31612E-03,   4.04458E-03
C:/temp/dataset/6/1_6.odb,Step-1,Increment      1: Step Time =    1.000,"PART-1-1",           803,       8.18651,      -25.0309,            0.,NA,NA,"",   32.5591E-03,  -28.5784E-03,   15.6003E-03,   4.05925E-03
C:/temp/dataset/6/1_6.odb,Step-1,Increment      1: Step Time =    1.000,"PART-1-1",           804,       6.01068,      -25.2345,            0.,NA,NA,"",   25.6923E-03,  -25.6923E-03,   1.55942E-06,   2.83940E-03
