ODB Name,Step,Frame,Part Instance Name,    êﬂì_ÉâÉxÉã,X,Y,Z,Section Name,Material Name,Section Point,   U-Magnitude,          U-U1,          U-U2,       S-Mises
C:/temp/dataset/6/1_8.odb,Step-1,Increment      1: Step Time =    1.000,"PART-1-1",             1,            5.,           -5.,            0.,NA,NA,"",   928.675E-03,  -924.473E-03,   88.2512E-03,   45.9137E-03
C:/temp/dataset/6/1_8.odb,Step-1,Increment      1: Step Time =    1.000,"PART-1-1",             2,            0.,           -5.,            0.,NA,NA,"",   943.546E-03,  -930.824E-03,   154.424E-03,   16.9097E-03
C:/temp/dataset/6/1_8.odb,Step-1,Increment      1: Step Time =    1.000,"PART-1-1",             3,            5.,      -10.0250,            0.,NA,NA,"",   652.518E-03,  -651.875E-03,  -28.9742E-03,   14.7417E-03
C:/temp/dataset/6/1_8.odb,Step-1,Increment      1: Step Time =    1.000,"PART-1-1",             4,            5.,      -15.0500,            0.,NA,NA,"",   394.402E-03,  -389.356E-03,  -62.8875E-03,   3.27616E-03
C:/temp/dataset/6/1_8.odb,Step-1,Increment      1: Step Time =    1.000,"PART-1-1",             5,            5.,          -20.,            0.,NA,NA,"",   128.630E-03,  -125.744E-03,  -27.0925E-03,   31.5241E-03
C:/temp/dataset/6/1_8.odb,Step-1,Increment      1: Step Time =    1.000,"PART-1-1",             6,            0.,          -20.,            0.,NA,NA,"",   70.5865E-03,  -70.5850E-03,  -457.637E-06,   3.73078E-03
C:/temp/dataset/6/1_8.odb,Step-1,Increment      1: Step Time =    1.000,"PART-1-1",             7,           -5.,          -20.,            0.,NA,NA,"",   83.5827E-03,  -83.2181E-03,   7.79819E-03,   12.0786E-03
C:/temp/dataset/6/1_8.odb,Step-1,Increment      1: Step Time =    1.000,"PART-1-1",             8,           -5.,      -14.9750,            0.,NA,NA,"",   249.742E-03,  -246.440E-03,   40.4764E-03,   5.36032E-03
C:/temp/dataset/6/1_8.odb,Step-1,Increment      1: Step Time =    1.000,"PART-1-1",             9,           -5.,      -9.95000,            0.,NA,NA,"",   472.684E-03,  -469.061E-03,   58.4086E-03,   5.21133E-03
C:/temp/dataset/6/1_8.odb,Step-1,Increment      1: Step Time =    1.000,"PART-1-1",            10,           -5.,           -5.,            0.,NA,NA,"",   800.520E-03,  -798.226E-03,   60.5620E-03,   31.8519E-03
C:/temp/dataset/6/1_8.odb,Step-1,Increment      1: Step Time =    1.000,"PART-1-1",            11,           15.,          -30.,            0.,NA,NA,"",            0.,  -11.1260E-39,   19.7941E-39,   38.3257E-03
C:/temp/dataset/6/1_8.odb,Step-1,Increment      1: Step Time =    1.000,"PART-1-1",            12,          -15.,          -30.,            0.,NA,NA,"",            0.,  -9.07323E-39,  -15.9304E-39,   30.3081E-03
C:/temp/dataset/6/1_8.odb,Step-1,Increment      1: Step Time =    1.000,"PART-1-1",            13,           15.,        -21.25,            0.,NA,NA,"",   283.445E-03,  -180.427E-03,   218.602E-03,   27.1185E-03
C:/temp/dataset/6/1_8.odb,Step-1,Increment      1: Step Time =    1.000,"PART-1-1",            14,           15.,         -12.5,            0.,NA,NA,"",   675.878E-03,  -569.586E-03,   363.846E-03,   8.77268E-03
C:/temp/dataset/6/1_8.odb,Step-1,Increment      1: Step Time =    1.000,"PART-1-1",            15,           15.,         -3.75,            0.,NA,NA,"",       1.01092,  -950.200E-03,   345.074E-03,   7.00213E-03
C:/temp/dataset/6/1_8.odb,Step-1,Increment      1: Step Time =    1.000,"PART-1-1",            16,           15.,            5.,            0.,NA,NA,"",       1.18610,      -1.14327,   315.847E-03,   230.258E-06
C:/temp/dataset/6/1_8.odb,Step-1,Increment      1: Step Time =    1.000,"PART-1-1",            17,           10.,            5.,            0.,NA,NA,"",       1.15576,      -1.13568,   214.503E-03,   3.85193E-03
C:/temp/dataset/6/1_8.odb,Step-1,Increment      1: Step Time =    1.000,"PART-1-1",            18,            5.,            5.,            0.,NA,NA,"",       1.13001,      -1.11951,   153.718E-03,   489.693E-06
C:/temp/dataset/6/1_8.odb,Step-1,Increment      1: Step Time =    1.000,"PART-1-1",            19,            0.,            5.,            0.,NA,NA,"",       1.17162,      -1.16293,   142.476E-03,   19.9599E-03
C:/temp/dataset/6/1_8.odb,Step-1,Increment      1: Step Time =    1.000,"PART-1-1",            20,           -5.,            5.,            0.,NA,NA,"",       1.37938,      -1.36754,   180.290E-03,   118.183E-03
C:/temp/dataset/6/1_8.odb,Step-1,Increment      1: Step Time =    1.000,"PART-1-1",            21,           -5.,         11.25,            0.,NA,NA,"",       2.54872,      -2.50810,   453.218E-03,   46.4126E-03
C:/temp/dataset/6/1_8.odb,Step-1,Increment      1: Step Time =    1.000,"PART-1-1",            22,           -5.,          17.5,            0.,NA,NA,"",       3.88035,      -3.84497,   522.815E-03,   28.5570E-03
C:/temp/dataset/6/1_8.odb,Step-1,Increment      1: Step Time =    1.000,"PART-1-1",            23,           -5.,         23.75,            0.,NA,NA,"",       5.39015,      -5.37132,   450.193E-03,   11.8151E-03
C:/temp/dataset/6/1_8.odb,Step-1,Increment      1: Step Time =    1.000,"PART-1-1",            24,           -5.,           30.,            0.,NA,NA,"",       6.92486,      -6.91901,   284.612E-03,   8.13697E-03
C:/temp/dataset/6/1_8.odb,Step-1,Increment      1: Step Time =    1.000,"PART-1-1",            25,          -10.,           30.,            0.,NA,NA,"",       6.80112,      -6.73987,  -910.659E-03,   4.59448E-03
C:/temp/dataset/6/1_8.odb,Step-1,Increment      1: Step Time =    1.000,"PART-1-1",            26,          -15.,           30.,            0.,NA,NA,"",       6.91783,      -6.58906,      -2.10729,   362.952E-06
C:/temp/dataset/6/1_8.odb,Step-1,Increment      1: Step Time =    1.000,"PART-1-1",            27,          -15.,          22.5,            0.,NA,NA,"",       5.11838,      -4.76933,      -1.85778,   12.2060E-03
C:/temp/dataset/6/1_8.odb,Step-1,Increment      1: Step Time =    1.000,"PART-1-1",            28,          -15.,           15.,            0.,NA,NA,"",       3.42029,      -3.07452,      -1.49857,   35.6633E-03
C:/temp/dataset/6/1_8.odb,Step-1,Increment      1: Step Time =    1.000,"PART-1-1",            29,          -15.,           7.5,            0.,NA,NA,"",       2.05576,      -1.76261,      -1.05800,   57.0184E-03
C:/temp/dataset/6/1_8.odb,Step-1,Increment      1: Step Time =    1.000,"PART-1-1",            30,          -15.,            0.,            0.,NA,NA,"",       1.23762,      -1.04149,  -668.580E-03,   38.2404E-03
C:/temp/dataset/6/1_8.odb,Step-1,Increment      1: Step Time =    1.000,"PART-1-1",            31,          -15.,          -7.5,            0.,NA,NA,"",   785.749E-03,  -621.606E-03,  -480.631E-03,   21.0205E-03
C:/temp/dataset/6/1_8.odb,Step-1,Increment      1: Step Time =    1.000,"PART-1-1",            32,          -15.,          -15.,            0.,NA,NA,"",   427.146E-03,  -284.179E-03,  -318.897E-03,   24.6383E-03
C:/temp/dataset/6/1_8.odb,Step-1,Increment      1: Step Time =    1.000,"PART-1-1",            33,          -15.,         -22.5,            0.,NA,NA,"",   178.350E-03,  -95.9997E-03,  -150.308E-03,   23.2818E-03
C:/temp/dataset/6/1_8.odb,Step-1,Increment      1: Step Time =    1.000,"PART-1-1",            34,           2.5,           -5.,            0.,NA,NA,"",   965.988E-03,  -954.649E-03,   147.570E-03,   7.63382E-03
C:/temp/dataset/6/1_8.odb,Step-1,Increment      1: Step Time =    1.000,"PART-1-1",            35,            5.,      -7.51250,            0.,NA,NA,"",   784.179E-03,  -784.146E-03,   7.17467E-03,   25.7707E-03
C:/temp/dataset/6/1_8.odb,Step-1,Increment      1: Step Time =    1.000,"PART-1-1",            36,            5.,      -12.5375,            0.,NA,NA,"",   522.839E-03,  -520.140E-03,  -53.0574E-03,   8.99725E-03
C:/temp/dataset/6/1_8.odb,Step-1,Increment      1: Step Time =    1.000,"PART-1-1",            37,            5.,      -17.5250,            0.,NA,NA,"",   270.001E-03,  -263.181E-03,  -60.3014E-03,   6.59364E-03
C:/temp/dataset/6/1_8.odb,Step-1,Increment      1: Step Time =    1.000,"PART-1-1",            38,           2.5,          -20.,            0.,NA,NA,"",   81.9382E-03,  -81.4962E-03,  -8.49919E-03,   13.0972E-03
C:/temp/dataset/6/1_8.odb,Step-1,Increment      1: Step Time =    1.000,"PART-1-1",            39,          -2.5,          -20.,            0.,NA,NA,"",   67.7937E-03,  -67.7029E-03,   3.50579E-03,   3.07026E-03
C:/temp/dataset/6/1_8.odb,Step-1,Increment      1: Step Time =    1.000,"PART-1-1",            40,           -5.,      -17.4875,            0.,NA,NA,"",   161.998E-03,  -159.313E-03,   29.3679E-03,   7.73371E-03
C:/temp/dataset/6/1_8.odb,Step-1,Increment      1: Step Time =    1.000,"PART-1-1",            41,           -5.,      -12.4625,            0.,NA,NA,"",   352.627E-03,  -349.042E-03,   50.1532E-03,   4.94805E-03
C:/temp/dataset/6/1_8.odb,Step-1,Increment      1: Step Time =    1.000,"PART-1-1",            42,           -5.,      -7.47500,            0.,NA,NA,"",   611.410E-03,  -607.871E-03,   65.6965E-03,   7.46990E-03
C:/temp/dataset/6/1_8.odb,Step-1,Increment      1: Step Time =    1.000,"PART-1-1",            43,          -2.5,           -5.,            0.,NA,NA,"",   891.408E-03,  -882.053E-03,   128.805E-03,   29.8121E-03
C:/temp/dataset/6/1_8.odb,Step-1,Increment      1: Step Time =    1.000,"PART-1-1",            44,          12.5,          -30.,            0.,NA,NA,"",            0.,  -18.1357E-39,   47.5669E-39,   14.6311E-03
C:/temp/dataset/6/1_8.odb,Step-1,Increment      1: Step Time =    1.000,"PART-1-1",            45,           10.,          -30.,            0.,NA,NA,"",            0.,   8.57171E-39,   23.7784E-39,   9.34314E-03
C:/temp/dataset/6/1_8.odb,Step-1,Increment      1: Step Time =    1.000,"PART-1-1",            46,           7.5,          -30.,            0.,NA,NA,"",            0.,   3.75701E-39,   10.2118E-39,   3.72706E-03
C:/temp/dataset/6/1_8.odb,Step-1,Increment      1: Step Time =    1.000,"PART-1-1",            47,            5.,          -30.,            0.,NA,NA,"",            0.,  -2.61484E-39,   1.48902E-39,   1.39719E-03
C:/temp/dataset/6/1_8.odb,Step-1,Increment      1: Step Time =    1.000,"PART-1-1",            48,           2.5,          -30.,            0.,NA,NA,"",            0.,  -4.57750E-39,  -2.17160E-39,   3.55260E-03
C:/temp/dataset/6/1_8.odb,Step-1,Increment      1: Step Time =    1.000,"PART-1-1",            49,            0.,          -30.,            0.,NA,NA,"",            0.,  -7.46627E-39,  -9.10034E-39,   4.30020E-03
C:/temp/dataset/6/1_8.odb,Step-1,Increment      1: Step Time =    1.000,"PART-1-1",            50,          -2.5,          -30.,            0.,NA,NA,"",            0.,  -2.95080E-39,  -1.73288E-39,   3.63932E-03
C:/temp/dataset/6/1_8.odb,Step-1,Increment      1: Step Time =    1.000,"PART-1-1",            51,           -5.,          -30.,            0.,NA,NA,"",            0.,   671.165E-42,  -6.58437E-39,   3.09822E-03
C:/temp/dataset/6/1_8.odb,Step-1,Increment      1: Step Time =    1.000,"PART-1-1",            52,          -7.5,          -30.,            0.,NA,NA,"",            0.,   5.32793E-39,  -15.4715E-39,   5.28978E-03
C:/temp/dataset/6/1_8.odb,Step-1,Increment      1: Step Time =    1.000,"PART-1-1",            53,          -10.,          -30.,            0.,NA,NA,"",            0.,  -10.2710E-39,  -25.2082E-39,   9.17440E-03
C:/temp/dataset/6/1_8.odb,Step-1,Increment      1: Step Time =    1.000,"PART-1-1",            54,         -12.5,          -30.,            0.,NA,NA,"",            0.,  -3.19363E-39,  -35.8948E-39,   12.5285E-03
C:/temp/dataset/6/1_8.odb,Step-1,Increment      1: Step Time =    1.000,"PART-1-1",            55,           15.,      -23.4375,            0.,NA,NA,"",   205.005E-03,  -121.491E-03,   165.128E-03,   27.6801E-03
C:/temp/dataset/6/1_8.odb,Step-1,Increment      1: Step Time =    1.000,"PART-1-1",            56,           15.,       -25.625,            0.,NA,NA,"",   136.406E-03,  -78.1606E-03,   111.792E-03,   26.7907E-03
C:/temp/dataset/6/1_8.odb,Step-1,Increment      1: Step Time =    1.000,"PART-1-1",            57,           15.,      -27.8125,            0.,NA,NA,"",   74.9475E-03,  -44.8155E-03,   60.0724E-03,   29.1189E-03
C:/temp/dataset/6/1_8.odb,Step-1,Increment      1: Step Time =    1.000,"PART-1-1",            58,           15.,      -14.6875,            0.,NA,NA,"",   572.410E-03,  -457.861E-03,   343.536E-03,   14.7780E-03
C:/temp/dataset/6/1_8.odb,Step-1,Increment      1: Step Time =    1.000,"PART-1-1",            59,           15.,       -16.875,            0.,NA,NA,"",   469.842E-03,  -351.819E-03,   311.408E-03,   20.3677E-03
C:/temp/dataset/6/1_8.odb,Step-1,Increment      1: Step Time =    1.000,"PART-1-1",            60,           15.,      -19.0625,            0.,NA,NA,"",   372.366E-03,  -257.733E-03,   268.757E-03,   24.7555E-03
C:/temp/dataset/6/1_8.odb,Step-1,Increment      1: Step Time =    1.000,"PART-1-1",            61,           15.,       -5.9375,            0.,NA,NA,"",   946.384E-03,  -875.376E-03,   359.666E-03,   5.90934E-03
C:/temp/dataset/6/1_8.odb,Step-1,Increment      1: Step Time =    1.000,"PART-1-1",            62,           15.,        -8.125,            0.,NA,NA,"",   867.337E-03,  -784.366E-03,   370.194E-03,   2.37126E-03
C:/temp/dataset/6/1_8.odb,Step-1,Increment      1: Step Time =    1.000,"PART-1-1",            63,           15.,      -10.3125,            0.,NA,NA,"",   775.760E-03,  -680.529E-03,   372.402E-03,   2.87059E-03
C:/temp/dataset/6/1_8.odb,Step-1,Increment      1: Step Time =    1.000,"PART-1-1",            64,           15.,        2.8125,            0.,NA,NA,"",       1.14488,      -1.10021,   316.654E-03,   982.281E-06
C:/temp/dataset/6/1_8.odb,Step-1,Increment      1: Step Time =    1.000,"PART-1-1",            65,           15.,      625.E-03,            0.,NA,NA,"",       1.10526,      -1.05753,   321.281E-03,   3.47318E-03
C:/temp/dataset/6/1_8.odb,Step-1,Increment      1: Step Time =    1.000,"PART-1-1",            66,           15.,       -1.5625,            0.,NA,NA,"",       1.06243,      -1.00950,   331.142E-03,   5.88099E-03
C:/temp/dataset/6/1_8.odb,Step-1,Increment      1: Step Time =    1.000,"PART-1-1",            67,          12.5,            5.,            0.,NA,NA,"",       1.17235,      -1.14211,   264.560E-03,   1.22036E-03
C:/temp/dataset/6/1_8.odb,Step-1,Increment      1: Step Time =    1.000,"PART-1-1",            68,           7.5,            5.,            0.,NA,NA,"",       1.13902,      -1.12543,   175.426E-03,   4.28052E-03
C:/temp/dataset/6/1_8.odb,Step-1,Increment      1: Step Time =    1.000,"PART-1-1",            69,           2.5,            5.,            0.,NA,NA,"",       1.13865,      -1.12923,   146.102E-03,   9.73746E-03
C:/temp/dataset/6/1_8.odb,Step-1,Increment      1: Step Time =    1.000,"PART-1-1",            70,          -2.5,            5.,            0.,NA,NA,"",       1.22867,      -1.22093,   137.723E-03,   40.5821E-03
C:/temp/dataset/6/1_8.odb,Step-1,Increment      1: Step Time =    1.000,"PART-1-1",            71,           -5.,       9.16667,            0.,NA,NA,"",       2.15735,      -2.12075,   395.679E-03,   52.0592E-03
C:/temp/dataset/6/1_8.odb,Step-1,Increment      1: Step Time =    1.000,"PART-1-1",            72,           -5.,       7.08333,            0.,NA,NA,"",       1.78771,      -1.75763,   326.567E-03,   69.6158E-03
C:/temp/dataset/6/1_8.odb,Step-1,Increment      1: Step Time =    1.000,"PART-1-1",            73,           -5.,       15.4167,            0.,NA,NA,"",       3.41267,      -3.37337,   516.424E-03,   34.5452E-03
C:/temp/dataset/6/1_8.odb,Step-1,Increment      1: Step Time =    1.000,"PART-1-1",            74,           -5.,       13.3333,            0.,NA,NA,"",       2.96754,      -2.92626,   493.227E-03,   40.3896E-03
C:/temp/dataset/6/1_8.odb,Step-1,Increment      1: Step Time =    1.000,"PART-1-1",            75,           -5.,       21.6667,            0.,NA,NA,"",       4.86903,      -4.84441,   488.996E-03,   17.4502E-03
C:/temp/dataset/6/1_8.odb,Step-1,Increment      1: Step Time =    1.000,"PART-1-1",            76,           -5.,       19.5833,            0.,NA,NA,"",       4.36689,      -4.33660,   513.464E-03,   22.4909E-03
C:/temp/dataset/6/1_8.odb,Step-1,Increment      1: Step Time =    1.000,"PART-1-1",            77,           -5.,       27.9167,            0.,NA,NA,"",       6.42036,      -6.41134,   340.232E-03,   8.05475E-03
C:/temp/dataset/6/1_8.odb,Step-1,Increment      1: Step Time =    1.000,"PART-1-1",            78,           -5.,       25.8333,            0.,NA,NA,"",       5.91133,      -5.89805,   395.929E-03,   9.76462E-03
C:/temp/dataset/6/1_8.odb,Step-1,Increment      1: Step Time =    1.000,"PART-1-1",            79,          -7.5,           30.,            0.,NA,NA,"",       6.83414,      -6.82684,  -315.807E-03,   7.86103E-03
C:/temp/dataset/6/1_8.odb,Step-1,Increment      1: Step Time =    1.000,"PART-1-1",            80,         -12.5,           30.,            0.,NA,NA,"",       6.83043,      -6.66237,      -1.50588,   836.851E-06
C:/temp/dataset/6/1_8.odb,Step-1,Increment      1: Step Time =    1.000,"PART-1-1",            81,          -15.,           25.,            0.,NA,NA,"",       5.71863,      -5.37527,      -1.95171,   5.55674E-03
C:/temp/dataset/6/1_8.odb,Step-1,Increment      1: Step Time =    1.000,"PART-1-1",            82,          -15.,          27.5,            0.,NA,NA,"",       6.32023,      -5.98433,      -2.03299,   858.867E-06
C:/temp/dataset/6/1_8.odb,Step-1,Increment      1: Step Time =    1.000,"PART-1-1",            83,          -15.,          17.5,            0.,NA,NA,"",       3.95995,      -3.60922,      -1.62936,   27.7944E-03
C:/temp/dataset/6/1_8.odb,Step-1,Increment      1: Step Time =    1.000,"PART-1-1",            84,          -15.,           20.,            0.,NA,NA,"",       4.52882,      -4.17719,      -1.74967,   19.9311E-03
C:/temp/dataset/6/1_8.odb,Step-1,Increment      1: Step Time =    1.000,"PART-1-1",            85,          -15.,           10.,            0.,NA,NA,"",       2.45952,      -2.14078,      -1.21091,   51.4289E-03
C:/temp/dataset/6/1_8.odb,Step-1,Increment      1: Step Time =    1.000,"PART-1-1",            86,          -15.,          12.5,            0.,NA,NA,"",       2.91752,      -2.58182,      -1.35874,   43.6347E-03
C:/temp/dataset/6/1_8.odb,Step-1,Increment      1: Step Time =    1.000,"PART-1-1",            87,          -15.,           2.5,            0.,NA,NA,"",       1.44662,      -1.22186,  -774.443E-03,   49.5989E-03
C:/temp/dataset/6/1_8.odb,Step-1,Increment      1: Step Time =    1.000,"PART-1-1",            88,          -15.,            5.,            0.,NA,NA,"",       1.71653,      -1.45670,  -908.014E-03,   56.8899E-03
C:/temp/dataset/6/1_8.odb,Step-1,Increment      1: Step Time =    1.000,"PART-1-1",            89,          -15.,           -5.,            0.,NA,NA,"",   922.927E-03,  -754.193E-03,  -531.966E-03,   22.4650E-03
C:/temp/dataset/6/1_8.odb,Step-1,Increment      1: Step Time =    1.000,"PART-1-1",            90,          -15.,          -2.5,            0.,NA,NA,"",       1.06976,  -891.956E-03,  -590.596E-03,   27.8717E-03
C:/temp/dataset/6/1_8.odb,Step-1,Increment      1: Step Time =    1.000,"PART-1-1",            91,          -15.,         -12.5,            0.,NA,NA,"",   535.688E-03,  -382.402E-03,  -375.141E-03,   23.5618E-03
C:/temp/dataset/6/1_8.odb,Step-1,Increment      1: Step Time =    1.000,"PART-1-1",            92,          -15.,          -10.,            0.,NA,NA,"",   655.859E-03,  -496.033E-03,  -429.071E-03,   22.1831E-03
C:/temp/dataset/6/1_8.odb,Step-1,Increment      1: Step Time =    1.000,"PART-1-1",            93,          -15.,          -20.,            0.,NA,NA,"",   248.612E-03,  -141.206E-03,  -204.619E-03,   24.5749E-03
C:/temp/dataset/6/1_8.odb,Step-1,Increment      1: Step Time =    1.000,"PART-1-1",            94,          -15.,         -17.5,            0.,NA,NA,"",   331.377E-03,  -203.525E-03,  -261.511E-03,   25.0765E-03
C:/temp/dataset/6/1_8.odb,Step-1,Increment      1: Step Time =    1.000,"PART-1-1",            95,          -15.,         -27.5,            0.,NA,NA,"",   65.3127E-03,  -37.8940E-03,  -53.1959E-03,   22.2850E-03
C:/temp/dataset/6/1_8.odb,Step-1,Increment      1: Step Time =    1.000,"PART-1-1",            96,          -15.,          -25.,            0.,NA,NA,"",   118.528E-03,  -63.6329E-03,  -99.9991E-03,   21.3169E-03
C:/temp/dataset/6/1_8.odb,Step-1,Increment      1: Step Time =    1.000,"PART-1-1",            97,       13.0047,      -3.80353,            0.,NA,NA,"",   993.202E-03,  -951.645E-03,   284.292E-03,   1.66297E-03
C:/temp/dataset/6/1_8.odb,Step-1,Increment      1: Step Time =    1.000,"PART-1-1",            98,       6.97971,      -7.55833,            0.,NA,NA,"",   799.674E-03,  -794.776E-03,   88.3705E-03,   22.1936E-03
C:/temp/dataset/6/1_8.odb,Step-1,Increment      1: Step Time =    1.000,"PART-1-1",            99,       6.96639,      -10.0829,            0.,NA,NA,"",   665.088E-03,  -662.335E-03,   60.4581E-03,   15.5914E-03
C:/temp/dataset/6/1_8.odb,Step-1,Increment      1: Step Time =    1.000,"PART-1-1",           100,       12.9900,      -12.5465,            0.,NA,NA,"",   619.959E-03,  -557.170E-03,   271.864E-03,   11.7468E-03
C:/temp/dataset/6/1_8.odb,Step-1,Increment      1: Step Time =    1.000,"PART-1-1",           101,       6.90028,      -17.1420,            0.,NA,NA,"",   287.001E-03,  -286.256E-03,   20.6631E-03,   10.6761E-03
C:/temp/dataset/6/1_8.odb,Step-1,Increment      1: Step Time =    1.000,"PART-1-1",           102,       7.03871,      -19.0570,            0.,NA,NA,"",   192.477E-03,  -190.882E-03,   24.7213E-03,   14.1463E-03
C:/temp/dataset/6/1_8.odb,Step-1,Increment      1: Step Time =    1.000,"PART-1-1",           103,       5.31709,      -21.2647,            0.,NA,NA,"",   98.8530E-03,  -97.6736E-03,  -15.2244E-03,   9.72504E-03
C:/temp/dataset/6/1_8.odb,Step-1,Increment      1: Step Time =    1.000,"PART-1-1",           104,      -4.83361,      -22.6144,            0.,NA,NA,"",   52.2489E-03,  -52.2475E-03,  -373.351E-06,   5.10699E-03
C:/temp/dataset/6/1_8.odb,Step-1,Increment      1: Step Time =    1.000,"PART-1-1",           105,      -7.46484,      -17.6587,            0.,NA,NA,"",   158.169E-03,  -152.396E-03,  -42.3451E-03,   4.09934E-03
C:/temp/dataset/6/1_8.odb,Step-1,Increment      1: Step Time =    1.000,"PART-1-1",           106,      -12.5283,      -27.3245,            0.,NA,NA,"",   41.7623E-03,  -21.0193E-03,  -36.0870E-03,   17.3763E-03
C:/temp/dataset/6/1_8.odb,Step-1,Increment      1: Step Time =    1.000,"PART-1-1",           107,      -12.4870,      -17.6221,            0.,NA,NA,"",   256.236E-03,  -176.807E-03,  -185.462E-03,   17.4275E-03
C:/temp/dataset/6/1_8.odb,Step-1,Increment      1: Step Time =    1.000,"PART-1-1",           108,      -7.32043,      -12.6401,            0.,NA,NA,"",   341.281E-03,  -337.598E-03,  -50.0056E-03,   2.19956E-03
C:/temp/dataset/6/1_8.odb,Step-1,Increment      1: Step Time =    1.000,"PART-1-1",           109,      -7.14644,      -8.03697,            0.,NA,NA,"",   570.479E-03,  -567.722E-03,  -56.0158E-03,   5.37259E-03
C:/temp/dataset/6/1_8.odb,Step-1,Increment      1: Step Time =    1.000,"PART-1-1",           110,      -12.6601,       4.88622,            0.,NA,NA,"",       1.54564,      -1.41305,  -626.347E-03,   30.9397E-03
C:/temp/dataset/6/1_8.odb,Step-1,Increment      1: Step Time =    1.000,"PART-1-1",           111,      -13.0978,       12.5399,            0.,NA,NA,"",       2.77846,      -2.59420,  -994.991E-03,   27.6353E-03
C:/temp/dataset/6/1_8.odb,Step-1,Increment      1: Step Time =    1.000,"PART-1-1",           112,      -6.45576,       21.8628,            0.,NA,NA,"",       4.84356,      -4.84158,   138.598E-03,   11.9750E-03
C:/temp/dataset/6/1_8.odb,Step-1,Increment      1: Step Time =    1.000,"PART-1-1",           113,      -7.28884,       25.7044,            0.,NA,NA,"",       5.78192,      -5.77991,  -152.720E-03,   11.3575E-03
C:/temp/dataset/6/1_8.odb,Step-1,Increment      1: Step Time =    1.000,"PART-1-1",           114,      -9.90518,       27.6474,            0.,NA,NA,"",       6.22723,      -6.17261,  -822.949E-03,   7.13985E-03
C:/temp/dataset/6/1_8.odb,Step-1,Increment      1: Step Time =    1.000,"PART-1-1",           115,      -3.01211,      -3.13168,            0.,NA,NA,"",   936.511E-03,  -926.934E-03,   133.589E-03,   18.4443E-03
C:/temp/dataset/6/1_8.odb,Step-1,Increment      1: Step Time =    1.000,"PART-1-1",           116,      -2.19169,       3.00836,            0.,NA,NA,"",       1.18160,      -1.17160,   153.382E-03,   36.3657E-03
C:/temp/dataset/6/1_8.odb,Step-1,Increment      1: Step Time =    1.000,"PART-1-1",           117,       1.85193,      -2.77696,            0.,NA,NA,"",   983.956E-03,  -971.038E-03,   158.921E-03,   21.0485E-03
C:/temp/dataset/6/1_8.odb,Step-1,Increment      1: Step Time =    1.000,"PART-1-1",           118,       2.83229,       2.22691,            0.,NA,NA,"",       1.10349,      -1.09253,   155.104E-03,   17.2524E-03
C:/temp/dataset/6/1_8.odb,Step-1,Increment      1: Step Time =    1.000,"PART-1-1",           119,       7.74921,       3.07964,            0.,NA,NA,"",       1.11276,      -1.09872,   176.213E-03,   2.40922E-03
C:/temp/dataset/6/1_8.odb,Step-1,Increment      1: Step Time =    1.000,"PART-1-1",           120,      -2.47342,      -22.6017,            0.,NA,NA,"",   55.7805E-03,  -55.7495E-03,   1.85838E-03,   7.68388E-03
C:/temp/dataset/6/1_8.odb,Step-1,Increment      1: Step Time =    1.000,"PART-1-1",           121,      -7.48266,       20.3798,            0.,NA,NA,"",       4.44525,      -4.44475,  -66.5311E-03,   13.7060E-03
C:/temp/dataset/6/1_8.odb,Step-1,Increment      1: Step Time =    1.000,"PART-1-1",           122,      -7.10993,       13.1351,            0.,NA,NA,"",       2.81641,      -2.81507,   87.0670E-03,   25.8950E-03
C:/temp/dataset/6/1_8.odb,Step-1,Increment      1: Step Time =    1.000,"PART-1-1",           123,      -6.64156,       6.82435,            0.,NA,NA,"",       1.67387,      -1.67171,   85.0226E-03,   52.3057E-03
C:/temp/dataset/6/1_8.odb,Step-1,Increment      1: Step Time =    1.000,"PART-1-1",           124,      -12.9641,      -2.37512,            0.,NA,NA,"",   994.271E-03,  -881.096E-03,  -460.700E-03,   22.4591E-03
C:/temp/dataset/6/1_8.odb,Step-1,Increment      1: Step Time =    1.000,"PART-1-1",           125,      -12.1317,      -9.84573,            0.,NA,NA,"",   564.422E-03,  -482.598E-03,  -292.696E-03,   15.4492E-03
C:/temp/dataset/6/1_8.odb,Step-1,Increment      1: Step Time =    1.000,"PART-1-1",           126,       4.04132,      -2.67712,            0.,NA,NA,"",   982.046E-03,  -972.573E-03,   136.077E-03,   23.7261E-03
C:/temp/dataset/6/1_8.odb,Step-1,Increment      1: Step Time =    1.000,"PART-1-1",           127,       6.95362,      -12.5367,            0.,NA,NA,"",   531.444E-03,  -530.026E-03,   38.7952E-03,   11.3712E-03
C:/temp/dataset/6/1_8.odb,Step-1,Increment      1: Step Time =    1.000,"PART-1-1",           128,       6.92458,      -14.9216,            0.,NA,NA,"",   402.739E-03,  -401.870E-03,   26.4512E-03,   8.76575E-03
C:/temp/dataset/6/1_8.odb,Step-1,Increment      1: Step Time =    1.000,"PART-1-1",           129,       12.9089,      -21.3671,            0.,NA,NA,"",   219.520E-03,  -153.750E-03,   156.684E-03,   20.2210E-03
C:/temp/dataset/6/1_8.odb,Step-1,Increment      1: Step Time =    1.000,"PART-1-1",           130,   283.131E-03,      -22.8786,            0.,NA,NA,"",   60.5293E-03,  -60.3295E-03,  -4.91302E-03,   8.36665E-03
C:/temp/dataset/6/1_8.odb,Step-1,Increment      1: Step Time =    1.000,"PART-1-1",           131,      -12.9776,      -22.4214,            0.,NA,NA,"",   141.566E-03,  -78.3619E-03,  -117.900E-03,   18.3744E-03
C:/temp/dataset/6/1_8.odb,Step-1,Increment      1: Step Time =    1.000,"PART-1-1",           132,      -7.42030,      -15.1083,            0.,NA,NA,"",   242.839E-03,  -238.078E-03,  -47.8506E-03,   2.15856E-03
C:/temp/dataset/6/1_8.odb,Step-1,Increment      1: Step Time =    1.000,"PART-1-1",           133,      -7.18486,      -10.2642,            0.,NA,NA,"",   451.708E-03,  -448.783E-03,  -51.3205E-03,   2.75135E-03
C:/temp/dataset/6/1_8.odb,Step-1,Increment      1: Step Time =    1.000,"PART-1-1",           134,      -7.33974,      -5.93881,            0.,NA,NA,"",   700.145E-03,  -696.261E-03,  -73.6436E-03,   8.49247E-03
C:/temp/dataset/6/1_8.odb,Step-1,Increment      1: Step Time =    1.000,"PART-1-1",           135,  -533.729E-03,      -2.94296,            0.,NA,NA,"",   970.608E-03,  -956.611E-03,   164.240E-03,   16.9303E-03
C:/temp/dataset/6/1_8.odb,Step-1,Increment      1: Step Time =    1.000,"PART-1-1",           136,       10.2172,      -28.0250,            0.,NA,NA,"",   18.7650E-03,  -8.25016E-03,   16.8541E-03,   11.0036E-03
C:/temp/dataset/6/1_8.odb,Step-1,Increment      1: Step Time =    1.000,"PART-1-1",           137,       7.82196,      -28.0777,            0.,NA,NA,"",   8.51776E-03,  -5.61103E-03,   6.40847E-03,   4.53783E-03
C:/temp/dataset/6/1_8.odb,Step-1,Increment      1: Step Time =    1.000,"PART-1-1",           138,       5.43540,      -28.0544,            0.,NA,NA,"",   7.87671E-03,  -7.87385E-03,  -212.237E-06,   3.50416E-03
C:/temp/dataset/6/1_8.odb,Step-1,Increment      1: Step Time =    1.000,"PART-1-1",           139,       2.98405,      -27.8165,            0.,NA,NA,"",   13.7088E-03,  -13.2932E-03,  -3.34974E-03,   5.41177E-03
C:/temp/dataset/6/1_8.odb,Step-1,Increment      1: Step Time =    1.000,"PART-1-1",           140,   324.250E-03,      -27.0908,            0.,NA,NA,"",   21.1286E-03,  -20.8260E-03,  -3.56288E-03,   6.22292E-03
C:/temp/dataset/6/1_8.odb,Step-1,Increment      1: Step Time =    1.000,"PART-1-1",           141,      -2.46293,      -27.5198,            0.,NA,NA,"",   14.8799E-03,  -14.7764E-03,  -1.75177E-03,   5.08314E-03
C:/temp/dataset/6/1_8.odb,Step-1,Increment      1: Step Time =    1.000,"PART-1-1",           142,      -4.88996,      -27.5861,            0.,NA,NA,"",   10.5948E-03,  -10.0849E-03,  -3.24705E-03,   4.13803E-03
C:/temp/dataset/6/1_8.odb,Step-1,Increment      1: Step Time =    1.000,"PART-1-1",           143,      -7.26500,      -27.4866,            0.,NA,NA,"",   11.4951E-03,  -7.33856E-03,  -8.84772E-03,   4.88585E-03
C:/temp/dataset/6/1_8.odb,Step-1,Increment      1: Step Time =    1.000,"PART-1-1",           144,      -9.86695,      -26.8928,            0.,NA,NA,"",   26.8294E-03,  -12.5193E-03,  -23.7294E-03,   9.72450E-03
C:/temp/dataset/6/1_8.odb,Step-1,Increment      1: Step Time =    1.000,"PART-1-1",           145,       12.7710,      -23.5898,            0.,NA,NA,"",   147.051E-03,  -93.5343E-03,   113.469E-03,   20.4207E-03
C:/temp/dataset/6/1_8.odb,Step-1,Increment      1: Step Time =    1.000,"PART-1-1",           146,       12.6989,      -25.7990,            0.,NA,NA,"",   87.7680E-03,  -50.9002E-03,   71.5010E-03,   20.9784E-03
C:/temp/dataset/6/1_8.odb,Step-1,Increment      1: Step Time =    1.000,"PART-1-1",           147,       12.6207,      -27.9366,            0.,NA,NA,"",   39.2910E-03,  -21.0413E-03,   33.1821E-03,   20.8427E-03
C:/temp/dataset/6/1_8.odb,Step-1,Increment      1: Step Time =    1.000,"PART-1-1",           148,       12.9983,      -14.8223,            0.,NA,NA,"",   505.027E-03,  -436.794E-03,   253.501E-03,   14.5572E-03
C:/temp/dataset/6/1_8.odb,Step-1,Increment      1: Step Time =    1.000,"PART-1-1",           149,       13.0558,      -17.0719,            0.,NA,NA,"",   397.994E-03,  -325.133E-03,   229.538E-03,   17.2491E-03
C:/temp/dataset/6/1_8.odb,Step-1,Increment      1: Step Time =    1.000,"PART-1-1",           150,       13.1682,      -19.2108,            0.,NA,NA,"",   307.780E-03,  -232.661E-03,   201.488E-03,   19.6169E-03
C:/temp/dataset/6/1_8.odb,Step-1,Increment      1: Step Time =    1.000,"PART-1-1",           151,       13.0670,      -5.94273,            0.,NA,NA,"",   923.547E-03,  -876.873E-03,   289.883E-03,   3.40316E-03
C:/temp/dataset/6/1_8.odb,Step-1,Increment      1: Step Time =    1.000,"PART-1-1",           152,       13.0350,      -8.09399,            0.,NA,NA,"",   836.133E-03,  -784.420E-03,   289.489E-03,   6.26169E-03
C:/temp/dataset/6/1_8.odb,Step-1,Increment      1: Step Time =    1.000,"PART-1-1",           153,       12.9982,      -10.2981,            0.,NA,NA,"",   732.756E-03,  -675.703E-03,   283.472E-03,   9.06611E-03
C:/temp/dataset/6/1_8.odb,Step-1,Increment      1: Step Time =    1.000,"PART-1-1",           154,       12.5107,   556.281E-03,            0.,NA,NA,"",       1.09065,      -1.05786,   265.424E-03,   3.06648E-03
C:/temp/dataset/6/1_8.odb,Step-1,Increment      1: Step Time =    1.000,"PART-1-1",           155,       12.7702,      -1.64554,            0.,NA,NA,"",       1.04695,      -1.01045,   274.031E-03,   2.19988E-03
C:/temp/dataset/6/1_8.odb,Step-1,Increment      1: Step Time =    1.000,"PART-1-1",           156,       10.0517,       2.85834,            0.,NA,NA,"",       1.11877,      -1.09828,   213.145E-03,   2.06848E-03
C:/temp/dataset/6/1_8.odb,Step-1,Increment      1: Step Time =    1.000,"PART-1-1",           157,       5.39286,       2.85476,            0.,NA,NA,"",       1.10610,      -1.09502,   156.133E-03,   8.10178E-03
C:/temp/dataset/6/1_8.odb,Step-1,Increment      1: Step Time =    1.000,"PART-1-1",           158,   175.602E-03,       2.90951,            0.,NA,NA,"",       1.14410,      -1.13311,   158.156E-03,   22.6732E-03
C:/temp/dataset/6/1_8.odb,Step-1,Increment      1: Step Time =    1.000,"PART-1-1",           159,      -4.35394,       2.91920,            0.,NA,NA,"",       1.21395,      -1.20578,   140.671E-03,   33.7798E-03
C:/temp/dataset/6/1_8.odb,Step-1,Increment      1: Step Time =    1.000,"PART-1-1",           160,      -7.05997,       10.9599,            0.,NA,NA,"",       2.38724,      -2.38568,   86.2958E-03,   30.0712E-03
C:/temp/dataset/6/1_8.odb,Step-1,Increment      1: Step Time =    1.000,"PART-1-1",           161,      -6.93805,       8.84105,            0.,NA,NA,"",       2.00372,      -2.00213,   79.8592E-03,   36.6542E-03
C:/temp/dataset/6/1_8.odb,Step-1,Increment      1: Step Time =    1.000,"PART-1-1",           162,      -7.28921,       17.6445,            0.,NA,NA,"",       3.80061,      -3.80054,   22.7669E-03,   17.7048E-03
C:/temp/dataset/6/1_8.odb,Step-1,Increment      1: Step Time =    1.000,"PART-1-1",           163,      -7.17735,       15.3234,            0.,NA,NA,"",       3.27991,      -3.27920,   68.4607E-03,   21.8081E-03
C:/temp/dataset/6/1_8.odb,Step-1,Increment      1: Step Time =    1.000,"PART-1-1",           164,      -6.93557,       23.5874,            0.,NA,NA,"",       5.25879,      -5.25877,  -15.1298E-03,   13.5357E-03
C:/temp/dataset/6/1_8.odb,Step-1,Increment      1: Step Time =    1.000,"PART-1-1",           165,      -13.1925,       19.7530,            0.,NA,NA,"",       4.35913,      -4.15497,      -1.31842,   15.8397E-03
C:/temp/dataset/6/1_8.odb,Step-1,Increment      1: Step Time =    1.000,"PART-1-1",           166,      -7.44963,       27.8335,            0.,NA,NA,"",       6.30613,      -6.30131,  -246.612E-03,   7.89663E-03
C:/temp/dataset/6/1_8.odb,Step-1,Increment      1: Step Time =    1.000,"PART-1-1",           167,      -13.0424,       22.0734,            0.,NA,NA,"",       4.90961,      -4.71322,      -1.37471,   12.0941E-03
C:/temp/dataset/6/1_8.odb,Step-1,Increment      1: Step Time =    1.000,"PART-1-1",           168,      -13.1316,       14.9813,            0.,NA,NA,"",       3.27927,      -3.08716,      -1.10591,   23.7014E-03
C:/temp/dataset/6/1_8.odb,Step-1,Increment      1: Step Time =    1.000,"PART-1-1",           169,      -13.1727,       17.3972,            0.,NA,NA,"",       3.81241,      -3.61299,      -1.21688,   19.7557E-03
C:/temp/dataset/6/1_8.odb,Step-1,Increment      1: Step Time =    1.000,"PART-1-1",           170,      -12.8574,       7.53984,            0.,NA,NA,"",       1.90070,      -1.74672,  -749.422E-03,   31.9505E-03
C:/temp/dataset/6/1_8.odb,Step-1,Increment      1: Step Time =    1.000,"PART-1-1",           171,      -13.0166,       10.0884,            0.,NA,NA,"",       2.31974,      -2.14756,  -877.033E-03,   30.7400E-03
C:/temp/dataset/6/1_8.odb,Step-1,Increment      1: Step Time =    1.000,"PART-1-1",           172,      -12.8045,  -118.323E-03,            0.,NA,NA,"",       1.12525,      -1.00975,  -496.581E-03,   27.3983E-03
C:/temp/dataset/6/1_8.odb,Step-1,Increment      1: Step Time =    1.000,"PART-1-1",           173,      -12.7039,       2.28772,            0.,NA,NA,"",       1.29622,      -1.17402,  -549.401E-03,   30.8336E-03
C:/temp/dataset/6/1_8.odb,Step-1,Increment      1: Step Time =    1.000,"PART-1-1",           174,      -12.8488,      -7.31355,            0.,NA,NA,"",   718.056E-03,  -616.133E-03,  -368.760E-03,   16.6988E-03
C:/temp/dataset/6/1_8.odb,Step-1,Increment      1: Step Time =    1.000,"PART-1-1",           175,      -12.6051,      -4.81291,            0.,NA,NA,"",   845.766E-03,  -748.003E-03,  -394.730E-03,   16.8814E-03
C:/temp/dataset/6/1_8.odb,Step-1,Increment      1: Step Time =    1.000,"PART-1-1",           176,      -12.4260,      -15.0682,            0.,NA,NA,"",   342.760E-03,  -259.117E-03,  -224.372E-03,   16.9649E-03
C:/temp/dataset/6/1_8.odb,Step-1,Increment      1: Step Time =    1.000,"PART-1-1",           177,      -12.3344,      -12.5112,            0.,NA,NA,"",   444.877E-03,  -360.200E-03,  -261.095E-03,   16.3867E-03
C:/temp/dataset/6/1_8.odb,Step-1,Increment      1: Step Time =    1.000,"PART-1-1",           178,      -12.6598,      -20.1148,            0.,NA,NA,"",   189.561E-03,  -116.730E-03,  -149.357E-03,   17.9680E-03
C:/temp/dataset/6/1_8.odb,Step-1,Increment      1: Step Time =    1.000,"PART-1-1",           179,      -8.70618,       22.9331,            0.,NA,NA,"",       5.05496,      -5.03837,  -409.109E-03,   13.2695E-03
C:/temp/dataset/6/1_8.odb,Step-1,Increment      1: Step Time =    1.000,"PART-1-1",           180,      -9.21222,       15.1634,            0.,NA,NA,"",       3.20845,      -3.19106,  -333.658E-03,   14.2691E-03
C:/temp/dataset/6/1_8.odb,Step-1,Increment      1: Step Time =    1.000,"PART-1-1",           181,      -9.55138,       19.8926,            0.,NA,NA,"",       4.30052,      -4.26960,  -514.772E-03,   13.4857E-03
C:/temp/dataset/6/1_8.odb,Step-1,Increment      1: Step Time =    1.000,"PART-1-1",           182,      -8.92203,       8.32966,            0.,NA,NA,"",       1.88963,      -1.87783,  -210.900E-03,   17.3640E-03
C:/temp/dataset/6/1_8.odb,Step-1,Increment      1: Step Time =    1.000,"PART-1-1",           183,      -9.17670,       12.8809,            0.,NA,NA,"",       2.72777,      -2.71223,  -290.797E-03,   15.0943E-03
C:/temp/dataset/6/1_8.odb,Step-1,Increment      1: Step Time =    1.000,"PART-1-1",           184,      -9.09923,       10.6117,            0.,NA,NA,"",       2.28830,      -2.27433,  -252.475E-03,   16.2394E-03
C:/temp/dataset/6/1_8.odb,Step-1,Increment      1: Step Time =    1.000,"PART-1-1",           185,      -9.30530,       17.5014,            0.,NA,NA,"",       3.73434,      -3.71275,  -400.990E-03,   13.5944E-03
C:/temp/dataset/6/1_8.odb,Step-1,Increment      1: Step Time =    1.000,"PART-1-1",           186,      -8.37864,       6.17865,            0.,NA,NA,"",       1.55966,      -1.55406,  -132.049E-03,   18.3980E-03
C:/temp/dataset/6/1_8.odb,Step-1,Increment      1: Step Time =    1.000,"PART-1-1",           187,       10.9988,      -10.2527,            0.,NA,NA,"",   702.995E-03,  -671.579E-03,   207.806E-03,   13.1584E-03
C:/temp/dataset/6/1_8.odb,Step-1,Increment      1: Step Time =    1.000,"PART-1-1",           188,       10.8643,      -17.5211,            0.,NA,NA,"",   323.956E-03,  -287.312E-03,   149.664E-03,   15.9716E-03
C:/temp/dataset/6/1_8.odb,Step-1,Increment      1: Step Time =    1.000,"PART-1-1",           189,       11.0508,      -8.01555,            0.,NA,NA,"",   815.224E-03,  -785.162E-03,   219.340E-03,   10.6748E-03
C:/temp/dataset/6/1_8.odb,Step-1,Increment      1: Step Time =    1.000,"PART-1-1",           190,       10.6332,      -2.00908,            0.,NA,NA,"",       1.02566,      -1.00207,   218.703E-03,   2.69897E-03
C:/temp/dataset/6/1_8.odb,Step-1,Increment      1: Step Time =    1.000,"PART-1-1",           191,       11.1668,      -5.92645,            0.,NA,NA,"",   906.838E-03,  -877.662E-03,   228.177E-03,   6.71266E-03
C:/temp/dataset/6/1_8.odb,Step-1,Increment      1: Step Time =    1.000,"PART-1-1",           192,       10.9732,      -14.9280,            0.,NA,NA,"",   454.885E-03,  -419.245E-03,   176.505E-03,   15.1115E-03
C:/temp/dataset/6/1_8.odb,Step-1,Increment      1: Step Time =    1.000,"PART-1-1",           193,       10.5476,      -23.6927,            0.,NA,NA,"",   99.7766E-03,  -72.9194E-03,   68.1039E-03,   13.8456E-03
C:/temp/dataset/6/1_8.odb,Step-1,Increment      1: Step Time =    1.000,"PART-1-1",           194,       10.5707,      -21.1850,            0.,NA,NA,"",   170.112E-03,  -138.113E-03,   99.3128E-03,   15.3015E-03
C:/temp/dataset/6/1_8.odb,Step-1,Increment      1: Step Time =    1.000,"PART-1-1",           195,       10.9760,      -12.5622,            0.,NA,NA,"",   580.247E-03,  -547.026E-03,   193.518E-03,   14.3066E-03
C:/temp/dataset/6/1_8.odb,Step-1,Increment      1: Step Time =    1.000,"PART-1-1",           196,       11.6229,      -19.2502,            0.,NA,NA,"",   265.682E-03,  -217.266E-03,   152.913E-03,   17.0745E-03
C:/temp/dataset/6/1_8.odb,Step-1,Increment      1: Step Time =    1.000,"PART-1-1",           197,       11.1609,      -3.97100,            0.,NA,NA,"",   975.043E-03,  -947.455E-03,   230.300E-03,   3.23927E-03
C:/temp/dataset/6/1_8.odb,Step-1,Increment      1: Step Time =    1.000,"PART-1-1",           198,      -9.55101,       25.2781,            0.,NA,NA,"",       5.63802,      -5.59787,  -671.594E-03,   11.0584E-03
C:/temp/dataset/6/1_8.odb,Step-1,Increment      1: Step Time =    1.000,"PART-1-1",           199,      -6.13353,       2.97524,            0.,NA,NA,"",       1.21432,      -1.21221,   71.6191E-03,   26.3168E-03
C:/temp/dataset/6/1_8.odb,Step-1,Increment      1: Step Time =    1.000,"PART-1-1",           200,       8.52809,      -18.5145,            0.,NA,NA,"",   235.616E-03,  -224.664E-03,   71.0001E-03,   13.7896E-03
C:/temp/dataset/6/1_8.odb,Step-1,Increment      1: Step Time =    1.000,"PART-1-1",           201,      -9.31256,      -6.57829,            0.,NA,NA,"",   675.069E-03,  -649.932E-03,  -182.500E-03,   6.42735E-03
C:/temp/dataset/6/1_8.odb,Step-1,Increment      1: Step Time =    1.000,"PART-1-1",           202,      -7.82061,      -4.24854,            0.,NA,NA,"",   802.774E-03,  -796.592E-03,  -99.4363E-03,   13.7451E-03
C:/temp/dataset/6/1_8.odb,Step-1,Increment      1: Step Time =    1.000,"PART-1-1",           203,       7.55002,      -20.4955,            0.,NA,NA,"",   139.251E-03,  -135.430E-03,   32.3939E-03,   13.1761E-03
C:/temp/dataset/6/1_8.odb,Step-1,Increment      1: Step Time =    1.000,"PART-1-1",           204,      -9.18944,      -8.43706,            0.,NA,NA,"",   569.597E-03,  -545.891E-03,  -162.618E-03,   7.50268E-03
C:/temp/dataset/6/1_8.odb,Step-1,Increment      1: Step Time =    1.000,"PART-1-1",           205,      -12.3720,       27.4312,            0.,NA,NA,"",       6.20423,      -6.04434,      -1.39945,   4.82147E-03
C:/temp/dataset/6/1_8.odb,Step-1,Increment      1: Step Time =    1.000,"PART-1-1",           206,      -10.3791,       22.2070,            0.,NA,NA,"",       4.87276,      -4.81171,  -768.925E-03,   13.0909E-03
C:/temp/dataset/6/1_8.odb,Step-1,Increment      1: Step Time =    1.000,"PART-1-1",           207,       3.40286,  -884.176E-03,            0.,NA,NA,"",       1.02557,      -1.01453,   150.080E-03,   21.6960E-03
C:/temp/dataset/6/1_8.odb,Step-1,Increment      1: Step Time =    1.000,"PART-1-1",           208,       7.88020,       1.44192,            0.,NA,NA,"",       1.08502,      -1.07079,   175.149E-03,   4.43336E-03
C:/temp/dataset/6/1_8.odb,Step-1,Increment      1: Step Time =    1.000,"PART-1-1",           209,      -1.17287,  -897.893E-03,            0.,NA,NA,"",       1.03292,      -1.01939,   166.649E-03,   20.8030E-03
C:/temp/dataset/6/1_8.odb,Step-1,Increment      1: Step Time =    1.000,"PART-1-1",           210,       10.4014,      -25.9274,            0.,NA,NA,"",   51.6692E-03,  -32.9097E-03,   39.8328E-03,   12.4773E-03
C:/temp/dataset/6/1_8.odb,Step-1,Increment      1: Step Time =    1.000,"PART-1-1",           211,       2.00108,      -24.8239,            0.,NA,NA,"",   43.9997E-03,  -43.0186E-03,  -9.23966E-03,   8.82450E-03
C:/temp/dataset/6/1_8.odb,Step-1,Increment      1: Step Time =    1.000,"PART-1-1",           212,      -4.80900,      -25.1606,            0.,NA,NA,"",   28.2400E-03,  -28.0613E-03,  -3.17191E-03,   4.60751E-03
C:/temp/dataset/6/1_8.odb,Step-1,Increment      1: Step Time =    1.000,"PART-1-1",           213,      -11.5765,       21.3848,            0.,NA,NA,"",       4.69148,      -4.58076,      -1.01322,   13.1990E-03
C:/temp/dataset/6/1_8.odb,Step-1,Increment      1: Step Time =    1.000,"PART-1-1",           214,      -11.0630,       10.3038,            0.,NA,NA,"",       2.26522,      -2.19357,  -565.212E-03,   15.9485E-03
C:/temp/dataset/6/1_8.odb,Step-1,Increment      1: Step Time =    1.000,"PART-1-1",           215,      -10.2832,  -591.021E-03,            0.,NA,NA,"",       1.01473,  -976.177E-03,  -277.065E-03,   18.8302E-03
C:/temp/dataset/6/1_8.odb,Step-1,Increment      1: Step Time =    1.000,"PART-1-1",           216,      -11.1869,      -5.64306,            0.,NA,NA,"",   760.633E-03,  -699.868E-03,  -297.905E-03,   11.2192E-03
C:/temp/dataset/6/1_8.odb,Step-1,Increment      1: Step Time =    1.000,"PART-1-1",           217,      -9.48237,      -10.3825,            0.,NA,NA,"",   473.663E-03,  -445.598E-03,  -160.621E-03,   8.68891E-03
C:/temp/dataset/6/1_8.odb,Step-1,Increment      1: Step Time =    1.000,"PART-1-1",           218,      -10.0191,      -20.7277,            0.,NA,NA,"",   120.316E-03,  -87.0391E-03,  -83.0674E-03,   11.1488E-03
C:/temp/dataset/6/1_8.odb,Step-1,Increment      1: Step Time =    1.000,"PART-1-1",           219,      -12.8377,      -24.8331,            0.,NA,NA,"",   89.6487E-03,  -46.6938E-03,  -76.5283E-03,   18.0005E-03
C:/temp/dataset/6/1_8.odb,Step-1,Increment      1: Step Time =    1.000,"PART-1-1",           220,  -752.185E-03,      -25.0561,            0.,NA,NA,"",   38.3217E-03,  -38.2085E-03,  -2.94271E-03,   7.60789E-03
C:/temp/dataset/6/1_8.odb,Step-1,Increment      1: Step Time =    1.000,"PART-1-1",           221,      -11.3411,      -22.5061,            0.,NA,NA,"",   109.582E-03,  -65.3566E-03,  -87.9581E-03,   14.3128E-03
C:/temp/dataset/6/1_8.odb,Step-1,Increment      1: Step Time =    1.000,"PART-1-1",           222,       5.90860,      -26.1342,            0.,NA,NA,"",   23.7163E-03,  -23.7160E-03,   110.036E-06,   3.98819E-03
C:/temp/dataset/6/1_8.odb,Step-1,Increment      1: Step Time =    1.000,"PART-1-1",           223,       3.81352,      -25.8758,            0.,NA,NA,"",   30.5835E-03,  -29.7579E-03,  -7.05808E-03,   6.90443E-03
C:/temp/dataset/6/1_8.odb,Step-1,Increment      1: Step Time =    1.000,"PART-1-1",           224,      -6.87266,      -25.1947,            0.,NA,NA,"",   27.2041E-03,  -23.8590E-03,  -13.0696E-03,   3.67301E-03
C:/temp/dataset/6/1_8.odb,Step-1,Increment      1: Step Time =    1.000,"PART-1-1",           225,       9.77381,   336.875E-03,            0.,NA,NA,"",       1.07185,      -1.05222,   204.209E-03,   2.75411E-03
C:/temp/dataset/6/1_8.odb,Step-1,Increment      1: Step Time =    1.000,"PART-1-1",           226,       4.59800,   29.7464E-03,            0.,NA,NA,"",       1.04886,      -1.03824,   148.844E-03,   17.5856E-03
C:/temp/dataset/6/1_8.odb,Step-1,Increment      1: Step Time =    1.000,"PART-1-1",           227,      -11.1551,       12.6912,            0.,NA,NA,"",       2.71901,      -2.64161,  -644.170E-03,   15.6857E-03
C:/temp/dataset/6/1_8.odb,Step-1,Increment      1: Step Time =    1.000,"PART-1-1",           228,      -11.2689,       17.3859,            0.,NA,NA,"",       3.73257,      -3.64369,  -809.705E-03,   14.6495E-03
C:/temp/dataset/6/1_8.odb,Step-1,Increment      1: Step Time =    1.000,"PART-1-1",           229,      -11.2102,       15.0558,            0.,NA,NA,"",       3.21172,      -3.12908,  -723.873E-03,   15.2055E-03
C:/temp/dataset/6/1_8.odb,Step-1,Increment      1: Step Time =    1.000,"PART-1-1",           230,      -10.8139,       7.79620,            0.,NA,NA,"",       1.84289,      -1.78210,  -469.405E-03,   15.1350E-03
C:/temp/dataset/6/1_8.odb,Step-1,Increment      1: Step Time =    1.000,"PART-1-1",           231,      -10.1648,       4.85487,            0.,NA,NA,"",       1.43386,      -1.39541,  -329.825E-03,   14.6130E-03
C:/temp/dataset/6/1_8.odb,Step-1,Increment      1: Step Time =    1.000,"PART-1-1",           232,      -10.4473,       2.01195,            0.,NA,NA,"",       1.18505,      -1.14155,  -318.143E-03,   20.9247E-03
C:/temp/dataset/6/1_8.odb,Step-1,Increment      1: Step Time =    1.000,"PART-1-1",           233,      -10.4810,      -3.59789,            0.,NA,NA,"",   856.040E-03,  -811.840E-03,  -271.515E-03,   11.6271E-03
C:/temp/dataset/6/1_8.odb,Step-1,Increment      1: Step Time =    1.000,"PART-1-1",           234,      -9.89141,      -15.1395,            0.,NA,NA,"",   277.073E-03,  -242.309E-03,  -134.373E-03,   9.75835E-03
C:/temp/dataset/6/1_8.odb,Step-1,Increment      1: Step Time =    1.000,"PART-1-1",           235,      -9.95744,      -17.7636,            0.,NA,NA,"",   192.217E-03,  -156.649E-03,  -111.394E-03,   10.7360E-03
C:/temp/dataset/6/1_8.odb,Step-1,Increment      1: Step Time =    1.000,"PART-1-1",           236,      -3.63694,      -1.16253,            0.,NA,NA,"",       1.00937,      -1.00107,   129.199E-03,   13.4247E-03
C:/temp/dataset/6/1_8.odb,Step-1,Increment      1: Step Time =    1.000,"PART-1-1",           237,      -7.00580,      -22.7773,            0.,NA,NA,"",   51.3224E-03,  -47.6298E-03,  -19.1151E-03,   2.36201E-03
C:/temp/dataset/6/1_8.odb,Step-1,Increment      1: Step Time =    1.000,"PART-1-1",           238,       7.08723,      -4.67483,            0.,NA,NA,"",   936.176E-03,  -928.028E-03,   123.243E-03,   12.8494E-03
C:/temp/dataset/6/1_8.odb,Step-1,Increment      1: Step Time =    1.000,"PART-1-1",           239,       8.96532,      -10.1697,            0.,NA,NA,"",   682.247E-03,  -668.609E-03,   135.733E-03,   14.6538E-03
C:/temp/dataset/6/1_8.odb,Step-1,Increment      1: Step Time =    1.000,"PART-1-1",           240,       8.99874,      -7.82238,            0.,NA,NA,"",   806.256E-03,  -791.427E-03,   153.920E-03,   14.9045E-03
C:/temp/dataset/6/1_8.odb,Step-1,Increment      1: Step Time =    1.000,"PART-1-1",           241,       8.96760,      -14.8663,            0.,NA,NA,"",   425.723E-03,  -412.439E-03,   105.520E-03,   13.4695E-03
C:/temp/dataset/6/1_8.odb,Step-1,Increment      1: Step Time =    1.000,"PART-1-1",           242,      -12.0836,       24.5335,            0.,NA,NA,"",       5.48195,      -5.34025,      -1.23833,   9.90136E-03
C:/temp/dataset/6/1_8.odb,Step-1,Increment      1: Step Time =    1.000,"PART-1-1",           243,       9.21542,      -5.66363,            0.,NA,NA,"",   905.636E-03,  -889.239E-03,   171.556E-03,   10.4401E-03
C:/temp/dataset/6/1_8.odb,Step-1,Increment      1: Step Time =    1.000,"PART-1-1",           244,       8.72776,      -2.97127,            0.,NA,NA,"",   992.128E-03,  -977.434E-03,   170.118E-03,   6.83887E-03
C:/temp/dataset/6/1_8.odb,Step-1,Increment      1: Step Time =    1.000,"PART-1-1",           245,       9.39471,      -19.4524,            0.,NA,NA,"",   209.561E-03,  -190.349E-03,   87.6539E-03,   14.7481E-03
C:/temp/dataset/6/1_8.odb,Step-1,Increment      1: Step Time =    1.000,"PART-1-1",           246,       8.06548,      -22.0810,            0.,NA,NA,"",   99.3331E-03,  -93.3545E-03,   33.9413E-03,   8.21146E-03
C:/temp/dataset/6/1_8.odb,Step-1,Increment      1: Step Time =    1.000,"PART-1-1",           247,      -7.53738,       4.79758,            0.,NA,NA,"",       1.37954,      -1.37904,  -37.2263E-03,   20.2648E-03
C:/temp/dataset/6/1_8.odb,Step-1,Increment      1: Step Time =    1.000,"PART-1-1",           248,      -10.8025,      -24.3532,            0.,NA,NA,"",   69.4453E-03,  -39.0114E-03,  -57.4523E-03,   12.5189E-03
C:/temp/dataset/6/1_8.odb,Step-1,Increment      1: Step Time =    1.000,"PART-1-1",           249,       5.82981,      -2.08643,            0.,NA,NA,"",       1.00043,  -991.308E-03,   134.768E-03,   17.9874E-03
C:/temp/dataset/6/1_8.odb,Step-1,Increment      1: Step Time =    1.000,"PART-1-1",           250,      -8.67175,      -2.53401,            0.,NA,NA,"",   893.443E-03,  -880.855E-03,  -149.447E-03,   14.9446E-03
C:/temp/dataset/6/1_8.odb,Step-1,Increment      1: Step Time =    1.000,"PART-1-1",           251,       5.78686,      -22.7214,            0.,NA,NA,"",   71.9106E-03,  -71.7245E-03,  -5.16948E-03,   5.19114E-03
C:/temp/dataset/6/1_8.odb,Step-1,Increment      1: Step Time =    1.000,"PART-1-1",           252,      -8.27594,       1.60152,            0.,NA,NA,"",       1.11986,      -1.11434,  -111.018E-03,   17.4031E-03
C:/temp/dataset/6/1_8.odb,Step-1,Increment      1: Step Time =    1.000,"PART-1-1",           253,       8.25490,      -24.0061,            0.,NA,NA,"",   60.8733E-03,  -54.6522E-03,   26.8086E-03,   5.95234E-03
C:/temp/dataset/6/1_8.odb,Step-1,Increment      1: Step Time =    1.000,"PART-1-1",           254,      -9.04303,      -23.2600,            0.,NA,NA,"",   62.6856E-03,  -44.7541E-03,  -43.8926E-03,   8.04493E-03
C:/temp/dataset/6/1_8.odb,Step-1,Increment      1: Step Time =    1.000,"PART-1-1",           255,       7.61656,      -1.09448,            0.,NA,NA,"",       1.03228,      -1.01977,   160.196E-03,   8.48173E-03
C:/temp/dataset/6/1_8.odb,Step-1,Increment      1: Step Time =    1.000,"PART-1-1",           256,      -4.02262,   861.151E-03,            0.,NA,NA,"",       1.10327,      -1.09534,   132.065E-03,   19.0300E-03
C:/temp/dataset/6/1_8.odb,Step-1,Increment      1: Step Time =    1.000,"PART-1-1",           257,  -104.141E-03,       1.31276,            0.,NA,NA,"",       1.10510,      -1.09243,   166.801E-03,   23.2006E-03
C:/temp/dataset/6/1_8.odb,Step-1,Increment      1: Step Time =    1.000,"PART-1-1",           258,       3.72123,      -23.4419,            0.,NA,NA,"",   61.5171E-03,  -59.8877E-03,  -14.0646E-03,   10.1898E-03
C:/temp/dataset/6/1_8.odb,Step-1,Increment      1: Step Time =    1.000,"PART-1-1",           259,      -10.7950,      -8.39617,            0.,NA,NA,"",   602.939E-03,  -550.729E-03,  -245.424E-03,   11.4031E-03
C:/temp/dataset/6/1_8.odb,Step-1,Increment      1: Step Time =    1.000,"PART-1-1",           260,      -1.85786,       1.02916,            0.,NA,NA,"",       1.10911,      -1.09673,   165.227E-03,   25.6648E-03
C:/temp/dataset/6/1_8.odb,Step-1,Increment      1: Step Time =    1.000,"PART-1-1",           261,      -6.46179,      -1.33856,            0.,NA,NA,"",   966.559E-03,  -966.556E-03,   2.43293E-03,   14.8831E-03
C:/temp/dataset/6/1_8.odb,Step-1,Increment      1: Step Time =    1.000,"PART-1-1",           262,      -11.1078,      -7.00587,            0.,NA,NA,"",   684.808E-03,  -625.813E-03,  -278.066E-03,   11.2949E-03
C:/temp/dataset/6/1_8.odb,Step-1,Increment      1: Step Time =    1.000,"PART-1-1",           263,      -5.52697,      -3.44125,            0.,NA,NA,"",   877.181E-03,  -876.247E-03,   40.4800E-03,   16.1893E-03
C:/temp/dataset/6/1_8.odb,Step-1,Increment      1: Step Time =    1.000,"PART-1-1",           264,      -9.72268,      -4.98378,            0.,NA,NA,"",   769.584E-03,  -739.006E-03,  -214.779E-03,   7.27424E-03
C:/temp/dataset/6/1_8.odb,Step-1,Increment      1: Step Time =    1.000,"PART-1-1",           265,      -6.27329,       4.89376,            0.,NA,NA,"",       1.38408,      -1.38120,   89.1340E-03,   36.8077E-03
C:/temp/dataset/6/1_8.odb,Step-1,Increment      1: Step Time =    1.000,"PART-1-1",           266,       12.4963,       2.80040,            0.,NA,NA,"",       1.13106,      -1.09978,   264.132E-03,   2.71411E-03
C:/temp/dataset/6/1_8.odb,Step-1,Increment      1: Step Time =    1.000,"PART-1-1",           267,      -7.37176,      -20.2559,            0.,NA,NA,"",   91.4340E-03,  -85.5350E-03,  -32.3099E-03,   5.60198E-03
C:/temp/dataset/6/1_8.odb,Step-1,Increment      1: Step Time =    1.000,"PART-1-1",           268,       2.88963,      -21.8777,            0.,NA,NA,"",   78.4887E-03,  -77.4510E-03,  -12.7205E-03,   14.3498E-03
C:/temp/dataset/6/1_8.odb,Step-1,Increment      1: Step Time =    1.000,"PART-1-1",           269,      -8.05085,       3.52655,            0.,NA,NA,"",       1.25924,      -1.25611,  -88.6175E-03,   16.0931E-03
C:/temp/dataset/6/1_8.odb,Step-1,Increment      1: Step Time =    1.000,"PART-1-1",           270,       8.95558,      -12.5395,            0.,NA,NA,"",   552.177E-03,  -539.238E-03,   118.835E-03,   14.0691E-03
C:/temp/dataset/6/1_8.odb,Step-1,Increment      1: Step Time =    1.000,"PART-1-1",           271,       1.35989,  -223.950E-03,            0.,NA,NA,"",       1.04945,      -1.03663,   163.595E-03,   23.9922E-03
C:/temp/dataset/6/1_8.odb,Step-1,Increment      1: Step Time =    1.000,"PART-1-1",           272,      -9.75004,      -12.6533,            0.,NA,NA,"",   373.506E-03,  -341.256E-03,  -151.826E-03,   9.37547E-03
C:/temp/dataset/6/1_8.odb,Step-1,Increment      1: Step Time =    1.000,"PART-1-1",           273,      -8.51206,      -25.1011,            0.,NA,NA,"",   36.1586E-03,  -24.7744E-03,  -26.3377E-03,   6.42004E-03
C:/temp/dataset/6/1_8.odb,Step-1,Increment      1: Step Time =    1.000,"PART-1-1",           274,      -6.19138,   998.181E-03,            0.,NA,NA,"",       1.09129,      -1.09053,   40.7787E-03,   15.9603E-03
C:/temp/dataset/6/1_8.odb,Step-1,Increment      1: Step Time =    1.000,"PART-1-1",           275,      -2.63339,      -25.0950,            0.,NA,NA,"",   33.9279E-03,  -33.9256E-03,  -396.286E-06,   6.99755E-03
C:/temp/dataset/6/1_8.odb,Step-1,Increment      1: Step Time =    1.000,"PART-1-1",           276,       8.11811,      -26.0558,            0.,NA,NA,"",   29.0158E-03,  -24.3983E-03,   15.7048E-03,   5.17189E-03
C:/temp/dataset/6/1_8.odb,Step-1,Increment      1: Step Time =    1.000,"PART-1-1",           277,       6.33403,   764.508E-03,            0.,NA,NA,"",       1.06740,      -1.05576,   157.187E-03,   10.1873E-03
C:/temp/dataset/6/1_8.odb,Step-1,Increment      1: Step Time =    1.000,"PART-1-1",           278,       8.84044,      -16.9880,            0.,NA,NA,"",   313.545E-03,  -300.524E-03,   89.4163E-03,   14.4424E-03
C:/temp/dataset/6/1_8.odb,Step-1,Increment      1: Step Time =    1.000,"PART-1-1",           279,      -11.3950,       19.6047,            0.,NA,NA,"",       4.25604,      -4.15735,  -911.212E-03,   14.0164E-03
C:/temp/dataset/6/1_8.odb,Step-1,Increment      1: Step Time =    1.000,"PART-1-1",           280,      -11.2464,      -2.22607,            0.,NA,NA,"",   946.722E-03,  -884.334E-03,  -337.990E-03,   17.3448E-03
C:/temp/dataset/6/1_8.odb,Step-1,Increment      1: Step Time =    1.000,"PART-1-1",           281,      -8.41776,  -32.7016E-03,            0.,NA,NA,"",       1.02422,      -1.01643,  -126.066E-03,   17.0902E-03
C:/temp/dataset/6/1_8.odb,Step-1,Increment      1: Step Time =    1.000,"PART-1-1",           282,       4.48255,      -24.5345,            0.,NA,NA,"",   45.6346E-03,  -44.6981E-03,  -9.19725E-03,   7.11998E-03
C:/temp/dataset/6/1_8.odb,Step-1,Increment      1: Step Time =    1.000,"PART-1-1",           283,       6.11275,      -24.3348,            0.,NA,NA,"",   46.0964E-03,  -46.0961E-03,   161.564E-06,   3.56180E-03
C:/temp/dataset/6/1_8.odb,Step-1,Increment      1: Step Time =    1.000,"PART-1-1",           284,       9.69767,      -4.20039,            0.,NA,NA,"",   959.639E-03,  -940.713E-03,   189.644E-03,   6.37838E-03
C:/temp/dataset/6/1_8.odb,Step-1,Increment      1: Step Time =    1.000,"PART-1-1",           285,       13.8851,      -1.60402,            0.,NA,NA,"",       1.05503,      -1.01051,   303.222E-03,   3.61256E-03
C:/temp/dataset/6/1_8.odb,Step-1,Increment      1: Step Time =    1.000,"PART-1-1",           286,           15.,   -468.75E-03,            0.,NA,NA,"",       1.08463,      -1.03460,   325.606E-03,   4.69472E-03
C:/temp/dataset/6/1_8.odb,Step-1,Increment      1: Step Time =    1.000,"PART-1-1",           287,       13.7553,   590.641E-03,            0.,NA,NA,"",       1.09827,      -1.05809,   294.358E-03,   2.64407E-03
C:/temp/dataset/6/1_8.odb,Step-1,Increment      1: Step Time =    1.000,"PART-1-1",           288,       12.6405,  -544.629E-03,            0.,NA,NA,"",       1.06985,      -1.03535,   269.492E-03,   2.57461E-03
C:/temp/dataset/6/1_8.odb,Step-1,Increment      1: Step Time =    1.000,"PART-1-1",           289,       6.57104,       2.96720,            0.,NA,NA,"",       1.10829,      -1.09614,   163.664E-03,   4.97399E-03
C:/temp/dataset/6/1_8.odb,Step-1,Increment      1: Step Time =    1.000,"PART-1-1",           290,       5.86345,       1.80964,            0.,NA,NA,"",       1.08786,      -1.07644,   157.226E-03,   9.01044E-03
C:/temp/dataset/6/1_8.odb,Step-1,Increment      1: Step Time =    1.000,"PART-1-1",           291,       7.10711,       1.10321,            0.,NA,NA,"",       1.07624,      -1.06353,   164.904E-03,   7.11797E-03
C:/temp/dataset/6/1_8.odb,Step-1,Increment      1: Step Time =    1.000,"PART-1-1",           292,       7.81470,       2.26078,            0.,NA,NA,"",       1.09944,      -1.08527,   175.968E-03,   3.40273E-03
C:/temp/dataset/6/1_8.odb,Step-1,Increment      1: Step Time =    1.000,"PART-1-1",           293,       6.97305,      -8.82061,            0.,NA,NA,"",   734.187E-03,  -730.449E-03,   73.9923E-03,   17.5139E-03
C:/temp/dataset/6/1_8.odb,Step-1,Increment      1: Step Time =    1.000,"PART-1-1",           294,       5.98985,      -7.53541,            0.,NA,NA,"",   793.941E-03,  -792.039E-03,   54.9196E-03,   21.4063E-03
C:/temp/dataset/6/1_8.odb,Step-1,Increment      1: Step Time =    1.000,"PART-1-1",           295,            5.,      -8.76875,            0.,NA,NA,"",   715.498E-03,  -715.372E-03,  -13.3987E-03,   19.2488E-03
C:/temp/dataset/6/1_8.odb,Step-1,Increment      1: Step Time =    1.000,"PART-1-1",           296,       5.98320,      -10.0539,            0.,NA,NA,"",   657.305E-03,  -657.079E-03,   17.2299E-03,   14.7051E-03
C:/temp/dataset/6/1_8.odb,Step-1,Increment      1: Step Time =    1.000,"PART-1-1",           297,       12.0429,      -8.05477,            0.,NA,NA,"",   824.751E-03,  -784.879E-03,   253.337E-03,   8.43407E-03
C:/temp/dataset/6/1_8.odb,Step-1,Increment      1: Step Time =    1.000,"PART-1-1",           298,       11.0248,      -9.13413,            0.,NA,NA,"",   760.717E-03,  -729.946E-03,   214.173E-03,   11.8882E-03
C:/temp/dataset/6/1_8.odb,Step-1,Increment      1: Step Time =    1.000,"PART-1-1",           299,       11.9985,      -10.2754,            0.,NA,NA,"",   716.764E-03,  -673.747E-03,   244.573E-03,   11.0846E-03
C:/temp/dataset/6/1_8.odb,Step-1,Increment      1: Step Time =    1.000,"PART-1-1",           300,       13.0166,      -9.19606,            0.,NA,NA,"",   785.784E-03,  -731.416E-03,   287.207E-03,   7.59394E-03
C:/temp/dataset/6/1_8.odb,Step-1,Increment      1: Step Time =    1.000,"PART-1-1",           301,       13.9992,      -14.7549,            0.,NA,NA,"",   536.228E-03,  -447.017E-03,   296.170E-03,   14.1810E-03
C:/temp/dataset/6/1_8.odb,Step-1,Increment      1: Step Time =    1.000,"PART-1-1",           302,       13.0271,      -15.9471,            0.,NA,NA,"",   450.463E-03,  -379.621E-03,   242.496E-03,   15.8518E-03
C:/temp/dataset/6/1_8.odb,Step-1,Increment      1: Step Time =    1.000,"PART-1-1",           303,       14.0279,      -16.9735,            0.,NA,NA,"",   431.627E-03,  -338.019E-03,   268.412E-03,   18.4764E-03
C:/temp/dataset/6/1_8.odb,Step-1,Increment      1: Step Time =    1.000,"PART-1-1",           304,           15.,      -15.7813,            0.,NA,NA,"",   520.726E-03,  -403.717E-03,   328.889E-03,   17.5644E-03
C:/temp/dataset/6/1_8.odb,Step-1,Increment      1: Step Time =    1.000,"PART-1-1",           305,       6.96949,      -18.0995,            0.,NA,NA,"",   236.950E-03,  -235.654E-03,   24.7545E-03,   11.2881E-03
C:/temp/dataset/6/1_8.odb,Step-1,Increment      1: Step Time =    1.000,"PART-1-1",           306,       5.95014,      -17.3335,            0.,NA,NA,"",   273.804E-03,  -273.370E-03,  -15.4106E-03,   4.23470E-03
C:/temp/dataset/6/1_8.odb,Step-1,Increment      1: Step Time =    1.000,"PART-1-1",           307,            5.,      -18.7625,            0.,NA,NA,"",   208.393E-03,  -202.500E-03,  -49.2089E-03,   14.7103E-03
C:/temp/dataset/6/1_8.odb,Step-1,Increment      1: Step Time =    1.000,"PART-1-1",           308,       6.01935,      -19.5285,            0.,NA,NA,"",   158.488E-03,  -158.459E-03,  -3.03292E-03,   18.1316E-03
C:/temp/dataset/6/1_8.odb,Step-1,Increment      1: Step Time =    1.000,"PART-1-1",           309,       7.66098,      -29.0388,            0.,NA,NA,"",   3.20593E-03,  -1.09217E-03,   3.01416E-03,   4.00831E-03
C:/temp/dataset/6/1_8.odb,Step-1,Increment      1: Step Time =    1.000,"PART-1-1",           310,       6.62868,      -28.0660,            0.,NA,NA,"",   6.88133E-03,  -6.35651E-03,   2.63581E-03,   3.30747E-03
C:/temp/dataset/6/1_8.odb,Step-1,Increment      1: Step Time =    1.000,"PART-1-1",           311,       5.21770,      -29.0272,            0.,NA,NA,"",   2.97258E-03,  -2.97253E-03,   18.7929E-06,   2.38639E-03
C:/temp/dataset/6/1_8.odb,Step-1,Increment      1: Step Time =    1.000,"PART-1-1",           312,          6.25,          -30.,            0.,NA,NA,"",            0.,  -332.691E-42,   3.75450E-39,   1.99074E-03
C:/temp/dataset/6/1_8.odb,Step-1,Increment      1: Step Time =    1.000,"PART-1-1",           313,   162.125E-03,      -28.5454,            0.,NA,NA,"",   9.84253E-03,  -9.67868E-03,  -1.78846E-03,   5.20793E-03
C:/temp/dataset/6/1_8.odb,Step-1,Increment      1: Step Time =    1.000,"PART-1-1",           314,      -1.06934,      -27.3053,            0.,NA,NA,"",   18.3742E-03,  -18.2366E-03,  -2.24424E-03,   5.56048E-03
C:/temp/dataset/6/1_8.odb,Step-1,Increment      1: Step Time =    1.000,"PART-1-1",           315,      -2.48147,      -28.7599,            0.,NA,NA,"",   6.90697E-03,  -6.77937E-03,  -1.32152E-03,   4.21317E-03
C:/temp/dataset/6/1_8.odb,Step-1,Increment      1: Step Time =    1.000,"PART-1-1",           316,         -1.25,          -30.,            0.,NA,NA,"",            0.,  -3.68293E-39,  -3.25606E-39,   3.92122E-03
C:/temp/dataset/6/1_8.odb,Step-1,Increment      1: Step Time =    1.000,"PART-1-1",           317,          -15.,        -21.25,            0.,NA,NA,"",   212.050E-03,  -116.642E-03,  -177.087E-03,   23.9501E-03
C:/temp/dataset/6/1_8.odb,Step-1,Increment      1: Step Time =    1.000,"PART-1-1",           318,      -13.9888,      -22.4607,            0.,NA,NA,"",   160.046E-03,  -86.5262E-03,  -134.640E-03,   20.8163E-03
C:/temp/dataset/6/1_8.odb,Step-1,Increment      1: Step Time =    1.000,"PART-1-1",           319,      -12.8187,      -21.2681,            0.,NA,NA,"",   164.703E-03,  -95.8297E-03,  -133.955E-03,   18.1631E-03
C:/temp/dataset/6/1_8.odb,Step-1,Increment      1: Step Time =    1.000,"PART-1-1",           320,      -13.8299,      -20.0574,            0.,NA,NA,"",   218.663E-03,  -128.107E-03,  -177.207E-03,   21.2344E-03
C:/temp/dataset/6/1_8.odb,Step-1,Increment      1: Step Time =    1.000,"PART-1-1",           321,      -12.5142,      -28.6623,            0.,NA,NA,"",   17.7776E-03,  -7.82584E-03,  -15.9625E-03,   15.1607E-03
C:/temp/dataset/6/1_8.odb,Step-1,Increment      1: Step Time =    1.000,"PART-1-1",           322,        -11.25,          -30.,            0.,NA,NA,"",            0.,  -794.662E-42,  -22.0008E-39,   11.3644E-03
C:/temp/dataset/6/1_8.odb,Step-1,Increment      1: Step Time =    1.000,"PART-1-1",           323,      -9.93348,      -28.4464,            0.,NA,NA,"",   12.0326E-03,  -3.37056E-03,  -11.5509E-03,   9.22475E-03
C:/temp/dataset/6/1_8.odb,Step-1,Increment      1: Step Time =    1.000,"PART-1-1",           324,      -11.1976,      -27.1087,            0.,NA,NA,"",   33.4543E-03,  -15.3959E-03,  -29.7011E-03,   13.3827E-03
C:/temp/dataset/6/1_8.odb,Step-1,Increment      1: Step Time =    1.000,"PART-1-1",           325,      -7.37036,      -13.8742,            0.,NA,NA,"",   289.999E-03,  -285.852E-03,  -48.8649E-03,   2.12630E-03
C:/temp/dataset/6/1_8.odb,Step-1,Increment      1: Step Time =    1.000,"PART-1-1",           326,      -6.21015,      -15.0417,            0.,NA,NA,"",   241.442E-03,  -241.408E-03,  -4.04892E-03,   1.95556E-03
C:/temp/dataset/6/1_8.odb,Step-1,Increment      1: Step Time =    1.000,"PART-1-1",           327,           -5.,      -13.7188,            0.,NA,NA,"",   299.164E-03,  -295.683E-03,   45.5065E-03,   5.15169E-03
C:/temp/dataset/6/1_8.odb,Step-1,Increment      1: Step Time =    1.000,"PART-1-1",           328,      -6.16021,      -12.5513,            0.,NA,NA,"",   342.395E-03,  -342.395E-03,  -543.488E-06,   1.50133E-03
C:/temp/dataset/6/1_8.odb,Step-1,Increment      1: Step Time =    1.000,"PART-1-1",           329,      -9.33590,      -9.40979,            0.,NA,NA,"",   520.165E-03,  -494.312E-03,  -161.948E-03,   8.33486E-03
C:/temp/dataset/6/1_8.odb,Step-1,Increment      1: Step Time =    1.000,"PART-1-1",           330,      -8.33361,      -10.3234,            0.,NA,NA,"",   458.821E-03,  -446.333E-03,  -106.322E-03,   5.67878E-03
C:/temp/dataset/6/1_8.odb,Step-1,Increment      1: Step Time =    1.000,"PART-1-1",           331,      -7.16565,      -9.15059,            0.,NA,NA,"",   509.412E-03,  -506.563E-03,  -53.7992E-03,   2.90358E-03
C:/temp/dataset/6/1_8.odb,Step-1,Increment      1: Step Time =    1.000,"PART-1-1",           332,      -8.16794,      -8.23701,            0.,NA,NA,"",   567.148E-03,  -556.233E-03,  -110.730E-03,   6.02295E-03
C:/temp/dataset/6/1_8.odb,Step-1,Increment      1: Step Time =    1.000,"PART-1-1",           333,      -11.1473,      -6.32447,            0.,NA,NA,"",   722.743E-03,  -662.855E-03,  -288.063E-03,   11.2286E-03
C:/temp/dataset/6/1_8.odb,Step-1,Increment      1: Step Time =    1.000,"PART-1-1",           334,      -10.2102,      -6.79208,            0.,NA,NA,"",   677.270E-03,  -636.781E-03,  -230.660E-03,   8.64605E-03
C:/temp/dataset/6/1_8.odb,Step-1,Increment      1: Step Time =    1.000,"PART-1-1",           335,      -9.51762,      -5.78103,            0.,NA,NA,"",   722.314E-03,  -694.497E-03,  -198.523E-03,   6.24042E-03
C:/temp/dataset/6/1_8.odb,Step-1,Increment      1: Step Time =    1.000,"PART-1-1",           336,      -10.4548,      -5.31342,            0.,NA,NA,"",   762.901E-03,  -718.269E-03,  -257.114E-03,   8.82774E-03
C:/temp/dataset/6/1_8.odb,Step-1,Increment      1: Step Time =    1.000,"PART-1-1",           337,      -5.04937,      -1.25055,            0.,NA,NA,"",   988.899E-03,  -985.902E-03,   76.9369E-03,   10.1433E-03
C:/temp/dataset/6/1_8.odb,Step-1,Increment      1: Step Time =    1.000,"PART-1-1",           338,      -3.82978,  -150.691E-03,            0.,NA,NA,"",       1.05432,      -1.04630,   129.855E-03,   15.7097E-03
C:/temp/dataset/6/1_8.odb,Step-1,Increment      1: Step Time =    1.000,"PART-1-1",           339,      -5.10700,   929.666E-03,            0.,NA,NA,"",       1.09849,      -1.09441,   94.5877E-03,   15.1247E-03
C:/temp/dataset/6/1_8.odb,Step-1,Increment      1: Step Time =    1.000,"PART-1-1",           340,      -6.32658,  -170.190E-03,            0.,NA,NA,"",       1.02709,      -1.02689,   20.2906E-03,   14.3871E-03
C:/temp/dataset/6/1_8.odb,Step-1,Increment      1: Step Time =    1.000,"PART-1-1",           341,          -15.,          3.75,            0.,NA,NA,"",       1.57304,      -1.33097,  -838.427E-03,   53.3254E-03
C:/temp/dataset/6/1_8.odb,Step-1,Increment      1: Step Time =    1.000,"PART-1-1",           342,      -13.8520,       2.39386,            0.,NA,NA,"",       1.36739,      -1.19472,  -665.114E-03,   39.3625E-03
C:/temp/dataset/6/1_8.odb,Step-1,Increment      1: Step Time =    1.000,"PART-1-1",           343,      -12.6820,       3.58697,            0.,NA,NA,"",       1.41145,      -1.28389,  -586.359E-03,   30.7943E-03
C:/temp/dataset/6/1_8.odb,Step-1,Increment      1: Step Time =    1.000,"PART-1-1",           344,      -13.8301,       4.94311,            0.,NA,NA,"",       1.62423,      -1.43142,  -767.568E-03,   43.6417E-03
C:/temp/dataset/6/1_8.odb,Step-1,Increment      1: Step Time =    1.000,"PART-1-1",           345,          -15.,         11.25,            0.,NA,NA,"",       2.68236,      -2.35418,      -1.28565,   47.4753E-03
C:/temp/dataset/6/1_8.odb,Step-1,Increment      1: Step Time =    1.000,"PART-1-1",           346,      -14.0083,       10.0442,            0.,NA,NA,"",       2.38165,      -2.14192,      -1.04134,   40.6932E-03
C:/temp/dataset/6/1_8.odb,Step-1,Increment      1: Step Time =    1.000,"PART-1-1",           347,      -13.0572,       11.3141,            0.,NA,NA,"",       2.54254,      -2.36420,  -935.453E-03,   29.1627E-03
C:/temp/dataset/6/1_8.odb,Step-1,Increment      1: Step Time =    1.000,"PART-1-1",           348,      -14.0489,       12.5200,            0.,NA,NA,"",       2.84045,      -2.58651,      -1.17394,   35.1933E-03
C:/temp/dataset/6/1_8.odb,Step-1,Increment      1: Step Time =    1.000,"PART-1-1",           349,           -5.,       22.7083,            0.,NA,NA,"",       5.12589,      -5.10409,   472.167E-03,   14.2989E-03
C:/temp/dataset/6/1_8.odb,Step-1,Increment      1: Step Time =    1.000,"PART-1-1",           350,      -5.96779,       23.6687,            0.,NA,NA,"",       5.31749,      -5.31323,   212.845E-03,   12.0783E-03
C:/temp/dataset/6/1_8.odb,Step-1,Increment      1: Step Time =    1.000,"PART-1-1",           351,      -6.69567,       22.7251,            0.,NA,NA,"",       5.04971,      -5.04933,   62.3786E-03,   12.2310E-03
C:/temp/dataset/6/1_8.odb,Step-1,Increment      1: Step Time =    1.000,"PART-1-1",           352,      -5.72788,       21.7648,            0.,NA,NA,"",       4.85238,      -4.84228,   312.981E-03,   13.9660E-03
C:/temp/dataset/6/1_8.odb,Step-1,Increment      1: Step Time =    1.000,"PART-1-1",           353,      -9.95259,       28.8237,            0.,NA,NA,"",       6.51624,      -6.45827,  -867.296E-03,   5.33781E-03
C:/temp/dataset/6/1_8.odb,Step-1,Increment      1: Step Time =    1.000,"PART-1-1",           354,      -8.67740,       27.7404,            0.,NA,NA,"",       6.25890,      -6.23594,  -535.611E-03,   7.22743E-03
C:/temp/dataset/6/1_8.odb,Step-1,Increment      1: Step Time =    1.000,"PART-1-1",           355,      -7.47481,       28.9167,            0.,NA,NA,"",       6.57109,      -6.56507,  -281.315E-03,   7.64472E-03
C:/temp/dataset/6/1_8.odb,Step-1,Increment      1: Step Time =    1.000,"PART-1-1",           356,         -8.75,           30.,            0.,NA,NA,"",       6.81002,      -6.78230,  -613.821E-03,   6.31420E-03
C:/temp/dataset/6/1_8.odb,Step-1,Increment      1: Step Time =    1.000,"PART-1-1",           357,      -12.4360,       28.7156,            0.,NA,NA,"",       6.51897,      -6.35492,      -1.45328,   2.49109E-03
C:/temp/dataset/6/1_8.odb,Step-1,Increment      1: Step Time =    1.000,"PART-1-1",           358,        -13.75,           30.,            0.,NA,NA,"",       6.86733,      -6.62560,      -1.80600,   355.131E-06
C:/temp/dataset/6/1_8.odb,Step-1,Increment      1: Step Time =    1.000,"PART-1-1",           359,          -15.,         28.75,            0.,NA,NA,"",       6.61926,      -6.28709,      -2.07053,   354.942E-06
C:/temp/dataset/6/1_8.odb,Step-1,Increment      1: Step Time =    1.000,"PART-1-1",           360,      -13.6860,       27.4656,            0.,NA,NA,"",       6.25400,      -6.01438,      -1.71455,   2.48213E-03
C:/temp/dataset/6/1_8.odb,Step-1,Increment      1: Step Time =    1.000,"PART-1-1",           361,         -3.75,           -5.,            0.,NA,NA,"",   848.307E-03,  -842.388E-03,   100.035E-03,   34.7673E-03
C:/temp/dataset/6/1_8.odb,Step-1,Increment      1: Step Time =    1.000,"PART-1-1",           362,      -2.75606,      -4.06584,            0.,NA,NA,"",   907.192E-03,  -897.245E-03,   133.974E-03,   22.2135E-03
C:/temp/dataset/6/1_8.odb,Step-1,Increment      1: Step Time =    1.000,"PART-1-1",           363,      -4.26954,      -3.28646,            0.,NA,NA,"",   907.562E-03,  -902.218E-03,   98.3422E-03,   14.1176E-03
C:/temp/dataset/6/1_8.odb,Step-1,Increment      1: Step Time =    1.000,"PART-1-1",           364,      -5.26349,      -4.22062,            0.,NA,NA,"",   842.965E-03,  -841.378E-03,   51.7087E-03,   23.7790E-03
C:/temp/dataset/6/1_8.odb,Step-1,Increment      1: Step Time =    1.000,"PART-1-1",           365,   659.099E-03,      -2.85996,            0.,NA,NA,"",   979.282E-03,  -965.391E-03,   164.355E-03,   17.7863E-03
C:/temp/dataset/6/1_8.odb,Step-1,Increment      1: Step Time =    1.000,"PART-1-1",           366,  -266.865E-03,      -3.97148,            0.,NA,NA,"",   952.228E-03,  -938.628E-03,   160.359E-03,   14.2755E-03
C:/temp/dataset/6/1_8.odb,Step-1,Increment      1: Step Time =    1.000,"PART-1-1",           367,          1.25,           -5.,            0.,NA,NA,"",   959.859E-03,  -947.043E-03,   156.328E-03,   9.56215E-03
C:/temp/dataset/6/1_8.odb,Step-1,Increment      1: Step Time =    1.000,"PART-1-1",           368,       2.17596,      -3.88848,            0.,NA,NA,"",   964.378E-03,  -952.336E-03,   151.923E-03,   8.93112E-03
C:/temp/dataset/6/1_8.odb,Step-1,Increment      1: Step Time =    1.000,"PART-1-1",           369,   93.5104E-03,  -560.922E-03,            0.,NA,NA,"",       1.04369,      -1.02992,   169.015E-03,   22.4428E-03
C:/temp/dataset/6/1_8.odb,Step-1,Increment      1: Step Time =    1.000,"PART-1-1",           370,   627.873E-03,   544.404E-03,            0.,NA,NA,"",       1.07614,      -1.06313,   166.802E-03,   23.3223E-03
C:/temp/dataset/6/1_8.odb,Step-1,Increment      1: Step Time =    1.000,"PART-1-1",           371,  -981.002E-03,       1.17096,            0.,NA,NA,"",       1.10759,      -1.09498,   166.627E-03,   24.6399E-03
C:/temp/dataset/6/1_8.odb,Step-1,Increment      1: Step Time =    1.000,"PART-1-1",           372,      -1.51537,   65.6335E-03,            0.,NA,NA,"",       1.06963,      -1.05663,   166.241E-03,   22.6005E-03
C:/temp/dataset/6/1_8.odb,Step-1,Increment      1: Step Time =    1.000,"PART-1-1",           373,       4.11258,       2.54084,            0.,NA,NA,"",       1.10356,      -1.09287,   153.247E-03,   12.7030E-03
C:/temp/dataset/6/1_8.odb,Step-1,Increment      1: Step Time =    1.000,"PART-1-1",           374,       3.71515,       1.12833,            0.,NA,NA,"",       1.07559,      -1.06462,   153.279E-03,   16.7791E-03
C:/temp/dataset/6/1_8.odb,Step-1,Increment      1: Step Time =    1.000,"PART-1-1",           375,       5.46602,   397.127E-03,            0.,NA,NA,"",       1.05814,      -1.04727,   151.273E-03,   13.6354E-03
C:/temp/dataset/6/1_8.odb,Step-1,Increment      1: Step Time =    1.000,"PART-1-1",           376,       8.69518,  -378.803E-03,            0.,NA,NA,"",       1.05249,      -1.03674,   181.411E-03,   5.18432E-03
C:/temp/dataset/6/1_8.odb,Step-1,Increment      1: Step Time =    1.000,"PART-1-1",           377,       8.82700,   889.396E-03,            0.,NA,NA,"",       1.07820,      -1.06171,   187.847E-03,   3.12046E-03
C:/temp/dataset/6/1_8.odb,Step-1,Increment      1: Step Time =    1.000,"PART-1-1",           378,       6.97530,  -164.986E-03,            0.,NA,NA,"",       1.04973,      -1.03777,   158.004E-03,   9.21351E-03
C:/temp/dataset/6/1_8.odb,Step-1,Increment      1: Step Time =    1.000,"PART-1-1",           379,      -3.65351,      -22.6081,            0.,NA,NA,"",   54.7624E-03,  -54.6500E-03,   3.50738E-03,   6.14961E-03
C:/temp/dataset/6/1_8.odb,Step-1,Increment      1: Step Time =    1.000,"PART-1-1",           380,      -2.48671,      -21.3009,            0.,NA,NA,"",   66.1042E-03,  -65.9844E-03,   3.97830E-03,   3.72216E-03
C:/temp/dataset/6/1_8.odb,Step-1,Increment      1: Step Time =    1.000,"PART-1-1",           381,         -3.75,          -20.,            0.,NA,NA,"",   74.1830E-03,  -74.0620E-03,   4.23655E-03,   7.32407E-03
C:/temp/dataset/6/1_8.odb,Step-1,Increment      1: Step Time =    1.000,"PART-1-1",           382,      -4.91680,      -21.3072,            0.,NA,NA,"",   66.0462E-03,  -65.9311E-03,   3.89815E-03,   6.17012E-03
C:/temp/dataset/6/1_8.odb,Step-1,Increment      1: Step Time =    1.000,"PART-1-1",           383,       12.8399,      -22.4784,            0.,NA,NA,"",   181.579E-03,  -121.269E-03,   135.147E-03,   20.3118E-03
C:/temp/dataset/6/1_8.odb,Step-1,Increment      1: Step Time =    1.000,"PART-1-1",           384,       11.7398,      -21.2760,            0.,NA,NA,"",   193.510E-03,  -145.577E-03,   127.488E-03,   17.6160E-03
C:/temp/dataset/6/1_8.odb,Step-1,Increment      1: Step Time =    1.000,"PART-1-1",           385,       10.5591,      -22.4389,            0.,NA,NA,"",   131.948E-03,  -102.121E-03,   83.5568E-03,   14.4383E-03
C:/temp/dataset/6/1_8.odb,Step-1,Increment      1: Step Time =    1.000,"PART-1-1",           386,       11.6593,      -23.6412,            0.,NA,NA,"",   122.030E-03,  -82.4492E-03,   89.9632E-03,   17.1124E-03
C:/temp/dataset/6/1_8.odb,Step-1,Increment      1: Step Time =    1.000,"PART-1-1",           387,          8.75,            5.,            0.,NA,NA,"",       1.14697,      -1.13061,   193.037E-03,   4.07312E-03
C:/temp/dataset/6/1_8.odb,Step-1,Increment      1: Step Time =    1.000,"PART-1-1",           388,       7.62461,       4.03982,            0.,NA,NA,"",       1.12675,      -1.11297,   175.636E-03,   2.77994E-03
C:/temp/dataset/6/1_8.odb,Step-1,Increment      1: Step Time =    1.000,"PART-1-1",           389,       8.90047,       2.96899,            0.,NA,NA,"",       1.11526,      -1.09846,   192.852E-03,   1.39080E-03
C:/temp/dataset/6/1_8.odb,Step-1,Increment      1: Step Time =    1.000,"PART-1-1",           390,       10.0259,       3.92917,            0.,NA,NA,"",       1.13683,      -1.11658,   213.619E-03,   2.67170E-03
C:/temp/dataset/6/1_8.odb,Step-1,Increment      1: Step Time =    1.000,"PART-1-1",           391,      -6.96921,       21.1213,            0.,NA,NA,"",       4.64206,      -4.64193,   34.7403E-03,   12.9521E-03
C:/temp/dataset/6/1_8.odb,Step-1,Increment      1: Step Time =    1.000,"PART-1-1",           392,      -6.24133,       19.9816,            0.,NA,NA,"",       4.39374,      -4.38812,   222.314E-03,   16.8622E-03
C:/temp/dataset/6/1_8.odb,Step-1,Increment      1: Step Time =    1.000,"PART-1-1",           393,           -5.,        20.625,            0.,NA,NA,"",       4.61619,      -4.58871,   502.906E-03,   19.9314E-03
C:/temp/dataset/6/1_8.odb,Step-1,Increment      1: Step Time =    1.000,"PART-1-1",           394,      -12.9370,       8.81410,            0.,NA,NA,"",       2.10134,      -1.93820,  -811.800E-03,   31.2816E-03
C:/temp/dataset/6/1_8.odb,Step-1,Increment      1: Step Time =    1.000,"PART-1-1",           395,          -15.,          8.75,            0.,NA,NA,"",       2.25007,      -1.94309,      -1.13456,   54.2055E-03
C:/temp/dataset/6/1_8.odb,Step-1,Increment      1: Step Time =    1.000,"PART-1-1",           396,      -13.9287,       7.51992,            0.,NA,NA,"",       1.97028,      -1.75174,  -901.888E-03,   44.2481E-03
C:/temp/dataset/6/1_8.odb,Step-1,Increment      1: Step Time =    1.000,"PART-1-1",           397,          -15.,          1.25,            0.,NA,NA,"",       1.33573,      -1.12630,  -718.053E-03,   43.9078E-03
C:/temp/dataset/6/1_8.odb,Step-1,Increment      1: Step Time =    1.000,"PART-1-1",           398,      -13.9023,  -59.1614E-03,            0.,NA,NA,"",       1.17954,      -1.02328,  -586.693E-03,   31.8482E-03
C:/temp/dataset/6/1_8.odb,Step-1,Increment      1: Step Time =    1.000,"PART-1-1",           399,      -12.7542,       1.08470,            0.,NA,NA,"",       1.20559,      -1.08687,  -521.710E-03,   29.0716E-03
C:/temp/dataset/6/1_8.odb,Step-1,Increment      1: Step Time =    1.000,"PART-1-1",           400,          -15.,         -1.25,            0.,NA,NA,"",       1.15002,  -964.311E-03,  -626.627E-03,   32.9791E-03
C:/temp/dataset/6/1_8.odb,Step-1,Increment      1: Step Time =    1.000,"PART-1-1",           401,      -13.9820,      -2.43756,            0.,NA,NA,"",       1.03123,  -885.267E-03,  -528.907E-03,   24.7349E-03
C:/temp/dataset/6/1_8.odb,Step-1,Increment      1: Step Time =    1.000,"PART-1-1",           402,      -12.8843,      -1.24672,            0.,NA,NA,"",       1.05783,  -943.656E-03,  -478.042E-03,   24.9303E-03
C:/temp/dataset/6/1_8.odb,Step-1,Increment      1: Step Time =    1.000,"PART-1-1",           403,      -12.3802,      -13.7897,            0.,NA,NA,"",   391.779E-03,  -307.392E-03,  -242.902E-03,   16.6812E-03
C:/temp/dataset/6/1_8.odb,Step-1,Increment      1: Step Time =    1.000,"PART-1-1",           404,      -13.6672,      -12.5056,            0.,NA,NA,"",   487.640E-03,  -370.213E-03,  -317.388E-03,   19.9373E-03
C:/temp/dataset/6/1_8.odb,Step-1,Increment      1: Step Time =    1.000,"PART-1-1",           405,          -15.,        -13.75,            0.,NA,NA,"",   479.848E-03,  -331.200E-03,  -347.219E-03,   24.1044E-03
C:/temp/dataset/6/1_8.odb,Step-1,Increment      1: Step Time =    1.000,"PART-1-1",           406,      -13.7130,      -15.0341,            0.,NA,NA,"",   382.971E-03,  -270.533E-03,  -271.070E-03,   20.7629E-03
C:/temp/dataset/6/1_8.odb,Step-1,Increment      1: Step Time =    1.000,"PART-1-1",           407,       9.21271,      -3.58583,            0.,NA,NA,"",   976.813E-03,  -960.241E-03,   179.166E-03,   6.39806E-03
C:/temp/dataset/6/1_8.odb,Step-1,Increment      1: Step Time =    1.000,"PART-1-1",           408,       7.90749,      -3.82305,            0.,NA,NA,"",   964.969E-03,  -953.632E-03,   147.485E-03,   10.1262E-03
C:/temp/dataset/6/1_8.odb,Step-1,Increment      1: Step Time =    1.000,"PART-1-1",           409,       8.15132,      -5.16923,            0.,NA,NA,"",   920.373E-03,  -908.880E-03,   144.999E-03,   11.8967E-03
C:/temp/dataset/6/1_8.odb,Step-1,Increment      1: Step Time =    1.000,"PART-1-1",           410,       9.45655,      -4.93201,            0.,NA,NA,"",   934.133E-03,  -916.458E-03,   180.856E-03,   7.78700E-03
C:/temp/dataset/6/1_8.odb,Step-1,Increment      1: Step Time =    1.000,"PART-1-1",           411,       6.91243,      -16.0318,            0.,NA,NA,"",   343.845E-03,  -343.077E-03,   22.9654E-03,   9.04224E-03
C:/temp/dataset/6/1_8.odb,Step-1,Increment      1: Step Time =    1.000,"PART-1-1",           412,       5.96229,      -14.9858,            0.,NA,NA,"",   395.994E-03,  -395.652E-03,  -16.4493E-03,   5.24093E-03
C:/temp/dataset/6/1_8.odb,Step-1,Increment      1: Step Time =    1.000,"PART-1-1",           413,            5.,      -16.2875,            0.,NA,NA,"",   333.189E-03,  -327.033E-03,  -63.7481E-03,   1.06666E-03
C:/temp/dataset/6/1_8.odb,Step-1,Increment      1: Step Time =    1.000,"PART-1-1",           414,       6.93910,      -13.7291,            0.,NA,NA,"",   466.697E-03,  -465.627E-03,   31.5850E-03,   9.90097E-03
C:/temp/dataset/6/1_8.odb,Step-1,Increment      1: Step Time =    1.000,"PART-1-1",           415,       5.97681,      -12.5371,            0.,NA,NA,"",   525.285E-03,  -525.264E-03,  -4.70303E-03,   9.64026E-03
C:/temp/dataset/6/1_8.odb,Step-1,Increment      1: Step Time =    1.000,"PART-1-1",           416,            5.,      -13.7937,            0.,NA,NA,"",   458.293E-03,  -454.401E-03,  -59.6014E-03,   6.04038E-03
C:/temp/dataset/6/1_8.odb,Step-1,Increment      1: Step Time =    1.000,"PART-1-1",           417,         -1.25,          -20.,            0.,NA,NA,"",   67.4943E-03,  -67.4840E-03,   1.17872E-03,   944.125E-06
C:/temp/dataset/6/1_8.odb,Step-1,Increment      1: Step Time =    1.000,"PART-1-1",           418,      -1.09514,      -22.7401,            0.,NA,NA,"",   57.8028E-03,  -57.7993E-03,  -634.680E-06,   7.58996E-03
C:/temp/dataset/6/1_8.odb,Step-1,Increment      1: Step Time =    1.000,"PART-1-1",           419,   141.566E-03,      -21.4393,            0.,NA,NA,"",   68.3955E-03,  -68.3334E-03,  -2.91310E-03,   5.20287E-03
C:/temp/dataset/6/1_8.odb,Step-1,Increment      1: Step Time =    1.000,"PART-1-1",           420,      -7.69236,      -25.1479,            0.,NA,NA,"",   30.6113E-03,  -23.8815E-03,  -19.1500E-03,   4.82333E-03
C:/temp/dataset/6/1_8.odb,Step-1,Increment      1: Step Time =    1.000,"PART-1-1",           421,      -9.18951,      -25.9970,            0.,NA,NA,"",   31.8511E-03,  -18.0811E-03,  -26.2215E-03,   8.06419E-03
C:/temp/dataset/6/1_8.odb,Step-1,Increment      1: Step Time =    1.000,"PART-1-1",           422,      -8.56598,      -27.1897,            0.,NA,NA,"",   17.4389E-03,  -8.79785E-03,  -15.0570E-03,   7.02947E-03
C:/temp/dataset/6/1_8.odb,Step-1,Increment      1: Step Time =    1.000,"PART-1-1",           423,      -7.06883,      -26.3407,            0.,NA,NA,"",   18.6606E-03,  -14.7362E-03,  -11.4481E-03,   4.27594E-03
C:/temp/dataset/6/1_8.odb,Step-1,Increment      1: Step Time =    1.000,"PART-1-1",           424,      -9.82073,      -13.8964,            0.,NA,NA,"",   323.174E-03,  -289.687E-03,  -143.258E-03,   9.54490E-03
C:/temp/dataset/6/1_8.odb,Step-1,Increment      1: Step Time =    1.000,"PART-1-1",           425,      -8.65586,      -15.1239,            0.,NA,NA,"",   255.890E-03,  -239.115E-03,  -91.1258E-03,   5.93926E-03
C:/temp/dataset/6/1_8.odb,Step-1,Increment      1: Step Time =    1.000,"PART-1-1",           426,      -8.53523,      -12.6467,            0.,NA,NA,"",   353.276E-03,  -338.428E-03,  -101.343E-03,   5.77349E-03
C:/temp/dataset/6/1_8.odb,Step-1,Increment      1: Step Time =    1.000,"PART-1-1",           427,      -6.09243,      -10.1071,            0.,NA,NA,"",   457.701E-03,  -457.691E-03,   3.00786E-03,   1.28868E-03
C:/temp/dataset/6/1_8.odb,Step-1,Increment      1: Step Time =    1.000,"PART-1-1",           428,           -5.,      -8.71250,            0.,NA,NA,"",   538.405E-03,  -534.733E-03,   62.7768E-03,   4.41860E-03
C:/temp/dataset/6/1_8.odb,Step-1,Increment      1: Step Time =    1.000,"PART-1-1",           429,      -6.07322,      -7.75598,            0.,NA,NA,"",   587.825E-03,  -587.823E-03,   1.54041E-03,   2.49187E-03
C:/temp/dataset/6/1_8.odb,Step-1,Increment      1: Step Time =    1.000,"PART-1-1",           430,      -12.7270,      -6.06323,            0.,NA,NA,"",   781.502E-03,  -681.725E-03,  -382.094E-03,   16.5852E-03
C:/temp/dataset/6/1_8.odb,Step-1,Increment      1: Step Time =    1.000,"PART-1-1",           431,      -13.8025,      -4.90646,            0.,NA,NA,"",   882.350E-03,  -749.796E-03,  -465.132E-03,   19.5506E-03
C:/temp/dataset/6/1_8.odb,Step-1,Increment      1: Step Time =    1.000,"PART-1-1",           432,          -15.,         -6.25,            0.,NA,NA,"",   853.362E-03,  -687.329E-03,  -505.772E-03,   21.7123E-03
C:/temp/dataset/6/1_8.odb,Step-1,Increment      1: Step Time =    1.000,"PART-1-1",           433,      -13.9244,      -7.40677,            0.,NA,NA,"",   750.105E-03,  -618.210E-03,  -424.822E-03,   18.9331E-03
C:/temp/dataset/6/1_8.odb,Step-1,Increment      1: Step Time =    1.000,"PART-1-1",           434,       1.60591,      -1.50045,            0.,NA,NA,"",       1.01294,  -999.921E-03,   161.851E-03,   21.9918E-03
C:/temp/dataset/6/1_8.odb,Step-1,Increment      1: Step Time =    1.000,"PART-1-1",           435,  -853.298E-03,      -1.92043,            0.,NA,NA,"",   999.064E-03,  -985.142E-03,   166.208E-03,   18.7196E-03
C:/temp/dataset/6/1_8.odb,Step-1,Increment      1: Step Time =    1.000,"PART-1-1",           436,         13.75,          -30.,            0.,NA,NA,"",            0.,  -1.43055E-39,   38.6847E-39,   25.4048E-03
C:/temp/dataset/6/1_8.odb,Step-1,Increment      1: Step Time =    1.000,"PART-1-1",           437,           15.,      -28.9063,            0.,NA,NA,"",   41.2336E-03,  -28.1124E-03,   30.1646E-03,   30.8782E-03
C:/temp/dataset/6/1_8.odb,Step-1,Increment      1: Step Time =    1.000,"PART-1-1",           438,       13.8103,      -27.8746,            0.,NA,NA,"",   52.7774E-03,  -30.2581E-03,   43.2423E-03,   24.5640E-03
C:/temp/dataset/6/1_8.odb,Step-1,Increment      1: Step Time =    1.000,"PART-1-1",           439,       12.5603,      -28.9683,            0.,NA,NA,"",   16.3386E-03,  -7.07687E-03,   14.7264E-03,   17.8711E-03
C:/temp/dataset/6/1_8.odb,Step-1,Increment      1: Step Time =    1.000,"PART-1-1",           440,       12.6598,      -26.8678,            0.,NA,NA,"",   62.3576E-03,  -34.5333E-03,   51.9222E-03,   20.4313E-03
C:/temp/dataset/6/1_8.odb,Step-1,Increment      1: Step Time =    1.000,"PART-1-1",           441,       11.5501,      -25.8632,            0.,NA,NA,"",   68.4793E-03,  -40.7787E-03,   55.0137E-03,   16.6698E-03
C:/temp/dataset/6/1_8.odb,Step-1,Increment      1: Step Time =    1.000,"PART-1-1",           442,       10.3093,      -26.9762,            0.,NA,NA,"",   33.7142E-03,  -19.1072E-03,   27.7770E-03,   11.8725E-03
C:/temp/dataset/6/1_8.odb,Step-1,Increment      1: Step Time =    1.000,"PART-1-1",           443,       11.4189,      -27.9808,            0.,NA,NA,"",   26.9715E-03,  -13.0161E-03,   23.6229E-03,   15.7104E-03
C:/temp/dataset/6/1_8.odb,Step-1,Increment      1: Step Time =    1.000,"PART-1-1",           444,       10.1086,      -29.0125,            0.,NA,NA,"",   8.11458E-03,  -1.88240E-03,   7.89322E-03,   9.80019E-03
C:/temp/dataset/6/1_8.odb,Step-1,Increment      1: Step Time =    1.000,"PART-1-1",           445,       9.01957,      -28.0513,            0.,NA,NA,"",   12.7101E-03,  -6.11804E-03,   11.1408E-03,   7.59402E-03
C:/temp/dataset/6/1_8.odb,Step-1,Increment      1: Step Time =    1.000,"PART-1-1",           446,          8.75,          -30.,            0.,NA,NA,"",            0.,   819.314E-42,   12.5268E-39,   6.57721E-03
C:/temp/dataset/6/1_8.odb,Step-1,Increment      1: Step Time =    1.000,"PART-1-1",           447,       4.20973,      -27.9354,            0.,NA,NA,"",   10.8363E-03,  -10.6021E-03,  -2.24032E-03,   4.38150E-03
C:/temp/dataset/6/1_8.odb,Step-1,Increment      1: Step Time =    1.000,"PART-1-1",           448,       2.74203,      -28.9082,            0.,NA,NA,"",   6.19742E-03,  -6.04675E-03,  -1.35827E-03,   4.41780E-03
C:/temp/dataset/6/1_8.odb,Step-1,Increment      1: Step Time =    1.000,"PART-1-1",           449,          3.75,          -30.,            0.,NA,NA,"",            0.,  -2.39561E-39,  -1.19693E-39,   2.43956E-03
C:/temp/dataset/6/1_8.odb,Step-1,Increment      1: Step Time =    1.000,"PART-1-1",           450,       1.16266,      -25.9573,            0.,NA,NA,"",   31.7506E-03,  -31.1833E-03,  -5.97524E-03,   7.61710E-03
C:/temp/dataset/6/1_8.odb,Step-1,Increment      1: Step Time =    1.000,"PART-1-1",           451,       1.65415,      -27.4536,            0.,NA,NA,"",   17.9978E-03,  -17.5524E-03,  -3.97946E-03,   5.72067E-03
C:/temp/dataset/6/1_8.odb,Step-1,Increment      1: Step Time =    1.000,"PART-1-1",           452,       3.39879,      -26.8461,            0.,NA,NA,"",   21.4408E-03,  -20.7878E-03,  -5.25105E-03,   6.13992E-03
C:/temp/dataset/6/1_8.odb,Step-1,Increment      1: Step Time =    1.000,"PART-1-1",           453,       2.90730,      -25.3498,            0.,NA,NA,"",   37.7553E-03,  -36.6726E-03,  -8.97662E-03,   7.71958E-03
C:/temp/dataset/6/1_8.odb,Step-1,Increment      1: Step Time =    1.000,"PART-1-1",           454,      -3.67645,      -27.5530,            0.,NA,NA,"",   12.6957E-03,  -12.5343E-03,  -2.01810E-03,   4.53756E-03
C:/temp/dataset/6/1_8.odb,Step-1,Increment      1: Step Time =    1.000,"PART-1-1",           455,      -2.54816,      -26.3074,            0.,NA,NA,"",   23.9209E-03,  -23.8779E-03,  -1.43296E-03,   5.90093E-03
C:/temp/dataset/6/1_8.odb,Step-1,Increment      1: Step Time =    1.000,"PART-1-1",           456,      -3.72120,      -25.1278,            0.,NA,NA,"",   30.8718E-03,  -30.8548E-03,  -1.02652E-03,   5.78151E-03
C:/temp/dataset/6/1_8.odb,Step-1,Increment      1: Step Time =    1.000,"PART-1-1",           457,      -4.84948,      -26.3734,            0.,NA,NA,"",   18.5407E-03,  -18.1964E-03,  -3.55674E-03,   4.31212E-03
C:/temp/dataset/6/1_8.odb,Step-1,Increment      1: Step Time =    1.000,"PART-1-1",           458,      -4.94498,      -28.7931,            0.,NA,NA,"",   4.44441E-03,  -3.89717E-03,  -2.13655E-03,   3.41077E-03
C:/temp/dataset/6/1_8.odb,Step-1,Increment      1: Step Time =    1.000,"PART-1-1",           459,         -3.75,          -30.,            0.,NA,NA,"",            0.,  -2.30888E-39,  -4.33604E-39,   3.24813E-03
C:/temp/dataset/6/1_8.odb,Step-1,Increment      1: Step Time =    1.000,"PART-1-1",           460,      -6.07748,      -27.5364,            0.,NA,NA,"",   10.0129E-03,  -8.37840E-03,  -5.48269E-03,   4.19619E-03
C:/temp/dataset/6/1_8.odb,Step-1,Increment      1: Step Time =    1.000,"PART-1-1",           461,      -7.38250,      -28.7433,            0.,NA,NA,"",   5.21766E-03,  -1.85869E-03,  -4.87537E-03,   4.97753E-03
C:/temp/dataset/6/1_8.odb,Step-1,Increment      1: Step Time =    1.000,"PART-1-1",           462,         -6.25,          -30.,            0.,NA,NA,"",            0.,  -488.261E-42,  -7.77270E-39,   4.10914E-03
C:/temp/dataset/6/1_8.odb,Step-1,Increment      1: Step Time =    1.000,"PART-1-1",           463,      -8.77755,      -24.1806,            0.,NA,NA,"",   48.3636E-03,  -33.9958E-03,  -34.3994E-03,   7.06742E-03
C:/temp/dataset/6/1_8.odb,Step-1,Increment      1: Step Time =    1.000,"PART-1-1",           464,      -9.92276,      -23.8066,            0.,NA,NA,"",   66.1458E-03,  -41.3488E-03,  -51.6289E-03,   10.2819E-03
C:/temp/dataset/6/1_8.odb,Step-1,Increment      1: Step Time =    1.000,"PART-1-1",           465,      -10.3347,      -25.6230,            0.,NA,NA,"",   46.0505E-03,  -24.4374E-03,  -39.0315E-03,   11.1631E-03
C:/temp/dataset/6/1_8.odb,Step-1,Increment      1: Step Time =    1.000,"PART-1-1",           466,       13.9544,      -21.3085,            0.,NA,NA,"",   250.138E-03,  -166.428E-03,   186.737E-03,   23.5878E-03
C:/temp/dataset/6/1_8.odb,Step-1,Increment      1: Step Time =    1.000,"PART-1-1",           467,       13.8855,      -23.5136,            0.,NA,NA,"",   175.044E-03,  -106.626E-03,   138.821E-03,   24.0265E-03
C:/temp/dataset/6/1_8.odb,Step-1,Increment      1: Step Time =    1.000,"PART-1-1",           468,           15.,      -22.3438,            0.,NA,NA,"",   242.916E-03,  -148.723E-03,   192.067E-03,   27.4127E-03
C:/temp/dataset/6/1_8.odb,Step-1,Increment      1: Step Time =    1.000,"PART-1-1",           469,       12.7349,      -24.6944,            0.,NA,NA,"",   116.389E-03,  -70.5280E-03,   92.5864E-03,   20.5997E-03
C:/temp/dataset/6/1_8.odb,Step-1,Increment      1: Step Time =    1.000,"PART-1-1",           470,       13.8494,      -25.7120,            0.,NA,NA,"",   111.625E-03,  -64.0375E-03,   91.4294E-03,   23.9556E-03
C:/temp/dataset/6/1_8.odb,Step-1,Increment      1: Step Time =    1.000,"PART-1-1",           471,           15.,      -24.5313,            0.,NA,NA,"",   169.551E-03,  -98.0925E-03,   138.294E-03,   27.2437E-03
C:/temp/dataset/6/1_8.odb,Step-1,Increment      1: Step Time =    1.000,"PART-1-1",           472,         11.25,          -30.,            0.,NA,NA,"",            0.,  -544.947E-42,   24.7706E-39,   12.4470E-03
C:/temp/dataset/6/1_8.odb,Step-1,Increment      1: Step Time =    1.000,"PART-1-1",           473,       13.9950,      -12.5232,            0.,NA,NA,"",   645.610E-03,  -563.276E-03,   315.487E-03,   9.70936E-03
C:/temp/dataset/6/1_8.odb,Step-1,Increment      1: Step Time =    1.000,"PART-1-1",           474,       12.9942,      -13.6844,            0.,NA,NA,"",   562.211E-03,  -496.574E-03,   263.618E-03,   13.1023E-03
C:/temp/dataset/6/1_8.odb,Step-1,Increment      1: Step Time =    1.000,"PART-1-1",           475,           15.,      -13.5938,            0.,NA,NA,"",   624.303E-03,  -513.421E-03,   355.180E-03,   11.7674E-03
C:/temp/dataset/6/1_8.odb,Step-1,Increment      1: Step Time =    1.000,"PART-1-1",           476,       9.85236,      -17.2546,            0.,NA,NA,"",   316.870E-03,  -293.220E-03,   120.119E-03,   14.8617E-03
C:/temp/dataset/6/1_8.odb,Step-1,Increment      1: Step Time =    1.000,"PART-1-1",           477,       8.68427,      -17.7513,            0.,NA,NA,"",   273.741E-03,  -261.843E-03,   79.8263E-03,   14.0869E-03
C:/temp/dataset/6/1_8.odb,Step-1,Increment      1: Step Time =    1.000,"PART-1-1",           478,       8.96140,      -18.9835,            0.,NA,NA,"",   221.778E-03,  -206.865E-03,   79.9503E-03,   14.2635E-03
C:/temp/dataset/6/1_8.odb,Step-1,Increment      1: Step Time =    1.000,"PART-1-1",           479,       10.1295,      -18.4868,            0.,NA,NA,"",   264.974E-03,  -237.373E-03,   117.751E-03,   15.2631E-03
C:/temp/dataset/6/1_8.odb,Step-1,Increment      1: Step Time =    1.000,"PART-1-1",           480,       11.2436,      -18.3856,            0.,NA,NA,"",   293.135E-03,  -250.533E-03,   152.189E-03,   16.3218E-03
C:/temp/dataset/6/1_8.odb,Step-1,Increment      1: Step Time =    1.000,"PART-1-1",           481,       12.3956,      -19.2305,            0.,NA,NA,"",   285.857E-03,  -224.793E-03,   176.585E-03,   18.2423E-03
C:/temp/dataset/6/1_8.odb,Step-1,Increment      1: Step Time =    1.000,"PART-1-1",           482,       13.1120,      -18.1414,            0.,NA,NA,"",   351.463E-03,  -276.938E-03,   216.405E-03,   18.3753E-03
C:/temp/dataset/6/1_8.odb,Step-1,Increment      1: Step Time =    1.000,"PART-1-1",           483,       11.9600,      -17.2965,            0.,NA,NA,"",   359.141E-03,  -305.961E-03,   188.069E-03,   16.4240E-03
C:/temp/dataset/6/1_8.odb,Step-1,Increment      1: Step Time =    1.000,"PART-1-1",           484,       14.0024,      -3.77677,            0.,NA,NA,"",       1.00207,  -951.420E-03,   314.548E-03,   4.20182E-03
C:/temp/dataset/6/1_8.odb,Step-1,Increment      1: Step Time =    1.000,"PART-1-1",           485,       13.0359,      -4.87313,            0.,NA,NA,"",   960.421E-03,  -916.461E-03,   287.242E-03,   2.19886E-03
C:/temp/dataset/6/1_8.odb,Step-1,Increment      1: Step Time =    1.000,"PART-1-1",           486,       14.0335,      -5.94012,            0.,NA,NA,"",   934.440E-03,  -876.564E-03,   323.748E-03,   3.55946E-03
C:/temp/dataset/6/1_8.odb,Step-1,Increment      1: Step Time =    1.000,"PART-1-1",           487,           15.,      -4.84375,            0.,NA,NA,"",   980.453E-03,  -914.872E-03,   352.560E-03,   6.47364E-03
C:/temp/dataset/6/1_8.odb,Step-1,Increment      1: Step Time =    1.000,"PART-1-1",           488,       13.0510,      -7.01836,            0.,NA,NA,"",   881.772E-03,  -832.648E-03,   290.206E-03,   4.71170E-03
C:/temp/dataset/6/1_8.odb,Step-1,Increment      1: Step Time =    1.000,"PART-1-1",           489,       14.0175,      -8.10950,            0.,NA,NA,"",   850.502E-03,  -784.713E-03,   327.992E-03,   3.08949E-03
C:/temp/dataset/6/1_8.odb,Step-1,Increment      1: Step Time =    1.000,"PART-1-1",           490,           15.,      -7.03125,            0.,NA,NA,"",   908.619E-03,  -831.771E-03,   365.712E-03,   4.14227E-03
C:/temp/dataset/6/1_8.odb,Step-1,Increment      1: Step Time =    1.000,"PART-1-1",           491,         13.75,            5.,            0.,NA,NA,"",       1.17936,      -1.14303,   290.480E-03,   451.817E-06
C:/temp/dataset/6/1_8.odb,Step-1,Increment      1: Step Time =    1.000,"PART-1-1",           492,       12.4982,       3.90020,            0.,NA,NA,"",       1.15092,      -1.12018,   264.222E-03,   1.72937E-03
C:/temp/dataset/6/1_8.odb,Step-1,Increment      1: Step Time =    1.000,"PART-1-1",           493,       13.7482,       2.80645,            0.,NA,NA,"",       1.13812,      -1.10024,   291.197E-03,   1.60547E-03
C:/temp/dataset/6/1_8.odb,Step-1,Increment      1: Step Time =    1.000,"PART-1-1",           494,           15.,       3.90625,            0.,NA,NA,"",       1.16519,      -1.12151,   316.034E-03,   394.437E-06
C:/temp/dataset/6/1_8.odb,Step-1,Increment      1: Step Time =    1.000,"PART-1-1",           495,         11.25,            5.,            0.,NA,NA,"",       1.16429,      -1.13955,   238.748E-03,   2.56447E-03
C:/temp/dataset/6/1_8.odb,Step-1,Increment      1: Step Time =    1.000,"PART-1-1",           496,       11.2740,       2.82937,            0.,NA,NA,"",       1.12463,      -1.09919,   237.829E-03,   2.30498E-03
C:/temp/dataset/6/1_8.odb,Step-1,Increment      1: Step Time =    1.000,"PART-1-1",           497,       11.1422,   446.578E-03,            0.,NA,NA,"",       1.08096,      -1.05539,   233.714E-03,   2.24232E-03
C:/temp/dataset/6/1_8.odb,Step-1,Increment      1: Step Time =    1.000,"PART-1-1",           498,       10.2035,  -836.101E-03,            0.,NA,NA,"",       1.05009,      -1.02871,   210.824E-03,   2.77294E-03
C:/temp/dataset/6/1_8.odb,Step-1,Increment      1: Step Time =    1.000,"PART-1-1",           499,       11.7017,      -1.82731,            0.,NA,NA,"",       1.03615,      -1.00648,   246.186E-03,   1.62104E-03
C:/temp/dataset/6/1_8.odb,Step-1,Increment      1: Step Time =    1.000,"PART-1-1",           500,       12.5035,       1.67834,            0.,NA,NA,"",       1.11110,      -1.07913,   264.640E-03,   2.83278E-03
C:/temp/dataset/6/1_8.odb,Step-1,Increment      1: Step Time =    1.000,"PART-1-1",           501,       9.91277,       1.59761,            0.,NA,NA,"",       1.09606,      -1.07593,   209.097E-03,   2.15707E-03
C:/temp/dataset/6/1_8.odb,Step-1,Increment      1: Step Time =    1.000,"PART-1-1",           502,       5.19643,       3.92738,            0.,NA,NA,"",       1.12086,      -1.11010,   154.896E-03,   4.27265E-03
C:/temp/dataset/6/1_8.odb,Step-1,Increment      1: Step Time =    1.000,"PART-1-1",           503,          3.75,            5.,            0.,NA,NA,"",       1.13135,      -1.12153,   148.709E-03,   4.78241E-03
C:/temp/dataset/6/1_8.odb,Step-1,Increment      1: Step Time =    1.000,"PART-1-1",           504,       2.66615,       3.61346,            0.,NA,NA,"",       1.12772,      -1.11746,   151.800E-03,   11.6392E-03
C:/temp/dataset/6/1_8.odb,Step-1,Increment      1: Step Time =    1.000,"PART-1-1",           505,      -1.00804,       2.95894,            0.,NA,NA,"",       1.16235,      -1.15143,   158.906E-03,   26.2476E-03
C:/temp/dataset/6/1_8.odb,Step-1,Increment      1: Step Time =    1.000,"PART-1-1",           506,   87.8012E-03,       3.95476,            0.,NA,NA,"",       1.16142,      -1.15167,   150.207E-03,   19.8830E-03
C:/temp/dataset/6/1_8.odb,Step-1,Increment      1: Step Time =    1.000,"PART-1-1",           507,         -1.25,            5.,            0.,NA,NA,"",       1.19458,      -1.18682,   135.885E-03,   28.8846E-03
C:/temp/dataset/6/1_8.odb,Step-1,Increment      1: Step Time =    1.000,"PART-1-1",           508,      -2.34584,       4.00418,            0.,NA,NA,"",       1.21826,      -1.20895,   150.259E-03,   31.5751E-03
C:/temp/dataset/6/1_8.odb,Step-1,Increment      1: Step Time =    1.000,"PART-1-1",           509,      -3.27281,       2.96378,            0.,NA,NA,"",       1.20729,      -1.19690,   158.041E-03,   30.8965E-03
C:/temp/dataset/6/1_8.odb,Step-1,Increment      1: Step Time =    1.000,"PART-1-1",           510,         -3.75,            5.,            0.,NA,NA,"",       1.28544,      -1.27876,   130.854E-03,   66.9290E-03
C:/temp/dataset/6/1_8.odb,Step-1,Increment      1: Step Time =    1.000,"PART-1-1",           511,      -4.67697,       3.95960,            0.,NA,NA,"",       1.28726,      -1.27736,   159.368E-03,   62.1953E-03
C:/temp/dataset/6/1_8.odb,Step-1,Increment      1: Step Time =    1.000,"PART-1-1",           512,      -7.93004,       8.58536,            0.,NA,NA,"",       1.93774,      -1.93652,  -68.7844E-03,   25.8774E-03
C:/temp/dataset/6/1_8.odb,Step-1,Increment      1: Step Time =    1.000,"PART-1-1",           513,      -8.65034,       7.25415,            0.,NA,NA,"",       1.71927,      -1.71084,  -170.100E-03,   18.1093E-03
C:/temp/dataset/6/1_8.odb,Step-1,Increment      1: Step Time =    1.000,"PART-1-1",           514,      -7.51010,       6.50150,            0.,NA,NA,"",       1.60591,      -1.60567,  -27.5382E-03,   32.5149E-03
C:/temp/dataset/6/1_8.odb,Step-1,Increment      1: Step Time =    1.000,"PART-1-1",           515,      -6.78981,       7.83270,            0.,NA,NA,"",       1.83409,      -1.83210,   85.4281E-03,   40.9598E-03
C:/temp/dataset/6/1_8.odb,Step-1,Increment      1: Step Time =    1.000,"PART-1-1",           516,      -7.08495,       12.0475,            0.,NA,NA,"",       2.59761,      -2.59610,   88.7399E-03,   28.0183E-03
C:/temp/dataset/6/1_8.odb,Step-1,Increment      1: Step Time =    1.000,"PART-1-1",           517,      -6.02998,       11.1050,            0.,NA,NA,"",       2.45853,      -2.44409,   266.056E-03,   37.8554E-03
C:/temp/dataset/6/1_8.odb,Step-1,Increment      1: Step Time =    1.000,"PART-1-1",           518,           -5.,       12.2917,            0.,NA,NA,"",       2.75479,      -2.71347,   475.383E-03,   43.3856E-03
C:/temp/dataset/6/1_8.odb,Step-1,Increment      1: Step Time =    1.000,"PART-1-1",           519,      -6.05497,       13.2342,            0.,NA,NA,"",       2.88271,      -2.86837,   287.174E-03,   32.7278E-03
C:/temp/dataset/6/1_8.odb,Step-1,Increment      1: Step Time =    1.000,"PART-1-1",           520,      -9.96524,       21.0498,            0.,NA,NA,"",       4.58396,      -4.53907,  -639.942E-03,   13.2296E-03
C:/temp/dataset/6/1_8.odb,Step-1,Increment      1: Step Time =    1.000,"PART-1-1",           521,      -8.51702,       20.1362,            0.,NA,NA,"",       4.36558,      -4.35577,  -292.548E-03,   12.9127E-03
C:/temp/dataset/6/1_8.odb,Step-1,Increment      1: Step Time =    1.000,"PART-1-1",           522,      -8.09442,       21.6565,            0.,NA,NA,"",       4.74525,      -4.73942,  -235.049E-03,   12.9698E-03
C:/temp/dataset/6/1_8.odb,Step-1,Increment      1: Step Time =    1.000,"PART-1-1",           523,      -9.54264,       22.5701,            0.,NA,NA,"",       4.95923,      -4.92402,  -589.897E-03,   13.0346E-03
C:/temp/dataset/6/1_8.odb,Step-1,Increment      1: Step Time =    1.000,"PART-1-1",           524,      -7.38593,       19.0122,            0.,NA,NA,"",       4.11900,      -4.11895,  -18.9904E-03,   15.5823E-03
C:/temp/dataset/6/1_8.odb,Step-1,Increment      1: Step Time =    1.000,"PART-1-1",           525,      -6.14460,       17.5723,            0.,NA,NA,"",       3.83008,      -3.82050,   270.596E-03,   22.3639E-03
C:/temp/dataset/6/1_8.odb,Step-1,Increment      1: Step Time =    1.000,"PART-1-1",           526,           -5.,       18.5417,            0.,NA,NA,"",       4.12148,      -4.08853,   520.138E-03,   25.5236E-03
C:/temp/dataset/6/1_8.odb,Step-1,Increment      1: Step Time =    1.000,"PART-1-1",           527,      -9.12859,       24.1056,            0.,NA,NA,"",       5.34569,      -5.31837,  -539.733E-03,   12.2019E-03
C:/temp/dataset/6/1_8.odb,Step-1,Increment      1: Step Time =    1.000,"PART-1-1",           528,      -7.82088,       23.2603,            0.,NA,NA,"",       5.15172,      -5.14728,  -213.781E-03,   12.8415E-03
C:/temp/dataset/6/1_8.odb,Step-1,Increment      1: Step Time =    1.000,"PART-1-1",           529,      -7.11221,       24.6459,            0.,NA,NA,"",       5.52064,      -5.52001,  -83.7293E-03,   12.6631E-03
C:/temp/dataset/6/1_8.odb,Step-1,Increment      1: Step Time =    1.000,"PART-1-1",           530,      -8.41993,       25.4912,            0.,NA,NA,"",       5.70243,      -5.68742,  -413.541E-03,   10.7549E-03
C:/temp/dataset/6/1_8.odb,Step-1,Increment      1: Step Time =    1.000,"PART-1-1",           531,           -5.,       28.9583,            0.,NA,NA,"",       6.67270,      -6.66539,   312.363E-03,   8.04322E-03
C:/temp/dataset/6/1_8.odb,Step-1,Increment      1: Step Time =    1.000,"PART-1-1",           532,         -6.25,           30.,            0.,NA,NA,"",       6.87275,      -6.87273,  -16.0472E-03,   7.99832E-03
C:/temp/dataset/6/1_8.odb,Step-1,Increment      1: Step Time =    1.000,"PART-1-1",           533,      -6.22481,       27.8751,            0.,NA,NA,"",       6.35606,      -6.35589,   45.7580E-03,   7.83285E-03
C:/temp/dataset/6/1_8.odb,Step-1,Increment      1: Step Time =    1.000,"PART-1-1",           534,      -11.1386,       27.5393,            0.,NA,NA,"",       6.20789,      -6.10773,      -1.11065,   5.90163E-03
C:/temp/dataset/6/1_8.odb,Step-1,Increment      1: Step Time =    1.000,"PART-1-1",           535,        -11.25,           30.,            0.,NA,NA,"",       6.80823,      -6.70026,      -1.20767,   2.66347E-03
C:/temp/dataset/6/1_8.odb,Step-1,Increment      1: Step Time =    1.000,"PART-1-1",           536,      -13.1147,       13.7606,            0.,NA,NA,"",       3.02361,      -2.83529,      -1.05038,   25.6583E-03
C:/temp/dataset/6/1_8.odb,Step-1,Increment      1: Step Time =    1.000,"PART-1-1",           537,      -14.0658,       14.9906,            0.,NA,NA,"",       3.34275,      -3.07991,      -1.29930,   29.1917E-03
C:/temp/dataset/6/1_8.odb,Step-1,Increment      1: Step Time =    1.000,"PART-1-1",           538,          -15.,         13.75,            0.,NA,NA,"",       3.16383,      -2.82237,      -1.42971,   39.6225E-03
C:/temp/dataset/6/1_8.odb,Step-1,Increment      1: Step Time =    1.000,"PART-1-1",           539,      -9.42834,       18.6970,            0.,NA,NA,"",       4.01421,      -3.98820,  -456.218E-03,   13.4210E-03
C:/temp/dataset/6/1_8.odb,Step-1,Increment      1: Step Time =    1.000,"PART-1-1",           540,      -8.29725,       17.5730,            0.,NA,NA,"",       3.75992,      -3.75509,  -190.375E-03,   14.6796E-03
C:/temp/dataset/6/1_8.odb,Step-1,Increment      1: Step Time =    1.000,"PART-1-1",           541,      -12.7588,       6.21303,            0.,NA,NA,"",       1.71187,      -1.56863,  -685.484E-03,   31.2789E-03
C:/temp/dataset/6/1_8.odb,Step-1,Increment      1: Step Time =    1.000,"PART-1-1",           542,          -15.,          6.25,            0.,NA,NA,"",       1.87736,      -1.60025,  -981.679E-03,   57.0395E-03
C:/temp/dataset/6/1_8.odb,Step-1,Increment      1: Step Time =    1.000,"PART-1-1",           543,      -9.01063,       9.47069,            0.,NA,NA,"",       2.08345,      -2.07068,  -230.322E-03,   16.7571E-03
C:/temp/dataset/6/1_8.odb,Step-1,Increment      1: Step Time =    1.000,"PART-1-1",           544,      -10.0811,       10.4578,            0.,NA,NA,"",       2.26874,      -2.23140,  -409.923E-03,   12.7775E-03
C:/temp/dataset/6/1_8.odb,Step-1,Increment      1: Step Time =    1.000,"PART-1-1",           545,      -10.9384,       9.05000,            0.,NA,NA,"",       2.04534,      -1.97927,  -515.647E-03,   15.2678E-03
C:/temp/dataset/6/1_8.odb,Step-1,Increment      1: Step Time =    1.000,"PART-1-1",           546,      -9.86794,       8.06293,            0.,NA,NA,"",       1.85861,      -1.82690,  -341.848E-03,   12.2416E-03
C:/temp/dataset/6/1_8.odb,Step-1,Increment      1: Step Time =    1.000,"PART-1-1",           547,      -7.23366,       1.29985,            0.,NA,NA,"",       1.10123,      -1.10089,  -27.3323E-03,   14.9701E-03
C:/temp/dataset/6/1_8.odb,Step-1,Increment      1: Step Time =    1.000,"PART-1-1",           548,      -8.34685,   784.410E-03,            0.,NA,NA,"",       1.07035,      -1.06375,  -118.631E-03,   16.6870E-03
C:/temp/dataset/6/1_8.odb,Step-1,Increment      1: Step Time =    1.000,"PART-1-1",           549,      -7.43977,  -685.632E-03,            0.,NA,NA,"",   990.831E-03,  -989.238E-03,  -56.1632E-03,   15.0422E-03
C:/temp/dataset/6/1_8.odb,Step-1,Increment      1: Step Time =    1.000,"PART-1-1",           550,      -12.4903,      -8.57964,            0.,NA,NA,"",   639.915E-03,  -548.393E-03,  -329.781E-03,   16.0415E-03
C:/temp/dataset/6/1_8.odb,Step-1,Increment      1: Step Time =    1.000,"PART-1-1",           551,          -15.,         -8.75,            0.,NA,NA,"",   719.713E-03,  -557.574E-03,  -455.080E-03,   21.6397E-03
C:/temp/dataset/6/1_8.odb,Step-1,Increment      1: Step Time =    1.000,"PART-1-1",           552,      -13.5658,      -9.92286,            0.,NA,NA,"",   606.790E-03,  -488.119E-03,  -360.463E-03,   18.7931E-03
C:/temp/dataset/6/1_8.odb,Step-1,Increment      1: Step Time =    1.000,"PART-1-1",           553,      -11.9783,      -7.15971,            0.,NA,NA,"",   699.654E-03,  -620.187E-03,  -323.859E-03,   13.9228E-03
C:/temp/dataset/6/1_8.odb,Step-1,Increment      1: Step Time =    1.000,"PART-1-1",           554,      -11.8960,      -5.22799,            0.,NA,NA,"",   801.592E-03,  -723.416E-03,  -345.281E-03,   13.9563E-03
C:/temp/dataset/6/1_8.odb,Step-1,Increment      1: Step Time =    1.000,"PART-1-1",           555,      -12.4565,      -16.3452,            0.,NA,NA,"",   297.409E-03,  -215.434E-03,  -205.038E-03,   17.1920E-03
C:/temp/dataset/6/1_8.odb,Step-1,Increment      1: Step Time =    1.000,"PART-1-1",           556,          -15.,        -16.25,            0.,NA,NA,"",   377.629E-03,  -241.586E-03,  -290.240E-03,   24.8640E-03
C:/temp/dataset/6/1_8.odb,Step-1,Increment      1: Step Time =    1.000,"PART-1-1",           557,      -13.7435,      -17.5611,            0.,NA,NA,"",   292.522E-03,  -189.096E-03,  -223.186E-03,   21.2212E-03
C:/temp/dataset/6/1_8.odb,Step-1,Increment      1: Step Time =    1.000,"PART-1-1",           558,      -9.99221,      -8.41662,            0.,NA,NA,"",   584.714E-03,  -547.959E-03,  -204.038E-03,   9.35846E-03
C:/temp/dataset/6/1_8.odb,Step-1,Increment      1: Step Time =    1.000,"PART-1-1",           559,      -11.4633,      -9.12095,            0.,NA,NA,"",   582.291E-03,  -515.708E-03,  -270.384E-03,   13.3723E-03
C:/temp/dataset/6/1_8.odb,Step-1,Increment      1: Step Time =    1.000,"PART-1-1",           560,      -10.8070,      -10.1141,            0.,NA,NA,"",   515.285E-03,  -463.099E-03,  -225.962E-03,   12.0307E-03
C:/temp/dataset/6/1_8.odb,Step-1,Increment      1: Step Time =    1.000,"PART-1-1",           561,      -13.9189,      -24.9166,            0.,NA,NA,"",   104.515E-03,  -54.8849E-03,  -88.9434E-03,   19.6882E-03
C:/temp/dataset/6/1_8.odb,Step-1,Increment      1: Step Time =    1.000,"PART-1-1",           562,      -12.9076,      -23.6273,            0.,NA,NA,"",   114.697E-03,  -61.2596E-03,  -96.9673E-03,   18.0880E-03
C:/temp/dataset/6/1_8.odb,Step-1,Increment      1: Step Time =    1.000,"PART-1-1",           563,          -15.,        -23.75,            0.,NA,NA,"",   147.335E-03,  -78.5941E-03,  -124.622E-03,   22.3185E-03
C:/temp/dataset/6/1_8.odb,Step-1,Increment      1: Step Time =    1.000,"PART-1-1",           564,          -15.,        -28.75,            0.,NA,NA,"",   37.0392E-03,  -25.1625E-03,  -27.1799E-03,   23.8378E-03
C:/temp/dataset/6/1_8.odb,Step-1,Increment      1: Step Time =    1.000,"PART-1-1",           565,        -13.75,          -30.,            0.,NA,NA,"",            0.,  -831.218E-42,  -30.8547E-39,   20.5965E-03
C:/temp/dataset/6/1_8.odb,Step-1,Increment      1: Step Time =    1.000,"PART-1-1",           566,      -13.7642,      -27.4123,            0.,NA,NA,"",   50.8989E-03,  -27.6712E-03,  -42.7200E-03,   19.5842E-03
C:/temp/dataset/6/1_8.odb,Step-1,Increment      1: Step Time =    1.000,"PART-1-1",           567,            5.,      -6.25625,            0.,NA,NA,"",   848.729E-03,  -847.627E-03,   43.2471E-03,   36.9476E-03
C:/temp/dataset/6/1_8.odb,Step-1,Increment      1: Step Time =    1.000,"PART-1-1",           568,       7.03347,      -6.11658,            0.,NA,NA,"",   878.138E-03,  -871.233E-03,   109.902E-03,   16.8562E-03
C:/temp/dataset/6/1_8.odb,Step-1,Increment      1: Step Time =    1.000,"PART-1-1",           569,       6.04361,      -4.83741,            0.,NA,NA,"",   934.277E-03,  -928.775E-03,   101.251E-03,   27.4602E-03
C:/temp/dataset/6/1_8.odb,Step-1,Increment      1: Step Time =    1.000,"PART-1-1",           570,           15.,      -2.65625,            0.,NA,NA,"",       1.03809,  -981.594E-03,   337.780E-03,   6.44663E-03
C:/temp/dataset/6/1_8.odb,Step-1,Increment      1: Step Time =    1.000,"PART-1-1",           571,       12.8875,      -2.72454,            0.,NA,NA,"",       1.02174,  -982.926E-03,   278.927E-03,   1.58383E-03
C:/temp/dataset/6/1_8.odb,Step-1,Increment      1: Step Time =    1.000,"PART-1-1",           572,       10.0248,      -7.91896,            0.,NA,NA,"",   810.073E-03,  -788.420E-03,   186.044E-03,   12.5998E-03
C:/temp/dataset/6/1_8.odb,Step-1,Increment      1: Step Time =    1.000,"PART-1-1",           573,       8.98203,      -8.99604,            0.,NA,NA,"",   744.862E-03,  -730.640E-03,   144.859E-03,   15.0456E-03
C:/temp/dataset/6/1_8.odb,Step-1,Increment      1: Step Time =    1.000,"PART-1-1",           574,       9.98204,      -10.2112,            0.,NA,NA,"",   692.049E-03,  -670.385E-03,   171.798E-03,   13.8969E-03
C:/temp/dataset/6/1_8.odb,Step-1,Increment      1: Step Time =    1.000,"PART-1-1",           575,            5.,      -11.2813,            0.,NA,NA,"",   587.583E-03,  -586.035E-03,  -42.6206E-03,   11.9233E-03
C:/temp/dataset/6/1_8.odb,Step-1,Increment      1: Step Time =    1.000,"PART-1-1",           576,       6.96001,      -11.3098,            0.,NA,NA,"",   598.445E-03,  -596.480E-03,   48.4512E-03,   13.0636E-03
C:/temp/dataset/6/1_8.odb,Step-1,Increment      1: Step Time =    1.000,"PART-1-1",           577,       12.1169,      -5.93459,            0.,NA,NA,"",   914.498E-03,  -877.271E-03,   258.268E-03,   4.88826E-03
C:/temp/dataset/6/1_8.odb,Step-1,Increment      1: Step Time =    1.000,"PART-1-1",           578,       11.1088,      -6.97100,            0.,NA,NA,"",   863.251E-03,  -833.594E-03,   224.326E-03,   8.76225E-03
C:/temp/dataset/6/1_8.odb,Step-1,Increment      1: Step Time =    1.000,"PART-1-1",           579,           15.,      -11.4063,            0.,NA,NA,"",   726.567E-03,  -625.566E-03,   369.550E-03,   5.82223E-03
C:/temp/dataset/6/1_8.odb,Step-1,Increment      1: Step Time =    1.000,"PART-1-1",           580,       13.9991,      -10.3053,            0.,NA,NA,"",   752.383E-03,  -678.248E-03,   325.668E-03,   5.63512E-03
C:/temp/dataset/6/1_8.odb,Step-1,Increment      1: Step Time =    1.000,"PART-1-1",           581,       12.9941,      -11.4223,            0.,NA,NA,"",   676.880E-03,  -616.926E-03,   278.512E-03,   10.3573E-03
C:/temp/dataset/6/1_8.odb,Step-1,Increment      1: Step Time =    1.000,"PART-1-1",           582,           15.,      -9.21875,            0.,NA,NA,"",   822.881E-03,  -733.737E-03,   372.509E-03,   390.762E-06
C:/temp/dataset/6/1_8.odb,Step-1,Increment      1: Step Time =    1.000,"PART-1-1",           583,       9.25975,      -25.9916,            0.,NA,NA,"",   38.4489E-03,  -27.5242E-03,   26.8465E-03,   8.72169E-03
C:/temp/dataset/6/1_8.odb,Step-1,Increment      1: Step Time =    1.000,"PART-1-1",           584,       7.97004,      -27.0667,            0.,NA,NA,"",   17.1069E-03,  -13.4396E-03,   10.5840E-03,   4.81262E-03
C:/temp/dataset/6/1_8.odb,Step-1,Increment      1: Step Time =    1.000,"PART-1-1",           585,       9.98268,      -20.3187,            0.,NA,NA,"",   187.795E-03,  -162.235E-03,   94.5884E-03,   14.7492E-03
C:/temp/dataset/6/1_8.odb,Step-1,Increment      1: Step Time =    1.000,"PART-1-1",           586,       8.47236,      -19.9740,            0.,NA,NA,"",   172.614E-03,  -162.256E-03,   58.8961E-03,   13.4822E-03
C:/temp/dataset/6/1_8.odb,Step-1,Increment      1: Step Time =    1.000,"PART-1-1",           587,       7.80775,      -21.2882,            0.,NA,NA,"",   117.296E-03,  -112.472E-03,   33.2907E-03,   10.2916E-03
C:/temp/dataset/6/1_8.odb,Step-1,Increment      1: Step Time =    1.000,"PART-1-1",           588,       9.31806,      -21.6330,            0.,NA,NA,"",   131.358E-03,  -114.278E-03,   64.7723E-03,   11.8807E-03
C:/temp/dataset/6/1_8.odb,Step-1,Increment      1: Step Time =    1.000,"PART-1-1",           589,          3.75,          -20.,            0.,NA,NA,"",   100.166E-03,  -99.5111E-03,  -11.4347E-03,   21.0097E-03
C:/temp/dataset/6/1_8.odb,Step-1,Increment      1: Step Time =    1.000,"PART-1-1",           590,       2.69482,      -20.9389,            0.,NA,NA,"",   85.9664E-03,  -85.1075E-03,  -12.1212E-03,   9.88823E-03
C:/temp/dataset/6/1_8.odb,Step-1,Increment      1: Step Time =    1.000,"PART-1-1",           591,       4.10336,      -21.5712,            0.,NA,NA,"",   90.8599E-03,  -88.6917E-03,  -19.7307E-03,   12.0204E-03
C:/temp/dataset/6/1_8.odb,Step-1,Increment      1: Step Time =    1.000,"PART-1-1",           592,       5.15854,      -20.6323,            0.,NA,NA,"",   113.187E-03,  -110.863E-03,  -22.8226E-03,   19.0260E-03
C:/temp/dataset/6/1_8.odb,Step-1,Increment      1: Step Time =    1.000,"PART-1-1",           593,          1.25,          -20.,            0.,NA,NA,"",   74.6186E-03,  -74.5842E-03,  -2.26488E-03,   6.77975E-03
C:/temp/dataset/6/1_8.odb,Step-1,Increment      1: Step Time =    1.000,"PART-1-1",           594,       1.58638,      -22.3782,            0.,NA,NA,"",   68.2967E-03,  -67.6602E-03,  -9.30237E-03,   9.94774E-03
C:/temp/dataset/6/1_8.odb,Step-1,Increment      1: Step Time =    1.000,"PART-1-1",           595,      -7.18878,      -21.5166,            0.,NA,NA,"",   68.1371E-03,  -63.5716E-03,  -24.5216E-03,   3.38835E-03
C:/temp/dataset/6/1_8.odb,Step-1,Increment      1: Step Time =    1.000,"PART-1-1",           596,      -8.69544,      -20.4918,            0.,NA,NA,"",   103.130E-03,  -85.6573E-03,  -57.4345E-03,   8.04576E-03
C:/temp/dataset/6/1_8.odb,Step-1,Increment      1: Step Time =    1.000,"PART-1-1",           597,      -9.53108,      -21.9939,            0.,NA,NA,"",   88.6400E-03,  -63.5666E-03,  -61.7765E-03,   9.61714E-03
C:/temp/dataset/6/1_8.odb,Step-1,Increment      1: Step Time =    1.000,"PART-1-1",           598,      -8.02442,      -23.0186,            0.,NA,NA,"",   55.2391E-03,  -45.5240E-03,  -31.2878E-03,   5.06822E-03
C:/temp/dataset/6/1_8.odb,Step-1,Increment      1: Step Time =    1.000,"PART-1-1",           599,           -5.,      -18.7437,            0.,NA,NA,"",   122.848E-03,  -121.365E-03,   19.0303E-03,   9.95854E-03
C:/temp/dataset/6/1_8.odb,Step-1,Increment      1: Step Time =    1.000,"PART-1-1",           600,      -6.23242,      -17.5731,            0.,NA,NA,"",   153.988E-03,  -153.727E-03,  -8.96946E-03,   2.86451E-03
C:/temp/dataset/6/1_8.odb,Step-1,Increment      1: Step Time =    1.000,"PART-1-1",           601,      -7.41830,      -18.9573,            0.,NA,NA,"",   120.633E-03,  -114.461E-03,  -38.0936E-03,   4.36097E-03
C:/temp/dataset/6/1_8.odb,Step-1,Increment      1: Step Time =    1.000,"PART-1-1",           602,      -6.18588,      -20.1280,            0.,NA,NA,"",   83.9704E-03,  -83.3592E-03,  -10.1128E-03,   4.76577E-03
C:/temp/dataset/6/1_8.odb,Step-1,Increment      1: Step Time =    1.000,"PART-1-1",           603,           -5.,      -16.2312,            0.,NA,NA,"",   204.839E-03,  -201.749E-03,   35.4461E-03,   6.21339E-03
C:/temp/dataset/6/1_8.odb,Step-1,Increment      1: Step Time =    1.000,"PART-1-1",           604,      -7.44257,      -16.3835,            0.,NA,NA,"",   197.933E-03,  -192.677E-03,  -45.3089E-03,   2.80931E-03
C:/temp/dataset/6/1_8.odb,Step-1,Increment      1: Step Time =    1.000,"PART-1-1",           605,      -12.6830,      -26.0788,            0.,NA,NA,"",   64.4830E-03,  -32.7582E-03,  -55.5424E-03,   17.2078E-03
C:/temp/dataset/6/1_8.odb,Step-1,Increment      1: Step Time =    1.000,"PART-1-1",           606,          -15.,        -26.25,            0.,NA,NA,"",   92.3544E-03,  -51.2626E-03,  -76.8212E-03,   21.5198E-03
C:/temp/dataset/6/1_8.odb,Step-1,Increment      1: Step Time =    1.000,"PART-1-1",           607,         -8.75,          -30.,            0.,NA,NA,"",            0.,   411.140E-42,  -13.8424E-39,   7.15368E-03
C:/temp/dataset/6/1_8.odb,Step-1,Increment      1: Step Time =    1.000,"PART-1-1",           608,          -15.,        -18.75,            0.,NA,NA,"",   288.375E-03,  -170.098E-03,  -232.867E-03,   24.8316E-03
C:/temp/dataset/6/1_8.odb,Step-1,Increment      1: Step Time =    1.000,"PART-1-1",           609,      -12.5734,      -18.8685,            0.,NA,NA,"",   221.244E-03,  -144.376E-03,  -167.644E-03,   17.7013E-03
C:/temp/dataset/6/1_8.odb,Step-1,Increment      1: Step Time =    1.000,"PART-1-1",           610,           -5.,      -11.2063,            0.,NA,NA,"",   410.289E-03,  -406.671E-03,   54.3644E-03,   5.00157E-03
C:/temp/dataset/6/1_8.odb,Step-1,Increment      1: Step Time =    1.000,"PART-1-1",           611,      -7.25264,      -11.4522,            0.,NA,NA,"",   394.546E-03,  -391.288E-03,  -50.5982E-03,   2.36131E-03
C:/temp/dataset/6/1_8.odb,Step-1,Increment      1: Step Time =    1.000,"PART-1-1",           612,           -5.,      -6.23750,            0.,NA,NA,"",   691.077E-03,  -687.834E-03,   66.8686E-03,   7.82189E-03
C:/temp/dataset/6/1_8.odb,Step-1,Increment      1: Step Time =    1.000,"PART-1-1",           613,      -6.16987,      -5.46941,            0.,NA,NA,"",   741.879E-03,  -741.818E-03,  -9.47314E-03,   16.5481E-03
C:/temp/dataset/6/1_8.odb,Step-1,Increment      1: Step Time =    1.000,"PART-1-1",           614,      -7.24309,      -6.98789,            0.,NA,NA,"",   636.154E-03,  -632.626E-03,  -66.9005E-03,   4.90300E-03
C:/temp/dataset/6/1_8.odb,Step-1,Increment      1: Step Time =    1.000,"PART-1-1",           615,           -5.,       16.4583,            0.,NA,NA,"",       3.64396,      -3.60642,   521.677E-03,   31.5404E-03
C:/temp/dataset/6/1_8.odb,Step-1,Increment      1: Step Time =    1.000,"PART-1-1",           616,      -7.23328,       16.4840,            0.,NA,NA,"",       3.53667,      -3.53635,   47.8754E-03,   19.7088E-03
C:/temp/dataset/6/1_8.odb,Step-1,Increment      1: Step Time =    1.000,"PART-1-1",           617,      -6.08867,       15.3700,            0.,NA,NA,"",       3.33660,      -3.32400,   289.653E-03,   27.6482E-03
C:/temp/dataset/6/1_8.odb,Step-1,Increment      1: Step Time =    1.000,"PART-1-1",           618,      -13.1522,       16.1892,            0.,NA,NA,"",       3.54173,      -3.34586,      -1.16152,   21.7194E-03
C:/temp/dataset/6/1_8.odb,Step-1,Increment      1: Step Time =    1.000,"PART-1-1",           619,      -14.0864,       17.4486,            0.,NA,NA,"",       3.87995,      -3.61069,      -1.42021,   23.2201E-03
C:/temp/dataset/6/1_8.odb,Step-1,Increment      1: Step Time =    1.000,"PART-1-1",           620,          -15.,         16.25,            0.,NA,NA,"",       3.68598,      -3.33717,      -1.56516,   31.7246E-03
C:/temp/dataset/6/1_8.odb,Step-1,Increment      1: Step Time =    1.000,"PART-1-1",           621,           -5.,       24.7917,            0.,NA,NA,"",       5.65414,      -5.63828,   423.186E-03,   10.6066E-03
C:/temp/dataset/6/1_8.odb,Step-1,Increment      1: Step Time =    1.000,"PART-1-1",           622,      -6.14442,       25.7689,            0.,NA,NA,"",       5.83948,      -5.83826,   119.448E-03,   9.99843E-03
C:/temp/dataset/6/1_8.odb,Step-1,Increment      1: Step Time =    1.000,"PART-1-1",           623,           -5.,        26.875,            0.,NA,NA,"",       6.16681,      -6.15581,   368.263E-03,   8.62979E-03
C:/temp/dataset/6/1_8.odb,Step-1,Increment      1: Step Time =    1.000,"PART-1-1",           624,      -7.36924,       26.7689,            0.,NA,NA,"",       6.04509,      -6.04180,  -199.389E-03,   9.35512E-03
C:/temp/dataset/6/1_8.odb,Step-1,Increment      1: Step Time =    1.000,"PART-1-1",           625,      -13.1175,       20.9132,            0.,NA,NA,"",       4.63224,      -4.43195,      -1.34741,   13.8982E-03
C:/temp/dataset/6/1_8.odb,Step-1,Increment      1: Step Time =    1.000,"PART-1-1",           626,      -14.0212,       22.2867,            0.,NA,NA,"",       5.00854,      -4.74165,      -1.61313,   11.3096E-03
C:/temp/dataset/6/1_8.odb,Step-1,Increment      1: Step Time =    1.000,"PART-1-1",           627,          -15.,         21.25,            0.,NA,NA,"",       4.82160,      -4.47085,      -1.80534,   16.0863E-03
C:/temp/dataset/6/1_8.odb,Step-1,Increment      1: Step Time =    1.000,"PART-1-1",           628,      -14.0963,       19.8765,            0.,NA,NA,"",       4.43857,      -4.16610,      -1.53119,   17.2266E-03
C:/temp/dataset/6/1_8.odb,Step-1,Increment      1: Step Time =    1.000,"PART-1-1",           629,         -1.25,           -5.,            0.,NA,NA,"",   921.257E-03,  -909.761E-03,   145.088E-03,   22.7077E-03
C:/temp/dataset/6/1_8.odb,Step-1,Increment      1: Step Time =    1.000,"PART-1-1",           630,      -1.77292,      -3.03732,            0.,NA,NA,"",   956.446E-03,  -943.749E-03,   155.329E-03,   17.0982E-03
C:/temp/dataset/6/1_8.odb,Step-1,Increment      1: Step Time =    1.000,"PART-1-1",           631,      -12.1053,      -2.30059,            0.,NA,NA,"",   968.250E-03,  -881.526E-03,  -400.525E-03,   19.1811E-03
C:/temp/dataset/6/1_8.odb,Step-1,Increment      1: Step Time =    1.000,"PART-1-1",           632,      -10.7648,      -1.40855,            0.,NA,NA,"",   979.818E-03,  -929.603E-03,  -309.647E-03,   17.6291E-03
C:/temp/dataset/6/1_8.odb,Step-1,Increment      1: Step Time =    1.000,"PART-1-1",           633,      -11.5438,  -354.672E-03,            0.,NA,NA,"",       1.06243,  -989.778E-03,  -386.137E-03,   21.8386E-03
C:/temp/dataset/6/1_8.odb,Step-1,Increment      1: Step Time =    1.000,"PART-1-1",           634,          3.75,           -5.,            0.,NA,NA,"",   957.524E-03,  -948.118E-03,   133.885E-03,   17.8553E-03
C:/temp/dataset/6/1_8.odb,Step-1,Increment      1: Step Time =    1.000,"PART-1-1",           635,       4.52066,      -3.83856,            0.,NA,NA,"",   954.610E-03,  -947.745E-03,   114.279E-03,   29.0527E-03
C:/temp/dataset/6/1_8.odb,Step-1,Increment      1: Step Time =    1.000,"PART-1-1",           636,       2.94662,      -2.72704,            0.,NA,NA,"",   980.441E-03,  -969.589E-03,   145.472E-03,   20.9625E-03
C:/temp/dataset/6/1_8.odb,Step-1,Increment      1: Step Time =    1.000,"PART-1-1",           637,       1.50395,       2.56821,            0.,NA,NA,"",       1.12127,      -1.11012,   157.705E-03,   18.9195E-03
C:/temp/dataset/6/1_8.odb,Step-1,Increment      1: Step Time =    1.000,"PART-1-1",           638,          1.25,            5.,            0.,NA,NA,"",       1.15221,      -1.14314,   144.266E-03,   15.0260E-03
C:/temp/dataset/6/1_8.odb,Step-1,Increment      1: Step Time =    1.000,"PART-1-1",           639,          6.25,            5.,            0.,NA,NA,"",       1.13288,      -1.12118,   162.374E-03,   2.17915E-03
C:/temp/dataset/6/1_8.odb,Step-1,Increment      1: Step Time =    1.000,"PART-1-1",           640,  -213.968E-03,      -26.0734,            0.,NA,NA,"",   29.6109E-03,  -29.3792E-03,  -3.69674E-03,   6.94627E-03
C:/temp/dataset/6/1_8.odb,Step-1,Increment      1: Step Time =    1.000,"PART-1-1",           641,       1.14210,      -23.8512,            0.,NA,NA,"",   53.2083E-03,  -52.6515E-03,  -7.67730E-03,   8.60000E-03
C:/temp/dataset/6/1_8.odb,Step-1,Increment      1: Step Time =    1.000,"PART-1-1",           642,  -234.527E-03,      -23.9674,            0.,NA,NA,"",   49.3496E-03,  -49.1836E-03,  -4.04461E-03,   8.06226E-03
C:/temp/dataset/6/1_8.odb,Step-1,Increment      1: Step Time =    1.000,"PART-1-1",           643,           -5.,        14.375,            0.,NA,NA,"",       3.18702,      -3.14644,   506.937E-03,   37.4671E-03
C:/temp/dataset/6/1_8.odb,Step-1,Increment      1: Step Time =    1.000,"PART-1-1",           644,      -7.14364,       14.2292,            0.,NA,NA,"",       3.04439,      -3.04334,   79.8286E-03,   23.8184E-03
C:/temp/dataset/6/1_8.odb,Step-1,Increment      1: Step Time =    1.000,"PART-1-1",           645,           -5.,       6.04167,            0.,NA,NA,"",       1.60509,      -1.58351,   262.299E-03,   98.3162E-03
C:/temp/dataset/6/1_8.odb,Step-1,Increment      1: Step Time =    1.000,"PART-1-1",           646,      -5.82078,       6.95384,            0.,NA,NA,"",       1.71823,      -1.70732,   193.392E-03,   54.4475E-03
C:/temp/dataset/6/1_8.odb,Step-1,Increment      1: Step Time =    1.000,"PART-1-1",           647,      -6.45742,       5.85906,            0.,NA,NA,"",       1.51467,      -1.51237,   83.4910E-03,   41.3431E-03
C:/temp/dataset/6/1_8.odb,Step-1,Increment      1: Step Time =    1.000,"PART-1-1",           648,      -5.63664,       4.94688,            0.,NA,NA,"",       1.37963,      -1.37219,   143.045E-03,   73.7296E-03
C:/temp/dataset/6/1_8.odb,Step-1,Increment      1: Step Time =    1.000,"PART-1-1",           649,           -5.,         8.125,            0.,NA,NA,"",       1.97518,      -1.94153,   363.052E-03,   57.8563E-03
C:/temp/dataset/6/1_8.odb,Step-1,Increment      1: Step Time =    1.000,"PART-1-1",           650,      -5.96903,       9.00386,            0.,NA,NA,"",       2.07309,      -2.05975,   234.817E-03,   44.2512E-03
C:/temp/dataset/6/1_8.odb,Step-1,Increment      1: Step Time =    1.000,"PART-1-1",           651,          -15.,         -3.75,            0.,NA,NA,"",   994.770E-03,  -822.330E-03,  -559.768E-03,   25.0967E-03
C:/temp/dataset/6/1_8.odb,Step-1,Increment      1: Step Time =    1.000,"PART-1-1",           652,      -12.7846,      -3.59401,            0.,NA,NA,"",   918.918E-03,  -814.108E-03,  -426.191E-03,   19.5342E-03
C:/temp/dataset/6/1_8.odb,Step-1,Increment      1: Step Time =    1.000,"PART-1-1",           653,      -11.5430,      -4.20540,            0.,NA,NA,"",   847.327E-03,  -777.858E-03,  -336.006E-03,   13.3531E-03
C:/temp/dataset/6/1_8.odb,Step-1,Increment      1: Step Time =    1.000,"PART-1-1",           654,      -10.1018,      -4.29084,            0.,NA,NA,"",   812.489E-03,  -775.565E-03,  -242.151E-03,   9.34292E-03
C:/temp/dataset/6/1_8.odb,Step-1,Increment      1: Step Time =    1.000,"PART-1-1",           655,          -15.,        -11.25,            0.,NA,NA,"",   594.394E-03,  -437.485E-03,  -402.381E-03,   22.8853E-03
C:/temp/dataset/6/1_8.odb,Step-1,Increment      1: Step Time =    1.000,"PART-1-1",           656,      -12.2331,      -11.1785,            0.,NA,NA,"",   502.746E-03,  -419.387E-03,  -277.250E-03,   15.8996E-03
C:/temp/dataset/6/1_8.odb,Step-1,Increment      1: Step Time =    1.000,"PART-1-1",           657,       5.21391,      -1.02834,            0.,NA,NA,"",       1.02398,      -1.01399,   142.632E-03,   17.0879E-03
C:/temp/dataset/6/1_8.odb,Step-1,Increment      1: Step Time =    1.000,"PART-1-1",           658,       6.72319,      -1.59046,            0.,NA,NA,"",       1.01639,      -1.00591,   145.540E-03,   13.0919E-03
C:/temp/dataset/6/1_8.odb,Step-1,Increment      1: Step Time =    1.000,"PART-1-1",           659,       10.9187,      -16.2245,            0.,NA,NA,"",   387.682E-03,  -351.386E-03,   163.784E-03,   15.5061E-03
C:/temp/dataset/6/1_8.odb,Step-1,Increment      1: Step Time =    1.000,"PART-1-1",           660,       11.9858,      -14.8752,            0.,NA,NA,"",   478.276E-03,  -427.782E-03,   213.894E-03,   14.6944E-03
C:/temp/dataset/6/1_8.odb,Step-1,Increment      1: Step Time =    1.000,"PART-1-1",           661,       10.9746,      -13.7451,            0.,NA,NA,"",   517.061E-03,  -482.659E-03,   185.451E-03,   14.6404E-03
C:/temp/dataset/6/1_8.odb,Step-1,Increment      1: Step Time =    1.000,"PART-1-1",           662,       11.9830,      -12.5543,            0.,NA,NA,"",   598.653E-03,  -552.029E-03,   231.622E-03,   12.9558E-03
C:/temp/dataset/6/1_8.odb,Step-1,Increment      1: Step Time =    1.000,"PART-1-1",           663,           15.,      -20.1563,            0.,NA,NA,"",   326.632E-03,  -216.785E-03,   244.321E-03,   25.9509E-03
C:/temp/dataset/6/1_8.odb,Step-1,Increment      1: Step Time =    1.000,"PART-1-1",           664,       14.0841,      -19.1367,            0.,NA,NA,"",   338.387E-03,  -244.700E-03,   233.726E-03,   22.0423E-03
C:/temp/dataset/6/1_8.odb,Step-1,Increment      1: Step Time =    1.000,"PART-1-1",           665,       13.0385,      -20.2889,            0.,NA,NA,"",   261.799E-03,  -190.858E-03,   179.198E-03,   19.9126E-03
C:/temp/dataset/6/1_8.odb,Step-1,Increment      1: Step Time =    1.000,"PART-1-1",           666,           15.,      -17.9688,            0.,NA,NA,"",   420.201E-03,  -302.909E-03,   291.229E-03,   22.5681E-03
C:/temp/dataset/6/1_8.odb,Step-1,Increment      1: Step Time =    1.000,"PART-1-1",           667,          1.25,          -30.,            0.,NA,NA,"",            0.,  -3.75153E-39,  -2.84425E-39,   3.96177E-03
C:/temp/dataset/6/1_8.odb,Step-1,Increment      1: Step Time =    1.000,"PART-1-1",           668,       3.30543,      -22.6598,            0.,NA,NA,"",   72.0262E-03,  -70.3981E-03,  -15.2278E-03,   11.3849E-03
C:/temp/dataset/6/1_8.odb,Step-1,Increment      1: Step Time =    1.000,"PART-1-1",           669,       2.86115,      -24.1329,            0.,NA,NA,"",   52.3786E-03,  -51.0729E-03,  -11.6223E-03,   9.51628E-03
C:/temp/dataset/6/1_8.odb,Step-1,Increment      1: Step Time =    1.000,"PART-1-1",           670,      -10.6801,      -21.6169,            0.,NA,NA,"",   114.811E-03,  -75.1813E-03,  -86.7716E-03,   12.7668E-03
C:/temp/dataset/6/1_8.odb,Step-1,Increment      1: Step Time =    1.000,"PART-1-1",           671,      -11.3394,      -20.4213,            0.,NA,NA,"",   153.056E-03,  -100.841E-03,  -115.140E-03,   14.5610E-03
C:/temp/dataset/6/1_8.odb,Step-1,Increment      1: Step Time =    1.000,"PART-1-1",           672,      -12.1593,      -22.4638,            0.,NA,NA,"",   125.209E-03,  -71.4564E-03,  -102.817E-03,   16.3033E-03
C:/temp/dataset/6/1_8.odb,Step-1,Increment      1: Step Time =    1.000,"PART-1-1",           673,      -9.92443,      -16.4516,            0.,NA,NA,"",   232.338E-03,  -197.070E-03,  -123.062E-03,   10.0971E-03
C:/temp/dataset/6/1_8.odb,Step-1,Increment      1: Step Time =    1.000,"PART-1-1",           674,      -8.71114,      -17.7111,            0.,NA,NA,"",   171.602E-03,  -153.295E-03,  -77.1226E-03,   6.73450E-03
C:/temp/dataset/6/1_8.odb,Step-1,Increment      1: Step Time =    1.000,"PART-1-1",           675,      -9.25100,      -7.50767,            0.,NA,NA,"",   621.522E-03,  -597.078E-03,  -172.590E-03,   6.72681E-03
C:/temp/dataset/6/1_8.odb,Step-1,Increment      1: Step Time =    1.000,"PART-1-1",           676,      -8.32615,      -6.25855,            0.,NA,NA,"",   683.620E-03,  -671.447E-03,  -128.431E-03,   5.79385E-03
C:/temp/dataset/6/1_8.odb,Step-1,Increment      1: Step Time =    1.000,"PART-1-1",           677,      -7.58018,      -5.09368,            0.,NA,NA,"",   753.802E-03,  -748.692E-03,  -87.6233E-03,   10.2160E-03
C:/temp/dataset/6/1_8.odb,Step-1,Increment      1: Step Time =    1.000,"PART-1-1",           678,      -6.67379,      -3.84489,            0.,NA,NA,"",   837.484E-03,  -837.033E-03,  -27.4970E-03,   16.1724E-03
C:/temp/dataset/6/1_8.odb,Step-1,Increment      1: Step Time =    1.000,"PART-1-1",           679,      -2.40491,      -1.03021,            0.,NA,NA,"",       1.02425,      -1.01249,   154.723E-03,   17.0291E-03
C:/temp/dataset/6/1_8.odb,Step-1,Increment      1: Step Time =    1.000,"PART-1-1",           680,      -3.32453,      -2.14711,            0.,NA,NA,"",   970.138E-03,  -961.123E-03,   131.946E-03,   14.8119E-03
C:/temp/dataset/6/1_8.odb,Step-1,Increment      1: Step Time =    1.000,"PART-1-1",           681,       10.4745,      -24.8101,            0.,NA,NA,"",   73.8973E-03,  -50.9626E-03,   53.5129E-03,   13.1331E-03
C:/temp/dataset/6/1_8.odb,Step-1,Increment      1: Step Time =    1.000,"PART-1-1",           682,       8.16019,      -23.0435,            0.,NA,NA,"",   78.5342E-03,  -72.4645E-03,   30.2742E-03,   6.90034E-03
C:/temp/dataset/6/1_8.odb,Step-1,Increment      1: Step Time =    1.000,"PART-1-1",           683,       9.40124,      -23.8494,            0.,NA,NA,"",   77.6879E-03,  -62.5806E-03,   46.0336E-03,   9.99963E-03
C:/temp/dataset/6/1_8.odb,Step-1,Increment      1: Step Time =    1.000,"PART-1-1",           684,       5.67200,      -27.0943,            0.,NA,NA,"",   14.7924E-03,  -14.7907E-03,  -222.183E-06,   3.74859E-03
C:/temp/dataset/6/1_8.odb,Step-1,Increment      1: Step Time =    1.000,"PART-1-1",           685,       4.86106,      -26.0050,            0.,NA,NA,"",   27.0295E-03,  -26.6577E-03,  -4.46796E-03,   5.37783E-03
C:/temp/dataset/6/1_8.odb,Step-1,Increment      1: Step Time =    1.000,"PART-1-1",           686,      -2.55341,      -23.8484,            0.,NA,NA,"",   45.6136E-03,  -45.6066E-03,   794.605E-06,   6.87262E-03
C:/temp/dataset/6/1_8.odb,Step-1,Increment      1: Step Time =    1.000,"PART-1-1",           687,      -4.82130,      -23.8875,            0.,NA,NA,"",   39.3937E-03,  -39.3264E-03,  -2.30069E-03,   4.67909E-03
C:/temp/dataset/6/1_8.odb,Step-1,Increment      1: Step Time =    1.000,"PART-1-1",           688,      -5.84083,      -25.1777,            0.,NA,NA,"",   26.6465E-03,  -25.6262E-03,  -7.30271E-03,   3.73576E-03
C:/temp/dataset/6/1_8.odb,Step-1,Increment      1: Step Time =    1.000,"PART-1-1",           689,           15.,      -26.7188,            0.,NA,NA,"",   106.095E-03,  -61.6646E-03,   86.3348E-03,   27.5311E-03
C:/temp/dataset/6/1_8.odb,Step-1,Increment      1: Step Time =    1.000,"PART-1-1",           690,       10.9874,      -11.4075,            0.,NA,NA,"",   642.157E-03,  -609.865E-03,   201.072E-03,   13.6375E-03
C:/temp/dataset/6/1_8.odb,Step-1,Increment      1: Step Time =    1.000,"PART-1-1",           691,       7.29436,      -19.7763,            0.,NA,NA,"",   162.476E-03,  -159.679E-03,   30.0146E-03,   13.2954E-03
C:/temp/dataset/6/1_8.odb,Step-1,Increment      1: Step Time =    1.000,"PART-1-1",           692,       7.78340,      -18.7858,            0.,NA,NA,"",   213.141E-03,  -207.799E-03,   47.4188E-03,   13.4365E-03
C:/temp/dataset/6/1_8.odb,Step-1,Increment      1: Step Time =    1.000,"PART-1-1",           693,       10.8970,      -2.99004,            0.,NA,NA,"",       1.00189,  -976.504E-03,   224.110E-03,   2.67928E-03
C:/temp/dataset/6/1_8.odb,Step-1,Increment      1: Step Time =    1.000,"PART-1-1",           694,       12.0828,      -3.88727,            0.,NA,NA,"",   983.780E-03,  -949.625E-03,   256.974E-03,   1.78327E-03
C:/temp/dataset/6/1_8.odb,Step-1,Increment      1: Step Time =    1.000,"PART-1-1",           695,           15.,       1.71875,            0.,NA,NA,"",       1.12514,      -1.07915,   318.387E-03,   2.24804E-03
C:/temp/dataset/6/1_8.odb,Step-1,Increment      1: Step Time =    1.000,"PART-1-1",           696,       4.00043,  -427.215E-03,            0.,NA,NA,"",       1.03704,      -1.02631,   148.783E-03,   20.0582E-03
C:/temp/dataset/6/1_8.odb,Step-1,Increment      1: Step Time =    1.000,"PART-1-1",           697,       2.09609,       1.00148,            0.,NA,NA,"",       1.07970,      -1.06784,   159.594E-03,   20.1176E-03
C:/temp/dataset/6/1_8.odb,Step-1,Increment      1: Step Time =    1.000,"PART-1-1",           698,       2.38138,  -554.063E-03,            0.,NA,NA,"",       1.03677,      -1.02475,   157.392E-03,   22.6759E-03
C:/temp/dataset/6/1_8.odb,Step-1,Increment      1: Step Time =    1.000,"PART-1-1",           699,   35.7305E-03,       2.11113,            0.,NA,NA,"",       1.12628,      -1.11444,   162.832E-03,   23.0151E-03
C:/temp/dataset/6/1_8.odb,Step-1,Increment      1: Step Time =    1.000,"PART-1-1",           700,           -5.,       10.2083,            0.,NA,NA,"",       2.34939,      -2.31036,   426.436E-03,   49.0798E-03
C:/temp/dataset/6/1_8.odb,Step-1,Increment      1: Step Time =    1.000,"PART-1-1",           701,      -6.99901,       9.90050,            0.,NA,NA,"",       2.19150,      -2.18983,   85.5555E-03,   33.0491E-03
C:/temp/dataset/6/1_8.odb,Step-1,Increment      1: Step Time =    1.000,"PART-1-1",           702,      -11.2396,       16.2208,            0.,NA,NA,"",       3.46824,      -3.38257,  -766.077E-03,   14.9182E-03
C:/temp/dataset/6/1_8.odb,Step-1,Increment      1: Step Time =    1.000,"PART-1-1",           703,      -10.2112,       15.1096,            0.,NA,NA,"",       3.20239,      -3.15844,  -528.716E-03,   12.9401E-03
C:/temp/dataset/6/1_8.odb,Step-1,Increment      1: Step Time =    1.000,"PART-1-1",           704,      -9.25876,       16.3324,            0.,NA,NA,"",       3.46756,      -3.44821,  -365.761E-03,   13.8949E-03
C:/temp/dataset/6/1_8.odb,Step-1,Increment      1: Step Time =    1.000,"PART-1-1",           705,      -10.2871,       17.4437,            0.,NA,NA,"",       3.72647,      -3.67699,  -605.258E-03,   13.0039E-03
C:/temp/dataset/6/1_8.odb,Step-1,Increment      1: Step Time =    1.000,"PART-1-1",           706,      -8.19479,       15.2434,            0.,NA,NA,"",       3.23604,      -3.23327,  -134.033E-03,   16.9723E-03
C:/temp/dataset/6/1_8.odb,Step-1,Increment      1: Step Time =    1.000,"PART-1-1",           707,      -9.19446,       14.0222,            0.,NA,NA,"",       2.96368,      -2.94734,  -310.776E-03,   14.6577E-03
C:/temp/dataset/6/1_8.odb,Step-1,Increment      1: Step Time =    1.000,"PART-1-1",           708,      -8.14331,       13.0080,            0.,NA,NA,"",       2.76336,      -2.76141,  -103.757E-03,   19.4490E-03
C:/temp/dataset/6/1_8.odb,Step-1,Increment      1: Step Time =    1.000,"PART-1-1",           709,          -15.,         18.75,            0.,NA,NA,"",       4.24125,      -3.88960,      -1.69091,   23.8711E-03
C:/temp/dataset/6/1_8.odb,Step-1,Increment      1: Step Time =    1.000,"PART-1-1",           710,      -13.1826,       18.5751,            0.,NA,NA,"",       4.08280,      -3.88089,      -1.26805,   17.7794E-03
C:/temp/dataset/6/1_8.odb,Step-1,Increment      1: Step Time =    1.000,"PART-1-1",           711,      -11.2313,       23.3702,            0.,NA,NA,"",       5.17384,      -5.07597,      -1.00154,   11.4172E-03
C:/temp/dataset/6/1_8.odb,Step-1,Increment      1: Step Time =    1.000,"PART-1-1",           712,      -10.8173,       24.9058,            0.,NA,NA,"",       5.55038,      -5.46761,  -954.974E-03,   10.0186E-03
C:/temp/dataset/6/1_8.odb,Step-1,Increment      1: Step Time =    1.000,"PART-1-1",           713,      -13.5418,       24.7667,            0.,NA,NA,"",       5.58947,      -5.35831,      -1.59082,   6.64598E-03
C:/temp/dataset/6/1_8.odb,Step-1,Increment      1: Step Time =    1.000,"PART-1-1",           714,      -12.2278,       25.9824,            0.,NA,NA,"",       5.84414,      -5.69317,      -1.31977,   7.30637E-03
C:/temp/dataset/6/1_8.odb,Step-1,Increment      1: Step Time =    1.000,"PART-1-1",           715,          -15.,         26.25,            0.,NA,NA,"",       6.01983,      -5.68006,      -1.99380,   3.16483E-03
C:/temp/dataset/6/1_8.odb,Step-1,Increment      1: Step Time =    1.000,"PART-1-1",           716,          -15.,         23.75,            0.,NA,NA,"",       5.41789,      -5.07141,      -1.90639,   8.89504E-03
C:/temp/dataset/6/1_8.odb,Step-1,Increment      1: Step Time =    1.000,"PART-1-1",           717,      -12.5630,       23.3034,            0.,NA,NA,"",       5.19244,      -5.02504,      -1.30785,   10.7251E-03
C:/temp/dataset/6/1_8.odb,Step-1,Increment      1: Step Time =    1.000,"PART-1-1",           718,      -11.1827,       13.8735,            0.,NA,NA,"",       2.96037,      -2.88047,  -683.116E-03,   15.4367E-03
C:/temp/dataset/6/1_8.odb,Step-1,Increment      1: Step Time =    1.000,"PART-1-1",           719,      -10.1659,       12.7861,            0.,NA,NA,"",       2.71554,      -2.67494,  -467.806E-03,   12.9218E-03
C:/temp/dataset/6/1_8.odb,Step-1,Increment      1: Step Time =    1.000,"PART-1-1",           720,      -11.4858,       20.4947,            0.,NA,NA,"",       4.47255,      -4.36788,  -961.948E-03,   13.5311E-03
C:/temp/dataset/6/1_8.odb,Step-1,Increment      1: Step Time =    1.000,"PART-1-1",           721,      -10.4732,       19.7487,            0.,NA,NA,"",       4.27253,      -4.21259,  -713.156E-03,   13.1693E-03
C:/temp/dataset/6/1_8.odb,Step-1,Increment      1: Step Time =    1.000,"PART-1-1",           722,      -10.9778,       21.7959,            0.,NA,NA,"",       4.77942,      -4.69554,  -891.500E-03,   12.9231E-03
C:/temp/dataset/6/1_8.odb,Step-1,Increment      1: Step Time =    1.000,"PART-1-1",           723,      -9.13796,       11.7463,            0.,NA,NA,"",       2.50297,      -2.48836,  -270.097E-03,   15.6333E-03
C:/temp/dataset/6/1_8.odb,Step-1,Increment      1: Step Time =    1.000,"PART-1-1",           724,      -11.1090,       11.4975,            0.,NA,NA,"",       2.48588,      -2.41149,  -603.585E-03,   15.7392E-03
C:/temp/dataset/6/1_8.odb,Step-1,Increment      1: Step Time =    1.000,"PART-1-1",           725,      -7.95801,       5.48811,            0.,NA,NA,"",       1.46541,      -1.46317,  -81.0033E-03,   18.1629E-03
C:/temp/dataset/6/1_8.odb,Step-1,Increment      1: Step Time =    1.000,"PART-1-1",           726,      -9.27172,       5.51676,            0.,NA,NA,"",       1.48735,      -1.46883,  -234.008E-03,   11.1375E-03
C:/temp/dataset/6/1_8.odb,Step-1,Increment      1: Step Time =    1.000,"PART-1-1",           727,      -9.10783,       4.19071,            0.,NA,NA,"",       1.33716,      -1.32180,  -202.115E-03,   12.9355E-03
C:/temp/dataset/6/1_8.odb,Step-1,Increment      1: Step Time =    1.000,"PART-1-1",           728,      -7.79412,       4.16207,            0.,NA,NA,"",       1.31530,      -1.31375,  -63.8309E-03,   16.3093E-03
C:/temp/dataset/6/1_8.odb,Step-1,Increment      1: Step Time =    1.000,"PART-1-1",           729,      -10.3652,   710.465E-03,            0.,NA,NA,"",       1.09423,      -1.05354,  -295.609E-03,   19.6548E-03
C:/temp/dataset/6/1_8.odb,Step-1,Increment      1: Step Time =    1.000,"PART-1-1",           730,      -11.5756,       2.14983,            0.,NA,NA,"",       1.23432,      -1.15581,  -433.160E-03,   24.7392E-03
C:/temp/dataset/6/1_8.odb,Step-1,Increment      1: Step Time =    1.000,"PART-1-1",           731,      -10.9514,      -7.70102,            0.,NA,NA,"",   643.756E-03,  -588.168E-03,  -261.686E-03,   11.2927E-03
C:/temp/dataset/6/1_8.odb,Step-1,Increment      1: Step Time =    1.000,"PART-1-1",           732,      -11.1587,      -15.1039,            0.,NA,NA,"",   307.275E-03,  -249.682E-03,  -179.101E-03,   13.3783E-03
C:/temp/dataset/6/1_8.odb,Step-1,Increment      1: Step Time =    1.000,"PART-1-1",           733,      -11.0422,      -12.5823,            0.,NA,NA,"",   405.994E-03,  -349.704E-03,  -206.249E-03,   12.8907E-03
C:/temp/dataset/6/1_8.odb,Step-1,Increment      1: Step Time =    1.000,"PART-1-1",           734,      -9.98828,      -19.2456,            0.,NA,NA,"",   153.195E-03,  -118.381E-03,  -97.2345E-03,   11.0476E-03
C:/temp/dataset/6/1_8.odb,Step-1,Increment      1: Step Time =    1.000,"PART-1-1",           735,      -11.2222,      -17.6929,            0.,NA,NA,"",   222.320E-03,  -165.908E-03,  -147.989E-03,   14.0556E-03
C:/temp/dataset/6/1_8.odb,Step-1,Increment      1: Step Time =    1.000,"PART-1-1",           736,      -9.72809,       26.4627,            0.,NA,NA,"",       5.93373,      -5.88648,  -747.328E-03,   8.91506E-03
C:/temp/dataset/6/1_8.odb,Step-1,Increment      1: Step Time =    1.000,"PART-1-1",           737,      -8.07960,       10.7858,            0.,NA,NA,"",       2.32861,      -2.32702,  -85.8625E-03,   22.1598E-03
C:/temp/dataset/6/1_8.odb,Step-1,Increment      1: Step Time =    1.000,"PART-1-1",           738,      -11.3320,       18.4953,            0.,NA,NA,"",       3.99161,      -3.89789,  -859.896E-03,   14.3432E-03
C:/temp/dataset/6/1_8.odb,Step-1,Increment      1: Step Time =    1.000,"PART-1-1",           739,      -10.4893,       6.32554,            0.,NA,NA,"",       1.62285,      -1.57380,  -395.942E-03,   13.4994E-03
C:/temp/dataset/6/1_8.odb,Step-1,Increment      1: Step Time =    1.000,"PART-1-1",           740,      -11.8356,       7.66802,            0.,NA,NA,"",       1.86454,      -1.76217,  -609.308E-03,   22.6840E-03
C:/temp/dataset/6/1_8.odb,Step-1,Increment      1: Step Time =    1.000,"PART-1-1",           741,      -11.4125,       4.87054,            0.,NA,NA,"",       1.48197,      -1.40303,  -477.236E-03,   22.0912E-03
C:/temp/dataset/6/1_8.odb,Step-1,Increment      1: Step Time =    1.000,"PART-1-1",           742,       10.1911,      -5.79504,            0.,NA,NA,"",   905.424E-03,  -883.265E-03,   199.090E-03,   8.71232E-03
C:/temp/dataset/6/1_8.odb,Step-1,Increment      1: Step Time =    1.000,"PART-1-1",           743,       9.10708,      -6.74300,            0.,NA,NA,"",   858.036E-03,  -842.396E-03,   163.081E-03,   12.6026E-03
C:/temp/dataset/6/1_8.odb,Step-1,Increment      1: Step Time =    1.000,"PART-1-1",           744,       11.1638,      -4.94873,            0.,NA,NA,"",   942.930E-03,  -914.608E-03,   229.367E-03,   4.90675E-03
C:/temp/dataset/6/1_8.odb,Step-1,Increment      1: Step Time =    1.000,"PART-1-1",           745,       10.4293,      -4.08570,            0.,NA,NA,"",   967.078E-03,  -944.073E-03,   209.682E-03,   4.73766E-03
C:/temp/dataset/6/1_8.odb,Step-1,Increment      1: Step Time =    1.000,"PART-1-1",           746,       9.97038,      -14.8971,            0.,NA,NA,"",   438.871E-03,  -415.565E-03,   141.115E-03,   14.3168E-03
C:/temp/dataset/6/1_8.odb,Step-1,Increment      1: Step Time =    1.000,"PART-1-1",           747,       9.96577,      -12.5508,            0.,NA,NA,"",   565.196E-03,  -543.130E-03,   156.383E-03,   14.1500E-03
C:/temp/dataset/6/1_8.odb,Step-1,Increment      1: Step Time =    1.000,"PART-1-1",           748,       8.96159,      -13.7029,            0.,NA,NA,"",   488.548E-03,  -475.553E-03,   111.930E-03,   13.8219E-03
C:/temp/dataset/6/1_8.odb,Step-1,Increment      1: Step Time =    1.000,"PART-1-1",           749,       6.92617,      -22.4012,            0.,NA,NA,"",   81.3630E-03,  -80.6164E-03,   10.9966E-03,   4.48837E-03
C:/temp/dataset/6/1_8.odb,Step-1,Increment      1: Step Time =    1.000,"PART-1-1",           750,       5.94981,      -23.5281,            0.,NA,NA,"",   58.4112E-03,  -58.3734E-03,  -2.10195E-03,   4.27864E-03
C:/temp/dataset/6/1_8.odb,Step-1,Increment      1: Step Time =    1.000,"PART-1-1",           751,       7.18383,      -24.1705,            0.,NA,NA,"",   50.7230E-03,  -49.3592E-03,   11.6830E-03,   3.30747E-03
C:/temp/dataset/6/1_8.odb,Step-1,Increment      1: Step Time =    1.000,"PART-1-1",           752,       11.0968,      -20.2176,            0.,NA,NA,"",   215.593E-03,  -175.506E-03,   125.212E-03,   16.1734E-03
C:/temp/dataset/6/1_8.odb,Step-1,Increment      1: Step Time =    1.000,"PART-1-1",           753,       6.43355,      -20.8801,            0.,NA,NA,"",   112.963E-03,  -112.885E-03,   4.18065E-03,   8.78452E-03
C:/temp/dataset/6/1_8.odb,Step-1,Increment      1: Step Time =    1.000,"PART-1-1",           754,       8.96045,      -11.3546,            0.,NA,NA,"",   617.354E-03,  -604.137E-03,   127.060E-03,   14.4783E-03
C:/temp/dataset/6/1_8.odb,Step-1,Increment      1: Step Time =    1.000,"PART-1-1",           755,       8.17216,      -2.03287,            0.,NA,NA,"",       1.01310,  -999.730E-03,   164.078E-03,   7.44325E-03
C:/temp/dataset/6/1_8.odb,Step-1,Increment      1: Step Time =    1.000,"PART-1-1",           756,       9.68046,      -2.49017,            0.,NA,NA,"",       1.00884,  -989.954E-03,   194.273E-03,   4.70520E-03
C:/temp/dataset/6/1_8.odb,Step-1,Increment      1: Step Time =    1.000,"PART-1-1",           757,      -5.24373,       2.94722,            0.,NA,NA,"",       1.21769,      -1.21177,   119.916E-03,   29.3673E-03
C:/temp/dataset/6/1_8.odb,Step-1,Increment      1: Step Time =    1.000,"PART-1-1",           758,      -6.20341,       3.93450,            0.,NA,NA,"",       1.28702,      -1.28438,   82.4494E-03,   31.8154E-03
C:/temp/dataset/6/1_8.odb,Step-1,Increment      1: Step Time =    1.000,"PART-1-1",           759,       7.87036,      -17.0650,            0.,NA,NA,"",   297.957E-03,  -292.536E-03,   56.5767E-03,   11.6745E-03
C:/temp/dataset/6/1_8.odb,Step-1,Increment      1: Step Time =    1.000,"PART-1-1",           760,      -8.77165,      -4.61616,            0.,NA,NA,"",   781.633E-03,  -765.583E-03,  -157.585E-03,   8.47100E-03
C:/temp/dataset/6/1_8.odb,Step-1,Increment      1: Step Time =    1.000,"PART-1-1",           761,       8.90402,      -15.9271,            0.,NA,NA,"",   369.033E-03,  -355.966E-03,   97.3310E-03,   13.7559E-03
C:/temp/dataset/6/1_8.odb,Step-1,Increment      1: Step Time =    1.000,"PART-1-1",           762,       7.94609,      -14.8939,            0.,NA,NA,"",   412.415E-03,  -406.915E-03,   67.1305E-03,   11.3189E-03
C:/temp/dataset/6/1_8.odb,Step-1,Increment      1: Step Time =    1.000,"PART-1-1",           763,      -12.3095,       21.7291,            0.,NA,NA,"",       4.79757,      -4.64702,      -1.19242,   12.3918E-03
C:/temp/dataset/6/1_8.odb,Step-1,Increment      1: Step Time =    1.000,"PART-1-1",           764,      -12.2938,       19.6789,            0.,NA,NA,"",       4.30232,      -4.15581,      -1.11318,   14.3691E-03
C:/temp/dataset/6/1_8.odb,Step-1,Increment      1: Step Time =    1.000,"PART-1-1",           765,       3.72209,      -1.78065,            0.,NA,NA,"",       1.00346,  -993.042E-03,   144.253E-03,   22.1276E-03
C:/temp/dataset/6/1_8.odb,Step-1,Increment      1: Step Time =    1.000,"PART-1-1",           766,       6.45852,      -3.38063,            0.,NA,NA,"",   972.732E-03,  -964.806E-03,   123.924E-03,   14.7400E-03
C:/temp/dataset/6/1_8.odb,Step-1,Increment      1: Step Time =    1.000,"PART-1-1",           767,       4.93556,      -2.38177,            0.,NA,NA,"",   989.417E-03,  -980.784E-03,   130.417E-03,   21.1731E-03
C:/temp/dataset/6/1_8.odb,Step-1,Increment      1: Step Time =    1.000,"PART-1-1",           768,      -2.94024,   945.156E-03,            0.,NA,NA,"",       1.10807,      -1.09734,   153.825E-03,   21.6779E-03
C:/temp/dataset/6/1_8.odb,Step-1,Increment      1: Step Time =    1.000,"PART-1-1",           769,      -1.69279,      -25.0756,            0.,NA,NA,"",   36.3213E-03,  -36.2930E-03,  -1.43407E-03,   7.26252E-03
C:/temp/dataset/6/1_8.odb,Step-1,Increment      1: Step Time =    1.000,"PART-1-1",           770,      -6.93923,      -23.9860,            0.,NA,NA,"",   38.3507E-03,  -34.8205E-03,  -16.0719E-03,   2.73320E-03
C:/temp/dataset/6/1_8.odb,Step-1,Increment      1: Step Time =    1.000,"PART-1-1",           771,      -5.91970,      -22.6959,            0.,NA,NA,"",   49.8678E-03,  -49.2926E-03,  -7.55177E-03,   2.16174E-03
C:/temp/dataset/6/1_8.odb,Step-1,Increment      1: Step Time =    1.000,"PART-1-1",           772,      -12.2208,       17.3915,            0.,NA,NA,"",       3.76592,      -3.62750,      -1.01163,   16.3886E-03
C:/temp/dataset/6/1_8.odb,Step-1,Increment      1: Step Time =    1.000,"PART-1-1",           773,      -12.0398,       10.1961,            0.,NA,NA,"",       2.28495,      -2.16836,  -720.566E-03,   22.2772E-03
C:/temp/dataset/6/1_8.odb,Step-1,Increment      1: Step Time =    1.000,"PART-1-1",           774,      -10.8637,      -2.91198,            0.,NA,NA,"",   900.564E-03,  -847.921E-03,  -303.391E-03,   14.4506E-03
C:/temp/dataset/6/1_8.odb,Step-1,Increment      1: Step Time =    1.000,"PART-1-1",           775,      -9.61620,      -11.5179,            0.,NA,NA,"",   421.804E-03,  -391.685E-03,  -156.530E-03,   9.06110E-03
C:/temp/dataset/6/1_8.odb,Step-1,Increment      1: Step Time =    1.000,"PART-1-1",           776,      -11.8201,      -24.5932,            0.,NA,NA,"",   79.6204E-03,  -42.1761E-03,  -67.5321E-03,   15.2016E-03
C:/temp/dataset/6/1_8.odb,Step-1,Increment      1: Step Time =    1.000,"PART-1-1",           777,      -11.0718,      -23.4296,            0.,NA,NA,"",   88.4620E-03,  -51.3547E-03,  -72.0293E-03,   13.4585E-03
C:/temp/dataset/6/1_8.odb,Step-1,Increment      1: Step Time =    1.000,"PART-1-1",           778,       4.75405,      -23.0816,            0.,NA,NA,"",   66.0674E-03,  -64.9019E-03,  -12.3550E-03,   7.60215E-03
C:/temp/dataset/6/1_8.odb,Step-1,Increment      1: Step Time =    1.000,"PART-1-1",           779,       5.55198,      -21.9930,            0.,NA,NA,"",   84.7001E-03,  -84.1516E-03,  -9.62332E-03,   6.96321E-03
C:/temp/dataset/6/1_8.odb,Step-1,Increment      1: Step Time =    1.000,"PART-1-1",           780,       7.01336,      -26.0950,            0.,NA,NA,"",   24.3217E-03,  -23.3474E-03,   6.81491E-03,   3.59232E-03
C:/temp/dataset/6/1_8.odb,Step-1,Increment      1: Step Time =    1.000,"PART-1-1",           781,       4.10189,      -23.9882,            0.,NA,NA,"",   53.6891E-03,  -52.3549E-03,  -11.8950E-03,   8.29359E-03
C:/temp/dataset/6/1_8.odb,Step-1,Increment      1: Step Time =    1.000,"PART-1-1",           782,       4.14804,      -25.2051,            0.,NA,NA,"",   37.7604E-03,  -36.8374E-03,  -8.29763E-03,   7.03402E-03
C:/temp/dataset/6/1_8.odb,Step-1,Increment      1: Step Time =    1.000,"PART-1-1",           783,      -12.1264,       12.6156,            0.,NA,NA,"",       2.74114,      -2.61610,  -818.468E-03,   20.6278E-03
C:/temp/dataset/6/1_8.odb,Step-1,Increment      1: Step Time =    1.000,"PART-1-1",           784,      -12.1709,       15.0185,            0.,NA,NA,"",       3.23831,      -3.10681,  -913.443E-03,   18.4992E-03
C:/temp/dataset/6/1_8.odb,Step-1,Increment      1: Step Time =    1.000,"PART-1-1",           785,      -10.3060,       3.43341,            0.,NA,NA,"",       1.29639,      -1.25544,  -323.267E-03,   16.9038E-03
C:/temp/dataset/6/1_8.odb,Step-1,Increment      1: Step Time =    1.000,"PART-1-1",           786,      -9.35047,  -311.861E-03,            0.,NA,NA,"",       1.01552,  -995.307E-03,  -201.624E-03,   17.2328E-03
C:/temp/dataset/6/1_8.odb,Step-1,Increment      1: Step Time =    1.000,"PART-1-1",           787,      -9.47746,      -1.56252,            0.,NA,NA,"",   949.393E-03,  -926.171E-03,  -208.700E-03,   15.6995E-03
C:/temp/dataset/6/1_8.odb,Step-1,Increment      1: Step Time =    1.000,"PART-1-1",           788,      -7.56677,      -1.93629,            0.,NA,NA,"",   926.413E-03,  -923.647E-03,  -71.5345E-03,   14.7721E-03
C:/temp/dataset/6/1_8.odb,Step-1,Increment      1: Step Time =    1.000,"PART-1-1",           789,      -9.57637,      -3.06595,            0.,NA,NA,"",   871.459E-03,  -845.238E-03,  -212.165E-03,   12.2289E-03
C:/temp/dataset/6/1_8.odb,Step-1,Increment      1: Step Time =    1.000,"PART-1-1",           790,      -8.24618,      -3.39128,            0.,NA,NA,"",   848.588E-03,  -839.655E-03,  -122.801E-03,   13.1913E-03
C:/temp/dataset/6/1_8.odb,Step-1,Increment      1: Step Time =    1.000,"PART-1-1",           791,       7.98922,      -7.69035,            0.,NA,NA,"",   803.184E-03,  -793.841E-03,   122.149E-03,   17.5726E-03
C:/temp/dataset/6/1_8.odb,Step-1,Increment      1: Step Time =    1.000,"PART-1-1",           792,       7.96586,      -10.1263,            0.,NA,NA,"",   673.262E-03,  -665.939E-03,   99.0350E-03,   15.0463E-03
C:/temp/dataset/6/1_8.odb,Step-1,Increment      1: Step Time =    1.000,"PART-1-1",           793,       7.95460,      -12.5381,            0.,NA,NA,"",   540.710E-03,  -534.715E-03,   80.2921E-03,   12.5889E-03
C:/temp/dataset/6/1_8.odb,Step-1,Increment      1: Step Time =    1.000,"PART-1-1",           794,      -6.90534,       4.84567,            0.,NA,NA,"",       1.38199,      -1.38169,   28.5521E-03,   27.0119E-03
C:/temp/dataset/6/1_8.odb,Step-1,Increment      1: Step Time =    1.000,"PART-1-1",           795,      -7.09219,       3.25090,            0.,NA,NA,"",       1.23142,      -1.23142,   459.487E-06,   19.6085E-03
C:/temp/dataset/6/1_8.odb,Step-1,Increment      1: Step Time =    1.000,"PART-1-1",           796,      -5.99438,      -2.38990,            0.,NA,NA,"",   921.546E-03,  -921.294E-03,   21.5570E-03,   14.8487E-03
C:/temp/dataset/6/1_8.odb,Step-1,Increment      1: Step Time =    1.000,"PART-1-1",           797,      -8.16339,       2.56404,            0.,NA,NA,"",       1.18447,      -1.18031,  -99.1800E-03,   16.0500E-03
C:/temp/dataset/6/1_8.odb,Step-1,Increment      1: Step Time =    1.000,"PART-1-1",           798,      -6.16245,       1.98671,            0.,NA,NA,"",       1.14941,      -1.14811,   54.5866E-03,   20.6020E-03
C:/temp/dataset/6/1_8.odb,Step-1,Increment      1: Step Time =    1.000,"PART-1-1",           799,      -9.36160,       1.80674,            0.,NA,NA,"",       1.14572,      -1.12617,  -210.726E-03,   17.5638E-03
C:/temp/dataset/6/1_8.odb,Step-1,Increment      1: Step Time =    1.000,"PART-1-1",           800,      -4.18828,       1.89018,            0.,NA,NA,"",       1.15551,      -1.14757,   135.285E-03,   26.0873E-03
C:/temp/dataset/6/1_8.odb,Step-1,Increment      1: Step Time =    1.000,"PART-1-1",           801,      -2.02478,       2.01876,            0.,NA,NA,"",       1.14831,      -1.13691,   161.379E-03,   28.7135E-03
C:/temp/dataset/6/1_8.odb,Step-1,Increment      1: Step Time =    1.000,"PART-1-1",           802,       5.29765,      -24.4346,            0.,NA,NA,"",   45.5283E-03,  -45.1715E-03,  -5.68842E-03,   5.34126E-03
C:/temp/dataset/6/1_8.odb,Step-1,Increment      1: Step Time =    1.000,"PART-1-1",           803,       8.18651,      -25.0309,            0.,NA,NA,"",   43.4229E-03,  -38.0749E-03,   20.8771E-03,   5.44506E-03
C:/temp/dataset/6/1_8.odb,Step-1,Increment      1: Step Time =    1.000,"PART-1-1",           804,       6.01068,      -25.2345,            0.,NA,NA,"",   34.0803E-03,  -34.0802E-03,   66.8139E-06,   3.73277E-03
