ODB Name,Step,Frame,Part Instance Name,    êﬂì_ÉâÉxÉã,X,Y,Z,Section Name,Material Name,Section Point,   U-Magnitude,          U-U1,          U-U2,       S-Mises
C:/temp/dataset/6/20_12.odb,Step-1,Increment      1: Step Time =    1.000,"PART-1-1",             1,            5.,           -5.,            0.,NA,NA,"",   579.654E-03,   577.626E-03,   48.4407E-03,   20.4667E-03
C:/temp/dataset/6/20_12.odb,Step-1,Increment      1: Step Time =    1.000,"PART-1-1",             2,            0.,           -5.,            0.,NA,NA,"",   632.767E-03,   630.401E-03,   54.6691E-03,   7.10656E-03
C:/temp/dataset/6/20_12.odb,Step-1,Increment      1: Step Time =    1.000,"PART-1-1",             3,            5.,      -10.0250,            0.,NA,NA,"",   409.932E-03,   401.701E-03,   81.7339E-03,   1.83390E-03
C:/temp/dataset/6/20_12.odb,Step-1,Increment      1: Step Time =    1.000,"PART-1-1",             4,            5.,      -15.0500,            0.,NA,NA,"",   257.584E-03,   245.213E-03,   78.8668E-03,   4.11402E-03
C:/temp/dataset/6/20_12.odb,Step-1,Increment      1: Step Time =    1.000,"PART-1-1",             5,            5.,          -20.,            0.,NA,NA,"",   104.651E-03,   98.4444E-03,   35.5050E-03,   20.3884E-03
C:/temp/dataset/6/20_12.odb,Step-1,Increment      1: Step Time =    1.000,"PART-1-1",             6,            0.,          -20.,            0.,NA,NA,"",   85.8589E-03,   85.8498E-03,  -1.25384E-03,   3.32747E-03
C:/temp/dataset/6/20_12.odb,Step-1,Increment      1: Step Time =    1.000,"PART-1-1",             7,           -5.,          -20.,            0.,NA,NA,"",   157.875E-03,   147.830E-03,  -55.4149E-03,   34.3152E-03
C:/temp/dataset/6/20_12.odb,Step-1,Increment      1: Step Time =    1.000,"PART-1-1",             8,           -5.,      -14.9750,            0.,NA,NA,"",   418.928E-03,   408.682E-03,  -92.0830E-03,   7.27290E-03
C:/temp/dataset/6/20_12.odb,Step-1,Increment      1: Step Time =    1.000,"PART-1-1",             9,           -5.,      -9.95000,            0.,NA,NA,"",   585.235E-03,   584.191E-03,  -34.9495E-03,   16.9884E-03
C:/temp/dataset/6/20_12.odb,Step-1,Increment      1: Step Time =    1.000,"PART-1-1",            10,           -5.,           -5.,            0.,NA,NA,"",   658.554E-03,   657.156E-03,   42.9021E-03,   12.6722E-03
C:/temp/dataset/6/20_12.odb,Step-1,Increment      1: Step Time =    1.000,"PART-1-1",            11,           15.,          -30.,            0.,NA,NA,"",            0.,   5.93794E-39,  -10.4927E-39,   20.4552E-03
C:/temp/dataset/6/20_12.odb,Step-1,Increment      1: Step Time =    1.000,"PART-1-1",            12,          -15.,          -30.,            0.,NA,NA,"",            0.,   9.05582E-39,   15.9535E-39,   30.1454E-03
C:/temp/dataset/6/20_12.odb,Step-1,Increment      1: Step Time =    1.000,"PART-1-1",            13,           15.,        -21.25,            0.,NA,NA,"",   149.169E-03,   107.352E-03,  -103.571E-03,   12.0333E-03
C:/temp/dataset/6/20_12.odb,Step-1,Increment      1: Step Time =    1.000,"PART-1-1",            14,           15.,         -12.5,            0.,NA,NA,"",   371.200E-03,   326.615E-03,  -176.386E-03,   3.77084E-03
C:/temp/dataset/6/20_12.odb,Step-1,Increment      1: Step Time =    1.000,"PART-1-1",            15,           15.,         -3.75,            0.,NA,NA,"",   599.613E-03,   575.864E-03,  -167.085E-03,   4.78976E-03
C:/temp/dataset/6/20_12.odb,Step-1,Increment      1: Step Time =    1.000,"PART-1-1",            16,           15.,            5.,            0.,NA,NA,"",   756.437E-03,   741.177E-03,  -151.176E-03,   164.924E-06
C:/temp/dataset/6/20_12.odb,Step-1,Increment      1: Step Time =    1.000,"PART-1-1",            17,           10.,            5.,            0.,NA,NA,"",   740.347E-03,   738.231E-03,  -55.9273E-03,   2.75986E-03
C:/temp/dataset/6/20_12.odb,Step-1,Increment      1: Step Time =    1.000,"PART-1-1",            18,            5.,            5.,            0.,NA,NA,"",   718.080E-03,   717.665E-03,   24.4074E-03,   5.83166E-03
C:/temp/dataset/6/20_12.odb,Step-1,Increment      1: Step Time =    1.000,"PART-1-1",            19,            0.,            5.,            0.,NA,NA,"",   698.842E-03,   696.047E-03,   62.4391E-03,   2.94880E-03
C:/temp/dataset/6/20_12.odb,Step-1,Increment      1: Step Time =    1.000,"PART-1-1",            20,           -5.,            5.,            0.,NA,NA,"",   698.990E-03,   694.918E-03,   75.3447E-03,   1.86444E-03
C:/temp/dataset/6/20_12.odb,Step-1,Increment      1: Step Time =    1.000,"PART-1-1",            21,           -5.,         11.25,            0.,NA,NA,"",   728.575E-03,   724.641E-03,   75.6055E-03,   64.9085E-06
C:/temp/dataset/6/20_12.odb,Step-1,Increment      1: Step Time =    1.000,"PART-1-1",            22,           -5.,          17.5,            0.,NA,NA,"",   754.379E-03,   750.574E-03,   75.6721E-03,   1.94499E-06
C:/temp/dataset/6/20_12.odb,Step-1,Increment      1: Step Time =    1.000,"PART-1-1",            23,           -5.,         23.75,            0.,NA,NA,"",   780.175E-03,   776.502E-03,   75.6181E-03,   274.394E-09
C:/temp/dataset/6/20_12.odb,Step-1,Increment      1: Step Time =    1.000,"PART-1-1",            24,           -5.,           30.,            0.,NA,NA,"",   805.989E-03,   802.439E-03,   75.5638E-03,   6.57432E-09
C:/temp/dataset/6/20_12.odb,Step-1,Increment      1: Step Time =    1.000,"PART-1-1",            25,          -10.,           30.,            0.,NA,NA,"",   808.241E-03,   802.482E-03,   96.3133E-03,   71.8035E-09
C:/temp/dataset/6/20_12.odb,Step-1,Increment      1: Step Time =    1.000,"PART-1-1",            26,          -15.,           30.,            0.,NA,NA,"",   811.018E-03,   802.525E-03,   117.063E-03,   8.45212E-09
C:/temp/dataset/6/20_12.odb,Step-1,Increment      1: Step Time =    1.000,"PART-1-1",            27,          -15.,          22.5,            0.,NA,NA,"",   780.242E-03,   771.400E-03,   117.129E-03,   384.683E-09
C:/temp/dataset/6/20_12.odb,Step-1,Increment      1: Step Time =    1.000,"PART-1-1",            28,          -15.,           15.,            0.,NA,NA,"",   749.472E-03,   740.254E-03,   117.182E-03,   10.0334E-06
C:/temp/dataset/6/20_12.odb,Step-1,Increment      1: Step Time =    1.000,"PART-1-1",            29,          -15.,           7.5,            0.,NA,NA,"",   719.073E-03,   709.520E-03,   116.824E-03,   123.392E-06
C:/temp/dataset/6/20_12.odb,Step-1,Increment      1: Step Time =    1.000,"PART-1-1",            30,          -15.,            0.,            0.,NA,NA,"",   694.768E-03,   684.443E-03,   119.331E-03,   1.72569E-03
C:/temp/dataset/6/20_12.odb,Step-1,Increment      1: Step Time =    1.000,"PART-1-1",            31,          -15.,          -7.5,            0.,NA,NA,"",   682.913E-03,   666.189E-03,   150.210E-03,   11.6637E-03
C:/temp/dataset/6/20_12.odb,Step-1,Increment      1: Step Time =    1.000,"PART-1-1",            32,          -15.,          -15.,            0.,NA,NA,"",   500.389E-03,   449.975E-03,   218.886E-03,   6.71230E-03
C:/temp/dataset/6/20_12.odb,Step-1,Increment      1: Step Time =    1.000,"PART-1-1",            33,          -15.,         -22.5,            0.,NA,NA,"",   199.739E-03,   141.326E-03,   141.148E-03,   18.9538E-03
C:/temp/dataset/6/20_12.odb,Step-1,Increment      1: Step Time =    1.000,"PART-1-1",            34,           2.5,           -5.,            0.,NA,NA,"",   614.360E-03,   612.481E-03,   48.0208E-03,   10.0933E-03
C:/temp/dataset/6/20_12.odb,Step-1,Increment      1: Step Time =    1.000,"PART-1-1",            35,            5.,      -7.51250,            0.,NA,NA,"",   490.030E-03,   484.444E-03,   73.7791E-03,   7.57510E-03
C:/temp/dataset/6/20_12.odb,Step-1,Increment      1: Step Time =    1.000,"PART-1-1",            36,            5.,      -12.5375,            0.,NA,NA,"",   332.798E-03,   322.050E-03,   83.8967E-03,   1.11181E-03
C:/temp/dataset/6/20_12.odb,Step-1,Increment      1: Step Time =    1.000,"PART-1-1",            37,            5.,      -17.5250,            0.,NA,NA,"",   185.650E-03,   172.958E-03,   67.4665E-03,   8.45226E-03
C:/temp/dataset/6/20_12.odb,Step-1,Increment      1: Step Time =    1.000,"PART-1-1",            38,           2.5,          -20.,            0.,NA,NA,"",   82.1367E-03,   81.2366E-03,   12.1263E-03,   4.90895E-03
C:/temp/dataset/6/20_12.odb,Step-1,Increment      1: Step Time =    1.000,"PART-1-1",            39,          -2.5,          -20.,            0.,NA,NA,"",   98.9273E-03,   97.3711E-03,  -17.4779E-03,   13.7704E-03
C:/temp/dataset/6/20_12.odb,Step-1,Increment      1: Step Time =    1.000,"PART-1-1",            40,           -5.,      -17.4875,            0.,NA,NA,"",   305.871E-03,   290.349E-03,  -96.2009E-03,   8.83213E-03
C:/temp/dataset/6/20_12.odb,Step-1,Increment      1: Step Time =    1.000,"PART-1-1",            41,           -5.,      -12.4625,            0.,NA,NA,"",   513.427E-03,   508.651E-03,  -69.8695E-03,   13.6336E-03
C:/temp/dataset/6/20_12.odb,Step-1,Increment      1: Step Time =    1.000,"PART-1-1",            42,           -5.,      -7.47500,            0.,NA,NA,"",   632.816E-03,   632.813E-03,   2.20329E-03,   16.9369E-03
C:/temp/dataset/6/20_12.odb,Step-1,Increment      1: Step Time =    1.000,"PART-1-1",            43,          -2.5,           -5.,            0.,NA,NA,"",   648.375E-03,   645.900E-03,   56.6006E-03,   6.54170E-03
C:/temp/dataset/6/20_12.odb,Step-1,Increment      1: Step Time =    1.000,"PART-1-1",            44,          12.5,          -30.,            0.,NA,NA,"",            0.,   6.59271E-39,  -14.5564E-39,   6.58006E-03
C:/temp/dataset/6/20_12.odb,Step-1,Increment      1: Step Time =    1.000,"PART-1-1",            45,           10.,          -30.,            0.,NA,NA,"",            0.,   208.086E-42,  -5.18885E-39,   4.22434E-03
C:/temp/dataset/6/20_12.odb,Step-1,Increment      1: Step Time =    1.000,"PART-1-1",            46,           7.5,          -30.,            0.,NA,NA,"",            0.,   2.58223E-39,  -608.662E-42,   3.63368E-03
C:/temp/dataset/6/20_12.odb,Step-1,Increment      1: Step Time =    1.000,"PART-1-1",            47,            5.,          -30.,            0.,NA,NA,"",            0.,   6.12695E-39,  -2.13175E-39,   5.81272E-03
C:/temp/dataset/6/20_12.odb,Step-1,Increment      1: Step Time =    1.000,"PART-1-1",            48,           2.5,          -30.,            0.,NA,NA,"",            0.,   8.35724E-39,  -3.93045E-39,   7.84139E-03
C:/temp/dataset/6/20_12.odb,Step-1,Increment      1: Step Time =    1.000,"PART-1-1",            49,            0.,          -30.,            0.,NA,NA,"",            0.,   7.02711E-39,   1.70725E-39,   8.79708E-03
C:/temp/dataset/6/20_12.odb,Step-1,Increment      1: Step Time =    1.000,"PART-1-1",            50,          -2.5,          -30.,            0.,NA,NA,"",            0.,   8.86515E-39,  -9.38724E-39,   8.17428E-03
C:/temp/dataset/6/20_12.odb,Step-1,Increment      1: Step Time =    1.000,"PART-1-1",            51,           -5.,          -30.,            0.,NA,NA,"",            0.,   6.07027E-39,  -7.60428E-39,   5.88006E-03
C:/temp/dataset/6/20_12.odb,Step-1,Increment      1: Step Time =    1.000,"PART-1-1",            52,          -7.5,          -30.,            0.,NA,NA,"",            0.,   2.15284E-39,  -1.75700E-39,   2.74667E-03
C:/temp/dataset/6/20_12.odb,Step-1,Increment      1: Step Time =    1.000,"PART-1-1",            53,          -10.,          -30.,            0.,NA,NA,"",            0.,   3.67049E-39,   9.21026E-39,   4.90835E-03
C:/temp/dataset/6/20_12.odb,Step-1,Increment      1: Step Time =    1.000,"PART-1-1",            54,         -12.5,          -30.,            0.,NA,NA,"",            0.,   4.98818E-39,   18.8508E-39,   10.0470E-03
C:/temp/dataset/6/20_12.odb,Step-1,Increment      1: Step Time =    1.000,"PART-1-1",            55,           15.,      -23.4375,            0.,NA,NA,"",   108.864E-03,   74.4177E-03,  -79.4562E-03,   12.1520E-03
C:/temp/dataset/6/20_12.odb,Step-1,Increment      1: Step Time =    1.000,"PART-1-1",            56,           15.,       -25.625,            0.,NA,NA,"",   73.7432E-03,   48.4218E-03,  -55.6182E-03,   12.0176E-03
C:/temp/dataset/6/20_12.odb,Step-1,Increment      1: Step Time =    1.000,"PART-1-1",            57,           15.,      -27.8125,            0.,NA,NA,"",   41.2131E-03,   26.6344E-03,  -31.4504E-03,   14.3910E-03
C:/temp/dataset/6/20_12.odb,Step-1,Increment      1: Step Time =    1.000,"PART-1-1",            58,           15.,      -14.6875,            0.,NA,NA,"",   309.054E-03,   261.299E-03,  -165.037E-03,   6.77156E-03
C:/temp/dataset/6/20_12.odb,Step-1,Increment      1: Step Time =    1.000,"PART-1-1",            59,           15.,       -16.875,            0.,NA,NA,"",   250.027E-03,   201.356E-03,  -148.220E-03,   9.40360E-03
C:/temp/dataset/6/20_12.odb,Step-1,Increment      1: Step Time =    1.000,"PART-1-1",            60,           15.,      -19.0625,            0.,NA,NA,"",   196.259E-03,   149.532E-03,  -127.113E-03,   11.2538E-03
C:/temp/dataset/6/20_12.odb,Step-1,Increment      1: Step Time =    1.000,"PART-1-1",            61,           15.,       -5.9375,            0.,NA,NA,"",   550.532E-03,   521.771E-03,  -175.616E-03,   4.17673E-03
C:/temp/dataset/6/20_12.odb,Step-1,Increment      1: Step Time =    1.000,"PART-1-1",            62,           15.,        -8.125,            0.,NA,NA,"",   494.703E-03,   460.309E-03,  -181.237E-03,   2.15456E-03
C:/temp/dataset/6/20_12.odb,Step-1,Increment      1: Step Time =    1.000,"PART-1-1",            63,           15.,      -10.3125,            0.,NA,NA,"",   433.999E-03,   394.095E-03,  -181.781E-03,   708.766E-06
C:/temp/dataset/6/20_12.odb,Step-1,Increment      1: Step Time =    1.000,"PART-1-1",            64,           15.,        2.8125,            0.,NA,NA,"",   717.458E-03,   701.407E-03,  -150.911E-03,   481.636E-06
C:/temp/dataset/6/20_12.odb,Step-1,Increment      1: Step Time =    1.000,"PART-1-1",            65,           15.,      625.E-03,            0.,NA,NA,"",   680.211E-03,   662.791E-03,  -152.951E-03,   2.14796E-03
C:/temp/dataset/6/20_12.odb,Step-1,Increment      1: Step Time =    1.000,"PART-1-1",            66,           15.,       -1.5625,            0.,NA,NA,"",   642.072E-03,   622.160E-03,  -158.664E-03,   3.92298E-03
C:/temp/dataset/6/20_12.odb,Step-1,Increment      1: Step Time =    1.000,"PART-1-1",            67,          12.5,            5.,            0.,NA,NA,"",   748.695E-03,   741.412E-03,  -104.173E-03,   626.621E-06
C:/temp/dataset/6/20_12.odb,Step-1,Increment      1: Step Time =    1.000,"PART-1-1",            68,           7.5,            5.,            0.,NA,NA,"",   729.945E-03,   729.858E-03,  -11.3026E-03,   4.92453E-03
C:/temp/dataset/6/20_12.odb,Step-1,Increment      1: Step Time =    1.000,"PART-1-1",            69,           2.5,            5.,            0.,NA,NA,"",   706.857E-03,   705.188E-03,   48.5430E-03,   4.93534E-03
C:/temp/dataset/6/20_12.odb,Step-1,Increment      1: Step Time =    1.000,"PART-1-1",            70,          -2.5,            5.,            0.,NA,NA,"",   695.819E-03,   692.306E-03,   69.8334E-03,   387.527E-06
C:/temp/dataset/6/20_12.odb,Step-1,Increment      1: Step Time =    1.000,"PART-1-1",            71,           -5.,       9.16667,            0.,NA,NA,"",   719.807E-03,   715.843E-03,   75.4390E-03,   150.281E-06
C:/temp/dataset/6/20_12.odb,Step-1,Increment      1: Step Time =    1.000,"PART-1-1",            72,           -5.,       7.08333,            0.,NA,NA,"",   710.465E-03,   706.491E-03,   75.0418E-03,   522.330E-06
C:/temp/dataset/6/20_12.odb,Step-1,Increment      1: Step Time =    1.000,"PART-1-1",            73,           -5.,       15.4167,            0.,NA,NA,"",   745.789E-03,   741.939E-03,   75.6822E-03,   8.44092E-06
C:/temp/dataset/6/20_12.odb,Step-1,Increment      1: Step Time =    1.000,"PART-1-1",            74,           -5.,       13.3333,            0.,NA,NA,"",   737.197E-03,   733.303E-03,   75.6701E-03,   27.4718E-06
C:/temp/dataset/6/20_12.odb,Step-1,Increment      1: Step Time =    1.000,"PART-1-1",            75,           -5.,       21.6667,            0.,NA,NA,"",   771.573E-03,   767.857E-03,   75.6367E-03,   453.111E-09
C:/temp/dataset/6/20_12.odb,Step-1,Increment      1: Step Time =    1.000,"PART-1-1",            76,           -5.,       19.5833,            0.,NA,NA,"",   762.974E-03,   759.214E-03,   75.6552E-03,   280.403E-09
C:/temp/dataset/6/20_12.odb,Step-1,Increment      1: Step Time =    1.000,"PART-1-1",            77,           -5.,       27.9167,            0.,NA,NA,"",   797.383E-03,   793.793E-03,   75.5817E-03,   28.6360E-09
C:/temp/dataset/6/20_12.odb,Step-1,Increment      1: Step Time =    1.000,"PART-1-1",            78,           -5.,       25.8333,            0.,NA,NA,"",   788.779E-03,   785.147E-03,   75.5998E-03,   120.451E-09
C:/temp/dataset/6/20_12.odb,Step-1,Increment      1: Step Time =    1.000,"PART-1-1",            79,          -7.5,           30.,            0.,NA,NA,"",   807.049E-03,   802.460E-03,   85.9385E-03,   33.1285E-09
C:/temp/dataset/6/20_12.odb,Step-1,Increment      1: Step Time =    1.000,"PART-1-1",            80,         -12.5,           30.,            0.,NA,NA,"",   809.564E-03,   802.504E-03,   106.688E-03,   31.7130E-09
C:/temp/dataset/6/20_12.odb,Step-1,Increment      1: Step Time =    1.000,"PART-1-1",            81,          -15.,           25.,            0.,NA,NA,"",   790.498E-03,   781.775E-03,   117.106E-03,   178.295E-09
C:/temp/dataset/6/20_12.odb,Step-1,Increment      1: Step Time =    1.000,"PART-1-1",            82,          -15.,          27.5,            0.,NA,NA,"",   800.756E-03,   792.150E-03,   117.085E-03,   40.2277E-09
C:/temp/dataset/6/20_12.odb,Step-1,Increment      1: Step Time =    1.000,"PART-1-1",            83,          -15.,          17.5,            0.,NA,NA,"",   759.731E-03,   750.641E-03,   117.172E-03,   1.47767E-06
C:/temp/dataset/6/20_12.odb,Step-1,Increment      1: Step Time =    1.000,"PART-1-1",            84,          -15.,           20.,            0.,NA,NA,"",   769.987E-03,   761.023E-03,   117.151E-03,   349.512E-09
C:/temp/dataset/6/20_12.odb,Step-1,Increment      1: Step Time =    1.000,"PART-1-1",            85,          -15.,           10.,            0.,NA,NA,"",   729.017E-03,   719.559E-03,   117.050E-03,   86.2406E-06
C:/temp/dataset/6/20_12.odb,Step-1,Increment      1: Step Time =    1.000,"PART-1-1",            86,          -15.,          12.5,            0.,NA,NA,"",   739.215E-03,   729.872E-03,   117.157E-03,   34.6244E-06
C:/temp/dataset/6/20_12.odb,Step-1,Increment      1: Step Time =    1.000,"PART-1-1",            87,          -15.,           2.5,            0.,NA,NA,"",   701.638E-03,   691.810E-03,   117.022E-03,   531.546E-06
C:/temp/dataset/6/20_12.odb,Step-1,Increment      1: Step Time =    1.000,"PART-1-1",            88,          -15.,            5.,            0.,NA,NA,"",   709.783E-03,   700.137E-03,   116.621E-03,   24.2992E-06
C:/temp/dataset/6/20_12.odb,Step-1,Increment      1: Step Time =    1.000,"PART-1-1",            89,          -15.,           -5.,            0.,NA,NA,"",   682.141E-03,   668.382E-03,   136.315E-03,   6.34193E-03
C:/temp/dataset/6/20_12.odb,Step-1,Increment      1: Step Time =    1.000,"PART-1-1",            90,          -15.,          -2.5,            0.,NA,NA,"",   688.634E-03,   677.185E-03,   125.049E-03,   3.62231E-03
C:/temp/dataset/6/20_12.odb,Step-1,Increment      1: Step Time =    1.000,"PART-1-1",            91,          -15.,         -12.5,            0.,NA,NA,"",   603.222E-03,   568.023E-03,   203.042E-03,   13.8461E-03
C:/temp/dataset/6/20_12.odb,Step-1,Increment      1: Step Time =    1.000,"PART-1-1",            92,          -15.,          -10.,            0.,NA,NA,"",   665.914E-03,   641.343E-03,   179.222E-03,   15.8383E-03
C:/temp/dataset/6/20_12.odb,Step-1,Increment      1: Step Time =    1.000,"PART-1-1",            93,          -15.,          -20.,            0.,NA,NA,"",   284.376E-03,   220.431E-03,   179.666E-03,   15.6769E-03
C:/temp/dataset/6/20_12.odb,Step-1,Increment      1: Step Time =    1.000,"PART-1-1",            94,          -15.,         -17.5,            0.,NA,NA,"",   382.451E-03,   321.739E-03,   206.767E-03,   9.85677E-03
C:/temp/dataset/6/20_12.odb,Step-1,Increment      1: Step Time =    1.000,"PART-1-1",            95,          -15.,         -27.5,            0.,NA,NA,"",   68.1332E-03,   42.3464E-03,   53.3752E-03,   22.0860E-03
C:/temp/dataset/6/20_12.odb,Step-1,Increment      1: Step Time =    1.000,"PART-1-1",            96,          -15.,          -25.,            0.,NA,NA,"",   128.937E-03,   83.6612E-03,   98.1095E-03,   19.6296E-03
C:/temp/dataset/6/20_12.odb,Step-1,Increment      1: Step Time =    1.000,"PART-1-1",            97,       13.0047,      -3.80353,            0.,NA,NA,"",   591.188E-03,   578.521E-03,  -121.725E-03,   2.41347E-03
C:/temp/dataset/6/20_12.odb,Step-1,Increment      1: Step Time =    1.000,"PART-1-1",            98,       6.97971,      -7.55833,            0.,NA,NA,"",   483.025E-03,   482.738E-03,   16.6394E-03,   7.96320E-03
C:/temp/dataset/6/20_12.odb,Step-1,Increment      1: Step Time =    1.000,"PART-1-1",            99,       6.96639,      -10.0829,            0.,NA,NA,"",   400.874E-03,   400.168E-03,   23.7895E-03,   4.43984E-03
C:/temp/dataset/6/20_12.odb,Step-1,Increment      1: Step Time =    1.000,"PART-1-1",           100,       12.9900,      -12.5465,            0.,NA,NA,"",   344.452E-03,   322.937E-03,  -119.829E-03,   4.91999E-03
C:/temp/dataset/6/20_12.odb,Step-1,Increment      1: Step Time =    1.000,"PART-1-1",           101,       6.90028,      -17.1420,            0.,NA,NA,"",   181.645E-03,   180.099E-03,   23.6467E-03,   7.42969E-03
C:/temp/dataset/6/20_12.odb,Step-1,Increment      1: Step Time =    1.000,"PART-1-1",           102,       7.03871,      -19.0570,            0.,NA,NA,"",   128.442E-03,   127.475E-03,   15.7278E-03,   6.86043E-03
C:/temp/dataset/6/20_12.odb,Step-1,Increment      1: Step Time =    1.000,"PART-1-1",           103,       5.31709,      -21.2647,            0.,NA,NA,"",   89.0219E-03,   85.1806E-03,   25.8684E-03,   9.27789E-03
C:/temp/dataset/6/20_12.odb,Step-1,Increment      1: Step Time =    1.000,"PART-1-1",           104,      -4.83361,      -22.6144,            0.,NA,NA,"",   100.475E-03,   95.2976E-03,  -31.8380E-03,   12.9034E-03
C:/temp/dataset/6/20_12.odb,Step-1,Increment      1: Step Time =    1.000,"PART-1-1",           105,      -7.46484,      -17.6587,            0.,NA,NA,"",   286.724E-03,   286.622E-03,  -7.64801E-03,   19.9796E-03
C:/temp/dataset/6/20_12.odb,Step-1,Increment      1: Step Time =    1.000,"PART-1-1",           106,      -12.5283,      -27.3245,            0.,NA,NA,"",   40.4855E-03,   28.1643E-03,   29.0835E-03,   14.1914E-03
C:/temp/dataset/6/20_12.odb,Step-1,Increment      1: Step Time =    1.000,"PART-1-1",           107,      -12.4870,      -17.6221,            0.,NA,NA,"",   326.458E-03,   305.509E-03,   115.060E-03,   12.2272E-03
C:/temp/dataset/6/20_12.odb,Step-1,Increment      1: Step Time =    1.000,"PART-1-1",           108,      -7.32043,      -12.6401,            0.,NA,NA,"",   514.459E-03,   514.458E-03,  -1.02071E-03,   9.97292E-03
C:/temp/dataset/6/20_12.odb,Step-1,Increment      1: Step Time =    1.000,"PART-1-1",           109,      -7.14644,      -8.03697,            0.,NA,NA,"",   637.256E-03,   636.551E-03,   29.9625E-03,   9.23862E-03
C:/temp/dataset/6/20_12.odb,Step-1,Increment      1: Step Time =    1.000,"PART-1-1",           110,      -12.6601,       4.88622,            0.,NA,NA,"",   707.943E-03,   699.712E-03,   107.638E-03,   442.728E-06
C:/temp/dataset/6/20_12.odb,Step-1,Increment      1: Step Time =    1.000,"PART-1-1",           111,      -13.0978,       12.5399,            0.,NA,NA,"",   738.145E-03,   730.007E-03,   109.312E-03,   30.4745E-06
C:/temp/dataset/6/20_12.odb,Step-1,Increment      1: Step Time =    1.000,"PART-1-1",           112,      -6.45576,       21.8628,            0.,NA,NA,"",   773.010E-03,   768.683E-03,   81.6754E-03,   64.8742E-09
C:/temp/dataset/6/20_12.odb,Step-1,Increment      1: Step Time =    1.000,"PART-1-1",           113,      -7.28884,       25.7044,            0.,NA,NA,"",   789.233E-03,   784.632E-03,   85.0992E-03,   120.240E-09
C:/temp/dataset/6/20_12.odb,Step-1,Increment      1: Step Time =    1.000,"PART-1-1",           114,      -9.90518,       27.6474,            0.,NA,NA,"",   798.502E-03,   792.718E-03,   95.9399E-03,   62.7739E-09
C:/temp/dataset/6/20_12.odb,Step-1,Increment      1: Step Time =    1.000,"PART-1-1",           115,      -3.01211,      -3.13168,            0.,NA,NA,"",   652.886E-03,   649.955E-03,   61.7960E-03,   4.96686E-03
C:/temp/dataset/6/20_12.odb,Step-1,Increment      1: Step Time =    1.000,"PART-1-1",           116,      -2.19169,       3.00836,            0.,NA,NA,"",   687.453E-03,   683.937E-03,   69.4395E-03,   2.81205E-03
C:/temp/dataset/6/20_12.odb,Step-1,Increment      1: Step Time =    1.000,"PART-1-1",           117,       1.85193,      -2.77696,            0.,NA,NA,"",   633.920E-03,   631.458E-03,   55.8073E-03,   7.88421E-03
C:/temp/dataset/6/20_12.odb,Step-1,Increment      1: Step Time =    1.000,"PART-1-1",           118,       2.83229,       2.22691,            0.,NA,NA,"",   682.885E-03,   681.016E-03,   50.4843E-03,   2.59356E-03
C:/temp/dataset/6/20_12.odb,Step-1,Increment      1: Step Time =    1.000,"PART-1-1",           119,       7.74921,       3.07964,            0.,NA,NA,"",   701.365E-03,   701.262E-03,  -12.0306E-03,   3.00003E-03
C:/temp/dataset/6/20_12.odb,Step-1,Increment      1: Step Time =    1.000,"PART-1-1",           120,      -2.47342,      -22.6017,            0.,NA,NA,"",   91.4275E-03,   89.1130E-03,  -20.4417E-03,   15.7307E-03
C:/temp/dataset/6/20_12.odb,Step-1,Increment      1: Step Time =    1.000,"PART-1-1",           121,      -7.48266,       20.3798,            0.,NA,NA,"",   767.368E-03,   762.539E-03,   85.9493E-03,   735.964E-09
C:/temp/dataset/6/20_12.odb,Step-1,Increment      1: Step Time =    1.000,"PART-1-1",           122,      -7.10993,       13.1351,            0.,NA,NA,"",   737.364E-03,   732.510E-03,   84.4674E-03,   28.1197E-06
C:/temp/dataset/6/20_12.odb,Step-1,Increment      1: Step Time =    1.000,"PART-1-1",           123,      -6.64156,       6.82435,            0.,NA,NA,"",   710.408E-03,   705.604E-03,   82.4826E-03,   424.265E-06
C:/temp/dataset/6/20_12.odb,Step-1,Increment      1: Step Time =    1.000,"PART-1-1",           124,      -12.9641,      -2.37512,            0.,NA,NA,"",   689.753E-03,   680.190E-03,   114.458E-03,   3.77678E-03
C:/temp/dataset/6/20_12.odb,Step-1,Increment      1: Step Time =    1.000,"PART-1-1",           125,      -12.1317,      -9.84573,            0.,NA,NA,"",   640.276E-03,   629.022E-03,   119.523E-03,   8.51606E-03
C:/temp/dataset/6/20_12.odb,Step-1,Increment      1: Step Time =    1.000,"PART-1-1",           126,       4.04132,      -2.67712,            0.,NA,NA,"",   624.196E-03,   622.477E-03,   46.2946E-03,   6.01779E-03
C:/temp/dataset/6/20_12.odb,Step-1,Increment      1: Step Time =    1.000,"PART-1-1",           127,       6.95362,      -12.5367,            0.,NA,NA,"",   321.897E-03,   320.700E-03,   27.7355E-03,   3.61109E-03
C:/temp/dataset/6/20_12.odb,Step-1,Increment      1: Step Time =    1.000,"PART-1-1",           128,       6.92458,      -14.9216,            0.,NA,NA,"",   247.348E-03,   245.856E-03,   27.1298E-03,   4.45527E-03
C:/temp/dataset/6/20_12.odb,Step-1,Increment      1: Step Time =    1.000,"PART-1-1",           129,       12.9089,      -21.3671,            0.,NA,NA,"",   117.413E-03,   96.0413E-03,  -67.5417E-03,   8.16203E-03
C:/temp/dataset/6/20_12.odb,Step-1,Increment      1: Step Time =    1.000,"PART-1-1",           130,   283.131E-03,      -22.8786,            0.,NA,NA,"",   80.9053E-03,   80.8320E-03,  -3.44241E-03,   9.20578E-03
C:/temp/dataset/6/20_12.odb,Step-1,Increment      1: Step Time =    1.000,"PART-1-1",           131,      -12.9776,      -22.4214,            0.,NA,NA,"",   158.296E-03,   128.620E-03,   92.2733E-03,   12.7149E-03
C:/temp/dataset/6/20_12.odb,Step-1,Increment      1: Step Time =    1.000,"PART-1-1",           132,      -7.42030,      -15.1083,            0.,NA,NA,"",   410.252E-03,   410.193E-03,  -6.96678E-03,   12.6003E-03
C:/temp/dataset/6/20_12.odb,Step-1,Increment      1: Step Time =    1.000,"PART-1-1",           133,      -7.18486,      -10.2642,            0.,NA,NA,"",   590.066E-03,   589.929E-03,   12.7210E-03,   9.52642E-03
C:/temp/dataset/6/20_12.odb,Step-1,Increment      1: Step Time =    1.000,"PART-1-1",           134,      -7.33974,      -5.93881,            0.,NA,NA,"",   662.916E-03,   661.149E-03,   48.3667E-03,   7.92383E-03
C:/temp/dataset/6/20_12.odb,Step-1,Increment      1: Step Time =    1.000,"PART-1-1",           135,  -533.729E-03,      -2.94296,            0.,NA,NA,"",   643.895E-03,   640.972E-03,   61.2805E-03,   5.69595E-03
C:/temp/dataset/6/20_12.odb,Step-1,Increment      1: Step Time =    1.000,"PART-1-1",           136,       10.2172,      -28.0250,            0.,NA,NA,"",   12.5370E-03,   11.0675E-03,  -5.88956E-03,   5.12571E-03
C:/temp/dataset/6/20_12.odb,Step-1,Increment      1: Step Time =    1.000,"PART-1-1",           137,       7.82196,      -28.0777,            0.,NA,NA,"",   12.6739E-03,   12.6436E-03,  -875.877E-06,   4.52466E-03
C:/temp/dataset/6/20_12.odb,Step-1,Increment      1: Step Time =    1.000,"PART-1-1",           138,       5.43540,      -28.0544,            0.,NA,NA,"",   17.2617E-03,   17.2001E-03,   1.45725E-03,   6.33451E-03
C:/temp/dataset/6/20_12.odb,Step-1,Increment      1: Step Time =    1.000,"PART-1-1",           139,       2.98405,      -27.8165,            0.,NA,NA,"",   24.6353E-03,   24.6122E-03,   1.06515E-03,   7.99130E-03
C:/temp/dataset/6/20_12.odb,Step-1,Increment      1: Step Time =    1.000,"PART-1-1",           140,   324.250E-03,      -27.0908,            0.,NA,NA,"",   36.4063E-03,   36.2826E-03,  -2.99819E-03,   9.32878E-03
C:/temp/dataset/6/20_12.odb,Step-1,Increment      1: Step Time =    1.000,"PART-1-1",           141,      -2.46293,      -27.5198,            0.,NA,NA,"",   30.5052E-03,   29.6502E-03,  -7.17139E-03,   9.54348E-03
C:/temp/dataset/6/20_12.odb,Step-1,Increment      1: Step Time =    1.000,"PART-1-1",           142,      -4.88996,      -27.5861,            0.,NA,NA,"",   25.0725E-03,   23.8960E-03,  -7.59041E-03,   8.41344E-03
C:/temp/dataset/6/20_12.odb,Step-1,Increment      1: Step Time =    1.000,"PART-1-1",           143,      -7.26500,      -27.4866,            0.,NA,NA,"",   19.9252E-03,   19.7170E-03,  -2.87295E-03,   5.65543E-03
C:/temp/dataset/6/20_12.odb,Step-1,Increment      1: Step Time =    1.000,"PART-1-1",           144,      -9.86695,      -26.8928,            0.,NA,NA,"",   27.5883E-03,   25.3931E-03,   10.7846E-03,   5.92152E-03
C:/temp/dataset/6/20_12.odb,Step-1,Increment      1: Step Time =    1.000,"PART-1-1",           145,       12.7710,      -23.5898,            0.,NA,NA,"",   79.2394E-03,   62.3315E-03,  -48.9250E-03,   8.28400E-03
C:/temp/dataset/6/20_12.odb,Step-1,Increment      1: Step Time =    1.000,"PART-1-1",           146,       12.6989,      -25.7990,            0.,NA,NA,"",   47.6802E-03,   36.1238E-03,  -31.1202E-03,   8.94476E-03
C:/temp/dataset/6/20_12.odb,Step-1,Increment      1: Step Time =    1.000,"PART-1-1",           147,       12.6207,      -27.9366,            0.,NA,NA,"",   21.3838E-03,   15.4143E-03,  -14.8211E-03,   9.66190E-03
C:/temp/dataset/6/20_12.odb,Step-1,Increment      1: Step Time =    1.000,"PART-1-1",           148,       12.9983,      -14.8223,            0.,NA,NA,"",   276.202E-03,   252.837E-03,  -111.181E-03,   5.99754E-03
C:/temp/dataset/6/20_12.odb,Step-1,Increment      1: Step Time =    1.000,"PART-1-1",           149,       13.0558,      -17.0719,            0.,NA,NA,"",   214.664E-03,   189.779E-03,  -100.322E-03,   7.06799E-03
C:/temp/dataset/6/20_12.odb,Step-1,Increment      1: Step Time =    1.000,"PART-1-1",           150,       13.1682,      -19.2108,            0.,NA,NA,"",   164.379E-03,   138.713E-03,  -88.1990E-03,   8.05535E-03
C:/temp/dataset/6/20_12.odb,Step-1,Increment      1: Step Time =    1.000,"PART-1-1",           151,       13.0670,      -5.94273,            0.,NA,NA,"",   540.104E-03,   524.992E-03,  -126.869E-03,   2.63696E-03
C:/temp/dataset/6/20_12.odb,Step-1,Increment      1: Step Time =    1.000,"PART-1-1",           152,       13.0350,      -8.09399,            0.,NA,NA,"",   480.524E-03,   463.232E-03,  -127.746E-03,   3.26250E-03
C:/temp/dataset/6/20_12.odb,Step-1,Increment      1: Step Time =    1.000,"PART-1-1",           153,       12.9982,      -10.2981,            0.,NA,NA,"",   413.961E-03,   394.561E-03,  -125.241E-03,   4.03327E-03
C:/temp/dataset/6/20_12.odb,Step-1,Increment      1: Step Time =    1.000,"PART-1-1",           154,       12.5107,   556.281E-03,            0.,NA,NA,"",   672.044E-03,   663.869E-03,  -104.501E-03,   2.78526E-03
C:/temp/dataset/6/20_12.odb,Step-1,Increment      1: Step Time =    1.000,"PART-1-1",           155,       12.7702,      -1.64554,            0.,NA,NA,"",   634.181E-03,   624.100E-03,  -112.627E-03,   2.57408E-03
C:/temp/dataset/6/20_12.odb,Step-1,Increment      1: Step Time =    1.000,"PART-1-1",           156,       10.0517,       2.85834,            0.,NA,NA,"",   703.530E-03,   701.408E-03,  -54.5984E-03,   2.87479E-03
C:/temp/dataset/6/20_12.odb,Step-1,Increment      1: Step Time =    1.000,"PART-1-1",           157,       5.39286,       2.85476,            0.,NA,NA,"",   693.334E-03,   692.922E-03,   23.8779E-03,   2.66202E-03
C:/temp/dataset/6/20_12.odb,Step-1,Increment      1: Step Time =    1.000,"PART-1-1",           158,   175.602E-03,       2.90951,            0.,NA,NA,"",   687.013E-03,   684.051E-03,   63.7199E-03,   2.93974E-03
C:/temp/dataset/6/20_12.odb,Step-1,Increment      1: Step Time =    1.000,"PART-1-1",           159,      -4.35394,       2.91920,            0.,NA,NA,"",   688.803E-03,   684.896E-03,   73.2655E-03,   1.97158E-03
C:/temp/dataset/6/20_12.odb,Step-1,Increment      1: Step Time =    1.000,"PART-1-1",           160,      -7.05997,       10.9599,            0.,NA,NA,"",   728.372E-03,   723.480E-03,   84.2804E-03,   46.7034E-06
C:/temp/dataset/6/20_12.odb,Step-1,Increment      1: Step Time =    1.000,"PART-1-1",           161,      -6.93805,       8.84105,            0.,NA,NA,"",   719.438E-03,   714.541E-03,   83.7953E-03,   57.9915E-06
C:/temp/dataset/6/20_12.odb,Step-1,Increment      1: Step Time =    1.000,"PART-1-1",           162,      -7.28921,       17.6445,            0.,NA,NA,"",   756.006E-03,   751.193E-03,   85.1705E-03,   4.22267E-06
C:/temp/dataset/6/20_12.odb,Step-1,Increment      1: Step Time =    1.000,"PART-1-1",           163,      -7.17735,       15.3234,            0.,NA,NA,"",   746.398E-03,   741.574E-03,   84.7270E-03,   12.9098E-06
C:/temp/dataset/6/20_12.odb,Step-1,Increment      1: Step Time =    1.000,"PART-1-1",           164,      -6.93557,       23.5874,            0.,NA,NA,"",   780.340E-03,   775.844E-03,   83.6514E-03,   105.422E-09
C:/temp/dataset/6/20_12.odb,Step-1,Increment      1: Step Time =    1.000,"PART-1-1",           165,      -13.1925,       19.7530,            0.,NA,NA,"",   767.851E-03,   759.982E-03,   109.651E-03,   909.510E-09
C:/temp/dataset/6/20_12.odb,Step-1,Increment      1: Step Time =    1.000,"PART-1-1",           166,      -7.44963,       27.8335,            0.,NA,NA,"",   798.089E-03,   793.469E-03,   85.7481E-03,   76.9936E-09
C:/temp/dataset/6/20_12.odb,Step-1,Increment      1: Step Time =    1.000,"PART-1-1",           167,      -13.0424,       22.0734,            0.,NA,NA,"",   777.294E-03,   769.613E-03,   109.008E-03,   80.2641E-09
C:/temp/dataset/6/20_12.odb,Step-1,Increment      1: Step Time =    1.000,"PART-1-1",           168,      -13.1316,       14.9813,            0.,NA,NA,"",   748.203E-03,   740.156E-03,   109.436E-03,   13.5751E-06
C:/temp/dataset/6/20_12.odb,Step-1,Increment      1: Step Time =    1.000,"PART-1-1",           169,      -13.1727,       17.3972,            0.,NA,NA,"",   758.160E-03,   750.198E-03,   109.588E-03,   4.23243E-06
C:/temp/dataset/6/20_12.odb,Step-1,Increment      1: Step Time =    1.000,"PART-1-1",           170,      -12.8574,       7.53984,            0.,NA,NA,"",   717.821E-03,   709.596E-03,   108.355E-03,   52.8538E-06
C:/temp/dataset/6/20_12.odb,Step-1,Increment      1: Step Time =    1.000,"PART-1-1",           171,      -13.0166,       10.0884,            0.,NA,NA,"",   728.071E-03,   719.868E-03,   108.989E-03,   43.5257E-06
C:/temp/dataset/6/20_12.odb,Step-1,Increment      1: Step Time =    1.000,"PART-1-1",           172,      -12.8045,  -118.323E-03,            0.,NA,NA,"",   694.271E-03,   685.469E-03,   110.200E-03,   2.39953E-03
C:/temp/dataset/6/20_12.odb,Step-1,Increment      1: Step Time =    1.000,"PART-1-1",           173,      -12.7039,       2.28772,            0.,NA,NA,"",   699.971E-03,   691.551E-03,   108.249E-03,   1.24405E-03
C:/temp/dataset/6/20_12.odb,Step-1,Increment      1: Step Time =    1.000,"PART-1-1",           174,      -12.8488,      -7.31355,            0.,NA,NA,"",   677.455E-03,   664.814E-03,   130.261E-03,   9.32443E-03
C:/temp/dataset/6/20_12.odb,Step-1,Increment      1: Step Time =    1.000,"PART-1-1",           175,      -12.6051,      -4.81291,            0.,NA,NA,"",   684.017E-03,   673.680E-03,   118.469E-03,   6.30399E-03
C:/temp/dataset/6/20_12.odb,Step-1,Increment      1: Step Time =    1.000,"PART-1-1",           176,      -12.4260,      -15.0682,            0.,NA,NA,"",   448.557E-03,   432.555E-03,   118.743E-03,   16.9284E-03
C:/temp/dataset/6/20_12.odb,Step-1,Increment      1: Step Time =    1.000,"PART-1-1",           177,      -12.3344,      -12.5112,            0.,NA,NA,"",   562.326E-03,   549.288E-03,   120.384E-03,   12.9674E-03
C:/temp/dataset/6/20_12.odb,Step-1,Increment      1: Step Time =    1.000,"PART-1-1",           178,      -12.6598,      -20.1148,            0.,NA,NA,"",   227.675E-03,   201.571E-03,   105.854E-03,   11.4431E-03
C:/temp/dataset/6/20_12.odb,Step-1,Increment      1: Step Time =    1.000,"PART-1-1",           179,      -8.70618,       22.9331,            0.,NA,NA,"",   778.481E-03,   773.144E-03,   91.0045E-03,   133.581E-09
C:/temp/dataset/6/20_12.odb,Step-1,Increment      1: Step Time =    1.000,"PART-1-1",           180,      -9.21222,       15.1634,            0.,NA,NA,"",   746.751E-03,   740.913E-03,   93.1923E-03,   15.5910E-06
C:/temp/dataset/6/20_12.odb,Step-1,Increment      1: Step Time =    1.000,"PART-1-1",           181,      -9.55138,       19.8926,            0.,NA,NA,"",   766.387E-03,   760.534E-03,   94.5390E-03,   1.36686E-06
C:/temp/dataset/6/20_12.odb,Step-1,Increment      1: Step Time =    1.000,"PART-1-1",           182,      -8.92203,       8.32966,            0.,NA,NA,"",   718.390E-03,   712.451E-03,   92.1854E-03,   77.7666E-06
C:/temp/dataset/6/20_12.odb,Step-1,Increment      1: Step Time =    1.000,"PART-1-1",           183,      -9.17670,       12.8809,            0.,NA,NA,"",   737.347E-03,   731.445E-03,   93.1026E-03,   32.9085E-06
C:/temp/dataset/6/20_12.odb,Step-1,Increment      1: Step Time =    1.000,"PART-1-1",           184,      -9.09923,       10.6117,            0.,NA,NA,"",   727.966E-03,   722.018E-03,   92.8644E-03,   51.5184E-06
C:/temp/dataset/6/20_12.odb,Step-1,Increment      1: Step Time =    1.000,"PART-1-1",           185,      -9.30530,       17.5014,            0.,NA,NA,"",   756.417E-03,   750.611E-03,   93.5432E-03,   5.43418E-06
C:/temp/dataset/6/20_12.odb,Step-1,Increment      1: Step Time =    1.000,"PART-1-1",           186,      -8.37864,       6.17865,            0.,NA,NA,"",   708.877E-03,   703.181E-03,   89.6829E-03,   545.453E-06
C:/temp/dataset/6/20_12.odb,Step-1,Increment      1: Step Time =    1.000,"PART-1-1",           187,       10.9988,      -10.2527,            0.,NA,NA,"",   402.820E-03,   395.683E-03,  -75.4922E-03,   5.82241E-03
C:/temp/dataset/6/20_12.odb,Step-1,Increment      1: Step Time =    1.000,"PART-1-1",           188,       10.8643,      -17.5211,            0.,NA,NA,"",   180.594E-03,   172.595E-03,  -53.1512E-03,   6.15319E-03
C:/temp/dataset/6/20_12.odb,Step-1,Increment      1: Step Time =    1.000,"PART-1-1",           189,       11.0508,      -8.01555,            0.,NA,NA,"",   473.744E-03,   467.038E-03,  -79.4305E-03,   4.99248E-03
C:/temp/dataset/6/20_12.odb,Step-1,Increment      1: Step Time =    1.000,"PART-1-1",           190,       10.6332,      -2.00908,            0.,NA,NA,"",   623.894E-03,   620.315E-03,  -66.7247E-03,   2.49813E-03
C:/temp/dataset/6/20_12.odb,Step-1,Increment      1: Step Time =    1.000,"PART-1-1",           191,       11.1668,      -5.92645,            0.,NA,NA,"",   534.742E-03,   528.385E-03,  -82.2132E-03,   3.46444E-03
C:/temp/dataset/6/20_12.odb,Step-1,Increment      1: Step Time =    1.000,"PART-1-1",           192,       10.9732,      -14.9280,            0.,NA,NA,"",   254.689E-03,   246.490E-03,  -64.1024E-03,   6.20507E-03
C:/temp/dataset/6/20_12.odb,Step-1,Increment      1: Step Time =    1.000,"PART-1-1",           193,       10.5476,      -23.6927,            0.,NA,NA,"",   59.7777E-03,   55.2710E-03,  -22.7705E-03,   4.30874E-03
C:/temp/dataset/6/20_12.odb,Step-1,Increment      1: Step Time =    1.000,"PART-1-1",           194,       10.5707,      -21.1850,            0.,NA,NA,"",   97.6775E-03,   91.9320E-03,  -33.0061E-03,   5.00242E-03
C:/temp/dataset/6/20_12.odb,Step-1,Increment      1: Step Time =    1.000,"PART-1-1",           195,       10.9760,      -12.5622,            0.,NA,NA,"",   328.345E-03,   320.721E-03,  -70.3427E-03,   6.10771E-03
C:/temp/dataset/6/20_12.odb,Step-1,Increment      1: Step Time =    1.000,"PART-1-1",           196,       11.6229,      -19.2502,            0.,NA,NA,"",   145.559E-03,   132.919E-03,  -59.3294E-03,   6.40637E-03
C:/temp/dataset/6/20_12.odb,Step-1,Increment      1: Step Time =    1.000,"PART-1-1",           197,       11.1609,      -3.97100,            0.,NA,NA,"",   583.574E-03,   578.015E-03,  -80.3512E-03,   2.17929E-03
C:/temp/dataset/6/20_12.odb,Step-1,Increment      1: Step Time =    1.000,"PART-1-1",           198,      -9.55101,       25.2781,            0.,NA,NA,"",   788.564E-03,   782.882E-03,   94.4904E-03,   113.993E-09
C:/temp/dataset/6/20_12.odb,Step-1,Increment      1: Step Time =    1.000,"PART-1-1",           199,      -6.13353,       2.97524,            0.,NA,NA,"",   691.757E-03,   687.302E-03,   78.3829E-03,   1.64822E-03
C:/temp/dataset/6/20_12.odb,Step-1,Increment      1: Step Time =    1.000,"PART-1-1",           200,       8.52809,      -18.5145,            0.,NA,NA,"",   142.859E-03,   142.588E-03,  -8.80333E-03,   5.69464E-03
C:/temp/dataset/6/20_12.odb,Step-1,Increment      1: Step Time =    1.000,"PART-1-1",           201,      -9.31256,      -6.57829,            0.,NA,NA,"",   666.397E-03,   662.272E-03,   74.0345E-03,   6.21524E-03
C:/temp/dataset/6/20_12.odb,Step-1,Increment      1: Step Time =    1.000,"PART-1-1",           202,      -7.82061,      -4.24854,            0.,NA,NA,"",   673.051E-03,   670.121E-03,   62.7295E-03,   8.16704E-03
C:/temp/dataset/6/20_12.odb,Step-1,Increment      1: Step Time =    1.000,"PART-1-1",           203,       7.55002,      -20.4955,            0.,NA,NA,"",   97.7472E-03,   97.4680E-03,   7.38395E-03,   4.31569E-03
C:/temp/dataset/6/20_12.odb,Step-1,Increment      1: Step Time =    1.000,"PART-1-1",           204,      -9.18944,      -8.43706,            0.,NA,NA,"",   642.403E-03,   639.101E-03,   65.0484E-03,   5.70758E-03
C:/temp/dataset/6/20_12.odb,Step-1,Increment      1: Step Time =    1.000,"PART-1-1",           205,      -12.3720,       27.4312,            0.,NA,NA,"",   798.929E-03,   791.842E-03,   106.179E-03,   88.0759E-09
C:/temp/dataset/6/20_12.odb,Step-1,Increment      1: Step Time =    1.000,"PART-1-1",           206,      -10.3791,       22.2070,            0.,NA,NA,"",   776.349E-03,   770.145E-03,   97.9533E-03,   235.000E-09
C:/temp/dataset/6/20_12.odb,Step-1,Increment      1: Step Time =    1.000,"PART-1-1",           207,       3.40286,  -884.176E-03,            0.,NA,NA,"",   647.950E-03,   646.053E-03,   49.5376E-03,   3.98565E-03
C:/temp/dataset/6/20_12.odb,Step-1,Increment      1: Step Time =    1.000,"PART-1-1",           208,       7.88020,       1.44192,            0.,NA,NA,"",   677.974E-03,   677.861E-03,  -12.3764E-03,   2.68210E-03
C:/temp/dataset/6/20_12.odb,Step-1,Increment      1: Step Time =    1.000,"PART-1-1",           209,      -1.17287,  -897.893E-03,            0.,NA,NA,"",   659.086E-03,   655.848E-03,   65.2507E-03,   4.67637E-03
C:/temp/dataset/6/20_12.odb,Step-1,Increment      1: Step Time =    1.000,"PART-1-1",           210,       10.4014,      -25.9274,            0.,NA,NA,"",   32.8267E-03,   29.9662E-03,  -13.4021E-03,   4.48790E-03
C:/temp/dataset/6/20_12.odb,Step-1,Increment      1: Step Time =    1.000,"PART-1-1",           211,       2.00108,      -24.8239,            0.,NA,NA,"",   59.3873E-03,   59.2831E-03,   3.51678E-03,   9.73566E-03
C:/temp/dataset/6/20_12.odb,Step-1,Increment      1: Step Time =    1.000,"PART-1-1",           212,      -4.80900,      -25.1606,            0.,NA,NA,"",   58.7470E-03,   55.6166E-03,  -18.9210E-03,   10.0773E-03
C:/temp/dataset/6/20_12.odb,Step-1,Increment      1: Step Time =    1.000,"PART-1-1",           213,      -11.5765,       21.3848,            0.,NA,NA,"",   773.620E-03,   766.742E-03,   102.930E-03,   404.759E-09
C:/temp/dataset/6/20_12.odb,Step-1,Increment      1: Step Time =    1.000,"PART-1-1",           214,      -11.0630,       10.3038,            0.,NA,NA,"",   727.785E-03,   720.742E-03,   101.006E-03,   45.1275E-06
C:/temp/dataset/6/20_12.odb,Step-1,Increment      1: Step Time =    1.000,"PART-1-1",           215,      -10.2832,  -591.021E-03,            0.,NA,NA,"",   689.918E-03,   683.468E-03,   94.1205E-03,   3.55778E-03
C:/temp/dataset/6/20_12.odb,Step-1,Increment      1: Step Time =    1.000,"PART-1-1",           216,      -11.1869,      -5.64306,            0.,NA,NA,"",   679.366E-03,   671.490E-03,   103.145E-03,   6.52667E-03
C:/temp/dataset/6/20_12.odb,Step-1,Increment      1: Step Time =    1.000,"PART-1-1",           217,      -9.48237,      -10.3825,            0.,NA,NA,"",   602.069E-03,   598.849E-03,   62.1846E-03,   7.51713E-03
C:/temp/dataset/6/20_12.odb,Step-1,Increment      1: Step Time =    1.000,"PART-1-1",           218,      -10.0191,      -20.7277,            0.,NA,NA,"",   169.820E-03,   164.791E-03,   41.0213E-03,   11.7700E-03
C:/temp/dataset/6/20_12.odb,Step-1,Increment      1: Step Time =    1.000,"PART-1-1",           219,      -12.8377,      -24.8331,            0.,NA,NA,"",   93.9315E-03,   70.7714E-03,   61.7619E-03,   13.8071E-03
C:/temp/dataset/6/20_12.odb,Step-1,Increment      1: Step Time =    1.000,"PART-1-1",           220,  -752.185E-03,      -25.0561,            0.,NA,NA,"",   61.6992E-03,   61.0538E-03,  -8.90103E-03,   10.5895E-03
C:/temp/dataset/6/20_12.odb,Step-1,Increment      1: Step Time =    1.000,"PART-1-1",           221,      -11.3411,      -22.5061,            0.,NA,NA,"",   129.845E-03,   116.840E-03,   56.6417E-03,   9.83112E-03
C:/temp/dataset/6/20_12.odb,Step-1,Increment      1: Step Time =    1.000,"PART-1-1",           222,       5.90860,      -26.1342,            0.,NA,NA,"",   34.7261E-03,   34.3696E-03,   4.96337E-03,   6.59232E-03
C:/temp/dataset/6/20_12.odb,Step-1,Increment      1: Step Time =    1.000,"PART-1-1",           223,       3.81352,      -25.8758,            0.,NA,NA,"",   43.8176E-03,   43.4368E-03,   5.76449E-03,   8.53473E-03
C:/temp/dataset/6/20_12.odb,Step-1,Increment      1: Step Time =    1.000,"PART-1-1",           224,      -6.87266,      -25.1947,            0.,NA,NA,"",   51.6623E-03,   50.5633E-03,  -10.5994E-03,   6.58705E-03
C:/temp/dataset/6/20_12.odb,Step-1,Increment      1: Step Time =    1.000,"PART-1-1",           225,       9.77381,   336.875E-03,            0.,NA,NA,"",   663.358E-03,   661.623E-03,  -47.9524E-03,   3.13833E-03
C:/temp/dataset/6/20_12.odb,Step-1,Increment      1: Step Time =    1.000,"PART-1-1",           226,       4.59800,   29.7464E-03,            0.,NA,NA,"",   657.984E-03,   656.897E-03,   37.8061E-03,   2.37135E-03
C:/temp/dataset/6/20_12.odb,Step-1,Increment      1: Step Time =    1.000,"PART-1-1",           227,      -11.1551,       12.6912,            0.,NA,NA,"",   737.628E-03,   730.637E-03,   101.310E-03,   33.6776E-06
C:/temp/dataset/6/20_12.odb,Step-1,Increment      1: Step Time =    1.000,"PART-1-1",           228,      -11.2689,       17.3859,            0.,NA,NA,"",   757.001E-03,   750.139E-03,   101.692E-03,   5.63486E-06
C:/temp/dataset/6/20_12.odb,Step-1,Increment      1: Step Time =    1.000,"PART-1-1",           229,      -11.2102,       15.0558,            0.,NA,NA,"",   747.383E-03,   740.461E-03,   101.483E-03,   15.5188E-06
C:/temp/dataset/6/20_12.odb,Step-1,Increment      1: Step Time =    1.000,"PART-1-1",           230,      -10.8139,       7.79620,            0.,NA,NA,"",   717.480E-03,   710.473E-03,   100.033E-03,   96.5216E-06
C:/temp/dataset/6/20_12.odb,Step-1,Increment      1: Step Time =    1.000,"PART-1-1",           231,      -10.1648,       4.85487,            0.,NA,NA,"",   705.574E-03,   698.891E-03,   96.8814E-03,   733.557E-06
C:/temp/dataset/6/20_12.odb,Step-1,Increment      1: Step Time =    1.000,"PART-1-1",           232,      -10.4473,       2.01195,            0.,NA,NA,"",   696.680E-03,   689.896E-03,   96.9861E-03,   1.87346E-03
C:/temp/dataset/6/20_12.odb,Step-1,Increment      1: Step Time =    1.000,"PART-1-1",           233,      -10.4810,      -3.59789,            0.,NA,NA,"",   684.264E-03,   677.796E-03,   93.8602E-03,   5.73749E-03
C:/temp/dataset/6/20_12.odb,Step-1,Increment      1: Step Time =    1.000,"PART-1-1",           234,      -9.89141,      -15.1395,            0.,NA,NA,"",   420.338E-03,   416.733E-03,   54.9345E-03,   16.8802E-03
C:/temp/dataset/6/20_12.odb,Step-1,Increment      1: Step Time =    1.000,"PART-1-1",           235,      -9.95744,      -17.7636,            0.,NA,NA,"",   293.044E-03,   288.525E-03,   51.2636E-03,   18.2213E-03
C:/temp/dataset/6/20_12.odb,Step-1,Increment      1: Step Time =    1.000,"PART-1-1",           236,      -3.63694,      -1.16253,            0.,NA,NA,"",   664.354E-03,   661.110E-03,   65.5722E-03,   5.63478E-03
C:/temp/dataset/6/20_12.odb,Step-1,Increment      1: Step Time =    1.000,"PART-1-1",           237,      -7.00580,      -22.7773,            0.,NA,NA,"",   94.4175E-03,   93.1329E-03,  -15.5218E-03,   5.64277E-03
C:/temp/dataset/6/20_12.odb,Step-1,Increment      1: Step Time =    1.000,"PART-1-1",           238,       7.08723,      -4.67483,            0.,NA,NA,"",   573.606E-03,   573.563E-03,   7.00110E-03,   6.87159E-03
C:/temp/dataset/6/20_12.odb,Step-1,Increment      1: Step Time =    1.000,"PART-1-1",           239,       8.96532,      -10.1697,            0.,NA,NA,"",   399.146E-03,   398.234E-03,  -26.9673E-03,   5.77618E-03
C:/temp/dataset/6/20_12.odb,Step-1,Increment      1: Step Time =    1.000,"PART-1-1",           240,       8.99874,      -7.82238,            0.,NA,NA,"",   476.095E-03,   475.003E-03,  -32.2251E-03,   6.38298E-03
C:/temp/dataset/6/20_12.odb,Step-1,Increment      1: Step Time =    1.000,"PART-1-1",           241,       8.96760,      -14.8663,            0.,NA,NA,"",   247.514E-03,   246.681E-03,  -20.2855E-03,   5.64846E-03
C:/temp/dataset/6/20_12.odb,Step-1,Increment      1: Step Time =    1.000,"PART-1-1",           242,      -12.0836,       24.5335,            0.,NA,NA,"",   786.852E-03,   779.814E-03,   105.007E-03,   134.413E-09
C:/temp/dataset/6/20_12.odb,Step-1,Increment      1: Step Time =    1.000,"PART-1-1",           243,       9.21542,      -5.66363,            0.,NA,NA,"",   541.315E-03,   539.942E-03,  -38.5350E-03,   4.77434E-03
C:/temp/dataset/6/20_12.odb,Step-1,Increment      1: Step Time =    1.000,"PART-1-1",           244,       8.72776,      -2.97127,            0.,NA,NA,"",   606.386E-03,   605.805E-03,  -26.5548E-03,   3.08515E-03
C:/temp/dataset/6/20_12.odb,Step-1,Increment      1: Step Time =    1.000,"PART-1-1",           245,       9.39471,      -19.4524,            0.,NA,NA,"",   124.233E-03,   122.442E-03,  -21.0197E-03,   5.17311E-03
C:/temp/dataset/6/20_12.odb,Step-1,Increment      1: Step Time =    1.000,"PART-1-1",           246,       8.06548,      -22.0810,            0.,NA,NA,"",   73.8833E-03,   73.8727E-03,   1.24941E-03,   1.39551E-03
C:/temp/dataset/6/20_12.odb,Step-1,Increment      1: Step Time =    1.000,"PART-1-1",           247,      -7.53738,       4.79758,            0.,NA,NA,"",   701.952E-03,   696.719E-03,   85.5482E-03,   1.07311E-03
C:/temp/dataset/6/20_12.odb,Step-1,Increment      1: Step Time =    1.000,"PART-1-1",           248,      -10.8025,      -24.3532,            0.,NA,NA,"",   78.0760E-03,   70.2172E-03,   34.1381E-03,   8.14006E-03
C:/temp/dataset/6/20_12.odb,Step-1,Increment      1: Step Time =    1.000,"PART-1-1",           249,       5.82981,      -2.08643,            0.,NA,NA,"",   628.020E-03,   627.473E-03,   26.1925E-03,   4.23378E-03
C:/temp/dataset/6/20_12.odb,Step-1,Increment      1: Step Time =    1.000,"PART-1-1",           250,      -8.67175,      -2.53401,            0.,NA,NA,"",   681.049E-03,   676.603E-03,   77.6944E-03,   6.12863E-03
C:/temp/dataset/6/20_12.odb,Step-1,Increment      1: Step Time =    1.000,"PART-1-1",           251,       5.78686,      -22.7214,            0.,NA,NA,"",   71.4796E-03,   69.4480E-03,   16.9208E-03,   6.81574E-03
C:/temp/dataset/6/20_12.odb,Step-1,Increment      1: Step Time =    1.000,"PART-1-1",           252,      -8.27594,       1.60152,            0.,NA,NA,"",   691.062E-03,   685.772E-03,   85.3404E-03,   2.48725E-03
C:/temp/dataset/6/20_12.odb,Step-1,Increment      1: Step Time =    1.000,"PART-1-1",           253,       8.25490,      -24.0061,            0.,NA,NA,"",   50.7493E-03,   50.7352E-03,  -1.19643E-03,   2.49861E-03
C:/temp/dataset/6/20_12.odb,Step-1,Increment      1: Step Time =    1.000,"PART-1-1",           254,      -9.04303,      -23.2600,            0.,NA,NA,"",   88.3289E-03,   87.4481E-03,   12.4426E-03,   5.97674E-03
C:/temp/dataset/6/20_12.odb,Step-1,Increment      1: Step Time =    1.000,"PART-1-1",           255,       7.61656,      -1.09448,            0.,NA,NA,"",   640.733E-03,   640.715E-03,  -4.86792E-03,   2.88688E-03
C:/temp/dataset/6/20_12.odb,Step-1,Increment      1: Step Time =    1.000,"PART-1-1",           256,      -4.02262,   861.151E-03,            0.,NA,NA,"",   677.102E-03,   673.442E-03,   70.3098E-03,   3.78489E-03
C:/temp/dataset/6/20_12.odb,Step-1,Increment      1: Step Time =    1.000,"PART-1-1",           257,  -104.141E-03,       1.31276,            0.,NA,NA,"",   674.594E-03,   671.468E-03,   64.8741E-03,   3.77772E-03
C:/temp/dataset/6/20_12.odb,Step-1,Increment      1: Step Time =    1.000,"PART-1-1",           258,       3.72123,      -23.4419,            0.,NA,NA,"",   69.4722E-03,   68.1754E-03,   13.3602E-03,   9.79927E-03
C:/temp/dataset/6/20_12.odb,Step-1,Increment      1: Step Time =    1.000,"PART-1-1",           259,      -10.7950,      -8.39617,            0.,NA,NA,"",   653.949E-03,   646.947E-03,   95.4391E-03,   5.60100E-03
C:/temp/dataset/6/20_12.odb,Step-1,Increment      1: Step Time =    1.000,"PART-1-1",           260,      -1.85786,       1.02916,            0.,NA,NA,"",   674.400E-03,   670.959E-03,   68.0389E-03,   4.06499E-03
C:/temp/dataset/6/20_12.odb,Step-1,Increment      1: Step Time =    1.000,"PART-1-1",           261,      -6.46179,      -1.33856,            0.,NA,NA,"",   674.564E-03,   671.032E-03,   68.9376E-03,   5.63086E-03
C:/temp/dataset/6/20_12.odb,Step-1,Increment      1: Step Time =    1.000,"PART-1-1",           262,      -11.1078,      -7.00587,            0.,NA,NA,"",   671.222E-03,   663.334E-03,   102.599E-03,   6.19146E-03
C:/temp/dataset/6/20_12.odb,Step-1,Increment      1: Step Time =    1.000,"PART-1-1",           263,      -5.52697,      -3.44125,            0.,NA,NA,"",   662.510E-03,   660.246E-03,   54.7299E-03,   9.72756E-03
C:/temp/dataset/6/20_12.odb,Step-1,Increment      1: Step Time =    1.000,"PART-1-1",           264,      -9.72268,      -4.98378,            0.,NA,NA,"",   677.883E-03,   672.728E-03,   83.4441E-03,   6.45075E-03
C:/temp/dataset/6/20_12.odb,Step-1,Increment      1: Step Time =    1.000,"PART-1-1",           265,      -6.27329,       4.89376,            0.,NA,NA,"",   700.538E-03,   695.905E-03,   80.4413E-03,   1.31445E-03
C:/temp/dataset/6/20_12.odb,Step-1,Increment      1: Step Time =    1.000,"PART-1-1",           266,       12.4963,       2.80040,            0.,NA,NA,"",   709.352E-03,   701.779E-03,  -103.374E-03,   2.02028E-03
C:/temp/dataset/6/20_12.odb,Step-1,Increment      1: Step Time =    1.000,"PART-1-1",           267,      -7.37176,      -20.2559,            0.,NA,NA,"",   164.878E-03,   164.640E-03,  -8.86217E-03,   15.2854E-03
C:/temp/dataset/6/20_12.odb,Step-1,Increment      1: Step Time =    1.000,"PART-1-1",           268,       2.88963,      -21.8777,            0.,NA,NA,"",   82.4455E-03,   81.5457E-03,   12.1474E-03,   9.08680E-03
C:/temp/dataset/6/20_12.odb,Step-1,Increment      1: Step Time =    1.000,"PART-1-1",           269,      -8.05085,       3.52655,            0.,NA,NA,"",   697.547E-03,   692.139E-03,   86.6941E-03,   1.54495E-03
C:/temp/dataset/6/20_12.odb,Step-1,Increment      1: Step Time =    1.000,"PART-1-1",           270,       8.95558,      -12.5395,            0.,NA,NA,"",   321.330E-03,   320.531E-03,  -22.6391E-03,   5.66217E-03
C:/temp/dataset/6/20_12.odb,Step-1,Increment      1: Step Time =    1.000,"PART-1-1",           271,       1.35989,  -223.950E-03,            0.,NA,NA,"",   658.983E-03,   656.219E-03,   60.2861E-03,   4.35677E-03
C:/temp/dataset/6/20_12.odb,Step-1,Increment      1: Step Time =    1.000,"PART-1-1",           272,      -9.75004,      -12.6533,            0.,NA,NA,"",   529.078E-03,   525.847E-03,   58.3765E-03,   12.3940E-03
C:/temp/dataset/6/20_12.odb,Step-1,Increment      1: Step Time =    1.000,"PART-1-1",           273,      -8.51206,      -25.1011,            0.,NA,NA,"",   51.3719E-03,   51.2760E-03,   3.13738E-03,   4.37036E-03
C:/temp/dataset/6/20_12.odb,Step-1,Increment      1: Step Time =    1.000,"PART-1-1",           274,      -6.19138,   998.181E-03,            0.,NA,NA,"",   683.294E-03,   679.116E-03,   75.4499E-03,   3.02071E-03
C:/temp/dataset/6/20_12.odb,Step-1,Increment      1: Step Time =    1.000,"PART-1-1",           275,      -2.63339,      -25.0950,            0.,NA,NA,"",   62.5393E-03,   60.2059E-03,  -16.9239E-03,   12.2058E-03
C:/temp/dataset/6/20_12.odb,Step-1,Increment      1: Step Time =    1.000,"PART-1-1",           276,       8.11811,      -26.0558,            0.,NA,NA,"",   29.9206E-03,   29.8961E-03,  -1.21114E-03,   4.02426E-03
C:/temp/dataset/6/20_12.odb,Step-1,Increment      1: Step Time =    1.000,"PART-1-1",           277,       6.33403,   764.508E-03,            0.,NA,NA,"",   667.425E-03,   667.278E-03,   14.0061E-03,   1.91256E-03
C:/temp/dataset/6/20_12.odb,Step-1,Increment      1: Step Time =    1.000,"PART-1-1",           278,       8.84044,      -16.9880,            0.,NA,NA,"",   184.326E-03,   183.652E-03,  -15.7492E-03,   6.21677E-03
C:/temp/dataset/6/20_12.odb,Step-1,Increment      1: Step Time =    1.000,"PART-1-1",           279,      -11.3950,       19.6047,            0.,NA,NA,"",   766.198E-03,   759.352E-03,   102.193E-03,   1.58828E-06
C:/temp/dataset/6/20_12.odb,Step-1,Increment      1: Step Time =    1.000,"PART-1-1",           280,      -11.2464,      -2.22607,            0.,NA,NA,"",   688.549E-03,   681.092E-03,   101.060E-03,   4.38012E-03
C:/temp/dataset/6/20_12.odb,Step-1,Increment      1: Step Time =    1.000,"PART-1-1",           281,      -8.41776,  -32.7016E-03,            0.,NA,NA,"",   686.339E-03,   681.309E-03,   82.9492E-03,   3.75350E-03
C:/temp/dataset/6/20_12.odb,Step-1,Increment      1: Step Time =    1.000,"PART-1-1",           282,       4.48255,      -24.5345,            0.,NA,NA,"",   56.1361E-03,   55.1030E-03,   10.7201E-03,   8.55742E-03
C:/temp/dataset/6/20_12.odb,Step-1,Increment      1: Step Time =    1.000,"PART-1-1",           283,       6.11275,      -24.3348,            0.,NA,NA,"",   52.6928E-03,   51.7825E-03,   9.75208E-03,   6.21879E-03
C:/temp/dataset/6/20_12.odb,Step-1,Increment      1: Step Time =    1.000,"PART-1-1",           284,       9.69767,      -4.20039,            0.,NA,NA,"",   577.967E-03,   575.946E-03,  -48.2937E-03,   3.12058E-03
C:/temp/dataset/6/20_12.odb,Step-1,Increment      1: Step Time =    1.000,"PART-1-1",           285,       13.8851,      -1.60402,            0.,NA,NA,"",   638.012E-03,   623.299E-03,  -136.228E-03,   3.03860E-03
C:/temp/dataset/6/20_12.odb,Step-1,Increment      1: Step Time =    1.000,"PART-1-1",           286,           15.,   -468.75E-03,            0.,NA,NA,"",   661.493E-03,   642.982E-03,  -155.392E-03,   3.04170E-03
C:/temp/dataset/6/20_12.odb,Step-1,Increment      1: Step Time =    1.000,"PART-1-1",           287,       13.7553,   590.641E-03,            0.,NA,NA,"",   676.000E-03,   663.451E-03,  -129.650E-03,   2.14138E-03
C:/temp/dataset/6/20_12.odb,Step-1,Increment      1: Step Time =    1.000,"PART-1-1",           288,       12.6405,  -544.629E-03,            0.,NA,NA,"",   653.611E-03,   644.567E-03,  -108.350E-03,   2.62241E-03
C:/temp/dataset/6/20_12.odb,Step-1,Increment      1: Step Time =    1.000,"PART-1-1",           289,       6.57104,       2.96720,            0.,NA,NA,"",   697.117E-03,   697.079E-03,   7.19329E-03,   2.74054E-03
C:/temp/dataset/6/20_12.odb,Step-1,Increment      1: Step Time =    1.000,"PART-1-1",           290,       5.86345,       1.80964,            0.,NA,NA,"",   680.826E-03,   680.554E-03,   19.2296E-03,   2.07655E-03
C:/temp/dataset/6/20_12.odb,Step-1,Increment      1: Step Time =    1.000,"PART-1-1",           291,       7.10711,       1.10321,            0.,NA,NA,"",   672.457E-03,   672.456E-03,   1.36552E-03,   2.20386E-03
C:/temp/dataset/6/20_12.odb,Step-1,Increment      1: Step Time =    1.000,"PART-1-1",           292,       7.81470,       2.26078,            0.,NA,NA,"",   689.598E-03,   689.491E-03,  -12.1468E-03,   2.73556E-03
C:/temp/dataset/6/20_12.odb,Step-1,Increment      1: Step Time =    1.000,"PART-1-1",           293,       6.97305,      -8.82061,            0.,NA,NA,"",   442.557E-03,   442.086E-03,   20.4048E-03,   5.32467E-03
C:/temp/dataset/6/20_12.odb,Step-1,Increment      1: Step Time =    1.000,"PART-1-1",           294,       5.98985,      -7.53541,            0.,NA,NA,"",   486.171E-03,   484.350E-03,   42.0372E-03,   5.89636E-03
C:/temp/dataset/6/20_12.odb,Step-1,Increment      1: Step Time =    1.000,"PART-1-1",           295,            5.,      -8.76875,            0.,NA,NA,"",   448.289E-03,   441.289E-03,   78.9115E-03,   3.63257E-03
C:/temp/dataset/6/20_12.odb,Step-1,Increment      1: Step Time =    1.000,"PART-1-1",           296,       5.98320,      -10.0539,            0.,NA,NA,"",   404.084E-03,   400.734E-03,   51.9280E-03,   2.65738E-03
C:/temp/dataset/6/20_12.odb,Step-1,Increment      1: Step Time =    1.000,"PART-1-1",           297,       12.0429,      -8.05477,            0.,NA,NA,"",   476.425E-03,   465.140E-03,  -103.084E-03,   4.09678E-03
C:/temp/dataset/6/20_12.odb,Step-1,Increment      1: Step Time =    1.000,"PART-1-1",           298,       11.0248,      -9.13413,            0.,NA,NA,"",   438.833E-03,   431.881E-03,  -77.8005E-03,   5.37385E-03
C:/temp/dataset/6/20_12.odb,Step-1,Increment      1: Step Time =    1.000,"PART-1-1",           299,       11.9985,      -10.2754,            0.,NA,NA,"",   407.557E-03,   395.137E-03,  -99.8480E-03,   4.91000E-03
C:/temp/dataset/6/20_12.odb,Step-1,Increment      1: Step Time =    1.000,"PART-1-1",           300,       13.0166,      -9.19606,            0.,NA,NA,"",   447.693E-03,   429.328E-03,  -126.911E-03,   3.55533E-03
C:/temp/dataset/6/20_12.odb,Step-1,Increment      1: Step Time =    1.000,"PART-1-1",           301,       13.9992,      -14.7549,            0.,NA,NA,"",   291.092E-03,   256.901E-03,  -136.882E-03,   6.04838E-03
C:/temp/dataset/6/20_12.odb,Step-1,Increment      1: Step Time =    1.000,"PART-1-1",           302,       13.0271,      -15.9471,            0.,NA,NA,"",   244.571E-03,   220.326E-03,  -106.168E-03,   6.49598E-03
C:/temp/dataset/6/20_12.odb,Step-1,Increment      1: Step Time =    1.000,"PART-1-1",           303,       14.0279,      -16.9735,            0.,NA,NA,"",   230.934E-03,   195.308E-03,  -123.229E-03,   8.03690E-03
C:/temp/dataset/6/20_12.odb,Step-1,Increment      1: Step Time =    1.000,"PART-1-1",           304,           15.,      -15.7813,            0.,NA,NA,"",   278.998E-03,   230.463E-03,  -157.247E-03,   8.08411E-03
C:/temp/dataset/6/20_12.odb,Step-1,Increment      1: Step Time =    1.000,"PART-1-1",           305,       6.96949,      -18.0995,            0.,NA,NA,"",   152.921E-03,   151.805E-03,   18.4420E-03,   6.41509E-03
C:/temp/dataset/6/20_12.odb,Step-1,Increment      1: Step Time =    1.000,"PART-1-1",           306,       5.95014,      -17.3335,            0.,NA,NA,"",   180.620E-03,   175.441E-03,   42.9436E-03,   6.34237E-03
C:/temp/dataset/6/20_12.odb,Step-1,Increment      1: Step Time =    1.000,"PART-1-1",           307,            5.,      -18.7625,            0.,NA,NA,"",   149.489E-03,   139.116E-03,   54.7141E-03,   14.6576E-03
C:/temp/dataset/6/20_12.odb,Step-1,Increment      1: Step Time =    1.000,"PART-1-1",           308,       6.01935,      -19.5285,            0.,NA,NA,"",   116.061E-03,   112.422E-03,   28.8363E-03,   11.7767E-03
C:/temp/dataset/6/20_12.odb,Step-1,Increment      1: Step Time =    1.000,"PART-1-1",           309,       7.66098,      -29.0388,            0.,NA,NA,"",   5.81409E-03,   5.78153E-03,  -614.418E-06,   4.02498E-03
C:/temp/dataset/6/20_12.odb,Step-1,Increment      1: Step Time =    1.000,"PART-1-1",           310,       6.62868,      -28.0660,            0.,NA,NA,"",   14.7543E-03,   14.7402E-03,   645.249E-06,   5.36912E-03
C:/temp/dataset/6/20_12.odb,Step-1,Increment      1: Step Time =    1.000,"PART-1-1",           311,       5.21770,      -29.0272,            0.,NA,NA,"",   8.66805E-03,   8.66128E-03,   342.525E-06,   5.93046E-03
C:/temp/dataset/6/20_12.odb,Step-1,Increment      1: Step Time =    1.000,"PART-1-1",           312,          6.25,          -30.,            0.,NA,NA,"",            0.,   4.44593E-39,  -1.04126E-39,   4.68374E-03
C:/temp/dataset/6/20_12.odb,Step-1,Increment      1: Step Time =    1.000,"PART-1-1",           313,   162.125E-03,      -28.5454,            0.,NA,NA,"",   18.8531E-03,   18.7644E-03,  -1.82578E-03,   8.99503E-03
C:/temp/dataset/6/20_12.odb,Step-1,Increment      1: Step Time =    1.000,"PART-1-1",           314,      -1.06934,      -27.3053,            0.,NA,NA,"",   34.2256E-03,   33.7413E-03,  -5.73769E-03,   9.24360E-03
C:/temp/dataset/6/20_12.odb,Step-1,Increment      1: Step Time =    1.000,"PART-1-1",           315,      -2.48147,      -28.7599,            0.,NA,NA,"",   15.1060E-03,   14.7696E-03,  -3.17049E-03,   8.79448E-03
C:/temp/dataset/6/20_12.odb,Step-1,Increment      1: Step Time =    1.000,"PART-1-1",           316,         -1.25,          -30.,            0.,NA,NA,"",            0.,   7.96366E-39,  -4.39272E-39,   8.47430E-03
C:/temp/dataset/6/20_12.odb,Step-1,Increment      1: Step Time =    1.000,"PART-1-1",           317,          -15.,        -21.25,            0.,NA,NA,"",   240.290E-03,   177.952E-03,   161.470E-03,   17.3952E-03
C:/temp/dataset/6/20_12.odb,Step-1,Increment      1: Step Time =    1.000,"PART-1-1",           318,      -13.9888,      -22.4607,            0.,NA,NA,"",   177.393E-03,   134.261E-03,   115.942E-03,   15.6935E-03
C:/temp/dataset/6/20_12.odb,Step-1,Increment      1: Step Time =    1.000,"PART-1-1",           319,      -12.8187,      -21.2681,            0.,NA,NA,"",   190.714E-03,   162.296E-03,   100.158E-03,   11.7561E-03
C:/temp/dataset/6/20_12.odb,Step-1,Increment      1: Step Time =    1.000,"PART-1-1",           320,      -13.8299,      -20.0574,            0.,NA,NA,"",   252.757E-03,   210.311E-03,   140.198E-03,   12.8643E-03
C:/temp/dataset/6/20_12.odb,Step-1,Increment      1: Step Time =    1.000,"PART-1-1",           321,      -12.5142,      -28.6623,            0.,NA,NA,"",   16.2241E-03,   9.81425E-03,   12.9191E-03,   12.3964E-03
C:/temp/dataset/6/20_12.odb,Step-1,Increment      1: Step Time =    1.000,"PART-1-1",           322,        -11.25,          -30.,            0.,NA,NA,"",            0.,   1.29253E-39,   15.0616E-39,   8.00494E-03
C:/temp/dataset/6/20_12.odb,Step-1,Increment      1: Step Time =    1.000,"PART-1-1",           323,      -9.93348,      -28.4464,            0.,NA,NA,"",   10.0821E-03,   8.38964E-03,   5.59129E-03,   5.22520E-03
C:/temp/dataset/6/20_12.odb,Step-1,Increment      1: Step Time =    1.000,"PART-1-1",           324,      -11.1976,      -27.1087,            0.,NA,NA,"",   31.9531E-03,   25.3144E-03,   19.4982E-03,   9.62113E-03
C:/temp/dataset/6/20_12.odb,Step-1,Increment      1: Step Time =    1.000,"PART-1-1",           325,      -7.37036,      -13.8742,            0.,NA,NA,"",   465.100E-03,   465.070E-03,  -5.33809E-03,   10.5689E-03
C:/temp/dataset/6/20_12.odb,Step-1,Increment      1: Step Time =    1.000,"PART-1-1",           326,      -6.21015,      -15.0417,            0.,NA,NA,"",   413.103E-03,   410.538E-03,  -45.9582E-03,   7.46542E-03
C:/temp/dataset/6/20_12.odb,Step-1,Increment      1: Step Time =    1.000,"PART-1-1",           327,           -5.,      -13.7188,            0.,NA,NA,"",   468.673E-03,   461.285E-03,  -82.8862E-03,   10.4448E-03
C:/temp/dataset/6/20_12.odb,Step-1,Increment      1: Step Time =    1.000,"PART-1-1",           328,      -6.16021,      -12.5513,            0.,NA,NA,"",   513.249E-03,   512.178E-03,  -33.1533E-03,   10.8664E-03
C:/temp/dataset/6/20_12.odb,Step-1,Increment      1: Step Time =    1.000,"PART-1-1",           329,      -9.33590,      -9.40979,            0.,NA,NA,"",   624.716E-03,   621.471E-03,   63.5995E-03,   6.11572E-03
C:/temp/dataset/6/20_12.odb,Step-1,Increment      1: Step Time =    1.000,"PART-1-1",           330,      -8.33361,      -10.3234,            0.,NA,NA,"",   595.477E-03,   594.286E-03,   37.6405E-03,   8.19566E-03
C:/temp/dataset/6/20_12.odb,Step-1,Increment      1: Step Time =    1.000,"PART-1-1",           331,      -7.16565,      -9.15059,            0.,NA,NA,"",   616.584E-03,   616.216E-03,   21.2792E-03,   9.22281E-03
C:/temp/dataset/6/20_12.odb,Step-1,Increment      1: Step Time =    1.000,"PART-1-1",           332,      -8.16794,      -8.23701,            0.,NA,NA,"",   639.705E-03,   637.973E-03,   47.0455E-03,   7.42000E-03
C:/temp/dataset/6/20_12.odb,Step-1,Increment      1: Step Time =    1.000,"PART-1-1",           333,      -11.1473,      -6.32447,            0.,NA,NA,"",   676.019E-03,   668.112E-03,   103.089E-03,   6.27996E-03
C:/temp/dataset/6/20_12.odb,Step-1,Increment      1: Step Time =    1.000,"PART-1-1",           334,      -10.2102,      -6.79208,            0.,NA,NA,"",   668.667E-03,   662.858E-03,   87.9429E-03,   5.93949E-03
C:/temp/dataset/6/20_12.odb,Step-1,Increment      1: Step Time =    1.000,"PART-1-1",           335,      -9.51762,      -5.78103,            0.,NA,NA,"",   673.018E-03,   668.352E-03,   79.1169E-03,   6.19912E-03
C:/temp/dataset/6/20_12.odb,Step-1,Increment      1: Step Time =    1.000,"PART-1-1",           336,      -10.4548,      -5.31342,            0.,NA,NA,"",   678.678E-03,   672.278E-03,   92.9864E-03,   6.28755E-03
C:/temp/dataset/6/20_12.odb,Step-1,Increment      1: Step Time =    1.000,"PART-1-1",           337,      -5.04937,      -1.25055,            0.,NA,NA,"",   669.025E-03,   665.768E-03,   65.9289E-03,   5.25241E-03
C:/temp/dataset/6/20_12.odb,Step-1,Increment      1: Step Time =    1.000,"PART-1-1",           338,      -3.82978,  -150.691E-03,            0.,NA,NA,"",   670.709E-03,   667.240E-03,   68.1343E-03,   4.62417E-03
C:/temp/dataset/6/20_12.odb,Step-1,Increment      1: Step Time =    1.000,"PART-1-1",           339,      -5.10700,   929.666E-03,            0.,NA,NA,"",   680.099E-03,   676.232E-03,   72.4188E-03,   3.25700E-03
C:/temp/dataset/6/20_12.odb,Step-1,Increment      1: Step Time =    1.000,"PART-1-1",           340,      -6.32658,  -170.190E-03,            0.,NA,NA,"",   678.723E-03,   674.805E-03,   72.8238E-03,   4.22356E-03
C:/temp/dataset/6/20_12.odb,Step-1,Increment      1: Step Time =    1.000,"PART-1-1",           341,          -15.,          3.75,            0.,NA,NA,"",   705.532E-03,   695.819E-03,   116.672E-03,   260.998E-06
C:/temp/dataset/6/20_12.odb,Step-1,Increment      1: Step Time =    1.000,"PART-1-1",           342,      -13.8520,       2.39386,            0.,NA,NA,"",   700.917E-03,   691.739E-03,   113.059E-03,   752.586E-06
C:/temp/dataset/6/20_12.odb,Step-1,Increment      1: Step Time =    1.000,"PART-1-1",           343,      -12.6820,       3.58697,            0.,NA,NA,"",   703.736E-03,   695.424E-03,   107.842E-03,   840.717E-06
C:/temp/dataset/6/20_12.odb,Step-1,Increment      1: Step Time =    1.000,"PART-1-1",           344,      -13.8301,       4.94311,            0.,NA,NA,"",   708.887E-03,   699.940E-03,   112.273E-03,   213.445E-06
C:/temp/dataset/6/20_12.odb,Step-1,Increment      1: Step Time =    1.000,"PART-1-1",           345,          -15.,         11.25,            0.,NA,NA,"",   734.102E-03,   724.700E-03,   117.116E-03,   58.0272E-06
C:/temp/dataset/6/20_12.odb,Step-1,Increment      1: Step Time =    1.000,"PART-1-1",           346,      -14.0083,       10.0442,            0.,NA,NA,"",   728.523E-03,   719.705E-03,   113.010E-03,   52.1328E-06
C:/temp/dataset/6/20_12.odb,Step-1,Increment      1: Step Time =    1.000,"PART-1-1",           347,      -13.0572,       11.3141,            0.,NA,NA,"",   733.093E-03,   724.922E-03,   109.149E-03,   34.5608E-06
C:/temp/dataset/6/20_12.odb,Step-1,Increment      1: Step Time =    1.000,"PART-1-1",           348,      -14.0489,       12.5200,            0.,NA,NA,"",   738.665E-03,   729.936E-03,   113.226E-03,   26.5804E-06
C:/temp/dataset/6/20_12.odb,Step-1,Increment      1: Step Time =    1.000,"PART-1-1",           349,           -5.,       22.7083,            0.,NA,NA,"",   775.874E-03,   772.179E-03,   75.6273E-03,   340.735E-09
C:/temp/dataset/6/20_12.odb,Step-1,Increment      1: Step Time =    1.000,"PART-1-1",           350,      -5.96779,       23.6687,            0.,NA,NA,"",   780.247E-03,   776.173E-03,   79.6348E-03,   152.605E-09
C:/temp/dataset/6/20_12.odb,Step-1,Increment      1: Step Time =    1.000,"PART-1-1",           351,      -6.69567,       22.7251,            0.,NA,NA,"",   776.675E-03,   772.263E-03,   82.6634E-03,   67.3809E-09
C:/temp/dataset/6/20_12.odb,Step-1,Increment      1: Step Time =    1.000,"PART-1-1",           352,      -5.72788,       21.7648,            0.,NA,NA,"",   772.286E-03,   768.270E-03,   78.6560E-03,   214.817E-09
C:/temp/dataset/6/20_12.odb,Step-1,Increment      1: Step Time =    1.000,"PART-1-1",           353,      -9.95259,       28.8237,            0.,NA,NA,"",   803.372E-03,   797.600E-03,   96.1266E-03,   61.6310E-09
C:/temp/dataset/6/20_12.odb,Step-1,Increment      1: Step Time =    1.000,"PART-1-1",           354,      -8.67740,       27.7404,            0.,NA,NA,"",   798.279E-03,   793.093E-03,   90.8440E-03,   59.7257E-09
C:/temp/dataset/6/20_12.odb,Step-1,Increment      1: Step Time =    1.000,"PART-1-1",           355,      -7.47481,       28.9167,            0.,NA,NA,"",   802.569E-03,   797.965E-03,   85.8433E-03,   49.1205E-09
C:/temp/dataset/6/20_12.odb,Step-1,Increment      1: Step Time =    1.000,"PART-1-1",           356,         -8.75,           30.,            0.,NA,NA,"",   807.628E-03,   802.471E-03,   91.1259E-03,   55.4461E-09
C:/temp/dataset/6/20_12.odb,Step-1,Increment      1: Step Time =    1.000,"PART-1-1",           357,      -12.4360,       28.7156,            0.,NA,NA,"",   804.247E-03,   797.173E-03,   106.434E-03,   52.4075E-09
C:/temp/dataset/6/20_12.odb,Step-1,Increment      1: Step Time =    1.000,"PART-1-1",           358,        -13.75,           30.,            0.,NA,NA,"",   810.275E-03,   802.514E-03,   111.876E-03,   11.7934E-09
C:/temp/dataset/6/20_12.odb,Step-1,Increment      1: Step Time =    1.000,"PART-1-1",           359,          -15.,         28.75,            0.,NA,NA,"",   805.887E-03,   797.338E-03,   117.074E-03,   15.7810E-09
C:/temp/dataset/6/20_12.odb,Step-1,Increment      1: Step Time =    1.000,"PART-1-1",           360,      -13.6860,       27.4656,            0.,NA,NA,"",   799.825E-03,   791.996E-03,   111.632E-03,   54.4582E-09
C:/temp/dataset/6/20_12.odb,Step-1,Increment      1: Step Time =    1.000,"PART-1-1",           361,         -3.75,           -5.,            0.,NA,NA,"",   653.980E-03,   651.602E-03,   55.7275E-03,   5.24518E-03
C:/temp/dataset/6/20_12.odb,Step-1,Increment      1: Step Time =    1.000,"PART-1-1",           362,      -2.75606,      -4.06584,            0.,NA,NA,"",   649.862E-03,   647.144E-03,   59.3744E-03,   4.61894E-03
C:/temp/dataset/6/20_12.odb,Step-1,Increment      1: Step Time =    1.000,"PART-1-1",           363,      -4.26954,      -3.28646,            0.,NA,NA,"",   656.416E-03,   653.923E-03,   57.1537E-03,   6.68227E-03
C:/temp/dataset/6/20_12.odb,Step-1,Increment      1: Step Time =    1.000,"PART-1-1",           364,      -5.26349,      -4.22062,            0.,NA,NA,"",   658.648E-03,   656.896E-03,   48.0128E-03,   9.93420E-03
C:/temp/dataset/6/20_12.odb,Step-1,Increment      1: Step Time =    1.000,"PART-1-1",           365,   659.099E-03,      -2.85996,            0.,NA,NA,"",   638.920E-03,   636.165E-03,   59.2751E-03,   6.24990E-03
C:/temp/dataset/6/20_12.odb,Step-1,Increment      1: Step Time =    1.000,"PART-1-1",           366,  -266.865E-03,      -3.97148,            0.,NA,NA,"",   638.043E-03,   635.385E-03,   58.1759E-03,   6.25023E-03
C:/temp/dataset/6/20_12.odb,Step-1,Increment      1: Step Time =    1.000,"PART-1-1",           367,          1.25,           -5.,            0.,NA,NA,"",   624.384E-03,   622.301E-03,   50.9599E-03,   8.59739E-03
C:/temp/dataset/6/20_12.odb,Step-1,Increment      1: Step Time =    1.000,"PART-1-1",           368,       2.17596,      -3.88848,            0.,NA,NA,"",   621.780E-03,   619.509E-03,   53.1043E-03,   7.94456E-03
C:/temp/dataset/6/20_12.odb,Step-1,Increment      1: Step Time =    1.000,"PART-1-1",           369,   93.5104E-03,  -560.922E-03,            0.,NA,NA,"",   658.683E-03,   655.605E-03,   63.6000E-03,   4.61975E-03
C:/temp/dataset/6/20_12.odb,Step-1,Increment      1: Step Time =    1.000,"PART-1-1",           370,   627.873E-03,   544.404E-03,            0.,NA,NA,"",   667.278E-03,   664.325E-03,   62.7102E-03,   4.02150E-03
C:/temp/dataset/6/20_12.odb,Step-1,Increment      1: Step Time =    1.000,"PART-1-1",           371,  -981.002E-03,       1.17096,            0.,NA,NA,"",   674.311E-03,   670.997E-03,   66.7690E-03,   3.85793E-03
C:/temp/dataset/6/20_12.odb,Step-1,Increment      1: Step Time =    1.000,"PART-1-1",           372,      -1.51537,   65.6335E-03,            0.,NA,NA,"",   666.891E-03,   663.544E-03,   66.7304E-03,   4.40464E-03
C:/temp/dataset/6/20_12.odb,Step-1,Increment      1: Step Time =    1.000,"PART-1-1",           373,       4.11258,       2.54084,            0.,NA,NA,"",   687.586E-03,   686.479E-03,   38.9959E-03,   2.26510E-03
C:/temp/dataset/6/20_12.odb,Step-1,Increment      1: Step Time =    1.000,"PART-1-1",           374,       3.71515,       1.12833,            0.,NA,NA,"",   671.311E-03,   669.819E-03,   44.7432E-03,   2.25230E-03
C:/temp/dataset/6/20_12.odb,Step-1,Increment      1: Step Time =    1.000,"PART-1-1",           375,       5.46602,   397.127E-03,            0.,NA,NA,"",   662.495E-03,   661.952E-03,   26.8074E-03,   1.78680E-03
C:/temp/dataset/6/20_12.odb,Step-1,Increment      1: Step Time =    1.000,"PART-1-1",           376,       8.69518,  -378.803E-03,            0.,NA,NA,"",   651.466E-03,   650.945E-03,  -26.0686E-03,   2.83926E-03
C:/temp/dataset/6/20_12.odb,Step-1,Increment      1: Step Time =    1.000,"PART-1-1",           377,       8.82700,   889.396E-03,            0.,NA,NA,"",   670.873E-03,   670.229E-03,  -29.3736E-03,   2.77951E-03
C:/temp/dataset/6/20_12.odb,Step-1,Increment      1: Step Time =    1.000,"PART-1-1",           378,       6.97530,  -164.986E-03,            0.,NA,NA,"",   654.680E-03,   654.659E-03,   5.22222E-03,   2.23551E-03
C:/temp/dataset/6/20_12.odb,Step-1,Increment      1: Step Time =    1.000,"PART-1-1",           379,      -3.65351,      -22.6081,            0.,NA,NA,"",   99.7509E-03,   94.7340E-03,  -31.2362E-03,   13.2848E-03
C:/temp/dataset/6/20_12.odb,Step-1,Increment      1: Step Time =    1.000,"PART-1-1",           380,      -2.48671,      -21.3009,            0.,NA,NA,"",   105.269E-03,   102.887E-03,  -22.2669E-03,   10.6125E-03
C:/temp/dataset/6/20_12.odb,Step-1,Increment      1: Step Time =    1.000,"PART-1-1",           381,         -3.75,          -20.,            0.,NA,NA,"",   122.829E-03,   119.455E-03,  -28.5924E-03,   23.4737E-03
C:/temp/dataset/6/20_12.odb,Step-1,Increment      1: Step Time =    1.000,"PART-1-1",           382,      -4.91680,      -21.3072,            0.,NA,NA,"",   126.066E-03,   117.802E-03,  -44.8923E-03,   19.3362E-03
C:/temp/dataset/6/20_12.odb,Step-1,Increment      1: Step Time =    1.000,"PART-1-1",           383,       12.8399,      -22.4784,            0.,NA,NA,"",   97.4096E-03,   78.1011E-03,  -58.2138E-03,   8.22324E-03
C:/temp/dataset/6/20_12.odb,Step-1,Increment      1: Step Time =    1.000,"PART-1-1",           384,       11.7398,      -21.2760,            0.,NA,NA,"",   106.153E-03,   93.6707E-03,  -49.9416E-03,   6.49788E-03
C:/temp/dataset/6/20_12.odb,Step-1,Increment      1: Step Time =    1.000,"PART-1-1",           385,       10.5591,      -22.4389,            0.,NA,NA,"",   77.2254E-03,   72.0809E-03,  -27.7147E-03,   4.57833E-03
C:/temp/dataset/6/20_12.odb,Step-1,Increment      1: Step Time =    1.000,"PART-1-1",           386,       11.6593,      -23.6412,            0.,NA,NA,"",   68.0333E-03,   58.2046E-03,  -35.2243E-03,   6.25257E-03
C:/temp/dataset/6/20_12.odb,Step-1,Increment      1: Step Time =    1.000,"PART-1-1",           387,          8.75,            5.,            0.,NA,NA,"",   735.376E-03,   734.645E-03,  -32.7835E-03,   3.84977E-03
C:/temp/dataset/6/20_12.odb,Step-1,Increment      1: Step Time =    1.000,"PART-1-1",           388,       7.62461,       4.03982,            0.,NA,NA,"",   715.291E-03,   715.200E-03,  -11.4038E-03,   3.76394E-03
C:/temp/dataset/6/20_12.odb,Step-1,Increment      1: Step Time =    1.000,"PART-1-1",           389,       8.90047,       2.96899,            0.,NA,NA,"",   702.399E-03,   701.642E-03,  -32.6107E-03,   2.85868E-03
C:/temp/dataset/6/20_12.odb,Step-1,Increment      1: Step Time =    1.000,"PART-1-1",           390,       10.0259,       3.92917,            0.,NA,NA,"",   721.149E-03,   719.043E-03,  -55.0786E-03,   2.47239E-03
C:/temp/dataset/6/20_12.odb,Step-1,Increment      1: Step Time =    1.000,"PART-1-1",           391,      -6.96921,       21.1213,            0.,NA,NA,"",   770.185E-03,   765.611E-03,   83.8123E-03,   395.019E-09
C:/temp/dataset/6/20_12.odb,Step-1,Increment      1: Step Time =    1.000,"PART-1-1",           392,      -6.24133,       19.9816,            0.,NA,NA,"",   765.155E-03,   760.876E-03,   80.8018E-03,   438.717E-09
C:/temp/dataset/6/20_12.odb,Step-1,Increment      1: Step Time =    1.000,"PART-1-1",           393,           -5.,        20.625,            0.,NA,NA,"",   767.273E-03,   763.535E-03,   75.6461E-03,   277.485E-09
C:/temp/dataset/6/20_12.odb,Step-1,Increment      1: Step Time =    1.000,"PART-1-1",           394,      -12.9370,       8.81410,            0.,NA,NA,"",   722.885E-03,   714.670E-03,   108.668E-03,   20.7990E-06
C:/temp/dataset/6/20_12.odb,Step-1,Increment      1: Step Time =    1.000,"PART-1-1",           395,          -15.,          8.75,            0.,NA,NA,"",   723.994E-03,   714.487E-03,   116.942E-03,   101.283E-06
C:/temp/dataset/6/20_12.odb,Step-1,Increment      1: Step Time =    1.000,"PART-1-1",           396,      -13.9287,       7.51992,            0.,NA,NA,"",   718.429E-03,   709.549E-03,   112.608E-03,   60.3374E-06
C:/temp/dataset/6/20_12.odb,Step-1,Increment      1: Step Time =    1.000,"PART-1-1",           397,          -15.,          1.25,            0.,NA,NA,"",   698.067E-03,   688.047E-03,   117.849E-03,   1.12372E-03
C:/temp/dataset/6/20_12.odb,Step-1,Increment      1: Step Time =    1.000,"PART-1-1",           398,      -13.9023,  -59.1614E-03,            0.,NA,NA,"",   694.743E-03,   685.081E-03,   115.462E-03,   1.79729E-03
C:/temp/dataset/6/20_12.odb,Step-1,Increment      1: Step Time =    1.000,"PART-1-1",           399,      -12.7542,       1.08470,            0.,NA,NA,"",   696.939E-03,   688.363E-03,   108.996E-03,   1.80882E-03
C:/temp/dataset/6/20_12.odb,Step-1,Increment      1: Step Time =    1.000,"PART-1-1",           400,          -15.,         -1.25,            0.,NA,NA,"",   691.669E-03,   680.884E-03,   121.664E-03,   2.68397E-03
C:/temp/dataset/6/20_12.odb,Step-1,Increment      1: Step Time =    1.000,"PART-1-1",           401,      -13.9820,      -2.43756,            0.,NA,NA,"",   689.501E-03,   678.846E-03,   120.749E-03,   3.37575E-03
C:/temp/dataset/6/20_12.odb,Step-1,Increment      1: Step Time =    1.000,"PART-1-1",           402,      -12.8843,      -1.24672,            0.,NA,NA,"",   691.986E-03,   682.864E-03,   111.991E-03,   3.05523E-03
C:/temp/dataset/6/20_12.odb,Step-1,Increment      1: Step Time =    1.000,"PART-1-1",           403,      -12.3802,      -13.7897,            0.,NA,NA,"",   508.395E-03,   494.179E-03,   119.387E-03,   14.9875E-03
C:/temp/dataset/6/20_12.odb,Step-1,Increment      1: Step Time =    1.000,"PART-1-1",           404,      -13.6672,      -12.5056,            0.,NA,NA,"",   581.645E-03,   559.662E-03,   158.396E-03,   11.1265E-03
C:/temp/dataset/6/20_12.odb,Step-1,Increment      1: Step Time =    1.000,"PART-1-1",           405,          -15.,        -13.75,            0.,NA,NA,"",   559.596E-03,   517.606E-03,   212.676E-03,   10.5539E-03
C:/temp/dataset/6/20_12.odb,Step-1,Increment      1: Step Time =    1.000,"PART-1-1",           406,      -13.7130,      -15.0341,            0.,NA,NA,"",   468.679E-03,   440.903E-03,   158.947E-03,   11.9313E-03
C:/temp/dataset/6/20_12.odb,Step-1,Increment      1: Step Time =    1.000,"PART-1-1",           407,       9.21271,      -3.58583,            0.,NA,NA,"",   592.717E-03,   591.542E-03,  -37.3109E-03,   2.91499E-03
C:/temp/dataset/6/20_12.odb,Step-1,Increment      1: Step Time =    1.000,"PART-1-1",           408,       7.90749,      -3.82305,            0.,NA,NA,"",   590.443E-03,   590.359E-03,  -9.94325E-03,   4.41311E-03
C:/temp/dataset/6/20_12.odb,Step-1,Increment      1: Step Time =    1.000,"PART-1-1",           409,       8.15132,      -5.16923,            0.,NA,NA,"",   556.633E-03,   556.424E-03,  -15.2271E-03,   5.48876E-03
C:/temp/dataset/6/20_12.odb,Step-1,Increment      1: Step Time =    1.000,"PART-1-1",           410,       9.45655,      -4.93201,            0.,NA,NA,"",   560.453E-03,   558.760E-03,  -43.5313E-03,   3.54813E-03
C:/temp/dataset/6/20_12.odb,Step-1,Increment      1: Step Time =    1.000,"PART-1-1",           411,       6.91243,      -16.0318,            0.,NA,NA,"",   213.720E-03,   212.168E-03,   25.7065E-03,   5.46165E-03
C:/temp/dataset/6/20_12.odb,Step-1,Increment      1: Step Time =    1.000,"PART-1-1",           412,       5.96229,      -14.9858,            0.,NA,NA,"",   250.859E-03,   245.372E-03,   52.1808E-03,   3.70821E-03
C:/temp/dataset/6/20_12.odb,Step-1,Increment      1: Step Time =    1.000,"PART-1-1",           413,            5.,      -16.2875,            0.,NA,NA,"",   222.195E-03,   209.385E-03,   74.3556E-03,   6.23293E-03
C:/temp/dataset/6/20_12.odb,Step-1,Increment      1: Step Time =    1.000,"PART-1-1",           414,       6.93910,      -13.7291,            0.,NA,NA,"",   284.234E-03,   282.853E-03,   27.9892E-03,   3.79615E-03
C:/temp/dataset/6/20_12.odb,Step-1,Increment      1: Step Time =    1.000,"PART-1-1",           415,       5.97681,      -12.5371,            0.,NA,NA,"",   325.834E-03,   321.229E-03,   54.5880E-03,   1.93288E-03
C:/temp/dataset/6/20_12.odb,Step-1,Increment      1: Step Time =    1.000,"PART-1-1",           416,            5.,      -13.7937,            0.,NA,NA,"",   294.858E-03,   283.155E-03,   82.2454E-03,   2.66516E-03
C:/temp/dataset/6/20_12.odb,Step-1,Increment      1: Step Time =    1.000,"PART-1-1",           417,         -1.25,          -20.,            0.,NA,NA,"",   89.4301E-03,   89.1954E-03,  -6.47376E-03,   7.52470E-03
C:/temp/dataset/6/20_12.odb,Step-1,Increment      1: Step Time =    1.000,"PART-1-1",           418,      -1.09514,      -22.7401,            0.,NA,NA,"",   85.5842E-03,   84.7127E-03,  -12.1827E-03,   11.2801E-03
C:/temp/dataset/6/20_12.odb,Step-1,Increment      1: Step Time =    1.000,"PART-1-1",           419,   141.566E-03,      -21.4393,            0.,NA,NA,"",   86.4867E-03,   86.4594E-03,  -2.17503E-03,   5.31826E-03
C:/temp/dataset/6/20_12.odb,Step-1,Increment      1: Step Time =    1.000,"PART-1-1",           420,      -7.69236,      -25.1479,            0.,NA,NA,"",   50.6659E-03,   50.4739E-03,  -4.40698E-03,   4.92115E-03
C:/temp/dataset/6/20_12.odb,Step-1,Increment      1: Step Time =    1.000,"PART-1-1",           421,      -9.18951,      -25.9970,            0.,NA,NA,"",   38.3131E-03,   37.4354E-03,   8.15414E-03,   4.75300E-03
C:/temp/dataset/6/20_12.odb,Step-1,Increment      1: Step Time =    1.000,"PART-1-1",           422,      -8.56598,      -27.1897,            0.,NA,NA,"",   21.6282E-03,   21.5001E-03,   2.35039E-03,   4.82096E-03
C:/temp/dataset/6/20_12.odb,Step-1,Increment      1: Step Time =    1.000,"PART-1-1",           423,      -7.06883,      -26.3407,            0.,NA,NA,"",   34.5352E-03,   33.9764E-03,  -6.18768E-03,   6.09207E-03
C:/temp/dataset/6/20_12.odb,Step-1,Increment      1: Step Time =    1.000,"PART-1-1",           424,      -9.82073,      -13.8964,            0.,NA,NA,"",   477.524E-03,   474.210E-03,   56.1688E-03,   14.6038E-03
C:/temp/dataset/6/20_12.odb,Step-1,Increment      1: Step Time =    1.000,"PART-1-1",           425,      -8.65586,      -15.1239,            0.,NA,NA,"",   413.879E-03,   413.115E-03,   25.1257E-03,   15.0164E-03
C:/temp/dataset/6/20_12.odb,Step-1,Increment      1: Step Time =    1.000,"PART-1-1",           426,      -8.53523,      -12.6467,            0.,NA,NA,"",   520.631E-03,   519.766E-03,   29.9961E-03,   10.8856E-03
C:/temp/dataset/6/20_12.odb,Step-1,Increment      1: Step Time =    1.000,"PART-1-1",           427,      -6.09243,      -10.1071,            0.,NA,NA,"",   587.949E-03,   587.841E-03,  -11.2625E-03,   13.1259E-03
C:/temp/dataset/6/20_12.odb,Step-1,Increment      1: Step Time =    1.000,"PART-1-1",           428,           -5.,      -8.71250,            0.,NA,NA,"",   611.518E-03,   611.296E-03,  -16.4464E-03,   16.9231E-03
C:/temp/dataset/6/20_12.odb,Step-1,Increment      1: Step Time =    1.000,"PART-1-1",           429,      -6.07322,      -7.75598,            0.,NA,NA,"",   635.849E-03,   635.660E-03,   15.5001E-03,   12.8949E-03
C:/temp/dataset/6/20_12.odb,Step-1,Increment      1: Step Time =    1.000,"PART-1-1",           430,      -12.7270,      -6.06323,            0.,NA,NA,"",   681.673E-03,   670.234E-03,   124.358E-03,   7.83747E-03
C:/temp/dataset/6/20_12.odb,Step-1,Increment      1: Step Time =    1.000,"PART-1-1",           431,      -13.8025,      -4.90646,            0.,NA,NA,"",   683.740E-03,   671.542E-03,   128.579E-03,   5.69789E-03
C:/temp/dataset/6/20_12.odb,Step-1,Increment      1: Step Time =    1.000,"PART-1-1",           432,          -15.,         -6.25,            0.,NA,NA,"",   678.095E-03,   662.999E-03,   142.288E-03,   7.73555E-03
C:/temp/dataset/6/20_12.odb,Step-1,Increment      1: Step Time =    1.000,"PART-1-1",           433,      -13.9244,      -7.40677,            0.,NA,NA,"",   681.617E-03,   665.848E-03,   145.770E-03,   10.0342E-03
C:/temp/dataset/6/20_12.odb,Step-1,Increment      1: Step Time =    1.000,"PART-1-1",           434,       1.60591,      -1.50045,            0.,NA,NA,"",   646.194E-03,   643.527E-03,   58.6485E-03,   5.66516E-03
C:/temp/dataset/6/20_12.odb,Step-1,Increment      1: Step Time =    1.000,"PART-1-1",           435,  -853.298E-03,      -1.92043,            0.,NA,NA,"",   651.393E-03,   648.281E-03,   63.5986E-03,   4.99484E-03
C:/temp/dataset/6/20_12.odb,Step-1,Increment      1: Step Time =    1.000,"PART-1-1",           436,         13.75,          -30.,            0.,NA,NA,"",            0.,   1.07908E-39,  -19.0136E-39,   13.0576E-03
C:/temp/dataset/6/20_12.odb,Step-1,Increment      1: Step Time =    1.000,"PART-1-1",           437,           15.,      -28.9063,            0.,NA,NA,"",   22.4925E-03,   15.7973E-03,  -16.0112E-03,   15.9053E-03
C:/temp/dataset/6/20_12.odb,Step-1,Increment      1: Step Time =    1.000,"PART-1-1",           438,       13.8103,      -27.8746,            0.,NA,NA,"",   28.2725E-03,   19.3898E-03,  -20.5759E-03,   11.5691E-03
C:/temp/dataset/6/20_12.odb,Step-1,Increment      1: Step Time =    1.000,"PART-1-1",           439,       12.5603,      -28.9683,            0.,NA,NA,"",   8.68342E-03,   5.67543E-03,  -6.57200E-03,   8.28712E-03
C:/temp/dataset/6/20_12.odb,Step-1,Increment      1: Step Time =    1.000,"PART-1-1",           440,       12.6598,      -26.8678,            0.,NA,NA,"",   33.8776E-03,   25.0697E-03,  -22.7859E-03,   8.97682E-03
C:/temp/dataset/6/20_12.odb,Step-1,Increment      1: Step Time =    1.000,"PART-1-1",           441,       11.5501,      -25.8632,            0.,NA,NA,"",   38.9061E-03,   32.2746E-03,  -21.7263E-03,   6.55840E-03
C:/temp/dataset/6/20_12.odb,Step-1,Increment      1: Step Time =    1.000,"PART-1-1",           442,       10.3093,      -26.9762,            0.,NA,NA,"",   22.0884E-03,   19.9543E-03,  -9.47245E-03,   4.88824E-03
C:/temp/dataset/6/20_12.odb,Step-1,Increment      1: Step Time =    1.000,"PART-1-1",           443,       11.4189,      -27.9808,            0.,NA,NA,"",   15.5160E-03,   12.3156E-03,  -9.43788E-03,   6.99968E-03
C:/temp/dataset/6/20_12.odb,Step-1,Increment      1: Step Time =    1.000,"PART-1-1",           444,       10.1086,      -29.0125,            0.,NA,NA,"",   5.34515E-03,   4.48960E-03,  -2.90071E-03,   4.53110E-03
C:/temp/dataset/6/20_12.odb,Step-1,Increment      1: Step Time =    1.000,"PART-1-1",           445,       9.01957,      -28.0513,            0.,NA,NA,"",   11.7983E-03,   11.4028E-03,  -3.02892E-03,   4.41014E-03
C:/temp/dataset/6/20_12.odb,Step-1,Increment      1: Step Time =    1.000,"PART-1-1",           446,          8.75,          -30.,            0.,NA,NA,"",            0.,   2.52659E-39,  -4.46586E-39,   3.66551E-03
C:/temp/dataset/6/20_12.odb,Step-1,Increment      1: Step Time =    1.000,"PART-1-1",           447,       4.20973,      -27.9354,            0.,NA,NA,"",   21.0296E-03,   20.9617E-03,   1.68813E-03,   7.15625E-03
C:/temp/dataset/6/20_12.odb,Step-1,Increment      1: Step Time =    1.000,"PART-1-1",           448,       2.74203,      -28.9082,            0.,NA,NA,"",   12.7622E-03,   12.7622E-03,  -5.92219E-06,   7.79896E-03
C:/temp/dataset/6/20_12.odb,Step-1,Increment      1: Step Time =    1.000,"PART-1-1",           449,          3.75,          -30.,            0.,NA,NA,"",            0.,   6.73022E-39,  -487.873E-42,   6.84600E-03
C:/temp/dataset/6/20_12.odb,Step-1,Increment      1: Step Time =    1.000,"PART-1-1",           450,       1.16266,      -25.9573,            0.,NA,NA,"",   48.6319E-03,   48.6245E-03,  -847.653E-06,   9.52506E-03
C:/temp/dataset/6/20_12.odb,Step-1,Increment      1: Step Time =    1.000,"PART-1-1",           451,       1.65415,      -27.4536,            0.,NA,NA,"",   30.8177E-03,   30.8162E-03,  -305.503E-06,   8.53818E-03
C:/temp/dataset/6/20_12.odb,Step-1,Increment      1: Step Time =    1.000,"PART-1-1",           452,       3.39879,      -26.8461,            0.,NA,NA,"",   34.3738E-03,   34.2355E-03,   3.08053E-03,   8.25845E-03
C:/temp/dataset/6/20_12.odb,Step-1,Increment      1: Step Time =    1.000,"PART-1-1",           453,       2.90730,      -25.3498,            0.,NA,NA,"",   51.7421E-03,   51.4651E-03,   5.34673E-03,   9.07278E-03
C:/temp/dataset/6/20_12.odb,Step-1,Increment      1: Step Time =    1.000,"PART-1-1",           454,      -3.67645,      -27.5530,            0.,NA,NA,"",   28.3432E-03,   27.1631E-03,  -8.09349E-03,   8.96859E-03
C:/temp/dataset/6/20_12.odb,Step-1,Increment      1: Step Time =    1.000,"PART-1-1",           455,      -2.54816,      -26.3074,            0.,NA,NA,"",   46.2769E-03,   44.7358E-03,  -11.8431E-03,   10.5482E-03
C:/temp/dataset/6/20_12.odb,Step-1,Increment      1: Step Time =    1.000,"PART-1-1",           456,      -3.72120,      -25.1278,            0.,NA,NA,"",   60.7875E-03,   57.8282E-03,  -18.7355E-03,   11.0762E-03
C:/temp/dataset/6/20_12.odb,Step-1,Increment      1: Step Time =    1.000,"PART-1-1",           457,      -4.84948,      -26.3734,            0.,NA,NA,"",   40.9365E-03,   38.8010E-03,  -13.0490E-03,   9.28750E-03
C:/temp/dataset/6/20_12.odb,Step-1,Increment      1: Step Time =    1.000,"PART-1-1",           458,      -4.94498,      -28.7931,            0.,NA,NA,"",   11.3528E-03,   10.9209E-03,  -3.10143E-03,   7.06679E-03
C:/temp/dataset/6/20_12.odb,Step-1,Increment      1: Step Time =    1.000,"PART-1-1",           459,         -3.75,          -30.,            0.,NA,NA,"",            0.,   6.30101E-39,  -5.31335E-39,   7.03867E-03
C:/temp/dataset/6/20_12.odb,Step-1,Increment      1: Step Time =    1.000,"PART-1-1",           460,      -6.07748,      -27.5364,            0.,NA,NA,"",   22.3878E-03,   21.5621E-03,  -6.02391E-03,   6.96558E-03
C:/temp/dataset/6/20_12.odb,Step-1,Increment      1: Step Time =    1.000,"PART-1-1",           461,      -7.38250,      -28.7433,            0.,NA,NA,"",   7.70542E-03,   7.67362E-03,  -699.363E-06,   4.16141E-03
C:/temp/dataset/6/20_12.odb,Step-1,Increment      1: Step Time =    1.000,"PART-1-1",           462,         -6.25,          -30.,            0.,NA,NA,"",            0.,   3.73766E-39,  -2.63284E-39,   4.21308E-03
C:/temp/dataset/6/20_12.odb,Step-1,Increment      1: Step Time =    1.000,"PART-1-1",           463,      -8.77755,      -24.1806,            0.,NA,NA,"",   68.3374E-03,   67.9787E-03,   6.99282E-03,   4.75356E-03
C:/temp/dataset/6/20_12.odb,Step-1,Increment      1: Step Time =    1.000,"PART-1-1",           464,      -9.92276,      -23.8066,            0.,NA,NA,"",   82.1657E-03,   78.5841E-03,   23.9948E-03,   6.78293E-03
C:/temp/dataset/6/20_12.odb,Step-1,Increment      1: Step Time =    1.000,"PART-1-1",           465,      -10.3347,      -25.6230,            0.,NA,NA,"",   49.7875E-03,   45.2439E-03,   20.7795E-03,   6.96072E-03
C:/temp/dataset/6/20_12.odb,Step-1,Increment      1: Step Time =    1.000,"PART-1-1",           466,       13.9544,      -21.3085,            0.,NA,NA,"",   132.325E-03,   101.284E-03,  -85.1545E-03,   10.0620E-03
C:/temp/dataset/6/20_12.odb,Step-1,Increment      1: Step Time =    1.000,"PART-1-1",           467,       13.8855,      -23.5136,            0.,NA,NA,"",   93.1455E-03,   67.8249E-03,  -63.8426E-03,   10.2165E-03
C:/temp/dataset/6/20_12.odb,Step-1,Increment      1: Step Time =    1.000,"PART-1-1",           468,           15.,      -22.3438,            0.,NA,NA,"",   128.247E-03,   89.8232E-03,  -91.5374E-03,   12.1013E-03
C:/temp/dataset/6/20_12.odb,Step-1,Increment      1: Step Time =    1.000,"PART-1-1",           469,       12.7349,      -24.6944,            0.,NA,NA,"",   62.9847E-03,   48.5624E-03,  -40.1094E-03,   8.53474E-03
C:/temp/dataset/6/20_12.odb,Step-1,Increment      1: Step Time =    1.000,"PART-1-1",           470,       13.8494,      -25.7120,            0.,NA,NA,"",   60.0047E-03,   41.9485E-03,  -42.9056E-03,   10.4978E-03
C:/temp/dataset/6/20_12.odb,Step-1,Increment      1: Step Time =    1.000,"PART-1-1",           471,           15.,      -24.5313,            0.,NA,NA,"",   90.7780E-03,   60.6884E-03,  -67.5097E-03,   12.0793E-03
C:/temp/dataset/6/20_12.odb,Step-1,Increment      1: Step Time =    1.000,"PART-1-1",           472,         11.25,          -30.,            0.,NA,NA,"",            0.,   2.02028E-39,  -10.6550E-39,   5.71066E-03
C:/temp/dataset/6/20_12.odb,Step-1,Increment      1: Step Time =    1.000,"PART-1-1",           473,       13.9950,      -12.5232,            0.,NA,NA,"",   356.394E-03,   324.726E-03,  -146.867E-03,   3.93174E-03
C:/temp/dataset/6/20_12.odb,Step-1,Increment      1: Step Time =    1.000,"PART-1-1",           474,       12.9942,      -13.6844,            0.,NA,NA,"",   309.855E-03,   287.347E-03,  -115.941E-03,   5.41274E-03
C:/temp/dataset/6/20_12.odb,Step-1,Increment      1: Step Time =    1.000,"PART-1-1",           475,           15.,      -13.5938,            0.,NA,NA,"",   339.884E-03,   293.482E-03,  -171.433E-03,   5.26785E-03
C:/temp/dataset/6/20_12.odb,Step-1,Increment      1: Step Time =    1.000,"PART-1-1",           476,       9.85236,      -17.2546,            0.,NA,NA,"",   181.028E-03,   177.665E-03,  -34.7305E-03,   5.84117E-03
C:/temp/dataset/6/20_12.odb,Step-1,Increment      1: Step Time =    1.000,"PART-1-1",           477,       8.68427,      -17.7513,            0.,NA,NA,"",   163.010E-03,   162.570E-03,  -11.9625E-03,   5.90197E-03
C:/temp/dataset/6/20_12.odb,Step-1,Increment      1: Step Time =    1.000,"PART-1-1",           478,       8.96140,      -18.9835,            0.,NA,NA,"",   133.040E-03,   132.167E-03,  -15.2210E-03,   5.38673E-03
C:/temp/dataset/6/20_12.odb,Step-1,Increment      1: Step Time =    1.000,"PART-1-1",           479,       10.1295,      -18.4868,            0.,NA,NA,"",   150.922E-03,   146.493E-03,  -36.2953E-03,   5.59067E-03
C:/temp/dataset/6/20_12.odb,Step-1,Increment      1: Step Time =    1.000,"PART-1-1",           480,       11.2436,      -18.3856,            0.,NA,NA,"",   161.967E-03,   151.711E-03,  -56.7178E-03,   6.12546E-03
C:/temp/dataset/6/20_12.odb,Step-1,Increment      1: Step Time =    1.000,"PART-1-1",           481,       12.3956,      -19.2305,            0.,NA,NA,"",   154.309E-03,   135.707E-03,  -73.4507E-03,   7.16102E-03
C:/temp/dataset/6/20_12.odb,Step-1,Increment      1: Step Time =    1.000,"PART-1-1",           482,       13.1120,      -18.1414,            0.,NA,NA,"",   188.521E-03,   163.055E-03,  -94.6217E-03,   7.52856E-03
C:/temp/dataset/6/20_12.odb,Step-1,Increment      1: Step Time =    1.000,"PART-1-1",           483,       11.9600,      -17.2965,            0.,NA,NA,"",   196.260E-03,   181.008E-03,  -75.8547E-03,   6.42709E-03
C:/temp/dataset/6/20_12.odb,Step-1,Increment      1: Step Time =    1.000,"PART-1-1",           484,       14.0024,      -3.77677,            0.,NA,NA,"",   595.164E-03,   577.376E-03,  -144.420E-03,   3.55564E-03
C:/temp/dataset/6/20_12.odb,Step-1,Increment      1: Step Time =    1.000,"PART-1-1",           485,       13.0359,      -4.87313,            0.,NA,NA,"",   566.677E-03,   552.846E-03,  -124.433E-03,   2.35286E-03
C:/temp/dataset/6/20_12.odb,Step-1,Increment      1: Step Time =    1.000,"PART-1-1",           486,       14.0335,      -5.94012,            0.,NA,NA,"",   544.831E-03,   523.573E-03,  -150.707E-03,   3.14967E-03
C:/temp/dataset/6/20_12.odb,Step-1,Increment      1: Step Time =    1.000,"PART-1-1",           487,           15.,      -4.84375,            0.,NA,NA,"",   575.962E-03,   549.831E-03,  -171.519E-03,   4.49649E-03
C:/temp/dataset/6/20_12.odb,Step-1,Increment      1: Step Time =    1.000,"PART-1-1",           488,       13.0510,      -7.01836,            0.,NA,NA,"",   511.171E-03,   494.977E-03,  -127.644E-03,   2.81484E-03
C:/temp/dataset/6/20_12.odb,Step-1,Increment      1: Step Time =    1.000,"PART-1-1",           489,       14.0175,      -8.10950,            0.,NA,NA,"",   486.772E-03,   461.931E-03,  -153.515E-03,   2.15842E-03
C:/temp/dataset/6/20_12.odb,Step-1,Increment      1: Step Time =    1.000,"PART-1-1",           490,           15.,      -7.03125,            0.,NA,NA,"",   523.375E-03,   491.837E-03,  -178.937E-03,   3.16452E-03
C:/temp/dataset/6/20_12.odb,Step-1,Increment      1: Step Time =    1.000,"PART-1-1",           491,         13.75,            5.,            0.,NA,NA,"",   752.427E-03,   741.472E-03,  -127.928E-03,   226.133E-06
C:/temp/dataset/6/20_12.odb,Step-1,Increment      1: Step Time =    1.000,"PART-1-1",           492,       12.4982,       3.90020,            0.,NA,NA,"",   728.412E-03,   720.999E-03,  -103.655E-03,   1.16258E-03
C:/temp/dataset/6/20_12.odb,Step-1,Increment      1: Step Time =    1.000,"PART-1-1",           493,       13.7482,       2.80645,            0.,NA,NA,"",   713.275E-03,   701.733E-03,  -127.794E-03,   1.10879E-03
C:/temp/dataset/6/20_12.odb,Step-1,Increment      1: Step Time =    1.000,"PART-1-1",           494,           15.,       3.90625,            0.,NA,NA,"",   736.753E-03,   721.128E-03,  -150.929E-03,   197.554E-06
C:/temp/dataset/6/20_12.odb,Step-1,Increment      1: Step Time =    1.000,"PART-1-1",           495,         11.25,            5.,            0.,NA,NA,"",   744.692E-03,   740.388E-03,  -79.9482E-03,   1.70112E-03
C:/temp/dataset/6/20_12.odb,Step-1,Increment      1: Step Time =    1.000,"PART-1-1",           496,       11.2740,       2.82937,            0.,NA,NA,"",   706.298E-03,   701.874E-03,  -78.9293E-03,   2.41451E-03
C:/temp/dataset/6/20_12.odb,Step-1,Increment      1: Step Time =    1.000,"PART-1-1",           497,       11.1422,   446.578E-03,            0.,NA,NA,"",   667.187E-03,   662.827E-03,  -76.1506E-03,   2.88208E-03
C:/temp/dataset/6/20_12.odb,Step-1,Increment      1: Step Time =    1.000,"PART-1-1",           498,       10.2035,  -836.101E-03,            0.,NA,NA,"",   644.570E-03,   642.052E-03,  -56.9144E-03,   2.66507E-03
C:/temp/dataset/6/20_12.odb,Step-1,Increment      1: Step Time =    1.000,"PART-1-1",           499,       11.7017,      -1.82731,            0.,NA,NA,"",   628.555E-03,   622.111E-03,  -89.7713E-03,   2.45872E-03
C:/temp/dataset/6/20_12.odb,Step-1,Increment      1: Step Time =    1.000,"PART-1-1",           500,       12.5035,       1.67834,            0.,NA,NA,"",   690.633E-03,   682.800E-03,  -103.725E-03,   2.36224E-03
C:/temp/dataset/6/20_12.odb,Step-1,Increment      1: Step Time =    1.000,"PART-1-1",           501,       9.91277,       1.59761,            0.,NA,NA,"",   683.314E-03,   681.400E-03,  -51.1083E-03,   2.88766E-03
C:/temp/dataset/6/20_12.odb,Step-1,Increment      1: Step Time =    1.000,"PART-1-1",           502,       5.19643,       3.92738,            0.,NA,NA,"",   705.956E-03,   705.531E-03,   24.4783E-03,   4.18143E-03
C:/temp/dataset/6/20_12.odb,Step-1,Increment      1: Step Time =    1.000,"PART-1-1",           503,          3.75,            5.,            0.,NA,NA,"",   712.166E-03,   711.156E-03,   37.9219E-03,   5.41072E-03
C:/temp/dataset/6/20_12.odb,Step-1,Increment      1: Step Time =    1.000,"PART-1-1",           504,       2.66615,       3.61346,            0.,NA,NA,"",   696.014E-03,   694.224E-03,   49.8941E-03,   3.35574E-03
C:/temp/dataset/6/20_12.odb,Step-1,Increment      1: Step Time =    1.000,"PART-1-1",           505,      -1.00804,       2.95894,            0.,NA,NA,"",   687.013E-03,   683.738E-03,   67.0101E-03,   2.76811E-03
C:/temp/dataset/6/20_12.odb,Step-1,Increment      1: Step Time =    1.000,"PART-1-1",           506,   87.8012E-03,       3.95476,            0.,NA,NA,"",   693.913E-03,   691.022E-03,   63.2776E-03,   2.44684E-03
C:/temp/dataset/6/20_12.odb,Step-1,Increment      1: Step Time =    1.000,"PART-1-1",           507,         -1.25,            5.,            0.,NA,NA,"",   696.673E-03,   693.470E-03,   66.7257E-03,   1.64689E-03
C:/temp/dataset/6/20_12.odb,Step-1,Increment      1: Step Time =    1.000,"PART-1-1",           508,      -2.34584,       4.00418,            0.,NA,NA,"",   692.640E-03,   689.129E-03,   69.6491E-03,   1.43679E-03
C:/temp/dataset/6/20_12.odb,Step-1,Increment      1: Step Time =    1.000,"PART-1-1",           509,      -3.27281,       2.96378,            0.,NA,NA,"",   687.980E-03,   684.291E-03,   71.1545E-03,   2.35334E-03
C:/temp/dataset/6/20_12.odb,Step-1,Increment      1: Step Time =    1.000,"PART-1-1",           510,         -3.75,            5.,            0.,NA,NA,"",   696.754E-03,   692.950E-03,   72.7074E-03,   1.05561E-03
C:/temp/dataset/6/20_12.odb,Step-1,Increment      1: Step Time =    1.000,"PART-1-1",           511,      -4.67697,       3.95960,            0.,NA,NA,"",   693.981E-03,   689.996E-03,   74.2613E-03,   1.66520E-03
C:/temp/dataset/6/20_12.odb,Step-1,Increment      1: Step Time =    1.000,"PART-1-1",           512,      -7.93004,       8.58536,            0.,NA,NA,"",   718.900E-03,   713.491E-03,   88.0162E-03,   54.7462E-06
C:/temp/dataset/6/20_12.odb,Step-1,Increment      1: Step Time =    1.000,"PART-1-1",           513,      -8.65034,       7.25415,            0.,NA,NA,"",   713.718E-03,   707.891E-03,   91.0137E-03,   286.052E-06
C:/temp/dataset/6/20_12.odb,Step-1,Increment      1: Step Time =    1.000,"PART-1-1",           514,      -7.51010,       6.50150,            0.,NA,NA,"",   709.519E-03,   704.272E-03,   86.1306E-03,   400.815E-06
C:/temp/dataset/6/20_12.odb,Step-1,Increment      1: Step Time =    1.000,"PART-1-1",           515,      -6.78981,       7.83270,            0.,NA,NA,"",   714.982E-03,   710.132E-03,   83.1425E-03,   136.319E-06
C:/temp/dataset/6/20_12.odb,Step-1,Increment      1: Step Time =    1.000,"PART-1-1",           516,      -7.08495,       12.0475,            0.,NA,NA,"",   732.874E-03,   728.001E-03,   84.3732E-03,   36.4865E-06
C:/temp/dataset/6/20_12.odb,Step-1,Increment      1: Step Time =    1.000,"PART-1-1",           517,      -6.02998,       11.1050,            0.,NA,NA,"",   728.465E-03,   724.066E-03,   79.9283E-03,   43.3337E-06
C:/temp/dataset/6/20_12.odb,Step-1,Increment      1: Step Time =    1.000,"PART-1-1",           518,           -5.,       12.2917,            0.,NA,NA,"",   732.895E-03,   728.980E-03,   75.6471E-03,   46.4146E-06
C:/temp/dataset/6/20_12.odb,Step-1,Increment      1: Step Time =    1.000,"PART-1-1",           519,      -6.05497,       13.2342,            0.,NA,NA,"",   737.271E-03,   732.911E-03,   80.0593E-03,   21.6208E-06
C:/temp/dataset/6/20_12.odb,Step-1,Increment      1: Step Time =    1.000,"PART-1-1",           520,      -9.96524,       21.0498,            0.,NA,NA,"",   771.367E-03,   765.339E-03,   96.2459E-03,   796.654E-09
C:/temp/dataset/6/20_12.odb,Step-1,Increment      1: Step Time =    1.000,"PART-1-1",           521,      -8.51702,       20.1362,            0.,NA,NA,"",   766.865E-03,   761.537E-03,   90.2440E-03,   967.803E-09
C:/temp/dataset/6/20_12.odb,Step-1,Increment      1: Step Time =    1.000,"PART-1-1",           522,      -8.09442,       21.6565,            0.,NA,NA,"",   772.922E-03,   767.841E-03,   88.4769E-03,   401.177E-09
C:/temp/dataset/6/20_12.odb,Step-1,Increment      1: Step Time =    1.000,"PART-1-1",           523,      -9.54264,       22.5701,            0.,NA,NA,"",   777.407E-03,   771.644E-03,   94.4788E-03,   179.258E-09
C:/temp/dataset/6/20_12.odb,Step-1,Increment      1: Step Time =    1.000,"PART-1-1",           524,      -7.38593,       19.0122,            0.,NA,NA,"",   761.686E-03,   756.865E-03,   85.5599E-03,   2.45416E-06
C:/temp/dataset/6/20_12.odb,Step-1,Increment      1: Step Time =    1.000,"PART-1-1",           525,      -6.14460,       17.5723,            0.,NA,NA,"",   755.178E-03,   750.884E-03,   80.4199E-03,   2.51543E-06
C:/temp/dataset/6/20_12.odb,Step-1,Increment      1: Step Time =    1.000,"PART-1-1",           526,           -5.,       18.5417,            0.,NA,NA,"",   758.676E-03,   754.893E-03,   75.6643E-03,   985.928E-09
C:/temp/dataset/6/20_12.odb,Step-1,Increment      1: Step Time =    1.000,"PART-1-1",           527,      -9.12859,       24.1056,            0.,NA,NA,"",   783.522E-03,   778.013E-03,   92.7474E-03,   103.006E-09
C:/temp/dataset/6/20_12.odb,Step-1,Increment      1: Step Time =    1.000,"PART-1-1",           528,      -7.82088,       23.2603,            0.,NA,NA,"",   779.401E-03,   774.494E-03,   87.3279E-03,   99.0120E-09
C:/temp/dataset/6/20_12.odb,Step-1,Increment      1: Step Time =    1.000,"PART-1-1",           529,      -7.11221,       24.6459,            0.,NA,NA,"",   784.787E-03,   780.238E-03,   84.3753E-03,   112.876E-09
C:/temp/dataset/6/20_12.odb,Step-1,Increment      1: Step Time =    1.000,"PART-1-1",           530,      -8.41993,       25.4912,            0.,NA,NA,"",   788.884E-03,   783.757E-03,   89.7948E-03,   96.7449E-09
C:/temp/dataset/6/20_12.odb,Step-1,Increment      1: Step Time =    1.000,"PART-1-1",           531,           -5.,       28.9583,            0.,NA,NA,"",   801.686E-03,   798.116E-03,   75.5728E-03,   11.9227E-09
C:/temp/dataset/6/20_12.odb,Step-1,Increment      1: Step Time =    1.000,"PART-1-1",           532,         -6.25,           30.,            0.,NA,NA,"",   806.502E-03,   802.449E-03,   80.7512E-03,   11.9610E-09
C:/temp/dataset/6/20_12.odb,Step-1,Increment      1: Step Time =    1.000,"PART-1-1",           533,      -6.22481,       27.8751,            0.,NA,NA,"",   797.720E-03,   793.631E-03,   80.6649E-03,   45.0550E-09
C:/temp/dataset/6/20_12.odb,Step-1,Increment      1: Step Time =    1.000,"PART-1-1",           534,      -11.1386,       27.5393,            0.,NA,NA,"",   798.699E-03,   792.280E-03,   101.059E-03,   63.2835E-09
C:/temp/dataset/6/20_12.odb,Step-1,Increment      1: Step Time =    1.000,"PART-1-1",           535,        -11.25,           30.,            0.,NA,NA,"",   808.886E-03,   802.493E-03,   101.501E-03,   54.9666E-09
C:/temp/dataset/6/20_12.odb,Step-1,Increment      1: Step Time =    1.000,"PART-1-1",           536,      -13.1147,       13.7606,            0.,NA,NA,"",   743.172E-03,   735.080E-03,   109.375E-03,   21.2676E-06
C:/temp/dataset/6/20_12.odb,Step-1,Increment      1: Step Time =    1.000,"PART-1-1",           537,      -14.0658,       14.9906,            0.,NA,NA,"",   748.826E-03,   740.204E-03,   113.306E-03,   9.49939E-06
C:/temp/dataset/6/20_12.odb,Step-1,Increment      1: Step Time =    1.000,"PART-1-1",           538,          -15.,         13.75,            0.,NA,NA,"",   744.342E-03,   735.061E-03,   117.177E-03,   22.0453E-06
C:/temp/dataset/6/20_12.odb,Step-1,Increment      1: Step Time =    1.000,"PART-1-1",           539,      -9.42834,       18.6970,            0.,NA,NA,"",   761.401E-03,   755.572E-03,   94.0402E-03,   3.36390E-06
C:/temp/dataset/6/20_12.odb,Step-1,Increment      1: Step Time =    1.000,"PART-1-1",           540,      -8.29725,       17.5730,            0.,NA,NA,"",   756.201E-03,   750.903E-03,   89.3569E-03,   4.39394E-06
C:/temp/dataset/6/20_12.odb,Step-1,Increment      1: Step Time =    1.000,"PART-1-1",           541,      -12.7588,       6.21303,            0.,NA,NA,"",   712.721E-03,   704.496E-03,   107.967E-03,   235.635E-06
C:/temp/dataset/6/20_12.odb,Step-1,Increment      1: Step Time =    1.000,"PART-1-1",           542,          -15.,          6.25,            0.,NA,NA,"",   714.309E-03,   704.715E-03,   116.681E-03,   65.4741E-06
C:/temp/dataset/6/20_12.odb,Step-1,Increment      1: Step Time =    1.000,"PART-1-1",           543,      -9.01063,       9.47069,            0.,NA,NA,"",   723.207E-03,   717.261E-03,   92.5412E-03,   45.7700E-06
C:/temp/dataset/6/20_12.odb,Step-1,Increment      1: Step Time =    1.000,"PART-1-1",           544,      -10.0811,       10.4578,            0.,NA,NA,"",   727.862E-03,   721.376E-03,   96.9548E-03,   42.8661E-06
C:/temp/dataset/6/20_12.odb,Step-1,Increment      1: Step Time =    1.000,"PART-1-1",           545,      -10.9384,       9.05000,            0.,NA,NA,"",   722.601E-03,   715.573E-03,   100.536E-03,   46.0710E-06
C:/temp/dataset/6/20_12.odb,Step-1,Increment      1: Step Time =    1.000,"PART-1-1",           546,      -9.86794,       8.06293,            0.,NA,NA,"",   717.921E-03,   711.456E-03,   96.1282E-03,   89.6013E-06
C:/temp/dataset/6/20_12.odb,Step-1,Increment      1: Step Time =    1.000,"PART-1-1",           547,      -7.23366,       1.29985,            0.,NA,NA,"",   687.335E-03,   682.663E-03,   80.0089E-03,   2.60877E-03
C:/temp/dataset/6/20_12.odb,Step-1,Increment      1: Step Time =    1.000,"PART-1-1",           548,      -8.34685,   784.410E-03,            0.,NA,NA,"",   688.571E-03,   683.397E-03,   84.2500E-03,   3.09882E-03
C:/temp/dataset/6/20_12.odb,Step-1,Increment      1: Step Time =    1.000,"PART-1-1",           549,      -7.43977,  -685.632E-03,            0.,NA,NA,"",   680.981E-03,   676.751E-03,   75.7856E-03,   4.50076E-03
C:/temp/dataset/6/20_12.odb,Step-1,Increment      1: Step Time =    1.000,"PART-1-1",           550,      -12.4903,      -8.57964,            0.,NA,NA,"",   664.285E-03,   652.094E-03,   126.683E-03,   7.51259E-03
C:/temp/dataset/6/20_12.odb,Step-1,Increment      1: Step Time =    1.000,"PART-1-1",           551,          -15.,         -8.75,            0.,NA,NA,"",   683.675E-03,   663.519E-03,   164.783E-03,   14.4567E-03
C:/temp/dataset/6/20_12.odb,Step-1,Increment      1: Step Time =    1.000,"PART-1-1",           552,      -13.5658,      -9.92286,            0.,NA,NA,"",   653.684E-03,   636.623E-03,   148.371E-03,   10.7434E-03
C:/temp/dataset/6/20_12.odb,Step-1,Increment      1: Step Time =    1.000,"PART-1-1",           553,      -11.9783,      -7.15971,            0.,NA,NA,"",   674.149E-03,   663.987E-03,   116.613E-03,   6.96981E-03
C:/temp/dataset/6/20_12.odb,Step-1,Increment      1: Step Time =    1.000,"PART-1-1",           554,      -11.8960,      -5.22799,            0.,NA,NA,"",   682.554E-03,   673.328E-03,   111.844E-03,   6.24517E-03
C:/temp/dataset/6/20_12.odb,Step-1,Increment      1: Step Time =    1.000,"PART-1-1",           555,      -12.4565,      -16.3452,            0.,NA,NA,"",   386.272E-03,   368.007E-03,   117.377E-03,   14.4570E-03
C:/temp/dataset/6/20_12.odb,Step-1,Increment      1: Step Time =    1.000,"PART-1-1",           556,          -15.,        -16.25,            0.,NA,NA,"",   436.637E-03,   379.663E-03,   215.657E-03,   5.38018E-03
C:/temp/dataset/6/20_12.odb,Step-1,Increment      1: Step Time =    1.000,"PART-1-1",           557,      -13.7435,      -17.5611,            0.,NA,NA,"",   350.153E-03,   313.125E-03,   156.716E-03,   8.61363E-03
C:/temp/dataset/6/20_12.odb,Step-1,Increment      1: Step Time =    1.000,"PART-1-1",           558,      -9.99221,      -8.41662,            0.,NA,NA,"",   648.006E-03,   643.008E-03,   80.3256E-03,   5.40421E-03
C:/temp/dataset/6/20_12.odb,Step-1,Increment      1: Step Time =    1.000,"PART-1-1",           559,      -11.4633,      -9.12095,            0.,NA,NA,"",   647.370E-03,   638.460E-03,   107.036E-03,   6.56250E-03
C:/temp/dataset/6/20_12.odb,Step-1,Increment      1: Step Time =    1.000,"PART-1-1",           560,      -10.8070,      -10.1141,            0.,NA,NA,"",   620.590E-03,   613.844E-03,   91.2575E-03,   7.25962E-03
C:/temp/dataset/6/20_12.odb,Step-1,Increment      1: Step Time =    1.000,"PART-1-1",           561,      -13.9189,      -24.9166,            0.,NA,NA,"",   110.664E-03,   76.7360E-03,   79.7384E-03,   16.6807E-03
C:/temp/dataset/6/20_12.odb,Step-1,Increment      1: Step Time =    1.000,"PART-1-1",           562,      -12.9076,      -23.6273,            0.,NA,NA,"",   124.194E-03,   97.2495E-03,   77.2448E-03,   13.1535E-03
C:/temp/dataset/6/20_12.odb,Step-1,Increment      1: Step Time =    1.000,"PART-1-1",           563,          -15.,        -23.75,            0.,NA,NA,"",   162.844E-03,   110.157E-03,   119.931E-03,   19.2969E-03
C:/temp/dataset/6/20_12.odb,Step-1,Increment      1: Step Time =    1.000,"PART-1-1",           564,          -15.,        -28.75,            0.,NA,NA,"",   37.4913E-03,   25.6331E-03,   27.3594E-03,   23.9178E-03
C:/temp/dataset/6/20_12.odb,Step-1,Increment      1: Step Time =    1.000,"PART-1-1",           565,        -13.75,          -30.,            0.,NA,NA,"",            0.,   225.241E-42,   28.4426E-39,   19.3872E-03
C:/temp/dataset/6/20_12.odb,Step-1,Increment      1: Step Time =    1.000,"PART-1-1",           566,      -13.7642,      -27.4123,            0.,NA,NA,"",   51.1799E-03,   33.0939E-03,   39.0407E-03,   17.7567E-03
C:/temp/dataset/6/20_12.odb,Step-1,Increment      1: Step Time =    1.000,"PART-1-1",           567,            5.,      -6.25625,            0.,NA,NA,"",   528.615E-03,   524.871E-03,   62.8033E-03,   11.5739E-03
C:/temp/dataset/6/20_12.odb,Step-1,Increment      1: Step Time =    1.000,"PART-1-1",           568,       7.03347,      -6.11658,            0.,NA,NA,"",   532.620E-03,   532.537E-03,   9.37117E-03,   6.60376E-03
C:/temp/dataset/6/20_12.odb,Step-1,Increment      1: Step Time =    1.000,"PART-1-1",           569,       6.04361,      -4.83741,            0.,NA,NA,"",   577.474E-03,   576.797E-03,   27.9527E-03,   11.3578E-03
C:/temp/dataset/6/20_12.odb,Step-1,Increment      1: Step Time =    1.000,"PART-1-1",           570,           15.,      -2.65625,            0.,NA,NA,"",   621.580E-03,   599.915E-03,  -162.679E-03,   4.36808E-03
C:/temp/dataset/6/20_12.odb,Step-1,Increment      1: Step Time =    1.000,"PART-1-1",           571,       12.8875,      -2.72454,            0.,NA,NA,"",   613.578E-03,   602.310E-03,  -117.050E-03,   2.33309E-03
C:/temp/dataset/6/20_12.odb,Step-1,Increment      1: Step Time =    1.000,"PART-1-1",           572,       10.0248,      -7.91896,            0.,NA,NA,"",   474.289E-03,   471.009E-03,  -55.6796E-03,   5.58259E-03
C:/temp/dataset/6/20_12.odb,Step-1,Increment      1: Step Time =    1.000,"PART-1-1",           573,       8.98203,      -8.99604,            0.,NA,NA,"",   437.584E-03,   436.583E-03,  -29.5811E-03,   6.09370E-03
C:/temp/dataset/6/20_12.odb,Step-1,Increment      1: Step Time =    1.000,"PART-1-1",           574,       9.98204,      -10.2112,            0.,NA,NA,"",   400.302E-03,   396.999E-03,  -51.3185E-03,   5.82524E-03
C:/temp/dataset/6/20_12.odb,Step-1,Increment      1: Step Time =    1.000,"PART-1-1",           575,            5.,      -11.2813,            0.,NA,NA,"",   371.075E-03,   361.538E-03,   83.5868E-03,   445.022E-06
C:/temp/dataset/6/20_12.odb,Step-1,Increment      1: Step Time =    1.000,"PART-1-1",           576,       6.96001,      -11.3098,            0.,NA,NA,"",   361.286E-03,   360.323E-03,   26.3498E-03,   3.66697E-03
C:/temp/dataset/6/20_12.odb,Step-1,Increment      1: Step Time =    1.000,"PART-1-1",           577,       12.1169,      -5.93459,            0.,NA,NA,"",   536.831E-03,   526.619E-03,  -104.210E-03,   2.95396E-03
C:/temp/dataset/6/20_12.odb,Step-1,Increment      1: Step Time =    1.000,"PART-1-1",           578,       11.1088,      -6.97100,            0.,NA,NA,"",   505.229E-03,   498.667E-03,  -81.1662E-03,   4.17766E-03
C:/temp/dataset/6/20_12.odb,Step-1,Increment      1: Step Time =    1.000,"PART-1-1",           579,           15.,      -11.4063,            0.,NA,NA,"",   402.689E-03,   360.301E-03,  -179.837E-03,   2.23540E-03
C:/temp/dataset/6/20_12.odb,Step-1,Increment      1: Step Time =    1.000,"PART-1-1",           580,       13.9991,      -10.3053,            0.,NA,NA,"",   422.794E-03,   394.402E-03,  -152.322E-03,   2.23098E-03
C:/temp/dataset/6/20_12.odb,Step-1,Increment      1: Step Time =    1.000,"PART-1-1",           581,       12.9941,      -11.4223,            0.,NA,NA,"",   379.178E-03,   358.683E-03,  -122.971E-03,   4.41335E-03
C:/temp/dataset/6/20_12.odb,Step-1,Increment      1: Step Time =    1.000,"PART-1-1",           582,           15.,      -9.21875,            0.,NA,NA,"",   464.796E-03,   427.592E-03,  -182.210E-03,   745.965E-06
C:/temp/dataset/6/20_12.odb,Step-1,Increment      1: Step Time =    1.000,"PART-1-1",           583,       9.25975,      -25.9916,            0.,NA,NA,"",   29.9748E-03,   29.2346E-03,  -6.61990E-03,   3.66285E-03
C:/temp/dataset/6/20_12.odb,Step-1,Increment      1: Step Time =    1.000,"PART-1-1",           584,       7.97004,      -27.0667,            0.,NA,NA,"",   20.8298E-03,   20.8062E-03,  -991.536E-06,   4.26702E-03
C:/temp/dataset/6/20_12.odb,Step-1,Increment      1: Step Time =    1.000,"PART-1-1",           585,       9.98268,      -20.3187,            0.,NA,NA,"",   109.705E-03,   106.184E-03,  -27.5706E-03,   4.85631E-03
C:/temp/dataset/6/20_12.odb,Step-1,Increment      1: Step Time =    1.000,"PART-1-1",           586,       8.47236,      -19.9740,            0.,NA,NA,"",   109.498E-03,   109.344E-03,  -5.81548E-03,   4.53999E-03
C:/temp/dataset/6/20_12.odb,Step-1,Increment      1: Step Time =    1.000,"PART-1-1",           587,       7.80775,      -21.2882,            0.,NA,NA,"",   84.9804E-03,   84.8751E-03,   4.22859E-03,   2.80236E-03
C:/temp/dataset/6/20_12.odb,Step-1,Increment      1: Step Time =    1.000,"PART-1-1",           588,       9.31806,      -21.6330,            0.,NA,NA,"",   83.0837E-03,   81.8360E-03,  -14.3447E-03,   2.88224E-03
C:/temp/dataset/6/20_12.odb,Step-1,Increment      1: Step Time =    1.000,"PART-1-1",           589,          3.75,          -20.,            0.,NA,NA,"",   88.7364E-03,   86.9267E-03,   17.8298E-03,   9.65515E-03
C:/temp/dataset/6/20_12.odb,Step-1,Increment      1: Step Time =    1.000,"PART-1-1",           590,       2.69482,      -20.9389,            0.,NA,NA,"",   86.0588E-03,   85.0980E-03,   12.8239E-03,   3.83348E-03
C:/temp/dataset/6/20_12.odb,Step-1,Increment      1: Step Time =    1.000,"PART-1-1",           591,       4.10336,      -21.5712,            0.,NA,NA,"",   87.0859E-03,   84.2614E-03,   21.9994E-03,   9.01518E-03
C:/temp/dataset/6/20_12.odb,Step-1,Increment      1: Step Time =    1.000,"PART-1-1",           592,       5.15854,      -20.6323,            0.,NA,NA,"",   97.4806E-03,   92.1249E-03,   31.8664E-03,   12.4935E-03
C:/temp/dataset/6/20_12.odb,Step-1,Increment      1: Step Time =    1.000,"PART-1-1",           593,          1.25,          -20.,            0.,NA,NA,"",   82.4616E-03,   82.3511E-03,   4.26652E-03,   1.18532E-03
C:/temp/dataset/6/20_12.odb,Step-1,Increment      1: Step Time =    1.000,"PART-1-1",           594,       1.58638,      -22.3782,            0.,NA,NA,"",   80.5337E-03,   80.3815E-03,   4.94801E-03,   7.91534E-03
C:/temp/dataset/6/20_12.odb,Step-1,Increment      1: Step Time =    1.000,"PART-1-1",           595,      -7.18878,      -21.5166,            0.,NA,NA,"",   123.285E-03,   122.416E-03,  -14.6104E-03,   9.99396E-03
C:/temp/dataset/6/20_12.odb,Step-1,Increment      1: Step Time =    1.000,"PART-1-1",           596,      -8.69544,      -20.4918,            0.,NA,NA,"",   166.364E-03,   165.647E-03,   15.4285E-03,   13.1889E-03
C:/temp/dataset/6/20_12.odb,Step-1,Increment      1: Step Time =    1.000,"PART-1-1",           597,      -9.53108,      -21.9939,            0.,NA,NA,"",   124.750E-03,   122.081E-03,   25.6673E-03,   8.85721E-03
C:/temp/dataset/6/20_12.odb,Step-1,Increment      1: Step Time =    1.000,"PART-1-1",           598,      -8.02442,      -23.0186,            0.,NA,NA,"",   90.0061E-03,   89.9848E-03,  -1.95593E-03,   5.35396E-03
C:/temp/dataset/6/20_12.odb,Step-1,Increment      1: Step Time =    1.000,"PART-1-1",           599,           -5.,      -18.7437,            0.,NA,NA,"",   241.413E-03,   227.956E-03,  -79.4747E-03,   19.8909E-03
C:/temp/dataset/6/20_12.odb,Step-1,Increment      1: Step Time =    1.000,"PART-1-1",           600,      -6.23242,      -17.5731,            0.,NA,NA,"",   289.207E-03,   286.228E-03,  -41.4026E-03,   10.0476E-03
C:/temp/dataset/6/20_12.odb,Step-1,Increment      1: Step Time =    1.000,"PART-1-1",           601,      -7.41830,      -18.9573,            0.,NA,NA,"",   218.498E-03,   218.426E-03,  -5.63202E-03,   17.1275E-03
C:/temp/dataset/6/20_12.odb,Step-1,Increment      1: Step Time =    1.000,"PART-1-1",           602,      -6.18588,      -20.1280,            0.,NA,NA,"",   157.956E-03,   154.660E-03,  -32.0990E-03,   20.0437E-03
C:/temp/dataset/6/20_12.odb,Step-1,Increment      1: Step Time =    1.000,"PART-1-1",           603,           -5.,      -16.2312,            0.,NA,NA,"",   366.798E-03,   353.541E-03,  -97.7217E-03,   1.79536E-03
C:/temp/dataset/6/20_12.odb,Step-1,Increment      1: Step Time =    1.000,"PART-1-1",           604,      -7.44257,      -16.3835,            0.,NA,NA,"",   348.629E-03,   348.541E-03,  -7.84133E-03,   15.0322E-03
C:/temp/dataset/6/20_12.odb,Step-1,Increment      1: Step Time =    1.000,"PART-1-1",           605,      -12.6830,      -26.0788,            0.,NA,NA,"",   65.0599E-03,   47.1402E-03,   44.8397E-03,   13.5128E-03
C:/temp/dataset/6/20_12.odb,Step-1,Increment      1: Step Time =    1.000,"PART-1-1",           606,          -15.,        -26.25,            0.,NA,NA,"",   98.5053E-03,   62.1779E-03,   76.4016E-03,   20.5728E-03
C:/temp/dataset/6/20_12.odb,Step-1,Increment      1: Step Time =    1.000,"PART-1-1",           607,         -8.75,          -30.,            0.,NA,NA,"",            0.,   1.72465E-39,   4.31731E-39,   3.07758E-03
C:/temp/dataset/6/20_12.odb,Step-1,Increment      1: Step Time =    1.000,"PART-1-1",           608,          -15.,        -18.75,            0.,NA,NA,"",   331.753E-03,   268.375E-03,   195.025E-03,   12.6338E-03
C:/temp/dataset/6/20_12.odb,Step-1,Increment      1: Step Time =    1.000,"PART-1-1",           609,      -12.5734,      -18.8685,            0.,NA,NA,"",   274.521E-03,   250.645E-03,   111.977E-03,   11.3062E-03
C:/temp/dataset/6/20_12.odb,Step-1,Increment      1: Step Time =    1.000,"PART-1-1",           610,           -5.,      -11.2063,            0.,NA,NA,"",   552.408E-03,   549.811E-03,  -53.5018E-03,   15.3660E-03
C:/temp/dataset/6/20_12.odb,Step-1,Increment      1: Step Time =    1.000,"PART-1-1",           611,      -7.25264,      -11.4522,            0.,NA,NA,"",   555.544E-03,   555.520E-03,   5.09184E-03,   9.34503E-03
C:/temp/dataset/6/20_12.odb,Step-1,Increment      1: Step Time =    1.000,"PART-1-1",           612,           -5.,      -6.23750,            0.,NA,NA,"",   648.138E-03,   647.747E-03,   22.5301E-03,   17.1606E-03
C:/temp/dataset/6/20_12.odb,Step-1,Increment      1: Step Time =    1.000,"PART-1-1",           613,      -6.16987,      -5.46941,            0.,NA,NA,"",   661.822E-03,   660.650E-03,   39.3632E-03,   9.90565E-03
C:/temp/dataset/6/20_12.odb,Step-1,Increment      1: Step Time =    1.000,"PART-1-1",           614,      -7.24309,      -6.98789,            0.,NA,NA,"",   652.706E-03,   651.472E-03,   40.1222E-03,   7.83808E-03
C:/temp/dataset/6/20_12.odb,Step-1,Increment      1: Step Time =    1.000,"PART-1-1",           615,           -5.,       16.4583,            0.,NA,NA,"",   750.083E-03,   746.256E-03,   75.6789E-03,   5.28180E-06
C:/temp/dataset/6/20_12.odb,Step-1,Increment      1: Step Time =    1.000,"PART-1-1",           616,      -7.23328,       16.4840,            0.,NA,NA,"",   751.201E-03,   746.382E-03,   84.9489E-03,   8.49753E-06
C:/temp/dataset/6/20_12.odb,Step-1,Increment      1: Step Time =    1.000,"PART-1-1",           617,      -6.08867,       15.3700,            0.,NA,NA,"",   746.081E-03,   741.758E-03,   80.2004E-03,   8.30769E-06
C:/temp/dataset/6/20_12.odb,Step-1,Increment      1: Step Time =    1.000,"PART-1-1",           618,      -13.1522,       16.1892,            0.,NA,NA,"",   753.182E-03,   745.178E-03,   109.513E-03,   8.71256E-06
C:/temp/dataset/6/20_12.odb,Step-1,Increment      1: Step Time =    1.000,"PART-1-1",           619,      -14.0864,       17.4486,            0.,NA,NA,"",   758.936E-03,   750.419E-03,   113.379E-03,   2.41144E-06
C:/temp/dataset/6/20_12.odb,Step-1,Increment      1: Step Time =    1.000,"PART-1-1",           620,          -15.,         16.25,            0.,NA,NA,"",   754.602E-03,   745.448E-03,   117.179E-03,   5.79128E-06
C:/temp/dataset/6/20_12.odb,Step-1,Increment      1: Step Time =    1.000,"PART-1-1",           621,           -5.,       24.7917,            0.,NA,NA,"",   784.477E-03,   780.825E-03,   75.6089E-03,   198.037E-09
C:/temp/dataset/6/20_12.odb,Step-1,Increment      1: Step Time =    1.000,"PART-1-1",           622,      -6.14442,       25.7689,            0.,NA,NA,"",   788.992E-03,   784.890E-03,   80.3495E-03,   92.7075E-09
C:/temp/dataset/6/20_12.odb,Step-1,Increment      1: Step Time =    1.000,"PART-1-1",           623,           -5.,        26.875,            0.,NA,NA,"",   793.081E-03,   789.470E-03,   75.5907E-03,   74.8963E-09
C:/temp/dataset/6/20_12.odb,Step-1,Increment      1: Step Time =    1.000,"PART-1-1",           624,      -7.36924,       26.7689,            0.,NA,NA,"",   793.661E-03,   789.050E-03,   85.4236E-03,   95.6973E-09
C:/temp/dataset/6/20_12.odb,Step-1,Increment      1: Step Time =    1.000,"PART-1-1",           625,      -13.1175,       20.9132,            0.,NA,NA,"",   772.573E-03,   764.798E-03,   109.329E-03,   493.231E-09
C:/temp/dataset/6/20_12.odb,Step-1,Increment      1: Step Time =    1.000,"PART-1-1",           626,      -14.0212,       22.2867,            0.,NA,NA,"",   778.758E-03,   770.506E-03,   113.068E-03,   183.300E-09
C:/temp/dataset/6/20_12.odb,Step-1,Increment      1: Step Time =    1.000,"PART-1-1",           627,          -15.,         21.25,            0.,NA,NA,"",   775.114E-03,   766.212E-03,   117.140E-03,   309.283E-09
C:/temp/dataset/6/20_12.odb,Step-1,Increment      1: Step Time =    1.000,"PART-1-1",           628,      -14.0963,       19.8765,            0.,NA,NA,"",   768.911E-03,   760.502E-03,   113.401E-03,   392.684E-09
C:/temp/dataset/6/20_12.odb,Step-1,Increment      1: Step Time =    1.000,"PART-1-1",           629,         -1.25,           -5.,            0.,NA,NA,"",   640.886E-03,   638.350E-03,   56.9580E-03,   6.72530E-03
C:/temp/dataset/6/20_12.odb,Step-1,Increment      1: Step Time =    1.000,"PART-1-1",           630,      -1.77292,      -3.03732,            0.,NA,NA,"",   648.809E-03,   645.836E-03,   62.0393E-03,   4.87264E-03
C:/temp/dataset/6/20_12.odb,Step-1,Increment      1: Step Time =    1.000,"PART-1-1",           631,      -12.1053,      -2.30059,            0.,NA,NA,"",   689.449E-03,   680.904E-03,   108.206E-03,   3.86945E-03
C:/temp/dataset/6/20_12.odb,Step-1,Increment      1: Step Time =    1.000,"PART-1-1",           632,      -10.7648,      -1.40855,            0.,NA,NA,"",   689.262E-03,   682.379E-03,   97.1677E-03,   3.90559E-03
C:/temp/dataset/6/20_12.odb,Step-1,Increment      1: Step Time =    1.000,"PART-1-1",           633,      -11.5438,  -354.672E-03,            0.,NA,NA,"",   692.599E-03,   684.933E-03,   102.761E-03,   2.80756E-03
C:/temp/dataset/6/20_12.odb,Step-1,Increment      1: Step Time =    1.000,"PART-1-1",           634,          3.75,           -5.,            0.,NA,NA,"",   599.348E-03,   597.760E-03,   43.5965E-03,   15.3010E-03
C:/temp/dataset/6/20_12.odb,Step-1,Increment      1: Step Time =    1.000,"PART-1-1",           635,       4.52066,      -3.83856,            0.,NA,NA,"",   605.316E-03,   603.450E-03,   47.4844E-03,   11.7200E-03
C:/temp/dataset/6/20_12.odb,Step-1,Increment      1: Step Time =    1.000,"PART-1-1",           636,       2.94662,      -2.72704,            0.,NA,NA,"",   627.716E-03,   625.463E-03,   53.1360E-03,   6.11176E-03
C:/temp/dataset/6/20_12.odb,Step-1,Increment      1: Step Time =    1.000,"PART-1-1",           637,       1.50395,       2.56821,            0.,NA,NA,"",   685.169E-03,   682.681E-03,   58.3341E-03,   2.77169E-03
C:/temp/dataset/6/20_12.odb,Step-1,Increment      1: Step Time =    1.000,"PART-1-1",           638,          1.25,            5.,            0.,NA,NA,"",   702.373E-03,   700.089E-03,   56.5998E-03,   3.94521E-03
C:/temp/dataset/6/20_12.odb,Step-1,Increment      1: Step Time =    1.000,"PART-1-1",           639,          6.25,            5.,            0.,NA,NA,"",   724.049E-03,   724.006E-03,   7.91081E-03,   5.38134E-03
C:/temp/dataset/6/20_12.odb,Step-1,Increment      1: Step Time =    1.000,"PART-1-1",           640,  -213.968E-03,      -26.0734,            0.,NA,NA,"",   49.0097E-03,   48.6929E-03,  -5.56341E-03,   10.0495E-03
C:/temp/dataset/6/20_12.odb,Step-1,Increment      1: Step Time =    1.000,"PART-1-1",           641,       1.14210,      -23.8512,            0.,NA,NA,"",   70.5900E-03,   70.5890E-03,   372.747E-06,   9.50081E-03
C:/temp/dataset/6/20_12.odb,Step-1,Increment      1: Step Time =    1.000,"PART-1-1",           642,  -234.527E-03,      -23.9674,            0.,NA,NA,"",   72.2879E-03,   71.9814E-03,  -6.64948E-03,   10.0461E-03
C:/temp/dataset/6/20_12.odb,Step-1,Increment      1: Step Time =    1.000,"PART-1-1",           643,           -5.,        14.375,            0.,NA,NA,"",   741.494E-03,   737.622E-03,   75.6809E-03,   18.0960E-06
C:/temp/dataset/6/20_12.odb,Step-1,Increment      1: Step Time =    1.000,"PART-1-1",           644,      -7.14364,       14.2292,            0.,NA,NA,"",   741.881E-03,   737.042E-03,   84.5971E-03,   20.3945E-06
C:/temp/dataset/6/20_12.odb,Step-1,Increment      1: Step Time =    1.000,"PART-1-1",           645,           -5.,       6.04167,            0.,NA,NA,"",   705.537E-03,   701.532E-03,   75.0680E-03,   637.294E-06
C:/temp/dataset/6/20_12.odb,Step-1,Increment      1: Step Time =    1.000,"PART-1-1",           646,      -5.82078,       6.95384,            0.,NA,NA,"",   710.407E-03,   706.011E-03,   78.9022E-03,   224.420E-06
C:/temp/dataset/6/20_12.odb,Step-1,Increment      1: Step Time =    1.000,"PART-1-1",           647,      -6.45742,       5.85906,            0.,NA,NA,"",   705.471E-03,   700.730E-03,   81.6468E-03,   777.235E-06
C:/temp/dataset/6/20_12.odb,Step-1,Increment      1: Step Time =    1.000,"PART-1-1",           648,      -5.63664,       4.94688,            0.,NA,NA,"",   699.679E-03,   695.319E-03,   77.9832E-03,   1.35098E-03
C:/temp/dataset/6/20_12.odb,Step-1,Increment      1: Step Time =    1.000,"PART-1-1",           649,           -5.,         8.125,            0.,NA,NA,"",   715.331E-03,   711.361E-03,   75.2603E-03,   164.457E-06
C:/temp/dataset/6/20_12.odb,Step-1,Increment      1: Step Time =    1.000,"PART-1-1",           650,      -5.96903,       9.00386,            0.,NA,NA,"",   719.631E-03,   715.216E-03,   79.5920E-03,   72.5124E-06
C:/temp/dataset/6/20_12.odb,Step-1,Increment      1: Step Time =    1.000,"PART-1-1",           651,          -15.,         -3.75,            0.,NA,NA,"",   685.379E-03,   672.953E-03,   129.918E-03,   4.97476E-03
C:/temp/dataset/6/20_12.odb,Step-1,Increment      1: Step Time =    1.000,"PART-1-1",           652,      -12.7846,      -3.59401,            0.,NA,NA,"",   687.145E-03,   677.235E-03,   116.281E-03,   4.69002E-03
C:/temp/dataset/6/20_12.odb,Step-1,Increment      1: Step Time =    1.000,"PART-1-1",           653,      -11.5430,      -4.20540,            0.,NA,NA,"",   684.717E-03,   676.499E-03,   105.767E-03,   5.52603E-03
C:/temp/dataset/6/20_12.odb,Step-1,Increment      1: Step Time =    1.000,"PART-1-1",           654,      -10.1018,      -4.29084,            0.,NA,NA,"",   681.388E-03,   675.546E-03,   89.0341E-03,   6.16288E-03
C:/temp/dataset/6/20_12.odb,Step-1,Increment      1: Step Time =    1.000,"PART-1-1",           655,          -15.,        -11.25,            0.,NA,NA,"",   639.350E-03,   609.888E-03,   191.846E-03,   14.0682E-03
C:/temp/dataset/6/20_12.odb,Step-1,Increment      1: Step Time =    1.000,"PART-1-1",           656,      -12.2331,      -11.1785,            0.,NA,NA,"",   606.662E-03,   594.679E-03,   119.982E-03,   9.87766E-03
C:/temp/dataset/6/20_12.odb,Step-1,Increment      1: Step Time =    1.000,"PART-1-1",           657,       5.21391,      -1.02834,            0.,NA,NA,"",   643.872E-03,   643.051E-03,   32.5172E-03,   3.02428E-03
C:/temp/dataset/6/20_12.odb,Step-1,Increment      1: Step Time =    1.000,"PART-1-1",           658,       6.72319,      -1.59046,            0.,NA,NA,"",   633.860E-03,   633.755E-03,   11.4982E-03,   3.16783E-03
C:/temp/dataset/6/20_12.odb,Step-1,Increment      1: Step Time =    1.000,"PART-1-1",           659,       10.9187,      -16.2245,            0.,NA,NA,"",   216.327E-03,   208.157E-03,  -58.8898E-03,   6.15229E-03
C:/temp/dataset/6/20_12.odb,Step-1,Increment      1: Step Time =    1.000,"PART-1-1",           660,       11.9858,      -14.8752,            0.,NA,NA,"",   264.247E-03,   249.503E-03,  -87.0346E-03,   5.95112E-03
C:/temp/dataset/6/20_12.odb,Step-1,Increment      1: Step Time =    1.000,"PART-1-1",           661,       10.9746,      -13.7451,            0.,NA,NA,"",   290.936E-03,   283.017E-03,  -67.4187E-03,   6.10536E-03
C:/temp/dataset/6/20_12.odb,Step-1,Increment      1: Step Time =    1.000,"PART-1-1",           662,       11.9830,      -12.5543,            0.,NA,NA,"",   335.347E-03,   321.747E-03,  -94.5336E-03,   5.44370E-03
C:/temp/dataset/6/20_12.odb,Step-1,Increment      1: Step Time =    1.000,"PART-1-1",           663,           15.,      -20.1563,            0.,NA,NA,"",   171.823E-03,   127.207E-03,  -115.506E-03,   11.6529E-03
C:/temp/dataset/6/20_12.odb,Step-1,Increment      1: Step Time =    1.000,"PART-1-1",           664,       14.0841,      -19.1367,            0.,NA,NA,"",   179.267E-03,   143.827E-03,  -107.007E-03,   9.58311E-03
C:/temp/dataset/6/20_12.odb,Step-1,Increment      1: Step Time =    1.000,"PART-1-1",           665,       13.0385,      -20.2889,            0.,NA,NA,"",   139.794E-03,   116.144E-03,  -77.8010E-03,   8.11292E-03
C:/temp/dataset/6/20_12.odb,Step-1,Increment      1: Step Time =    1.000,"PART-1-1",           666,           15.,      -17.9688,            0.,NA,NA,"",   222.359E-03,   174.282E-03,  -138.092E-03,   10.3358E-03
C:/temp/dataset/6/20_12.odb,Step-1,Increment      1: Step Time =    1.000,"PART-1-1",           667,          1.25,          -30.,            0.,NA,NA,"",            0.,   8.22922E-39,  -2.17547E-39,   8.27528E-03
C:/temp/dataset/6/20_12.odb,Step-1,Increment      1: Step Time =    1.000,"PART-1-1",           668,       3.30543,      -22.6598,            0.,NA,NA,"",   77.6855E-03,   76.4225E-03,   13.9510E-03,   9.07062E-03
C:/temp/dataset/6/20_12.odb,Step-1,Increment      1: Step Time =    1.000,"PART-1-1",           669,       2.86115,      -24.1329,            0.,NA,NA,"",   64.6512E-03,   64.1482E-03,   8.04881E-03,   9.57582E-03
C:/temp/dataset/6/20_12.odb,Step-1,Increment      1: Step Time =    1.000,"PART-1-1",           670,      -10.6801,      -21.6169,            0.,NA,NA,"",   147.827E-03,   139.330E-03,   49.3969E-03,   10.4162E-03
C:/temp/dataset/6/20_12.odb,Step-1,Increment      1: Step Time =    1.000,"PART-1-1",           671,      -11.3394,      -20.4213,            0.,NA,NA,"",   196.476E-03,   183.153E-03,   71.1184E-03,   11.4448E-03
C:/temp/dataset/6/20_12.odb,Step-1,Increment      1: Step Time =    1.000,"PART-1-1",           672,      -12.1593,      -22.4638,            0.,NA,NA,"",   142.957E-03,   122.465E-03,   73.7491E-03,   11.1932E-03
C:/temp/dataset/6/20_12.odb,Step-1,Increment      1: Step Time =    1.000,"PART-1-1",           673,      -9.92443,      -16.4516,            0.,NA,NA,"",   357.064E-03,   353.089E-03,   53.1356E-03,   17.6702E-03
C:/temp/dataset/6/20_12.odb,Step-1,Increment      1: Step Time =    1.000,"PART-1-1",           674,      -8.71114,      -17.7111,            0.,NA,NA,"",   287.695E-03,   286.720E-03,   23.6610E-03,   17.8719E-03
C:/temp/dataset/6/20_12.odb,Step-1,Increment      1: Step Time =    1.000,"PART-1-1",           675,      -9.25100,      -7.50767,            0.,NA,NA,"",   656.290E-03,   652.564E-03,   69.8303E-03,   5.60346E-03
C:/temp/dataset/6/20_12.odb,Step-1,Increment      1: Step Time =    1.000,"PART-1-1",           676,      -8.32615,      -6.25855,            0.,NA,NA,"",   664.665E-03,   661.955E-03,   59.9625E-03,   6.64718E-03
C:/temp/dataset/6/20_12.odb,Step-1,Increment      1: Step Time =    1.000,"PART-1-1",           677,      -7.58018,      -5.09368,            0.,NA,NA,"",   669.449E-03,   667.088E-03,   56.1777E-03,   8.19013E-03
C:/temp/dataset/6/20_12.odb,Step-1,Increment      1: Step Time =    1.000,"PART-1-1",           678,      -6.67379,      -3.84489,            0.,NA,NA,"",   668.432E-03,   666.099E-03,   55.8035E-03,   8.72117E-03
C:/temp/dataset/6/20_12.odb,Step-1,Increment      1: Step Time =    1.000,"PART-1-1",           679,      -2.40491,      -1.03021,            0.,NA,NA,"",   661.463E-03,   658.174E-03,   65.8852E-03,   4.98383E-03
C:/temp/dataset/6/20_12.odb,Step-1,Increment      1: Step Time =    1.000,"PART-1-1",           680,      -3.32453,      -2.14711,            0.,NA,NA,"",   657.888E-03,   654.843E-03,   63.2229E-03,   5.38327E-03
C:/temp/dataset/6/20_12.odb,Step-1,Increment      1: Step Time =    1.000,"PART-1-1",           681,       10.4745,      -24.8101,            0.,NA,NA,"",   45.5445E-03,   41.8914E-03,  -17.8719E-03,   4.35778E-03
C:/temp/dataset/6/20_12.odb,Step-1,Increment      1: Step Time =    1.000,"PART-1-1",           682,       8.16019,      -23.0435,            0.,NA,NA,"",   61.8605E-03,   61.8605E-03,  -7.83330E-06,   1.72814E-03
C:/temp/dataset/6/20_12.odb,Step-1,Increment      1: Step Time =    1.000,"PART-1-1",           683,       9.40124,      -23.8494,            0.,NA,NA,"",   53.3186E-03,   52.1928E-03,  -10.8990E-03,   2.52669E-03
C:/temp/dataset/6/20_12.odb,Step-1,Increment      1: Step Time =    1.000,"PART-1-1",           684,       5.67200,      -27.0943,            0.,NA,NA,"",   25.9150E-03,   25.7377E-03,   3.02628E-03,   6.44558E-03
C:/temp/dataset/6/20_12.odb,Step-1,Increment      1: Step Time =    1.000,"PART-1-1",           685,       4.86106,      -26.0050,            0.,NA,NA,"",   39.3666E-03,   38.8903E-03,   6.10568E-03,   7.55376E-03
C:/temp/dataset/6/20_12.odb,Step-1,Increment      1: Step Time =    1.000,"PART-1-1",           686,      -2.55341,      -23.8484,            0.,NA,NA,"",   79.2664E-03,   76.6933E-03,  -20.0322E-03,   12.5924E-03
C:/temp/dataset/6/20_12.odb,Step-1,Increment      1: Step Time =    1.000,"PART-1-1",           687,      -4.82130,      -23.8875,            0.,NA,NA,"",   78.1769E-03,   74.1150E-03,  -24.8717E-03,   11.3993E-03
C:/temp/dataset/6/20_12.odb,Step-1,Increment      1: Step Time =    1.000,"PART-1-1",           688,      -5.84083,      -25.1777,            0.,NA,NA,"",   55.3304E-03,   53.0164E-03,  -15.8340E-03,   8.31025E-03
C:/temp/dataset/6/20_12.odb,Step-1,Increment      1: Step Time =    1.000,"PART-1-1",           689,           15.,      -26.7188,            0.,NA,NA,"",   57.9716E-03,   37.7303E-03,  -44.0128E-03,   12.9516E-03
C:/temp/dataset/6/20_12.odb,Step-1,Increment      1: Step Time =    1.000,"PART-1-1",           690,       10.9874,      -11.4075,            0.,NA,NA,"",   365.560E-03,   358.172E-03,  -73.1235E-03,   5.90914E-03
C:/temp/dataset/6/20_12.odb,Step-1,Increment      1: Step Time =    1.000,"PART-1-1",           691,       7.29436,      -19.7763,            0.,NA,NA,"",   110.943E-03,   110.416E-03,   10.7947E-03,   5.67032E-03
C:/temp/dataset/6/20_12.odb,Step-1,Increment      1: Step Time =    1.000,"PART-1-1",           692,       7.78340,      -18.7858,            0.,NA,NA,"",   135.066E-03,   135.007E-03,   3.98178E-03,   6.12539E-03
C:/temp/dataset/6/20_12.odb,Step-1,Increment      1: Step Time =    1.000,"PART-1-1",           693,       10.8970,      -2.99004,            0.,NA,NA,"",   604.684E-03,   600.210E-03,  -73.4242E-03,   2.03481E-03
C:/temp/dataset/6/20_12.odb,Step-1,Increment      1: Step Time =    1.000,"PART-1-1",           694,       12.0828,      -3.88727,            0.,NA,NA,"",   586.941E-03,   578.194E-03,  -100.954E-03,   2.20588E-03
C:/temp/dataset/6/20_12.odb,Step-1,Increment      1: Step Time =    1.000,"PART-1-1",           695,           15.,       1.71875,            0.,NA,NA,"",   698.732E-03,   682.100E-03,  -151.545E-03,   1.31982E-03
C:/temp/dataset/6/20_12.odb,Step-1,Increment      1: Step Time =    1.000,"PART-1-1",           696,       4.00043,  -427.215E-03,            0.,NA,NA,"",   652.703E-03,   651.210E-03,   44.1153E-03,   3.14378E-03
C:/temp/dataset/6/20_12.odb,Step-1,Increment      1: Step Time =    1.000,"PART-1-1",           697,       2.09609,       1.00148,            0.,NA,NA,"",   670.321E-03,   667.948E-03,   56.3503E-03,   3.01994E-03
C:/temp/dataset/6/20_12.odb,Step-1,Increment      1: Step Time =    1.000,"PART-1-1",           698,       2.38138,  -554.063E-03,            0.,NA,NA,"",   653.928E-03,   651.554E-03,   55.6702E-03,   4.07317E-03
C:/temp/dataset/6/20_12.odb,Step-1,Increment      1: Step Time =    1.000,"PART-1-1",           699,   35.7305E-03,       2.11113,            0.,NA,NA,"",   680.967E-03,   677.914E-03,   64.4152E-03,   3.26375E-03
C:/temp/dataset/6/20_12.odb,Step-1,Increment      1: Step Time =    1.000,"PART-1-1",           700,           -5.,       10.2083,            0.,NA,NA,"",   724.222E-03,   720.271E-03,   75.5414E-03,   103.631E-06
C:/temp/dataset/6/20_12.odb,Step-1,Increment      1: Step Time =    1.000,"PART-1-1",           701,      -6.99901,       9.90050,            0.,NA,NA,"",   723.933E-03,   719.039E-03,   84.0344E-03,   41.6925E-06
C:/temp/dataset/6/20_12.odb,Step-1,Increment      1: Step Time =    1.000,"PART-1-1",           702,      -11.2396,       16.2208,            0.,NA,NA,"",   752.192E-03,   745.300E-03,   101.586E-03,   10.3265E-06
C:/temp/dataset/6/20_12.odb,Step-1,Increment      1: Step Time =    1.000,"PART-1-1",           703,      -10.2112,       15.1096,            0.,NA,NA,"",   747.055E-03,   740.686E-03,   97.3408E-03,   14.2126E-06
C:/temp/dataset/6/20_12.odb,Step-1,Increment      1: Step Time =    1.000,"PART-1-1",           704,      -9.25876,       16.3324,            0.,NA,NA,"",   751.583E-03,   745.761E-03,   93.3656E-03,   10.2836E-06
C:/temp/dataset/6/20_12.odb,Step-1,Increment      1: Step Time =    1.000,"PART-1-1",           705,      -10.2871,       17.4437,            0.,NA,NA,"",   756.698E-03,   750.375E-03,   97.6185E-03,   5.10511E-06
C:/temp/dataset/6/20_12.odb,Step-1,Increment      1: Step Time =    1.000,"PART-1-1",           706,      -8.19479,       15.2434,            0.,NA,NA,"",   746.564E-03,   741.245E-03,   88.9607E-03,   12.6524E-06
C:/temp/dataset/6/20_12.odb,Step-1,Increment      1: Step Time =    1.000,"PART-1-1",           707,      -9.19446,       14.0222,            0.,NA,NA,"",   742.049E-03,   736.180E-03,   93.1436E-03,   23.3739E-06
C:/temp/dataset/6/20_12.odb,Step-1,Increment      1: Step Time =    1.000,"PART-1-1",           708,      -8.14331,       13.0080,            0.,NA,NA,"",   737.348E-03,   731.982E-03,   88.7882E-03,   26.6445E-06
C:/temp/dataset/6/20_12.odb,Step-1,Increment      1: Step Time =    1.000,"PART-1-1",           709,          -15.,         18.75,            0.,NA,NA,"",   764.859E-03,   755.833E-03,   117.162E-03,   676.361E-09
C:/temp/dataset/6/20_12.odb,Step-1,Increment      1: Step Time =    1.000,"PART-1-1",           710,      -13.1826,       18.5751,            0.,NA,NA,"",   763.006E-03,   755.091E-03,   109.620E-03,   2.56813E-06
C:/temp/dataset/6/20_12.odb,Step-1,Increment      1: Step Time =    1.000,"PART-1-1",           711,      -11.2313,       23.3702,            0.,NA,NA,"",   781.595E-03,   774.979E-03,   101.480E-03,   116.714E-09
C:/temp/dataset/6/20_12.odb,Step-1,Increment      1: Step Time =    1.000,"PART-1-1",           712,      -10.8173,       24.9058,            0.,NA,NA,"",   787.690E-03,   781.348E-03,   99.7486E-03,   100.860E-09
C:/temp/dataset/6/20_12.odb,Step-1,Increment      1: Step Time =    1.000,"PART-1-1",           713,      -13.5418,       24.7667,            0.,NA,NA,"",   788.653E-03,   780.795E-03,   111.057E-03,   103.857E-09
C:/temp/dataset/6/20_12.odb,Step-1,Increment      1: Step Time =    1.000,"PART-1-1",           714,      -12.2278,       25.9824,            0.,NA,NA,"",   792.891E-03,   785.828E-03,   105.593E-03,   104.736E-09
C:/temp/dataset/6/20_12.odb,Step-1,Increment      1: Step Time =    1.000,"PART-1-1",           715,          -15.,         26.25,            0.,NA,NA,"",   795.627E-03,   786.963E-03,   117.096E-03,   106.357E-09
C:/temp/dataset/6/20_12.odb,Step-1,Increment      1: Step Time =    1.000,"PART-1-1",           716,          -15.,         23.75,            0.,NA,NA,"",   785.369E-03,   776.588E-03,   117.118E-03,   263.246E-09
C:/temp/dataset/6/20_12.odb,Step-1,Increment      1: Step Time =    1.000,"PART-1-1",           717,      -12.5630,       23.3034,            0.,NA,NA,"",   782.069E-03,   774.714E-03,   107.007E-03,   74.5228E-09
C:/temp/dataset/6/20_12.odb,Step-1,Increment      1: Step Time =    1.000,"PART-1-1",           718,      -11.1827,       13.8735,            0.,NA,NA,"",   742.504E-03,   735.548E-03,   101.393E-03,   23.5769E-06
C:/temp/dataset/6/20_12.odb,Step-1,Increment      1: Step Time =    1.000,"PART-1-1",           719,      -10.1659,       12.7861,            0.,NA,NA,"",   737.477E-03,   731.041E-03,   97.2141E-03,   30.0655E-06
C:/temp/dataset/6/20_12.odb,Step-1,Increment      1: Step Time =    1.000,"PART-1-1",           720,      -11.4858,       20.4947,            0.,NA,NA,"",   769.909E-03,   763.047E-03,   102.561E-03,   1.00222E-06
C:/temp/dataset/6/20_12.odb,Step-1,Increment      1: Step Time =    1.000,"PART-1-1",           721,      -10.4732,       19.7487,            0.,NA,NA,"",   766.283E-03,   759.943E-03,   98.3659E-03,   1.39714E-06
C:/temp/dataset/6/20_12.odb,Step-1,Increment      1: Step Time =    1.000,"PART-1-1",           722,      -10.9778,       21.7959,            0.,NA,NA,"",   774.980E-03,   768.443E-03,   100.441E-03,   316.332E-09
C:/temp/dataset/6/20_12.odb,Step-1,Increment      1: Step Time =    1.000,"PART-1-1",           723,      -9.13796,       11.7463,            0.,NA,NA,"",   732.662E-03,   726.738E-03,   92.9804E-03,   37.3683E-06
C:/temp/dataset/6/20_12.odb,Step-1,Increment      1: Step Time =    1.000,"PART-1-1",           724,      -11.1090,       11.4975,            0.,NA,NA,"",   732.699E-03,   725.682E-03,   101.157E-03,   34.5264E-06
C:/temp/dataset/6/20_12.odb,Step-1,Increment      1: Step Time =    1.000,"PART-1-1",           725,      -7.95801,       5.48811,            0.,NA,NA,"",   705.467E-03,   700.000E-03,   87.6545E-03,   799.560E-06
C:/temp/dataset/6/20_12.odb,Step-1,Increment      1: Step Time =    1.000,"PART-1-1",           726,      -9.27172,       5.51676,            0.,NA,NA,"",   707.095E-03,   700.921E-03,   93.2394E-03,   590.747E-06
C:/temp/dataset/6/20_12.odb,Step-1,Increment      1: Step Time =    1.000,"PART-1-1",           727,      -9.10783,       4.19071,            0.,NA,NA,"",   701.761E-03,   695.717E-03,   91.9019E-03,   1.09857E-03
C:/temp/dataset/6/20_12.odb,Step-1,Increment      1: Step Time =    1.000,"PART-1-1",           728,      -7.79412,       4.16207,            0.,NA,NA,"",   699.638E-03,   694.312E-03,   86.1640E-03,   1.28737E-03
C:/temp/dataset/6/20_12.odb,Step-1,Increment      1: Step Time =    1.000,"PART-1-1",           729,      -10.3652,   710.465E-03,            0.,NA,NA,"",   693.080E-03,   686.442E-03,   95.6956E-03,   2.68089E-03
C:/temp/dataset/6/20_12.odb,Step-1,Increment      1: Step Time =    1.000,"PART-1-1",           730,      -11.5756,       2.14983,            0.,NA,NA,"",   698.563E-03,   690.956E-03,   102.815E-03,   1.46915E-03
C:/temp/dataset/6/20_12.odb,Step-1,Increment      1: Step Time =    1.000,"PART-1-1",           731,      -10.9514,      -7.70102,            0.,NA,NA,"",   663.594E-03,   656.111E-03,   99.3779E-03,   5.84765E-03
C:/temp/dataset/6/20_12.odb,Step-1,Increment      1: Step Time =    1.000,"PART-1-1",           732,      -11.1587,      -15.1039,            0.,NA,NA,"",   432.659E-03,   424.215E-03,   85.0655E-03,   16.3529E-03
C:/temp/dataset/6/20_12.odb,Step-1,Increment      1: Step Time =    1.000,"PART-1-1",           733,      -11.0422,      -12.5823,            0.,NA,NA,"",   544.015E-03,   536.750E-03,   88.6113E-03,   12.4151E-03
C:/temp/dataset/6/20_12.odb,Step-1,Increment      1: Step Time =    1.000,"PART-1-1",           734,      -9.98828,      -19.2456,            0.,NA,NA,"",   227.253E-03,   222.430E-03,   46.5720E-03,   14.8465E-03
C:/temp/dataset/6/20_12.odb,Step-1,Increment      1: Step Time =    1.000,"PART-1-1",           735,      -11.2222,      -17.6929,            0.,NA,NA,"",   308.341E-03,   297.515E-03,   80.9873E-03,   15.2228E-03
C:/temp/dataset/6/20_12.odb,Step-1,Increment      1: Step Time =    1.000,"PART-1-1",           736,      -9.72809,       26.4627,            0.,NA,NA,"",   793.533E-03,   787.800E-03,   95.2152E-03,   86.9565E-09
C:/temp/dataset/6/20_12.odb,Step-1,Increment      1: Step Time =    1.000,"PART-1-1",           737,      -8.07960,       10.7858,            0.,NA,NA,"",   728.158E-03,   722.750E-03,   88.5844E-03,   40.4663E-06
C:/temp/dataset/6/20_12.odb,Step-1,Increment      1: Step Time =    1.000,"PART-1-1",           738,      -11.3320,       18.4953,            0.,NA,NA,"",   761.599E-03,   754.746E-03,   101.942E-03,   3.58567E-06
C:/temp/dataset/6/20_12.odb,Step-1,Increment      1: Step Time =    1.000,"PART-1-1",           739,      -10.4893,       6.32554,            0.,NA,NA,"",   711.431E-03,   704.566E-03,   98.5949E-03,   394.735E-06
C:/temp/dataset/6/20_12.odb,Step-1,Increment      1: Step Time =    1.000,"PART-1-1",           740,      -11.8356,       7.66802,            0.,NA,NA,"",   717.644E-03,   710.036E-03,   104.216E-03,   76.4464E-06
C:/temp/dataset/6/20_12.odb,Step-1,Increment      1: Step Time =    1.000,"PART-1-1",           741,      -11.4125,       4.87054,            0.,NA,NA,"",   706.879E-03,   699.432E-03,   102.338E-03,   554.045E-06
C:/temp/dataset/6/20_12.odb,Step-1,Increment      1: Step Time =    1.000,"PART-1-1",           742,       10.1911,      -5.79504,            0.,NA,NA,"",   537.309E-03,   533.931E-03,  -60.1562E-03,   4.13252E-03
C:/temp/dataset/6/20_12.odb,Step-1,Increment      1: Step Time =    1.000,"PART-1-1",           743,       9.10708,      -6.74300,            0.,NA,NA,"",   509.595E-03,   508.348E-03,  -35.6274E-03,   5.53187E-03
C:/temp/dataset/6/20_12.odb,Step-1,Increment      1: Step Time =    1.000,"PART-1-1",           744,       11.1638,      -4.94873,            0.,NA,NA,"",   560.198E-03,   554.251E-03,  -81.4096E-03,   2.60396E-03
C:/temp/dataset/6/20_12.odb,Step-1,Increment      1: Step Time =    1.000,"PART-1-1",           745,       10.4293,      -4.08570,            0.,NA,NA,"",   580.452E-03,   576.888E-03,  -64.2223E-03,   2.56829E-03
C:/temp/dataset/6/20_12.odb,Step-1,Increment      1: Step Time =    1.000,"PART-1-1",           746,       9.97038,      -14.8971,            0.,NA,NA,"",   249.927E-03,   246.337E-03,  -42.2116E-03,   5.86834E-03
C:/temp/dataset/6/20_12.odb,Step-1,Increment      1: Step Time =    1.000,"PART-1-1",           747,       9.96577,      -12.5508,            0.,NA,NA,"",   323.877E-03,   320.506E-03,  -46.6096E-03,   5.84345E-03
C:/temp/dataset/6/20_12.odb,Step-1,Increment      1: Step Time =    1.000,"PART-1-1",           748,       8.96159,      -13.7029,            0.,NA,NA,"",   283.963E-03,   283.161E-03,  -21.3315E-03,   5.70045E-03
C:/temp/dataset/6/20_12.odb,Step-1,Increment      1: Step Time =    1.000,"PART-1-1",           749,       6.92617,      -22.4012,            0.,NA,NA,"",   71.5468E-03,   70.6074E-03,   11.5558E-03,   3.76610E-03
C:/temp/dataset/6/20_12.odb,Step-1,Increment      1: Step Time =    1.000,"PART-1-1",           750,       5.94981,      -23.5281,            0.,NA,NA,"",   61.9716E-03,   60.5822E-03,   13.0487E-03,   6.47610E-03
C:/temp/dataset/6/20_12.odb,Step-1,Increment      1: Step Time =    1.000,"PART-1-1",           751,       7.18383,      -24.1705,            0.,NA,NA,"",   51.0167E-03,   50.7112E-03,   5.57486E-03,   4.27960E-03
C:/temp/dataset/6/20_12.odb,Step-1,Increment      1: Step Time =    1.000,"PART-1-1",           752,       11.0968,      -20.2176,            0.,NA,NA,"",   120.124E-03,   111.192E-03,  -45.4545E-03,   5.71336E-03
C:/temp/dataset/6/20_12.odb,Step-1,Increment      1: Step Time =    1.000,"PART-1-1",           753,       6.43355,      -20.8801,            0.,NA,NA,"",   91.3386E-03,   89.0629E-03,   20.2620E-03,   5.47817E-03
C:/temp/dataset/6/20_12.odb,Step-1,Increment      1: Step Time =    1.000,"PART-1-1",           754,       8.96045,      -11.3546,            0.,NA,NA,"",   360.010E-03,   359.165E-03,  -24.6594E-03,   5.78367E-03
C:/temp/dataset/6/20_12.odb,Step-1,Increment      1: Step Time =    1.000,"PART-1-1",           755,       8.17216,      -2.03287,            0.,NA,NA,"",   624.536E-03,   624.349E-03,  -15.2587E-03,   2.93236E-03
C:/temp/dataset/6/20_12.odb,Step-1,Increment      1: Step Time =    1.000,"PART-1-1",           756,       9.68046,      -2.49017,            0.,NA,NA,"",   614.678E-03,   612.912E-03,  -46.5648E-03,   2.65282E-03
C:/temp/dataset/6/20_12.odb,Step-1,Increment      1: Step Time =    1.000,"PART-1-1",           757,      -5.24373,       2.94722,            0.,NA,NA,"",   690.123E-03,   685.987E-03,   75.4476E-03,   1.64904E-03
C:/temp/dataset/6/20_12.odb,Step-1,Increment      1: Step Time =    1.000,"PART-1-1",           758,      -6.20341,       3.93450,            0.,NA,NA,"",   696.001E-03,   691.445E-03,   79.5028E-03,   1.51247E-03
C:/temp/dataset/6/20_12.odb,Step-1,Increment      1: Step Time =    1.000,"PART-1-1",           759,       7.87036,      -17.0650,            0.,NA,NA,"",   181.271E-03,   181.241E-03,   3.30319E-03,   6.06729E-03
C:/temp/dataset/6/20_12.odb,Step-1,Increment      1: Step Time =    1.000,"PART-1-1",           760,      -8.77165,      -4.61616,            0.,NA,NA,"",   675.876E-03,   672.020E-03,   72.0950E-03,   6.92915E-03
C:/temp/dataset/6/20_12.odb,Step-1,Increment      1: Step Time =    1.000,"PART-1-1",           761,       8.90402,      -15.9271,            0.,NA,NA,"",   215.403E-03,   214.656E-03,  -17.9300E-03,   5.90805E-03
C:/temp/dataset/6/20_12.odb,Step-1,Increment      1: Step Time =    1.000,"PART-1-1",           762,       7.94609,      -14.8939,            0.,NA,NA,"",   245.984E-03,   245.967E-03,   2.91460E-03,   4.93986E-03
C:/temp/dataset/6/20_12.odb,Step-1,Increment      1: Step Time =    1.000,"PART-1-1",           763,      -12.3095,       21.7291,            0.,NA,NA,"",   775.452E-03,   768.177E-03,   105.969E-03,   235.431E-09
C:/temp/dataset/6/20_12.odb,Step-1,Increment      1: Step Time =    1.000,"PART-1-1",           764,      -12.2938,       19.6789,            0.,NA,NA,"",   767.016E-03,   759.667E-03,   105.921E-03,   1.19359E-06
C:/temp/dataset/6/20_12.odb,Step-1,Increment      1: Step Time =    1.000,"PART-1-1",           765,       3.72209,      -1.78065,            0.,NA,NA,"",   636.724E-03,   634.930E-03,   47.7529E-03,   4.98026E-03
C:/temp/dataset/6/20_12.odb,Step-1,Increment      1: Step Time =    1.000,"PART-1-1",           766,       6.45852,      -3.38063,            0.,NA,NA,"",   605.125E-03,   604.826E-03,   19.0044E-03,   4.86362E-03
C:/temp/dataset/6/20_12.odb,Step-1,Increment      1: Step Time =    1.000,"PART-1-1",           767,       4.93556,      -2.38177,            0.,NA,NA,"",   625.386E-03,   624.166E-03,   39.0455E-03,   4.76517E-03
C:/temp/dataset/6/20_12.odb,Step-1,Increment      1: Step Time =    1.000,"PART-1-1",           768,      -2.94024,   945.156E-03,            0.,NA,NA,"",   675.483E-03,   671.933E-03,   69.1666E-03,   3.86591E-03
C:/temp/dataset/6/20_12.odb,Step-1,Increment      1: Step Time =    1.000,"PART-1-1",           769,      -1.69279,      -25.0756,            0.,NA,NA,"",   62.4196E-03,   61.0851E-03,  -12.8382E-03,   11.4609E-03
C:/temp/dataset/6/20_12.odb,Step-1,Increment      1: Step Time =    1.000,"PART-1-1",           770,      -6.93923,      -23.9860,            0.,NA,NA,"",   71.3267E-03,   70.0584E-03,  -13.3906E-03,   6.05223E-03
C:/temp/dataset/6/20_12.odb,Step-1,Increment      1: Step Time =    1.000,"PART-1-1",           771,      -5.91970,      -22.6959,            0.,NA,NA,"",   97.6014E-03,   93.5404E-03,  -27.8608E-03,   9.55020E-03
C:/temp/dataset/6/20_12.odb,Step-1,Increment      1: Step Time =    1.000,"PART-1-1",           772,      -12.2208,       17.3915,            0.,NA,NA,"",   757.569E-03,   750.168E-03,   105.640E-03,   4.55405E-06
C:/temp/dataset/6/20_12.odb,Step-1,Increment      1: Step Time =    1.000,"PART-1-1",           773,      -12.0398,       10.1961,            0.,NA,NA,"",   727.916E-03,   720.302E-03,   105.011E-03,   35.5208E-06
C:/temp/dataset/6/20_12.odb,Step-1,Increment      1: Step Time =    1.000,"PART-1-1",           774,      -10.8637,      -2.91198,            0.,NA,NA,"",   686.558E-03,   679.547E-03,   97.8648E-03,   4.98791E-03
C:/temp/dataset/6/20_12.odb,Step-1,Increment      1: Step Time =    1.000,"PART-1-1",           775,      -9.61620,      -11.5179,            0.,NA,NA,"",   569.031E-03,   565.859E-03,   60.0009E-03,   9.57862E-03
C:/temp/dataset/6/20_12.odb,Step-1,Increment      1: Step Time =    1.000,"PART-1-1",           776,      -11.8201,      -24.5932,            0.,NA,NA,"",   84.8101E-03,   69.9310E-03,   47.9834E-03,   10.8290E-03
C:/temp/dataset/6/20_12.odb,Step-1,Increment      1: Step Time =    1.000,"PART-1-1",           777,      -11.0718,      -23.4296,            0.,NA,NA,"",   102.318E-03,   91.9936E-03,   44.7890E-03,   9.02602E-03
C:/temp/dataset/6/20_12.odb,Step-1,Increment      1: Step Time =    1.000,"PART-1-1",           778,       4.75405,      -23.0816,            0.,NA,NA,"",   70.5744E-03,   68.5729E-03,   16.6884E-03,   8.27238E-03
C:/temp/dataset/6/20_12.odb,Step-1,Increment      1: Step Time =    1.000,"PART-1-1",           779,       5.55198,      -21.9930,            0.,NA,NA,"",   80.1696E-03,   77.3361E-03,   21.1260E-03,   7.60104E-03
C:/temp/dataset/6/20_12.odb,Step-1,Increment      1: Step Time =    1.000,"PART-1-1",           780,       7.01336,      -26.0950,            0.,NA,NA,"",   31.8721E-03,   31.7607E-03,   2.66256E-03,   5.22614E-03
C:/temp/dataset/6/20_12.odb,Step-1,Increment      1: Step Time =    1.000,"PART-1-1",           781,       4.10189,      -23.9882,            0.,NA,NA,"",   63.0798E-03,   61.8651E-03,   12.3193E-03,   8.90126E-03
C:/temp/dataset/6/20_12.odb,Step-1,Increment      1: Step Time =    1.000,"PART-1-1",           782,       4.14804,      -25.2051,            0.,NA,NA,"",   50.0241E-03,   49.3563E-03,   8.14614E-03,   8.52111E-03
C:/temp/dataset/6/20_12.odb,Step-1,Increment      1: Step Time =    1.000,"PART-1-1",           783,      -12.1264,       12.6156,            0.,NA,NA,"",   737.872E-03,   730.318E-03,   105.314E-03,   28.0183E-06
C:/temp/dataset/6/20_12.odb,Step-1,Increment      1: Step Time =    1.000,"PART-1-1",           784,      -12.1709,       15.0185,            0.,NA,NA,"",   747.780E-03,   740.306E-03,   105.460E-03,   13.0798E-06
C:/temp/dataset/6/20_12.odb,Step-1,Increment      1: Step Time =    1.000,"PART-1-1",           785,      -10.3060,       3.43341,            0.,NA,NA,"",   700.805E-03,   694.061E-03,   96.9917E-03,   1.28460E-03
C:/temp/dataset/6/20_12.odb,Step-1,Increment      1: Step Time =    1.000,"PART-1-1",           786,      -9.35047,  -311.861E-03,            0.,NA,NA,"",   688.321E-03,   682.645E-03,   88.2173E-03,   3.51160E-03
C:/temp/dataset/6/20_12.odb,Step-1,Increment      1: Step Time =    1.000,"PART-1-1",           787,      -9.47746,      -1.56252,            0.,NA,NA,"",   685.838E-03,   680.315E-03,   86.8603E-03,   4.77632E-03
C:/temp/dataset/6/20_12.odb,Step-1,Increment      1: Step Time =    1.000,"PART-1-1",           788,      -7.56677,      -1.93629,            0.,NA,NA,"",   677.690E-03,   673.867E-03,   71.8732E-03,   5.66522E-03
C:/temp/dataset/6/20_12.odb,Step-1,Increment      1: Step Time =    1.000,"PART-1-1",           789,      -9.57637,      -3.06595,            0.,NA,NA,"",   682.983E-03,   677.681E-03,   84.9394E-03,   5.62905E-03
C:/temp/dataset/6/20_12.odb,Step-1,Increment      1: Step Time =    1.000,"PART-1-1",           790,      -8.24618,      -3.39128,            0.,NA,NA,"",   677.306E-03,   673.588E-03,   70.8671E-03,   7.05842E-03
C:/temp/dataset/6/20_12.odb,Step-1,Increment      1: Step Time =    1.000,"PART-1-1",           791,       7.98922,      -7.69035,            0.,NA,NA,"",   479.186E-03,   479.110E-03,  -8.55599E-03,   6.59606E-03
C:/temp/dataset/6/20_12.odb,Step-1,Increment      1: Step Time =    1.000,"PART-1-1",           792,       7.96586,      -10.1263,            0.,NA,NA,"",   399.255E-03,   399.249E-03,  -2.16013E-03,   5.19089E-03
C:/temp/dataset/6/20_12.odb,Step-1,Increment      1: Step Time =    1.000,"PART-1-1",           793,       7.95460,      -12.5381,            0.,NA,NA,"",   320.463E-03,   320.458E-03,   1.79108E-03,   4.57311E-03
C:/temp/dataset/6/20_12.odb,Step-1,Increment      1: Step Time =    1.000,"PART-1-1",           794,      -6.90534,       4.84567,            0.,NA,NA,"",   701.245E-03,   696.318E-03,   82.9784E-03,   1.15006E-03
C:/temp/dataset/6/20_12.odb,Step-1,Increment      1: Step Time =    1.000,"PART-1-1",           795,      -7.09219,       3.25090,            0.,NA,NA,"",   694.675E-03,   689.776E-03,   82.3528E-03,   1.58773E-03
C:/temp/dataset/6/20_12.odb,Step-1,Increment      1: Step Time =    1.000,"PART-1-1",           796,      -5.99438,      -2.38990,            0.,NA,NA,"",   668.504E-03,   665.601E-03,   62.2263E-03,   7.40685E-03
C:/temp/dataset/6/20_12.odb,Step-1,Increment      1: Step Time =    1.000,"PART-1-1",           797,      -8.16339,       2.56404,            0.,NA,NA,"",   694.177E-03,   688.810E-03,   86.1521E-03,   1.99327E-03
C:/temp/dataset/6/20_12.odb,Step-1,Increment      1: Step Time =    1.000,"PART-1-1",           798,      -6.16245,       1.98671,            0.,NA,NA,"",   687.497E-03,   683.147E-03,   77.2198E-03,   2.31783E-03
C:/temp/dataset/6/20_12.odb,Step-1,Increment      1: Step Time =    1.000,"PART-1-1",           799,      -9.36160,       1.80674,            0.,NA,NA,"",   694.123E-03,   688.115E-03,   91.1228E-03,   2.09996E-03
C:/temp/dataset/6/20_12.odb,Step-1,Increment      1: Step Time =    1.000,"PART-1-1",           800,      -4.18828,       1.89018,            0.,NA,NA,"",   683.227E-03,   679.416E-03,   72.0569E-03,   2.88562E-03
C:/temp/dataset/6/20_12.odb,Step-1,Increment      1: Step Time =    1.000,"PART-1-1",           801,      -2.02478,       2.01876,            0.,NA,NA,"",   681.317E-03,   677.828E-03,   68.8621E-03,   3.36337E-03
C:/temp/dataset/6/20_12.odb,Step-1,Increment      1: Step Time =    1.000,"PART-1-1",           802,       5.29765,      -24.4346,            0.,NA,NA,"",   54.4987E-03,   53.3745E-03,   11.0125E-03,   7.37424E-03
C:/temp/dataset/6/20_12.odb,Step-1,Increment      1: Step Time =    1.000,"PART-1-1",           803,       8.18651,      -25.0309,            0.,NA,NA,"",   39.9516E-03,   39.9354E-03,  -1.13726E-03,   3.23737E-03
C:/temp/dataset/6/20_12.odb,Step-1,Increment      1: Step Time =    1.000,"PART-1-1",           804,       6.01068,      -25.2345,            0.,NA,NA,"",   43.6122E-03,   43.0103E-03,   7.22044E-03,   6.39908E-03
