ODB Name,Step,Frame,Part Instance Name,    êﬂì_ÉâÉxÉã,X,Y,Z,Section Name,Material Name,Section Point,   U-Magnitude,          U-U1,          U-U2,       S-Mises
C:/temp/dataset/6/21_18.odb,Step-1,Increment      1: Step Time =    1.000,"PART-1-1",             1,            5.,           -5.,            0.,NA,NA,"",   369.613E-03,   367.008E-03,   43.8023E-03,   9.86068E-03
C:/temp/dataset/6/21_18.odb,Step-1,Increment      1: Step Time =    1.000,"PART-1-1",             2,            0.,           -5.,            0.,NA,NA,"",   402.283E-03,   397.166E-03,   63.9586E-03,   4.70794E-03
C:/temp/dataset/6/21_18.odb,Step-1,Increment      1: Step Time =    1.000,"PART-1-1",             3,            5.,      -10.0250,            0.,NA,NA,"",   271.365E-03,   265.430E-03,   56.4470E-03,   435.703E-06
C:/temp/dataset/6/21_18.odb,Step-1,Increment      1: Step Time =    1.000,"PART-1-1",             4,            5.,      -15.0500,            0.,NA,NA,"",   182.837E-03,   175.415E-03,   51.5666E-03,   2.80355E-03
C:/temp/dataset/6/21_18.odb,Step-1,Increment      1: Step Time =    1.000,"PART-1-1",             5,            5.,          -20.,            0.,NA,NA,"",   98.5163E-03,   95.4515E-03,   24.3817E-03,   10.0065E-03
C:/temp/dataset/6/21_18.odb,Step-1,Increment      1: Step Time =    1.000,"PART-1-1",             6,            0.,          -20.,            0.,NA,NA,"",   109.519E-03,   109.406E-03,   4.98920E-03,   7.96183E-03
C:/temp/dataset/6/21_18.odb,Step-1,Increment      1: Step Time =    1.000,"PART-1-1",             7,           -5.,          -20.,            0.,NA,NA,"",   194.441E-03,   193.609E-03,  -17.9622E-03,   30.0050E-03
C:/temp/dataset/6/21_18.odb,Step-1,Increment      1: Step Time =    1.000,"PART-1-1",             8,           -5.,      -14.9750,            0.,NA,NA,"",   368.616E-03,   368.517E-03,   8.52984E-03,   11.8322E-03
C:/temp/dataset/6/21_18.odb,Step-1,Increment      1: Step Time =    1.000,"PART-1-1",             9,           -5.,      -9.95000,            0.,NA,NA,"",   418.678E-03,   415.473E-03,   51.7113E-03,   7.14839E-03
C:/temp/dataset/6/21_18.odb,Step-1,Increment      1: Step Time =    1.000,"PART-1-1",            10,           -5.,           -5.,            0.,NA,NA,"",   425.420E-03,   418.837E-03,   74.5491E-03,   4.21582E-03
C:/temp/dataset/6/21_18.odb,Step-1,Increment      1: Step Time =    1.000,"PART-1-1",            11,           15.,          -30.,            0.,NA,NA,"",            0.,   5.02150E-39,  -8.65589E-39,   16.9484E-03
C:/temp/dataset/6/21_18.odb,Step-1,Increment      1: Step Time =    1.000,"PART-1-1",            12,          -15.,          -30.,            0.,NA,NA,"",            0.,   11.3411E-39,   19.6510E-39,   37.0900E-03
C:/temp/dataset/6/21_18.odb,Step-1,Increment      1: Step Time =    1.000,"PART-1-1",            13,           15.,        -21.25,            0.,NA,NA,"",   111.042E-03,   91.3809E-03,  -63.0856E-03,   5.65196E-03
C:/temp/dataset/6/21_18.odb,Step-1,Increment      1: Step Time =    1.000,"PART-1-1",            14,           15.,         -12.5,            0.,NA,NA,"",   241.967E-03,   221.344E-03,  -97.7471E-03,   1.94394E-03
C:/temp/dataset/6/21_18.odb,Step-1,Increment      1: Step Time =    1.000,"PART-1-1",            15,           15.,         -3.75,            0.,NA,NA,"",   380.359E-03,   368.772E-03,  -93.1702E-03,   2.35795E-03
C:/temp/dataset/6/21_18.odb,Step-1,Increment      1: Step Time =    1.000,"PART-1-1",            16,           15.,            5.,            0.,NA,NA,"",   484.847E-03,   477.300E-03,  -85.2167E-03,   83.2583E-06
C:/temp/dataset/6/21_18.odb,Step-1,Increment      1: Step Time =    1.000,"PART-1-1",            17,           10.,            5.,            0.,NA,NA,"",   476.330E-03,   475.803E-03,  -22.3879E-03,   1.39122E-03
C:/temp/dataset/6/21_18.odb,Step-1,Increment      1: Step Time =    1.000,"PART-1-1",            18,            5.,            5.,            0.,NA,NA,"",   465.999E-03,   464.780E-03,   33.6809E-03,   3.32524E-03
C:/temp/dataset/6/21_18.odb,Step-1,Increment      1: Step Time =    1.000,"PART-1-1",            19,            0.,            5.,            0.,NA,NA,"",   455.272E-03,   450.234E-03,   67.5439E-03,   2.76729E-03
C:/temp/dataset/6/21_18.odb,Step-1,Increment      1: Step Time =    1.000,"PART-1-1",            20,           -5.,            5.,            0.,NA,NA,"",   449.080E-03,   441.403E-03,   82.6833E-03,   894.365E-06
C:/temp/dataset/6/21_18.odb,Step-1,Increment      1: Step Time =    1.000,"PART-1-1",            21,           -5.,         11.25,            0.,NA,NA,"",   457.887E-03,   450.393E-03,   82.5034E-03,   8.24369E-06
C:/temp/dataset/6/21_18.odb,Step-1,Increment      1: Step Time =    1.000,"PART-1-1",            22,           -5.,          17.5,            0.,NA,NA,"",   467.699E-03,   460.368E-03,   82.4804E-03,   338.507E-09
C:/temp/dataset/6/21_18.odb,Step-1,Increment      1: Step Time =    1.000,"PART-1-1",            23,           -5.,         23.75,            0.,NA,NA,"",   477.523E-03,   470.347E-03,   82.4722E-03,   27.7234E-09
C:/temp/dataset/6/21_18.odb,Step-1,Increment      1: Step Time =    1.000,"PART-1-1",            24,           -5.,           30.,            0.,NA,NA,"",   487.352E-03,   480.324E-03,   82.4643E-03,   686.776E-12
C:/temp/dataset/6/21_18.odb,Step-1,Increment      1: Step Time =    1.000,"PART-1-1",            25,          -10.,           30.,            0.,NA,NA,"",   488.772E-03,   480.331E-03,   90.4463E-03,   8.78041E-09
C:/temp/dataset/6/21_18.odb,Step-1,Increment      1: Step Time =    1.000,"PART-1-1",            26,          -15.,           30.,            0.,NA,NA,"",   490.318E-03,   480.337E-03,   98.4281E-03,   836.510E-12
C:/temp/dataset/6/21_18.odb,Step-1,Increment      1: Step Time =    1.000,"PART-1-1",            27,          -15.,          22.5,            0.,NA,NA,"",   478.597E-03,   468.364E-03,   98.4376E-03,   35.0304E-09
C:/temp/dataset/6/21_18.odb,Step-1,Increment      1: Step Time =    1.000,"PART-1-1",            28,          -15.,           15.,            0.,NA,NA,"",   466.891E-03,   456.393E-03,   98.4491E-03,   1.40161E-06
C:/temp/dataset/6/21_18.odb,Step-1,Increment      1: Step Time =    1.000,"PART-1-1",            29,          -15.,           7.5,            0.,NA,NA,"",   455.148E-03,   444.364E-03,   98.4891E-03,   2.97580E-06
C:/temp/dataset/6/21_18.odb,Step-1,Increment      1: Step Time =    1.000,"PART-1-1",            30,          -15.,            0.,            0.,NA,NA,"",   443.799E-03,   432.806E-03,   98.1664E-03,   30.2181E-06
C:/temp/dataset/6/21_18.odb,Step-1,Increment      1: Step Time =    1.000,"PART-1-1",            31,          -15.,          -7.5,            0.,NA,NA,"",   436.503E-03,   423.525E-03,   105.649E-03,   2.77805E-03
C:/temp/dataset/6/21_18.odb,Step-1,Increment      1: Step Time =    1.000,"PART-1-1",            32,          -15.,          -15.,            0.,NA,NA,"",   433.370E-03,   414.698E-03,   125.836E-03,   10.6610E-03
C:/temp/dataset/6/21_18.odb,Step-1,Increment      1: Step Time =    1.000,"PART-1-1",            33,          -15.,         -22.5,            0.,NA,NA,"",   272.888E-03,   234.232E-03,   140.012E-03,   14.0465E-03
C:/temp/dataset/6/21_18.odb,Step-1,Increment      1: Step Time =    1.000,"PART-1-1",            34,           2.5,           -5.,            0.,NA,NA,"",   389.555E-03,   385.931E-03,   53.0155E-03,   5.82879E-03
C:/temp/dataset/6/21_18.odb,Step-1,Increment      1: Step Time =    1.000,"PART-1-1",            35,            5.,      -7.51250,            0.,NA,NA,"",   317.915E-03,   313.267E-03,   54.1634E-03,   3.17220E-03
C:/temp/dataset/6/21_18.odb,Step-1,Increment      1: Step Time =    1.000,"PART-1-1",            36,            5.,      -12.5375,            0.,NA,NA,"",   226.494E-03,   219.498E-03,   55.8591E-03,   1.20297E-03
C:/temp/dataset/6/21_18.odb,Step-1,Increment      1: Step Time =    1.000,"PART-1-1",            37,            5.,      -17.5250,            0.,NA,NA,"",   141.293E-03,   134.301E-03,   43.8965E-03,   5.08813E-03
C:/temp/dataset/6/21_18.odb,Step-1,Increment      1: Step Time =    1.000,"PART-1-1",            38,           2.5,          -20.,            0.,NA,NA,"",   95.8300E-03,   95.0972E-03,   11.8283E-03,   4.44905E-03
C:/temp/dataset/6/21_18.odb,Step-1,Increment      1: Step Time =    1.000,"PART-1-1",            39,          -2.5,          -20.,            0.,NA,NA,"",   131.894E-03,   131.850E-03,  -3.37930E-03,   17.2486E-03
C:/temp/dataset/6/21_18.odb,Step-1,Increment      1: Step Time =    1.000,"PART-1-1",            40,           -5.,      -17.4875,            0.,NA,NA,"",   308.967E-03,   308.452E-03,  -17.8298E-03,   10.1894E-03
C:/temp/dataset/6/21_18.odb,Step-1,Increment      1: Step Time =    1.000,"PART-1-1",            41,           -5.,      -12.4625,            0.,NA,NA,"",   401.536E-03,   400.191E-03,   32.8370E-03,   9.59548E-03
C:/temp/dataset/6/21_18.odb,Step-1,Increment      1: Step Time =    1.000,"PART-1-1",            42,           -5.,      -7.47500,            0.,NA,NA,"",   426.605E-03,   421.632E-03,   64.9487E-03,   5.09951E-03
C:/temp/dataset/6/21_18.odb,Step-1,Increment      1: Step Time =    1.000,"PART-1-1",            43,          -2.5,           -5.,            0.,NA,NA,"",   413.900E-03,   407.589E-03,   72.0064E-03,   4.60344E-03
C:/temp/dataset/6/21_18.odb,Step-1,Increment      1: Step Time =    1.000,"PART-1-1",            44,          12.5,          -30.,            0.,NA,NA,"",            0.,   6.77884E-39,  -10.5220E-39,   5.23052E-03
C:/temp/dataset/6/21_18.odb,Step-1,Increment      1: Step Time =    1.000,"PART-1-1",            45,           10.,          -30.,            0.,NA,NA,"",            0.,   2.57180E-39,  -2.54405E-39,   5.04433E-03
C:/temp/dataset/6/21_18.odb,Step-1,Increment      1: Step Time =    1.000,"PART-1-1",            46,           7.5,          -30.,            0.,NA,NA,"",            0.,   4.51637E-39,  -114.336E-42,   5.80050E-03
C:/temp/dataset/6/21_18.odb,Step-1,Increment      1: Step Time =    1.000,"PART-1-1",            47,            5.,          -30.,            0.,NA,NA,"",            0.,   8.31302E-39,  -4.75572E-39,   7.67778E-03
C:/temp/dataset/6/21_18.odb,Step-1,Increment      1: Step Time =    1.000,"PART-1-1",            48,           2.5,          -30.,            0.,NA,NA,"",            0.,   10.3455E-39,  -7.04952E-39,   9.48322E-03
C:/temp/dataset/6/21_18.odb,Step-1,Increment      1: Step Time =    1.000,"PART-1-1",            49,            0.,          -30.,            0.,NA,NA,"",            0.,   7.88064E-39,   978.451E-42,   10.6366E-03
C:/temp/dataset/6/21_18.odb,Step-1,Increment      1: Step Time =    1.000,"PART-1-1",            50,          -2.5,          -30.,            0.,NA,NA,"",            0.,   11.4568E-39,  -11.6239E-39,   10.6707E-03
C:/temp/dataset/6/21_18.odb,Step-1,Increment      1: Step Time =    1.000,"PART-1-1",            51,           -5.,          -30.,            0.,NA,NA,"",            0.,   9.95853E-39,  -10.2691E-39,   9.55744E-03
C:/temp/dataset/6/21_18.odb,Step-1,Increment      1: Step Time =    1.000,"PART-1-1",            52,          -7.5,          -30.,            0.,NA,NA,"",            0.,   7.11638E-39,  -5.67066E-39,   7.81086E-03
C:/temp/dataset/6/21_18.odb,Step-1,Increment      1: Step Time =    1.000,"PART-1-1",            53,          -10.,          -30.,            0.,NA,NA,"",            0.,   7.72419E-39,   9.49483E-39,   7.34490E-03
C:/temp/dataset/6/21_18.odb,Step-1,Increment      1: Step Time =    1.000,"PART-1-1",            54,         -12.5,          -30.,            0.,NA,NA,"",            0.,   10.7283E-39,   14.9721E-39,   10.3079E-03
C:/temp/dataset/6/21_18.odb,Step-1,Increment      1: Step Time =    1.000,"PART-1-1",            55,           15.,      -23.4375,            0.,NA,NA,"",   85.3721E-03,   68.0213E-03,  -51.5896E-03,   6.02224E-03
C:/temp/dataset/6/21_18.odb,Step-1,Increment      1: Step Time =    1.000,"PART-1-1",            56,           15.,       -25.625,            0.,NA,NA,"",   60.7525E-03,   46.4261E-03,  -39.1852E-03,   6.68443E-03
C:/temp/dataset/6/21_18.odb,Step-1,Increment      1: Step Time =    1.000,"PART-1-1",            57,           15.,      -27.8125,            0.,NA,NA,"",   35.2375E-03,   25.3523E-03,  -24.4733E-03,   10.0037E-03
C:/temp/dataset/6/21_18.odb,Step-1,Increment      1: Step Time =    1.000,"PART-1-1",            58,           15.,      -14.6875,            0.,NA,NA,"",   205.555E-03,   183.724E-03,  -92.1861E-03,   3.36529E-03
C:/temp/dataset/6/21_18.odb,Step-1,Increment      1: Step Time =    1.000,"PART-1-1",            59,           15.,       -16.875,            0.,NA,NA,"",   171.042E-03,   148.951E-03,  -84.0771E-03,   4.54185E-03
C:/temp/dataset/6/21_18.odb,Step-1,Increment      1: Step Time =    1.000,"PART-1-1",            60,           15.,      -19.0625,            0.,NA,NA,"",   139.408E-03,   118.093E-03,  -74.0854E-03,   5.30901E-03
C:/temp/dataset/6/21_18.odb,Step-1,Increment      1: Step Time =    1.000,"PART-1-1",            61,           15.,       -5.9375,            0.,NA,NA,"",   349.453E-03,   335.601E-03,  -97.4160E-03,   2.01891E-03
C:/temp/dataset/6/21_18.odb,Step-1,Increment      1: Step Time =    1.000,"PART-1-1",            62,           15.,        -8.125,            0.,NA,NA,"",   315.339E-03,   299.000E-03,  -100.187E-03,   984.537E-06
C:/temp/dataset/6/21_18.odb,Step-1,Increment      1: Step Time =    1.000,"PART-1-1",            63,           15.,      -10.3125,            0.,NA,NA,"",   279.030E-03,   260.330E-03,  -100.429E-03,   444.051E-06
C:/temp/dataset/6/21_18.odb,Step-1,Increment      1: Step Time =    1.000,"PART-1-1",            64,           15.,        2.8125,            0.,NA,NA,"",   458.777E-03,   450.816E-03,  -85.0950E-03,   230.167E-06
C:/temp/dataset/6/21_18.odb,Step-1,Increment      1: Step Time =    1.000,"PART-1-1",            65,           15.,      625.E-03,            0.,NA,NA,"",   433.607E-03,   424.972E-03,  -86.1035E-03,   1.05927E-03
C:/temp/dataset/6/21_18.odb,Step-1,Increment      1: Step Time =    1.000,"PART-1-1",            66,           15.,       -1.5625,            0.,NA,NA,"",   408.040E-03,   398.225E-03,  -88.9590E-03,   1.94384E-03
C:/temp/dataset/6/21_18.odb,Step-1,Increment      1: Step Time =    1.000,"PART-1-1",            67,          12.5,            5.,            0.,NA,NA,"",   480.465E-03,   477.402E-03,  -54.1662E-03,   301.594E-06
C:/temp/dataset/6/21_18.odb,Step-1,Increment      1: Step Time =    1.000,"PART-1-1",            68,           7.5,            5.,            0.,NA,NA,"",   471.524E-03,   471.460E-03,   7.79486E-03,   2.59952E-03
C:/temp/dataset/6/21_18.odb,Step-1,Increment      1: Step Time =    1.000,"PART-1-1",            69,           2.5,            5.,            0.,NA,NA,"",   460.305E-03,   457.176E-03,   53.5808E-03,   3.29735E-03
C:/temp/dataset/6/21_18.odb,Step-1,Increment      1: Step Time =    1.000,"PART-1-1",            70,          -2.5,            5.,            0.,NA,NA,"",   451.560E-03,   445.000E-03,   76.6927E-03,   1.94079E-03
C:/temp/dataset/6/21_18.odb,Step-1,Increment      1: Step Time =    1.000,"PART-1-1",            71,           -5.,       9.16667,            0.,NA,NA,"",   454.651E-03,   447.096E-03,   82.5369E-03,   29.8559E-06
C:/temp/dataset/6/21_18.odb,Step-1,Increment      1: Step Time =    1.000,"PART-1-1",            72,           -5.,       7.08333,            0.,NA,NA,"",   451.518E-03,   443.897E-03,   82.6028E-03,   190.533E-06
C:/temp/dataset/6/21_18.odb,Step-1,Increment      1: Step Time =    1.000,"PART-1-1",            73,           -5.,       15.4167,            0.,NA,NA,"",   464.425E-03,   457.042E-03,   82.4842E-03,   1.16702E-06
C:/temp/dataset/6/21_18.odb,Step-1,Increment      1: Step Time =    1.000,"PART-1-1",            74,           -5.,       13.3333,            0.,NA,NA,"",   461.154E-03,   453.716E-03,   82.4913E-03,   3.60000E-06
C:/temp/dataset/6/21_18.odb,Step-1,Increment      1: Step Time =    1.000,"PART-1-1",            75,           -5.,       21.6667,            0.,NA,NA,"",   474.248E-03,   467.021E-03,   82.4748E-03,   40.0099E-09
C:/temp/dataset/6/21_18.odb,Step-1,Increment      1: Step Time =    1.000,"PART-1-1",            76,           -5.,       19.5833,            0.,NA,NA,"",   470.973E-03,   463.695E-03,   82.4775E-03,   37.7884E-09
C:/temp/dataset/6/21_18.odb,Step-1,Increment      1: Step Time =    1.000,"PART-1-1",            77,           -5.,       27.9167,            0.,NA,NA,"",   484.075E-03,   476.999E-03,   82.4670E-03,   3.59992E-09
C:/temp/dataset/6/21_18.odb,Step-1,Increment      1: Step Time =    1.000,"PART-1-1",            78,           -5.,       25.8333,            0.,NA,NA,"",   480.798E-03,   473.673E-03,   82.4696E-03,   13.7851E-09
C:/temp/dataset/6/21_18.odb,Step-1,Increment      1: Step Time =    1.000,"PART-1-1",            79,          -7.5,           30.,            0.,NA,NA,"",   488.046E-03,   480.328E-03,   86.4553E-03,   4.19086E-09
C:/temp/dataset/6/21_18.odb,Step-1,Increment      1: Step Time =    1.000,"PART-1-1",            80,         -12.5,           30.,            0.,NA,NA,"",   489.529E-03,   480.334E-03,   94.4372E-03,   3.98328E-09
C:/temp/dataset/6/21_18.odb,Step-1,Increment      1: Step Time =    1.000,"PART-1-1",            81,          -15.,           25.,            0.,NA,NA,"",   482.503E-03,   472.355E-03,   98.4345E-03,   19.0284E-09
C:/temp/dataset/6/21_18.odb,Step-1,Increment      1: Step Time =    1.000,"PART-1-1",            82,          -15.,          27.5,            0.,NA,NA,"",   486.410E-03,   476.346E-03,   98.4313E-03,   5.19580E-09
C:/temp/dataset/6/21_18.odb,Step-1,Increment      1: Step Time =    1.000,"PART-1-1",            83,          -15.,          17.5,            0.,NA,NA,"",   470.791E-03,   460.383E-03,   98.4442E-03,   290.509E-09
C:/temp/dataset/6/21_18.odb,Step-1,Increment      1: Step Time =    1.000,"PART-1-1",            84,          -15.,           20.,            0.,NA,NA,"",   474.693E-03,   464.374E-03,   98.4408E-03,   22.6102E-09
C:/temp/dataset/6/21_18.odb,Step-1,Increment      1: Step Time =    1.000,"PART-1-1",            85,          -15.,           10.,            0.,NA,NA,"",   459.084E-03,   448.398E-03,   98.4742E-03,   7.47806E-06
C:/temp/dataset/6/21_18.odb,Step-1,Increment      1: Step Time =    1.000,"PART-1-1",            86,          -15.,          12.5,            0.,NA,NA,"",   462.991E-03,   452.402E-03,   98.4580E-03,   4.07208E-06
C:/temp/dataset/6/21_18.odb,Step-1,Increment      1: Step Time =    1.000,"PART-1-1",            87,          -15.,           2.5,            0.,NA,NA,"",   447.281E-03,   436.343E-03,   98.3139E-03,   79.5601E-06
C:/temp/dataset/6/21_18.odb,Step-1,Increment      1: Step Time =    1.000,"PART-1-1",            88,          -15.,            5.,            0.,NA,NA,"",   451.177E-03,   440.304E-03,   98.4568E-03,   39.4881E-06
C:/temp/dataset/6/21_18.odb,Step-1,Increment      1: Step Time =    1.000,"PART-1-1",            89,          -15.,           -5.,            0.,NA,NA,"",   439.120E-03,   427.395E-03,   100.798E-03,   1.54049E-03
C:/temp/dataset/6/21_18.odb,Step-1,Increment      1: Step Time =    1.000,"PART-1-1",            90,          -15.,          -2.5,            0.,NA,NA,"",   441.133E-03,   429.965E-03,   98.6323E-03,   503.734E-06
C:/temp/dataset/6/21_18.odb,Step-1,Increment      1: Step Time =    1.000,"PART-1-1",            91,          -15.,         -12.5,            0.,NA,NA,"",   425.462E-03,   407.744E-03,   121.504E-03,   4.78119E-03
C:/temp/dataset/6/21_18.odb,Step-1,Increment      1: Step Time =    1.000,"PART-1-1",            92,          -15.,          -10.,            0.,NA,NA,"",   431.823E-03,   416.822E-03,   112.830E-03,   3.67473E-03
C:/temp/dataset/6/21_18.odb,Step-1,Increment      1: Step Time =    1.000,"PART-1-1",            93,          -15.,          -20.,            0.,NA,NA,"",   369.941E-03,   340.014E-03,   145.763E-03,   17.0389E-03
C:/temp/dataset/6/21_18.odb,Step-1,Increment      1: Step Time =    1.000,"PART-1-1",            94,          -15.,         -17.5,            0.,NA,NA,"",   427.525E-03,   403.010E-03,   142.693E-03,   17.4716E-03
C:/temp/dataset/6/21_18.odb,Step-1,Increment      1: Step Time =    1.000,"PART-1-1",            95,          -15.,         -27.5,            0.,NA,NA,"",   87.7473E-03,   61.4902E-03,   62.5983E-03,   23.5394E-03
C:/temp/dataset/6/21_18.odb,Step-1,Increment      1: Step Time =    1.000,"PART-1-1",            96,          -15.,          -25.,            0.,NA,NA,"",   166.175E-03,   128.582E-03,   105.265E-03,   17.6410E-03
C:/temp/dataset/6/21_18.odb,Step-1,Increment      1: Step Time =    1.000,"PART-1-1",            97,       13.0047,      -3.80353,            0.,NA,NA,"",   375.533E-03,   369.900E-03,  -64.8002E-03,   1.26011E-03
C:/temp/dataset/6/21_18.odb,Step-1,Increment      1: Step Time =    1.000,"PART-1-1",            98,       6.97971,      -7.55833,            0.,NA,NA,"",   312.581E-03,   311.926E-03,   20.2228E-03,   3.63219E-03
C:/temp/dataset/6/21_18.odb,Step-1,Increment      1: Step Time =    1.000,"PART-1-1",            99,       6.96639,      -10.0829,            0.,NA,NA,"",   265.112E-03,   264.153E-03,   22.5361E-03,   1.98905E-03
C:/temp/dataset/6/21_18.odb,Step-1,Increment      1: Step Time =    1.000,"PART-1-1",           100,       12.9900,      -12.5465,            0.,NA,NA,"",   228.634E-03,   219.270E-03,  -64.7626E-03,   2.37461E-03
C:/temp/dataset/6/21_18.odb,Step-1,Increment      1: Step Time =    1.000,"PART-1-1",           101,       6.90028,      -17.1420,            0.,NA,NA,"",   139.353E-03,   138.053E-03,   18.9865E-03,   4.11816E-03
C:/temp/dataset/6/21_18.odb,Step-1,Increment      1: Step Time =    1.000,"PART-1-1",           102,       7.03871,      -19.0570,            0.,NA,NA,"",   109.441E-03,   108.548E-03,   13.9513E-03,   3.36575E-03
C:/temp/dataset/6/21_18.odb,Step-1,Increment      1: Step Time =    1.000,"PART-1-1",           103,       5.31709,      -21.2647,            0.,NA,NA,"",   89.4811E-03,   87.7115E-03,   17.7075E-03,   7.03369E-03
C:/temp/dataset/6/21_18.odb,Step-1,Increment      1: Step Time =    1.000,"PART-1-1",           104,      -4.83361,      -22.6144,            0.,NA,NA,"",   131.723E-03,   130.800E-03,  -15.5654E-03,   11.4519E-03
C:/temp/dataset/6/21_18.odb,Step-1,Increment      1: Step Time =    1.000,"PART-1-1",           105,      -7.46484,      -17.6587,            0.,NA,NA,"",   319.307E-03,   317.236E-03,   36.3049E-03,   13.9715E-03
C:/temp/dataset/6/21_18.odb,Step-1,Increment      1: Step Time =    1.000,"PART-1-1",           106,      -12.5283,      -27.3245,            0.,NA,NA,"",   56.0897E-03,   49.6082E-03,   26.1741E-03,   14.9971E-03
C:/temp/dataset/6/21_18.odb,Step-1,Increment      1: Step Time =    1.000,"PART-1-1",           107,      -12.4870,      -17.6221,            0.,NA,NA,"",   384.108E-03,   369.836E-03,   103.735E-03,   17.1114E-03
C:/temp/dataset/6/21_18.odb,Step-1,Increment      1: Step Time =    1.000,"PART-1-1",           108,      -7.32043,      -12.6401,            0.,NA,NA,"",   409.986E-03,   406.149E-03,   55.9602E-03,   5.05380E-03
C:/temp/dataset/6/21_18.odb,Step-1,Increment      1: Step Time =    1.000,"PART-1-1",           109,      -7.14644,      -8.03697,            0.,NA,NA,"",   430.525E-03,   424.870E-03,   69.5517E-03,   3.65033E-03
C:/temp/dataset/6/21_18.odb,Step-1,Increment      1: Step Time =    1.000,"PART-1-1",           110,      -12.6601,       4.88622,            0.,NA,NA,"",   450.178E-03,   440.096E-03,   94.7413E-03,   52.1077E-06
C:/temp/dataset/6/21_18.odb,Step-1,Increment      1: Step Time =    1.000,"PART-1-1",           111,      -13.0978,       12.5399,            0.,NA,NA,"",   462.416E-03,   452.465E-03,   95.4148E-03,   2.67297E-06
C:/temp/dataset/6/21_18.odb,Step-1,Increment      1: Step Time =    1.000,"PART-1-1",           112,      -6.45576,       21.8628,            0.,NA,NA,"",   474.967E-03,   467.336E-03,   84.7987E-03,   19.7650E-09
C:/temp/dataset/6/21_18.odb,Step-1,Increment      1: Step Time =    1.000,"PART-1-1",           113,      -7.28884,       25.7044,            0.,NA,NA,"",   481.239E-03,   473.470E-03,   86.1237E-03,   11.2719E-09
C:/temp/dataset/6/21_18.odb,Step-1,Increment      1: Step Time =    1.000,"PART-1-1",           114,      -9.90518,       27.6474,            0.,NA,NA,"",   485.054E-03,   476.575E-03,   90.2979E-03,   6.29901E-09
C:/temp/dataset/6/21_18.odb,Step-1,Increment      1: Step Time =    1.000,"PART-1-1",           115,      -3.01211,      -3.13168,            0.,NA,NA,"",   421.044E-03,   414.074E-03,   76.2964E-03,   2.72188E-03
C:/temp/dataset/6/21_18.odb,Step-1,Increment      1: Step Time =    1.000,"PART-1-1",           116,      -2.19169,       3.00836,            0.,NA,NA,"",   444.946E-03,   438.227E-03,   77.0283E-03,   1.23648E-03
C:/temp/dataset/6/21_18.odb,Step-1,Increment      1: Step Time =    1.000,"PART-1-1",           117,       1.85193,      -2.77696,            0.,NA,NA,"",   406.583E-03,   402.173E-03,   59.7200E-03,   4.08394E-03
C:/temp/dataset/6/21_18.odb,Step-1,Increment      1: Step Time =    1.000,"PART-1-1",           118,       2.83229,       2.22691,            0.,NA,NA,"",   441.381E-03,   438.038E-03,   54.2260E-03,   1.14635E-03
C:/temp/dataset/6/21_18.odb,Step-1,Increment      1: Step Time =    1.000,"PART-1-1",           119,       7.74921,       3.07964,            0.,NA,NA,"",   451.375E-03,   451.325E-03,   6.72301E-03,   1.70289E-03
C:/temp/dataset/6/21_18.odb,Step-1,Increment      1: Step Time =    1.000,"PART-1-1",           120,      -2.47342,      -22.6017,            0.,NA,NA,"",   115.017E-03,   114.323E-03,  -12.6145E-03,   16.1620E-03
C:/temp/dataset/6/21_18.odb,Step-1,Increment      1: Step Time =    1.000,"PART-1-1",           121,      -7.48266,       20.3798,            0.,NA,NA,"",   472.936E-03,   464.970E-03,   86.4399E-03,   122.706E-09
C:/temp/dataset/6/21_18.odb,Step-1,Increment      1: Step Time =    1.000,"PART-1-1",           122,      -7.10993,       13.1351,            0.,NA,NA,"",   461.457E-03,   453.400E-03,   85.8537E-03,   3.00654E-06
C:/temp/dataset/6/21_18.odb,Step-1,Increment      1: Step Time =    1.000,"PART-1-1",           123,      -6.64156,       6.82435,            0.,NA,NA,"",   451.514E-03,   443.420E-03,   85.1056E-03,   115.049E-06
C:/temp/dataset/6/21_18.odb,Step-1,Increment      1: Step Time =    1.000,"PART-1-1",           124,      -12.9641,      -2.37512,            0.,NA,NA,"",   440.826E-03,   430.399E-03,   95.3117E-03,   891.703E-06
C:/temp/dataset/6/21_18.odb,Step-1,Increment      1: Step Time =    1.000,"PART-1-1",           125,      -12.1317,      -9.84573,            0.,NA,NA,"",   432.886E-03,   421.217E-03,   99.8325E-03,   2.98946E-03
C:/temp/dataset/6/21_18.odb,Step-1,Increment      1: Step Time =    1.000,"PART-1-1",           126,       4.04132,      -2.67712,            0.,NA,NA,"",   399.847E-03,   397.016E-03,   47.4956E-03,   2.72785E-03
C:/temp/dataset/6/21_18.odb,Step-1,Increment      1: Step Time =    1.000,"PART-1-1",           127,       6.95362,      -12.5367,            0.,NA,NA,"",   219.694E-03,   218.461E-03,   23.2366E-03,   1.90551E-03
C:/temp/dataset/6/21_18.odb,Step-1,Increment      1: Step Time =    1.000,"PART-1-1",           128,       6.92458,      -14.9216,            0.,NA,NA,"",   176.946E-03,   175.601E-03,   21.7763E-03,   2.56648E-03
C:/temp/dataset/6/21_18.odb,Step-1,Increment      1: Step Time =    1.000,"PART-1-1",           129,       12.9089,      -21.3671,            0.,NA,NA,"",   94.3077E-03,   85.6000E-03,  -39.5801E-03,   4.08939E-03
C:/temp/dataset/6/21_18.odb,Step-1,Increment      1: Step Time =    1.000,"PART-1-1",           130,   283.131E-03,      -22.8786,            0.,NA,NA,"",   96.7254E-03,   96.6867E-03,  -2.73271E-03,   10.4743E-03
C:/temp/dataset/6/21_18.odb,Step-1,Increment      1: Step Time =    1.000,"PART-1-1",           131,      -12.9776,      -22.4214,            0.,NA,NA,"",   227.356E-03,   215.134E-03,   73.5399E-03,   20.4327E-03
C:/temp/dataset/6/21_18.odb,Step-1,Increment      1: Step Time =    1.000,"PART-1-1",           132,      -7.42030,      -15.1083,            0.,NA,NA,"",   379.254E-03,   376.245E-03,   47.6781E-03,   4.57525E-03
C:/temp/dataset/6/21_18.odb,Step-1,Increment      1: Step Time =    1.000,"PART-1-1",           133,      -7.18486,      -10.2642,            0.,NA,NA,"",   424.324E-03,   419.577E-03,   63.2971E-03,   4.55598E-03
C:/temp/dataset/6/21_18.odb,Step-1,Increment      1: Step Time =    1.000,"PART-1-1",           134,      -7.33974,      -5.93881,            0.,NA,NA,"",   432.092E-03,   425.543E-03,   74.9444E-03,   3.61742E-03
C:/temp/dataset/6/21_18.odb,Step-1,Increment      1: Step Time =    1.000,"PART-1-1",           135,  -533.729E-03,      -2.94296,            0.,NA,NA,"",   413.939E-03,   408.045E-03,   69.6013E-03,   3.45627E-03
C:/temp/dataset/6/21_18.odb,Step-1,Increment      1: Step Time =    1.000,"PART-1-1",           136,       10.2172,      -28.0250,            0.,NA,NA,"",   16.0453E-03,   15.6042E-03,  -3.73661E-03,   5.66344E-03
C:/temp/dataset/6/21_18.odb,Step-1,Increment      1: Step Time =    1.000,"PART-1-1",           137,       7.82196,      -28.0777,            0.,NA,NA,"",   17.6542E-03,   17.6293E-03,  -938.410E-06,   6.05148E-03
C:/temp/dataset/6/21_18.odb,Step-1,Increment      1: Step Time =    1.000,"PART-1-1",           138,       5.43540,      -28.0544,            0.,NA,NA,"",   21.8950E-03,   21.8950E-03,   1.66936E-06,   7.53186E-03
C:/temp/dataset/6/21_18.odb,Step-1,Increment      1: Step Time =    1.000,"PART-1-1",           139,       2.98405,      -27.8165,            0.,NA,NA,"",   29.4172E-03,   29.4034E-03,  -900.230E-06,   9.09803E-03
C:/temp/dataset/6/21_18.odb,Step-1,Increment      1: Step Time =    1.000,"PART-1-1",           140,   324.250E-03,      -27.0908,            0.,NA,NA,"",   43.8862E-03,   43.6738E-03,  -4.31241E-03,   10.6276E-03
C:/temp/dataset/6/21_18.odb,Step-1,Increment      1: Step Time =    1.000,"PART-1-1",           141,      -2.46293,      -27.5198,            0.,NA,NA,"",   39.6959E-03,   39.1009E-03,  -6.84738E-03,   11.2920E-03
C:/temp/dataset/6/21_18.odb,Step-1,Increment      1: Step Time =    1.000,"PART-1-1",           142,      -4.88996,      -27.5861,            0.,NA,NA,"",   37.9523E-03,   37.3599E-03,  -6.67936E-03,   10.9284E-03
C:/temp/dataset/6/21_18.odb,Step-1,Increment      1: Step Time =    1.000,"PART-1-1",           143,      -7.26500,      -27.4866,            0.,NA,NA,"",   38.4273E-03,   38.3001E-03,  -3.12365E-03,   10.4575E-03
C:/temp/dataset/6/21_18.odb,Step-1,Increment      1: Step Time =    1.000,"PART-1-1",           144,      -9.86695,      -26.8928,            0.,NA,NA,"",   52.3448E-03,   51.8864E-03,   6.91241E-03,   11.5979E-03
C:/temp/dataset/6/21_18.odb,Step-1,Increment      1: Step Time =    1.000,"PART-1-1",           145,       12.7710,      -23.5898,            0.,NA,NA,"",   68.2747E-03,   61.4114E-03,  -29.8342E-03,   4.53594E-03
C:/temp/dataset/6/21_18.odb,Step-1,Increment      1: Step Time =    1.000,"PART-1-1",           146,       12.6989,      -25.7990,            0.,NA,NA,"",   43.5812E-03,   38.8701E-03,  -19.7088E-03,   5.89928E-03
C:/temp/dataset/6/21_18.odb,Step-1,Increment      1: Step Time =    1.000,"PART-1-1",           147,       12.6207,      -27.9366,            0.,NA,NA,"",   20.3869E-03,   17.8226E-03,  -9.89846E-03,   7.61176E-03
C:/temp/dataset/6/21_18.odb,Step-1,Increment      1: Step Time =    1.000,"PART-1-1",           148,       12.9983,      -14.8223,            0.,NA,NA,"",   189.156E-03,   179.127E-03,  -60.7739E-03,   2.86620E-03
C:/temp/dataset/6/21_18.odb,Step-1,Increment      1: Step Time =    1.000,"PART-1-1",           149,       13.0558,      -17.0719,            0.,NA,NA,"",   153.285E-03,   142.769E-03,  -55.7978E-03,   3.38125E-03
C:/temp/dataset/6/21_18.odb,Step-1,Increment      1: Step Time =    1.000,"PART-1-1",           150,       13.1682,      -19.2108,            0.,NA,NA,"",   123.223E-03,   112.483E-03,  -50.3135E-03,   3.88500E-03
C:/temp/dataset/6/21_18.odb,Step-1,Increment      1: Step Time =    1.000,"PART-1-1",           151,       13.0670,      -5.94273,            0.,NA,NA,"",   343.840E-03,   337.105E-03,  -67.7224E-03,   1.37005E-03
C:/temp/dataset/6/21_18.odb,Step-1,Increment      1: Step Time =    1.000,"PART-1-1",           152,       13.0350,      -8.09399,            0.,NA,NA,"",   308.076E-03,   300.413E-03,  -68.2824E-03,   1.64946E-03
C:/temp/dataset/6/21_18.odb,Step-1,Increment      1: Step Time =    1.000,"PART-1-1",           153,       12.9982,      -10.2981,            0.,NA,NA,"",   268.981E-03,   260.454E-03,  -67.1917E-03,   1.98317E-03
C:/temp/dataset/6/21_18.odb,Step-1,Increment      1: Step Time =    1.000,"PART-1-1",           154,       12.5107,   556.281E-03,            0.,NA,NA,"",   428.760E-03,   425.288E-03,  -54.4507E-03,   1.42905E-03
C:/temp/dataset/6/21_18.odb,Step-1,Increment      1: Step Time =    1.000,"PART-1-1",           155,       12.7702,      -1.64554,            0.,NA,NA,"",   403.337E-03,   398.937E-03,  -59.4146E-03,   1.33267E-03
C:/temp/dataset/6/21_18.odb,Step-1,Increment      1: Step Time =    1.000,"PART-1-1",           156,       10.0517,       2.85834,            0.,NA,NA,"",   451.397E-03,   450.866E-03,  -21.8874E-03,   1.53307E-03
C:/temp/dataset/6/21_18.odb,Step-1,Increment      1: Step Time =    1.000,"PART-1-1",           157,       5.39286,       2.85476,            0.,NA,NA,"",   447.375E-03,   446.197E-03,   32.4354E-03,   1.62572E-03
C:/temp/dataset/6/21_18.odb,Step-1,Increment      1: Step Time =    1.000,"PART-1-1",           158,   175.602E-03,       2.90951,            0.,NA,NA,"",   445.154E-03,   439.825E-03,   68.6709E-03,   1.45840E-03
C:/temp/dataset/6/21_18.odb,Step-1,Increment      1: Step Time =    1.000,"PART-1-1",           159,      -4.35394,       2.91920,            0.,NA,NA,"",   444.399E-03,   436.776E-03,   81.9580E-03,   1.02545E-03
C:/temp/dataset/6/21_18.odb,Step-1,Increment      1: Step Time =    1.000,"PART-1-1",           160,      -7.05997,       10.9599,            0.,NA,NA,"",   458.033E-03,   449.930E-03,   85.7748E-03,   5.72856E-06
C:/temp/dataset/6/21_18.odb,Step-1,Increment      1: Step Time =    1.000,"PART-1-1",           161,      -6.93805,       8.84105,            0.,NA,NA,"",   454.697E-03,   446.571E-03,   85.5781E-03,   19.9766E-06
C:/temp/dataset/6/21_18.odb,Step-1,Increment      1: Step Time =    1.000,"PART-1-1",           162,      -7.28921,       17.6445,            0.,NA,NA,"",   468.587E-03,   460.602E-03,   86.1345E-03,   550.468E-09
C:/temp/dataset/6/21_18.odb,Step-1,Increment      1: Step Time =    1.000,"PART-1-1",           163,      -7.17735,       15.3234,            0.,NA,NA,"",   464.911E-03,   456.895E-03,   85.9587E-03,   1.56780E-06
C:/temp/dataset/6/21_18.odb,Step-1,Increment      1: Step Time =    1.000,"PART-1-1",           164,      -6.93557,       23.5874,            0.,NA,NA,"",   477.813E-03,   470.090E-03,   85.5624E-03,   5.99267E-09
C:/temp/dataset/6/21_18.odb,Step-1,Increment      1: Step Time =    1.000,"PART-1-1",           165,      -13.1925,       19.7530,            0.,NA,NA,"",   473.715E-03,   463.977E-03,   95.5558E-03,   148.255E-09
C:/temp/dataset/6/21_18.odb,Step-1,Increment      1: Step Time =    1.000,"PART-1-1",           166,      -7.44963,       27.8335,            0.,NA,NA,"",   484.629E-03,   476.869E-03,   86.3777E-03,   8.68752E-09
C:/temp/dataset/6/21_18.odb,Step-1,Increment      1: Step Time =    1.000,"PART-1-1",           167,      -13.0424,       22.0734,            0.,NA,NA,"",   477.294E-03,   467.681E-03,   95.3133E-03,   21.3084E-09
C:/temp/dataset/6/21_18.odb,Step-1,Increment      1: Step Time =    1.000,"PART-1-1",           168,      -13.1316,       14.9813,            0.,NA,NA,"",   466.240E-03,   456.362E-03,   95.4650E-03,   1.55189E-06
C:/temp/dataset/6/21_18.odb,Step-1,Increment      1: Step Time =    1.000,"PART-1-1",           169,      -13.1727,       17.3972,            0.,NA,NA,"",   470.027E-03,   460.217E-03,   95.5273E-03,   563.802E-09
C:/temp/dataset/6/21_18.odb,Step-1,Increment      1: Step Time =    1.000,"PART-1-1",           170,      -12.8574,       7.53984,            0.,NA,NA,"",   454.482E-03,   444.433E-03,   95.0446E-03,   20.8896E-06
C:/temp/dataset/6/21_18.odb,Step-1,Increment      1: Step Time =    1.000,"PART-1-1",           171,      -13.0166,       10.0884,            0.,NA,NA,"",   458.553E-03,   448.543E-03,   95.2903E-03,   2.25997E-06
C:/temp/dataset/6/21_18.odb,Step-1,Increment      1: Step Time =    1.000,"PART-1-1",           172,      -12.8045,  -118.323E-03,            0.,NA,NA,"",   442.915E-03,   432.640E-03,   94.8471E-03,   371.666E-06
C:/temp/dataset/6/21_18.odb,Step-1,Increment      1: Step Time =    1.000,"PART-1-1",           173,      -12.7039,       2.28772,            0.,NA,NA,"",   446.126E-03,   435.945E-03,   94.7675E-03,   61.5789E-06
C:/temp/dataset/6/21_18.odb,Step-1,Increment      1: Step Time =    1.000,"PART-1-1",           174,      -12.8488,      -7.31355,            0.,NA,NA,"",   437.346E-03,   426.045E-03,   98.7763E-03,   2.25573E-03
C:/temp/dataset/6/21_18.odb,Step-1,Increment      1: Step Time =    1.000,"PART-1-1",           175,      -12.6051,      -4.81291,            0.,NA,NA,"",   439.189E-03,   428.710E-03,   95.3665E-03,   1.70762E-03
C:/temp/dataset/6/21_18.odb,Step-1,Increment      1: Step Time =    1.000,"PART-1-1",           176,      -12.4260,      -15.0682,            0.,NA,NA,"",   417.088E-03,   401.656E-03,   112.405E-03,   9.32294E-03
C:/temp/dataset/6/21_18.odb,Step-1,Increment      1: Step Time =    1.000,"PART-1-1",           177,      -12.3344,      -12.5112,            0.,NA,NA,"",   425.039E-03,   411.035E-03,   108.204E-03,   5.02585E-03
C:/temp/dataset/6/21_18.odb,Step-1,Increment      1: Step Time =    1.000,"PART-1-1",           178,      -12.6598,      -20.1148,            0.,NA,NA,"",   314.449E-03,   302.066E-03,   87.3737E-03,   21.2896E-03
C:/temp/dataset/6/21_18.odb,Step-1,Increment      1: Step Time =    1.000,"PART-1-1",           179,      -8.70618,       22.9331,            0.,NA,NA,"",   477.303E-03,   469.048E-03,   88.3899E-03,   21.6108E-09
C:/temp/dataset/6/21_18.odb,Step-1,Increment      1: Step Time =    1.000,"PART-1-1",           180,      -9.21222,       15.1634,            0.,NA,NA,"",   465.275E-03,   456.644E-03,   89.2049E-03,   1.81615E-06
C:/temp/dataset/6/21_18.odb,Step-1,Increment      1: Step Time =    1.000,"PART-1-1",           181,      -9.55138,       19.8926,            0.,NA,NA,"",   472.790E-03,   464.195E-03,   89.7428E-03,   202.783E-09
C:/temp/dataset/6/21_18.odb,Step-1,Increment      1: Step Time =    1.000,"PART-1-1",           182,      -8.92203,       8.32966,            0.,NA,NA,"",   454.508E-03,   445.762E-03,   88.7366E-03,   18.1134E-06
C:/temp/dataset/6/21_18.odb,Step-1,Increment      1: Step Time =    1.000,"PART-1-1",           183,      -9.17670,       12.8809,            0.,NA,NA,"",   461.689E-03,   453.001E-03,   89.1466E-03,   3.71379E-06
C:/temp/dataset/6/21_18.odb,Step-1,Increment      1: Step Time =    1.000,"PART-1-1",           184,      -9.09923,       10.6117,            0.,NA,NA,"",   458.115E-03,   449.382E-03,   89.0203E-03,   6.01897E-06
C:/temp/dataset/6/21_18.odb,Step-1,Increment      1: Step Time =    1.000,"PART-1-1",           185,      -9.30530,       17.5014,            0.,NA,NA,"",   468.968E-03,   460.377E-03,   89.3524E-03,   707.814E-09
C:/temp/dataset/6/21_18.odb,Step-1,Increment      1: Step Time =    1.000,"PART-1-1",           186,      -8.37864,       6.17865,            0.,NA,NA,"",   451.008E-03,   442.357E-03,   87.9134E-03,   102.070E-06
C:/temp/dataset/6/21_18.odb,Step-1,Increment      1: Step Time =    1.000,"PART-1-1",           187,       10.9988,      -10.2527,            0.,NA,NA,"",   263.775E-03,   261.123E-03,  -37.3076E-03,   2.84710E-03
C:/temp/dataset/6/21_18.odb,Step-1,Increment      1: Step Time =    1.000,"PART-1-1",           188,       10.8643,      -17.5211,            0.,NA,NA,"",   136.044E-03,   133.281E-03,  -27.2797E-03,   2.94013E-03
C:/temp/dataset/6/21_18.odb,Step-1,Increment      1: Step Time =    1.000,"PART-1-1",           189,       11.0508,      -8.01555,            0.,NA,NA,"",   305.011E-03,   302.521E-03,  -38.8976E-03,   2.49397E-03
C:/temp/dataset/6/21_18.odb,Step-1,Increment      1: Step Time =    1.000,"PART-1-1",           190,       10.6332,      -2.00908,            0.,NA,NA,"",   397.222E-03,   396.072E-03,  -30.2011E-03,   1.38009E-03
C:/temp/dataset/6/21_18.odb,Step-1,Increment      1: Step Time =    1.000,"PART-1-1",           191,       11.1668,      -5.92645,            0.,NA,NA,"",   341.231E-03,   338.857E-03,  -40.1821E-03,   1.80438E-03
C:/temp/dataset/6/21_18.odb,Step-1,Increment      1: Step Time =    1.000,"PART-1-1",           192,       10.9732,      -14.9280,            0.,NA,NA,"",   178.694E-03,   175.698E-03,  -32.5852E-03,   2.97221E-03
C:/temp/dataset/6/21_18.odb,Step-1,Increment      1: Step Time =    1.000,"PART-1-1",           193,       10.5476,      -23.6927,            0.,NA,NA,"",   59.4953E-03,   58.1363E-03,  -12.6434E-03,   2.98887E-03
C:/temp/dataset/6/21_18.odb,Step-1,Increment      1: Step Time =    1.000,"PART-1-1",           194,       10.5707,      -21.1850,            0.,NA,NA,"",   86.3600E-03,   84.6190E-03,  -17.2532E-03,   2.46008E-03
C:/temp/dataset/6/21_18.odb,Step-1,Increment      1: Step Time =    1.000,"PART-1-1",           195,       10.9760,      -12.5622,            0.,NA,NA,"",   220.935E-03,   218.109E-03,  -35.2223E-03,   2.95132E-03
C:/temp/dataset/6/21_18.odb,Step-1,Increment      1: Step Time =    1.000,"PART-1-1",           196,       11.6229,      -19.2502,            0.,NA,NA,"",   114.285E-03,   109.630E-03,  -32.2865E-03,   3.09305E-03
C:/temp/dataset/6/21_18.odb,Step-1,Increment      1: Step Time =    1.000,"PART-1-1",           197,       11.1609,      -3.97100,            0.,NA,NA,"",   371.254E-03,   369.212E-03,  -38.8878E-03,   1.21800E-03
C:/temp/dataset/6/21_18.odb,Step-1,Increment      1: Step Time =    1.000,"PART-1-1",           198,      -9.55101,       25.2781,            0.,NA,NA,"",   481.233E-03,   472.792E-03,   89.7356E-03,   9.17227E-09
C:/temp/dataset/6/21_18.odb,Step-1,Increment      1: Step Time =    1.000,"PART-1-1",           199,      -6.13353,       2.97524,            0.,NA,NA,"",   444.781E-03,   436.631E-03,   84.7595E-03,   772.969E-06
C:/temp/dataset/6/21_18.odb,Step-1,Increment      1: Step Time =    1.000,"PART-1-1",           200,       8.52809,      -18.5145,            0.,NA,NA,"",   116.591E-03,   116.590E-03,  -542.196E-06,   2.77482E-03
C:/temp/dataset/6/21_18.odb,Step-1,Increment      1: Step Time =    1.000,"PART-1-1",           201,      -9.31256,      -6.57829,            0.,NA,NA,"",   435.254E-03,   427.409E-03,   82.2636E-03,   3.02844E-03
C:/temp/dataset/6/21_18.odb,Step-1,Increment      1: Step Time =    1.000,"PART-1-1",           202,      -7.82061,      -4.24854,            0.,NA,NA,"",   432.832E-03,   425.430E-03,   79.7087E-03,   3.40250E-03
C:/temp/dataset/6/21_18.odb,Step-1,Increment      1: Step Time =    1.000,"PART-1-1",           203,       7.55002,      -20.4955,            0.,NA,NA,"",   91.5660E-03,   91.2037E-03,   8.13824E-03,   1.68303E-03
C:/temp/dataset/6/21_18.odb,Step-1,Increment      1: Step Time =    1.000,"PART-1-1",           204,      -9.18944,      -8.43706,            0.,NA,NA,"",   433.321E-03,   425.795E-03,   80.4097E-03,   3.18139E-03
C:/temp/dataset/6/21_18.odb,Step-1,Increment      1: Step Time =    1.000,"PART-1-1",           205,      -12.3720,       27.4312,            0.,NA,NA,"",   485.467E-03,   476.233E-03,   94.2361E-03,   9.85265E-09
C:/temp/dataset/6/21_18.odb,Step-1,Increment      1: Step Time =    1.000,"PART-1-1",           206,      -10.3791,       22.2070,            0.,NA,NA,"",   476.669E-03,   467.891E-03,   91.0614E-03,   42.3434E-09
C:/temp/dataset/6/21_18.odb,Step-1,Increment      1: Step Time =    1.000,"PART-1-1",           207,       3.40286,  -884.176E-03,            0.,NA,NA,"",   416.715E-03,   413.486E-03,   51.7737E-03,   1.56689E-03
C:/temp/dataset/6/21_18.odb,Step-1,Increment      1: Step Time =    1.000,"PART-1-1",           208,       7.88020,       1.44192,            0.,NA,NA,"",   434.976E-03,   434.933E-03,   6.08184E-03,   1.57449E-03
C:/temp/dataset/6/21_18.odb,Step-1,Increment      1: Step Time =    1.000,"PART-1-1",           209,      -1.17287,  -897.893E-03,            0.,NA,NA,"",   425.727E-03,   419.299E-03,   73.7022E-03,   1.94343E-03
C:/temp/dataset/6/21_18.odb,Step-1,Increment      1: Step Time =    1.000,"PART-1-1",           210,       10.4014,      -25.9274,            0.,NA,NA,"",   36.5795E-03,   35.7244E-03,  -7.86319E-03,   4.40661E-03
C:/temp/dataset/6/21_18.odb,Step-1,Increment      1: Step Time =    1.000,"PART-1-1",           211,       2.00108,      -24.8239,            0.,NA,NA,"",   69.0380E-03,   69.0376E-03,   218.182E-06,   10.0522E-03
C:/temp/dataset/6/21_18.odb,Step-1,Increment      1: Step Time =    1.000,"PART-1-1",           212,      -4.80900,      -25.1606,            0.,NA,NA,"",   82.1128E-03,   81.0717E-03,  -13.0342E-03,   11.7655E-03
C:/temp/dataset/6/21_18.odb,Step-1,Increment      1: Step Time =    1.000,"PART-1-1",           213,      -11.5765,       21.3848,            0.,NA,NA,"",   475.753E-03,   466.580E-03,   92.9739E-03,   71.1200E-09
C:/temp/dataset/6/21_18.odb,Step-1,Increment      1: Step Time =    1.000,"PART-1-1",           214,      -11.0630,       10.3038,            0.,NA,NA,"",   458.252E-03,   448.889E-03,   92.1595E-03,   5.77464E-06
C:/temp/dataset/6/21_18.odb,Step-1,Increment      1: Step Time =    1.000,"PART-1-1",           215,      -10.2832,  -591.021E-03,            0.,NA,NA,"",   440.519E-03,   431.237E-03,   89.9546E-03,   858.343E-06
C:/temp/dataset/6/21_18.odb,Step-1,Increment      1: Step Time =    1.000,"PART-1-1",           216,      -11.1869,      -5.64306,            0.,NA,NA,"",   437.844E-03,   428.331E-03,   90.7742E-03,   2.26567E-03
C:/temp/dataset/6/21_18.odb,Step-1,Increment      1: Step Time =    1.000,"PART-1-1",           217,      -9.48237,      -10.3825,            0.,NA,NA,"",   428.955E-03,   421.097E-03,   81.7337E-03,   3.27163E-03
C:/temp/dataset/6/21_18.odb,Step-1,Increment      1: Step Time =    1.000,"PART-1-1",           218,      -10.0191,      -20.7277,            0.,NA,NA,"",   245.536E-03,   241.417E-03,   44.7837E-03,   22.3978E-03
C:/temp/dataset/6/21_18.odb,Step-1,Increment      1: Step Time =    1.000,"PART-1-1",           219,      -12.8377,      -24.8331,            0.,NA,NA,"",   130.327E-03,   119.436E-03,   52.1549E-03,   12.2527E-03
C:/temp/dataset/6/21_18.odb,Step-1,Increment      1: Step Time =    1.000,"PART-1-1",           220,  -752.185E-03,      -25.0561,            0.,NA,NA,"",   75.2416E-03,   74.7859E-03,  -8.26836E-03,   11.5746E-03
C:/temp/dataset/6/21_18.odb,Step-1,Increment      1: Step Time =    1.000,"PART-1-1",           221,      -11.3411,      -22.5061,            0.,NA,NA,"",   199.073E-03,   193.938E-03,   44.9229E-03,   19.9626E-03
C:/temp/dataset/6/21_18.odb,Step-1,Increment      1: Step Time =    1.000,"PART-1-1",           222,       5.90860,      -26.1342,            0.,NA,NA,"",   41.7206E-03,   41.6582E-03,   2.28184E-03,   7.30888E-03
C:/temp/dataset/6/21_18.odb,Step-1,Increment      1: Step Time =    1.000,"PART-1-1",           223,       3.81352,      -25.8758,            0.,NA,NA,"",   51.0347E-03,   50.9959E-03,   1.98933E-03,   8.90587E-03
C:/temp/dataset/6/21_18.odb,Step-1,Increment      1: Step Time =    1.000,"PART-1-1",           224,      -6.87266,      -25.1947,            0.,NA,NA,"",   84.6187E-03,   84.3728E-03,  -6.44577E-03,   11.5085E-03
C:/temp/dataset/6/21_18.odb,Step-1,Increment      1: Step Time =    1.000,"PART-1-1",           225,       9.77381,   336.875E-03,            0.,NA,NA,"",   423.965E-03,   423.589E-03,  -17.8491E-03,   1.71560E-03
C:/temp/dataset/6/21_18.odb,Step-1,Increment      1: Step Time =    1.000,"PART-1-1",           226,       4.59800,   29.7464E-03,            0.,NA,NA,"",   422.982E-03,   420.895E-03,   41.9662E-03,   822.671E-06
C:/temp/dataset/6/21_18.odb,Step-1,Increment      1: Step Time =    1.000,"PART-1-1",           227,      -11.1551,       12.6912,            0.,NA,NA,"",   462.018E-03,   452.703E-03,   92.3064E-03,   3.18648E-06
C:/temp/dataset/6/21_18.odb,Step-1,Increment      1: Step Time =    1.000,"PART-1-1",           228,      -11.2689,       17.3859,            0.,NA,NA,"",   469.398E-03,   460.196E-03,   92.4873E-03,   720.875E-09
C:/temp/dataset/6/21_18.odb,Step-1,Increment      1: Step Time =    1.000,"PART-1-1",           229,      -11.2102,       15.0558,            0.,NA,NA,"",   465.734E-03,   456.477E-03,   92.3949E-03,   1.81977E-06
C:/temp/dataset/6/21_18.odb,Step-1,Increment      1: Step Time =    1.000,"PART-1-1",           230,      -10.8139,       7.79620,            0.,NA,NA,"",   454.234E-03,   444.866E-03,   91.7762E-03,   26.1728E-06
C:/temp/dataset/6/21_18.odb,Step-1,Increment      1: Step Time =    1.000,"PART-1-1",           231,      -10.1648,       4.85487,            0.,NA,NA,"",   449.332E-03,   440.060E-03,   90.8107E-03,   89.8382E-06
C:/temp/dataset/6/21_18.odb,Step-1,Increment      1: Step Time =    1.000,"PART-1-1",           232,      -10.4473,       2.01195,            0.,NA,NA,"",   444.653E-03,   435.221E-03,   91.1020E-03,   231.008E-06
C:/temp/dataset/6/21_18.odb,Step-1,Increment      1: Step Time =    1.000,"PART-1-1",           233,      -10.4810,      -3.59789,            0.,NA,NA,"",   437.978E-03,   428.903E-03,   88.6936E-03,   1.97705E-03
C:/temp/dataset/6/21_18.odb,Step-1,Increment      1: Step Time =    1.000,"PART-1-1",           234,      -9.89141,      -15.1395,            0.,NA,NA,"",   394.579E-03,   386.017E-03,   81.7532E-03,   5.49102E-03
C:/temp/dataset/6/21_18.odb,Step-1,Increment      1: Step Time =    1.000,"PART-1-1",           235,      -9.95744,      -17.7636,            0.,NA,NA,"",   340.873E-03,   333.702E-03,   69.5485E-03,   16.4894E-03
C:/temp/dataset/6/21_18.odb,Step-1,Increment      1: Step Time =    1.000,"PART-1-1",           236,      -3.63694,      -1.16253,            0.,NA,NA,"",   429.142E-03,   421.742E-03,   79.3499E-03,   2.08603E-03
C:/temp/dataset/6/21_18.odb,Step-1,Increment      1: Step Time =    1.000,"PART-1-1",           237,      -7.00580,      -22.7773,            0.,NA,NA,"",   142.117E-03,   142.113E-03,  -1.09975E-03,   13.6642E-03
C:/temp/dataset/6/21_18.odb,Step-1,Increment      1: Step Time =    1.000,"PART-1-1",           238,       7.08723,      -4.67483,            0.,NA,NA,"",   365.844E-03,   365.474E-03,   16.4653E-03,   3.58698E-03
C:/temp/dataset/6/21_18.odb,Step-1,Increment      1: Step Time =    1.000,"PART-1-1",           239,       8.96532,      -10.1697,            0.,NA,NA,"",   262.835E-03,   262.716E-03,  -7.91002E-03,   2.79337E-03
C:/temp/dataset/6/21_18.odb,Step-1,Increment      1: Step Time =    1.000,"PART-1-1",           240,       8.99874,      -7.82238,            0.,NA,NA,"",   307.270E-03,   307.115E-03,  -9.77104E-03,   3.11417E-03
C:/temp/dataset/6/21_18.odb,Step-1,Increment      1: Step Time =    1.000,"PART-1-1",           241,       8.96760,      -14.8663,            0.,NA,NA,"",   176.073E-03,   175.963E-03,  -6.20141E-03,   2.83149E-03
C:/temp/dataset/6/21_18.odb,Step-1,Increment      1: Step Time =    1.000,"PART-1-1",           242,      -12.0836,       24.5335,            0.,NA,NA,"",   480.840E-03,   471.607E-03,   93.7794E-03,   10.4284E-09
C:/temp/dataset/6/21_18.odb,Step-1,Increment      1: Step Time =    1.000,"PART-1-1",           243,       9.21542,      -5.66363,            0.,NA,NA,"",   345.721E-03,   345.483E-03,  -12.8470E-03,   2.43478E-03
C:/temp/dataset/6/21_18.odb,Step-1,Increment      1: Step Time =    1.000,"PART-1-1",           244,       8.72776,      -2.97127,            0.,NA,NA,"",   386.292E-03,   386.264E-03,  -4.63276E-03,   1.73862E-03
C:/temp/dataset/6/21_18.odb,Step-1,Increment      1: Step Time =    1.000,"PART-1-1",           245,       9.39471,      -19.4524,            0.,NA,NA,"",   104.798E-03,   104.449E-03,  -8.54583E-03,   2.43327E-03
C:/temp/dataset/6/21_18.odb,Step-1,Increment      1: Step Time =    1.000,"PART-1-1",           246,       8.06548,      -22.0810,            0.,NA,NA,"",   75.2459E-03,   75.1800E-03,   3.14938E-03,   2.15553E-03
C:/temp/dataset/6/21_18.odb,Step-1,Increment      1: Step Time =    1.000,"PART-1-1",           247,      -7.53738,       4.79758,            0.,NA,NA,"",   448.607E-03,   440.156E-03,   86.6612E-03,   224.682E-06
C:/temp/dataset/6/21_18.odb,Step-1,Increment      1: Step Time =    1.000,"PART-1-1",           248,      -10.8025,      -24.3532,            0.,NA,NA,"",   127.128E-03,   124.517E-03,   25.6356E-03,   15.6352E-03
C:/temp/dataset/6/21_18.odb,Step-1,Increment      1: Step Time =    1.000,"PART-1-1",           249,       5.82981,      -2.08643,            0.,NA,NA,"",   401.694E-03,   400.468E-03,   31.3651E-03,   2.07139E-03
C:/temp/dataset/6/21_18.odb,Step-1,Increment      1: Step Time =    1.000,"PART-1-1",           250,      -8.67175,      -2.53401,            0.,NA,NA,"",   435.878E-03,   427.558E-03,   84.7575E-03,   2.09413E-03
C:/temp/dataset/6/21_18.odb,Step-1,Increment      1: Step Time =    1.000,"PART-1-1",           251,       5.78686,      -22.7214,            0.,NA,NA,"",   75.9271E-03,   75.0834E-03,   11.2877E-03,   6.40874E-03
C:/temp/dataset/6/21_18.odb,Step-1,Increment      1: Step Time =    1.000,"PART-1-1",           252,      -8.27594,       1.60152,            0.,NA,NA,"",   442.539E-03,   433.784E-03,   87.5936E-03,   614.654E-06
C:/temp/dataset/6/21_18.odb,Step-1,Increment      1: Step Time =    1.000,"PART-1-1",           253,       8.25490,      -24.0061,            0.,NA,NA,"",   56.7381E-03,   56.7373E-03,   292.871E-06,   3.94087E-03
C:/temp/dataset/6/21_18.odb,Step-1,Increment      1: Step Time =    1.000,"PART-1-1",           254,      -9.04303,      -23.2600,            0.,NA,NA,"",   146.583E-03,   145.900E-03,   14.1359E-03,   16.9345E-03
C:/temp/dataset/6/21_18.odb,Step-1,Increment      1: Step Time =    1.000,"PART-1-1",           255,       7.61656,      -1.09448,            0.,NA,NA,"",   409.438E-03,   409.310E-03,   10.2456E-03,   1.65437E-03
C:/temp/dataset/6/21_18.odb,Step-1,Increment      1: Step Time =    1.000,"PART-1-1",           256,      -4.02262,   861.151E-03,            0.,NA,NA,"",   437.137E-03,   429.543E-03,   81.1275E-03,   1.47999E-03
C:/temp/dataset/6/21_18.odb,Step-1,Increment      1: Step Time =    1.000,"PART-1-1",           257,  -104.141E-03,       1.31276,            0.,NA,NA,"",   436.286E-03,   430.566E-03,   70.4138E-03,   1.14952E-03
C:/temp/dataset/6/21_18.odb,Step-1,Increment      1: Step Time =    1.000,"PART-1-1",           258,       3.72123,      -23.4419,            0.,NA,NA,"",   76.9310E-03,   76.5466E-03,   7.68145E-03,   9.00333E-03
C:/temp/dataset/6/21_18.odb,Step-1,Increment      1: Step Time =    1.000,"PART-1-1",           259,      -10.7950,      -8.39617,            0.,NA,NA,"",   435.068E-03,   425.628E-03,   90.1406E-03,   2.78714E-03
C:/temp/dataset/6/21_18.odb,Step-1,Increment      1: Step Time =    1.000,"PART-1-1",           260,      -1.85786,       1.02916,            0.,NA,NA,"",   436.078E-03,   429.338E-03,   76.3726E-03,   1.34004E-03
C:/temp/dataset/6/21_18.odb,Step-1,Increment      1: Step Time =    1.000,"PART-1-1",           261,      -6.46179,      -1.33856,            0.,NA,NA,"",   433.581E-03,   425.623E-03,   82.6852E-03,   2.09267E-03
C:/temp/dataset/6/21_18.odb,Step-1,Increment      1: Step Time =    1.000,"PART-1-1",           262,      -11.1078,      -7.00587,            0.,NA,NA,"",   436.897E-03,   427.341E-03,   90.8742E-03,   2.54165E-03
C:/temp/dataset/6/21_18.odb,Step-1,Increment      1: Step Time =    1.000,"PART-1-1",           263,      -5.52697,      -3.44125,            0.,NA,NA,"",   427.117E-03,   419.911E-03,   78.1257E-03,   3.43489E-03
C:/temp/dataset/6/21_18.odb,Step-1,Increment      1: Step Time =    1.000,"PART-1-1",           264,      -9.72268,      -4.98378,            0.,NA,NA,"",   436.361E-03,   427.960E-03,   85.2132E-03,   2.61344E-03
C:/temp/dataset/6/21_18.odb,Step-1,Increment      1: Step Time =    1.000,"PART-1-1",           265,      -6.27329,       4.89376,            0.,NA,NA,"",   448.687E-03,   440.629E-03,   84.6492E-03,   431.558E-06
C:/temp/dataset/6/21_18.odb,Step-1,Increment      1: Step Time =    1.000,"PART-1-1",           266,       12.4963,       2.80040,            0.,NA,NA,"",   454.127E-03,   450.931E-03,  -53.7838E-03,   1.02080E-03
C:/temp/dataset/6/21_18.odb,Step-1,Increment      1: Step Time =    1.000,"PART-1-1",           267,      -7.37176,      -20.2559,            0.,NA,NA,"",   223.352E-03,   222.494E-03,   19.5610E-03,   23.2415E-03
C:/temp/dataset/6/21_18.odb,Step-1,Increment      1: Step Time =    1.000,"PART-1-1",           268,       2.88963,      -21.8777,            0.,NA,NA,"",   91.7192E-03,   91.3170E-03,   8.58000E-03,   7.35112E-03
C:/temp/dataset/6/21_18.odb,Step-1,Increment      1: Step Time =    1.000,"PART-1-1",           269,      -8.05085,       3.52655,            0.,NA,NA,"",   446.385E-03,   437.715E-03,   87.5523E-03,   296.023E-06
C:/temp/dataset/6/21_18.odb,Step-1,Increment      1: Step Time =    1.000,"PART-1-1",           270,       8.95558,      -12.5395,            0.,NA,NA,"",   218.250E-03,   218.150E-03,  -6.59481E-03,   2.78592E-03
C:/temp/dataset/6/21_18.odb,Step-1,Increment      1: Step Time =    1.000,"PART-1-1",           271,       1.35989,  -223.950E-03,            0.,NA,NA,"",   425.113E-03,   420.283E-03,   63.9033E-03,   1.54397E-03
C:/temp/dataset/6/21_18.odb,Step-1,Increment      1: Step Time =    1.000,"PART-1-1",           272,      -9.75004,      -12.6533,            0.,NA,NA,"",   418.537E-03,   410.120E-03,   83.5166E-03,   3.29348E-03
C:/temp/dataset/6/21_18.odb,Step-1,Increment      1: Step Time =    1.000,"PART-1-1",           273,      -8.51206,      -25.1011,            0.,NA,NA,"",   91.9335E-03,   91.8858E-03,   2.96118E-03,   12.8973E-03
C:/temp/dataset/6/21_18.odb,Step-1,Increment      1: Step Time =    1.000,"PART-1-1",           274,      -6.19138,   998.181E-03,            0.,NA,NA,"",   439.462E-03,   431.279E-03,   84.4109E-03,   1.19188E-03
C:/temp/dataset/6/21_18.odb,Step-1,Increment      1: Step Time =    1.000,"PART-1-1",           275,      -2.63339,      -25.0950,            0.,NA,NA,"",   79.5303E-03,   78.4316E-03,  -13.1740E-03,   12.6982E-03
C:/temp/dataset/6/21_18.odb,Step-1,Increment      1: Step Time =    1.000,"PART-1-1",           276,       8.11811,      -26.0558,            0.,NA,NA,"",   37.0377E-03,   37.0305E-03,  -728.127E-06,   5.42954E-03
C:/temp/dataset/6/21_18.odb,Step-1,Increment      1: Step Time =    1.000,"PART-1-1",           277,       6.33403,   764.508E-03,            0.,NA,NA,"",   428.526E-03,   427.837E-03,   24.3005E-03,   1.19160E-03
C:/temp/dataset/6/21_18.odb,Step-1,Increment      1: Step Time =    1.000,"PART-1-1",           278,       8.84044,      -16.9880,            0.,NA,NA,"",   140.059E-03,   139.995E-03,  -4.22541E-03,   3.09122E-03
C:/temp/dataset/6/21_18.odb,Step-1,Increment      1: Step Time =    1.000,"PART-1-1",           279,      -11.3950,       19.6047,            0.,NA,NA,"",   472.910E-03,   463.738E-03,   92.6864E-03,   233.350E-09
C:/temp/dataset/6/21_18.odb,Step-1,Increment      1: Step Time =    1.000,"PART-1-1",           280,      -11.2464,      -2.22607,            0.,NA,NA,"",   439.760E-03,   430.162E-03,   91.3725E-03,   1.21251E-03
C:/temp/dataset/6/21_18.odb,Step-1,Increment      1: Step Time =    1.000,"PART-1-1",           281,      -8.41776,  -32.7016E-03,            0.,NA,NA,"",   439.350E-03,   430.662E-03,   86.9418E-03,   1.06312E-03
C:/temp/dataset/6/21_18.odb,Step-1,Increment      1: Step Time =    1.000,"PART-1-1",           282,       4.48255,      -24.5345,            0.,NA,NA,"",   63.3816E-03,   63.1231E-03,   5.71797E-03,   8.47796E-03
C:/temp/dataset/6/21_18.odb,Step-1,Increment      1: Step Time =    1.000,"PART-1-1",           283,       6.11275,      -24.3348,            0.,NA,NA,"",   59.5307E-03,   59.2303E-03,   5.97357E-03,   6.62272E-03
C:/temp/dataset/6/21_18.odb,Step-1,Increment      1: Step Time =    1.000,"PART-1-1",           284,       9.69767,      -4.20039,            0.,NA,NA,"",   368.111E-03,   367.635E-03,  -18.7078E-03,   1.69774E-03
C:/temp/dataset/6/21_18.odb,Step-1,Increment      1: Step Time =    1.000,"PART-1-1",           285,       13.8851,      -1.60402,            0.,NA,NA,"",   405.553E-03,   398.656E-03,  -74.4769E-03,   1.53928E-03
C:/temp/dataset/6/21_18.odb,Step-1,Increment      1: Step Time =    1.000,"PART-1-1",           286,           15.,   -468.75E-03,            0.,NA,NA,"",   420.994E-03,   411.838E-03,  -87.3227E-03,   1.50434E-03
C:/temp/dataset/6/21_18.odb,Step-1,Increment      1: Step Time =    1.000,"PART-1-1",           287,       13.7553,   590.641E-03,            0.,NA,NA,"",   431.031E-03,   425.185E-03,  -70.7493E-03,   1.08724E-03
C:/temp/dataset/6/21_18.odb,Step-1,Increment      1: Step Time =    1.000,"PART-1-1",           288,       12.6405,  -544.629E-03,            0.,NA,NA,"",   416.288E-03,   412.392E-03,  -56.8213E-03,   1.35169E-03
C:/temp/dataset/6/21_18.odb,Step-1,Increment      1: Step Time =    1.000,"PART-1-1",           289,       6.57104,       2.96720,            0.,NA,NA,"",   449.230E-03,   448.776E-03,   20.1870E-03,   1.63878E-03
C:/temp/dataset/6/21_18.odb,Step-1,Increment      1: Step Time =    1.000,"PART-1-1",           290,       5.86345,       1.80964,            0.,NA,NA,"",   438.172E-03,   437.240E-03,   28.5619E-03,   1.26863E-03
C:/temp/dataset/6/21_18.odb,Step-1,Increment      1: Step Time =    1.000,"PART-1-1",           291,       7.10711,       1.10321,            0.,NA,NA,"",   431.577E-03,   431.301E-03,   15.4494E-03,   1.36357E-03
C:/temp/dataset/6/21_18.odb,Step-1,Increment      1: Step Time =    1.000,"PART-1-1",           292,       7.81470,       2.26078,            0.,NA,NA,"",   443.116E-03,   443.069E-03,   6.44996E-03,   1.57521E-03
C:/temp/dataset/6/21_18.odb,Step-1,Increment      1: Step Time =    1.000,"PART-1-1",           293,       6.97305,      -8.82061,            0.,NA,NA,"",   289.097E-03,   288.298E-03,   21.4906E-03,   2.37614E-03
C:/temp/dataset/6/21_18.odb,Step-1,Increment      1: Step Time =    1.000,"PART-1-1",           294,       5.98985,      -7.53541,            0.,NA,NA,"",   314.983E-03,   312.952E-03,   35.7081E-03,   2.42517E-03
C:/temp/dataset/6/21_18.odb,Step-1,Increment      1: Step Time =    1.000,"PART-1-1",           295,            5.,      -8.76875,            0.,NA,NA,"",   293.789E-03,   288.432E-03,   55.8475E-03,   1.14086E-03
C:/temp/dataset/6/21_18.odb,Step-1,Increment      1: Step Time =    1.000,"PART-1-1",           296,       5.98320,      -10.0539,            0.,NA,NA,"",   267.551E-03,   264.684E-03,   39.0663E-03,   964.974E-06
C:/temp/dataset/6/21_18.odb,Step-1,Increment      1: Step Time =    1.000,"PART-1-1",           297,       12.0429,      -8.05477,            0.,NA,NA,"",   306.139E-03,   301.456E-03,  -53.3437E-03,   2.05946E-03
C:/temp/dataset/6/21_18.odb,Step-1,Increment      1: Step Time =    1.000,"PART-1-1",           298,       11.0248,      -9.13413,            0.,NA,NA,"",   284.619E-03,   282.035E-03,  -38.2639E-03,   2.65277E-03
C:/temp/dataset/6/21_18.odb,Step-1,Increment      1: Step Time =    1.000,"PART-1-1",           299,       11.9985,      -10.2754,            0.,NA,NA,"",   265.914E-03,   260.781E-03,  -51.9948E-03,   2.40460E-03
C:/temp/dataset/6/21_18.odb,Step-1,Increment      1: Step Time =    1.000,"PART-1-1",           300,       13.0166,      -9.19606,            0.,NA,NA,"",   288.714E-03,   280.606E-03,  -67.9398E-03,   1.76954E-03
C:/temp/dataset/6/21_18.odb,Step-1,Increment      1: Step Time =    1.000,"PART-1-1",           301,       13.9992,      -14.7549,            0.,NA,NA,"",   196.575E-03,   181.330E-03,  -75.9021E-03,   2.95674E-03
C:/temp/dataset/6/21_18.odb,Step-1,Increment      1: Step Time =    1.000,"PART-1-1",           302,       13.0271,      -15.9471,            0.,NA,NA,"",   170.782E-03,   160.452E-03,  -58.4946E-03,   3.10482E-03
C:/temp/dataset/6/21_18.odb,Step-1,Increment      1: Step Time =    1.000,"PART-1-1",           303,       14.0279,      -16.9735,            0.,NA,NA,"",   161.441E-03,   145.732E-03,  -69.4648E-03,   3.87530E-03
C:/temp/dataset/6/21_18.odb,Step-1,Increment      1: Step Time =    1.000,"PART-1-1",           304,           15.,      -15.7813,            0.,NA,NA,"",   187.986E-03,   165.898E-03,  -88.4125E-03,   3.95355E-03
C:/temp/dataset/6/21_18.odb,Step-1,Increment      1: Step Time =    1.000,"PART-1-1",           305,       6.96949,      -18.0995,            0.,NA,NA,"",   123.315E-03,   122.294E-03,   15.8365E-03,   3.41598E-03
C:/temp/dataset/6/21_18.odb,Step-1,Increment      1: Step Time =    1.000,"PART-1-1",           306,       5.95014,      -17.3335,            0.,NA,NA,"",   138.919E-03,   135.632E-03,   30.0397E-03,   3.86243E-03
C:/temp/dataset/6/21_18.odb,Step-1,Increment      1: Step Time =    1.000,"PART-1-1",           307,            5.,      -18.7625,            0.,NA,NA,"",   120.946E-03,   115.504E-03,   35.8708E-03,   8.53134E-03
C:/temp/dataset/6/21_18.odb,Step-1,Increment      1: Step Time =    1.000,"PART-1-1",           308,       6.01935,      -19.5285,            0.,NA,NA,"",   103.441E-03,   101.186E-03,   21.4773E-03,   5.95499E-03
C:/temp/dataset/6/21_18.odb,Step-1,Increment      1: Step Time =    1.000,"PART-1-1",           309,       7.66098,      -29.0388,            0.,NA,NA,"",   8.69019E-03,   8.66272E-03,  -690.431E-06,   5.87886E-03
C:/temp/dataset/6/21_18.odb,Step-1,Increment      1: Step Time =    1.000,"PART-1-1",           310,       6.62868,      -28.0660,            0.,NA,NA,"",   19.6426E-03,   19.6412E-03,  -234.917E-06,   6.77773E-03
C:/temp/dataset/6/21_18.odb,Step-1,Increment      1: Step Time =    1.000,"PART-1-1",           311,       5.21770,      -29.0272,            0.,NA,NA,"",   11.2284E-03,   11.2223E-03,  -369.794E-06,   7.50099E-03
C:/temp/dataset/6/21_18.odb,Step-1,Increment      1: Step Time =    1.000,"PART-1-1",           312,          6.25,          -30.,            0.,NA,NA,"",            0.,   6.39177E-39,  -2.10355E-39,   6.73927E-03
C:/temp/dataset/6/21_18.odb,Step-1,Increment      1: Step Time =    1.000,"PART-1-1",           313,   162.125E-03,      -28.5454,            0.,NA,NA,"",   22.6953E-03,   22.5397E-03,  -2.65281E-03,   10.5593E-03
C:/temp/dataset/6/21_18.odb,Step-1,Increment      1: Step Time =    1.000,"PART-1-1",           314,      -1.06934,      -27.3053,            0.,NA,NA,"",   42.4155E-03,   41.9747E-03,  -6.09888E-03,   10.8679E-03
C:/temp/dataset/6/21_18.odb,Step-1,Increment      1: Step Time =    1.000,"PART-1-1",           315,      -2.48147,      -28.7599,            0.,NA,NA,"",   19.7988E-03,   19.5075E-03,  -3.38431E-03,   10.9518E-03
C:/temp/dataset/6/21_18.odb,Step-1,Increment      1: Step Time =    1.000,"PART-1-1",           316,         -1.25,          -30.,            0.,NA,NA,"",            0.,   9.86729E-39,  -5.84792E-39,   10.6617E-03
C:/temp/dataset/6/21_18.odb,Step-1,Increment      1: Step Time =    1.000,"PART-1-1",           317,          -15.,        -21.25,            0.,NA,NA,"",   330.440E-03,   297.146E-03,   144.550E-03,   15.7400E-03
C:/temp/dataset/6/21_18.odb,Step-1,Increment      1: Step Time =    1.000,"PART-1-1",           318,      -13.9888,      -22.4607,            0.,NA,NA,"",   244.696E-03,   224.378E-03,   97.6250E-03,   17.0759E-03
C:/temp/dataset/6/21_18.odb,Step-1,Increment      1: Step Time =    1.000,"PART-1-1",           319,      -12.8187,      -21.2681,            0.,NA,NA,"",   272.809E-03,   260.770E-03,   80.1476E-03,   21.3490E-03
C:/temp/dataset/6/21_18.odb,Step-1,Increment      1: Step Time =    1.000,"PART-1-1",           320,      -13.8299,      -20.0574,            0.,NA,NA,"",   341.396E-03,   321.905E-03,   113.702E-03,   17.8924E-03
C:/temp/dataset/6/21_18.odb,Step-1,Increment      1: Step Time =    1.000,"PART-1-1",           321,      -12.5142,      -28.6623,            0.,NA,NA,"",   22.2285E-03,   18.8194E-03,   11.8294E-03,   13.1326E-03
C:/temp/dataset/6/21_18.odb,Step-1,Increment      1: Step Time =    1.000,"PART-1-1",           322,        -11.25,          -30.,            0.,NA,NA,"",            0.,   5.56258E-39,   12.8950E-39,   9.16404E-03
C:/temp/dataset/6/21_18.odb,Step-1,Increment      1: Step Time =    1.000,"PART-1-1",           323,      -9.93348,      -28.4464,            0.,NA,NA,"",   21.3881E-03,   21.0748E-03,   3.64756E-03,   9.41265E-03
C:/temp/dataset/6/21_18.odb,Step-1,Increment      1: Step Time =    1.000,"PART-1-1",           324,      -11.1976,      -27.1087,            0.,NA,NA,"",   51.8278E-03,   49.6549E-03,   14.8495E-03,   12.2514E-03
C:/temp/dataset/6/21_18.odb,Step-1,Increment      1: Step Time =    1.000,"PART-1-1",           325,      -7.37036,      -13.8742,            0.,NA,NA,"",   397.283E-03,   393.902E-03,   51.7148E-03,   4.54995E-03
C:/temp/dataset/6/21_18.odb,Step-1,Increment      1: Step Time =    1.000,"PART-1-1",           326,      -6.21015,      -15.0417,            0.,NA,NA,"",   374.445E-03,   373.414E-03,   27.7699E-03,   7.80508E-03
C:/temp/dataset/6/21_18.odb,Step-1,Increment      1: Step Time =    1.000,"PART-1-1",           327,           -5.,      -13.7188,            0.,NA,NA,"",   387.569E-03,   386.989E-03,   21.2013E-03,   10.6740E-03
C:/temp/dataset/6/21_18.odb,Step-1,Increment      1: Step Time =    1.000,"PART-1-1",           328,      -6.16021,      -12.5513,            0.,NA,NA,"",   406.002E-03,   403.673E-03,   43.4260E-03,   7.10491E-03
C:/temp/dataset/6/21_18.odb,Step-1,Increment      1: Step Time =    1.000,"PART-1-1",           329,      -9.33590,      -9.40979,            0.,NA,NA,"",   431.533E-03,   423.891E-03,   80.8485E-03,   3.20651E-03
C:/temp/dataset/6/21_18.odb,Step-1,Increment      1: Step Time =    1.000,"PART-1-1",           330,      -8.33361,      -10.3234,            0.,NA,NA,"",   426.949E-03,   420.794E-03,   72.2331E-03,   3.52047E-03
C:/temp/dataset/6/21_18.odb,Step-1,Increment      1: Step Time =    1.000,"PART-1-1",           331,      -7.16565,      -9.15059,            0.,NA,NA,"",   428.129E-03,   422.917E-03,   66.5952E-03,   4.12078E-03
C:/temp/dataset/6/21_18.odb,Step-1,Increment      1: Step Time =    1.000,"PART-1-1",           332,      -8.16794,      -8.23701,            0.,NA,NA,"",   432.055E-03,   425.588E-03,   74.4759E-03,   3.31298E-03
C:/temp/dataset/6/21_18.odb,Step-1,Increment      1: Step Time =    1.000,"PART-1-1",           333,      -11.1473,      -6.32447,            0.,NA,NA,"",   437.429E-03,   427.905E-03,   90.7777E-03,   2.38347E-03
C:/temp/dataset/6/21_18.odb,Step-1,Increment      1: Step Time =    1.000,"PART-1-1",           334,      -10.2102,      -6.79208,            0.,NA,NA,"",   436.249E-03,   427.583E-03,   86.5168E-03,   2.69141E-03
C:/temp/dataset/6/21_18.odb,Step-1,Increment      1: Step Time =    1.000,"PART-1-1",           335,      -9.51762,      -5.78103,            0.,NA,NA,"",   435.858E-03,   427.731E-03,   83.7767E-03,   2.81968E-03
C:/temp/dataset/6/21_18.odb,Step-1,Increment      1: Step Time =    1.000,"PART-1-1",           336,      -10.4548,      -5.31342,            0.,NA,NA,"",   437.237E-03,   428.317E-03,   87.8686E-03,   2.37871E-03
C:/temp/dataset/6/21_18.odb,Step-1,Increment      1: Step Time =    1.000,"PART-1-1",           337,      -5.04937,      -1.25055,            0.,NA,NA,"",   431.274E-03,   423.579E-03,   81.1072E-03,   2.06198E-03
C:/temp/dataset/6/21_18.odb,Step-1,Increment      1: Step Time =    1.000,"PART-1-1",           338,      -3.82978,  -150.691E-03,            0.,NA,NA,"",   433.149E-03,   425.634E-03,   80.3389E-03,   1.73214E-03
C:/temp/dataset/6/21_18.odb,Step-1,Increment      1: Step Time =    1.000,"PART-1-1",           339,      -5.10700,   929.666E-03,            0.,NA,NA,"",   438.324E-03,   430.419E-03,   82.8651E-03,   1.33587E-03
C:/temp/dataset/6/21_18.odb,Step-1,Increment      1: Step Time =    1.000,"PART-1-1",           340,      -6.32658,  -170.190E-03,            0.,NA,NA,"",   436.372E-03,   428.251E-03,   83.7946E-03,   1.55967E-03
C:/temp/dataset/6/21_18.odb,Step-1,Increment      1: Step Time =    1.000,"PART-1-1",           341,          -15.,          3.75,            0.,NA,NA,"",   449.202E-03,   438.294E-03,   98.3942E-03,   58.3366E-06
C:/temp/dataset/6/21_18.odb,Step-1,Increment      1: Step Time =    1.000,"PART-1-1",           342,      -13.8520,       2.39386,            0.,NA,NA,"",   446.706E-03,   436.147E-03,   96.5479E-03,   57.0632E-06
C:/temp/dataset/6/21_18.odb,Step-1,Increment      1: Step Time =    1.000,"PART-1-1",           343,      -12.6820,       3.58697,            0.,NA,NA,"",   448.115E-03,   437.981E-03,   94.7584E-03,   30.4586E-06
C:/temp/dataset/6/21_18.odb,Step-1,Increment      1: Step Time =    1.000,"PART-1-1",           344,      -13.8301,       4.94311,            0.,NA,NA,"",   450.665E-03,   440.194E-03,   96.5828E-03,   38.4028E-06
C:/temp/dataset/6/21_18.odb,Step-1,Increment      1: Step Time =    1.000,"PART-1-1",           345,          -15.,         11.25,            0.,NA,NA,"",   461.040E-03,   450.403E-03,   98.4653E-03,   5.52509E-06
C:/temp/dataset/6/21_18.odb,Step-1,Increment      1: Step Time =    1.000,"PART-1-1",           346,      -14.0083,       10.0442,            0.,NA,NA,"",   458.816E-03,   448.471E-03,   96.8820E-03,   4.23775E-06
C:/temp/dataset/6/21_18.odb,Step-1,Increment      1: Step Time =    1.000,"PART-1-1",           347,      -13.0572,       11.3141,            0.,NA,NA,"",   460.486E-03,   450.506E-03,   95.3524E-03,   2.05790E-06
C:/temp/dataset/6/21_18.odb,Step-1,Increment      1: Step Time =    1.000,"PART-1-1",           348,      -14.0489,       12.5200,            0.,NA,NA,"",   462.702E-03,   452.434E-03,   96.9371E-03,   2.81838E-06
C:/temp/dataset/6/21_18.odb,Step-1,Increment      1: Step Time =    1.000,"PART-1-1",           349,           -5.,       22.7083,            0.,NA,NA,"",   475.885E-03,   468.684E-03,   82.4735E-03,   30.7620E-09
C:/temp/dataset/6/21_18.odb,Step-1,Increment      1: Step Time =    1.000,"PART-1-1",           350,      -5.96779,       23.6687,            0.,NA,NA,"",   477.665E-03,   470.218E-03,   84.0173E-03,   13.7765E-09
C:/temp/dataset/6/21_18.odb,Step-1,Increment      1: Step Time =    1.000,"PART-1-1",           351,      -6.69567,       22.7251,            0.,NA,NA,"",   476.390E-03,   468.713E-03,   85.1806E-03,   8.69146E-09
C:/temp/dataset/6/21_18.odb,Step-1,Increment      1: Step Time =    1.000,"PART-1-1",           352,      -5.72788,       21.7648,            0.,NA,NA,"",   474.606E-03,   467.179E-03,   83.6368E-03,   14.7934E-09
C:/temp/dataset/6/21_18.odb,Step-1,Increment      1: Step Time =    1.000,"PART-1-1",           353,      -9.95259,       28.8237,            0.,NA,NA,"",   486.913E-03,   478.453E-03,   90.3721E-03,   6.76148E-09
C:/temp/dataset/6/21_18.odb,Step-1,Increment      1: Step Time =    1.000,"PART-1-1",           354,      -8.67740,       27.7404,            0.,NA,NA,"",   484.837E-03,   476.722E-03,   88.3378E-03,   6.33430E-09
C:/temp/dataset/6/21_18.odb,Step-1,Increment      1: Step Time =    1.000,"PART-1-1",           355,      -7.47481,       28.9167,            0.,NA,NA,"",   486.337E-03,   478.598E-03,   86.4165E-03,   5.65767E-09
C:/temp/dataset/6/21_18.odb,Step-1,Increment      1: Step Time =    1.000,"PART-1-1",           356,         -8.75,           30.,            0.,NA,NA,"",   488.405E-03,   480.329E-03,   88.4508E-03,   6.81335E-09
C:/temp/dataset/6/21_18.odb,Step-1,Increment      1: Step Time =    1.000,"PART-1-1",           357,      -12.4360,       28.7156,            0.,NA,NA,"",   487.498E-03,   478.283E-03,   94.3367E-03,   5.98340E-09
C:/temp/dataset/6/21_18.odb,Step-1,Increment      1: Step Time =    1.000,"PART-1-1",           358,        -13.75,           30.,            0.,NA,NA,"",   489.920E-03,   480.335E-03,   96.4327E-03,   1.52591E-09
C:/temp/dataset/6/21_18.odb,Step-1,Increment      1: Step Time =    1.000,"PART-1-1",           359,          -15.,         28.75,            0.,NA,NA,"",   488.364E-03,   478.342E-03,   98.4297E-03,   1.96930E-09
C:/temp/dataset/6/21_18.odb,Step-1,Increment      1: Step Time =    1.000,"PART-1-1",           360,      -13.6860,       27.4656,            0.,NA,NA,"",   485.934E-03,   476.290E-03,   96.3337E-03,   6.29506E-09
C:/temp/dataset/6/21_18.odb,Step-1,Increment      1: Step Time =    1.000,"PART-1-1",           361,         -3.75,           -5.,            0.,NA,NA,"",   419.822E-03,   413.105E-03,   74.8016E-03,   4.65235E-03
C:/temp/dataset/6/21_18.odb,Step-1,Increment      1: Step Time =    1.000,"PART-1-1",           362,      -2.75606,      -4.06584,            0.,NA,NA,"",   417.781E-03,   411.087E-03,   74.4887E-03,   3.60203E-03
C:/temp/dataset/6/21_18.odb,Step-1,Increment      1: Step Time =    1.000,"PART-1-1",           363,      -4.26954,      -3.28646,            0.,NA,NA,"",   424.067E-03,   416.879E-03,   77.7482E-03,   2.81565E-03
C:/temp/dataset/6/21_18.odb,Step-1,Increment      1: Step Time =    1.000,"PART-1-1",           364,      -5.26349,      -4.22062,            0.,NA,NA,"",   425.406E-03,   418.506E-03,   76.3052E-03,   3.90323E-03
C:/temp/dataset/6/21_18.odb,Step-1,Increment      1: Step Time =    1.000,"PART-1-1",           365,   659.099E-03,      -2.85996,            0.,NA,NA,"",   410.206E-03,   404.998E-03,   65.1528E-03,   3.53198E-03
C:/temp/dataset/6/21_18.odb,Step-1,Increment      1: Step Time =    1.000,"PART-1-1",           366,  -266.865E-03,      -3.97148,            0.,NA,NA,"",   408.113E-03,   402.595E-03,   66.8840E-03,   4.10070E-03
C:/temp/dataset/6/21_18.odb,Step-1,Increment      1: Step Time =    1.000,"PART-1-1",           367,          1.25,           -5.,            0.,NA,NA,"",   396.236E-03,   391.901E-03,   58.4508E-03,   5.27016E-03
C:/temp/dataset/6/21_18.odb,Step-1,Increment      1: Step Time =    1.000,"PART-1-1",           368,       2.17596,      -3.88848,            0.,NA,NA,"",   397.199E-03,   393.090E-03,   56.9898E-03,   4.59394E-03
C:/temp/dataset/6/21_18.odb,Step-1,Increment      1: Step Time =    1.000,"PART-1-1",           369,   93.5104E-03,  -560.922E-03,            0.,NA,NA,"",   425.200E-03,   419.504E-03,   69.3679E-03,   1.79939E-03
C:/temp/dataset/6/21_18.odb,Step-1,Increment      1: Step Time =    1.000,"PART-1-1",           370,   627.873E-03,   544.404E-03,            0.,NA,NA,"",   431.094E-03,   425.802E-03,   67.3412E-03,   1.28517E-03
C:/temp/dataset/6/21_18.odb,Step-1,Increment      1: Step Time =    1.000,"PART-1-1",           371,  -981.002E-03,       1.17096,            0.,NA,NA,"",   436.118E-03,   429.849E-03,   73.6786E-03,   1.22228E-03
C:/temp/dataset/6/21_18.odb,Step-1,Increment      1: Step Time =    1.000,"PART-1-1",           372,      -1.51537,   65.6335E-03,            0.,NA,NA,"",   431.085E-03,   424.477E-03,   75.1888E-03,   1.57175E-03
C:/temp/dataset/6/21_18.odb,Step-1,Increment      1: Step Time =    1.000,"PART-1-1",           373,       4.11258,       2.54084,            0.,NA,NA,"",   444.074E-03,   441.862E-03,   44.2601E-03,   1.29926E-03
C:/temp/dataset/6/21_18.odb,Step-1,Increment      1: Step Time =    1.000,"PART-1-1",           374,       3.71515,       1.12833,            0.,NA,NA,"",   432.755E-03,   430.028E-03,   48.5065E-03,   765.985E-06
C:/temp/dataset/6/21_18.odb,Step-1,Increment      1: Step Time =    1.000,"PART-1-1",           375,       5.46602,   397.127E-03,            0.,NA,NA,"",   425.591E-03,   424.265E-03,   33.5705E-03,   911.428E-06
C:/temp/dataset/6/21_18.odb,Step-1,Increment      1: Step Time =    1.000,"PART-1-1",           376,       8.69518,  -378.803E-03,            0.,NA,NA,"",   416.298E-03,   416.282E-03,  -3.63444E-03,   1.61812E-03
C:/temp/dataset/6/21_18.odb,Step-1,Increment      1: Step Time =    1.000,"PART-1-1",           377,       8.82700,   889.396E-03,            0.,NA,NA,"",   429.559E-03,   429.524E-03,  -5.51908E-03,   1.58703E-03
C:/temp/dataset/6/21_18.odb,Step-1,Increment      1: Step Time =    1.000,"PART-1-1",           378,       6.97530,  -164.986E-03,            0.,NA,NA,"",   419.329E-03,   418.959E-03,   17.6134E-03,   1.31814E-03
C:/temp/dataset/6/21_18.odb,Step-1,Increment      1: Step Time =    1.000,"PART-1-1",           379,      -3.65351,      -22.6081,            0.,NA,NA,"",   125.308E-03,   124.018E-03,  -17.9353E-03,   13.3018E-03
C:/temp/dataset/6/21_18.odb,Step-1,Increment      1: Step Time =    1.000,"PART-1-1",           380,      -2.48671,      -21.3009,            0.,NA,NA,"",   132.514E-03,   132.059E-03,  -10.9668E-03,   13.8217E-03
C:/temp/dataset/6/21_18.odb,Step-1,Increment      1: Step Time =    1.000,"PART-1-1",           381,         -3.75,          -20.,            0.,NA,NA,"",   159.576E-03,   159.356E-03,  -8.38643E-03,   26.0275E-03
C:/temp/dataset/6/21_18.odb,Step-1,Increment      1: Step Time =    1.000,"PART-1-1",           382,      -4.91680,      -21.3072,            0.,NA,NA,"",   157.974E-03,   156.817E-03,  -19.0845E-03,   18.4134E-03
C:/temp/dataset/6/21_18.odb,Step-1,Increment      1: Step Time =    1.000,"PART-1-1",           383,       12.8399,      -22.4784,            0.,NA,NA,"",   81.0498E-03,   73.2106E-03,  -34.7748E-03,   4.30402E-03
C:/temp/dataset/6/21_18.odb,Step-1,Increment      1: Step Time =    1.000,"PART-1-1",           384,       11.7398,      -21.2760,            0.,NA,NA,"",   89.3990E-03,   84.8640E-03,  -28.1121E-03,   3.21364E-03
C:/temp/dataset/6/21_18.odb,Step-1,Increment      1: Step Time =    1.000,"PART-1-1",           385,       10.5591,      -22.4389,            0.,NA,NA,"",   72.5173E-03,   70.9739E-03,  -14.8819E-03,   2.62722E-03
C:/temp/dataset/6/21_18.odb,Step-1,Increment      1: Step Time =    1.000,"PART-1-1",           386,       11.6593,      -23.6412,            0.,NA,NA,"",   62.8057E-03,   59.3201E-03,  -20.6318E-03,   3.57914E-03
C:/temp/dataset/6/21_18.odb,Step-1,Increment      1: Step Time =    1.000,"PART-1-1",           387,          8.75,            5.,            0.,NA,NA,"",   474.015E-03,   473.965E-03,  -6.90781E-03,   1.99987E-03
C:/temp/dataset/6/21_18.odb,Step-1,Increment      1: Step Time =    1.000,"PART-1-1",           388,       7.62461,       4.03982,            0.,NA,NA,"",   461.207E-03,   461.147E-03,   7.40246E-03,   2.02708E-03
C:/temp/dataset/6/21_18.odb,Step-1,Increment      1: Step Time =    1.000,"PART-1-1",           389,       8.90047,       2.96899,            0.,NA,NA,"",   451.324E-03,   451.265E-03,  -7.26333E-03,   1.58346E-03
C:/temp/dataset/6/21_18.odb,Step-1,Increment      1: Step Time =    1.000,"PART-1-1",           390,       10.0259,       3.92917,            0.,NA,NA,"",   463.436E-03,   462.912E-03,  -22.0440E-03,   1.27963E-03
C:/temp/dataset/6/21_18.odb,Step-1,Increment      1: Step Time =    1.000,"PART-1-1",           391,      -6.96921,       21.1213,            0.,NA,NA,"",   473.951E-03,   466.153E-03,   85.6193E-03,   73.0943E-09
C:/temp/dataset/6/21_18.odb,Step-1,Increment      1: Step Time =    1.000,"PART-1-1",           392,      -6.24133,       19.9816,            0.,NA,NA,"",   471.951E-03,   464.332E-03,   84.4587E-03,   77.7168E-09
C:/temp/dataset/6/21_18.odb,Step-1,Increment      1: Step Time =    1.000,"PART-1-1",           393,           -5.,        20.625,            0.,NA,NA,"",   472.610E-03,   465.358E-03,   82.4761E-03,   8.88005E-09
C:/temp/dataset/6/21_18.odb,Step-1,Increment      1: Step Time =    1.000,"PART-1-1",           394,      -12.9370,       8.81410,            0.,NA,NA,"",   456.522E-03,   446.492E-03,   95.1672E-03,   9.16731E-06
C:/temp/dataset/6/21_18.odb,Step-1,Increment      1: Step Time =    1.000,"PART-1-1",           395,          -15.,          8.75,            0.,NA,NA,"",   457.123E-03,   446.388E-03,   98.4841E-03,   3.86599E-06
C:/temp/dataset/6/21_18.odb,Step-1,Increment      1: Step Time =    1.000,"PART-1-1",           396,      -13.9287,       7.51992,            0.,NA,NA,"",   454.809E-03,   444.397E-03,   96.7611E-03,   11.0080E-06
C:/temp/dataset/6/21_18.odb,Step-1,Increment      1: Step Time =    1.000,"PART-1-1",           397,          -15.,          1.25,            0.,NA,NA,"",   445.459E-03,   434.498E-03,   98.2108E-03,   33.5419E-06
C:/temp/dataset/6/21_18.odb,Step-1,Increment      1: Step Time =    1.000,"PART-1-1",           398,      -13.9023,  -59.1614E-03,            0.,NA,NA,"",   443.404E-03,   432.747E-03,   96.6294E-03,   183.363E-06
C:/temp/dataset/6/21_18.odb,Step-1,Increment      1: Step Time =    1.000,"PART-1-1",           399,      -12.7542,       1.08470,            0.,NA,NA,"",   444.412E-03,   434.187E-03,   94.7851E-03,   199.519E-06
C:/temp/dataset/6/21_18.odb,Step-1,Increment      1: Step Time =    1.000,"PART-1-1",           400,          -15.,         -1.25,            0.,NA,NA,"",   442.363E-03,   431.311E-03,   98.2616E-03,   261.815E-06
C:/temp/dataset/6/21_18.odb,Step-1,Increment      1: Step Time =    1.000,"PART-1-1",           401,      -13.9820,      -2.43756,            0.,NA,NA,"",   441.087E-03,   430.236E-03,   97.2375E-03,   594.947E-06
C:/temp/dataset/6/21_18.odb,Step-1,Increment      1: Step Time =    1.000,"PART-1-1",           402,      -12.8843,      -1.24672,            0.,NA,NA,"",   441.749E-03,   431.409E-03,   95.0157E-03,   621.419E-06
C:/temp/dataset/6/21_18.odb,Step-1,Increment      1: Step Time =    1.000,"PART-1-1",           403,      -12.3802,      -13.7897,            0.,NA,NA,"",   422.480E-03,   407.447E-03,   111.699E-03,   5.98732E-03
C:/temp/dataset/6/21_18.odb,Step-1,Increment      1: Step Time =    1.000,"PART-1-1",           404,      -13.6672,      -12.5056,            0.,NA,NA,"",   425.582E-03,   409.621E-03,   115.458E-03,   4.49243E-03
C:/temp/dataset/6/21_18.odb,Step-1,Increment      1: Step Time =    1.000,"PART-1-1",           405,          -15.,        -13.75,            0.,NA,NA,"",   422.297E-03,   403.856E-03,   123.431E-03,   4.36813E-03
C:/temp/dataset/6/21_18.odb,Step-1,Increment      1: Step Time =    1.000,"PART-1-1",           406,      -13.7130,      -15.0341,            0.,NA,NA,"",   428.378E-03,   409.129E-03,   126.969E-03,   10.0133E-03
C:/temp/dataset/6/21_18.odb,Step-1,Increment      1: Step Time =    1.000,"PART-1-1",           407,       9.21271,      -3.58583,            0.,NA,NA,"",   377.451E-03,   377.272E-03,  -11.6362E-03,   1.62674E-03
C:/temp/dataset/6/21_18.odb,Step-1,Increment      1: Step Time =    1.000,"PART-1-1",           408,       7.90749,      -3.82305,            0.,NA,NA,"",   376.265E-03,   376.219E-03,   5.86605E-03,   2.36324E-03
C:/temp/dataset/6/21_18.odb,Step-1,Increment      1: Step Time =    1.000,"PART-1-1",           409,       8.15132,      -5.16923,            0.,NA,NA,"",   355.270E-03,   355.264E-03,   2.00307E-03,   2.81122E-03
C:/temp/dataset/6/21_18.odb,Step-1,Increment      1: Step Time =    1.000,"PART-1-1",           410,       9.45655,      -4.93201,            0.,NA,NA,"",   357.307E-03,   356.956E-03,  -15.8252E-03,   1.87826E-03
C:/temp/dataset/6/21_18.odb,Step-1,Increment      1: Step Time =    1.000,"PART-1-1",           411,       6.91243,      -16.0318,            0.,NA,NA,"",   157.702E-03,   156.359E-03,   20.5375E-03,   3.14122E-03
C:/temp/dataset/6/21_18.odb,Step-1,Increment      1: Step Time =    1.000,"PART-1-1",           412,       5.96229,      -14.9858,            0.,NA,NA,"",   179.096E-03,   175.388E-03,   36.2572E-03,   2.43319E-03
C:/temp/dataset/6/21_18.odb,Step-1,Increment      1: Step Time =    1.000,"PART-1-1",           413,            5.,      -16.2875,            0.,NA,NA,"",   162.284E-03,   154.904E-03,   48.3792E-03,   3.94755E-03
C:/temp/dataset/6/21_18.odb,Step-1,Increment      1: Step Time =    1.000,"PART-1-1",           414,       6.93910,      -13.7291,            0.,NA,NA,"",   198.090E-03,   196.777E-03,   22.7775E-03,   2.13699E-03
C:/temp/dataset/6/21_18.odb,Step-1,Increment      1: Step Time =    1.000,"PART-1-1",           415,       5.97681,      -12.5371,            0.,NA,NA,"",   222.329E-03,   218.895E-03,   38.9239E-03,   1.27448E-03
C:/temp/dataset/6/21_18.odb,Step-1,Increment      1: Step Time =    1.000,"PART-1-1",           416,            5.,      -13.7937,            0.,NA,NA,"",   204.456E-03,   197.148E-03,   54.1739E-03,   2.03028E-03
C:/temp/dataset/6/21_18.odb,Step-1,Increment      1: Step Time =    1.000,"PART-1-1",           417,         -1.25,          -20.,            0.,NA,NA,"",   118.298E-03,   118.264E-03,   2.83310E-03,   12.0925E-03
C:/temp/dataset/6/21_18.odb,Step-1,Increment      1: Step Time =    1.000,"PART-1-1",           418,      -1.09514,      -22.7401,            0.,NA,NA,"",   105.306E-03,   104.992E-03,  -8.12762E-03,   12.6401E-03
C:/temp/dataset/6/21_18.odb,Step-1,Increment      1: Step Time =    1.000,"PART-1-1",           419,   141.566E-03,      -21.4393,            0.,NA,NA,"",   106.131E-03,   106.128E-03,   871.319E-06,   8.38090E-03
C:/temp/dataset/6/21_18.odb,Step-1,Increment      1: Step Time =    1.000,"PART-1-1",           420,      -7.69236,      -25.1479,            0.,NA,NA,"",   87.7861E-03,   87.7613E-03,  -2.08946E-03,   12.0441E-03
C:/temp/dataset/6/21_18.odb,Step-1,Increment      1: Step Time =    1.000,"PART-1-1",           421,      -9.18951,      -25.9970,            0.,NA,NA,"",   71.8699E-03,   71.6815E-03,   5.20094E-03,   12.0118E-03
C:/temp/dataset/6/21_18.odb,Step-1,Increment      1: Step Time =    1.000,"PART-1-1",           422,      -8.56598,      -27.1897,            0.,NA,NA,"",   44.3859E-03,   44.3822E-03,   574.614E-06,   10.7963E-03
C:/temp/dataset/6/21_18.odb,Step-1,Increment      1: Step Time =    1.000,"PART-1-1",           423,      -7.06883,      -26.3407,            0.,NA,NA,"",   60.6567E-03,   60.4571E-03,  -4.91769E-03,   10.9744E-03
C:/temp/dataset/6/21_18.odb,Step-1,Increment      1: Step Time =    1.000,"PART-1-1",           424,      -9.82073,      -13.8964,            0.,NA,NA,"",   408.940E-03,   400.353E-03,   83.3643E-03,   3.47856E-03
C:/temp/dataset/6/21_18.odb,Step-1,Increment      1: Step Time =    1.000,"PART-1-1",           425,      -8.65586,      -15.1239,            0.,NA,NA,"",   386.272E-03,   380.756E-03,   65.0462E-03,   4.99052E-03
C:/temp/dataset/6/21_18.odb,Step-1,Increment      1: Step Time =    1.000,"PART-1-1",           426,      -8.53523,      -12.6467,            0.,NA,NA,"",   414.457E-03,   408.496E-03,   70.0433E-03,   3.65485E-03
C:/temp/dataset/6/21_18.odb,Step-1,Increment      1: Step Time =    1.000,"PART-1-1",           427,      -6.09243,      -10.1071,            0.,NA,NA,"",   421.760E-03,   417.982E-03,   56.3300E-03,   5.62065E-03
C:/temp/dataset/6/21_18.odb,Step-1,Increment      1: Step Time =    1.000,"PART-1-1",           428,           -5.,      -8.71250,            0.,NA,NA,"",   423.550E-03,   419.430E-03,   58.9333E-03,   6.02159E-03
C:/temp/dataset/6/21_18.odb,Step-1,Increment      1: Step Time =    1.000,"PART-1-1",           429,      -6.07322,      -7.75598,            0.,NA,NA,"",   428.560E-03,   423.420E-03,   66.1771E-03,   4.04636E-03
C:/temp/dataset/6/21_18.odb,Step-1,Increment      1: Step Time =    1.000,"PART-1-1",           430,      -12.7270,      -6.06323,            0.,NA,NA,"",   438.456E-03,   427.640E-03,   96.7865E-03,   1.94697E-03
C:/temp/dataset/6/21_18.odb,Step-1,Increment      1: Step Time =    1.000,"PART-1-1",           431,      -13.8025,      -4.90646,            0.,NA,NA,"",   439.413E-03,   428.201E-03,   98.6264E-03,   1.39030E-03
C:/temp/dataset/6/21_18.odb,Step-1,Increment      1: Step Time =    1.000,"PART-1-1",           432,          -15.,         -6.25,            0.,NA,NA,"",   438.014E-03,   425.760E-03,   102.881E-03,   2.15986E-03
C:/temp/dataset/6/21_18.odb,Step-1,Increment      1: Step Time =    1.000,"PART-1-1",           433,      -13.9244,      -7.40677,            0.,NA,NA,"",   437.156E-03,   424.934E-03,   102.646E-03,   2.35324E-03
C:/temp/dataset/6/21_18.odb,Step-1,Increment      1: Step Time =    1.000,"PART-1-1",           434,       1.60591,      -1.50045,            0.,NA,NA,"",   415.948E-03,   411.273E-03,   62.1880E-03,   2.66167E-03
C:/temp/dataset/6/21_18.odb,Step-1,Increment      1: Step Time =    1.000,"PART-1-1",           435,  -853.298E-03,      -1.92043,            0.,NA,NA,"",   419.961E-03,   413.763E-03,   71.8859E-03,   2.58872E-03
C:/temp/dataset/6/21_18.odb,Step-1,Increment      1: Step Time =    1.000,"PART-1-1",           436,         13.75,          -30.,            0.,NA,NA,"",            0.,   1.70648E-39,  -14.1155E-39,   10.6821E-03
C:/temp/dataset/6/21_18.odb,Step-1,Increment      1: Step Time =    1.000,"PART-1-1",           437,           15.,      -28.9063,            0.,NA,NA,"",   19.2196E-03,   14.2827E-03,  -12.8606E-03,   12.2752E-03
C:/temp/dataset/6/21_18.odb,Step-1,Increment      1: Step Time =    1.000,"PART-1-1",           438,       13.8103,      -27.8746,            0.,NA,NA,"",   24.7704E-03,   20.2281E-03,  -14.2967E-03,   8.05902E-03
C:/temp/dataset/6/21_18.odb,Step-1,Increment      1: Step Time =    1.000,"PART-1-1",           439,       12.5603,      -28.9683,            0.,NA,NA,"",   8.57778E-03,   7.35475E-03,  -4.41429E-03,   6.65091E-03
C:/temp/dataset/6/21_18.odb,Step-1,Increment      1: Step Time =    1.000,"PART-1-1",           440,       12.6598,      -26.8678,            0.,NA,NA,"",   31.6765E-03,   28.0404E-03,  -14.7355E-03,   6.46023E-03
C:/temp/dataset/6/21_18.odb,Step-1,Increment      1: Step Time =    1.000,"PART-1-1",           441,       11.5501,      -25.8632,            0.,NA,NA,"",   39.0409E-03,   36.7266E-03,  -13.2421E-03,   4.89169E-03
C:/temp/dataset/6/21_18.odb,Step-1,Increment      1: Step Time =    1.000,"PART-1-1",           442,       10.3093,      -26.9762,            0.,NA,NA,"",   26.1710E-03,   25.5295E-03,  -5.75883E-03,   5.12490E-03
C:/temp/dataset/6/21_18.odb,Step-1,Increment      1: Step Time =    1.000,"PART-1-1",           443,       11.4189,      -27.9808,            0.,NA,NA,"",   17.1388E-03,   16.0697E-03,  -5.95846E-03,   6.13751E-03
C:/temp/dataset/6/21_18.odb,Step-1,Increment      1: Step Time =    1.000,"PART-1-1",           444,       10.1086,      -29.0125,            0.,NA,NA,"",   7.51579E-03,   7.25562E-03,  -1.96039E-03,   5.24758E-03
C:/temp/dataset/6/21_18.odb,Step-1,Increment      1: Step Time =    1.000,"PART-1-1",           445,       9.01957,      -28.0513,            0.,NA,NA,"",   16.4675E-03,   16.3364E-03,  -2.07365E-03,   5.67968E-03
C:/temp/dataset/6/21_18.odb,Step-1,Increment      1: Step Time =    1.000,"PART-1-1",           446,          8.75,          -30.,            0.,NA,NA,"",            0.,   4.68728E-39,  -3.63159E-39,   5.34261E-03
C:/temp/dataset/6/21_18.odb,Step-1,Increment      1: Step Time =    1.000,"PART-1-1",           447,       4.20973,      -27.9354,            0.,NA,NA,"",   25.6301E-03,   25.6295E-03,  -168.957E-06,   8.31289E-03
C:/temp/dataset/6/21_18.odb,Step-1,Increment      1: Step Time =    1.000,"PART-1-1",           448,       2.74203,      -28.9082,            0.,NA,NA,"",   15.3086E-03,   15.2791E-03,  -951.054E-06,   9.19386E-03
C:/temp/dataset/6/21_18.odb,Step-1,Increment      1: Step Time =    1.000,"PART-1-1",           449,          3.75,          -30.,            0.,NA,NA,"",            0.,   8.27432E-39,  -2.47480E-39,   8.59441E-03
C:/temp/dataset/6/21_18.odb,Step-1,Increment      1: Step Time =    1.000,"PART-1-1",           450,       1.16266,      -25.9573,            0.,NA,NA,"",   57.6859E-03,   57.6077E-03,  -3.00347E-03,   10.3040E-03
C:/temp/dataset/6/21_18.odb,Step-1,Increment      1: Step Time =    1.000,"PART-1-1",           451,       1.65415,      -27.4536,            0.,NA,NA,"",   36.6370E-03,   36.5707E-03,  -2.20418E-03,   9.81740E-03
C:/temp/dataset/6/21_18.odb,Step-1,Increment      1: Step Time =    1.000,"PART-1-1",           452,       3.39879,      -26.8461,            0.,NA,NA,"",   40.6698E-03,   40.6693E-03,   188.269E-06,   8.99662E-03
C:/temp/dataset/6/21_18.odb,Step-1,Increment      1: Step Time =    1.000,"PART-1-1",           453,       2.90730,      -25.3498,            0.,NA,NA,"",   59.9051E-03,   59.8868E-03,   1.47904E-03,   9.46453E-03
C:/temp/dataset/6/21_18.odb,Step-1,Increment      1: Step Time =    1.000,"PART-1-1",           454,      -3.67645,      -27.5530,            0.,NA,NA,"",   39.1694E-03,   38.4891E-03,  -7.26841E-03,   11.1333E-03
C:/temp/dataset/6/21_18.odb,Step-1,Increment      1: Step Time =    1.000,"PART-1-1",           455,      -2.54816,      -26.3074,            0.,NA,NA,"",   59.5695E-03,   58.6928E-03,  -10.1828E-03,   11.7409E-03
C:/temp/dataset/6/21_18.odb,Step-1,Increment      1: Step Time =    1.000,"PART-1-1",           456,      -3.72120,      -25.1278,            0.,NA,NA,"",   80.6482E-03,   79.4812E-03,  -13.6699E-03,   12.1409E-03
C:/temp/dataset/6/21_18.odb,Step-1,Increment      1: Step Time =    1.000,"PART-1-1",           457,      -4.84948,      -26.3734,            0.,NA,NA,"",   59.4276E-03,   58.5467E-03,  -10.1942E-03,   11.3876E-03
C:/temp/dataset/6/21_18.odb,Step-1,Increment      1: Step Time =    1.000,"PART-1-1",           458,      -4.94498,      -28.7931,            0.,NA,NA,"",   18.1201E-03,   17.8490E-03,  -3.12292E-03,   10.2362E-03
C:/temp/dataset/6/21_18.odb,Step-1,Increment      1: Step Time =    1.000,"PART-1-1",           459,         -3.75,          -30.,            0.,NA,NA,"",            0.,   9.24662E-39,  -6.33541E-39,   10.1287E-03
C:/temp/dataset/6/21_18.odb,Step-1,Increment      1: Step Time =    1.000,"PART-1-1",           460,      -6.07748,      -27.5364,            0.,NA,NA,"",   38.0762E-03,   37.6898E-03,  -5.41045E-03,   10.6113E-03
C:/temp/dataset/6/21_18.odb,Step-1,Increment      1: Step Time =    1.000,"PART-1-1",           461,      -7.38250,      -28.7433,            0.,NA,NA,"",   17.2834E-03,   17.2309E-03,  -1.34567E-03,   9.09701E-03
C:/temp/dataset/6/21_18.odb,Step-1,Increment      1: Step Time =    1.000,"PART-1-1",           462,         -6.25,          -30.,            0.,NA,NA,"",            0.,   8.15237E-39,  -4.03870E-39,   8.67006E-03
C:/temp/dataset/6/21_18.odb,Step-1,Increment      1: Step Time =    1.000,"PART-1-1",           463,      -8.77755,      -24.1806,            0.,NA,NA,"",   117.821E-03,   117.574E-03,   7.61766E-03,   14.4885E-03
C:/temp/dataset/6/21_18.odb,Step-1,Increment      1: Step Time =    1.000,"PART-1-1",           464,      -9.92276,      -23.8066,            0.,NA,NA,"",   137.506E-03,   136.116E-03,   19.4991E-03,   16.2055E-03
C:/temp/dataset/6/21_18.odb,Step-1,Increment      1: Step Time =    1.000,"PART-1-1",           465,      -10.3347,      -25.6230,            0.,NA,NA,"",   86.1353E-03,   84.8563E-03,   14.7886E-03,   13.3946E-03
C:/temp/dataset/6/21_18.odb,Step-1,Increment      1: Step Time =    1.000,"PART-1-1",           466,       13.9544,      -21.3085,            0.,NA,NA,"",   102.013E-03,   88.3094E-03,  -51.0686E-03,   4.84671E-03
C:/temp/dataset/6/21_18.odb,Step-1,Increment      1: Step Time =    1.000,"PART-1-1",           467,       13.8855,      -23.5136,            0.,NA,NA,"",   75.9563E-03,   64.4352E-03,  -40.2178E-03,   5.25244E-03
C:/temp/dataset/6/21_18.odb,Step-1,Increment      1: Step Time =    1.000,"PART-1-1",           468,           15.,      -22.3438,            0.,NA,NA,"",   97.9669E-03,   79.3619E-03,  -57.4387E-03,   5.84445E-03
C:/temp/dataset/6/21_18.odb,Step-1,Increment      1: Step Time =    1.000,"PART-1-1",           469,       12.7349,      -24.6944,            0.,NA,NA,"",   55.9552E-03,   50.0813E-03,  -24.9568E-03,   5.11466E-03
C:/temp/dataset/6/21_18.odb,Step-1,Increment      1: Step Time =    1.000,"PART-1-1",           470,       13.8494,      -25.7120,            0.,NA,NA,"",   51.2849E-03,   42.5394E-03,  -28.6451E-03,   6.16448E-03
C:/temp/dataset/6/21_18.odb,Step-1,Increment      1: Step Time =    1.000,"PART-1-1",           471,           15.,      -24.5313,            0.,NA,NA,"",   73.0290E-03,   57.0719E-03,  -45.5635E-03,   6.34782E-03
C:/temp/dataset/6/21_18.odb,Step-1,Increment      1: Step Time =    1.000,"PART-1-1",           472,         11.25,          -30.,            0.,NA,NA,"",            0.,   3.81289E-39,  -7.43065E-39,   5.35617E-03
C:/temp/dataset/6/21_18.odb,Step-1,Increment      1: Step Time =    1.000,"PART-1-1",           473,       13.9950,      -12.5232,            0.,NA,NA,"",   234.564E-03,   220.262E-03,  -80.6531E-03,   1.94735E-03
C:/temp/dataset/6/21_18.odb,Step-1,Increment      1: Step Time =    1.000,"PART-1-1",           474,       12.9942,      -13.6844,            0.,NA,NA,"",   208.625E-03,   198.890E-03,  -62.9851E-03,   2.59528E-03
C:/temp/dataset/6/21_18.odb,Step-1,Increment      1: Step Time =    1.000,"PART-1-1",           475,           15.,      -13.5938,            0.,NA,NA,"",   223.596E-03,   202.265E-03,  -95.3105E-03,   2.65374E-03
C:/temp/dataset/6/21_18.odb,Step-1,Increment      1: Step Time =    1.000,"PART-1-1",           476,       9.85236,      -17.2546,            0.,NA,NA,"",   137.328E-03,   136.411E-03,  -15.8409E-03,   2.82798E-03
C:/temp/dataset/6/21_18.odb,Step-1,Increment      1: Step Time =    1.000,"PART-1-1",           477,       8.68427,      -17.7513,            0.,NA,NA,"",   127.984E-03,   127.965E-03,  -2.20269E-03,   2.90333E-03
C:/temp/dataset/6/21_18.odb,Step-1,Increment      1: Step Time =    1.000,"PART-1-1",           478,       8.96140,      -18.9835,            0.,NA,NA,"",   110.483E-03,   110.383E-03,  -4.70029E-03,   2.58789E-03
C:/temp/dataset/6/21_18.odb,Step-1,Increment      1: Step Time =    1.000,"PART-1-1",           479,       10.1295,      -18.4868,            0.,NA,NA,"",   119.555E-03,   118.279E-03,  -17.4211E-03,   2.64044E-03
C:/temp/dataset/6/21_18.odb,Step-1,Increment      1: Step Time =    1.000,"PART-1-1",           480,       11.2436,      -18.3856,            0.,NA,NA,"",   124.642E-03,   120.973E-03,  -30.0194E-03,   2.94067E-03
C:/temp/dataset/6/21_18.odb,Step-1,Increment      1: Step Time =    1.000,"PART-1-1",           481,       12.3956,      -19.2305,            0.,NA,NA,"",   118.370E-03,   110.997E-03,  -41.1248E-03,   3.45654E-03
C:/temp/dataset/6/21_18.odb,Step-1,Increment      1: Step Time =    1.000,"PART-1-1",           482,       13.1120,      -18.1414,            0.,NA,NA,"",   137.785E-03,   127.085E-03,  -53.2363E-03,   3.62056E-03
C:/temp/dataset/6/21_18.odb,Step-1,Increment      1: Step Time =    1.000,"PART-1-1",           483,       11.9600,      -17.2965,            0.,NA,NA,"",   143.909E-03,   137.924E-03,  -41.0681E-03,   3.06315E-03
C:/temp/dataset/6/21_18.odb,Step-1,Increment      1: Step Time =    1.000,"PART-1-1",           484,       14.0024,      -3.77677,            0.,NA,NA,"",   377.767E-03,   369.418E-03,  -78.9834E-03,   1.78604E-03
C:/temp/dataset/6/21_18.odb,Step-1,Increment      1: Step Time =    1.000,"PART-1-1",           485,       13.0359,      -4.87313,            0.,NA,NA,"",   360.181E-03,   354.021E-03,  -66.3269E-03,   1.23191E-03
C:/temp/dataset/6/21_18.odb,Step-1,Increment      1: Step Time =    1.000,"PART-1-1",           486,       14.0335,      -5.94012,            0.,NA,NA,"",   346.353E-03,   336.435E-03,  -82.2905E-03,   1.56750E-03
C:/temp/dataset/6/21_18.odb,Step-1,Increment      1: Step Time =    1.000,"PART-1-1",           487,           15.,      -4.84375,            0.,NA,NA,"",   365.336E-03,   352.666E-03,  -95.3798E-03,   2.19535E-03
C:/temp/dataset/6/21_18.odb,Step-1,Increment      1: Step Time =    1.000,"PART-1-1",           488,       13.0510,      -7.01836,            0.,NA,NA,"",   326.353E-03,   319.155E-03,  -68.1650E-03,   1.44511E-03
C:/temp/dataset/6/21_18.odb,Step-1,Increment      1: Step Time =    1.000,"PART-1-1",           489,       14.0175,      -8.10950,            0.,NA,NA,"",   311.245E-03,   299.768E-03,  -83.7427E-03,   1.06865E-03
C:/temp/dataset/6/21_18.odb,Step-1,Increment      1: Step Time =    1.000,"PART-1-1",           490,           15.,      -7.03125,            0.,NA,NA,"",   332.749E-03,   317.663E-03,  -99.0567E-03,   1.50104E-03
C:/temp/dataset/6/21_18.odb,Step-1,Increment      1: Step Time =    1.000,"PART-1-1",           491,         13.75,            5.,            0.,NA,NA,"",   482.517E-03,   477.438E-03,  -69.8212E-03,   108.699E-06
C:/temp/dataset/6/21_18.odb,Step-1,Increment      1: Step Time =    1.000,"PART-1-1",           492,       12.4982,       3.90020,            0.,NA,NA,"",   466.986E-03,   463.863E-03,  -53.9170E-03,   580.305E-06
C:/temp/dataset/6/21_18.odb,Step-1,Increment      1: Step Time =    1.000,"PART-1-1",           493,       13.7482,       2.80645,            0.,NA,NA,"",   456.311E-03,   450.945E-03,  -69.7702E-03,   555.663E-06
C:/temp/dataset/6/21_18.odb,Step-1,Increment      1: Step Time =    1.000,"PART-1-1",           494,           15.,       3.90625,            0.,NA,NA,"",   471.715E-03,   463.975E-03,  -85.1012E-03,   95.3325E-06
C:/temp/dataset/6/21_18.odb,Step-1,Increment      1: Step Time =    1.000,"PART-1-1",           495,         11.25,            5.,            0.,NA,NA,"",   478.424E-03,   476.892E-03,  -38.2499E-03,   849.724E-06
C:/temp/dataset/6/21_18.odb,Step-1,Increment      1: Step Time =    1.000,"PART-1-1",           496,       11.2740,       2.82937,            0.,NA,NA,"",   452.631E-03,   451.047E-03,  -37.8362E-03,   1.26103E-03
C:/temp/dataset/6/21_18.odb,Step-1,Increment      1: Step Time =    1.000,"PART-1-1",           497,       11.1422,   446.578E-03,            0.,NA,NA,"",   425.996E-03,   424.460E-03,  -36.1488E-03,   1.53611E-03
C:/temp/dataset/6/21_18.odb,Step-1,Increment      1: Step Time =    1.000,"PART-1-1",           498,       10.2035,  -836.101E-03,            0.,NA,NA,"",   411.069E-03,   410.379E-03,  -23.8123E-03,   1.45961E-03
C:/temp/dataset/6/21_18.odb,Step-1,Increment      1: Step Time =    1.000,"PART-1-1",           499,       11.7017,      -1.82731,            0.,NA,NA,"",   399.960E-03,   397.436E-03,  -44.8614E-03,   1.32387E-03
C:/temp/dataset/6/21_18.odb,Step-1,Increment      1: Step Time =    1.000,"PART-1-1",           500,       12.5035,       1.67834,            0.,NA,NA,"",   441.401E-03,   438.085E-03,  -54.0041E-03,   1.20464E-03
C:/temp/dataset/6/21_18.odb,Step-1,Increment      1: Step Time =    1.000,"PART-1-1",           501,       9.91277,       1.59761,            0.,NA,NA,"",   437.584E-03,   437.138E-03,  -19.7516E-03,   1.55804E-03
C:/temp/dataset/6/21_18.odb,Step-1,Increment      1: Step Time =    1.000,"PART-1-1",           502,       5.19643,       3.92738,            0.,NA,NA,"",   456.703E-03,   455.490E-03,   33.2593E-03,   2.42547E-03
C:/temp/dataset/6/21_18.odb,Step-1,Increment      1: Step Time =    1.000,"PART-1-1",           503,          3.75,            5.,            0.,NA,NA,"",   463.098E-03,   460.963E-03,   44.4138E-03,   3.32285E-03
C:/temp/dataset/6/21_18.odb,Step-1,Increment      1: Step Time =    1.000,"PART-1-1",           504,       2.66615,       3.61346,            0.,NA,NA,"",   451.218E-03,   447.952E-03,   54.1943E-03,   2.16312E-03
C:/temp/dataset/6/21_18.odb,Step-1,Increment      1: Step Time =    1.000,"PART-1-1",           505,      -1.00804,       2.95894,            0.,NA,NA,"",   445.034E-03,   438.953E-03,   73.3231E-03,   1.33042E-03
C:/temp/dataset/6/21_18.odb,Step-1,Increment      1: Step Time =    1.000,"PART-1-1",           506,   87.8012E-03,       3.95476,            0.,NA,NA,"",   450.591E-03,   445.389E-03,   68.2701E-03,   2.02990E-03
C:/temp/dataset/6/21_18.odb,Step-1,Increment      1: Step Time =    1.000,"PART-1-1",           507,         -1.25,            5.,            0.,NA,NA,"",   453.247E-03,   447.394E-03,   72.6052E-03,   2.35219E-03
C:/temp/dataset/6/21_18.odb,Step-1,Increment      1: Step Time =    1.000,"PART-1-1",           508,      -2.34584,       4.00418,            0.,NA,NA,"",   448.593E-03,   441.937E-03,   76.9917E-03,   1.46785E-03
C:/temp/dataset/6/21_18.odb,Step-1,Increment      1: Step Time =    1.000,"PART-1-1",           509,      -3.27281,       2.96378,            0.,NA,NA,"",   444.575E-03,   437.357E-03,   79.7873E-03,   1.09843E-03
C:/temp/dataset/6/21_18.odb,Step-1,Increment      1: Step Time =    1.000,"PART-1-1",           510,         -3.75,            5.,            0.,NA,NA,"",   450.160E-03,   443.005E-03,   79.9426E-03,   1.57578E-03
C:/temp/dataset/6/21_18.odb,Step-1,Increment      1: Step Time =    1.000,"PART-1-1",           511,      -4.67697,       3.95960,            0.,NA,NA,"",   447.284E-03,   439.629E-03,   82.3973E-03,   805.576E-06
C:/temp/dataset/6/21_18.odb,Step-1,Increment      1: Step Time =    1.000,"PART-1-1",           512,      -7.93004,       8.58536,            0.,NA,NA,"",   454.597E-03,   446.164E-03,   87.1527E-03,   14.8191E-06
C:/temp/dataset/6/21_18.odb,Step-1,Increment      1: Step Time =    1.000,"PART-1-1",           513,      -8.65034,       7.25415,            0.,NA,NA,"",   452.751E-03,   444.055E-03,   88.3115E-03,   53.6608E-06
C:/temp/dataset/6/21_18.odb,Step-1,Increment      1: Step Time =    1.000,"PART-1-1",           514,      -7.51010,       6.50150,            0.,NA,NA,"",   451.288E-03,   442.922E-03,   86.4923E-03,   75.3388E-06
C:/temp/dataset/6/21_18.odb,Step-1,Increment      1: Step Time =    1.000,"PART-1-1",           515,      -6.78981,       7.83270,            0.,NA,NA,"",   453.105E-03,   444.995E-03,   85.3438E-03,   28.0579E-06
C:/temp/dataset/6/21_18.odb,Step-1,Increment      1: Step Time =    1.000,"PART-1-1",           516,      -7.08495,       12.0475,            0.,NA,NA,"",   459.744E-03,   451.664E-03,   85.8148E-03,   4.50748E-06
C:/temp/dataset/6/21_18.odb,Step-1,Increment      1: Step Time =    1.000,"PART-1-1",           517,      -6.02998,       11.1050,            0.,NA,NA,"",   457.957E-03,   450.161E-03,   84.1418E-03,   4.63503E-06
C:/temp/dataset/6/21_18.odb,Step-1,Increment      1: Step Time =    1.000,"PART-1-1",           518,           -5.,       12.2917,            0.,NA,NA,"",   459.519E-03,   452.053E-03,   82.4961E-03,   5.81216E-06
C:/temp/dataset/6/21_18.odb,Step-1,Increment      1: Step Time =    1.000,"PART-1-1",           519,      -6.05497,       13.2342,            0.,NA,NA,"",   461.302E-03,   453.557E-03,   84.1732E-03,   2.62932E-06
C:/temp/dataset/6/21_18.odb,Step-1,Increment      1: Step Time =    1.000,"PART-1-1",           520,      -9.96524,       21.0498,            0.,NA,NA,"",   474.730E-03,   466.043E-03,   90.4022E-03,   122.600E-09
C:/temp/dataset/6/21_18.odb,Step-1,Increment      1: Step Time =    1.000,"PART-1-1",           521,      -8.51702,       20.1362,            0.,NA,NA,"",   472.860E-03,   464.582E-03,   88.0914E-03,   147.008E-09
C:/temp/dataset/6/21_18.odb,Step-1,Increment      1: Step Time =    1.000,"PART-1-1",           522,      -8.09442,       21.6565,            0.,NA,NA,"",   475.119E-03,   467.009E-03,   87.4149E-03,   69.5402E-09
C:/temp/dataset/6/21_18.odb,Step-1,Increment      1: Step Time =    1.000,"PART-1-1",           523,      -9.54264,       22.5701,            0.,NA,NA,"",   476.984E-03,   468.469E-03,   89.7256E-03,   30.4045E-09
C:/temp/dataset/6/21_18.odb,Step-1,Increment      1: Step Time =    1.000,"PART-1-1",           524,      -7.38593,       19.0122,            0.,NA,NA,"",   470.761E-03,   462.786E-03,   86.2872E-03,   335.170E-09
C:/temp/dataset/6/21_18.odb,Step-1,Increment      1: Step Time =    1.000,"PART-1-1",           525,      -6.14460,       17.5723,            0.,NA,NA,"",   468.139E-03,   460.485E-03,   84.3076E-03,   352.655E-09
C:/temp/dataset/6/21_18.odb,Step-1,Increment      1: Step Time =    1.000,"PART-1-1",           526,           -5.,       18.5417,            0.,NA,NA,"",   469.336E-03,   462.032E-03,   82.4789E-03,   193.695E-09
C:/temp/dataset/6/21_18.odb,Step-1,Increment      1: Step Time =    1.000,"PART-1-1",           527,      -9.12859,       24.1056,            0.,NA,NA,"",   479.268E-03,   470.920E-03,   89.0627E-03,   12.7917E-09
C:/temp/dataset/6/21_18.odb,Step-1,Increment      1: Step Time =    1.000,"PART-1-1",           528,      -7.82088,       23.2603,            0.,NA,NA,"",   477.556E-03,   469.569E-03,   86.9762E-03,   12.5419E-09
C:/temp/dataset/6/21_18.odb,Step-1,Increment      1: Step Time =    1.000,"PART-1-1",           529,      -7.11221,       24.6459,            0.,NA,NA,"",   479.526E-03,   471.780E-03,   85.8431E-03,   7.55877E-09
C:/temp/dataset/6/21_18.odb,Step-1,Increment      1: Step Time =    1.000,"PART-1-1",           530,      -8.41993,       25.4912,            0.,NA,NA,"",   481.232E-03,   473.131E-03,   87.9296E-03,   8.30943E-09
C:/temp/dataset/6/21_18.odb,Step-1,Increment      1: Step Time =    1.000,"PART-1-1",           531,           -5.,       28.9583,            0.,NA,NA,"",   485.713E-03,   478.661E-03,   82.4657E-03,   1.48876E-09
C:/temp/dataset/6/21_18.odb,Step-1,Increment      1: Step Time =    1.000,"PART-1-1",           532,         -6.25,           30.,            0.,NA,NA,"",   487.695E-03,   480.326E-03,   84.4598E-03,   1.54026E-09
C:/temp/dataset/6/21_18.odb,Step-1,Increment      1: Step Time =    1.000,"PART-1-1",           533,      -6.22481,       27.8751,            0.,NA,NA,"",   484.348E-03,   476.934E-03,   84.4223E-03,   5.25680E-09
C:/temp/dataset/6/21_18.odb,Step-1,Increment      1: Step Time =    1.000,"PART-1-1",           534,      -11.1386,       27.5393,            0.,NA,NA,"",   485.257E-03,   476.404E-03,   92.2670E-03,   6.59503E-09
C:/temp/dataset/6/21_18.odb,Step-1,Increment      1: Step Time =    1.000,"PART-1-1",           535,        -11.25,           30.,            0.,NA,NA,"",   489.147E-03,   480.332E-03,   92.4417E-03,   6.82218E-09
C:/temp/dataset/6/21_18.odb,Step-1,Increment      1: Step Time =    1.000,"PART-1-1",           536,      -13.1147,       13.7606,            0.,NA,NA,"",   464.328E-03,   454.414E-03,   95.4398E-03,   2.11863E-06
C:/temp/dataset/6/21_18.odb,Step-1,Increment      1: Step Time =    1.000,"PART-1-1",           537,      -14.0658,       14.9906,            0.,NA,NA,"",   466.563E-03,   456.378E-03,   96.9574E-03,   1.19934E-06
C:/temp/dataset/6/21_18.odb,Step-1,Increment      1: Step Time =    1.000,"PART-1-1",           538,          -15.,         13.75,            0.,NA,NA,"",   464.941E-03,   454.398E-03,   98.4528E-03,   2.64877E-06
C:/temp/dataset/6/21_18.odb,Step-1,Increment      1: Step Time =    1.000,"PART-1-1",           539,      -9.42834,       18.6970,            0.,NA,NA,"",   470.879E-03,   462.286E-03,   89.5477E-03,   446.408E-09
C:/temp/dataset/6/21_18.odb,Step-1,Increment      1: Step Time =    1.000,"PART-1-1",           540,      -8.29725,       17.5730,            0.,NA,NA,"",   468.774E-03,   460.489E-03,   87.7434E-03,   574.429E-09
C:/temp/dataset/6/21_18.odb,Step-1,Increment      1: Step Time =    1.000,"PART-1-1",           541,      -12.7588,       6.21303,            0.,NA,NA,"",   452.333E-03,   442.267E-03,   94.8957E-03,   33.9348E-06
C:/temp/dataset/6/21_18.odb,Step-1,Increment      1: Step Time =    1.000,"PART-1-1",           542,          -15.,          6.25,            0.,NA,NA,"",   453.165E-03,   442.335E-03,   98.4827E-03,   18.6772E-06
C:/temp/dataset/6/21_18.odb,Step-1,Increment      1: Step Time =    1.000,"PART-1-1",           543,      -9.01063,       9.47069,            0.,NA,NA,"",   456.305E-03,   447.566E-03,   88.8765E-03,   9.48032E-06
C:/temp/dataset/6/21_18.odb,Step-1,Increment      1: Step Time =    1.000,"PART-1-1",           544,      -10.0811,       10.4578,            0.,NA,NA,"",   458.181E-03,   449.136E-03,   90.5874E-03,   4.18929E-06
C:/temp/dataset/6/21_18.odb,Step-1,Increment      1: Step Time =    1.000,"PART-1-1",           545,      -10.9384,       9.05000,            0.,NA,NA,"",   456.250E-03,   446.885E-03,   91.9634E-03,   11.6298E-06
C:/temp/dataset/6/21_18.odb,Step-1,Increment      1: Step Time =    1.000,"PART-1-1",           546,      -9.86794,       8.06293,            0.,NA,NA,"",   454.372E-03,   445.317E-03,   90.2564E-03,   20.6681E-06
C:/temp/dataset/6/21_18.odb,Step-1,Increment      1: Step Time =    1.000,"PART-1-1",           547,      -7.23366,       1.29985,            0.,NA,NA,"",   441.104E-03,   432.644E-03,   85.9767E-03,   898.152E-06
C:/temp/dataset/6/21_18.odb,Step-1,Increment      1: Step Time =    1.000,"PART-1-1",           548,      -8.34685,   784.410E-03,            0.,NA,NA,"",   440.902E-03,   432.164E-03,   87.3465E-03,   812.170E-06
C:/temp/dataset/6/21_18.odb,Step-1,Increment      1: Step Time =    1.000,"PART-1-1",           549,      -7.43977,  -685.632E-03,            0.,NA,NA,"",   436.725E-03,   428.410E-03,   84.8129E-03,   1.54767E-03
C:/temp/dataset/6/21_18.odb,Step-1,Increment      1: Step Time =    1.000,"PART-1-1",           550,      -12.4903,      -8.57964,            0.,NA,NA,"",   435.508E-03,   424.042E-03,   99.2770E-03,   2.59945E-03
C:/temp/dataset/6/21_18.odb,Step-1,Increment      1: Step Time =    1.000,"PART-1-1",           551,          -15.,         -8.75,            0.,NA,NA,"",   434.458E-03,   420.566E-03,   108.986E-03,   3.21502E-03
C:/temp/dataset/6/21_18.odb,Step-1,Increment      1: Step Time =    1.000,"PART-1-1",           552,      -13.5658,      -9.92286,            0.,NA,NA,"",   432.659E-03,   419.159E-03,   107.236E-03,   3.07605E-03
C:/temp/dataset/6/21_18.odb,Step-1,Increment      1: Step Time =    1.000,"PART-1-1",           553,      -11.9783,      -7.15971,            0.,NA,NA,"",   437.252E-03,   426.806E-03,   95.0036E-03,   2.31142E-03
C:/temp/dataset/6/21_18.odb,Step-1,Increment      1: Step Time =    1.000,"PART-1-1",           554,      -11.8960,      -5.22799,            0.,NA,NA,"",   438.589E-03,   428.552E-03,   93.2941E-03,   1.94925E-03
C:/temp/dataset/6/21_18.odb,Step-1,Increment      1: Step Time =    1.000,"PART-1-1",           555,      -12.4565,      -16.3452,            0.,NA,NA,"",   405.058E-03,   389.877E-03,   109.853E-03,   12.5439E-03
C:/temp/dataset/6/21_18.odb,Step-1,Increment      1: Step Time =    1.000,"PART-1-1",           556,          -15.,        -16.25,            0.,NA,NA,"",   442.053E-03,   421.099E-03,   134.483E-03,   15.3544E-03
C:/temp/dataset/6/21_18.odb,Step-1,Increment      1: Step Time =    1.000,"PART-1-1",           557,      -13.7435,      -17.5611,            0.,NA,NA,"",   405.945E-03,   387.517E-03,   120.923E-03,   16.1881E-03
C:/temp/dataset/6/21_18.odb,Step-1,Increment      1: Step Time =    1.000,"PART-1-1",           558,      -9.99221,      -8.41662,            0.,NA,NA,"",   434.290E-03,   425.829E-03,   85.3087E-03,   2.90176E-03
C:/temp/dataset/6/21_18.odb,Step-1,Increment      1: Step Time =    1.000,"PART-1-1",           559,      -11.4633,      -9.12095,            0.,NA,NA,"",   434.191E-03,   423.739E-03,   94.6972E-03,   2.74023E-03
C:/temp/dataset/6/21_18.odb,Step-1,Increment      1: Step Time =    1.000,"PART-1-1",           560,      -10.8070,      -10.1141,            0.,NA,NA,"",   431.413E-03,   421.551E-03,   91.7156E-03,   2.79660E-03
C:/temp/dataset/6/21_18.odb,Step-1,Increment      1: Step Time =    1.000,"PART-1-1",           561,      -13.9189,      -24.9166,            0.,NA,NA,"",   145.512E-03,   123.503E-03,   76.9463E-03,   13.1836E-03
C:/temp/dataset/6/21_18.odb,Step-1,Increment      1: Step Time =    1.000,"PART-1-1",           562,      -12.9076,      -23.6273,            0.,NA,NA,"",   176.098E-03,   164.549E-03,   62.7220E-03,   15.3314E-03
C:/temp/dataset/6/21_18.odb,Step-1,Increment      1: Step Time =    1.000,"PART-1-1",           563,          -15.,        -23.75,            0.,NA,NA,"",   211.745E-03,   171.041E-03,   124.823E-03,   14.0785E-03
C:/temp/dataset/6/21_18.odb,Step-1,Increment      1: Step Time =    1.000,"PART-1-1",           564,          -15.,        -28.75,            0.,NA,NA,"",   47.6553E-03,   34.3419E-03,   33.0404E-03,   27.7723E-03
C:/temp/dataset/6/21_18.odb,Step-1,Increment      1: Step Time =    1.000,"PART-1-1",           565,        -13.75,          -30.,            0.,NA,NA,"",            0.,   1.20089E-39,   30.7028E-39,   22.8997E-03
C:/temp/dataset/6/21_18.odb,Step-1,Increment      1: Step Time =    1.000,"PART-1-1",           566,      -13.7642,      -27.4123,            0.,NA,NA,"",   65.8767E-03,   52.5493E-03,   39.7280E-03,   17.8467E-03
C:/temp/dataset/6/21_18.odb,Step-1,Increment      1: Step Time =    1.000,"PART-1-1",           567,            5.,      -6.25625,            0.,NA,NA,"",   340.568E-03,   336.914E-03,   49.7588E-03,   5.04282E-03
C:/temp/dataset/6/21_18.odb,Step-1,Increment      1: Step Time =    1.000,"PART-1-1",           568,       7.03347,      -6.11658,            0.,NA,NA,"",   341.177E-03,   340.744E-03,   17.1919E-03,   3.18302E-03
C:/temp/dataset/6/21_18.odb,Step-1,Increment      1: Step Time =    1.000,"PART-1-1",           569,       6.04361,      -4.83741,            0.,NA,NA,"",   368.019E-03,   366.787E-03,   30.0887E-03,   5.51829E-03
C:/temp/dataset/6/21_18.odb,Step-1,Increment      1: Step Time =    1.000,"PART-1-1",           570,           15.,      -2.65625,            0.,NA,NA,"",   394.562E-03,   383.933E-03,  -90.9679E-03,   2.15757E-03
C:/temp/dataset/6/21_18.odb,Step-1,Increment      1: Step Time =    1.000,"PART-1-1",           571,       12.8875,      -2.72454,            0.,NA,NA,"",   389.871E-03,   384.902E-03,  -62.0441E-03,   1.21497E-03
C:/temp/dataset/6/21_18.odb,Step-1,Increment      1: Step Time =    1.000,"PART-1-1",           572,       10.0248,      -7.91896,            0.,NA,NA,"",   305.764E-03,   304.798E-03,  -24.2778E-03,   2.75683E-03
C:/temp/dataset/6/21_18.odb,Step-1,Increment      1: Step Time =    1.000,"PART-1-1",           573,       8.98203,      -8.99604,            0.,NA,NA,"",   284.992E-03,   284.855E-03,  -8.82790E-03,   2.94828E-03
C:/temp/dataset/6/21_18.odb,Step-1,Increment      1: Step Time =    1.000,"PART-1-1",           574,       9.98204,      -10.2112,            0.,NA,NA,"",   262.901E-03,   261.923E-03,  -22.6557E-03,   2.83467E-03
C:/temp/dataset/6/21_18.odb,Step-1,Increment      1: Step Time =    1.000,"PART-1-1",           575,            5.,      -11.2813,            0.,NA,NA,"",   248.758E-03,   242.247E-03,   56.5406E-03,   533.923E-06
C:/temp/dataset/6/21_18.odb,Step-1,Increment      1: Step Time =    1.000,"PART-1-1",           576,       6.96001,      -11.3098,            0.,NA,NA,"",   242.320E-03,   241.209E-03,   23.1766E-03,   1.77312E-03
C:/temp/dataset/6/21_18.odb,Step-1,Increment      1: Step Time =    1.000,"PART-1-1",           577,       12.1169,      -5.93459,            0.,NA,NA,"",   342.189E-03,   337.935E-03,  -53.7899E-03,   1.54855E-03
C:/temp/dataset/6/21_18.odb,Step-1,Increment      1: Step Time =    1.000,"PART-1-1",           578,       11.1088,      -6.97100,            0.,NA,NA,"",   323.574E-03,   321.129E-03,  -39.7011E-03,   2.11976E-03
C:/temp/dataset/6/21_18.odb,Step-1,Increment      1: Step Time =    1.000,"PART-1-1",           579,           15.,      -11.4063,            0.,NA,NA,"",   260.504E-03,   240.771E-03,  -99.4557E-03,   1.19285E-03
C:/temp/dataset/6/21_18.odb,Step-1,Increment      1: Step Time =    1.000,"PART-1-1",           580,       13.9991,      -10.3053,            0.,NA,NA,"",   273.382E-03,   260.407E-03,  -83.2223E-03,   1.11445E-03
C:/temp/dataset/6/21_18.odb,Step-1,Increment      1: Step Time =    1.000,"PART-1-1",           581,       12.9941,      -11.4223,            0.,NA,NA,"",   248.752E-03,   239.784E-03,  -66.1925E-03,   2.14486E-03
C:/temp/dataset/6/21_18.odb,Step-1,Increment      1: Step Time =    1.000,"PART-1-1",           582,           15.,      -9.21875,            0.,NA,NA,"",   297.373E-03,   279.820E-03,  -100.655E-03,   283.653E-06
C:/temp/dataset/6/21_18.odb,Step-1,Increment      1: Step Time =    1.000,"PART-1-1",           583,       9.25975,      -25.9916,            0.,NA,NA,"",   36.0779E-03,   35.8794E-03,  -3.77981E-03,   4.75161E-03
C:/temp/dataset/6/21_18.odb,Step-1,Increment      1: Step Time =    1.000,"PART-1-1",           584,       7.97004,      -27.0667,            0.,NA,NA,"",   27.2785E-03,   27.2640E-03,  -888.665E-06,   5.72898E-03
C:/temp/dataset/6/21_18.odb,Step-1,Increment      1: Step Time =    1.000,"PART-1-1",           585,       9.98268,      -20.3187,            0.,NA,NA,"",   95.1087E-03,   94.1905E-03,  -13.1839E-03,   2.32678E-03
C:/temp/dataset/6/21_18.odb,Step-1,Increment      1: Step Time =    1.000,"PART-1-1",           586,       8.47236,      -19.9740,            0.,NA,NA,"",   97.2840E-03,   97.2827E-03,   505.421E-06,   1.96235E-03
C:/temp/dataset/6/21_18.odb,Step-1,Increment      1: Step Time =    1.000,"PART-1-1",           587,       7.80775,      -21.2882,            0.,NA,NA,"",   83.2242E-03,   83.0374E-03,   5.57263E-03,   1.81747E-03
C:/temp/dataset/6/21_18.odb,Step-1,Increment      1: Step Time =    1.000,"PART-1-1",           588,       9.31806,      -21.6330,            0.,NA,NA,"",   79.3437E-03,   79.1204E-03,  -5.94767E-03,   1.65025E-03
C:/temp/dataset/6/21_18.odb,Step-1,Increment      1: Step Time =    1.000,"PART-1-1",           589,          3.75,          -20.,            0.,NA,NA,"",   94.5794E-03,   93.4376E-03,   14.6522E-03,   3.15551E-03
C:/temp/dataset/6/21_18.odb,Step-1,Increment      1: Step Time =    1.000,"PART-1-1",           590,       2.69482,      -20.9389,            0.,NA,NA,"",   96.1771E-03,   95.6129E-03,   10.4021E-03,   4.34035E-03
C:/temp/dataset/6/21_18.odb,Step-1,Increment      1: Step Time =    1.000,"PART-1-1",           591,       4.10336,      -21.5712,            0.,NA,NA,"",   90.9718E-03,   89.7708E-03,   14.7330E-03,   7.11384E-03
C:/temp/dataset/6/21_18.odb,Step-1,Increment      1: Step Time =    1.000,"PART-1-1",           592,       5.15854,      -20.6323,            0.,NA,NA,"",   94.7739E-03,   92.2554E-03,   21.7035E-03,   6.94107E-03
C:/temp/dataset/6/21_18.odb,Step-1,Increment      1: Step Time =    1.000,"PART-1-1",           593,          1.25,          -20.,            0.,NA,NA,"",   101.300E-03,   101.001E-03,   7.78255E-03,   5.88806E-03
C:/temp/dataset/6/21_18.odb,Step-1,Increment      1: Step Time =    1.000,"PART-1-1",           594,       1.58638,      -22.3782,            0.,NA,NA,"",   93.7048E-03,   93.6430E-03,   3.40168E-03,   8.45891E-03
C:/temp/dataset/6/21_18.odb,Step-1,Increment      1: Step Time =    1.000,"PART-1-1",           595,      -7.18878,      -21.5166,            0.,NA,NA,"",   178.732E-03,   178.594E-03,   7.03165E-03,   19.0100E-03
C:/temp/dataset/6/21_18.odb,Step-1,Increment      1: Step Time =    1.000,"PART-1-1",           596,      -8.69544,      -20.4918,            0.,NA,NA,"",   234.416E-03,   232.197E-03,   32.1804E-03,   22.2437E-03
C:/temp/dataset/6/21_18.odb,Step-1,Increment      1: Step Time =    1.000,"PART-1-1",           597,      -9.53108,      -21.9939,            0.,NA,NA,"",   193.936E-03,   191.862E-03,   28.2822E-03,   19.7294E-03
C:/temp/dataset/6/21_18.odb,Step-1,Increment      1: Step Time =    1.000,"PART-1-1",           598,      -8.02442,      -23.0186,            0.,NA,NA,"",   144.522E-03,   144.375E-03,   6.51574E-03,   15.5620E-03
C:/temp/dataset/6/21_18.odb,Step-1,Increment      1: Step Time =    1.000,"PART-1-1",           599,           -5.,      -18.7437,            0.,NA,NA,"",   266.410E-03,   265.576E-03,  -21.0705E-03,   11.5967E-03
C:/temp/dataset/6/21_18.odb,Step-1,Increment      1: Step Time =    1.000,"PART-1-1",           600,      -6.23242,      -17.5731,            0.,NA,NA,"",   311.820E-03,   311.429E-03,   15.6204E-03,   7.60884E-03
C:/temp/dataset/6/21_18.odb,Step-1,Increment      1: Step Time =    1.000,"PART-1-1",           601,      -7.41830,      -18.9573,            0.,NA,NA,"",   270.298E-03,   268.551E-03,   30.6778E-03,   18.4586E-03
C:/temp/dataset/6/21_18.odb,Step-1,Increment      1: Step Time =    1.000,"PART-1-1",           602,      -6.18588,      -20.1280,            0.,NA,NA,"",   206.887E-03,   206.815E-03,   5.48454E-03,   23.1640E-03
C:/temp/dataset/6/21_18.odb,Step-1,Increment      1: Step Time =    1.000,"PART-1-1",           603,           -5.,      -16.2312,            0.,NA,NA,"",   344.672E-03,   344.623E-03,  -5.84709E-03,   10.1258E-03
C:/temp/dataset/6/21_18.odb,Step-1,Increment      1: Step Time =    1.000,"PART-1-1",           604,      -7.44257,      -16.3835,            0.,NA,NA,"",   352.706E-03,   350.184E-03,   42.1019E-03,   7.64158E-03
C:/temp/dataset/6/21_18.odb,Step-1,Increment      1: Step Time =    1.000,"PART-1-1",           605,      -12.6830,      -26.0788,            0.,NA,NA,"",   90.1666E-03,   81.2113E-03,   39.1759E-03,   12.9558E-03
C:/temp/dataset/6/21_18.odb,Step-1,Increment      1: Step Time =    1.000,"PART-1-1",           606,          -15.,        -26.25,            0.,NA,NA,"",   126.612E-03,   93.2358E-03,   85.6601E-03,   20.0162E-03
C:/temp/dataset/6/21_18.odb,Step-1,Increment      1: Step Time =    1.000,"PART-1-1",           607,         -8.75,          -30.,            0.,NA,NA,"",            0.,   7.00246E-39,   1.84905E-39,   7.18839E-03
C:/temp/dataset/6/21_18.odb,Step-1,Increment      1: Step Time =    1.000,"PART-1-1",           608,          -15.,        -18.75,            0.,NA,NA,"",   403.189E-03,   376.018E-03,   145.507E-03,   15.5512E-03
C:/temp/dataset/6/21_18.odb,Step-1,Increment      1: Step Time =    1.000,"PART-1-1",           609,      -12.5734,      -18.8685,            0.,NA,NA,"",   353.217E-03,   339.836E-03,   96.3013E-03,   18.6344E-03
C:/temp/dataset/6/21_18.odb,Step-1,Increment      1: Step Time =    1.000,"PART-1-1",           610,           -5.,      -11.2063,            0.,NA,NA,"",   411.553E-03,   409.310E-03,   42.9102E-03,   8.33102E-03
C:/temp/dataset/6/21_18.odb,Step-1,Increment      1: Step Time =    1.000,"PART-1-1",           611,      -7.25264,      -11.4522,            0.,NA,NA,"",   418.502E-03,   414.219E-03,   59.7183E-03,   4.75381E-03
C:/temp/dataset/6/21_18.odb,Step-1,Increment      1: Step Time =    1.000,"PART-1-1",           612,           -5.,      -6.23750,            0.,NA,NA,"",   427.969E-03,   422.151E-03,   70.3287E-03,   4.21274E-03
C:/temp/dataset/6/21_18.odb,Step-1,Increment      1: Step Time =    1.000,"PART-1-1",           613,      -6.16987,      -5.46941,            0.,NA,NA,"",   429.163E-03,   422.936E-03,   72.8432E-03,   3.61947E-03
C:/temp/dataset/6/21_18.odb,Step-1,Increment      1: Step Time =    1.000,"PART-1-1",           614,      -7.24309,      -6.98789,            0.,NA,NA,"",   431.582E-03,   425.472E-03,   72.3663E-03,   3.47207E-03
C:/temp/dataset/6/21_18.odb,Step-1,Increment      1: Step Time =    1.000,"PART-1-1",           615,           -5.,       16.4583,            0.,NA,NA,"",   466.062E-03,   458.705E-03,   82.4821E-03,   756.909E-09
C:/temp/dataset/6/21_18.odb,Step-1,Increment      1: Step Time =    1.000,"PART-1-1",           616,      -7.23328,       16.4840,            0.,NA,NA,"",   466.749E-03,   458.749E-03,   86.0466E-03,   1.07226E-06
C:/temp/dataset/6/21_18.odb,Step-1,Increment      1: Step Time =    1.000,"PART-1-1",           617,      -6.08867,       15.3700,            0.,NA,NA,"",   464.665E-03,   456.968E-03,   84.2221E-03,   1.04797E-06
C:/temp/dataset/6/21_18.odb,Step-1,Increment      1: Step Time =    1.000,"PART-1-1",           618,      -13.1522,       16.1892,            0.,NA,NA,"",   468.133E-03,   458.289E-03,   95.4961E-03,   1.04120E-06
C:/temp/dataset/6/21_18.odb,Step-1,Increment      1: Step Time =    1.000,"PART-1-1",           619,      -14.0864,       17.4486,            0.,NA,NA,"",   470.407E-03,   460.300E-03,   96.9859E-03,   354.836E-09
C:/temp/dataset/6/21_18.odb,Step-1,Increment      1: Step Time =    1.000,"PART-1-1",           620,          -15.,         16.25,            0.,NA,NA,"",   468.841E-03,   458.388E-03,   98.4463E-03,   836.901E-09
C:/temp/dataset/6/21_18.odb,Step-1,Increment      1: Step Time =    1.000,"PART-1-1",           621,           -5.,       24.7917,            0.,NA,NA,"",   479.160E-03,   472.010E-03,   82.4709E-03,   21.0013E-09
C:/temp/dataset/6/21_18.odb,Step-1,Increment      1: Step Time =    1.000,"PART-1-1",           622,      -6.14442,       25.7689,            0.,NA,NA,"",   481.015E-03,   473.571E-03,   84.2967E-03,   9.65824E-09
C:/temp/dataset/6/21_18.odb,Step-1,Increment      1: Step Time =    1.000,"PART-1-1",           623,           -5.,        26.875,            0.,NA,NA,"",   482.437E-03,   475.336E-03,   82.4683E-03,   8.72307E-09
C:/temp/dataset/6/21_18.odb,Step-1,Increment      1: Step Time =    1.000,"PART-1-1",           624,      -7.36924,       26.7689,            0.,NA,NA,"",   482.934E-03,   475.169E-03,   86.2507E-03,   9.60673E-09
C:/temp/dataset/6/21_18.odb,Step-1,Increment      1: Step Time =    1.000,"PART-1-1",           625,      -13.1175,       20.9132,            0.,NA,NA,"",   475.504E-03,   465.829E-03,   95.4345E-03,   87.1523E-09
C:/temp/dataset/6/21_18.odb,Step-1,Increment      1: Step Time =    1.000,"PART-1-1",           626,      -14.0212,       22.2867,            0.,NA,NA,"",   477.943E-03,   468.023E-03,   96.8754E-03,   16.6878E-09
C:/temp/dataset/6/21_18.odb,Step-1,Increment      1: Step Time =    1.000,"PART-1-1",           627,          -15.,         21.25,            0.,NA,NA,"",   476.645E-03,   466.369E-03,   98.4392E-03,   12.0658E-09
C:/temp/dataset/6/21_18.odb,Step-1,Increment      1: Step Time =    1.000,"PART-1-1",           628,      -14.0963,       19.8765,            0.,NA,NA,"",   474.202E-03,   464.175E-03,   96.9983E-03,   70.1272E-09
C:/temp/dataset/6/21_18.odb,Step-1,Increment      1: Step Time =    1.000,"PART-1-1",           629,         -1.25,           -5.,            0.,NA,NA,"",   408.170E-03,   402.403E-03,   68.3733E-03,   4.72023E-03
C:/temp/dataset/6/21_18.odb,Step-1,Increment      1: Step Time =    1.000,"PART-1-1",           630,      -1.77292,      -3.03732,            0.,NA,NA,"",   417.679E-03,   411.172E-03,   73.4390E-03,   3.07208E-03
C:/temp/dataset/6/21_18.odb,Step-1,Increment      1: Step Time =    1.000,"PART-1-1",           631,      -12.1053,      -2.30059,            0.,NA,NA,"",   440.394E-03,   430.370E-03,   93.4288E-03,   1.01411E-03
C:/temp/dataset/6/21_18.odb,Step-1,Increment      1: Step Time =    1.000,"PART-1-1",           632,      -10.7648,      -1.40855,            0.,NA,NA,"",   440.036E-03,   430.614E-03,   90.5683E-03,   1.01190E-03
C:/temp/dataset/6/21_18.odb,Step-1,Increment      1: Step Time =    1.000,"PART-1-1",           633,      -11.5438,  -354.672E-03,            0.,NA,NA,"",   441.901E-03,   432.110E-03,   92.5050E-03,   575.897E-06
C:/temp/dataset/6/21_18.odb,Step-1,Increment      1: Step Time =    1.000,"PART-1-1",           634,          3.75,           -5.,            0.,NA,NA,"",   380.541E-03,   377.684E-03,   46.5449E-03,   8.17467E-03
C:/temp/dataset/6/21_18.odb,Step-1,Increment      1: Step Time =    1.000,"PART-1-1",           635,       4.52066,      -3.83856,            0.,NA,NA,"",   386.799E-03,   384.075E-03,   45.8217E-03,   5.68971E-03
C:/temp/dataset/6/21_18.odb,Step-1,Increment      1: Step Time =    1.000,"PART-1-1",           636,       2.94662,      -2.72704,            0.,NA,NA,"",   402.570E-03,   398.838E-03,   54.6940E-03,   3.03375E-03
C:/temp/dataset/6/21_18.odb,Step-1,Increment      1: Step Time =    1.000,"PART-1-1",           637,       1.50395,       2.56821,            0.,NA,NA,"",   443.539E-03,   439.149E-03,   62.2457E-03,   1.30719E-03
C:/temp/dataset/6/21_18.odb,Step-1,Increment      1: Step Time =    1.000,"PART-1-1",           638,          1.25,            5.,            0.,NA,NA,"",   457.691E-03,   453.572E-03,   61.2658E-03,   3.03405E-03
C:/temp/dataset/6/21_18.odb,Step-1,Increment      1: Step Time =    1.000,"PART-1-1",           639,          6.25,            5.,            0.,NA,NA,"",   468.807E-03,   468.318E-03,   21.4129E-03,   2.96393E-03
C:/temp/dataset/6/21_18.odb,Step-1,Increment      1: Step Time =    1.000,"PART-1-1",           640,  -213.968E-03,      -26.0734,            0.,NA,NA,"",   59.4345E-03,   59.1037E-03,  -6.26163E-03,   11.1348E-03
C:/temp/dataset/6/21_18.odb,Step-1,Increment      1: Step Time =    1.000,"PART-1-1",           641,       1.14210,      -23.8512,            0.,NA,NA,"",   82.9625E-03,   82.9519E-03,  -1.32858E-03,   10.1646E-03
C:/temp/dataset/6/21_18.odb,Step-1,Increment      1: Step Time =    1.000,"PART-1-1",           642,  -234.527E-03,      -23.9674,            0.,NA,NA,"",   87.3345E-03,   87.1230E-03,  -6.07426E-03,   10.9627E-03
C:/temp/dataset/6/21_18.odb,Step-1,Increment      1: Step Time =    1.000,"PART-1-1",           643,           -5.,        14.375,            0.,NA,NA,"",   462.789E-03,   455.378E-03,   82.4871E-03,   2.46089E-06
C:/temp/dataset/6/21_18.odb,Step-1,Increment      1: Step Time =    1.000,"PART-1-1",           644,      -7.14364,       14.2292,            0.,NA,NA,"",   463.184E-03,   455.148E-03,   85.9063E-03,   2.27711E-06
C:/temp/dataset/6/21_18.odb,Step-1,Increment      1: Step Time =    1.000,"PART-1-1",           645,           -5.,       6.04167,            0.,NA,NA,"",   449.973E-03,   442.322E-03,   82.6225E-03,   183.280E-06
C:/temp/dataset/6/21_18.odb,Step-1,Increment      1: Step Time =    1.000,"PART-1-1",           646,      -5.82078,       6.95384,            0.,NA,NA,"",   451.524E-03,   443.673E-03,   83.8380E-03,   93.8324E-06
C:/temp/dataset/6/21_18.odb,Step-1,Increment      1: Step Time =    1.000,"PART-1-1",           647,      -6.45742,       5.85906,            0.,NA,NA,"",   450.133E-03,   442.070E-03,   84.8174E-03,   174.354E-06
C:/temp/dataset/6/21_18.odb,Step-1,Increment      1: Step Time =    1.000,"PART-1-1",           648,      -5.63664,       4.94688,            0.,NA,NA,"",   448.859E-03,   441.004E-03,   83.6063E-03,   562.309E-06
C:/temp/dataset/6/21_18.odb,Step-1,Increment      1: Step Time =    1.000,"PART-1-1",           649,           -5.,         8.125,            0.,NA,NA,"",   453.036E-03,   445.450E-03,   82.5609E-03,   28.7162E-06
C:/temp/dataset/6/21_18.odb,Step-1,Increment      1: Step Time =    1.000,"PART-1-1",           650,      -5.96903,       9.00386,            0.,NA,NA,"",   454.665E-03,   446.827E-03,   84.0568E-03,   13.5071E-06
C:/temp/dataset/6/21_18.odb,Step-1,Increment      1: Step Time =    1.000,"PART-1-1",           651,          -15.,         -3.75,            0.,NA,NA,"",   440.096E-03,   428.720E-03,   99.4193E-03,   1.01088E-03
C:/temp/dataset/6/21_18.odb,Step-1,Increment      1: Step Time =    1.000,"PART-1-1",           652,      -12.7846,      -3.59401,            0.,NA,NA,"",   439.940E-03,   429.499E-03,   95.2762E-03,   1.30361E-03
C:/temp/dataset/6/21_18.odb,Step-1,Increment      1: Step Time =    1.000,"PART-1-1",           653,      -11.5430,      -4.20540,            0.,NA,NA,"",   438.804E-03,   429.073E-03,   91.8995E-03,   1.70188E-03
C:/temp/dataset/6/21_18.odb,Step-1,Increment      1: Step Time =    1.000,"PART-1-1",           654,      -10.1018,      -4.29084,            0.,NA,NA,"",   437.152E-03,   428.399E-03,   87.0430E-03,   2.29168E-03
C:/temp/dataset/6/21_18.odb,Step-1,Increment      1: Step Time =    1.000,"PART-1-1",           655,          -15.,        -11.25,            0.,NA,NA,"",   428.489E-03,   412.175E-03,   117.107E-03,   3.78937E-03
C:/temp/dataset/6/21_18.odb,Step-1,Increment      1: Step Time =    1.000,"PART-1-1",           656,      -12.2331,      -11.1785,            0.,NA,NA,"",   429.260E-03,   416.561E-03,   103.639E-03,   3.47819E-03
C:/temp/dataset/6/21_18.odb,Step-1,Increment      1: Step Time =    1.000,"PART-1-1",           657,       5.21391,      -1.02834,            0.,NA,NA,"",   412.878E-03,   411.218E-03,   36.9904E-03,   1.36376E-03
C:/temp/dataset/6/21_18.odb,Step-1,Increment      1: Step Time =    1.000,"PART-1-1",           658,       6.72319,      -1.59046,            0.,NA,NA,"",   405.227E-03,   404.672E-03,   21.1919E-03,   1.70016E-03
C:/temp/dataset/6/21_18.odb,Step-1,Increment      1: Step Time =    1.000,"PART-1-1",           659,       10.9187,      -16.2245,            0.,NA,NA,"",   156.683E-03,   153.770E-03,  -30.0754E-03,   2.93582E-03
C:/temp/dataset/6/21_18.odb,Step-1,Increment      1: Step Time =    1.000,"PART-1-1",           660,       11.9858,      -14.8752,            0.,NA,NA,"",   183.292E-03,   177.330E-03,  -46.3699E-03,   2.83556E-03
C:/temp/dataset/6/21_18.odb,Step-1,Increment      1: Step Time =    1.000,"PART-1-1",           661,       10.9746,      -13.7451,            0.,NA,NA,"",   199.488E-03,   196.566E-03,  -34.0161E-03,   2.93461E-03
C:/temp/dataset/6/21_18.odb,Step-1,Increment      1: Step Time =    1.000,"PART-1-1",           662,       11.9830,      -12.5543,            0.,NA,NA,"",   224.218E-03,   218.637E-03,  -49.7170E-03,   2.62085E-03
C:/temp/dataset/6/21_18.odb,Step-1,Increment      1: Step Time =    1.000,"PART-1-1",           663,           15.,      -20.1563,            0.,NA,NA,"",   124.828E-03,   104.244E-03,  -68.6685E-03,   5.48459E-03
C:/temp/dataset/6/21_18.odb,Step-1,Increment      1: Step Time =    1.000,"PART-1-1",           664,       14.0841,      -19.1367,            0.,NA,NA,"",   130.738E-03,   115.153E-03,  -61.9061E-03,   4.56617E-03
C:/temp/dataset/6/21_18.odb,Step-1,Increment      1: Step Time =    1.000,"PART-1-1",           665,       13.0385,      -20.2889,            0.,NA,NA,"",   108.342E-03,   98.5768E-03,  -44.9518E-03,   3.99625E-03
C:/temp/dataset/6/21_18.odb,Step-1,Increment      1: Step Time =    1.000,"PART-1-1",           666,           15.,      -17.9688,            0.,NA,NA,"",   154.815E-03,   132.985E-03,  -79.2646E-03,   4.93187E-03
C:/temp/dataset/6/21_18.odb,Step-1,Increment      1: Step Time =    1.000,"PART-1-1",           667,          1.25,          -30.,            0.,NA,NA,"",            0.,   9.67966E-39,  -4.13598E-39,   10.0255E-03
C:/temp/dataset/6/21_18.odb,Step-1,Increment      1: Step Time =    1.000,"PART-1-1",           668,       3.30543,      -22.6598,            0.,NA,NA,"",   85.4687E-03,   85.0286E-03,   8.66245E-03,   8.16022E-03
C:/temp/dataset/6/21_18.odb,Step-1,Increment      1: Step Time =    1.000,"PART-1-1",           669,       2.86115,      -24.1329,            0.,NA,NA,"",   73.5237E-03,   73.4318E-03,   3.67481E-03,   9.37984E-03
C:/temp/dataset/6/21_18.odb,Step-1,Increment      1: Step Time =    1.000,"PART-1-1",           670,      -10.6801,      -21.6169,            0.,NA,NA,"",   223.139E-03,   218.761E-03,   43.9859E-03,   21.2369E-03
C:/temp/dataset/6/21_18.odb,Step-1,Increment      1: Step Time =    1.000,"PART-1-1",           671,      -11.3394,      -20.4213,            0.,NA,NA,"",   278.405E-03,   271.017E-03,   63.7130E-03,   21.7387E-03
C:/temp/dataset/6/21_18.odb,Step-1,Increment      1: Step Time =    1.000,"PART-1-1",           672,      -12.1593,      -22.4638,            0.,NA,NA,"",   212.290E-03,   204.350E-03,   57.5177E-03,   19.5178E-03
C:/temp/dataset/6/21_18.odb,Step-1,Increment      1: Step Time =    1.000,"PART-1-1",           673,      -9.92443,      -16.4516,            0.,NA,NA,"",   372.466E-03,   364.417E-03,   77.0135E-03,   10.4885E-03
C:/temp/dataset/6/21_18.odb,Step-1,Increment      1: Step Time =    1.000,"PART-1-1",           674,      -8.71114,      -17.7111,            0.,NA,NA,"",   327.922E-03,   323.351E-03,   54.5583E-03,   14.3330E-03
C:/temp/dataset/6/21_18.odb,Step-1,Increment      1: Step Time =    1.000,"PART-1-1",           675,      -9.25100,      -7.50767,            0.,NA,NA,"",   434.542E-03,   426.863E-03,   81.3271E-03,   3.10393E-03
C:/temp/dataset/6/21_18.odb,Step-1,Increment      1: Step Time =    1.000,"PART-1-1",           676,      -8.32615,      -6.25855,            0.,NA,NA,"",   433.856E-03,   426.758E-03,   78.1611E-03,   3.14488E-03
C:/temp/dataset/6/21_18.odb,Step-1,Increment      1: Step Time =    1.000,"PART-1-1",           677,      -7.58018,      -5.09368,            0.,NA,NA,"",   432.393E-03,   425.410E-03,   77.3956E-03,   3.60248E-03
C:/temp/dataset/6/21_18.odb,Step-1,Increment      1: Step Time =    1.000,"PART-1-1",           678,      -6.67379,      -3.84489,            0.,NA,NA,"",   429.942E-03,   422.761E-03,   78.2521E-03,   3.35286E-03
C:/temp/dataset/6/21_18.odb,Step-1,Increment      1: Step Time =    1.000,"PART-1-1",           679,      -2.40491,      -1.03021,            0.,NA,NA,"",   427.440E-03,   420.453E-03,   76.9664E-03,   1.98591E-03
C:/temp/dataset/6/21_18.odb,Step-1,Increment      1: Step Time =    1.000,"PART-1-1",           680,      -3.32453,      -2.14711,            0.,NA,NA,"",   425.017E-03,   417.813E-03,   77.9209E-03,   2.38249E-03
C:/temp/dataset/6/21_18.odb,Step-1,Increment      1: Step Time =    1.000,"PART-1-1",           681,       10.4745,      -24.8101,            0.,NA,NA,"",   47.9348E-03,   46.8424E-03,  -10.1750E-03,   3.70814E-03
C:/temp/dataset/6/21_18.odb,Step-1,Increment      1: Step Time =    1.000,"PART-1-1",           682,       8.16019,      -23.0435,            0.,NA,NA,"",   66.0746E-03,   66.0540E-03,   1.64794E-03,   3.03019E-03
C:/temp/dataset/6/21_18.odb,Step-1,Increment      1: Step Time =    1.000,"PART-1-1",           683,       9.40124,      -23.8494,            0.,NA,NA,"",   57.0826E-03,   56.8305E-03,  -5.35951E-03,   3.03758E-03
C:/temp/dataset/6/21_18.odb,Step-1,Increment      1: Step Time =    1.000,"PART-1-1",           684,       5.67200,      -27.0943,            0.,NA,NA,"",   32.0260E-03,   32.0130E-03,   910.496E-06,   7.39111E-03
C:/temp/dataset/6/21_18.odb,Step-1,Increment      1: Step Time =    1.000,"PART-1-1",           685,       4.86106,      -26.0050,            0.,NA,NA,"",   46.3060E-03,   46.2339E-03,   2.58397E-03,   8.11184E-03
C:/temp/dataset/6/21_18.odb,Step-1,Increment      1: Step Time =    1.000,"PART-1-1",           686,      -2.55341,      -23.8484,            0.,NA,NA,"",   99.3004E-03,   98.2883E-03,  -14.1411E-03,   13.2704E-03
C:/temp/dataset/6/21_18.odb,Step-1,Increment      1: Step Time =    1.000,"PART-1-1",           687,      -4.82130,      -23.8875,            0.,NA,NA,"",   106.148E-03,   105.140E-03,  -14.5895E-03,   12.1235E-03
C:/temp/dataset/6/21_18.odb,Step-1,Increment      1: Step Time =    1.000,"PART-1-1",           688,      -5.84083,      -25.1777,            0.,NA,NA,"",   83.2324E-03,   82.5936E-03,  -10.2918E-03,   11.5072E-03
C:/temp/dataset/6/21_18.odb,Step-1,Increment      1: Step Time =    1.000,"PART-1-1",           689,           15.,      -26.7188,            0.,NA,NA,"",   48.8094E-03,   36.3631E-03,  -32.5589E-03,   8.13057E-03
C:/temp/dataset/6/21_18.odb,Step-1,Increment      1: Step Time =    1.000,"PART-1-1",           690,       10.9874,      -11.4075,            0.,NA,NA,"",   242.299E-03,   239.554E-03,  -36.3703E-03,   2.87166E-03
C:/temp/dataset/6/21_18.odb,Step-1,Increment      1: Step Time =    1.000,"PART-1-1",           691,       7.29436,      -19.7763,            0.,NA,NA,"",   99.4941E-03,   98.9158E-03,   10.7117E-03,   2.64588E-03
C:/temp/dataset/6/21_18.odb,Step-1,Increment      1: Step Time =    1.000,"PART-1-1",           692,       7.78340,      -18.7858,            0.,NA,NA,"",   112.730E-03,   112.510E-03,   7.03260E-03,   3.05157E-03
C:/temp/dataset/6/21_18.odb,Step-1,Increment      1: Step Time =    1.000,"PART-1-1",           693,       10.8970,      -2.99004,            0.,NA,NA,"",   384.706E-03,   383.157E-03,  -34.4948E-03,   1.14957E-03
C:/temp/dataset/6/21_18.odb,Step-1,Increment      1: Step Time =    1.000,"PART-1-1",           694,       12.0828,      -3.88727,            0.,NA,NA,"",   373.120E-03,   369.507E-03,  -51.8026E-03,   1.20352E-03
C:/temp/dataset/6/21_18.odb,Step-1,Increment      1: Step Time =    1.000,"PART-1-1",           695,           15.,       1.71875,            0.,NA,NA,"",   446.133E-03,   437.882E-03,  -85.4070E-03,   646.502E-06
C:/temp/dataset/6/21_18.odb,Step-1,Increment      1: Step Time =    1.000,"PART-1-1",           696,       4.00043,  -427.215E-03,            0.,NA,NA,"",   419.692E-03,   417.042E-03,   47.0924E-03,   1.09990E-03
C:/temp/dataset/6/21_18.odb,Step-1,Increment      1: Step Time =    1.000,"PART-1-1",           697,       2.09609,       1.00148,            0.,NA,NA,"",   432.784E-03,   428.658E-03,   59.6194E-03,   856.711E-06
C:/temp/dataset/6/21_18.odb,Step-1,Increment      1: Step Time =    1.000,"PART-1-1",           698,       2.38138,  -554.063E-03,            0.,NA,NA,"",   421.211E-03,   417.157E-03,   58.2976E-03,   1.49194E-03
C:/temp/dataset/6/21_18.odb,Step-1,Increment      1: Step Time =    1.000,"PART-1-1",           699,   35.7305E-03,       2.11113,            0.,NA,NA,"",   440.740E-03,   435.206E-03,   69.6239E-03,   1.15591E-03
C:/temp/dataset/6/21_18.odb,Step-1,Increment      1: Step Time =    1.000,"PART-1-1",           700,           -5.,       10.2083,            0.,NA,NA,"",   456.261E-03,   448.737E-03,   82.5159E-03,   15.8797E-06
C:/temp/dataset/6/21_18.odb,Step-1,Increment      1: Step Time =    1.000,"PART-1-1",           701,      -6.99901,       9.90050,            0.,NA,NA,"",   456.363E-03,   448.248E-03,   85.6780E-03,   6.84000E-06
C:/temp/dataset/6/21_18.odb,Step-1,Increment      1: Step Time =    1.000,"PART-1-1",           702,      -11.2396,       16.2208,            0.,NA,NA,"",   467.566E-03,   458.337E-03,   92.4413E-03,   1.21301E-06
C:/temp/dataset/6/21_18.odb,Step-1,Increment      1: Step Time =    1.000,"PART-1-1",           703,      -10.2112,       15.1096,            0.,NA,NA,"",   465.502E-03,   456.561E-03,   90.7995E-03,   1.64190E-06
C:/temp/dataset/6/21_18.odb,Step-1,Increment      1: Step Time =    1.000,"PART-1-1",           704,      -9.25876,       16.3324,            0.,NA,NA,"",   467.122E-03,   458.510E-03,   89.2789E-03,   1.21157E-06
C:/temp/dataset/6/21_18.odb,Step-1,Increment      1: Step Time =    1.000,"PART-1-1",           705,      -10.2871,       17.4437,            0.,NA,NA,"",   469.180E-03,   460.286E-03,   90.9197E-03,   658.303E-09
C:/temp/dataset/6/21_18.odb,Step-1,Increment      1: Step Time =    1.000,"PART-1-1",           706,      -8.19479,       15.2434,            0.,NA,NA,"",   465.090E-03,   456.769E-03,   87.5817E-03,   1.45710E-06
C:/temp/dataset/6/21_18.odb,Step-1,Increment      1: Step Time =    1.000,"PART-1-1",           707,      -9.19446,       14.0222,            0.,NA,NA,"",   463.482E-03,   454.822E-03,   89.1762E-03,   2.57923E-06
C:/temp/dataset/6/21_18.odb,Step-1,Increment      1: Step Time =    1.000,"PART-1-1",           708,      -8.14331,       13.0080,            0.,NA,NA,"",   461.569E-03,   453.200E-03,   87.4997E-03,   2.91581E-06
C:/temp/dataset/6/21_18.odb,Step-1,Increment      1: Step Time =    1.000,"PART-1-1",           709,          -15.,         18.75,            0.,NA,NA,"",   472.742E-03,   462.378E-03,   98.4424E-03,   155.428E-09
C:/temp/dataset/6/21_18.odb,Step-1,Increment      1: Step Time =    1.000,"PART-1-1",           710,      -13.1826,       18.5751,            0.,NA,NA,"",   471.871E-03,   462.097E-03,   95.5415E-03,   355.715E-09
C:/temp/dataset/6/21_18.odb,Step-1,Increment      1: Step Time =    1.000,"PART-1-1",           711,      -11.2313,       23.3702,            0.,NA,NA,"",   478.754E-03,   469.749E-03,   92.4204E-03,   19.4204E-09
C:/temp/dataset/6/21_18.odb,Step-1,Increment      1: Step Time =    1.000,"PART-1-1",           712,      -10.8173,       24.9058,            0.,NA,NA,"",   481.032E-03,   472.199E-03,   91.7575E-03,   8.51415E-09
C:/temp/dataset/6/21_18.odb,Step-1,Increment      1: Step Time =    1.000,"PART-1-1",           713,      -13.5418,       24.7667,            0.,NA,NA,"",   481.666E-03,   471.981E-03,   96.1070E-03,   9.73763E-09
C:/temp/dataset/6/21_18.odb,Step-1,Increment      1: Step Time =    1.000,"PART-1-1",           714,      -12.2278,       25.9824,            0.,NA,NA,"",   483.154E-03,   473.920E-03,   94.0078E-03,   9.26115E-09
C:/temp/dataset/6/21_18.odb,Step-1,Increment      1: Step Time =    1.000,"PART-1-1",           715,          -15.,         26.25,            0.,NA,NA,"",   484.456E-03,   474.351E-03,   98.4329E-03,   11.6856E-09
C:/temp/dataset/6/21_18.odb,Step-1,Increment      1: Step Time =    1.000,"PART-1-1",           716,          -15.,         23.75,            0.,NA,NA,"",   480.550E-03,   470.360E-03,   98.4361E-03,   24.6873E-09
C:/temp/dataset/6/21_18.odb,Step-1,Increment      1: Step Time =    1.000,"PART-1-1",           717,      -12.5630,       23.3034,            0.,NA,NA,"",   479.066E-03,   469.644E-03,   94.5463E-03,   10.3987E-09
C:/temp/dataset/6/21_18.odb,Step-1,Increment      1: Step Time =    1.000,"PART-1-1",           718,      -11.1827,       13.8735,            0.,NA,NA,"",   463.876E-03,   454.590E-03,   92.3509E-03,   2.29901E-06
C:/temp/dataset/6/21_18.odb,Step-1,Increment      1: Step Time =    1.000,"PART-1-1",           719,      -10.1659,       12.7861,            0.,NA,NA,"",   461.851E-03,   452.852E-03,   90.7258E-03,   3.08349E-06
C:/temp/dataset/6/21_18.odb,Step-1,Increment      1: Step Time =    1.000,"PART-1-1",           720,      -11.4858,       20.4947,            0.,NA,NA,"",   474.331E-03,   465.159E-03,   92.8302E-03,   151.857E-09
C:/temp/dataset/6/21_18.odb,Step-1,Increment      1: Step Time =    1.000,"PART-1-1",           721,      -10.4732,       19.7487,            0.,NA,NA,"",   472.848E-03,   463.966E-03,   91.2146E-03,   204.092E-09
C:/temp/dataset/6/21_18.odb,Step-1,Increment      1: Step Time =    1.000,"PART-1-1",           722,      -10.9778,       21.7959,            0.,NA,NA,"",   476.210E-03,   467.235E-03,   92.0177E-03,   56.8236E-09
C:/temp/dataset/6/21_18.odb,Step-1,Increment      1: Step Time =    1.000,"PART-1-1",           723,      -9.13796,       11.7463,            0.,NA,NA,"",   459.900E-03,   451.190E-03,   89.0834E-03,   3.43972E-06
C:/temp/dataset/6/21_18.odb,Step-1,Increment      1: Step Time =    1.000,"PART-1-1",           724,      -11.1090,       11.4975,            0.,NA,NA,"",   460.136E-03,   450.797E-03,   92.2324E-03,   2.74412E-06
C:/temp/dataset/6/21_18.odb,Step-1,Increment      1: Step Time =    1.000,"PART-1-1",           725,      -7.95801,       5.48811,            0.,NA,NA,"",   449.822E-03,   441.273E-03,   87.2805E-03,   145.111E-06
C:/temp/dataset/6/21_18.odb,Step-1,Increment      1: Step Time =    1.000,"PART-1-1",           726,      -9.27172,       5.51676,            0.,NA,NA,"",   450.173E-03,   441.212E-03,   89.3737E-03,   72.0348E-06
C:/temp/dataset/6/21_18.odb,Step-1,Increment      1: Step Time =    1.000,"PART-1-1",           727,      -9.10783,       4.19071,            0.,NA,NA,"",   447.894E-03,   438.929E-03,   89.1660E-03,   186.520E-06
C:/temp/dataset/6/21_18.odb,Step-1,Increment      1: Step Time =    1.000,"PART-1-1",           728,      -7.79412,       4.16207,            0.,NA,NA,"",   447.514E-03,   438.951E-03,   87.1260E-03,   241.584E-06
C:/temp/dataset/6/21_18.odb,Step-1,Increment      1: Step Time =    1.000,"PART-1-1",           729,      -10.3652,   710.465E-03,            0.,NA,NA,"",   442.492E-03,   433.107E-03,   90.6481E-03,   510.997E-06
C:/temp/dataset/6/21_18.odb,Step-1,Increment      1: Step Time =    1.000,"PART-1-1",           730,      -11.5756,       2.14983,            0.,NA,NA,"",   445.429E-03,   435.625E-03,   92.9388E-03,   139.361E-06
C:/temp/dataset/6/21_18.odb,Step-1,Increment      1: Step Time =    1.000,"PART-1-1",           731,      -10.9514,      -7.70102,            0.,NA,NA,"",   436.098E-03,   426.599E-03,   90.5231E-03,   2.65056E-03
C:/temp/dataset/6/21_18.odb,Step-1,Increment      1: Step Time =    1.000,"PART-1-1",           732,      -11.1587,      -15.1039,            0.,NA,NA,"",   405.533E-03,   393.573E-03,   97.7631E-03,   6.51690E-03
C:/temp/dataset/6/21_18.odb,Step-1,Increment      1: Step Time =    1.000,"PART-1-1",           733,      -11.0422,      -12.5823,            0.,NA,NA,"",   422.759E-03,   411.468E-03,   97.0535E-03,   3.63688E-03
C:/temp/dataset/6/21_18.odb,Step-1,Increment      1: Step Time =    1.000,"PART-1-1",           734,      -9.98828,      -19.2456,            0.,NA,NA,"",   296.697E-03,   291.033E-03,   57.6956E-03,   19.6225E-03
C:/temp/dataset/6/21_18.odb,Step-1,Increment      1: Step Time =    1.000,"PART-1-1",           735,      -11.2222,      -17.6929,            0.,NA,NA,"",   361.531E-03,   351.109E-03,   86.1799E-03,   16.0517E-03
C:/temp/dataset/6/21_18.odb,Step-1,Increment      1: Step Time =    1.000,"PART-1-1",           736,      -9.72809,       26.4627,            0.,NA,NA,"",   483.143E-03,   474.683E-03,   90.0167E-03,   7.55003E-09
C:/temp/dataset/6/21_18.odb,Step-1,Increment      1: Step Time =    1.000,"PART-1-1",           737,      -8.07960,       10.7858,            0.,NA,NA,"",   458.072E-03,   449.657E-03,   87.3953E-03,   3.81894E-06
C:/temp/dataset/6/21_18.odb,Step-1,Increment      1: Step Time =    1.000,"PART-1-1",           738,      -11.3320,       18.4953,            0.,NA,NA,"",   471.154E-03,   461.967E-03,   92.5869E-03,   468.236E-09
C:/temp/dataset/6/21_18.odb,Step-1,Increment      1: Step Time =    1.000,"PART-1-1",           739,      -10.4893,       6.32554,            0.,NA,NA,"",   451.812E-03,   442.494E-03,   91.2867E-03,   48.2455E-06
C:/temp/dataset/6/21_18.odb,Step-1,Increment      1: Step Time =    1.000,"PART-1-1",           740,      -11.8356,       7.66802,            0.,NA,NA,"",   454.354E-03,   444.647E-03,   93.4119E-03,   20.7615E-06
C:/temp/dataset/6/21_18.odb,Step-1,Increment      1: Step Time =    1.000,"PART-1-1",           741,      -11.4125,       4.87054,            0.,NA,NA,"",   449.740E-03,   440.067E-03,   92.7761E-03,   68.2654E-06
C:/temp/dataset/6/21_18.odb,Step-1,Increment      1: Step Time =    1.000,"PART-1-1",           742,       10.1911,      -5.79504,            0.,NA,NA,"",   343.059E-03,   342.040E-03,  -26.4252E-03,   2.12363E-03
C:/temp/dataset/6/21_18.odb,Step-1,Increment      1: Step Time =    1.000,"PART-1-1",           743,       9.10708,      -6.74300,            0.,NA,NA,"",   326.897E-03,   326.698E-03,  -11.4230E-03,   2.75175E-03
C:/temp/dataset/6/21_18.odb,Step-1,Increment      1: Step Time =    1.000,"PART-1-1",           744,       11.1638,      -4.94873,            0.,NA,NA,"",   356.743E-03,   354.539E-03,  -39.5949E-03,   1.40197E-03
C:/temp/dataset/6/21_18.odb,Step-1,Increment      1: Step Time =    1.000,"PART-1-1",           745,       10.4293,      -4.08570,            0.,NA,NA,"",   369.488E-03,   368.368E-03,  -28.7510E-03,   1.42427E-03
C:/temp/dataset/6/21_18.odb,Step-1,Increment      1: Step Time =    1.000,"PART-1-1",           746,       9.97038,      -14.8971,            0.,NA,NA,"",   176.758E-03,   175.693E-03,  -19.3766E-03,   2.85281E-03
C:/temp/dataset/6/21_18.odb,Step-1,Increment      1: Step Time =    1.000,"PART-1-1",           747,       9.96577,      -12.5508,            0.,NA,NA,"",   219.060E-03,   218.055E-03,  -20.9574E-03,   2.84027E-03
C:/temp/dataset/6/21_18.odb,Step-1,Increment      1: Step Time =    1.000,"PART-1-1",           748,       8.96159,      -13.7029,            0.,NA,NA,"",   196.889E-03,   196.786E-03,  -6.35243E-03,   2.83029E-03
C:/temp/dataset/6/21_18.odb,Step-1,Increment      1: Step Time =    1.000,"PART-1-1",           749,       6.92617,      -22.4012,            0.,NA,NA,"",   74.9357E-03,   74.4180E-03,   8.79320E-03,   4.24032E-03
C:/temp/dataset/6/21_18.odb,Step-1,Increment      1: Step Time =    1.000,"PART-1-1",           750,       5.94981,      -23.5281,            0.,NA,NA,"",   67.8958E-03,   67.3732E-03,   8.40729E-03,   6.48896E-03
C:/temp/dataset/6/21_18.odb,Step-1,Increment      1: Step Time =    1.000,"PART-1-1",           751,       7.18383,      -24.1705,            0.,NA,NA,"",   57.7253E-03,   57.5877E-03,   3.98414E-03,   5.25154E-03
C:/temp/dataset/6/21_18.odb,Step-1,Increment      1: Step Time =    1.000,"PART-1-1",           752,       11.0968,      -20.2176,            0.,NA,NA,"",   99.5987E-03,   96.5777E-03,  -24.3445E-03,   2.78150E-03
C:/temp/dataset/6/21_18.odb,Step-1,Increment      1: Step Time =    1.000,"PART-1-1",           753,       6.43355,      -20.8801,            0.,NA,NA,"",   89.2208E-03,   87.9001E-03,   15.2946E-03,   3.93105E-03
C:/temp/dataset/6/21_18.odb,Step-1,Increment      1: Step Time =    1.000,"PART-1-1",           754,       8.96045,      -11.3546,            0.,NA,NA,"",   240.388E-03,   240.280E-03,  -7.18640E-03,   2.81921E-03
C:/temp/dataset/6/21_18.odb,Step-1,Increment      1: Step Time =    1.000,"PART-1-1",           755,       8.17216,      -2.03287,            0.,NA,NA,"",   398.368E-03,   398.357E-03,   3.01566E-03,   1.66548E-03
C:/temp/dataset/6/21_18.odb,Step-1,Increment      1: Step Time =    1.000,"PART-1-1",           756,       9.68046,      -2.49017,            0.,NA,NA,"",   391.458E-03,   391.073E-03,  -17.3737E-03,   1.49397E-03
C:/temp/dataset/6/21_18.odb,Step-1,Increment      1: Step Time =    1.000,"PART-1-1",           757,      -5.24373,       2.94722,            0.,NA,NA,"",   444.561E-03,   436.655E-03,   83.4662E-03,   905.059E-06
C:/temp/dataset/6/21_18.odb,Step-1,Increment      1: Step Time =    1.000,"PART-1-1",           758,      -6.20341,       3.93450,            0.,NA,NA,"",   446.936E-03,   438.827E-03,   84.7542E-03,   520.721E-06
C:/temp/dataset/6/21_18.odb,Step-1,Increment      1: Step Time =    1.000,"PART-1-1",           759,       7.87036,      -17.0650,            0.,NA,NA,"",   138.870E-03,   138.686E-03,   7.14492E-03,   3.19425E-03
C:/temp/dataset/6/21_18.odb,Step-1,Increment      1: Step Time =    1.000,"PART-1-1",           760,      -8.77165,      -4.61616,            0.,NA,NA,"",   434.841E-03,   427.018E-03,   82.1135E-03,   2.84888E-03
C:/temp/dataset/6/21_18.odb,Step-1,Increment      1: Step Time =    1.000,"PART-1-1",           761,       8.90402,      -15.9271,            0.,NA,NA,"",   157.753E-03,   157.668E-03,  -5.18877E-03,   2.95523E-03
C:/temp/dataset/6/21_18.odb,Step-1,Increment      1: Step Time =    1.000,"PART-1-1",           762,       7.94609,      -14.8939,            0.,NA,NA,"",   175.765E-03,   175.603E-03,   7.55321E-03,   2.60606E-03
C:/temp/dataset/6/21_18.odb,Step-1,Increment      1: Step Time =    1.000,"PART-1-1",           763,      -12.3095,       21.7291,            0.,NA,NA,"",   476.522E-03,   467.130E-03,   94.1436E-03,   46.3950E-09
C:/temp/dataset/6/21_18.odb,Step-1,Increment      1: Step Time =    1.000,"PART-1-1",           764,      -12.2938,       19.6789,            0.,NA,NA,"",   473.310E-03,   463.858E-03,   94.1211E-03,   179.867E-09
C:/temp/dataset/6/21_18.odb,Step-1,Increment      1: Step Time =    1.000,"PART-1-1",           765,       3.72209,      -1.78065,            0.,NA,NA,"",   408.687E-03,   405.667E-03,   49.5919E-03,   2.16132E-03
C:/temp/dataset/6/21_18.odb,Step-1,Increment      1: Step Time =    1.000,"PART-1-1",           766,       6.45852,      -3.38063,            0.,NA,NA,"",   385.974E-03,   385.161E-03,   25.0436E-03,   2.55213E-03
C:/temp/dataset/6/21_18.odb,Step-1,Increment      1: Step Time =    1.000,"PART-1-1",           767,       4.93556,      -2.38177,            0.,NA,NA,"",   400.402E-03,   398.320E-03,   40.7768E-03,   2.23105E-03
C:/temp/dataset/6/21_18.odb,Step-1,Increment      1: Step Time =    1.000,"PART-1-1",           768,      -2.94024,   945.156E-03,            0.,NA,NA,"",   436.573E-03,   429.356E-03,   79.0522E-03,   1.39692E-03
C:/temp/dataset/6/21_18.odb,Step-1,Increment      1: Step Time =    1.000,"PART-1-1",           769,      -1.69279,      -25.0756,            0.,NA,NA,"",   77.5995E-03,   76.8520E-03,  -10.7448E-03,   12.3036E-03
C:/temp/dataset/6/21_18.odb,Step-1,Increment      1: Step Time =    1.000,"PART-1-1",           770,      -6.93923,      -23.9860,            0.,NA,NA,"",   112.109E-03,   111.994E-03,  -5.06974E-03,   12.0876E-03
C:/temp/dataset/6/21_18.odb,Step-1,Increment      1: Step Time =    1.000,"PART-1-1",           771,      -5.91970,      -22.6959,            0.,NA,NA,"",   136.114E-03,   135.675E-03,  -10.9295E-03,   12.5991E-03
C:/temp/dataset/6/21_18.odb,Step-1,Increment      1: Step Time =    1.000,"PART-1-1",           772,      -12.2208,       17.3915,            0.,NA,NA,"",   469.710E-03,   460.207E-03,   94.0073E-03,   587.900E-09
C:/temp/dataset/6/21_18.odb,Step-1,Increment      1: Step Time =    1.000,"PART-1-1",           773,      -12.0398,       10.1961,            0.,NA,NA,"",   458.400E-03,   448.716E-03,   93.7241E-03,   3.36390E-06
C:/temp/dataset/6/21_18.odb,Step-1,Increment      1: Step Time =    1.000,"PART-1-1",           774,      -10.8637,      -2.91198,            0.,NA,NA,"",   438.835E-03,   429.474E-03,   90.1557E-03,   1.57282E-03
C:/temp/dataset/6/21_18.odb,Step-1,Increment      1: Step Time =    1.000,"PART-1-1",           775,      -9.61620,      -11.5179,            0.,NA,NA,"",   424.610E-03,   416.492E-03,   82.6285E-03,   3.16604E-03
C:/temp/dataset/6/21_18.odb,Step-1,Increment      1: Step Time =    1.000,"PART-1-1",           776,      -11.8201,      -24.5932,            0.,NA,NA,"",   128.011E-03,   122.537E-03,   37.0335E-03,   14.1977E-03
C:/temp/dataset/6/21_18.odb,Step-1,Increment      1: Step Time =    1.000,"PART-1-1",           777,      -11.0718,      -23.4296,            0.,NA,NA,"",   161.483E-03,   157.762E-03,   34.4668E-03,   17.7372E-03
C:/temp/dataset/6/21_18.odb,Step-1,Increment      1: Step Time =    1.000,"PART-1-1",           778,       4.75405,      -23.0816,            0.,NA,NA,"",   76.4244E-03,   75.7152E-03,   10.3875E-03,   7.71414E-03
C:/temp/dataset/6/21_18.odb,Step-1,Increment      1: Step Time =    1.000,"PART-1-1",           779,       5.55198,      -21.9930,            0.,NA,NA,"",   82.9569E-03,   81.7091E-03,   14.3344E-03,   6.44293E-03
C:/temp/dataset/6/21_18.odb,Step-1,Increment      1: Step Time =    1.000,"PART-1-1",           780,       7.01336,      -26.0950,            0.,NA,NA,"",   39.0956E-03,   39.0744E-03,   1.28761E-03,   6.34157E-03
C:/temp/dataset/6/21_18.odb,Step-1,Increment      1: Step Time =    1.000,"PART-1-1",           781,       4.10189,      -23.9882,            0.,NA,NA,"",   70.3567E-03,   70.0248E-03,   6.82635E-03,   8.57406E-03
C:/temp/dataset/6/21_18.odb,Step-1,Increment      1: Step Time =    1.000,"PART-1-1",           782,       4.14804,      -25.2051,            0.,NA,NA,"",   57.4276E-03,   57.3066E-03,   3.72596E-03,   8.65393E-03
C:/temp/dataset/6/21_18.odb,Step-1,Increment      1: Step Time =    1.000,"PART-1-1",           783,      -12.1264,       12.6156,            0.,NA,NA,"",   462.215E-03,   452.584E-03,   93.8603E-03,   2.53833E-06
C:/temp/dataset/6/21_18.odb,Step-1,Increment      1: Step Time =    1.000,"PART-1-1",           784,      -12.1709,       15.0185,            0.,NA,NA,"",   465.985E-03,   456.420E-03,   93.9298E-03,   1.49064E-06
C:/temp/dataset/6/21_18.odb,Step-1,Increment      1: Step Time =    1.000,"PART-1-1",           785,      -10.3060,       3.43341,            0.,NA,NA,"",   446.989E-03,   437.623E-03,   91.0222E-03,   108.250E-06
C:/temp/dataset/6/21_18.odb,Step-1,Increment      1: Step Time =    1.000,"PART-1-1",           786,      -9.35047,  -311.861E-03,            0.,NA,NA,"",   439.949E-03,   430.985E-03,   88.3601E-03,   910.581E-06
C:/temp/dataset/6/21_18.odb,Step-1,Increment      1: Step Time =    1.000,"PART-1-1",           787,      -9.47746,      -1.56252,            0.,NA,NA,"",   438.306E-03,   429.457E-03,   87.6325E-03,   1.47279E-03
C:/temp/dataset/6/21_18.odb,Step-1,Increment      1: Step Time =    1.000,"PART-1-1",           788,      -7.56677,      -1.93629,            0.,NA,NA,"",   434.520E-03,   426.429E-03,   83.4586E-03,   2.00625E-03
C:/temp/dataset/6/21_18.odb,Step-1,Increment      1: Step Time =    1.000,"PART-1-1",           789,      -9.57637,      -3.06595,            0.,NA,NA,"",   436.964E-03,   428.326E-03,   86.4542E-03,   1.91659E-03
C:/temp/dataset/6/21_18.odb,Step-1,Increment      1: Step Time =    1.000,"PART-1-1",           790,      -8.24618,      -3.39128,            0.,NA,NA,"",   434.223E-03,   426.322E-03,   82.4584E-03,   2.70994E-03
C:/temp/dataset/6/21_18.odb,Step-1,Increment      1: Step Time =    1.000,"PART-1-1",           791,       7.98922,      -7.69035,            0.,NA,NA,"",   309.666E-03,   309.628E-03,   4.83293E-03,   3.10444E-03
C:/temp/dataset/6/21_18.odb,Step-1,Increment      1: Step Time =    1.000,"PART-1-1",           792,       7.96586,      -10.1263,            0.,NA,NA,"",   263.532E-03,   263.439E-03,   7.02261E-03,   2.44996E-03
C:/temp/dataset/6/21_18.odb,Step-1,Increment      1: Step Time =    1.000,"PART-1-1",           793,       7.95460,      -12.5381,            0.,NA,NA,"",   218.352E-03,   218.208E-03,   7.95051E-03,   2.28983E-03
C:/temp/dataset/6/21_18.odb,Step-1,Increment      1: Step Time =    1.000,"PART-1-1",           794,      -6.90534,       4.84567,            0.,NA,NA,"",   448.611E-03,   440.355E-03,   85.6696E-03,   304.049E-06
C:/temp/dataset/6/21_18.odb,Step-1,Increment      1: Step Time =    1.000,"PART-1-1",           795,      -7.09219,       3.25090,            0.,NA,NA,"",   445.585E-03,   437.180E-03,   86.1364E-03,   522.512E-06
C:/temp/dataset/6/21_18.odb,Step-1,Increment      1: Step Time =    1.000,"PART-1-1",           796,      -5.99438,      -2.38990,            0.,NA,NA,"",   430.200E-03,   422.600E-03,   80.5080E-03,   2.71340E-03
C:/temp/dataset/6/21_18.odb,Step-1,Increment      1: Step Time =    1.000,"PART-1-1",           797,      -8.16339,       2.56404,            0.,NA,NA,"",   444.501E-03,   435.770E-03,   87.6641E-03,   404.144E-06
C:/temp/dataset/6/21_18.odb,Step-1,Increment      1: Step Time =    1.000,"PART-1-1",           798,      -6.16245,       1.98671,            0.,NA,NA,"",   442.190E-03,   433.999E-03,   84.7149E-03,   911.220E-06
C:/temp/dataset/6/21_18.odb,Step-1,Increment      1: Step Time =    1.000,"PART-1-1",           799,      -9.36160,       1.80674,            0.,NA,NA,"",   443.665E-03,   434.579E-03,   89.3294E-03,   412.350E-06
C:/temp/dataset/6/21_18.odb,Step-1,Increment      1: Step Time =    1.000,"PART-1-1",           800,      -4.18828,       1.89018,            0.,NA,NA,"",   440.964E-03,   433.338E-03,   81.6540E-03,   1.13867E-03
C:/temp/dataset/6/21_18.odb,Step-1,Increment      1: Step Time =    1.000,"PART-1-1",           801,      -2.02478,       2.01876,            0.,NA,NA,"",   440.711E-03,   433.964E-03,   76.8228E-03,   1.15044E-03
C:/temp/dataset/6/21_18.odb,Step-1,Increment      1: Step Time =    1.000,"PART-1-1",           802,       5.29765,      -24.4346,            0.,NA,NA,"",   61.4212E-03,   61.0956E-03,   6.31656E-03,   7.54097E-03
C:/temp/dataset/6/21_18.odb,Step-1,Increment      1: Step Time =    1.000,"PART-1-1",           803,       8.18651,      -25.0309,            0.,NA,NA,"",   46.9644E-03,   46.9638E-03,  -248.726E-06,   4.65669E-03
C:/temp/dataset/6/21_18.odb,Step-1,Increment      1: Step Time =    1.000,"PART-1-1",           804,       6.01068,      -25.2345,            0.,NA,NA,"",   50.8258E-03,   50.6708E-03,   3.96635E-03,   6.94739E-03
