ODB Name,Step,Frame,Part Instance Name,    êﬂì_ÉâÉxÉã,X,Y,Z,Section Name,Material Name,Section Point,   U-Magnitude,          U-U1,          U-U2,       S-Mises
C:/temp/dataset/6/21_8.odb,Step-1,Increment      1: Step Time =    1.000,"PART-1-1",             1,            5.,           -5.,            0.,NA,NA,"",   165.091E-03,   163.855E-03,   20.1614E-03,   4.41032E-03
C:/temp/dataset/6/21_8.odb,Step-1,Increment      1: Step Time =    1.000,"PART-1-1",             2,            0.,           -5.,            0.,NA,NA,"",   179.757E-03,   177.349E-03,   29.3246E-03,   2.10694E-03
C:/temp/dataset/6/21_8.odb,Step-1,Increment      1: Step Time =    1.000,"PART-1-1",             3,            5.,      -10.0250,            0.,NA,NA,"",   121.145E-03,   118.410E-03,   25.5951E-03,   195.193E-06
C:/temp/dataset/6/21_8.odb,Step-1,Increment      1: Step Time =    1.000,"PART-1-1",             4,            5.,      -15.0500,            0.,NA,NA,"",   81.5607E-03,   78.1838E-03,   23.2259E-03,   1.25044E-03
C:/temp/dataset/6/21_8.odb,Step-1,Increment      1: Step Time =    1.000,"PART-1-1",             5,            5.,          -20.,            0.,NA,NA,"",   43.8845E-03,   42.4983E-03,   10.9429E-03,   4.46685E-03
C:/temp/dataset/6/21_8.odb,Step-1,Increment      1: Step Time =    1.000,"PART-1-1",             6,            0.,          -20.,            0.,NA,NA,"",   48.8729E-03,   48.8182E-03,   2.31264E-03,   3.57450E-03
C:/temp/dataset/6/21_8.odb,Step-1,Increment      1: Step Time =    1.000,"PART-1-1",             7,           -5.,          -20.,            0.,NA,NA,"",   86.9826E-03,   86.6546E-03,  -7.54727E-03,   13.4419E-03
C:/temp/dataset/6/21_8.odb,Step-1,Increment      1: Step Time =    1.000,"PART-1-1",             8,           -5.,      -14.9750,            0.,NA,NA,"",   164.658E-03,   164.592E-03,   4.65509E-03,   5.27250E-03
C:/temp/dataset/6/21_8.odb,Step-1,Increment      1: Step Time =    1.000,"PART-1-1",             9,           -5.,      -9.95000,            0.,NA,NA,"",   187.090E-03,   185.544E-03,   23.9992E-03,   3.19380E-03
C:/temp/dataset/6/21_8.odb,Step-1,Increment      1: Step Time =    1.000,"PART-1-1",            10,           -5.,           -5.,            0.,NA,NA,"",   190.151E-03,   187.053E-03,   34.1855E-03,   1.88768E-03
C:/temp/dataset/6/21_8.odb,Step-1,Increment      1: Step Time =    1.000,"PART-1-1",            11,           15.,          -30.,            0.,NA,NA,"",            0.,   2.24335E-39,  -3.87199E-39,   7.56981E-03
C:/temp/dataset/6/21_8.odb,Step-1,Increment      1: Step Time =    1.000,"PART-1-1",            12,          -15.,          -30.,            0.,NA,NA,"",            0.,   5.05590E-39,   8.74058E-39,   16.5625E-03
C:/temp/dataset/6/21_8.odb,Step-1,Increment      1: Step Time =    1.000,"PART-1-1",            13,           15.,        -21.25,            0.,NA,NA,"",   49.5729E-03,   40.8254E-03,  -28.1205E-03,   2.53447E-03
C:/temp/dataset/6/21_8.odb,Step-1,Increment      1: Step Time =    1.000,"PART-1-1",            14,           15.,         -12.5,            0.,NA,NA,"",   108.108E-03,   99.0017E-03,  -43.4275E-03,   874.972E-06
C:/temp/dataset/6/21_8.odb,Step-1,Increment      1: Step Time =    1.000,"PART-1-1",            15,           15.,         -3.75,            0.,NA,NA,"",   169.965E-03,   164.917E-03,  -41.1179E-03,   1.04945E-03
C:/temp/dataset/6/21_8.odb,Step-1,Increment      1: Step Time =    1.000,"PART-1-1",            16,           15.,            5.,            0.,NA,NA,"",   216.735E-03,   213.482E-03,  -37.4110E-03,   37.1071E-06
C:/temp/dataset/6/21_8.odb,Step-1,Increment      1: Step Time =    1.000,"PART-1-1",            17,           10.,            5.,            0.,NA,NA,"",   212.922E-03,   212.719E-03,  -9.28897E-03,   619.668E-06
C:/temp/dataset/6/21_8.odb,Step-1,Increment      1: Step Time =    1.000,"PART-1-1",            18,            5.,            5.,            0.,NA,NA,"",   208.331E-03,   207.732E-03,   15.7949E-03,   1.48117E-03
C:/temp/dataset/6/21_8.odb,Step-1,Increment      1: Step Time =    1.000,"PART-1-1",            19,            0.,            5.,            0.,NA,NA,"",   203.593E-03,   201.222E-03,   30.9776E-03,   1.23295E-03
C:/temp/dataset/6/21_8.odb,Step-1,Increment      1: Step Time =    1.000,"PART-1-1",            20,           -5.,            5.,            0.,NA,NA,"",   200.873E-03,   197.280E-03,   37.8205E-03,   399.295E-06
C:/temp/dataset/6/21_8.odb,Step-1,Increment      1: Step Time =    1.000,"PART-1-1",            21,           -5.,         11.25,            0.,NA,NA,"",   204.899E-03,   201.393E-03,   37.7430E-03,   3.66206E-06
C:/temp/dataset/6/21_8.odb,Step-1,Increment      1: Step Time =    1.000,"PART-1-1",            22,           -5.,          17.5,            0.,NA,NA,"",   209.374E-03,   205.946E-03,   37.7347E-03,   152.730E-09
C:/temp/dataset/6/21_8.odb,Step-1,Increment      1: Step Time =    1.000,"PART-1-1",            23,           -5.,         23.75,            0.,NA,NA,"",   213.855E-03,   210.500E-03,   37.7329E-03,   12.2221E-09
C:/temp/dataset/6/21_8.odb,Step-1,Increment      1: Step Time =    1.000,"PART-1-1",            24,           -5.,           30.,            0.,NA,NA,"",   218.338E-03,   215.053E-03,   37.7313E-03,   326.742E-12
C:/temp/dataset/6/21_8.odb,Step-1,Increment      1: Step Time =    1.000,"PART-1-1",            25,          -10.,           30.,            0.,NA,NA,"",   218.998E-03,   215.055E-03,   41.3741E-03,   3.89784E-09
C:/temp/dataset/6/21_8.odb,Step-1,Increment      1: Step Time =    1.000,"PART-1-1",            26,          -15.,           30.,            0.,NA,NA,"",   219.717E-03,   215.056E-03,   45.0169E-03,   388.065E-12
C:/temp/dataset/6/21_8.odb,Step-1,Increment      1: Step Time =    1.000,"PART-1-1",            27,          -15.,          22.5,            0.,NA,NA,"",   214.372E-03,   209.592E-03,   45.0189E-03,   15.3567E-09
C:/temp/dataset/6/21_8.odb,Step-1,Increment      1: Step Time =    1.000,"PART-1-1",            28,          -15.,           15.,            0.,NA,NA,"",   209.034E-03,   204.128E-03,   45.0217E-03,   627.570E-09
C:/temp/dataset/6/21_8.odb,Step-1,Increment      1: Step Time =    1.000,"PART-1-1",            29,          -15.,           7.5,            0.,NA,NA,"",   203.680E-03,   198.639E-03,   45.0371E-03,   1.39237E-06
C:/temp/dataset/6/21_8.odb,Step-1,Increment      1: Step Time =    1.000,"PART-1-1",            30,          -15.,            0.,            0.,NA,NA,"",   198.506E-03,   193.364E-03,   44.8885E-03,   13.3407E-06
C:/temp/dataset/6/21_8.odb,Step-1,Increment      1: Step Time =    1.000,"PART-1-1",            31,          -15.,          -7.5,            0.,NA,NA,"",   195.172E-03,   189.117E-03,   48.2392E-03,   1.24515E-03
C:/temp/dataset/6/21_8.odb,Step-1,Increment      1: Step Time =    1.000,"PART-1-1",            32,          -15.,          -15.,            0.,NA,NA,"",   193.718E-03,   185.047E-03,   57.3057E-03,   4.77095E-03
C:/temp/dataset/6/21_8.odb,Step-1,Increment      1: Step Time =    1.000,"PART-1-1",            33,          -15.,         -22.5,            0.,NA,NA,"",   122.079E-03,   104.301E-03,   63.4390E-03,   6.24145E-03
C:/temp/dataset/6/21_8.odb,Step-1,Increment      1: Step Time =    1.000,"PART-1-1",            34,           2.5,           -5.,            0.,NA,NA,"",   174.042E-03,   172.327E-03,   24.3696E-03,   2.60570E-03
C:/temp/dataset/6/21_8.odb,Step-1,Increment      1: Step Time =    1.000,"PART-1-1",            35,            5.,      -7.51250,            0.,NA,NA,"",   141.965E-03,   139.803E-03,   24.6784E-03,   1.41805E-03
C:/temp/dataset/6/21_8.odb,Step-1,Increment      1: Step Time =    1.000,"PART-1-1",            36,            5.,      -12.5375,            0.,NA,NA,"",   101.078E-03,   97.8774E-03,   25.2343E-03,   535.732E-06
C:/temp/dataset/6/21_8.odb,Step-1,Increment      1: Step Time =    1.000,"PART-1-1",            37,            5.,      -17.5250,            0.,NA,NA,"",   62.9913E-03,   59.8249E-03,   19.7200E-03,   2.27469E-03
C:/temp/dataset/6/21_8.odb,Step-1,Increment      1: Step Time =    1.000,"PART-1-1",            38,           2.5,          -20.,            0.,NA,NA,"",   42.7186E-03,   42.3862E-03,   5.31834E-03,   2.00163E-03
C:/temp/dataset/6/21_8.odb,Step-1,Increment      1: Step Time =    1.000,"PART-1-1",            39,          -2.5,          -20.,            0.,NA,NA,"",   58.9200E-03,   58.9058E-03,  -1.29647E-03,   7.68862E-03
C:/temp/dataset/6/21_8.odb,Step-1,Increment      1: Step Time =    1.000,"PART-1-1",            40,           -5.,      -17.4875,            0.,NA,NA,"",   138.007E-03,   137.817E-03,  -7.23050E-03,   4.47735E-03
C:/temp/dataset/6/21_8.odb,Step-1,Increment      1: Step Time =    1.000,"PART-1-1",            41,           -5.,      -12.4625,            0.,NA,NA,"",   179.399E-03,   178.723E-03,   15.5585E-03,   4.28430E-03
C:/temp/dataset/6/21_8.odb,Step-1,Increment      1: Step Time =    1.000,"PART-1-1",            42,           -5.,      -7.47500,            0.,NA,NA,"",   190.662E-03,   188.301E-03,   29.9128E-03,   2.27601E-03
C:/temp/dataset/6/21_8.odb,Step-1,Increment      1: Step Time =    1.000,"PART-1-1",            43,          -2.5,           -5.,            0.,NA,NA,"",   184.975E-03,   182.011E-03,   32.9822E-03,   2.06126E-03
C:/temp/dataset/6/21_8.odb,Step-1,Increment      1: Step Time =    1.000,"PART-1-1",            44,          12.5,          -30.,            0.,NA,NA,"",            0.,   3.02153E-39,  -4.70302E-39,   2.34334E-03
C:/temp/dataset/6/21_8.odb,Step-1,Increment      1: Step Time =    1.000,"PART-1-1",            45,           10.,          -30.,            0.,NA,NA,"",            0.,   1.14391E-39,  -1.14200E-39,   2.24795E-03
C:/temp/dataset/6/21_8.odb,Step-1,Increment      1: Step Time =    1.000,"PART-1-1",            46,           7.5,          -30.,            0.,NA,NA,"",            0.,   2.00743E-39,  -50.2716E-42,   2.57648E-03
C:/temp/dataset/6/21_8.odb,Step-1,Increment      1: Step Time =    1.000,"PART-1-1",            47,            5.,          -30.,            0.,NA,NA,"",            0.,   3.69559E-39,  -2.10438E-39,   3.40976E-03
C:/temp/dataset/6/21_8.odb,Step-1,Increment      1: Step Time =    1.000,"PART-1-1",            48,           2.5,          -30.,            0.,NA,NA,"",            0.,   4.60069E-39,  -3.11500E-39,   4.21453E-03
C:/temp/dataset/6/21_8.odb,Step-1,Increment      1: Step Time =    1.000,"PART-1-1",            49,            0.,          -30.,            0.,NA,NA,"",            0.,   3.51158E-39,   454.458E-42,   4.73190E-03
C:/temp/dataset/6/21_8.odb,Step-1,Increment      1: Step Time =    1.000,"PART-1-1",            50,          -2.5,          -30.,            0.,NA,NA,"",            0.,   5.09823E-39,  -5.13431E-39,   4.75404E-03
C:/temp/dataset/6/21_8.odb,Step-1,Increment      1: Step Time =    1.000,"PART-1-1",            51,           -5.,          -30.,            0.,NA,NA,"",            0.,   4.43349E-39,  -4.53351E-39,   4.26500E-03
C:/temp/dataset/6/21_8.odb,Step-1,Increment      1: Step Time =    1.000,"PART-1-1",            52,          -7.5,          -30.,            0.,NA,NA,"",            0.,   3.15752E-39,  -2.48664E-39,   3.49055E-03
C:/temp/dataset/6/21_8.odb,Step-1,Increment      1: Step Time =    1.000,"PART-1-1",            53,          -10.,          -30.,            0.,NA,NA,"",            0.,   3.45010E-39,   4.23746E-39,   3.27655E-03
C:/temp/dataset/6/21_8.odb,Step-1,Increment      1: Step Time =    1.000,"PART-1-1",            54,         -12.5,          -30.,            0.,NA,NA,"",            0.,   4.79924E-39,   6.70877E-39,   4.56880E-03
C:/temp/dataset/6/21_8.odb,Step-1,Increment      1: Step Time =    1.000,"PART-1-1",            55,           15.,      -23.4375,            0.,NA,NA,"",   38.1004E-03,   30.3772E-03,  -22.9971E-03,   2.69919E-03
C:/temp/dataset/6/21_8.odb,Step-1,Increment      1: Step Time =    1.000,"PART-1-1",            56,           15.,       -25.625,            0.,NA,NA,"",   27.1061E-03,   20.7302E-03,  -17.4642E-03,   2.99361E-03
C:/temp/dataset/6/21_8.odb,Step-1,Increment      1: Step Time =    1.000,"PART-1-1",            57,           15.,      -27.8125,            0.,NA,NA,"",   15.7226E-03,   11.3260E-03,  -10.9051E-03,   4.46414E-03
C:/temp/dataset/6/21_8.odb,Step-1,Increment      1: Step Time =    1.000,"PART-1-1",            58,           15.,      -14.6875,            0.,NA,NA,"",   91.8314E-03,   82.1660E-03,  -41.0093E-03,   1.51075E-03
C:/temp/dataset/6/21_8.odb,Step-1,Increment      1: Step Time =    1.000,"PART-1-1",            59,           15.,       -16.875,            0.,NA,NA,"",   76.4007E-03,   66.5984E-03,  -37.4396E-03,   2.03734E-03
C:/temp/dataset/6/21_8.odb,Step-1,Increment      1: Step Time =    1.000,"PART-1-1",            60,           15.,      -19.0625,            0.,NA,NA,"",   62.2559E-03,   52.7822E-03,  -33.0126E-03,   2.38089E-03
C:/temp/dataset/6/21_8.odb,Step-1,Increment      1: Step Time =    1.000,"PART-1-1",            61,           15.,       -5.9375,            0.,NA,NA,"",   156.147E-03,   150.091E-03,  -43.0681E-03,   897.093E-06
C:/temp/dataset/6/21_8.odb,Step-1,Increment      1: Step Time =    1.000,"PART-1-1",            62,           15.,        -8.125,            0.,NA,NA,"",   140.900E-03,   133.731E-03,  -44.3712E-03,   434.400E-06
C:/temp/dataset/6/21_8.odb,Step-1,Increment      1: Step Time =    1.000,"PART-1-1",            63,           15.,      -10.3125,            0.,NA,NA,"",   124.673E-03,   116.441E-03,  -44.5523E-03,   204.195E-06
C:/temp/dataset/6/21_8.odb,Step-1,Increment      1: Step Time =    1.000,"PART-1-1",            64,           15.,        2.8125,            0.,NA,NA,"",   205.063E-03,   201.624E-03,  -37.3960E-03,   102.518E-06
C:/temp/dataset/6/21_8.odb,Step-1,Increment      1: Step Time =    1.000,"PART-1-1",            65,           15.,      625.E-03,            0.,NA,NA,"",   193.792E-03,   190.054E-03,  -37.8825E-03,   471.825E-06
C:/temp/dataset/6/21_8.odb,Step-1,Increment      1: Step Time =    1.000,"PART-1-1",            66,           15.,       -1.5625,            0.,NA,NA,"",   182.348E-03,   178.086E-03,  -39.1943E-03,   865.630E-06
C:/temp/dataset/6/21_8.odb,Step-1,Increment      1: Step Time =    1.000,"PART-1-1",            67,          12.5,            5.,            0.,NA,NA,"",   214.771E-03,   213.481E-03,  -23.5095E-03,   134.325E-06
C:/temp/dataset/6/21_8.odb,Step-1,Increment      1: Step Time =    1.000,"PART-1-1",            68,           7.5,            5.,            0.,NA,NA,"",   210.782E-03,   210.740E-03,   4.21296E-03,   1.15785E-03
C:/temp/dataset/6/21_8.odb,Step-1,Increment      1: Step Time =    1.000,"PART-1-1",            69,           2.5,            5.,            0.,NA,NA,"",   205.813E-03,   204.325E-03,   24.7082E-03,   1.46888E-03
C:/temp/dataset/6/21_8.odb,Step-1,Increment      1: Step Time =    1.000,"PART-1-1",            70,          -2.5,            5.,            0.,NA,NA,"",   201.960E-03,   198.886E-03,   35.1030E-03,   865.212E-06
C:/temp/dataset/6/21_8.odb,Step-1,Increment      1: Step Time =    1.000,"PART-1-1",            71,           -5.,       9.16667,            0.,NA,NA,"",   203.423E-03,   199.888E-03,   37.7573E-03,   13.2837E-06
C:/temp/dataset/6/21_8.odb,Step-1,Increment      1: Step Time =    1.000,"PART-1-1",            72,           -5.,       7.08333,            0.,NA,NA,"",   201.993E-03,   198.427E-03,   37.7859E-03,   85.0047E-06
C:/temp/dataset/6/21_8.odb,Step-1,Increment      1: Step Time =    1.000,"PART-1-1",            73,           -5.,       15.4167,            0.,NA,NA,"",   207.881E-03,   204.427E-03,   37.7357E-03,   522.781E-09
C:/temp/dataset/6/21_8.odb,Step-1,Increment      1: Step Time =    1.000,"PART-1-1",            74,           -5.,       13.3333,            0.,NA,NA,"",   206.389E-03,   202.909E-03,   37.7383E-03,   1.60535E-06
C:/temp/dataset/6/21_8.odb,Step-1,Increment      1: Step Time =    1.000,"PART-1-1",            75,           -5.,       21.6667,            0.,NA,NA,"",   212.361E-03,   208.982E-03,   37.7334E-03,   17.4943E-09
C:/temp/dataset/6/21_8.odb,Step-1,Increment      1: Step Time =    1.000,"PART-1-1",            76,           -5.,       19.5833,            0.,NA,NA,"",   210.867E-03,   207.464E-03,   37.7340E-03,   17.4350E-09
C:/temp/dataset/6/21_8.odb,Step-1,Increment      1: Step Time =    1.000,"PART-1-1",            77,           -5.,       27.9167,            0.,NA,NA,"",   216.843E-03,   213.535E-03,   37.7318E-03,   1.59487E-09
C:/temp/dataset/6/21_8.odb,Step-1,Increment      1: Step Time =    1.000,"PART-1-1",            78,           -5.,       25.8333,            0.,NA,NA,"",   215.349E-03,   212.018E-03,   37.7324E-03,   6.10964E-09
C:/temp/dataset/6/21_8.odb,Step-1,Increment      1: Step Time =    1.000,"PART-1-1",            79,          -7.5,           30.,            0.,NA,NA,"",   218.661E-03,   215.054E-03,   39.5527E-03,   1.85648E-09
C:/temp/dataset/6/21_8.odb,Step-1,Increment      1: Step Time =    1.000,"PART-1-1",            80,         -12.5,           30.,            0.,NA,NA,"",   219.350E-03,   215.055E-03,   43.1955E-03,   1.76337E-09
C:/temp/dataset/6/21_8.odb,Step-1,Increment      1: Step Time =    1.000,"PART-1-1",            81,          -15.,           25.,            0.,NA,NA,"",   216.153E-03,   211.413E-03,   45.0183E-03,   8.40726E-09
C:/temp/dataset/6/21_8.odb,Step-1,Increment      1: Step Time =    1.000,"PART-1-1",            82,          -15.,          27.5,            0.,NA,NA,"",   217.935E-03,   213.234E-03,   45.0176E-03,   2.30863E-09
C:/temp/dataset/6/21_8.odb,Step-1,Increment      1: Step Time =    1.000,"PART-1-1",            83,          -15.,          17.5,            0.,NA,NA,"",   210.813E-03,   205.949E-03,   45.0203E-03,   131.462E-09
C:/temp/dataset/6/21_8.odb,Step-1,Increment      1: Step Time =    1.000,"PART-1-1",            84,          -15.,           20.,            0.,NA,NA,"",   212.592E-03,   207.770E-03,   45.0195E-03,   10.1217E-09
C:/temp/dataset/6/21_8.odb,Step-1,Increment      1: Step Time =    1.000,"PART-1-1",            85,          -15.,           10.,            0.,NA,NA,"",   205.475E-03,   200.479E-03,   45.0314E-03,   3.30032E-06
C:/temp/dataset/6/21_8.odb,Step-1,Increment      1: Step Time =    1.000,"PART-1-1",            86,          -15.,          12.5,            0.,NA,NA,"",   207.256E-03,   202.306E-03,   45.0250E-03,   1.81311E-06
C:/temp/dataset/6/21_8.odb,Step-1,Increment      1: Step Time =    1.000,"PART-1-1",            87,          -15.,           2.5,            0.,NA,NA,"",   200.095E-03,   194.980E-03,   44.9559E-03,   35.9867E-06
C:/temp/dataset/6/21_8.odb,Step-1,Increment      1: Step Time =    1.000,"PART-1-1",            88,          -15.,            5.,            0.,NA,NA,"",   201.871E-03,   196.786E-03,   45.0214E-03,   17.9393E-06
C:/temp/dataset/6/21_8.odb,Step-1,Increment      1: Step Time =    1.000,"PART-1-1",            89,          -15.,           -5.,            0.,NA,NA,"",   196.360E-03,   190.880E-03,   46.0656E-03,   690.090E-06
C:/temp/dataset/6/21_8.odb,Step-1,Increment      1: Step Time =    1.000,"PART-1-1",            90,          -15.,          -2.5,            0.,NA,NA,"",   197.284E-03,   192.061E-03,   45.0961E-03,   225.404E-06
C:/temp/dataset/6/21_8.odb,Step-1,Increment      1: Step Time =    1.000,"PART-1-1",            91,          -15.,         -12.5,            0.,NA,NA,"",   190.214E-03,   181.983E-03,   55.3486E-03,   2.14783E-03
C:/temp/dataset/6/21_8.odb,Step-1,Increment      1: Step Time =    1.000,"PART-1-1",            92,          -15.,          -10.,            0.,NA,NA,"",   193.067E-03,   186.084E-03,   51.4558E-03,   1.64738E-03
C:/temp/dataset/6/21_8.odb,Step-1,Increment      1: Step Time =    1.000,"PART-1-1",            93,          -15.,          -20.,            0.,NA,NA,"",   165.487E-03,   151.612E-03,   66.3296E-03,   7.60688E-03
C:/temp/dataset/6/21_8.odb,Step-1,Increment      1: Step Time =    1.000,"PART-1-1",            94,          -15.,         -17.5,            0.,NA,NA,"",   191.165E-03,   179.796E-03,   64.9409E-03,   7.83798E-03
C:/temp/dataset/6/21_8.odb,Step-1,Increment      1: Step Time =    1.000,"PART-1-1",            95,          -15.,         -27.5,            0.,NA,NA,"",   39.2213E-03,   27.3480E-03,   28.1140E-03,   10.5579E-03
C:/temp/dataset/6/21_8.odb,Step-1,Increment      1: Step Time =    1.000,"PART-1-1",            96,          -15.,          -25.,            0.,NA,NA,"",   74.3211E-03,   57.2355E-03,   47.4101E-03,   7.86187E-03
C:/temp/dataset/6/21_8.odb,Step-1,Increment      1: Step Time =    1.000,"PART-1-1",            97,       13.0047,      -3.80353,            0.,NA,NA,"",   167.792E-03,   165.368E-03,  -28.4180E-03,   559.671E-06
C:/temp/dataset/6/21_8.odb,Step-1,Increment      1: Step Time =    1.000,"PART-1-1",            98,       6.97971,      -7.55833,            0.,NA,NA,"",   139.605E-03,   139.281E-03,   9.50509E-03,   1.62274E-03
C:/temp/dataset/6/21_8.odb,Step-1,Increment      1: Step Time =    1.000,"PART-1-1",            99,       6.96639,      -10.0829,            0.,NA,NA,"",   118.374E-03,   117.914E-03,   10.4322E-03,   889.761E-06
C:/temp/dataset/6/21_8.odb,Step-1,Increment      1: Step Time =    1.000,"PART-1-1",           100,       12.9900,      -12.5465,            0.,NA,NA,"",   102.117E-03,   98.0034E-03,  -28.6907E-03,   1.06373E-03
C:/temp/dataset/6/21_8.odb,Step-1,Increment      1: Step Time =    1.000,"PART-1-1",           101,       6.90028,      -17.1420,            0.,NA,NA,"",   62.1420E-03,   61.5466E-03,   8.58176E-03,   1.84201E-03
C:/temp/dataset/6/21_8.odb,Step-1,Increment      1: Step Time =    1.000,"PART-1-1",           102,       7.03871,      -19.0570,            0.,NA,NA,"",   48.7736E-03,   48.3671E-03,   6.28373E-03,   1.50669E-03
C:/temp/dataset/6/21_8.odb,Step-1,Increment      1: Step Time =    1.000,"PART-1-1",           103,       5.31709,      -21.2647,            0.,NA,NA,"",   39.8613E-03,   39.0620E-03,   7.94262E-03,   3.15009E-03
C:/temp/dataset/6/21_8.odb,Step-1,Increment      1: Step Time =    1.000,"PART-1-1",           104,      -4.83361,      -22.6144,            0.,NA,NA,"",   58.8023E-03,   58.4212E-03,  -6.68388E-03,   5.12318E-03
C:/temp/dataset/6/21_8.odb,Step-1,Increment      1: Step Time =    1.000,"PART-1-1",           105,      -7.46484,      -17.6587,            0.,NA,NA,"",   142.570E-03,   141.556E-03,   16.9731E-03,   6.28283E-03
C:/temp/dataset/6/21_8.odb,Step-1,Increment      1: Step Time =    1.000,"PART-1-1",           106,      -12.5283,      -27.3245,            0.,NA,NA,"",   25.0247E-03,   22.1027E-03,   11.7348E-03,   6.71225E-03
C:/temp/dataset/6/21_8.odb,Step-1,Increment      1: Step Time =    1.000,"PART-1-1",           107,      -12.4870,      -17.6221,            0.,NA,NA,"",   171.693E-03,   165.033E-03,   47.3562E-03,   7.64243E-03
C:/temp/dataset/6/21_8.odb,Step-1,Increment      1: Step Time =    1.000,"PART-1-1",           108,      -7.32043,      -12.6401,            0.,NA,NA,"",   183.194E-03,   181.348E-03,   25.9367E-03,   2.24849E-03
C:/temp/dataset/6/21_8.odb,Step-1,Increment      1: Step Time =    1.000,"PART-1-1",           109,      -7.14644,      -8.03697,            0.,NA,NA,"",   192.421E-03,   189.742E-03,   31.9943E-03,   1.63246E-03
C:/temp/dataset/6/21_8.odb,Step-1,Increment      1: Step Time =    1.000,"PART-1-1",           110,      -12.6601,       4.88622,            0.,NA,NA,"",   201.408E-03,   196.692E-03,   43.3262E-03,   23.4258E-06
C:/temp/dataset/6/21_8.odb,Step-1,Increment      1: Step Time =    1.000,"PART-1-1",           111,      -13.0978,       12.5399,            0.,NA,NA,"",   206.988E-03,   202.336E-03,   43.6362E-03,   1.17767E-06
C:/temp/dataset/6/21_8.odb,Step-1,Increment      1: Step Time =    1.000,"PART-1-1",           112,      -6.45576,       21.8628,            0.,NA,NA,"",   212.693E-03,   209.125E-03,   38.7941E-03,   9.16377E-09
C:/temp/dataset/6/21_8.odb,Step-1,Increment      1: Step Time =    1.000,"PART-1-1",           113,      -7.28884,       25.7044,            0.,NA,NA,"",   215.556E-03,   211.924E-03,   39.4000E-03,   4.95546E-09
C:/temp/dataset/6/21_8.odb,Step-1,Increment      1: Step Time =    1.000,"PART-1-1",           114,      -9.90518,       27.6474,            0.,NA,NA,"",   217.302E-03,   213.341E-03,   41.3057E-03,   2.77874E-09
C:/temp/dataset/6/21_8.odb,Step-1,Increment      1: Step Time =    1.000,"PART-1-1",           115,      -3.01211,      -3.13168,            0.,NA,NA,"",   188.211E-03,   184.944E-03,   34.9136E-03,   1.21985E-03
C:/temp/dataset/6/21_8.odb,Step-1,Increment      1: Step Time =    1.000,"PART-1-1",           116,      -2.19169,       3.00836,            0.,NA,NA,"",   198.972E-03,   195.826E-03,   35.2428E-03,   549.881E-06
C:/temp/dataset/6/21_8.odb,Step-1,Increment      1: Step Time =    1.000,"PART-1-1",           117,       1.85193,      -2.77696,            0.,NA,NA,"",   181.700E-03,   179.623E-03,   27.3948E-03,   1.82617E-03
C:/temp/dataset/6/21_8.odb,Step-1,Increment      1: Step Time =    1.000,"PART-1-1",           118,       2.83229,       2.22691,            0.,NA,NA,"",   197.313E-03,   195.727E-03,   24.9694E-03,   508.021E-06
C:/temp/dataset/6/21_8.odb,Step-1,Increment      1: Step Time =    1.000,"PART-1-1",           119,       7.74921,       3.07964,            0.,NA,NA,"",   201.752E-03,   201.718E-03,   3.70267E-03,   757.937E-06
C:/temp/dataset/6/21_8.odb,Step-1,Increment      1: Step Time =    1.000,"PART-1-1",           120,      -2.47342,      -22.6017,            0.,NA,NA,"",   51.2834E-03,   50.9936E-03,  -5.44418E-03,   7.18914E-03
C:/temp/dataset/6/21_8.odb,Step-1,Increment      1: Step Time =    1.000,"PART-1-1",           121,      -7.48266,       20.3798,            0.,NA,NA,"",   211.769E-03,   208.045E-03,   39.5426E-03,   55.3123E-09
C:/temp/dataset/6/21_8.odb,Step-1,Increment      1: Step Time =    1.000,"PART-1-1",           122,      -7.10993,       13.1351,            0.,NA,NA,"",   206.533E-03,   202.765E-03,   39.2728E-03,   1.32988E-06
C:/temp/dataset/6/21_8.odb,Step-1,Increment      1: Step Time =    1.000,"PART-1-1",           123,      -6.64156,       6.82435,            0.,NA,NA,"",   201.996E-03,   198.210E-03,   38.9295E-03,   51.5223E-06
C:/temp/dataset/6/21_8.odb,Step-1,Increment      1: Step Time =    1.000,"PART-1-1",           124,      -12.9641,      -2.37512,            0.,NA,NA,"",   197.136E-03,   192.257E-03,   43.5846E-03,   399.686E-06
C:/temp/dataset/6/21_8.odb,Step-1,Increment      1: Step Time =    1.000,"PART-1-1",           125,      -12.1317,      -9.84573,            0.,NA,NA,"",   193.513E-03,   188.061E-03,   45.6076E-03,   1.34052E-03
C:/temp/dataset/6/21_8.odb,Step-1,Increment      1: Step Time =    1.000,"PART-1-1",           126,       4.04132,      -2.67712,            0.,NA,NA,"",   178.665E-03,   177.320E-03,   21.8845E-03,   1.21958E-03
C:/temp/dataset/6/21_8.odb,Step-1,Increment      1: Step Time =    1.000,"PART-1-1",           127,       6.95362,      -12.5367,            0.,NA,NA,"",   98.0621E-03,   97.4827E-03,   10.6445E-03,   851.728E-06
C:/temp/dataset/6/21_8.odb,Step-1,Increment      1: Step Time =    1.000,"PART-1-1",           128,       6.92458,      -14.9216,            0.,NA,NA,"",   78.9494E-03,   78.3261E-03,   9.90108E-03,   1.14713E-03
C:/temp/dataset/6/21_8.odb,Step-1,Increment      1: Step Time =    1.000,"PART-1-1",           129,       12.9089,      -21.3671,            0.,NA,NA,"",   42.0828E-03,   38.2053E-03,  -17.6441E-03,   1.83376E-03
C:/temp/dataset/6/21_8.odb,Step-1,Increment      1: Step Time =    1.000,"PART-1-1",           130,   283.131E-03,      -22.8786,            0.,NA,NA,"",   43.0901E-03,   43.0749E-03,  -1.14250E-03,   4.66215E-03
C:/temp/dataset/6/21_8.odb,Step-1,Increment      1: Step Time =    1.000,"PART-1-1",           131,      -12.9776,      -22.4214,            0.,NA,NA,"",   101.735E-03,   96.0695E-03,   33.4761E-03,   9.14816E-03
C:/temp/dataset/6/21_8.odb,Step-1,Increment      1: Step Time =    1.000,"PART-1-1",           132,      -7.42030,      -15.1083,            0.,NA,NA,"",   169.412E-03,   167.950E-03,   22.2116E-03,   2.03358E-03
C:/temp/dataset/6/21_8.odb,Step-1,Increment      1: Step Time =    1.000,"PART-1-1",           133,      -7.18486,      -10.2642,            0.,NA,NA,"",   189.629E-03,   187.366E-03,   29.2075E-03,   2.03351E-03
C:/temp/dataset/6/21_8.odb,Step-1,Increment      1: Step Time =    1.000,"PART-1-1",           134,      -7.33974,      -5.93881,            0.,NA,NA,"",   193.141E-03,   190.053E-03,   34.4004E-03,   1.62090E-03
C:/temp/dataset/6/21_8.odb,Step-1,Increment      1: Step Time =    1.000,"PART-1-1",           135,  -533.729E-03,      -2.94296,            0.,NA,NA,"",   185.012E-03,   182.247E-03,   31.8649E-03,   1.54726E-03
C:/temp/dataset/6/21_8.odb,Step-1,Increment      1: Step Time =    1.000,"PART-1-1",           136,       10.2172,      -28.0250,            0.,NA,NA,"",   7.14520E-03,   6.94659E-03,  -1.67295E-03,   2.52239E-03
C:/temp/dataset/6/21_8.odb,Step-1,Increment      1: Step Time =    1.000,"PART-1-1",           137,       7.82196,      -28.0777,            0.,NA,NA,"",   7.84813E-03,   7.83704E-03,  -417.111E-06,   2.69097E-03
C:/temp/dataset/6/21_8.odb,Step-1,Increment      1: Step Time =    1.000,"PART-1-1",           138,       5.43540,      -28.0544,            0.,NA,NA,"",   9.73184E-03,   9.73184E-03,   10.9843E-06,   3.35016E-03
C:/temp/dataset/6/21_8.odb,Step-1,Increment      1: Step Time =    1.000,"PART-1-1",           139,       2.98405,      -27.8165,            0.,NA,NA,"",   13.0815E-03,   13.0760E-03,  -379.513E-06,   4.04901E-03
C:/temp/dataset/6/21_8.odb,Step-1,Increment      1: Step Time =    1.000,"PART-1-1",           140,   324.250E-03,      -27.0908,            0.,NA,NA,"",   19.5319E-03,   19.4414E-03,  -1.87807E-03,   4.73130E-03
C:/temp/dataset/6/21_8.odb,Step-1,Increment      1: Step Time =    1.000,"PART-1-1",           141,      -2.46293,      -27.5198,            0.,NA,NA,"",   17.6854E-03,   17.4292E-03,  -2.99941E-03,   5.03033E-03
C:/temp/dataset/6/21_8.odb,Step-1,Increment      1: Step Time =    1.000,"PART-1-1",           142,      -4.88996,      -27.5861,            0.,NA,NA,"",   16.9326E-03,   16.6784E-03,  -2.92274E-03,   4.87373E-03
C:/temp/dataset/6/21_8.odb,Step-1,Increment      1: Step Time =    1.000,"PART-1-1",           143,      -7.26500,      -27.4866,            0.,NA,NA,"",   17.1619E-03,   17.1095E-03,  -1.34013E-03,   4.67224E-03
C:/temp/dataset/6/21_8.odb,Step-1,Increment      1: Step Time =    1.000,"PART-1-1",           144,      -9.86695,      -26.8928,            0.,NA,NA,"",   23.3836E-03,   23.1707E-03,   3.14846E-03,   5.20086E-03
C:/temp/dataset/6/21_8.odb,Step-1,Increment      1: Step Time =    1.000,"PART-1-1",           145,       12.7710,      -23.5898,            0.,NA,NA,"",   30.4570E-03,   27.3951E-03,  -13.3093E-03,   2.03161E-03
C:/temp/dataset/6/21_8.odb,Step-1,Increment      1: Step Time =    1.000,"PART-1-1",           146,       12.6989,      -25.7990,            0.,NA,NA,"",   19.4412E-03,   17.3344E-03,  -8.80213E-03,   2.63580E-03
C:/temp/dataset/6/21_8.odb,Step-1,Increment      1: Step Time =    1.000,"PART-1-1",           147,       12.6207,      -27.9366,            0.,NA,NA,"",   9.09978E-03,   7.95221E-03,  -4.42362E-03,   3.39746E-03
C:/temp/dataset/6/21_8.odb,Step-1,Increment      1: Step Time =    1.000,"PART-1-1",           148,       12.9983,      -14.8223,            0.,NA,NA,"",   84.4723E-03,   80.0460E-03,  -26.9854E-03,   1.28500E-03
C:/temp/dataset/6/21_8.odb,Step-1,Increment      1: Step Time =    1.000,"PART-1-1",           149,       13.0558,      -17.0719,            0.,NA,NA,"",   68.4405E-03,   63.7805E-03,  -24.8222E-03,   1.51678E-03
C:/temp/dataset/6/21_8.odb,Step-1,Increment      1: Step Time =    1.000,"PART-1-1",           150,       13.1682,      -19.2108,            0.,NA,NA,"",   55.0058E-03,   50.2332E-03,  -22.4113E-03,   1.74296E-03
C:/temp/dataset/6/21_8.odb,Step-1,Increment      1: Step Time =    1.000,"PART-1-1",           151,       13.0670,      -5.94273,            0.,NA,NA,"",   153.617E-03,   150.703E-03,  -29.7793E-03,   610.164E-06
C:/temp/dataset/6/21_8.odb,Step-1,Increment      1: Step Time =    1.000,"PART-1-1",           152,       13.0350,      -8.09399,            0.,NA,NA,"",   137.626E-03,   134.295E-03,  -30.0987E-03,   737.001E-06
C:/temp/dataset/6/21_8.odb,Step-1,Increment      1: Step Time =    1.000,"PART-1-1",           153,       12.9982,      -10.2981,            0.,NA,NA,"",   120.150E-03,   116.424E-03,  -29.6922E-03,   887.465E-06
C:/temp/dataset/6/21_8.odb,Step-1,Increment      1: Step Time =    1.000,"PART-1-1",           154,       12.5107,   556.281E-03,            0.,NA,NA,"",   191.616E-03,   190.143E-03,  -23.7109E-03,   636.303E-06
C:/temp/dataset/6/21_8.odb,Step-1,Increment      1: Step Time =    1.000,"PART-1-1",           155,       12.7702,      -1.64554,            0.,NA,NA,"",   180.233E-03,   178.353E-03,  -25.9667E-03,   592.595E-06
C:/temp/dataset/6/21_8.odb,Step-1,Increment      1: Step Time =    1.000,"PART-1-1",           156,       10.0517,       2.85834,            0.,NA,NA,"",   201.754E-03,   201.549E-03,  -9.10307E-03,   682.809E-06
C:/temp/dataset/6/21_8.odb,Step-1,Increment      1: Step Time =    1.000,"PART-1-1",           157,       5.39286,       2.85476,            0.,NA,NA,"",   199.975E-03,   199.396E-03,   15.2095E-03,   722.308E-06
C:/temp/dataset/6/21_8.odb,Step-1,Increment      1: Step Time =    1.000,"PART-1-1",           158,   175.602E-03,       2.90951,            0.,NA,NA,"",   199.039E-03,   196.536E-03,   31.4686E-03,   648.161E-06
C:/temp/dataset/6/21_8.odb,Step-1,Increment      1: Step Time =    1.000,"PART-1-1",           159,      -4.35394,       2.91920,            0.,NA,NA,"",   198.745E-03,   195.179E-03,   37.4827E-03,   456.499E-06
C:/temp/dataset/6/21_8.odb,Step-1,Increment      1: Step Time =    1.000,"PART-1-1",           160,      -7.05997,       10.9599,            0.,NA,NA,"",   204.971E-03,   201.181E-03,   39.2361E-03,   2.52328E-06
C:/temp/dataset/6/21_8.odb,Step-1,Increment      1: Step Time =    1.000,"PART-1-1",           161,      -6.93805,       8.84105,            0.,NA,NA,"",   203.450E-03,   199.648E-03,   39.1457E-03,   8.95193E-06
C:/temp/dataset/6/21_8.odb,Step-1,Increment      1: Step Time =    1.000,"PART-1-1",           162,      -7.28921,       17.6445,            0.,NA,NA,"",   209.785E-03,   206.052E-03,   39.4024E-03,   246.069E-09
C:/temp/dataset/6/21_8.odb,Step-1,Increment      1: Step Time =    1.000,"PART-1-1",           163,      -7.17735,       15.3234,            0.,NA,NA,"",   208.108E-03,   204.360E-03,   39.3214E-03,   697.500E-09
C:/temp/dataset/6/21_8.odb,Step-1,Increment      1: Step Time =    1.000,"PART-1-1",           164,      -6.93557,       23.5874,            0.,NA,NA,"",   213.992E-03,   210.382E-03,   39.1432E-03,   2.63748E-09
C:/temp/dataset/6/21_8.odb,Step-1,Increment      1: Step Time =    1.000,"PART-1-1",           165,      -13.1925,       19.7530,            0.,NA,NA,"",   212.140E-03,   207.590E-03,   43.7028E-03,   66.7702E-09
C:/temp/dataset/6/21_8.odb,Step-1,Increment      1: Step Time =    1.000,"PART-1-1",           166,      -7.44963,       27.8335,            0.,NA,NA,"",   217.102E-03,   213.475E-03,   39.5166E-03,   3.85214E-09
C:/temp/dataset/6/21_8.odb,Step-1,Increment      1: Step Time =    1.000,"PART-1-1",           167,      -13.0424,       22.0734,            0.,NA,NA,"",   213.772E-03,   209.280E-03,   43.5928E-03,   9.81729E-09
C:/temp/dataset/6/21_8.odb,Step-1,Increment      1: Step Time =    1.000,"PART-1-1",           168,      -13.1316,       14.9813,            0.,NA,NA,"",   208.732E-03,   204.114E-03,   43.6598E-03,   690.057E-09
C:/temp/dataset/6/21_8.odb,Step-1,Increment      1: Step Time =    1.000,"PART-1-1",           169,      -13.1727,       17.3972,            0.,NA,NA,"",   210.459E-03,   205.874E-03,   43.6890E-03,   252.071E-09
C:/temp/dataset/6/21_8.odb,Step-1,Increment      1: Step Time =    1.000,"PART-1-1",           170,      -12.8574,       7.53984,            0.,NA,NA,"",   203.370E-03,   198.671E-03,   43.4655E-03,   9.44277E-06
C:/temp/dataset/6/21_8.odb,Step-1,Increment      1: Step Time =    1.000,"PART-1-1",           171,      -13.0166,       10.0884,            0.,NA,NA,"",   205.226E-03,   200.546E-03,   43.5785E-03,   1.00937E-06
C:/temp/dataset/6/21_8.odb,Step-1,Increment      1: Step Time =    1.000,"PART-1-1",           172,      -12.8045,  -118.323E-03,            0.,NA,NA,"",   198.095E-03,   193.289E-03,   43.3743E-03,   166.612E-06
C:/temp/dataset/6/21_8.odb,Step-1,Increment      1: Step Time =    1.000,"PART-1-1",           173,      -12.7039,       2.28772,            0.,NA,NA,"",   199.562E-03,   194.799E-03,   43.3377E-03,   27.5712E-06
C:/temp/dataset/6/21_8.odb,Step-1,Increment      1: Step Time =    1.000,"PART-1-1",           174,      -12.8488,      -7.31355,            0.,NA,NA,"",   195.532E-03,   190.251E-03,   45.1387E-03,   1.01163E-03
C:/temp/dataset/6/21_8.odb,Step-1,Increment      1: Step Time =    1.000,"PART-1-1",           175,      -12.6051,      -4.81291,            0.,NA,NA,"",   196.376E-03,   191.473E-03,   43.6062E-03,   765.450E-06
C:/temp/dataset/6/21_8.odb,Step-1,Increment      1: Step Time =    1.000,"PART-1-1",           176,      -12.4260,      -15.0682,            0.,NA,NA,"",   186.405E-03,   179.223E-03,   51.2438E-03,   4.16845E-03
C:/temp/dataset/6/21_8.odb,Step-1,Increment      1: Step Time =    1.000,"PART-1-1",           177,      -12.3344,      -12.5112,            0.,NA,NA,"",   189.986E-03,   183.463E-03,   49.3548E-03,   2.24484E-03
C:/temp/dataset/6/21_8.odb,Step-1,Increment      1: Step Time =    1.000,"PART-1-1",           178,      -12.6598,      -20.1148,            0.,NA,NA,"",   140.636E-03,   134.849E-03,   39.9286E-03,   9.51653E-03
C:/temp/dataset/6/21_8.odb,Step-1,Increment      1: Step Time =    1.000,"PART-1-1",           179,      -8.70618,       22.9331,            0.,NA,NA,"",   213.764E-03,   209.906E-03,   40.4334E-03,   9.84544E-09
C:/temp/dataset/6/21_8.odb,Step-1,Increment      1: Step Time =    1.000,"PART-1-1",           180,      -9.21222,       15.1634,            0.,NA,NA,"",   208.280E-03,   204.245E-03,   40.8029E-03,   806.875E-09
C:/temp/dataset/6/21_8.odb,Step-1,Increment      1: Step Time =    1.000,"PART-1-1",           181,      -9.55138,       19.8926,            0.,NA,NA,"",   211.708E-03,   207.691E-03,   41.0499E-03,   91.0380E-09
C:/temp/dataset/6/21_8.odb,Step-1,Increment      1: Step Time =    1.000,"PART-1-1",           182,      -8.92203,       8.32966,            0.,NA,NA,"",   203.369E-03,   199.278E-03,   40.5874E-03,   8.13064E-06
C:/temp/dataset/6/21_8.odb,Step-1,Increment      1: Step Time =    1.000,"PART-1-1",           183,      -9.17670,       12.8809,            0.,NA,NA,"",   206.645E-03,   202.582E-03,   40.7756E-03,   1.64159E-06
C:/temp/dataset/6/21_8.odb,Step-1,Increment      1: Step Time =    1.000,"PART-1-1",           184,      -9.09923,       10.6117,            0.,NA,NA,"",   205.014E-03,   200.930E-03,   40.7174E-03,   2.66454E-06
C:/temp/dataset/6/21_8.odb,Step-1,Increment      1: Step Time =    1.000,"PART-1-1",           185,      -9.30530,       17.5014,            0.,NA,NA,"",   209.964E-03,   205.948E-03,   40.8709E-03,   315.965E-09
C:/temp/dataset/6/21_8.odb,Step-1,Increment      1: Step Time =    1.000,"PART-1-1",           186,      -8.37864,       6.17865,            0.,NA,NA,"",   201.771E-03,   197.724E-03,   40.2108E-03,   45.7381E-06
C:/temp/dataset/6/21_8.odb,Step-1,Increment      1: Step Time =    1.000,"PART-1-1",           187,       10.9988,      -10.2527,            0.,NA,NA,"",   117.804E-03,   116.667E-03,  -16.3297E-03,   1.27301E-03
C:/temp/dataset/6/21_8.odb,Step-1,Increment      1: Step Time =    1.000,"PART-1-1",           188,       10.8643,      -17.5211,            0.,NA,NA,"",   60.7072E-03,   59.4889E-03,  -12.1006E-03,   1.31742E-03
C:/temp/dataset/6/21_8.odb,Step-1,Increment      1: Step Time =    1.000,"PART-1-1",           189,       11.0508,      -8.01555,            0.,NA,NA,"",   136.240E-03,   135.181E-03,  -16.9523E-03,   1.11492E-03
C:/temp/dataset/6/21_8.odb,Step-1,Increment      1: Step Time =    1.000,"PART-1-1",           190,       10.6332,      -2.00908,            0.,NA,NA,"",   177.486E-03,   177.017E-03,  -12.8969E-03,   613.210E-06
C:/temp/dataset/6/21_8.odb,Step-1,Increment      1: Step Time =    1.000,"PART-1-1",           191,       11.1668,      -5.92645,            0.,NA,NA,"",   152.436E-03,   151.433E-03,  -17.4551E-03,   806.086E-06
C:/temp/dataset/6/21_8.odb,Step-1,Increment      1: Step Time =    1.000,"PART-1-1",           192,       10.9732,      -14.9280,            0.,NA,NA,"",   79.7716E-03,   78.4617E-03,  -14.3970E-03,   1.33048E-03
C:/temp/dataset/6/21_8.odb,Step-1,Increment      1: Step Time =    1.000,"PART-1-1",           193,       10.5476,      -23.6927,            0.,NA,NA,"",   26.5133E-03,   25.9059E-03,  -5.64257E-03,   1.33445E-03
C:/temp/dataset/6/21_8.odb,Step-1,Increment      1: Step Time =    1.000,"PART-1-1",           194,       10.5707,      -21.1850,            0.,NA,NA,"",   38.5040E-03,   37.7298E-03,  -7.68226E-03,   1.10265E-03
C:/temp/dataset/6/21_8.odb,Step-1,Increment      1: Step Time =    1.000,"PART-1-1",           195,       10.9760,      -12.5622,            0.,NA,NA,"",   98.6533E-03,   97.4297E-03,  -15.4897E-03,   1.32015E-03
C:/temp/dataset/6/21_8.odb,Step-1,Increment      1: Step Time =    1.000,"PART-1-1",           196,       11.6229,      -19.2502,            0.,NA,NA,"",   50.9932E-03,   48.9271E-03,  -14.3681E-03,   1.38739E-03
C:/temp/dataset/6/21_8.odb,Step-1,Increment      1: Step Time =    1.000,"PART-1-1",           197,       11.1609,      -3.97100,            0.,NA,NA,"",   165.866E-03,   165.010E-03,  -16.8237E-03,   542.225E-06
C:/temp/dataset/6/21_8.odb,Step-1,Increment      1: Step Time =    1.000,"PART-1-1",           198,      -9.55101,       25.2781,            0.,NA,NA,"",   215.559E-03,   211.614E-03,   41.0483E-03,   4.01661E-09
C:/temp/dataset/6/21_8.odb,Step-1,Increment      1: Step Time =    1.000,"PART-1-1",           199,      -6.13353,       2.97524,            0.,NA,NA,"",   198.929E-03,   195.116E-03,   38.7647E-03,   344.519E-06
C:/temp/dataset/6/21_8.odb,Step-1,Increment      1: Step Time =    1.000,"PART-1-1",           200,       8.52809,      -18.5145,            0.,NA,NA,"",   51.9850E-03,   51.9846E-03,  -181.956E-06,   1.24109E-03
C:/temp/dataset/6/21_8.odb,Step-1,Increment      1: Step Time =    1.000,"PART-1-1",           201,      -9.31256,      -6.57829,            0.,NA,NA,"",   194.567E-03,   190.879E-03,   37.7037E-03,   1.35705E-03
C:/temp/dataset/6/21_8.odb,Step-1,Increment      1: Step Time =    1.000,"PART-1-1",           202,      -7.82061,      -4.24854,            0.,NA,NA,"",   193.496E-03,   190.016E-03,   36.5344E-03,   1.52318E-03
C:/temp/dataset/6/21_8.odb,Step-1,Increment      1: Step Time =    1.000,"PART-1-1",           203,       7.55002,      -20.4955,            0.,NA,NA,"",   40.7937E-03,   40.6287E-03,   3.66517E-03,   750.916E-06
C:/temp/dataset/6/21_8.odb,Step-1,Increment      1: Step Time =    1.000,"PART-1-1",           204,      -9.18944,      -8.43706,            0.,NA,NA,"",   193.686E-03,   190.142E-03,   36.8792E-03,   1.42519E-03
C:/temp/dataset/6/21_8.odb,Step-1,Increment      1: Step Time =    1.000,"PART-1-1",           205,      -12.3720,       27.4312,            0.,NA,NA,"",   217.497E-03,   213.184E-03,   43.1029E-03,   4.36763E-09
C:/temp/dataset/6/21_8.odb,Step-1,Increment      1: Step Time =    1.000,"PART-1-1",           206,      -10.3791,       22.2070,            0.,NA,NA,"",   213.480E-03,   209.377E-03,   41.6524E-03,   19.1880E-09
C:/temp/dataset/6/21_8.odb,Step-1,Increment      1: Step Time =    1.000,"PART-1-1",           207,       3.40286,  -884.176E-03,            0.,NA,NA,"",   186.239E-03,   184.708E-03,   23.8311E-03,   701.137E-06
C:/temp/dataset/6/21_8.odb,Step-1,Increment      1: Step Time =    1.000,"PART-1-1",           208,       7.88020,       1.44192,            0.,NA,NA,"",   194.401E-03,   194.371E-03,   3.39257E-03,   700.281E-06
C:/temp/dataset/6/21_8.odb,Step-1,Increment      1: Step Time =    1.000,"PART-1-1",           209,      -1.17287,  -897.893E-03,            0.,NA,NA,"",   190.319E-03,   187.308E-03,   33.7209E-03,   869.103E-06
C:/temp/dataset/6/21_8.odb,Step-1,Increment      1: Step Time =    1.000,"PART-1-1",           210,       10.4014,      -25.9274,            0.,NA,NA,"",   16.2950E-03,   15.9110E-03,  -3.51690E-03,   1.96362E-03
C:/temp/dataset/6/21_8.odb,Step-1,Increment      1: Step Time =    1.000,"PART-1-1",           211,       2.00108,      -24.8239,            0.,NA,NA,"",   30.7362E-03,   30.7359E-03,   143.491E-06,   4.47883E-03
C:/temp/dataset/6/21_8.odb,Step-1,Increment      1: Step Time =    1.000,"PART-1-1",           212,      -4.80900,      -25.1606,            0.,NA,NA,"",   36.6411E-03,   36.1993E-03,  -5.67324E-03,   5.25508E-03
C:/temp/dataset/6/21_8.odb,Step-1,Increment      1: Step Time =    1.000,"PART-1-1",           213,      -11.5765,       21.3848,            0.,NA,NA,"",   213.065E-03,   208.778E-03,   42.5250E-03,   32.1300E-09
C:/temp/dataset/6/21_8.odb,Step-1,Increment      1: Step Time =    1.000,"PART-1-1",           214,      -11.0630,       10.3038,            0.,NA,NA,"",   205.083E-03,   200.705E-03,   42.1499E-03,   2.57145E-06
C:/temp/dataset/6/21_8.odb,Step-1,Increment      1: Step Time =    1.000,"PART-1-1",           215,      -10.2832,  -591.021E-03,            0.,NA,NA,"",   197.001E-03,   192.656E-03,   41.1506E-03,   384.327E-06
C:/temp/dataset/6/21_8.odb,Step-1,Increment      1: Step Time =    1.000,"PART-1-1",           216,      -11.1869,      -5.64306,            0.,NA,NA,"",   195.754E-03,   191.297E-03,   41.5344E-03,   1.01553E-03
C:/temp/dataset/6/21_8.odb,Step-1,Increment      1: Step Time =    1.000,"PART-1-1",           217,      -9.48237,      -10.3825,            0.,NA,NA,"",   191.719E-03,   188.020E-03,   37.4822E-03,   1.46267E-03
C:/temp/dataset/6/21_8.odb,Step-1,Increment      1: Step Time =    1.000,"PART-1-1",           218,      -10.0191,      -20.7277,            0.,NA,NA,"",   109.750E-03,   107.801E-03,   20.5901E-03,   10.0097E-03
C:/temp/dataset/6/21_8.odb,Step-1,Increment      1: Step Time =    1.000,"PART-1-1",           219,      -12.8377,      -24.8331,            0.,NA,NA,"",   58.2825E-03,   53.3257E-03,   23.5205E-03,   5.50821E-03
C:/temp/dataset/6/21_8.odb,Step-1,Increment      1: Step Time =    1.000,"PART-1-1",           220,  -752.185E-03,      -25.0561,            0.,NA,NA,"",   33.5095E-03,   33.3157E-03,  -3.59935E-03,   5.15347E-03
C:/temp/dataset/6/21_8.odb,Step-1,Increment      1: Step Time =    1.000,"PART-1-1",           221,      -11.3411,      -22.5061,            0.,NA,NA,"",   89.0455E-03,   86.6418E-03,   20.5498E-03,   8.93759E-03
C:/temp/dataset/6/21_8.odb,Step-1,Increment      1: Step Time =    1.000,"PART-1-1",           222,       5.90860,      -26.1342,            0.,NA,NA,"",   18.5583E-03,   18.5295E-03,   1.03205E-03,   3.25327E-03
C:/temp/dataset/6/21_8.odb,Step-1,Increment      1: Step Time =    1.000,"PART-1-1",           223,       3.81352,      -25.8758,            0.,NA,NA,"",   22.7083E-03,   22.6898E-03,   915.426E-06,   3.96784E-03
C:/temp/dataset/6/21_8.odb,Step-1,Increment      1: Step Time =    1.000,"PART-1-1",           224,      -6.87266,      -25.1947,            0.,NA,NA,"",   37.7955E-03,   37.6971E-03,  -2.72487E-03,   5.15108E-03
C:/temp/dataset/6/21_8.odb,Step-1,Increment      1: Step Time =    1.000,"PART-1-1",           225,       9.77381,   336.875E-03,            0.,NA,NA,"",   189.463E-03,   189.321E-03,  -7.33278E-03,   763.206E-06
C:/temp/dataset/6/21_8.odb,Step-1,Increment      1: Step Time =    1.000,"PART-1-1",           226,       4.59800,   29.7464E-03,            0.,NA,NA,"",   189.041E-03,   188.038E-03,   19.4422E-03,   364.938E-06
C:/temp/dataset/6/21_8.odb,Step-1,Increment      1: Step Time =    1.000,"PART-1-1",           227,      -11.1551,       12.6912,            0.,NA,NA,"",   206.800E-03,   202.445E-03,   42.2177E-03,   1.40469E-06
C:/temp/dataset/6/21_8.odb,Step-1,Increment      1: Step Time =    1.000,"PART-1-1",           228,      -11.2689,       17.3859,            0.,NA,NA,"",   210.166E-03,   205.865E-03,   42.3016E-03,   321.723E-09
C:/temp/dataset/6/21_8.odb,Step-1,Increment      1: Step Time =    1.000,"PART-1-1",           229,      -11.2102,       15.0558,            0.,NA,NA,"",   208.495E-03,   204.168E-03,   42.2588E-03,   808.432E-09
C:/temp/dataset/6/21_8.odb,Step-1,Increment      1: Step Time =    1.000,"PART-1-1",           230,      -10.8139,       7.79620,            0.,NA,NA,"",   203.250E-03,   198.869E-03,   41.9743E-03,   11.8026E-06
C:/temp/dataset/6/21_8.odb,Step-1,Increment      1: Step Time =    1.000,"PART-1-1",           231,      -10.1648,       4.85487,            0.,NA,NA,"",   201.014E-03,   196.677E-03,   41.5324E-03,   40.2285E-06
C:/temp/dataset/6/21_8.odb,Step-1,Increment      1: Step Time =    1.000,"PART-1-1",           232,      -10.4473,       2.01195,            0.,NA,NA,"",   198.885E-03,   194.472E-03,   41.6662E-03,   103.256E-06
C:/temp/dataset/6/21_8.odb,Step-1,Increment      1: Step Time =    1.000,"PART-1-1",           233,      -10.4810,      -3.59789,            0.,NA,NA,"",   195.829E-03,   191.576E-03,   40.5911E-03,   885.732E-06
C:/temp/dataset/6/21_8.odb,Step-1,Increment      1: Step Time =    1.000,"PART-1-1",           234,      -9.89141,      -15.1395,            0.,NA,NA,"",   176.295E-03,   172.268E-03,   37.4670E-03,   2.46221E-03
C:/temp/dataset/6/21_8.odb,Step-1,Increment      1: Step Time =    1.000,"PART-1-1",           235,      -9.95744,      -17.7636,            0.,NA,NA,"",   152.292E-03,   148.916E-03,   31.8890E-03,   7.37039E-03
C:/temp/dataset/6/21_8.odb,Step-1,Increment      1: Step Time =    1.000,"PART-1-1",           236,      -3.63694,      -1.16253,            0.,NA,NA,"",   191.865E-03,   188.400E-03,   36.2964E-03,   930.946E-06
C:/temp/dataset/6/21_8.odb,Step-1,Increment      1: Step Time =    1.000,"PART-1-1",           237,      -7.00580,      -22.7773,            0.,NA,NA,"",   63.4880E-03,   63.4877E-03,  -211.280E-06,   6.12152E-03
C:/temp/dataset/6/21_8.odb,Step-1,Increment      1: Step Time =    1.000,"PART-1-1",           238,       7.08723,      -4.67483,            0.,NA,NA,"",   163.425E-03,   163.232E-03,   7.93801E-03,   1.59843E-03
C:/temp/dataset/6/21_8.odb,Step-1,Increment      1: Step Time =    1.000,"PART-1-1",           239,       8.96532,      -10.1697,            0.,NA,NA,"",   117.371E-03,   117.327E-03,  -3.18220E-03,   1.24909E-03
C:/temp/dataset/6/21_8.odb,Step-1,Increment      1: Step Time =    1.000,"PART-1-1",           240,       8.99874,      -7.82238,            0.,NA,NA,"",   137.239E-03,   137.183E-03,  -3.91524E-03,   1.39136E-03
C:/temp/dataset/6/21_8.odb,Step-1,Increment      1: Step Time =    1.000,"PART-1-1",           241,       8.96760,      -14.8663,            0.,NA,NA,"",   78.5792E-03,   78.5360E-03,  -2.60574E-03,   1.26673E-03
C:/temp/dataset/6/21_8.odb,Step-1,Increment      1: Step Time =    1.000,"PART-1-1",           242,      -12.0836,       24.5335,            0.,NA,NA,"",   215.387E-03,   211.072E-03,   42.8936E-03,   4.55560E-09
C:/temp/dataset/6/21_8.odb,Step-1,Increment      1: Step Time =    1.000,"PART-1-1",           243,       9.21542,      -5.66363,            0.,NA,NA,"",   154.433E-03,   154.345E-03,  -5.21284E-03,   1.08771E-03
C:/temp/dataset/6/21_8.odb,Step-1,Increment      1: Step Time =    1.000,"PART-1-1",           244,       8.72776,      -2.97127,            0.,NA,NA,"",   172.583E-03,   172.577E-03,  -1.46991E-03,   773.724E-06
C:/temp/dataset/6/21_8.odb,Step-1,Increment      1: Step Time =    1.000,"PART-1-1",           245,       9.39471,      -19.4524,            0.,NA,NA,"",   46.7246E-03,   46.5719E-03,  -3.77368E-03,   1.09083E-03
C:/temp/dataset/6/21_8.odb,Step-1,Increment      1: Step Time =    1.000,"PART-1-1",           246,       8.06548,      -22.0810,            0.,NA,NA,"",   33.5120E-03,   33.4818E-03,   1.42320E-03,   956.287E-06
C:/temp/dataset/6/21_8.odb,Step-1,Increment      1: Step Time =    1.000,"PART-1-1",           247,      -7.53738,       4.79758,            0.,NA,NA,"",   200.673E-03,   196.720E-03,   39.6380E-03,   100.267E-06
C:/temp/dataset/6/21_8.odb,Step-1,Increment      1: Step Time =    1.000,"PART-1-1",           248,      -10.8025,      -24.3532,            0.,NA,NA,"",   56.8525E-03,   55.6371E-03,   11.6928E-03,   7.01189E-03
C:/temp/dataset/6/21_8.odb,Step-1,Increment      1: Step Time =    1.000,"PART-1-1",           249,       5.82981,      -2.08643,            0.,NA,NA,"",   179.484E-03,   178.884E-03,   14.6617E-03,   920.426E-06
C:/temp/dataset/6/21_8.odb,Step-1,Increment      1: Step Time =    1.000,"PART-1-1",           250,      -8.67175,      -2.53401,            0.,NA,NA,"",   194.889E-03,   190.987E-03,   38.8034E-03,   937.123E-06
C:/temp/dataset/6/21_8.odb,Step-1,Increment      1: Step Time =    1.000,"PART-1-1",           251,       5.78686,      -22.7214,            0.,NA,NA,"",   33.8110E-03,   33.4296E-03,   5.06422E-03,   2.86034E-03
C:/temp/dataset/6/21_8.odb,Step-1,Increment      1: Step Time =    1.000,"PART-1-1",           252,      -8.27594,       1.60152,            0.,NA,NA,"",   197.921E-03,   193.824E-03,   40.0647E-03,   274.474E-06
C:/temp/dataset/6/21_8.odb,Step-1,Increment      1: Step Time =    1.000,"PART-1-1",           253,       8.25490,      -24.0061,            0.,NA,NA,"",   25.2588E-03,   25.2584E-03,   136.889E-06,   1.75174E-03
C:/temp/dataset/6/21_8.odb,Step-1,Increment      1: Step Time =    1.000,"PART-1-1",           254,      -9.04303,      -23.2600,            0.,NA,NA,"",   65.5243E-03,   65.1890E-03,   6.62072E-03,   7.58462E-03
C:/temp/dataset/6/21_8.odb,Step-1,Increment      1: Step Time =    1.000,"PART-1-1",           255,       7.61656,      -1.09448,            0.,NA,NA,"",   182.952E-03,   182.877E-03,   5.22009E-03,   735.176E-06
C:/temp/dataset/6/21_8.odb,Step-1,Increment      1: Step Time =    1.000,"PART-1-1",           256,      -4.02262,   861.151E-03,            0.,NA,NA,"",   195.469E-03,   191.915E-03,   37.1017E-03,   659.795E-06
C:/temp/dataset/6/21_8.odb,Step-1,Increment      1: Step Time =    1.000,"PART-1-1",           257,  -104.141E-03,       1.31276,            0.,NA,NA,"",   195.057E-03,   192.374E-03,   32.2426E-03,   511.513E-06
C:/temp/dataset/6/21_8.odb,Step-1,Increment      1: Step Time =    1.000,"PART-1-1",           258,       3.72123,      -23.4419,            0.,NA,NA,"",   34.2614E-03,   34.0863E-03,   3.45914E-03,   4.01886E-03
C:/temp/dataset/6/21_8.odb,Step-1,Increment      1: Step Time =    1.000,"PART-1-1",           259,      -10.7950,      -8.39617,            0.,NA,NA,"",   194.485E-03,   190.059E-03,   41.2523E-03,   1.24921E-03
C:/temp/dataset/6/21_8.odb,Step-1,Increment      1: Step Time =    1.000,"PART-1-1",           260,      -1.85786,       1.02916,            0.,NA,NA,"",   194.979E-03,   191.823E-03,   34.9364E-03,   596.891E-06
C:/temp/dataset/6/21_8.odb,Step-1,Increment      1: Step Time =    1.000,"PART-1-1",           261,      -6.46179,      -1.33856,            0.,NA,NA,"",   193.865E-03,   190.136E-03,   37.8405E-03,   935.060E-06
C:/temp/dataset/6/21_8.odb,Step-1,Increment      1: Step Time =    1.000,"PART-1-1",           262,      -11.1078,      -7.00587,            0.,NA,NA,"",   195.317E-03,   190.839E-03,   41.5810E-03,   1.13944E-03
C:/temp/dataset/6/21_8.odb,Step-1,Increment      1: Step Time =    1.000,"PART-1-1",           263,      -5.52697,      -3.44125,            0.,NA,NA,"",   190.938E-03,   187.555E-03,   35.7881E-03,   1.53347E-03
C:/temp/dataset/6/21_8.odb,Step-1,Increment      1: Step Time =    1.000,"PART-1-1",           264,      -9.72268,      -4.98378,            0.,NA,NA,"",   195.083E-03,   191.140E-03,   39.0254E-03,   1.17100E-03
C:/temp/dataset/6/21_8.odb,Step-1,Increment      1: Step Time =    1.000,"PART-1-1",           265,      -6.27329,       4.89376,            0.,NA,NA,"",   200.703E-03,   196.933E-03,   38.7192E-03,   192.633E-06
C:/temp/dataset/6/21_8.odb,Step-1,Increment      1: Step Time =    1.000,"PART-1-1",           266,       12.4963,       2.80040,            0.,NA,NA,"",   202.978E-03,   201.627E-03,  -23.3780E-03,   454.695E-06
C:/temp/dataset/6/21_8.odb,Step-1,Increment      1: Step Time =    1.000,"PART-1-1",           267,      -7.37176,      -20.2559,            0.,NA,NA,"",   99.7741E-03,   99.3479E-03,   9.21157E-03,   10.3491E-03
C:/temp/dataset/6/21_8.odb,Step-1,Increment      1: Step Time =    1.000,"PART-1-1",           268,       2.88963,      -21.8777,            0.,NA,NA,"",   40.8673E-03,   40.6846E-03,   3.85979E-03,   3.28379E-03
C:/temp/dataset/6/21_8.odb,Step-1,Increment      1: Step Time =    1.000,"PART-1-1",           269,      -8.05085,       3.52655,            0.,NA,NA,"",   199.666E-03,   195.609E-03,   40.0436E-03,   132.015E-06
C:/temp/dataset/6/21_8.odb,Step-1,Increment      1: Step Time =    1.000,"PART-1-1",           270,       8.95558,      -12.5395,            0.,NA,NA,"",   97.4354E-03,   97.3982E-03,  -2.69292E-03,   1.24601E-03
C:/temp/dataset/6/21_8.odb,Step-1,Increment      1: Step Time =    1.000,"PART-1-1",           271,       1.35989,  -223.950E-03,            0.,NA,NA,"",   190.026E-03,   187.754E-03,   29.2948E-03,   690.113E-06
C:/temp/dataset/6/21_8.odb,Step-1,Increment      1: Step Time =    1.000,"PART-1-1",           272,      -9.75004,      -12.6533,            0.,NA,NA,"",   187.038E-03,   183.077E-03,   38.2855E-03,   1.46442E-03
C:/temp/dataset/6/21_8.odb,Step-1,Increment      1: Step Time =    1.000,"PART-1-1",           273,      -8.51206,      -25.1011,            0.,NA,NA,"",   41.0843E-03,   41.0574E-03,   1.48493E-03,   5.77369E-03
C:/temp/dataset/6/21_8.odb,Step-1,Increment      1: Step Time =    1.000,"PART-1-1",           274,      -6.19138,   998.181E-03,            0.,NA,NA,"",   196.525E-03,   192.695E-03,   38.6079E-03,   531.831E-06
C:/temp/dataset/6/21_8.odb,Step-1,Increment      1: Step Time =    1.000,"PART-1-1",           275,      -2.63339,      -25.0950,            0.,NA,NA,"",   35.4460E-03,   34.9761E-03,  -5.75229E-03,   5.65463E-03
C:/temp/dataset/6/21_8.odb,Step-1,Increment      1: Step Time =    1.000,"PART-1-1",           276,       8.11811,      -26.0558,            0.,NA,NA,"",   16.4788E-03,   16.4756E-03,  -323.498E-06,   2.41430E-03
C:/temp/dataset/6/21_8.odb,Step-1,Increment      1: Step Time =    1.000,"PART-1-1",           277,       6.33403,   764.508E-03,            0.,NA,NA,"",   191.515E-03,   191.167E-03,   11.5385E-03,   528.756E-06
C:/temp/dataset/6/21_8.odb,Step-1,Increment      1: Step Time =    1.000,"PART-1-1",           278,       8.84044,      -16.9880,            0.,NA,NA,"",   62.4783E-03,   62.4526E-03,  -1.79080E-03,   1.38389E-03
C:/temp/dataset/6/21_8.odb,Step-1,Increment      1: Step Time =    1.000,"PART-1-1",           279,      -11.3950,       19.6047,            0.,NA,NA,"",   211.768E-03,   207.481E-03,   42.3932E-03,   104.675E-09
C:/temp/dataset/6/21_8.odb,Step-1,Increment      1: Step Time =    1.000,"PART-1-1",           280,      -11.2464,      -2.22607,            0.,NA,NA,"",   196.648E-03,   192.154E-03,   41.7991E-03,   543.266E-06
C:/temp/dataset/6/21_8.odb,Step-1,Increment      1: Step Time =    1.000,"PART-1-1",           281,      -8.41776,  -32.7016E-03,            0.,NA,NA,"",   196.474E-03,   192.406E-03,   39.7752E-03,   475.372E-06
C:/temp/dataset/6/21_8.odb,Step-1,Increment      1: Step Time =    1.000,"PART-1-1",           282,       4.48255,      -24.5345,            0.,NA,NA,"",   28.2134E-03,   28.0954E-03,   2.57844E-03,   3.77945E-03
C:/temp/dataset/6/21_8.odb,Step-1,Increment      1: Step Time =    1.000,"PART-1-1",           283,       6.11275,      -24.3348,            0.,NA,NA,"",   26.4964E-03,   26.3602E-03,   2.68373E-03,   2.95054E-03
C:/temp/dataset/6/21_8.odb,Step-1,Increment      1: Step Time =    1.000,"PART-1-1",           284,       9.69767,      -4.20039,            0.,NA,NA,"",   164.452E-03,   164.267E-03,  -7.79656E-03,   757.396E-06
C:/temp/dataset/6/21_8.odb,Step-1,Increment      1: Step Time =    1.000,"PART-1-1",           285,       13.8851,      -1.60402,            0.,NA,NA,"",   181.230E-03,   178.254E-03,  -32.7094E-03,   685.021E-06
C:/temp/dataset/6/21_8.odb,Step-1,Increment      1: Step Time =    1.000,"PART-1-1",           286,           15.,   -468.75E-03,            0.,NA,NA,"",   188.146E-03,   184.176E-03,  -38.4449E-03,   669.970E-06
C:/temp/dataset/6/21_8.odb,Step-1,Increment      1: Step Time =    1.000,"PART-1-1",           287,       13.7553,   590.641E-03,            0.,NA,NA,"",   192.636E-03,   190.124E-03,  -31.0069E-03,   484.125E-06
C:/temp/dataset/6/21_8.odb,Step-1,Increment      1: Step Time =    1.000,"PART-1-1",           288,       12.6405,  -544.629E-03,            0.,NA,NA,"",   186.031E-03,   184.372E-03,  -24.7885E-03,   601.521E-06
C:/temp/dataset/6/21_8.odb,Step-1,Increment      1: Step Time =    1.000,"PART-1-1",           289,       6.57104,       2.96720,            0.,NA,NA,"",   200.798E-03,   200.562E-03,   9.72698E-03,   728.904E-06
C:/temp/dataset/6/21_8.odb,Step-1,Increment      1: Step Time =    1.000,"PART-1-1",           290,       5.86345,       1.80964,            0.,NA,NA,"",   195.844E-03,   195.381E-03,   13.4609E-03,   562.934E-06
C:/temp/dataset/6/21_8.odb,Step-1,Increment      1: Step Time =    1.000,"PART-1-1",           291,       7.10711,       1.10321,            0.,NA,NA,"",   192.880E-03,   192.731E-03,   7.58062E-03,   605.798E-06
C:/temp/dataset/6/21_8.odb,Step-1,Increment      1: Step Time =    1.000,"PART-1-1",           292,       7.81470,       2.26078,            0.,NA,NA,"",   198.050E-03,   198.018E-03,   3.56870E-03,   700.739E-06
C:/temp/dataset/6/21_8.odb,Step-1,Increment      1: Step Time =    1.000,"PART-1-1",           293,       6.97305,      -8.82061,            0.,NA,NA,"",   129.101E-03,   128.712E-03,   10.0196E-03,   1.06338E-03
C:/temp/dataset/6/21_8.odb,Step-1,Increment      1: Step Time =    1.000,"PART-1-1",           294,       5.98985,      -7.53541,            0.,NA,NA,"",   140.671E-03,   139.708E-03,   16.4300E-03,   1.08520E-03
C:/temp/dataset/6/21_8.odb,Step-1,Increment      1: Step Time =    1.000,"PART-1-1",           295,            5.,      -8.76875,            0.,NA,NA,"",   131.175E-03,   128.697E-03,   25.3756E-03,   513.375E-06
C:/temp/dataset/6/21_8.odb,Step-1,Increment      1: Step Time =    1.000,"PART-1-1",           296,       5.98320,      -10.0539,            0.,NA,NA,"",   119.453E-03,   118.116E-03,   17.8230E-03,   432.529E-06
C:/temp/dataset/6/21_8.odb,Step-1,Increment      1: Step Time =    1.000,"PART-1-1",           297,       12.0429,      -8.05477,            0.,NA,NA,"",   136.751E-03,   134.731E-03,  -23.4154E-03,   920.553E-06
C:/temp/dataset/6/21_8.odb,Step-1,Increment      1: Step Time =    1.000,"PART-1-1",           298,       11.0248,      -9.13413,            0.,NA,NA,"",   127.123E-03,   126.019E-03,  -16.7121E-03,   1.18609E-03
C:/temp/dataset/6/21_8.odb,Step-1,Increment      1: Step Time =    1.000,"PART-1-1",           299,       11.9985,      -10.2754,            0.,NA,NA,"",   118.769E-03,   116.541E-03,  -22.8971E-03,   1.07551E-03
C:/temp/dataset/6/21_8.odb,Step-1,Increment      1: Step Time =    1.000,"PART-1-1",           300,       13.0166,      -9.19606,            0.,NA,NA,"",   128.971E-03,   125.436E-03,  -29.9853E-03,   791.469E-06
C:/temp/dataset/6/21_8.odb,Step-1,Increment      1: Step Time =    1.000,"PART-1-1",           301,       13.9992,      -14.7549,            0.,NA,NA,"",   87.8025E-03,   81.0612E-03,  -33.7398E-03,   1.32722E-03
C:/temp/dataset/6/21_8.odb,Step-1,Increment      1: Step Time =    1.000,"PART-1-1",           302,       13.0271,      -15.9471,            0.,NA,NA,"",   76.2603E-03,   71.6915E-03,  -25.9992E-03,   1.39236E-03
C:/temp/dataset/6/21_8.odb,Step-1,Increment      1: Step Time =    1.000,"PART-1-1",           303,       14.0279,      -16.9735,            0.,NA,NA,"",   72.0980E-03,   65.1310E-03,  -30.9205E-03,   1.73879E-03
C:/temp/dataset/6/21_8.odb,Step-1,Increment      1: Step Time =    1.000,"PART-1-1",           304,           15.,      -15.7813,            0.,NA,NA,"",   83.9768E-03,   74.1858E-03,  -39.3518E-03,   1.77403E-03
C:/temp/dataset/6/21_8.odb,Step-1,Increment      1: Step Time =    1.000,"PART-1-1",           305,       6.96949,      -18.0995,            0.,NA,NA,"",   54.9736E-03,   54.5072E-03,   7.14570E-03,   1.52759E-03
C:/temp/dataset/6/21_8.odb,Step-1,Increment      1: Step Time =    1.000,"PART-1-1",           306,       5.95014,      -17.3335,            0.,NA,NA,"",   61.9400E-03,   60.4463E-03,   13.5203E-03,   1.72519E-03
C:/temp/dataset/6/21_8.odb,Step-1,Increment      1: Step Time =    1.000,"PART-1-1",           307,            5.,      -18.7625,            0.,NA,NA,"",   53.9043E-03,   51.4428E-03,   16.1032E-03,   3.80550E-03
C:/temp/dataset/6/21_8.odb,Step-1,Increment      1: Step Time =    1.000,"PART-1-1",           308,       6.01935,      -19.5285,            0.,NA,NA,"",   46.0808E-03,   45.0615E-03,   9.63865E-03,   2.65778E-03
C:/temp/dataset/6/21_8.odb,Step-1,Increment      1: Step Time =    1.000,"PART-1-1",           309,       7.66098,      -29.0388,            0.,NA,NA,"",   3.86087E-03,   3.84867E-03,  -306.627E-06,   2.61288E-03
C:/temp/dataset/6/21_8.odb,Step-1,Increment      1: Step Time =    1.000,"PART-1-1",           310,       6.62868,      -28.0660,            0.,NA,NA,"",   8.73027E-03,   8.72971E-03,  -99.0914E-06,   3.01418E-03
C:/temp/dataset/6/21_8.odb,Step-1,Increment      1: Step Time =    1.000,"PART-1-1",           311,       5.21770,      -29.0272,            0.,NA,NA,"",   4.98832E-03,   4.98579E-03,  -158.888E-06,   3.33388E-03
C:/temp/dataset/6/21_8.odb,Step-1,Increment      1: Step Time =    1.000,"PART-1-1",           312,          6.25,          -30.,            0.,NA,NA,"",            0.,   2.83806E-39,  -925.828E-42,   2.99307E-03
C:/temp/dataset/6/21_8.odb,Step-1,Increment      1: Step Time =    1.000,"PART-1-1",           313,   162.125E-03,      -28.5454,            0.,NA,NA,"",   10.0974E-03,   10.0306E-03,  -1.15913E-03,   4.69946E-03
C:/temp/dataset/6/21_8.odb,Step-1,Increment      1: Step Time =    1.000,"PART-1-1",           314,      -1.06934,      -27.3053,            0.,NA,NA,"",   18.8854E-03,   18.6960E-03,  -2.66785E-03,   4.84027E-03
C:/temp/dataset/6/21_8.odb,Step-1,Increment      1: Step Time =    1.000,"PART-1-1",           315,      -2.48147,      -28.7599,            0.,NA,NA,"",   8.82047E-03,   8.69472E-03,  -1.48414E-03,   4.87867E-03
C:/temp/dataset/6/21_8.odb,Step-1,Increment      1: Step Time =    1.000,"PART-1-1",           316,         -1.25,          -30.,            0.,NA,NA,"",            0.,   4.39412E-39,  -2.56963E-39,   4.74661E-03
C:/temp/dataset/6/21_8.odb,Step-1,Increment      1: Step Time =    1.000,"PART-1-1",           317,          -15.,        -21.25,            0.,NA,NA,"",   147.838E-03,   132.416E-03,   65.7429E-03,   7.01920E-03
C:/temp/dataset/6/21_8.odb,Step-1,Increment      1: Step Time =    1.000,"PART-1-1",           318,      -13.9888,      -22.4607,            0.,NA,NA,"",   109.513E-03,   100.139E-03,   44.3316E-03,   7.60527E-03
C:/temp/dataset/6/21_8.odb,Step-1,Increment      1: Step Time =    1.000,"PART-1-1",           319,      -12.8187,      -21.2681,            0.,NA,NA,"",   122.047E-03,   116.436E-03,   36.5805E-03,   9.54764E-03
C:/temp/dataset/6/21_8.odb,Step-1,Increment      1: Step Time =    1.000,"PART-1-1",           320,      -13.8299,      -20.0574,            0.,NA,NA,"",   152.716E-03,   143.647E-03,   51.8434E-03,   7.98073E-03
C:/temp/dataset/6/21_8.odb,Step-1,Increment      1: Step Time =    1.000,"PART-1-1",           321,      -12.5142,      -28.6623,            0.,NA,NA,"",   9.88046E-03,   8.34780E-03,   5.28560E-03,   5.85476E-03
C:/temp/dataset/6/21_8.odb,Step-1,Increment      1: Step Time =    1.000,"PART-1-1",           322,        -11.25,          -30.,            0.,NA,NA,"",            0.,   2.46812E-39,   5.83270E-39,   4.07947E-03
C:/temp/dataset/6/21_8.odb,Step-1,Increment      1: Step Time =    1.000,"PART-1-1",           323,      -9.93348,      -28.4464,            0.,NA,NA,"",   9.54599E-03,   9.40271E-03,   1.64768E-03,   4.21046E-03
C:/temp/dataset/6/21_8.odb,Step-1,Increment      1: Step Time =    1.000,"PART-1-1",           324,      -11.1976,      -27.1087,            0.,NA,NA,"",   23.1416E-03,   22.1580E-03,   6.67506E-03,   5.48530E-03
C:/temp/dataset/6/21_8.odb,Step-1,Increment      1: Step Time =    1.000,"PART-1-1",           325,      -7.37036,      -13.8742,            0.,NA,NA,"",   177.497E-03,   175.862E-03,   24.0347E-03,   2.01912E-03
C:/temp/dataset/6/21_8.odb,Step-1,Increment      1: Step Time =    1.000,"PART-1-1",           326,      -6.21015,      -15.0417,            0.,NA,NA,"",   167.270E-03,   166.741E-03,   13.2995E-03,   3.46986E-03
C:/temp/dataset/6/21_8.odb,Step-1,Increment      1: Step Time =    1.000,"PART-1-1",           327,           -5.,      -13.7188,            0.,NA,NA,"",   173.142E-03,   172.833E-03,   10.3430E-03,   4.76205E-03
C:/temp/dataset/6/21_8.odb,Step-1,Increment      1: Step Time =    1.000,"PART-1-1",           328,      -6.16021,      -12.5513,            0.,NA,NA,"",   181.406E-03,   180.265E-03,   20.3120E-03,   3.16745E-03
C:/temp/dataset/6/21_8.odb,Step-1,Increment      1: Step Time =    1.000,"PART-1-1",           329,      -9.33590,      -9.40979,            0.,NA,NA,"",   192.879E-03,   189.281E-03,   37.0812E-03,   1.43505E-03
C:/temp/dataset/6/21_8.odb,Step-1,Increment      1: Step Time =    1.000,"PART-1-1",           330,      -8.33361,      -10.3234,            0.,NA,NA,"",   190.812E-03,   187.898E-03,   33.2193E-03,   1.57220E-03
C:/temp/dataset/6/21_8.odb,Step-1,Increment      1: Step Time =    1.000,"PART-1-1",           331,      -7.16565,      -9.15059,            0.,NA,NA,"",   191.340E-03,   188.865E-03,   30.6770E-03,   1.84067E-03
C:/temp/dataset/6/21_8.odb,Step-1,Increment      1: Step Time =    1.000,"PART-1-1",           332,      -8.16794,      -8.23701,            0.,NA,NA,"",   193.111E-03,   190.057E-03,   34.2105E-03,   1.48247E-03
C:/temp/dataset/6/21_8.odb,Step-1,Increment      1: Step Time =    1.000,"PART-1-1",           333,      -11.1473,      -6.32447,            0.,NA,NA,"",   195.561E-03,   191.099E-03,   41.5368E-03,   1.06842E-03
C:/temp/dataset/6/21_8.odb,Step-1,Increment      1: Step Time =    1.000,"PART-1-1",           334,      -10.2102,      -6.79208,            0.,NA,NA,"",   195.019E-03,   190.953E-03,   39.6192E-03,   1.20635E-03
C:/temp/dataset/6/21_8.odb,Step-1,Increment      1: Step Time =    1.000,"PART-1-1",           335,      -9.51762,      -5.78103,            0.,NA,NA,"",   194.847E-03,   191.030E-03,   38.3815E-03,   1.26341E-03
C:/temp/dataset/6/21_8.odb,Step-1,Increment      1: Step Time =    1.000,"PART-1-1",           336,      -10.4548,      -5.31342,            0.,NA,NA,"",   195.478E-03,   191.295E-03,   40.2241E-03,   1.06601E-03
C:/temp/dataset/6/21_8.odb,Step-1,Increment      1: Step Time =    1.000,"PART-1-1",           337,      -5.04937,      -1.25055,            0.,NA,NA,"",   192.826E-03,   189.222E-03,   37.1095E-03,   920.840E-06
C:/temp/dataset/6/21_8.odb,Step-1,Increment      1: Step Time =    1.000,"PART-1-1",           338,      -3.82978,  -150.691E-03,            0.,NA,NA,"",   193.671E-03,   190.154E-03,   36.7437E-03,   772.725E-06
C:/temp/dataset/6/21_8.odb,Step-1,Increment      1: Step Time =    1.000,"PART-1-1",           339,      -5.10700,   929.666E-03,            0.,NA,NA,"",   196.008E-03,   192.309E-03,   37.8980E-03,   595.825E-06
C:/temp/dataset/6/21_8.odb,Step-1,Increment      1: Step Time =    1.000,"PART-1-1",           340,      -6.32658,  -170.190E-03,            0.,NA,NA,"",   195.128E-03,   191.326E-03,   38.3340E-03,   696.633E-06
C:/temp/dataset/6/21_8.odb,Step-1,Increment      1: Step Time =    1.000,"PART-1-1",           341,          -15.,          3.75,            0.,NA,NA,"",   200.971E-03,   195.870E-03,   44.9926E-03,   26.4299E-06
C:/temp/dataset/6/21_8.odb,Step-1,Increment      1: Step Time =    1.000,"PART-1-1",           342,      -13.8520,       2.39386,            0.,NA,NA,"",   199.829E-03,   194.891E-03,   44.1500E-03,   25.7039E-06
C:/temp/dataset/6/21_8.odb,Step-1,Increment      1: Step Time =    1.000,"PART-1-1",           343,      -12.6820,       3.58697,            0.,NA,NA,"",   200.468E-03,   195.728E-03,   43.3337E-03,   13.6615E-06
C:/temp/dataset/6/21_8.odb,Step-1,Increment      1: Step Time =    1.000,"PART-1-1",           344,      -13.8301,       4.94311,            0.,NA,NA,"",   201.634E-03,   196.737E-03,   44.1665E-03,   17.3214E-06
C:/temp/dataset/6/21_8.odb,Step-1,Increment      1: Step Time =    1.000,"PART-1-1",           345,          -15.,         11.25,            0.,NA,NA,"",   206.367E-03,   201.394E-03,   45.0278E-03,   2.44482E-06
C:/temp/dataset/6/21_8.odb,Step-1,Increment      1: Step Time =    1.000,"PART-1-1",           346,      -14.0083,       10.0442,            0.,NA,NA,"",   205.349E-03,   200.513E-03,   44.3049E-03,   1.86627E-06
C:/temp/dataset/6/21_8.odb,Step-1,Increment      1: Step Time =    1.000,"PART-1-1",           347,      -13.0572,       11.3141,            0.,NA,NA,"",   206.108E-03,   201.442E-03,   43.6073E-03,   891.429E-09
C:/temp/dataset/6/21_8.odb,Step-1,Increment      1: Step Time =    1.000,"PART-1-1",           348,      -14.0489,       12.5200,            0.,NA,NA,"",   207.121E-03,   202.321E-03,   44.3309E-03,   1.25024E-06
C:/temp/dataset/6/21_8.odb,Step-1,Increment      1: Step Time =    1.000,"PART-1-1",           349,           -5.,       22.7083,            0.,NA,NA,"",   213.108E-03,   209.741E-03,   37.7332E-03,   13.4720E-09
C:/temp/dataset/6/21_8.odb,Step-1,Increment      1: Step Time =    1.000,"PART-1-1",           350,      -5.96779,       23.6687,            0.,NA,NA,"",   213.922E-03,   210.441E-03,   38.4380E-03,   6.03525E-09
C:/temp/dataset/6/21_8.odb,Step-1,Increment      1: Step Time =    1.000,"PART-1-1",           351,      -6.69567,       22.7251,            0.,NA,NA,"",   213.343E-03,   209.753E-03,   38.9686E-03,   4.11550E-09
C:/temp/dataset/6/21_8.odb,Step-1,Increment      1: Step Time =    1.000,"PART-1-1",           352,      -5.72788,       21.7648,            0.,NA,NA,"",   212.526E-03,   209.053E-03,   38.2637E-03,   6.43351E-09
C:/temp/dataset/6/21_8.odb,Step-1,Increment      1: Step Time =    1.000,"PART-1-1",           353,      -9.95259,       28.8237,            0.,NA,NA,"",   218.150E-03,   214.198E-03,   41.3399E-03,   2.98798E-09
C:/temp/dataset/6/21_8.odb,Step-1,Increment      1: Step Time =    1.000,"PART-1-1",           354,      -8.67740,       27.7404,            0.,NA,NA,"",   217.200E-03,   213.408E-03,   40.4111E-03,   2.80033E-09
C:/temp/dataset/6/21_8.odb,Step-1,Increment      1: Step Time =    1.000,"PART-1-1",           355,      -7.47481,       28.9167,            0.,NA,NA,"",   217.882E-03,   214.265E-03,   39.5346E-03,   2.50628E-09
C:/temp/dataset/6/21_8.odb,Step-1,Increment      1: Step Time =    1.000,"PART-1-1",           356,         -8.75,           30.,            0.,NA,NA,"",   218.828E-03,   215.054E-03,   40.4634E-03,   3.02267E-09
C:/temp/dataset/6/21_8.odb,Step-1,Increment      1: Step Time =    1.000,"PART-1-1",           357,      -12.4360,       28.7156,            0.,NA,NA,"",   218.424E-03,   214.119E-03,   43.1492E-03,   2.65041E-09
C:/temp/dataset/6/21_8.odb,Step-1,Increment      1: Step Time =    1.000,"PART-1-1",           358,        -13.75,           30.,            0.,NA,NA,"",   219.532E-03,   215.056E-03,   44.1062E-03,   672.867E-12
C:/temp/dataset/6/21_8.odb,Step-1,Increment      1: Step Time =    1.000,"PART-1-1",           359,          -15.,         28.75,            0.,NA,NA,"",   218.826E-03,   214.145E-03,   45.0173E-03,   870.193E-12
C:/temp/dataset/6/21_8.odb,Step-1,Increment      1: Step Time =    1.000,"PART-1-1",           360,      -13.6860,       27.4656,            0.,NA,NA,"",   217.714E-03,   213.209E-03,   44.0603E-03,   2.78998E-09
C:/temp/dataset/6/21_8.odb,Step-1,Increment      1: Step Time =    1.000,"PART-1-1",           361,         -3.75,           -5.,            0.,NA,NA,"",   187.636E-03,   184.482E-03,   34.2610E-03,   2.08679E-03
C:/temp/dataset/6/21_8.odb,Step-1,Increment      1: Step Time =    1.000,"PART-1-1",           362,      -2.75606,      -4.06584,            0.,NA,NA,"",   186.733E-03,   183.593E-03,   34.0986E-03,   1.61398E-03
C:/temp/dataset/6/21_8.odb,Step-1,Increment      1: Step Time =    1.000,"PART-1-1",           363,      -4.26954,      -3.28646,            0.,NA,NA,"",   189.571E-03,   186.200E-03,   35.5934E-03,   1.25888E-03
C:/temp/dataset/6/21_8.odb,Step-1,Increment      1: Step Time =    1.000,"PART-1-1",           364,      -5.26349,      -4.22062,            0.,NA,NA,"",   190.161E-03,   186.917E-03,   34.9732E-03,   1.74687E-03
C:/temp/dataset/6/21_8.odb,Step-1,Increment      1: Step Time =    1.000,"PART-1-1",           365,   659.099E-03,      -2.85996,            0.,NA,NA,"",   183.332E-03,   180.886E-03,   29.8494E-03,   1.58093E-03
C:/temp/dataset/6/21_8.odb,Step-1,Increment      1: Step Time =    1.000,"PART-1-1",           366,  -266.865E-03,      -3.97148,            0.,NA,NA,"",   182.386E-03,   179.794E-03,   30.6409E-03,   1.83563E-03
C:/temp/dataset/6/21_8.odb,Step-1,Increment      1: Step Time =    1.000,"PART-1-1",           367,          1.25,           -5.,            0.,NA,NA,"",   177.041E-03,   174.996E-03,   26.8328E-03,   2.35778E-03
C:/temp/dataset/6/21_8.odb,Step-1,Increment      1: Step Time =    1.000,"PART-1-1",           368,       2.17596,      -3.88848,            0.,NA,NA,"",   177.484E-03,   175.546E-03,   26.1578E-03,   2.05500E-03
C:/temp/dataset/6/21_8.odb,Step-1,Increment      1: Step Time =    1.000,"PART-1-1",           369,   93.5104E-03,  -560.922E-03,            0.,NA,NA,"",   190.075E-03,   187.402E-03,   31.7596E-03,   804.741E-06
C:/temp/dataset/6/21_8.odb,Step-1,Increment      1: Step Time =    1.000,"PART-1-1",           370,   627.873E-03,   544.404E-03,            0.,NA,NA,"",   192.718E-03,   190.233E-03,   30.8510E-03,   573.458E-06
C:/temp/dataset/6/21_8.odb,Step-1,Increment      1: Step Time =    1.000,"PART-1-1",           371,  -981.002E-03,       1.17096,            0.,NA,NA,"",   194.990E-03,   192.052E-03,   33.7168E-03,   544.293E-06
C:/temp/dataset/6/21_8.odb,Step-1,Increment      1: Step Time =    1.000,"PART-1-1",           372,      -1.51537,   65.6335E-03,            0.,NA,NA,"",   192.731E-03,   189.636E-03,   34.3967E-03,   701.692E-06
C:/temp/dataset/6/21_8.odb,Step-1,Increment      1: Step Time =    1.000,"PART-1-1",           373,       4.11258,       2.54084,            0.,NA,NA,"",   198.507E-03,   197.446E-03,   20.5032E-03,   576.480E-06
C:/temp/dataset/6/21_8.odb,Step-1,Increment      1: Step Time =    1.000,"PART-1-1",           374,       3.71515,       1.12833,            0.,NA,NA,"",   193.433E-03,   192.133E-03,   22.3900E-03,   338.288E-06
C:/temp/dataset/6/21_8.odb,Step-1,Increment      1: Step Time =    1.000,"PART-1-1",           375,       5.46602,   397.127E-03,            0.,NA,NA,"",   190.204E-03,   189.556E-03,   15.6852E-03,   403.474E-06
C:/temp/dataset/6/21_8.odb,Step-1,Increment      1: Step Time =    1.000,"PART-1-1",           376,       8.69518,  -378.803E-03,            0.,NA,NA,"",   186.027E-03,   186.024E-03,  -981.622E-06,   719.227E-06
C:/temp/dataset/6/21_8.odb,Step-1,Increment      1: Step Time =    1.000,"PART-1-1",           377,       8.82700,   889.396E-03,            0.,NA,NA,"",   191.970E-03,   191.962E-03,  -1.80718E-03,   706.091E-06
C:/temp/dataset/6/21_8.odb,Step-1,Increment      1: Step Time =    1.000,"PART-1-1",           378,       6.97530,  -164.986E-03,            0.,NA,NA,"",   187.388E-03,   187.194E-03,   8.53195E-03,   585.346E-06
C:/temp/dataset/6/21_8.odb,Step-1,Increment      1: Step Time =    1.000,"PART-1-1",           379,      -3.65351,      -22.6081,            0.,NA,NA,"",   55.9031E-03,   55.3620E-03,  -7.75932E-03,   5.93196E-03
C:/temp/dataset/6/21_8.odb,Step-1,Increment      1: Step Time =    1.000,"PART-1-1",           380,      -2.48671,      -21.3009,            0.,NA,NA,"",   59.0976E-03,   58.9119E-03,  -4.68135E-03,   6.17443E-03
C:/temp/dataset/6/21_8.odb,Step-1,Increment      1: Step Time =    1.000,"PART-1-1",           381,         -3.75,          -20.,            0.,NA,NA,"",   71.3004E-03,   71.2187E-03,  -3.41148E-03,   11.6889E-03
C:/temp/dataset/6/21_8.odb,Step-1,Increment      1: Step Time =    1.000,"PART-1-1",           382,      -4.91680,      -21.3072,            0.,NA,NA,"",   70.5816E-03,   70.1100E-03,  -8.14586E-03,   8.26426E-03
C:/temp/dataset/6/21_8.odb,Step-1,Increment      1: Step Time =    1.000,"PART-1-1",           383,       12.8399,      -22.4784,            0.,NA,NA,"",   36.1607E-03,   32.6667E-03,  -15.5076E-03,   1.92897E-03
C:/temp/dataset/6/21_8.odb,Step-1,Increment      1: Step Time =    1.000,"PART-1-1",           384,       11.7398,      -21.2760,            0.,NA,NA,"",   39.8768E-03,   37.8575E-03,  -12.5286E-03,   1.44130E-03
C:/temp/dataset/6/21_8.odb,Step-1,Increment      1: Step Time =    1.000,"PART-1-1",           385,       10.5591,      -22.4389,            0.,NA,NA,"",   32.3238E-03,   31.6356E-03,  -6.63417E-03,   1.17554E-03
C:/temp/dataset/6/21_8.odb,Step-1,Increment      1: Step Time =    1.000,"PART-1-1",           386,       11.6593,      -23.6412,            0.,NA,NA,"",   28.0043E-03,   26.4475E-03,  -9.20722E-03,   1.60253E-03
C:/temp/dataset/6/21_8.odb,Step-1,Increment      1: Step Time =    1.000,"PART-1-1",           387,          8.75,            5.,            0.,NA,NA,"",   211.890E-03,   211.877E-03,  -2.36395E-03,   890.782E-06
C:/temp/dataset/6/21_8.odb,Step-1,Increment      1: Step Time =    1.000,"PART-1-1",           388,       7.62461,       4.03982,            0.,NA,NA,"",   206.158E-03,   206.119E-03,   4.02131E-03,   902.463E-06
C:/temp/dataset/6/21_8.odb,Step-1,Increment      1: Step Time =    1.000,"PART-1-1",           389,       8.90047,       2.96899,            0.,NA,NA,"",   201.724E-03,   201.708E-03,  -2.55764E-03,   705.107E-06
C:/temp/dataset/6/21_8.odb,Step-1,Increment      1: Step Time =    1.000,"PART-1-1",           390,       10.0259,       3.92917,            0.,NA,NA,"",   207.148E-03,   206.945E-03,  -9.15552E-03,   569.816E-06
C:/temp/dataset/6/21_8.odb,Step-1,Increment      1: Step Time =    1.000,"PART-1-1",           391,      -6.96921,       21.1213,            0.,NA,NA,"",   212.231E-03,   208.585E-03,   39.1683E-03,   33.0355E-09
C:/temp/dataset/6/21_8.odb,Step-1,Increment      1: Step Time =    1.000,"PART-1-1",           392,      -6.24133,       19.9816,            0.,NA,NA,"",   211.317E-03,   207.754E-03,   38.6383E-03,   35.1169E-09
C:/temp/dataset/6/21_8.odb,Step-1,Increment      1: Step Time =    1.000,"PART-1-1",           393,           -5.,        20.625,            0.,NA,NA,"",   211.614E-03,   208.223E-03,   37.7337E-03,   3.77180E-09
C:/temp/dataset/6/21_8.odb,Step-1,Increment      1: Step Time =    1.000,"PART-1-1",           394,      -12.9370,       8.81410,            0.,NA,NA,"",   204.300E-03,   199.610E-03,   43.5219E-03,   4.16968E-06
C:/temp/dataset/6/21_8.odb,Step-1,Increment      1: Step Time =    1.000,"PART-1-1",           395,          -15.,          8.75,            0.,NA,NA,"",   204.580E-03,   199.562E-03,   45.0354E-03,   1.64863E-06
C:/temp/dataset/6/21_8.odb,Step-1,Increment      1: Step Time =    1.000,"PART-1-1",           396,      -13.9287,       7.51992,            0.,NA,NA,"",   203.522E-03,   198.654E-03,   44.2487E-03,   4.97749E-06
C:/temp/dataset/6/21_8.odb,Step-1,Increment      1: Step Time =    1.000,"PART-1-1",           397,          -15.,          1.25,            0.,NA,NA,"",   199.264E-03,   194.137E-03,   44.9090E-03,   15.3586E-06
C:/temp/dataset/6/21_8.odb,Step-1,Increment      1: Step Time =    1.000,"PART-1-1",           398,      -13.9023,  -59.1614E-03,            0.,NA,NA,"",   198.322E-03,   193.337E-03,   44.1863E-03,   82.1841E-06
C:/temp/dataset/6/21_8.odb,Step-1,Increment      1: Step Time =    1.000,"PART-1-1",           399,      -12.7542,       1.08470,            0.,NA,NA,"",   198.780E-03,   193.996E-03,   43.3460E-03,   89.4413E-06
C:/temp/dataset/6/21_8.odb,Step-1,Increment      1: Step Time =    1.000,"PART-1-1",           400,          -15.,         -1.25,            0.,NA,NA,"",   197.848E-03,   192.679E-03,   44.9305E-03,   116.976E-06
C:/temp/dataset/6/21_8.odb,Step-1,Increment      1: Step Time =    1.000,"PART-1-1",           401,      -13.9820,      -2.43756,            0.,NA,NA,"",   197.259E-03,   192.183E-03,   44.4594E-03,   266.606E-06
C:/temp/dataset/6/21_8.odb,Step-1,Increment      1: Step Time =    1.000,"PART-1-1",           402,      -12.8843,      -1.24672,            0.,NA,NA,"",   197.561E-03,   192.723E-03,   43.4509E-03,   278.556E-06
C:/temp/dataset/6/21_8.odb,Step-1,Increment      1: Step Time =    1.000,"PART-1-1",           403,      -12.3802,      -13.7897,            0.,NA,NA,"",   188.829E-03,   181.834E-03,   50.9186E-03,   2.68067E-03
C:/temp/dataset/6/21_8.odb,Step-1,Increment      1: Step Time =    1.000,"PART-1-1",           404,      -13.6672,      -12.5056,            0.,NA,NA,"",   190.251E-03,   182.829E-03,   52.6204E-03,   2.01460E-03
C:/temp/dataset/6/21_8.odb,Step-1,Increment      1: Step Time =    1.000,"PART-1-1",           405,          -15.,        -13.75,            0.,NA,NA,"",   188.790E-03,   180.225E-03,   56.2213E-03,   1.96011E-03
C:/temp/dataset/6/21_8.odb,Step-1,Increment      1: Step Time =    1.000,"PART-1-1",           406,      -13.7130,      -15.0341,            0.,NA,NA,"",   191.480E-03,   182.553E-03,   57.7826E-03,   4.48136E-03
C:/temp/dataset/6/21_8.odb,Step-1,Increment      1: Step Time =    1.000,"PART-1-1",           407,       9.21271,      -3.58583,            0.,NA,NA,"",   168.629E-03,   168.565E-03,  -4.61696E-03,   725.121E-06
C:/temp/dataset/6/21_8.odb,Step-1,Increment      1: Step Time =    1.000,"PART-1-1",           408,       7.90749,      -3.82305,            0.,NA,NA,"",   168.091E-03,   168.061E-03,   3.21302E-03,   1.05390E-03
C:/temp/dataset/6/21_8.odb,Step-1,Increment      1: Step Time =    1.000,"PART-1-1",           409,       8.15132,      -5.16923,            0.,NA,NA,"",   158.699E-03,   158.693E-03,   1.44920E-03,   1.25534E-03
C:/temp/dataset/6/21_8.odb,Step-1,Increment      1: Step Time =    1.000,"PART-1-1",           410,       9.45655,      -4.93201,            0.,NA,NA,"",   159.617E-03,   159.483E-03,  -6.52471E-03,   839.035E-06
C:/temp/dataset/6/21_8.odb,Step-1,Increment      1: Step Time =    1.000,"PART-1-1",           411,       6.91243,      -16.0318,            0.,NA,NA,"",   70.3451E-03,   69.7264E-03,   9.30879E-03,   1.40414E-03
C:/temp/dataset/6/21_8.odb,Step-1,Increment      1: Step Time =    1.000,"PART-1-1",           412,       5.96229,      -14.9858,            0.,NA,NA,"",   79.8994E-03,   78.2029E-03,   16.3773E-03,   1.08571E-03
C:/temp/dataset/6/21_8.odb,Step-1,Increment      1: Step Time =    1.000,"PART-1-1",           413,            5.,      -16.2875,            0.,NA,NA,"",   72.3741E-03,   69.0247E-03,   21.7626E-03,   1.76217E-03
C:/temp/dataset/6/21_8.odb,Step-1,Increment      1: Step Time =    1.000,"PART-1-1",           414,       6.93910,      -13.7291,            0.,NA,NA,"",   88.4026E-03,   87.7896E-03,   10.3928E-03,   955.111E-06
C:/temp/dataset/6/21_8.odb,Step-1,Increment      1: Step Time =    1.000,"PART-1-1",           415,       5.97681,      -12.5371,            0.,NA,NA,"",   99.2289E-03,   97.6448E-03,   17.6599E-03,   568.484E-06
C:/temp/dataset/6/21_8.odb,Step-1,Increment      1: Step Time =    1.000,"PART-1-1",           416,            5.,      -13.7937,            0.,NA,NA,"",   91.2246E-03,   87.8913E-03,   24.4346E-03,   905.138E-06
C:/temp/dataset/6/21_8.odb,Step-1,Increment      1: Step Time =    1.000,"PART-1-1",           417,         -1.25,          -20.,            0.,NA,NA,"",   52.8262E-03,   52.8080E-03,   1.38832E-03,   5.41273E-03
C:/temp/dataset/6/21_8.odb,Step-1,Increment      1: Step Time =    1.000,"PART-1-1",           418,      -1.09514,      -22.7401,            0.,NA,NA,"",   46.9270E-03,   46.7962E-03,  -3.50157E-03,   5.62608E-03
C:/temp/dataset/6/21_8.odb,Step-1,Increment      1: Step Time =    1.000,"PART-1-1",           419,   141.566E-03,      -21.4393,            0.,NA,NA,"",   47.3149E-03,   47.3127E-03,   463.868E-06,   3.74675E-03
C:/temp/dataset/6/21_8.odb,Step-1,Increment      1: Step Time =    1.000,"PART-1-1",           420,      -7.69236,      -25.1479,            0.,NA,NA,"",   39.2203E-03,   39.2126E-03,  -778.633E-06,   5.39152E-03
C:/temp/dataset/6/21_8.odb,Step-1,Increment      1: Step Time =    1.000,"PART-1-1",           421,      -9.18951,      -25.9970,            0.,NA,NA,"",   32.1194E-03,   32.0272E-03,   2.43186E-03,   5.38106E-03
C:/temp/dataset/6/21_8.odb,Step-1,Increment      1: Step Time =    1.000,"PART-1-1",           422,      -8.56598,      -27.1897,            0.,NA,NA,"",   19.8293E-03,   19.8268E-03,   316.690E-06,   4.83056E-03
C:/temp/dataset/6/21_8.odb,Step-1,Increment      1: Step Time =    1.000,"PART-1-1",           423,      -7.06883,      -26.3407,            0.,NA,NA,"",   27.0909E-03,   27.0096E-03,  -2.09798E-03,   4.90650E-03
C:/temp/dataset/6/21_8.odb,Step-1,Increment      1: Step Time =    1.000,"PART-1-1",           424,      -9.82073,      -13.8964,            0.,NA,NA,"",   182.729E-03,   178.689E-03,   38.2119E-03,   1.55539E-03
C:/temp/dataset/6/21_8.odb,Step-1,Increment      1: Step Time =    1.000,"PART-1-1",           425,      -8.65586,      -15.1239,            0.,NA,NA,"",   172.560E-03,   169.935E-03,   29.9848E-03,   2.23321E-03
C:/temp/dataset/6/21_8.odb,Step-1,Increment      1: Step Time =    1.000,"PART-1-1",           426,      -8.53523,      -12.6467,            0.,NA,NA,"",   185.202E-03,   182.373E-03,   32.2485E-03,   1.62429E-03
C:/temp/dataset/6/21_8.odb,Step-1,Increment      1: Step Time =    1.000,"PART-1-1",           427,      -6.09243,      -10.1071,            0.,NA,NA,"",   188.475E-03,   186.663E-03,   26.0769E-03,   2.50869E-03
C:/temp/dataset/6/21_8.odb,Step-1,Increment      1: Step Time =    1.000,"PART-1-1",           428,           -5.,      -8.71250,            0.,NA,NA,"",   189.282E-03,   187.314E-03,   27.2266E-03,   2.68888E-03
C:/temp/dataset/6/21_8.odb,Step-1,Increment      1: Step Time =    1.000,"PART-1-1",           429,      -6.07322,      -7.75598,            0.,NA,NA,"",   191.537E-03,   189.098E-03,   30.4702E-03,   1.80530E-03
C:/temp/dataset/6/21_8.odb,Step-1,Increment      1: Step Time =    1.000,"PART-1-1",           430,      -12.7270,      -6.06323,            0.,NA,NA,"",   196.038E-03,   190.980E-03,   44.2448E-03,   872.821E-06
C:/temp/dataset/6/21_8.odb,Step-1,Increment      1: Step Time =    1.000,"PART-1-1",           431,      -13.8025,      -4.90646,            0.,NA,NA,"",   196.484E-03,   191.243E-03,   45.0798E-03,   623.228E-06
C:/temp/dataset/6/21_8.odb,Step-1,Increment      1: Step Time =    1.000,"PART-1-1",           432,          -15.,         -6.25,            0.,NA,NA,"",   195.856E-03,   190.133E-03,   46.9988E-03,   967.885E-06
C:/temp/dataset/6/21_8.odb,Step-1,Increment      1: Step Time =    1.000,"PART-1-1",           433,      -13.9244,      -7.40677,            0.,NA,NA,"",   195.457E-03,   189.751E-03,   46.8827E-03,   1.05522E-03
C:/temp/dataset/6/21_8.odb,Step-1,Increment      1: Step Time =    1.000,"PART-1-1",           434,       1.60591,      -1.50045,            0.,NA,NA,"",   185.908E-03,   183.709E-03,   28.5127E-03,   1.19128E-03
C:/temp/dataset/6/21_8.odb,Step-1,Increment      1: Step Time =    1.000,"PART-1-1",           435,  -853.298E-03,      -1.92043,            0.,NA,NA,"",   187.724E-03,   184.819E-03,   32.8975E-03,   1.15882E-03
C:/temp/dataset/6/21_8.odb,Step-1,Increment      1: Step Time =    1.000,"PART-1-1",           436,         13.75,          -30.,            0.,NA,NA,"",            0.,   769.885E-42,  -6.29471E-39,   4.77739E-03
C:/temp/dataset/6/21_8.odb,Step-1,Increment      1: Step Time =    1.000,"PART-1-1",           437,           15.,      -28.9063,            0.,NA,NA,"",   8.58185E-03,   6.38459E-03,  -5.73456E-03,   5.48482E-03
C:/temp/dataset/6/21_8.odb,Step-1,Increment      1: Step Time =    1.000,"PART-1-1",           438,       13.8103,      -27.8746,            0.,NA,NA,"",   11.0634E-03,   9.03261E-03,  -6.38827E-03,   3.60230E-03
C:/temp/dataset/6/21_8.odb,Step-1,Increment      1: Step Time =    1.000,"PART-1-1",           439,       12.5603,      -28.9683,            0.,NA,NA,"",   3.83222E-03,   3.28443E-03,  -1.97445E-03,   2.97275E-03
C:/temp/dataset/6/21_8.odb,Step-1,Increment      1: Step Time =    1.000,"PART-1-1",           440,       12.6598,      -26.8678,            0.,NA,NA,"",   14.1344E-03,   12.5068E-03,  -6.58500E-03,   2.88561E-03
C:/temp/dataset/6/21_8.odb,Step-1,Increment      1: Step Time =    1.000,"PART-1-1",           441,       11.5501,      -25.8632,            0.,NA,NA,"",   17.4055E-03,   16.3685E-03,  -5.91801E-03,   2.18420E-03
C:/temp/dataset/6/21_8.odb,Step-1,Increment      1: Step Time =    1.000,"PART-1-1",           442,       10.3093,      -26.9762,            0.,NA,NA,"",   11.6562E-03,   11.3677E-03,  -2.57725E-03,   2.28310E-03
C:/temp/dataset/6/21_8.odb,Step-1,Increment      1: Step Time =    1.000,"PART-1-1",           443,       11.4189,      -27.9808,            0.,NA,NA,"",   7.64184E-03,   7.16121E-03,  -2.66736E-03,   2.73991E-03
C:/temp/dataset/6/21_8.odb,Step-1,Increment      1: Step Time =    1.000,"PART-1-1",           444,       10.1086,      -29.0125,            0.,NA,NA,"",   3.34573E-03,   3.22873E-03,  -877.061E-06,   2.33793E-03
C:/temp/dataset/6/21_8.odb,Step-1,Increment      1: Step Time =    1.000,"PART-1-1",           445,       9.01957,      -28.0513,            0.,NA,NA,"",   7.32498E-03,   7.26602E-03,  -927.548E-06,   2.52731E-03
C:/temp/dataset/6/21_8.odb,Step-1,Increment      1: Step Time =    1.000,"PART-1-1",           446,          8.75,          -30.,            0.,NA,NA,"",            0.,   2.08139E-39,  -1.61618E-39,   2.37641E-03
C:/temp/dataset/6/21_8.odb,Step-1,Increment      1: Step Time =    1.000,"PART-1-1",           447,       4.20973,      -27.9354,            0.,NA,NA,"",   11.3944E-03,   11.3942E-03,  -59.8345E-06,   3.69875E-03
C:/temp/dataset/6/21_8.odb,Step-1,Increment      1: Step Time =    1.000,"PART-1-1",           448,       2.74203,      -28.9082,            0.,NA,NA,"",   6.80482E-03,   6.79236E-03,  -411.678E-06,   4.08893E-03
C:/temp/dataset/6/21_8.odb,Step-1,Increment      1: Step Time =    1.000,"PART-1-1",           449,          3.75,          -30.,            0.,NA,NA,"",            0.,   3.67632E-39,  -1.08182E-39,   3.81835E-03
C:/temp/dataset/6/21_8.odb,Step-1,Increment      1: Step Time =    1.000,"PART-1-1",           450,       1.16266,      -25.9573,            0.,NA,NA,"",   25.6760E-03,   25.6436E-03,  -1.28969E-03,   4.58987E-03
C:/temp/dataset/6/21_8.odb,Step-1,Increment      1: Step Time =    1.000,"PART-1-1",           451,       1.65415,      -27.4536,            0.,NA,NA,"",   16.2984E-03,   16.2706E-03,  -951.071E-06,   4.37039E-03
C:/temp/dataset/6/21_8.odb,Step-1,Increment      1: Step Time =    1.000,"PART-1-1",           452,       3.39879,      -26.8461,            0.,NA,NA,"",   18.0909E-03,   18.0906E-03,   110.138E-06,   4.00602E-03
C:/temp/dataset/6/21_8.odb,Step-1,Increment      1: Step Time =    1.000,"PART-1-1",           453,       2.90730,      -25.3498,            0.,NA,NA,"",   26.6633E-03,   26.6542E-03,   695.942E-06,   4.21672E-03
C:/temp/dataset/6/21_8.odb,Step-1,Increment      1: Step Time =    1.000,"PART-1-1",           454,      -3.67645,      -27.5530,            0.,NA,NA,"",   17.4630E-03,   17.1702E-03,  -3.18478E-03,   4.96231E-03
C:/temp/dataset/6/21_8.odb,Step-1,Increment      1: Step Time =    1.000,"PART-1-1",           455,      -2.54816,      -26.3074,            0.,NA,NA,"",   26.5448E-03,   26.1684E-03,  -4.45472E-03,   5.23068E-03
C:/temp/dataset/6/21_8.odb,Step-1,Increment      1: Step Time =    1.000,"PART-1-1",           456,      -3.72120,      -25.1278,            0.,NA,NA,"",   35.9663E-03,   35.4684E-03,  -5.96385E-03,   5.41519E-03
C:/temp/dataset/6/21_8.odb,Step-1,Increment      1: Step Time =    1.000,"PART-1-1",           457,      -4.84948,      -26.3734,            0.,NA,NA,"",   26.5145E-03,   26.1382E-03,  -4.45135E-03,   5.08205E-03
C:/temp/dataset/6/21_8.odb,Step-1,Increment      1: Step Time =    1.000,"PART-1-1",           458,      -4.94498,      -28.7931,            0.,NA,NA,"",   8.08602E-03,   7.96940E-03,  -1.36834E-03,   4.56643E-03
C:/temp/dataset/6/21_8.odb,Step-1,Increment      1: Step Time =    1.000,"PART-1-1",           459,         -3.75,          -30.,            0.,NA,NA,"",            0.,   4.12387E-39,  -2.77896E-39,   4.51604E-03
C:/temp/dataset/6/21_8.odb,Step-1,Increment      1: Step Time =    1.000,"PART-1-1",           460,      -6.07748,      -27.5364,            0.,NA,NA,"",   16.9991E-03,   16.8348E-03,  -2.35737E-03,   4.73700E-03
C:/temp/dataset/6/21_8.odb,Step-1,Increment      1: Step Time =    1.000,"PART-1-1",           461,      -7.38250,      -28.7433,            0.,NA,NA,"",   7.72119E-03,   7.69952E-03,  -578.077E-06,   4.06422E-03
C:/temp/dataset/6/21_8.odb,Step-1,Increment      1: Step Time =    1.000,"PART-1-1",           462,         -6.25,          -30.,            0.,NA,NA,"",            0.,   3.64038E-39,  -1.75057E-39,   3.87150E-03
C:/temp/dataset/6/21_8.odb,Step-1,Increment      1: Step Time =    1.000,"PART-1-1",           463,      -8.77755,      -24.1806,            0.,NA,NA,"",   52.6596E-03,   52.5344E-03,   3.62940E-03,   6.48787E-03
C:/temp/dataset/6/21_8.odb,Step-1,Increment      1: Step Time =    1.000,"PART-1-1",           464,      -9.92276,      -23.8066,            0.,NA,NA,"",   61.4815E-03,   60.8206E-03,   8.99029E-03,   7.26284E-03
C:/temp/dataset/6/21_8.odb,Step-1,Increment      1: Step Time =    1.000,"PART-1-1",           465,      -10.3347,      -25.6230,            0.,NA,NA,"",   38.5059E-03,   37.9119E-03,   6.73724E-03,   6.00500E-03
C:/temp/dataset/6/21_8.odb,Step-1,Increment      1: Step Time =    1.000,"PART-1-1",           466,       13.9544,      -21.3085,            0.,NA,NA,"",   45.5336E-03,   39.4341E-03,  -22.7653E-03,   2.17353E-03
C:/temp/dataset/6/21_8.odb,Step-1,Increment      1: Step Time =    1.000,"PART-1-1",           467,       13.8855,      -23.5136,            0.,NA,NA,"",   33.8937E-03,   28.7599E-03,  -17.9346E-03,   2.35380E-03
C:/temp/dataset/6/21_8.odb,Step-1,Increment      1: Step Time =    1.000,"PART-1-1",           468,           15.,      -22.3438,            0.,NA,NA,"",   43.7285E-03,   35.4484E-03,  -25.6046E-03,   2.62008E-03
C:/temp/dataset/6/21_8.odb,Step-1,Increment      1: Step Time =    1.000,"PART-1-1",           469,       12.7349,      -24.6944,            0.,NA,NA,"",   24.9598E-03,   22.3366E-03,  -11.1386E-03,   2.28839E-03
C:/temp/dataset/6/21_8.odb,Step-1,Increment      1: Step Time =    1.000,"PART-1-1",           470,       13.8494,      -25.7120,            0.,NA,NA,"",   22.8823E-03,   18.9818E-03,  -12.7785E-03,   2.75932E-03
C:/temp/dataset/6/21_8.odb,Step-1,Increment      1: Step Time =    1.000,"PART-1-1",           471,           15.,      -24.5313,            0.,NA,NA,"",   32.5870E-03,   25.4842E-03,  -20.3094E-03,   2.84413E-03
C:/temp/dataset/6/21_8.odb,Step-1,Increment      1: Step Time =    1.000,"PART-1-1",           472,         11.25,          -30.,            0.,NA,NA,"",            0.,   1.69758E-39,  -3.31643E-39,   2.39262E-03
C:/temp/dataset/6/21_8.odb,Step-1,Increment      1: Step Time =    1.000,"PART-1-1",           473,       13.9950,      -12.5232,            0.,NA,NA,"",   104.782E-03,   98.4798E-03,  -35.7906E-03,   874.908E-06
C:/temp/dataset/6/21_8.odb,Step-1,Increment      1: Step Time =    1.000,"PART-1-1",           474,       12.9942,      -13.6844,            0.,NA,NA,"",   93.1738E-03,   88.8870E-03,  -27.9365E-03,   1.16307E-03
C:/temp/dataset/6/21_8.odb,Step-1,Increment      1: Step Time =    1.000,"PART-1-1",           475,           15.,      -13.5938,            0.,NA,NA,"",   99.8963E-03,   90.4642E-03,  -42.3733E-03,   1.19247E-03
C:/temp/dataset/6/21_8.odb,Step-1,Increment      1: Step Time =    1.000,"PART-1-1",           476,       9.85236,      -17.2546,            0.,NA,NA,"",   61.2689E-03,   60.8693E-03,  -6.98615E-03,   1.26648E-03
C:/temp/dataset/6/21_8.odb,Step-1,Increment      1: Step Time =    1.000,"PART-1-1",           477,       8.68427,      -17.7513,            0.,NA,NA,"",   57.0786E-03,   57.0714E-03,  -906.657E-06,   1.29915E-03
C:/temp/dataset/6/21_8.odb,Step-1,Increment      1: Step Time =    1.000,"PART-1-1",           478,       8.96140,      -18.9835,            0.,NA,NA,"",   49.2598E-03,   49.2172E-03,  -2.04879E-03,   1.15848E-03
C:/temp/dataset/6/21_8.odb,Step-1,Increment      1: Step Time =    1.000,"PART-1-1",           479,       10.1295,      -18.4868,            0.,NA,NA,"",   53.3286E-03,   52.7670E-03,  -7.71947E-03,   1.18346E-03
C:/temp/dataset/6/21_8.odb,Step-1,Increment      1: Step Time =    1.000,"PART-1-1",           480,       11.2436,      -18.3856,            0.,NA,NA,"",   55.6165E-03,   53.9925E-03,  -13.3418E-03,   1.31834E-03
C:/temp/dataset/6/21_8.odb,Step-1,Increment      1: Step Time =    1.000,"PART-1-1",           481,       12.3956,      -19.2305,            0.,NA,NA,"",   52.8283E-03,   49.5531E-03,  -18.3118E-03,   1.55072E-03
C:/temp/dataset/6/21_8.odb,Step-1,Increment      1: Step Time =    1.000,"PART-1-1",           482,       13.1120,      -18.1414,            0.,NA,NA,"",   61.5136E-03,   56.7649E-03,  -23.6995E-03,   1.62421E-03
C:/temp/dataset/6/21_8.odb,Step-1,Increment      1: Step Time =    1.000,"PART-1-1",           483,       11.9600,      -17.2965,            0.,NA,NA,"",   64.2361E-03,   61.5886E-03,  -18.2516E-03,   1.37370E-03
C:/temp/dataset/6/21_8.odb,Step-1,Increment      1: Step Time =    1.000,"PART-1-1",           484,       14.0024,      -3.77677,            0.,NA,NA,"",   168.798E-03,   165.179E-03,  -34.7664E-03,   794.269E-06
C:/temp/dataset/6/21_8.odb,Step-1,Increment      1: Step Time =    1.000,"PART-1-1",           485,       13.0359,      -4.87313,            0.,NA,NA,"",   160.924E-03,   158.267E-03,  -29.1261E-03,   547.739E-06
C:/temp/dataset/6/21_8.odb,Step-1,Increment      1: Step Time =    1.000,"PART-1-1",           486,       14.0335,      -5.94012,            0.,NA,NA,"",   154.750E-03,   150.432E-03,  -36.2984E-03,   696.327E-06
C:/temp/dataset/6/21_8.odb,Step-1,Increment      1: Step Time =    1.000,"PART-1-1",           487,           15.,      -4.84375,            0.,NA,NA,"",   163.248E-03,   157.718E-03,  -42.1302E-03,   976.376E-06
C:/temp/dataset/6/21_8.odb,Step-1,Increment      1: Step Time =    1.000,"PART-1-1",           488,       13.0510,      -7.01836,            0.,NA,NA,"",   145.798E-03,   142.676E-03,  -30.0100E-03,   644.885E-06
C:/temp/dataset/6/21_8.odb,Step-1,Increment      1: Step Time =    1.000,"PART-1-1",           489,       14.0175,      -8.10950,            0.,NA,NA,"",   139.055E-03,   134.038E-03,  -37.0146E-03,   474.917E-06
C:/temp/dataset/6/21_8.odb,Step-1,Increment      1: Step Time =    1.000,"PART-1-1",           490,           15.,      -7.03125,            0.,NA,NA,"",   148.681E-03,   142.073E-03,  -43.8324E-03,   665.448E-06
C:/temp/dataset/6/21_8.odb,Step-1,Increment      1: Step Time =    1.000,"PART-1-1",           491,         13.75,            5.,            0.,NA,NA,"",   215.691E-03,   213.521E-03,  -30.5177E-03,   48.4108E-06
C:/temp/dataset/6/21_8.odb,Step-1,Increment      1: Step Time =    1.000,"PART-1-1",           492,       12.4982,       3.90020,            0.,NA,NA,"",   208.736E-03,   207.418E-03,  -23.4189E-03,   258.448E-06
C:/temp/dataset/6/21_8.odb,Step-1,Increment      1: Step Time =    1.000,"PART-1-1",           493,       13.7482,       2.80645,            0.,NA,NA,"",   203.957E-03,   201.658E-03,  -30.5342E-03,   247.493E-06
C:/temp/dataset/6/21_8.odb,Step-1,Increment      1: Step Time =    1.000,"PART-1-1",           494,           15.,       3.90625,            0.,NA,NA,"",   210.856E-03,   207.516E-03,  -37.3794E-03,   42.4593E-06
C:/temp/dataset/6/21_8.odb,Step-1,Increment      1: Step Time =    1.000,"PART-1-1",           495,         11.25,            5.,            0.,NA,NA,"",   213.858E-03,   213.229E-03,  -16.3863E-03,   378.469E-06
C:/temp/dataset/6/21_8.odb,Step-1,Increment      1: Step Time =    1.000,"PART-1-1",           496,       11.2740,       2.82937,            0.,NA,NA,"",   202.307E-03,   201.654E-03,  -16.2404E-03,   561.707E-06
C:/temp/dataset/6/21_8.odb,Step-1,Increment      1: Step Time =    1.000,"PART-1-1",           497,       11.1422,   446.578E-03,            0.,NA,NA,"",   190.375E-03,   189.741E-03,  -15.5209E-03,   683.686E-06
C:/temp/dataset/6/21_8.odb,Step-1,Increment      1: Step Time =    1.000,"PART-1-1",           498,       10.2035,  -836.101E-03,            0.,NA,NA,"",   183.686E-03,   183.413E-03,  -10.0187E-03,   648.953E-06
C:/temp/dataset/6/21_8.odb,Step-1,Increment      1: Step Time =    1.000,"PART-1-1",           499,       11.7017,      -1.82731,            0.,NA,NA,"",   178.717E-03,   177.654E-03,  -19.4555E-03,   588.353E-06
C:/temp/dataset/6/21_8.odb,Step-1,Increment      1: Step Time =    1.000,"PART-1-1",           500,       12.5035,       1.67834,            0.,NA,NA,"",   197.278E-03,   195.874E-03,  -23.4942E-03,   536.491E-06
C:/temp/dataset/6/21_8.odb,Step-1,Increment      1: Step Time =    1.000,"PART-1-1",           501,       9.91277,       1.59761,            0.,NA,NA,"",   195.566E-03,   195.395E-03,  -8.16621E-03,   693.459E-06
C:/temp/dataset/6/21_8.odb,Step-1,Increment      1: Step Time =    1.000,"PART-1-1",           502,       5.19643,       3.92738,            0.,NA,NA,"",   204.160E-03,   203.564E-03,   15.5924E-03,   1.07945E-03
C:/temp/dataset/6/21_8.odb,Step-1,Increment      1: Step Time =    1.000,"PART-1-1",           503,          3.75,            5.,            0.,NA,NA,"",   207.048E-03,   206.020E-03,   20.6004E-03,   1.48016E-03
C:/temp/dataset/6/21_8.odb,Step-1,Increment      1: Step Time =    1.000,"PART-1-1",           504,       2.66615,       3.61346,            0.,NA,NA,"",   201.731E-03,   200.180E-03,   24.9700E-03,   962.156E-06
C:/temp/dataset/6/21_8.odb,Step-1,Increment      1: Step Time =    1.000,"PART-1-1",           505,      -1.00804,       2.95894,            0.,NA,NA,"",   198.999E-03,   196.148E-03,   33.5669E-03,   591.523E-06
C:/temp/dataset/6/21_8.odb,Step-1,Increment      1: Step Time =    1.000,"PART-1-1",           506,   87.8012E-03,       3.95476,            0.,NA,NA,"",   201.485E-03,   199.039E-03,   31.2965E-03,   903.444E-06
C:/temp/dataset/6/21_8.odb,Step-1,Increment      1: Step Time =    1.000,"PART-1-1",           507,         -1.25,            5.,            0.,NA,NA,"",   202.702E-03,   199.955E-03,   33.2571E-03,   1.04827E-03
C:/temp/dataset/6/21_8.odb,Step-1,Increment      1: Step Time =    1.000,"PART-1-1",           508,      -2.34584,       4.00418,            0.,NA,NA,"",   200.618E-03,   197.500E-03,   35.2319E-03,   653.547E-06
C:/temp/dataset/6/21_8.odb,Step-1,Increment      1: Step Time =    1.000,"PART-1-1",           509,      -3.27281,       2.96378,            0.,NA,NA,"",   198.816E-03,   195.437E-03,   36.4942E-03,   488.755E-06
C:/temp/dataset/6/21_8.odb,Step-1,Increment      1: Step Time =    1.000,"PART-1-1",           510,         -3.75,            5.,            0.,NA,NA,"",   201.345E-03,   197.995E-03,   36.5752E-03,   702.763E-06
C:/temp/dataset/6/21_8.odb,Step-1,Increment      1: Step Time =    1.000,"PART-1-1",           511,      -4.67697,       3.95960,            0.,NA,NA,"",   200.052E-03,   196.470E-03,   37.6862E-03,   358.667E-06
C:/temp/dataset/6/21_8.odb,Step-1,Increment      1: Step Time =    1.000,"PART-1-1",           512,      -7.93004,       8.58536,            0.,NA,NA,"",   203.407E-03,   199.462E-03,   39.8645E-03,   6.68019E-06
C:/temp/dataset/6/21_8.odb,Step-1,Increment      1: Step Time =    1.000,"PART-1-1",           513,      -8.65034,       7.25415,            0.,NA,NA,"",   202.567E-03,   198.499E-03,   40.3930E-03,   24.0890E-06
C:/temp/dataset/6/21_8.odb,Step-1,Increment      1: Step Time =    1.000,"PART-1-1",           514,      -7.51010,       6.50150,            0.,NA,NA,"",   201.896E-03,   197.982E-03,   39.5625E-03,   33.7970E-06
C:/temp/dataset/6/21_8.odb,Step-1,Increment      1: Step Time =    1.000,"PART-1-1",           515,      -6.78981,       7.83270,            0.,NA,NA,"",   202.723E-03,   198.929E-03,   39.0385E-03,   12.6294E-06
C:/temp/dataset/6/21_8.odb,Step-1,Increment      1: Step Time =    1.000,"PART-1-1",           516,      -7.08495,       12.0475,            0.,NA,NA,"",   205.752E-03,   201.973E-03,   39.2547E-03,   1.98695E-06
C:/temp/dataset/6/21_8.odb,Step-1,Increment      1: Step Time =    1.000,"PART-1-1",           517,      -6.02998,       11.1050,            0.,NA,NA,"",   204.934E-03,   201.287E-03,   38.4908E-03,   2.04493E-06
C:/temp/dataset/6/21_8.odb,Step-1,Increment      1: Step Time =    1.000,"PART-1-1",           518,           -5.,       12.2917,            0.,NA,NA,"",   205.643E-03,   202.151E-03,   37.7401E-03,   2.58292E-06
C:/temp/dataset/6/21_8.odb,Step-1,Increment      1: Step Time =    1.000,"PART-1-1",           519,      -6.05497,       13.2342,            0.,NA,NA,"",   206.459E-03,   202.837E-03,   38.5058E-03,   1.16826E-06
C:/temp/dataset/6/21_8.odb,Step-1,Increment      1: Step Time =    1.000,"PART-1-1",           520,      -9.96524,       21.0498,            0.,NA,NA,"",   212.594E-03,   208.534E-03,   41.3512E-03,   55.1200E-09
C:/temp/dataset/6/21_8.odb,Step-1,Increment      1: Step Time =    1.000,"PART-1-1",           521,      -8.51702,       20.1362,            0.,NA,NA,"",   211.737E-03,   207.868E-03,   40.2963E-03,   66.0899E-09
C:/temp/dataset/6/21_8.odb,Step-1,Increment      1: Step Time =    1.000,"PART-1-1",           522,      -8.09442,       21.6565,            0.,NA,NA,"",   212.767E-03,   208.975E-03,   39.9880E-03,   31.3990E-09
C:/temp/dataset/6/21_8.odb,Step-1,Increment      1: Step Time =    1.000,"PART-1-1",           523,      -9.54264,       22.5701,            0.,NA,NA,"",   213.621E-03,   209.641E-03,   41.0429E-03,   13.7937E-09
C:/temp/dataset/6/21_8.odb,Step-1,Increment      1: Step Time =    1.000,"PART-1-1",           524,      -7.38593,       19.0122,            0.,NA,NA,"",   210.777E-03,   207.048E-03,   39.4725E-03,   150.043E-09
C:/temp/dataset/6/21_8.odb,Step-1,Increment      1: Step Time =    1.000,"PART-1-1",           525,      -6.14460,       17.5723,            0.,NA,NA,"",   209.578E-03,   205.999E-03,   38.5686E-03,   158.067E-09
C:/temp/dataset/6/21_8.odb,Step-1,Increment      1: Step Time =    1.000,"PART-1-1",           526,           -5.,       18.5417,            0.,NA,NA,"",   210.121E-03,   206.705E-03,   37.7343E-03,   87.6778E-09
C:/temp/dataset/6/21_8.odb,Step-1,Increment      1: Step Time =    1.000,"PART-1-1",           527,      -9.12859,       24.1056,            0.,NA,NA,"",   214.661E-03,   210.760E-03,   40.7408E-03,   5.80247E-09
C:/temp/dataset/6/21_8.odb,Step-1,Increment      1: Step Time =    1.000,"PART-1-1",           528,      -7.82088,       23.2603,            0.,NA,NA,"",   213.877E-03,   210.144E-03,   39.7883E-03,   5.71131E-09
C:/temp/dataset/6/21_8.odb,Step-1,Increment      1: Step Time =    1.000,"PART-1-1",           529,      -7.11221,       24.6459,            0.,NA,NA,"",   214.774E-03,   211.153E-03,   39.2716E-03,   3.25372E-09
C:/temp/dataset/6/21_8.odb,Step-1,Increment      1: Step Time =    1.000,"PART-1-1",           530,      -8.41993,       25.4912,            0.,NA,NA,"",   215.556E-03,   211.769E-03,   40.2241E-03,   3.64654E-09
C:/temp/dataset/6/21_8.odb,Step-1,Increment      1: Step Time =    1.000,"PART-1-1",           531,           -5.,       28.9583,            0.,NA,NA,"",   217.591E-03,   214.294E-03,   37.7316E-03,   656.917E-12
C:/temp/dataset/6/21_8.odb,Step-1,Increment      1: Step Time =    1.000,"PART-1-1",           532,         -6.25,           30.,            0.,NA,NA,"",   218.498E-03,   215.054E-03,   38.6420E-03,   678.110E-12
C:/temp/dataset/6/21_8.odb,Step-1,Increment      1: Step Time =    1.000,"PART-1-1",           533,      -6.22481,       27.8751,            0.,NA,NA,"",   216.971E-03,   213.505E-03,   38.6242E-03,   2.33027E-09
C:/temp/dataset/6/21_8.odb,Step-1,Increment      1: Step Time =    1.000,"PART-1-1",           534,      -11.1386,       27.5393,            0.,NA,NA,"",   217.398E-03,   213.262E-03,   42.2043E-03,   2.91285E-09
C:/temp/dataset/6/21_8.odb,Step-1,Increment      1: Step Time =    1.000,"PART-1-1",           535,        -11.25,           30.,            0.,NA,NA,"",   219.173E-03,   215.055E-03,   42.2848E-03,   3.02786E-09
C:/temp/dataset/6/21_8.odb,Step-1,Increment      1: Step Time =    1.000,"PART-1-1",           536,      -13.1147,       13.7606,            0.,NA,NA,"",   207.860E-03,   203.225E-03,   43.6480E-03,   936.619E-09
C:/temp/dataset/6/21_8.odb,Step-1,Increment      1: Step Time =    1.000,"PART-1-1",           537,      -14.0658,       14.9906,            0.,NA,NA,"",   208.882E-03,   204.121E-03,   44.3410E-03,   535.039E-09
C:/temp/dataset/6/21_8.odb,Step-1,Increment      1: Step Time =    1.000,"PART-1-1",           538,          -15.,         13.75,            0.,NA,NA,"",   208.145E-03,   203.218E-03,   45.0230E-03,   1.18055E-06
C:/temp/dataset/6/21_8.odb,Step-1,Increment      1: Step Time =    1.000,"PART-1-1",           539,      -9.42834,       18.6970,            0.,NA,NA,"",   210.836E-03,   206.819E-03,   40.9605E-03,   199.492E-09
C:/temp/dataset/6/21_8.odb,Step-1,Increment      1: Step Time =    1.000,"PART-1-1",           540,      -8.29725,       17.5730,            0.,NA,NA,"",   209.873E-03,   206.000E-03,   40.1366E-03,   256.516E-09
C:/temp/dataset/6/21_8.odb,Step-1,Increment      1: Step Time =    1.000,"PART-1-1",           541,      -12.7588,       6.21303,            0.,NA,NA,"",   202.390E-03,   197.683E-03,   43.3970E-03,   15.2937E-06
C:/temp/dataset/6/21_8.odb,Step-1,Increment      1: Step Time =    1.000,"PART-1-1",           542,          -15.,          6.25,            0.,NA,NA,"",   202.777E-03,   197.713E-03,   45.0336E-03,   8.55686E-06
C:/temp/dataset/6/21_8.odb,Step-1,Increment      1: Step Time =    1.000,"PART-1-1",           543,      -9.01063,       9.47069,            0.,NA,NA,"",   204.189E-03,   200.101E-03,   40.6515E-03,   4.26180E-06
C:/temp/dataset/6/21_8.odb,Step-1,Increment      1: Step Time =    1.000,"PART-1-1",           544,      -10.0811,       10.4578,            0.,NA,NA,"",   205.048E-03,   200.818E-03,   41.4326E-03,   1.84846E-06
C:/temp/dataset/6/21_8.odb,Step-1,Increment      1: Step Time =    1.000,"PART-1-1",           545,      -10.9384,       9.05000,            0.,NA,NA,"",   204.169E-03,   199.790E-03,   42.0601E-03,   5.27285E-06
C:/temp/dataset/6/21_8.odb,Step-1,Increment      1: Step Time =    1.000,"PART-1-1",           546,      -9.86794,       8.06293,            0.,NA,NA,"",   203.310E-03,   199.075E-03,   41.2809E-03,   9.32066E-06
C:/temp/dataset/6/21_8.odb,Step-1,Increment      1: Step Time =    1.000,"PART-1-1",           547,      -7.23366,       1.29985,            0.,NA,NA,"",   197.269E-03,   193.310E-03,   39.3253E-03,   400.919E-06
C:/temp/dataset/6/21_8.odb,Step-1,Increment      1: Step Time =    1.000,"PART-1-1",           548,      -8.34685,   784.410E-03,            0.,NA,NA,"",   197.179E-03,   193.088E-03,   39.9552E-03,   362.991E-06
C:/temp/dataset/6/21_8.odb,Step-1,Increment      1: Step Time =    1.000,"PART-1-1",           549,      -7.43977,  -685.632E-03,            0.,NA,NA,"",   195.285E-03,   191.391E-03,   38.8079E-03,   691.706E-06
C:/temp/dataset/6/21_8.odb,Step-1,Increment      1: Step Time =    1.000,"PART-1-1",           550,      -12.4903,      -8.57964,            0.,NA,NA,"",   194.698E-03,   189.341E-03,   45.3609E-03,   1.16580E-03
C:/temp/dataset/6/21_8.odb,Step-1,Increment      1: Step Time =    1.000,"PART-1-1",           551,          -15.,         -8.75,            0.,NA,NA,"",   194.251E-03,   187.777E-03,   49.7340E-03,   1.44115E-03
C:/temp/dataset/6/21_8.odb,Step-1,Increment      1: Step Time =    1.000,"PART-1-1",           552,      -13.5658,      -9.92286,            0.,NA,NA,"",   193.427E-03,   187.134E-03,   48.9372E-03,   1.37964E-03
C:/temp/dataset/6/21_8.odb,Step-1,Increment      1: Step Time =    1.000,"PART-1-1",           553,      -11.9783,      -7.15971,            0.,NA,NA,"",   195.483E-03,   190.596E-03,   43.4398E-03,   1.03657E-03
C:/temp/dataset/6/21_8.odb,Step-1,Increment      1: Step Time =    1.000,"PART-1-1",           554,      -11.8960,      -5.22799,            0.,NA,NA,"",   196.097E-03,   191.399E-03,   42.6704E-03,   873.822E-06
C:/temp/dataset/6/21_8.odb,Step-1,Increment      1: Step Time =    1.000,"PART-1-1",           555,      -12.4565,      -16.3452,            0.,NA,NA,"",   181.031E-03,   173.959E-03,   50.1055E-03,   5.61586E-03
C:/temp/dataset/6/21_8.odb,Step-1,Increment      1: Step Time =    1.000,"PART-1-1",           556,          -15.,        -16.25,            0.,NA,NA,"",   197.603E-03,   187.880E-03,   61.2204E-03,   6.88393E-03
C:/temp/dataset/6/21_8.odb,Step-1,Increment      1: Step Time =    1.000,"PART-1-1",           557,      -13.7435,      -17.5611,            0.,NA,NA,"",   181.492E-03,   172.911E-03,   55.1479E-03,   7.23760E-03
C:/temp/dataset/6/21_8.odb,Step-1,Increment      1: Step Time =    1.000,"PART-1-1",           558,      -9.99221,      -8.41662,            0.,NA,NA,"",   194.128E-03,   190.153E-03,   39.0809E-03,   1.30026E-03
C:/temp/dataset/6/21_8.odb,Step-1,Increment      1: Step Time =    1.000,"PART-1-1",           559,      -11.4633,      -9.12095,            0.,NA,NA,"",   194.094E-03,   189.202E-03,   43.3008E-03,   1.22848E-03
C:/temp/dataset/6/21_8.odb,Step-1,Increment      1: Step Time =    1.000,"PART-1-1",           560,      -10.8070,      -10.1141,            0.,NA,NA,"",   192.836E-03,   188.215E-03,   41.9615E-03,   1.25303E-03
C:/temp/dataset/6/21_8.odb,Step-1,Increment      1: Step Time =    1.000,"PART-1-1",           561,      -13.9189,      -24.9166,            0.,NA,NA,"",   65.0569E-03,   55.0605E-03,   34.6517E-03,   5.88108E-03
C:/temp/dataset/6/21_8.odb,Step-1,Increment      1: Step Time =    1.000,"PART-1-1",           562,      -12.9076,      -23.6273,            0.,NA,NA,"",   78.7953E-03,   73.4885E-03,   28.4280E-03,   6.88107E-03
C:/temp/dataset/6/21_8.odb,Step-1,Increment      1: Step Time =    1.000,"PART-1-1",           563,          -15.,        -23.75,            0.,NA,NA,"",   94.6928E-03,   76.1361E-03,   56.3029E-03,   6.27299E-03
C:/temp/dataset/6/21_8.odb,Step-1,Increment      1: Step Time =    1.000,"PART-1-1",           564,          -15.,        -28.75,            0.,NA,NA,"",   21.2768E-03,   15.2756E-03,   14.8108E-03,   12.4023E-03
C:/temp/dataset/6/21_8.odb,Step-1,Increment      1: Step Time =    1.000,"PART-1-1",           565,        -13.75,          -30.,            0.,NA,NA,"",            0.,   484.423E-42,   13.8129E-39,   10.1990E-03
C:/temp/dataset/6/21_8.odb,Step-1,Increment      1: Step Time =    1.000,"PART-1-1",           566,      -13.7642,      -27.4123,            0.,NA,NA,"",   29.3790E-03,   23.3753E-03,   17.7966E-03,   7.97806E-03
C:/temp/dataset/6/21_8.odb,Step-1,Increment      1: Step Time =    1.000,"PART-1-1",           567,            5.,      -6.25625,            0.,NA,NA,"",   152.107E-03,   150.395E-03,   22.7574E-03,   2.26163E-03
C:/temp/dataset/6/21_8.odb,Step-1,Increment      1: Step Time =    1.000,"PART-1-1",           568,       7.03347,      -6.11658,            0.,NA,NA,"",   152.392E-03,   152.170E-03,   8.21714E-03,   1.42235E-03
C:/temp/dataset/6/21_8.odb,Step-1,Increment      1: Step Time =    1.000,"PART-1-1",           569,       6.04361,      -4.83741,            0.,NA,NA,"",   164.386E-03,   163.786E-03,   14.0369E-03,   2.46642E-03
C:/temp/dataset/6/21_8.odb,Step-1,Increment      1: Step Time =    1.000,"PART-1-1",           570,           15.,      -2.65625,            0.,NA,NA,"",   176.318E-03,   171.695E-03,  -40.1118E-03,   960.539E-06
C:/temp/dataset/6/21_8.odb,Step-1,Increment      1: Step Time =    1.000,"PART-1-1",           571,       12.8875,      -2.72454,            0.,NA,NA,"",   174.206E-03,   172.076E-03,  -27.1628E-03,   539.760E-06
C:/temp/dataset/6/21_8.odb,Step-1,Increment      1: Step Time =    1.000,"PART-1-1",           572,       10.0248,      -7.91896,            0.,NA,NA,"",   136.570E-03,   136.173E-03,  -10.4086E-03,   1.23216E-03
C:/temp/dataset/6/21_8.odb,Step-1,Increment      1: Step Time =    1.000,"PART-1-1",           573,       8.98203,      -8.99604,            0.,NA,NA,"",   127.278E-03,   127.229E-03,  -3.54329E-03,   1.31791E-03
C:/temp/dataset/6/21_8.odb,Step-1,Increment      1: Step Time =    1.000,"PART-1-1",           574,       9.98204,      -10.2112,            0.,NA,NA,"",   117.406E-03,   116.999E-03,  -9.77682E-03,   1.26746E-03
C:/temp/dataset/6/21_8.odb,Step-1,Increment      1: Step Time =    1.000,"PART-1-1",           575,            5.,      -11.2813,            0.,NA,NA,"",   111.034E-03,   108.046E-03,   25.5872E-03,   236.407E-06
C:/temp/dataset/6/21_8.odb,Step-1,Increment      1: Step Time =    1.000,"PART-1-1",           576,       6.96001,      -11.3098,            0.,NA,NA,"",   108.181E-03,   107.653E-03,   10.6676E-03,   793.184E-06
C:/temp/dataset/6/21_8.odb,Step-1,Increment      1: Step Time =    1.000,"PART-1-1",           577,       12.1169,      -5.93459,            0.,NA,NA,"",   152.871E-03,   151.047E-03,  -23.5446E-03,   690.959E-06
C:/temp/dataset/6/21_8.odb,Step-1,Increment      1: Step Time =    1.000,"PART-1-1",           578,       11.1088,      -6.97100,            0.,NA,NA,"",   144.540E-03,   143.504E-03,  -17.2739E-03,   947.624E-06
C:/temp/dataset/6/21_8.odb,Step-1,Increment      1: Step Time =    1.000,"PART-1-1",           579,           15.,      -11.4063,            0.,NA,NA,"",   116.393E-03,   107.693E-03,  -44.1545E-03,   539.120E-06
C:/temp/dataset/6/21_8.odb,Step-1,Increment      1: Step Time =    1.000,"PART-1-1",           580,       13.9991,      -10.3053,            0.,NA,NA,"",   122.131E-03,   116.436E-03,  -36.8594E-03,   500.289E-06
C:/temp/dataset/6/21_8.odb,Step-1,Increment      1: Step Time =    1.000,"PART-1-1",           581,       12.9941,      -11.4223,            0.,NA,NA,"",   111.109E-03,   107.179E-03,  -29.2881E-03,   960.406E-06
C:/temp/dataset/6/21_8.odb,Step-1,Increment      1: Step Time =    1.000,"PART-1-1",           582,           15.,      -9.21875,            0.,NA,NA,"",   132.870E-03,   125.156E-03,  -44.6161E-03,   121.318E-06
C:/temp/dataset/6/21_8.odb,Step-1,Increment      1: Step Time =    1.000,"PART-1-1",           583,       9.25975,      -25.9916,            0.,NA,NA,"",   16.0597E-03,   15.9704E-03,  -1.69056E-03,   2.11390E-03
C:/temp/dataset/6/21_8.odb,Step-1,Increment      1: Step Time =    1.000,"PART-1-1",           584,       7.97004,      -27.0667,            0.,NA,NA,"",   12.1321E-03,   12.1257E-03,  -395.288E-06,   2.54737E-03
C:/temp/dataset/6/21_8.odb,Step-1,Increment      1: Step Time =    1.000,"PART-1-1",           585,       9.98268,      -20.3187,            0.,NA,NA,"",   42.4035E-03,   41.9972E-03,  -5.85628E-03,   1.04275E-03
C:/temp/dataset/6/21_8.odb,Step-1,Increment      1: Step Time =    1.000,"PART-1-1",           586,       8.47236,      -19.9740,            0.,NA,NA,"",   43.3559E-03,   43.3551E-03,   261.355E-06,   877.658E-06
C:/temp/dataset/6/21_8.odb,Step-1,Increment      1: Step Time =    1.000,"PART-1-1",           587,       7.80775,      -21.2882,            0.,NA,NA,"",   37.0709E-03,   36.9857E-03,   2.51172E-03,   807.139E-06
C:/temp/dataset/6/21_8.odb,Step-1,Increment      1: Step Time =    1.000,"PART-1-1",           588,       9.31806,      -21.6330,            0.,NA,NA,"",   35.3547E-03,   35.2561E-03,  -2.63862E-03,   736.393E-06
C:/temp/dataset/6/21_8.odb,Step-1,Increment      1: Step Time =    1.000,"PART-1-1",           589,          3.75,          -20.,            0.,NA,NA,"",   42.1424E-03,   41.6272E-03,   6.56942E-03,   1.40664E-03
C:/temp/dataset/6/21_8.odb,Step-1,Increment      1: Step Time =    1.000,"PART-1-1",           590,       2.69482,      -20.9389,            0.,NA,NA,"",   42.8628E-03,   42.6072E-03,   4.67427E-03,   1.94401E-03
C:/temp/dataset/6/21_8.odb,Step-1,Increment      1: Step Time =    1.000,"PART-1-1",           591,       4.10336,      -21.5712,            0.,NA,NA,"",   40.5344E-03,   39.9921E-03,   6.60812E-03,   3.18050E-03
C:/temp/dataset/6/21_8.odb,Step-1,Increment      1: Step Time =    1.000,"PART-1-1",           592,       5.15854,      -20.6323,            0.,NA,NA,"",   42.2250E-03,   41.0868E-03,   9.73811E-03,   3.10255E-03
C:/temp/dataset/6/21_8.odb,Step-1,Increment      1: Step Time =    1.000,"PART-1-1",           593,          1.25,          -20.,            0.,NA,NA,"",   45.1811E-03,   45.0432E-03,   3.52775E-03,   2.64684E-03
C:/temp/dataset/6/21_8.odb,Step-1,Increment      1: Step Time =    1.000,"PART-1-1",           594,       1.58638,      -22.3782,            0.,NA,NA,"",   41.7501E-03,   41.7208E-03,   1.56417E-03,   3.77076E-03
C:/temp/dataset/6/21_8.odb,Step-1,Increment      1: Step Time =    1.000,"PART-1-1",           595,      -7.18878,      -21.5166,            0.,NA,NA,"",   79.8694E-03,   79.7919E-03,   3.51665E-03,   8.49021E-03
C:/temp/dataset/6/21_8.odb,Step-1,Increment      1: Step Time =    1.000,"PART-1-1",           596,      -8.69544,      -20.4918,            0.,NA,NA,"",   104.741E-03,   103.676E-03,   14.8970E-03,   9.93041E-03
C:/temp/dataset/6/21_8.odb,Step-1,Increment      1: Step Time =    1.000,"PART-1-1",           597,      -9.53108,      -21.9939,            0.,NA,NA,"",   86.6918E-03,   85.7008E-03,   13.0710E-03,   8.82313E-03
C:/temp/dataset/6/21_8.odb,Step-1,Increment      1: Step Time =    1.000,"PART-1-1",           598,      -8.02442,      -23.0186,            0.,NA,NA,"",   64.5808E-03,   64.5011E-03,   3.20747E-03,   6.97103E-03
C:/temp/dataset/6/21_8.odb,Step-1,Increment      1: Step Time =    1.000,"PART-1-1",           599,           -5.,      -18.7437,            0.,NA,NA,"",   118.959E-03,   118.638E-03,  -8.73473E-03,   5.21455E-03
C:/temp/dataset/6/21_8.odb,Step-1,Increment      1: Step Time =    1.000,"PART-1-1",           600,      -6.23242,      -17.5731,            0.,NA,NA,"",   139.215E-03,   139.000E-03,   7.74471E-03,   3.40282E-03
C:/temp/dataset/6/21_8.odb,Step-1,Increment      1: Step Time =    1.000,"PART-1-1",           601,      -7.41830,      -18.9573,            0.,NA,NA,"",   120.702E-03,   119.853E-03,   14.2858E-03,   8.25229E-03
C:/temp/dataset/6/21_8.odb,Step-1,Increment      1: Step Time =    1.000,"PART-1-1",           602,      -6.18588,      -20.1280,            0.,NA,NA,"",   92.4507E-03,   92.4070E-03,   2.84111E-03,   10.3449E-03
C:/temp/dataset/6/21_8.odb,Step-1,Increment      1: Step Time =    1.000,"PART-1-1",           603,           -5.,      -16.2312,            0.,NA,NA,"",   153.959E-03,   153.949E-03,  -1.80126E-03,   4.48852E-03
C:/temp/dataset/6/21_8.odb,Step-1,Increment      1: Step Time =    1.000,"PART-1-1",           604,      -7.44257,      -16.3835,            0.,NA,NA,"",   157.521E-03,   156.289E-03,   19.6648E-03,   3.44562E-03
C:/temp/dataset/6/21_8.odb,Step-1,Increment      1: Step Time =    1.000,"PART-1-1",           605,      -12.6830,      -26.0788,            0.,NA,NA,"",   40.2785E-03,   36.2283E-03,   17.6030E-03,   5.80575E-03
C:/temp/dataset/6/21_8.odb,Step-1,Increment      1: Step Time =    1.000,"PART-1-1",           606,          -15.,        -26.25,            0.,NA,NA,"",   56.6247E-03,   41.4934E-03,   38.5313E-03,   8.95193E-03
C:/temp/dataset/6/21_8.odb,Step-1,Increment      1: Step Time =    1.000,"PART-1-1",           607,         -8.75,          -30.,            0.,NA,NA,"",            0.,   3.12935E-39,   884.441E-42,   3.21000E-03
C:/temp/dataset/6/21_8.odb,Step-1,Increment      1: Step Time =    1.000,"PART-1-1",           608,          -15.,        -18.75,            0.,NA,NA,"",   180.312E-03,   167.709E-03,   66.2271E-03,   6.96904E-03
C:/temp/dataset/6/21_8.odb,Step-1,Increment      1: Step Time =    1.000,"PART-1-1",           609,      -12.5734,      -18.8685,            0.,NA,NA,"",   157.930E-03,   151.677E-03,   43.9980E-03,   8.32670E-03
C:/temp/dataset/6/21_8.odb,Step-1,Increment      1: Step Time =    1.000,"PART-1-1",           610,           -5.,      -11.2063,            0.,NA,NA,"",   183.889E-03,   182.791E-03,   20.0641E-03,   3.72050E-03
C:/temp/dataset/6/21_8.odb,Step-1,Increment      1: Step Time =    1.000,"PART-1-1",           611,      -7.25264,      -11.4522,            0.,NA,NA,"",   187.015E-03,   184.965E-03,   27.6134E-03,   2.11881E-03
C:/temp/dataset/6/21_8.odb,Step-1,Increment      1: Step Time =    1.000,"PART-1-1",           612,           -5.,      -6.23750,            0.,NA,NA,"",   191.285E-03,   188.536E-03,   32.3103E-03,   1.87678E-03
C:/temp/dataset/6/21_8.odb,Step-1,Increment      1: Step Time =    1.000,"PART-1-1",           613,      -6.16987,      -5.46941,            0.,NA,NA,"",   191.825E-03,   188.887E-03,   33.4422E-03,   1.61939E-03
C:/temp/dataset/6/21_8.odb,Step-1,Increment      1: Step Time =    1.000,"PART-1-1",           614,      -7.24309,      -6.98789,            0.,NA,NA,"",   192.902E-03,   190.014E-03,   33.2490E-03,   1.55444E-03
C:/temp/dataset/6/21_8.odb,Step-1,Increment      1: Step Time =    1.000,"PART-1-1",           615,           -5.,       16.4583,            0.,NA,NA,"",   208.628E-03,   205.187E-03,   37.7351E-03,   339.513E-09
C:/temp/dataset/6/21_8.odb,Step-1,Increment      1: Step Time =    1.000,"PART-1-1",           616,      -7.23328,       16.4840,            0.,NA,NA,"",   208.947E-03,   205.206E-03,   39.3619E-03,   477.540E-09
C:/temp/dataset/6/21_8.odb,Step-1,Increment      1: Step Time =    1.000,"PART-1-1",           617,      -6.08867,       15.3700,            0.,NA,NA,"",   207.993E-03,   204.394E-03,   38.5288E-03,   467.297E-09
C:/temp/dataset/6/21_8.odb,Step-1,Increment      1: Step Time =    1.000,"PART-1-1",           618,      -13.1522,       16.1892,            0.,NA,NA,"",   209.595E-03,   204.994E-03,   43.6744E-03,   463.530E-09
C:/temp/dataset/6/21_8.odb,Step-1,Increment      1: Step Time =    1.000,"PART-1-1",           619,      -14.0864,       17.4486,            0.,NA,NA,"",   210.635E-03,   205.912E-03,   44.3548E-03,   159.194E-09
C:/temp/dataset/6/21_8.odb,Step-1,Increment      1: Step Time =    1.000,"PART-1-1",           620,          -15.,         16.25,            0.,NA,NA,"",   209.923E-03,   205.039E-03,   45.0209E-03,   375.232E-09
C:/temp/dataset/6/21_8.odb,Step-1,Increment      1: Step Time =    1.000,"PART-1-1",           621,           -5.,       24.7917,            0.,NA,NA,"",   214.602E-03,   211.259E-03,   37.7326E-03,   9.27663E-09
C:/temp/dataset/6/21_8.odb,Step-1,Increment      1: Step Time =    1.000,"PART-1-1",           622,      -6.14442,       25.7689,            0.,NA,NA,"",   215.451E-03,   211.971E-03,   38.5662E-03,   4.26051E-09
C:/temp/dataset/6/21_8.odb,Step-1,Increment      1: Step Time =    1.000,"PART-1-1",           623,           -5.,        26.875,            0.,NA,NA,"",   216.096E-03,   212.776E-03,   37.7321E-03,   3.86578E-09
C:/temp/dataset/6/21_8.odb,Step-1,Increment      1: Step Time =    1.000,"PART-1-1",           624,      -7.36924,       26.7689,            0.,NA,NA,"",   216.329E-03,   212.700E-03,   39.4583E-03,   4.23650E-09
C:/temp/dataset/6/21_8.odb,Step-1,Increment      1: Step Time =    1.000,"PART-1-1",           625,      -13.1175,       20.9132,            0.,NA,NA,"",   212.956E-03,   208.435E-03,   43.6478E-03,   39.3436E-09
C:/temp/dataset/6/21_8.odb,Step-1,Increment      1: Step Time =    1.000,"PART-1-1",           626,      -14.0212,       22.2867,            0.,NA,NA,"",   214.071E-03,   209.436E-03,   44.3059E-03,   7.37794E-09
C:/temp/dataset/6/21_8.odb,Step-1,Increment      1: Step Time =    1.000,"PART-1-1",           627,          -15.,         21.25,            0.,NA,NA,"",   213.482E-03,   208.681E-03,   45.0192E-03,   4.89353E-09
C:/temp/dataset/6/21_8.odb,Step-1,Increment      1: Step Time =    1.000,"PART-1-1",           628,      -14.0963,       19.8765,            0.,NA,NA,"",   212.365E-03,   207.680E-03,   44.3612E-03,   31.7460E-09
C:/temp/dataset/6/21_8.odb,Step-1,Increment      1: Step Time =    1.000,"PART-1-1",           629,         -1.25,           -5.,            0.,NA,NA,"",   182.401E-03,   179.691E-03,   31.3276E-03,   2.11282E-03
C:/temp/dataset/6/21_8.odb,Step-1,Increment      1: Step Time =    1.000,"PART-1-1",           630,      -1.77292,      -3.03732,            0.,NA,NA,"",   186.696E-03,   183.646E-03,   33.6085E-03,   1.37623E-03
C:/temp/dataset/6/21_8.odb,Step-1,Increment      1: Step Time =    1.000,"PART-1-1",           631,      -12.1053,      -2.30059,            0.,NA,NA,"",   196.937E-03,   192.246E-03,   42.7308E-03,   454.510E-06
C:/temp/dataset/6/21_8.odb,Step-1,Increment      1: Step Time =    1.000,"PART-1-1",           632,      -10.7648,      -1.40855,            0.,NA,NA,"",   196.778E-03,   192.367E-03,   41.4322E-03,   453.316E-06
C:/temp/dataset/6/21_8.odb,Step-1,Increment      1: Step Time =    1.000,"PART-1-1",           633,      -11.5438,  -354.672E-03,            0.,NA,NA,"",   197.631E-03,   193.049E-03,   42.3093E-03,   258.017E-06
C:/temp/dataset/6/21_8.odb,Step-1,Increment      1: Step Time =    1.000,"PART-1-1",           634,          3.75,           -5.,            0.,NA,NA,"",   169.998E-03,   168.640E-03,   21.4397E-03,   3.65978E-03
C:/temp/dataset/6/21_8.odb,Step-1,Increment      1: Step Time =    1.000,"PART-1-1",           635,       4.52066,      -3.83856,            0.,NA,NA,"",   172.807E-03,   171.514E-03,   21.1029E-03,   2.54494E-03
C:/temp/dataset/6/21_8.odb,Step-1,Increment      1: Step Time =    1.000,"PART-1-1",           636,       2.94662,      -2.72704,            0.,NA,NA,"",   179.895E-03,   178.132E-03,   25.1219E-03,   1.35750E-03
C:/temp/dataset/6/21_8.odb,Step-1,Increment      1: Step Time =    1.000,"PART-1-1",           637,       1.50395,       2.56821,            0.,NA,NA,"",   198.298E-03,   196.228E-03,   28.5749E-03,   580.364E-06
C:/temp/dataset/6/21_8.odb,Step-1,Increment      1: Step Time =    1.000,"PART-1-1",           638,          1.25,            5.,            0.,NA,NA,"",   204.660E-03,   202.714E-03,   28.1562E-03,   1.35170E-03
C:/temp/dataset/6/21_8.odb,Step-1,Increment      1: Step Time =    1.000,"PART-1-1",           639,          6.25,            5.,            0.,NA,NA,"",   209.576E-03,   209.322E-03,   10.3051E-03,   1.32022E-03
C:/temp/dataset/6/21_8.odb,Step-1,Increment      1: Step Time =    1.000,"PART-1-1",           640,  -213.968E-03,      -26.0734,            0.,NA,NA,"",   26.4609E-03,   26.3200E-03,  -2.72736E-03,   4.95711E-03
C:/temp/dataset/6/21_8.odb,Step-1,Increment      1: Step Time =    1.000,"PART-1-1",           641,       1.14210,      -23.8512,            0.,NA,NA,"",   36.9478E-03,   36.9439E-03,  -533.484E-06,   4.52741E-03
C:/temp/dataset/6/21_8.odb,Step-1,Increment      1: Step Time =    1.000,"PART-1-1",           642,  -234.527E-03,      -23.9674,            0.,NA,NA,"",   38.9006E-03,   38.8121E-03,  -2.62232E-03,   4.88068E-03
C:/temp/dataset/6/21_8.odb,Step-1,Increment      1: Step Time =    1.000,"PART-1-1",           643,           -5.,        14.375,            0.,NA,NA,"",   207.135E-03,   203.668E-03,   37.7367E-03,   1.09830E-06
C:/temp/dataset/6/21_8.odb,Step-1,Increment      1: Step Time =    1.000,"PART-1-1",           644,      -7.14364,       14.2292,            0.,NA,NA,"",   207.321E-03,   203.562E-03,   39.2971E-03,   1.00898E-06
C:/temp/dataset/6/21_8.odb,Step-1,Increment      1: Step Time =    1.000,"PART-1-1",           645,           -5.,       6.04167,            0.,NA,NA,"",   201.287E-03,   197.707E-03,   37.7940E-03,   81.9485E-06
C:/temp/dataset/6/21_8.odb,Step-1,Increment      1: Step Time =    1.000,"PART-1-1",           646,      -5.82078,       6.95384,            0.,NA,NA,"",   201.998E-03,   198.325E-03,   38.3503E-03,   41.9005E-06
C:/temp/dataset/6/21_8.odb,Step-1,Increment      1: Step Time =    1.000,"PART-1-1",           647,      -6.45742,       5.85906,            0.,NA,NA,"",   201.364E-03,   197.591E-03,   38.7976E-03,   77.9582E-06
C:/temp/dataset/6/21_8.odb,Step-1,Increment      1: Step Time =    1.000,"PART-1-1",           648,      -5.63664,       4.94688,            0.,NA,NA,"",   200.777E-03,   197.101E-03,   38.2431E-03,   250.988E-06
C:/temp/dataset/6/21_8.odb,Step-1,Increment      1: Step Time =    1.000,"PART-1-1",           649,           -5.,         8.125,            0.,NA,NA,"",   202.686E-03,   199.137E-03,   37.7676E-03,   12.6731E-06
C:/temp/dataset/6/21_8.odb,Step-1,Increment      1: Step Time =    1.000,"PART-1-1",           650,      -5.96903,       9.00386,            0.,NA,NA,"",   203.432E-03,   199.765E-03,   38.4512E-03,   5.98578E-06
C:/temp/dataset/6/21_8.odb,Step-1,Increment      1: Step Time =    1.000,"PART-1-1",           651,          -15.,         -3.75,            0.,NA,NA,"",   196.808E-03,   191.488E-03,   45.4483E-03,   452.708E-06
C:/temp/dataset/6/21_8.odb,Step-1,Increment      1: Step Time =    1.000,"PART-1-1",           652,      -12.7846,      -3.59401,            0.,NA,NA,"",   196.725E-03,   191.840E-03,   43.5670E-03,   584.304E-06
C:/temp/dataset/6/21_8.odb,Step-1,Increment      1: Step Time =    1.000,"PART-1-1",           653,      -11.5430,      -4.20540,            0.,NA,NA,"",   196.201E-03,   191.644E-03,   42.0405E-03,   762.759E-06
C:/temp/dataset/6/21_8.odb,Step-1,Increment      1: Step Time =    1.000,"PART-1-1",           654,      -10.1018,      -4.29084,            0.,NA,NA,"",   195.448E-03,   191.343E-03,   39.8482E-03,   1.02667E-03
C:/temp/dataset/6/21_8.odb,Step-1,Increment      1: Step Time =    1.000,"PART-1-1",           655,          -15.,        -11.25,            0.,NA,NA,"",   191.572E-03,   183.986E-03,   53.3735E-03,   1.70169E-03
C:/temp/dataset/6/21_8.odb,Step-1,Increment      1: Step Time =    1.000,"PART-1-1",           656,      -12.2331,      -11.1785,            0.,NA,NA,"",   191.883E-03,   185.958E-03,   47.3130E-03,   1.55695E-03
C:/temp/dataset/6/21_8.odb,Step-1,Increment      1: Step Time =    1.000,"PART-1-1",           657,       5.21391,      -1.02834,            0.,NA,NA,"",   184.503E-03,   183.700E-03,   17.1968E-03,   606.742E-06
C:/temp/dataset/6/21_8.odb,Step-1,Increment      1: Step Time =    1.000,"PART-1-1",           658,       6.72319,      -1.59046,            0.,NA,NA,"",   181.066E-03,   180.783E-03,   10.1128E-03,   756.331E-06
C:/temp/dataset/6/21_8.odb,Step-1,Increment      1: Step Time =    1.000,"PART-1-1",           659,       10.9187,      -16.2245,            0.,NA,NA,"",   69.9329E-03,   68.6534E-03,  -13.3158E-03,   1.31469E-03
C:/temp/dataset/6/21_8.odb,Step-1,Increment      1: Step Time =    1.000,"PART-1-1",           660,       11.9858,      -14.8752,            0.,NA,NA,"",   81.8386E-03,   79.2157E-03,  -20.5532E-03,   1.27029E-03
C:/temp/dataset/6/21_8.odb,Step-1,Increment      1: Step Time =    1.000,"PART-1-1",           661,       10.9746,      -13.7451,            0.,NA,NA,"",   89.0664E-03,   87.7950E-03,  -14.9952E-03,   1.31308E-03
C:/temp/dataset/6/21_8.odb,Step-1,Increment      1: Step Time =    1.000,"PART-1-1",           662,       11.9830,      -12.5543,            0.,NA,NA,"",   100.131E-03,   97.6916E-03,  -21.9674E-03,   1.17300E-03
C:/temp/dataset/6/21_8.odb,Step-1,Increment      1: Step Time =    1.000,"PART-1-1",           663,           15.,      -20.1563,            0.,NA,NA,"",   55.7367E-03,   46.5822E-03,  -30.6052E-03,   2.45951E-03
C:/temp/dataset/6/21_8.odb,Step-1,Increment      1: Step Time =    1.000,"PART-1-1",           664,       14.0841,      -19.1367,            0.,NA,NA,"",   58.3738E-03,   51.4466E-03,  -27.5815E-03,   2.04826E-03
C:/temp/dataset/6/21_8.odb,Step-1,Increment      1: Step Time =    1.000,"PART-1-1",           665,       13.0385,      -20.2889,            0.,NA,NA,"",   48.3545E-03,   44.0103E-03,  -20.0312E-03,   1.79239E-03
C:/temp/dataset/6/21_8.odb,Step-1,Increment      1: Step Time =    1.000,"PART-1-1",           666,           15.,      -17.9688,            0.,NA,NA,"",   69.1453E-03,   59.4498E-03,  -35.3101E-03,   2.21197E-03
C:/temp/dataset/6/21_8.odb,Step-1,Increment      1: Step Time =    1.000,"PART-1-1",           667,          1.25,          -30.,            0.,NA,NA,"",            0.,   4.30478E-39,  -1.81444E-39,   4.45803E-03
C:/temp/dataset/6/21_8.odb,Step-1,Increment      1: Step Time =    1.000,"PART-1-1",           668,       3.30543,      -22.6598,            0.,NA,NA,"",   38.0738E-03,   37.8737E-03,   3.89822E-03,   3.64402E-03
C:/temp/dataset/6/21_8.odb,Step-1,Increment      1: Step Time =    1.000,"PART-1-1",           669,       2.86115,      -24.1329,            0.,NA,NA,"",   32.7379E-03,   32.6949E-03,   1.67782E-03,   4.18260E-03
C:/temp/dataset/6/21_8.odb,Step-1,Increment      1: Step Time =    1.000,"PART-1-1",           670,      -10.6801,      -21.6169,            0.,NA,NA,"",   99.7759E-03,   97.7112E-03,   20.1930E-03,   9.49944E-03
C:/temp/dataset/6/21_8.odb,Step-1,Increment      1: Step Time =    1.000,"PART-1-1",           671,      -11.3394,      -20.4213,            0.,NA,NA,"",   124.480E-03,   121.010E-03,   29.1843E-03,   9.71350E-03
C:/temp/dataset/6/21_8.odb,Step-1,Increment      1: Step Time =    1.000,"PART-1-1",           672,      -12.1593,      -22.4638,            0.,NA,NA,"",   94.9778E-03,   91.2823E-03,   26.2361E-03,   8.72824E-03
C:/temp/dataset/6/21_8.odb,Step-1,Increment      1: Step Time =    1.000,"PART-1-1",           673,      -9.92443,      -16.4516,            0.,NA,NA,"",   166.400E-03,   162.612E-03,   35.3021E-03,   4.69923E-03
C:/temp/dataset/6/21_8.odb,Step-1,Increment      1: Step Time =    1.000,"PART-1-1",           674,      -8.71114,      -17.7111,            0.,NA,NA,"",   146.460E-03,   144.286E-03,   25.1406E-03,   6.42222E-03
C:/temp/dataset/6/21_8.odb,Step-1,Increment      1: Step Time =    1.000,"PART-1-1",           675,      -9.25100,      -7.50767,            0.,NA,NA,"",   194.240E-03,   190.628E-03,   37.2870E-03,   1.39064E-03
C:/temp/dataset/6/21_8.odb,Step-1,Increment      1: Step Time =    1.000,"PART-1-1",           676,      -8.32615,      -6.25855,            0.,NA,NA,"",   193.936E-03,   190.592E-03,   35.8540E-03,   1.40889E-03
C:/temp/dataset/6/21_8.odb,Step-1,Increment      1: Step Time =    1.000,"PART-1-1",           677,      -7.58018,      -5.09368,            0.,NA,NA,"",   193.286E-03,   189.999E-03,   35.4979E-03,   1.61328E-03
C:/temp/dataset/6/21_8.odb,Step-1,Increment      1: Step Time =    1.000,"PART-1-1",           678,      -6.67379,      -3.84489,            0.,NA,NA,"",   192.201E-03,   188.825E-03,   35.8650E-03,   1.49921E-03
C:/temp/dataset/6/21_8.odb,Step-1,Increment      1: Step Time =    1.000,"PART-1-1",           679,      -2.40491,      -1.03021,            0.,NA,NA,"",   191.095E-03,   187.824E-03,   35.2053E-03,   887.314E-06
C:/temp/dataset/6/21_8.odb,Step-1,Increment      1: Step Time =    1.000,"PART-1-1",           680,      -3.32453,      -2.14711,            0.,NA,NA,"",   190.005E-03,   186.631E-03,   35.6492E-03,   1.06551E-03
C:/temp/dataset/6/21_8.odb,Step-1,Increment      1: Step Time =    1.000,"PART-1-1",           681,       10.4745,      -24.8101,            0.,NA,NA,"",   21.3571E-03,   20.8676E-03,  -4.54602E-03,   1.65361E-03
C:/temp/dataset/6/21_8.odb,Step-1,Increment      1: Step Time =    1.000,"PART-1-1",           682,       8.16019,      -23.0435,            0.,NA,NA,"",   29.4216E-03,   29.4121E-03,   746.684E-06,   1.34588E-03
C:/temp/dataset/6/21_8.odb,Step-1,Increment      1: Step Time =    1.000,"PART-1-1",           683,       9.40124,      -23.8494,            0.,NA,NA,"",   25.4231E-03,   25.3105E-03,  -2.39024E-03,   1.35165E-03
C:/temp/dataset/6/21_8.odb,Step-1,Increment      1: Step Time =    1.000,"PART-1-1",           684,       5.67200,      -27.0943,            0.,NA,NA,"",   14.2407E-03,   14.2345E-03,   418.863E-06,   3.28870E-03
C:/temp/dataset/6/21_8.odb,Step-1,Increment      1: Step Time =    1.000,"PART-1-1",           685,       4.86106,      -26.0050,            0.,NA,NA,"",   20.6008E-03,   20.5673E-03,   1.17375E-03,   3.61250E-03
C:/temp/dataset/6/21_8.odb,Step-1,Increment      1: Step Time =    1.000,"PART-1-1",           686,      -2.55341,      -23.8484,            0.,NA,NA,"",   44.2595E-03,   43.8301E-03,  -6.15025E-03,   5.91491E-03
C:/temp/dataset/6/21_8.odb,Step-1,Increment      1: Step Time =    1.000,"PART-1-1",           687,      -4.82130,      -23.8875,            0.,NA,NA,"",   47.3750E-03,   46.9523E-03,  -6.31411E-03,   5.42180E-03
C:/temp/dataset/6/21_8.odb,Step-1,Increment      1: Step Time =    1.000,"PART-1-1",           688,      -5.84083,      -25.1777,            0.,NA,NA,"",   37.1560E-03,   36.8890E-03,  -4.44690E-03,   5.14408E-03
C:/temp/dataset/6/21_8.odb,Step-1,Increment      1: Step Time =    1.000,"PART-1-1",           689,           15.,      -26.7188,            0.,NA,NA,"",   21.7743E-03,   16.2373E-03,  -14.5075E-03,   3.63476E-03
C:/temp/dataset/6/21_8.odb,Step-1,Increment      1: Step Time =    1.000,"PART-1-1",           690,       10.9874,      -11.4075,            0.,NA,NA,"",   108.204E-03,   107.020E-03,  -15.9572E-03,   1.28426E-03
C:/temp/dataset/6/21_8.odb,Step-1,Increment      1: Step Time =    1.000,"PART-1-1",           691,       7.29436,      -19.7763,            0.,NA,NA,"",   44.3302E-03,   44.0670E-03,   4.82411E-03,   1.18082E-03
C:/temp/dataset/6/21_8.odb,Step-1,Increment      1: Step Time =    1.000,"PART-1-1",           692,       7.78340,      -18.7858,            0.,NA,NA,"",   50.2509E-03,   50.1491E-03,   3.19686E-03,   1.36467E-03
C:/temp/dataset/6/21_8.odb,Step-1,Increment      1: Step Time =    1.000,"PART-1-1",           693,       10.8970,      -2.99004,            0.,NA,NA,"",   171.884E-03,   171.243E-03,  -14.8366E-03,   510.990E-06
C:/temp/dataset/6/21_8.odb,Step-1,Increment      1: Step Time =    1.000,"PART-1-1",           694,       12.0828,      -3.88727,            0.,NA,NA,"",   166.706E-03,   165.167E-03,  -22.6022E-03,   535.021E-06
C:/temp/dataset/6/21_8.odb,Step-1,Increment      1: Step Time =    1.000,"PART-1-1",           695,           15.,       1.71875,            0.,NA,NA,"",   199.401E-03,   195.833E-03,  -37.5537E-03,   287.956E-06
C:/temp/dataset/6/21_8.odb,Step-1,Increment      1: Step Time =    1.000,"PART-1-1",           696,       4.00043,  -427.215E-03,            0.,NA,NA,"",   187.570E-03,   186.306E-03,   21.7357E-03,   491.561E-06
C:/temp/dataset/6/21_8.odb,Step-1,Increment      1: Step Time =    1.000,"PART-1-1",           697,       2.09609,       1.00148,            0.,NA,NA,"",   193.463E-03,   191.515E-03,   27.3787E-03,   380.775E-06
C:/temp/dataset/6/21_8.odb,Step-1,Increment      1: Step Time =    1.000,"PART-1-1",           698,       2.38138,  -554.063E-03,            0.,NA,NA,"",   188.265E-03,   186.352E-03,   26.7680E-03,   667.592E-06
C:/temp/dataset/6/21_8.odb,Step-1,Increment      1: Step Time =    1.000,"PART-1-1",           699,   35.7305E-03,       2.11113,            0.,NA,NA,"",   197.057E-03,   194.459E-03,   31.8921E-03,   513.344E-06
C:/temp/dataset/6/21_8.odb,Step-1,Increment      1: Step Time =    1.000,"PART-1-1",           700,           -5.,       10.2083,            0.,NA,NA,"",   204.158E-03,   200.637E-03,   37.7483E-03,   7.04187E-06
C:/temp/dataset/6/21_8.odb,Step-1,Increment      1: Step Time =    1.000,"PART-1-1",           701,      -6.99901,       9.90050,            0.,NA,NA,"",   204.210E-03,   200.414E-03,   39.1916E-03,   3.03119E-06
C:/temp/dataset/6/21_8.odb,Step-1,Increment      1: Step Time =    1.000,"PART-1-1",           702,      -11.2396,       16.2208,            0.,NA,NA,"",   209.331E-03,   205.016E-03,   42.2803E-03,   539.349E-09
C:/temp/dataset/6/21_8.odb,Step-1,Increment      1: Step Time =    1.000,"PART-1-1",           703,      -10.2112,       15.1096,            0.,NA,NA,"",   208.387E-03,   204.206E-03,   41.5306E-03,   729.271E-09
C:/temp/dataset/6/21_8.odb,Step-1,Increment      1: Step Time =    1.000,"PART-1-1",           704,      -9.25876,       16.3324,            0.,NA,NA,"",   209.122E-03,   205.096E-03,   40.8370E-03,   538.790E-09
C:/temp/dataset/6/21_8.odb,Step-1,Increment      1: Step Time =    1.000,"PART-1-1",           705,      -10.2871,       17.4437,            0.,NA,NA,"",   210.064E-03,   205.907E-03,   41.5862E-03,   293.792E-09
C:/temp/dataset/6/21_8.odb,Step-1,Increment      1: Step Time =    1.000,"PART-1-1",           706,      -8.19479,       15.2434,            0.,NA,NA,"",   208.193E-03,   204.302E-03,   40.0621E-03,   647.418E-09
C:/temp/dataset/6/21_8.odb,Step-1,Increment      1: Step Time =    1.000,"PART-1-1",           707,      -9.19446,       14.0222,            0.,NA,NA,"",   207.462E-03,   203.413E-03,   40.7895E-03,   1.14111E-06
C:/temp/dataset/6/21_8.odb,Step-1,Increment      1: Step Time =    1.000,"PART-1-1",           708,      -8.14331,       13.0080,            0.,NA,NA,"",   206.587E-03,   202.673E-03,   40.0240E-03,   1.28827E-06
C:/temp/dataset/6/21_8.odb,Step-1,Increment      1: Step Time =    1.000,"PART-1-1",           709,          -15.,         18.75,            0.,NA,NA,"",   211.702E-03,   206.860E-03,   45.0199E-03,   70.6074E-09
C:/temp/dataset/6/21_8.odb,Step-1,Increment      1: Step Time =    1.000,"PART-1-1",           710,      -13.1826,       18.5751,            0.,NA,NA,"",   211.299E-03,   206.732E-03,   43.6959E-03,   159.221E-09
C:/temp/dataset/6/21_8.odb,Step-1,Increment      1: Step Time =    1.000,"PART-1-1",           711,      -11.2313,       23.3702,            0.,NA,NA,"",   214.433E-03,   210.225E-03,   42.2730E-03,   8.83495E-09
C:/temp/dataset/6/21_8.odb,Step-1,Increment      1: Step Time =    1.000,"PART-1-1",           712,      -10.8173,       24.9058,            0.,NA,NA,"",   215.471E-03,   211.343E-03,   41.9709E-03,   3.75748E-09
C:/temp/dataset/6/21_8.odb,Step-1,Increment      1: Step Time =    1.000,"PART-1-1",           713,      -13.5418,       24.7667,            0.,NA,NA,"",   215.768E-03,   211.243E-03,   43.9559E-03,   4.27859E-09
C:/temp/dataset/6/21_8.odb,Step-1,Increment      1: Step Time =    1.000,"PART-1-1",           714,      -12.2278,       25.9824,            0.,NA,NA,"",   216.442E-03,   212.128E-03,   42.9983E-03,   4.06121E-09
C:/temp/dataset/6/21_8.odb,Step-1,Increment      1: Step Time =    1.000,"PART-1-1",           715,          -15.,         26.25,            0.,NA,NA,"",   217.044E-03,   212.324E-03,   45.0179E-03,   5.16660E-09
C:/temp/dataset/6/21_8.odb,Step-1,Increment      1: Step Time =    1.000,"PART-1-1",           716,          -15.,         23.75,            0.,NA,NA,"",   215.262E-03,   210.502E-03,   45.0186E-03,   10.8374E-09
C:/temp/dataset/6/21_8.odb,Step-1,Increment      1: Step Time =    1.000,"PART-1-1",           717,      -12.5630,       23.3034,            0.,NA,NA,"",   214.579E-03,   210.176E-03,   43.2432E-03,   4.81604E-09
C:/temp/dataset/6/21_8.odb,Step-1,Increment      1: Step Time =    1.000,"PART-1-1",           718,      -11.1827,       13.8735,            0.,NA,NA,"",   207.648E-03,   203.307E-03,   42.2383E-03,   1.01505E-06
C:/temp/dataset/6/21_8.odb,Step-1,Increment      1: Step Time =    1.000,"PART-1-1",           719,      -10.1659,       12.7861,            0.,NA,NA,"",   206.721E-03,   202.514E-03,   41.4963E-03,   1.36098E-06
C:/temp/dataset/6/21_8.odb,Step-1,Increment      1: Step Time =    1.000,"PART-1-1",           720,      -11.4858,       20.4947,            0.,NA,NA,"",   212.417E-03,   208.130E-03,   42.4591E-03,   68.2128E-09
C:/temp/dataset/6/21_8.odb,Step-1,Increment      1: Step Time =    1.000,"PART-1-1",           721,      -10.4732,       19.7487,            0.,NA,NA,"",   211.737E-03,   207.586E-03,   41.7215E-03,   91.5675E-09
C:/temp/dataset/6/21_8.odb,Step-1,Increment      1: Step Time =    1.000,"PART-1-1",           722,      -10.9778,       21.7959,            0.,NA,NA,"",   213.272E-03,   209.078E-03,   42.0887E-03,   25.6982E-09
C:/temp/dataset/6/21_8.odb,Step-1,Increment      1: Step Time =    1.000,"PART-1-1",           723,      -9.13796,       11.7463,            0.,NA,NA,"",   205.829E-03,   201.755E-03,   40.7465E-03,   1.51361E-06
C:/temp/dataset/6/21_8.odb,Step-1,Increment      1: Step Time =    1.000,"PART-1-1",           724,      -11.1090,       11.4975,            0.,NA,NA,"",   205.942E-03,   201.576E-03,   42.1836E-03,   1.20422E-06
C:/temp/dataset/6/21_8.odb,Step-1,Increment      1: Step Time =    1.000,"PART-1-1",           725,      -7.95801,       5.48811,            0.,NA,NA,"",   201.229E-03,   197.229E-03,   39.9214E-03,   64.8441E-06
C:/temp/dataset/6/21_8.odb,Step-1,Increment      1: Step Time =    1.000,"PART-1-1",           726,      -9.27172,       5.51676,            0.,NA,NA,"",   201.394E-03,   197.202E-03,   40.8769E-03,   32.2756E-06
C:/temp/dataset/6/21_8.odb,Step-1,Increment      1: Step Time =    1.000,"PART-1-1",           727,      -9.10783,       4.19071,            0.,NA,NA,"",   200.356E-03,   196.162E-03,   40.7813E-03,   83.2417E-06
C:/temp/dataset/6/21_8.odb,Step-1,Increment      1: Step Time =    1.000,"PART-1-1",           728,      -7.79412,       4.16207,            0.,NA,NA,"",   200.178E-03,   196.171E-03,   39.8494E-03,   107.717E-06
C:/temp/dataset/6/21_8.odb,Step-1,Increment      1: Step Time =    1.000,"PART-1-1",           729,      -10.3652,   710.465E-03,            0.,NA,NA,"",   197.901E-03,   193.509E-03,   41.4618E-03,   228.747E-06
C:/temp/dataset/6/21_8.odb,Step-1,Increment      1: Step Time =    1.000,"PART-1-1",           730,      -11.5756,       2.14983,            0.,NA,NA,"",   199.241E-03,   194.654E-03,   42.5039E-03,   62.3346E-06
C:/temp/dataset/6/21_8.odb,Step-1,Increment      1: Step Time =    1.000,"PART-1-1",           731,      -10.9514,      -7.70102,            0.,NA,NA,"",   194.952E-03,   190.500E-03,   41.4235E-03,   1.18815E-03
C:/temp/dataset/6/21_8.odb,Step-1,Increment      1: Step Time =    1.000,"PART-1-1",           732,      -11.1587,      -15.1039,            0.,NA,NA,"",   181.216E-03,   175.627E-03,   44.6568E-03,   2.91562E-03
C:/temp/dataset/6/21_8.odb,Step-1,Increment      1: Step Time =    1.000,"PART-1-1",           733,      -11.0422,      -12.5823,            0.,NA,NA,"",   188.943E-03,   183.664E-03,   44.3532E-03,   1.62375E-03
C:/temp/dataset/6/21_8.odb,Step-1,Increment      1: Step Time =    1.000,"PART-1-1",           734,      -9.98828,      -19.2456,            0.,NA,NA,"",   132.580E-03,   129.907E-03,   26.4884E-03,   8.76953E-03
C:/temp/dataset/6/21_8.odb,Step-1,Increment      1: Step Time =    1.000,"PART-1-1",           735,      -11.2222,      -17.6929,            0.,NA,NA,"",   161.564E-03,   156.683E-03,   39.4123E-03,   7.17423E-03
C:/temp/dataset/6/21_8.odb,Step-1,Increment      1: Step Time =    1.000,"PART-1-1",           736,      -9.72809,       26.4627,            0.,NA,NA,"",   216.431E-03,   212.477E-03,   41.1770E-03,   3.31366E-09
C:/temp/dataset/6/21_8.odb,Step-1,Increment      1: Step Time =    1.000,"PART-1-1",           737,      -8.07960,       10.7858,            0.,NA,NA,"",   204.992E-03,   201.056E-03,   39.9757E-03,   1.67373E-06
C:/temp/dataset/6/21_8.odb,Step-1,Increment      1: Step Time =    1.000,"PART-1-1",           738,      -11.3320,       18.4953,            0.,NA,NA,"",   210.967E-03,   206.673E-03,   42.3475E-03,   209.181E-09
C:/temp/dataset/6/21_8.odb,Step-1,Increment      1: Step Time =    1.000,"PART-1-1",           739,      -10.4893,       6.32554,            0.,NA,NA,"",   202.145E-03,   197.787E-03,   41.7503E-03,   21.6662E-06
C:/temp/dataset/6/21_8.odb,Step-1,Increment      1: Step Time =    1.000,"PART-1-1",           740,      -11.8356,       7.66802,            0.,NA,NA,"",   203.308E-03,   198.769E-03,   42.7206E-03,   9.37412E-06
C:/temp/dataset/6/21_8.odb,Step-1,Increment      1: Step Time =    1.000,"PART-1-1",           741,      -11.4125,       4.87054,            0.,NA,NA,"",   201.204E-03,   196.680E-03,   42.4294E-03,   30.6036E-06
C:/temp/dataset/6/21_8.odb,Step-1,Increment      1: Step Time =    1.000,"PART-1-1",           742,       10.1911,      -5.79504,            0.,NA,NA,"",   153.248E-03,   152.831E-03,  -11.2943E-03,   948.832E-06
C:/temp/dataset/6/21_8.odb,Step-1,Increment      1: Step Time =    1.000,"PART-1-1",           743,       9.10708,      -6.74300,            0.,NA,NA,"",   146.015E-03,   145.943E-03,  -4.61326E-03,   1.22965E-03
C:/temp/dataset/6/21_8.odb,Step-1,Increment      1: Step Time =    1.000,"PART-1-1",           744,       11.1638,      -4.94873,            0.,NA,NA,"",   159.374E-03,   158.447E-03,  -17.1644E-03,   625.817E-06
C:/temp/dataset/6/21_8.odb,Step-1,Increment      1: Step Time =    1.000,"PART-1-1",           745,       10.4293,      -4.08570,            0.,NA,NA,"",   165.072E-03,   164.613E-03,  -12.2893E-03,   634.926E-06
C:/temp/dataset/6/21_8.odb,Step-1,Increment      1: Step Time =    1.000,"PART-1-1",           746,       9.97038,      -14.8971,            0.,NA,NA,"",   78.8957E-03,   78.4371E-03,  -8.49455E-03,   1.27662E-03
C:/temp/dataset/6/21_8.odb,Step-1,Increment      1: Step Time =    1.000,"PART-1-1",           747,       9.96577,      -12.5508,            0.,NA,NA,"",   97.8063E-03,   97.3808E-03,  -9.11354E-03,   1.27036E-03
C:/temp/dataset/6/21_8.odb,Step-1,Increment      1: Step Time =    1.000,"PART-1-1",           748,       8.96159,      -13.7029,            0.,NA,NA,"",   87.8854E-03,   87.8461E-03,  -2.63036E-03,   1.26601E-03
C:/temp/dataset/6/21_8.odb,Step-1,Increment      1: Step Time =    1.000,"PART-1-1",           749,       6.92617,      -22.4012,            0.,NA,NA,"",   33.3685E-03,   33.1343E-03,   3.94702E-03,   1.88960E-03
C:/temp/dataset/6/21_8.odb,Step-1,Increment      1: Step Time =    1.000,"PART-1-1",           750,       5.94981,      -23.5281,            0.,NA,NA,"",   30.2274E-03,   29.9908E-03,   3.77383E-03,   2.89314E-03
C:/temp/dataset/6/21_8.odb,Step-1,Increment      1: Step Time =    1.000,"PART-1-1",           751,       7.18383,      -24.1705,            0.,NA,NA,"",   25.6936E-03,   25.6312E-03,   1.78963E-03,   2.33748E-03
C:/temp/dataset/6/21_8.odb,Step-1,Increment      1: Step Time =    1.000,"PART-1-1",           752,       11.0968,      -20.2176,            0.,NA,NA,"",   44.4243E-03,   43.0823E-03,  -10.8367E-03,   1.24751E-03
C:/temp/dataset/6/21_8.odb,Step-1,Increment      1: Step Time =    1.000,"PART-1-1",           753,       6.43355,      -20.8801,            0.,NA,NA,"",   39.7396E-03,   39.1422E-03,   6.86430E-03,   1.75499E-03
C:/temp/dataset/6/21_8.odb,Step-1,Increment      1: Step Time =    1.000,"PART-1-1",           754,       8.96045,      -11.3546,            0.,NA,NA,"",   107.334E-03,   107.294E-03,  -2.90883E-03,   1.26070E-03
C:/temp/dataset/6/21_8.odb,Step-1,Increment      1: Step Time =    1.000,"PART-1-1",           755,       8.17216,      -2.03287,            0.,NA,NA,"",   177.992E-03,   177.981E-03,   1.96978E-03,   740.690E-06
C:/temp/dataset/6/21_8.odb,Step-1,Increment      1: Step Time =    1.000,"PART-1-1",           756,       9.68046,      -2.49017,            0.,NA,NA,"",   174.901E-03,   174.754E-03,  -7.16406E-03,   664.174E-06
C:/temp/dataset/6/21_8.odb,Step-1,Increment      1: Step Time =    1.000,"PART-1-1",           757,      -5.24373,       2.94722,            0.,NA,NA,"",   198.824E-03,   195.126E-03,   38.1719E-03,   403.092E-06
C:/temp/dataset/6/21_8.odb,Step-1,Increment      1: Step Time =    1.000,"PART-1-1",           758,      -6.20341,       3.93450,            0.,NA,NA,"",   199.906E-03,   196.112E-03,   38.7644E-03,   232.008E-06
C:/temp/dataset/6/21_8.odb,Step-1,Increment      1: Step Time =    1.000,"PART-1-1",           759,       7.87036,      -17.0650,            0.,NA,NA,"",   61.9365E-03,   61.8491E-03,   3.28838E-03,   1.42843E-03
C:/temp/dataset/6/21_8.odb,Step-1,Increment      1: Step Time =    1.000,"PART-1-1",           760,      -8.77165,      -4.61616,            0.,NA,NA,"",   194.398E-03,   190.722E-03,   37.6248E-03,   1.27580E-03
C:/temp/dataset/6/21_8.odb,Step-1,Increment      1: Step Time =    1.000,"PART-1-1",           761,       8.90402,      -15.9271,            0.,NA,NA,"",   70.3891E-03,   70.3550E-03,  -2.18886E-03,   1.32234E-03
C:/temp/dataset/6/21_8.odb,Step-1,Increment      1: Step Time =    1.000,"PART-1-1",           762,       7.94609,      -14.8939,            0.,NA,NA,"",   78.4316E-03,   78.3515E-03,   3.54199E-03,   1.16533E-03
C:/temp/dataset/6/21_8.odb,Step-1,Increment      1: Step Time =    1.000,"PART-1-1",           763,      -12.3095,       21.7291,            0.,NA,NA,"",   213.418E-03,   209.029E-03,   43.0589E-03,   21.0399E-09
C:/temp/dataset/6/21_8.odb,Step-1,Increment      1: Step Time =    1.000,"PART-1-1",           764,      -12.2938,       19.6789,            0.,NA,NA,"",   211.953E-03,   207.536E-03,   43.0480E-03,   80.7736E-09
C:/temp/dataset/6/21_8.odb,Step-1,Increment      1: Step Time =    1.000,"PART-1-1",           765,       3.72209,      -1.78065,            0.,NA,NA,"",   182.634E-03,   181.200E-03,   22.8399E-03,   967.837E-06
C:/temp/dataset/6/21_8.odb,Step-1,Increment      1: Step Time =    1.000,"PART-1-1",           766,       6.45852,      -3.38063,            0.,NA,NA,"",   172.432E-03,   172.028E-03,   11.8062E-03,   1.14011E-03
C:/temp/dataset/6/21_8.odb,Step-1,Increment      1: Step Time =    1.000,"PART-1-1",           767,       4.93556,      -2.38177,            0.,NA,NA,"",   178.907E-03,   177.909E-03,   18.8705E-03,   998.336E-06
C:/temp/dataset/6/21_8.odb,Step-1,Increment      1: Step Time =    1.000,"PART-1-1",           768,      -2.94024,   945.156E-03,            0.,NA,NA,"",   195.209E-03,   191.831E-03,   36.1541E-03,   622.529E-06
C:/temp/dataset/6/21_8.odb,Step-1,Increment      1: Step Time =    1.000,"PART-1-1",           769,      -1.69279,      -25.0756,            0.,NA,NA,"",   34.5707E-03,   34.2516E-03,  -4.68631E-03,   5.47856E-03
C:/temp/dataset/6/21_8.odb,Step-1,Increment      1: Step Time =    1.000,"PART-1-1",           770,      -6.93923,      -23.9860,            0.,NA,NA,"",   50.0804E-03,   50.0385E-03,  -2.04954E-03,   5.40984E-03
C:/temp/dataset/6/21_8.odb,Step-1,Increment      1: Step Time =    1.000,"PART-1-1",           771,      -5.91970,      -22.6959,            0.,NA,NA,"",   60.8037E-03,   60.6297E-03,  -4.59650E-03,   5.65116E-03
C:/temp/dataset/6/21_8.odb,Step-1,Increment      1: Step Time =    1.000,"PART-1-1",           772,      -12.2208,       17.3915,            0.,NA,NA,"",   210.311E-03,   205.870E-03,   42.9953E-03,   262.484E-09
C:/temp/dataset/6/21_8.odb,Step-1,Increment      1: Step Time =    1.000,"PART-1-1",           773,      -12.0398,       10.1961,            0.,NA,NA,"",   205.153E-03,   200.625E-03,   42.8639E-03,   1.50472E-06
C:/temp/dataset/6/21_8.odb,Step-1,Increment      1: Step Time =    1.000,"PART-1-1",           774,      -10.8637,      -2.91198,            0.,NA,NA,"",   196.223E-03,   191.838E-03,   41.2499E-03,   704.671E-06
C:/temp/dataset/6/21_8.odb,Step-1,Increment      1: Step Time =    1.000,"PART-1-1",           775,      -9.61620,      -11.5179,            0.,NA,NA,"",   189.766E-03,   185.945E-03,   37.8867E-03,   1.41255E-03
C:/temp/dataset/6/21_8.odb,Step-1,Increment      1: Step Time =    1.000,"PART-1-1",           776,      -11.8201,      -24.5932,            0.,NA,NA,"",   57.2549E-03,   54.7415E-03,   16.7778E-03,   6.37485E-03
C:/temp/dataset/6/21_8.odb,Step-1,Increment      1: Step Time =    1.000,"PART-1-1",           777,      -11.0718,      -23.4296,            0.,NA,NA,"",   72.2287E-03,   70.4906E-03,   15.7501E-03,   7.94617E-03
C:/temp/dataset/6/21_8.odb,Step-1,Increment      1: Step Time =    1.000,"PART-1-1",           778,       4.75405,      -23.0816,            0.,NA,NA,"",   34.0340E-03,   33.7128E-03,   4.66487E-03,   3.44359E-03
C:/temp/dataset/6/21_8.odb,Step-1,Increment      1: Step Time =    1.000,"PART-1-1",           779,       5.55198,      -21.9930,            0.,NA,NA,"",   36.9492E-03,   36.3854E-03,   6.43018E-03,   2.87969E-03
C:/temp/dataset/6/21_8.odb,Step-1,Increment      1: Step Time =    1.000,"PART-1-1",           780,       7.01336,      -26.0950,            0.,NA,NA,"",   17.3909E-03,   17.3811E-03,   582.029E-06,   2.82134E-03
C:/temp/dataset/6/21_8.odb,Step-1,Increment      1: Step Time =    1.000,"PART-1-1",           781,       4.10189,      -23.9882,            0.,NA,NA,"",   31.3259E-03,   31.1745E-03,   3.07594E-03,   3.82497E-03
C:/temp/dataset/6/21_8.odb,Step-1,Increment      1: Step Time =    1.000,"PART-1-1",           782,       4.14804,      -25.2051,            0.,NA,NA,"",   25.5583E-03,   25.5024E-03,   1.69026E-03,   3.85691E-03
C:/temp/dataset/6/21_8.odb,Step-1,Increment      1: Step Time =    1.000,"PART-1-1",           783,      -12.1264,       12.6156,            0.,NA,NA,"",   206.893E-03,   202.391E-03,   42.9268E-03,   1.11782E-06
C:/temp/dataset/6/21_8.odb,Step-1,Increment      1: Step Time =    1.000,"PART-1-1",           784,      -12.1709,       15.0185,            0.,NA,NA,"",   208.612E-03,   204.141E-03,   42.9592E-03,   662.134E-09
C:/temp/dataset/6/21_8.odb,Step-1,Increment      1: Step Time =    1.000,"PART-1-1",           785,      -10.3060,       3.43341,            0.,NA,NA,"",   199.948E-03,   195.566E-03,   41.6287E-03,   48.3112E-06
C:/temp/dataset/6/21_8.odb,Step-1,Increment      1: Step Time =    1.000,"PART-1-1",           786,      -9.35047,  -311.861E-03,            0.,NA,NA,"",   196.744E-03,   192.547E-03,   40.4237E-03,   407.438E-06
C:/temp/dataset/6/21_8.odb,Step-1,Increment      1: Step Time =    1.000,"PART-1-1",           787,      -9.47746,      -1.56252,            0.,NA,NA,"",   195.994E-03,   191.847E-03,   40.1005E-03,   659.187E-06
C:/temp/dataset/6/21_8.odb,Step-1,Increment      1: Step Time =    1.000,"PART-1-1",           788,      -7.56677,      -1.93629,            0.,NA,NA,"",   194.283E-03,   190.489E-03,   38.2049E-03,   897.244E-06
C:/temp/dataset/6/21_8.odb,Step-1,Increment      1: Step Time =    1.000,"PART-1-1",           789,      -9.57637,      -3.06595,            0.,NA,NA,"",   195.374E-03,   191.324E-03,   39.5760E-03,   858.253E-06
C:/temp/dataset/6/21_8.odb,Step-1,Increment      1: Step Time =    1.000,"PART-1-1",           790,      -8.24618,      -3.39128,            0.,NA,NA,"",   194.133E-03,   190.424E-03,   37.7695E-03,   1.21298E-03
C:/temp/dataset/6/21_8.odb,Step-1,Increment      1: Step Time =    1.000,"PART-1-1",           791,       7.98922,      -7.69035,            0.,NA,NA,"",   138.307E-03,   138.282E-03,   2.62036E-03,   1.38733E-03
C:/temp/dataset/6/21_8.odb,Step-1,Increment      1: Step Time =    1.000,"PART-1-1",           792,       7.96586,      -10.1263,            0.,NA,NA,"",   117.676E-03,   117.624E-03,   3.49524E-03,   1.09566E-03
C:/temp/dataset/6/21_8.odb,Step-1,Increment      1: Step Time =    1.000,"PART-1-1",           793,       7.95460,      -12.5381,            0.,NA,NA,"",   97.4727E-03,   97.3982E-03,   3.80966E-03,   1.02391E-03
C:/temp/dataset/6/21_8.odb,Step-1,Increment      1: Step Time =    1.000,"PART-1-1",           794,      -6.90534,       4.84567,            0.,NA,NA,"",   200.672E-03,   196.809E-03,   39.1850E-03,   135.698E-06
C:/temp/dataset/6/21_8.odb,Step-1,Increment      1: Step Time =    1.000,"PART-1-1",           795,      -7.09219,       3.25090,            0.,NA,NA,"",   199.298E-03,   195.366E-03,   39.3957E-03,   232.908E-06
C:/temp/dataset/6/21_8.odb,Step-1,Increment      1: Step Time =    1.000,"PART-1-1",           796,      -5.99438,      -2.38990,            0.,NA,NA,"",   192.335E-03,   188.770E-03,   36.8596E-03,   1.21221E-03
C:/temp/dataset/6/21_8.odb,Step-1,Increment      1: Step Time =    1.000,"PART-1-1",           797,      -8.16339,       2.56404,            0.,NA,NA,"",   198.811E-03,   194.726E-03,   40.0949E-03,   180.326E-06
C:/temp/dataset/6/21_8.odb,Step-1,Increment      1: Step Time =    1.000,"PART-1-1",           798,      -6.16245,       1.98671,            0.,NA,NA,"",   197.757E-03,   193.925E-03,   38.7442E-03,   406.346E-06
C:/temp/dataset/6/21_8.odb,Step-1,Increment      1: Step Time =    1.000,"PART-1-1",           799,      -9.36160,       1.80674,            0.,NA,NA,"",   198.434E-03,   194.183E-03,   40.8574E-03,   184.183E-06
C:/temp/dataset/6/21_8.odb,Step-1,Increment      1: Step Time =    1.000,"PART-1-1",           800,      -4.18828,       1.89018,            0.,NA,NA,"",   197.194E-03,   193.626E-03,   37.3420E-03,   507.165E-06
C:/temp/dataset/6/21_8.odb,Step-1,Increment      1: Step Time =    1.000,"PART-1-1",           801,      -2.02478,       2.01876,            0.,NA,NA,"",   197.064E-03,   193.905E-03,   35.1445E-03,   511.520E-06
C:/temp/dataset/6/21_8.odb,Step-1,Increment      1: Step Time =    1.000,"PART-1-1",           802,       5.29765,      -24.4346,            0.,NA,NA,"",   27.3392E-03,   27.1912E-03,   2.84108E-03,   3.36095E-03
C:/temp/dataset/6/21_8.odb,Step-1,Increment      1: Step Time =    1.000,"PART-1-1",           803,       8.18651,      -25.0309,            0.,NA,NA,"",   20.9020E-03,   20.9017E-03,  -107.898E-06,   2.07021E-03
C:/temp/dataset/6/21_8.odb,Step-1,Increment      1: Step Time =    1.000,"PART-1-1",           804,       6.01068,      -25.2345,            0.,NA,NA,"",   22.6155E-03,   22.5449E-03,   1.78562E-03,   3.09364E-03
