ODB Name,Step,Frame,Part Instance Name,    êﬂì_ÉâÉxÉã,X,Y,Z,Section Name,Material Name,Section Point,   U-Magnitude,          U-U1,          U-U2,       S-Mises
C:/temp/dataset/6/23_10.odb,Step-1,Increment      1: Step Time =    1.000,"PART-1-1",             1,            5.,           -5.,            0.,NA,NA,"",   68.4475E-03,  -23.3486E-03,   64.3421E-03,   7.68269E-03
C:/temp/dataset/6/23_10.odb,Step-1,Increment      1: Step Time =    1.000,"PART-1-1",             2,            0.,           -5.,            0.,NA,NA,"",   134.611E-03,  -18.6845E-03,   133.308E-03,   7.59630E-03
C:/temp/dataset/6/23_10.odb,Step-1,Increment      1: Step Time =    1.000,"PART-1-1",             3,            5.,      -10.0250,            0.,NA,NA,"",   44.6594E-03,  -25.4871E-03,   36.6725E-03,   4.32863E-03
C:/temp/dataset/6/23_10.odb,Step-1,Increment      1: Step Time =    1.000,"PART-1-1",             4,            5.,      -15.0500,            0.,NA,NA,"",   28.1967E-03,  -20.3424E-03,   19.5255E-03,   3.19795E-03
C:/temp/dataset/6/23_10.odb,Step-1,Increment      1: Step Time =    1.000,"PART-1-1",             5,            5.,          -20.,            0.,NA,NA,"",   10.8102E-03,  -7.98053E-03,   7.29187E-03,   2.17266E-03
C:/temp/dataset/6/23_10.odb,Step-1,Increment      1: Step Time =    1.000,"PART-1-1",             6,            0.,          -20.,            0.,NA,NA,"",   2.38271E-03,   875.814E-06,   2.21590E-03,   1.77191E-03
C:/temp/dataset/6/23_10.odb,Step-1,Increment      1: Step Time =    1.000,"PART-1-1",             7,           -5.,          -20.,            0.,NA,NA,"",   18.0895E-03,   9.85432E-03,   15.1697E-03,   3.80595E-03
C:/temp/dataset/6/23_10.odb,Step-1,Increment      1: Step Time =    1.000,"PART-1-1",             8,           -5.,      -14.9750,            0.,NA,NA,"",   42.7126E-03,   19.7589E-03,   37.8675E-03,   5.14382E-03
C:/temp/dataset/6/23_10.odb,Step-1,Increment      1: Step Time =    1.000,"PART-1-1",             9,           -5.,      -9.95000,            0.,NA,NA,"",   67.4314E-03,   20.7226E-03,   64.1683E-03,   6.43713E-03
C:/temp/dataset/6/23_10.odb,Step-1,Increment      1: Step Time =    1.000,"PART-1-1",            10,           -5.,           -5.,            0.,NA,NA,"",   108.247E-03,   9.63094E-03,   107.818E-03,   11.1869E-03
C:/temp/dataset/6/23_10.odb,Step-1,Increment      1: Step Time =    1.000,"PART-1-1",            11,           15.,          -30.,            0.,NA,NA,"",            0.,  -1.21180E-39,   2.11847E-39,   4.12816E-03
C:/temp/dataset/6/23_10.odb,Step-1,Increment      1: Step Time =    1.000,"PART-1-1",            12,          -15.,          -30.,            0.,NA,NA,"",            0.,   1.89909E-39,   3.25906E-39,   6.19819E-03
C:/temp/dataset/6/23_10.odb,Step-1,Increment      1: Step Time =    1.000,"PART-1-1",            13,           15.,        -21.25,            0.,NA,NA,"",   25.5829E-03,  -15.8613E-03,   20.0725E-03,   2.01922E-03
C:/temp/dataset/6/23_10.odb,Step-1,Increment      1: Step Time =    1.000,"PART-1-1",            14,           15.,         -12.5,            0.,NA,NA,"",   42.3397E-03,  -31.9422E-03,   27.7911E-03,   175.445E-06
C:/temp/dataset/6/23_10.odb,Step-1,Increment      1: Step Time =    1.000,"PART-1-1",            15,           15.,         -3.75,            0.,NA,NA,"",   28.2339E-03,  -19.9027E-03,   20.0259E-03,   1.17544E-03
C:/temp/dataset/6/23_10.odb,Step-1,Increment      1: Step Time =    1.000,"PART-1-1",            16,           15.,            5.,            0.,NA,NA,"",   30.3366E-03,   25.7926E-03,   15.9703E-03,   26.4443E-06
C:/temp/dataset/6/23_10.odb,Step-1,Increment      1: Step Time =    1.000,"PART-1-1",            17,           10.,            5.,            0.,NA,NA,"",   51.4744E-03,   26.7301E-03,   43.9900E-03,   417.356E-06
C:/temp/dataset/6/23_10.odb,Step-1,Increment      1: Step Time =    1.000,"PART-1-1",            18,            5.,            5.,            0.,NA,NA,"",   82.7190E-03,   26.2260E-03,   78.4514E-03,   1.47126E-03
C:/temp/dataset/6/23_10.odb,Step-1,Increment      1: Step Time =    1.000,"PART-1-1",            19,            0.,            5.,            0.,NA,NA,"",   110.578E-03,   8.69370E-03,   110.236E-03,   6.15064E-03
C:/temp/dataset/6/23_10.odb,Step-1,Increment      1: Step Time =    1.000,"PART-1-1",            20,           -5.,            5.,            0.,NA,NA,"",   108.825E-03,  -21.4865E-03,   106.683E-03,   4.41717E-03
C:/temp/dataset/6/23_10.odb,Step-1,Increment      1: Step Time =    1.000,"PART-1-1",            21,           -5.,         11.25,            0.,NA,NA,"",   123.015E-03,  -64.7488E-03,   104.596E-03,   87.2081E-06
C:/temp/dataset/6/23_10.odb,Step-1,Increment      1: Step Time =    1.000,"PART-1-1",            22,           -5.,          17.5,            0.,NA,NA,"",   145.707E-03,  -101.695E-03,   104.349E-03,   1.19578E-06
C:/temp/dataset/6/23_10.odb,Step-1,Increment      1: Step Time =    1.000,"PART-1-1",            23,           -5.,         23.75,            0.,NA,NA,"",   173.493E-03,  -138.684E-03,   104.242E-03,   395.666E-09
C:/temp/dataset/6/23_10.odb,Step-1,Increment      1: Step Time =    1.000,"PART-1-1",            24,           -5.,           30.,            0.,NA,NA,"",   204.227E-03,  -175.684E-03,   104.134E-03,   7.83981E-09
C:/temp/dataset/6/23_10.odb,Step-1,Increment      1: Step Time =    1.000,"PART-1-1",            25,          -10.,           30.,            0.,NA,NA,"",   190.760E-03,  -175.596E-03,   74.5337E-03,   85.5956E-09
C:/temp/dataset/6/23_10.odb,Step-1,Increment      1: Step Time =    1.000,"PART-1-1",            26,          -15.,           30.,            0.,NA,NA,"",   181.170E-03,  -175.509E-03,   44.9334E-03,   11.2870E-09
C:/temp/dataset/6/23_10.odb,Step-1,Increment      1: Step Time =    1.000,"PART-1-1",            27,          -15.,          22.5,            0.,NA,NA,"",   138.637E-03,  -131.108E-03,   45.0637E-03,   598.503E-09
C:/temp/dataset/6/23_10.odb,Step-1,Increment      1: Step Time =    1.000,"PART-1-1",            28,          -15.,           15.,            0.,NA,NA,"",   97.7564E-03,  -86.6779E-03,   45.2025E-03,   9.78962E-06
C:/temp/dataset/6/23_10.odb,Step-1,Increment      1: Step Time =    1.000,"PART-1-1",            29,          -15.,           7.5,            0.,NA,NA,"",   62.6322E-03,  -42.6195E-03,   45.8952E-03,   187.441E-06
C:/temp/dataset/6/23_10.odb,Step-1,Increment      1: Step Time =    1.000,"PART-1-1",            30,          -15.,            0.,            0.,NA,NA,"",   45.8595E-03,  -3.96745E-03,   45.6875E-03,   536.965E-06
C:/temp/dataset/6/23_10.odb,Step-1,Increment      1: Step Time =    1.000,"PART-1-1",            31,          -15.,          -7.5,            0.,NA,NA,"",   51.6192E-03,   28.2762E-03,   43.1855E-03,   40.1314E-06
C:/temp/dataset/6/23_10.odb,Step-1,Increment      1: Step Time =    1.000,"PART-1-1",            32,          -15.,          -15.,            0.,NA,NA,"",   52.6448E-03,   33.6205E-03,   40.5110E-03,   1.19559E-03
C:/temp/dataset/6/23_10.odb,Step-1,Increment      1: Step Time =    1.000,"PART-1-1",            33,          -15.,         -22.5,            0.,NA,NA,"",   31.8829E-03,   18.8690E-03,   25.6998E-03,   3.14451E-03
C:/temp/dataset/6/23_10.odb,Step-1,Increment      1: Step Time =    1.000,"PART-1-1",            34,           2.5,           -5.,            0.,NA,NA,"",   101.977E-03,  -24.1395E-03,   99.0792E-03,   2.85346E-03
C:/temp/dataset/6/23_10.odb,Step-1,Increment      1: Step Time =    1.000,"PART-1-1",            35,            5.,      -7.51250,            0.,NA,NA,"",   53.4235E-03,  -25.2015E-03,   47.1058E-03,   5.75885E-03
C:/temp/dataset/6/23_10.odb,Step-1,Increment      1: Step Time =    1.000,"PART-1-1",            36,            5.,      -12.5375,            0.,NA,NA,"",   36.3592E-03,  -23.9161E-03,   27.3863E-03,   3.79591E-03
C:/temp/dataset/6/23_10.odb,Step-1,Increment      1: Step Time =    1.000,"PART-1-1",            37,            5.,      -17.5250,            0.,NA,NA,"",   20.1234E-03,  -15.2952E-03,   13.0770E-03,   2.69996E-03
C:/temp/dataset/6/23_10.odb,Step-1,Increment      1: Step Time =    1.000,"PART-1-1",            38,           2.5,          -20.,            0.,NA,NA,"",   4.09274E-03,  -3.17758E-03,   2.57944E-03,   1.88630E-03
C:/temp/dataset/6/23_10.odb,Step-1,Increment      1: Step Time =    1.000,"PART-1-1",            39,          -2.5,          -20.,            0.,NA,NA,"",   7.04642E-03,   5.10956E-03,   4.85226E-03,   1.99111E-03
C:/temp/dataset/6/23_10.odb,Step-1,Increment      1: Step Time =    1.000,"PART-1-1",            40,           -5.,      -17.4875,            0.,NA,NA,"",   31.2548E-03,   15.9635E-03,   26.8706E-03,   4.84537E-03
C:/temp/dataset/6/23_10.odb,Step-1,Increment      1: Step Time =    1.000,"PART-1-1",            41,           -5.,      -12.4625,            0.,NA,NA,"",   54.5768E-03,   21.5359E-03,   50.1481E-03,   5.76802E-03
C:/temp/dataset/6/23_10.odb,Step-1,Increment      1: Step Time =    1.000,"PART-1-1",            42,           -5.,      -7.47500,            0.,NA,NA,"",   80.8819E-03,   17.8011E-03,   78.8987E-03,   8.05829E-03
C:/temp/dataset/6/23_10.odb,Step-1,Increment      1: Step Time =    1.000,"PART-1-1",            43,          -2.5,           -5.,            0.,NA,NA,"",   149.085E-03,  -1.02895E-03,   149.081E-03,   14.3185E-03
C:/temp/dataset/6/23_10.odb,Step-1,Increment      1: Step Time =    1.000,"PART-1-1",            44,          12.5,          -30.,            0.,NA,NA,"",            0.,  -1.43185E-39,   3.53701E-39,   1.63760E-03
C:/temp/dataset/6/23_10.odb,Step-1,Increment      1: Step Time =    1.000,"PART-1-1",            45,           10.,          -30.,            0.,NA,NA,"",            0.,   446.688E-42,   2.26176E-39,   1.32900E-03
C:/temp/dataset/6/23_10.odb,Step-1,Increment      1: Step Time =    1.000,"PART-1-1",            46,           7.5,          -30.,            0.,NA,NA,"",            0.,   447.362E-42,   1.67115E-39,   902.557E-06
C:/temp/dataset/6/23_10.odb,Step-1,Increment      1: Step Time =    1.000,"PART-1-1",            47,            5.,          -30.,            0.,NA,NA,"",            0.,  -41.8512E-42,   1.07014E-39,   557.439E-06
C:/temp/dataset/6/23_10.odb,Step-1,Increment      1: Step Time =    1.000,"PART-1-1",            48,           2.5,          -30.,            0.,NA,NA,"",            0.,  -197.492E-42,   638.632E-42,   296.459E-06
C:/temp/dataset/6/23_10.odb,Step-1,Increment      1: Step Time =    1.000,"PART-1-1",            49,            0.,          -30.,            0.,NA,NA,"",            0.,  -50.1272E-42,   389.485E-42,   397.030E-06
C:/temp/dataset/6/23_10.odb,Step-1,Increment      1: Step Time =    1.000,"PART-1-1",            50,          -2.5,          -30.,            0.,NA,NA,"",            0.,  -790.925E-42,   1.36814E-39,   771.415E-06
C:/temp/dataset/6/23_10.odb,Step-1,Increment      1: Step Time =    1.000,"PART-1-1",            51,           -5.,          -30.,            0.,NA,NA,"",            0.,  -1.02180E-39,   2.36217E-39,   1.19789E-03
C:/temp/dataset/6/23_10.odb,Step-1,Increment      1: Step Time =    1.000,"PART-1-1",            52,          -7.5,          -30.,            0.,NA,NA,"",            0.,  -1.00081E-39,   3.43155E-39,   1.66423E-03
C:/temp/dataset/6/23_10.odb,Step-1,Increment      1: Step Time =    1.000,"PART-1-1",            53,          -10.,          -30.,            0.,NA,NA,"",            0.,   1.50044E-39,   4.24251E-39,   2.22261E-03
C:/temp/dataset/6/23_10.odb,Step-1,Increment      1: Step Time =    1.000,"PART-1-1",            54,         -12.5,          -30.,            0.,NA,NA,"",            0.,   1.08011E-39,   4.72214E-39,   2.60955E-03
C:/temp/dataset/6/23_10.odb,Step-1,Increment      1: Step Time =    1.000,"PART-1-1",            55,           15.,      -23.4375,            0.,NA,NA,"",   19.6772E-03,  -11.7688E-03,   15.7698E-03,   2.32045E-03
C:/temp/dataset/6/23_10.odb,Step-1,Increment      1: Step Time =    1.000,"PART-1-1",            56,           15.,       -25.625,            0.,NA,NA,"",   13.8145E-03,  -8.27510E-03,   11.0618E-03,   2.42757E-03
C:/temp/dataset/6/23_10.odb,Step-1,Increment      1: Step Time =    1.000,"PART-1-1",            57,           15.,      -27.8125,            0.,NA,NA,"",   8.00241E-03,  -5.04334E-03,   6.21315E-03,   2.85669E-03
C:/temp/dataset/6/23_10.odb,Step-1,Increment      1: Step Time =    1.000,"PART-1-1",            58,           15.,      -14.6875,            0.,NA,NA,"",   40.0933E-03,  -29.1181E-03,   27.5610E-03,   419.611E-06
C:/temp/dataset/6/23_10.odb,Step-1,Increment      1: Step Time =    1.000,"PART-1-1",            59,           15.,       -16.875,            0.,NA,NA,"",   36.2485E-03,  -25.0861E-03,   26.1657E-03,   1.01061E-03
C:/temp/dataset/6/23_10.odb,Step-1,Increment      1: Step Time =    1.000,"PART-1-1",            60,           15.,      -19.0625,            0.,NA,NA,"",   31.2580E-03,  -20.4613E-03,   23.6304E-03,   1.56997E-03
C:/temp/dataset/6/23_10.odb,Step-1,Increment      1: Step Time =    1.000,"PART-1-1",            61,           15.,       -5.9375,            0.,NA,NA,"",   35.3270E-03,  -27.1990E-03,   22.5435E-03,   1.31058E-03
C:/temp/dataset/6/23_10.odb,Step-1,Increment      1: Step Time =    1.000,"PART-1-1",            62,           15.,        -8.125,            0.,NA,NA,"",   40.2518E-03,  -31.5245E-03,   25.0282E-03,   1.14076E-03
C:/temp/dataset/6/23_10.odb,Step-1,Increment      1: Step Time =    1.000,"PART-1-1",            63,           15.,      -10.3125,            0.,NA,NA,"",   42.5313E-03,  -32.9455E-03,   26.8980E-03,   719.624E-06
C:/temp/dataset/6/23_10.odb,Step-1,Increment      1: Step Time =    1.000,"PART-1-1",            64,           15.,        2.8125,            0.,NA,NA,"",   20.9937E-03,   13.5057E-03,   16.0727E-03,   146.389E-06
C:/temp/dataset/6/23_10.odb,Step-1,Increment      1: Step Time =    1.000,"PART-1-1",            65,           15.,      625.E-03,            0.,NA,NA,"",   16.7380E-03,   1.27817E-03,   16.6891E-03,   476.555E-06
C:/temp/dataset/6/23_10.odb,Step-1,Increment      1: Step Time =    1.000,"PART-1-1",            66,           15.,       -1.5625,            0.,NA,NA,"",   20.6533E-03,  -10.1342E-03,   17.9961E-03,   850.611E-06
C:/temp/dataset/6/23_10.odb,Step-1,Increment      1: Step Time =    1.000,"PART-1-1",            67,          12.5,            5.,            0.,NA,NA,"",   39.4878E-03,   25.9365E-03,   29.7756E-03,   174.990E-06
C:/temp/dataset/6/23_10.odb,Step-1,Increment      1: Step Time =    1.000,"PART-1-1",            68,           7.5,            5.,            0.,NA,NA,"",   66.0784E-03,   27.5023E-03,   60.0831E-03,   90.1386E-06
C:/temp/dataset/6/23_10.odb,Step-1,Increment      1: Step Time =    1.000,"PART-1-1",            69,           2.5,            5.,            0.,NA,NA,"",   98.8871E-03,   20.2674E-03,   96.7878E-03,   3.93887E-03
C:/temp/dataset/6/23_10.odb,Step-1,Increment      1: Step Time =    1.000,"PART-1-1",            70,          -2.5,            5.,            0.,NA,NA,"",   114.047E-03,  -6.21722E-03,   113.877E-03,   6.80675E-03
C:/temp/dataset/6/23_10.odb,Step-1,Increment      1: Step Time =    1.000,"PART-1-1",            71,           -5.,       9.16667,            0.,NA,NA,"",   117.231E-03,  -52.2693E-03,   104.933E-03,   248.428E-06
C:/temp/dataset/6/23_10.odb,Step-1,Increment      1: Step Time =    1.000,"PART-1-1",            72,           -5.,       7.08333,            0.,NA,NA,"",   112.659E-03,  -39.0656E-03,   105.669E-03,   1.12143E-03
C:/temp/dataset/6/23_10.odb,Step-1,Increment      1: Step Time =    1.000,"PART-1-1",            73,           -5.,       15.4167,            0.,NA,NA,"",   137.426E-03,  -89.3786E-03,   104.391E-03,   8.00527E-06
C:/temp/dataset/6/23_10.odb,Step-1,Increment      1: Step Time =    1.000,"PART-1-1",            74,           -5.,       13.3333,            0.,NA,NA,"",   129.814E-03,  -77.0682E-03,   104.461E-03,   31.6837E-06
C:/temp/dataset/6/23_10.odb,Step-1,Increment      1: Step Time =    1.000,"PART-1-1",            75,           -5.,       21.6667,            0.,NA,NA,"",   163.825E-03,  -126.351E-03,   104.278E-03,   741.875E-09
C:/temp/dataset/6/23_10.odb,Step-1,Increment      1: Step Time =    1.000,"PART-1-1",            76,           -5.,       19.5833,            0.,NA,NA,"",   154.538E-03,  -114.021E-03,   104.313E-03,   799.499E-09
C:/temp/dataset/6/23_10.odb,Step-1,Increment      1: Step Time =    1.000,"PART-1-1",            77,           -5.,       27.9167,            0.,NA,NA,"",   193.739E-03,  -163.350E-03,   104.170E-03,   33.0919E-09
C:/temp/dataset/6/23_10.odb,Step-1,Increment      1: Step Time =    1.000,"PART-1-1",            78,           -5.,       25.8333,            0.,NA,NA,"",   183.481E-03,  -151.017E-03,   104.206E-03,   154.688E-09
C:/temp/dataset/6/23_10.odb,Step-1,Increment      1: Step Time =    1.000,"PART-1-1",            79,          -7.5,           30.,            0.,NA,NA,"",   197.053E-03,  -175.640E-03,   89.3336E-03,   38.1819E-09
C:/temp/dataset/6/23_10.odb,Step-1,Increment      1: Step Time =    1.000,"PART-1-1",            80,         -12.5,           30.,            0.,NA,NA,"",   185.437E-03,  -175.553E-03,   59.7336E-03,   37.1749E-09
C:/temp/dataset/6/23_10.odb,Step-1,Increment      1: Step Time =    1.000,"PART-1-1",            81,          -15.,           25.,            0.,NA,NA,"",   152.697E-03,  -145.909E-03,   45.0208E-03,   245.575E-09
C:/temp/dataset/6/23_10.odb,Step-1,Increment      1: Step Time =    1.000,"PART-1-1",            82,          -15.,          27.5,            0.,NA,NA,"",   166.884E-03,  -160.709E-03,   44.9772E-03,   45.1289E-09
C:/temp/dataset/6/23_10.odb,Step-1,Increment      1: Step Time =    1.000,"PART-1-1",            83,          -15.,          17.5,            0.,NA,NA,"",   111.086E-03,  -101.497E-03,   45.1489E-03,   678.240E-09
C:/temp/dataset/6/23_10.odb,Step-1,Increment      1: Step Time =    1.000,"PART-1-1",            84,          -15.,           20.,            0.,NA,NA,"",   124.746E-03,  -116.306E-03,   45.1059E-03,   905.695E-09
C:/temp/dataset/6/23_10.odb,Step-1,Increment      1: Step Time =    1.000,"PART-1-1",            85,          -15.,           10.,            0.,NA,NA,"",   73.0074E-03,  -57.0911E-03,   45.5048E-03,   113.501E-06
C:/temp/dataset/6/23_10.odb,Step-1,Increment      1: Step Time =    1.000,"PART-1-1",            86,          -15.,          12.5,            0.,NA,NA,"",   84.9403E-03,  -71.8539E-03,   45.2976E-03,   40.4438E-06
C:/temp/dataset/6/23_10.odb,Step-1,Increment      1: Step Time =    1.000,"PART-1-1",            87,          -15.,           2.5,            0.,NA,NA,"",   49.1651E-03,  -16.0681E-03,   46.4653E-03,   158.861E-06
C:/temp/dataset/6/23_10.odb,Step-1,Increment      1: Step Time =    1.000,"PART-1-1",            88,          -15.,            5.,            0.,NA,NA,"",   54.6098E-03,  -28.8477E-03,   46.3685E-03,   136.510E-06
C:/temp/dataset/6/23_10.odb,Step-1,Increment      1: Step Time =    1.000,"PART-1-1",            89,          -15.,           -5.,            0.,NA,NA,"",   47.4526E-03,   19.2643E-03,   43.3663E-03,   266.144E-06
C:/temp/dataset/6/23_10.odb,Step-1,Increment      1: Step Time =    1.000,"PART-1-1",            90,          -15.,          -2.5,            0.,NA,NA,"",   45.0444E-03,   7.98167E-03,   44.3316E-03,   587.272E-06
C:/temp/dataset/6/23_10.odb,Step-1,Increment      1: Step Time =    1.000,"PART-1-1",            91,          -15.,         -12.5,            0.,NA,NA,"",   55.1624E-03,   35.1937E-03,   42.4770E-03,   578.887E-06
C:/temp/dataset/6/23_10.odb,Step-1,Increment      1: Step Time =    1.000,"PART-1-1",            92,          -15.,          -10.,            0.,NA,NA,"",   54.7343E-03,   33.6080E-03,   43.2012E-03,   144.592E-06
C:/temp/dataset/6/23_10.odb,Step-1,Increment      1: Step Time =    1.000,"PART-1-1",            93,          -15.,          -20.,            0.,NA,NA,"",   40.3859E-03,   24.4815E-03,   32.1197E-03,   2.55278E-03
C:/temp/dataset/6/23_10.odb,Step-1,Increment      1: Step Time =    1.000,"PART-1-1",            94,          -15.,         -17.5,            0.,NA,NA,"",   47.5374E-03,   29.7362E-03,   37.0886E-03,   1.87550E-03
C:/temp/dataset/6/23_10.odb,Step-1,Increment      1: Step Time =    1.000,"PART-1-1",            95,          -15.,         -27.5,            0.,NA,NA,"",   13.2599E-03,   8.36783E-03,   10.2861E-03,   4.02900E-03
C:/temp/dataset/6/23_10.odb,Step-1,Increment      1: Step Time =    1.000,"PART-1-1",            96,          -15.,          -25.,            0.,NA,NA,"",   22.7367E-03,   13.5634E-03,   18.2481E-03,   3.41402E-03
C:/temp/dataset/6/23_10.odb,Step-1,Increment      1: Step Time =    1.000,"PART-1-1",            97,       13.0047,      -3.80353,            0.,NA,NA,"",   34.5136E-03,  -20.7241E-03,   27.5990E-03,   300.290E-06
C:/temp/dataset/6/23_10.odb,Step-1,Increment      1: Step Time =    1.000,"PART-1-1",            98,       6.97971,      -7.55833,            0.,NA,NA,"",   51.7666E-03,  -28.3763E-03,   43.2963E-03,   4.18544E-03
C:/temp/dataset/6/23_10.odb,Step-1,Increment      1: Step Time =    1.000,"PART-1-1",            99,       6.96639,      -10.0829,            0.,NA,NA,"",   45.8489E-03,  -28.8034E-03,   35.6719E-03,   3.62022E-03
C:/temp/dataset/6/23_10.odb,Step-1,Increment      1: Step Time =    1.000,"PART-1-1",           100,       12.9900,      -12.5465,            0.,NA,NA,"",   41.5775E-03,  -31.6852E-03,   26.9209E-03,   987.283E-06
C:/temp/dataset/6/23_10.odb,Step-1,Increment      1: Step Time =    1.000,"PART-1-1",           101,       6.90028,      -17.1420,            0.,NA,NA,"",   25.2762E-03,  -18.3377E-03,   17.3959E-03,   2.36637E-03
C:/temp/dataset/6/23_10.odb,Step-1,Increment      1: Step Time =    1.000,"PART-1-1",           102,       7.03871,      -19.0570,            0.,NA,NA,"",   19.3224E-03,  -13.4572E-03,   13.8658E-03,   2.25011E-03
C:/temp/dataset/6/23_10.odb,Step-1,Increment      1: Step Time =    1.000,"PART-1-1",           103,       5.31709,      -21.2647,            0.,NA,NA,"",   8.15235E-03,  -5.15239E-03,   6.31772E-03,   1.87685E-03
C:/temp/dataset/6/23_10.odb,Step-1,Increment      1: Step Time =    1.000,"PART-1-1",           104,      -4.83361,      -22.6144,            0.,NA,NA,"",   9.08788E-03,   2.88477E-03,   8.61787E-03,   2.17080E-03
C:/temp/dataset/6/23_10.odb,Step-1,Increment      1: Step Time =    1.000,"PART-1-1",           105,      -7.46484,      -17.6587,            0.,NA,NA,"",   36.2156E-03,   20.1257E-03,   30.1085E-03,   3.68974E-03
C:/temp/dataset/6/23_10.odb,Step-1,Increment      1: Step Time =    1.000,"PART-1-1",           106,      -12.5283,      -27.3245,            0.,NA,NA,"",   9.00493E-03,   5.28298E-03,   7.29239E-03,   3.57230E-03
C:/temp/dataset/6/23_10.odb,Step-1,Increment      1: Step Time =    1.000,"PART-1-1",           107,      -12.4870,      -17.6221,            0.,NA,NA,"",   43.1539E-03,   27.0218E-03,   33.6464E-03,   2.65576E-03
C:/temp/dataset/6/23_10.odb,Step-1,Increment      1: Step Time =    1.000,"PART-1-1",           108,      -7.32043,      -12.6401,            0.,NA,NA,"",   55.4965E-03,   26.7714E-03,   48.6123E-03,   4.58864E-03
C:/temp/dataset/6/23_10.odb,Step-1,Increment      1: Step Time =    1.000,"PART-1-1",           109,      -7.14644,      -8.03697,            0.,NA,NA,"",   72.3285E-03,   23.7859E-03,   68.3055E-03,   5.72869E-03
C:/temp/dataset/6/23_10.odb,Step-1,Increment      1: Step Time =    1.000,"PART-1-1",           110,      -12.6601,       4.88622,            0.,NA,NA,"",   65.5870E-03,  -28.2122E-03,   59.2092E-03,   309.855E-06
C:/temp/dataset/6/23_10.odb,Step-1,Increment      1: Step Time =    1.000,"PART-1-1",           111,      -13.0978,       12.5399,            0.,NA,NA,"",   91.6107E-03,  -72.1043E-03,   56.5110E-03,   42.1825E-06
C:/temp/dataset/6/23_10.odb,Step-1,Increment      1: Step Time =    1.000,"PART-1-1",           112,      -6.45576,       21.8628,            0.,NA,NA,"",   159.384E-03,  -127.487E-03,   95.6576E-03,   249.916E-09
C:/temp/dataset/6/23_10.odb,Step-1,Increment      1: Step Time =    1.000,"PART-1-1",           113,      -7.28884,       25.7044,            0.,NA,NA,"",   175.451E-03,  -150.214E-03,   90.6590E-03,   185.289E-09
C:/temp/dataset/6/23_10.odb,Step-1,Increment      1: Step Time =    1.000,"PART-1-1",           114,      -9.90518,       27.6474,            0.,NA,NA,"",   178.277E-03,  -161.670E-03,   75.1364E-03,   91.4145E-09
C:/temp/dataset/6/23_10.odb,Step-1,Increment      1: Step Time =    1.000,"PART-1-1",           115,      -3.01211,      -3.13168,            0.,NA,NA,"",   139.206E-03,  -6.73024E-03,   139.043E-03,   9.60525E-03
C:/temp/dataset/6/23_10.odb,Step-1,Increment      1: Step Time =    1.000,"PART-1-1",           116,      -2.19169,       3.00836,            0.,NA,NA,"",   118.871E-03,  -3.96013E-03,   118.805E-03,   3.99068E-03
C:/temp/dataset/6/23_10.odb,Step-1,Increment      1: Step Time =    1.000,"PART-1-1",           117,       1.85193,      -2.77696,            0.,NA,NA,"",   108.303E-03,  -4.83631E-03,   108.195E-03,   5.39205E-03
C:/temp/dataset/6/23_10.odb,Step-1,Increment      1: Step Time =    1.000,"PART-1-1",           118,       2.83229,       2.22691,            0.,NA,NA,"",   98.1618E-03,   8.63284E-03,   97.7814E-03,   3.85029E-03
C:/temp/dataset/6/23_10.odb,Step-1,Increment      1: Step Time =    1.000,"PART-1-1",           119,       7.74921,       3.07964,            0.,NA,NA,"",   60.3796E-03,   15.5364E-03,   58.3466E-03,   934.165E-06
C:/temp/dataset/6/23_10.odb,Step-1,Increment      1: Step Time =    1.000,"PART-1-1",           120,      -2.47342,      -22.6017,            0.,NA,NA,"",   3.25204E-03,   1.09235E-03,   3.06309E-03,   681.470E-06
C:/temp/dataset/6/23_10.odb,Step-1,Increment      1: Step Time =    1.000,"PART-1-1",           121,      -7.48266,       20.3798,            0.,NA,NA,"",   148.716E-03,  -118.691E-03,   89.6051E-03,   513.159E-09
C:/temp/dataset/6/23_10.odb,Step-1,Increment      1: Step Time =    1.000,"PART-1-1",           122,      -7.10993,       13.1351,            0.,NA,NA,"",   119.200E-03,  -75.8725E-03,   91.9351E-03,   39.2088E-06
C:/temp/dataset/6/23_10.odb,Step-1,Increment      1: Step Time =    1.000,"PART-1-1",           123,      -6.64156,       6.82435,            0.,NA,NA,"",   102.182E-03,  -37.9021E-03,   94.8928E-03,   540.709E-06
C:/temp/dataset/6/23_10.odb,Step-1,Increment      1: Step Time =    1.000,"PART-1-1",           124,      -12.9641,      -2.37512,            0.,NA,NA,"",   54.3590E-03,   6.58647E-03,   53.9585E-03,   1.06488E-03
C:/temp/dataset/6/23_10.odb,Step-1,Increment      1: Step Time =    1.000,"PART-1-1",           125,      -12.1317,      -9.84573,            0.,NA,NA,"",   58.1931E-03,   32.2954E-03,   48.4091E-03,   1.79063E-03
C:/temp/dataset/6/23_10.odb,Step-1,Increment      1: Step Time =    1.000,"PART-1-1",           126,       4.04132,      -2.67712,            0.,NA,NA,"",   83.8819E-03,  -7.72136E-03,   83.5258E-03,   4.84700E-03
C:/temp/dataset/6/23_10.odb,Step-1,Increment      1: Step Time =    1.000,"PART-1-1",           127,       6.95362,      -12.5367,            0.,NA,NA,"",   39.1583E-03,  -26.8757E-03,   28.4793E-03,   3.09875E-03
C:/temp/dataset/6/23_10.odb,Step-1,Increment      1: Step Time =    1.000,"PART-1-1",           128,       6.92458,      -14.9216,            0.,NA,NA,"",   32.1841E-03,  -23.1158E-03,   22.3937E-03,   2.75123E-03
C:/temp/dataset/6/23_10.odb,Step-1,Increment      1: Step Time =    1.000,"PART-1-1",           129,       12.9089,      -21.3671,            0.,NA,NA,"",   21.3983E-03,  -13.7463E-03,   16.3989E-03,   1.99465E-03
C:/temp/dataset/6/23_10.odb,Step-1,Increment      1: Step Time =    1.000,"PART-1-1",           130,   283.131E-03,      -22.8786,            0.,NA,NA,"",   789.150E-06,  -415.129E-06,   671.138E-06,   427.866E-06
C:/temp/dataset/6/23_10.odb,Step-1,Increment      1: Step Time =    1.000,"PART-1-1",           131,      -12.9776,      -22.4214,            0.,NA,NA,"",   27.5407E-03,   16.2142E-03,   22.2618E-03,   3.13372E-03
C:/temp/dataset/6/23_10.odb,Step-1,Increment      1: Step Time =    1.000,"PART-1-1",           132,      -7.42030,      -15.1083,            0.,NA,NA,"",   46.0998E-03,   24.6321E-03,   38.9673E-03,   4.25144E-03
C:/temp/dataset/6/23_10.odb,Step-1,Increment      1: Step Time =    1.000,"PART-1-1",           133,      -7.18486,      -10.2642,            0.,NA,NA,"",   64.6193E-03,   26.4476E-03,   58.9591E-03,   5.07330E-03
C:/temp/dataset/6/23_10.odb,Step-1,Increment      1: Step Time =    1.000,"PART-1-1",           134,      -7.33974,      -5.93881,            0.,NA,NA,"",   78.1346E-03,   17.9360E-03,   76.0482E-03,   3.52157E-03
C:/temp/dataset/6/23_10.odb,Step-1,Increment      1: Step Time =    1.000,"PART-1-1",           135,  -533.729E-03,      -2.94296,            0.,NA,NA,"",   134.559E-03,  -3.52590E-03,   134.512E-03,   7.67207E-03
C:/temp/dataset/6/23_10.odb,Step-1,Increment      1: Step Time =    1.000,"PART-1-1",           136,       10.2172,      -28.0250,            0.,NA,NA,"",   2.60460E-03,  -1.07283E-03,   2.37339E-03,   1.58373E-03
C:/temp/dataset/6/23_10.odb,Step-1,Increment      1: Step Time =    1.000,"PART-1-1",           137,       7.82196,      -28.0777,            0.,NA,NA,"",   1.62110E-03,  -304.226E-06,   1.59230E-03,   1.05870E-03
C:/temp/dataset/6/23_10.odb,Step-1,Increment      1: Step Time =    1.000,"PART-1-1",           138,       5.43540,      -28.0544,            0.,NA,NA,"",   932.345E-06,   36.3602E-06,   931.635E-06,   601.793E-06
C:/temp/dataset/6/23_10.odb,Step-1,Increment      1: Step Time =    1.000,"PART-1-1",           139,       2.98405,      -27.8165,            0.,NA,NA,"",   448.899E-06,  -101.262E-06,   437.328E-06,   309.818E-06
C:/temp/dataset/6/23_10.odb,Step-1,Increment      1: Step Time =    1.000,"PART-1-1",           140,   324.250E-03,      -27.0908,            0.,NA,NA,"",   738.998E-06,  -658.890E-06,   334.637E-06,   344.382E-06
C:/temp/dataset/6/23_10.odb,Step-1,Increment      1: Step Time =    1.000,"PART-1-1",           141,      -2.46293,      -27.5198,            0.,NA,NA,"",   1.43981E-03,  -997.259E-06,   1.03853E-03,   625.312E-06
C:/temp/dataset/6/23_10.odb,Step-1,Increment      1: Step Time =    1.000,"PART-1-1",           142,      -4.88996,      -27.5861,            0.,NA,NA,"",   2.34554E-03,  -761.151E-06,   2.21860E-03,   1.20508E-03
C:/temp/dataset/6/23_10.odb,Step-1,Increment      1: Step Time =    1.000,"PART-1-1",           143,      -7.26500,      -27.4866,            0.,NA,NA,"",   3.69289E-03,   278.443E-06,   3.68238E-03,   1.91380E-03
C:/temp/dataset/6/23_10.odb,Step-1,Increment      1: Step Time =    1.000,"PART-1-1",           144,      -9.86695,      -26.8928,            0.,NA,NA,"",   7.00055E-03,   2.89093E-03,   6.37575E-03,   2.77527E-03
C:/temp/dataset/6/23_10.odb,Step-1,Increment      1: Step Time =    1.000,"PART-1-1",           145,       12.7710,      -23.5898,            0.,NA,NA,"",   15.2988E-03,  -9.26405E-03,   12.1750E-03,   2.13121E-03
C:/temp/dataset/6/23_10.odb,Step-1,Increment      1: Step Time =    1.000,"PART-1-1",           146,       12.6989,      -25.7990,            0.,NA,NA,"",   9.57236E-03,  -5.61964E-03,   7.74918E-03,   2.28164E-03
C:/temp/dataset/6/23_10.odb,Step-1,Increment      1: Step Time =    1.000,"PART-1-1",           147,       12.6207,      -27.9366,            0.,NA,NA,"",   4.47447E-03,  -2.62409E-03,   3.62423E-03,   2.31244E-03
C:/temp/dataset/6/23_10.odb,Step-1,Increment      1: Step Time =    1.000,"PART-1-1",           148,       12.9983,      -14.8223,            0.,NA,NA,"",   37.8879E-03,  -28.2501E-03,   25.2473E-03,   1.25538E-03
C:/temp/dataset/6/23_10.odb,Step-1,Increment      1: Step Time =    1.000,"PART-1-1",           149,       13.0558,      -17.0719,            0.,NA,NA,"",   32.9514E-03,  -23.6371E-03,   22.9583E-03,   1.52261E-03
C:/temp/dataset/6/23_10.odb,Step-1,Increment      1: Step Time =    1.000,"PART-1-1",           150,       13.1682,      -19.2108,            0.,NA,NA,"",   27.6277E-03,  -18.7980E-03,   20.2466E-03,   1.76311E-03
C:/temp/dataset/6/23_10.odb,Step-1,Increment      1: Step Time =    1.000,"PART-1-1",           151,       13.0670,      -5.94273,            0.,NA,NA,"",   39.3778E-03,  -27.8832E-03,   27.8053E-03,   218.397E-06
C:/temp/dataset/6/23_10.odb,Step-1,Increment      1: Step Time =    1.000,"PART-1-1",           152,       13.0350,      -8.09399,            0.,NA,NA,"",   42.6059E-03,  -32.0111E-03,   28.1167E-03,   433.321E-06
C:/temp/dataset/6/23_10.odb,Step-1,Increment      1: Step Time =    1.000,"PART-1-1",           153,       12.9982,      -10.2981,            0.,NA,NA,"",   43.3123E-03,  -33.1452E-03,   27.8810E-03,   727.354E-06
C:/temp/dataset/6/23_10.odb,Step-1,Increment      1: Step Time =    1.000,"PART-1-1",           154,       12.5107,   556.281E-03,            0.,NA,NA,"",   29.6117E-03,   693.376E-06,   29.6035E-03,   385.295E-06
C:/temp/dataset/6/23_10.odb,Step-1,Increment      1: Step Time =    1.000,"PART-1-1",           155,       12.7702,      -1.64554,            0.,NA,NA,"",   30.3731E-03,  -10.9563E-03,   28.3282E-03,   384.674E-06
C:/temp/dataset/6/23_10.odb,Step-1,Increment      1: Step Time =    1.000,"PART-1-1",           156,       10.0517,       2.85834,            0.,NA,NA,"",   45.6244E-03,   14.0501E-03,   43.4072E-03,   200.610E-06
C:/temp/dataset/6/23_10.odb,Step-1,Increment      1: Step Time =    1.000,"PART-1-1",           157,       5.39286,       2.85476,            0.,NA,NA,"",   77.5892E-03,   13.6899E-03,   76.3719E-03,   2.37570E-03
C:/temp/dataset/6/23_10.odb,Step-1,Increment      1: Step Time =    1.000,"PART-1-1",           158,   175.602E-03,       2.90951,            0.,NA,NA,"",   114.276E-03,   4.09166E-03,   114.203E-03,   4.03288E-03
C:/temp/dataset/6/23_10.odb,Step-1,Increment      1: Step Time =    1.000,"PART-1-1",           159,      -4.35394,       2.91920,            0.,NA,NA,"",   113.436E-03,  -10.8981E-03,   112.911E-03,   3.75916E-03
C:/temp/dataset/6/23_10.odb,Step-1,Increment      1: Step Time =    1.000,"PART-1-1",           160,      -7.05997,       10.9599,            0.,NA,NA,"",   111.734E-03,  -63.0316E-03,   92.2576E-03,   82.8672E-06
C:/temp/dataset/6/23_10.odb,Step-1,Increment      1: Step Time =    1.000,"PART-1-1",           161,      -6.93805,       8.84105,            0.,NA,NA,"",   105.780E-03,  -50.3878E-03,   93.0082E-03,   119.925E-06
C:/temp/dataset/6/23_10.odb,Step-1,Increment      1: Step Time =    1.000,"PART-1-1",           162,      -7.28921,       17.6445,            0.,NA,NA,"",   136.940E-03,  -102.510E-03,   90.7978E-03,   4.37649E-06
C:/temp/dataset/6/23_10.odb,Step-1,Increment      1: Step Time =    1.000,"PART-1-1",           163,      -7.17735,       15.3234,            0.,NA,NA,"",   127.499E-03,  -88.7915E-03,   91.4992E-03,   15.8673E-06
C:/temp/dataset/6/23_10.odb,Step-1,Increment      1: Step Time =    1.000,"PART-1-1",           164,      -6.93557,       23.5874,            0.,NA,NA,"",   166.034E-03,  -137.687E-03,   92.7873E-03,   239.870E-09
C:/temp/dataset/6/23_10.odb,Step-1,Increment      1: Step Time =    1.000,"PART-1-1",           165,      -13.1925,       19.7530,            0.,NA,NA,"",   127.716E-03,  -114.875E-03,   55.8130E-03,   637.123E-09
C:/temp/dataset/6/23_10.odb,Step-1,Increment      1: Step Time =    1.000,"PART-1-1",           166,      -7.44963,       27.8335,            0.,NA,NA,"",   185.875E-03,  -162.815E-03,   89.6698E-03,   100.047E-09
C:/temp/dataset/6/23_10.odb,Step-1,Increment      1: Step Time =    1.000,"PART-1-1",           167,      -13.0424,       22.0734,            0.,NA,NA,"",   140.545E-03,  -128.617E-03,   56.6611E-03,   229.338E-09
C:/temp/dataset/6/23_10.odb,Step-1,Increment      1: Step Time =    1.000,"PART-1-1",           168,      -13.1316,       14.9813,            0.,NA,NA,"",   103.266E-03,  -86.5949E-03,   56.2602E-03,   16.4674E-06
C:/temp/dataset/6/23_10.odb,Step-1,Increment      1: Step Time =    1.000,"PART-1-1",           169,      -13.1727,       17.3972,            0.,NA,NA,"",   115.402E-03,  -100.919E-03,   55.9721E-03,   4.38540E-06
C:/temp/dataset/6/23_10.odb,Step-1,Increment      1: Step Time =    1.000,"PART-1-1",           170,      -12.8574,       7.53984,            0.,NA,NA,"",   72.1035E-03,  -42.7663E-03,   58.0514E-03,   50.3022E-06
C:/temp/dataset/6/23_10.odb,Step-1,Increment      1: Step Time =    1.000,"PART-1-1",           171,      -13.0166,       10.0884,            0.,NA,NA,"",   81.0617E-03,  -57.5882E-03,   57.0491E-03,   73.8529E-06
C:/temp/dataset/6/23_10.odb,Step-1,Increment      1: Step Time =    1.000,"PART-1-1",           172,      -12.8045,  -118.323E-03,            0.,NA,NA,"",   56.8788E-03,  -4.12192E-03,   56.7292E-03,   918.856E-06
C:/temp/dataset/6/23_10.odb,Step-1,Increment      1: Step Time =    1.000,"PART-1-1",           173,      -12.7039,       2.28772,            0.,NA,NA,"",   60.5490E-03,  -15.3324E-03,   58.5755E-03,   720.384E-06
C:/temp/dataset/6/23_10.odb,Step-1,Increment      1: Step Time =    1.000,"PART-1-1",           174,      -12.8488,      -7.31355,            0.,NA,NA,"",   56.6343E-03,   27.2082E-03,   49.6705E-03,   1.13535E-03
C:/temp/dataset/6/23_10.odb,Step-1,Increment      1: Step Time =    1.000,"PART-1-1",           175,      -12.6051,      -4.81291,            0.,NA,NA,"",   55.9376E-03,   17.6681E-03,   53.0740E-03,   1.22299E-03
C:/temp/dataset/6/23_10.odb,Step-1,Increment      1: Step Time =    1.000,"PART-1-1",           176,      -12.4260,      -15.0682,            0.,NA,NA,"",   50.1639E-03,   31.5780E-03,   38.9776E-03,   2.36863E-03
C:/temp/dataset/6/23_10.odb,Step-1,Increment      1: Step Time =    1.000,"PART-1-1",           177,      -12.3344,      -12.5112,            0.,NA,NA,"",   55.2263E-03,   33.7015E-03,   43.7511E-03,   2.10486E-03
C:/temp/dataset/6/23_10.odb,Step-1,Increment      1: Step Time =    1.000,"PART-1-1",           178,      -12.6598,      -20.1148,            0.,NA,NA,"",   35.1577E-03,   21.3809E-03,   27.9092E-03,   2.92064E-03
C:/temp/dataset/6/23_10.odb,Step-1,Increment      1: Step Time =    1.000,"PART-1-1",           179,      -8.70618,       22.9331,            0.,NA,NA,"",   157.080E-03,  -133.783E-03,   82.3175E-03,   246.654E-09
C:/temp/dataset/6/23_10.odb,Step-1,Increment      1: Step Time =    1.000,"PART-1-1",           180,      -9.21222,       15.1634,            0.,NA,NA,"",   118.392E-03,  -87.7885E-03,   79.4349E-03,   19.8231E-06
C:/temp/dataset/6/23_10.odb,Step-1,Increment      1: Step Time =    1.000,"PART-1-1",           181,      -9.55138,       19.8926,            0.,NA,NA,"",   139.241E-03,  -115.769E-03,   77.3671E-03,   1.22699E-06
C:/temp/dataset/6/23_10.odb,Step-1,Increment      1: Step Time =    1.000,"PART-1-1",           182,      -8.92203,       8.32966,            0.,NA,NA,"",   93.7339E-03,  -47.2277E-03,   80.9666E-03,   125.344E-06
C:/temp/dataset/6/23_10.odb,Step-1,Increment      1: Step Time =    1.000,"PART-1-1",           183,      -9.17670,       12.8809,            0.,NA,NA,"",   108.903E-03,  -74.2859E-03,   79.6328E-03,   48.9745E-06
C:/temp/dataset/6/23_10.odb,Step-1,Increment      1: Step Time =    1.000,"PART-1-1",           184,      -9.09923,       10.6117,            0.,NA,NA,"",   100.532E-03,  -60.8491E-03,   80.0260E-03,   92.6001E-06
C:/temp/dataset/6/23_10.odb,Step-1,Increment      1: Step Time =    1.000,"PART-1-1",           185,      -9.30530,       17.5014,            0.,NA,NA,"",   128.630E-03,  -101.620E-03,   78.8610E-03,   6.05212E-06
C:/temp/dataset/6/23_10.odb,Step-1,Increment      1: Step Time =    1.000,"PART-1-1",           186,      -8.37864,       6.17865,            0.,NA,NA,"",   91.0403E-03,  -34.2116E-03,   84.3677E-03,   590.733E-06
C:/temp/dataset/6/23_10.odb,Step-1,Increment      1: Step Time =    1.000,"PART-1-1",           187,       10.9988,      -10.2527,            0.,NA,NA,"",   44.3276E-03,  -32.5437E-03,   30.0973E-03,   1.61652E-03
C:/temp/dataset/6/23_10.odb,Step-1,Increment      1: Step Time =    1.000,"PART-1-1",           188,       10.8643,      -17.5211,            0.,NA,NA,"",   29.2733E-03,  -21.0432E-03,   20.3497E-03,   2.03396E-03
C:/temp/dataset/6/23_10.odb,Step-1,Increment      1: Step Time =    1.000,"PART-1-1",           189,       11.0508,      -8.01555,            0.,NA,NA,"",   45.1929E-03,  -31.7026E-03,   32.2078E-03,   1.21776E-03
C:/temp/dataset/6/23_10.odb,Step-1,Increment      1: Step Time =    1.000,"PART-1-1",           190,       10.6332,      -2.00908,            0.,NA,NA,"",   39.8461E-03,  -12.4261E-03,   37.8590E-03,   826.926E-06
C:/temp/dataset/6/23_10.odb,Step-1,Increment      1: Step Time =    1.000,"PART-1-1",           191,       11.1668,      -5.92645,            0.,NA,NA,"",   43.4822E-03,  -27.8976E-03,   33.3531E-03,   729.826E-06
C:/temp/dataset/6/23_10.odb,Step-1,Increment      1: Step Time =    1.000,"PART-1-1",           192,       10.9732,      -14.9280,            0.,NA,NA,"",   36.1754E-03,  -26.8958E-03,   24.1925E-03,   1.90051E-03
C:/temp/dataset/6/23_10.odb,Step-1,Increment      1: Step Time =    1.000,"PART-1-1",           193,       10.5476,      -23.6927,            0.,NA,NA,"",   11.7705E-03,  -6.90453E-03,   9.53273E-03,   2.04752E-03
C:/temp/dataset/6/23_10.odb,Step-1,Increment      1: Step Time =    1.000,"PART-1-1",           194,       10.5707,      -21.1850,            0.,NA,NA,"",   18.3733E-03,  -11.9031E-03,   13.9961E-03,   2.15792E-03
C:/temp/dataset/6/23_10.odb,Step-1,Increment      1: Step Time =    1.000,"PART-1-1",           195,       10.9760,      -12.5622,            0.,NA,NA,"",   41.1632E-03,  -30.7611E-03,   27.3525E-03,   1.80009E-03
C:/temp/dataset/6/23_10.odb,Step-1,Increment      1: Step Time =    1.000,"PART-1-1",           196,       11.6229,      -19.2502,            0.,NA,NA,"",   25.3302E-03,  -17.4603E-03,   18.3510E-03,   1.99087E-03
C:/temp/dataset/6/23_10.odb,Step-1,Increment      1: Step Time =    1.000,"PART-1-1",           197,       11.1609,      -3.97100,            0.,NA,NA,"",   40.5203E-03,  -21.3759E-03,   34.4233E-03,   643.367E-06
C:/temp/dataset/6/23_10.odb,Step-1,Increment      1: Step Time =    1.000,"PART-1-1",           198,      -9.55101,       25.2781,            0.,NA,NA,"",   166.649E-03,  -147.650E-03,   77.2748E-03,   200.301E-09
C:/temp/dataset/6/23_10.odb,Step-1,Increment      1: Step Time =    1.000,"PART-1-1",           199,      -6.13353,       2.97524,            0.,NA,NA,"",   102.776E-03,  -14.8862E-03,   101.692E-03,   3.72101E-03
C:/temp/dataset/6/23_10.odb,Step-1,Increment      1: Step Time =    1.000,"PART-1-1",           200,       8.52809,      -18.5145,            0.,NA,NA,"",   23.4337E-03,  -16.4313E-03,   16.7078E-03,   2.27110E-03
C:/temp/dataset/6/23_10.odb,Step-1,Increment      1: Step Time =    1.000,"PART-1-1",           201,      -9.31256,      -6.57829,            0.,NA,NA,"",   67.7827E-03,   22.6351E-03,   63.8917E-03,   2.74593E-03
C:/temp/dataset/6/23_10.odb,Step-1,Increment      1: Step Time =    1.000,"PART-1-1",           202,      -7.82061,      -4.24854,            0.,NA,NA,"",   78.4976E-03,   9.20510E-03,   77.9560E-03,   3.93762E-03
C:/temp/dataset/6/23_10.odb,Step-1,Increment      1: Step Time =    1.000,"PART-1-1",           203,       7.55002,      -20.4955,            0.,NA,NA,"",   15.6345E-03,  -10.0782E-03,   11.9527E-03,   2.42317E-03
C:/temp/dataset/6/23_10.odb,Step-1,Increment      1: Step Time =    1.000,"PART-1-1",           204,      -9.18944,      -8.43706,            0.,NA,NA,"",   65.7254E-03,   27.6720E-03,   59.6162E-03,   3.12730E-03
C:/temp/dataset/6/23_10.odb,Step-1,Increment      1: Step Time =    1.000,"PART-1-1",           205,      -12.3720,       27.4312,            0.,NA,NA,"",   171.395E-03,  -160.348E-03,   60.5366E-03,   115.629E-09
C:/temp/dataset/6/23_10.odb,Step-1,Increment      1: Step Time =    1.000,"PART-1-1",           206,      -10.3791,       22.2070,            0.,NA,NA,"",   148.338E-03,  -129.455E-03,   72.4268E-03,   269.684E-09
C:/temp/dataset/6/23_10.odb,Step-1,Increment      1: Step Time =    1.000,"PART-1-1",           207,       3.40286,  -884.176E-03,            0.,NA,NA,"",   92.5473E-03,   435.195E-06,   92.5463E-03,   4.89763E-03
C:/temp/dataset/6/23_10.odb,Step-1,Increment      1: Step Time =    1.000,"PART-1-1",           208,       7.88020,       1.44192,            0.,NA,NA,"",   57.2341E-03,   6.73426E-03,   56.8365E-03,   1.42454E-03
C:/temp/dataset/6/23_10.odb,Step-1,Increment      1: Step Time =    1.000,"PART-1-1",           209,      -1.17287,  -897.893E-03,            0.,NA,NA,"",   128.837E-03,  -2.62138E-03,   128.810E-03,   5.10688E-03
C:/temp/dataset/6/23_10.odb,Step-1,Increment      1: Step Time =    1.000,"PART-1-1",           210,       10.4014,      -25.9274,            0.,NA,NA,"",   6.56564E-03,  -3.43968E-03,   5.59251E-03,   1.84494E-03
C:/temp/dataset/6/23_10.odb,Step-1,Increment      1: Step Time =    1.000,"PART-1-1",           211,       2.00108,      -24.8239,            0.,NA,NA,"",   860.568E-06,  -677.000E-06,   531.270E-06,   113.623E-06
C:/temp/dataset/6/23_10.odb,Step-1,Increment      1: Step Time =    1.000,"PART-1-1",           212,      -4.80900,      -25.1606,            0.,NA,NA,"",   4.92329E-03,   205.964E-06,   4.91898E-03,   1.46776E-03
C:/temp/dataset/6/23_10.odb,Step-1,Increment      1: Step Time =    1.000,"PART-1-1",           213,      -11.5765,       21.3848,            0.,NA,NA,"",   140.669E-03,  -124.566E-03,   65.3524E-03,   312.140E-09
C:/temp/dataset/6/23_10.odb,Step-1,Increment      1: Step Time =    1.000,"PART-1-1",           214,      -11.0630,       10.3038,            0.,NA,NA,"",   90.3017E-03,  -58.9246E-03,   68.4272E-03,   84.9675E-06
C:/temp/dataset/6/23_10.odb,Step-1,Increment      1: Step Time =    1.000,"PART-1-1",           215,      -10.2832,  -591.021E-03,            0.,NA,NA,"",   70.8814E-03,  -3.83756E-03,   70.7775E-03,   2.14681E-03
C:/temp/dataset/6/23_10.odb,Step-1,Increment      1: Step Time =    1.000,"PART-1-1",           216,      -11.1869,      -5.64306,            0.,NA,NA,"",   61.1242E-03,   20.3090E-03,   57.6516E-03,   1.78336E-03
C:/temp/dataset/6/23_10.odb,Step-1,Increment      1: Step Time =    1.000,"PART-1-1",           217,      -9.48237,      -10.3825,            0.,NA,NA,"",   61.2782E-03,   30.3359E-03,   53.2424E-03,   3.37398E-03
C:/temp/dataset/6/23_10.odb,Step-1,Increment      1: Step Time =    1.000,"PART-1-1",           218,      -10.0191,      -20.7277,            0.,NA,NA,"",   28.4562E-03,   16.0983E-03,   23.4648E-03,   3.39113E-03
C:/temp/dataset/6/23_10.odb,Step-1,Increment      1: Step Time =    1.000,"PART-1-1",           219,      -12.8377,      -24.8331,            0.,NA,NA,"",   18.4040E-03,   10.6475E-03,   15.0112E-03,   3.43618E-03
C:/temp/dataset/6/23_10.odb,Step-1,Increment      1: Step Time =    1.000,"PART-1-1",           220,  -752.185E-03,      -25.0561,            0.,NA,NA,"",   1.08835E-03,  -739.900E-06,   798.159E-06,   237.700E-06
C:/temp/dataset/6/23_10.odb,Step-1,Increment      1: Step Time =    1.000,"PART-1-1",           221,      -11.3411,      -22.5061,            0.,NA,NA,"",   24.0831E-03,   13.6095E-03,   19.8689E-03,   3.26424E-03
C:/temp/dataset/6/23_10.odb,Step-1,Increment      1: Step Time =    1.000,"PART-1-1",           222,       5.90860,      -26.1342,            0.,NA,NA,"",   2.42893E-03,  -754.238E-06,   2.30886E-03,   809.583E-06
C:/temp/dataset/6/23_10.odb,Step-1,Increment      1: Step Time =    1.000,"PART-1-1",           223,       3.81352,      -25.8758,            0.,NA,NA,"",   1.24127E-03,  -481.388E-06,   1.14412E-03,   372.865E-06
C:/temp/dataset/6/23_10.odb,Step-1,Increment      1: Step Time =    1.000,"PART-1-1",           224,      -6.87266,      -25.1947,            0.,NA,NA,"",   7.84505E-03,   1.97051E-03,   7.59354E-03,   2.26557E-03
C:/temp/dataset/6/23_10.odb,Step-1,Increment      1: Step Time =    1.000,"PART-1-1",           225,       9.77381,   336.875E-03,            0.,NA,NA,"",   44.0403E-03,   113.595E-06,   44.0401E-03,   795.635E-06
C:/temp/dataset/6/23_10.odb,Step-1,Increment      1: Step Time =    1.000,"PART-1-1",           226,       4.59800,   29.7464E-03,            0.,NA,NA,"",   81.9845E-03,   2.42718E-03,   81.9485E-03,   4.05685E-03
C:/temp/dataset/6/23_10.odb,Step-1,Increment      1: Step Time =    1.000,"PART-1-1",           227,      -11.1551,       12.6912,            0.,NA,NA,"",   99.7671E-03,  -73.0668E-03,   67.9317E-03,   48.8326E-06
C:/temp/dataset/6/23_10.odb,Step-1,Increment      1: Step Time =    1.000,"PART-1-1",           228,      -11.2689,       17.3859,            0.,NA,NA,"",   121.244E-03,  -100.892E-03,   67.2390E-03,   6.27266E-06
C:/temp/dataset/6/23_10.odb,Step-1,Increment      1: Step Time =    1.000,"PART-1-1",           229,      -11.2102,       15.0558,            0.,NA,NA,"",   110.251E-03,  -87.0860E-03,   67.6114E-03,   19.8517E-06
C:/temp/dataset/6/23_10.odb,Step-1,Increment      1: Step Time =    1.000,"PART-1-1",           230,      -10.8139,       7.79620,            0.,NA,NA,"",   82.6334E-03,  -44.2010E-03,   69.8180E-03,   96.2293E-06
C:/temp/dataset/6/23_10.odb,Step-1,Increment      1: Step Time =    1.000,"PART-1-1",           231,      -10.1648,       4.85487,            0.,NA,NA,"",   78.8866E-03,  -27.6581E-03,   73.8791E-03,   686.383E-06
C:/temp/dataset/6/23_10.odb,Step-1,Increment      1: Step Time =    1.000,"PART-1-1",           232,      -10.4473,       2.01195,            0.,NA,NA,"",   73.4142E-03,  -14.4491E-03,   71.9782E-03,   1.49221E-03
C:/temp/dataset/6/23_10.odb,Step-1,Increment      1: Step Time =    1.000,"PART-1-1",           233,      -10.4810,      -3.59789,            0.,NA,NA,"",   65.1821E-03,   10.2724E-03,   64.3676E-03,   2.22002E-03
C:/temp/dataset/6/23_10.odb,Step-1,Increment      1: Step Time =    1.000,"PART-1-1",           234,      -9.89141,      -15.1395,            0.,NA,NA,"",   48.3154E-03,   28.5363E-03,   38.9879E-03,   3.31394E-03
C:/temp/dataset/6/23_10.odb,Step-1,Increment      1: Step Time =    1.000,"PART-1-1",           235,      -9.95744,      -17.7636,            0.,NA,NA,"",   39.5128E-03,   23.6029E-03,   31.6886E-03,   3.25962E-03
C:/temp/dataset/6/23_10.odb,Step-1,Increment      1: Step Time =    1.000,"PART-1-1",           236,      -3.63694,      -1.16253,            0.,NA,NA,"",   125.195E-03,  -8.18740E-03,   124.927E-03,   6.13736E-03
C:/temp/dataset/6/23_10.odb,Step-1,Increment      1: Step Time =    1.000,"PART-1-1",           237,      -7.00580,      -22.7773,            0.,NA,NA,"",   14.7360E-03,   5.85450E-03,   13.5231E-03,   3.18626E-03
C:/temp/dataset/6/23_10.odb,Step-1,Increment      1: Step Time =    1.000,"PART-1-1",           238,       7.08723,      -4.67483,            0.,NA,NA,"",   55.8179E-03,  -22.6873E-03,   50.9992E-03,   2.49379E-03
C:/temp/dataset/6/23_10.odb,Step-1,Increment      1: Step Time =    1.000,"PART-1-1",           239,       8.96532,      -10.1697,            0.,NA,NA,"",   45.4357E-03,  -31.2204E-03,   33.0104E-03,   2.50023E-03
C:/temp/dataset/6/23_10.odb,Step-1,Increment      1: Step Time =    1.000,"PART-1-1",           240,       8.99874,      -7.82238,            0.,NA,NA,"",   48.5453E-03,  -30.7742E-03,   37.5445E-03,   2.31807E-03
C:/temp/dataset/6/23_10.odb,Step-1,Increment      1: Step Time =    1.000,"PART-1-1",           241,       8.96760,      -14.8663,            0.,NA,NA,"",   34.7435E-03,  -25.3908E-03,   23.7154E-03,   2.34359E-03
C:/temp/dataset/6/23_10.odb,Step-1,Increment      1: Step Time =    1.000,"PART-1-1",           242,      -12.0836,       24.5335,            0.,NA,NA,"",   156.161E-03,  -143.198E-03,   62.2949E-03,   241.752E-09
C:/temp/dataset/6/23_10.odb,Step-1,Increment      1: Step Time =    1.000,"PART-1-1",           243,       9.21542,      -5.66363,            0.,NA,NA,"",   48.3203E-03,  -26.9308E-03,   40.1197E-03,   1.64966E-03
C:/temp/dataset/6/23_10.odb,Step-1,Increment      1: Step Time =    1.000,"PART-1-1",           244,       8.72776,      -2.97127,            0.,NA,NA,"",   48.6751E-03,  -16.1080E-03,   45.9326E-03,   1.75413E-03
C:/temp/dataset/6/23_10.odb,Step-1,Increment      1: Step Time =    1.000,"PART-1-1",           245,       9.39471,      -19.4524,            0.,NA,NA,"",   21.7562E-03,  -14.8712E-03,   15.8802E-03,   2.23248E-03
C:/temp/dataset/6/23_10.odb,Step-1,Increment      1: Step Time =    1.000,"PART-1-1",           246,       8.06548,      -22.0810,            0.,NA,NA,"",   12.0688E-03,  -7.19626E-03,   9.68862E-03,   2.12084E-03
C:/temp/dataset/6/23_10.odb,Step-1,Increment      1: Step Time =    1.000,"PART-1-1",           247,      -7.53738,       4.79758,            0.,NA,NA,"",   93.7073E-03,  -25.4742E-03,   90.1783E-03,   1.47310E-03
C:/temp/dataset/6/23_10.odb,Step-1,Increment      1: Step Time =    1.000,"PART-1-1",           248,      -10.8025,      -24.3532,            0.,NA,NA,"",   16.4142E-03,   8.62409E-03,   13.9661E-03,   3.23152E-03
C:/temp/dataset/6/23_10.odb,Step-1,Increment      1: Step Time =    1.000,"PART-1-1",           249,       5.82981,      -2.08643,            0.,NA,NA,"",   67.4288E-03,  -7.75081E-03,   66.9819E-03,   4.21617E-03
C:/temp/dataset/6/23_10.odb,Step-1,Increment      1: Step Time =    1.000,"PART-1-1",           250,      -8.67175,      -2.53401,            0.,NA,NA,"",   77.4196E-03,   2.22848E-03,   77.3875E-03,   3.64336E-03
C:/temp/dataset/6/23_10.odb,Step-1,Increment      1: Step Time =    1.000,"PART-1-1",           251,       5.78686,      -22.7214,            0.,NA,NA,"",   6.42895E-03,  -3.54479E-03,   5.36338E-03,   1.47303E-03
C:/temp/dataset/6/23_10.odb,Step-1,Increment      1: Step Time =    1.000,"PART-1-1",           252,      -8.27594,       1.60152,            0.,NA,NA,"",   87.6820E-03,  -12.9979E-03,   86.7133E-03,   2.79424E-03
C:/temp/dataset/6/23_10.odb,Step-1,Increment      1: Step Time =    1.000,"PART-1-1",           253,       8.25490,      -24.0061,            0.,NA,NA,"",   7.96430E-03,  -4.21867E-03,   6.75522E-03,   1.71827E-03
C:/temp/dataset/6/23_10.odb,Step-1,Increment      1: Step Time =    1.000,"PART-1-1",           254,      -9.04303,      -23.2600,            0.,NA,NA,"",   17.2145E-03,   8.24769E-03,   15.1101E-03,   3.24718E-03
C:/temp/dataset/6/23_10.odb,Step-1,Increment      1: Step Time =    1.000,"PART-1-1",           255,       7.61656,      -1.09448,            0.,NA,NA,"",   55.8945E-03,  -5.72541E-03,   55.6005E-03,   2.27991E-03
C:/temp/dataset/6/23_10.odb,Step-1,Increment      1: Step Time =    1.000,"PART-1-1",           256,      -4.02262,   861.151E-03,            0.,NA,NA,"",   118.242E-03,  -8.60085E-03,   117.929E-03,   4.26173E-03
C:/temp/dataset/6/23_10.odb,Step-1,Increment      1: Step Time =    1.000,"PART-1-1",           257,  -104.141E-03,       1.31276,            0.,NA,NA,"",   118.575E-03,   1.26730E-03,   118.568E-03,   3.86098E-03
C:/temp/dataset/6/23_10.odb,Step-1,Increment      1: Step Time =    1.000,"PART-1-1",           258,       3.72123,      -23.4419,            0.,NA,NA,"",   2.44357E-03,  -1.52258E-03,   1.91123E-03,   594.399E-06
C:/temp/dataset/6/23_10.odb,Step-1,Increment      1: Step Time =    1.000,"PART-1-1",           259,      -10.7950,      -8.39617,            0.,NA,NA,"",   61.5568E-03,   28.8581E-03,   54.3733E-03,   2.26966E-03
C:/temp/dataset/6/23_10.odb,Step-1,Increment      1: Step Time =    1.000,"PART-1-1",           260,      -1.85786,       1.02916,            0.,NA,NA,"",   123.657E-03,  -3.41547E-03,   123.610E-03,   3.49913E-03
C:/temp/dataset/6/23_10.odb,Step-1,Increment      1: Step Time =    1.000,"PART-1-1",           261,      -6.46179,      -1.33856,            0.,NA,NA,"",   99.3265E-03,  -7.22341E-03,   99.0635E-03,   5.64473E-03
C:/temp/dataset/6/23_10.odb,Step-1,Increment      1: Step Time =    1.000,"PART-1-1",           262,      -11.1078,      -7.00587,            0.,NA,NA,"",   61.2846E-03,   25.3373E-03,   55.8016E-03,   1.76759E-03
C:/temp/dataset/6/23_10.odb,Step-1,Increment      1: Step Time =    1.000,"PART-1-1",           263,      -5.52697,      -3.44125,            0.,NA,NA,"",   105.080E-03,  -3.25343E-03,   105.029E-03,   9.50302E-03
C:/temp/dataset/6/23_10.odb,Step-1,Increment      1: Step Time =    1.000,"PART-1-1",           264,      -9.72268,      -4.98378,            0.,NA,NA,"",   67.3517E-03,   16.2426E-03,   65.3638E-03,   2.29987E-03
C:/temp/dataset/6/23_10.odb,Step-1,Increment      1: Step Time =    1.000,"PART-1-1",           265,      -6.27329,       4.89376,            0.,NA,NA,"",   101.045E-03,  -24.0702E-03,   98.1358E-03,   2.44798E-03
C:/temp/dataset/6/23_10.odb,Step-1,Increment      1: Step Time =    1.000,"PART-1-1",           266,       12.4963,       2.80040,            0.,NA,NA,"",   32.6066E-03,   13.4254E-03,   29.7144E-03,   315.258E-06
C:/temp/dataset/6/23_10.odb,Step-1,Increment      1: Step Time =    1.000,"PART-1-1",           267,      -7.37176,      -20.2559,            0.,NA,NA,"",   25.2394E-03,   13.0539E-03,   21.6015E-03,   3.62745E-03
C:/temp/dataset/6/23_10.odb,Step-1,Increment      1: Step Time =    1.000,"PART-1-1",           268,       2.88963,      -21.8777,            0.,NA,NA,"",   2.68652E-03,  -2.10596E-03,   1.66804E-03,   719.046E-06
C:/temp/dataset/6/23_10.odb,Step-1,Increment      1: Step Time =    1.000,"PART-1-1",           269,      -8.05085,       3.52655,            0.,NA,NA,"",   90.0248E-03,  -19.8350E-03,   87.8125E-03,   1.98585E-03
C:/temp/dataset/6/23_10.odb,Step-1,Increment      1: Step Time =    1.000,"PART-1-1",           270,       8.95558,      -12.5395,            0.,NA,NA,"",   40.6040E-03,  -29.1999E-03,   28.2143E-03,   2.47619E-03
C:/temp/dataset/6/23_10.odb,Step-1,Increment      1: Step Time =    1.000,"PART-1-1",           271,       1.35989,  -223.950E-03,            0.,NA,NA,"",   111.780E-03,   2.02198E-03,   111.762E-03,   5.07603E-03
C:/temp/dataset/6/23_10.odb,Step-1,Increment      1: Step Time =    1.000,"PART-1-1",           272,      -9.75004,      -12.6533,            0.,NA,NA,"",   55.5060E-03,   30.8244E-03,   46.1603E-03,   3.38516E-03
C:/temp/dataset/6/23_10.odb,Step-1,Increment      1: Step Time =    1.000,"PART-1-1",           273,      -8.51206,      -25.1011,            0.,NA,NA,"",   10.4481E-03,   4.03948E-03,   9.63563E-03,   2.78758E-03
C:/temp/dataset/6/23_10.odb,Step-1,Increment      1: Step Time =    1.000,"PART-1-1",           274,      -6.19138,   998.181E-03,            0.,NA,NA,"",   103.337E-03,  -10.9696E-03,   102.753E-03,   4.29880E-03
C:/temp/dataset/6/23_10.odb,Step-1,Increment      1: Step Time =    1.000,"PART-1-1",           275,      -2.63339,      -25.0950,            0.,NA,NA,"",   2.35492E-03,  -619.109E-06,   2.27208E-03,   721.252E-06
C:/temp/dataset/6/23_10.odb,Step-1,Increment      1: Step Time =    1.000,"PART-1-1",           276,       8.11811,      -26.0558,            0.,NA,NA,"",   4.26262E-03,  -1.78911E-03,   3.86899E-03,   1.35057E-03
C:/temp/dataset/6/23_10.odb,Step-1,Increment      1: Step Time =    1.000,"PART-1-1",           277,       6.33403,   764.508E-03,            0.,NA,NA,"",   67.9717E-03,   4.22376E-03,   67.8403E-03,   2.68472E-03
C:/temp/dataset/6/23_10.odb,Step-1,Increment      1: Step Time =    1.000,"PART-1-1",           278,       8.84044,      -16.9880,            0.,NA,NA,"",   28.5228E-03,  -20.5891E-03,   19.7393E-03,   2.26364E-03
C:/temp/dataset/6/23_10.odb,Step-1,Increment      1: Step Time =    1.000,"PART-1-1",           279,      -11.3950,       19.6047,            0.,NA,NA,"",   131.982E-03,  -114.030E-03,   66.4575E-03,   1.46463E-06
C:/temp/dataset/6/23_10.odb,Step-1,Increment      1: Step Time =    1.000,"PART-1-1",           280,      -11.2464,      -2.22607,            0.,NA,NA,"",   62.9094E-03,   4.57191E-03,   62.7431E-03,   1.76208E-03
C:/temp/dataset/6/23_10.odb,Step-1,Increment      1: Step Time =    1.000,"PART-1-1",           281,      -8.41776,  -32.7016E-03,            0.,NA,NA,"",   84.8716E-03,  -7.85407E-03,   84.5074E-03,   3.19540E-03
C:/temp/dataset/6/23_10.odb,Step-1,Increment      1: Step Time =    1.000,"PART-1-1",           282,       4.48255,      -24.5345,            0.,NA,NA,"",   2.48412E-03,  -1.19332E-03,   2.17873E-03,   664.729E-06
C:/temp/dataset/6/23_10.odb,Step-1,Increment      1: Step Time =    1.000,"PART-1-1",           283,       6.11275,      -24.3348,            0.,NA,NA,"",   4.55861E-03,  -2.12676E-03,   4.03210E-03,   1.14574E-03
C:/temp/dataset/6/23_10.odb,Step-1,Increment      1: Step Time =    1.000,"PART-1-1",           284,       9.69767,      -4.20039,            0.,NA,NA,"",   45.5962E-03,  -21.9153E-03,   39.9842E-03,   1.26514E-03
C:/temp/dataset/6/23_10.odb,Step-1,Increment      1: Step Time =    1.000,"PART-1-1",           285,       13.8851,      -1.60402,            0.,NA,NA,"",   25.6195E-03,  -10.6499E-03,   23.3011E-03,   482.729E-06
C:/temp/dataset/6/23_10.odb,Step-1,Increment      1: Step Time =    1.000,"PART-1-1",           286,           15.,   -468.75E-03,            0.,NA,NA,"",   17.8510E-03,  -4.58333E-03,   17.2526E-03,   666.132E-06
C:/temp/dataset/6/23_10.odb,Step-1,Increment      1: Step Time =    1.000,"PART-1-1",           287,       13.7553,   590.641E-03,            0.,NA,NA,"",   23.2885E-03,   910.758E-06,   23.2707E-03,   310.022E-06
C:/temp/dataset/6/23_10.odb,Step-1,Increment      1: Step Time =    1.000,"PART-1-1",           288,       12.6405,  -544.629E-03,            0.,NA,NA,"",   29.4153E-03,  -5.28856E-03,   28.9360E-03,   379.677E-06
C:/temp/dataset/6/23_10.odb,Step-1,Increment      1: Step Time =    1.000,"PART-1-1",           289,       6.57104,       2.96720,            0.,NA,NA,"",   68.6156E-03,   14.7396E-03,   67.0137E-03,   1.63343E-03
C:/temp/dataset/6/23_10.odb,Step-1,Increment      1: Step Time =    1.000,"PART-1-1",           290,       5.86345,       1.80964,            0.,NA,NA,"",   72.8830E-03,   8.91385E-03,   72.3359E-03,   2.42147E-03
C:/temp/dataset/6/23_10.odb,Step-1,Increment      1: Step Time =    1.000,"PART-1-1",           291,       7.10711,       1.10321,            0.,NA,NA,"",   62.3679E-03,   5.35277E-03,   62.1377E-03,   2.01775E-03
C:/temp/dataset/6/23_10.odb,Step-1,Increment      1: Step Time =    1.000,"PART-1-1",           292,       7.81470,       2.26078,            0.,NA,NA,"",   58.7448E-03,   11.0224E-03,   57.7014E-03,   1.15581E-03
C:/temp/dataset/6/23_10.odb,Step-1,Increment      1: Step Time =    1.000,"PART-1-1",           293,       6.97305,      -8.82061,            0.,NA,NA,"",   49.0756E-03,  -29.0972E-03,   39.5192E-03,   3.73110E-03
C:/temp/dataset/6/23_10.odb,Step-1,Increment      1: Step Time =    1.000,"PART-1-1",           294,       5.98985,      -7.53541,            0.,NA,NA,"",   53.7209E-03,  -27.2355E-03,   46.3051E-03,   4.69763E-03
C:/temp/dataset/6/23_10.odb,Step-1,Increment      1: Step Time =    1.000,"PART-1-1",           295,            5.,      -8.76875,            0.,NA,NA,"",   48.5766E-03,  -25.1801E-03,   41.5410E-03,   4.92295E-03
C:/temp/dataset/6/23_10.odb,Step-1,Increment      1: Step Time =    1.000,"PART-1-1",           296,       5.98320,      -10.0539,            0.,NA,NA,"",   45.3282E-03,  -27.1901E-03,   36.2677E-03,   3.97000E-03
C:/temp/dataset/6/23_10.odb,Step-1,Increment      1: Step Time =    1.000,"PART-1-1",           297,       12.0429,      -8.05477,            0.,NA,NA,"",   43.8462E-03,  -31.9322E-03,   30.0471E-03,   767.723E-06
C:/temp/dataset/6/23_10.odb,Step-1,Increment      1: Step Time =    1.000,"PART-1-1",           298,       11.0248,      -9.13413,            0.,NA,NA,"",   45.1036E-03,  -32.5242E-03,   31.2491E-03,   1.41246E-03
C:/temp/dataset/6/23_10.odb,Step-1,Increment      1: Step Time =    1.000,"PART-1-1",           299,       11.9985,      -10.2754,            0.,NA,NA,"",   43.8060E-03,  -32.9385E-03,   28.8794E-03,   1.14376E-03
C:/temp/dataset/6/23_10.odb,Step-1,Increment      1: Step Time =    1.000,"PART-1-1",           300,       13.0166,      -9.19606,            0.,NA,NA,"",   43.2764E-03,  -32.9339E-03,   28.0749E-03,   568.512E-06
C:/temp/dataset/6/23_10.odb,Step-1,Increment      1: Step Time =    1.000,"PART-1-1",           301,       13.9992,      -14.7549,            0.,NA,NA,"",   38.8891E-03,  -28.7521E-03,   26.1854E-03,   812.191E-06
C:/temp/dataset/6/23_10.odb,Step-1,Increment      1: Step Time =    1.000,"PART-1-1",           302,       13.0271,      -15.9471,            0.,NA,NA,"",   35.5487E-03,  -26.0527E-03,   24.1861E-03,   1.38461E-03
C:/temp/dataset/6/23_10.odb,Step-1,Increment      1: Step Time =    1.000,"PART-1-1",           303,       14.0279,      -16.9735,            0.,NA,NA,"",   34.4777E-03,  -24.4025E-03,   24.3563E-03,   1.23228E-03
C:/temp/dataset/6/23_10.odb,Step-1,Increment      1: Step Time =    1.000,"PART-1-1",           304,           15.,      -15.7813,            0.,NA,NA,"",   38.3415E-03,  -27.2151E-03,   27.0076E-03,   714.696E-06
C:/temp/dataset/6/23_10.odb,Step-1,Increment      1: Step Time =    1.000,"PART-1-1",           305,       6.96949,      -18.0995,            0.,NA,NA,"",   22.2856E-03,  -15.9408E-03,   15.5737E-03,   2.23181E-03
C:/temp/dataset/6/23_10.odb,Step-1,Increment      1: Step Time =    1.000,"PART-1-1",           306,       5.95014,      -17.3335,            0.,NA,NA,"",   22.8193E-03,  -16.8252E-03,   15.4153E-03,   2.48765E-03
C:/temp/dataset/6/23_10.odb,Step-1,Increment      1: Step Time =    1.000,"PART-1-1",           307,            5.,      -18.7625,            0.,NA,NA,"",   15.8181E-03,  -12.2253E-03,   10.0377E-03,   2.49164E-03
C:/temp/dataset/6/23_10.odb,Step-1,Increment      1: Step Time =    1.000,"PART-1-1",           308,       6.01935,      -19.5285,            0.,NA,NA,"",   15.6942E-03,  -10.9343E-03,   11.2583E-03,   2.18468E-03
C:/temp/dataset/6/23_10.odb,Step-1,Increment      1: Step Time =    1.000,"PART-1-1",           309,       7.66098,      -29.0388,            0.,NA,NA,"",   731.746E-06,   10.4403E-06,   731.671E-06,   969.481E-06
C:/temp/dataset/6/23_10.odb,Step-1,Increment      1: Step Time =    1.000,"PART-1-1",           310,       6.62868,      -28.0660,            0.,NA,NA,"",   1.25733E-03,  -77.3727E-06,   1.25494E-03,   826.634E-06
C:/temp/dataset/6/23_10.odb,Step-1,Increment      1: Step Time =    1.000,"PART-1-1",           311,       5.21770,      -29.0272,            0.,NA,NA,"",   451.984E-06,   135.157E-06,   431.303E-06,   574.527E-06
C:/temp/dataset/6/23_10.odb,Step-1,Increment      1: Step Time =    1.000,"PART-1-1",           312,          6.25,          -30.,            0.,NA,NA,"",            0.,   162.855E-42,   1.38533E-39,   730.546E-06
C:/temp/dataset/6/23_10.odb,Step-1,Increment      1: Step Time =    1.000,"PART-1-1",           313,   162.125E-03,      -28.5454,            0.,NA,NA,"",   516.487E-06,  -449.297E-06,   254.737E-06,   340.132E-06
C:/temp/dataset/6/23_10.odb,Step-1,Increment      1: Step Time =    1.000,"PART-1-1",           314,      -1.06934,      -27.3053,            0.,NA,NA,"",   1.07234E-03,  -888.487E-06,   600.421E-06,   444.969E-06
C:/temp/dataset/6/23_10.odb,Step-1,Increment      1: Step Time =    1.000,"PART-1-1",           315,      -2.48147,      -28.7599,            0.,NA,NA,"",   909.036E-06,  -727.497E-06,   545.063E-06,   690.377E-06
C:/temp/dataset/6/23_10.odb,Step-1,Increment      1: Step Time =    1.000,"PART-1-1",           316,         -1.25,          -30.,            0.,NA,NA,"",            0.,  -407.810E-42,   868.074E-42,   580.573E-06
C:/temp/dataset/6/23_10.odb,Step-1,Increment      1: Step Time =    1.000,"PART-1-1",           317,          -15.,        -21.25,            0.,NA,NA,"",   36.2568E-03,   21.6591E-03,   29.0765E-03,   2.85210E-03
C:/temp/dataset/6/23_10.odb,Step-1,Increment      1: Step Time =    1.000,"PART-1-1",           318,      -13.9888,      -22.4607,            0.,NA,NA,"",   29.5516E-03,   17.5275E-03,   23.7925E-03,   3.12001E-03
C:/temp/dataset/6/23_10.odb,Step-1,Increment      1: Step Time =    1.000,"PART-1-1",           319,      -12.8187,      -21.2681,            0.,NA,NA,"",   31.3682E-03,   18.7577E-03,   25.1419E-03,   3.02470E-03
C:/temp/dataset/6/23_10.odb,Step-1,Increment      1: Step Time =    1.000,"PART-1-1",           320,      -13.8299,      -20.0574,            0.,NA,NA,"",   37.5724E-03,   22.9739E-03,   29.7302E-03,   2.70798E-03
C:/temp/dataset/6/23_10.odb,Step-1,Increment      1: Step Time =    1.000,"PART-1-1",           321,      -12.5142,      -28.6623,            0.,NA,NA,"",   3.94174E-03,   2.24243E-03,   3.24173E-03,   3.13500E-03
C:/temp/dataset/6/23_10.odb,Step-1,Increment      1: Step Time =    1.000,"PART-1-1",           322,        -11.25,          -30.,            0.,NA,NA,"",            0.,   522.948E-42,   4.80294E-39,   2.51246E-03
C:/temp/dataset/6/23_10.odb,Step-1,Increment      1: Step Time =    1.000,"PART-1-1",           323,      -9.93348,      -28.4464,            0.,NA,NA,"",   3.12649E-03,   1.05691E-03,   2.94243E-03,   2.41398E-03
C:/temp/dataset/6/23_10.odb,Step-1,Increment      1: Step Time =    1.000,"PART-1-1",           324,      -11.1976,      -27.1087,            0.,NA,NA,"",   7.82070E-03,   4.00692E-03,   6.71625E-03,   3.14820E-03
C:/temp/dataset/6/23_10.odb,Step-1,Increment      1: Step Time =    1.000,"PART-1-1",           325,      -7.37036,      -13.8742,            0.,NA,NA,"",   50.8272E-03,   25.9832E-03,   43.6839E-03,   4.41803E-03
C:/temp/dataset/6/23_10.odb,Step-1,Increment      1: Step Time =    1.000,"PART-1-1",           326,      -6.21015,      -15.0417,            0.,NA,NA,"",   44.6692E-03,   22.3079E-03,   38.7001E-03,   4.69729E-03
C:/temp/dataset/6/23_10.odb,Step-1,Increment      1: Step Time =    1.000,"PART-1-1",           327,           -5.,      -13.7188,            0.,NA,NA,"",   48.5718E-03,   20.9291E-03,   43.8314E-03,   5.45903E-03
C:/temp/dataset/6/23_10.odb,Step-1,Increment      1: Step Time =    1.000,"PART-1-1",           328,      -6.16021,      -12.5513,            0.,NA,NA,"",   55.3361E-03,   24.3532E-03,   49.6891E-03,   5.15577E-03
C:/temp/dataset/6/23_10.odb,Step-1,Increment      1: Step Time =    1.000,"PART-1-1",           329,      -9.33590,      -9.40979,            0.,NA,NA,"",   63.5069E-03,   29.2042E-03,   56.3936E-03,   3.38810E-03
C:/temp/dataset/6/23_10.odb,Step-1,Increment      1: Step Time =    1.000,"PART-1-1",           330,      -8.33361,      -10.3234,            0.,NA,NA,"",   62.9026E-03,   28.5846E-03,   56.0326E-03,   4.17756E-03
C:/temp/dataset/6/23_10.odb,Step-1,Increment      1: Step Time =    1.000,"PART-1-1",           331,      -7.16565,      -9.15059,            0.,NA,NA,"",   68.6320E-03,   25.6016E-03,   63.6781E-03,   5.19643E-03
C:/temp/dataset/6/23_10.odb,Step-1,Increment      1: Step Time =    1.000,"PART-1-1",           332,      -8.16794,      -8.23701,            0.,NA,NA,"",   69.0129E-03,   25.9827E-03,   63.9349E-03,   4.38187E-03
C:/temp/dataset/6/23_10.odb,Step-1,Increment      1: Step Time =    1.000,"PART-1-1",           333,      -11.1473,      -6.32447,            0.,NA,NA,"",   61.2200E-03,   22.9851E-03,   56.7412E-03,   1.79729E-03
C:/temp/dataset/6/23_10.odb,Step-1,Increment      1: Step Time =    1.000,"PART-1-1",           334,      -10.2102,      -6.79208,            0.,NA,NA,"",   64.2388E-03,   24.0768E-03,   59.5561E-03,   2.31037E-03
C:/temp/dataset/6/23_10.odb,Step-1,Increment      1: Step Time =    1.000,"PART-1-1",           335,      -9.51762,      -5.78103,            0.,NA,NA,"",   67.5423E-03,   19.5202E-03,   64.6601E-03,   2.41628E-03
C:/temp/dataset/6/23_10.odb,Step-1,Increment      1: Step Time =    1.000,"PART-1-1",           336,      -10.4548,      -5.31342,            0.,NA,NA,"",   64.0222E-03,   18.3594E-03,   61.3333E-03,   2.04047E-03
C:/temp/dataset/6/23_10.odb,Step-1,Increment      1: Step Time =    1.000,"PART-1-1",           337,      -5.04937,      -1.25055,            0.,NA,NA,"",   113.329E-03,  -8.79285E-03,   112.987E-03,   5.57497E-03
C:/temp/dataset/6/23_10.odb,Step-1,Increment      1: Step Time =    1.000,"PART-1-1",           338,      -3.82978,  -150.691E-03,            0.,NA,NA,"",   121.263E-03,  -8.26337E-03,   120.981E-03,   5.06800E-03
C:/temp/dataset/6/23_10.odb,Step-1,Increment      1: Step Time =    1.000,"PART-1-1",           339,      -5.10700,   929.666E-03,            0.,NA,NA,"",   111.379E-03,  -10.0414E-03,   110.926E-03,   4.20305E-03
C:/temp/dataset/6/23_10.odb,Step-1,Increment      1: Step Time =    1.000,"PART-1-1",           340,      -6.32658,  -170.190E-03,            0.,NA,NA,"",   101.963E-03,  -9.31559E-03,   101.537E-03,   4.82714E-03
C:/temp/dataset/6/23_10.odb,Step-1,Increment      1: Step Time =    1.000,"PART-1-1",           341,          -15.,          3.75,            0.,NA,NA,"",   51.5841E-03,  -22.3396E-03,   46.4958E-03,   11.8525E-06
C:/temp/dataset/6/23_10.odb,Step-1,Increment      1: Step Time =    1.000,"PART-1-1",           342,      -13.8520,       2.39386,            0.,NA,NA,"",   54.6062E-03,  -15.6730E-03,   52.3087E-03,   414.143E-06
C:/temp/dataset/6/23_10.odb,Step-1,Increment      1: Step Time =    1.000,"PART-1-1",           343,      -12.6820,       3.58697,            0.,NA,NA,"",   62.8165E-03,  -21.6188E-03,   58.9792E-03,   501.804E-06
C:/temp/dataset/6/23_10.odb,Step-1,Increment      1: Step Time =    1.000,"PART-1-1",           344,      -13.8301,       4.94311,            0.,NA,NA,"",   59.9176E-03,  -28.5227E-03,   52.6932E-03,   148.989E-06
C:/temp/dataset/6/23_10.odb,Step-1,Increment      1: Step Time =    1.000,"PART-1-1",           345,          -15.,         11.25,            0.,NA,NA,"",   78.8285E-03,  -64.4550E-03,   45.3815E-03,   74.8550E-06
C:/temp/dataset/6/23_10.odb,Step-1,Increment      1: Step Time =    1.000,"PART-1-1",           346,      -14.0083,       10.0442,            0.,NA,NA,"",   76.9260E-03,  -57.3274E-03,   51.2950E-03,   76.1315E-06
C:/temp/dataset/6/23_10.odb,Step-1,Increment      1: Step Time =    1.000,"PART-1-1",           347,      -13.0572,       11.3141,            0.,NA,NA,"",   86.1834E-03,  -64.8352E-03,   56.7800E-03,   57.0407E-06
C:/temp/dataset/6/23_10.odb,Step-1,Increment      1: Step Time =    1.000,"PART-1-1",           348,      -14.0489,       12.5200,            0.,NA,NA,"",   88.1634E-03,  -71.9747E-03,   50.9159E-03,   33.9184E-06
C:/temp/dataset/6/23_10.odb,Step-1,Increment      1: Step Time =    1.000,"PART-1-1",           349,           -5.,       22.7083,            0.,NA,NA,"",   168.615E-03,  -132.518E-03,   104.260E-03,   539.562E-09
C:/temp/dataset/6/23_10.odb,Step-1,Increment      1: Step Time =    1.000,"PART-1-1",           350,      -5.96779,       23.6687,            0.,NA,NA,"",   169.707E-03,  -138.186E-03,   98.5148E-03,   249.739E-09
C:/temp/dataset/6/23_10.odb,Step-1,Increment      1: Step Time =    1.000,"PART-1-1",           351,      -6.69567,       22.7251,            0.,NA,NA,"",   162.657E-03,  -132.587E-03,   94.2225E-03,   241.419E-09
C:/temp/dataset/6/23_10.odb,Step-1,Increment      1: Step Time =    1.000,"PART-1-1",           352,      -5.72788,       21.7648,            0.,NA,NA,"",   161.561E-03,  -126.919E-03,   99.9677E-03,   426.912E-09
C:/temp/dataset/6/23_10.odb,Step-1,Increment      1: Step Time =    1.000,"PART-1-1",           353,      -9.95259,       28.8237,            0.,NA,NA,"",   184.493E-03,  -168.633E-03,   74.8350E-03,   82.7140E-09
C:/temp/dataset/6/23_10.odb,Step-1,Increment      1: Step Time =    1.000,"PART-1-1",           354,      -8.67740,       27.7404,            0.,NA,NA,"",   181.970E-03,  -162.243E-03,   82.4031E-03,   82.8451E-09
C:/temp/dataset/6/23_10.odb,Step-1,Increment      1: Step Time =    1.000,"PART-1-1",           355,      -7.47481,       28.9167,            0.,NA,NA,"",   191.438E-03,  -169.228E-03,   89.5017E-03,   62.6142E-09
C:/temp/dataset/6/23_10.odb,Step-1,Increment      1: Step Time =    1.000,"PART-1-1",           356,         -8.75,           30.,            0.,NA,NA,"",   193.791E-03,  -175.618E-03,   81.9337E-03,   65.7234E-09
C:/temp/dataset/6/23_10.odb,Step-1,Increment      1: Step Time =    1.000,"PART-1-1",           357,      -12.4360,       28.7156,            0.,NA,NA,"",   178.391E-03,  -167.950E-03,   60.1351E-03,   67.3755E-09
C:/temp/dataset/6/23_10.odb,Step-1,Increment      1: Step Time =    1.000,"PART-1-1",           358,        -13.75,           30.,            0.,NA,NA,"",   183.166E-03,  -175.531E-03,   52.3335E-03,   13.6096E-09
C:/temp/dataset/6/23_10.odb,Step-1,Increment      1: Step Time =    1.000,"PART-1-1",           359,          -15.,         28.75,            0.,NA,NA,"",   174.016E-03,  -168.109E-03,   44.9554E-03,   18.7408E-09
C:/temp/dataset/6/23_10.odb,Step-1,Increment      1: Step Time =    1.000,"PART-1-1",           360,      -13.6860,       27.4656,            0.,NA,NA,"",   168.975E-03,  -160.528E-03,   52.7569E-03,   69.1568E-09
C:/temp/dataset/6/23_10.odb,Step-1,Increment      1: Step Time =    1.000,"PART-1-1",           361,         -3.75,           -5.,            0.,NA,NA,"",   141.114E-03,   4.69963E-03,   141.035E-03,   8.00836E-03
C:/temp/dataset/6/23_10.odb,Step-1,Increment      1: Step Time =    1.000,"PART-1-1",           362,      -2.75606,      -4.06584,            0.,NA,NA,"",   144.760E-03,  -4.43394E-03,   144.692E-03,   9.90780E-03
C:/temp/dataset/6/23_10.odb,Step-1,Increment      1: Step Time =    1.000,"PART-1-1",           363,      -4.26954,      -3.28646,            0.,NA,NA,"",   123.831E-03,  -7.27624E-03,   123.618E-03,   8.07115E-03
C:/temp/dataset/6/23_10.odb,Step-1,Increment      1: Step Time =    1.000,"PART-1-1",           364,      -5.26349,      -4.22062,            0.,NA,NA,"",   105.013E-03,  -204.173E-06,   105.013E-03,   9.32310E-03
C:/temp/dataset/6/23_10.odb,Step-1,Increment      1: Step Time =    1.000,"PART-1-1",           365,   659.099E-03,      -2.85996,            0.,NA,NA,"",   122.318E-03,  -3.42162E-03,   122.270E-03,   6.23786E-03
C:/temp/dataset/6/23_10.odb,Step-1,Increment      1: Step Time =    1.000,"PART-1-1",           366,  -266.865E-03,      -3.97148,            0.,NA,NA,"",   135.714E-03,  -6.44473E-03,   135.561E-03,   7.41459E-03
C:/temp/dataset/6/23_10.odb,Step-1,Increment      1: Step Time =    1.000,"PART-1-1",           367,          1.25,           -5.,            0.,NA,NA,"",   115.197E-03,  -22.2673E-03,   113.024E-03,   3.43623E-03
C:/temp/dataset/6/23_10.odb,Step-1,Increment      1: Step Time =    1.000,"PART-1-1",           368,       2.17596,      -3.88848,            0.,NA,NA,"",   104.067E-03,  -12.8013E-03,   103.277E-03,   2.81621E-03
C:/temp/dataset/6/23_10.odb,Step-1,Increment      1: Step Time =    1.000,"PART-1-1",           369,   93.5104E-03,  -560.922E-03,            0.,NA,NA,"",   122.002E-03,   93.9661E-06,   122.002E-03,   4.53756E-03
C:/temp/dataset/6/23_10.odb,Step-1,Increment      1: Step Time =    1.000,"PART-1-1",           370,   627.873E-03,   544.404E-03,            0.,NA,NA,"",   116.206E-03,   2.06213E-03,   116.187E-03,   4.20555E-03
C:/temp/dataset/6/23_10.odb,Step-1,Increment      1: Step Time =    1.000,"PART-1-1",           371,  -981.002E-03,       1.17096,            0.,NA,NA,"",   121.955E-03,  -1.06144E-03,   121.951E-03,   3.45629E-03
C:/temp/dataset/6/23_10.odb,Step-1,Increment      1: Step Time =    1.000,"PART-1-1",           372,      -1.51537,   65.6335E-03,            0.,NA,NA,"",   126.148E-03,  -2.96149E-03,   126.113E-03,   4.04292E-03
C:/temp/dataset/6/23_10.odb,Step-1,Increment      1: Step Time =    1.000,"PART-1-1",           373,       4.11258,       2.54084,            0.,NA,NA,"",   87.7454E-03,   11.2328E-03,   87.0235E-03,   3.14315E-03
C:/temp/dataset/6/23_10.odb,Step-1,Increment      1: Step Time =    1.000,"PART-1-1",           374,       3.71515,       1.12833,            0.,NA,NA,"",   90.7807E-03,   6.15048E-03,   90.5721E-03,   3.74178E-03
C:/temp/dataset/6/23_10.odb,Step-1,Increment      1: Step Time =    1.000,"PART-1-1",           375,       5.46602,   397.127E-03,            0.,NA,NA,"",   74.6817E-03,   3.19203E-03,   74.6135E-03,   3.34853E-03
C:/temp/dataset/6/23_10.odb,Step-1,Increment      1: Step Time =    1.000,"PART-1-1",           376,       8.69518,  -378.803E-03,            0.,NA,NA,"",   49.8368E-03,  -3.06725E-03,   49.7423E-03,   1.50607E-03
C:/temp/dataset/6/23_10.odb,Step-1,Increment      1: Step Time =    1.000,"PART-1-1",           377,       8.82700,   889.396E-03,            0.,NA,NA,"",   50.2327E-03,   3.45805E-03,   50.1135E-03,   1.05050E-03
C:/temp/dataset/6/23_10.odb,Step-1,Increment      1: Step Time =    1.000,"PART-1-1",           378,       6.97530,  -164.986E-03,            0.,NA,NA,"",   61.6684E-03,  -528.081E-06,   61.6661E-03,   2.41298E-03
C:/temp/dataset/6/23_10.odb,Step-1,Increment      1: Step Time =    1.000,"PART-1-1",           379,      -3.65351,      -22.6081,            0.,NA,NA,"",   6.03209E-03,   1.73054E-03,   5.77852E-03,   1.25437E-03
C:/temp/dataset/6/23_10.odb,Step-1,Increment      1: Step Time =    1.000,"PART-1-1",           380,      -2.48671,      -21.3009,            0.,NA,NA,"",   4.83215E-03,   2.84513E-03,   3.90575E-03,   1.09220E-03
C:/temp/dataset/6/23_10.odb,Step-1,Increment      1: Step Time =    1.000,"PART-1-1",           381,         -3.75,          -20.,            0.,NA,NA,"",   10.8325E-03,   7.47934E-03,   7.83591E-03,   1.95638E-03
C:/temp/dataset/6/23_10.odb,Step-1,Increment      1: Step Time =    1.000,"PART-1-1",           382,      -4.91680,      -21.3072,            0.,NA,NA,"",   12.6212E-03,   5.11870E-03,   11.5366E-03,   2.75310E-03
C:/temp/dataset/6/23_10.odb,Step-1,Increment      1: Step Time =    1.000,"PART-1-1",           383,       12.8399,      -22.4784,            0.,NA,NA,"",   18.3193E-03,  -11.4104E-03,   14.3318E-03,   2.06220E-03
C:/temp/dataset/6/23_10.odb,Step-1,Increment      1: Step Time =    1.000,"PART-1-1",           384,       11.7398,      -21.2760,            0.,NA,NA,"",   19.8379E-03,  -12.8605E-03,   15.1046E-03,   2.06526E-03
C:/temp/dataset/6/23_10.odb,Step-1,Increment      1: Step Time =    1.000,"PART-1-1",           385,       10.5591,      -22.4389,            0.,NA,NA,"",   14.9574E-03,  -9.23746E-03,   11.7640E-03,   2.09394E-03
C:/temp/dataset/6/23_10.odb,Step-1,Increment      1: Step Time =    1.000,"PART-1-1",           386,       11.6593,      -23.6412,            0.,NA,NA,"",   13.4666E-03,  -8.08334E-03,   10.7707E-03,   2.08388E-03
C:/temp/dataset/6/23_10.odb,Step-1,Increment      1: Step Time =    1.000,"PART-1-1",           387,          8.75,            5.,            0.,NA,NA,"",   58.4627E-03,   27.2203E-03,   51.7392E-03,   238.571E-06
C:/temp/dataset/6/23_10.odb,Step-1,Increment      1: Step Time =    1.000,"PART-1-1",           388,       7.62461,       4.03982,            0.,NA,NA,"",   62.9277E-03,   21.2158E-03,   59.2434E-03,   490.646E-06
C:/temp/dataset/6/23_10.odb,Step-1,Increment      1: Step Time =    1.000,"PART-1-1",           389,       8.90047,       2.96899,            0.,NA,NA,"",   52.7009E-03,   14.8503E-03,   50.5653E-03,   524.283E-06
C:/temp/dataset/6/23_10.odb,Step-1,Increment      1: Step Time =    1.000,"PART-1-1",           390,       10.0259,       3.92917,            0.,NA,NA,"",   48.1982E-03,   20.3435E-03,   43.6945E-03,   262.570E-06
C:/temp/dataset/6/23_10.odb,Step-1,Increment      1: Step Time =    1.000,"PART-1-1",           391,      -6.96921,       21.1213,            0.,NA,NA,"",   154.050E-03,  -123.089E-03,   92.6313E-03,   206.634E-09
C:/temp/dataset/6/23_10.odb,Step-1,Increment      1: Step Time =    1.000,"PART-1-1",           392,      -6.24133,       19.9816,            0.,NA,NA,"",   151.459E-03,  -116.356E-03,   96.9595E-03,   395.262E-09
C:/temp/dataset/6/23_10.odb,Step-1,Increment      1: Step Time =    1.000,"PART-1-1",           393,           -5.,        20.625,            0.,NA,NA,"",   159.129E-03,  -120.186E-03,   104.295E-03,   719.408E-09
C:/temp/dataset/6/23_10.odb,Step-1,Increment      1: Step Time =    1.000,"PART-1-1",           394,      -12.9370,       8.81410,            0.,NA,NA,"",   76.3172E-03,  -50.1194E-03,   57.5530E-03,   50.5659E-06
C:/temp/dataset/6/23_10.odb,Step-1,Increment      1: Step Time =    1.000,"PART-1-1",           395,          -15.,          8.75,            0.,NA,NA,"",   67.5742E-03,  -49.7936E-03,   45.6822E-03,   149.173E-06
C:/temp/dataset/6/23_10.odb,Step-1,Increment      1: Step Time =    1.000,"PART-1-1",           396,      -13.9287,       7.51992,            0.,NA,NA,"",   67.2513E-03,  -42.6796E-03,   51.9729E-03,   108.350E-06
C:/temp/dataset/6/23_10.odb,Step-1,Increment      1: Step Time =    1.000,"PART-1-1",           397,          -15.,          1.25,            0.,NA,NA,"",   47.2408E-03,  -9.96854E-03,   46.1770E-03,   345.953E-06
C:/temp/dataset/6/23_10.odb,Step-1,Increment      1: Step Time =    1.000,"PART-1-1",           398,      -13.9023,  -59.1614E-03,            0.,NA,NA,"",   51.2088E-03,  -3.98806E-03,   51.0533E-03,   702.484E-06
C:/temp/dataset/6/23_10.odb,Step-1,Increment      1: Step Time =    1.000,"PART-1-1",           399,      -12.7542,       1.08470,            0.,NA,NA,"",   58.5634E-03,  -9.71844E-03,   57.7514E-03,   805.930E-06
C:/temp/dataset/6/23_10.odb,Step-1,Increment      1: Step Time =    1.000,"PART-1-1",           400,          -15.,         -1.25,            0.,NA,NA,"",   45.0697E-03,   2.02876E-03,   45.0240E-03,   569.921E-06
C:/temp/dataset/6/23_10.odb,Step-1,Increment      1: Step Time =    1.000,"PART-1-1",           401,      -13.9820,      -2.43756,            0.,NA,NA,"",   49.6889E-03,   7.35785E-03,   49.1411E-03,   817.810E-06
C:/temp/dataset/6/23_10.odb,Step-1,Increment      1: Step Time =    1.000,"PART-1-1",           402,      -12.8843,      -1.24672,            0.,NA,NA,"",   55.4141E-03,   1.19613E-03,   55.4012E-03,   967.086E-06
C:/temp/dataset/6/23_10.odb,Step-1,Increment      1: Step Time =    1.000,"PART-1-1",           403,      -12.3802,      -13.7897,            0.,NA,NA,"",   52.9649E-03,   33.0031E-03,   41.4256E-03,   2.23538E-03
C:/temp/dataset/6/23_10.odb,Step-1,Increment      1: Step Time =    1.000,"PART-1-1",           404,      -13.6672,      -12.5056,            0.,NA,NA,"",   55.0591E-03,   34.6426E-03,   42.7949E-03,   1.33776E-03
C:/temp/dataset/6/23_10.odb,Step-1,Increment      1: Step Time =    1.000,"PART-1-1",           405,          -15.,        -13.75,            0.,NA,NA,"",   54.2524E-03,   34.7479E-03,   41.6642E-03,   891.466E-06
C:/temp/dataset/6/23_10.odb,Step-1,Increment      1: Step Time =    1.000,"PART-1-1",           406,      -13.7130,      -15.0341,            0.,NA,NA,"",   51.2384E-03,   32.7396E-03,   39.4144E-03,   1.76235E-03
C:/temp/dataset/6/23_10.odb,Step-1,Increment      1: Step Time =    1.000,"PART-1-1",           407,       9.21271,      -3.58583,            0.,NA,NA,"",   46.8974E-03,  -19.2003E-03,   42.7869E-03,   1.45913E-03
C:/temp/dataset/6/23_10.odb,Step-1,Increment      1: Step Time =    1.000,"PART-1-1",           408,       7.90749,      -3.82305,            0.,NA,NA,"",   52.3927E-03,  -19.4482E-03,   48.6493E-03,   2.23106E-03
C:/temp/dataset/6/23_10.odb,Step-1,Increment      1: Step Time =    1.000,"PART-1-1",           409,       8.15132,      -5.16923,            0.,NA,NA,"",   51.4699E-03,  -25.0101E-03,   44.9849E-03,   2.08853E-03
C:/temp/dataset/6/23_10.odb,Step-1,Increment      1: Step Time =    1.000,"PART-1-1",           410,       9.45655,      -4.93201,            0.,NA,NA,"",   47.0849E-03,  -24.6456E-03,   40.1196E-03,   1.38294E-03
C:/temp/dataset/6/23_10.odb,Step-1,Increment      1: Step Time =    1.000,"PART-1-1",           411,       6.91243,      -16.0318,            0.,NA,NA,"",   28.7686E-03,  -20.8600E-03,   19.8114E-03,   2.57903E-03
C:/temp/dataset/6/23_10.odb,Step-1,Increment      1: Step Time =    1.000,"PART-1-1",           412,       5.96229,      -14.9858,            0.,NA,NA,"",   30.3840E-03,  -21.7849E-03,   21.1803E-03,   2.95648E-03
C:/temp/dataset/6/23_10.odb,Step-1,Increment      1: Step Time =    1.000,"PART-1-1",           413,            5.,      -16.2875,            0.,NA,NA,"",   24.1672E-03,  -17.9801E-03,   16.1484E-03,   2.92055E-03
C:/temp/dataset/6/23_10.odb,Step-1,Increment      1: Step Time =    1.000,"PART-1-1",           414,       6.93910,      -13.7291,            0.,NA,NA,"",   35.7432E-03,  -25.2029E-03,   25.3454E-03,   2.92551E-03
C:/temp/dataset/6/23_10.odb,Step-1,Increment      1: Step Time =    1.000,"PART-1-1",           415,       5.97681,      -12.5371,            0.,NA,NA,"",   38.0032E-03,  -25.4984E-03,   28.1792E-03,   3.42355E-03
C:/temp/dataset/6/23_10.odb,Step-1,Increment      1: Step Time =    1.000,"PART-1-1",           416,            5.,      -13.7937,            0.,NA,NA,"",   32.2798E-03,  -22.3511E-03,   23.2898E-03,   3.49440E-03
C:/temp/dataset/6/23_10.odb,Step-1,Increment      1: Step Time =    1.000,"PART-1-1",           417,         -1.25,          -20.,            0.,NA,NA,"",   4.22521E-03,   2.98149E-03,   2.99385E-03,   1.80226E-03
C:/temp/dataset/6/23_10.odb,Step-1,Increment      1: Step Time =    1.000,"PART-1-1",           418,      -1.09514,      -22.7401,            0.,NA,NA,"",   1.47528E-03,   280.610E-06,   1.44834E-03,   496.472E-06
C:/temp/dataset/6/23_10.odb,Step-1,Increment      1: Step Time =    1.000,"PART-1-1",           419,   141.566E-03,      -21.4393,            0.,NA,NA,"",   1.20982E-03,   150.515E-06,   1.20042E-03,   1.10628E-03
C:/temp/dataset/6/23_10.odb,Step-1,Increment      1: Step Time =    1.000,"PART-1-1",           420,      -7.69236,      -25.1479,            0.,NA,NA,"",   9.14170E-03,   2.95393E-03,   8.65130E-03,   2.52172E-03
C:/temp/dataset/6/23_10.odb,Step-1,Increment      1: Step Time =    1.000,"PART-1-1",           421,      -9.18951,      -25.9970,            0.,NA,NA,"",   8.79641E-03,   3.49968E-03,   8.07026E-03,   2.77018E-03
C:/temp/dataset/6/23_10.odb,Step-1,Increment      1: Step Time =    1.000,"PART-1-1",           422,      -8.56598,      -27.1897,            0.,NA,NA,"",   5.15317E-03,   1.39418E-03,   4.96099E-03,   2.32101E-03
C:/temp/dataset/6/23_10.odb,Step-1,Increment      1: Step Time =    1.000,"PART-1-1",           423,      -7.06883,      -26.3407,            0.,NA,NA,"",   5.65919E-03,   982.442E-06,   5.57326E-03,   2.08074E-03
C:/temp/dataset/6/23_10.odb,Step-1,Increment      1: Step Time =    1.000,"PART-1-1",           424,      -9.82073,      -13.8964,            0.,NA,NA,"",   52.0469E-03,   29.9903E-03,   42.5377E-03,   3.34954E-03
C:/temp/dataset/6/23_10.odb,Step-1,Increment      1: Step Time =    1.000,"PART-1-1",           425,      -8.65586,      -15.1239,            0.,NA,NA,"",   47.3796E-03,   26.7248E-03,   39.1230E-03,   3.75139E-03
C:/temp/dataset/6/23_10.odb,Step-1,Increment      1: Step Time =    1.000,"PART-1-1",           426,      -8.53523,      -12.6467,            0.,NA,NA,"",   55.6769E-03,   29.0007E-03,   47.5277E-03,   3.97022E-03
C:/temp/dataset/6/23_10.odb,Step-1,Increment      1: Step Time =    1.000,"PART-1-1",           427,      -6.09243,      -10.1071,            0.,NA,NA,"",   65.9753E-03,   23.7538E-03,   61.5508E-03,   5.78702E-03
C:/temp/dataset/6/23_10.odb,Step-1,Increment      1: Step Time =    1.000,"PART-1-1",           428,           -5.,      -8.71250,            0.,NA,NA,"",   73.5901E-03,   19.0207E-03,   71.0895E-03,   7.18526E-03
C:/temp/dataset/6/23_10.odb,Step-1,Increment      1: Step Time =    1.000,"PART-1-1",           429,      -6.07322,      -7.75598,            0.,NA,NA,"",   78.2608E-03,   21.3676E-03,   75.2873E-03,   6.43560E-03
C:/temp/dataset/6/23_10.odb,Step-1,Increment      1: Step Time =    1.000,"PART-1-1",           430,      -12.7270,      -6.06323,            0.,NA,NA,"",   56.1881E-03,   22.8567E-03,   51.3291E-03,   1.17050E-03
C:/temp/dataset/6/23_10.odb,Step-1,Increment      1: Step Time =    1.000,"PART-1-1",           431,      -13.8025,      -4.90646,            0.,NA,NA,"",   51.7124E-03,   18.5948E-03,   48.2535E-03,   753.166E-06
C:/temp/dataset/6/23_10.odb,Step-1,Increment      1: Step Time =    1.000,"PART-1-1",           432,          -15.,         -6.25,            0.,NA,NA,"",   49.5013E-03,   24.1577E-03,   43.2063E-03,   120.894E-06
C:/temp/dataset/6/23_10.odb,Step-1,Increment      1: Step Time =    1.000,"PART-1-1",           433,      -13.9244,      -7.40677,            0.,NA,NA,"",   54.1030E-03,   27.8603E-03,   46.3783E-03,   564.564E-06
C:/temp/dataset/6/23_10.odb,Step-1,Increment      1: Step Time =    1.000,"PART-1-1",           434,       1.60591,      -1.50045,            0.,NA,NA,"",   110.751E-03,  -193.941E-06,   110.750E-03,   5.23400E-03
C:/temp/dataset/6/23_10.odb,Step-1,Increment      1: Step Time =    1.000,"PART-1-1",           435,  -853.298E-03,      -1.92043,            0.,NA,NA,"",   132.181E-03,  -2.51864E-03,   132.157E-03,   5.74501E-03
C:/temp/dataset/6/23_10.odb,Step-1,Increment      1: Step Time =    1.000,"PART-1-1",           436,         13.75,          -30.,            0.,NA,NA,"",            0.,  -302.721E-42,   4.09517E-39,   2.78038E-03
C:/temp/dataset/6/23_10.odb,Step-1,Increment      1: Step Time =    1.000,"PART-1-1",           437,           15.,      -28.9063,            0.,NA,NA,"",   4.48220E-03,  -3.16616E-03,   3.17262E-03,   3.17225E-03
C:/temp/dataset/6/23_10.odb,Step-1,Increment      1: Step Time =    1.000,"PART-1-1",           438,       13.8103,      -27.8746,            0.,NA,NA,"",   5.71202E-03,  -3.57576E-03,   4.45434E-03,   2.51885E-03
C:/temp/dataset/6/23_10.odb,Step-1,Increment      1: Step Time =    1.000,"PART-1-1",           439,       12.5603,      -28.9683,            0.,NA,NA,"",   1.90911E-03,  -1.02127E-03,   1.61298E-03,   1.99608E-03
C:/temp/dataset/6/23_10.odb,Step-1,Increment      1: Step Time =    1.000,"PART-1-1",           440,       12.6598,      -26.8678,            0.,NA,NA,"",   6.94394E-03,  -4.04241E-03,   5.64599E-03,   2.24358E-03
C:/temp/dataset/6/23_10.odb,Step-1,Increment      1: Step Time =    1.000,"PART-1-1",           441,       11.5501,      -25.8632,            0.,NA,NA,"",   7.98638E-03,  -4.47527E-03,   6.61470E-03,   2.05679E-03
C:/temp/dataset/6/23_10.odb,Step-1,Increment      1: Step Time =    1.000,"PART-1-1",           442,       10.3093,      -26.9762,            0.,NA,NA,"",   4.46332E-03,  -2.15514E-03,   3.90853E-03,   1.72876E-03
C:/temp/dataset/6/23_10.odb,Step-1,Increment      1: Step Time =    1.000,"PART-1-1",           443,       11.4189,      -27.9808,            0.,NA,NA,"",   3.33031E-03,  -1.72286E-03,   2.85004E-03,   1.92215E-03
C:/temp/dataset/6/23_10.odb,Step-1,Increment      1: Step Time =    1.000,"PART-1-1",           444,       10.1086,      -29.0125,            0.,NA,NA,"",   1.16845E-03,  -366.348E-06,   1.10953E-03,   1.41168E-03
C:/temp/dataset/6/23_10.odb,Step-1,Increment      1: Step Time =    1.000,"PART-1-1",           445,       9.01957,      -28.0513,            0.,NA,NA,"",   2.06542E-03,  -630.778E-06,   1.96674E-03,   1.31324E-03
C:/temp/dataset/6/23_10.odb,Step-1,Increment      1: Step Time =    1.000,"PART-1-1",           446,          8.75,          -30.,            0.,NA,NA,"",            0.,   32.6531E-42,   2.12950E-39,   1.11435E-03
C:/temp/dataset/6/23_10.odb,Step-1,Increment      1: Step Time =    1.000,"PART-1-1",           447,       4.20973,      -27.9354,            0.,NA,NA,"",   664.136E-06,   25.3669E-06,   663.651E-06,   434.754E-06
C:/temp/dataset/6/23_10.odb,Step-1,Increment      1: Step Time =    1.000,"PART-1-1",           448,       2.74203,      -28.9082,            0.,NA,NA,"",   231.306E-06,  -2.45167E-06,   231.293E-06,   296.691E-06
C:/temp/dataset/6/23_10.odb,Step-1,Increment      1: Step Time =    1.000,"PART-1-1",           449,          3.75,          -30.,            0.,NA,NA,"",            0.,   113.011E-42,   800.122E-42,   422.714E-06
C:/temp/dataset/6/23_10.odb,Step-1,Increment      1: Step Time =    1.000,"PART-1-1",           450,       1.16266,      -25.9573,            0.,NA,NA,"",   692.177E-06,  -604.667E-06,   336.879E-06,   190.695E-06
C:/temp/dataset/6/23_10.odb,Step-1,Increment      1: Step Time =    1.000,"PART-1-1",           451,       1.65415,      -27.4536,            0.,NA,NA,"",   460.091E-06,  -349.239E-06,   299.525E-06,   306.314E-06
C:/temp/dataset/6/23_10.odb,Step-1,Increment      1: Step Time =    1.000,"PART-1-1",           452,       3.39879,      -26.8461,            0.,NA,NA,"",   747.894E-06,  -223.595E-06,   713.689E-06,   315.871E-06
C:/temp/dataset/6/23_10.odb,Step-1,Increment      1: Step Time =    1.000,"PART-1-1",           453,       2.90730,      -25.3498,            0.,NA,NA,"",   996.888E-06,  -596.967E-06,   798.383E-06,   238.339E-06
C:/temp/dataset/6/23_10.odb,Step-1,Increment      1: Step Time =    1.000,"PART-1-1",           454,      -3.67645,      -27.5530,            0.,NA,NA,"",   1.87565E-03,  -979.666E-06,   1.59947E-03,   889.584E-06
C:/temp/dataset/6/23_10.odb,Step-1,Increment      1: Step Time =    1.000,"PART-1-1",           455,      -2.54816,      -26.3074,            0.,NA,NA,"",   1.87516E-03,  -964.835E-06,   1.60790E-03,   644.324E-06
C:/temp/dataset/6/23_10.odb,Step-1,Increment      1: Step Time =    1.000,"PART-1-1",           456,      -3.72120,      -25.1278,            0.,NA,NA,"",   3.50605E-03,  -314.477E-06,   3.49191E-03,   1.07025E-03
C:/temp/dataset/6/23_10.odb,Step-1,Increment      1: Step Time =    1.000,"PART-1-1",           457,      -4.84948,      -26.3734,            0.,NA,NA,"",   3.53292E-03,  -455.022E-06,   3.50349E-03,   1.32626E-03
C:/temp/dataset/6/23_10.odb,Step-1,Increment      1: Step Time =    1.000,"PART-1-1",           458,      -4.94498,      -28.7931,            0.,NA,NA,"",   1.25298E-03,  -659.129E-06,   1.06560E-03,   1.18474E-03
C:/temp/dataset/6/23_10.odb,Step-1,Increment      1: Step Time =    1.000,"PART-1-1",           459,         -3.75,          -30.,            0.,NA,NA,"",            0.,  -531.342E-42,   1.61524E-39,   976.641E-06
C:/temp/dataset/6/23_10.odb,Step-1,Increment      1: Step Time =    1.000,"PART-1-1",           460,      -6.07748,      -27.5364,            0.,NA,NA,"",   2.96319E-03,  -346.724E-06,   2.94284E-03,   1.55195E-03
C:/temp/dataset/6/23_10.odb,Step-1,Increment      1: Step Time =    1.000,"PART-1-1",           461,      -7.38250,      -28.7433,            0.,NA,NA,"",   1.73711E-03,  -157.412E-06,   1.72997E-03,   1.76003E-03
C:/temp/dataset/6/23_10.odb,Step-1,Increment      1: Step Time =    1.000,"PART-1-1",           462,         -6.25,          -30.,            0.,NA,NA,"",            0.,  -409.998E-42,   2.64500E-39,   1.42045E-03
C:/temp/dataset/6/23_10.odb,Step-1,Increment      1: Step Time =    1.000,"PART-1-1",           463,      -8.77755,      -24.1806,            0.,NA,NA,"",   13.6676E-03,   5.97788E-03,   12.2909E-03,   2.99834E-03
C:/temp/dataset/6/23_10.odb,Step-1,Increment      1: Step Time =    1.000,"PART-1-1",           464,      -9.92276,      -23.8066,            0.,NA,NA,"",   16.8422E-03,   8.44747E-03,   14.5706E-03,   3.23606E-03
C:/temp/dataset/6/23_10.odb,Step-1,Increment      1: Step Time =    1.000,"PART-1-1",           465,      -10.3347,      -25.6230,            0.,NA,NA,"",   11.4320E-03,   5.52694E-03,   10.0072E-03,   3.03407E-03
C:/temp/dataset/6/23_10.odb,Step-1,Increment      1: Step Time =    1.000,"PART-1-1",           466,       13.9544,      -21.3085,            0.,NA,NA,"",   23.3581E-03,  -14.8073E-03,   18.0650E-03,   1.98744E-03
C:/temp/dataset/6/23_10.odb,Step-1,Increment      1: Step Time =    1.000,"PART-1-1",           467,       13.8855,      -23.5136,            0.,NA,NA,"",   17.3660E-03,  -10.4919E-03,   13.8383E-03,   2.21654E-03
C:/temp/dataset/6/23_10.odb,Step-1,Increment      1: Step Time =    1.000,"PART-1-1",           468,           15.,      -22.3438,            0.,NA,NA,"",   22.6371E-03,  -13.7339E-03,   17.9950E-03,   2.17178E-03
C:/temp/dataset/6/23_10.odb,Step-1,Increment      1: Step Time =    1.000,"PART-1-1",           469,       12.7349,      -24.6944,            0.,NA,NA,"",   12.4161E-03,  -7.36444E-03,   9.99628E-03,   2.19483E-03
C:/temp/dataset/6/23_10.odb,Step-1,Increment      1: Step Time =    1.000,"PART-1-1",           470,       13.8494,      -25.7120,            0.,NA,NA,"",   11.6325E-03,  -6.95707E-03,   9.32284E-03,   2.35468E-03
C:/temp/dataset/6/23_10.odb,Step-1,Increment      1: Step Time =    1.000,"PART-1-1",           471,           15.,      -24.5313,            0.,NA,NA,"",   16.7246E-03,  -9.94797E-03,   13.4444E-03,   2.37709E-03
C:/temp/dataset/6/23_10.odb,Step-1,Increment      1: Step Time =    1.000,"PART-1-1",           472,         11.25,          -30.,            0.,NA,NA,"",            0.,  -278.329E-42,   3.01674E-39,   1.54262E-03
C:/temp/dataset/6/23_10.odb,Step-1,Increment      1: Step Time =    1.000,"PART-1-1",           473,       13.9950,      -12.5232,            0.,NA,NA,"",   41.8835E-03,  -31.9058E-03,   27.1339E-03,   458.478E-06
C:/temp/dataset/6/23_10.odb,Step-1,Increment      1: Step Time =    1.000,"PART-1-1",           474,       12.9942,      -13.6844,            0.,NA,NA,"",   39.9381E-03,  -30.1684E-03,   26.1710E-03,   1.11770E-03
C:/temp/dataset/6/23_10.odb,Step-1,Increment      1: Step Time =    1.000,"PART-1-1",           475,           15.,      -13.5938,            0.,NA,NA,"",   41.4461E-03,  -30.7215E-03,   27.8203E-03,   127.063E-06
C:/temp/dataset/6/23_10.odb,Step-1,Increment      1: Step Time =    1.000,"PART-1-1",           476,       9.85236,      -17.2546,            0.,NA,NA,"",   28.9082E-03,  -20.8449E-03,   20.0293E-03,   2.14523E-03
C:/temp/dataset/6/23_10.odb,Step-1,Increment      1: Step Time =    1.000,"PART-1-1",           477,       8.68427,      -17.7513,            0.,NA,NA,"",   26.0187E-03,  -18.5564E-03,   18.2382E-03,   2.26909E-03
C:/temp/dataset/6/23_10.odb,Step-1,Increment      1: Step Time =    1.000,"PART-1-1",           478,       8.96140,      -18.9835,            0.,NA,NA,"",   22.5874E-03,  -15.6344E-03,   16.3020E-03,   2.25263E-03
C:/temp/dataset/6/23_10.odb,Step-1,Increment      1: Step Time =    1.000,"PART-1-1",           479,       10.1295,      -18.4868,            0.,NA,NA,"",   25.6242E-03,  -18.0283E-03,   18.2094E-03,   2.13587E-03
C:/temp/dataset/6/23_10.odb,Step-1,Increment      1: Step Time =    1.000,"PART-1-1",           480,       11.2436,      -18.3856,            0.,NA,NA,"",   27.2761E-03,  -19.2448E-03,   19.3293E-03,   2.00590E-03
C:/temp/dataset/6/23_10.odb,Step-1,Increment      1: Step Time =    1.000,"PART-1-1",           481,       12.3956,      -19.2305,            0.,NA,NA,"",   26.4358E-03,  -18.1448E-03,   19.2255E-03,   1.87324E-03
C:/temp/dataset/6/23_10.odb,Step-1,Increment      1: Step Time =    1.000,"PART-1-1",           482,       13.1120,      -18.1414,            0.,NA,NA,"",   30.3417E-03,  -21.2344E-03,   21.6731E-03,   1.63726E-03
C:/temp/dataset/6/23_10.odb,Step-1,Increment      1: Step Time =    1.000,"PART-1-1",           483,       11.9600,      -17.2965,            0.,NA,NA,"",   31.0966E-03,  -22.4013E-03,   21.5681E-03,   1.77728E-03
C:/temp/dataset/6/23_10.odb,Step-1,Increment      1: Step Time =    1.000,"PART-1-1",           484,       14.0024,      -3.77677,            0.,NA,NA,"",   31.4232E-03,  -20.4140E-03,   23.8891E-03,   684.581E-06
C:/temp/dataset/6/23_10.odb,Step-1,Increment      1: Step Time =    1.000,"PART-1-1",           485,       13.0359,      -4.87313,            0.,NA,NA,"",   37.0870E-03,  -24.6655E-03,   27.6958E-03,   214.242E-06
C:/temp/dataset/6/23_10.odb,Step-1,Increment      1: Step Time =    1.000,"PART-1-1",           486,       14.0335,      -5.94012,            0.,NA,NA,"",   37.3750E-03,  -27.6477E-03,   25.1495E-03,   744.492E-06
C:/temp/dataset/6/23_10.odb,Step-1,Increment      1: Step Time =    1.000,"PART-1-1",           487,           15.,      -4.84375,            0.,NA,NA,"",   31.9847E-03,  -23.9022E-03,   21.2533E-03,   1.24490E-03
C:/temp/dataset/6/23_10.odb,Step-1,Increment      1: Step Time =    1.000,"PART-1-1",           488,       13.0510,      -7.01836,            0.,NA,NA,"",   41.2913E-03,  -30.3384E-03,   28.0098E-03,   280.757E-06
C:/temp/dataset/6/23_10.odb,Step-1,Increment      1: Step Time =    1.000,"PART-1-1",           489,       14.0175,      -8.10950,            0.,NA,NA,"",   41.4135E-03,  -31.8812E-03,   26.4323E-03,   606.143E-06
C:/temp/dataset/6/23_10.odb,Step-1,Increment      1: Step Time =    1.000,"PART-1-1",           490,           15.,      -7.03125,            0.,NA,NA,"",   38.1108E-03,  -29.7432E-03,   23.8281E-03,   1.22705E-03
C:/temp/dataset/6/23_10.odb,Step-1,Increment      1: Step Time =    1.000,"PART-1-1",           491,         13.75,            5.,            0.,NA,NA,"",   34.5126E-03,   25.8208E-03,   22.8999E-03,   65.2735E-06
C:/temp/dataset/6/23_10.odb,Step-1,Increment      1: Step Time =    1.000,"PART-1-1",           492,       12.4982,       3.90020,            0.,NA,NA,"",   35.7004E-03,   19.7638E-03,   29.7306E-03,   218.436E-06
C:/temp/dataset/6/23_10.odb,Step-1,Increment      1: Step Time =    1.000,"PART-1-1",           493,       13.7482,       2.80645,            0.,NA,NA,"",   26.6203E-03,   13.4353E-03,   22.9811E-03,   193.126E-06
C:/temp/dataset/6/23_10.odb,Step-1,Increment      1: Step Time =    1.000,"PART-1-1",           494,           15.,       3.90625,            0.,NA,NA,"",   25.3536E-03,   19.6765E-03,   15.9888E-03,   59.7406E-06
C:/temp/dataset/6/23_10.odb,Step-1,Increment      1: Step Time =    1.000,"PART-1-1",           495,         11.25,            5.,            0.,NA,NA,"",   45.1588E-03,   26.2762E-03,   36.7270E-03,   300.738E-06
C:/temp/dataset/6/23_10.odb,Step-1,Increment      1: Step Time =    1.000,"PART-1-1",           496,       11.2740,       2.82937,            0.,NA,NA,"",   38.8904E-03,   13.7316E-03,   36.3855E-03,   166.347E-06
C:/temp/dataset/6/23_10.odb,Step-1,Increment      1: Step Time =    1.000,"PART-1-1",           497,       11.1422,   446.578E-03,            0.,NA,NA,"",   36.6069E-03,   268.566E-06,   36.6059E-03,   424.912E-06
C:/temp/dataset/6/23_10.odb,Step-1,Increment      1: Step Time =    1.000,"PART-1-1",           498,       10.2035,  -836.101E-03,            0.,NA,NA,"",   41.3280E-03,  -6.29548E-03,   40.8457E-03,   805.671E-06
C:/temp/dataset/6/23_10.odb,Step-1,Increment      1: Step Time =    1.000,"PART-1-1",           499,       11.7017,      -1.82731,            0.,NA,NA,"",   35.1296E-03,  -11.7961E-03,   33.0899E-03,   485.599E-06
C:/temp/dataset/6/23_10.odb,Step-1,Increment      1: Step Time =    1.000,"PART-1-1",           500,       12.5035,       1.67834,            0.,NA,NA,"",   30.4753E-03,   7.00790E-03,   29.6586E-03,   339.400E-06
C:/temp/dataset/6/23_10.odb,Step-1,Increment      1: Step Time =    1.000,"PART-1-1",           501,       9.91277,       1.59761,            0.,NA,NA,"",   44.4351E-03,   6.93904E-03,   43.8900E-03,   501.317E-06
C:/temp/dataset/6/23_10.odb,Step-1,Increment      1: Step Time =    1.000,"PART-1-1",           502,       5.19643,       3.92738,            0.,NA,NA,"",   79.9241E-03,   19.2418E-03,   77.5732E-03,   1.65629E-03
C:/temp/dataset/6/23_10.odb,Step-1,Increment      1: Step Time =    1.000,"PART-1-1",           503,          3.75,            5.,            0.,NA,NA,"",   91.1163E-03,   23.9324E-03,   87.9171E-03,   2.67276E-03
C:/temp/dataset/6/23_10.odb,Step-1,Increment      1: Step Time =    1.000,"PART-1-1",           504,       2.66615,       3.61346,            0.,NA,NA,"",   98.6181E-03,   13.2693E-03,   97.7213E-03,   3.33944E-03
C:/temp/dataset/6/23_10.odb,Step-1,Increment      1: Step Time =    1.000,"PART-1-1",           505,      -1.00804,       2.95894,            0.,NA,NA,"",   118.011E-03,   186.892E-06,   118.011E-03,   3.83900E-03
C:/temp/dataset/6/23_10.odb,Step-1,Increment      1: Step Time =    1.000,"PART-1-1",           506,   87.8012E-03,       3.95476,            0.,NA,NA,"",   112.606E-03,   5.99940E-03,   112.447E-03,   4.91679E-03
C:/temp/dataset/6/23_10.odb,Step-1,Increment      1: Step Time =    1.000,"PART-1-1",           507,         -1.25,            5.,            0.,NA,NA,"",   113.395E-03,   1.42237E-03,   113.386E-03,   6.52038E-03
C:/temp/dataset/6/23_10.odb,Step-1,Increment      1: Step Time =    1.000,"PART-1-1",           508,      -2.34584,       4.00418,            0.,NA,NA,"",   116.750E-03,  -4.97335E-03,   116.644E-03,   5.32788E-03
C:/temp/dataset/6/23_10.odb,Step-1,Increment      1: Step Time =    1.000,"PART-1-1",           509,      -3.27281,       2.96378,            0.,NA,NA,"",   117.460E-03,  -7.79752E-03,   117.201E-03,   3.57698E-03
C:/temp/dataset/6/23_10.odb,Step-1,Increment      1: Step Time =    1.000,"PART-1-1",           510,         -3.75,            5.,            0.,NA,NA,"",   112.209E-03,  -14.0799E-03,   111.322E-03,   6.40853E-03
C:/temp/dataset/6/23_10.odb,Step-1,Increment      1: Step Time =    1.000,"PART-1-1",           511,      -4.67697,       3.95960,            0.,NA,NA,"",   110.924E-03,  -14.3284E-03,   109.995E-03,   3.93570E-03
C:/temp/dataset/6/23_10.odb,Step-1,Increment      1: Step Time =    1.000,"PART-1-1",           512,      -7.93004,       8.58536,            0.,NA,NA,"",   99.7172E-03,  -48.8274E-03,   86.9448E-03,   85.4755E-06
C:/temp/dataset/6/23_10.odb,Step-1,Increment      1: Step Time =    1.000,"PART-1-1",           513,      -8.65034,       7.25415,            0.,NA,NA,"",   92.1000E-03,  -40.7978E-03,   82.5708E-03,   279.099E-06
C:/temp/dataset/6/23_10.odb,Step-1,Increment      1: Step Time =    1.000,"PART-1-1",           514,      -7.51010,       6.50150,            0.,NA,NA,"",   96.4505E-03,  -35.8744E-03,   89.5306E-03,   402.229E-06
C:/temp/dataset/6/23_10.odb,Step-1,Increment      1: Step Time =    1.000,"PART-1-1",           515,      -6.78981,       7.83270,            0.,NA,NA,"",   103.828E-03,  -44.2005E-03,   93.9495E-03,   103.097E-06
C:/temp/dataset/6/23_10.odb,Step-1,Increment      1: Step Time =    1.000,"PART-1-1",           516,      -7.08495,       12.0475,            0.,NA,NA,"",   115.352E-03,  -69.4543E-03,   92.0990E-03,   61.9085E-06
C:/temp/dataset/6/23_10.odb,Step-1,Increment      1: Step Time =    1.000,"PART-1-1",           517,      -6.02998,       11.1050,            0.,NA,NA,"",   117.377E-03,  -63.9001E-03,   98.4592E-03,   64.5332E-06
C:/temp/dataset/6/23_10.odb,Step-1,Increment      1: Step Time =    1.000,"PART-1-1",           518,           -5.,       12.2917,            0.,NA,NA,"",   126.301E-03,  -70.9149E-03,   104.514E-03,   60.4918E-06
C:/temp/dataset/6/23_10.odb,Step-1,Increment      1: Step Time =    1.000,"PART-1-1",           519,      -6.05497,       13.2342,            0.,NA,NA,"",   124.474E-03,  -76.4769E-03,   98.2096E-03,   28.0226E-06
C:/temp/dataset/6/23_10.odb,Step-1,Increment      1: Step Time =    1.000,"PART-1-1",           520,      -9.96524,       21.0498,            0.,NA,NA,"",   143.678E-03,  -122.612E-03,   74.8972E-03,   671.494E-09
C:/temp/dataset/6/23_10.odb,Step-1,Increment      1: Step Time =    1.000,"PART-1-1",           521,      -8.51702,       20.1362,            0.,NA,NA,"",   143.920E-03,  -117.230E-03,   83.4863E-03,   798.155E-09
C:/temp/dataset/6/23_10.odb,Step-1,Increment      1: Step Time =    1.000,"PART-1-1",           522,      -8.09442,       21.6565,            0.,NA,NA,"",   152.725E-03,  -126.236E-03,   85.9614E-03,   277.719E-09
C:/temp/dataset/6/23_10.odb,Step-1,Increment      1: Step Time =    1.000,"PART-1-1",           523,      -9.54264,       22.5701,            0.,NA,NA,"",   152.676E-03,  -131.619E-03,   77.3722E-03,   250.710E-09
C:/temp/dataset/6/23_10.odb,Step-1,Increment      1: Step Time =    1.000,"PART-1-1",           524,      -7.38593,       19.0122,            0.,NA,NA,"",   142.718E-03,  -110.599E-03,   90.2015E-03,   2.41746E-06
C:/temp/dataset/6/23_10.odb,Step-1,Increment      1: Step Time =    1.000,"PART-1-1",           525,      -6.14460,       17.5723,            0.,NA,NA,"",   141.230E-03,  -102.103E-03,   97.5748E-03,   2.38974E-06
C:/temp/dataset/6/23_10.odb,Step-1,Increment      1: Step Time =    1.000,"PART-1-1",           526,           -5.,       18.5417,            0.,NA,NA,"",   150.060E-03,  -107.858E-03,   104.330E-03,   410.339E-09
C:/temp/dataset/6/23_10.odb,Step-1,Increment      1: Step Time =    1.000,"PART-1-1",           527,      -9.12859,       24.1056,            0.,NA,NA,"",   161.767E-03,  -140.717E-03,   79.7962E-03,   202.394E-09
C:/temp/dataset/6/23_10.odb,Step-1,Increment      1: Step Time =    1.000,"PART-1-1",           528,      -7.82088,       23.2603,            0.,NA,NA,"",   161.522E-03,  -135.735E-03,   87.5525E-03,   219.103E-09
C:/temp/dataset/6/23_10.odb,Step-1,Increment      1: Step Time =    1.000,"PART-1-1",           529,      -7.11221,       24.6459,            0.,NA,NA,"",   170.689E-03,  -143.950E-03,   91.7232E-03,   212.285E-09
C:/temp/dataset/6/23_10.odb,Step-1,Increment      1: Step Time =    1.000,"PART-1-1",           530,      -8.41993,       25.4912,            0.,NA,NA,"",   170.971E-03,  -148.932E-03,   83.9669E-03,   160.766E-09
C:/temp/dataset/6/23_10.odb,Step-1,Increment      1: Step Time =    1.000,"PART-1-1",           531,           -5.,       28.9583,            0.,NA,NA,"",   198.956E-03,  -169.517E-03,   104.152E-03,   14.0913E-09
C:/temp/dataset/6/23_10.odb,Step-1,Increment      1: Step Time =    1.000,"PART-1-1",           532,         -6.25,           30.,            0.,NA,NA,"",   200.536E-03,  -175.662E-03,   96.7336E-03,   13.8027E-09
C:/temp/dataset/6/23_10.odb,Step-1,Increment      1: Step Time =    1.000,"PART-1-1",           533,      -6.22481,       27.8751,            0.,NA,NA,"",   189.709E-03,  -163.083E-03,   96.9199E-03,   56.6238E-09
C:/temp/dataset/6/23_10.odb,Step-1,Increment      1: Step Time =    1.000,"PART-1-1",           534,      -11.1386,       27.5393,            0.,NA,NA,"",   174.716E-03,  -161.009E-03,   67.8365E-03,   89.3050E-09
C:/temp/dataset/6/23_10.odb,Step-1,Increment      1: Step Time =    1.000,"PART-1-1",           535,        -11.25,           30.,            0.,NA,NA,"",   187.972E-03,  -175.575E-03,   67.1337E-03,   64.3980E-09
C:/temp/dataset/6/23_10.odb,Step-1,Increment      1: Step Time =    1.000,"PART-1-1",           536,      -13.1147,       13.7606,            0.,NA,NA,"",   97.3435E-03,  -79.3507E-03,   56.3845E-03,   28.9048E-06
C:/temp/dataset/6/23_10.odb,Step-1,Increment      1: Step Time =    1.000,"PART-1-1",           537,      -14.0658,       14.9906,            0.,NA,NA,"",   100.398E-03,  -86.6350E-03,   50.7359E-03,   10.7075E-06
C:/temp/dataset/6/23_10.odb,Step-1,Increment      1: Step Time =    1.000,"PART-1-1",           538,          -15.,         13.75,            0.,NA,NA,"",   91.2667E-03,  -79.2645E-03,   45.2410E-03,   25.0243E-06
C:/temp/dataset/6/23_10.odb,Step-1,Increment      1: Step Time =    1.000,"PART-1-1",           539,      -9.42834,       18.6970,            0.,NA,NA,"",   133.852E-03,  -108.694E-03,   78.1151E-03,   3.59541E-06
C:/temp/dataset/6/23_10.odb,Step-1,Increment      1: Step Time =    1.000,"PART-1-1",           540,      -8.29725,       17.5730,            0.,NA,NA,"",   132.716E-03,  -102.066E-03,   84.8295E-03,   4.80716E-06
C:/temp/dataset/6/23_10.odb,Step-1,Increment      1: Step Time =    1.000,"PART-1-1",           541,      -12.7588,       6.21303,            0.,NA,NA,"",   68.4867E-03,  -35.3300E-03,   58.6704E-03,   137.989E-06
C:/temp/dataset/6/23_10.odb,Step-1,Increment      1: Step Time =    1.000,"PART-1-1",           542,          -15.,          6.25,            0.,NA,NA,"",   58.2939E-03,  -35.6157E-03,   46.1487E-03,   166.571E-06
C:/temp/dataset/6/23_10.odb,Step-1,Increment      1: Step Time =    1.000,"PART-1-1",           543,      -9.01063,       9.47069,            0.,NA,NA,"",   96.9713E-03,  -54.0795E-03,   80.4913E-03,   86.4090E-06
C:/temp/dataset/6/23_10.odb,Step-1,Increment      1: Step Time =    1.000,"PART-1-1",           544,      -10.0811,       10.4578,            0.,NA,NA,"",   95.3459E-03,  -59.8804E-03,   74.1969E-03,   78.8675E-06
C:/temp/dataset/6/23_10.odb,Step-1,Increment      1: Step Time =    1.000,"PART-1-1",           545,      -10.9384,       9.05000,            0.,NA,NA,"",   86.1992E-03,  -51.5125E-03,   69.1142E-03,   63.9486E-06
C:/temp/dataset/6/23_10.odb,Step-1,Increment      1: Step Time =    1.000,"PART-1-1",           546,      -9.86794,       8.06293,            0.,NA,NA,"",   88.1302E-03,  -45.7018E-03,   75.3543E-03,   97.0791E-06
C:/temp/dataset/6/23_10.odb,Step-1,Increment      1: Step Time =    1.000,"PART-1-1",           547,      -7.23366,       1.29985,            0.,NA,NA,"",   95.3128E-03,  -11.9507E-03,   94.5606E-03,   3.54193E-03
C:/temp/dataset/6/23_10.odb,Step-1,Increment      1: Step Time =    1.000,"PART-1-1",           548,      -8.34685,   784.410E-03,            0.,NA,NA,"",   86.4485E-03,  -10.4459E-03,   85.8151E-03,   2.91555E-03
C:/temp/dataset/6/23_10.odb,Step-1,Increment      1: Step Time =    1.000,"PART-1-1",           549,      -7.43977,  -685.632E-03,            0.,NA,NA,"",   91.6266E-03,  -7.09901E-03,   91.3512E-03,   4.28130E-03
C:/temp/dataset/6/23_10.odb,Step-1,Increment      1: Step Time =    1.000,"PART-1-1",           550,      -12.4903,      -8.57964,            0.,NA,NA,"",   57.8651E-03,   30.3312E-03,   49.2787E-03,   1.44676E-03
C:/temp/dataset/6/23_10.odb,Step-1,Increment      1: Step Time =    1.000,"PART-1-1",           551,          -15.,         -8.75,            0.,NA,NA,"",   53.4697E-03,   31.4316E-03,   43.2559E-03,   53.1275E-06
C:/temp/dataset/6/23_10.odb,Step-1,Increment      1: Step Time =    1.000,"PART-1-1",           552,      -13.5658,      -9.92286,            0.,NA,NA,"",   56.3023E-03,   33.1653E-03,   45.4974E-03,   972.448E-06
C:/temp/dataset/6/23_10.odb,Step-1,Increment      1: Step Time =    1.000,"PART-1-1",           553,      -11.9783,      -7.15971,            0.,NA,NA,"",   58.8073E-03,   26.2920E-03,   52.6026E-03,   1.44017E-03
C:/temp/dataset/6/23_10.odb,Step-1,Increment      1: Step Time =    1.000,"PART-1-1",           554,      -11.8960,      -5.22799,            0.,NA,NA,"",   58.6044E-03,   19.0473E-03,   55.4227E-03,   1.48394E-03
C:/temp/dataset/6/23_10.odb,Step-1,Increment      1: Step Time =    1.000,"PART-1-1",           555,      -12.4565,      -16.3452,            0.,NA,NA,"",   46.8739E-03,   29.5482E-03,   36.3877E-03,   2.50864E-03
C:/temp/dataset/6/23_10.odb,Step-1,Increment      1: Step Time =    1.000,"PART-1-1",           556,          -15.,        -16.25,            0.,NA,NA,"",   50.3814E-03,   31.9076E-03,   38.9897E-03,   1.53463E-03
C:/temp/dataset/6/23_10.odb,Step-1,Increment      1: Step Time =    1.000,"PART-1-1",           557,      -13.7435,      -17.5611,            0.,NA,NA,"",   45.1416E-03,   28.4664E-03,   35.0346E-03,   2.23591E-03
C:/temp/dataset/6/23_10.odb,Step-1,Increment      1: Step Time =    1.000,"PART-1-1",           558,      -9.99221,      -8.41662,            0.,NA,NA,"",   63.5539E-03,   28.2996E-03,   56.9054E-03,   2.65216E-03
C:/temp/dataset/6/23_10.odb,Step-1,Increment      1: Step Time =    1.000,"PART-1-1",           559,      -11.4633,      -9.12095,            0.,NA,NA,"",   59.6926E-03,   30.7507E-03,   51.1625E-03,   2.01794E-03
C:/temp/dataset/6/23_10.odb,Step-1,Increment      1: Step Time =    1.000,"PART-1-1",           560,      -10.8070,      -10.1141,            0.,NA,NA,"",   59.8389E-03,   31.5619E-03,   50.8383E-03,   2.57318E-03
C:/temp/dataset/6/23_10.odb,Step-1,Increment      1: Step Time =    1.000,"PART-1-1",           561,      -13.9189,      -24.9166,            0.,NA,NA,"",   20.5198E-03,   12.1530E-03,   16.5339E-03,   3.41871E-03
C:/temp/dataset/6/23_10.odb,Step-1,Increment      1: Step Time =    1.000,"PART-1-1",           562,      -12.9076,      -23.6273,            0.,NA,NA,"",   22.9843E-03,   13.3512E-03,   18.7089E-03,   3.26287E-03
C:/temp/dataset/6/23_10.odb,Step-1,Increment      1: Step Time =    1.000,"PART-1-1",           563,          -15.,        -23.75,            0.,NA,NA,"",   27.3491E-03,   16.1722E-03,   22.0552E-03,   3.28775E-03
C:/temp/dataset/6/23_10.odb,Step-1,Increment      1: Step Time =    1.000,"PART-1-1",           564,          -15.,        -28.75,            0.,NA,NA,"",   7.66135E-03,   5.44527E-03,   5.38936E-03,   4.61012E-03
C:/temp/dataset/6/23_10.odb,Step-1,Increment      1: Step Time =    1.000,"PART-1-1",           565,        -13.75,          -30.,            0.,NA,NA,"",            0.,   409.976E-42,   6.12092E-39,   4.26023E-03
C:/temp/dataset/6/23_10.odb,Step-1,Increment      1: Step Time =    1.000,"PART-1-1",           566,      -13.7642,      -27.4123,            0.,NA,NA,"",   10.4921E-03,   6.53793E-03,   8.20608E-03,   3.71909E-03
C:/temp/dataset/6/23_10.odb,Step-1,Increment      1: Step Time =    1.000,"PART-1-1",           567,            5.,      -6.25625,            0.,NA,NA,"",   60.0801E-03,  -23.9414E-03,   55.1038E-03,   7.29593E-03
C:/temp/dataset/6/23_10.odb,Step-1,Increment      1: Step Time =    1.000,"PART-1-1",           568,       7.03347,      -6.11658,            0.,NA,NA,"",   55.1083E-03,  -27.2961E-03,   47.8732E-03,   3.09032E-03
C:/temp/dataset/6/23_10.odb,Step-1,Increment      1: Step Time =    1.000,"PART-1-1",           569,       6.04361,      -4.83741,            0.,NA,NA,"",   61.1830E-03,  -23.4754E-03,   56.5001E-03,   5.03320E-03
C:/temp/dataset/6/23_10.odb,Step-1,Increment      1: Step Time =    1.000,"PART-1-1",           570,           15.,      -2.65625,            0.,NA,NA,"",   24.3276E-03,  -15.2772E-03,   18.9325E-03,   1.01104E-03
C:/temp/dataset/6/23_10.odb,Step-1,Increment      1: Step Time =    1.000,"PART-1-1",           571,       12.8875,      -2.72454,            0.,NA,NA,"",   32.2256E-03,  -16.1101E-03,   27.9097E-03,   330.761E-06
C:/temp/dataset/6/23_10.odb,Step-1,Increment      1: Step Time =    1.000,"PART-1-1",           572,       10.0248,      -7.91896,            0.,NA,NA,"",   46.7715E-03,  -31.3188E-03,   34.7377E-03,   1.74661E-03
C:/temp/dataset/6/23_10.odb,Step-1,Increment      1: Step Time =    1.000,"PART-1-1",           573,       8.98203,      -8.99604,            0.,NA,NA,"",   47.1781E-03,  -31.2797E-03,   35.3178E-03,   2.47539E-03
C:/temp/dataset/6/23_10.odb,Step-1,Increment      1: Step Time =    1.000,"PART-1-1",           574,       9.98204,      -10.2112,            0.,NA,NA,"",   44.9267E-03,  -32.0001E-03,   31.5342E-03,   2.04222E-03
C:/temp/dataset/6/23_10.odb,Step-1,Increment      1: Step Time =    1.000,"PART-1-1",           575,            5.,      -11.2813,            0.,NA,NA,"",   40.4890E-03,  -24.9636E-03,   31.8775E-03,   4.07396E-03
C:/temp/dataset/6/23_10.odb,Step-1,Increment      1: Step Time =    1.000,"PART-1-1",           576,       6.96001,      -11.3098,            0.,NA,NA,"",   42.5698E-03,  -28.1241E-03,   31.9566E-03,   3.31278E-03
C:/temp/dataset/6/23_10.odb,Step-1,Increment      1: Step Time =    1.000,"PART-1-1",           577,       12.1169,      -5.93459,            0.,NA,NA,"",   41.3726E-03,  -27.9412E-03,   30.5120E-03,   330.503E-06
C:/temp/dataset/6/23_10.odb,Step-1,Increment      1: Step Time =    1.000,"PART-1-1",           578,       11.1088,      -6.97100,            0.,NA,NA,"",   44.6504E-03,  -30.2175E-03,   32.8719E-03,   977.969E-06
C:/temp/dataset/6/23_10.odb,Step-1,Increment      1: Step Time =    1.000,"PART-1-1",           579,           15.,      -11.4063,            0.,NA,NA,"",   42.7223E-03,  -32.7129E-03,   27.4784E-03,   446.095E-06
C:/temp/dataset/6/23_10.odb,Step-1,Increment      1: Step Time =    1.000,"PART-1-1",           580,       13.9991,      -10.3053,            0.,NA,NA,"",   42.8745E-03,  -33.1551E-03,   27.1839E-03,   398.872E-06
C:/temp/dataset/6/23_10.odb,Step-1,Increment      1: Step Time =    1.000,"PART-1-1",           581,       12.9941,      -11.4223,            0.,NA,NA,"",   42.7133E-03,  -32.6963E-03,   27.4842E-03,   852.233E-06
C:/temp/dataset/6/23_10.odb,Step-1,Increment      1: Step Time =    1.000,"PART-1-1",           582,           15.,      -9.21875,            0.,NA,NA,"",   41.7216E-03,  -32.5769E-03,   26.0661E-03,   929.927E-06
C:/temp/dataset/6/23_10.odb,Step-1,Increment      1: Step Time =    1.000,"PART-1-1",           583,       9.25975,      -25.9916,            0.,NA,NA,"",   5.35585E-03,  -2.54481E-03,   4.71265E-03,   1.59828E-03
C:/temp/dataset/6/23_10.odb,Step-1,Increment      1: Step Time =    1.000,"PART-1-1",           584,       7.97004,      -27.0667,            0.,NA,NA,"",   2.79035E-03,  -902.075E-06,   2.64051E-03,   1.19650E-03
C:/temp/dataset/6/23_10.odb,Step-1,Increment      1: Step Time =    1.000,"PART-1-1",           585,       9.98268,      -20.3187,            0.,NA,NA,"",   20.0172E-03,  -13.3210E-03,   14.9411E-03,   2.19511E-03
C:/temp/dataset/6/23_10.odb,Step-1,Increment      1: Step Time =    1.000,"PART-1-1",           586,       8.47236,      -19.9740,            0.,NA,NA,"",   18.8212E-03,  -12.5518E-03,   14.0247E-03,   2.27472E-03
C:/temp/dataset/6/23_10.odb,Step-1,Increment      1: Step Time =    1.000,"PART-1-1",           587,       7.80775,      -21.2882,            0.,NA,NA,"",   13.7418E-03,  -8.51565E-03,   10.7852E-03,   2.26826E-03
C:/temp/dataset/6/23_10.odb,Step-1,Increment      1: Step Time =    1.000,"PART-1-1",           588,       9.31806,      -21.6330,            0.,NA,NA,"",   15.2745E-03,  -9.56784E-03,   11.9066E-03,   2.12397E-03
C:/temp/dataset/6/23_10.odb,Step-1,Increment      1: Step Time =    1.000,"PART-1-1",           589,          3.75,          -20.,            0.,NA,NA,"",   6.61658E-03,  -5.46166E-03,   3.73489E-03,   1.94691E-03
C:/temp/dataset/6/23_10.odb,Step-1,Increment      1: Step Time =    1.000,"PART-1-1",           590,       2.69482,      -20.9389,            0.,NA,NA,"",   3.40881E-03,  -2.77639E-03,   1.97778E-03,   1.26713E-03
C:/temp/dataset/6/23_10.odb,Step-1,Increment      1: Step Time =    1.000,"PART-1-1",           591,       4.10336,      -21.5712,            0.,NA,NA,"",   4.85244E-03,  -3.38181E-03,   3.47987E-03,   1.07477E-03
C:/temp/dataset/6/23_10.odb,Step-1,Increment      1: Step Time =    1.000,"PART-1-1",           592,       5.15854,      -20.6323,            0.,NA,NA,"",   9.23061E-03,  -6.18086E-03,   6.85574E-03,   1.98714E-03
C:/temp/dataset/6/23_10.odb,Step-1,Increment      1: Step Time =    1.000,"PART-1-1",           593,          1.25,          -20.,            0.,NA,NA,"",   2.31392E-03,  -1.11389E-03,   2.02817E-03,   1.82930E-03
C:/temp/dataset/6/23_10.odb,Step-1,Increment      1: Step Time =    1.000,"PART-1-1",           594,       1.58638,      -22.3782,            0.,NA,NA,"",   1.29997E-03,  -1.02271E-03,   802.485E-06,   602.875E-06
C:/temp/dataset/6/23_10.odb,Step-1,Increment      1: Step Time =    1.000,"PART-1-1",           595,      -7.18878,      -21.5166,            0.,NA,NA,"",   19.7295E-03,   9.21408E-03,   17.4458E-03,   3.51727E-03
C:/temp/dataset/6/23_10.odb,Step-1,Increment      1: Step Time =    1.000,"PART-1-1",           596,      -8.69544,      -20.4918,            0.,NA,NA,"",   27.0576E-03,   14.6060E-03,   22.7768E-03,   3.47184E-03
C:/temp/dataset/6/23_10.odb,Step-1,Increment      1: Step Time =    1.000,"PART-1-1",           597,      -9.53108,      -21.9939,            0.,NA,NA,"",   22.7520E-03,   12.0328E-03,   19.3097E-03,   3.33787E-03
C:/temp/dataset/6/23_10.odb,Step-1,Increment      1: Step Time =    1.000,"PART-1-1",           598,      -8.02442,      -23.0186,            0.,NA,NA,"",   16.1255E-03,   7.09597E-03,   14.4803E-03,   3.17944E-03
C:/temp/dataset/6/23_10.odb,Step-1,Increment      1: Step Time =    1.000,"PART-1-1",           599,           -5.,      -18.7437,            0.,NA,NA,"",   24.9148E-03,   13.4634E-03,   20.9639E-03,   4.80446E-03
C:/temp/dataset/6/23_10.odb,Step-1,Increment      1: Step Time =    1.000,"PART-1-1",           600,      -6.23242,      -17.5731,            0.,NA,NA,"",   33.7994E-03,   18.2985E-03,   28.4177E-03,   4.21444E-03
C:/temp/dataset/6/23_10.odb,Step-1,Increment      1: Step Time =    1.000,"PART-1-1",           601,      -7.41830,      -18.9573,            0.,NA,NA,"",   30.7842E-03,   16.9133E-03,   25.7217E-03,   3.49262E-03
C:/temp/dataset/6/23_10.odb,Step-1,Increment      1: Step Time =    1.000,"PART-1-1",           602,      -6.18588,      -20.1280,            0.,NA,NA,"",   22.7927E-03,   11.5123E-03,   19.6716E-03,   3.72382E-03
C:/temp/dataset/6/23_10.odb,Step-1,Increment      1: Step Time =    1.000,"PART-1-1",           603,           -5.,      -16.2312,            0.,NA,NA,"",   36.9553E-03,   17.9973E-03,   32.2768E-03,   4.97748E-03
C:/temp/dataset/6/23_10.odb,Step-1,Increment      1: Step Time =    1.000,"PART-1-1",           604,      -7.44257,      -16.3835,            0.,NA,NA,"",   41.1824E-03,   22.6738E-03,   34.3786E-03,   3.98801E-03
C:/temp/dataset/6/23_10.odb,Step-1,Increment      1: Step Time =    1.000,"PART-1-1",           605,      -12.6830,      -26.0788,            0.,NA,NA,"",   13.5803E-03,   7.84429E-03,   11.0856E-03,   3.41526E-03
C:/temp/dataset/6/23_10.odb,Step-1,Increment      1: Step Time =    1.000,"PART-1-1",           606,          -15.,        -26.25,            0.,NA,NA,"",   18.2619E-03,   11.1898E-03,   14.4321E-03,   3.66819E-03
C:/temp/dataset/6/23_10.odb,Step-1,Increment      1: Step Time =    1.000,"PART-1-1",           607,         -8.75,          -30.,            0.,NA,NA,"",            0.,  -51.3240E-42,   3.68991E-39,   1.92699E-03
C:/temp/dataset/6/23_10.odb,Step-1,Increment      1: Step Time =    1.000,"PART-1-1",           608,          -15.,        -18.75,            0.,NA,NA,"",   44.1714E-03,   27.2135E-03,   34.7928E-03,   2.21384E-03
C:/temp/dataset/6/23_10.odb,Step-1,Increment      1: Step Time =    1.000,"PART-1-1",           609,      -12.5734,      -18.8685,            0.,NA,NA,"",   39.2707E-03,   24.2973E-03,   30.8518E-03,   2.78740E-03
C:/temp/dataset/6/23_10.odb,Step-1,Increment      1: Step Time =    1.000,"PART-1-1",           610,           -5.,      -11.2063,            0.,NA,NA,"",   60.8753E-03,   21.5147E-03,   56.9466E-03,   6.13844E-03
C:/temp/dataset/6/23_10.odb,Step-1,Increment      1: Step Time =    1.000,"PART-1-1",           611,      -7.25264,      -11.4522,            0.,NA,NA,"",   60.0404E-03,   26.9224E-03,   53.6660E-03,   4.77687E-03
C:/temp/dataset/6/23_10.odb,Step-1,Increment      1: Step Time =    1.000,"PART-1-1",           612,           -5.,      -6.23750,            0.,NA,NA,"",   92.8701E-03,   14.4062E-03,   91.7459E-03,   11.7347E-03
C:/temp/dataset/6/23_10.odb,Step-1,Increment      1: Step Time =    1.000,"PART-1-1",           613,      -6.16987,      -5.46941,            0.,NA,NA,"",   87.8618E-03,   15.5078E-03,   86.4824E-03,   6.38115E-03
C:/temp/dataset/6/23_10.odb,Step-1,Increment      1: Step Time =    1.000,"PART-1-1",           614,      -7.24309,      -6.98789,            0.,NA,NA,"",   76.3681E-03,   21.9791E-03,   73.1369E-03,   3.82876E-03
C:/temp/dataset/6/23_10.odb,Step-1,Increment      1: Step Time =    1.000,"PART-1-1",           615,           -5.,       16.4583,            0.,NA,NA,"",   141.491E-03,  -95.5356E-03,   104.368E-03,   4.69619E-06
C:/temp/dataset/6/23_10.odb,Step-1,Increment      1: Step Time =    1.000,"PART-1-1",           616,      -7.23328,       16.4840,            0.,NA,NA,"",   132.124E-03,  -95.6483E-03,   91.1485E-03,   10.2143E-06
C:/temp/dataset/6/23_10.odb,Step-1,Increment      1: Step Time =    1.000,"PART-1-1",           617,      -6.08867,       15.3700,            0.,NA,NA,"",   132.404E-03,  -89.0868E-03,   97.9509E-03,   9.53225E-06
C:/temp/dataset/6/23_10.odb,Step-1,Increment      1: Step Time =    1.000,"PART-1-1",           618,      -13.1522,       16.1892,            0.,NA,NA,"",   109.270E-03,  -93.7596E-03,   56.1157E-03,   10.3421E-06
C:/temp/dataset/6/23_10.odb,Step-1,Increment      1: Step Time =    1.000,"PART-1-1",           619,      -14.0864,       17.4486,            0.,NA,NA,"",   113.135E-03,  -101.208E-03,   50.5617E-03,   2.21606E-06
C:/temp/dataset/6/23_10.odb,Step-1,Increment      1: Step Time =    1.000,"PART-1-1",           620,          -15.,         16.25,            0.,NA,NA,"",   104.371E-03,  -94.0890E-03,   45.1727E-03,   5.29368E-06
C:/temp/dataset/6/23_10.odb,Step-1,Increment      1: Step Time =    1.000,"PART-1-1",           621,           -5.,       24.7917,            0.,NA,NA,"",   178.450E-03,  -144.850E-03,   104.224E-03,   275.558E-09
C:/temp/dataset/6/23_10.odb,Step-1,Increment      1: Step Time =    1.000,"PART-1-1",           622,      -6.14442,       25.7689,            0.,NA,NA,"",   179.383E-03,  -150.615E-03,   97.4326E-03,   131.060E-09
C:/temp/dataset/6/23_10.odb,Step-1,Increment      1: Step Time =    1.000,"PART-1-1",           623,           -5.,        26.875,            0.,NA,NA,"",   188.579E-03,  -157.184E-03,   104.188E-03,   94.4328E-09
C:/temp/dataset/6/23_10.odb,Step-1,Increment      1: Step Time =    1.000,"PART-1-1",           624,      -7.36924,       26.7689,            0.,NA,NA,"",   180.628E-03,  -156.514E-03,   90.1644E-03,   139.496E-09
C:/temp/dataset/6/23_10.odb,Step-1,Increment      1: Step Time =    1.000,"PART-1-1",           625,      -13.1175,       20.9132,            0.,NA,NA,"",   134.108E-03,  -121.747E-03,   56.2370E-03,   277.798E-09
C:/temp/dataset/6/23_10.odb,Step-1,Increment      1: Step Time =    1.000,"PART-1-1",           626,      -14.0212,       22.2867,            0.,NA,NA,"",   139.468E-03,  -129.863E-03,   50.8623E-03,   335.149E-09
C:/temp/dataset/6/23_10.odb,Step-1,Increment      1: Step Time =    1.000,"PART-1-1",           627,          -15.,         21.25,            0.,NA,NA,"",   131.667E-03,  -123.707E-03,   45.0848E-03,   678.533E-09
C:/temp/dataset/6/23_10.odb,Step-1,Increment      1: Step Time =    1.000,"PART-1-1",           628,      -14.0963,       19.8765,            0.,NA,NA,"",   126.124E-03,  -115.590E-03,   50.4596E-03,   441.443E-09
C:/temp/dataset/6/23_10.odb,Step-1,Increment      1: Step Time =    1.000,"PART-1-1",           629,         -1.25,           -5.,            0.,NA,NA,"",   150.867E-03,  -10.7597E-03,   150.483E-03,   10.3234E-03
C:/temp/dataset/6/23_10.odb,Step-1,Increment      1: Step Time =    1.000,"PART-1-1",           630,      -1.77292,      -3.03732,            0.,NA,NA,"",   140.707E-03,  -4.77241E-03,   140.626E-03,   7.33837E-03
C:/temp/dataset/6/23_10.odb,Step-1,Increment      1: Step Time =    1.000,"PART-1-1",           631,      -12.1053,      -2.30059,            0.,NA,NA,"",   58.5133E-03,   5.65618E-03,   58.2393E-03,   1.40246E-03
C:/temp/dataset/6/23_10.odb,Step-1,Increment      1: Step Time =    1.000,"PART-1-1",           632,      -10.7648,      -1.40855,            0.,NA,NA,"",   66.6596E-03,   261.920E-06,   66.6591E-03,   1.89403E-03
C:/temp/dataset/6/23_10.odb,Step-1,Increment      1: Step Time =    1.000,"PART-1-1",           633,      -11.5438,  -354.672E-03,            0.,NA,NA,"",   63.5936E-03,  -3.76703E-03,   63.4819E-03,   1.50336E-03
C:/temp/dataset/6/23_10.odb,Step-1,Increment      1: Step Time =    1.000,"PART-1-1",           634,          3.75,           -5.,            0.,NA,NA,"",   88.2283E-03,  -24.9784E-03,   84.6187E-03,   2.19577E-03
C:/temp/dataset/6/23_10.odb,Step-1,Increment      1: Step Time =    1.000,"PART-1-1",           635,       4.52066,      -3.83856,            0.,NA,NA,"",   75.9581E-03,  -14.5575E-03,   74.5501E-03,   5.16151E-03
C:/temp/dataset/6/23_10.odb,Step-1,Increment      1: Step Time =    1.000,"PART-1-1",           636,       2.94662,      -2.72704,            0.,NA,NA,"",   95.5200E-03,  -6.04032E-03,   95.3288E-03,   4.49752E-03
C:/temp/dataset/6/23_10.odb,Step-1,Increment      1: Step Time =    1.000,"PART-1-1",           637,       1.50395,       2.56821,            0.,NA,NA,"",   107.466E-03,   7.05633E-03,   107.234E-03,   3.73222E-03
C:/temp/dataset/6/23_10.odb,Step-1,Increment      1: Step Time =    1.000,"PART-1-1",           638,          1.25,            5.,            0.,NA,NA,"",   105.558E-03,   15.1021E-03,   104.472E-03,   5.05356E-03
C:/temp/dataset/6/23_10.odb,Step-1,Increment      1: Step Time =    1.000,"PART-1-1",           639,          6.25,            5.,            0.,NA,NA,"",   74.2632E-03,   27.2986E-03,   69.0638E-03,   696.025E-06
C:/temp/dataset/6/23_10.odb,Step-1,Increment      1: Step Time =    1.000,"PART-1-1",           640,  -213.968E-03,      -26.0734,            0.,NA,NA,"",   936.585E-06,  -794.816E-06,   495.439E-06,   282.013E-06
C:/temp/dataset/6/23_10.odb,Step-1,Increment      1: Step Time =    1.000,"PART-1-1",           641,       1.14210,      -23.8512,            0.,NA,NA,"",   850.162E-06,  -715.228E-06,   459.591E-06,   192.107E-06
C:/temp/dataset/6/23_10.odb,Step-1,Increment      1: Step Time =    1.000,"PART-1-1",           642,  -234.527E-03,      -23.9674,            0.,NA,NA,"",   834.069E-06,  -501.056E-06,   666.793E-06,   197.932E-06
C:/temp/dataset/6/23_10.odb,Step-1,Increment      1: Step Time =    1.000,"PART-1-1",           643,           -5.,        14.375,            0.,NA,NA,"",   133.528E-03,  -83.2236E-03,   104.420E-03,   20.5500E-06
C:/temp/dataset/6/23_10.odb,Step-1,Increment      1: Step Time =    1.000,"PART-1-1",           644,      -7.14364,       14.2292,            0.,NA,NA,"",   123.249E-03,  -82.3295E-03,   91.7173E-03,   27.5897E-06
C:/temp/dataset/6/23_10.odb,Step-1,Increment      1: Step Time =    1.000,"PART-1-1",           645,           -5.,       6.04167,            0.,NA,NA,"",   110.837E-03,  -32.1335E-03,   106.077E-03,   974.567E-06
C:/temp/dataset/6/23_10.odb,Step-1,Increment      1: Step Time =    1.000,"PART-1-1",           646,      -5.82078,       6.95384,            0.,NA,NA,"",   107.344E-03,  -38.4457E-03,   100.223E-03,   517.423E-06
C:/temp/dataset/6/23_10.odb,Step-1,Increment      1: Step Time =    1.000,"PART-1-1",           647,      -6.45742,       5.85906,            0.,NA,NA,"",   101.001E-03,  -30.8922E-03,   96.1609E-03,   1.04947E-03
C:/temp/dataset/6/23_10.odb,Step-1,Increment      1: Step Time =    1.000,"PART-1-1",           648,      -5.63664,       4.94688,            0.,NA,NA,"",   104.559E-03,  -22.7787E-03,   102.047E-03,   2.95806E-03
C:/temp/dataset/6/23_10.odb,Step-1,Increment      1: Step Time =    1.000,"PART-1-1",           649,           -5.,         8.125,            0.,NA,NA,"",   114.817E-03,  -45.9579E-03,   105.218E-03,   338.768E-06
C:/temp/dataset/6/23_10.odb,Step-1,Increment      1: Step Time =    1.000,"PART-1-1",           650,      -5.96903,       9.00386,            0.,NA,NA,"",   111.539E-03,  -51.3727E-03,   99.0040E-03,   143.303E-06
C:/temp/dataset/6/23_10.odb,Step-1,Increment      1: Step Time =    1.000,"PART-1-1",           651,          -15.,         -3.75,            0.,NA,NA,"",   45.8867E-03,   13.7970E-03,   43.7633E-03,   434.017E-06
C:/temp/dataset/6/23_10.odb,Step-1,Increment      1: Step Time =    1.000,"PART-1-1",           652,      -12.7846,      -3.59401,            0.,NA,NA,"",   54.9780E-03,   12.2395E-03,   53.5983E-03,   1.14028E-03
C:/temp/dataset/6/23_10.odb,Step-1,Increment      1: Step Time =    1.000,"PART-1-1",           653,      -11.5430,      -4.20540,            0.,NA,NA,"",   60.0403E-03,   14.2151E-03,   58.3332E-03,   1.67184E-03
C:/temp/dataset/6/23_10.odb,Step-1,Increment      1: Step Time =    1.000,"PART-1-1",           654,      -10.1018,      -4.29084,            0.,NA,NA,"",   66.2241E-03,   13.2464E-03,   64.8857E-03,   2.23701E-03
C:/temp/dataset/6/23_10.odb,Step-1,Increment      1: Step Time =    1.000,"PART-1-1",           655,          -15.,        -11.25,            0.,NA,NA,"",   55.3150E-03,   34.8480E-03,   42.9577E-03,   357.411E-06
C:/temp/dataset/6/23_10.odb,Step-1,Increment      1: Step Time =    1.000,"PART-1-1",           656,      -12.2331,      -11.1785,            0.,NA,NA,"",   57.0144E-03,   33.5159E-03,   46.1229E-03,   1.95058E-03
C:/temp/dataset/6/23_10.odb,Step-1,Increment      1: Step Time =    1.000,"PART-1-1",           657,       5.21391,      -1.02834,            0.,NA,NA,"",   74.8101E-03,  -2.20206E-03,   74.7777E-03,   3.90545E-03
C:/temp/dataset/6/23_10.odb,Step-1,Increment      1: Step Time =    1.000,"PART-1-1",           658,       6.72319,      -1.59046,            0.,NA,NA,"",   61.3325E-03,  -6.89632E-03,   60.9436E-03,   3.20794E-03
C:/temp/dataset/6/23_10.odb,Step-1,Increment      1: Step Time =    1.000,"PART-1-1",           659,       10.9187,      -16.2245,            0.,NA,NA,"",   32.8616E-03,  -24.1146E-03,   22.3242E-03,   1.96406E-03
C:/temp/dataset/6/23_10.odb,Step-1,Increment      1: Step Time =    1.000,"PART-1-1",           660,       11.9858,      -14.8752,            0.,NA,NA,"",   37.0189E-03,  -27.6377E-03,   24.6284E-03,   1.57957E-03
C:/temp/dataset/6/23_10.odb,Step-1,Increment      1: Step Time =    1.000,"PART-1-1",           661,       10.9746,      -13.7451,            0.,NA,NA,"",   38.8521E-03,  -29.0435E-03,   25.8062E-03,   1.84625E-03
C:/temp/dataset/6/23_10.odb,Step-1,Increment      1: Step Time =    1.000,"PART-1-1",           662,       11.9830,      -12.5543,            0.,NA,NA,"",   41.3632E-03,  -31.3074E-03,   27.0327E-03,   1.38588E-03
C:/temp/dataset/6/23_10.odb,Step-1,Increment      1: Step Time =    1.000,"PART-1-1",           663,           15.,      -20.1563,            0.,NA,NA,"",   28.4730E-03,  -18.1236E-03,   21.9601E-03,   1.79461E-03
C:/temp/dataset/6/23_10.odb,Step-1,Increment      1: Step Time =    1.000,"PART-1-1",           664,       14.0841,      -19.1367,            0.,NA,NA,"",   29.3158E-03,  -19.6447E-03,   21.7601E-03,   1.64130E-03
C:/temp/dataset/6/23_10.odb,Step-1,Increment      1: Step Time =    1.000,"PART-1-1",           665,       13.0385,      -20.2889,            0.,NA,NA,"",   24.5231E-03,  -16.2268E-03,   18.3867E-03,   1.87923E-03
C:/temp/dataset/6/23_10.odb,Step-1,Increment      1: Step Time =    1.000,"PART-1-1",           666,           15.,      -17.9688,            0.,NA,NA,"",   33.8660E-03,  -22.8077E-03,   25.0343E-03,   1.29072E-03
C:/temp/dataset/6/23_10.odb,Step-1,Increment      1: Step Time =    1.000,"PART-1-1",           667,          1.25,          -30.,            0.,NA,NA,"",            0.,  -94.9310E-42,   582.731E-42,   327.978E-06
C:/temp/dataset/6/23_10.odb,Step-1,Increment      1: Step Time =    1.000,"PART-1-1",           668,       3.30543,      -22.6598,            0.,NA,NA,"",   2.55860E-03,  -1.81027E-03,   1.80814E-03,   639.236E-06
C:/temp/dataset/6/23_10.odb,Step-1,Increment      1: Step Time =    1.000,"PART-1-1",           669,       2.86115,      -24.1329,            0.,NA,NA,"",   1.40231E-03,  -960.767E-06,   1.02146E-03,   320.665E-06
C:/temp/dataset/6/23_10.odb,Step-1,Increment      1: Step Time =    1.000,"PART-1-1",           670,      -10.6801,      -21.6169,            0.,NA,NA,"",   26.2011E-03,   14.7925E-03,   21.6260E-03,   3.30584E-03
C:/temp/dataset/6/23_10.odb,Step-1,Increment      1: Step Time =    1.000,"PART-1-1",           671,      -11.3394,      -20.4213,            0.,NA,NA,"",   31.8092E-03,   18.8357E-03,   25.6328E-03,   3.15142E-03
C:/temp/dataset/6/23_10.odb,Step-1,Increment      1: Step Time =    1.000,"PART-1-1",           672,      -12.1593,      -22.4638,            0.,NA,NA,"",   25.7452E-03,   14.9231E-03,   20.9790E-03,   3.20261E-03
C:/temp/dataset/6/23_10.odb,Step-1,Increment      1: Step Time =    1.000,"PART-1-1",           673,      -9.92443,      -16.4516,            0.,NA,NA,"",   44.0461E-03,   26.3140E-03,   35.3219E-03,   3.29590E-03
C:/temp/dataset/6/23_10.odb,Step-1,Increment      1: Step Time =    1.000,"PART-1-1",           674,      -8.71114,      -17.7111,            0.,NA,NA,"",   37.9985E-03,   21.9373E-03,   31.0264E-03,   3.50225E-03
C:/temp/dataset/6/23_10.odb,Step-1,Increment      1: Step Time =    1.000,"PART-1-1",           675,      -9.25100,      -7.50767,            0.,NA,NA,"",   66.7416E-03,   25.4856E-03,   61.6841E-03,   2.89913E-03
C:/temp/dataset/6/23_10.odb,Step-1,Increment      1: Step Time =    1.000,"PART-1-1",           676,      -8.32615,      -6.25855,            0.,NA,NA,"",   72.1885E-03,   20.3503E-03,   69.2607E-03,   3.18551E-03
C:/temp/dataset/6/23_10.odb,Step-1,Increment      1: Step Time =    1.000,"PART-1-1",           677,      -7.58018,      -5.09368,            0.,NA,NA,"",   78.6542E-03,   14.5751E-03,   77.2920E-03,   3.86739E-03
C:/temp/dataset/6/23_10.odb,Step-1,Increment      1: Step Time =    1.000,"PART-1-1",           678,      -6.67379,      -3.84489,            0.,NA,NA,"",   89.4517E-03,   3.61911E-03,   89.3785E-03,   6.30357E-03
C:/temp/dataset/6/23_10.odb,Step-1,Increment      1: Step Time =    1.000,"PART-1-1",           679,      -2.40491,      -1.03021,            0.,NA,NA,"",   130.117E-03,  -5.69728E-03,   129.992E-03,   4.60668E-03
C:/temp/dataset/6/23_10.odb,Step-1,Increment      1: Step Time =    1.000,"PART-1-1",           680,      -3.32453,      -2.14711,            0.,NA,NA,"",   131.138E-03,  -7.94241E-03,   130.897E-03,   7.57402E-03
C:/temp/dataset/6/23_10.odb,Step-1,Increment      1: Step Time =    1.000,"PART-1-1",           681,       10.4745,      -24.8101,            0.,NA,NA,"",   9.05073E-03,  -5.04538E-03,   7.51398E-03,   1.94273E-03
C:/temp/dataset/6/23_10.odb,Step-1,Increment      1: Step Time =    1.000,"PART-1-1",           682,       8.16019,      -23.0435,            0.,NA,NA,"",   9.86773E-03,  -5.56257E-03,   8.15046E-03,   1.91737E-03
C:/temp/dataset/6/23_10.odb,Step-1,Increment      1: Step Time =    1.000,"PART-1-1",           683,       9.40124,      -23.8494,            0.,NA,NA,"",   9.82764E-03,  -5.52247E-03,   8.12926E-03,   1.88831E-03
C:/temp/dataset/6/23_10.odb,Step-1,Increment      1: Step Time =    1.000,"PART-1-1",           684,       5.67200,      -27.0943,            0.,NA,NA,"",   1.56269E-03,  -257.901E-06,   1.54126E-03,   694.897E-06
C:/temp/dataset/6/23_10.odb,Step-1,Increment      1: Step Time =    1.000,"PART-1-1",           685,       4.86106,      -26.0050,            0.,NA,NA,"",   1.79506E-03,  -562.300E-06,   1.70471E-03,   580.971E-06
C:/temp/dataset/6/23_10.odb,Step-1,Increment      1: Step Time =    1.000,"PART-1-1",           686,      -2.55341,      -23.8484,            0.,NA,NA,"",   2.73591E-03,   1.79334E-06,   2.73591E-03,   688.873E-06
C:/temp/dataset/6/23_10.odb,Step-1,Increment      1: Step Time =    1.000,"PART-1-1",           687,      -4.82130,      -23.8875,            0.,NA,NA,"",   6.76446E-03,   1.32228E-03,   6.63397E-03,   1.75275E-03
C:/temp/dataset/6/23_10.odb,Step-1,Increment      1: Step Time =    1.000,"PART-1-1",           688,      -5.84083,      -25.1777,            0.,NA,NA,"",   6.35847E-03,   968.521E-06,   6.28427E-03,   1.85734E-03
C:/temp/dataset/6/23_10.odb,Step-1,Increment      1: Step Time =    1.000,"PART-1-1",           689,           15.,      -26.7188,            0.,NA,NA,"",   11.0489E-03,  -6.77835E-03,   8.72539E-03,   2.59586E-03
C:/temp/dataset/6/23_10.odb,Step-1,Increment      1: Step Time =    1.000,"PART-1-1",           690,       10.9874,      -11.4075,            0.,NA,NA,"",   43.0070E-03,  -31.9573E-03,   28.7808E-03,   1.69703E-03
C:/temp/dataset/6/23_10.odb,Step-1,Increment      1: Step Time =    1.000,"PART-1-1",           691,       7.29436,      -19.7763,            0.,NA,NA,"",   17.4582E-03,  -11.7429E-03,   12.9187E-03,   2.37247E-03
C:/temp/dataset/6/23_10.odb,Step-1,Increment      1: Step Time =    1.000,"PART-1-1",           692,       7.78340,      -18.7858,            0.,NA,NA,"",   21.4610E-03,  -14.9592E-03,   15.3882E-03,   2.23807E-03
C:/temp/dataset/6/23_10.odb,Step-1,Increment      1: Step Time =    1.000,"PART-1-1",           693,       10.8970,      -2.99004,            0.,NA,NA,"",   39.9085E-03,  -17.1332E-03,   36.0436E-03,   727.136E-06
C:/temp/dataset/6/23_10.odb,Step-1,Increment      1: Step Time =    1.000,"PART-1-1",           694,       12.0828,      -3.88727,            0.,NA,NA,"",   37.5074E-03,  -21.1076E-03,   31.0044E-03,   307.221E-06
C:/temp/dataset/6/23_10.odb,Step-1,Increment      1: Step Time =    1.000,"PART-1-1",           695,           15.,       1.71875,            0.,NA,NA,"",   17.8790E-03,   7.33728E-03,   16.3041E-03,   314.648E-06
C:/temp/dataset/6/23_10.odb,Step-1,Increment      1: Step Time =    1.000,"PART-1-1",           696,       4.00043,  -427.215E-03,            0.,NA,NA,"",   87.1530E-03,   1.38060E-03,   87.1421E-03,   4.49466E-03
C:/temp/dataset/6/23_10.odb,Step-1,Increment      1: Step Time =    1.000,"PART-1-1",           697,       2.09609,       1.00148,            0.,NA,NA,"",   104.712E-03,   4.75312E-03,   104.605E-03,   4.24971E-03
C:/temp/dataset/6/23_10.odb,Step-1,Increment      1: Step Time =    1.000,"PART-1-1",           698,       2.38138,  -554.063E-03,            0.,NA,NA,"",   102.836E-03,   1.78470E-03,   102.821E-03,   4.81470E-03
C:/temp/dataset/6/23_10.odb,Step-1,Increment      1: Step Time =    1.000,"PART-1-1",           699,   35.7305E-03,       2.11113,            0.,NA,NA,"",   116.371E-03,   2.49123E-03,   116.344E-03,   3.90617E-03
C:/temp/dataset/6/23_10.odb,Step-1,Increment      1: Step Time =    1.000,"PART-1-1",           700,           -5.,       10.2083,            0.,NA,NA,"",   119.983E-03,  -58.5538E-03,   104.726E-03,   163.622E-06
C:/temp/dataset/6/23_10.odb,Step-1,Increment      1: Step Time =    1.000,"PART-1-1",           701,      -6.99901,       9.90050,            0.,NA,NA,"",   108.630E-03,  -56.7314E-03,   92.6389E-03,   98.2134E-06
C:/temp/dataset/6/23_10.odb,Step-1,Increment      1: Step Time =    1.000,"PART-1-1",           702,      -11.2396,       16.2208,            0.,NA,NA,"",   115.675E-03,  -93.9899E-03,   67.4278E-03,   12.7863E-06
C:/temp/dataset/6/23_10.odb,Step-1,Increment      1: Step Time =    1.000,"PART-1-1",           703,      -10.2112,       15.1096,            0.,NA,NA,"",   114.238E-03,  -87.4368E-03,   73.5194E-03,   18.1477E-06
C:/temp/dataset/6/23_10.odb,Step-1,Increment      1: Step Time =    1.000,"PART-1-1",           704,      -9.25876,       16.3324,            0.,NA,NA,"",   123.425E-03,  -94.7038E-03,   79.1509E-03,   12.6860E-06
C:/temp/dataset/6/23_10.odb,Step-1,Increment      1: Step Time =    1.000,"PART-1-1",           705,      -10.2871,       17.4437,            0.,NA,NA,"",   124.856E-03,  -101.256E-03,   73.0495E-03,   5.71503E-06
C:/temp/dataset/6/23_10.odb,Step-1,Increment      1: Step Time =    1.000,"PART-1-1",           706,      -8.19479,       15.2434,            0.,NA,NA,"",   122.882E-03,  -88.2924E-03,   85.4664E-03,   15.8895E-06
C:/temp/dataset/6/23_10.odb,Step-1,Increment      1: Step Time =    1.000,"PART-1-1",           707,      -9.19446,       14.0222,            0.,NA,NA,"",   113.551E-03,  -81.0383E-03,   79.5403E-03,   33.2323E-06
C:/temp/dataset/6/23_10.odb,Step-1,Increment      1: Step Time =    1.000,"PART-1-1",           708,      -8.14331,       13.0080,            0.,NA,NA,"",   114.001E-03,  -75.0870E-03,   85.7803E-03,   39.1731E-06
C:/temp/dataset/6/23_10.odb,Step-1,Increment      1: Step Time =    1.000,"PART-1-1",           709,          -15.,         18.75,            0.,NA,NA,"",   117.882E-03,  -108.903E-03,   45.1268E-03,   97.8372E-09
C:/temp/dataset/6/23_10.odb,Step-1,Increment      1: Step Time =    1.000,"PART-1-1",           710,      -13.1826,       18.5751,            0.,NA,NA,"",   121.516E-03,  -107.899E-03,   55.8924E-03,   2.54946E-06
C:/temp/dataset/6/23_10.odb,Step-1,Increment      1: Step Time =    1.000,"PART-1-1",           711,      -11.2313,       23.3702,            0.,NA,NA,"",   152.061E-03,  -136.327E-03,   67.3609E-03,   200.088E-09
C:/temp/dataset/6/23_10.odb,Step-1,Increment      1: Step Time =    1.000,"PART-1-1",           712,      -10.8173,       24.9058,            0.,NA,NA,"",   161.302E-03,  -145.424E-03,   69.7849E-03,   179.204E-09
C:/temp/dataset/6/23_10.odb,Step-1,Increment      1: Step Time =    1.000,"PART-1-1",           713,      -13.5418,       24.7667,            0.,NA,NA,"",   154.191E-03,  -144.554E-03,   53.6577E-03,   163.031E-09
C:/temp/dataset/6/23_10.odb,Step-1,Increment      1: Step Time =    1.000,"PART-1-1",           714,      -12.2278,       25.9824,            0.,NA,NA,"",   163.728E-03,  -151.773E-03,   61.4157E-03,   169.237E-09
C:/temp/dataset/6/23_10.odb,Step-1,Increment      1: Step Time =    1.000,"PART-1-1",           715,          -15.,         26.25,            0.,NA,NA,"",   159.777E-03,  -153.309E-03,   44.9991E-03,   142.171E-09
C:/temp/dataset/6/23_10.odb,Step-1,Increment      1: Step Time =    1.000,"PART-1-1",           716,          -15.,         23.75,            0.,NA,NA,"",   145.648E-03,  -138.509E-03,   45.0423E-03,   400.821E-09
C:/temp/dataset/6/23_10.odb,Step-1,Increment      1: Step Time =    1.000,"PART-1-1",           717,      -12.5630,       23.3034,            0.,NA,NA,"",   148.353E-03,  -135.908E-03,   59.4781E-03,   211.020E-09
C:/temp/dataset/6/23_10.odb,Step-1,Increment      1: Step Time =    1.000,"PART-1-1",           718,      -11.1827,       13.8735,            0.,NA,NA,"",   104.910E-03,  -80.0769E-03,   67.7772E-03,   33.0960E-06
C:/temp/dataset/6/23_10.odb,Step-1,Increment      1: Step Time =    1.000,"PART-1-1",           719,      -10.1659,       12.7861,            0.,NA,NA,"",   104.262E-03,  -73.6762E-03,   73.7727E-03,   44.2824E-06
C:/temp/dataset/6/23_10.odb,Step-1,Increment      1: Step Time =    1.000,"PART-1-1",           720,      -11.4858,       20.4947,            0.,NA,NA,"",   136.292E-03,  -119.298E-03,   65.9051E-03,   861.736E-09
C:/temp/dataset/6/23_10.odb,Step-1,Increment      1: Step Time =    1.000,"PART-1-1",           721,      -10.4732,       19.7487,            0.,NA,NA,"",   135.548E-03,  -114.899E-03,   71.9123E-03,   1.28270E-06
C:/temp/dataset/6/23_10.odb,Step-1,Increment      1: Step Time =    1.000,"PART-1-1",           722,      -10.9778,       21.7959,            0.,NA,NA,"",   144.490E-03,  -127.011E-03,   68.8897E-03,   263.455E-09
C:/temp/dataset/6/23_10.odb,Step-1,Increment      1: Step Time =    1.000,"PART-1-1",           723,      -9.13796,       11.7463,            0.,NA,NA,"",   104.598E-03,  -67.5764E-03,   79.8379E-03,   63.3049E-06
C:/temp/dataset/6/23_10.odb,Step-1,Increment      1: Step Time =    1.000,"PART-1-1",           724,      -11.1090,       11.4975,            0.,NA,NA,"",   94.8879E-03,  -65.9885E-03,   68.1852E-03,   60.0836E-06
C:/temp/dataset/6/23_10.odb,Step-1,Increment      1: Step Time =    1.000,"PART-1-1",           725,      -7.95801,       5.48811,            0.,NA,NA,"",   92.1568E-03,  -29.8487E-03,   87.1890E-03,   976.950E-06
C:/temp/dataset/6/23_10.odb,Step-1,Increment      1: Step Time =    1.000,"PART-1-1",           726,      -9.27172,       5.51676,            0.,NA,NA,"",   84.9397E-03,  -30.8293E-03,   79.1474E-03,   552.239E-06
C:/temp/dataset/6/23_10.odb,Step-1,Increment      1: Step Time =    1.000,"PART-1-1",           727,      -9.10783,       4.19071,            0.,NA,NA,"",   84.0271E-03,  -23.7944E-03,   80.5878E-03,   1.30385E-03
C:/temp/dataset/6/23_10.odb,Step-1,Increment      1: Step Time =    1.000,"PART-1-1",           728,      -7.79412,       4.16207,            0.,NA,NA,"",   91.8493E-03,  -22.4903E-03,   89.0532E-03,   1.69246E-03
C:/temp/dataset/6/23_10.odb,Step-1,Increment      1: Step Time =    1.000,"PART-1-1",           729,      -10.3652,   710.465E-03,            0.,NA,NA,"",   72.2877E-03,  -9.10966E-03,   71.7114E-03,   1.75498E-03
C:/temp/dataset/6/23_10.odb,Step-1,Increment      1: Step Time =    1.000,"PART-1-1",           730,      -11.5756,       2.14983,            0.,NA,NA,"",   66.7376E-03,  -14.9025E-03,   65.0524E-03,   1.08510E-03
C:/temp/dataset/6/23_10.odb,Step-1,Increment      1: Step Time =    1.000,"PART-1-1",           731,      -10.9514,      -7.70102,            0.,NA,NA,"",   61.5829E-03,   27.2999E-03,   55.2011E-03,   2.00394E-03
C:/temp/dataset/6/23_10.odb,Step-1,Increment      1: Step Time =    1.000,"PART-1-1",           732,      -11.1587,      -15.1039,            0.,NA,NA,"",   49.2495E-03,   30.1836E-03,   38.9161E-03,   2.83837E-03
C:/temp/dataset/6/23_10.odb,Step-1,Increment      1: Step Time =    1.000,"PART-1-1",           733,      -11.0422,      -12.5823,            0.,NA,NA,"",   55.4070E-03,   32.4441E-03,   44.9145E-03,   2.73875E-03
C:/temp/dataset/6/23_10.odb,Step-1,Increment      1: Step Time =    1.000,"PART-1-1",           734,      -9.98828,      -19.2456,            0.,NA,NA,"",   34.0792E-03,   19.9475E-03,   27.6313E-03,   3.31053E-03
C:/temp/dataset/6/23_10.odb,Step-1,Increment      1: Step Time =    1.000,"PART-1-1",           735,      -11.2222,      -17.6929,            0.,NA,NA,"",   41.3293E-03,   25.3892E-03,   32.6114E-03,   2.96540E-03
C:/temp/dataset/6/23_10.odb,Step-1,Increment      1: Step Time =    1.000,"PART-1-1",           736,      -9.72809,       26.4627,            0.,NA,NA,"",   172.416E-03,  -154.660E-03,   76.2056E-03,   142.031E-09
C:/temp/dataset/6/23_10.odb,Step-1,Increment      1: Step Time =    1.000,"PART-1-1",           737,      -8.07960,       10.7858,            0.,NA,NA,"",   106.089E-03,  -61.9433E-03,   86.1271E-03,   73.0833E-06
C:/temp/dataset/6/23_10.odb,Step-1,Increment      1: Step Time =    1.000,"PART-1-1",           738,      -11.3320,       18.4953,            0.,NA,NA,"",   126.557E-03,  -107.461E-03,   66.8491E-03,   3.84991E-06
C:/temp/dataset/6/23_10.odb,Step-1,Increment      1: Step Time =    1.000,"PART-1-1",           739,      -10.4893,       6.32554,            0.,NA,NA,"",   80.1628E-03,  -35.7187E-03,   71.7652E-03,   331.339E-06
C:/temp/dataset/6/23_10.odb,Step-1,Increment      1: Step Time =    1.000,"PART-1-1",           740,      -11.8356,       7.66802,            0.,NA,NA,"",   77.2990E-03,  -43.4763E-03,   63.9136E-03,   63.7995E-06
C:/temp/dataset/6/23_10.odb,Step-1,Increment      1: Step Time =    1.000,"PART-1-1",           741,      -11.4125,       4.87054,            0.,NA,NA,"",   72.1020E-03,  -28.0415E-03,   66.4257E-03,   483.101E-06
C:/temp/dataset/6/23_10.odb,Step-1,Increment      1: Step Time =    1.000,"PART-1-1",           742,       10.1911,      -5.79504,            0.,NA,NA,"",   45.7374E-03,  -27.4494E-03,   36.5846E-03,   1.21530E-03
C:/temp/dataset/6/23_10.odb,Step-1,Increment      1: Step Time =    1.000,"PART-1-1",           743,       9.10708,      -6.74300,            0.,NA,NA,"",   48.6871E-03,  -29.2640E-03,   38.9108E-03,   1.93810E-03
C:/temp/dataset/6/23_10.odb,Step-1,Increment      1: Step Time =    1.000,"PART-1-1",           744,       11.1638,      -4.94873,            0.,NA,NA,"",   42.0978E-03,  -24.9646E-03,   33.8968E-03,   654.353E-06
C:/temp/dataset/6/23_10.odb,Step-1,Increment      1: Step Time =    1.000,"PART-1-1",           745,       10.4293,      -4.08570,            0.,NA,NA,"",   43.0289E-03,  -21.6791E-03,   37.1686E-03,   935.575E-06
C:/temp/dataset/6/23_10.odb,Step-1,Increment      1: Step Time =    1.000,"PART-1-1",           746,       9.97038,      -14.8971,            0.,NA,NA,"",   35.5059E-03,  -26.2043E-03,   23.9584E-03,   2.11484E-03
C:/temp/dataset/6/23_10.odb,Step-1,Increment      1: Step Time =    1.000,"PART-1-1",           747,       9.96577,      -12.5508,            0.,NA,NA,"",   40.9493E-03,  -30.0707E-03,   27.7957E-03,   2.12446E-03
C:/temp/dataset/6/23_10.odb,Step-1,Increment      1: Step Time =    1.000,"PART-1-1",           748,       8.96159,      -13.7029,            0.,NA,NA,"",   37.7912E-03,  -27.4935E-03,   25.9284E-03,   2.40917E-03
C:/temp/dataset/6/23_10.odb,Step-1,Increment      1: Step Time =    1.000,"PART-1-1",           749,       6.92617,      -22.4012,            0.,NA,NA,"",   9.21015E-03,  -5.23614E-03,   7.57692E-03,   1.80672E-03
C:/temp/dataset/6/23_10.odb,Step-1,Increment      1: Step Time =    1.000,"PART-1-1",           750,       5.94981,      -23.5281,            0.,NA,NA,"",   5.44839E-03,  -2.79321E-03,   4.67792E-03,   1.30135E-03
C:/temp/dataset/6/23_10.odb,Step-1,Increment      1: Step Time =    1.000,"PART-1-1",           751,       7.18383,      -24.1705,            0.,NA,NA,"",   6.20434E-03,  -3.08101E-03,   5.38527E-03,   1.42875E-03
C:/temp/dataset/6/23_10.odb,Step-1,Increment      1: Step Time =    1.000,"PART-1-1",           752,       11.0968,      -20.2176,            0.,NA,NA,"",   21.8620E-03,  -14.6648E-03,   16.2139E-03,   2.07454E-03
C:/temp/dataset/6/23_10.odb,Step-1,Increment      1: Step Time =    1.000,"PART-1-1",           753,       6.43355,      -20.8801,            0.,NA,NA,"",   12.0656E-03,  -7.57012E-03,   9.39532E-03,   2.19336E-03
C:/temp/dataset/6/23_10.odb,Step-1,Increment      1: Step Time =    1.000,"PART-1-1",           754,       8.96045,      -11.3546,            0.,NA,NA,"",   43.1877E-03,  -30.4671E-03,   30.6094E-03,   2.50049E-03
C:/temp/dataset/6/23_10.odb,Step-1,Increment      1: Step Time =    1.000,"PART-1-1",           755,       8.17216,      -2.03287,            0.,NA,NA,"",   51.7284E-03,  -10.9631E-03,   50.5534E-03,   1.94952E-03
C:/temp/dataset/6/23_10.odb,Step-1,Increment      1: Step Time =    1.000,"PART-1-1",           756,       9.68046,      -2.49017,            0.,NA,NA,"",   44.3086E-03,  -14.3564E-03,   41.9183E-03,   1.27829E-03
C:/temp/dataset/6/23_10.odb,Step-1,Increment      1: Step Time =    1.000,"PART-1-1",           757,      -5.24373,       2.94722,            0.,NA,NA,"",   108.686E-03,  -13.0531E-03,   107.900E-03,   3.79056E-03
C:/temp/dataset/6/23_10.odb,Step-1,Increment      1: Step Time =    1.000,"PART-1-1",           758,      -6.20341,       3.93450,            0.,NA,NA,"",   101.691E-03,  -18.6571E-03,   99.9648E-03,   2.96410E-03
C:/temp/dataset/6/23_10.odb,Step-1,Increment      1: Step Time =    1.000,"PART-1-1",           759,       7.87036,      -17.0650,            0.,NA,NA,"",   27.0268E-03,  -19.4895E-03,   18.7244E-03,   2.32644E-03
C:/temp/dataset/6/23_10.odb,Step-1,Increment      1: Step Time =    1.000,"PART-1-1",           760,      -8.77165,      -4.61616,            0.,NA,NA,"",   72.2775E-03,   13.1513E-03,   71.0710E-03,   2.84842E-03
C:/temp/dataset/6/23_10.odb,Step-1,Increment      1: Step Time =    1.000,"PART-1-1",           761,       8.90402,      -15.9271,            0.,NA,NA,"",   31.7089E-03,  -23.1122E-03,   21.7089E-03,   2.30425E-03
C:/temp/dataset/6/23_10.odb,Step-1,Increment      1: Step Time =    1.000,"PART-1-1",           762,       7.94609,      -14.8939,            0.,NA,NA,"",   33.6020E-03,  -24.3182E-03,   23.1887E-03,   2.52924E-03
C:/temp/dataset/6/23_10.odb,Step-1,Increment      1: Step Time =    1.000,"PART-1-1",           763,      -12.3095,       21.7291,            0.,NA,NA,"",   140.525E-03,  -126.592E-03,   61.0068E-03,   178.957E-09
C:/temp/dataset/6/23_10.odb,Step-1,Increment      1: Step Time =    1.000,"PART-1-1",           764,      -12.2938,       19.6789,            0.,NA,NA,"",   129.757E-03,  -114.452E-03,   61.1354E-03,   1.02062E-06
C:/temp/dataset/6/23_10.odb,Step-1,Increment      1: Step Time =    1.000,"PART-1-1",           765,       3.72209,      -1.78065,            0.,NA,NA,"",   88.3715E-03,  -3.15514E-03,   88.3152E-03,   4.66839E-03
C:/temp/dataset/6/23_10.odb,Step-1,Increment      1: Step Time =    1.000,"PART-1-1",           766,       6.45852,      -3.38063,            0.,NA,NA,"",   60.1978E-03,  -15.7747E-03,   58.0942E-03,   3.32229E-03
C:/temp/dataset/6/23_10.odb,Step-1,Increment      1: Step Time =    1.000,"PART-1-1",           767,       4.93556,      -2.38177,            0.,NA,NA,"",   74.7875E-03,  -7.57053E-03,   74.4033E-03,   4.56828E-03
C:/temp/dataset/6/23_10.odb,Step-1,Increment      1: Step Time =    1.000,"PART-1-1",           768,      -2.94024,   945.156E-03,            0.,NA,NA,"",   122.355E-03,  -6.23979E-03,   122.196E-03,   3.55300E-03
C:/temp/dataset/6/23_10.odb,Step-1,Increment      1: Step Time =    1.000,"PART-1-1",           769,      -1.69279,      -25.0756,            0.,NA,NA,"",   1.56078E-03,  -722.707E-06,   1.38338E-03,   461.217E-06
C:/temp/dataset/6/23_10.odb,Step-1,Increment      1: Step Time =    1.000,"PART-1-1",           770,      -6.93923,      -23.9860,            0.,NA,NA,"",   10.9482E-03,   3.64476E-03,   10.3237E-03,   2.67615E-03
C:/temp/dataset/6/23_10.odb,Step-1,Increment      1: Step Time =    1.000,"PART-1-1",           771,      -5.91970,      -22.6959,            0.,NA,NA,"",   12.0404E-03,   4.24233E-03,   11.2683E-03,   2.75309E-03
C:/temp/dataset/6/23_10.odb,Step-1,Increment      1: Step Time =    1.000,"PART-1-1",           772,      -12.2208,       17.3915,            0.,NA,NA,"",   118.225E-03,  -100.905E-03,   61.6060E-03,   4.97833E-06
C:/temp/dataset/6/23_10.odb,Step-1,Increment      1: Step Time =    1.000,"PART-1-1",           773,      -12.0398,       10.1961,            0.,NA,NA,"",   85.5985E-03,  -58.2481E-03,   62.7237E-03,   67.2824E-06
C:/temp/dataset/6/23_10.odb,Step-1,Increment      1: Step Time =    1.000,"PART-1-1",           774,      -10.8637,      -2.91198,            0.,NA,NA,"",   64.0889E-03,   7.39271E-03,   63.6611E-03,   1.96928E-03
C:/temp/dataset/6/23_10.odb,Step-1,Increment      1: Step Time =    1.000,"PART-1-1",           775,      -9.61620,      -11.5179,            0.,NA,NA,"",   58.4913E-03,   30.8965E-03,   49.6653E-03,   3.38437E-03
C:/temp/dataset/6/23_10.odb,Step-1,Increment      1: Step Time =    1.000,"PART-1-1",           776,      -11.8201,      -24.5932,            0.,NA,NA,"",   17.3707E-03,   9.63861E-03,   14.4512E-03,   3.32540E-03
C:/temp/dataset/6/23_10.odb,Step-1,Increment      1: Step Time =    1.000,"PART-1-1",           777,      -11.0718,      -23.4296,            0.,NA,NA,"",   20.1927E-03,   11.0450E-03,   16.9042E-03,   3.24926E-03
C:/temp/dataset/6/23_10.odb,Step-1,Increment      1: Step Time =    1.000,"PART-1-1",           778,       4.75405,      -23.0816,            0.,NA,NA,"",   4.17054E-03,  -2.33821E-03,   3.45343E-03,   997.235E-06
C:/temp/dataset/6/23_10.odb,Step-1,Increment      1: Step Time =    1.000,"PART-1-1",           779,       5.55198,      -21.9930,            0.,NA,NA,"",   7.24164E-03,  -4.25014E-03,   5.86324E-03,   1.63192E-03
C:/temp/dataset/6/23_10.odb,Step-1,Increment      1: Step Time =    1.000,"PART-1-1",           780,       7.01336,      -26.0950,            0.,NA,NA,"",   3.30089E-03,  -1.19387E-03,   3.07743E-03,   1.07696E-03
C:/temp/dataset/6/23_10.odb,Step-1,Increment      1: Step Time =    1.000,"PART-1-1",           781,       4.10189,      -23.9882,            0.,NA,NA,"",   2.49502E-03,  -1.35800E-03,   2.09308E-03,   618.421E-06
C:/temp/dataset/6/23_10.odb,Step-1,Increment      1: Step Time =    1.000,"PART-1-1",           782,       4.14804,      -25.2051,            0.,NA,NA,"",   1.76827E-03,  -772.699E-06,   1.59051E-03,   504.045E-06
C:/temp/dataset/6/23_10.odb,Step-1,Increment      1: Step Time =    1.000,"PART-1-1",           783,      -12.1264,       12.6156,            0.,NA,NA,"",   95.5978E-03,  -72.5796E-03,   62.2185E-03,   40.4159E-06
C:/temp/dataset/6/23_10.odb,Step-1,Increment      1: Step Time =    1.000,"PART-1-1",           784,      -12.1709,       15.0185,            0.,NA,NA,"",   106.662E-03,  -86.8379E-03,   61.9354E-03,   16.4827E-06
C:/temp/dataset/6/23_10.odb,Step-1,Increment      1: Step Time =    1.000,"PART-1-1",           785,      -10.3060,       3.43341,            0.,NA,NA,"",   76.0081E-03,  -20.7248E-03,   73.1281E-03,   1.02825E-03
C:/temp/dataset/6/23_10.odb,Step-1,Increment      1: Step Time =    1.000,"PART-1-1",           786,      -9.35047,  -311.861E-03,            0.,NA,NA,"",   77.6005E-03,  -5.89415E-03,   77.3763E-03,   2.64761E-03
C:/temp/dataset/6/23_10.odb,Step-1,Increment      1: Step Time =    1.000,"PART-1-1",           787,      -9.47746,      -1.56252,            0.,NA,NA,"",   74.3107E-03,  -726.477E-06,   74.3071E-03,   2.85435E-03
C:/temp/dataset/6/23_10.odb,Step-1,Increment      1: Step Time =    1.000,"PART-1-1",           788,      -7.56677,      -1.93629,            0.,NA,NA,"",   87.7921E-03,  -3.10021E-03,   87.7374E-03,   4.35482E-03
C:/temp/dataset/6/23_10.odb,Step-1,Increment      1: Step Time =    1.000,"PART-1-1",           789,      -9.57637,      -3.06595,            0.,NA,NA,"",   70.7013E-03,   6.36825E-03,   70.4139E-03,   2.72990E-03
C:/temp/dataset/6/23_10.odb,Step-1,Increment      1: Step Time =    1.000,"PART-1-1",           790,      -8.24618,      -3.39128,            0.,NA,NA,"",   78.1160E-03,   5.43248E-03,   77.9269E-03,   3.89797E-03
C:/temp/dataset/6/23_10.odb,Step-1,Increment      1: Step Time =    1.000,"PART-1-1",           791,       7.98922,      -7.69035,            0.,NA,NA,"",   50.1975E-03,  -29.7230E-03,   40.4516E-03,   3.15522E-03
C:/temp/dataset/6/23_10.odb,Step-1,Increment      1: Step Time =    1.000,"PART-1-1",           792,       7.96586,      -10.1263,            0.,NA,NA,"",   45.7450E-03,  -30.1557E-03,   34.3983E-03,   3.03542E-03
C:/temp/dataset/6/23_10.odb,Step-1,Increment      1: Step Time =    1.000,"PART-1-1",           793,       7.95460,      -12.5381,            0.,NA,NA,"",   40.0410E-03,  -28.1328E-03,   28.4925E-03,   2.76781E-03
C:/temp/dataset/6/23_10.odb,Step-1,Increment      1: Step Time =    1.000,"PART-1-1",           794,      -6.90534,       4.84567,            0.,NA,NA,"",   97.4306E-03,  -24.9136E-03,   94.1914E-03,   1.84925E-03
C:/temp/dataset/6/23_10.odb,Step-1,Increment      1: Step Time =    1.000,"PART-1-1",           795,      -7.09219,       3.25090,            0.,NA,NA,"",   96.2522E-03,  -17.4974E-03,   94.6484E-03,   2.82647E-03
C:/temp/dataset/6/23_10.odb,Step-1,Increment      1: Step Time =    1.000,"PART-1-1",           796,      -5.99438,      -2.38990,            0.,NA,NA,"",   102.121E-03,  -5.73583E-03,   101.960E-03,   6.95923E-03
C:/temp/dataset/6/23_10.odb,Step-1,Increment      1: Step Time =    1.000,"PART-1-1",           797,      -8.16339,       2.56404,            0.,NA,NA,"",   88.9811E-03,  -16.1342E-03,   87.5061E-03,   2.28610E-03
C:/temp/dataset/6/23_10.odb,Step-1,Increment      1: Step Time =    1.000,"PART-1-1",           798,      -6.16245,       1.98671,            0.,NA,NA,"",   103.232E-03,  -12.6194E-03,   102.458E-03,   3.84809E-03
C:/temp/dataset/6/23_10.odb,Step-1,Increment      1: Step Time =    1.000,"PART-1-1",           799,      -9.36160,       1.80674,            0.,NA,NA,"",   80.2785E-03,  -13.7192E-03,   79.0975E-03,   2.10637E-03
C:/temp/dataset/6/23_10.odb,Step-1,Increment      1: Step Time =    1.000,"PART-1-1",           800,      -4.18828,       1.89018,            0.,NA,NA,"",   115.660E-03,  -9.23472E-03,   115.291E-03,   3.79360E-03
C:/temp/dataset/6/23_10.odb,Step-1,Increment      1: Step Time =    1.000,"PART-1-1",           801,      -2.02478,       2.01876,            0.,NA,NA,"",   121.144E-03,  -3.62044E-03,   121.090E-03,   3.68707E-03
C:/temp/dataset/6/23_10.odb,Step-1,Increment      1: Step Time =    1.000,"PART-1-1",           802,       5.29765,      -24.4346,            0.,NA,NA,"",   3.45213E-03,  -1.59365E-03,   3.06226E-03,   883.294E-06
C:/temp/dataset/6/23_10.odb,Step-1,Increment      1: Step Time =    1.000,"PART-1-1",           803,       8.18651,      -25.0309,            0.,NA,NA,"",   5.95931E-03,  -2.86723E-03,   5.22420E-03,   1.52834E-03
C:/temp/dataset/6/23_10.odb,Step-1,Increment      1: Step Time =    1.000,"PART-1-1",           804,       6.01068,      -25.2345,            0.,NA,NA,"",   3.38098E-03,  -1.36034E-03,   3.09524E-03,   971.986E-06
