ODB Name,Step,Frame,Part Instance Name,    êﬂì_ÉâÉxÉã,X,Y,Z,Section Name,Material Name,Section Point,   U-Magnitude,          U-U1,          U-U2,       S-Mises
C:/temp/dataset/6/23_12.odb,Step-1,Increment      1: Step Time =    1.000,"PART-1-1",             1,            5.,           -5.,            0.,NA,NA,"",   82.2070E-03,  -28.5476E-03,   77.0910E-03,   9.23699E-03
C:/temp/dataset/6/23_12.odb,Step-1,Increment      1: Step Time =    1.000,"PART-1-1",             2,            0.,           -5.,            0.,NA,NA,"",   161.414E-03,  -22.9893E-03,   159.769E-03,   9.09073E-03
C:/temp/dataset/6/23_12.odb,Step-1,Increment      1: Step Time =    1.000,"PART-1-1",             3,            5.,      -10.0250,            0.,NA,NA,"",   53.6822E-03,  -30.9226E-03,   43.8813E-03,   5.19048E-03
C:/temp/dataset/6/23_12.odb,Step-1,Increment      1: Step Time =    1.000,"PART-1-1",             4,            5.,      -15.0500,            0.,NA,NA,"",   33.9067E-03,  -24.6007E-03,   23.3339E-03,   3.82939E-03
C:/temp/dataset/6/23_12.odb,Step-1,Increment      1: Step Time =    1.000,"PART-1-1",             5,            5.,          -20.,            0.,NA,NA,"",   12.9978E-03,  -9.64597E-03,   8.71201E-03,   2.60266E-03
C:/temp/dataset/6/23_12.odb,Step-1,Increment      1: Step Time =    1.000,"PART-1-1",             6,            0.,          -20.,            0.,NA,NA,"",   2.83525E-03,   986.840E-06,   2.65796E-03,   2.12265E-03
C:/temp/dataset/6/23_12.odb,Step-1,Increment      1: Step Time =    1.000,"PART-1-1",             7,           -5.,          -20.,            0.,NA,NA,"",   21.6682E-03,   11.7086E-03,   18.2323E-03,   4.57835E-03
C:/temp/dataset/6/23_12.odb,Step-1,Increment      1: Step Time =    1.000,"PART-1-1",             8,           -5.,      -14.9750,            0.,NA,NA,"",   51.1452E-03,   23.3806E-03,   45.4882E-03,   6.16680E-03
C:/temp/dataset/6/23_12.odb,Step-1,Increment      1: Step Time =    1.000,"PART-1-1",             9,           -5.,      -9.95000,            0.,NA,NA,"",   80.7615E-03,   24.3624E-03,   76.9993E-03,   7.70968E-03
C:/temp/dataset/6/23_12.odb,Step-1,Increment      1: Step Time =    1.000,"PART-1-1",            10,           -5.,           -5.,            0.,NA,NA,"",   129.743E-03,   10.8928E-03,   129.285E-03,   13.4103E-03
C:/temp/dataset/6/23_12.odb,Step-1,Increment      1: Step Time =    1.000,"PART-1-1",            11,           15.,          -30.,            0.,NA,NA,"",            0.,  -1.45808E-39,   2.54912E-39,   4.96715E-03
C:/temp/dataset/6/23_12.odb,Step-1,Increment      1: Step Time =    1.000,"PART-1-1",            12,          -15.,          -30.,            0.,NA,NA,"",            0.,   2.27031E-39,   3.89598E-39,   7.40879E-03
C:/temp/dataset/6/23_12.odb,Step-1,Increment      1: Step Time =    1.000,"PART-1-1",            13,           15.,        -21.25,            0.,NA,NA,"",   30.8021E-03,  -19.1071E-03,   24.1597E-03,   2.43350E-03
C:/temp/dataset/6/23_12.odb,Step-1,Increment      1: Step Time =    1.000,"PART-1-1",            14,           15.,         -12.5,            0.,NA,NA,"",   51.1015E-03,  -38.5929E-03,   33.4956E-03,   203.569E-06
C:/temp/dataset/6/23_12.odb,Step-1,Increment      1: Step Time =    1.000,"PART-1-1",            15,           15.,         -3.75,            0.,NA,NA,"",   34.3794E-03,  -24.4330E-03,   24.1862E-03,   1.41375E-03
C:/temp/dataset/6/23_12.odb,Step-1,Increment      1: Step Time =    1.000,"PART-1-1",            16,           15.,            5.,            0.,NA,NA,"",   35.7952E-03,   30.1608E-03,   19.2776E-03,   31.8892E-06
C:/temp/dataset/6/23_12.odb,Step-1,Increment      1: Step Time =    1.000,"PART-1-1",            17,           10.,            5.,            0.,NA,NA,"",   61.3525E-03,   31.3073E-03,   52.7634E-03,   503.549E-06
C:/temp/dataset/6/23_12.odb,Step-1,Increment      1: Step Time =    1.000,"PART-1-1",            18,            5.,            5.,            0.,NA,NA,"",   98.8956E-03,   30.7549E-03,   93.9919E-03,   1.75704E-03
C:/temp/dataset/6/23_12.odb,Step-1,Increment      1: Step Time =    1.000,"PART-1-1",            19,            0.,            5.,            0.,NA,NA,"",   132.442E-03,   9.78741E-03,   132.080E-03,   7.36978E-03
C:/temp/dataset/6/23_12.odb,Step-1,Increment      1: Step Time =    1.000,"PART-1-1",            20,           -5.,            5.,            0.,NA,NA,"",   130.534E-03,  -26.3966E-03,   127.838E-03,   5.30159E-03
C:/temp/dataset/6/23_12.odb,Step-1,Increment      1: Step Time =    1.000,"PART-1-1",            21,           -5.,         11.25,            0.,NA,NA,"",   147.746E-03,  -78.2778E-03,   125.305E-03,   104.669E-06
C:/temp/dataset/6/23_12.odb,Step-1,Increment      1: Step Time =    1.000,"PART-1-1",            22,           -5.,          17.5,            0.,NA,NA,"",   175.062E-03,  -122.581E-03,   124.982E-03,   1.44217E-06
C:/temp/dataset/6/23_12.odb,Step-1,Increment      1: Step Time =    1.000,"PART-1-1",            23,           -5.,         23.75,            0.,NA,NA,"",   208.444E-03,  -166.934E-03,   124.828E-03,   474.703E-09
C:/temp/dataset/6/23_12.odb,Step-1,Increment      1: Step Time =    1.000,"PART-1-1",            24,           -5.,           30.,            0.,NA,NA,"",   245.339E-03,  -211.301E-03,   124.671E-03,   9.40743E-09
C:/temp/dataset/6/23_12.odb,Step-1,Increment      1: Step Time =    1.000,"PART-1-1",            25,          -10.,           30.,            0.,NA,NA,"",   229.233E-03,  -211.175E-03,   89.1779E-03,   102.796E-09
C:/temp/dataset/6/23_12.odb,Step-1,Increment      1: Step Time =    1.000,"PART-1-1",            26,          -15.,           30.,            0.,NA,NA,"",   217.770E-03,  -211.050E-03,   53.6840E-03,   13.5390E-09
C:/temp/dataset/6/23_12.odb,Step-1,Increment      1: Step Time =    1.000,"PART-1-1",            27,          -15.,          22.5,            0.,NA,NA,"",   166.750E-03,  -157.808E-03,   53.8716E-03,   717.809E-09
C:/temp/dataset/6/23_12.odb,Step-1,Increment      1: Step Time =    1.000,"PART-1-1",            28,          -15.,           15.,            0.,NA,NA,"",   117.687E-03,  -104.531E-03,   54.0694E-03,   11.7707E-06
C:/temp/dataset/6/23_12.odb,Step-1,Increment      1: Step Time =    1.000,"PART-1-1",            29,          -15.,           7.5,            0.,NA,NA,"",   75.4362E-03,  -51.7026E-03,   54.9314E-03,   224.674E-06
C:/temp/dataset/6/23_12.odb,Step-1,Increment      1: Step Time =    1.000,"PART-1-1",            30,          -15.,            0.,            0.,NA,NA,"",   54.9553E-03,  -5.35886E-03,   54.6934E-03,   649.073E-06
C:/temp/dataset/6/23_12.odb,Step-1,Increment      1: Step Time =    1.000,"PART-1-1",            31,          -15.,          -7.5,            0.,NA,NA,"",   61.4891E-03,   33.3691E-03,   51.6470E-03,   42.0554E-06
C:/temp/dataset/6/23_12.odb,Step-1,Increment      1: Step Time =    1.000,"PART-1-1",            32,          -15.,          -15.,            0.,NA,NA,"",   62.7815E-03,   39.9913E-03,   48.3965E-03,   1.43262E-03
C:/temp/dataset/6/23_12.odb,Step-1,Increment      1: Step Time =    1.000,"PART-1-1",            33,          -15.,         -22.5,            0.,NA,NA,"",   38.0753E-03,   22.5206E-03,   30.7010E-03,   3.75584E-03
C:/temp/dataset/6/23_12.odb,Step-1,Increment      1: Step Time =    1.000,"PART-1-1",            34,           2.5,           -5.,            0.,NA,NA,"",   122.352E-03,  -29.5308E-03,   118.735E-03,   3.40366E-03
C:/temp/dataset/6/23_12.odb,Step-1,Increment      1: Step Time =    1.000,"PART-1-1",            35,            5.,      -7.51250,            0.,NA,NA,"",   64.1926E-03,  -30.6649E-03,   56.3946E-03,   6.90931E-03
C:/temp/dataset/6/23_12.odb,Step-1,Increment      1: Step Time =    1.000,"PART-1-1",            36,            5.,      -12.5375,            0.,NA,NA,"",   43.7171E-03,  -28.9595E-03,   32.7495E-03,   4.54867E-03
C:/temp/dataset/6/23_12.odb,Step-1,Increment      1: Step Time =    1.000,"PART-1-1",            37,            5.,      -17.5250,            0.,NA,NA,"",   24.1969E-03,  -18.4824E-03,   15.6170E-03,   3.22977E-03
C:/temp/dataset/6/23_12.odb,Step-1,Increment      1: Step Time =    1.000,"PART-1-1",            38,           2.5,          -20.,            0.,NA,NA,"",   4.94838E-03,  -3.87103E-03,   3.08246E-03,   2.26287E-03
C:/temp/dataset/6/23_12.odb,Step-1,Increment      1: Step Time =    1.000,"PART-1-1",            39,          -2.5,          -20.,            0.,NA,NA,"",   8.40736E-03,   6.05559E-03,   5.83211E-03,   2.38021E-03
C:/temp/dataset/6/23_12.odb,Step-1,Increment      1: Step Time =    1.000,"PART-1-1",            40,           -5.,      -17.4875,            0.,NA,NA,"",   37.4345E-03,   18.9245E-03,   32.2988E-03,   5.81811E-03
C:/temp/dataset/6/23_12.odb,Step-1,Increment      1: Step Time =    1.000,"PART-1-1",            41,           -5.,      -12.4625,            0.,NA,NA,"",   65.3528E-03,   25.4219E-03,   60.2056E-03,   6.91017E-03
C:/temp/dataset/6/23_12.odb,Step-1,Increment      1: Step Time =    1.000,"PART-1-1",            42,           -5.,      -7.47500,            0.,NA,NA,"",   96.8921E-03,   20.7815E-03,   94.6373E-03,   9.64293E-03
C:/temp/dataset/6/23_12.odb,Step-1,Increment      1: Step Time =    1.000,"PART-1-1",            43,          -2.5,           -5.,            0.,NA,NA,"",   178.679E-03,  -1.87598E-03,   178.669E-03,   17.1307E-03
C:/temp/dataset/6/23_12.odb,Step-1,Increment      1: Step Time =    1.000,"PART-1-1",            44,          12.5,          -30.,            0.,NA,NA,"",            0.,  -1.72152E-39,   4.25229E-39,   1.96983E-03
C:/temp/dataset/6/23_12.odb,Step-1,Increment      1: Step Time =    1.000,"PART-1-1",            45,           10.,          -30.,            0.,NA,NA,"",            0.,   535.512E-42,   2.71673E-39,   1.59701E-03
C:/temp/dataset/6/23_12.odb,Step-1,Increment      1: Step Time =    1.000,"PART-1-1",            46,           7.5,          -30.,            0.,NA,NA,"",            0.,   535.003E-42,   2.00503E-39,   1.08285E-03
C:/temp/dataset/6/23_12.odb,Step-1,Increment      1: Step Time =    1.000,"PART-1-1",            47,            5.,          -30.,            0.,NA,NA,"",            0.,  -54.0677E-42,   1.28471E-39,   667.069E-06
C:/temp/dataset/6/23_12.odb,Step-1,Increment      1: Step Time =    1.000,"PART-1-1",            48,           2.5,          -30.,            0.,NA,NA,"",            0.,  -242.100E-42,   768.102E-42,   355.407E-06
C:/temp/dataset/6/23_12.odb,Step-1,Increment      1: Step Time =    1.000,"PART-1-1",            49,            0.,          -30.,            0.,NA,NA,"",            0.,  -64.4822E-42,   466.607E-42,   481.062E-06
C:/temp/dataset/6/23_12.odb,Step-1,Increment      1: Step Time =    1.000,"PART-1-1",            50,          -2.5,          -30.,            0.,NA,NA,"",            0.,  -953.822E-42,   1.64614E-39,   929.977E-06
C:/temp/dataset/6/23_12.odb,Step-1,Increment      1: Step Time =    1.000,"PART-1-1",            51,           -5.,          -30.,            0.,NA,NA,"",            0.,  -1.22842E-39,   2.83668E-39,   1.43939E-03
C:/temp/dataset/6/23_12.odb,Step-1,Increment      1: Step Time =    1.000,"PART-1-1",            52,          -7.5,          -30.,            0.,NA,NA,"",            0.,  -1.20025E-39,   4.11473E-39,   1.99553E-03
C:/temp/dataset/6/23_12.odb,Step-1,Increment      1: Step Time =    1.000,"PART-1-1",            53,          -10.,          -30.,            0.,NA,NA,"",            0.,   1.79745E-39,   5.08065E-39,   2.66125E-03
C:/temp/dataset/6/23_12.odb,Step-1,Increment      1: Step Time =    1.000,"PART-1-1",            54,         -12.5,          -30.,            0.,NA,NA,"",            0.,   1.29200E-39,   5.64844E-39,   3.12204E-03
C:/temp/dataset/6/23_12.odb,Step-1,Increment      1: Step Time =    1.000,"PART-1-1",            55,           15.,      -23.4375,            0.,NA,NA,"",   23.6854E-03,  -14.1719E-03,   18.9777E-03,   2.79416E-03
C:/temp/dataset/6/23_12.odb,Step-1,Increment      1: Step Time =    1.000,"PART-1-1",            56,           15.,       -25.625,            0.,NA,NA,"",   16.6254E-03,  -9.96141E-03,   13.3107E-03,   2.92195E-03
C:/temp/dataset/6/23_12.odb,Step-1,Increment      1: Step Time =    1.000,"PART-1-1",            57,           15.,      -27.8125,            0.,NA,NA,"",   9.62910E-03,  -6.06912E-03,   7.47565E-03,   3.43757E-03
C:/temp/dataset/6/23_12.odb,Step-1,Increment      1: Step Time =    1.000,"PART-1-1",            58,           15.,      -14.6875,            0.,NA,NA,"",   48.3479E-03,  -35.1429E-03,   33.2038E-03,   512.582E-06
C:/temp/dataset/6/23_12.odb,Step-1,Increment      1: Step Time =    1.000,"PART-1-1",            59,           15.,       -16.875,            0.,NA,NA,"",   43.6824E-03,  -30.2522E-03,   31.5112E-03,   1.22309E-03
C:/temp/dataset/6/23_12.odb,Step-1,Increment      1: Step Time =    1.000,"PART-1-1",            60,           15.,      -19.0625,            0.,NA,NA,"",   37.6491E-03,  -24.6598E-03,   28.4491E-03,   1.89480E-03
C:/temp/dataset/6/23_12.odb,Step-1,Increment      1: Step Time =    1.000,"PART-1-1",            61,           15.,       -5.9375,            0.,NA,NA,"",   42.8649E-03,  -33.1171E-03,   27.2150E-03,   1.57413E-03
C:/temp/dataset/6/23_12.odb,Step-1,Increment      1: Step Time =    1.000,"PART-1-1",            62,           15.,        -8.125,            0.,NA,NA,"",   48.7204E-03,  -38.2331E-03,   30.1977E-03,   1.36741E-03
C:/temp/dataset/6/23_12.odb,Step-1,Increment      1: Step Time =    1.000,"PART-1-1",            63,           15.,      -10.3125,            0.,NA,NA,"",   51.3935E-03,  -39.8652E-03,   32.4355E-03,   858.989E-06
C:/temp/dataset/6/23_12.odb,Step-1,Increment      1: Step Time =    1.000,"PART-1-1",            64,           15.,        2.8125,            0.,NA,NA,"",   24.8223E-03,   15.4744E-03,   19.4085E-03,   176.062E-06
C:/temp/dataset/6/23_12.odb,Step-1,Increment      1: Step Time =    1.000,"PART-1-1",            65,           15.,      625.E-03,            0.,NA,NA,"",   20.1764E-03,   858.612E-06,   20.1581E-03,   573.775E-06
C:/temp/dataset/6/23_12.odb,Step-1,Increment      1: Step Time =    1.000,"PART-1-1",            66,           15.,       -1.5625,            0.,NA,NA,"",   25.2151E-03,  -12.7763E-03,   21.7386E-03,   1.02398E-03
C:/temp/dataset/6/23_12.odb,Step-1,Increment      1: Step Time =    1.000,"PART-1-1",            67,          12.5,            5.,            0.,NA,NA,"",   46.9106E-03,   30.3423E-03,   35.7763E-03,   210.544E-06
C:/temp/dataset/6/23_12.odb,Step-1,Increment      1: Step Time =    1.000,"PART-1-1",            68,           7.5,            5.,            0.,NA,NA,"",   78.9015E-03,   32.2552E-03,   72.0073E-03,   111.681E-06
C:/temp/dataset/6/23_12.odb,Step-1,Increment      1: Step Time =    1.000,"PART-1-1",            69,           2.5,            5.,            0.,NA,NA,"",   118.343E-03,   23.6421E-03,   115.958E-03,   4.71581E-03
C:/temp/dataset/6/23_12.odb,Step-1,Increment      1: Step Time =    1.000,"PART-1-1",            70,          -2.5,            5.,            0.,NA,NA,"",   136.694E-03,  -8.08157E-03,   136.455E-03,   8.16043E-03
C:/temp/dataset/6/23_12.odb,Step-1,Increment      1: Step Time =    1.000,"PART-1-1",            71,           -5.,       9.16667,            0.,NA,NA,"",   140.761E-03,  -63.3133E-03,   125.718E-03,   298.085E-06
C:/temp/dataset/6/23_12.odb,Step-1,Increment      1: Step Time =    1.000,"PART-1-1",            72,           -5.,       7.08333,            0.,NA,NA,"",   135.220E-03,  -47.4796E-03,   126.610E-03,   1.34511E-03
C:/temp/dataset/6/23_12.odb,Step-1,Increment      1: Step Time =    1.000,"PART-1-1",            73,           -5.,       15.4167,            0.,NA,NA,"",   165.102E-03,  -107.812E-03,   125.041E-03,   9.62664E-06
C:/temp/dataset/6/23_12.odb,Step-1,Increment      1: Step Time =    1.000,"PART-1-1",            74,           -5.,       13.3333,            0.,NA,NA,"",   155.939E-03,  -93.0501E-03,   125.134E-03,   38.0608E-06
C:/temp/dataset/6/23_12.odb,Step-1,Increment      1: Step Time =    1.000,"PART-1-1",            75,           -5.,       21.6667,            0.,NA,NA,"",   196.833E-03,  -152.146E-03,   124.879E-03,   889.580E-09
C:/temp/dataset/6/23_12.odb,Step-1,Increment      1: Step Time =    1.000,"PART-1-1",            76,           -5.,       19.5833,            0.,NA,NA,"",   185.676E-03,  -137.361E-03,   124.930E-03,   956.530E-09
C:/temp/dataset/6/23_12.odb,Step-1,Increment      1: Step Time =    1.000,"PART-1-1",            77,           -5.,       27.9167,            0.,NA,NA,"",   232.751E-03,  -196.512E-03,   124.724E-03,   39.7500E-09
C:/temp/dataset/6/23_12.odb,Step-1,Increment      1: Step Time =    1.000,"PART-1-1",            78,           -5.,       25.8333,            0.,NA,NA,"",   220.437E-03,  -181.723E-03,   124.776E-03,   185.695E-09
C:/temp/dataset/6/23_12.odb,Step-1,Increment      1: Step Time =    1.000,"PART-1-1",            79,          -7.5,           30.,            0.,NA,NA,"",   236.758E-03,  -211.238E-03,   106.925E-03,   45.8653E-09
C:/temp/dataset/6/23_12.odb,Step-1,Increment      1: Step Time =    1.000,"PART-1-1",            80,         -12.5,           30.,            0.,NA,NA,"",   222.870E-03,  -211.113E-03,   71.4310E-03,   44.6514E-09
C:/temp/dataset/6/23_12.odb,Step-1,Increment      1: Step Time =    1.000,"PART-1-1",            81,          -15.,           25.,            0.,NA,NA,"",   183.617E-03,  -175.556E-03,   53.8096E-03,   294.695E-09
C:/temp/dataset/6/23_12.odb,Step-1,Increment      1: Step Time =    1.000,"PART-1-1",            82,          -15.,          27.5,            0.,NA,NA,"",   200.636E-03,  -193.303E-03,   53.7469E-03,   54.2170E-09
C:/temp/dataset/6/23_12.odb,Step-1,Increment      1: Step Time =    1.000,"PART-1-1",            83,          -15.,          17.5,            0.,NA,NA,"",   133.690E-03,  -122.301E-03,   53.9947E-03,   817.448E-09
C:/temp/dataset/6/23_12.odb,Step-1,Increment      1: Step Time =    1.000,"PART-1-1",            84,          -15.,           20.,            0.,NA,NA,"",   150.084E-03,  -140.058E-03,   53.9326E-03,   1.08437E-06
C:/temp/dataset/6/23_12.odb,Step-1,Increment      1: Step Time =    1.000,"PART-1-1",            85,          -15.,           10.,            0.,NA,NA,"",   87.9410E-03,  -69.0542E-03,   54.4532E-03,   136.201E-06
C:/temp/dataset/6/23_12.odb,Step-1,Increment      1: Step Time =    1.000,"PART-1-1",            86,          -15.,          12.5,            0.,NA,NA,"",   102.292E-03,  -86.7558E-03,   54.1942E-03,   48.5710E-06
C:/temp/dataset/6/23_12.odb,Step-1,Increment      1: Step Time =    1.000,"PART-1-1",            87,          -15.,           2.5,            0.,NA,NA,"",   59.0696E-03,  -19.8695E-03,   55.6275E-03,   193.043E-06
C:/temp/dataset/6/23_12.odb,Step-1,Increment      1: Step Time =    1.000,"PART-1-1",            88,          -15.,            5.,            0.,NA,NA,"",   65.7227E-03,  -35.1913E-03,   55.5071E-03,   162.834E-06
C:/temp/dataset/6/23_12.odb,Step-1,Increment      1: Step Time =    1.000,"PART-1-1",            89,          -15.,           -5.,            0.,NA,NA,"",   56.5644E-03,   22.5260E-03,   51.8855E-03,   329.581E-06
C:/temp/dataset/6/23_12.odb,Step-1,Increment      1: Step Time =    1.000,"PART-1-1",            90,          -15.,          -2.5,            0.,NA,NA,"",   53.8132E-03,   8.97707E-03,   53.0591E-03,   712.635E-06
C:/temp/dataset/6/23_12.odb,Step-1,Increment      1: Step Time =    1.000,"PART-1-1",            91,          -15.,         -12.5,            0.,NA,NA,"",   65.7509E-03,   41.7941E-03,   50.7586E-03,   698.909E-06
C:/temp/dataset/6/23_12.odb,Step-1,Increment      1: Step Time =    1.000,"PART-1-1",            92,          -15.,          -10.,            0.,NA,NA,"",   65.2120E-03,   39.8192E-03,   51.6434E-03,   182.377E-06
C:/temp/dataset/6/23_12.odb,Step-1,Increment      1: Step Time =    1.000,"PART-1-1",            93,          -15.,          -20.,            0.,NA,NA,"",   48.2098E-03,   29.1915E-03,   38.3672E-03,   3.04908E-03
C:/temp/dataset/6/23_12.odb,Step-1,Increment      1: Step Time =    1.000,"PART-1-1",            94,          -15.,         -17.5,            0.,NA,NA,"",   56.7195E-03,   35.4176E-03,   44.3023E-03,   2.24178E-03
C:/temp/dataset/6/23_12.odb,Step-1,Increment      1: Step Time =    1.000,"PART-1-1",            95,          -15.,         -27.5,            0.,NA,NA,"",   15.8457E-03,   10.0021E-03,   12.2900E-03,   4.81322E-03
C:/temp/dataset/6/23_12.odb,Step-1,Increment      1: Step Time =    1.000,"PART-1-1",            96,          -15.,          -25.,            0.,NA,NA,"",   27.1617E-03,   16.2014E-03,   21.8008E-03,   4.07847E-03
C:/temp/dataset/6/23_12.odb,Step-1,Increment      1: Step Time =    1.000,"PART-1-1",            97,       13.0047,      -3.80353,            0.,NA,NA,"",   41.8240E-03,  -25.4162E-03,   33.2155E-03,   360.376E-06
C:/temp/dataset/6/23_12.odb,Step-1,Increment      1: Step Time =    1.000,"PART-1-1",            98,       6.97971,      -7.55833,            0.,NA,NA,"",   62.2947E-03,  -34.4686E-03,   51.8898E-03,   5.02742E-03
C:/temp/dataset/6/23_12.odb,Step-1,Increment      1: Step Time =    1.000,"PART-1-1",            99,       6.96639,      -10.0829,            0.,NA,NA,"",   55.1765E-03,  -34.8958E-03,   42.7403E-03,   4.34347E-03
C:/temp/dataset/6/23_12.odb,Step-1,Increment      1: Step Time =    1.000,"PART-1-1",           100,       12.9900,      -12.5465,            0.,NA,NA,"",   50.1463E-03,  -38.2779E-03,   32.3953E-03,   1.18964E-03
C:/temp/dataset/6/23_12.odb,Step-1,Increment      1: Step Time =    1.000,"PART-1-1",           101,       6.90028,      -17.1420,            0.,NA,NA,"",   30.3986E-03,  -22.1370E-03,   20.8333E-03,   2.83462E-03
C:/temp/dataset/6/23_12.odb,Step-1,Increment      1: Step Time =    1.000,"PART-1-1",           102,       7.03871,      -19.0570,            0.,NA,NA,"",   23.2291E-03,  -16.2387E-03,   16.6102E-03,   2.69841E-03
C:/temp/dataset/6/23_12.odb,Step-1,Increment      1: Step Time =    1.000,"PART-1-1",           103,       5.31709,      -21.2647,            0.,NA,NA,"",   9.79946E-03,  -6.24351E-03,   7.55301E-03,   2.24414E-03
C:/temp/dataset/6/23_12.odb,Step-1,Increment      1: Step Time =    1.000,"PART-1-1",           104,      -4.83361,      -22.6144,            0.,NA,NA,"",   10.8997E-03,   3.39076E-03,   10.3588E-03,   2.61212E-03
C:/temp/dataset/6/23_12.odb,Step-1,Increment      1: Step Time =    1.000,"PART-1-1",           105,      -7.46484,      -17.6587,            0.,NA,NA,"",   43.3109E-03,   23.9204E-03,   36.1060E-03,   4.42489E-03
C:/temp/dataset/6/23_12.odb,Step-1,Increment      1: Step Time =    1.000,"PART-1-1",           106,      -12.5283,      -27.3245,            0.,NA,NA,"",   10.7679E-03,   6.31541E-03,   8.72146E-03,   4.27239E-03
C:/temp/dataset/6/23_12.odb,Step-1,Increment      1: Step Time =    1.000,"PART-1-1",           107,      -12.4870,      -17.6221,            0.,NA,NA,"",   51.5253E-03,   32.1745E-03,   40.2450E-03,   3.17726E-03
C:/temp/dataset/6/23_12.odb,Step-1,Increment      1: Step Time =    1.000,"PART-1-1",           108,      -7.32043,      -12.6401,            0.,NA,NA,"",   66.3573E-03,   31.6981E-03,   58.2968E-03,   5.49872E-03
C:/temp/dataset/6/23_12.odb,Step-1,Increment      1: Step Time =    1.000,"PART-1-1",           109,      -7.14644,      -8.03697,            0.,NA,NA,"",   86.5438E-03,   27.9681E-03,   81.9000E-03,   6.86193E-03
C:/temp/dataset/6/23_12.odb,Step-1,Increment      1: Step Time =    1.000,"PART-1-1",           110,      -12.6601,       4.88622,            0.,NA,NA,"",   78.8259E-03,  -34.4382E-03,   70.9051E-03,   373.092E-06
C:/temp/dataset/6/23_12.odb,Step-1,Increment      1: Step Time =    1.000,"PART-1-1",           111,      -13.0978,       12.5399,            0.,NA,NA,"",   110.251E-03,  -87.0640E-03,   67.6399E-03,   50.6106E-06
C:/temp/dataset/6/23_12.odb,Step-1,Increment      1: Step Time =    1.000,"PART-1-1",           112,      -6.45576,       21.8628,            0.,NA,NA,"",   191.527E-03,  -153.502E-03,   114.542E-03,   298.591E-09
C:/temp/dataset/6/23_12.odb,Step-1,Increment      1: Step Time =    1.000,"PART-1-1",           113,      -7.28884,       25.7044,            0.,NA,NA,"",   210.831E-03,  -180.750E-03,   108.532E-03,   222.233E-09
C:/temp/dataset/6/23_12.odb,Step-1,Increment      1: Step Time =    1.000,"PART-1-1",           114,      -9.90518,       27.6474,            0.,NA,NA,"",   214.255E-03,  -194.477E-03,   89.9105E-03,   109.669E-09
C:/temp/dataset/6/23_12.odb,Step-1,Increment      1: Step Time =    1.000,"PART-1-1",           115,      -3.01211,      -3.13168,            0.,NA,NA,"",   166.867E-03,  -8.69965E-03,   166.640E-03,   11.5122E-03
C:/temp/dataset/6/23_12.odb,Step-1,Increment      1: Step Time =    1.000,"PART-1-1",           116,      -2.19169,       3.00836,            0.,NA,NA,"",   142.462E-03,  -5.37678E-03,   142.361E-03,   4.78875E-03
C:/temp/dataset/6/23_12.odb,Step-1,Increment      1: Step Time =    1.000,"PART-1-1",           117,       1.85193,      -2.77696,            0.,NA,NA,"",   129.788E-03,  -6.39063E-03,   129.631E-03,   6.46719E-03
C:/temp/dataset/6/23_12.odb,Step-1,Increment      1: Step Time =    1.000,"PART-1-1",           118,       2.83229,       2.22691,            0.,NA,NA,"",   117.553E-03,   9.71673E-03,   117.151E-03,   4.61624E-03
C:/temp/dataset/6/23_12.odb,Step-1,Increment      1: Step Time =    1.000,"PART-1-1",           119,       7.74921,       3.07964,            0.,NA,NA,"",   72.1990E-03,   17.9388E-03,   69.9349E-03,   1.11766E-03
C:/temp/dataset/6/23_12.odb,Step-1,Increment      1: Step Time =    1.000,"PART-1-1",           120,      -2.47342,      -22.6017,            0.,NA,NA,"",   3.89351E-03,   1.24413E-03,   3.68938E-03,   824.801E-06
C:/temp/dataset/6/23_12.odb,Step-1,Increment      1: Step Time =    1.000,"PART-1-1",           121,      -7.48266,       20.3798,            0.,NA,NA,"",   178.734E-03,  -142.950E-03,   107.290E-03,   618.320E-09
C:/temp/dataset/6/23_12.odb,Step-1,Increment      1: Step Time =    1.000,"PART-1-1",           122,      -7.10993,       13.1351,            0.,NA,NA,"",   143.238E-03,  -91.6075E-03,   110.115E-03,   47.0487E-06
C:/temp/dataset/6/23_12.odb,Step-1,Increment      1: Step Time =    1.000,"PART-1-1",           123,      -6.64156,       6.82435,            0.,NA,NA,"",   122.671E-03,  -46.0762E-03,   113.689E-03,   649.359E-06
C:/temp/dataset/6/23_12.odb,Step-1,Increment      1: Step Time =    1.000,"PART-1-1",           124,      -12.9641,      -2.37512,            0.,NA,NA,"",   65.0260E-03,   7.29243E-03,   64.6158E-03,   1.28088E-03
C:/temp/dataset/6/23_12.odb,Step-1,Increment      1: Step Time =    1.000,"PART-1-1",           125,      -12.1317,      -9.84573,            0.,NA,NA,"",   69.4285E-03,   38.2317E-03,   57.9538E-03,   2.14871E-03
C:/temp/dataset/6/23_12.odb,Step-1,Increment      1: Step Time =    1.000,"PART-1-1",           126,       4.04132,      -2.67712,            0.,NA,NA,"",   100.550E-03,  -9.85494E-03,   100.066E-03,   5.80874E-03
C:/temp/dataset/6/23_12.odb,Step-1,Increment      1: Step Time =    1.000,"PART-1-1",           127,       6.95362,      -12.5367,            0.,NA,NA,"",   47.1211E-03,  -32.5057E-03,   34.1142E-03,   3.71586E-03
C:/temp/dataset/6/23_12.odb,Step-1,Increment      1: Step Time =    1.000,"PART-1-1",           128,       6.92458,      -14.9216,            0.,NA,NA,"",   38.7194E-03,  -27.9262E-03,   26.8201E-03,   3.29720E-03
C:/temp/dataset/6/23_12.odb,Step-1,Increment      1: Step Time =    1.000,"PART-1-1",           129,       12.9089,      -21.3671,            0.,NA,NA,"",   25.7546E-03,  -16.5594E-03,   19.7252E-03,   2.39971E-03
C:/temp/dataset/6/23_12.odb,Step-1,Increment      1: Step Time =    1.000,"PART-1-1",           130,   283.131E-03,      -22.8786,            0.,NA,NA,"",   981.141E-06,  -558.062E-06,   806.972E-06,   511.045E-06
C:/temp/dataset/6/23_12.odb,Step-1,Increment      1: Step Time =    1.000,"PART-1-1",           131,      -12.9776,      -22.4214,            0.,NA,NA,"",   32.9070E-03,   19.3473E-03,   26.6186E-03,   3.74753E-03
C:/temp/dataset/6/23_12.odb,Step-1,Increment      1: Step Time =    1.000,"PART-1-1",           132,      -7.42030,      -15.1083,            0.,NA,NA,"",   55.1168E-03,   29.2254E-03,   46.7305E-03,   5.09713E-03
C:/temp/dataset/6/23_12.odb,Step-1,Increment      1: Step Time =    1.000,"PART-1-1",           133,      -7.18486,      -10.2642,            0.,NA,NA,"",   77.2882E-03,   31.2278E-03,   70.6986E-03,   6.07700E-03
C:/temp/dataset/6/23_12.odb,Step-1,Increment      1: Step Time =    1.000,"PART-1-1",           134,      -7.33974,      -5.93881,            0.,NA,NA,"",   93.5382E-03,   20.9083E-03,   91.1714E-03,   4.21913E-03
C:/temp/dataset/6/23_12.odb,Step-1,Increment      1: Step Time =    1.000,"PART-1-1",           135,  -533.729E-03,      -2.94296,            0.,NA,NA,"",   161.265E-03,  -4.82309E-03,   161.193E-03,   9.20265E-03
C:/temp/dataset/6/23_12.odb,Step-1,Increment      1: Step Time =    1.000,"PART-1-1",           136,       10.2172,      -28.0250,            0.,NA,NA,"",   3.13177E-03,  -1.29452E-03,   2.85170E-03,   1.90296E-03
C:/temp/dataset/6/23_12.odb,Step-1,Increment      1: Step Time =    1.000,"PART-1-1",           137,       7.82196,      -28.0777,            0.,NA,NA,"",   1.94663E-03,  -373.726E-06,   1.91042E-03,   1.27013E-03
C:/temp/dataset/6/23_12.odb,Step-1,Increment      1: Step Time =    1.000,"PART-1-1",           138,       5.43540,      -28.0544,            0.,NA,NA,"",   1.11634E-03,   31.2217E-06,   1.11590E-03,   720.471E-06
C:/temp/dataset/6/23_12.odb,Step-1,Increment      1: Step Time =    1.000,"PART-1-1",           139,       2.98405,      -27.8165,            0.,NA,NA,"",   541.505E-06,  -139.444E-06,   523.243E-06,   371.514E-06
C:/temp/dataset/6/23_12.odb,Step-1,Increment      1: Step Time =    1.000,"PART-1-1",           140,   324.250E-03,      -27.0908,            0.,NA,NA,"",   910.779E-06,  -816.642E-06,   403.253E-06,   416.307E-06
C:/temp/dataset/6/23_12.odb,Step-1,Increment      1: Step Time =    1.000,"PART-1-1",           141,      -2.46293,      -27.5198,            0.,NA,NA,"",   1.74500E-03,  -1.21683E-03,   1.25074E-03,   755.122E-06
C:/temp/dataset/6/23_12.odb,Step-1,Increment      1: Step Time =    1.000,"PART-1-1",           142,      -4.88996,      -27.5861,            0.,NA,NA,"",   2.82324E-03,  -928.622E-06,   2.66615E-03,   1.44944E-03
C:/temp/dataset/6/23_12.odb,Step-1,Increment      1: Step Time =    1.000,"PART-1-1",           143,      -7.26500,      -27.4866,            0.,NA,NA,"",   4.42941E-03,   321.715E-06,   4.41771E-03,   2.29631E-03
C:/temp/dataset/6/23_12.odb,Step-1,Increment      1: Step Time =    1.000,"PART-1-1",           144,      -9.86695,      -26.8928,            0.,NA,NA,"",   8.38010E-03,   3.45042E-03,   7.63679E-03,   3.32401E-03
C:/temp/dataset/6/23_12.odb,Step-1,Increment      1: Step Time =    1.000,"PART-1-1",           145,       12.7710,      -23.5898,            0.,NA,NA,"",   18.4093E-03,  -11.1570E-03,   14.6432E-03,   2.56341E-03
C:/temp/dataset/6/23_12.odb,Step-1,Increment      1: Step Time =    1.000,"PART-1-1",           146,       12.6989,      -25.7990,            0.,NA,NA,"",   11.5175E-03,  -6.76643E-03,   9.32026E-03,   2.74405E-03
C:/temp/dataset/6/23_12.odb,Step-1,Increment      1: Step Time =    1.000,"PART-1-1",           147,       12.6207,      -27.9366,            0.,NA,NA,"",   5.38333E-03,  -3.15878E-03,   4.35916E-03,   2.78135E-03
C:/temp/dataset/6/23_12.odb,Step-1,Increment      1: Step Time =    1.000,"PART-1-1",           148,       12.9983,      -14.8223,            0.,NA,NA,"",   45.6620E-03,  -34.0910E-03,   30.3780E-03,   1.51188E-03
C:/temp/dataset/6/23_12.odb,Step-1,Increment      1: Step Time =    1.000,"PART-1-1",           149,       13.0558,      -17.0719,            0.,NA,NA,"",   39.6899E-03,  -28.5014E-03,   27.6217E-03,   1.83311E-03
C:/temp/dataset/6/23_12.odb,Step-1,Increment      1: Step Time =    1.000,"PART-1-1",           150,       13.1682,      -19.2108,            0.,NA,NA,"",   33.2642E-03,  -22.6536E-03,   24.3581E-03,   2.12227E-03
C:/temp/dataset/6/23_12.odb,Step-1,Increment      1: Step Time =    1.000,"PART-1-1",           151,       13.0670,      -5.94273,            0.,NA,NA,"",   47.6653E-03,  -33.9373E-03,   33.4700E-03,   263.668E-06
C:/temp/dataset/6/23_12.odb,Step-1,Increment      1: Step Time =    1.000,"PART-1-1",           152,       13.0350,      -8.09399,            0.,NA,NA,"",   51.4981E-03,  -38.8164E-03,   33.8430E-03,   523.904E-06
C:/temp/dataset/6/23_12.odb,Step-1,Increment      1: Step Time =    1.000,"PART-1-1",           153,       12.9982,      -10.2981,            0.,NA,NA,"",   52.2885E-03,  -40.1019E-03,   33.5549E-03,   877.335E-06
C:/temp/dataset/6/23_12.odb,Step-1,Increment      1: Step Time =    1.000,"PART-1-1",           154,       12.5107,   556.281E-03,            0.,NA,NA,"",   35.5880E-03,   164.431E-06,   35.5877E-03,   464.462E-06
C:/temp/dataset/6/23_12.odb,Step-1,Increment      1: Step Time =    1.000,"PART-1-1",           155,       12.7702,      -1.64554,            0.,NA,NA,"",   36.7476E-03,  -13.7580E-03,   34.0750E-03,   462.590E-06
C:/temp/dataset/6/23_12.odb,Step-1,Increment      1: Step Time =    1.000,"PART-1-1",           156,       10.0517,       2.85834,            0.,NA,NA,"",   54.5177E-03,   16.1453E-03,   52.0722E-03,   240.294E-06
C:/temp/dataset/6/23_12.odb,Step-1,Increment      1: Step Time =    1.000,"PART-1-1",           157,       5.39286,       2.85476,            0.,NA,NA,"",   92.8530E-03,   15.7500E-03,   91.5075E-03,   2.84614E-03
C:/temp/dataset/6/23_12.odb,Step-1,Increment      1: Step Time =    1.000,"PART-1-1",           158,   175.602E-03,       2.90951,            0.,NA,NA,"",   136.902E-03,   4.27950E-03,   136.835E-03,   4.83753E-03
C:/temp/dataset/6/23_12.odb,Step-1,Increment      1: Step Time =    1.000,"PART-1-1",           159,      -4.35394,       2.91920,            0.,NA,NA,"",   136.000E-03,  -13.7000E-03,   135.308E-03,   4.50512E-03
C:/temp/dataset/6/23_12.odb,Step-1,Increment      1: Step Time =    1.000,"PART-1-1",           160,      -7.05997,       10.9599,            0.,NA,NA,"",   134.240E-03,  -76.2099E-03,   110.510E-03,   99.3584E-06
C:/temp/dataset/6/23_12.odb,Step-1,Increment      1: Step Time =    1.000,"PART-1-1",           161,      -6.93805,       8.84105,            0.,NA,NA,"",   127.048E-03,  -61.0483E-03,   111.419E-03,   143.728E-06
C:/temp/dataset/6/23_12.odb,Step-1,Increment      1: Step Time =    1.000,"PART-1-1",           162,      -7.28921,       17.6445,            0.,NA,NA,"",   164.580E-03,  -123.548E-03,   108.732E-03,   5.25990E-06
C:/temp/dataset/6/23_12.odb,Step-1,Increment      1: Step Time =    1.000,"PART-1-1",           163,      -7.17735,       15.3234,            0.,NA,NA,"",   153.227E-03,  -107.099E-03,   109.583E-03,   19.0526E-06
C:/temp/dataset/6/23_12.odb,Step-1,Increment      1: Step Time =    1.000,"PART-1-1",           164,      -6.93557,       23.5874,            0.,NA,NA,"",   199.520E-03,  -165.731E-03,   111.093E-03,   287.278E-09
C:/temp/dataset/6/23_12.odb,Step-1,Increment      1: Step Time =    1.000,"PART-1-1",           165,      -13.1925,       19.7530,            0.,NA,NA,"",   153.621E-03,  -138.350E-03,   66.7727E-03,   767.919E-09
C:/temp/dataset/6/23_12.odb,Step-1,Increment      1: Step Time =    1.000,"PART-1-1",           166,      -7.44963,       27.8335,            0.,NA,NA,"",   223.344E-03,  -195.860E-03,   107.337E-03,   120.092E-09
C:/temp/dataset/6/23_12.odb,Step-1,Increment      1: Step Time =    1.000,"PART-1-1",           167,      -13.0424,       22.0734,            0.,NA,NA,"",   169.016E-03,  -154.830E-03,   67.7799E-03,   274.105E-09
C:/temp/dataset/6/23_12.odb,Step-1,Increment      1: Step Time =    1.000,"PART-1-1",           168,      -13.1316,       14.9813,            0.,NA,NA,"",   124.261E-03,  -104.440E-03,   67.3289E-03,   19.7726E-06
C:/temp/dataset/6/23_12.odb,Step-1,Increment      1: Step Time =    1.000,"PART-1-1",           169,      -13.1727,       17.3972,            0.,NA,NA,"",   138.838E-03,  -121.616E-03,   66.9733E-03,   5.27071E-06
C:/temp/dataset/6/23_12.odb,Step-1,Increment      1: Step Time =    1.000,"PART-1-1",           170,      -12.8574,       7.53984,            0.,NA,NA,"",   86.7384E-03,  -51.8869E-03,   69.5075E-03,   60.2106E-06
C:/temp/dataset/6/23_12.odb,Step-1,Increment      1: Step Time =    1.000,"PART-1-1",           171,      -13.0166,       10.0884,            0.,NA,NA,"",   97.5527E-03,  -69.6582E-03,   68.2954E-03,   88.5008E-06
C:/temp/dataset/6/23_12.odb,Step-1,Increment      1: Step Time =    1.000,"PART-1-1",           172,      -12.8045,  -118.323E-03,            0.,NA,NA,"",   68.1663E-03,  -5.55434E-03,   67.9396E-03,   1.10560E-03
C:/temp/dataset/6/23_12.odb,Step-1,Increment      1: Step Time =    1.000,"PART-1-1",           173,      -12.7039,       2.28772,            0.,NA,NA,"",   72.6780E-03,  -18.9970E-03,   70.1514E-03,   866.670E-06
C:/temp/dataset/6/23_12.odb,Step-1,Increment      1: Step Time =    1.000,"PART-1-1",           174,      -12.8488,      -7.31355,            0.,NA,NA,"",   67.5612E-03,   32.0742E-03,   59.4622E-03,   1.36699E-03
C:/temp/dataset/6/23_12.odb,Step-1,Increment      1: Step Time =    1.000,"PART-1-1",           175,      -12.6051,      -4.81291,            0.,NA,NA,"",   66.8090E-03,   20.5967E-03,   63.5549E-03,   1.47072E-03
C:/temp/dataset/6/23_12.odb,Step-1,Increment      1: Step Time =    1.000,"PART-1-1",           176,      -12.4260,      -15.0682,            0.,NA,NA,"",   59.8685E-03,   37.5466E-03,   46.6315E-03,   2.83564E-03
C:/temp/dataset/6/23_12.odb,Step-1,Increment      1: Step Time =    1.000,"PART-1-1",           177,      -12.3344,      -12.5112,            0.,NA,NA,"",   65.8899E-03,   40.0017E-03,   52.3578E-03,   2.52238E-03
C:/temp/dataset/6/23_12.odb,Step-1,Increment      1: Step Time =    1.000,"PART-1-1",           178,      -12.6598,      -20.1148,            0.,NA,NA,"",   41.9961E-03,   25.4880E-03,   33.3772E-03,   3.49315E-03
C:/temp/dataset/6/23_12.odb,Step-1,Increment      1: Step Time =    1.000,"PART-1-1",           179,      -8.70618,       22.9331,            0.,NA,NA,"",   188.799E-03,  -161.042E-03,   98.5412E-03,   295.263E-09
C:/temp/dataset/6/23_12.odb,Step-1,Increment      1: Step Time =    1.000,"PART-1-1",           180,      -9.21222,       15.1634,            0.,NA,NA,"",   142.335E-03,  -105.887E-03,   95.1170E-03,   23.7975E-06
C:/temp/dataset/6/23_12.odb,Step-1,Increment      1: Step Time =    1.000,"PART-1-1",           181,      -9.55138,       19.8926,            0.,NA,NA,"",   167.395E-03,  -139.438E-03,   92.6178E-03,   1.47590E-06
C:/temp/dataset/6/23_12.odb,Step-1,Increment      1: Step Time =    1.000,"PART-1-1",           182,      -8.92203,       8.32966,            0.,NA,NA,"",   112.620E-03,  -57.2508E-03,   96.9828E-03,   150.097E-06
C:/temp/dataset/6/23_12.odb,Step-1,Increment      1: Step Time =    1.000,"PART-1-1",           183,      -9.17670,       12.8809,            0.,NA,NA,"",   130.919E-03,  -89.6962E-03,   95.3639E-03,   58.7533E-06
C:/temp/dataset/6/23_12.odb,Step-1,Increment      1: Step Time =    1.000,"PART-1-1",           184,      -9.09923,       10.6117,            0.,NA,NA,"",   120.834E-03,  -73.5842E-03,   95.8448E-03,   110.995E-06
C:/temp/dataset/6/23_12.odb,Step-1,Increment      1: Step Time =    1.000,"PART-1-1",           185,      -9.30530,       17.5014,            0.,NA,NA,"",   154.643E-03,  -122.473E-03,   94.4192E-03,   7.27085E-06
C:/temp/dataset/6/23_12.odb,Step-1,Increment      1: Step Time =    1.000,"PART-1-1",           186,      -8.37864,       6.17865,            0.,NA,NA,"",   109.315E-03,  -41.6447E-03,   101.072E-03,   710.129E-06
C:/temp/dataset/6/23_12.odb,Step-1,Increment      1: Step Time =    1.000,"PART-1-1",           187,       10.9988,      -10.2527,            0.,NA,NA,"",   53.4630E-03,  -39.3791E-03,   36.1605E-03,   1.94426E-03
C:/temp/dataset/6/23_12.odb,Step-1,Increment      1: Step Time =    1.000,"PART-1-1",           188,       10.8643,      -17.5211,            0.,NA,NA,"",   35.2365E-03,  -25.3744E-03,   24.4490E-03,   2.44393E-03
C:/temp/dataset/6/23_12.odb,Step-1,Increment      1: Step Time =    1.000,"PART-1-1",           189,       11.0508,      -8.01555,            0.,NA,NA,"",   54.5497E-03,  -38.4473E-03,   38.6971E-03,   1.46557E-03
C:/temp/dataset/6/23_12.odb,Step-1,Increment      1: Step Time =    1.000,"PART-1-1",           190,       10.6332,      -2.00908,            0.,NA,NA,"",   48.0259E-03,  -15.5107E-03,   45.4522E-03,   990.176E-06
C:/temp/dataset/6/23_12.odb,Step-1,Increment      1: Step Time =    1.000,"PART-1-1",           191,       11.1668,      -5.92645,            0.,NA,NA,"",   52.5247E-03,  -33.9547E-03,   40.0739E-03,   877.317E-06
C:/temp/dataset/6/23_12.odb,Step-1,Increment      1: Step Time =    1.000,"PART-1-1",           192,       10.9732,      -14.9280,            0.,NA,NA,"",   43.5719E-03,  -32.4597E-03,   29.0669E-03,   2.28403E-03
C:/temp/dataset/6/23_12.odb,Step-1,Increment      1: Step Time =    1.000,"PART-1-1",           193,       10.5476,      -23.6927,            0.,NA,NA,"",   14.1560E-03,  -8.32101E-03,   11.4523E-03,   2.45909E-03
C:/temp/dataset/6/23_12.odb,Step-1,Increment      1: Step Time =    1.000,"PART-1-1",           194,       10.5707,      -21.1850,            0.,NA,NA,"",   22.1010E-03,  -14.3446E-03,   16.8132E-03,   2.59187E-03
C:/temp/dataset/6/23_12.odb,Step-1,Increment      1: Step Time =    1.000,"PART-1-1",           195,       10.9760,      -12.5622,            0.,NA,NA,"",   49.6109E-03,  -37.1657E-03,   32.8626E-03,   2.16396E-03
C:/temp/dataset/6/23_12.odb,Step-1,Increment      1: Step Time =    1.000,"PART-1-1",           196,       11.6229,      -19.2502,            0.,NA,NA,"",   30.4864E-03,  -21.0435E-03,   22.0588E-03,   2.39308E-03
C:/temp/dataset/6/23_12.odb,Step-1,Increment      1: Step Time =    1.000,"PART-1-1",           197,       11.1609,      -3.97100,            0.,NA,NA,"",   48.9506E-03,  -26.1934E-03,   41.3530E-03,   769.910E-06
C:/temp/dataset/6/23_12.odb,Step-1,Increment      1: Step Time =    1.000,"PART-1-1",           198,      -9.55101,       25.2781,            0.,NA,NA,"",   200.297E-03,  -177.667E-03,   92.4846E-03,   240.099E-09
C:/temp/dataset/6/23_12.odb,Step-1,Increment      1: Step Time =    1.000,"PART-1-1",           199,      -6.13353,       2.97524,            0.,NA,NA,"",   123.256E-03,  -18.4807E-03,   121.862E-03,   4.46145E-03
C:/temp/dataset/6/23_12.odb,Step-1,Increment      1: Step Time =    1.000,"PART-1-1",           200,       8.52809,      -18.5145,            0.,NA,NA,"",   28.1843E-03,  -19.8178E-03,   20.0402E-03,   2.72533E-03
C:/temp/dataset/6/23_12.odb,Step-1,Increment      1: Step Time =    1.000,"PART-1-1",           201,      -9.31256,      -6.57829,            0.,NA,NA,"",   81.0473E-03,   26.5622E-03,   76.5710E-03,   3.29234E-03
C:/temp/dataset/6/23_12.odb,Step-1,Increment      1: Step Time =    1.000,"PART-1-1",           202,      -7.82061,      -4.24854,            0.,NA,NA,"",   94.0237E-03,   10.4265E-03,   93.4438E-03,   4.71474E-03
C:/temp/dataset/6/23_12.odb,Step-1,Increment      1: Step Time =    1.000,"PART-1-1",           203,       7.55002,      -20.4955,            0.,NA,NA,"",   18.7911E-03,  -12.1609E-03,   14.3254E-03,   2.90681E-03
C:/temp/dataset/6/23_12.odb,Step-1,Increment      1: Step Time =    1.000,"PART-1-1",           204,      -9.18944,      -8.43706,            0.,NA,NA,"",   78.5503E-03,   32.6418E-03,   71.4470E-03,   3.74794E-03
C:/temp/dataset/6/23_12.odb,Step-1,Increment      1: Step Time =    1.000,"PART-1-1",           205,      -12.3720,       27.4312,            0.,NA,NA,"",   206.023E-03,  -192.881E-03,   72.4046E-03,   138.789E-09
C:/temp/dataset/6/23_12.odb,Step-1,Increment      1: Step Time =    1.000,"PART-1-1",           206,      -10.3791,       22.2070,            0.,NA,NA,"",   178.331E-03,  -155.845E-03,   86.6841E-03,   323.187E-09
C:/temp/dataset/6/23_12.odb,Step-1,Increment      1: Step Time =    1.000,"PART-1-1",           207,       3.40286,  -884.176E-03,            0.,NA,NA,"",   110.873E-03,  -88.6310E-06,   110.873E-03,   5.87321E-03
C:/temp/dataset/6/23_12.odb,Step-1,Increment      1: Step Time =    1.000,"PART-1-1",           208,       7.88020,       1.44192,            0.,NA,NA,"",   68.5322E-03,   7.40933E-03,   68.1305E-03,   1.70587E-03
C:/temp/dataset/6/23_12.odb,Step-1,Increment      1: Step Time =    1.000,"PART-1-1",           209,      -1.17287,  -897.893E-03,            0.,NA,NA,"",   154.403E-03,  -3.74967E-03,   154.358E-03,   6.12739E-03
C:/temp/dataset/6/23_12.odb,Step-1,Increment      1: Step Time =    1.000,"PART-1-1",           210,       10.4014,      -25.9274,            0.,NA,NA,"",   7.89563E-03,  -4.14679E-03,   6.71901E-03,   2.21611E-03
C:/temp/dataset/6/23_12.odb,Step-1,Increment      1: Step Time =    1.000,"PART-1-1",           211,       2.00108,      -24.8239,            0.,NA,NA,"",   1.06484E-03,  -855.848E-06,   633.570E-06,   130.924E-06
C:/temp/dataset/6/23_12.odb,Step-1,Increment      1: Step Time =    1.000,"PART-1-1",           212,      -4.80900,      -25.1606,            0.,NA,NA,"",   5.91687E-03,   208.141E-06,   5.91321E-03,   1.76632E-03
C:/temp/dataset/6/23_12.odb,Step-1,Increment      1: Step Time =    1.000,"PART-1-1",           213,      -11.5765,       21.3848,            0.,NA,NA,"",   169.143E-03,  -149.978E-03,   78.2046E-03,   375.286E-09
C:/temp/dataset/6/23_12.odb,Step-1,Increment      1: Step Time =    1.000,"PART-1-1",           214,      -11.0630,       10.3038,            0.,NA,NA,"",   108.596E-03,  -71.2685E-03,   81.9380E-03,   101.825E-06
C:/temp/dataset/6/23_12.odb,Step-1,Increment      1: Step Time =    1.000,"PART-1-1",           215,      -10.2832,  -591.021E-03,            0.,NA,NA,"",   84.9598E-03,  -5.22217E-03,   84.7992E-03,   2.57598E-03
C:/temp/dataset/6/23_12.odb,Step-1,Increment      1: Step Time =    1.000,"PART-1-1",           216,      -11.1869,      -5.64306,            0.,NA,NA,"",   73.0368E-03,   23.7674E-03,   69.0614E-03,   2.14063E-03
C:/temp/dataset/6/23_12.odb,Step-1,Increment      1: Step Time =    1.000,"PART-1-1",           217,      -9.48237,      -10.3825,            0.,NA,NA,"",   73.2026E-03,   35.8931E-03,   63.7989E-03,   4.04354E-03
C:/temp/dataset/6/23_12.odb,Step-1,Increment      1: Step Time =    1.000,"PART-1-1",           218,      -10.0191,      -20.7277,            0.,NA,NA,"",   34.0240E-03,   19.1832E-03,   28.1005E-03,   4.05908E-03
C:/temp/dataset/6/23_12.odb,Step-1,Increment      1: Step Time =    1.000,"PART-1-1",           219,      -12.8377,      -24.8331,            0.,NA,NA,"",   21.9980E-03,   12.7159E-03,   17.9504E-03,   4.10923E-03
C:/temp/dataset/6/23_12.odb,Step-1,Increment      1: Step Time =    1.000,"PART-1-1",           220,  -752.185E-03,      -25.0561,            0.,NA,NA,"",   1.34081E-03,  -932.124E-06,   963.802E-06,   292.030E-06
C:/temp/dataset/6/23_12.odb,Step-1,Increment      1: Step Time =    1.000,"PART-1-1",           221,      -11.3411,      -22.5061,            0.,NA,NA,"",   28.7912E-03,   16.2340E-03,   23.7779E-03,   3.90639E-03
C:/temp/dataset/6/23_12.odb,Step-1,Increment      1: Step Time =    1.000,"PART-1-1",           222,       5.90860,      -26.1342,            0.,NA,NA,"",   2.91663E-03,  -929.520E-06,   2.76455E-03,   968.175E-06
C:/temp/dataset/6/23_12.odb,Step-1,Increment      1: Step Time =    1.000,"PART-1-1",           223,       3.81352,      -25.8758,            0.,NA,NA,"",   1.49648E-03,  -609.292E-06,   1.36682E-03,   443.082E-06
C:/temp/dataset/6/23_12.odb,Step-1,Increment      1: Step Time =    1.000,"PART-1-1",           224,      -6.87266,      -25.1947,            0.,NA,NA,"",   9.40617E-03,   2.32857E-03,   9.11338E-03,   2.71967E-03
C:/temp/dataset/6/23_12.odb,Step-1,Increment      1: Step Time =    1.000,"PART-1-1",           225,       9.77381,   336.875E-03,            0.,NA,NA,"",   52.8359E-03,  -519.617E-06,   52.8333E-03,   952.679E-06
C:/temp/dataset/6/23_12.odb,Step-1,Increment      1: Step Time =    1.000,"PART-1-1",           226,       4.59800,   29.7464E-03,            0.,NA,NA,"",   98.2083E-03,   2.28386E-03,   98.1817E-03,   4.86367E-03
C:/temp/dataset/6/23_12.odb,Step-1,Increment      1: Step Time =    1.000,"PART-1-1",           227,      -11.1551,       12.6912,            0.,NA,NA,"",   119.996E-03,  -88.2261E-03,   81.3338E-03,   58.5806E-06
C:/temp/dataset/6/23_12.odb,Step-1,Increment      1: Step Time =    1.000,"PART-1-1",           228,      -11.2689,       17.3859,            0.,NA,NA,"",   145.815E-03,  -121.591E-03,   80.4836E-03,   7.53570E-06
C:/temp/dataset/6/23_12.odb,Step-1,Increment      1: Step Time =    1.000,"PART-1-1",           229,      -11.2102,       15.0558,            0.,NA,NA,"",   132.604E-03,  -105.037E-03,   80.9398E-03,   23.8313E-06
C:/temp/dataset/6/23_12.odb,Step-1,Increment      1: Step Time =    1.000,"PART-1-1",           230,      -10.8139,       7.79620,            0.,NA,NA,"",   99.3289E-03,  -53.6146E-03,   83.6164E-03,   115.503E-06
C:/temp/dataset/6/23_12.odb,Step-1,Increment      1: Step Time =    1.000,"PART-1-1",           231,      -10.1648,       4.85487,            0.,NA,NA,"",   94.7282E-03,  -33.7825E-03,   88.4995E-03,   825.083E-06
C:/temp/dataset/6/23_12.odb,Step-1,Increment      1: Step Time =    1.000,"PART-1-1",           232,      -10.4473,       2.01195,            0.,NA,NA,"",   88.0776E-03,  -17.9462E-03,   86.2299E-03,   1.79212E-03
C:/temp/dataset/6/23_12.odb,Step-1,Increment      1: Step Time =    1.000,"PART-1-1",           233,      -10.4810,      -3.59789,            0.,NA,NA,"",   78.0049E-03,   11.7089E-03,   77.1211E-03,   2.66235E-03
C:/temp/dataset/6/23_12.odb,Step-1,Increment      1: Step Time =    1.000,"PART-1-1",           234,      -9.89141,      -15.1395,            0.,NA,NA,"",   57.7097E-03,   33.9054E-03,   46.6994E-03,   3.96922E-03
C:/temp/dataset/6/23_12.odb,Step-1,Increment      1: Step Time =    1.000,"PART-1-1",           235,      -9.95744,      -17.7636,            0.,NA,NA,"",   47.2143E-03,   28.0888E-03,   37.9500E-03,   3.90113E-03
C:/temp/dataset/6/23_12.odb,Step-1,Increment      1: Step Time =    1.000,"PART-1-1",           236,      -3.63694,      -1.16253,            0.,NA,NA,"",   150.086E-03,  -10.4383E-03,   149.723E-03,   7.35507E-03
C:/temp/dataset/6/23_12.odb,Step-1,Increment      1: Step Time =    1.000,"PART-1-1",           237,      -7.00580,      -22.7773,            0.,NA,NA,"",   17.6543E-03,   6.95466E-03,   16.2267E-03,   3.82237E-03
C:/temp/dataset/6/23_12.odb,Step-1,Increment      1: Step Time =    1.000,"PART-1-1",           238,       7.08723,      -4.67483,            0.,NA,NA,"",   67.1404E-03,  -27.7544E-03,   61.1354E-03,   2.99105E-03
C:/temp/dataset/6/23_12.odb,Step-1,Increment      1: Step Time =    1.000,"PART-1-1",           239,       8.96532,      -10.1697,            0.,NA,NA,"",   54.7417E-03,  -37.7929E-03,   39.6025E-03,   3.00262E-03
C:/temp/dataset/6/23_12.odb,Step-1,Increment      1: Step Time =    1.000,"PART-1-1",           240,       8.99874,      -7.82238,            0.,NA,NA,"",   58.5096E-03,  -37.3391E-03,   45.0463E-03,   2.78577E-03
C:/temp/dataset/6/23_12.odb,Step-1,Increment      1: Step Time =    1.000,"PART-1-1",           241,       8.96760,      -14.8663,            0.,NA,NA,"",   41.8232E-03,  -30.6547E-03,   28.4511E-03,   2.81265E-03
C:/temp/dataset/6/23_12.odb,Step-1,Increment      1: Step Time =    1.000,"PART-1-1",           242,      -12.0836,       24.5335,            0.,NA,NA,"",   187.743E-03,  -172.318E-03,   74.5251E-03,   289.759E-09
C:/temp/dataset/6/23_12.odb,Step-1,Increment      1: Step Time =    1.000,"PART-1-1",           243,       9.21542,      -5.66363,            0.,NA,NA,"",   58.2557E-03,  -32.8051E-03,   48.1410E-03,   1.98129E-03
C:/temp/dataset/6/23_12.odb,Step-1,Increment      1: Step Time =    1.000,"PART-1-1",           244,       8.72776,      -2.97127,            0.,NA,NA,"",   58.5768E-03,  -19.9055E-03,   55.0910E-03,   2.10102E-03
C:/temp/dataset/6/23_12.odb,Step-1,Increment      1: Step Time =    1.000,"PART-1-1",           245,       9.39471,      -19.4524,            0.,NA,NA,"",   26.1680E-03,  -17.9295E-03,   19.0603E-03,   2.68038E-03
C:/temp/dataset/6/23_12.odb,Step-1,Increment      1: Step Time =    1.000,"PART-1-1",           246,       8.06548,      -22.0810,            0.,NA,NA,"",   14.5048E-03,  -8.68529E-03,   11.6171E-03,   2.54293E-03
C:/temp/dataset/6/23_12.odb,Step-1,Increment      1: Step Time =    1.000,"PART-1-1",           247,      -7.53738,       4.79758,            0.,NA,NA,"",   112.454E-03,  -31.1711E-03,   108.048E-03,   1.76881E-03
C:/temp/dataset/6/23_12.odb,Step-1,Increment      1: Step Time =    1.000,"PART-1-1",           248,      -10.8025,      -24.3532,            0.,NA,NA,"",   19.6326E-03,   10.2914E-03,   16.7191E-03,   3.86858E-03
C:/temp/dataset/6/23_12.odb,Step-1,Increment      1: Step Time =    1.000,"PART-1-1",           249,       5.82981,      -2.08643,            0.,NA,NA,"",   80.8674E-03,  -9.90413E-03,   80.2586E-03,   5.05210E-03
C:/temp/dataset/6/23_12.odb,Step-1,Increment      1: Step Time =    1.000,"PART-1-1",           250,      -8.67175,      -2.53401,            0.,NA,NA,"",   92.7672E-03,   2.05253E-03,   92.7444E-03,   4.36731E-03
C:/temp/dataset/6/23_12.odb,Step-1,Increment      1: Step Time =    1.000,"PART-1-1",           251,       5.78686,      -22.7214,            0.,NA,NA,"",   7.72595E-03,  -4.30296E-03,   6.41677E-03,   1.76142E-03
C:/temp/dataset/6/23_12.odb,Step-1,Increment      1: Step Time =    1.000,"PART-1-1",           252,      -8.27594,       1.60152,            0.,NA,NA,"",   105.163E-03,  -16.2123E-03,   103.906E-03,   3.35196E-03
C:/temp/dataset/6/23_12.odb,Step-1,Increment      1: Step Time =    1.000,"PART-1-1",           253,       8.25490,      -24.0061,            0.,NA,NA,"",   9.57174E-03,  -5.09633E-03,   8.10220E-03,   2.06007E-03
C:/temp/dataset/6/23_12.odb,Step-1,Increment      1: Step Time =    1.000,"PART-1-1",           254,      -9.04303,      -23.2600,            0.,NA,NA,"",   20.6025E-03,   9.82799E-03,   18.1073E-03,   3.89017E-03
C:/temp/dataset/6/23_12.odb,Step-1,Increment      1: Step Time =    1.000,"PART-1-1",           255,       7.61656,      -1.09448,            0.,NA,NA,"",   67.0689E-03,  -7.49181E-03,   66.6492E-03,   2.73140E-03
C:/temp/dataset/6/23_12.odb,Step-1,Increment      1: Step Time =    1.000,"PART-1-1",           256,      -4.02262,   861.151E-03,            0.,NA,NA,"",   141.751E-03,  -10.9394E-03,   141.328E-03,   5.10687E-03
C:/temp/dataset/6/23_12.odb,Step-1,Increment      1: Step Time =    1.000,"PART-1-1",           257,  -104.141E-03,       1.31276,            0.,NA,NA,"",   142.073E-03,   902.494E-06,   142.070E-03,   4.63461E-03
C:/temp/dataset/6/23_12.odb,Step-1,Increment      1: Step Time =    1.000,"PART-1-1",           258,       3.72123,      -23.4419,            0.,NA,NA,"",   2.95320E-03,  -1.87674E-03,   2.28018E-03,   705.750E-06
C:/temp/dataset/6/23_12.odb,Step-1,Increment      1: Step Time =    1.000,"PART-1-1",           259,      -10.7950,      -8.39617,            0.,NA,NA,"",   73.5051E-03,   34.0684E-03,   65.1333E-03,   2.72275E-03
C:/temp/dataset/6/23_12.odb,Step-1,Increment      1: Step Time =    1.000,"PART-1-1",           260,      -1.85786,       1.02916,            0.,NA,NA,"",   148.200E-03,  -4.71475E-03,   148.125E-03,   4.19914E-03
C:/temp/dataset/6/23_12.odb,Step-1,Increment      1: Step Time =    1.000,"PART-1-1",           261,      -6.46179,      -1.33856,            0.,NA,NA,"",   119.093E-03,  -9.28688E-03,   118.730E-03,   6.76400E-03
C:/temp/dataset/6/23_12.odb,Step-1,Increment      1: Step Time =    1.000,"PART-1-1",           262,      -11.1078,      -7.00587,            0.,NA,NA,"",   73.1921E-03,   29.8179E-03,   66.8429E-03,   2.12238E-03
C:/temp/dataset/6/23_12.odb,Step-1,Increment      1: Step Time =    1.000,"PART-1-1",           263,      -5.52697,      -3.44125,            0.,NA,NA,"",   125.981E-03,  -4.52902E-03,   125.899E-03,   11.3811E-03
C:/temp/dataset/6/23_12.odb,Step-1,Increment      1: Step Time =    1.000,"PART-1-1",           264,      -9.72268,      -4.98378,            0.,NA,NA,"",   80.5706E-03,   18.8762E-03,   78.3282E-03,   2.75896E-03
C:/temp/dataset/6/23_12.odb,Step-1,Increment      1: Step Time =    1.000,"PART-1-1",           265,      -6.27329,       4.89376,            0.,NA,NA,"",   121.232E-03,  -29.4906E-03,   117.590E-03,   2.93818E-03
C:/temp/dataset/6/23_12.odb,Step-1,Increment      1: Step Time =    1.000,"PART-1-1",           266,       12.4963,       2.80040,            0.,NA,NA,"",   38.8845E-03,   15.3866E-03,   35.7107E-03,   380.222E-06
C:/temp/dataset/6/23_12.odb,Step-1,Increment      1: Step Time =    1.000,"PART-1-1",           267,      -7.37176,      -20.2559,            0.,NA,NA,"",   30.2074E-03,   15.5341E-03,   25.9071E-03,   4.34296E-03
C:/temp/dataset/6/23_12.odb,Step-1,Increment      1: Step Time =    1.000,"PART-1-1",           268,       2.88963,      -21.8777,            0.,NA,NA,"",   3.26308E-03,  -2.58649E-03,   1.98942E-03,   862.498E-06
C:/temp/dataset/6/23_12.odb,Step-1,Increment      1: Step Time =    1.000,"PART-1-1",           269,      -8.05085,       3.52655,            0.,NA,NA,"",   108.011E-03,  -24.4096E-03,   105.217E-03,   2.38366E-03
C:/temp/dataset/6/23_12.odb,Step-1,Increment      1: Step Time =    1.000,"PART-1-1",           270,       8.95558,      -12.5395,            0.,NA,NA,"",   48.8998E-03,  -35.2926E-03,   33.8471E-03,   2.97244E-03
C:/temp/dataset/6/23_12.odb,Step-1,Increment      1: Step Time =    1.000,"PART-1-1",           271,       1.35989,  -223.950E-03,            0.,NA,NA,"",   133.918E-03,   1.81705E-03,   133.906E-03,   6.09093E-03
C:/temp/dataset/6/23_12.odb,Step-1,Increment      1: Step Time =    1.000,"PART-1-1",           272,      -9.75004,      -12.6533,            0.,NA,NA,"",   66.2923E-03,   36.5562E-03,   55.3020E-03,   4.05574E-03
C:/temp/dataset/6/23_12.odb,Step-1,Increment      1: Step Time =    1.000,"PART-1-1",           273,      -8.51206,      -25.1011,            0.,NA,NA,"",   12.5122E-03,   4.80895E-03,   11.5511E-03,   3.34162E-03
C:/temp/dataset/6/23_12.odb,Step-1,Increment      1: Step Time =    1.000,"PART-1-1",           274,      -6.19138,   998.181E-03,            0.,NA,NA,"",   123.910E-03,  -13.7829E-03,   123.141E-03,   5.15270E-03
C:/temp/dataset/6/23_12.odb,Step-1,Increment      1: Step Time =    1.000,"PART-1-1",           275,      -2.63339,      -25.0950,            0.,NA,NA,"",   2.84834E-03,  -785.882E-06,   2.73778E-03,   873.365E-06
C:/temp/dataset/6/23_12.odb,Step-1,Increment      1: Step Time =    1.000,"PART-1-1",           276,       8.11811,      -26.0558,            0.,NA,NA,"",   5.12216E-03,  -2.16706E-03,   4.64116E-03,   1.61957E-03
C:/temp/dataset/6/23_12.odb,Step-1,Increment      1: Step Time =    1.000,"PART-1-1",           277,       6.33403,   764.508E-03,            0.,NA,NA,"",   81.4145E-03,   4.41829E-03,   81.2945E-03,   3.21693E-03
C:/temp/dataset/6/23_12.odb,Step-1,Increment      1: Step Time =    1.000,"PART-1-1",           278,       8.84044,      -16.9880,            0.,NA,NA,"",   34.3187E-03,  -24.8396E-03,   23.6805E-03,   2.71694E-03
C:/temp/dataset/6/23_12.odb,Step-1,Increment      1: Step Time =    1.000,"PART-1-1",           279,      -11.3950,       19.6047,            0.,NA,NA,"",   158.712E-03,  -137.344E-03,   79.5371E-03,   1.76157E-06
C:/temp/dataset/6/23_12.odb,Step-1,Increment      1: Step Time =    1.000,"PART-1-1",           280,      -11.2464,      -2.22607,            0.,NA,NA,"",   75.3206E-03,   4.86916E-03,   75.1631E-03,   2.11462E-03
C:/temp/dataset/6/23_12.odb,Step-1,Increment      1: Step Time =    1.000,"PART-1-1",           281,      -8.41776,  -32.7016E-03,            0.,NA,NA,"",   101.765E-03,  -10.0435E-03,   101.268E-03,   3.83160E-03
C:/temp/dataset/6/23_12.odb,Step-1,Increment      1: Step Time =    1.000,"PART-1-1",           282,       4.48255,      -24.5345,            0.,NA,NA,"",   2.99059E-03,  -1.47187E-03,   2.60331E-03,   791.481E-06
C:/temp/dataset/6/23_12.odb,Step-1,Increment      1: Step Time =    1.000,"PART-1-1",           283,       6.11275,      -24.3348,            0.,NA,NA,"",   5.47718E-03,  -2.58863E-03,   4.82685E-03,   1.37014E-03
C:/temp/dataset/6/23_12.odb,Step-1,Increment      1: Step Time =    1.000,"PART-1-1",           284,       9.69767,      -4.20039,            0.,NA,NA,"",   54.9802E-03,  -26.8350E-03,   47.9865E-03,   1.51619E-03
C:/temp/dataset/6/23_12.odb,Step-1,Increment      1: Step Time =    1.000,"PART-1-1",           285,       13.8851,      -1.60402,            0.,NA,NA,"",   31.1048E-03,  -13.3927E-03,   28.0739E-03,   581.745E-06
C:/temp/dataset/6/23_12.odb,Step-1,Increment      1: Step Time =    1.000,"PART-1-1",           286,           15.,   -468.75E-03,            0.,NA,NA,"",   21.7276E-03,  -6.14581E-03,   20.8403E-03,   801.939E-06
C:/temp/dataset/6/23_12.odb,Step-1,Increment      1: Step Time =    1.000,"PART-1-1",           287,       13.7553,   590.641E-03,            0.,NA,NA,"",   28.0263E-03,   421.604E-06,   28.0231E-03,   374.008E-06
C:/temp/dataset/6/23_12.odb,Step-1,Increment      1: Step Time =    1.000,"PART-1-1",           288,       12.6405,  -544.629E-03,            0.,NA,NA,"",   35.4899E-03,  -6.98591E-03,   34.7955E-03,   457.141E-06
C:/temp/dataset/6/23_12.odb,Step-1,Increment      1: Step Time =    1.000,"PART-1-1",           289,       6.57104,       2.96720,            0.,NA,NA,"",   82.0841E-03,   16.9956E-03,   80.3054E-03,   1.95606E-03
C:/temp/dataset/6/23_12.odb,Step-1,Increment      1: Step Time =    1.000,"PART-1-1",           290,       5.86345,       1.80964,            0.,NA,NA,"",   87.2546E-03,   10.0323E-03,   86.6759E-03,   2.90166E-03
C:/temp/dataset/6/23_12.odb,Step-1,Increment      1: Step Time =    1.000,"PART-1-1",           291,       7.10711,       1.10321,            0.,NA,NA,"",   74.6942E-03,   5.76257E-03,   74.4715E-03,   2.41715E-03
C:/temp/dataset/6/23_12.odb,Step-1,Increment      1: Step Time =    1.000,"PART-1-1",           292,       7.81470,       2.26078,            0.,NA,NA,"",   70.2919E-03,   12.5390E-03,   69.1645E-03,   1.38377E-03
C:/temp/dataset/6/23_12.odb,Step-1,Increment      1: Step Time =    1.000,"PART-1-1",           293,       6.97305,      -8.82061,            0.,NA,NA,"",   59.0599E-03,  -35.2907E-03,   47.3565E-03,   4.47824E-03
C:/temp/dataset/6/23_12.odb,Step-1,Increment      1: Step Time =    1.000,"PART-1-1",           294,       5.98985,      -7.53541,            0.,NA,NA,"",   64.5949E-03,  -33.1018E-03,   55.4686E-03,   5.63803E-03
C:/temp/dataset/6/23_12.odb,Step-1,Increment      1: Step Time =    1.000,"PART-1-1",           295,            5.,      -8.76875,            0.,NA,NA,"",   58.3787E-03,  -30.5949E-03,   49.7195E-03,   5.90477E-03
C:/temp/dataset/6/23_12.odb,Step-1,Increment      1: Step Time =    1.000,"PART-1-1",           296,       5.98320,      -10.0539,            0.,NA,NA,"",   54.5192E-03,  -32.9626E-03,   43.4258E-03,   4.76149E-03
C:/temp/dataset/6/23_12.odb,Step-1,Increment      1: Step Time =    1.000,"PART-1-1",           297,       12.0429,      -8.05477,            0.,NA,NA,"",   52.9611E-03,  -38.7222E-03,   36.1313E-03,   925.660E-06
C:/temp/dataset/6/23_12.odb,Step-1,Increment      1: Step Time =    1.000,"PART-1-1",           298,       11.0248,      -9.13413,            0.,NA,NA,"",   54.4199E-03,  -39.3941E-03,   37.5450E-03,   1.69932E-03
C:/temp/dataset/6/23_12.odb,Step-1,Increment      1: Step Time =    1.000,"PART-1-1",           299,       11.9985,      -10.2754,            0.,NA,NA,"",   52.8597E-03,  -39.8532E-03,   34.7256E-03,   1.37718E-03
C:/temp/dataset/6/23_12.odb,Step-1,Increment      1: Step Time =    1.000,"PART-1-1",           300,       13.0166,      -9.19606,            0.,NA,NA,"",   52.2749E-03,  -39.8857E-03,   33.7906E-03,   686.446E-06
C:/temp/dataset/6/23_12.odb,Step-1,Increment      1: Step Time =    1.000,"PART-1-1",           301,       13.9992,      -14.7549,            0.,NA,NA,"",   46.8824E-03,  -34.6981E-03,   31.5277E-03,   981.401E-06
C:/temp/dataset/6/23_12.odb,Step-1,Increment      1: Step Time =    1.000,"PART-1-1",           302,       13.0271,      -15.9471,            0.,NA,NA,"",   42.8298E-03,  -31.4258E-03,   29.1000E-03,   1.66723E-03
C:/temp/dataset/6/23_12.odb,Step-1,Increment      1: Step Time =    1.000,"PART-1-1",           303,       14.0279,      -16.9735,            0.,NA,NA,"",   41.5387E-03,  -29.4254E-03,   29.3192E-03,   1.48680E-03
C:/temp/dataset/6/23_12.odb,Step-1,Increment      1: Step Time =    1.000,"PART-1-1",           304,           15.,      -15.7813,            0.,NA,NA,"",   46.2190E-03,  -32.8319E-03,   32.5309E-03,   867.343E-06
C:/temp/dataset/6/23_12.odb,Step-1,Increment      1: Step Time =    1.000,"PART-1-1",           305,       6.96949,      -18.0995,            0.,NA,NA,"",   26.7971E-03,  -19.2379E-03,   18.6543E-03,   2.67500E-03
C:/temp/dataset/6/23_12.odb,Step-1,Increment      1: Step Time =    1.000,"PART-1-1",           306,       5.95014,      -17.3335,            0.,NA,NA,"",   27.4401E-03,  -20.3193E-03,   18.4414E-03,   2.97732E-03
C:/temp/dataset/6/23_12.odb,Step-1,Increment      1: Step Time =    1.000,"PART-1-1",           307,            5.,      -18.7625,            0.,NA,NA,"",   19.0222E-03,  -14.7711E-03,   11.9857E-03,   2.97571E-03
C:/temp/dataset/6/23_12.odb,Step-1,Increment      1: Step Time =    1.000,"PART-1-1",           308,       6.01935,      -19.5285,            0.,NA,NA,"",   18.8617E-03,  -13.2006E-03,   13.4725E-03,   2.61676E-03
C:/temp/dataset/6/23_12.odb,Step-1,Increment      1: Step Time =    1.000,"PART-1-1",           309,       7.66098,      -29.0388,            0.,NA,NA,"",   878.051E-06,   8.53395E-06,   878.009E-06,   1.16321E-03
C:/temp/dataset/6/23_12.odb,Step-1,Increment      1: Step Time =    1.000,"PART-1-1",           310,       6.62868,      -28.0660,            0.,NA,NA,"",   1.50796E-03,  -103.265E-06,   1.50442E-03,   991.020E-06
C:/temp/dataset/6/23_12.odb,Step-1,Increment      1: Step Time =    1.000,"PART-1-1",           311,       5.21770,      -29.0272,            0.,NA,NA,"",   539.848E-06,   155.877E-06,   516.854E-06,   687.732E-06
C:/temp/dataset/6/23_12.odb,Step-1,Increment      1: Step Time =    1.000,"PART-1-1",           312,          6.25,          -30.,            0.,NA,NA,"",            0.,   192.285E-42,   1.66204E-39,   875.753E-06
C:/temp/dataset/6/23_12.odb,Step-1,Increment      1: Step Time =    1.000,"PART-1-1",           313,   162.125E-03,      -28.5454,            0.,NA,NA,"",   631.824E-06,  -552.417E-06,   306.656E-06,   412.382E-06
C:/temp/dataset/6/23_12.odb,Step-1,Increment      1: Step Time =    1.000,"PART-1-1",           314,      -1.06934,      -27.3053,            0.,NA,NA,"",   1.30849E-03,  -1.08981E-03,   724.204E-06,   537.995E-06
C:/temp/dataset/6/23_12.odb,Step-1,Increment      1: Step Time =    1.000,"PART-1-1",           315,      -2.48147,      -28.7599,            0.,NA,NA,"",   1.09971E-03,  -882.701E-06,   655.903E-06,   833.037E-06
C:/temp/dataset/6/23_12.odb,Step-1,Increment      1: Step Time =    1.000,"PART-1-1",           316,         -1.25,          -30.,            0.,NA,NA,"",            0.,  -494.745E-42,   1.04388E-39,   701.139E-06
C:/temp/dataset/6/23_12.odb,Step-1,Increment      1: Step Time =    1.000,"PART-1-1",           317,          -15.,        -21.25,            0.,NA,NA,"",   43.2902E-03,   25.8389E-03,   34.7332E-03,   3.40654E-03
C:/temp/dataset/6/23_12.odb,Step-1,Increment      1: Step Time =    1.000,"PART-1-1",           318,      -13.9888,      -22.4607,            0.,NA,NA,"",   35.2999E-03,   20.9175E-03,   28.4348E-03,   3.72892E-03
C:/temp/dataset/6/23_12.odb,Step-1,Increment      1: Step Time =    1.000,"PART-1-1",           319,      -12.8187,      -21.2681,            0.,NA,NA,"",   37.4753E-03,   22.3719E-03,   30.0648E-03,   3.61751E-03
C:/temp/dataset/6/23_12.odb,Step-1,Increment      1: Step Time =    1.000,"PART-1-1",           320,      -13.8299,      -20.0574,            0.,NA,NA,"",   44.8655E-03,   27.3911E-03,   35.5336E-03,   3.23705E-03
C:/temp/dataset/6/23_12.odb,Step-1,Increment      1: Step Time =    1.000,"PART-1-1",           321,      -12.5142,      -28.6623,            0.,NA,NA,"",   4.71518E-03,   2.68313E-03,   3.87734E-03,   3.74985E-03
C:/temp/dataset/6/23_12.odb,Step-1,Increment      1: Step Time =    1.000,"PART-1-1",           322,        -11.25,          -30.,            0.,NA,NA,"",            0.,   626.550E-42,   5.74764E-39,   3.00653E-03
C:/temp/dataset/6/23_12.odb,Step-1,Increment      1: Step Time =    1.000,"PART-1-1",           323,      -9.93348,      -28.4464,            0.,NA,NA,"",   3.74351E-03,   1.26299E-03,   3.52402E-03,   2.89100E-03
C:/temp/dataset/6/23_12.odb,Step-1,Increment      1: Step Time =    1.000,"PART-1-1",           324,      -11.1976,      -27.1087,            0.,NA,NA,"",   9.35639E-03,   4.78814E-03,   8.03840E-03,   3.76769E-03
C:/temp/dataset/6/23_12.odb,Step-1,Increment      1: Step Time =    1.000,"PART-1-1",           325,      -7.37036,      -13.8742,            0.,NA,NA,"",   60.7699E-03,   30.7985E-03,   52.3874E-03,   5.29542E-03
C:/temp/dataset/6/23_12.odb,Step-1,Increment      1: Step Time =    1.000,"PART-1-1",           326,      -6.21015,      -15.0417,            0.,NA,NA,"",   53.4423E-03,   26.4370E-03,   46.4452E-03,   5.63216E-03
C:/temp/dataset/6/23_12.odb,Step-1,Increment      1: Step Time =    1.000,"PART-1-1",           327,           -5.,      -13.7188,            0.,NA,NA,"",   58.1602E-03,   24.7384E-03,   52.6367E-03,   6.54225E-03
C:/temp/dataset/6/23_12.odb,Step-1,Increment      1: Step Time =    1.000,"PART-1-1",           328,      -6.16021,      -12.5513,            0.,NA,NA,"",   66.2097E-03,   28.7982E-03,   59.6187E-03,   6.17777E-03
C:/temp/dataset/6/23_12.odb,Step-1,Increment      1: Step Time =    1.000,"PART-1-1",           329,      -9.33590,      -9.40979,            0.,NA,NA,"",   75.8802E-03,   34.5065E-03,   67.5803E-03,   4.06034E-03
C:/temp/dataset/6/23_12.odb,Step-1,Increment      1: Step Time =    1.000,"PART-1-1",           330,      -8.33361,      -10.3234,            0.,NA,NA,"",   75.1879E-03,   33.7908E-03,   67.1670E-03,   5.00504E-03
C:/temp/dataset/6/23_12.odb,Step-1,Increment      1: Step Time =    1.000,"PART-1-1",           331,      -7.16565,      -9.15059,            0.,NA,NA,"",   82.1011E-03,   30.1776E-03,   76.3538E-03,   6.22499E-03
C:/temp/dataset/6/23_12.odb,Step-1,Increment      1: Step Time =    1.000,"PART-1-1",           332,      -8.16794,      -8.23701,            0.,NA,NA,"",   82.5275E-03,   30.6087E-03,   76.6414E-03,   5.25105E-03
C:/temp/dataset/6/23_12.odb,Step-1,Increment      1: Step Time =    1.000,"PART-1-1",           333,      -11.1473,      -6.32447,            0.,NA,NA,"",   73.1312E-03,   26.9859E-03,   67.9700E-03,   2.15777E-03
C:/temp/dataset/6/23_12.odb,Step-1,Increment      1: Step Time =    1.000,"PART-1-1",           334,      -10.2102,      -6.79208,            0.,NA,NA,"",   76.7654E-03,   28.2987E-03,   71.3590E-03,   2.77135E-03
C:/temp/dataset/6/23_12.odb,Step-1,Increment      1: Step Time =    1.000,"PART-1-1",           335,      -9.51762,      -5.78103,            0.,NA,NA,"",   80.7772E-03,   22.8164E-03,   77.4878E-03,   2.89793E-03
C:/temp/dataset/6/23_12.odb,Step-1,Increment      1: Step Time =    1.000,"PART-1-1",           336,      -10.4548,      -5.31342,            0.,NA,NA,"",   76.5447E-03,   21.4221E-03,   73.4859E-03,   2.44865E-03
C:/temp/dataset/6/23_12.odb,Step-1,Increment      1: Step Time =    1.000,"PART-1-1",           337,      -5.04937,      -1.25055,            0.,NA,NA,"",   135.878E-03,  -11.1685E-03,   135.418E-03,   6.67903E-03
C:/temp/dataset/6/23_12.odb,Step-1,Increment      1: Step Time =    1.000,"PART-1-1",           338,      -3.82978,  -150.691E-03,            0.,NA,NA,"",   145.372E-03,  -10.5311E-03,   144.990E-03,   6.07367E-03
C:/temp/dataset/6/23_12.odb,Step-1,Increment      1: Step Time =    1.000,"PART-1-1",           339,      -5.10700,   929.666E-03,            0.,NA,NA,"",   133.539E-03,  -12.6689E-03,   132.937E-03,   5.03653E-03
C:/temp/dataset/6/23_12.odb,Step-1,Increment      1: Step Time =    1.000,"PART-1-1",           340,      -6.32658,  -170.190E-03,            0.,NA,NA,"",   122.259E-03,  -11.7977E-03,   121.688E-03,   5.78488E-03
C:/temp/dataset/6/23_12.odb,Step-1,Increment      1: Step Time =    1.000,"PART-1-1",           341,          -15.,          3.75,            0.,NA,NA,"",   62.0359E-03,  -27.3887E-03,   55.6625E-03,   15.5973E-06
C:/temp/dataset/6/23_12.odb,Step-1,Increment      1: Step Time =    1.000,"PART-1-1",           342,      -13.8520,       2.39386,            0.,NA,NA,"",   65.5703E-03,  -19.4005E-03,   62.6345E-03,   498.888E-06
C:/temp/dataset/6/23_12.odb,Step-1,Increment      1: Step Time =    1.000,"PART-1-1",           343,      -12.6820,       3.58697,            0.,NA,NA,"",   75.4521E-03,  -26.5336E-03,   70.6328E-03,   603.929E-06
C:/temp/dataset/6/23_12.odb,Step-1,Increment      1: Step Time =    1.000,"PART-1-1",           344,      -13.8301,       4.94311,            0.,NA,NA,"",   72.0550E-03,  -34.8061E-03,   63.0909E-03,   179.305E-06
C:/temp/dataset/6/23_12.odb,Step-1,Increment      1: Step Time =    1.000,"PART-1-1",           345,          -15.,         11.25,            0.,NA,NA,"",   94.9442E-03,  -77.8839E-03,   54.3001E-03,   89.8415E-06
C:/temp/dataset/6/23_12.odb,Step-1,Increment      1: Step Time =    1.000,"PART-1-1",           346,      -14.0083,       10.0442,            0.,NA,NA,"",   92.6160E-03,  -69.3416E-03,   61.3960E-03,   91.3126E-06
C:/temp/dataset/6/23_12.odb,Step-1,Increment      1: Step Time =    1.000,"PART-1-1",           347,      -13.0572,       11.3141,            0.,NA,NA,"",   103.721E-03,  -78.3478E-03,   67.9677E-03,   68.3813E-06
C:/temp/dataset/6/23_12.odb,Step-1,Increment      1: Step Time =    1.000,"PART-1-1",           348,      -14.0489,       12.5200,            0.,NA,NA,"",   106.137E-03,  -86.9047E-03,   60.9310E-03,   40.7138E-06
C:/temp/dataset/6/23_12.odb,Step-1,Increment      1: Step Time =    1.000,"PART-1-1",           349,           -5.,       22.7083,            0.,NA,NA,"",   202.587E-03,  -159.540E-03,   124.854E-03,   647.077E-09
C:/temp/dataset/6/23_12.odb,Step-1,Increment      1: Step Time =    1.000,"PART-1-1",           350,      -5.96779,       23.6687,            0.,NA,NA,"",   203.915E-03,  -166.332E-03,   117.960E-03,   299.455E-09
C:/temp/dataset/6/23_12.odb,Step-1,Increment      1: Step Time =    1.000,"PART-1-1",           351,      -6.69567,       22.7251,            0.,NA,NA,"",   195.461E-03,  -159.616E-03,   112.817E-03,   288.792E-09
C:/temp/dataset/6/23_12.odb,Step-1,Increment      1: Step Time =    1.000,"PART-1-1",           352,      -5.72788,       21.7648,            0.,NA,NA,"",   194.128E-03,  -152.824E-03,   119.711E-03,   511.495E-09
C:/temp/dataset/6/23_12.odb,Step-1,Increment      1: Step Time =    1.000,"PART-1-1",           353,      -9.95259,       28.8237,            0.,NA,NA,"",   221.713E-03,  -202.826E-03,   89.5442E-03,   99.2724E-09
C:/temp/dataset/6/23_12.odb,Step-1,Increment      1: Step Time =    1.000,"PART-1-1",           354,      -8.67740,       27.7404,            0.,NA,NA,"",   218.672E-03,  -195.168E-03,   98.6237E-03,   99.4118E-09
C:/temp/dataset/6/23_12.odb,Step-1,Increment      1: Step Time =    1.000,"PART-1-1",           355,      -7.47481,       28.9167,            0.,NA,NA,"",   230.020E-03,  -203.549E-03,   107.131E-03,   75.1689E-09
C:/temp/dataset/6/23_12.odb,Step-1,Increment      1: Step Time =    1.000,"PART-1-1",           356,         -8.75,           30.,            0.,NA,NA,"",   232.857E-03,  -211.207E-03,   98.0513E-03,   78.9341E-09
C:/temp/dataset/6/23_12.odb,Step-1,Increment      1: Step Time =    1.000,"PART-1-1",           357,      -12.4360,       28.7156,            0.,NA,NA,"",   214.417E-03,  -201.997E-03,   71.9178E-03,   80.8808E-09
C:/temp/dataset/6/23_12.odb,Step-1,Increment      1: Step Time =    1.000,"PART-1-1",           358,        -13.75,           30.,            0.,NA,NA,"",   220.156E-03,  -211.081E-03,   62.5575E-03,   16.3487E-09
C:/temp/dataset/6/23_12.odb,Step-1,Increment      1: Step Time =    1.000,"PART-1-1",           359,          -15.,         28.75,            0.,NA,NA,"",   209.190E-03,  -202.176E-03,   53.7155E-03,   22.5091E-09
C:/temp/dataset/6/23_12.odb,Step-1,Increment      1: Step Time =    1.000,"PART-1-1",           360,      -13.6860,       27.4656,            0.,NA,NA,"",   203.133E-03,  -193.092E-03,   63.0757E-03,   83.0244E-09
C:/temp/dataset/6/23_12.odb,Step-1,Increment      1: Step Time =    1.000,"PART-1-1",           361,         -3.75,           -5.,            0.,NA,NA,"",   169.123E-03,   4.93813E-03,   169.050E-03,   9.57932E-03
C:/temp/dataset/6/23_12.odb,Step-1,Increment      1: Step Time =    1.000,"PART-1-1",           362,      -2.75606,      -4.06584,            0.,NA,NA,"",   173.513E-03,  -5.95669E-03,   173.411E-03,   11.8666E-03
C:/temp/dataset/6/23_12.odb,Step-1,Increment      1: Step Time =    1.000,"PART-1-1",           363,      -4.26954,      -3.28646,            0.,NA,NA,"",   148.459E-03,  -9.35301E-03,   148.164E-03,   9.67079E-03
C:/temp/dataset/6/23_12.odb,Step-1,Increment      1: Step Time =    1.000,"PART-1-1",           364,      -5.26349,      -4.22062,            0.,NA,NA,"",   125.893E-03,  -870.732E-06,   125.890E-03,   11.1731E-03
C:/temp/dataset/6/23_12.odb,Step-1,Increment      1: Step Time =    1.000,"PART-1-1",           365,   659.099E-03,      -2.85996,            0.,NA,NA,"",   146.582E-03,  -4.69080E-03,   146.507E-03,   7.47873E-03
C:/temp/dataset/6/23_12.odb,Step-1,Increment      1: Step Time =    1.000,"PART-1-1",           366,  -266.865E-03,      -3.97148,            0.,NA,NA,"",   162.663E-03,  -8.31388E-03,   162.450E-03,   8.88150E-03
C:/temp/dataset/6/23_12.odb,Step-1,Increment      1: Step Time =    1.000,"PART-1-1",           367,          1.25,           -5.,            0.,NA,NA,"",   138.177E-03,  -27.2968E-03,   135.454E-03,   4.09668E-03
C:/temp/dataset/6/23_12.odb,Step-1,Increment      1: Step Time =    1.000,"PART-1-1",           368,       2.17596,      -3.88848,            0.,NA,NA,"",   124.765E-03,  -15.9356E-03,   123.743E-03,   3.36142E-03
C:/temp/dataset/6/23_12.odb,Step-1,Increment      1: Step Time =    1.000,"PART-1-1",           369,   93.5104E-03,  -560.922E-03,            0.,NA,NA,"",   146.188E-03,  -492.140E-06,   146.187E-03,   5.44468E-03
C:/temp/dataset/6/23_12.odb,Step-1,Increment      1: Step Time =    1.000,"PART-1-1",           370,   627.873E-03,   544.404E-03,            0.,NA,NA,"",   139.226E-03,   1.86068E-03,   139.213E-03,   5.04707E-03
C:/temp/dataset/6/23_12.odb,Step-1,Increment      1: Step Time =    1.000,"PART-1-1",           371,  -981.002E-03,       1.17096,            0.,NA,NA,"",   146.142E-03,  -1.89033E-03,   146.130E-03,   4.14890E-03
C:/temp/dataset/6/23_12.odb,Step-1,Increment      1: Step Time =    1.000,"PART-1-1",           372,      -1.51537,   65.6335E-03,            0.,NA,NA,"",   151.182E-03,  -4.16435E-03,   151.125E-03,   4.85222E-03
C:/temp/dataset/6/23_12.odb,Step-1,Increment      1: Step Time =    1.000,"PART-1-1",           373,       4.11258,       2.54084,            0.,NA,NA,"",   105.048E-03,   12.8202E-03,   104.263E-03,   3.76708E-03
C:/temp/dataset/6/23_12.odb,Step-1,Increment      1: Step Time =    1.000,"PART-1-1",           374,       3.71515,       1.12833,            0.,NA,NA,"",   108.722E-03,   6.74384E-03,   108.512E-03,   4.48629E-03
C:/temp/dataset/6/23_12.odb,Step-1,Increment      1: Step Time =    1.000,"PART-1-1",           375,       5.46602,   397.127E-03,            0.,NA,NA,"",   89.4573E-03,   3.19111E-03,   89.4004E-03,   4.01361E-03
C:/temp/dataset/6/23_12.odb,Step-1,Increment      1: Step Time =    1.000,"PART-1-1",           376,       8.69518,  -378.803E-03,            0.,NA,NA,"",   59.8037E-03,  -4.31844E-03,   59.6476E-03,   1.80385E-03
C:/temp/dataset/6/23_12.odb,Step-1,Increment      1: Step Time =    1.000,"PART-1-1",           377,       8.82700,   889.396E-03,            0.,NA,NA,"",   60.1926E-03,   3.48470E-03,   60.0916E-03,   1.25754E-03
C:/temp/dataset/6/23_12.odb,Step-1,Increment      1: Step Time =    1.000,"PART-1-1",           378,       6.97530,  -164.986E-03,            0.,NA,NA,"",   73.9164E-03,  -1.27125E-03,   73.9055E-03,   2.89134E-03
C:/temp/dataset/6/23_12.odb,Step-1,Increment      1: Step Time =    1.000,"PART-1-1",           379,      -3.65351,      -22.6081,            0.,NA,NA,"",   7.23769E-03,   2.00610E-03,   6.95412E-03,   1.51260E-03
C:/temp/dataset/6/23_12.odb,Step-1,Increment      1: Step Time =    1.000,"PART-1-1",           380,      -2.48671,      -21.3009,            0.,NA,NA,"",   5.76413E-03,   3.33526E-03,   4.70119E-03,   1.30379E-03
C:/temp/dataset/6/23_12.odb,Step-1,Increment      1: Step Time =    1.000,"PART-1-1",           381,         -3.75,          -20.,            0.,NA,NA,"",   12.9445E-03,   8.88021E-03,   9.41821E-03,   2.33623E-03
C:/temp/dataset/6/23_12.odb,Step-1,Increment      1: Step Time =    1.000,"PART-1-1",           382,      -4.91680,      -21.3072,            0.,NA,NA,"",   15.1324E-03,   6.05294E-03,   13.8691E-03,   3.31027E-03
C:/temp/dataset/6/23_12.odb,Step-1,Increment      1: Step Time =    1.000,"PART-1-1",           383,       12.8399,      -22.4784,            0.,NA,NA,"",   22.0461E-03,  -13.7435E-03,   17.2379E-03,   2.48070E-03
C:/temp/dataset/6/23_12.odb,Step-1,Increment      1: Step Time =    1.000,"PART-1-1",           384,       11.7398,      -21.2760,            0.,NA,NA,"",   23.8702E-03,  -15.4945E-03,   18.1578E-03,   2.48252E-03
C:/temp/dataset/6/23_12.odb,Step-1,Increment      1: Step Time =    1.000,"PART-1-1",           385,       10.5591,      -22.4389,            0.,NA,NA,"",   17.9899E-03,  -11.1319E-03,   14.1322E-03,   2.51491E-03
C:/temp/dataset/6/23_12.odb,Step-1,Increment      1: Step Time =    1.000,"PART-1-1",           386,       11.6593,      -23.6412,            0.,NA,NA,"",   16.2006E-03,  -9.73731E-03,   12.9477E-03,   2.50467E-03
C:/temp/dataset/6/23_12.odb,Step-1,Increment      1: Step Time =    1.000,"PART-1-1",           387,          8.75,            5.,            0.,NA,NA,"",   69.7521E-03,   31.9049E-03,   62.0277E-03,   290.445E-06
C:/temp/dataset/6/23_12.odb,Step-1,Increment      1: Step Time =    1.000,"PART-1-1",           388,       7.62461,       4.03982,            0.,NA,NA,"",   75.1900E-03,   24.7336E-03,   71.0055E-03,   586.822E-06
C:/temp/dataset/6/23_12.odb,Step-1,Increment      1: Step Time =    1.000,"PART-1-1",           389,       8.90047,       2.96899,            0.,NA,NA,"",   62.9970E-03,   17.1096E-03,   60.6291E-03,   626.343E-06
C:/temp/dataset/6/23_12.odb,Step-1,Increment      1: Step Time =    1.000,"PART-1-1",           390,       10.0259,       3.92917,            0.,NA,NA,"",   57.5102E-03,   23.6713E-03,   52.4127E-03,   316.929E-06
C:/temp/dataset/6/23_12.odb,Step-1,Increment      1: Step Time =    1.000,"PART-1-1",           391,      -6.96921,       21.1213,            0.,NA,NA,"",   185.130E-03,  -148.225E-03,   110.916E-03,   249.564E-09
C:/temp/dataset/6/23_12.odb,Step-1,Increment      1: Step Time =    1.000,"PART-1-1",           392,      -6.24133,       19.9816,            0.,NA,NA,"",   182.003E-03,  -140.155E-03,   116.111E-03,   474.582E-09
C:/temp/dataset/6/23_12.odb,Step-1,Increment      1: Step Time =    1.000,"PART-1-1",           393,           -5.,        20.625,            0.,NA,NA,"",   191.193E-03,  -144.753E-03,   124.905E-03,   861.356E-09
C:/temp/dataset/6/23_12.odb,Step-1,Increment      1: Step Time =    1.000,"PART-1-1",           394,      -12.9370,       8.81410,            0.,NA,NA,"",   91.8300E-03,  -60.7031E-03,   68.9049E-03,   60.4238E-06
C:/temp/dataset/6/23_12.odb,Step-1,Increment      1: Step Time =    1.000,"PART-1-1",           395,          -15.,          8.75,            0.,NA,NA,"",   81.3974E-03,  -60.3043E-03,   54.6711E-03,   178.877E-06
C:/temp/dataset/6/23_12.odb,Step-1,Increment      1: Step Time =    1.000,"PART-1-1",           396,      -13.9287,       7.51992,            0.,NA,NA,"",   80.9459E-03,  -51.7789E-03,   62.2188E-03,   129.797E-06
C:/temp/dataset/6/23_12.odb,Step-1,Increment      1: Step Time =    1.000,"PART-1-1",           397,          -15.,          1.25,            0.,NA,NA,"",   56.6897E-03,  -12.5558E-03,   55.2818E-03,   418.713E-06
C:/temp/dataset/6/23_12.odb,Step-1,Increment      1: Step Time =    1.000,"PART-1-1",           398,      -13.9023,  -59.1614E-03,            0.,NA,NA,"",   61.3664E-03,  -5.38891E-03,   61.1293E-03,   846.571E-06
C:/temp/dataset/6/23_12.odb,Step-1,Increment      1: Step Time =    1.000,"PART-1-1",           399,      -12.7542,       1.08470,            0.,NA,NA,"",   70.2438E-03,  -12.2657E-03,   69.1646E-03,   969.759E-06
C:/temp/dataset/6/23_12.odb,Step-1,Increment      1: Step Time =    1.000,"PART-1-1",           400,          -15.,         -1.25,            0.,NA,NA,"",   53.9256E-03,   1.83389E-03,   53.8944E-03,   690.198E-06
C:/temp/dataset/6/23_12.odb,Step-1,Increment      1: Step Time =    1.000,"PART-1-1",           401,      -13.9820,      -2.43756,            0.,NA,NA,"",   59.4037E-03,   8.22271E-03,   58.8318E-03,   986.797E-06
C:/temp/dataset/6/23_12.odb,Step-1,Increment      1: Step Time =    1.000,"PART-1-1",           402,      -12.8843,      -1.24672,            0.,NA,NA,"",   66.3520E-03,   824.716E-06,   66.3469E-03,   1.16356E-03
C:/temp/dataset/6/23_12.odb,Step-1,Increment      1: Step Time =    1.000,"PART-1-1",           403,      -12.3802,      -13.7897,            0.,NA,NA,"",   63.2003E-03,   39.2092E-03,   49.5672E-03,   2.67736E-03
C:/temp/dataset/6/23_12.odb,Step-1,Increment      1: Step Time =    1.000,"PART-1-1",           404,      -13.6672,      -12.5056,            0.,NA,NA,"",   65.6584E-03,   41.1312E-03,   51.1786E-03,   1.60577E-03
C:/temp/dataset/6/23_12.odb,Step-1,Increment      1: Step Time =    1.000,"PART-1-1",           405,          -15.,        -13.75,            0.,NA,NA,"",   64.6822E-03,   41.3006E-03,   49.7801E-03,   1.07086E-03
C:/temp/dataset/6/23_12.odb,Step-1,Increment      1: Step Time =    1.000,"PART-1-1",           406,      -13.7130,      -15.0341,            0.,NA,NA,"",   61.1274E-03,   38.9370E-03,   47.1218E-03,   2.11085E-03
C:/temp/dataset/6/23_12.odb,Step-1,Increment      1: Step Time =    1.000,"PART-1-1",           407,       9.21271,      -3.58583,            0.,NA,NA,"",   56.4974E-03,  -23.5974E-03,   51.3334E-03,   1.74813E-03
C:/temp/dataset/6/23_12.odb,Step-1,Increment      1: Step Time =    1.000,"PART-1-1",           408,       7.90749,      -3.82305,            0.,NA,NA,"",   63.0361E-03,  -23.8917E-03,   58.3330E-03,   2.67435E-03
C:/temp/dataset/6/23_12.odb,Step-1,Increment      1: Step Time =    1.000,"PART-1-1",           409,       8.15132,      -5.16923,            0.,NA,NA,"",   61.9838E-03,  -30.5199E-03,   53.9493E-03,   2.50700E-03
C:/temp/dataset/6/23_12.odb,Step-1,Increment      1: Step Time =    1.000,"PART-1-1",           410,       9.45655,      -4.93201,            0.,NA,NA,"",   56.7738E-03,  -30.0879E-03,   48.1454E-03,   1.65879E-03
C:/temp/dataset/6/23_12.odb,Step-1,Increment      1: Step Time =    1.000,"PART-1-1",           411,       6.91243,      -16.0318,            0.,NA,NA,"",   34.6049E-03,  -25.1904E-03,   23.7265E-03,   3.09036E-03
C:/temp/dataset/6/23_12.odb,Step-1,Increment      1: Step Time =    1.000,"PART-1-1",           412,       5.96229,      -14.9858,            0.,NA,NA,"",   36.5444E-03,  -26.3301E-03,   25.3420E-03,   3.54137E-03
C:/temp/dataset/6/23_12.odb,Step-1,Increment      1: Step Time =    1.000,"PART-1-1",           413,            5.,      -16.2875,            0.,NA,NA,"",   29.0612E-03,  -21.7348E-03,   19.2912E-03,   3.49521E-03
C:/temp/dataset/6/23_12.odb,Step-1,Increment      1: Step Time =    1.000,"PART-1-1",           414,       6.93910,      -13.7291,            0.,NA,NA,"",   43.0069E-03,  -30.4635E-03,   30.3573E-03,   3.50718E-03
C:/temp/dataset/6/23_12.odb,Step-1,Increment      1: Step Time =    1.000,"PART-1-1",           415,       5.97681,      -12.5371,            0.,NA,NA,"",   45.7124E-03,  -30.8552E-03,   33.7281E-03,   4.10361E-03
C:/temp/dataset/6/23_12.odb,Step-1,Increment      1: Step Time =    1.000,"PART-1-1",           416,            5.,      -13.7937,            0.,NA,NA,"",   38.8151E-03,  -27.0453E-03,   27.8418E-03,   4.18596E-03
C:/temp/dataset/6/23_12.odb,Step-1,Increment      1: Step Time =    1.000,"PART-1-1",           417,         -1.25,          -20.,            0.,NA,NA,"",   5.02412E-03,   3.50965E-03,   3.59501E-03,   2.15560E-03
C:/temp/dataset/6/23_12.odb,Step-1,Increment      1: Step Time =    1.000,"PART-1-1",           418,      -1.09514,      -22.7401,            0.,NA,NA,"",   1.76750E-03,   273.554E-06,   1.74621E-03,   595.482E-06
C:/temp/dataset/6/23_12.odb,Step-1,Increment      1: Step Time =    1.000,"PART-1-1",           419,   141.566E-03,      -21.4393,            0.,NA,NA,"",   1.44535E-03,   116.125E-06,   1.44068E-03,   1.32414E-03
C:/temp/dataset/6/23_12.odb,Step-1,Increment      1: Step Time =    1.000,"PART-1-1",           420,      -7.69236,      -25.1479,            0.,NA,NA,"",   10.9537E-03,   3.50795E-03,   10.3768E-03,   3.02462E-03
C:/temp/dataset/6/23_12.odb,Step-1,Increment      1: Step Time =    1.000,"PART-1-1",           421,      -9.18951,      -25.9970,            0.,NA,NA,"",   10.5319E-03,   4.17172E-03,   9.67048E-03,   3.31936E-03
C:/temp/dataset/6/23_12.odb,Step-1,Increment      1: Step Time =    1.000,"PART-1-1",           422,      -8.56598,      -27.1897,            0.,NA,NA,"",   6.17380E-03,   1.65854E-03,   5.94686E-03,   2.78196E-03
C:/temp/dataset/6/23_12.odb,Step-1,Increment      1: Step Time =    1.000,"PART-1-1",           423,      -7.06883,      -26.3407,            0.,NA,NA,"",   6.78671E-03,   1.15581E-03,   6.68757E-03,   2.49727E-03
C:/temp/dataset/6/23_12.odb,Step-1,Increment      1: Step Time =    1.000,"PART-1-1",           424,      -9.82073,      -13.8964,            0.,NA,NA,"",   62.1618E-03,   35.6018E-03,   50.9568E-03,   4.01251E-03
C:/temp/dataset/6/23_12.odb,Step-1,Increment      1: Step Time =    1.000,"PART-1-1",           425,      -8.65586,      -15.1239,            0.,NA,NA,"",   56.6176E-03,   31.7340E-03,   46.8882E-03,   4.49565E-03
C:/temp/dataset/6/23_12.odb,Step-1,Increment      1: Step Time =    1.000,"PART-1-1",           426,      -8.53523,      -12.6467,            0.,NA,NA,"",   66.5324E-03,   34.3698E-03,   56.9673E-03,   4.75751E-03
C:/temp/dataset/6/23_12.odb,Step-1,Increment      1: Step Time =    1.000,"PART-1-1",           427,      -6.09243,      -10.1071,            0.,NA,NA,"",   78.9618E-03,   27.9968E-03,   73.8319E-03,   6.93174E-03
C:/temp/dataset/6/23_12.odb,Step-1,Increment      1: Step Time =    1.000,"PART-1-1",           428,           -5.,      -8.71250,            0.,NA,NA,"",   88.1507E-03,   22.2841E-03,   85.2876E-03,   8.60324E-03
C:/temp/dataset/6/23_12.odb,Step-1,Increment      1: Step Time =    1.000,"PART-1-1",           429,      -6.07322,      -7.75598,            0.,NA,NA,"",   93.6975E-03,   25.0577E-03,   90.2847E-03,   7.70578E-03
C:/temp/dataset/6/23_12.odb,Step-1,Increment      1: Step Time =    1.000,"PART-1-1",           430,      -12.7270,      -6.06323,            0.,NA,NA,"",   67.0606E-03,   26.8347E-03,   61.4574E-03,   1.40865E-03
C:/temp/dataset/6/23_12.odb,Step-1,Increment      1: Step Time =    1.000,"PART-1-1",           431,      -13.8025,      -4.90646,            0.,NA,NA,"",   61.7068E-03,   21.7148E-03,   57.7599E-03,   910.410E-06
C:/temp/dataset/6/23_12.odb,Step-1,Increment      1: Step Time =    1.000,"PART-1-1",           432,          -15.,         -6.25,            0.,NA,NA,"",   58.9769E-03,   28.4097E-03,   51.6834E-03,   155.372E-06
C:/temp/dataset/6/23_12.odb,Step-1,Increment      1: Step Time =    1.000,"PART-1-1",           433,      -13.9244,      -7.40677,            0.,NA,NA,"",   64.4958E-03,   32.8626E-03,   55.4956E-03,   685.456E-06
C:/temp/dataset/6/23_12.odb,Step-1,Increment      1: Step Time =    1.000,"PART-1-1",           434,       1.60591,      -1.50045,            0.,NA,NA,"",   132.695E-03,  -830.727E-06,   132.692E-03,   6.27886E-03
C:/temp/dataset/6/23_12.odb,Step-1,Increment      1: Step Time =    1.000,"PART-1-1",           435,  -853.298E-03,      -1.92043,            0.,NA,NA,"",   158.410E-03,  -3.62210E-03,   158.369E-03,   6.89237E-03
C:/temp/dataset/6/23_12.odb,Step-1,Increment      1: Step Time =    1.000,"PART-1-1",           436,         13.75,          -30.,            0.,NA,NA,"",            0.,  -364.231E-42,   4.92690E-39,   3.34525E-03
C:/temp/dataset/6/23_12.odb,Step-1,Increment      1: Step Time =    1.000,"PART-1-1",           437,           15.,      -28.9063,            0.,NA,NA,"",   5.39306E-03,  -3.80964E-03,   3.81730E-03,   3.81735E-03
C:/temp/dataset/6/23_12.odb,Step-1,Increment      1: Step Time =    1.000,"PART-1-1",           438,       13.8103,      -27.8746,            0.,NA,NA,"",   6.87329E-03,  -4.30345E-03,   5.35933E-03,   3.03050E-03
C:/temp/dataset/6/23_12.odb,Step-1,Increment      1: Step Time =    1.000,"PART-1-1",           439,       12.5603,      -28.9683,            0.,NA,NA,"",   2.29680E-03,  -1.22931E-03,   1.94013E-03,   2.40097E-03
C:/temp/dataset/6/23_12.odb,Step-1,Increment      1: Step Time =    1.000,"PART-1-1",           440,       12.6598,      -26.8678,            0.,NA,NA,"",   8.35468E-03,  -4.86682E-03,   6.79079E-03,   2.69837E-03
C:/temp/dataset/6/23_12.odb,Step-1,Increment      1: Step Time =    1.000,"PART-1-1",           441,       11.5501,      -25.8632,            0.,NA,NA,"",   9.60699E-03,  -5.39076E-03,   7.95198E-03,   2.47225E-03
C:/temp/dataset/6/23_12.odb,Step-1,Increment      1: Step Time =    1.000,"PART-1-1",           442,       10.3093,      -26.9762,            0.,NA,NA,"",   5.36719E-03,  -2.59894E-03,   4.69598E-03,   2.07690E-03
C:/temp/dataset/6/23_12.odb,Step-1,Increment      1: Step Time =    1.000,"PART-1-1",           443,       11.4189,      -27.9808,            0.,NA,NA,"",   4.00592E-03,  -2.07525E-03,   3.42647E-03,   2.31099E-03
C:/temp/dataset/6/23_12.odb,Step-1,Increment      1: Step Time =    1.000,"PART-1-1",           444,       10.1086,      -29.0125,            0.,NA,NA,"",   1.40475E-03,  -442.487E-06,   1.33324E-03,   1.69633E-03
C:/temp/dataset/6/23_12.odb,Step-1,Increment      1: Step Time =    1.000,"PART-1-1",           445,       9.01957,      -28.0513,            0.,NA,NA,"",   2.48212E-03,  -764.462E-06,   2.36146E-03,   1.57700E-03
C:/temp/dataset/6/23_12.odb,Step-1,Increment      1: Step Time =    1.000,"PART-1-1",           446,          8.75,          -30.,            0.,NA,NA,"",            0.,   37.6431E-42,   2.55770E-39,   1.33833E-03
C:/temp/dataset/6/23_12.odb,Step-1,Increment      1: Step Time =    1.000,"PART-1-1",           447,       4.20973,      -27.9354,            0.,NA,NA,"",   794.369E-06,   15.1671E-06,   794.225E-06,   520.527E-06
C:/temp/dataset/6/23_12.odb,Step-1,Increment      1: Step Time =    1.000,"PART-1-1",           448,       2.74203,      -28.9082,            0.,NA,NA,"",   277.452E-06,  -12.2598E-06,   277.181E-06,   355.642E-06
C:/temp/dataset/6/23_12.odb,Step-1,Increment      1: Step Time =    1.000,"PART-1-1",           449,          3.75,          -30.,            0.,NA,NA,"",            0.,   130.671E-42,   959.500E-42,   505.816E-06
C:/temp/dataset/6/23_12.odb,Step-1,Increment      1: Step Time =    1.000,"PART-1-1",           450,       1.16266,      -25.9573,            0.,NA,NA,"",   861.599E-06,  -760.954E-06,   404.106E-06,   230.513E-06
C:/temp/dataset/6/23_12.odb,Step-1,Increment      1: Step Time =    1.000,"PART-1-1",           451,       1.65415,      -27.4536,            0.,NA,NA,"",   568.971E-06,  -441.403E-06,   359.014E-06,   369.189E-06
C:/temp/dataset/6/23_12.odb,Step-1,Increment      1: Step Time =    1.000,"PART-1-1",           452,       3.39879,      -26.8461,            0.,NA,NA,"",   901.931E-06,  -293.268E-06,   852.921E-06,   376.632E-06
C:/temp/dataset/6/23_12.odb,Step-1,Increment      1: Step Time =    1.000,"PART-1-1",           453,       2.90730,      -25.3498,            0.,NA,NA,"",   1.21476E-03,  -753.964E-06,   952.458E-06,   281.515E-06
C:/temp/dataset/6/23_12.odb,Step-1,Increment      1: Step Time =    1.000,"PART-1-1",           454,      -3.67645,      -27.5530,            0.,NA,NA,"",   2.26421E-03,  -1.19348E-03,   1.92412E-03,   1.07143E-03
C:/temp/dataset/6/23_12.odb,Step-1,Increment      1: Step Time =    1.000,"PART-1-1",           455,      -2.54816,      -26.3074,            0.,NA,NA,"",   2.27297E-03,  -1.18895E-03,   1.93722E-03,   779.400E-06
C:/temp/dataset/6/23_12.odb,Step-1,Increment      1: Step Time =    1.000,"PART-1-1",           456,      -3.72120,      -25.1278,            0.,NA,NA,"",   4.22267E-03,  -418.193E-06,   4.20191E-03,   1.29044E-03
C:/temp/dataset/6/23_12.odb,Step-1,Increment      1: Step Time =    1.000,"PART-1-1",           457,      -4.84948,      -26.3734,            0.,NA,NA,"",   4.24988E-03,  -572.164E-06,   4.21119E-03,   1.59581E-03
C:/temp/dataset/6/23_12.odb,Step-1,Increment      1: Step Time =    1.000,"PART-1-1",           458,      -4.94498,      -28.7931,            0.,NA,NA,"",   1.50811E-03,  -797.386E-06,   1.28007E-03,   1.42427E-03
C:/temp/dataset/6/23_12.odb,Step-1,Increment      1: Step Time =    1.000,"PART-1-1",           459,         -3.75,          -30.,            0.,NA,NA,"",            0.,  -641.467E-42,   1.94059E-39,   1.17495E-03
C:/temp/dataset/6/23_12.odb,Step-1,Increment      1: Step Time =    1.000,"PART-1-1",           460,      -6.07748,      -27.5364,            0.,NA,NA,"",   3.55938E-03,  -429.566E-06,   3.53336E-03,   1.86378E-03
C:/temp/dataset/6/23_12.odb,Step-1,Increment      1: Step Time =    1.000,"PART-1-1",           461,      -7.38250,      -28.7433,            0.,NA,NA,"",   2.08386E-03,  -192.950E-06,   2.07491E-03,   2.11115E-03
C:/temp/dataset/6/23_12.odb,Step-1,Increment      1: Step Time =    1.000,"PART-1-1",           462,         -6.25,          -30.,            0.,NA,NA,"",            0.,  -493.892E-42,   3.17342E-39,   1.70458E-03
C:/temp/dataset/6/23_12.odb,Step-1,Increment      1: Step Time =    1.000,"PART-1-1",           463,      -8.77755,      -24.1806,            0.,NA,NA,"",   16.3625E-03,   7.12089E-03,   14.7317E-03,   3.59329E-03
C:/temp/dataset/6/23_12.odb,Step-1,Increment      1: Step Time =    1.000,"PART-1-1",           464,      -9.92276,      -23.8066,            0.,NA,NA,"",   20.1504E-03,   10.0738E-03,   17.4515E-03,   3.87543E-03
C:/temp/dataset/6/23_12.odb,Step-1,Increment      1: Step Time =    1.000,"PART-1-1",           465,      -10.3347,      -25.6230,            0.,NA,NA,"",   13.6787E-03,   6.59646E-03,   11.9830E-03,   3.63298E-03
C:/temp/dataset/6/23_12.odb,Step-1,Increment      1: Step Time =    1.000,"PART-1-1",           466,       13.9544,      -21.3085,            0.,NA,NA,"",   28.1192E-03,  -17.8370E-03,   21.7378E-03,   2.39329E-03
C:/temp/dataset/6/23_12.odb,Step-1,Increment      1: Step Time =    1.000,"PART-1-1",           467,       13.8855,      -23.5136,            0.,NA,NA,"",   20.9009E-03,  -12.6346E-03,   16.6498E-03,   2.66770E-03
C:/temp/dataset/6/23_12.odb,Step-1,Increment      1: Step Time =    1.000,"PART-1-1",           468,           15.,      -22.3438,            0.,NA,NA,"",   27.2515E-03,  -16.5412E-03,   21.6572E-03,   2.61617E-03
C:/temp/dataset/6/23_12.odb,Step-1,Increment      1: Step Time =    1.000,"PART-1-1",           469,       12.7349,      -24.6944,            0.,NA,NA,"",   14.9397E-03,  -8.86828E-03,   12.0228E-03,   2.63979E-03
C:/temp/dataset/6/23_12.odb,Step-1,Increment      1: Step Time =    1.000,"PART-1-1",           470,       13.8494,      -25.7120,            0.,NA,NA,"",   13.9982E-03,  -8.37523E-03,   11.2163E-03,   2.83315E-03
C:/temp/dataset/6/23_12.odb,Step-1,Increment      1: Step Time =    1.000,"PART-1-1",           471,           15.,      -24.5313,            0.,NA,NA,"",   20.1294E-03,  -11.9773E-03,   16.1784E-03,   2.86176E-03
C:/temp/dataset/6/23_12.odb,Step-1,Increment      1: Step Time =    1.000,"PART-1-1",           472,         11.25,          -30.,            0.,NA,NA,"",            0.,  -335.080E-42,   3.62710E-39,   1.85473E-03
C:/temp/dataset/6/23_12.odb,Step-1,Increment      1: Step Time =    1.000,"PART-1-1",           473,       13.9950,      -12.5232,            0.,NA,NA,"",   50.5332E-03,  -38.5455E-03,   32.6780E-03,   554.407E-06
C:/temp/dataset/6/23_12.odb,Step-1,Increment      1: Step Time =    1.000,"PART-1-1",           474,       12.9942,      -13.6844,            0.,NA,NA,"",   48.1500E-03,  -36.4243E-03,   31.4911E-03,   1.34638E-03
C:/temp/dataset/6/23_12.odb,Step-1,Increment      1: Step Time =    1.000,"PART-1-1",           475,           15.,      -13.5938,            0.,NA,NA,"",   49.9996E-03,  -37.0965E-03,   33.5232E-03,   160.329E-06
C:/temp/dataset/6/23_12.odb,Step-1,Increment      1: Step Time =    1.000,"PART-1-1",           476,       9.85236,      -17.2546,            0.,NA,NA,"",   34.7897E-03,  -25.1410E-03,   24.0468E-03,   2.57615E-03
C:/temp/dataset/6/23_12.odb,Step-1,Increment      1: Step Time =    1.000,"PART-1-1",           477,       8.68427,      -17.7513,            0.,NA,NA,"",   31.2995E-03,  -22.3836E-03,   21.8776E-03,   2.72322E-03
C:/temp/dataset/6/23_12.odb,Step-1,Increment      1: Step Time =    1.000,"PART-1-1",           478,       8.96140,      -18.9835,            0.,NA,NA,"",   27.1669E-03,  -18.8531E-03,   19.5602E-03,   2.70392E-03
C:/temp/dataset/6/23_12.odb,Step-1,Increment      1: Step Time =    1.000,"PART-1-1",           479,       10.1295,      -18.4868,            0.,NA,NA,"",   30.8322E-03,  -21.7361E-03,   21.8670E-03,   2.56530E-03
C:/temp/dataset/6/23_12.odb,Step-1,Increment      1: Step Time =    1.000,"PART-1-1",           480,       11.2436,      -18.3856,            0.,NA,NA,"",   32.8301E-03,  -23.1995E-03,   23.2293E-03,   2.41064E-03
C:/temp/dataset/6/23_12.odb,Step-1,Increment      1: Step Time =    1.000,"PART-1-1",           481,       12.3956,      -19.2305,            0.,NA,NA,"",   31.8233E-03,  -21.8671E-03,   23.1204E-03,   2.25315E-03
C:/temp/dataset/6/23_12.odb,Step-1,Increment      1: Step Time =    1.000,"PART-1-1",           482,       13.1120,      -18.1414,            0.,NA,NA,"",   36.5387E-03,  -25.5964E-03,   26.0749E-03,   1.97097E-03
C:/temp/dataset/6/23_12.odb,Step-1,Increment      1: Step Time =    1.000,"PART-1-1",           483,       11.9600,      -17.2965,            0.,NA,NA,"",   37.4438E-03,  -27.0108E-03,   25.9317E-03,   2.13728E-03
C:/temp/dataset/6/23_12.odb,Step-1,Increment      1: Step Time =    1.000,"PART-1-1",           484,       14.0024,      -3.77677,            0.,NA,NA,"",   38.1613E-03,  -25.0454E-03,   28.7926E-03,   823.738E-06
C:/temp/dataset/6/23_12.odb,Step-1,Increment      1: Step Time =    1.000,"PART-1-1",           485,       13.0359,      -4.87313,            0.,NA,NA,"",   44.9220E-03,  -30.1118E-03,   33.3356E-03,   257.274E-06
C:/temp/dataset/6/23_12.odb,Step-1,Increment      1: Step Time =    1.000,"PART-1-1",           486,       14.0335,      -5.94012,            0.,NA,NA,"",   45.2932E-03,  -33.6552E-03,   30.3117E-03,   894.388E-06
C:/temp/dataset/6/23_12.odb,Step-1,Increment      1: Step Time =    1.000,"PART-1-1",           487,           15.,      -4.84375,            0.,NA,NA,"",   38.8730E-03,  -29.1974E-03,   25.6636E-03,   1.49623E-03
C:/temp/dataset/6/23_12.odb,Step-1,Increment      1: Step Time =    1.000,"PART-1-1",           488,       13.0510,      -7.01836,            0.,NA,NA,"",   49.9441E-03,  -36.8466E-03,   33.7156E-03,   340.057E-06
C:/temp/dataset/6/23_12.odb,Step-1,Increment      1: Step Time =    1.000,"PART-1-1",           489,       14.0175,      -8.10950,            0.,NA,NA,"",   50.0914E-03,  -38.6610E-03,   31.8509E-03,   726.837E-06
C:/temp/dataset/6/23_12.odb,Step-1,Increment      1: Step Time =    1.000,"PART-1-1",           490,           15.,      -7.03125,            0.,NA,NA,"",   46.1802E-03,  -36.1330E-03,   28.7579E-03,   1.47242E-03
C:/temp/dataset/6/23_12.odb,Step-1,Increment      1: Step Time =    1.000,"PART-1-1",           491,         13.75,            5.,            0.,NA,NA,"",   40.8841E-03,   30.1990E-03,   27.5597E-03,   78.5175E-06
C:/temp/dataset/6/23_12.odb,Step-1,Increment      1: Step Time =    1.000,"PART-1-1",           492,       12.4982,       3.90020,            0.,NA,NA,"",   42.4702E-03,   22.9645E-03,   35.7260E-03,   263.191E-06
C:/temp/dataset/6/23_12.odb,Step-1,Increment      1: Step Time =    1.000,"PART-1-1",           493,       13.7482,       2.80645,            0.,NA,NA,"",   31.6599E-03,   15.3942E-03,   27.6653E-03,   232.812E-06
C:/temp/dataset/6/23_12.odb,Step-1,Increment      1: Step Time =    1.000,"PART-1-1",           494,           15.,       3.90625,            0.,NA,NA,"",   29.9128E-03,   22.8505E-03,   19.3036E-03,   71.8346E-06
C:/temp/dataset/6/23_12.odb,Step-1,Increment      1: Step Time =    1.000,"PART-1-1",           495,         11.25,            5.,            0.,NA,NA,"",   53.7514E-03,   30.7555E-03,   44.0830E-03,   362.534E-06
C:/temp/dataset/6/23_12.odb,Step-1,Increment      1: Step Time =    1.000,"PART-1-1",           496,       11.2740,       2.82937,            0.,NA,NA,"",   46.4366E-03,   15.7581E-03,   43.6811E-03,   201.727E-06
C:/temp/dataset/6/23_12.odb,Step-1,Increment      1: Step Time =    1.000,"PART-1-1",           497,       11.1422,   446.578E-03,            0.,NA,NA,"",   43.9530E-03,  -339.528E-06,   43.9517E-03,   509.441E-06
C:/temp/dataset/6/23_12.odb,Step-1,Increment      1: Step Time =    1.000,"PART-1-1",           498,       10.2035,  -836.101E-03,            0.,NA,NA,"",   49.6965E-03,  -8.18375E-03,   49.0180E-03,   965.015E-06
C:/temp/dataset/6/23_12.odb,Step-1,Increment      1: Step Time =    1.000,"PART-1-1",           499,       11.7017,      -1.82731,            0.,NA,NA,"",   42.4105E-03,  -14.7599E-03,   39.7592E-03,   581.507E-06
C:/temp/dataset/6/23_12.odb,Step-1,Increment      1: Step Time =    1.000,"PART-1-1",           500,       12.5035,       1.67834,            0.,NA,NA,"",   36.4736E-03,   7.71376E-03,   35.6486E-03,   409.303E-06
C:/temp/dataset/6/23_12.odb,Step-1,Increment      1: Step Time =    1.000,"PART-1-1",           501,       9.91277,       1.59761,            0.,NA,NA,"",   53.2037E-03,   7.64192E-03,   52.6520E-03,   600.307E-06
C:/temp/dataset/6/23_12.odb,Step-1,Increment      1: Step Time =    1.000,"PART-1-1",           502,       5.19643,       3.92738,            0.,NA,NA,"",   95.6041E-03,   22.3944E-03,   92.9442E-03,   1.98207E-03
C:/temp/dataset/6/23_12.odb,Step-1,Increment      1: Step Time =    1.000,"PART-1-1",           503,          3.75,            5.,            0.,NA,NA,"",   108.993E-03,   28.0212E-03,   105.329E-03,   3.19762E-03
C:/temp/dataset/6/23_12.odb,Step-1,Increment      1: Step Time =    1.000,"PART-1-1",           504,       2.66615,       3.61346,            0.,NA,NA,"",   118.069E-03,   15.2646E-03,   117.078E-03,   4.00115E-03
C:/temp/dataset/6/23_12.odb,Step-1,Increment      1: Step Time =    1.000,"PART-1-1",           505,      -1.00804,       2.95894,            0.,NA,NA,"",   141.404E-03,  -402.151E-06,   141.404E-03,   4.60568E-03
C:/temp/dataset/6/23_12.odb,Step-1,Increment      1: Step Time =    1.000,"PART-1-1",           506,   87.8012E-03,       3.95476,            0.,NA,NA,"",   134.888E-03,   6.56192E-03,   134.729E-03,   5.89385E-03
C:/temp/dataset/6/23_12.odb,Step-1,Increment      1: Step Time =    1.000,"PART-1-1",           507,         -1.25,            5.,            0.,NA,NA,"",   135.865E-03,   1.07535E-03,   135.860E-03,   7.81509E-03
C:/temp/dataset/6/23_12.odb,Step-1,Increment      1: Step Time =    1.000,"PART-1-1",           508,      -2.34584,       4.00418,            0.,NA,NA,"",   139.925E-03,  -6.59391E-03,   139.770E-03,   6.38966E-03
C:/temp/dataset/6/23_12.odb,Step-1,Increment      1: Step Time =    1.000,"PART-1-1",           509,      -3.27281,       2.96378,            0.,NA,NA,"",   140.799E-03,  -9.98114E-03,   140.445E-03,   4.28871E-03
C:/temp/dataset/6/23_12.odb,Step-1,Increment      1: Step Time =    1.000,"PART-1-1",           510,         -3.75,            5.,            0.,NA,NA,"",   134.540E-03,  -17.5107E-03,   133.396E-03,   7.68804E-03
C:/temp/dataset/6/23_12.odb,Step-1,Increment      1: Step Time =    1.000,"PART-1-1",           511,      -4.67697,       3.95960,            0.,NA,NA,"",   133.010E-03,  -17.8151E-03,   131.811E-03,   4.72140E-03
C:/temp/dataset/6/23_12.odb,Step-1,Increment      1: Step Time =    1.000,"PART-1-1",           512,      -7.93004,       8.58536,            0.,NA,NA,"",   119.786E-03,  -59.1730E-03,   104.150E-03,   102.339E-06
C:/temp/dataset/6/23_12.odb,Step-1,Increment      1: Step Time =    1.000,"PART-1-1",           513,      -8.65034,       7.25415,            0.,NA,NA,"",   110.625E-03,  -49.5414E-03,   98.9115E-03,   335.669E-06
C:/temp/dataset/6/23_12.odb,Step-1,Increment      1: Step Time =    1.000,"PART-1-1",           514,      -7.51010,       6.50150,            0.,NA,NA,"",   115.799E-03,  -43.6413E-03,   107.261E-03,   483.807E-06
C:/temp/dataset/6/23_12.odb,Step-1,Increment      1: Step Time =    1.000,"PART-1-1",           515,      -6.78981,       7.83270,            0.,NA,NA,"",   124.676E-03,  -53.6289E-03,   112.553E-03,   123.608E-06
C:/temp/dataset/6/23_12.odb,Step-1,Increment      1: Step Time =    1.000,"PART-1-1",           516,      -7.08495,       12.0475,            0.,NA,NA,"",   138.603E-03,  -83.9114E-03,   110.316E-03,   74.2394E-06
C:/temp/dataset/6/23_12.odb,Step-1,Increment      1: Step Time =    1.000,"PART-1-1",           517,      -6.02998,       11.1050,            0.,NA,NA,"",   140.996E-03,  -77.2557E-03,   117.946E-03,   77.4119E-06
C:/temp/dataset/6/23_12.odb,Step-1,Increment      1: Step Time =    1.000,"PART-1-1",           518,           -5.,       12.2917,            0.,NA,NA,"",   151.707E-03,  -85.6716E-03,   125.201E-03,   72.6158E-06
C:/temp/dataset/6/23_12.odb,Step-1,Increment      1: Step Time =    1.000,"PART-1-1",           519,      -6.05497,       13.2342,            0.,NA,NA,"",   149.549E-03,  -92.3367E-03,   117.638E-03,   33.6405E-06
C:/temp/dataset/6/23_12.odb,Step-1,Increment      1: Step Time =    1.000,"PART-1-1",           520,      -9.96524,       21.0498,            0.,NA,NA,"",   172.729E-03,  -147.641E-03,   89.6513E-03,   807.995E-09
C:/temp/dataset/6/23_12.odb,Step-1,Increment      1: Step Time =    1.000,"PART-1-1",           521,      -8.51702,       20.1362,            0.,NA,NA,"",   172.993E-03,  -141.194E-03,   99.9544E-03,   960.599E-09
C:/temp/dataset/6/23_12.odb,Step-1,Increment      1: Step Time =    1.000,"PART-1-1",           522,      -8.09442,       21.6565,            0.,NA,NA,"",   183.560E-03,  -151.995E-03,   102.916E-03,   334.351E-09
C:/temp/dataset/6/23_12.odb,Step-1,Increment      1: Step Time =    1.000,"PART-1-1",           523,      -9.54264,       22.5701,            0.,NA,NA,"",   183.525E-03,  -158.444E-03,   92.6128E-03,   300.290E-09
C:/temp/dataset/6/23_12.odb,Step-1,Increment      1: Step Time =    1.000,"PART-1-1",           524,      -7.38593,       19.0122,            0.,NA,NA,"",   171.526E-03,  -133.247E-03,   108.011E-03,   2.90643E-06
C:/temp/dataset/6/23_12.odb,Step-1,Increment      1: Step Time =    1.000,"PART-1-1",           525,      -6.14460,       17.5723,            0.,NA,NA,"",   169.709E-03,  -123.065E-03,   116.859E-03,   2.87365E-06
C:/temp/dataset/6/23_12.odb,Step-1,Increment      1: Step Time =    1.000,"PART-1-1",           526,           -5.,       18.5417,            0.,NA,NA,"",   180.294E-03,  -129.970E-03,   124.955E-03,   496.201E-09
C:/temp/dataset/6/23_12.odb,Step-1,Increment      1: Step Time =    1.000,"PART-1-1",           527,      -9.12859,       24.1056,            0.,NA,NA,"",   194.432E-03,  -169.354E-03,   95.5129E-03,   242.380E-09
C:/temp/dataset/6/23_12.odb,Step-1,Increment      1: Step Time =    1.000,"PART-1-1",           528,      -7.82088,       23.2603,            0.,NA,NA,"",   194.118E-03,  -163.386E-03,   104.817E-03,   262.301E-09
C:/temp/dataset/6/23_12.odb,Step-1,Increment      1: Step Time =    1.000,"PART-1-1",           529,      -7.11221,       24.6459,            0.,NA,NA,"",   205.112E-03,  -173.240E-03,   109.812E-03,   254.412E-09
C:/temp/dataset/6/23_12.odb,Step-1,Increment      1: Step Time =    1.000,"PART-1-1",           530,      -8.41993,       25.4912,            0.,NA,NA,"",   205.469E-03,  -179.208E-03,   100.508E-03,   192.753E-09
C:/temp/dataset/6/23_12.odb,Step-1,Increment      1: Step Time =    1.000,"PART-1-1",           531,           -5.,       28.9583,            0.,NA,NA,"",   239.013E-03,  -203.907E-03,   124.698E-03,   16.9249E-09
C:/temp/dataset/6/23_12.odb,Step-1,Increment      1: Step Time =    1.000,"PART-1-1",           532,         -6.25,           30.,            0.,NA,NA,"",   240.923E-03,  -211.270E-03,   115.798E-03,   16.5811E-09
C:/temp/dataset/6/23_12.odb,Step-1,Increment      1: Step Time =    1.000,"PART-1-1",           533,      -6.22481,       27.8751,            0.,NA,NA,"",   227.930E-03,  -196.186E-03,   116.030E-03,   67.9822E-09
C:/temp/dataset/6/23_12.odb,Step-1,Increment      1: Step Time =    1.000,"PART-1-1",           534,      -11.1386,       27.5393,            0.,NA,NA,"",   209.995E-03,  -193.679E-03,   81.1576E-03,   107.155E-09
C:/temp/dataset/6/23_12.odb,Step-1,Increment      1: Step Time =    1.000,"PART-1-1",           535,        -11.25,           30.,            0.,NA,NA,"",   225.899E-03,  -211.144E-03,   80.3045E-03,   77.3474E-09
C:/temp/dataset/6/23_12.odb,Step-1,Increment      1: Step Time =    1.000,"PART-1-1",           536,      -13.1147,       13.7606,            0.,NA,NA,"",   117.144E-03,  -95.7531E-03,   67.4831E-03,   34.6859E-06
C:/temp/dataset/6/23_12.odb,Step-1,Increment      1: Step Time =    1.000,"PART-1-1",           537,      -14.0658,       14.9906,            0.,NA,NA,"",   120.838E-03,  -104.484E-03,   60.7046E-03,   12.8623E-06
C:/temp/dataset/6/23_12.odb,Step-1,Increment      1: Step Time =    1.000,"PART-1-1",           538,          -15.,         13.75,            0.,NA,NA,"",   109.893E-03,  -95.6419E-03,   54.1209E-03,   30.0580E-06
C:/temp/dataset/6/23_12.odb,Step-1,Increment      1: Step Time =    1.000,"PART-1-1",           539,      -9.42834,       18.6970,            0.,NA,NA,"",   160.919E-03,  -130.955E-03,   93.5198E-03,   4.32043E-06
C:/temp/dataset/6/23_12.odb,Step-1,Increment      1: Step Time =    1.000,"PART-1-1",           540,      -8.29725,       17.5730,            0.,NA,NA,"",   159.529E-03,  -123.011E-03,   101.576E-03,   5.77581E-06
C:/temp/dataset/6/23_12.odb,Step-1,Increment      1: Step Time =    1.000,"PART-1-1",           541,      -12.7588,       6.21303,            0.,NA,NA,"",   82.3545E-03,  -42.9715E-03,   70.2547E-03,   166.455E-06
C:/temp/dataset/6/23_12.odb,Step-1,Increment      1: Step Time =    1.000,"PART-1-1",           542,          -15.,          6.25,            0.,NA,NA,"",   70.1912E-03,  -43.3054E-03,   55.2398E-03,   199.268E-06
C:/temp/dataset/6/23_12.odb,Step-1,Increment      1: Step Time =    1.000,"PART-1-1",           543,      -9.01063,       9.47069,            0.,NA,NA,"",   116.535E-03,  -65.4668E-03,   96.4076E-03,   103.453E-06
C:/temp/dataset/6/23_12.odb,Step-1,Increment      1: Step Time =    1.000,"PART-1-1",           544,      -10.0811,       10.4578,            0.,NA,NA,"",   114.629E-03,  -72.4184E-03,   88.8558E-03,   94.5187E-06
C:/temp/dataset/6/23_12.odb,Step-1,Increment      1: Step Time =    1.000,"PART-1-1",           545,      -10.9384,       9.05000,            0.,NA,NA,"",   103.643E-03,  -62.3811E-03,   82.7671E-03,   76.5419E-06
C:/temp/dataset/6/23_12.odb,Step-1,Increment      1: Step Time =    1.000,"PART-1-1",           546,      -9.86794,       8.06293,            0.,NA,NA,"",   105.910E-03,  -55.4176E-03,   90.2541E-03,   116.435E-06
C:/temp/dataset/6/23_12.odb,Step-1,Increment      1: Step Time =    1.000,"PART-1-1",           547,      -7.23366,       1.29985,            0.,NA,NA,"",   114.301E-03,  -14.9587E-03,   113.318E-03,   4.24676E-03
C:/temp/dataset/6/23_12.odb,Step-1,Increment      1: Step Time =    1.000,"PART-1-1",           548,      -8.34685,   784.410E-03,            0.,NA,NA,"",   103.670E-03,  -13.1521E-03,   102.832E-03,   3.49669E-03
C:/temp/dataset/6/23_12.odb,Step-1,Increment      1: Step Time =    1.000,"PART-1-1",           549,      -7.43977,  -685.632E-03,            0.,NA,NA,"",   109.860E-03,  -9.13854E-03,   109.479E-03,   5.13149E-03
C:/temp/dataset/6/23_12.odb,Step-1,Increment      1: Step Time =    1.000,"PART-1-1",           550,      -12.4903,      -8.57964,            0.,NA,NA,"",   69.0298E-03,   35.8447E-03,   58.9939E-03,   1.73854E-03
C:/temp/dataset/6/23_12.odb,Step-1,Increment      1: Step Time =    1.000,"PART-1-1",           551,          -15.,         -8.75,            0.,NA,NA,"",   63.6960E-03,   37.1786E-03,   51.7197E-03,   73.5454E-06
C:/temp/dataset/6/23_12.odb,Step-1,Increment      1: Step Time =    1.000,"PART-1-1",           552,      -13.5658,      -9.92286,            0.,NA,NA,"",   67.1255E-03,   39.2809E-03,   54.4320E-03,   1.17117E-03
C:/temp/dataset/6/23_12.odb,Step-1,Increment      1: Step Time =    1.000,"PART-1-1",           553,      -11.9783,      -7.15971,            0.,NA,NA,"",   70.1941E-03,   30.9693E-03,   62.9929E-03,   1.73124E-03
C:/temp/dataset/6/23_12.odb,Step-1,Increment      1: Step Time =    1.000,"PART-1-1",           554,      -11.8960,      -5.22799,            0.,NA,NA,"",   70.0100E-03,   22.2520E-03,   66.3796E-03,   1.78282E-03
C:/temp/dataset/6/23_12.odb,Step-1,Increment      1: Step Time =    1.000,"PART-1-1",           555,      -12.4565,      -16.3452,            0.,NA,NA,"",   55.9540E-03,   35.1591E-03,   43.5280E-03,   3.00220E-03
C:/temp/dataset/6/23_12.odb,Step-1,Increment      1: Step Time =    1.000,"PART-1-1",           556,          -15.,        -16.25,            0.,NA,NA,"",   60.0977E-03,   37.9799E-03,   46.5754E-03,   1.83609E-03
C:/temp/dataset/6/23_12.odb,Step-1,Increment      1: Step Time =    1.000,"PART-1-1",           557,      -13.7435,      -17.5611,            0.,NA,NA,"",   53.8797E-03,   33.9008E-03,   41.8779E-03,   2.67442E-03
C:/temp/dataset/6/23_12.odb,Step-1,Increment      1: Step Time =    1.000,"PART-1-1",           558,      -9.99221,      -8.41662,            0.,NA,NA,"",   75.9228E-03,   33.3965E-03,   68.1831E-03,   3.17992E-03
C:/temp/dataset/6/23_12.odb,Step-1,Increment      1: Step Time =    1.000,"PART-1-1",           559,      -11.4633,      -9.12095,            0.,NA,NA,"",   71.2455E-03,   36.3581E-03,   61.2700E-03,   2.42118E-03
C:/temp/dataset/6/23_12.odb,Step-1,Increment      1: Step Time =    1.000,"PART-1-1",           560,      -10.8070,      -10.1141,            0.,NA,NA,"",   71.4377E-03,   37.3570E-03,   60.8917E-03,   3.08518E-03
C:/temp/dataset/6/23_12.odb,Step-1,Increment      1: Step Time =    1.000,"PART-1-1",           561,      -13.9189,      -24.9166,            0.,NA,NA,"",   24.5197E-03,   14.5159E-03,   19.7611E-03,   4.08626E-03
C:/temp/dataset/6/23_12.odb,Step-1,Increment      1: Step Time =    1.000,"PART-1-1",           562,      -12.9076,      -23.6273,            0.,NA,NA,"",   27.4680E-03,   15.9380E-03,   22.3712E-03,   3.90202E-03
C:/temp/dataset/6/23_12.odb,Step-1,Increment      1: Step Time =    1.000,"PART-1-1",           563,          -15.,        -23.75,            0.,NA,NA,"",   32.6665E-03,   19.3100E-03,   26.3481E-03,   3.92733E-03
C:/temp/dataset/6/23_12.odb,Step-1,Increment      1: Step Time =    1.000,"PART-1-1",           564,          -15.,        -28.75,            0.,NA,NA,"",   9.15709E-03,   6.50983E-03,   6.44007E-03,   5.50936E-03
C:/temp/dataset/6/23_12.odb,Step-1,Increment      1: Step Time =    1.000,"PART-1-1",           565,        -13.75,          -30.,            0.,NA,NA,"",            0.,   492.432E-42,   7.31741E-39,   5.09388E-03
C:/temp/dataset/6/23_12.odb,Step-1,Increment      1: Step Time =    1.000,"PART-1-1",           566,      -13.7642,      -27.4123,            0.,NA,NA,"",   12.5423E-03,   7.81594E-03,   9.80917E-03,   4.44551E-03
C:/temp/dataset/6/23_12.odb,Step-1,Increment      1: Step Time =    1.000,"PART-1-1",           567,            5.,      -6.25625,            0.,NA,NA,"",   72.1632E-03,  -29.1950E-03,   65.9938E-03,   8.76304E-03
C:/temp/dataset/6/23_12.odb,Step-1,Increment      1: Step Time =    1.000,"PART-1-1",           568,       7.03347,      -6.11658,            0.,NA,NA,"",   66.3136E-03,  -33.2296E-03,   57.3872E-03,   3.71199E-03
C:/temp/dataset/6/23_12.odb,Step-1,Increment      1: Step Time =    1.000,"PART-1-1",           569,       6.04361,      -4.83741,            0.,NA,NA,"",   73.5428E-03,  -28.7006E-03,   67.7113E-03,   6.04473E-03
C:/temp/dataset/6/23_12.odb,Step-1,Increment      1: Step Time =    1.000,"PART-1-1",           570,           15.,      -2.65625,            0.,NA,NA,"",   29.6780E-03,  -18.9160E-03,   22.8685E-03,   1.21650E-03
C:/temp/dataset/6/23_12.odb,Step-1,Increment      1: Step Time =    1.000,"PART-1-1",           571,       12.8875,      -2.72454,            0.,NA,NA,"",   39.0405E-03,  -19.9120E-03,   33.5808E-03,   397.279E-06
C:/temp/dataset/6/23_12.odb,Step-1,Increment      1: Step Time =    1.000,"PART-1-1",           572,       10.0248,      -7.91896,            0.,NA,NA,"",   56.4142E-03,  -37.9896E-03,   41.7056E-03,   2.09992E-03
C:/temp/dataset/6/23_12.odb,Step-1,Increment      1: Step Time =    1.000,"PART-1-1",           573,       8.98203,      -8.99604,            0.,NA,NA,"",   56.8520E-03,  -37.9038E-03,   42.3727E-03,   2.97369E-03
C:/temp/dataset/6/23_12.odb,Step-1,Increment      1: Step Time =    1.000,"PART-1-1",           574,       9.98204,      -10.2112,            0.,NA,NA,"",   54.1576E-03,  -38.7275E-03,   37.8580E-03,   2.45401E-03
C:/temp/dataset/6/23_12.odb,Step-1,Increment      1: Step Time =    1.000,"PART-1-1",           575,            5.,      -11.2813,            0.,NA,NA,"",   48.6767E-03,  -30.2546E-03,   38.1324E-03,   4.88362E-03
C:/temp/dataset/6/23_12.odb,Step-1,Increment      1: Step Time =    1.000,"PART-1-1",           576,       6.96001,      -11.3098,            0.,NA,NA,"",   51.2297E-03,  -34.0414E-03,   38.2840E-03,   3.97350E-03
C:/temp/dataset/6/23_12.odb,Step-1,Increment      1: Step Time =    1.000,"PART-1-1",           577,       12.1169,      -5.93459,            0.,NA,NA,"",   50.0268E-03,  -34.0069E-03,   36.6908E-03,   398.635E-06
C:/temp/dataset/6/23_12.odb,Step-1,Increment      1: Step Time =    1.000,"PART-1-1",           578,       11.1088,      -6.97100,            0.,NA,NA,"",   53.9164E-03,  -36.7022E-03,   39.4959E-03,   1.17668E-03
C:/temp/dataset/6/23_12.odb,Step-1,Increment      1: Step Time =    1.000,"PART-1-1",           579,           15.,      -11.4063,            0.,NA,NA,"",   51.5914E-03,  -39.5511E-03,   33.1267E-03,   529.482E-06
C:/temp/dataset/6/23_12.odb,Step-1,Increment      1: Step Time =    1.000,"PART-1-1",           580,       13.9991,      -10.3053,            0.,NA,NA,"",   51.7841E-03,  -40.1150E-03,   32.7473E-03,   478.415E-06
C:/temp/dataset/6/23_12.odb,Step-1,Increment      1: Step Time =    1.000,"PART-1-1",           581,       12.9941,      -11.4223,            0.,NA,NA,"",   51.5393E-03,  -39.5263E-03,   33.0753E-03,   1.02737E-03
C:/temp/dataset/6/23_12.odb,Step-1,Increment      1: Step Time =    1.000,"PART-1-1",           582,           15.,      -9.21875,            0.,NA,NA,"",   50.4534E-03,  -39.4590E-03,   31.4409E-03,   1.11287E-03
C:/temp/dataset/6/23_12.odb,Step-1,Increment      1: Step Time =    1.000,"PART-1-1",           583,       9.25975,      -25.9916,            0.,NA,NA,"",   6.43843E-03,  -3.07289E-03,   5.65780E-03,   1.91850E-03
C:/temp/dataset/6/23_12.odb,Step-1,Increment      1: Step Time =    1.000,"PART-1-1",           584,       7.97004,      -27.0667,            0.,NA,NA,"",   3.35213E-03,  -1.09662E-03,   3.16768E-03,   1.43510E-03
C:/temp/dataset/6/23_12.odb,Step-1,Increment      1: Step Time =    1.000,"PART-1-1",           585,       9.98268,      -20.3187,            0.,NA,NA,"",   24.0769E-03,  -16.0568E-03,   17.9410E-03,   2.63595E-03
C:/temp/dataset/6/23_12.odb,Step-1,Increment      1: Step Time =    1.000,"PART-1-1",           586,       8.47236,      -19.9740,            0.,NA,NA,"",   22.6295E-03,  -15.1370E-03,   16.8215E-03,   2.72988E-03
C:/temp/dataset/6/23_12.odb,Step-1,Increment      1: Step Time =    1.000,"PART-1-1",           587,       7.80775,      -21.2882,            0.,NA,NA,"",   16.5155E-03,  -10.2765E-03,   12.9288E-03,   2.72018E-03
C:/temp/dataset/6/23_12.odb,Step-1,Increment      1: Step Time =    1.000,"PART-1-1",           588,       9.31806,      -21.6330,            0.,NA,NA,"",   18.3657E-03,  -11.5357E-03,   14.2908E-03,   2.54911E-03
C:/temp/dataset/6/23_12.odb,Step-1,Increment      1: Step Time =    1.000,"PART-1-1",           589,          3.75,          -20.,            0.,NA,NA,"",   7.97961E-03,  -6.61504E-03,   4.46268E-03,   2.34076E-03
C:/temp/dataset/6/23_12.odb,Step-1,Increment      1: Step Time =    1.000,"PART-1-1",           590,       2.69482,      -20.9389,            0.,NA,NA,"",   4.13325E-03,  -3.39313E-03,   2.36018E-03,   1.52056E-03
C:/temp/dataset/6/23_12.odb,Step-1,Increment      1: Step Time =    1.000,"PART-1-1",           591,       4.10336,      -21.5712,            0.,NA,NA,"",   5.84972E-03,  -4.11902E-03,   4.15366E-03,   1.28489E-03
C:/temp/dataset/6/23_12.odb,Step-1,Increment      1: Step Time =    1.000,"PART-1-1",           592,       5.15854,      -20.6323,            0.,NA,NA,"",   11.0955E-03,  -7.48257E-03,   8.19281E-03,   2.38010E-03
C:/temp/dataset/6/23_12.odb,Step-1,Increment      1: Step Time =    1.000,"PART-1-1",           593,          1.25,          -20.,            0.,NA,NA,"",   2.80129E-03,  -1.39677E-03,   2.42822E-03,   2.19319E-03
C:/temp/dataset/6/23_12.odb,Step-1,Increment      1: Step Time =    1.000,"PART-1-1",           594,       1.58638,      -22.3782,            0.,NA,NA,"",   1.60365E-03,  -1.28642E-03,   957.510E-06,   721.862E-06
C:/temp/dataset/6/23_12.odb,Step-1,Increment      1: Step Time =    1.000,"PART-1-1",           595,      -7.18878,      -21.5166,            0.,NA,NA,"",   23.6257E-03,   10.9613E-03,   20.9290E-03,   4.21546E-03
C:/temp/dataset/6/23_12.odb,Step-1,Increment      1: Step Time =    1.000,"PART-1-1",           596,      -8.69544,      -20.4918,            0.,NA,NA,"",   32.3672E-03,   17.3941E-03,   27.2962E-03,   4.15653E-03
C:/temp/dataset/6/23_12.odb,Step-1,Increment      1: Step Time =    1.000,"PART-1-1",           597,      -9.53108,      -21.9939,            0.,NA,NA,"",   27.2164E-03,   14.3406E-03,   23.1317E-03,   3.99697E-03
C:/temp/dataset/6/23_12.odb,Step-1,Increment      1: Step Time =    1.000,"PART-1-1",           598,      -8.02442,      -23.0186,            0.,NA,NA,"",   19.3086E-03,   8.44548E-03,   17.3636E-03,   3.81148E-03
C:/temp/dataset/6/23_12.odb,Step-1,Increment      1: Step Time =    1.000,"PART-1-1",           599,           -5.,      -18.7437,            0.,NA,NA,"",   29.8373E-03,   15.9744E-03,   25.2008E-03,   5.77669E-03
C:/temp/dataset/6/23_12.odb,Step-1,Increment      1: Step Time =    1.000,"PART-1-1",           600,      -6.23242,      -17.5731,            0.,NA,NA,"",   40.4411E-03,   21.7287E-03,   34.1079E-03,   5.05838E-03
C:/temp/dataset/6/23_12.odb,Step-1,Increment      1: Step Time =    1.000,"PART-1-1",           601,      -7.41830,      -18.9573,            0.,NA,NA,"",   36.8270E-03,   20.1212E-03,   30.8442E-03,   4.18394E-03
C:/temp/dataset/6/23_12.odb,Step-1,Increment      1: Step Time =    1.000,"PART-1-1",           602,      -6.18588,      -20.1280,            0.,NA,NA,"",   27.2951E-03,   13.6932E-03,   23.6118E-03,   4.46829E-03
C:/temp/dataset/6/23_12.odb,Step-1,Increment      1: Step Time =    1.000,"PART-1-1",           603,           -5.,      -16.2312,            0.,NA,NA,"",   44.2556E-03,   21.3135E-03,   38.7852E-03,   5.97148E-03
C:/temp/dataset/6/23_12.odb,Step-1,Increment      1: Step Time =    1.000,"PART-1-1",           604,      -7.44257,      -16.3835,            0.,NA,NA,"",   49.2419E-03,   26.9272E-03,   41.2273E-03,   4.78173E-03
C:/temp/dataset/6/23_12.odb,Step-1,Increment      1: Step Time =    1.000,"PART-1-1",           605,      -12.6830,      -26.0788,            0.,NA,NA,"",   16.2358E-03,   9.37256E-03,   13.2573E-03,   4.08454E-03
C:/temp/dataset/6/23_12.odb,Step-1,Increment      1: Step Time =    1.000,"PART-1-1",           606,          -15.,        -26.25,            0.,NA,NA,"",   21.8194E-03,   13.3709E-03,   17.2425E-03,   4.38225E-03
C:/temp/dataset/6/23_12.odb,Step-1,Increment      1: Step Time =    1.000,"PART-1-1",           607,         -8.75,          -30.,            0.,NA,NA,"",            0.,  -62.3256E-42,   4.42119E-39,   2.30863E-03
C:/temp/dataset/6/23_12.odb,Step-1,Increment      1: Step Time =    1.000,"PART-1-1",           608,          -15.,        -18.75,            0.,NA,NA,"",   52.7164E-03,   32.4318E-03,   41.5596E-03,   2.64505E-03
C:/temp/dataset/6/23_12.odb,Step-1,Increment      1: Step Time =    1.000,"PART-1-1",           609,      -12.5734,      -18.8685,            0.,NA,NA,"",   46.8990E-03,   28.9482E-03,   36.8988E-03,   3.33427E-03
C:/temp/dataset/6/23_12.odb,Step-1,Increment      1: Step Time =    1.000,"PART-1-1",           610,           -5.,      -11.2063,            0.,NA,NA,"",   72.9005E-03,   25.3536E-03,   68.3496E-03,   7.35288E-03
C:/temp/dataset/6/23_12.odb,Step-1,Increment      1: Step Time =    1.000,"PART-1-1",           611,      -7.25264,      -11.4522,            0.,NA,NA,"",   71.7994E-03,   31.8371E-03,   64.3549E-03,   5.72323E-03
C:/temp/dataset/6/23_12.odb,Step-1,Increment      1: Step Time =    1.000,"PART-1-1",           612,           -5.,      -6.23750,            0.,NA,NA,"",   111.278E-03,   16.6672E-03,   110.022E-03,   14.0628E-03
C:/temp/dataset/6/23_12.odb,Step-1,Increment      1: Step Time =    1.000,"PART-1-1",           613,      -6.16987,      -5.46941,            0.,NA,NA,"",   105.247E-03,   17.9740E-03,   103.701E-03,   7.64795E-03
C:/temp/dataset/6/23_12.odb,Step-1,Increment      1: Step Time =    1.000,"PART-1-1",           614,      -7.24309,      -6.98789,            0.,NA,NA,"",   91.3960E-03,   25.7719E-03,   87.6871E-03,   4.58757E-03
C:/temp/dataset/6/23_12.odb,Step-1,Increment      1: Step Time =    1.000,"PART-1-1",           615,           -5.,       16.4583,            0.,NA,NA,"",   169.991E-03,  -115.195E-03,   125.009E-03,   5.65008E-06
C:/temp/dataset/6/23_12.odb,Step-1,Increment      1: Step Time =    1.000,"PART-1-1",           616,      -7.23328,       16.4840,            0.,NA,NA,"",   158.790E-03,  -115.320E-03,   109.157E-03,   12.2665E-06
C:/temp/dataset/6/23_12.odb,Step-1,Increment      1: Step Time =    1.000,"PART-1-1",           617,      -6.08867,       15.3700,            0.,NA,NA,"",   159.094E-03,  -107.457E-03,   117.319E-03,   11.4496E-06
C:/temp/dataset/6/23_12.odb,Step-1,Increment      1: Step Time =    1.000,"PART-1-1",           618,      -13.1522,       16.1892,            0.,NA,NA,"",   131.473E-03,  -113.031E-03,   67.1506E-03,   12.4197E-06
C:/temp/dataset/6/23_12.odb,Step-1,Increment      1: Step Time =    1.000,"PART-1-1",           619,      -14.0864,       17.4486,            0.,NA,NA,"",   136.134E-03,  -121.959E-03,   60.4854E-03,   2.66533E-06
C:/temp/dataset/6/23_12.odb,Step-1,Increment      1: Step Time =    1.000,"PART-1-1",           620,          -15.,         16.25,            0.,NA,NA,"",   125.629E-03,  -113.418E-03,   54.0285E-03,   6.36787E-06
C:/temp/dataset/6/23_12.odb,Step-1,Increment      1: Step Time =    1.000,"PART-1-1",           621,           -5.,       24.7917,            0.,NA,NA,"",   214.397E-03,  -174.329E-03,   124.802E-03,   330.661E-09
C:/temp/dataset/6/23_12.odb,Step-1,Increment      1: Step Time =    1.000,"PART-1-1",           622,      -6.14442,       25.7689,            0.,NA,NA,"",   215.534E-03,  -181.236E-03,   116.654E-03,   157.254E-09
C:/temp/dataset/6/23_12.odb,Step-1,Increment      1: Step Time =    1.000,"PART-1-1",           623,           -5.,        26.875,            0.,NA,NA,"",   226.557E-03,  -189.118E-03,   124.750E-03,   113.374E-09
C:/temp/dataset/6/23_12.odb,Step-1,Increment      1: Step Time =    1.000,"PART-1-1",           624,      -7.36924,       26.7689,            0.,NA,NA,"",   217.045E-03,  -188.305E-03,   107.934E-03,   167.352E-09
C:/temp/dataset/6/23_12.odb,Step-1,Increment      1: Step Time =    1.000,"PART-1-1",           625,      -13.1175,       20.9132,            0.,NA,NA,"",   161.291E-03,  -146.591E-03,   67.2762E-03,   335.490E-09
C:/temp/dataset/6/23_12.odb,Step-1,Increment      1: Step Time =    1.000,"PART-1-1",           626,      -14.0212,       22.2867,            0.,NA,NA,"",   167.736E-03,  -156.319E-03,   60.8256E-03,   401.639E-09
C:/temp/dataset/6/23_12.odb,Step-1,Increment      1: Step Time =    1.000,"PART-1-1",           627,          -15.,         21.25,            0.,NA,NA,"",   158.388E-03,  -148.934E-03,   53.9021E-03,   812.777E-09
C:/temp/dataset/6/23_12.odb,Step-1,Increment      1: Step Time =    1.000,"PART-1-1",           628,      -14.0963,       19.8765,            0.,NA,NA,"",   151.725E-03,  -139.205E-03,   60.3528E-03,   529.201E-09
C:/temp/dataset/6/23_12.odb,Step-1,Increment      1: Step Time =    1.000,"PART-1-1",           629,         -1.25,           -5.,            0.,NA,NA,"",   180.862E-03,  -13.5010E-03,   180.357E-03,   12.3542E-03
C:/temp/dataset/6/23_12.odb,Step-1,Increment      1: Step Time =    1.000,"PART-1-1",           630,      -1.77292,      -3.03732,            0.,NA,NA,"",   168.650E-03,  -6.33555E-03,   168.531E-03,   8.79402E-03
C:/temp/dataset/6/23_12.odb,Step-1,Increment      1: Step Time =    1.000,"PART-1-1",           631,      -12.1053,      -2.30059,            0.,NA,NA,"",   70.0282E-03,   6.17292E-03,   69.7556E-03,   1.68459E-03
C:/temp/dataset/6/23_12.odb,Step-1,Increment      1: Step Time =    1.000,"PART-1-1",           632,      -10.7648,      -1.40855,            0.,NA,NA,"",   79.8611E-03,  -303.312E-06,   79.8605E-03,   2.27279E-03
C:/temp/dataset/6/23_12.odb,Step-1,Increment      1: Step Time =    1.000,"PART-1-1",           633,      -11.5438,  -354.672E-03,            0.,NA,NA,"",   76.2166E-03,  -5.13360E-03,   76.0435E-03,   1.80537E-03
C:/temp/dataset/6/23_12.odb,Step-1,Increment      1: Step Time =    1.000,"PART-1-1",           634,          3.75,           -5.,            0.,NA,NA,"",   105.894E-03,  -30.5155E-03,   101.402E-03,   2.64658E-03
C:/temp/dataset/6/23_12.odb,Step-1,Increment      1: Step Time =    1.000,"PART-1-1",           635,       4.52066,      -3.83856,            0.,NA,NA,"",   91.1168E-03,  -18.0422E-03,   89.3127E-03,   6.19650E-03
C:/temp/dataset/6/23_12.odb,Step-1,Increment      1: Step Time =    1.000,"PART-1-1",           636,       2.94662,      -2.72704,            0.,NA,NA,"",   114.474E-03,  -7.83640E-03,   114.206E-03,   5.39196E-03
C:/temp/dataset/6/23_12.odb,Step-1,Increment      1: Step Time =    1.000,"PART-1-1",           637,       1.50395,       2.56821,            0.,NA,NA,"",   128.718E-03,   7.83191E-03,   128.480E-03,   4.47524E-03
C:/temp/dataset/6/23_12.odb,Step-1,Increment      1: Step Time =    1.000,"PART-1-1",           638,          1.25,            5.,            0.,NA,NA,"",   126.380E-03,   17.4617E-03,   125.168E-03,   6.05333E-03
C:/temp/dataset/6/23_12.odb,Step-1,Increment      1: Step Time =    1.000,"PART-1-1",           639,          6.25,            5.,            0.,NA,NA,"",   88.7344E-03,   32.0253E-03,   82.7537E-03,   828.251E-06
C:/temp/dataset/6/23_12.odb,Step-1,Increment      1: Step Time =    1.000,"PART-1-1",           640,  -213.968E-03,      -26.0734,            0.,NA,NA,"",   1.15561E-03,  -988.791E-06,   598.096E-06,   343.453E-06
C:/temp/dataset/6/23_12.odb,Step-1,Increment      1: Step Time =    1.000,"PART-1-1",           641,       1.14210,      -23.8512,            0.,NA,NA,"",   1.06355E-03,  -910.204E-06,   550.155E-06,   227.346E-06
C:/temp/dataset/6/23_12.odb,Step-1,Increment      1: Step Time =    1.000,"PART-1-1",           642,  -234.527E-03,      -23.9674,            0.,NA,NA,"",   1.03688E-03,  -654.207E-06,   804.443E-06,   240.757E-06
C:/temp/dataset/6/23_12.odb,Step-1,Increment      1: Step Time =    1.000,"PART-1-1",           643,           -5.,        14.375,            0.,NA,NA,"",   160.410E-03,  -100.431E-03,   125.080E-03,   24.6886E-06
C:/temp/dataset/6/23_12.odb,Step-1,Increment      1: Step Time =    1.000,"PART-1-1",           644,      -7.14364,       14.2292,            0.,NA,NA,"",   148.112E-03,  -99.3501E-03,   109.849E-03,   33.1118E-06
C:/temp/dataset/6/23_12.odb,Step-1,Increment      1: Step Time =    1.000,"PART-1-1",           645,           -5.,       6.04167,            0.,NA,NA,"",   133.001E-03,  -39.1659E-03,   127.104E-03,   1.17062E-03
C:/temp/dataset/6/23_12.odb,Step-1,Increment      1: Step Time =    1.000,"PART-1-1",           646,      -5.82078,       6.95384,            0.,NA,NA,"",   128.852E-03,  -46.7317E-03,   120.079E-03,   620.519E-06
C:/temp/dataset/6/23_12.odb,Step-1,Increment      1: Step Time =    1.000,"PART-1-1",           647,      -6.45742,       5.85906,            0.,NA,NA,"",   121.217E-03,  -37.6698E-03,   115.216E-03,   1.26082E-03
C:/temp/dataset/6/23_12.odb,Step-1,Increment      1: Step Time =    1.000,"PART-1-1",           648,      -5.63664,       4.94688,            0.,NA,NA,"",   125.433E-03,  -27.9430E-03,   122.281E-03,   3.54983E-03
C:/temp/dataset/6/23_12.odb,Step-1,Increment      1: Step Time =    1.000,"PART-1-1",           649,           -5.,         8.125,            0.,NA,NA,"",   137.840E-03,  -55.7451E-03,   126.065E-03,   406.028E-06
C:/temp/dataset/6/23_12.odb,Step-1,Increment      1: Step Time =    1.000,"PART-1-1",           650,      -5.96903,       9.00386,            0.,NA,NA,"",   133.944E-03,  -62.2338E-03,   118.609E-03,   171.800E-06
C:/temp/dataset/6/23_12.odb,Step-1,Increment      1: Step Time =    1.000,"PART-1-1",           651,          -15.,         -3.75,            0.,NA,NA,"",   54.7479E-03,   15.9583E-03,   52.3705E-03,   530.010E-06
C:/temp/dataset/6/23_12.odb,Step-1,Increment      1: Step Time =    1.000,"PART-1-1",           652,      -12.7846,      -3.59401,            0.,NA,NA,"",   65.7094E-03,   14.0772E-03,   64.1837E-03,   1.37133E-03
C:/temp/dataset/6/23_12.odb,Step-1,Increment      1: Step Time =    1.000,"PART-1-1",           653,      -11.5430,      -4.20540,            0.,NA,NA,"",   71.7836E-03,   16.4457E-03,   69.8743E-03,   2.00718E-03
C:/temp/dataset/6/23_12.odb,Step-1,Increment      1: Step Time =    1.000,"PART-1-1",           654,      -10.1018,      -4.29084,            0.,NA,NA,"",   79.2357E-03,   15.2793E-03,   77.7485E-03,   2.68269E-03
C:/temp/dataset/6/23_12.odb,Step-1,Increment      1: Step Time =    1.000,"PART-1-1",           655,          -15.,        -11.25,            0.,NA,NA,"",   65.9174E-03,   41.3411E-03,   51.3421E-03,   435.515E-06
C:/temp/dataset/6/23_12.odb,Step-1,Increment      1: Step Time =    1.000,"PART-1-1",           656,      -12.2331,      -11.1785,            0.,NA,NA,"",   68.0197E-03,   39.7352E-03,   55.2068E-03,   2.33898E-03
C:/temp/dataset/6/23_12.odb,Step-1,Increment      1: Step Time =    1.000,"PART-1-1",           657,       5.21391,      -1.02834,            0.,NA,NA,"",   89.6524E-03,  -3.25993E-03,   89.5931E-03,   4.68136E-03
C:/temp/dataset/6/23_12.odb,Step-1,Increment      1: Step Time =    1.000,"PART-1-1",           658,       6.72319,      -1.59046,            0.,NA,NA,"",   73.5755E-03,  -8.88693E-03,   73.0368E-03,   3.84368E-03
C:/temp/dataset/6/23_12.odb,Step-1,Increment      1: Step Time =    1.000,"PART-1-1",           659,       10.9187,      -16.2245,            0.,NA,NA,"",   39.5677E-03,  -29.0894E-03,   26.8217E-03,   2.36017E-03
C:/temp/dataset/6/23_12.odb,Step-1,Increment      1: Step Time =    1.000,"PART-1-1",           660,       11.9858,      -14.8752,            0.,NA,NA,"",   44.6014E-03,  -33.3527E-03,   29.6123E-03,   1.89994E-03
C:/temp/dataset/6/23_12.odb,Step-1,Increment      1: Step Time =    1.000,"PART-1-1",           661,       10.9746,      -13.7451,            0.,NA,NA,"",   46.8101E-03,  -35.0695E-03,   31.0051E-03,   2.21912E-03
C:/temp/dataset/6/23_12.odb,Step-1,Increment      1: Step Time =    1.000,"PART-1-1",           662,       11.9830,      -12.5543,            0.,NA,NA,"",   49.8702E-03,  -37.8226E-03,   32.5037E-03,   1.66756E-03
C:/temp/dataset/6/23_12.odb,Step-1,Increment      1: Step Time =    1.000,"PART-1-1",           663,           15.,      -20.1563,            0.,NA,NA,"",   34.2878E-03,  -21.8371E-03,   26.4347E-03,   2.16418E-03
C:/temp/dataset/6/23_12.odb,Step-1,Increment      1: Step Time =    1.000,"PART-1-1",           664,       14.0841,      -19.1367,            0.,NA,NA,"",   35.3038E-03,  -23.6743E-03,   26.1894E-03,   1.97830E-03
C:/temp/dataset/6/23_12.odb,Step-1,Increment      1: Step Time =    1.000,"PART-1-1",           665,       13.0385,      -20.2889,            0.,NA,NA,"",   29.5204E-03,  -19.5509E-03,   22.1182E-03,   2.26142E-03
C:/temp/dataset/6/23_12.odb,Step-1,Increment      1: Step Time =    1.000,"PART-1-1",           666,           15.,      -17.9688,            0.,NA,NA,"",   40.8001E-03,  -27.4955E-03,   30.1438E-03,   1.55947E-03
C:/temp/dataset/6/23_12.odb,Step-1,Increment      1: Step Time =    1.000,"PART-1-1",           667,          1.25,          -30.,            0.,NA,NA,"",            0.,  -119.863E-42,   700.012E-42,   396.249E-06
C:/temp/dataset/6/23_12.odb,Step-1,Increment      1: Step Time =    1.000,"PART-1-1",           668,       3.30543,      -22.6598,            0.,NA,NA,"",   3.10042E-03,  -2.22810E-03,   2.15596E-03,   762.644E-06
C:/temp/dataset/6/23_12.odb,Step-1,Increment      1: Step Time =    1.000,"PART-1-1",           669,       2.86115,      -24.1329,            0.,NA,NA,"",   1.70949E-03,  -1.19988E-03,   1.21764E-03,   378.214E-06
C:/temp/dataset/6/23_12.odb,Step-1,Increment      1: Step Time =    1.000,"PART-1-1",           670,      -10.6801,      -21.6169,            0.,NA,NA,"",   31.3258E-03,   17.6360E-03,   25.8897E-03,   3.95660E-03
C:/temp/dataset/6/23_12.odb,Step-1,Increment      1: Step Time =    1.000,"PART-1-1",           671,      -11.3394,      -20.4213,            0.,NA,NA,"",   38.0135E-03,   22.4508E-03,   30.6755E-03,   3.77077E-03
C:/temp/dataset/6/23_12.odb,Step-1,Increment      1: Step Time =    1.000,"PART-1-1",           672,      -12.1593,      -22.4638,            0.,NA,NA,"",   30.7696E-03,   17.8042E-03,   25.0953E-03,   3.83134E-03
C:/temp/dataset/6/23_12.odb,Step-1,Increment      1: Step Time =    1.000,"PART-1-1",           673,      -9.92443,      -16.4516,            0.,NA,NA,"",   52.6190E-03,   31.2905E-03,   42.3044E-03,   3.94647E-03
C:/temp/dataset/6/23_12.odb,Step-1,Increment      1: Step Time =    1.000,"PART-1-1",           674,      -8.71114,      -17.7111,            0.,NA,NA,"",   45.4223E-03,   26.0931E-03,   37.1798E-03,   4.19571E-03
C:/temp/dataset/6/23_12.odb,Step-1,Increment      1: Step Time =    1.000,"PART-1-1",           675,      -9.25100,      -7.50767,            0.,NA,NA,"",   79.7803E-03,   29.9986E-03,   73.9255E-03,   3.47616E-03
C:/temp/dataset/6/23_12.odb,Step-1,Increment      1: Step Time =    1.000,"PART-1-1",           676,      -8.32615,      -6.25855,            0.,NA,NA,"",   86.3703E-03,   23.8135E-03,   83.0226E-03,   3.81970E-03
C:/temp/dataset/6/23_12.odb,Step-1,Increment      1: Step Time =    1.000,"PART-1-1",           677,      -7.58018,      -5.09368,            0.,NA,NA,"",   94.1812E-03,   16.8663E-03,   92.6586E-03,   4.63366E-03
C:/temp/dataset/6/23_12.odb,Step-1,Increment      1: Step Time =    1.000,"PART-1-1",           678,      -6.67379,      -3.84489,            0.,NA,NA,"",   107.209E-03,   3.71823E-03,   107.145E-03,   7.55111E-03
C:/temp/dataset/6/23_12.odb,Step-1,Increment      1: Step Time =    1.000,"PART-1-1",           679,      -2.40491,      -1.03021,            0.,NA,NA,"",   155.963E-03,  -7.44556E-03,   155.785E-03,   5.52270E-03
C:/temp/dataset/6/23_12.odb,Step-1,Increment      1: Step Time =    1.000,"PART-1-1",           680,      -3.32453,      -2.14711,            0.,NA,NA,"",   157.207E-03,  -10.1450E-03,   156.880E-03,   9.07691E-03
C:/temp/dataset/6/23_12.odb,Step-1,Increment      1: Step Time =    1.000,"PART-1-1",           681,       10.4745,      -24.8101,            0.,NA,NA,"",   10.8845E-03,  -6.08127E-03,   9.02718E-03,   2.33341E-03
C:/temp/dataset/6/23_12.odb,Step-1,Increment      1: Step Time =    1.000,"PART-1-1",           682,       8.16019,      -23.0435,            0.,NA,NA,"",   11.8594E-03,  -6.71659E-03,   9.77407E-03,   2.29883E-03
C:/temp/dataset/6/23_12.odb,Step-1,Increment      1: Step Time =    1.000,"PART-1-1",           683,       9.40124,      -23.8494,            0.,NA,NA,"",   11.8153E-03,  -6.66105E-03,   9.75868E-03,   2.26617E-03
C:/temp/dataset/6/23_12.odb,Step-1,Increment      1: Step Time =    1.000,"PART-1-1",           684,       5.67200,      -27.0943,            0.,NA,NA,"",   1.87456E-03,  -327.911E-06,   1.84565E-03,   831.340E-06
C:/temp/dataset/6/23_12.odb,Step-1,Increment      1: Step Time =    1.000,"PART-1-1",           685,       4.86106,      -26.0050,            0.,NA,NA,"",   2.15666E-03,  -702.832E-06,   2.03892E-03,   693.546E-06
C:/temp/dataset/6/23_12.odb,Step-1,Increment      1: Step Time =    1.000,"PART-1-1",           686,      -2.55341,      -23.8484,            0.,NA,NA,"",   3.29701E-03,  -53.9144E-06,   3.29657E-03,   834.101E-06
C:/temp/dataset/6/23_12.odb,Step-1,Increment      1: Step Time =    1.000,"PART-1-1",           687,      -4.82130,      -23.8875,            0.,NA,NA,"",   8.12041E-03,   1.53305E-03,   7.97439E-03,   2.10918E-03
C:/temp/dataset/6/23_12.odb,Step-1,Increment      1: Step Time =    1.000,"PART-1-1",           688,      -5.84083,      -25.1777,            0.,NA,NA,"",   7.63111E-03,   1.12495E-03,   7.54774E-03,   2.23162E-03
C:/temp/dataset/6/23_12.odb,Step-1,Increment      1: Step Time =    1.000,"PART-1-1",           689,           15.,      -26.7188,            0.,NA,NA,"",   13.2958E-03,  -8.15813E-03,   10.4988E-03,   3.12412E-03
C:/temp/dataset/6/23_12.odb,Step-1,Increment      1: Step Time =    1.000,"PART-1-1",           690,       10.9874,      -11.4075,            0.,NA,NA,"",   51.8511E-03,  -38.6374E-03,   34.5786E-03,   2.04054E-03
C:/temp/dataset/6/23_12.odb,Step-1,Increment      1: Step Time =    1.000,"PART-1-1",           691,       7.29436,      -19.7763,            0.,NA,NA,"",   20.9849E-03,  -14.1682E-03,   15.4799E-03,   2.84545E-03
C:/temp/dataset/6/23_12.odb,Step-1,Increment      1: Step Time =    1.000,"PART-1-1",           692,       7.78340,      -18.7858,            0.,NA,NA,"",   25.8055E-03,  -18.0462E-03,   18.4461E-03,   2.68482E-03
C:/temp/dataset/6/23_12.odb,Step-1,Increment      1: Step Time =    1.000,"PART-1-1",           693,       10.8970,      -2.99004,            0.,NA,NA,"",   48.1687E-03,  -21.1318E-03,   43.2859E-03,   870.363E-06
C:/temp/dataset/6/23_12.odb,Step-1,Increment      1: Step Time =    1.000,"PART-1-1",           694,       12.0828,      -3.88727,            0.,NA,NA,"",   45.3756E-03,  -25.8737E-03,   37.2759E-03,   366.520E-06
C:/temp/dataset/6/23_12.odb,Step-1,Increment      1: Step Time =    1.000,"PART-1-1",           695,           15.,       1.71875,            0.,NA,NA,"",   21.2921E-03,   8.10084E-03,   19.6909E-03,   378.742E-06
C:/temp/dataset/6/23_12.odb,Step-1,Increment      1: Step Time =    1.000,"PART-1-1",           696,       4.00043,  -427.215E-03,            0.,NA,NA,"",   104.406E-03,   1.03722E-03,   104.401E-03,   5.38929E-03
C:/temp/dataset/6/23_12.odb,Step-1,Increment      1: Step Time =    1.000,"PART-1-1",           697,       2.09609,       1.00148,            0.,NA,NA,"",   125.429E-03,   5.07961E-03,   125.327E-03,   5.09776E-03
C:/temp/dataset/6/23_12.odb,Step-1,Increment      1: Step Time =    1.000,"PART-1-1",           698,       2.38138,  -554.063E-03,            0.,NA,NA,"",   123.196E-03,   1.53202E-03,   123.186E-03,   5.77488E-03
C:/temp/dataset/6/23_12.odb,Step-1,Increment      1: Step Time =    1.000,"PART-1-1",           699,   35.7305E-03,       2.11113,            0.,NA,NA,"",   139.422E-03,   2.36515E-03,   139.402E-03,   4.68726E-03
C:/temp/dataset/6/23_12.odb,Step-1,Increment      1: Step Time =    1.000,"PART-1-1",           700,           -5.,       10.2083,            0.,NA,NA,"",   144.087E-03,  -70.8492E-03,   125.464E-03,   196.316E-06
C:/temp/dataset/6/23_12.odb,Step-1,Increment      1: Step Time =    1.000,"PART-1-1",           701,      -6.99901,       9.90050,            0.,NA,NA,"",   130.493E-03,  -68.6553E-03,   110.972E-03,   117.650E-06
C:/temp/dataset/6/23_12.odb,Step-1,Increment      1: Step Time =    1.000,"PART-1-1",           702,      -11.2396,       16.2208,            0.,NA,NA,"",   139.123E-03,  -113.315E-03,   80.7149E-03,   15.3518E-06
C:/temp/dataset/6/23_12.odb,Step-1,Increment      1: Step Time =    1.000,"PART-1-1",           703,      -10.2112,       15.1096,            0.,NA,NA,"",   137.369E-03,  -105.461E-03,   88.0239E-03,   21.7856E-06
C:/temp/dataset/6/23_12.odb,Step-1,Increment      1: Step Time =    1.000,"PART-1-1",           704,      -9.25876,       16.3324,            0.,NA,NA,"",   148.387E-03,  -114.179E-03,   94.7717E-03,   15.2316E-06
C:/temp/dataset/6/23_12.odb,Step-1,Increment      1: Step Time =    1.000,"PART-1-1",           705,      -10.2871,       17.4437,            0.,NA,NA,"",   150.131E-03,  -122.032E-03,   87.4508E-03,   6.86560E-06
C:/temp/dataset/6/23_12.odb,Step-1,Increment      1: Step Time =    1.000,"PART-1-1",           706,      -8.19479,       15.2434,            0.,NA,NA,"",   147.705E-03,  -106.496E-03,   102.349E-03,   19.0763E-06
C:/temp/dataset/6/23_12.odb,Step-1,Increment      1: Step Time =    1.000,"PART-1-1",           707,      -9.19446,       14.0222,            0.,NA,NA,"",   136.513E-03,  -97.7931E-03,   95.2482E-03,   39.8745E-06
C:/temp/dataset/6/23_12.odb,Step-1,Increment      1: Step Time =    1.000,"PART-1-1",           708,      -8.14331,       13.0080,            0.,NA,NA,"",   137.018E-03,  -90.6612E-03,   102.735E-03,   46.9968E-06
C:/temp/dataset/6/23_12.odb,Step-1,Increment      1: Step Time =    1.000,"PART-1-1",           709,          -15.,         18.75,            0.,NA,NA,"",   141.847E-03,  -131.181E-03,   53.9630E-03,   114.697E-09
C:/temp/dataset/6/23_12.odb,Step-1,Increment      1: Step Time =    1.000,"PART-1-1",           710,      -13.1826,       18.5751,            0.,NA,NA,"",   146.178E-03,  -129.985E-03,   66.8728E-03,   3.06507E-06
C:/temp/dataset/6/23_12.odb,Step-1,Increment      1: Step Time =    1.000,"PART-1-1",           711,      -11.2313,       23.3702,            0.,NA,NA,"",   182.811E-03,  -164.081E-03,   80.6047E-03,   239.549E-09
C:/temp/dataset/6/23_12.odb,Step-1,Increment      1: Step Time =    1.000,"PART-1-1",           712,      -10.8173,       24.9058,            0.,NA,NA,"",   193.895E-03,  -174.992E-03,   83.5050E-03,   214.788E-09
C:/temp/dataset/6/23_12.odb,Step-1,Increment      1: Step Time =    1.000,"PART-1-1",           713,      -13.5418,       24.7667,            0.,NA,NA,"",   185.395E-03,  -173.937E-03,   64.1672E-03,   195.516E-09
C:/temp/dataset/6/23_12.odb,Step-1,Increment      1: Step Time =    1.000,"PART-1-1",           714,      -12.2278,       25.9824,            0.,NA,NA,"",   196.824E-03,  -182.599E-03,   73.4648E-03,   202.937E-09
C:/temp/dataset/6/23_12.odb,Step-1,Increment      1: Step Time =    1.000,"PART-1-1",           715,          -15.,         26.25,            0.,NA,NA,"",   192.110E-03,  -184.429E-03,   53.7783E-03,   170.634E-09
C:/temp/dataset/6/23_12.odb,Step-1,Increment      1: Step Time =    1.000,"PART-1-1",           716,          -15.,         23.75,            0.,NA,NA,"",   175.162E-03,  -166.682E-03,   53.8407E-03,   480.767E-09
C:/temp/dataset/6/23_12.odb,Step-1,Increment      1: Step Time =    1.000,"PART-1-1",           717,      -12.5630,       23.3034,            0.,NA,NA,"",   178.379E-03,  -163.574E-03,   71.1526E-03,   252.486E-09
C:/temp/dataset/6/23_12.odb,Step-1,Increment      1: Step Time =    1.000,"PART-1-1",           718,      -11.1827,       13.8735,            0.,NA,NA,"",   126.182E-03,  -96.6319E-03,   81.1436E-03,   39.7089E-06
C:/temp/dataset/6/23_12.odb,Step-1,Increment      1: Step Time =    1.000,"PART-1-1",           719,      -10.1659,       12.7861,            0.,NA,NA,"",   125.370E-03,  -88.9610E-03,   88.3374E-03,   53.1218E-06
C:/temp/dataset/6/23_12.odb,Step-1,Increment      1: Step Time =    1.000,"PART-1-1",           720,      -11.4858,       20.4947,            0.,NA,NA,"",   163.888E-03,  -143.661E-03,   78.8711E-03,   1.03692E-06
C:/temp/dataset/6/23_12.odb,Step-1,Increment      1: Step Time =    1.000,"PART-1-1",           721,      -10.4732,       19.7487,            0.,NA,NA,"",   162.977E-03,  -138.391E-03,   86.0775E-03,   1.54275E-06
C:/temp/dataset/6/23_12.odb,Step-1,Increment      1: Step Time =    1.000,"PART-1-1",           722,      -10.9778,       21.7959,            0.,NA,NA,"",   173.721E-03,  -152.912E-03,   82.4445E-03,   316.386E-09
C:/temp/dataset/6/23_12.odb,Step-1,Increment      1: Step Time =    1.000,"PART-1-1",           723,      -9.13796,       11.7463,            0.,NA,NA,"",   125.734E-03,  -81.6509E-03,   95.6144E-03,   75.8922E-06
C:/temp/dataset/6/23_12.odb,Step-1,Increment      1: Step Time =    1.000,"PART-1-1",           724,      -11.1090,       11.4975,            0.,NA,NA,"",   114.122E-03,  -79.7386E-03,   81.6428E-03,   72.0186E-06
C:/temp/dataset/6/23_12.odb,Step-1,Increment      1: Step Time =    1.000,"PART-1-1",           725,      -7.95801,       5.48811,            0.,NA,NA,"",   110.624E-03,  -36.4148E-03,   104.459E-03,   1.17366E-03
C:/temp/dataset/6/23_12.odb,Step-1,Increment      1: Step Time =    1.000,"PART-1-1",           726,      -9.27172,       5.51676,            0.,NA,NA,"",   101.993E-03,  -37.5870E-03,   94.8149E-03,   663.921E-06
C:/temp/dataset/6/23_12.odb,Step-1,Increment      1: Step Time =    1.000,"PART-1-1",           727,      -9.10783,       4.19071,            0.,NA,NA,"",   100.854E-03,  -29.1536E-03,   96.5486E-03,   1.56570E-03
C:/temp/dataset/6/23_12.odb,Step-1,Increment      1: Step Time =    1.000,"PART-1-1",           728,      -7.79412,       4.16207,            0.,NA,NA,"",   110.212E-03,  -27.5932E-03,   106.702E-03,   2.03182E-03
C:/temp/dataset/6/23_12.odb,Step-1,Increment      1: Step Time =    1.000,"PART-1-1",           729,      -10.3652,   710.465E-03,            0.,NA,NA,"",   86.6866E-03,  -11.5445E-03,   85.9144E-03,   2.10674E-03
C:/temp/dataset/6/23_12.odb,Step-1,Increment      1: Step Time =    1.000,"PART-1-1",           730,      -11.5756,       2.14983,            0.,NA,NA,"",   80.0840E-03,  -18.4858E-03,   77.9212E-03,   1.30387E-03
C:/temp/dataset/6/23_12.odb,Step-1,Increment      1: Step Time =    1.000,"PART-1-1",           731,      -10.9514,      -7.70102,            0.,NA,NA,"",   73.5411E-03,   32.1846E-03,   66.1244E-03,   2.40489E-03
C:/temp/dataset/6/23_12.odb,Step-1,Increment      1: Step Time =    1.000,"PART-1-1",           732,      -11.1587,      -15.1039,            0.,NA,NA,"",   58.8006E-03,   35.8776E-03,   46.5865E-03,   3.39890E-03
C:/temp/dataset/6/23_12.odb,Step-1,Increment      1: Step Time =    1.000,"PART-1-1",           733,      -11.0422,      -12.5823,            0.,NA,NA,"",   66.1388E-03,   38.4959E-03,   53.7811E-03,   3.28164E-03
C:/temp/dataset/6/23_12.odb,Step-1,Increment      1: Step Time =    1.000,"PART-1-1",           734,      -9.98828,      -19.2456,            0.,NA,NA,"",   40.7344E-03,   23.7555E-03,   33.0903E-03,   3.96198E-03
C:/temp/dataset/6/23_12.odb,Step-1,Increment      1: Step Time =    1.000,"PART-1-1",           735,      -11.2222,      -17.6929,            0.,NA,NA,"",   49.3652E-03,   30.2234E-03,   39.0316E-03,   3.54851E-03
C:/temp/dataset/6/23_12.odb,Step-1,Increment      1: Step Time =    1.000,"PART-1-1",           736,      -9.72809,       26.4627,            0.,NA,NA,"",   207.219E-03,  -186.072E-03,   91.1975E-03,   170.304E-09
C:/temp/dataset/6/23_12.odb,Step-1,Increment      1: Step Time =    1.000,"PART-1-1",           737,      -8.07960,       10.7858,            0.,NA,NA,"",   127.484E-03,  -74.9005E-03,   103.160E-03,   87.6032E-06
C:/temp/dataset/6/23_12.odb,Step-1,Increment      1: Step Time =    1.000,"PART-1-1",           738,      -11.3320,       18.4953,            0.,NA,NA,"",   152.197E-03,  -129.468E-03,   80.0114E-03,   4.62608E-06
C:/temp/dataset/6/23_12.odb,Step-1,Increment      1: Step Time =    1.000,"PART-1-1",           739,      -10.4893,       6.32554,            0.,NA,NA,"",   96.3134E-03,  -43.4454E-03,   85.9579E-03,   398.552E-06
C:/temp/dataset/6/23_12.odb,Step-1,Increment      1: Step Time =    1.000,"PART-1-1",           740,      -11.8356,       7.66802,            0.,NA,NA,"",   92.9493E-03,  -52.7421E-03,   76.5366E-03,   76.6127E-06
C:/temp/dataset/6/23_12.odb,Step-1,Increment      1: Step Time =    1.000,"PART-1-1",           741,      -11.4125,       4.87054,            0.,NA,NA,"",   86.6144E-03,  -34.2381E-03,   79.5601E-03,   580.960E-06
C:/temp/dataset/6/23_12.odb,Step-1,Increment      1: Step Time =    1.000,"PART-1-1",           742,       10.1911,      -5.79504,            0.,NA,NA,"",   55.1947E-03,  -33.4219E-03,   43.9253E-03,   1.46006E-03
C:/temp/dataset/6/23_12.odb,Step-1,Increment      1: Step Time =    1.000,"PART-1-1",           743,       9.10708,      -6.74300,            0.,NA,NA,"",   58.6920E-03,  -35.5660E-03,   46.6885E-03,   2.32886E-03
C:/temp/dataset/6/23_12.odb,Step-1,Increment      1: Step Time =    1.000,"PART-1-1",           744,       11.1638,      -4.94873,            0.,NA,NA,"",   50.8605E-03,  -30.4683E-03,   40.7243E-03,   784.663E-06
C:/temp/dataset/6/23_12.odb,Step-1,Increment      1: Step Time =    1.000,"PART-1-1",           745,       10.4293,      -4.08570,            0.,NA,NA,"",   51.9300E-03,  -26.5541E-03,   44.6274E-03,   1.12063E-03
C:/temp/dataset/6/23_12.odb,Step-1,Increment      1: Step Time =    1.000,"PART-1-1",           746,       9.97038,      -14.8971,            0.,NA,NA,"",   42.7533E-03,  -31.6301E-03,   28.7642E-03,   2.53978E-03
C:/temp/dataset/6/23_12.odb,Step-1,Increment      1: Step Time =    1.000,"PART-1-1",           747,       9.96577,      -12.5508,            0.,NA,NA,"",   49.3347E-03,  -36.3370E-03,   33.3696E-03,   2.55179E-03
C:/temp/dataset/6/23_12.odb,Step-1,Increment      1: Step Time =    1.000,"PART-1-1",           748,       8.96159,      -13.7029,            0.,NA,NA,"",   45.5023E-03,  -33.2104E-03,   31.1051E-03,   2.89172E-03
C:/temp/dataset/6/23_12.odb,Step-1,Increment      1: Step Time =    1.000,"PART-1-1",           749,       6.92617,      -22.4012,            0.,NA,NA,"",   11.0664E-03,  -6.33214E-03,   9.07575E-03,   2.16407E-03
C:/temp/dataset/6/23_12.odb,Step-1,Increment      1: Step Time =    1.000,"PART-1-1",           750,       5.94981,      -23.5281,            0.,NA,NA,"",   6.54713E-03,  -3.39466E-03,   5.59832E-03,   1.55610E-03
C:/temp/dataset/6/23_12.odb,Step-1,Increment      1: Step Time =    1.000,"PART-1-1",           751,       7.18383,      -24.1705,            0.,NA,NA,"",   7.45477E-03,  -3.73207E-03,   6.45331E-03,   1.71129E-03
C:/temp/dataset/6/23_12.odb,Step-1,Increment      1: Step Time =    1.000,"PART-1-1",           752,       11.0968,      -20.2176,            0.,NA,NA,"",   26.3047E-03,  -17.6726E-03,   19.4837E-03,   2.49265E-03
C:/temp/dataset/6/23_12.odb,Step-1,Increment      1: Step Time =    1.000,"PART-1-1",           753,       6.43355,      -20.8801,            0.,NA,NA,"",   14.4971E-03,  -9.14625E-03,   11.2478E-03,   2.62766E-03
C:/temp/dataset/6/23_12.odb,Step-1,Increment      1: Step Time =    1.000,"PART-1-1",           754,       8.96045,      -11.3546,            0.,NA,NA,"",   52.0226E-03,  -36.8500E-03,   36.7209E-03,   3.00233E-03
C:/temp/dataset/6/23_12.odb,Step-1,Increment      1: Step Time =    1.000,"PART-1-1",           755,       8.17216,      -2.03287,            0.,NA,NA,"",   62.1554E-03,  -13.7562E-03,   60.6140E-03,   2.33552E-03
C:/temp/dataset/6/23_12.odb,Step-1,Increment      1: Step Time =    1.000,"PART-1-1",           756,       9.68046,      -2.49017,            0.,NA,NA,"",   53.3601E-03,  -17.8148E-03,   50.2984E-03,   1.53086E-03
C:/temp/dataset/6/23_12.odb,Step-1,Increment      1: Step Time =    1.000,"PART-1-1",           757,      -5.24373,       2.94722,            0.,NA,NA,"",   130.325E-03,  -16.2842E-03,   129.303E-03,   4.54359E-03
C:/temp/dataset/6/23_12.odb,Step-1,Increment      1: Step Time =    1.000,"PART-1-1",           758,      -6.20341,       3.93450,            0.,NA,NA,"",   121.976E-03,  -23.0015E-03,   119.788E-03,   3.55618E-03
C:/temp/dataset/6/23_12.odb,Step-1,Increment      1: Step Time =    1.000,"PART-1-1",           759,       7.87036,      -17.0650,            0.,NA,NA,"",   32.5107E-03,  -23.5191E-03,   22.4453E-03,   2.78941E-03
C:/temp/dataset/6/23_12.odb,Step-1,Increment      1: Step Time =    1.000,"PART-1-1",           760,      -8.77165,      -4.61616,            0.,NA,NA,"",   86.5206E-03,   15.1631E-03,   85.1815E-03,   3.41270E-03
C:/temp/dataset/6/23_12.odb,Step-1,Increment      1: Step Time =    1.000,"PART-1-1",           761,       8.90402,      -15.9271,            0.,NA,NA,"",   38.1613E-03,  -27.8931E-03,   26.0435E-03,   2.76540E-03
C:/temp/dataset/6/23_12.odb,Step-1,Increment      1: Step Time =    1.000,"PART-1-1",           762,       7.94609,      -14.8939,            0.,NA,NA,"",   40.4368E-03,  -29.3680E-03,   27.7967E-03,   3.03321E-03
C:/temp/dataset/6/23_12.odb,Step-1,Increment      1: Step Time =    1.000,"PART-1-1",           763,      -12.3095,       21.7291,            0.,NA,NA,"",   168.981E-03,  -152.404E-03,   72.9923E-03,   214.659E-09
C:/temp/dataset/6/23_12.odb,Step-1,Increment      1: Step Time =    1.000,"PART-1-1",           764,      -12.2938,       19.6789,            0.,NA,NA,"",   156.056E-03,  -137.847E-03,   73.1551E-03,   1.22825E-06
C:/temp/dataset/6/23_12.odb,Step-1,Increment      1: Step Time =    1.000,"PART-1-1",           765,       3.72209,      -1.78065,            0.,NA,NA,"",   105.894E-03,  -4.38816E-03,   105.803E-03,   5.59773E-03
C:/temp/dataset/6/23_12.odb,Step-1,Increment      1: Step Time =    1.000,"PART-1-1",           766,       6.45852,      -3.38063,            0.,NA,NA,"",   72.3023E-03,  -19.5027E-03,   69.6223E-03,   3.98201E-03
C:/temp/dataset/6/23_12.odb,Step-1,Increment      1: Step Time =    1.000,"PART-1-1",           767,       4.93556,      -2.38177,            0.,NA,NA,"",   89.6643E-03,  -9.68130E-03,   89.1401E-03,   5.47481E-03
C:/temp/dataset/6/23_12.odb,Step-1,Increment      1: Step Time =    1.000,"PART-1-1",           768,      -2.94024,   945.156E-03,            0.,NA,NA,"",   146.660E-03,  -8.10475E-03,   146.436E-03,   4.25934E-03
C:/temp/dataset/6/23_12.odb,Step-1,Increment      1: Step Time =    1.000,"PART-1-1",           769,      -1.69279,      -25.0756,            0.,NA,NA,"",   1.90137E-03,  -911.210E-06,   1.66881E-03,   560.862E-06
C:/temp/dataset/6/23_12.odb,Step-1,Increment      1: Step Time =    1.000,"PART-1-1",           770,      -6.93923,      -23.9860,            0.,NA,NA,"",   13.1212E-03,   4.32188E-03,   12.3890E-03,   3.21151E-03
C:/temp/dataset/6/23_12.odb,Step-1,Increment      1: Step Time =    1.000,"PART-1-1",           771,      -5.91970,      -22.6959,            0.,NA,NA,"",   14.4345E-03,   5.02076E-03,   13.5332E-03,   3.30661E-03
C:/temp/dataset/6/23_12.odb,Step-1,Increment      1: Step Time =    1.000,"PART-1-1",           772,      -12.2208,       17.3915,            0.,NA,NA,"",   142.208E-03,  -121.602E-03,   73.7289E-03,   5.98139E-06
C:/temp/dataset/6/23_12.odb,Step-1,Increment      1: Step Time =    1.000,"PART-1-1",           773,      -12.0398,       10.1961,            0.,NA,NA,"",   102.974E-03,  -70.4534E-03,   75.0994E-03,   80.6147E-06
C:/temp/dataset/6/23_12.odb,Step-1,Increment      1: Step Time =    1.000,"PART-1-1",           774,      -10.8637,      -2.91198,            0.,NA,NA,"",   76.7139E-03,   8.25332E-03,   76.2686E-03,   2.36249E-03
C:/temp/dataset/6/23_12.odb,Step-1,Increment      1: Step Time =    1.000,"PART-1-1",           775,      -9.61620,      -11.5179,            0.,NA,NA,"",   69.8632E-03,   36.6028E-03,   59.5072E-03,   4.05531E-03
C:/temp/dataset/6/23_12.odb,Step-1,Increment      1: Step Time =    1.000,"PART-1-1",           776,      -11.8201,      -24.5932,            0.,NA,NA,"",   20.7693E-03,   11.5075E-03,   17.2899E-03,   3.97883E-03
C:/temp/dataset/6/23_12.odb,Step-1,Increment      1: Step Time =    1.000,"PART-1-1",           777,      -11.0718,      -23.4296,            0.,NA,NA,"",   24.1461E-03,   13.1777E-03,   20.2332E-03,   3.88908E-03
C:/temp/dataset/6/23_12.odb,Step-1,Increment      1: Step Time =    1.000,"PART-1-1",           778,       4.75405,      -23.0816,            0.,NA,NA,"",   5.01817E-03,  -2.85526E-03,   4.12668E-03,   1.19016E-03
C:/temp/dataset/6/23_12.odb,Step-1,Increment      1: Step Time =    1.000,"PART-1-1",           779,       5.55198,      -21.9930,            0.,NA,NA,"",   8.70337E-03,  -5.15513E-03,   7.01236E-03,   1.95140E-03
C:/temp/dataset/6/23_12.odb,Step-1,Increment      1: Step Time =    1.000,"PART-1-1",           780,       7.01336,      -26.0950,            0.,NA,NA,"",   3.96487E-03,  -1.45467E-03,   3.68837E-03,   1.29025E-03
C:/temp/dataset/6/23_12.odb,Step-1,Increment      1: Step Time =    1.000,"PART-1-1",           781,       4.10189,      -23.9882,            0.,NA,NA,"",   3.00832E-03,  -1.67455E-03,   2.49918E-03,   735.397E-06
C:/temp/dataset/6/23_12.odb,Step-1,Increment      1: Step Time =    1.000,"PART-1-1",           782,       4.14804,      -25.2051,            0.,NA,NA,"",   2.13026E-03,  -963.092E-06,   1.90012E-03,   599.338E-06
C:/temp/dataset/6/23_12.odb,Step-1,Increment      1: Step Time =    1.000,"PART-1-1",           783,      -12.1264,       12.6156,            0.,NA,NA,"",   115.014E-03,  -87.6379E-03,   74.4834E-03,   48.4839E-06
C:/temp/dataset/6/23_12.odb,Step-1,Increment      1: Step Time =    1.000,"PART-1-1",           784,      -12.1709,       15.0185,            0.,NA,NA,"",   128.317E-03,  -104.735E-03,   74.1339E-03,   19.7877E-06
C:/temp/dataset/6/23_12.odb,Step-1,Increment      1: Step Time =    1.000,"PART-1-1",           785,      -10.3060,       3.43341,            0.,NA,NA,"",   91.2318E-03,  -25.4702E-03,   87.6043E-03,   1.23545E-03
C:/temp/dataset/6/23_12.odb,Step-1,Increment      1: Step Time =    1.000,"PART-1-1",           786,      -9.35047,  -311.861E-03,            0.,NA,NA,"",   93.0338E-03,  -7.69106E-03,   92.7153E-03,   3.17582E-03
C:/temp/dataset/6/23_12.odb,Step-1,Increment      1: Step Time =    1.000,"PART-1-1",           787,      -9.47746,      -1.56252,            0.,NA,NA,"",   89.0526E-03,  -1.49195E-03,   89.0401E-03,   3.42248E-03
C:/temp/dataset/6/23_12.odb,Step-1,Increment      1: Step Time =    1.000,"PART-1-1",           788,      -7.56677,      -1.93629,            0.,NA,NA,"",   105.244E-03,  -4.34112E-03,   105.155E-03,   5.21851E-03
C:/temp/dataset/6/23_12.odb,Step-1,Increment      1: Step Time =    1.000,"PART-1-1",           789,      -9.57637,      -3.06595,            0.,NA,NA,"",   84.6697E-03,   7.02162E-03,   84.3780E-03,   3.27320E-03
C:/temp/dataset/6/23_12.odb,Step-1,Increment      1: Step Time =    1.000,"PART-1-1",           790,      -8.24618,      -3.39128,            0.,NA,NA,"",   93.5851E-03,   5.89704E-03,   93.3991E-03,   4.67136E-03
C:/temp/dataset/6/23_12.odb,Step-1,Increment      1: Step Time =    1.000,"PART-1-1",           791,       7.98922,      -7.69035,            0.,NA,NA,"",   60.4543E-03,  -36.0814E-03,   48.5063E-03,   3.79048E-03
C:/temp/dataset/6/23_12.odb,Step-1,Increment      1: Step Time =    1.000,"PART-1-1",           792,       7.96586,      -10.1263,            0.,NA,NA,"",   55.0838E-03,  -36.5164E-03,   41.2405E-03,   3.64326E-03
C:/temp/dataset/6/23_12.odb,Step-1,Increment      1: Step Time =    1.000,"PART-1-1",           793,       7.95460,      -12.5381,            0.,NA,NA,"",   48.2026E-03,  -34.0127E-03,   34.1559E-03,   3.32050E-03
C:/temp/dataset/6/23_12.odb,Step-1,Increment      1: Step Time =    1.000,"PART-1-1",           794,      -6.90534,       4.84567,            0.,NA,NA,"",   116.909E-03,  -30.5004E-03,   112.860E-03,   2.21995E-03
C:/temp/dataset/6/23_12.odb,Step-1,Increment      1: Step Time =    1.000,"PART-1-1",           795,      -7.09219,       3.25090,            0.,NA,NA,"",   115.456E-03,  -21.6094E-03,   113.416E-03,   3.39042E-03
C:/temp/dataset/6/23_12.odb,Step-1,Increment      1: Step Time =    1.000,"PART-1-1",           796,      -5.99438,      -2.38990,            0.,NA,NA,"",   122.440E-03,  -7.50229E-03,   122.210E-03,   8.33652E-03
C:/temp/dataset/6/23_12.odb,Step-1,Increment      1: Step Time =    1.000,"PART-1-1",           797,      -8.16339,       2.56404,            0.,NA,NA,"",   106.738E-03,  -19.9729E-03,   104.853E-03,   2.74323E-03
C:/temp/dataset/6/23_12.odb,Step-1,Increment      1: Step Time =    1.000,"PART-1-1",           798,      -6.16245,       1.98671,            0.,NA,NA,"",   123.791E-03,  -15.7621E-03,   122.783E-03,   4.61328E-03
C:/temp/dataset/6/23_12.odb,Step-1,Increment      1: Step Time =    1.000,"PART-1-1",           799,      -9.36160,       1.80674,            0.,NA,NA,"",   96.2965E-03,  -17.0745E-03,   94.7707E-03,   2.52786E-03
C:/temp/dataset/6/23_12.odb,Step-1,Increment      1: Step Time =    1.000,"PART-1-1",           800,      -4.18828,       1.89018,            0.,NA,NA,"",   138.658E-03,  -11.7028E-03,   138.163E-03,   4.54651E-03
C:/temp/dataset/6/23_12.odb,Step-1,Increment      1: Step Time =    1.000,"PART-1-1",           801,      -2.02478,       2.01876,            0.,NA,NA,"",   145.187E-03,  -4.96558E-03,   145.102E-03,   4.42462E-03
C:/temp/dataset/6/23_12.odb,Step-1,Increment      1: Step Time =    1.000,"PART-1-1",           802,       5.29765,      -24.4346,            0.,NA,NA,"",   4.14969E-03,  -1.95060E-03,   3.66266E-03,   1.05467E-03
C:/temp/dataset/6/23_12.odb,Step-1,Increment      1: Step Time =    1.000,"PART-1-1",           803,       8.18651,      -25.0309,            0.,NA,NA,"",   7.16168E-03,  -3.46747E-03,   6.26628E-03,   1.83250E-03
C:/temp/dataset/6/23_12.odb,Step-1,Increment      1: Step Time =    1.000,"PART-1-1",           804,       6.01068,      -25.2345,            0.,NA,NA,"",   4.06161E-03,  -1.66285E-03,   3.70562E-03,   1.16223E-03
