ODB Name,Step,Frame,Part Instance Name,    êﬂì_ÉâÉxÉã,X,Y,Z,Section Name,Material Name,Section Point,   U-Magnitude,          U-U1,          U-U2,       S-Mises
C:/temp/dataset/6/23_20.odb,Step-1,Increment      1: Step Time =    1.000,"PART-1-1",             1,            5.,           -5.,            0.,NA,NA,"",   123.645E-03,  -45.1461E-03,   115.108E-03,   13.9338E-03
C:/temp/dataset/6/23_20.odb,Step-1,Increment      1: Step Time =    1.000,"PART-1-1",             2,            0.,           -5.,            0.,NA,NA,"",   241.606E-03,  -36.9797E-03,   238.760E-03,   13.5258E-03
C:/temp/dataset/6/23_20.odb,Step-1,Increment      1: Step Time =    1.000,"PART-1-1",             3,            5.,      -10.0250,            0.,NA,NA,"",   80.9392E-03,  -47.8678E-03,   65.2673E-03,   7.76841E-03
C:/temp/dataset/6/23_20.odb,Step-1,Increment      1: Step Time =    1.000,"PART-1-1",             4,            5.,      -15.0500,            0.,NA,NA,"",   51.1794E-03,  -37.7340E-03,   34.5757E-03,   5.70820E-03
C:/temp/dataset/6/23_20.odb,Step-1,Increment      1: Step Time =    1.000,"PART-1-1",             5,            5.,          -20.,            0.,NA,NA,"",   19.6139E-03,  -14.7745E-03,   12.9003E-03,   3.88486E-03
C:/temp/dataset/6/23_20.odb,Step-1,Increment      1: Step Time =    1.000,"PART-1-1",             6,            0.,          -20.,            0.,NA,NA,"",   4.15779E-03,   1.19645E-03,   3.98192E-03,   3.16769E-03
C:/temp/dataset/6/23_20.odb,Step-1,Increment      1: Step Time =    1.000,"PART-1-1",             7,           -5.,          -20.,            0.,NA,NA,"",   32.3319E-03,   17.0470E-03,   27.4727E-03,   6.91765E-03
C:/temp/dataset/6/23_20.odb,Step-1,Increment      1: Step Time =    1.000,"PART-1-1",             8,           -5.,      -14.9750,            0.,NA,NA,"",   76.2460E-03,   33.6145E-03,   68.4363E-03,   9.22428E-03
C:/temp/dataset/6/23_20.odb,Step-1,Increment      1: Step Time =    1.000,"PART-1-1",             9,           -5.,      -9.95000,            0.,NA,NA,"",   120.473E-03,   34.3198E-03,   115.482E-03,   11.4986E-03
C:/temp/dataset/6/23_20.odb,Step-1,Increment      1: Step Time =    1.000,"PART-1-1",            10,           -5.,           -5.,            0.,NA,NA,"",   193.958E-03,   13.4139E-03,   193.493E-03,   20.0556E-03
C:/temp/dataset/6/23_20.odb,Step-1,Increment      1: Step Time =    1.000,"PART-1-1",            11,           15.,          -30.,            0.,NA,NA,"",            0.,  -2.20437E-39,   3.85414E-39,   7.50944E-03
C:/temp/dataset/6/23_20.odb,Step-1,Increment      1: Step Time =    1.000,"PART-1-1",            12,          -15.,          -30.,            0.,NA,NA,"",            0.,   3.36739E-39,   5.77827E-39,   10.9847E-03
C:/temp/dataset/6/23_20.odb,Step-1,Increment      1: Step Time =    1.000,"PART-1-1",            13,           15.,        -21.25,            0.,NA,NA,"",   46.6531E-03,  -28.9847E-03,   36.5568E-03,   3.69589E-03
C:/temp/dataset/6/23_20.odb,Step-1,Increment      1: Step Time =    1.000,"PART-1-1",            14,           15.,         -12.5,            0.,NA,NA,"",   77.9401E-03,  -59.0398E-03,   50.8819E-03,   274.619E-06
C:/temp/dataset/6/23_20.odb,Step-1,Increment      1: Step Time =    1.000,"PART-1-1",            15,           15.,         -3.75,            0.,NA,NA,"",   53.7780E-03,  -39.0640E-03,   36.9605E-03,   2.13452E-03
C:/temp/dataset/6/23_20.odb,Step-1,Increment      1: Step Time =    1.000,"PART-1-1",            16,           15.,            5.,            0.,NA,NA,"",   51.0831E-03,   41.7635E-03,   29.4159E-03,   48.5168E-06
C:/temp/dataset/6/23_20.odb,Step-1,Increment      1: Step Time =    1.000,"PART-1-1",            17,           10.,            5.,            0.,NA,NA,"",   90.2525E-03,   43.5769E-03,   79.0353E-03,   767.218E-06
C:/temp/dataset/6/23_20.odb,Step-1,Increment      1: Step Time =    1.000,"PART-1-1",            18,            5.,            5.,            0.,NA,NA,"",   146.757E-03,   42.9791E-03,   140.323E-03,   2.59825E-03
C:/temp/dataset/6/23_20.odb,Step-1,Increment      1: Step Time =    1.000,"PART-1-1",            19,            0.,            5.,            0.,NA,NA,"",   197.576E-03,   11.8432E-03,   197.220E-03,   11.0059E-03
C:/temp/dataset/6/23_20.odb,Step-1,Increment      1: Step Time =    1.000,"PART-1-1",            20,           -5.,            5.,            0.,NA,NA,"",   195.575E-03,  -42.2883E-03,   190.949E-03,   7.95632E-03
C:/temp/dataset/6/23_20.odb,Step-1,Increment      1: Step Time =    1.000,"PART-1-1",            21,           -5.,         11.25,            0.,NA,NA,"",   222.184E-03,  -119.956E-03,   187.020E-03,   157.075E-06
C:/temp/dataset/6/23_20.odb,Step-1,Increment      1: Step Time =    1.000,"PART-1-1",            22,           -5.,          17.5,            0.,NA,NA,"",   263.524E-03,  -186.261E-03,   186.418E-03,   2.19534E-06
C:/temp/dataset/6/23_20.odb,Step-1,Increment      1: Step Time =    1.000,"PART-1-1",            23,           -5.,         23.75,            0.,NA,NA,"",   313.768E-03,  -252.641E-03,   186.071E-03,   711.598E-09
C:/temp/dataset/6/23_20.odb,Step-1,Increment      1: Step Time =    1.000,"PART-1-1",            24,           -5.,           30.,            0.,NA,NA,"",   369.161E-03,  -319.042E-03,   185.719E-03,   14.0616E-09
C:/temp/dataset/6/23_20.odb,Step-1,Increment      1: Step Time =    1.000,"PART-1-1",            25,          -10.,           30.,            0.,NA,NA,"",   345.240E-03,  -318.760E-03,   132.599E-03,   154.570E-09
C:/temp/dataset/6/23_20.odb,Step-1,Increment      1: Step Time =    1.000,"PART-1-1",            26,          -15.,           30.,            0.,NA,NA,"",   328.246E-03,  -318.478E-03,   79.4778E-03,   20.2388E-09
C:/temp/dataset/6/23_20.odb,Step-1,Increment      1: Step Time =    1.000,"PART-1-1",            27,          -15.,          22.5,            0.,NA,NA,"",   251.808E-03,  -238.796E-03,   79.8991E-03,   1.07491E-06
C:/temp/dataset/6/23_20.odb,Step-1,Increment      1: Step Time =    1.000,"PART-1-1",            28,          -15.,           15.,            0.,NA,NA,"",   178.197E-03,  -159.060E-03,   80.3361E-03,   17.7567E-06
C:/temp/dataset/6/23_20.odb,Step-1,Increment      1: Step Time =    1.000,"PART-1-1",            29,          -15.,           7.5,            0.,NA,NA,"",   114.397E-03,  -80.0054E-03,   81.7662E-03,   335.855E-06
C:/temp/dataset/6/23_20.odb,Step-1,Increment      1: Step Time =    1.000,"PART-1-1",            30,          -15.,            0.,            0.,NA,NA,"",   82.1550E-03,  -10.6647E-03,   81.4599E-03,   994.252E-06
C:/temp/dataset/6/23_20.odb,Step-1,Increment      1: Step Time =    1.000,"PART-1-1",            31,          -15.,          -7.5,            0.,NA,NA,"",   90.2588E-03,   47.5789E-03,   76.7001E-03,   59.4584E-06
C:/temp/dataset/6/23_20.odb,Step-1,Increment      1: Step Time =    1.000,"PART-1-1",            32,          -15.,          -15.,            0.,NA,NA,"",   92.4472E-03,   58.4275E-03,   71.6430E-03,   2.14005E-03
C:/temp/dataset/6/23_20.odb,Step-1,Increment      1: Step Time =    1.000,"PART-1-1",            33,          -15.,         -22.5,            0.,NA,NA,"",   56.2992E-03,   33.2387E-03,   45.4399E-03,   5.55649E-03
C:/temp/dataset/6/23_20.odb,Step-1,Increment      1: Step Time =    1.000,"PART-1-1",            34,           2.5,           -5.,            0.,NA,NA,"",   183.455E-03,  -46.7715E-03,   177.393E-03,   5.01559E-03
C:/temp/dataset/6/23_20.odb,Step-1,Increment      1: Step Time =    1.000,"PART-1-1",            35,            5.,      -7.51250,            0.,NA,NA,"",   96.6818E-03,  -47.8550E-03,   84.0076E-03,   10.3575E-03
C:/temp/dataset/6/23_20.odb,Step-1,Increment      1: Step Time =    1.000,"PART-1-1",            36,            5.,      -12.5375,            0.,NA,NA,"",   65.9662E-03,  -44.5812E-03,   48.6215E-03,   6.79455E-03
C:/temp/dataset/6/23_20.odb,Step-1,Increment      1: Step Time =    1.000,"PART-1-1",            37,            5.,      -17.5250,            0.,NA,NA,"",   36.5165E-03,  -28.2863E-03,   23.0941E-03,   4.80002E-03
C:/temp/dataset/6/23_20.odb,Step-1,Increment      1: Step Time =    1.000,"PART-1-1",            38,           2.5,          -20.,            0.,NA,NA,"",   7.59042E-03,  -6.06262E-03,   4.56719E-03,   3.39124E-03
C:/temp/dataset/6/23_20.odb,Step-1,Increment      1: Step Time =    1.000,"PART-1-1",            39,          -2.5,          -20.,            0.,NA,NA,"",   12.4002E-03,   8.74729E-03,   8.78913E-03,   3.52991E-03
C:/temp/dataset/6/23_20.odb,Step-1,Increment      1: Step Time =    1.000,"PART-1-1",            40,           -5.,      -17.4875,            0.,NA,NA,"",   55.8465E-03,   27.3630E-03,   48.6837E-03,   8.74262E-03
C:/temp/dataset/6/23_20.odb,Step-1,Increment      1: Step Time =    1.000,"PART-1-1",            41,           -5.,      -12.4625,            0.,NA,NA,"",   97.4317E-03,   36.2754E-03,   90.4269E-03,   10.3144E-03
C:/temp/dataset/6/23_20.odb,Step-1,Increment      1: Step Time =    1.000,"PART-1-1",            42,           -5.,      -7.47500,            0.,NA,NA,"",   144.628E-03,   28.6187E-03,   141.768E-03,   14.3450E-03
C:/temp/dataset/6/23_20.odb,Step-1,Increment      1: Step Time =    1.000,"PART-1-1",            43,          -2.5,           -5.,            0.,NA,NA,"",   267.046E-03,  -5.63496E-03,   266.987E-03,   25.4692E-03
C:/temp/dataset/6/23_20.odb,Step-1,Increment      1: Step Time =    1.000,"PART-1-1",            44,          12.5,          -30.,            0.,NA,NA,"",            0.,  -2.59715E-39,   6.41348E-39,   2.97544E-03
C:/temp/dataset/6/23_20.odb,Step-1,Increment      1: Step Time =    1.000,"PART-1-1",            45,           10.,          -30.,            0.,NA,NA,"",            0.,   800.946E-42,   4.08680E-39,   2.40521E-03
C:/temp/dataset/6/23_20.odb,Step-1,Increment      1: Step Time =    1.000,"PART-1-1",            46,           7.5,          -30.,            0.,NA,NA,"",            0.,   794.406E-42,   3.00625E-39,   1.62334E-03
C:/temp/dataset/6/23_20.odb,Step-1,Increment      1: Step Time =    1.000,"PART-1-1",            47,            5.,          -30.,            0.,NA,NA,"",            0.,  -98.2114E-42,   1.92975E-39,   992.642E-06
C:/temp/dataset/6/23_20.odb,Step-1,Increment      1: Step Time =    1.000,"PART-1-1",            48,           2.5,          -30.,            0.,NA,NA,"",            0.,  -385.770E-42,   1.16007E-39,   532.446E-06
C:/temp/dataset/6/23_20.odb,Step-1,Increment      1: Step Time =    1.000,"PART-1-1",            49,            0.,          -30.,            0.,NA,NA,"",            0.,  -115.754E-42,   696.581E-42,   742.283E-06
C:/temp/dataset/6/23_20.odb,Step-1,Increment      1: Step Time =    1.000,"PART-1-1",            50,          -2.5,          -30.,            0.,NA,NA,"",            0.,  -1.45159E-39,   2.48859E-39,   1.41388E-03
C:/temp/dataset/6/23_20.odb,Step-1,Increment      1: Step Time =    1.000,"PART-1-1",            51,           -5.,          -30.,            0.,NA,NA,"",            0.,  -1.85277E-39,   4.26424E-39,   2.16754E-03
C:/temp/dataset/6/23_20.odb,Step-1,Increment      1: Step Time =    1.000,"PART-1-1",            52,          -7.5,          -30.,            0.,NA,NA,"",            0.,  -1.79746E-39,   6.15845E-39,   2.98638E-03
C:/temp/dataset/6/23_20.odb,Step-1,Increment      1: Step Time =    1.000,"PART-1-1",            53,          -10.,          -30.,            0.,NA,NA,"",            0.,   2.68253E-39,   7.57534E-39,   3.96581E-03
C:/temp/dataset/6/23_20.odb,Step-1,Increment      1: Step Time =    1.000,"PART-1-1",            54,         -12.5,          -30.,            0.,NA,NA,"",            0.,   1.91956E-39,   8.39294E-39,   4.64138E-03
C:/temp/dataset/6/23_20.odb,Step-1,Increment      1: Step Time =    1.000,"PART-1-1",            55,           15.,      -23.4375,            0.,NA,NA,"",   35.8470E-03,  -21.4756E-03,   28.7021E-03,   4.23330E-03
C:/temp/dataset/6/23_20.odb,Step-1,Increment      1: Step Time =    1.000,"PART-1-1",            56,           15.,       -25.625,            0.,NA,NA,"",   25.1488E-03,  -15.0803E-03,   20.1257E-03,   4.42166E-03
C:/temp/dataset/6/23_20.odb,Step-1,Increment      1: Step Time =    1.000,"PART-1-1",            57,           15.,      -27.8125,            0.,NA,NA,"",   14.5588E-03,  -9.17926E-03,   11.3005E-03,   5.19812E-03
C:/temp/dataset/6/23_20.odb,Step-1,Increment      1: Step Time =    1.000,"PART-1-1",            58,           15.,      -14.6875,            0.,NA,NA,"",   73.5554E-03,  -53.5973E-03,   50.3758E-03,   808.739E-06
C:/temp/dataset/6/23_20.odb,Step-1,Increment      1: Step Time =    1.000,"PART-1-1",            59,           15.,       -16.875,            0.,NA,NA,"",   66.3301E-03,  -46.0321E-03,   47.7569E-03,   1.88010E-03
C:/temp/dataset/6/23_20.odb,Step-1,Increment      1: Step Time =    1.000,"PART-1-1",            60,           15.,      -19.0625,            0.,NA,NA,"",   57.0851E-03,  -37.4573E-03,   43.0774E-03,   2.88964E-03
C:/temp/dataset/6/23_20.odb,Step-1,Increment      1: Step Time =    1.000,"PART-1-1",            61,           15.,       -5.9375,            0.,NA,NA,"",   66.3772E-03,  -51.7750E-03,   41.5365E-03,   2.36714E-03
C:/temp/dataset/6/23_20.odb,Step-1,Increment      1: Step Time =    1.000,"PART-1-1",            62,           15.,        -8.125,            0.,NA,NA,"",   74.9171E-03,  -59.1211E-03,   46.0137E-03,   2.04406E-03
C:/temp/dataset/6/23_20.odb,Step-1,Increment      1: Step Time =    1.000,"PART-1-1",            63,           15.,      -10.3125,            0.,NA,NA,"",   78.6513E-03,  -61.2477E-03,   49.3431E-03,   1.26808E-03
C:/temp/dataset/6/23_20.odb,Step-1,Increment      1: Step Time =    1.000,"PART-1-1",            64,           15.,        2.8125,            0.,NA,NA,"",   35.7565E-03,   19.9896E-03,   29.6470E-03,   265.814E-06
C:/temp/dataset/6/23_20.odb,Step-1,Increment      1: Step Time =    1.000,"PART-1-1",            65,           15.,      625.E-03,            0.,NA,NA,"",   30.8605E-03,  -1.68070E-03,   30.8147E-03,   868.978E-06
C:/temp/dataset/6/23_20.odb,Step-1,Increment      1: Step Time =    1.000,"PART-1-1",            66,           15.,       -1.5625,            0.,NA,NA,"",   39.7870E-03,  -21.8683E-03,   33.2382E-03,   1.55006E-03
C:/temp/dataset/6/23_20.odb,Step-1,Increment      1: Step Time =    1.000,"PART-1-1",            67,          12.5,            5.,            0.,NA,NA,"",   68.3497E-03,   42.0743E-03,   53.8649E-03,   318.239E-06
C:/temp/dataset/6/23_20.odb,Step-1,Increment      1: Step Time =    1.000,"PART-1-1",            68,           7.5,            5.,            0.,NA,NA,"",   116.667E-03,   45.0920E-03,   107.601E-03,   184.403E-06
C:/temp/dataset/6/23_20.odb,Step-1,Increment      1: Step Time =    1.000,"PART-1-1",            69,           2.5,            5.,            0.,NA,NA,"",   176.123E-03,   32.4757E-03,   173.103E-03,   7.02577E-03
C:/temp/dataset/6/23_20.odb,Step-1,Increment      1: Step Time =    1.000,"PART-1-1",            70,          -2.5,            5.,            0.,NA,NA,"",   204.346E-03,  -14.8527E-03,   203.806E-03,   12.2063E-03
C:/temp/dataset/6/23_20.odb,Step-1,Increment      1: Step Time =    1.000,"PART-1-1",            71,           -5.,       9.16667,            0.,NA,NA,"",   211.521E-03,  -97.5592E-03,   187.679E-03,   446.965E-06
C:/temp/dataset/6/23_20.odb,Step-1,Increment      1: Step Time =    1.000,"PART-1-1",            72,           -5.,       7.08333,            0.,NA,NA,"",   202.975E-03,  -73.8575E-03,   189.060E-03,   2.01478E-03
C:/temp/dataset/6/23_20.odb,Step-1,Increment      1: Step Time =    1.000,"PART-1-1",            73,           -5.,       15.4167,            0.,NA,NA,"",   248.489E-03,  -164.157E-03,   186.546E-03,   14.5286E-06
C:/temp/dataset/6/23_20.odb,Step-1,Increment      1: Step Time =    1.000,"PART-1-1",            74,           -5.,       13.3333,            0.,NA,NA,"",   234.624E-03,  -142.065E-03,   186.724E-03,   57.2652E-06
C:/temp/dataset/6/23_20.odb,Step-1,Increment      1: Step Time =    1.000,"PART-1-1",            75,           -5.,       21.6667,            0.,NA,NA,"",   296.311E-03,  -230.509E-03,   186.187E-03,   1.33133E-06
C:/temp/dataset/6/23_20.odb,Step-1,Increment      1: Step Time =    1.000,"PART-1-1",            76,           -5.,       19.5833,            0.,NA,NA,"",   279.519E-03,  -208.381E-03,   186.302E-03,   1.42204E-06
C:/temp/dataset/6/23_20.odb,Step-1,Increment      1: Step Time =    1.000,"PART-1-1",            77,           -5.,       27.9167,            0.,NA,NA,"",   350.271E-03,  -296.908E-03,   185.837E-03,   59.8167E-09
C:/temp/dataset/6/23_20.odb,Step-1,Increment      1: Step Time =    1.000,"PART-1-1",            78,           -5.,       25.8333,            0.,NA,NA,"",   331.783E-03,  -274.775E-03,   185.954E-03,   278.849E-09
C:/temp/dataset/6/23_20.odb,Step-1,Increment      1: Step Time =    1.000,"PART-1-1",            79,          -7.5,           30.,            0.,NA,NA,"",   356.412E-03,  -318.901E-03,   159.159E-03,   69.0260E-09
C:/temp/dataset/6/23_20.odb,Step-1,Increment      1: Step Time =    1.000,"PART-1-1",            80,         -12.5,           30.,            0.,NA,NA,"",   335.801E-03,  -318.619E-03,   106.038E-03,   67.1838E-09
C:/temp/dataset/6/23_20.odb,Step-1,Increment      1: Step Time =    1.000,"PART-1-1",            81,          -15.,           25.,            0.,NA,NA,"",   277.085E-03,  -265.358E-03,   79.7595E-03,   442.053E-09
C:/temp/dataset/6/23_20.odb,Step-1,Increment      1: Step Time =    1.000,"PART-1-1",            82,          -15.,          27.5,            0.,NA,NA,"",   302.581E-03,  -291.918E-03,   79.6189E-03,   81.6163E-09
C:/temp/dataset/6/23_20.odb,Step-1,Increment      1: Step Time =    1.000,"PART-1-1",            83,          -15.,          17.5,            0.,NA,NA,"",   202.228E-03,  -185.656E-03,   80.1771E-03,   1.24262E-06
C:/temp/dataset/6/23_20.odb,Step-1,Increment      1: Step Time =    1.000,"PART-1-1",            84,          -15.,           20.,            0.,NA,NA,"",   226.822E-03,  -212.231E-03,   80.0373E-03,   1.61556E-06
C:/temp/dataset/6/23_20.odb,Step-1,Increment      1: Step Time =    1.000,"PART-1-1",            85,          -15.,           10.,            0.,NA,NA,"",   133.383E-03,  -105.968E-03,   81.0053E-03,   204.281E-06
C:/temp/dataset/6/23_20.odb,Step-1,Increment      1: Step Time =    1.000,"PART-1-1",            86,          -15.,          12.5,            0.,NA,NA,"",   155.038E-03,  -132.458E-03,   80.5702E-03,   73.0204E-06
C:/temp/dataset/6/23_20.odb,Step-1,Increment      1: Step Time =    1.000,"PART-1-1",            87,          -15.,           2.5,            0.,NA,NA,"",   88.9674E-03,  -32.3849E-03,   82.8638E-03,   300.157E-06
C:/temp/dataset/6/23_20.odb,Step-1,Increment      1: Step Time =    1.000,"PART-1-1",            88,          -15.,            5.,            0.,NA,NA,"",   99.4590E-03,  -55.3053E-03,   82.6645E-03,   239.917E-06
C:/temp/dataset/6/23_20.odb,Step-1,Increment      1: Step Time =    1.000,"PART-1-1",            89,          -15.,           -5.,            0.,NA,NA,"",   83.2178E-03,   31.1894E-03,   77.1519E-03,   539.360E-06
C:/temp/dataset/6/23_20.odb,Step-1,Increment      1: Step Time =    1.000,"PART-1-1",            90,          -15.,          -2.5,            0.,NA,NA,"",   79.7163E-03,   10.8247E-03,   78.9779E-03,   1.10357E-03
C:/temp/dataset/6/23_20.odb,Step-1,Increment      1: Step Time =    1.000,"PART-1-1",            91,          -15.,         -12.5,            0.,NA,NA,"",   96.6780E-03,   60.7588E-03,   75.1998E-03,   1.06730E-03
C:/temp/dataset/6/23_20.odb,Step-1,Increment      1: Step Time =    1.000,"PART-1-1",            92,          -15.,          -10.,            0.,NA,NA,"",   95.7657E-03,   57.4808E-03,   76.5965E-03,   312.807E-06
C:/temp/dataset/6/23_20.odb,Step-1,Increment      1: Step Time =    1.000,"PART-1-1",            93,          -15.,          -20.,            0.,NA,NA,"",   71.1977E-03,   42.9626E-03,   56.7744E-03,   4.51110E-03
C:/temp/dataset/6/23_20.odb,Step-1,Increment      1: Step Time =    1.000,"PART-1-1",            94,          -15.,         -17.5,            0.,NA,NA,"",   83.6462E-03,   51.9518E-03,   65.5568E-03,   3.32413E-03
C:/temp/dataset/6/23_20.odb,Step-1,Increment      1: Step Time =    1.000,"PART-1-1",            95,          -15.,         -27.5,            0.,NA,NA,"",   23.4758E-03,   14.8286E-03,   18.1996E-03,   7.12469E-03
C:/temp/dataset/6/23_20.odb,Step-1,Increment      1: Step Time =    1.000,"PART-1-1",            96,          -15.,          -25.,            0.,NA,NA,"",   40.2019E-03,   23.9706E-03,   32.2739E-03,   6.03688E-03
C:/temp/dataset/6/23_20.odb,Step-1,Increment      1: Step Time =    1.000,"PART-1-1",            97,       13.0047,      -3.80353,            0.,NA,NA,"",   64.5545E-03,  -40.5281E-03,   50.2469E-03,   540.584E-06
C:/temp/dataset/6/23_20.odb,Step-1,Increment      1: Step Time =    1.000,"PART-1-1",            98,       6.97971,      -7.55833,            0.,NA,NA,"",   94.2263E-03,  -53.5335E-03,   77.5421E-03,   7.56234E-03
C:/temp/dataset/6/23_20.odb,Step-1,Increment      1: Step Time =    1.000,"PART-1-1",            99,       6.96639,      -10.0829,            0.,NA,NA,"",   83.4686E-03,  -53.7992E-03,   63.8174E-03,   6.51148E-03
C:/temp/dataset/6/23_20.odb,Step-1,Increment      1: Step Time =    1.000,"PART-1-1",           100,       12.9900,      -12.5465,            0.,NA,NA,"",   76.3306E-03,  -58.5381E-03,   48.9861E-03,   1.80589E-03
C:/temp/dataset/6/23_20.odb,Step-1,Increment      1: Step Time =    1.000,"PART-1-1",           101,       6.90028,      -17.1420,            0.,NA,NA,"",   45.8962E-03,  -33.7844E-03,   31.0656E-03,   4.22979E-03
C:/temp/dataset/6/23_20.odb,Step-1,Increment      1: Step Time =    1.000,"PART-1-1",           102,       7.03871,      -19.0570,            0.,NA,NA,"",   35.0319E-03,  -24.7542E-03,   24.7883E-03,   4.03998E-03
C:/temp/dataset/6/23_20.odb,Step-1,Increment      1: Step Time =    1.000,"PART-1-1",           103,       5.31709,      -21.2647,            0.,NA,NA,"",   14.7768E-03,  -9.63274E-03,   11.2056E-03,   3.33085E-03
C:/temp/dataset/6/23_20.odb,Step-1,Increment      1: Step Time =    1.000,"PART-1-1",           104,      -4.83361,      -22.6144,            0.,NA,NA,"",   16.3269E-03,   4.77212E-03,   15.6139E-03,   3.94943E-03
C:/temp/dataset/6/23_20.odb,Step-1,Increment      1: Step Time =    1.000,"PART-1-1",           105,      -7.46484,      -17.6587,            0.,NA,NA,"",   64.3183E-03,   34.8616E-03,   54.0510E-03,   6.62539E-03
C:/temp/dataset/6/23_20.odb,Step-1,Increment      1: Step Time =    1.000,"PART-1-1",           106,      -12.5283,      -27.3245,            0.,NA,NA,"",   15.9835E-03,   9.36529E-03,   12.9523E-03,   6.34506E-03
C:/temp/dataset/6/23_20.odb,Step-1,Increment      1: Step Time =    1.000,"PART-1-1",           107,      -12.4870,      -17.6221,            0.,NA,NA,"",   76.1457E-03,   47.1489E-03,   59.7925E-03,   4.72361E-03
C:/temp/dataset/6/23_20.odb,Step-1,Increment      1: Step Time =    1.000,"PART-1-1",           108,      -7.32043,      -12.6401,            0.,NA,NA,"",   98.4989E-03,   45.6617E-03,   87.2756E-03,   8.21424E-03
C:/temp/dataset/6/23_20.odb,Step-1,Increment      1: Step Time =    1.000,"PART-1-1",           109,      -7.14644,      -8.03697,            0.,NA,NA,"",   128.737E-03,   39.4200E-03,   122.553E-03,   10.2379E-03
C:/temp/dataset/6/23_20.odb,Step-1,Increment      1: Step Time =    1.000,"PART-1-1",           110,      -12.6601,       4.88622,            0.,NA,NA,"",   118.805E-03,  -54.2187E-03,   105.712E-03,   565.171E-06
C:/temp/dataset/6/23_20.odb,Step-1,Increment      1: Step Time =    1.000,"PART-1-1",           111,      -13.0978,       12.5399,            0.,NA,NA,"",   166.781E-03,  -132.954E-03,   100.692E-03,   75.8729E-06
C:/temp/dataset/6/23_20.odb,Step-1,Increment      1: Step Time =    1.000,"PART-1-1",           112,      -6.45576,       21.8628,            0.,NA,NA,"",   288.450E-03,  -232.511E-03,   170.712E-03,   442.085E-09
C:/temp/dataset/6/23_20.odb,Step-1,Increment      1: Step Time =    1.000,"PART-1-1",           113,      -7.28884,       25.7044,            0.,NA,NA,"",   317.504E-03,  -273.276E-03,   161.645E-03,   332.821E-09
C:/temp/dataset/6/23_20.odb,Step-1,Increment      1: Step Time =    1.000,"PART-1-1",           114,      -9.90518,       27.6474,            0.,NA,NA,"",   322.781E-03,  -293.771E-03,   133.739E-03,   164.372E-09
C:/temp/dataset/6/23_20.odb,Step-1,Increment      1: Step Time =    1.000,"PART-1-1",           115,      -3.01211,      -3.13168,            0.,NA,NA,"",   249.518E-03,  -15.7913E-03,   249.018E-03,   17.2057E-03
C:/temp/dataset/6/23_20.odb,Step-1,Increment      1: Step Time =    1.000,"PART-1-1",           116,      -2.19169,       3.00836,            0.,NA,NA,"",   212.906E-03,  -10.8120E-03,   212.631E-03,   7.18279E-03
C:/temp/dataset/6/23_20.odb,Step-1,Increment      1: Step Time =    1.000,"PART-1-1",           117,       1.85193,      -2.77696,            0.,NA,NA,"",   193.923E-03,  -12.1679E-03,   193.541E-03,   9.68591E-03
C:/temp/dataset/6/23_20.odb,Step-1,Increment      1: Step Time =    1.000,"PART-1-1",           118,       2.83229,       2.22691,            0.,NA,NA,"",   175.290E-03,   11.7476E-03,   174.896E-03,   6.90592E-03
C:/temp/dataset/6/23_20.odb,Step-1,Increment      1: Step Time =    1.000,"PART-1-1",           119,       7.74921,       3.07964,            0.,NA,NA,"",   107.219E-03,   23.8065E-03,   104.543E-03,   1.66186E-03
C:/temp/dataset/6/23_20.odb,Step-1,Increment      1: Step Time =    1.000,"PART-1-1",           120,      -2.47342,      -22.6017,            0.,NA,NA,"",   5.81067E-03,   1.57134E-03,   5.59417E-03,   1.26906E-03
C:/temp/dataset/6/23_20.odb,Step-1,Increment      1: Step Time =    1.000,"PART-1-1",           121,      -7.48266,       20.3798,            0.,NA,NA,"",   269.300E-03,  -216.699E-03,   159.887E-03,   938.602E-09
C:/temp/dataset/6/23_20.odb,Step-1,Increment      1: Step Time =    1.000,"PART-1-1",           122,      -7.10993,       13.1351,            0.,NA,NA,"",   215.732E-03,  -139.866E-03,   164.249E-03,   70.5591E-06
C:/temp/dataset/6/23_20.odb,Step-1,Increment      1: Step Time =    1.000,"PART-1-1",           123,      -6.64156,       6.82435,            0.,NA,NA,"",   184.253E-03,  -71.7203E-03,   169.722E-03,   976.233E-06
C:/temp/dataset/6/23_20.odb,Step-1,Increment      1: Step Time =    1.000,"PART-1-1",           124,      -12.9641,      -2.37512,            0.,NA,NA,"",   96.6833E-03,   8.25162E-03,   96.3305E-03,   1.93458E-03
C:/temp/dataset/6/23_20.odb,Step-1,Increment      1: Step Time =    1.000,"PART-1-1",           125,      -12.1317,      -9.84573,            0.,NA,NA,"",   102.384E-03,   55.0449E-03,   86.3280E-03,   3.22305E-03
C:/temp/dataset/6/23_20.odb,Step-1,Increment      1: Step Time =    1.000,"PART-1-1",           126,       4.04132,      -2.67712,            0.,NA,NA,"",   150.375E-03,  -17.3746E-03,   149.368E-03,   8.67808E-03
C:/temp/dataset/6/23_20.odb,Step-1,Increment      1: Step Time =    1.000,"PART-1-1",           127,       6.95362,      -12.5367,            0.,NA,NA,"",   71.2639E-03,  -49.8764E-03,   50.9007E-03,   5.56203E-03
C:/temp/dataset/6/23_20.odb,Step-1,Increment      1: Step Time =    1.000,"PART-1-1",           128,       6.92458,      -14.9216,            0.,NA,NA,"",   58.5161E-03,  -42.7111E-03,   39.9987E-03,   4.92689E-03
C:/temp/dataset/6/23_20.odb,Step-1,Increment      1: Step Time =    1.000,"PART-1-1",           129,       12.9089,      -21.3671,            0.,NA,NA,"",   38.9683E-03,  -25.1205E-03,   29.7907E-03,   3.62639E-03
C:/temp/dataset/6/23_20.odb,Step-1,Increment      1: Step Time =    1.000,"PART-1-1",           130,   283.131E-03,      -22.8786,            0.,NA,NA,"",   1.64219E-03,  -1.10182E-03,   1.21770E-03,   756.751E-06
C:/temp/dataset/6/23_20.odb,Step-1,Increment      1: Step Time =    1.000,"PART-1-1",           131,      -12.9776,      -22.4214,            0.,NA,NA,"",   48.7338E-03,   28.5345E-03,   39.5065E-03,   5.56434E-03
C:/temp/dataset/6/23_20.odb,Step-1,Increment      1: Step Time =    1.000,"PART-1-1",           132,      -7.42030,      -15.1083,            0.,NA,NA,"",   81.7895E-03,   42.3673E-03,   69.9609E-03,   7.62536E-03
C:/temp/dataset/6/23_20.odb,Step-1,Increment      1: Step Time =    1.000,"PART-1-1",           133,      -7.18486,      -10.2642,            0.,NA,NA,"",   114.829E-03,   44.5971E-03,   105.815E-03,   9.06710E-03
C:/temp/dataset/6/23_20.odb,Step-1,Increment      1: Step Time =    1.000,"PART-1-1",           134,      -7.33974,      -5.93881,            0.,NA,NA,"",   139.351E-03,   28.6565E-03,   136.372E-03,   6.29886E-03
C:/temp/dataset/6/23_20.odb,Step-1,Increment      1: Step Time =    1.000,"PART-1-1",           135,  -533.729E-03,      -2.94296,            0.,NA,NA,"",   241.004E-03,  -9.83748E-03,   240.803E-03,   13.7869E-03
C:/temp/dataset/6/23_20.odb,Step-1,Increment      1: Step Time =    1.000,"PART-1-1",           136,       10.2172,      -28.0250,            0.,NA,NA,"",   4.72543E-03,  -1.97370E-03,   4.29351E-03,   2.86539E-03
C:/temp/dataset/6/23_20.odb,Step-1,Increment      1: Step Time =    1.000,"PART-1-1",           137,       7.82196,      -28.0777,            0.,NA,NA,"",   2.92620E-03,  -599.170E-06,   2.86420E-03,   1.90392E-03
C:/temp/dataset/6/23_20.odb,Step-1,Increment      1: Step Time =    1.000,"PART-1-1",           138,       5.43540,      -28.0544,            0.,NA,NA,"",   1.66490E-03,  -8.16957E-06,   1.66488E-03,   1.07361E-03
C:/temp/dataset/6/23_20.odb,Step-1,Increment      1: Step Time =    1.000,"PART-1-1",           139,       2.98405,      -27.8165,            0.,NA,NA,"",   829.884E-06,  -288.378E-06,   778.168E-06,   556.949E-06
C:/temp/dataset/6/23_20.odb,Step-1,Increment      1: Step Time =    1.000,"PART-1-1",           140,   324.250E-03,      -27.0908,            0.,NA,NA,"",   1.47296E-03,  -1.33961E-03,   612.418E-06,   638.685E-06
C:/temp/dataset/6/23_20.odb,Step-1,Increment      1: Step Time =    1.000,"PART-1-1",           141,      -2.46293,      -27.5198,            0.,NA,NA,"",   2.69409E-03,  -1.91407E-03,   1.89591E-03,   1.15386E-03
C:/temp/dataset/6/23_20.odb,Step-1,Increment      1: Step Time =    1.000,"PART-1-1",           142,      -4.88996,      -27.5861,            0.,NA,NA,"",   4.27318E-03,  -1.46044E-03,   4.01587E-03,   2.18889E-03
C:/temp/dataset/6/23_20.odb,Step-1,Increment      1: Step Time =    1.000,"PART-1-1",           143,      -7.26500,      -27.4866,            0.,NA,NA,"",   6.63499E-03,   427.181E-06,   6.62123E-03,   3.44320E-03
C:/temp/dataset/6/23_20.odb,Step-1,Increment      1: Step Time =    1.000,"PART-1-1",           144,      -9.86695,      -26.8928,            0.,NA,NA,"",   12.4788E-03,   5.09201E-03,   11.3926E-03,   4.95798E-03
C:/temp/dataset/6/23_20.odb,Step-1,Increment      1: Step Time =    1.000,"PART-1-1",           145,       12.7710,      -23.5898,            0.,NA,NA,"",   27.8370E-03,  -16.9130E-03,   22.1100E-03,   3.87118E-03
C:/temp/dataset/6/23_20.odb,Step-1,Increment      1: Step Time =    1.000,"PART-1-1",           146,       12.6989,      -25.7990,            0.,NA,NA,"",   17.4110E-03,  -10.2511E-03,   14.0733E-03,   4.14267E-03
C:/temp/dataset/6/23_20.odb,Step-1,Increment      1: Step Time =    1.000,"PART-1-1",           147,       12.6207,      -27.9366,            0.,NA,NA,"",   8.13655E-03,  -4.78209E-03,   6.58293E-03,   4.20017E-03
C:/temp/dataset/6/23_20.odb,Step-1,Increment      1: Step Time =    1.000,"PART-1-1",           148,       12.9983,      -14.8223,            0.,NA,NA,"",   69.3544E-03,  -51.9741E-03,   45.9208E-03,   2.29153E-03
C:/temp/dataset/6/23_20.odb,Step-1,Increment      1: Step Time =    1.000,"PART-1-1",           149,       13.0558,      -17.0719,            0.,NA,NA,"",   60.1844E-03,  -43.3533E-03,   41.7451E-03,   2.77581E-03
C:/temp/dataset/6/23_20.odb,Step-1,Increment      1: Step Time =    1.000,"PART-1-1",           150,       13.1682,      -19.2108,            0.,NA,NA,"",   50.3825E-03,  -34.4027E-03,   36.8082E-03,   3.21203E-03
C:/temp/dataset/6/23_20.odb,Step-1,Increment      1: Step Time =    1.000,"PART-1-1",           151,       13.0670,      -5.94273,            0.,NA,NA,"",   73.3172E-03,  -53.0017E-03,   50.6580E-03,   402.582E-06
C:/temp/dataset/6/23_20.odb,Step-1,Increment      1: Step Time =    1.000,"PART-1-1",           152,       13.0350,      -8.09399,            0.,NA,NA,"",   78.8796E-03,  -59.9930E-03,   51.2135E-03,   803.103E-06
C:/temp/dataset/6/23_20.odb,Step-1,Increment      1: Step Time =    1.000,"PART-1-1",           153,       12.9982,      -10.2981,            0.,NA,NA,"",   79.8101E-03,  -61.5895E-03,   50.7580E-03,   1.33580E-03
C:/temp/dataset/6/23_20.odb,Step-1,Increment      1: Step Time =    1.000,"PART-1-1",           154,       12.5107,   556.281E-03,            0.,NA,NA,"",   53.7270E-03,  -2.68899E-03,   53.6596E-03,   705.889E-06
C:/temp/dataset/6/23_20.odb,Step-1,Increment      1: Step Time =    1.000,"PART-1-1",           155,       12.7702,      -1.64554,            0.,NA,NA,"",   56.5048E-03,  -23.3195E-03,   51.4684E-03,   698.116E-06
C:/temp/dataset/6/23_20.odb,Step-1,Increment      1: Step Time =    1.000,"PART-1-1",           156,       10.0517,       2.85834,            0.,NA,NA,"",   80.8293E-03,   21.0725E-03,   78.0341E-03,   358.865E-06
C:/temp/dataset/6/23_20.odb,Step-1,Increment      1: Step Time =    1.000,"PART-1-1",           157,       5.39286,       2.85476,            0.,NA,NA,"",   138.196E-03,   20.6420E-03,   136.646E-03,   4.24837E-03
C:/temp/dataset/6/23_20.odb,Step-1,Increment      1: Step Time =    1.000,"PART-1-1",           158,   175.602E-03,       2.90951,            0.,NA,NA,"",   204.356E-03,   3.64612E-03,   204.324E-03,   7.24753E-03
C:/temp/dataset/6/23_20.odb,Step-1,Increment      1: Step Time =    1.000,"PART-1-1",           159,      -4.35394,       2.91920,            0.,NA,NA,"",   203.474E-03,  -23.2858E-03,   202.138E-03,   6.73172E-03
C:/temp/dataset/6/23_20.odb,Step-1,Increment      1: Step Time =    1.000,"PART-1-1",           160,      -7.05997,       10.9599,            0.,NA,NA,"",   202.072E-03,  -116.822E-03,   164.882E-03,   148.663E-06
C:/temp/dataset/6/23_20.odb,Step-1,Increment      1: Step Time =    1.000,"PART-1-1",           161,      -6.93805,       8.84105,            0.,NA,NA,"",   191.076E-03,  -94.1298E-03,   166.282E-03,   214.779E-06
C:/temp/dataset/6/23_20.odb,Step-1,Increment      1: Step Time =    1.000,"PART-1-1",           162,      -7.28921,       17.6445,            0.,NA,NA,"",   247.978E-03,  -187.666E-03,   162.095E-03,   7.92501E-06
C:/temp/dataset/6/23_20.odb,Step-1,Increment      1: Step Time =    1.000,"PART-1-1",           163,      -7.17735,       15.3234,            0.,NA,NA,"",   230.843E-03,  -163.049E-03,   163.412E-03,   28.6289E-06
C:/temp/dataset/6/23_20.odb,Step-1,Increment      1: Step Time =    1.000,"PART-1-1",           164,      -6.93557,       23.5874,            0.,NA,NA,"",   300.498E-03,  -250.804E-03,   165.518E-03,   428.384E-09
C:/temp/dataset/6/23_20.odb,Step-1,Increment      1: Step Time =    1.000,"PART-1-1",           165,      -13.1925,       19.7530,            0.,NA,NA,"",   232.013E-03,  -209.709E-03,   99.2586E-03,   1.16669E-06
C:/temp/dataset/6/23_20.odb,Step-1,Increment      1: Step Time =    1.000,"PART-1-1",           166,      -7.44963,       27.8335,            0.,NA,NA,"",   336.289E-03,  -295.887E-03,   159.817E-03,   180.293E-09
C:/temp/dataset/6/23_20.odb,Step-1,Increment      1: Step Time =    1.000,"PART-1-1",           167,      -13.0424,       22.0734,            0.,NA,NA,"",   255.101E-03,  -234.375E-03,   100.723E-03,   406.265E-09
C:/temp/dataset/6/23_20.odb,Step-1,Increment      1: Step Time =    1.000,"PART-1-1",           168,      -13.1316,       14.9813,            0.,NA,NA,"",   187.893E-03,  -158.958E-03,   100.181E-03,   29.7084E-06
C:/temp/dataset/6/23_20.odb,Step-1,Increment      1: Step Time =    1.000,"PART-1-1",           169,      -13.1727,       17.3972,            0.,NA,NA,"",   209.813E-03,  -184.664E-03,   99.6030E-03,   7.94176E-06
C:/temp/dataset/6/23_20.odb,Step-1,Increment      1: Step Time =    1.000,"PART-1-1",           170,      -12.8574,       7.53984,            0.,NA,NA,"",   131.071E-03,  -80.3180E-03,   103.579E-03,   89.6650E-06
C:/temp/dataset/6/23_20.odb,Step-1,Increment      1: Step Time =    1.000,"PART-1-1",           171,      -13.0166,       10.0884,            0.,NA,NA,"",   147.567E-03,  -106.907E-03,   101.719E-03,   132.198E-06
C:/temp/dataset/6/23_20.odb,Step-1,Increment      1: Step Time =    1.000,"PART-1-1",           172,      -12.8045,  -118.323E-03,            0.,NA,NA,"",   101.907E-03,  -11.0030E-03,   101.311E-03,   1.67140E-03
C:/temp/dataset/6/23_20.odb,Step-1,Increment      1: Step Time =    1.000,"PART-1-1",           173,      -12.7039,       2.28772,            0.,NA,NA,"",   109.142E-03,  -31.1217E-03,   104.611E-03,   1.30962E-03
C:/temp/dataset/6/23_20.odb,Step-1,Increment      1: Step Time =    1.000,"PART-1-1",           174,      -12.8488,      -7.31355,            0.,NA,NA,"",   99.6069E-03,   45.5779E-03,   88.5675E-03,   2.07051E-03
C:/temp/dataset/6/23_20.odb,Step-1,Increment      1: Step Time =    1.000,"PART-1-1",           175,      -12.6051,      -4.81291,            0.,NA,NA,"",   98.8598E-03,   28.2339E-03,   94.7424E-03,   2.21978E-03
C:/temp/dataset/6/23_20.odb,Step-1,Increment      1: Step Time =    1.000,"PART-1-1",           176,      -12.4260,      -15.0682,            0.,NA,NA,"",   88.3609E-03,   54.7880E-03,   69.3247E-03,   4.22419E-03
C:/temp/dataset/6/23_20.odb,Step-1,Increment      1: Step Time =    1.000,"PART-1-1",           177,      -12.3344,      -12.5112,            0.,NA,NA,"",   97.1630E-03,   58.0622E-03,   77.9065E-03,   3.76869E-03
C:/temp/dataset/6/23_20.odb,Step-1,Increment      1: Step Time =    1.000,"PART-1-1",           178,      -12.6598,      -20.1148,            0.,NA,NA,"",   62.1418E-03,   37.4831E-03,   49.5643E-03,   5.18860E-03
C:/temp/dataset/6/23_20.odb,Step-1,Increment      1: Step Time =    1.000,"PART-1-1",           179,      -8.70618,       22.9331,            0.,NA,NA,"",   284.517E-03,  -243.754E-03,   146.745E-03,   439.654E-09
C:/temp/dataset/6/23_20.odb,Step-1,Increment      1: Step Time =    1.000,"PART-1-1",           180,      -9.21222,       15.1634,            0.,NA,NA,"",   214.668E-03,  -161.198E-03,   141.765E-03,   35.7363E-06
C:/temp/dataset/6/23_20.odb,Step-1,Increment      1: Step Time =    1.000,"PART-1-1",           181,      -9.55138,       19.8926,            0.,NA,NA,"",   252.425E-03,  -211.404E-03,   137.936E-03,   2.22919E-06
C:/temp/dataset/6/23_20.odb,Step-1,Increment      1: Step Time =    1.000,"PART-1-1",           182,      -8.92203,       8.32966,            0.,NA,NA,"",   169.560E-03,  -88.4093E-03,   144.688E-03,   223.737E-06
C:/temp/dataset/6/23_20.odb,Step-1,Increment      1: Step Time =    1.000,"PART-1-1",           183,      -9.17670,       12.8809,            0.,NA,NA,"",   197.419E-03,  -136.967E-03,   142.177E-03,   88.0519E-06
C:/temp/dataset/6/23_20.odb,Step-1,Increment      1: Step Time =    1.000,"PART-1-1",           184,      -9.09923,       10.6117,            0.,NA,NA,"",   182.120E-03,  -112.853E-03,   142.939E-03,   165.926E-06
C:/temp/dataset/6/23_20.odb,Step-1,Increment      1: Step Time =    1.000,"PART-1-1",           185,      -9.30530,       17.5014,            0.,NA,NA,"",   233.223E-03,  -186.019E-03,   140.677E-03,   10.9420E-06
C:/temp/dataset/6/23_20.odb,Step-1,Increment      1: Step Time =    1.000,"PART-1-1",           186,      -8.37864,       6.17865,            0.,NA,NA,"",   164.288E-03,  -65.0607E-03,   150.856E-03,   1.07063E-03
C:/temp/dataset/6/23_20.odb,Step-1,Increment      1: Step Time =    1.000,"PART-1-1",           187,       10.9988,      -10.2527,            0.,NA,NA,"",   81.3818E-03,  -60.5017E-03,   54.4293E-03,   2.93578E-03
C:/temp/dataset/6/23_20.odb,Step-1,Increment      1: Step Time =    1.000,"PART-1-1",           188,       10.8643,      -17.5211,            0.,NA,NA,"",   53.3315E-03,  -38.6000E-03,   36.8006E-03,   3.67964E-03
C:/temp/dataset/6/23_20.odb,Step-1,Increment      1: Step Time =    1.000,"PART-1-1",           189,       11.0508,      -8.01555,            0.,NA,NA,"",   83.2284E-03,  -59.4442E-03,   58.2524E-03,   2.21723E-03
C:/temp/dataset/6/23_20.odb,Step-1,Increment      1: Step Time =    1.000,"PART-1-1",           190,       10.6332,      -2.00908,            0.,NA,NA,"",   73.0185E-03,  -25.9004E-03,   68.2705E-03,   1.47583E-03
C:/temp/dataset/6/23_20.odb,Step-1,Increment      1: Step Time =    1.000,"PART-1-1",           191,       11.1668,      -5.92645,            0.,NA,NA,"",   80.3223E-03,  -53.0288E-03,   60.3293E-03,   1.32305E-03
C:/temp/dataset/6/23_20.odb,Step-1,Increment      1: Step Time =    1.000,"PART-1-1",           192,       10.9732,      -14.9280,            0.,NA,NA,"",   66.0663E-03,  -49.5001E-03,   43.7549E-03,   3.44088E-03
C:/temp/dataset/6/23_20.odb,Step-1,Increment      1: Step Time =    1.000,"PART-1-1",           193,       10.5476,      -23.6927,            0.,NA,NA,"",   21.3726E-03,  -12.6389E-03,   17.2350E-03,   3.69765E-03
C:/temp/dataset/6/23_20.odb,Step-1,Increment      1: Step Time =    1.000,"PART-1-1",           194,       10.5707,      -21.1850,            0.,NA,NA,"",   33.3852E-03,  -21.7854E-03,   25.2976E-03,   3.89809E-03
C:/temp/dataset/6/23_20.odb,Step-1,Increment      1: Step Time =    1.000,"PART-1-1",           195,       10.9760,      -12.5622,            0.,NA,NA,"",   75.3610E-03,  -56.8557E-03,   49.4642E-03,   3.26271E-03
C:/temp/dataset/6/23_20.odb,Step-1,Increment      1: Step Time =    1.000,"PART-1-1",           196,       11.6229,      -19.2502,            0.,NA,NA,"",   46.1253E-03,  -31.9663E-03,   33.2521E-03,   3.60724E-03
C:/temp/dataset/6/23_20.odb,Step-1,Increment      1: Step Time =    1.000,"PART-1-1",           197,       11.1609,      -3.97100,            0.,NA,NA,"",   74.8901E-03,  -41.6716E-03,   62.2255E-03,   1.14559E-03
C:/temp/dataset/6/23_20.odb,Step-1,Increment      1: Step Time =    1.000,"PART-1-1",           198,      -9.55101,       25.2781,            0.,NA,NA,"",   301.828E-03,  -268.619E-03,   137.636E-03,   358.953E-09
C:/temp/dataset/6/23_20.odb,Step-1,Increment      1: Step Time =    1.000,"PART-1-1",           199,      -6.13353,       2.97524,            0.,NA,NA,"",   184.571E-03,  -30.4346E-03,   182.045E-03,   6.67520E-03
C:/temp/dataset/6/23_20.odb,Step-1,Increment      1: Step Time =    1.000,"PART-1-1",           200,       8.52809,      -18.5145,            0.,NA,NA,"",   42.5584E-03,  -30.1675E-03,   30.0190E-03,   4.08787E-03
C:/temp/dataset/6/23_20.odb,Step-1,Increment      1: Step Time =    1.000,"PART-1-1",           201,      -9.31256,      -6.57829,            0.,NA,NA,"",   120.315E-03,   37.2029E-03,   114.418E-03,   4.92621E-03
C:/temp/dataset/6/23_20.odb,Step-1,Increment      1: Step Time =    1.000,"PART-1-1",           202,      -7.82061,      -4.24854,            0.,NA,NA,"",   140.301E-03,   12.9141E-03,   139.705E-03,   7.02609E-03
C:/temp/dataset/6/23_20.odb,Step-1,Increment      1: Step Time =    1.000,"PART-1-1",           203,       7.55002,      -20.4955,            0.,NA,NA,"",   28.3192E-03,  -18.5370E-03,   21.4093E-03,   4.35582E-03
C:/temp/dataset/6/23_20.odb,Step-1,Increment      1: Step Time =    1.000,"PART-1-1",           204,      -9.18944,      -8.43706,            0.,NA,NA,"",   116.439E-03,   46.4765E-03,   106.762E-03,   5.60080E-03
C:/temp/dataset/6/23_20.odb,Step-1,Increment      1: Step Time =    1.000,"PART-1-1",           205,      -12.3720,       27.4312,            0.,NA,NA,"",   310.551E-03,  -291.336E-03,   107.544E-03,   208.323E-09
C:/temp/dataset/6/23_20.odb,Step-1,Increment      1: Step Time =    1.000,"PART-1-1",           206,      -10.3791,       22.2070,            0.,NA,NA,"",   268.913E-03,  -235.945E-03,   129.013E-03,   482.840E-09
C:/temp/dataset/6/23_20.odb,Step-1,Increment      1: Step Time =    1.000,"PART-1-1",           207,       3.40286,  -884.176E-03,            0.,NA,NA,"",   165.525E-03,  -2.82035E-03,   165.500E-03,   8.79182E-03
C:/temp/dataset/6/23_20.odb,Step-1,Increment      1: Step Time =    1.000,"PART-1-1",           208,       7.88020,       1.44192,            0.,NA,NA,"",   102.196E-03,   8.15843E-03,   101.870E-03,   2.54297E-03
C:/temp/dataset/6/23_20.odb,Step-1,Increment      1: Step Time =    1.000,"PART-1-1",           209,      -1.17287,  -897.893E-03,            0.,NA,NA,"",   230.730E-03,  -8.28062E-03,   230.582E-03,   9.18712E-03
C:/temp/dataset/6/23_20.odb,Step-1,Increment      1: Step Time =    1.000,"PART-1-1",           210,       10.4014,      -25.9274,            0.,NA,NA,"",   11.9181E-03,  -6.30539E-03,   10.1135E-03,   3.33374E-03
C:/temp/dataset/6/23_20.odb,Step-1,Increment      1: Step Time =    1.000,"PART-1-1",           211,       2.00108,      -24.8239,            0.,NA,NA,"",   1.74598E-03,  -1.47565E-03,   933.228E-06,   174.620E-06
C:/temp/dataset/6/23_20.odb,Step-1,Increment      1: Step Time =    1.000,"PART-1-1",           212,      -4.80900,      -25.1606,            0.,NA,NA,"",   8.91630E-03,   139.524E-06,   8.91521E-03,   2.67147E-03
C:/temp/dataset/6/23_20.odb,Step-1,Increment      1: Step Time =    1.000,"PART-1-1",           213,      -11.5765,       21.3848,            0.,NA,NA,"",   255.201E-03,  -227.141E-03,   116.337E-03,   566.102E-09
C:/temp/dataset/6/23_20.odb,Step-1,Increment      1: Step Time =    1.000,"PART-1-1",           214,      -11.0630,       10.3038,            0.,NA,NA,"",   163.933E-03,  -109.352E-03,   122.132E-03,   152.125E-06
C:/temp/dataset/6/23_20.odb,Step-1,Increment      1: Step Time =    1.000,"PART-1-1",           215,      -10.2832,  -591.021E-03,            0.,NA,NA,"",   127.044E-03,  -10.5456E-03,   126.606E-03,   3.86292E-03
C:/temp/dataset/6/23_20.odb,Step-1,Increment      1: Step Time =    1.000,"PART-1-1",           216,      -11.1869,      -5.64306,            0.,NA,NA,"",   108.214E-03,   32.9969E-03,   103.060E-03,   3.21343E-03
C:/temp/dataset/6/23_20.odb,Step-1,Increment      1: Step Time =    1.000,"PART-1-1",           217,      -9.48237,      -10.3825,            0.,NA,NA,"",   108.363E-03,   51.5923E-03,   95.2926E-03,   6.04231E-03
C:/temp/dataset/6/23_20.odb,Step-1,Increment      1: Step Time =    1.000,"PART-1-1",           218,      -10.0191,      -20.7277,            0.,NA,NA,"",   50.4914E-03,   28.1776E-03,   41.8975E-03,   6.04321E-03
C:/temp/dataset/6/23_20.odb,Step-1,Increment      1: Step Time =    1.000,"PART-1-1",           219,      -12.8377,      -24.8331,            0.,NA,NA,"",   32.6131E-03,   18.8023E-03,   26.6474E-03,   6.10129E-03
C:/temp/dataset/6/23_20.odb,Step-1,Increment      1: Step Time =    1.000,"PART-1-1",           220,  -752.185E-03,      -25.0561,            0.,NA,NA,"",   2.16958E-03,  -1.59359E-03,   1.47226E-03,   468.539E-06
C:/temp/dataset/6/23_20.odb,Step-1,Increment      1: Step Time =    1.000,"PART-1-1",           221,      -11.3411,      -22.5061,            0.,NA,NA,"",   42.7070E-03,   23.9184E-03,   35.3808E-03,   5.81234E-03
C:/temp/dataset/6/23_20.odb,Step-1,Increment      1: Step Time =    1.000,"PART-1-1",           222,       5.90860,      -26.1342,            0.,NA,NA,"",   4.38564E-03,  -1.50248E-03,   4.12025E-03,   1.43785E-03
C:/temp/dataset/6/23_20.odb,Step-1,Increment      1: Step Time =    1.000,"PART-1-1",           223,       3.81352,      -25.8758,            0.,NA,NA,"",   2.28146E-03,  -1.05370E-03,   2.02356E-03,   646.031E-06
C:/temp/dataset/6/23_20.odb,Step-1,Increment      1: Step Time =    1.000,"PART-1-1",           224,      -6.87266,      -25.1947,            0.,NA,NA,"",   14.0746E-03,   3.33278E-03,   13.6744E-03,   4.08359E-03
C:/temp/dataset/6/23_20.odb,Step-1,Increment      1: Step Time =    1.000,"PART-1-1",           225,       9.77381,   336.875E-03,            0.,NA,NA,"",   79.2673E-03,  -3.66414E-03,   79.1826E-03,   1.41987E-03
C:/temp/dataset/6/23_20.odb,Step-1,Increment      1: Step Time =    1.000,"PART-1-1",           226,       4.59800,   29.7464E-03,            0.,NA,NA,"",   146.579E-03,   659.554E-06,   146.578E-03,   7.27495E-03
C:/temp/dataset/6/23_20.odb,Step-1,Increment      1: Step Time =    1.000,"PART-1-1",           227,      -11.1551,       12.6912,            0.,NA,NA,"",   181.211E-03,  -134.729E-03,   121.183E-03,   87.7815E-06
C:/temp/dataset/6/23_20.odb,Step-1,Increment      1: Step Time =    1.000,"PART-1-1",           228,      -11.2689,       17.3859,            0.,NA,NA,"",   220.131E-03,  -184.662E-03,   119.823E-03,   11.3402E-06
C:/temp/dataset/6/23_20.odb,Step-1,Increment      1: Step Time =    1.000,"PART-1-1",           229,      -11.2102,       15.0558,            0.,NA,NA,"",   200.240E-03,  -159.887E-03,   120.549E-03,   35.7845E-06
C:/temp/dataset/6/23_20.odb,Step-1,Increment      1: Step Time =    1.000,"PART-1-1",           230,      -10.8139,       7.79620,            0.,NA,NA,"",   149.755E-03,  -82.9370E-03,   124.692E-03,   173.395E-06
C:/temp/dataset/6/23_20.odb,Step-1,Increment      1: Step Time =    1.000,"PART-1-1",           231,      -10.1648,       4.85487,            0.,NA,NA,"",   142.402E-03,  -53.2763E-03,   132.060E-03,   1.24381E-03
C:/temp/dataset/6/23_20.odb,Step-1,Increment      1: Step Time =    1.000,"PART-1-1",           232,      -10.4473,       2.01195,            0.,NA,NA,"",   132.064E-03,  -29.5873E-03,   128.707E-03,   2.69447E-03
C:/temp/dataset/6/23_20.odb,Step-1,Increment      1: Step Time =    1.000,"PART-1-1",           233,      -10.4810,      -3.59789,            0.,NA,NA,"",   116.104E-03,   14.8462E-03,   115.151E-03,   3.98601E-03
C:/temp/dataset/6/23_20.odb,Step-1,Increment      1: Step Time =    1.000,"PART-1-1",           234,      -9.89141,      -15.1395,            0.,NA,NA,"",   85.3860E-03,   49.3652E-03,   69.6696E-03,   5.92101E-03
C:/temp/dataset/6/23_20.odb,Step-1,Increment      1: Step Time =    1.000,"PART-1-1",           235,      -9.95744,      -17.7636,            0.,NA,NA,"",   69.9366E-03,   41.0955E-03,   56.5887E-03,   5.80607E-03
C:/temp/dataset/6/23_20.odb,Step-1,Increment      1: Step Time =    1.000,"PART-1-1",           236,      -3.63694,      -1.16253,            0.,NA,NA,"",   224.492E-03,  -18.3551E-03,   223.740E-03,   10.9896E-03
C:/temp/dataset/6/23_20.odb,Step-1,Increment      1: Step Time =    1.000,"PART-1-1",           237,      -7.00580,      -22.7773,            0.,NA,NA,"",   26.3544E-03,   10.1183E-03,   24.3347E-03,   5.72813E-03
C:/temp/dataset/6/23_20.odb,Step-1,Increment      1: Step Time =    1.000,"PART-1-1",           238,       7.08723,      -4.67483,            0.,NA,NA,"",   101.439E-03,  -43.9579E-03,   91.4202E-03,   4.48032E-03
C:/temp/dataset/6/23_20.odb,Step-1,Increment      1: Step Time =    1.000,"PART-1-1",           239,       8.96532,      -10.1697,            0.,NA,NA,"",   83.0798E-03,  -58.1297E-03,   59.3565E-03,   4.51408E-03
C:/temp/dataset/6/23_20.odb,Step-1,Increment      1: Step Time =    1.000,"PART-1-1",           240,       8.99874,      -7.82238,            0.,NA,NA,"",   88.8969E-03,  -57.8079E-03,   67.5345E-03,   4.19658E-03
C:/temp/dataset/6/23_20.odb,Step-1,Increment      1: Step Time =    1.000,"PART-1-1",           241,       8.96760,      -14.8663,            0.,NA,NA,"",   63.3113E-03,  -46.7976E-03,   42.6415E-03,   4.22032E-03
C:/temp/dataset/6/23_20.odb,Step-1,Increment      1: Step Time =    1.000,"PART-1-1",           242,      -12.0836,       24.5335,            0.,NA,NA,"",   283.134E-03,  -260.566E-03,   110.772E-03,   433.084E-09
C:/temp/dataset/6/23_20.odb,Step-1,Increment      1: Step Time =    1.000,"PART-1-1",           243,       9.21542,      -5.66363,            0.,NA,NA,"",   88.5965E-03,  -51.3504E-03,   72.1974E-03,   2.97963E-03
C:/temp/dataset/6/23_20.odb,Step-1,Increment      1: Step Time =    1.000,"PART-1-1",           244,       8.72776,      -2.97127,            0.,NA,NA,"",   88.6397E-03,  -32.3889E-03,   82.5104E-03,   3.13407E-03
C:/temp/dataset/6/23_20.odb,Step-1,Increment      1: Step Time =    1.000,"PART-1-1",           245,       9.39471,      -19.4524,            0.,NA,NA,"",   39.5184E-03,  -27.2641E-03,   28.6072E-03,   4.02654E-03
C:/temp/dataset/6/23_20.odb,Step-1,Increment      1: Step Time =    1.000,"PART-1-1",           246,       8.06548,      -22.0810,            0.,NA,NA,"",   21.8570E-03,  -13.2478E-03,   17.3846E-03,   3.80525E-03
C:/temp/dataset/6/23_20.odb,Step-1,Increment      1: Step Time =    1.000,"PART-1-1",           247,      -7.53738,       4.79758,            0.,NA,NA,"",   168.728E-03,  -49.4011E-03,   161.334E-03,   2.65781E-03
C:/temp/dataset/6/23_20.odb,Step-1,Increment      1: Step Time =    1.000,"PART-1-1",           248,      -10.8025,      -24.3532,            0.,NA,NA,"",   29.1638E-03,   15.1812E-03,   24.9009E-03,   5.76195E-03
C:/temp/dataset/6/23_20.odb,Step-1,Increment      1: Step Time =    1.000,"PART-1-1",           249,       5.82981,      -2.08643,            0.,NA,NA,"",   121.130E-03,  -17.5091E-03,   119.858E-03,   7.54532E-03
C:/temp/dataset/6/23_20.odb,Step-1,Increment      1: Step Time =    1.000,"PART-1-1",           250,      -8.67175,      -2.53401,            0.,NA,NA,"",   138.581E-03,   345.344E-06,   138.581E-03,   6.52994E-03
C:/temp/dataset/6/23_20.odb,Step-1,Increment      1: Step Time =    1.000,"PART-1-1",           251,       5.78686,      -22.7214,            0.,NA,NA,"",   11.6420E-03,  -6.67175E-03,   9.54067E-03,   2.61486E-03
C:/temp/dataset/6/23_20.odb,Step-1,Increment      1: Step Time =    1.000,"PART-1-1",           252,      -8.27594,       1.60152,            0.,NA,NA,"",   157.527E-03,  -27.0208E-03,   155.192E-03,   5.02271E-03
C:/temp/dataset/6/23_20.odb,Step-1,Increment      1: Step Time =    1.000,"PART-1-1",           253,       8.25490,      -24.0061,            0.,NA,NA,"",   14.4231E-03,  -7.79471E-03,   12.1355E-03,   3.08196E-03
C:/temp/dataset/6/23_20.odb,Step-1,Increment      1: Step Time =    1.000,"PART-1-1",           254,      -9.04303,      -23.2600,            0.,NA,NA,"",   30.6610E-03,   14.4345E-03,   27.0507E-03,   5.80663E-03
C:/temp/dataset/6/23_20.odb,Step-1,Increment      1: Step Time =    1.000,"PART-1-1",           255,       7.61656,      -1.09448,            0.,NA,NA,"",   100.631E-03,  -13.9700E-03,   99.6567E-03,   4.07708E-03
C:/temp/dataset/6/23_20.odb,Step-1,Increment      1: Step Time =    1.000,"PART-1-1",           256,      -4.02262,   861.151E-03,            0.,NA,NA,"",   212.027E-03,  -19.1285E-03,   211.162E-03,   7.62855E-03
C:/temp/dataset/6/23_20.odb,Step-1,Increment      1: Step Time =    1.000,"PART-1-1",           257,  -104.141E-03,       1.31276,            0.,NA,NA,"",   212.167E-03,  -1.36540E-03,   212.163E-03,   6.95803E-03
C:/temp/dataset/6/23_20.odb,Step-1,Increment      1: Step Time =    1.000,"PART-1-1",           258,       3.72123,      -23.4419,            0.,NA,NA,"",   4.52892E-03,  -3.03435E-03,   3.36212E-03,   1.02566E-03
C:/temp/dataset/6/23_20.odb,Step-1,Increment      1: Step Time =    1.000,"PART-1-1",           259,      -10.7950,      -8.39617,            0.,NA,NA,"",   108.682E-03,   48.6309E-03,   97.1950E-03,   4.08048E-03
C:/temp/dataset/6/23_20.odb,Step-1,Increment      1: Step Time =    1.000,"PART-1-1",           260,      -1.85786,       1.02916,            0.,NA,NA,"",   221.481E-03,  -9.78191E-03,   221.265E-03,   6.29964E-03
C:/temp/dataset/6/23_20.odb,Step-1,Increment      1: Step Time =    1.000,"PART-1-1",           261,      -6.46179,      -1.33856,            0.,NA,NA,"",   178.226E-03,  -16.6516E-03,   177.446E-03,   10.1032E-03
C:/temp/dataset/6/23_20.odb,Step-1,Increment      1: Step Time =    1.000,"PART-1-1",           262,      -11.1078,      -7.00587,            0.,NA,NA,"",   108.278E-03,   42.1443E-03,   99.7398E-03,   3.18909E-03
C:/temp/dataset/6/23_20.odb,Step-1,Increment      1: Step Time =    1.000,"PART-1-1",           263,      -5.52697,      -3.44125,            0.,NA,NA,"",   188.483E-03,  -9.54266E-03,   188.242E-03,   16.9719E-03
C:/temp/dataset/6/23_20.odb,Step-1,Increment      1: Step Time =    1.000,"PART-1-1",           264,      -9.72268,      -4.98378,            0.,NA,NA,"",   119.782E-03,   25.6097E-03,   117.012E-03,   4.13440E-03
C:/temp/dataset/6/23_20.odb,Step-1,Increment      1: Step Time =    1.000,"PART-1-1",           265,      -6.27329,       4.89376,            0.,NA,NA,"",   181.771E-03,  -46.8998E-03,   175.616E-03,   4.40960E-03
C:/temp/dataset/6/23_20.odb,Step-1,Increment      1: Step Time =    1.000,"PART-1-1",           266,       12.4963,       2.80040,            0.,NA,NA,"",   57.3612E-03,   19.8958E-03,   53.8002E-03,   578.683E-06
C:/temp/dataset/6/23_20.odb,Step-1,Increment      1: Step Time =    1.000,"PART-1-1",           267,      -7.37176,      -20.2559,            0.,NA,NA,"",   44.9592E-03,   22.7231E-03,   38.7942E-03,   6.47034E-03
C:/temp/dataset/6/23_20.odb,Step-1,Increment      1: Step Time =    1.000,"PART-1-1",           268,       2.88963,      -21.8777,            0.,NA,NA,"",   5.07366E-03,  -4.14174E-03,   2.93053E-03,   1.29255E-03
C:/temp/dataset/6/23_20.odb,Step-1,Increment      1: Step Time =    1.000,"PART-1-1",           269,      -8.05085,       3.52655,            0.,NA,NA,"",   161.958E-03,  -39.2843E-03,   157.121E-03,   3.57806E-03
C:/temp/dataset/6/23_20.odb,Step-1,Increment      1: Step Time =    1.000,"PART-1-1",           270,       8.95558,      -12.5395,            0.,NA,NA,"",   74.1210E-03,  -54.0470E-03,   50.7233E-03,   4.46288E-03
C:/temp/dataset/6/23_20.odb,Step-1,Increment      1: Step Time =    1.000,"PART-1-1",           271,       1.35989,  -223.950E-03,            0.,NA,NA,"",   199.929E-03,   45.4560E-06,   199.929E-03,   9.13461E-03
C:/temp/dataset/6/23_20.odb,Step-1,Increment      1: Step Time =    1.000,"PART-1-1",           272,      -9.75004,      -12.6533,            0.,NA,NA,"",   98.0628E-03,   52.9246E-03,   82.5548E-03,   6.05540E-03
C:/temp/dataset/6/23_20.odb,Step-1,Increment      1: Step Time =    1.000,"PART-1-1",           273,      -8.51206,      -25.1011,            0.,NA,NA,"",   18.6551E-03,   7.04248E-03,   17.2748E-03,   4.99689E-03
C:/temp/dataset/6/23_20.odb,Step-1,Increment      1: Step Time =    1.000,"PART-1-1",           274,      -6.19138,   998.181E-03,            0.,NA,NA,"",   185.470E-03,  -23.3973E-03,   183.988E-03,   7.70299E-03
C:/temp/dataset/6/23_20.odb,Step-1,Increment      1: Step Time =    1.000,"PART-1-1",           275,      -2.63339,      -25.0950,            0.,NA,NA,"",   4.37572E-03,  -1.36860E-03,   4.15619E-03,   1.34482E-03
C:/temp/dataset/6/23_20.odb,Step-1,Increment      1: Step Time =    1.000,"PART-1-1",           276,       8.11811,      -26.0558,            0.,NA,NA,"",   7.71512E-03,  -3.33998E-03,   6.95468E-03,   2.42451E-03
C:/temp/dataset/6/23_20.odb,Step-1,Increment      1: Step Time =    1.000,"PART-1-1",           277,       6.33403,   764.508E-03,            0.,NA,NA,"",   121.495E-03,   3.76681E-03,   121.437E-03,   4.80431E-03
C:/temp/dataset/6/23_20.odb,Step-1,Increment      1: Step Time =    1.000,"PART-1-1",           278,       8.84044,      -16.9880,            0.,NA,NA,"",   51.8804E-03,  -37.8426E-03,   35.4896E-03,   4.07770E-03
C:/temp/dataset/6/23_20.odb,Step-1,Increment      1: Step Time =    1.000,"PART-1-1",           279,      -11.3950,       19.6047,            0.,NA,NA,"",   239.526E-03,  -208.236E-03,   118.365E-03,   2.65989E-06
C:/temp/dataset/6/23_20.odb,Step-1,Increment      1: Step Time =    1.000,"PART-1-1",           280,      -11.2464,      -2.22607,            0.,NA,NA,"",   112.270E-03,   4.59084E-03,   112.176E-03,   3.17236E-03
C:/temp/dataset/6/23_20.odb,Step-1,Increment      1: Step Time =    1.000,"PART-1-1",           281,      -8.41776,  -32.7016E-03,            0.,NA,NA,"",   152.318E-03,  -17.7849E-03,   151.276E-03,   5.73449E-03
C:/temp/dataset/6/23_20.odb,Step-1,Increment      1: Step Time =    1.000,"PART-1-1",           282,       4.48255,      -24.5345,            0.,NA,NA,"",   4.53365E-03,  -2.38403E-03,   3.85622E-03,   1.16017E-03
C:/temp/dataset/6/23_20.odb,Step-1,Increment      1: Step Time =    1.000,"PART-1-1",           283,       6.11275,      -24.3348,            0.,NA,NA,"",   8.24878E-03,  -4.04444E-03,   7.18921E-03,   2.03441E-03
C:/temp/dataset/6/23_20.odb,Step-1,Increment      1: Step Time =    1.000,"PART-1-1",           284,       9.69767,      -4.20039,            0.,NA,NA,"",   83.6646E-03,  -42.6094E-03,   72.0015E-03,   2.26570E-03
C:/temp/dataset/6/23_20.odb,Step-1,Increment      1: Step Time =    1.000,"PART-1-1",           285,       13.8851,      -1.60402,            0.,NA,NA,"",   48.3143E-03,  -22.7820E-03,   42.6058E-03,   883.335E-06
C:/temp/dataset/6/23_20.odb,Step-1,Increment      1: Step Time =    1.000,"PART-1-1",           286,           15.,   -468.75E-03,            0.,NA,NA,"",   34.0688E-03,  -12.0574E-03,   31.8638E-03,   1.21413E-03
C:/temp/dataset/6/23_20.odb,Step-1,Increment      1: Step Time =    1.000,"PART-1-1",           287,       13.7553,   590.641E-03,            0.,NA,NA,"",   42.5299E-03,  -2.31925E-03,   42.4666E-03,   569.645E-06
C:/temp/dataset/6/23_20.odb,Step-1,Increment      1: Step Time =    1.000,"PART-1-1",           288,       12.6405,  -544.629E-03,            0.,NA,NA,"",   54.1663E-03,  -13.2907E-03,   52.5105E-03,   692.359E-06
C:/temp/dataset/6/23_20.odb,Step-1,Increment      1: Step Time =    1.000,"PART-1-1",           289,       6.57104,       2.96720,            0.,NA,NA,"",   122.047E-03,   22.4483E-03,   119.965E-03,   2.91620E-03
C:/temp/dataset/6/23_20.odb,Step-1,Increment      1: Step Time =    1.000,"PART-1-1",           290,       5.86345,       1.80964,            0.,NA,NA,"",   130.017E-03,   12.1255E-03,   129.450E-03,   4.33420E-03
C:/temp/dataset/6/23_20.odb,Step-1,Increment      1: Step Time =    1.000,"PART-1-1",           291,       7.10711,       1.10321,            0.,NA,NA,"",   111.439E-03,   5.73685E-03,   111.291E-03,   3.60729E-03
C:/temp/dataset/6/23_20.odb,Step-1,Increment      1: Step Time =    1.000,"PART-1-1",           292,       7.81470,       2.26078,            0.,NA,NA,"",   104.601E-03,   15.7816E-03,   103.404E-03,   2.06155E-03
C:/temp/dataset/6/23_20.odb,Step-1,Increment      1: Step Time =    1.000,"PART-1-1",           293,       6.97305,      -8.82061,            0.,NA,NA,"",   89.3458E-03,  -54.5776E-03,   70.7386E-03,   6.72119E-03
C:/temp/dataset/6/23_20.odb,Step-1,Increment      1: Step Time =    1.000,"PART-1-1",           294,       5.98985,      -7.53541,            0.,NA,NA,"",   97.4811E-03,  -51.4928E-03,   82.7711E-03,   8.46052E-03
C:/temp/dataset/6/23_20.odb,Step-1,Increment      1: Step Time =    1.000,"PART-1-1",           295,            5.,      -8.76875,            0.,NA,NA,"",   87.9687E-03,  -47.5554E-03,   74.0066E-03,   8.84463E-03
C:/temp/dataset/6/23_20.odb,Step-1,Increment      1: Step Time =    1.000,"PART-1-1",           296,       5.98320,      -10.0539,            0.,NA,NA,"",   82.3426E-03,  -50.9118E-03,   64.7169E-03,   7.13094E-03
C:/temp/dataset/6/23_20.odb,Step-1,Increment      1: Step Time =    1.000,"PART-1-1",           297,       12.0429,      -8.05477,            0.,NA,NA,"",   80.9643E-03,  -59.8540E-03,   54.5227E-03,   1.40791E-03
C:/temp/dataset/6/23_20.odb,Step-1,Increment      1: Step Time =    1.000,"PART-1-1",           298,       11.0248,      -9.13413,            0.,NA,NA,"",   82.9317E-03,  -60.6925E-03,   56.5163E-03,   2.56821E-03
C:/temp/dataset/6/23_20.odb,Step-1,Increment      1: Step Time =    1.000,"PART-1-1",           299,       11.9985,      -10.2754,            0.,NA,NA,"",   80.5747E-03,  -61.2142E-03,   52.3938E-03,   2.08626E-03
C:/temp/dataset/6/23_20.odb,Step-1,Increment      1: Step Time =    1.000,"PART-1-1",           300,       13.0166,      -9.19606,            0.,NA,NA,"",   79.9209E-03,  -61.4294E-03,   51.1251E-03,   1.04827E-03
C:/temp/dataset/6/23_20.odb,Step-1,Increment      1: Step Time =    1.000,"PART-1-1",           301,       13.9992,      -14.7549,            0.,NA,NA,"",   71.2674E-03,  -52.9051E-03,   47.7504E-03,   1.50191E-03
C:/temp/dataset/6/23_20.odb,Step-1,Increment      1: Step Time =    1.000,"PART-1-1",           302,       13.0271,      -15.9471,            0.,NA,NA,"",   64.9957E-03,  -47.8522E-03,   43.9841E-03,   2.52574E-03
C:/temp/dataset/6/23_20.odb,Step-1,Increment      1: Step Time =    1.000,"PART-1-1",           303,       14.0279,      -16.9735,            0.,NA,NA,"",   63.0330E-03,  -44.7631E-03,   44.3782E-03,   2.26558E-03
C:/temp/dataset/6/23_20.odb,Step-1,Increment      1: Step Time =    1.000,"PART-1-1",           304,           15.,      -15.7813,            0.,NA,NA,"",   70.2447E-03,  -50.0111E-03,   49.3275E-03,   1.34370E-03
C:/temp/dataset/6/23_20.odb,Step-1,Increment      1: Step Time =    1.000,"PART-1-1",           305,       6.96949,      -18.0995,            0.,NA,NA,"",   40.4372E-03,  -29.3363E-03,   27.8307E-03,   3.99846E-03
C:/temp/dataset/6/23_20.odb,Step-1,Increment      1: Step Time =    1.000,"PART-1-1",           306,       5.95014,      -17.3335,            0.,NA,NA,"",   41.4150E-03,  -31.0458E-03,   27.4109E-03,   4.43148E-03
C:/temp/dataset/6/23_20.odb,Step-1,Increment      1: Step Time =    1.000,"PART-1-1",           307,            5.,      -18.7625,            0.,NA,NA,"",   28.7165E-03,  -22.5994E-03,   17.7173E-03,   4.40115E-03
C:/temp/dataset/6/23_20.odb,Step-1,Increment      1: Step Time =    1.000,"PART-1-1",           308,       6.01935,      -19.5285,            0.,NA,NA,"",   28.4220E-03,  -20.1507E-03,   20.0438E-03,   3.90404E-03
C:/temp/dataset/6/23_20.odb,Step-1,Increment      1: Step Time =    1.000,"PART-1-1",           309,       7.66098,      -29.0388,            0.,NA,NA,"",   1.31706E-03,  -5.04929E-06,   1.31705E-03,   1.74416E-03
C:/temp/dataset/6/23_20.odb,Step-1,Increment      1: Step Time =    1.000,"PART-1-1",           310,       6.62868,      -28.0660,            0.,NA,NA,"",   2.25906E-03,  -201.184E-06,   2.25008E-03,   1.48257E-03
C:/temp/dataset/6/23_20.odb,Step-1,Increment      1: Step Time =    1.000,"PART-1-1",           311,       5.21770,      -29.0272,            0.,NA,NA,"",   799.173E-06,   205.836E-06,   772.211E-06,   1.02436E-03
C:/temp/dataset/6/23_20.odb,Step-1,Increment      1: Step Time =    1.000,"PART-1-1",           312,          6.25,          -30.,            0.,NA,NA,"",            0.,   274.454E-42,   2.49155E-39,   1.30976E-03
C:/temp/dataset/6/23_20.odb,Step-1,Increment      1: Step Time =    1.000,"PART-1-1",           313,   162.125E-03,      -28.5454,            0.,NA,NA,"",   1.00128E-03,  -887.119E-06,   464.303E-06,   637.695E-06
C:/temp/dataset/6/23_20.odb,Step-1,Increment      1: Step Time =    1.000,"PART-1-1",           314,      -1.06934,      -27.3053,            0.,NA,NA,"",   2.05908E-03,  -1.73898E-03,   1.10262E-03,   825.226E-06
C:/temp/dataset/6/23_20.odb,Step-1,Increment      1: Step Time =    1.000,"PART-1-1",           315,      -2.48147,      -28.7599,            0.,NA,NA,"",   1.68883E-03,  -1.36687E-03,   991.876E-06,   1.26989E-03
C:/temp/dataset/6/23_20.odb,Step-1,Increment      1: Step Time =    1.000,"PART-1-1",           316,         -1.25,          -30.,            0.,NA,NA,"",            0.,  -765.804E-42,   1.57549E-39,   1.07148E-03
C:/temp/dataset/6/23_20.odb,Step-1,Increment      1: Step Time =    1.000,"PART-1-1",           317,          -15.,        -21.25,            0.,NA,NA,"",   63.9730E-03,   38.0846E-03,   51.4015E-03,   5.03961E-03
C:/temp/dataset/6/23_20.odb,Step-1,Increment      1: Step Time =    1.000,"PART-1-1",           318,      -13.9888,      -22.4607,            0.,NA,NA,"",   52.2343E-03,   30.8642E-03,   42.1405E-03,   5.52697E-03
C:/temp/dataset/6/23_20.odb,Step-1,Increment      1: Step Time =    1.000,"PART-1-1",           319,      -12.8187,      -21.2681,            0.,NA,NA,"",   55.4774E-03,   32.9495E-03,   44.6326E-03,   5.37285E-03
C:/temp/dataset/6/23_20.odb,Step-1,Increment      1: Step Time =    1.000,"PART-1-1",           320,      -13.8299,      -20.0574,            0.,NA,NA,"",   66.3211E-03,   40.3007E-03,   52.6721E-03,   4.80051E-03
C:/temp/dataset/6/23_20.odb,Step-1,Increment      1: Step Time =    1.000,"PART-1-1",           321,      -12.5142,      -28.6623,            0.,NA,NA,"",   7.00658E-03,   3.98969E-03,   5.75974E-03,   5.57104E-03
C:/temp/dataset/6/23_20.odb,Step-1,Increment      1: Step Time =    1.000,"PART-1-1",           322,        -11.25,          -30.,            0.,NA,NA,"",            0.,   935.186E-42,   8.55137E-39,   4.47250E-03
C:/temp/dataset/6/23_20.odb,Step-1,Increment      1: Step Time =    1.000,"PART-1-1",           323,      -9.93348,      -28.4464,            0.,NA,NA,"",   5.57844E-03,   1.87052E-03,   5.25548E-03,   4.31087E-03
C:/temp/dataset/6/23_20.odb,Step-1,Increment      1: Step Time =    1.000,"PART-1-1",           324,      -11.1976,      -27.1087,            0.,NA,NA,"",   13.9083E-03,   7.09204E-03,   11.9643E-03,   5.60663E-03
C:/temp/dataset/6/23_20.odb,Step-1,Increment      1: Step Time =    1.000,"PART-1-1",           325,      -7.37036,      -13.8742,            0.,NA,NA,"",   90.1847E-03,   44.5154E-03,   78.4325E-03,   7.91559E-03
C:/temp/dataset/6/23_20.odb,Step-1,Increment      1: Step Time =    1.000,"PART-1-1",           326,      -6.21015,      -15.0417,            0.,NA,NA,"",   79.4654E-03,   38.1880E-03,   69.6881E-03,   8.42769E-03
C:/temp/dataset/6/23_20.odb,Step-1,Increment      1: Step Time =    1.000,"PART-1-1",           327,           -5.,      -13.7188,            0.,NA,NA,"",   86.7004E-03,   35.4468E-03,   79.1232E-03,   9.77509E-03
C:/temp/dataset/6/23_20.odb,Step-1,Increment      1: Step Time =    1.000,"PART-1-1",           328,      -6.16021,      -12.5513,            0.,NA,NA,"",   98.4771E-03,   41.3203E-03,   89.3888E-03,   9.22603E-03
C:/temp/dataset/6/23_20.odb,Step-1,Increment      1: Step Time =    1.000,"PART-1-1",           329,      -9.33590,      -9.40979,            0.,NA,NA,"",   112.396E-03,   49.3873E-03,   100.964E-03,   6.06686E-03
C:/temp/dataset/6/23_20.odb,Step-1,Increment      1: Step Time =    1.000,"PART-1-1",           330,      -8.33361,      -10.3234,            0.,NA,NA,"",   111.501E-03,   48.4357E-03,   100.431E-03,   7.47217E-03
C:/temp/dataset/6/23_20.odb,Step-1,Increment      1: Step Time =    1.000,"PART-1-1",           331,      -7.16565,      -9.15059,            0.,NA,NA,"",   122.040E-03,   42.8683E-03,   114.263E-03,   9.29018E-03
C:/temp/dataset/6/23_20.odb,Step-1,Increment      1: Step Time =    1.000,"PART-1-1",           332,      -8.16794,      -8.23701,            0.,NA,NA,"",   122.547E-03,   43.4005E-03,   114.605E-03,   7.84489E-03
C:/temp/dataset/6/23_20.odb,Step-1,Increment      1: Step Time =    1.000,"PART-1-1",           333,      -11.1473,      -6.32447,            0.,NA,NA,"",   108.262E-03,   37.8552E-03,   101.428E-03,   3.24105E-03
C:/temp/dataset/6/23_20.odb,Step-1,Increment      1: Step Time =    1.000,"PART-1-1",           334,      -10.2102,      -6.79208,            0.,NA,NA,"",   113.763E-03,   39.8364E-03,   106.560E-03,   4.15212E-03
C:/temp/dataset/6/23_20.odb,Step-1,Increment      1: Step Time =    1.000,"PART-1-1",           335,      -9.51762,      -5.78103,            0.,NA,NA,"",   119.992E-03,   31.5503E-03,   115.770E-03,   4.33972E-03
C:/temp/dataset/6/23_20.odb,Step-1,Increment      1: Step Time =    1.000,"PART-1-1",           336,      -10.4548,      -5.31342,            0.,NA,NA,"",   113.609E-03,   29.4535E-03,   109.725E-03,   3.67319E-03
C:/temp/dataset/6/23_20.odb,Step-1,Increment      1: Step Time =    1.000,"PART-1-1",           337,      -5.04937,      -1.25055,            0.,NA,NA,"",   203.319E-03,  -19.4669E-03,   202.385E-03,   9.97019E-03
C:/temp/dataset/6/23_20.odb,Step-1,Increment      1: Step Time =    1.000,"PART-1-1",           338,      -3.82978,  -150.691E-03,            0.,NA,NA,"",   217.439E-03,  -18.5016E-03,   216.650E-03,   9.07559E-03
C:/temp/dataset/6/23_20.odb,Step-1,Increment      1: Step Time =    1.000,"PART-1-1",           339,      -5.10700,   929.666E-03,            0.,NA,NA,"",   199.816E-03,  -21.7260E-03,   198.631E-03,   7.52320E-03
C:/temp/dataset/6/23_20.odb,Step-1,Increment      1: Step Time =    1.000,"PART-1-1",           340,      -6.32658,  -170.190E-03,            0.,NA,NA,"",   182.983E-03,  -20.4182E-03,   181.840E-03,   8.64321E-03
C:/temp/dataset/6/23_20.odb,Step-1,Increment      1: Step Time =    1.000,"PART-1-1",           341,          -15.,          3.75,            0.,NA,NA,"",   93.6902E-03,  -43.6336E-03,   82.9093E-03,   29.8882E-06
C:/temp/dataset/6/23_20.odb,Step-1,Increment      1: Step Time =    1.000,"PART-1-1",           342,      -13.8520,       2.39386,            0.,NA,NA,"",   98.5887E-03,  -31.7042E-03,   93.3518E-03,   756.709E-06
C:/temp/dataset/6/23_20.odb,Step-1,Increment      1: Step Time =    1.000,"PART-1-1",           343,      -12.6820,       3.58697,            0.,NA,NA,"",   113.533E-03,  -42.3953E-03,   105.320E-03,   913.586E-06
C:/temp/dataset/6/23_20.odb,Step-1,Increment      1: Step Time =    1.000,"PART-1-1",           344,      -13.8301,       4.94311,            0.,NA,NA,"",   108.793E-03,  -54.7490E-03,   94.0135E-03,   271.244E-06
C:/temp/dataset/6/23_20.odb,Step-1,Increment      1: Step Time =    1.000,"PART-1-1",           345,          -15.,         11.25,            0.,NA,NA,"",   143.962E-03,  -119.181E-03,   80.7526E-03,   134.819E-06
C:/temp/dataset/6/23_20.odb,Step-1,Increment      1: Step Time =    1.000,"PART-1-1",           346,      -14.0083,       10.0442,            0.,NA,NA,"",   140.276E-03,  -106.416E-03,   91.3947E-03,   136.757E-06
C:/temp/dataset/6/23_20.odb,Step-1,Increment      1: Step Time =    1.000,"PART-1-1",           347,      -13.0572,       11.3141,            0.,NA,NA,"",   156.911E-03,  -119.911E-03,   101.206E-03,   102.265E-06
C:/temp/dataset/6/23_20.odb,Step-1,Increment      1: Step Time =    1.000,"PART-1-1",           348,      -14.0489,       12.5200,            0.,NA,NA,"",   160.707E-03,  -132.698E-03,   90.6521E-03,   61.1172E-06
C:/temp/dataset/6/23_20.odb,Step-1,Increment      1: Step Time =    1.000,"PART-1-1",           349,           -5.,       22.7083,            0.,NA,NA,"",   304.963E-03,  -241.575E-03,   186.129E-03,   968.805E-09
C:/temp/dataset/6/23_20.odb,Step-1,Increment      1: Step Time =    1.000,"PART-1-1",           350,      -5.96779,       23.6687,            0.,NA,NA,"",   307.031E-03,  -251.723E-03,   175.794E-03,   448.143E-09
C:/temp/dataset/6/23_20.odb,Step-1,Increment      1: Step Time =    1.000,"PART-1-1",           351,      -6.69567,       22.7251,            0.,NA,NA,"",   294.382E-03,  -241.657E-03,   168.115E-03,   429.136E-09
C:/temp/dataset/6/23_20.odb,Step-1,Increment      1: Step Time =    1.000,"PART-1-1",           352,      -5.72788,       21.7648,            0.,NA,NA,"",   292.303E-03,  -231.510E-03,   178.449E-03,   763.676E-09
C:/temp/dataset/6/23_20.odb,Step-1,Increment      1: Step Time =    1.000,"PART-1-1",           353,      -9.95259,       28.8237,            0.,NA,NA,"",   333.965E-03,  -306.266E-03,   133.169E-03,   148.983E-09
C:/temp/dataset/6/23_20.odb,Step-1,Increment      1: Step Time =    1.000,"PART-1-1",           354,      -8.67740,       27.7404,            0.,NA,NA,"",   329.344E-03,  -294.829E-03,   146.778E-03,   149.104E-09
C:/temp/dataset/6/23_20.odb,Step-1,Increment      1: Step Time =    1.000,"PART-1-1",           355,      -7.47481,       28.9167,            0.,NA,NA,"",   346.305E-03,  -307.394E-03,   159.488E-03,   112.900E-09
C:/temp/dataset/6/23_20.odb,Step-1,Increment      1: Step Time =    1.000,"PART-1-1",           356,         -8.75,           30.,            0.,NA,NA,"",   350.619E-03,  -318.831E-03,   145.879E-03,   118.710E-09
C:/temp/dataset/6/23_20.odb,Step-1,Increment      1: Step Time =    1.000,"PART-1-1",           357,      -12.4360,       28.7156,            0.,NA,NA,"",   323.134E-03,  -304.977E-03,   106.791E-03,   121.458E-09
C:/temp/dataset/6/23_20.odb,Step-1,Increment      1: Step Time =    1.000,"PART-1-1",           358,        -13.75,           30.,            0.,NA,NA,"",   331.779E-03,  -318.549E-03,   92.7581E-03,   24.6132E-09
C:/temp/dataset/6/23_20.odb,Step-1,Increment      1: Step Time =    1.000,"PART-1-1",           359,          -15.,         28.75,            0.,NA,NA,"",   315.395E-03,  -305.198E-03,   79.5484E-03,   33.8668E-09
C:/temp/dataset/6/23_20.odb,Step-1,Increment      1: Step Time =    1.000,"PART-1-1",           360,      -13.6860,       27.4656,            0.,NA,NA,"",   306.274E-03,  -291.627E-03,   93.5812E-03,   124.702E-09
C:/temp/dataset/6/23_20.odb,Step-1,Increment      1: Step Time =    1.000,"PART-1-1",           361,         -3.75,           -5.,            0.,NA,NA,"",   252.757E-03,   4.31908E-03,   252.720E-03,   14.2329E-03
C:/temp/dataset/6/23_20.odb,Step-1,Increment      1: Step Time =    1.000,"PART-1-1",           362,      -2.75606,      -4.06584,            0.,NA,NA,"",   259.406E-03,  -11.7324E-03,   259.140E-03,   17.6993E-03
C:/temp/dataset/6/23_20.odb,Step-1,Increment      1: Step Time =    1.000,"PART-1-1",           363,      -4.26954,      -3.28646,            0.,NA,NA,"",   222.093E-03,  -16.7637E-03,   221.459E-03,   14.4413E-03
C:/temp/dataset/6/23_20.odb,Step-1,Increment      1: Step Time =    1.000,"PART-1-1",           364,      -5.26349,      -4.22062,            0.,NA,NA,"",   188.321E-03,  -4.05920E-03,   188.277E-03,   16.6959E-03
C:/temp/dataset/6/23_20.odb,Step-1,Increment      1: Step Time =    1.000,"PART-1-1",           365,   659.099E-03,      -2.85996,            0.,NA,NA,"",   219.003E-03,  -9.60784E-03,   218.792E-03,   11.1881E-03
C:/temp/dataset/6/23_20.odb,Step-1,Increment      1: Step Time =    1.000,"PART-1-1",           366,  -266.865E-03,      -3.97148,            0.,NA,NA,"",   243.151E-03,  -15.0213E-03,   242.686E-03,   13.2513E-03
C:/temp/dataset/6/23_20.odb,Step-1,Increment      1: Step Time =    1.000,"PART-1-1",           367,          1.25,           -5.,            0.,NA,NA,"",   207.018E-03,  -43.4772E-03,   202.402E-03,   6.02541E-03
C:/temp/dataset/6/23_20.odb,Step-1,Increment      1: Step Time =    1.000,"PART-1-1",           368,       2.17596,      -3.88848,            0.,NA,NA,"",   186.652E-03,  -26.4277E-03,   184.772E-03,   4.96233E-03
C:/temp/dataset/6/23_20.odb,Step-1,Increment      1: Step Time =    1.000,"PART-1-1",           369,   93.5104E-03,  -560.922E-03,            0.,NA,NA,"",   218.349E-03,  -3.39841E-03,   218.322E-03,   8.16493E-03
C:/temp/dataset/6/23_20.odb,Step-1,Increment      1: Step Time =    1.000,"PART-1-1",           370,   627.873E-03,   544.404E-03,            0.,NA,NA,"",   207.880E-03,   91.1354E-06,   207.880E-03,   7.57200E-03
C:/temp/dataset/6/23_20.odb,Step-1,Increment      1: Step Time =    1.000,"PART-1-1",           371,  -981.002E-03,       1.17096,            0.,NA,NA,"",   218.325E-03,  -5.54714E-03,   218.255E-03,   6.22915E-03
C:/temp/dataset/6/23_20.odb,Step-1,Increment      1: Step Time =    1.000,"PART-1-1",           372,      -1.51537,   65.6335E-03,            0.,NA,NA,"",   225.927E-03,  -8.93153E-03,   225.751E-03,   7.28148E-03
C:/temp/dataset/6/23_20.odb,Step-1,Increment      1: Step Time =    1.000,"PART-1-1",           373,       4.11258,       2.54084,            0.,NA,NA,"",   156.516E-03,   16.3300E-03,   155.661E-03,   5.62966E-03
C:/temp/dataset/6/23_20.odb,Step-1,Increment      1: Step Time =    1.000,"PART-1-1",           374,       3.71515,       1.12833,            0.,NA,NA,"",   162.161E-03,   7.31433E-03,   161.996E-03,   6.71204E-03
C:/temp/dataset/6/23_20.odb,Step-1,Increment      1: Step Time =    1.000,"PART-1-1",           375,       5.46602,   397.127E-03,            0.,NA,NA,"",   133.512E-03,   1.97388E-03,   133.498E-03,   5.99966E-03
C:/temp/dataset/6/23_20.odb,Step-1,Increment      1: Step Time =    1.000,"PART-1-1",           376,       8.69518,  -378.803E-03,            0.,NA,NA,"",   89.7602E-03,  -9.28220E-03,   89.2789E-03,   2.69054E-03
C:/temp/dataset/6/23_20.odb,Step-1,Increment      1: Step Time =    1.000,"PART-1-1",           377,       8.82700,   889.396E-03,            0.,NA,NA,"",   89.9683E-03,   2.30202E-03,   89.9388E-03,   1.87283E-03
C:/temp/dataset/6/23_20.odb,Step-1,Increment      1: Step Time =    1.000,"PART-1-1",           378,       6.97530,  -164.986E-03,            0.,NA,NA,"",   110.542E-03,  -4.71130E-03,   110.442E-03,   4.31815E-03
C:/temp/dataset/6/23_20.odb,Step-1,Increment      1: Step Time =    1.000,"PART-1-1",           379,      -3.65351,      -22.6081,            0.,NA,NA,"",   10.8586E-03,   2.69725E-03,   10.5183E-03,   2.30138E-03
C:/temp/dataset/6/23_20.odb,Step-1,Increment      1: Step Time =    1.000,"PART-1-1",           380,      -2.48671,      -21.3009,            0.,NA,NA,"",   8.50144E-03,   4.65379E-03,   7.11454E-03,   1.92553E-03
C:/temp/dataset/6/23_20.odb,Step-1,Increment      1: Step Time =    1.000,"PART-1-1",           381,         -3.75,          -20.,            0.,NA,NA,"",   19.1793E-03,   12.8995E-03,   14.1932E-03,   3.45476E-03
C:/temp/dataset/6/23_20.odb,Step-1,Increment      1: Step Time =    1.000,"PART-1-1",           382,      -4.91680,      -21.3072,            0.,NA,NA,"",   22.6445E-03,   8.68352E-03,   20.9134E-03,   4.99428E-03
C:/temp/dataset/6/23_20.odb,Step-1,Increment      1: Step Time =    1.000,"PART-1-1",           383,       12.8399,      -22.4784,            0.,NA,NA,"",   33.3453E-03,  -20.8405E-03,   26.0305E-03,   3.74753E-03
C:/temp/dataset/6/23_20.odb,Step-1,Increment      1: Step Time =    1.000,"PART-1-1",           384,       11.7398,      -21.2760,            0.,NA,NA,"",   36.0895E-03,  -23.5148E-03,   27.3772E-03,   3.74215E-03
C:/temp/dataset/6/23_20.odb,Step-1,Increment      1: Step Time =    1.000,"PART-1-1",           385,       10.5591,      -22.4389,            0.,NA,NA,"",   27.1659E-03,  -16.9050E-03,   21.2651E-03,   3.78190E-03
C:/temp/dataset/6/23_20.odb,Step-1,Increment      1: Step Time =    1.000,"PART-1-1",           386,       11.6593,      -23.6412,            0.,NA,NA,"",   24.4800E-03,  -14.7709E-03,   19.5215E-03,   3.77455E-03
C:/temp/dataset/6/23_20.odb,Step-1,Increment      1: Step Time =    1.000,"PART-1-1",           387,          8.75,            5.,            0.,NA,NA,"",   102.904E-03,   44.5144E-03,   92.7781E-03,   453.905E-06
C:/temp/dataset/6/23_20.odb,Step-1,Increment      1: Step Time =    1.000,"PART-1-1",           388,       7.62461,       4.03982,            0.,NA,NA,"",   111.409E-03,   33.9076E-03,   106.124E-03,   871.869E-06
C:/temp/dataset/6/23_20.odb,Step-1,Increment      1: Step Time =    1.000,"PART-1-1",           389,       8.90047,       2.96899,            0.,NA,NA,"",   93.4817E-03,   22.5370E-03,   90.7243E-03,   927.287E-06
C:/temp/dataset/6/23_20.odb,Step-1,Increment      1: Step Time =    1.000,"PART-1-1",           390,       10.0259,       3.92917,            0.,NA,NA,"",   84.8894E-03,   32.2463E-03,   78.5263E-03,   483.527E-06
C:/temp/dataset/6/23_20.odb,Step-1,Increment      1: Step Time =    1.000,"PART-1-1",           391,      -6.96921,       21.1213,            0.,NA,NA,"",   278.875E-03,  -224.605E-03,   165.299E-03,   381.439E-09
C:/temp/dataset/6/23_20.odb,Step-1,Increment      1: Step Time =    1.000,"PART-1-1",           392,      -6.24133,       19.9816,            0.,NA,NA,"",   274.108E-03,  -212.540E-03,   173.095E-03,   713.102E-09
C:/temp/dataset/6/23_20.odb,Step-1,Increment      1: Step Time =    1.000,"PART-1-1",           393,           -5.,        20.625,            0.,NA,NA,"",   287.824E-03,  -219.444E-03,   186.244E-03,   1.28341E-06
C:/temp/dataset/6/23_20.odb,Step-1,Increment      1: Step Time =    1.000,"PART-1-1",           394,      -12.9370,       8.81410,            0.,NA,NA,"",   138.859E-03,  -93.5081E-03,   102.655E-03,   89.5041E-06
C:/temp/dataset/6/23_20.odb,Step-1,Increment      1: Step Time =    1.000,"PART-1-1",           395,          -15.,          8.75,            0.,NA,NA,"",   123.468E-03,  -92.8750E-03,   81.3547E-03,   267.717E-06
C:/temp/dataset/6/23_20.odb,Step-1,Increment      1: Step Time =    1.000,"PART-1-1",           396,      -13.9287,       7.51992,            0.,NA,NA,"",   122.515E-03,  -80.1381E-03,   92.6710E-03,   193.696E-06
C:/temp/dataset/6/23_20.odb,Step-1,Increment      1: Step Time =    1.000,"PART-1-1",           397,          -15.,          1.25,            0.,NA,NA,"",   85.0923E-03,  -21.4400E-03,   82.3470E-03,   643.718E-06
C:/temp/dataset/6/23_20.odb,Step-1,Increment      1: Step Time =    1.000,"PART-1-1",           398,      -13.9023,  -59.1614E-03,            0.,NA,NA,"",   91.7304E-03,  -10.7334E-03,   91.1003E-03,   1.28554E-03
C:/temp/dataset/6/23_20.odb,Step-1,Increment      1: Step Time =    1.000,"PART-1-1",           399,      -12.7542,       1.08470,            0.,NA,NA,"",   105.267E-03,  -21.0498E-03,   103.141E-03,   1.46615E-03
C:/temp/dataset/6/23_20.odb,Step-1,Increment      1: Step Time =    1.000,"PART-1-1",           400,          -15.,         -1.25,            0.,NA,NA,"",   80.2501E-03,   111.930E-06,   80.2501E-03,   1.06284E-03
C:/temp/dataset/6/23_20.odb,Step-1,Increment      1: Step Time =    1.000,"PART-1-1",           401,      -13.9820,      -2.43756,            0.,NA,NA,"",   88.1733E-03,   9.66757E-03,   87.6417E-03,   1.50395E-03
C:/temp/dataset/6/23_20.odb,Step-1,Increment      1: Step Time =    1.000,"PART-1-1",           402,      -12.8843,      -1.24672,            0.,NA,NA,"",   98.9368E-03,  -1.44633E-03,   98.9262E-03,   1.75873E-03
C:/temp/dataset/6/23_20.odb,Step-1,Increment      1: Step Time =    1.000,"PART-1-1",           403,      -12.3802,      -13.7897,            0.,NA,NA,"",   93.2313E-03,   57.0733E-03,   73.7205E-03,   3.99393E-03
C:/temp/dataset/6/23_20.odb,Step-1,Increment      1: Step Time =    1.000,"PART-1-1",           404,      -13.6672,      -12.5056,            0.,NA,NA,"",   96.6784E-03,   59.7574E-03,   75.9985E-03,   2.41095E-03
C:/temp/dataset/6/23_20.odb,Step-1,Increment      1: Step Time =    1.000,"PART-1-1",           405,          -15.,        -13.75,            0.,NA,NA,"",   95.1753E-03,   60.2003E-03,   73.7175E-03,   1.61140E-03
C:/temp/dataset/6/23_20.odb,Step-1,Increment      1: Step Time =    1.000,"PART-1-1",           406,      -13.7130,      -15.0341,            0.,NA,NA,"",   90.1140E-03,   56.8581E-03,   69.9121E-03,   3.14906E-03
C:/temp/dataset/6/23_20.odb,Step-1,Increment      1: Step Time =    1.000,"PART-1-1",           407,       9.21271,      -3.58583,            0.,NA,NA,"",   85.7522E-03,  -37.8434E-03,   76.9501E-03,   2.60979E-03
C:/temp/dataset/6/23_20.odb,Step-1,Increment      1: Step Time =    1.000,"PART-1-1",           408,       7.90749,      -3.82305,            0.,NA,NA,"",   95.3146E-03,  -38.2707E-03,   87.2939E-03,   3.99872E-03
C:/temp/dataset/6/23_20.odb,Step-1,Increment      1: Step Time =    1.000,"PART-1-1",           409,       8.15132,      -5.16923,            0.,NA,NA,"",   93.9682E-03,  -48.0096E-03,   80.7781E-03,   3.76414E-03
C:/temp/dataset/6/23_20.odb,Step-1,Increment      1: Step Time =    1.000,"PART-1-1",           410,       9.45655,      -4.93201,            0.,NA,NA,"",   86.3805E-03,  -47.3850E-03,   72.2236E-03,   2.48515E-03
C:/temp/dataset/6/23_20.odb,Step-1,Increment      1: Step Time =    1.000,"PART-1-1",           411,       6.91243,      -16.0318,            0.,NA,NA,"",   52.2741E-03,  -38.4809E-03,   35.3809E-03,   4.61578E-03
C:/temp/dataset/6/23_20.odb,Step-1,Increment      1: Step Time =    1.000,"PART-1-1",           412,       5.96229,      -14.9858,            0.,NA,NA,"",   55.1903E-03,  -40.3214E-03,   37.6850E-03,   5.28380E-03
C:/temp/dataset/6/23_20.odb,Step-1,Increment      1: Step Time =    1.000,"PART-1-1",           413,            5.,      -16.2875,            0.,NA,NA,"",   43.8656E-03,  -33.2988E-03,   28.5549E-03,   5.20128E-03
C:/temp/dataset/6/23_20.odb,Step-1,Increment      1: Step Time =    1.000,"PART-1-1",           414,       6.93910,      -13.7291,            0.,NA,NA,"",   65.0212E-03,  -46.6609E-03,   45.2826E-03,   5.24550E-03
C:/temp/dataset/6/23_20.odb,Step-1,Increment      1: Step Time =    1.000,"PART-1-1",           415,       5.97681,      -12.5371,            0.,NA,NA,"",   69.0551E-03,  -47.4105E-03,   50.2080E-03,   6.13477E-03
C:/temp/dataset/6/23_20.odb,Step-1,Increment      1: Step Time =    1.000,"PART-1-1",           416,            5.,      -13.7937,            0.,NA,NA,"",   58.5819E-03,  -41.5508E-03,   41.2962E-03,   6.24659E-03
C:/temp/dataset/6/23_20.odb,Step-1,Increment      1: Step Time =    1.000,"PART-1-1",           417,         -1.25,          -20.,            0.,NA,NA,"",   7.33615E-03,   4.96273E-03,   5.40282E-03,   3.20174E-03
C:/temp/dataset/6/23_20.odb,Step-1,Increment      1: Step Time =    1.000,"PART-1-1",           418,      -1.09514,      -22.7401,            0.,NA,NA,"",   2.65869E-03,   131.040E-06,   2.65545E-03,   893.124E-06
C:/temp/dataset/6/23_20.odb,Step-1,Increment      1: Step Time =    1.000,"PART-1-1",           419,   141.566E-03,      -21.4393,            0.,NA,NA,"",   2.16468E-03,  -111.021E-06,   2.16183E-03,   1.97112E-03
C:/temp/dataset/6/23_20.odb,Step-1,Increment      1: Step Time =    1.000,"PART-1-1",           420,      -7.69236,      -25.1479,            0.,NA,NA,"",   16.3584E-03,   5.09844E-03,   15.5435E-03,   4.53034E-03
C:/temp/dataset/6/23_20.odb,Step-1,Increment      1: Step Time =    1.000,"PART-1-1",           421,      -9.18951,      -25.9970,            0.,NA,NA,"",   15.6924E-03,   6.13315E-03,   14.4442E-03,   4.95738E-03
C:/temp/dataset/6/23_20.odb,Step-1,Increment      1: Step Time =    1.000,"PART-1-1",           422,      -8.56598,      -27.1897,            0.,NA,NA,"",   9.21622E-03,   2.42302E-03,   8.89200E-03,   4.15840E-03
C:/temp/dataset/6/23_20.odb,Step-1,Increment      1: Step Time =    1.000,"PART-1-1",           423,      -7.06883,      -26.3407,            0.,NA,NA,"",   10.1611E-03,   1.63088E-03,   10.0293E-03,   3.74740E-03
C:/temp/dataset/6/23_20.odb,Step-1,Increment      1: Step Time =    1.000,"PART-1-1",           424,      -9.82073,      -13.8964,            0.,NA,NA,"",   91.9538E-03,   51.6969E-03,   76.0456E-03,   5.98840E-03
C:/temp/dataset/6/23_20.odb,Step-1,Increment      1: Step Time =    1.000,"PART-1-1",           425,      -8.65586,      -15.1239,            0.,NA,NA,"",   83.8849E-03,   46.1186E-03,   70.0696E-03,   6.71705E-03
C:/temp/dataset/6/23_20.odb,Step-1,Increment      1: Step Time =    1.000,"PART-1-1",           426,      -8.53523,      -12.6467,            0.,NA,NA,"",   98.5782E-03,   49.6539E-03,   85.1596E-03,   7.10654E-03
C:/temp/dataset/6/23_20.odb,Step-1,Increment      1: Step Time =    1.000,"PART-1-1",           427,      -6.09243,      -10.1071,            0.,NA,NA,"",   117.544E-03,   39.7578E-03,   110.616E-03,   10.3414E-03
C:/temp/dataset/6/23_20.odb,Step-1,Increment      1: Step Time =    1.000,"PART-1-1",           428,           -5.,      -8.71250,            0.,NA,NA,"",   131.553E-03,   31.0442E-03,   127.838E-03,   12.8206E-03
C:/temp/dataset/6/23_20.odb,Step-1,Increment      1: Step Time =    1.000,"PART-1-1",           429,      -6.07322,      -7.75598,            0.,NA,NA,"",   139.620E-03,   35.0171E-03,   135.157E-03,   11.4838E-03
C:/temp/dataset/6/23_20.odb,Step-1,Increment      1: Step Time =    1.000,"PART-1-1",           430,      -12.7270,      -6.06323,            0.,NA,NA,"",   99.0154E-03,   37.6417E-03,   91.5814E-03,   2.13070E-03
C:/temp/dataset/6/23_20.odb,Step-1,Increment      1: Step Time =    1.000,"PART-1-1",           431,      -13.8025,      -4.90646,            0.,NA,NA,"",   91.0665E-03,   29.9379E-03,   86.0048E-03,   1.39464E-03
C:/temp/dataset/6/23_20.odb,Step-1,Increment      1: Step Time =    1.000,"PART-1-1",           432,          -15.,         -6.25,            0.,NA,NA,"",   86.6264E-03,   40.0654E-03,   76.8043E-03,   279.099E-06
C:/temp/dataset/6/23_20.odb,Step-1,Increment      1: Step Time =    1.000,"PART-1-1",           433,      -13.9244,      -7.40677,            0.,NA,NA,"",   94.8850E-03,   46.7867E-03,   82.5480E-03,   1.06326E-03
C:/temp/dataset/6/23_20.odb,Step-1,Increment      1: Step Time =    1.000,"PART-1-1",           434,       1.60591,      -1.50045,            0.,NA,NA,"",   198.150E-03,  -3.87629E-03,   198.112E-03,   9.40920E-03
C:/temp/dataset/6/23_20.odb,Step-1,Increment      1: Step Time =    1.000,"PART-1-1",           435,  -853.298E-03,      -1.92043,            0.,NA,NA,"",   236.712E-03,  -8.07028E-03,   236.575E-03,   10.3311E-03
C:/temp/dataset/6/23_20.odb,Step-1,Increment      1: Step Time =    1.000,"PART-1-1",           436,         13.75,          -30.,            0.,NA,NA,"",            0.,  -550.792E-42,   7.44592E-39,   5.05657E-03
C:/temp/dataset/6/23_20.odb,Step-1,Increment      1: Step Time =    1.000,"PART-1-1",           437,           15.,      -28.9063,            0.,NA,NA,"",   8.15301E-03,  -5.75960E-03,   5.77049E-03,   5.77278E-03
C:/temp/dataset/6/23_20.odb,Step-1,Increment      1: Step Time =    1.000,"PART-1-1",           438,       13.8103,      -27.8746,            0.,NA,NA,"",   10.3930E-03,  -6.51078E-03,   8.10085E-03,   4.58029E-03
C:/temp/dataset/6/23_20.odb,Step-1,Increment      1: Step Time =    1.000,"PART-1-1",           439,       12.5603,      -28.9683,            0.,NA,NA,"",   3.47113E-03,  -1.86091E-03,   2.93015E-03,   3.62637E-03
C:/temp/dataset/6/23_20.odb,Step-1,Increment      1: Step Time =    1.000,"PART-1-1",           440,       12.6598,      -26.8678,            0.,NA,NA,"",   12.6288E-03,  -7.37097E-03,   10.2545E-03,   4.07418E-03
C:/temp/dataset/6/23_20.odb,Step-1,Increment      1: Step Time =    1.000,"PART-1-1",           441,       11.5501,      -25.8632,            0.,NA,NA,"",   14.5134E-03,  -8.17691E-03,   11.9907E-03,   3.72636E-03
C:/temp/dataset/6/23_20.odb,Step-1,Increment      1: Step Time =    1.000,"PART-1-1",           442,       10.3093,      -26.9762,            0.,NA,NA,"",   8.10049E-03,  -3.95536E-03,   7.06916E-03,   3.12585E-03
C:/temp/dataset/6/23_20.odb,Step-1,Increment      1: Step Time =    1.000,"PART-1-1",           443,       11.4189,      -27.9808,            0.,NA,NA,"",   6.05112E-03,  -3.14784E-03,   5.16789E-03,   3.48583E-03
C:/temp/dataset/6/23_20.odb,Step-1,Increment      1: Step Time =    1.000,"PART-1-1",           444,       10.1086,      -29.0125,            0.,NA,NA,"",   2.11872E-03,  -676.684E-06,   2.00776E-03,   2.55468E-03
C:/temp/dataset/6/23_20.odb,Step-1,Increment      1: Step Time =    1.000,"PART-1-1",           445,       9.01957,      -28.0513,            0.,NA,NA,"",   3.73941E-03,  -1.18036E-03,   3.54823E-03,   2.37045E-03
C:/temp/dataset/6/23_20.odb,Step-1,Increment      1: Step Time =    1.000,"PART-1-1",           446,          8.75,          -30.,            0.,NA,NA,"",            0.,   49.4897E-42,   3.84665E-39,   2.01236E-03
C:/temp/dataset/6/23_20.odb,Step-1,Increment      1: Step Time =    1.000,"PART-1-1",           447,       4.20973,      -27.9354,            0.,NA,NA,"",   1.18282E-03,  -44.8075E-06,   1.18197E-03,   776.113E-06
C:/temp/dataset/6/23_20.odb,Step-1,Increment      1: Step Time =    1.000,"PART-1-1",           448,       2.74203,      -28.9082,            0.,NA,NA,"",   418.451E-06,  -59.5451E-06,   414.192E-06,   532.613E-06
C:/temp/dataset/6/23_20.odb,Step-1,Increment      1: Step Time =    1.000,"PART-1-1",           449,          3.75,          -30.,            0.,NA,NA,"",            0.,   174.158E-42,   1.43651E-39,   752.816E-06
C:/temp/dataset/6/23_20.odb,Step-1,Increment      1: Step Time =    1.000,"PART-1-1",           450,       1.16266,      -25.9573,            0.,NA,NA,"",   1.43194E-03,  -1.29753E-03,   605.690E-06,   355.027E-06
C:/temp/dataset/6/23_20.odb,Step-1,Increment      1: Step Time =    1.000,"PART-1-1",           451,       1.65415,      -27.4536,            0.,NA,NA,"",   930.984E-06,  -760.627E-06,   536.821E-06,   561.767E-06
C:/temp/dataset/6/23_20.odb,Step-1,Increment      1: Step Time =    1.000,"PART-1-1",           452,       3.39879,      -26.8461,            0.,NA,NA,"",   1.37869E-03,  -550.173E-06,   1.26416E-03,   555.171E-06
C:/temp/dataset/6/23_20.odb,Step-1,Increment      1: Step Time =    1.000,"PART-1-1",           453,       2.90730,      -25.3498,            0.,NA,NA,"",   1.91165E-03,  -1.29704E-03,   1.40432E-03,   403.514E-06
C:/temp/dataset/6/23_20.odb,Step-1,Increment      1: Step Time =    1.000,"PART-1-1",           454,      -3.67645,      -27.5530,            0.,NA,NA,"",   3.45613E-03,  -1.86924E-03,   2.90702E-03,   1.62459E-03
C:/temp/dataset/6/23_20.odb,Step-1,Increment      1: Step Time =    1.000,"PART-1-1",           455,      -2.54816,      -26.3074,            0.,NA,NA,"",   3.51180E-03,  -1.92100E-03,   2.93981E-03,   1.19666E-03
C:/temp/dataset/6/23_20.odb,Step-1,Increment      1: Step Time =    1.000,"PART-1-1",           456,      -3.72120,      -25.1278,            0.,NA,NA,"",   6.40481E-03,  -807.783E-06,   6.35367E-03,   1.96280E-03
C:/temp/dataset/6/23_20.odb,Step-1,Increment      1: Step Time =    1.000,"PART-1-1",           457,      -4.84948,      -26.3734,            0.,NA,NA,"",   6.42155E-03,  -973.968E-06,   6.34726E-03,   2.41264E-03
C:/temp/dataset/6/23_20.odb,Step-1,Increment      1: Step Time =    1.000,"PART-1-1",           458,      -4.94498,      -28.7931,            0.,NA,NA,"",   2.28230E-03,  -1.22457E-03,   1.92596E-03,   2.14780E-03
C:/temp/dataset/6/23_20.odb,Step-1,Increment      1: Step Time =    1.000,"PART-1-1",           459,         -3.75,          -30.,            0.,NA,NA,"",            0.,  -979.243E-42,   2.92090E-39,   1.77557E-03
C:/temp/dataset/6/23_20.odb,Step-1,Increment      1: Step Time =    1.000,"PART-1-1",           460,      -6.07748,      -27.5364,            0.,NA,NA,"",   5.35492E-03,  -704.321E-06,   5.30840E-03,   2.80194E-03
C:/temp/dataset/6/23_20.odb,Step-1,Increment      1: Step Time =    1.000,"PART-1-1",           461,      -7.38250,      -28.7433,            0.,NA,NA,"",   3.12279E-03,  -307.638E-06,   3.10760E-03,   3.16273E-03
C:/temp/dataset/6/23_20.odb,Step-1,Increment      1: Step Time =    1.000,"PART-1-1",           462,         -6.25,          -30.,            0.,NA,NA,"",            0.,  -749.319E-42,   4.75743E-39,   2.55698E-03
C:/temp/dataset/6/23_20.odb,Step-1,Increment      1: Step Time =    1.000,"PART-1-1",           463,      -8.77755,      -24.1806,            0.,NA,NA,"",   24.3728E-03,   10.4477E-03,   22.0199E-03,   5.36888E-03
C:/temp/dataset/6/23_20.odb,Step-1,Increment      1: Step Time =    1.000,"PART-1-1",           464,      -9.92276,      -23.8066,            0.,NA,NA,"",   29.9586E-03,   14.8298E-03,   26.0306E-03,   5.77839E-03
C:/temp/dataset/6/23_20.odb,Step-1,Increment      1: Step Time =    1.000,"PART-1-1",           465,      -10.3347,      -25.6230,            0.,NA,NA,"",   20.3420E-03,   9.73482E-03,   17.8614E-03,   5.41443E-03
C:/temp/dataset/6/23_20.odb,Step-1,Increment      1: Step Time =    1.000,"PART-1-1",           466,       13.9544,      -21.3085,            0.,NA,NA,"",   42.5713E-03,  -27.0560E-03,   32.8677E-03,   3.62652E-03
C:/temp/dataset/6/23_20.odb,Step-1,Increment      1: Step Time =    1.000,"PART-1-1",           467,       13.8855,      -23.5136,            0.,NA,NA,"",   31.6220E-03,  -19.1473E-03,   25.1661E-03,   4.03588E-03
C:/temp/dataset/6/23_20.odb,Step-1,Increment      1: Step Time =    1.000,"PART-1-1",           468,           15.,      -22.3438,            0.,NA,NA,"",   41.2583E-03,  -25.0786E-03,   32.7615E-03,   3.96810E-03
C:/temp/dataset/6/23_20.odb,Step-1,Increment      1: Step Time =    1.000,"PART-1-1",           469,       12.7349,      -24.6944,            0.,NA,NA,"",   22.5866E-03,  -13.4394E-03,   18.1532E-03,   3.98591E-03
C:/temp/dataset/6/23_20.odb,Step-1,Increment      1: Step Time =    1.000,"PART-1-1",           470,       13.8494,      -25.7120,            0.,NA,NA,"",   21.1696E-03,  -12.6812E-03,   16.9511E-03,   4.28267E-03
C:/temp/dataset/6/23_20.odb,Step-1,Increment      1: Step Time =    1.000,"PART-1-1",           471,           15.,      -24.5313,            0.,NA,NA,"",   30.4567E-03,  -18.1411E-03,   24.4645E-03,   4.33304E-03
C:/temp/dataset/6/23_20.odb,Step-1,Increment      1: Step Time =    1.000,"PART-1-1",           472,         11.25,          -30.,            0.,NA,NA,"",            0.,  -507.608E-42,   5.47139E-39,   2.79791E-03
C:/temp/dataset/6/23_20.odb,Step-1,Increment      1: Step Time =    1.000,"PART-1-1",           473,       13.9950,      -12.5232,            0.,NA,NA,"",   76.9967E-03,  -58.9524E-03,   49.5288E-03,   850.472E-06
C:/temp/dataset/6/23_20.odb,Step-1,Increment      1: Step Time =    1.000,"PART-1-1",           474,       12.9942,      -13.6844,            0.,NA,NA,"",   73.2077E-03,  -55.6107E-03,   47.6111E-03,   2.04210E-03
C:/temp/dataset/6/23_20.odb,Step-1,Increment      1: Step Time =    1.000,"PART-1-1",           475,           15.,      -13.5938,            0.,NA,NA,"",   76.1570E-03,  -56.6569E-03,   50.8909E-03,   275.365E-06
C:/temp/dataset/6/23_20.odb,Step-1,Increment      1: Step Time =    1.000,"PART-1-1",           476,       9.85236,      -17.2546,            0.,NA,NA,"",   52.6235E-03,  -38.2701E-03,   36.1197E-03,   3.87223E-03
C:/temp/dataset/6/23_20.odb,Step-1,Increment      1: Step Time =    1.000,"PART-1-1",           477,       8.68427,      -17.7513,            0.,NA,NA,"",   47.2886E-03,  -34.0846E-03,   32.7788E-03,   4.08606E-03
C:/temp/dataset/6/23_20.odb,Step-1,Increment      1: Step Time =    1.000,"PART-1-1",           478,       8.96140,      -18.9835,            0.,NA,NA,"",   41.0240E-03,  -28.6837E-03,   29.3294E-03,   4.05910E-03
C:/temp/dataset/6/23_20.odb,Step-1,Increment      1: Step Time =    1.000,"PART-1-1",           479,       10.1295,      -18.4868,            0.,NA,NA,"",   46.6135E-03,  -33.0532E-03,   32.8680E-03,   3.85769E-03
C:/temp/dataset/6/23_20.odb,Step-1,Increment      1: Step Time =    1.000,"PART-1-1",           480,       11.2436,      -18.3856,            0.,NA,NA,"",   49.6791E-03,  -35.2645E-03,   34.9919E-03,   3.63142E-03
C:/temp/dataset/6/23_20.odb,Step-1,Increment      1: Step Time =    1.000,"PART-1-1",           481,       12.3956,      -19.2305,            0.,NA,NA,"",   48.1752E-03,  -33.2114E-03,   34.8977E-03,   3.40269E-03
C:/temp/dataset/6/23_20.odb,Step-1,Increment      1: Step Time =    1.000,"PART-1-1",           482,       13.1120,      -18.1414,            0.,NA,NA,"",   55.3717E-03,  -38.9007E-03,   39.4051E-03,   2.98382E-03
C:/temp/dataset/6/23_20.odb,Step-1,Increment      1: Step Time =    1.000,"PART-1-1",           483,       11.9600,      -17.2965,            0.,NA,NA,"",   56.7262E-03,  -41.0841E-03,   39.1147E-03,   3.22571E-03
C:/temp/dataset/6/23_20.odb,Step-1,Increment      1: Step Time =    1.000,"PART-1-1",           484,       14.0024,      -3.77677,            0.,NA,NA,"",   59.2569E-03,  -39.9775E-03,   43.7400E-03,   1.24523E-03
C:/temp/dataset/6/23_20.odb,Step-1,Increment      1: Step Time =    1.000,"PART-1-1",           485,       13.0359,      -4.87313,            0.,NA,NA,"",   69.2341E-03,  -47.4208E-03,   50.4443E-03,   386.710E-06
C:/temp/dataset/6/23_20.odb,Step-1,Increment      1: Step Time =    1.000,"PART-1-1",           486,       14.0335,      -5.94012,            0.,NA,NA,"",   69.8934E-03,  -52.5810E-03,   46.0471E-03,   1.34569E-03
C:/temp/dataset/6/23_20.odb,Step-1,Increment      1: Step Time =    1.000,"PART-1-1",           487,           15.,      -4.84375,            0.,NA,NA,"",   60.4770E-03,  -46.0557E-03,   39.1961E-03,   2.25436E-03
C:/temp/dataset/6/23_20.odb,Step-1,Increment      1: Step Time =    1.000,"PART-1-1",           488,       13.0510,      -7.01836,            0.,NA,NA,"",   76.6546E-03,  -57.2030E-03,   51.0269E-03,   523.969E-06
C:/temp/dataset/6/23_20.odb,Step-1,Increment      1: Step Time =    1.000,"PART-1-1",           489,       14.0175,      -8.10950,            0.,NA,NA,"",   76.8738E-03,  -59.7616E-03,   48.3542E-03,   1.08767E-03
C:/temp/dataset/6/23_20.odb,Step-1,Increment      1: Step Time =    1.000,"PART-1-1",           490,           15.,      -7.03125,            0.,NA,NA,"",   71.2359E-03,  -56.1353E-03,   43.8563E-03,   2.20807E-03
C:/temp/dataset/6/23_20.odb,Step-1,Increment      1: Step Time =    1.000,"PART-1-1",           491,         13.75,            5.,            0.,NA,NA,"",   59.0649E-03,   41.8394E-03,   41.6909E-03,   118.601E-06
C:/temp/dataset/6/23_20.odb,Step-1,Increment      1: Step Time =    1.000,"PART-1-1",           492,       12.4982,       3.90020,            0.,NA,NA,"",   62.1656E-03,   31.1376E-03,   53.8053E-03,   399.443E-06
C:/temp/dataset/6/23_20.odb,Step-1,Increment      1: Step Time =    1.000,"PART-1-1",           493,       13.7482,       2.80645,            0.,NA,NA,"",   46.3671E-03,   19.8882E-03,   41.8851E-03,   353.850E-06
C:/temp/dataset/6/23_20.odb,Step-1,Increment      1: Step Time =    1.000,"PART-1-1",           494,           15.,       3.90625,            0.,NA,NA,"",   42.7203E-03,   30.9264E-03,   29.4717E-03,   108.387E-06
C:/temp/dataset/6/23_20.odb,Step-1,Increment      1: Step Time =    1.000,"PART-1-1",           495,         11.25,            5.,            0.,NA,NA,"",   78.7614E-03,   42.7182E-03,   66.1703E-03,   551.004E-06
C:/temp/dataset/6/23_20.odb,Step-1,Increment      1: Step Time =    1.000,"PART-1-1",           496,       11.2740,       2.82937,            0.,NA,NA,"",   68.7216E-03,   20.4699E-03,   65.6022E-03,   311.905E-06
C:/temp/dataset/6/23_20.odb,Step-1,Increment      1: Step Time =    1.000,"PART-1-1",           497,       11.1422,   446.578E-03,            0.,NA,NA,"",   66.1227E-03,  -3.41958E-03,   66.0342E-03,   762.259E-06
C:/temp/dataset/6/23_20.odb,Step-1,Increment      1: Step Time =    1.000,"PART-1-1",           498,       10.2035,  -836.101E-03,            0.,NA,NA,"",   75.0617E-03,  -15.0417E-03,   73.5391E-03,   1.43962E-03
C:/temp/dataset/6/23_20.odb,Step-1,Increment      1: Step Time =    1.000,"PART-1-1",           499,       11.7017,      -1.82731,            0.,NA,NA,"",   64.7956E-03,  -24.7966E-03,   59.8632E-03,   866.914E-06
C:/temp/dataset/6/23_20.odb,Step-1,Increment      1: Step Time =    1.000,"PART-1-1",           500,       12.5035,       1.67834,            0.,NA,NA,"",   54.3983E-03,   8.51071E-03,   53.7285E-03,   622.786E-06
C:/temp/dataset/6/23_20.odb,Step-1,Increment      1: Step Time =    1.000,"PART-1-1",           501,       9.91277,       1.59761,            0.,NA,NA,"",   79.3572E-03,   8.44983E-03,   78.9060E-03,   894.939E-06
C:/temp/dataset/6/23_20.odb,Step-1,Increment      1: Step Time =    1.000,"PART-1-1",           502,       5.19643,       3.92738,            0.,NA,NA,"",   142.097E-03,   30.5291E-03,   138.779E-03,   2.94902E-03
C:/temp/dataset/6/23_20.odb,Step-1,Increment      1: Step Time =    1.000,"PART-1-1",           503,          3.75,            5.,            0.,NA,NA,"",   161.988E-03,   38.9609E-03,   157.233E-03,   4.75366E-03
C:/temp/dataset/6/23_20.odb,Step-1,Increment      1: Step Time =    1.000,"PART-1-1",           504,       2.66615,       3.61346,            0.,NA,NA,"",   175.927E-03,   19.9989E-03,   174.787E-03,   5.97429E-03
C:/temp/dataset/6/23_20.odb,Step-1,Increment      1: Step Time =    1.000,"PART-1-1",           505,      -1.00804,       2.95894,            0.,NA,NA,"",   211.201E-03,  -3.35816E-03,   211.174E-03,   6.90335E-03
C:/temp/dataset/6/23_20.odb,Step-1,Increment      1: Step Time =    1.000,"PART-1-1",           506,   87.8012E-03,       3.95476,            0.,NA,NA,"",   201.296E-03,   7.03925E-03,   201.173E-03,   8.81279E-03
C:/temp/dataset/6/23_20.odb,Step-1,Increment      1: Step Time =    1.000,"PART-1-1",           507,         -1.25,            5.,            0.,NA,NA,"",   202.894E-03,  -1.16462E-03,   202.891E-03,   11.6809E-03
C:/temp/dataset/6/23_20.odb,Step-1,Increment      1: Step Time =    1.000,"PART-1-1",           508,      -2.34584,       4.00418,            0.,NA,NA,"",   209.135E-03,  -12.6431E-03,   208.753E-03,   9.56748E-03
C:/temp/dataset/6/23_20.odb,Step-1,Increment      1: Step Time =    1.000,"PART-1-1",           509,      -3.27281,       2.96378,            0.,NA,NA,"",   210.541E-03,  -17.7161E-03,   209.795E-03,   6.41693E-03
C:/temp/dataset/6/23_20.odb,Step-1,Increment      1: Step Time =    1.000,"PART-1-1",           510,         -3.75,            5.,            0.,NA,NA,"",   201.340E-03,  -28.9689E-03,   199.245E-03,   11.5219E-03
C:/temp/dataset/6/23_20.odb,Step-1,Increment      1: Step Time =    1.000,"PART-1-1",           511,      -4.67697,       3.95960,            0.,NA,NA,"",   199.097E-03,  -29.4529E-03,   196.906E-03,   7.07554E-03
C:/temp/dataset/6/23_20.odb,Step-1,Increment      1: Step Time =    1.000,"PART-1-1",           512,      -7.93004,       8.58536,            0.,NA,NA,"",   180.245E-03,  -91.3039E-03,   155.408E-03,   152.485E-06
C:/temp/dataset/6/23_20.odb,Step-1,Increment      1: Step Time =    1.000,"PART-1-1",           513,      -8.65034,       7.25415,            0.,NA,NA,"",   166.417E-03,  -76.8749E-03,   147.597E-03,   506.786E-06
C:/temp/dataset/6/23_20.odb,Step-1,Increment      1: Step Time =    1.000,"PART-1-1",           514,      -7.51010,       6.50150,            0.,NA,NA,"",   173.977E-03,  -68.0606E-03,   160.112E-03,   730.661E-06
C:/temp/dataset/6/23_20.odb,Step-1,Increment      1: Step Time =    1.000,"PART-1-1",           515,      -6.78981,       7.83270,            0.,NA,NA,"",   187.395E-03,  -83.0253E-03,   167.999E-03,   185.004E-06
C:/temp/dataset/6/23_20.odb,Step-1,Increment      1: Step Time =    1.000,"PART-1-1",           516,      -7.08495,       12.0475,            0.,NA,NA,"",   208.702E-03,  -128.348E-03,   164.570E-03,   111.125E-06
C:/temp/dataset/6/23_20.odb,Step-1,Increment      1: Step Time =    1.000,"PART-1-1",           517,      -6.02998,       11.1050,            0.,NA,NA,"",   212.130E-03,  -118.407E-03,   176.008E-03,   115.985E-06
C:/temp/dataset/6/23_20.odb,Step-1,Increment      1: Step Time =    1.000,"PART-1-1",           518,           -5.,       12.2917,            0.,NA,NA,"",   228.206E-03,  -131.022E-03,   186.845E-03,   109.028E-06
C:/temp/dataset/6/23_20.odb,Step-1,Increment      1: Step Time =    1.000,"PART-1-1",           519,      -6.05497,       13.2342,            0.,NA,NA,"",   225.116E-03,  -140.977E-03,   175.507E-03,   50.5155E-06
C:/temp/dataset/6/23_20.odb,Step-1,Increment      1: Step Time =    1.000,"PART-1-1",           520,      -9.96524,       21.0498,            0.,NA,NA,"",   260.472E-03,  -223.674E-03,   133.475E-03,   1.22163E-06
C:/temp/dataset/6/23_20.odb,Step-1,Increment      1: Step Time =    1.000,"PART-1-1",           521,      -8.51702,       20.1362,            0.,NA,NA,"",   260.755E-03,  -214.052E-03,   148.912E-03,   1.45322E-06
C:/temp/dataset/6/23_20.odb,Step-1,Increment      1: Step Time =    1.000,"PART-1-1",           522,      -8.09442,       21.6565,            0.,NA,NA,"",   276.604E-03,  -230.226E-03,   153.316E-03,   506.327E-09
C:/temp/dataset/6/23_20.odb,Step-1,Increment      1: Step Time =    1.000,"PART-1-1",           523,      -9.54264,       22.5701,            0.,NA,NA,"",   276.655E-03,  -239.849E-03,   137.879E-03,   447.913E-09
C:/temp/dataset/6/23_20.odb,Step-1,Increment      1: Step Time =    1.000,"PART-1-1",           524,      -7.38593,       19.0122,            0.,NA,NA,"",   258.447E-03,  -202.180E-03,   160.991E-03,   4.38351E-06
C:/temp/dataset/6/23_20.odb,Step-1,Increment      1: Step Time =    1.000,"PART-1-1",           525,      -6.14460,       17.5723,            0.,NA,NA,"",   255.582E-03,  -186.964E-03,   174.260E-03,   4.33651E-06
C:/temp/dataset/6/23_20.odb,Step-1,Increment      1: Step Time =    1.000,"PART-1-1",           526,           -5.,       18.5417,            0.,NA,NA,"",   271.413E-03,  -197.320E-03,   186.359E-03,   761.439E-09
C:/temp/dataset/6/23_20.odb,Step-1,Increment      1: Step Time =    1.000,"PART-1-1",           527,      -9.12859,       24.1056,            0.,NA,NA,"",   293.001E-03,  -256.186E-03,   142.190E-03,   361.345E-09
C:/temp/dataset/6/23_20.odb,Step-1,Increment      1: Step Time =    1.000,"PART-1-1",           528,      -7.82088,       23.2603,            0.,NA,NA,"",   292.445E-03,  -247.279E-03,   156.131E-03,   390.662E-09
C:/temp/dataset/6/23_20.odb,Step-1,Increment      1: Step Time =    1.000,"PART-1-1",           529,      -7.11221,       24.6459,            0.,NA,NA,"",   308.907E-03,  -262.040E-03,   163.581E-03,   380.133E-09
C:/temp/dataset/6/23_20.odb,Step-1,Increment      1: Step Time =    1.000,"PART-1-1",           530,      -8.41993,       25.4912,            0.,NA,NA,"",   309.523E-03,  -270.947E-03,   149.641E-03,   288.369E-09
C:/temp/dataset/6/23_20.odb,Step-1,Increment      1: Step Time =    1.000,"PART-1-1",           531,           -5.,       28.9583,            0.,NA,NA,"",   359.670E-03,  -307.975E-03,   185.778E-03,   25.4651E-09
C:/temp/dataset/6/23_20.odb,Step-1,Increment      1: Step Time =    1.000,"PART-1-1",           532,         -6.25,           30.,            0.,NA,NA,"",   362.599E-03,  -318.972E-03,   172.439E-03,   24.9658E-09
C:/temp/dataset/6/23_20.odb,Step-1,Increment      1: Step Time =    1.000,"PART-1-1",           533,      -6.22481,       27.8751,            0.,NA,NA,"",   343.104E-03,  -296.398E-03,   172.827E-03,   102.128E-09
C:/temp/dataset/6/23_20.odb,Step-1,Increment      1: Step Time =    1.000,"PART-1-1",           534,      -11.1386,       27.5393,            0.,NA,NA,"",   316.452E-03,  -292.553E-03,   120.642E-03,   160.677E-09
C:/temp/dataset/6/23_20.odb,Step-1,Increment      1: Step Time =    1.000,"PART-1-1",           535,        -11.25,           30.,            0.,NA,NA,"",   340.294E-03,  -318.690E-03,   119.319E-03,   116.347E-09
C:/temp/dataset/6/23_20.odb,Step-1,Increment      1: Step Time =    1.000,"PART-1-1",           536,      -13.1147,       13.7606,            0.,NA,NA,"",   177.175E-03,  -145.958E-03,   100.434E-03,   52.0252E-06
C:/temp/dataset/6/23_20.odb,Step-1,Increment      1: Step Time =    1.000,"PART-1-1",           537,      -14.0658,       14.9906,            0.,NA,NA,"",   182.842E-03,  -159.007E-03,   90.2666E-03,   19.3507E-06
C:/temp/dataset/6/23_20.odb,Step-1,Increment      1: Step Time =    1.000,"PART-1-1",           538,          -15.,         13.75,            0.,NA,NA,"",   166.478E-03,  -145.756E-03,   80.4369E-03,   45.2105E-06
C:/temp/dataset/6/23_20.odb,Step-1,Increment      1: Step Time =    1.000,"PART-1-1",           539,      -9.42834,       18.6970,            0.,NA,NA,"",   242.679E-03,  -198.711E-03,   139.309E-03,   6.50635E-06
C:/temp/dataset/6/23_20.odb,Step-1,Increment      1: Step Time =    1.000,"PART-1-1",           540,      -8.29725,       17.5730,            0.,NA,NA,"",   240.476E-03,  -186.844E-03,   151.387E-03,   8.69488E-06
C:/temp/dataset/6/23_20.odb,Step-1,Increment      1: Step Time =    1.000,"PART-1-1",           541,      -12.7588,       6.21303,            0.,NA,NA,"",   124.309E-03,  -66.9818E-03,   104.719E-03,   253.493E-06
C:/temp/dataset/6/23_20.odb,Step-1,Increment      1: Step Time =    1.000,"PART-1-1",           542,          -15.,          6.25,            0.,NA,NA,"",   106.364E-03,  -67.4431E-03,   82.2478E-03,   296.154E-06
C:/temp/dataset/6/23_20.odb,Step-1,Increment      1: Step Time =    1.000,"PART-1-1",           543,      -9.01063,       9.47069,            0.,NA,NA,"",   175.559E-03,  -100.705E-03,   143.803E-03,   154.120E-06
C:/temp/dataset/6/23_20.odb,Step-1,Increment      1: Step Time =    1.000,"PART-1-1",           544,      -10.0811,       10.4578,            0.,NA,NA,"",   172.895E-03,  -111.091E-03,   132.483E-03,   141.226E-06
C:/temp/dataset/6/23_20.odb,Step-1,Increment      1: Step Time =    1.000,"PART-1-1",           545,      -10.9384,       9.05000,            0.,NA,NA,"",   156.375E-03,  -96.0535E-03,   123.397E-03,   113.947E-06
C:/temp/dataset/6/23_20.odb,Step-1,Increment      1: Step Time =    1.000,"PART-1-1",           546,      -9.86794,       8.06293,            0.,NA,NA,"",   159.559E-03,  -85.6502E-03,   134.622E-03,   174.392E-06
C:/temp/dataset/6/23_20.odb,Step-1,Increment      1: Step Time =    1.000,"PART-1-1",           547,      -7.23366,       1.29985,            0.,NA,NA,"",   171.146E-03,  -25.1542E-03,   169.287E-03,   6.35420E-03
C:/temp/dataset/6/23_20.odb,Step-1,Increment      1: Step Time =    1.000,"PART-1-1",           548,      -8.34685,   784.410E-03,            0.,NA,NA,"",   155.231E-03,  -22.4405E-03,   153.601E-03,   5.23616E-03
C:/temp/dataset/6/23_20.odb,Step-1,Increment      1: Step Time =    1.000,"PART-1-1",           549,      -7.43977,  -685.632E-03,            0.,NA,NA,"",   164.410E-03,  -16.4327E-03,   163.587E-03,   7.67025E-03
C:/temp/dataset/6/23_20.odb,Step-1,Increment      1: Step Time =    1.000,"PART-1-1",           550,      -12.4903,      -8.57964,            0.,NA,NA,"",   101.768E-03,   51.3335E-03,   87.8730E-03,   2.61857E-03
C:/temp/dataset/6/23_20.odb,Step-1,Increment      1: Step Time =    1.000,"PART-1-1",           551,          -15.,         -8.75,            0.,NA,NA,"",   93.5022E-03,   53.3943E-03,   76.7576E-03,   154.330E-06
C:/temp/dataset/6/23_20.odb,Step-1,Increment      1: Step Time =    1.000,"PART-1-1",           552,      -13.5658,      -9.92286,            0.,NA,NA,"",   98.7775E-03,   56.6421E-03,   80.9239E-03,   1.77560E-03
C:/temp/dataset/6/23_20.odb,Step-1,Increment      1: Step Time =    1.000,"PART-1-1",           553,      -11.9783,      -7.15971,            0.,NA,NA,"",   103.669E-03,   43.8964E-03,   93.9163E-03,   2.61015E-03
C:/temp/dataset/6/23_20.odb,Step-1,Increment      1: Step Time =    1.000,"PART-1-1",           554,      -11.8960,      -5.22799,            0.,NA,NA,"",   103.662E-03,   30.7183E-03,   99.0063E-03,   2.68331E-03
C:/temp/dataset/6/23_20.odb,Step-1,Increment      1: Step Time =    1.000,"PART-1-1",           555,      -12.4565,      -16.3452,            0.,NA,NA,"",   82.6346E-03,   51.4189E-03,   64.6883E-03,   4.46755E-03
C:/temp/dataset/6/23_20.odb,Step-1,Increment      1: Step Time =    1.000,"PART-1-1",           556,          -15.,        -16.25,            0.,NA,NA,"",   88.5619E-03,   55.6041E-03,   68.9304E-03,   2.73040E-03
C:/temp/dataset/6/23_20.odb,Step-1,Increment      1: Step Time =    1.000,"PART-1-1",           557,      -13.7435,      -17.5611,            0.,NA,NA,"",   79.5413E-03,   49.7071E-03,   62.0969E-03,   3.97366E-03
C:/temp/dataset/6/23_20.odb,Step-1,Increment      1: Step Time =    1.000,"PART-1-1",           558,      -9.99221,      -8.41662,            0.,NA,NA,"",   112.402E-03,   47.6158E-03,   101.819E-03,   4.75817E-03
C:/temp/dataset/6/23_20.odb,Step-1,Increment      1: Step Time =    1.000,"PART-1-1",           559,      -11.4633,      -9.12095,            0.,NA,NA,"",   105.190E-03,   52.1467E-03,   91.3548E-03,   3.63034E-03
C:/temp/dataset/6/23_20.odb,Step-1,Increment      1: Step Time =    1.000,"PART-1-1",           560,      -10.8070,      -10.1141,            0.,NA,NA,"",   105.549E-03,   53.7564E-03,   90.8343E-03,   4.61630E-03
C:/temp/dataset/6/23_20.odb,Step-1,Increment      1: Step Time =    1.000,"PART-1-1",           561,      -13.9189,      -24.9166,            0.,NA,NA,"",   36.3188E-03,   21.4733E-03,   29.2908E-03,   6.05800E-03
C:/temp/dataset/6/23_20.odb,Step-1,Increment      1: Step Time =    1.000,"PART-1-1",           562,      -12.9076,      -23.6273,            0.,NA,NA,"",   40.7016E-03,   23.5364E-03,   33.2062E-03,   5.79385E-03
C:/temp/dataset/6/23_20.odb,Step-1,Increment      1: Step Time =    1.000,"PART-1-1",           563,          -15.,        -23.75,            0.,NA,NA,"",   48.3263E-03,   28.5361E-03,   39.0016E-03,   5.81194E-03
C:/temp/dataset/6/23_20.odb,Step-1,Increment      1: Step Time =    1.000,"PART-1-1",           564,          -15.,        -28.75,            0.,NA,NA,"",   13.5739E-03,   9.65602E-03,   9.53999E-03,   8.16331E-03
C:/temp/dataset/6/23_20.odb,Step-1,Increment      1: Step Time =    1.000,"PART-1-1",           565,        -13.75,          -30.,            0.,NA,NA,"",            0.,   740.397E-42,   10.8539E-39,   7.55941E-03
C:/temp/dataset/6/23_20.odb,Step-1,Increment      1: Step Time =    1.000,"PART-1-1",           566,      -13.7642,      -27.4123,            0.,NA,NA,"",   18.5997E-03,   11.5922E-03,   14.5454E-03,   6.59146E-03
C:/temp/dataset/6/23_20.odb,Step-1,Increment      1: Step Time =    1.000,"PART-1-1",           567,            5.,      -6.25625,            0.,NA,NA,"",   108.563E-03,  -45.8358E-03,   98.4122E-03,   13.1794E-03
C:/temp/dataset/6/23_20.odb,Step-1,Increment      1: Step Time =    1.000,"PART-1-1",           568,       7.03347,      -6.11658,            0.,NA,NA,"",   100.299E-03,  -51.9261E-03,   85.8108E-03,   5.58398E-03
C:/temp/dataset/6/23_20.odb,Step-1,Increment      1: Step Time =    1.000,"PART-1-1",           569,       6.04361,      -4.83741,            0.,NA,NA,"",   110.885E-03,  -45.3786E-03,   101.174E-03,   9.08869E-03
C:/temp/dataset/6/23_20.odb,Step-1,Increment      1: Step Time =    1.000,"PART-1-1",           570,           15.,      -2.65625,            0.,NA,NA,"",   46.6827E-03,  -30.9367E-03,   34.9598E-03,   1.83887E-03
C:/temp/dataset/6/23_20.odb,Step-1,Increment      1: Step Time =    1.000,"PART-1-1",           571,       12.8875,      -2.72454,            0.,NA,NA,"",   60.2294E-03,  -32.4153E-03,   50.7625E-03,   597.426E-06
C:/temp/dataset/6/23_20.odb,Step-1,Increment      1: Step Time =    1.000,"PART-1-1",           572,       10.0248,      -7.91896,            0.,NA,NA,"",   85.8971E-03,  -58.7704E-03,   62.6446E-03,   3.16752E-03
C:/temp/dataset/6/23_20.odb,Step-1,Increment      1: Step Time =    1.000,"PART-1-1",           573,       8.98203,      -8.99604,            0.,NA,NA,"",   86.3325E-03,  -58.4711E-03,   63.5172E-03,   4.47462E-03
C:/temp/dataset/6/23_20.odb,Step-1,Increment      1: Step Time =    1.000,"PART-1-1",           574,       9.98204,      -10.2112,            0.,NA,NA,"",   82.3188E-03,  -59.5272E-03,   56.8585E-03,   3.69565E-03
C:/temp/dataset/6/23_20.odb,Step-1,Increment      1: Step Time =    1.000,"PART-1-1",           575,            5.,      -11.2813,            0.,NA,NA,"",   73.4243E-03,  -46.6907E-03,   56.6666E-03,   7.30260E-03
C:/temp/dataset/6/23_20.odb,Step-1,Increment      1: Step Time =    1.000,"PART-1-1",           576,       6.96001,      -11.3098,            0.,NA,NA,"",   77.4935E-03,  -52.3456E-03,   57.1418E-03,   5.95197E-03
C:/temp/dataset/6/23_20.odb,Step-1,Increment      1: Step Time =    1.000,"PART-1-1",           577,       12.1169,      -5.93459,            0.,NA,NA,"",   76.7208E-03,  -53.1059E-03,   55.3700E-03,   607.309E-06
C:/temp/dataset/6/23_20.odb,Step-1,Increment      1: Step Time =    1.000,"PART-1-1",           578,       11.1088,      -6.97100,            0.,NA,NA,"",   82.3598E-03,  -56.9892E-03,   59.4589E-03,   1.77895E-03
C:/temp/dataset/6/23_20.odb,Step-1,Increment      1: Step Time =    1.000,"PART-1-1",           579,           15.,      -11.4063,            0.,NA,NA,"",   78.8099E-03,  -60.6233E-03,   50.3568E-03,   768.296E-06
C:/temp/dataset/6/23_20.odb,Step-1,Increment      1: Step Time =    1.000,"PART-1-1",           580,       13.9991,      -10.3053,            0.,NA,NA,"",   79.1448E-03,  -61.6151E-03,   49.6738E-03,   716.733E-06
C:/temp/dataset/6/23_20.odb,Step-1,Increment      1: Step Time =    1.000,"PART-1-1",           581,       12.9941,      -11.4223,            0.,NA,NA,"",   78.5521E-03,  -60.5647E-03,   50.0235E-03,   1.56161E-03
C:/temp/dataset/6/23_20.odb,Step-1,Increment      1: Step Time =    1.000,"PART-1-1",           582,           15.,      -9.21875,            0.,NA,NA,"",   77.3801E-03,  -60.7973E-03,   47.8683E-03,   1.65553E-03
C:/temp/dataset/6/23_20.odb,Step-1,Increment      1: Step Time =    1.000,"PART-1-1",           583,       9.25975,      -25.9916,            0.,NA,NA,"",   9.70855E-03,  -4.69430E-03,   8.49820E-03,   2.88029E-03
C:/temp/dataset/6/23_20.odb,Step-1,Increment      1: Step Time =    1.000,"PART-1-1",           584,       7.97004,      -27.0667,            0.,NA,NA,"",   5.04532E-03,  -1.70776E-03,   4.74750E-03,   2.14966E-03
C:/temp/dataset/6/23_20.odb,Step-1,Increment      1: Step Time =    1.000,"PART-1-1",           585,       9.98268,      -20.3187,            0.,NA,NA,"",   36.3634E-03,  -24.4002E-03,   26.9616E-03,   3.96177E-03
C:/temp/dataset/6/23_20.odb,Step-1,Increment      1: Step Time =    1.000,"PART-1-1",           586,       8.47236,      -19.9740,            0.,NA,NA,"",   34.1392E-03,  -23.0356E-03,   25.1962E-03,   4.09566E-03
C:/temp/dataset/6/23_20.odb,Step-1,Increment      1: Step Time =    1.000,"PART-1-1",           587,       7.80775,      -21.2882,            0.,NA,NA,"",   24.8867E-03,  -15.6695E-03,   19.3343E-03,   4.07257E-03
C:/temp/dataset/6/23_20.odb,Step-1,Increment      1: Step Time =    1.000,"PART-1-1",           588,       9.31806,      -21.6330,            0.,NA,NA,"",   27.7090E-03,  -17.5434E-03,   21.4480E-03,   3.82509E-03
C:/temp/dataset/6/23_20.odb,Step-1,Increment      1: Step Time =    1.000,"PART-1-1",           589,          3.75,          -20.,            0.,NA,NA,"",   12.1476E-03,  -10.1920E-03,   6.60970E-03,   3.53059E-03
C:/temp/dataset/6/23_20.odb,Step-1,Increment      1: Step Time =    1.000,"PART-1-1",           590,       2.69482,      -20.9389,            0.,NA,NA,"",   6.39292E-03,  -5.36112E-03,   3.48249E-03,   2.28073E-03
C:/temp/dataset/6/23_20.odb,Step-1,Increment      1: Step Time =    1.000,"PART-1-1",           591,       4.10336,      -21.5712,            0.,NA,NA,"",   8.89836E-03,  -6.44698E-03,   6.13328E-03,   1.90626E-03
C:/temp/dataset/6/23_20.odb,Step-1,Increment      1: Step Time =    1.000,"PART-1-1",           592,       5.15854,      -20.6323,            0.,NA,NA,"",   16.7308E-03,  -11.5128E-03,   12.1398E-03,   3.55087E-03
C:/temp/dataset/6/23_20.odb,Step-1,Increment      1: Step Time =    1.000,"PART-1-1",           593,          1.25,          -20.,            0.,NA,NA,"",   4.31998E-03,  -2.36095E-03,   3.61776E-03,   3.28092E-03
C:/temp/dataset/6/23_20.odb,Step-1,Increment      1: Step Time =    1.000,"PART-1-1",           594,       1.58638,      -22.3782,            0.,NA,NA,"",   2.60682E-03,  -2.19105E-03,   1.41239E-03,   1.07611E-03
C:/temp/dataset/6/23_20.odb,Step-1,Increment      1: Step Time =    1.000,"PART-1-1",           595,      -7.18878,      -21.5166,            0.,NA,NA,"",   35.2195E-03,   16.0184E-03,   31.3660E-03,   6.29973E-03
C:/temp/dataset/6/23_20.odb,Step-1,Increment      1: Step Time =    1.000,"PART-1-1",           596,      -8.69544,      -20.4918,            0.,NA,NA,"",   48.1010E-03,   25.5011E-03,   40.7848E-03,   6.19201E-03
C:/temp/dataset/6/23_20.odb,Step-1,Increment      1: Step Time =    1.000,"PART-1-1",           597,      -9.53108,      -21.9939,            0.,NA,NA,"",   40.4442E-03,   21.0730E-03,   34.5205E-03,   5.95791E-03
C:/temp/dataset/6/23_20.odb,Step-1,Increment      1: Step Time =    1.000,"PART-1-1",           598,      -8.02442,      -23.0186,            0.,NA,NA,"",   28.7771E-03,   12.3589E-03,   25.9881E-03,   5.69992E-03
C:/temp/dataset/6/23_20.odb,Step-1,Increment      1: Step Time =    1.000,"PART-1-1",           599,           -5.,      -18.7437,            0.,NA,NA,"",   44.4950E-03,   23.1584E-03,   37.9933E-03,   8.71463E-03
C:/temp/dataset/6/23_20.odb,Step-1,Increment      1: Step Time =    1.000,"PART-1-1",           600,      -6.23242,      -17.5731,            0.,NA,NA,"",   60.1462E-03,   31.5786E-03,   51.1894E-03,   7.59190E-03
C:/temp/dataset/6/23_20.odb,Step-1,Increment      1: Step Time =    1.000,"PART-1-1",           601,      -7.41830,      -18.9573,            0.,NA,NA,"",   54.7394E-03,   29.4083E-03,   46.1687E-03,   6.24435E-03
C:/temp/dataset/6/23_20.odb,Step-1,Increment      1: Step Time =    1.000,"PART-1-1",           602,      -6.18588,      -20.1280,            0.,NA,NA,"",   40.6958E-03,   20.0016E-03,   35.4412E-03,   6.70130E-03
C:/temp/dataset/6/23_20.odb,Step-1,Increment      1: Step Time =    1.000,"PART-1-1",           603,           -5.,      -16.2312,            0.,NA,NA,"",   65.9941E-03,   30.7201E-03,   58.4081E-03,   8.95003E-03
C:/temp/dataset/6/23_20.odb,Step-1,Increment      1: Step Time =    1.000,"PART-1-1",           604,      -7.44257,      -16.3835,            0.,NA,NA,"",   73.0890E-03,   39.1477E-03,   61.7207E-03,   7.15557E-03
C:/temp/dataset/6/23_20.odb,Step-1,Increment      1: Step Time =    1.000,"PART-1-1",           605,      -12.6830,      -26.0788,            0.,NA,NA,"",   24.0854E-03,   13.8781E-03,   19.6851E-03,   6.06599E-03
C:/temp/dataset/6/23_20.odb,Step-1,Increment      1: Step Time =    1.000,"PART-1-1",           606,          -15.,        -26.25,            0.,NA,NA,"",   32.3095E-03,   19.8041E-03,   25.5285E-03,   6.48709E-03
C:/temp/dataset/6/23_20.odb,Step-1,Increment      1: Step Time =    1.000,"PART-1-1",           607,         -8.75,          -30.,            0.,NA,NA,"",            0.,  -96.9558E-42,   6.60213E-39,   3.44631E-03
C:/temp/dataset/6/23_20.odb,Step-1,Increment      1: Step Time =    1.000,"PART-1-1",           608,          -15.,        -18.75,            0.,NA,NA,"",   77.7994E-03,   47.6549E-03,   61.4960E-03,   3.91695E-03
C:/temp/dataset/6/23_20.odb,Step-1,Increment      1: Step Time =    1.000,"PART-1-1",           609,      -12.5734,      -18.8685,            0.,NA,NA,"",   69.3530E-03,   42.4997E-03,   54.8052E-03,   4.95481E-03
C:/temp/dataset/6/23_20.odb,Step-1,Increment      1: Step Time =    1.000,"PART-1-1",           610,           -5.,      -11.2063,            0.,NA,NA,"",   108.708E-03,   35.9851E-03,   102.580E-03,   10.9706E-03
C:/temp/dataset/6/23_20.odb,Step-1,Increment      1: Step Time =    1.000,"PART-1-1",           611,      -7.25264,      -11.4522,            0.,NA,NA,"",   106.618E-03,   45.6846E-03,   96.3348E-03,   8.54495E-03
C:/temp/dataset/6/23_20.odb,Step-1,Increment      1: Step Time =    1.000,"PART-1-1",           612,           -5.,      -6.23750,            0.,NA,NA,"",   166.203E-03,   22.2699E-03,   164.705E-03,   21.0113E-03
C:/temp/dataset/6/23_20.odb,Step-1,Increment      1: Step Time =    1.000,"PART-1-1",           613,      -6.16987,      -5.46941,            0.,NA,NA,"",   157.071E-03,   24.1646E-03,   155.201E-03,   11.4311E-03
C:/temp/dataset/6/23_20.odb,Step-1,Increment      1: Step Time =    1.000,"PART-1-1",           614,      -7.24309,      -6.98789,            0.,NA,NA,"",   136.038E-03,   36.0036E-03,   131.187E-03,   6.85083E-03
C:/temp/dataset/6/23_20.odb,Step-1,Increment      1: Step Time =    1.000,"PART-1-1",           615,           -5.,       16.4583,            0.,NA,NA,"",   255.874E-03,  -175.207E-03,   186.479E-03,   8.53918E-06
C:/temp/dataset/6/23_20.odb,Step-1,Increment      1: Step Time =    1.000,"PART-1-1",           616,      -7.23328,       16.4840,            0.,NA,NA,"",   239.244E-03,  -175.353E-03,   162.754E-03,   18.4393E-06
C:/temp/dataset/6/23_20.odb,Step-1,Increment      1: Step Time =    1.000,"PART-1-1",           617,      -6.08867,       15.3700,            0.,NA,NA,"",   239.559E-03,  -163.606E-03,   174.989E-03,   17.2210E-06
C:/temp/dataset/6/23_20.odb,Step-1,Increment      1: Step Time =    1.000,"PART-1-1",           618,      -13.1522,       16.1892,            0.,NA,NA,"",   198.743E-03,  -171.815E-03,   99.8911E-03,   18.6689E-06
C:/temp/dataset/6/23_20.odb,Step-1,Increment      1: Step Time =    1.000,"PART-1-1",           619,      -14.0864,       17.4486,            0.,NA,NA,"",   205.827E-03,  -185.160E-03,   89.8923E-03,   4.02446E-06
C:/temp/dataset/6/23_20.odb,Step-1,Increment      1: Step Time =    1.000,"PART-1-1",           620,          -15.,         16.25,            0.,NA,NA,"",   190.127E-03,  -172.360E-03,   80.2512E-03,   9.61928E-06
C:/temp/dataset/6/23_20.odb,Step-1,Increment      1: Step Time =    1.000,"PART-1-1",           621,           -5.,       24.7917,            0.,NA,NA,"",   322.711E-03,  -263.708E-03,   186.013E-03,   495.936E-09
C:/temp/dataset/6/23_20.odb,Step-1,Increment      1: Step Time =    1.000,"PART-1-1",           622,      -6.14442,       25.7689,            0.,NA,NA,"",   324.494E-03,  -274.025E-03,   173.800E-03,   235.805E-09
C:/temp/dataset/6/23_20.odb,Step-1,Increment      1: Step Time =    1.000,"PART-1-1",           623,           -5.,        26.875,            0.,NA,NA,"",   340.973E-03,  -285.842E-03,   185.896E-03,   170.309E-09
C:/temp/dataset/6/23_20.odb,Step-1,Increment      1: Step Time =    1.000,"PART-1-1",           624,      -7.36924,       26.7689,            0.,NA,NA,"",   326.834E-03,  -284.581E-03,   160.731E-03,   250.824E-09
C:/temp/dataset/6/23_20.odb,Step-1,Increment      1: Step Time =    1.000,"PART-1-1",           625,      -13.1175,       20.9132,            0.,NA,NA,"",   243.518E-03,  -222.043E-03,   99.9906E-03,   512.625E-09
C:/temp/dataset/6/23_20.odb,Step-1,Increment      1: Step Time =    1.000,"PART-1-1",           626,      -14.0212,       22.2867,            0.,NA,NA,"",   253.237E-03,  -236.586E-03,   90.3106E-03,   600.051E-09
C:/temp/dataset/6/23_20.odb,Step-1,Increment      1: Step Time =    1.000,"PART-1-1",           627,          -15.,         21.25,            0.,NA,NA,"",   239.273E-03,  -225.514E-03,   79.9682E-03,   1.21263E-06
C:/temp/dataset/6/23_20.odb,Step-1,Increment      1: Step Time =    1.000,"PART-1-1",           628,      -14.0963,       19.8765,            0.,NA,NA,"",   229.227E-03,  -210.970E-03,   89.6482E-03,   791.496E-09
C:/temp/dataset/6/23_20.odb,Step-1,Increment      1: Step Time =    1.000,"PART-1-1",           629,         -1.25,           -5.,            0.,NA,NA,"",   270.510E-03,  -22.8421E-03,   269.544E-03,   18.3814E-03
C:/temp/dataset/6/23_20.odb,Step-1,Increment      1: Step Time =    1.000,"PART-1-1",           630,      -1.77292,      -3.03732,            0.,NA,NA,"",   252.108E-03,  -12.1799E-03,   251.814E-03,   13.1373E-03
C:/temp/dataset/6/23_20.odb,Step-1,Increment      1: Step Time =    1.000,"PART-1-1",           631,      -12.1053,      -2.30059,            0.,NA,NA,"",   104.259E-03,   6.55831E-03,   104.052E-03,   2.53403E-03
C:/temp/dataset/6/23_20.odb,Step-1,Increment      1: Step Time =    1.000,"PART-1-1",           632,      -10.7648,      -1.40855,            0.,NA,NA,"",   119.255E-03,  -3.16973E-03,   119.213E-03,   3.40889E-03
C:/temp/dataset/6/23_20.odb,Step-1,Increment      1: Step Time =    1.000,"PART-1-1",           633,      -11.5438,  -354.672E-03,            0.,NA,NA,"",   113.944E-03,  -10.3949E-03,   113.469E-03,   2.71385E-03
C:/temp/dataset/6/23_20.odb,Step-1,Increment      1: Step Time =    1.000,"PART-1-1",           634,          3.75,           -5.,            0.,NA,NA,"",   158.947E-03,  -48.1516E-03,   151.478E-03,   4.02472E-03
C:/temp/dataset/6/23_20.odb,Step-1,Increment      1: Step Time =    1.000,"PART-1-1",           635,       4.52066,      -3.83856,            0.,NA,NA,"",   136.559E-03,  -29.5841E-03,   133.316E-03,   9.30627E-03
C:/temp/dataset/6/23_20.odb,Step-1,Increment      1: Step Time =    1.000,"PART-1-1",           636,       2.94662,      -2.72704,            0.,NA,NA,"",   171.072E-03,  -14.3414E-03,   170.470E-03,   8.06488E-03
C:/temp/dataset/6/23_20.odb,Step-1,Increment      1: Step Time =    1.000,"PART-1-1",           637,       1.50395,       2.56821,            0.,NA,NA,"",   192.032E-03,   8.95147E-03,   191.824E-03,   6.69743E-03
C:/temp/dataset/6/23_20.odb,Step-1,Increment      1: Step Time =    1.000,"PART-1-1",           638,          1.25,            5.,            0.,NA,NA,"",   188.318E-03,   23.2848E-03,   186.873E-03,   9.03153E-03
C:/temp/dataset/6/23_20.odb,Step-1,Increment      1: Step Time =    1.000,"PART-1-1",           639,          6.25,            5.,            0.,NA,NA,"",   131.459E-03,   44.8108E-03,   123.585E-03,   1.21171E-03
C:/temp/dataset/6/23_20.odb,Step-1,Increment      1: Step Time =    1.000,"PART-1-1",           640,  -213.968E-03,      -26.0734,            0.,NA,NA,"",   1.87504E-03,  -1.63777E-03,   912.963E-06,   538.169E-06
C:/temp/dataset/6/23_20.odb,Step-1,Increment      1: Step Time =    1.000,"PART-1-1",           641,       1.14210,      -23.8512,            0.,NA,NA,"",   1.79293E-03,  -1.59469E-03,   819.501E-06,   328.765E-06
C:/temp/dataset/6/23_20.odb,Step-1,Increment      1: Step Time =    1.000,"PART-1-1",           642,  -234.527E-03,      -23.9674,            0.,NA,NA,"",   1.72599E-03,  -1.21519E-03,   1.22571E-03,   377.144E-06
C:/temp/dataset/6/23_20.odb,Step-1,Increment      1: Step Time =    1.000,"PART-1-1",           643,           -5.,        14.375,            0.,NA,NA,"",   241.395E-03,  -153.112E-03,   186.624E-03,   37.1566E-06
C:/temp/dataset/6/23_20.odb,Step-1,Increment      1: Step Time =    1.000,"PART-1-1",           644,      -7.14364,       14.2292,            0.,NA,NA,"",   223.111E-03,  -151.453E-03,   163.831E-03,   49.6821E-06
C:/temp/dataset/6/23_20.odb,Step-1,Increment      1: Step Time =    1.000,"PART-1-1",           645,           -5.,       6.04167,            0.,NA,NA,"",   199.501E-03,  -61.4098E-03,   189.814E-03,   1.76100E-03
C:/temp/dataset/6/23_20.odb,Step-1,Increment      1: Step Time =    1.000,"PART-1-1",           646,      -5.82078,       6.95384,            0.,NA,NA,"",   193.468E-03,  -72.7179E-03,   179.282E-03,   928.982E-06
C:/temp/dataset/6/23_20.odb,Step-1,Increment      1: Step Time =    1.000,"PART-1-1",           647,      -6.45742,       5.85906,            0.,NA,NA,"",   181.914E-03,  -59.1357E-03,   172.034E-03,   1.89755E-03
C:/temp/dataset/6/23_20.odb,Step-1,Increment      1: Step Time =    1.000,"PART-1-1",           648,      -5.63664,       4.94688,            0.,NA,NA,"",   188.003E-03,  -44.5887E-03,   182.639E-03,   5.32507E-03
C:/temp/dataset/6/23_20.odb,Step-1,Increment      1: Step Time =    1.000,"PART-1-1",           649,           -5.,         8.125,            0.,NA,NA,"",   207.032E-03,  -86.2321E-03,   188.219E-03,   606.809E-06
C:/temp/dataset/6/23_20.odb,Step-1,Increment      1: Step Time =    1.000,"PART-1-1",           650,      -5.96903,       9.00386,            0.,NA,NA,"",   201.357E-03,  -95.9243E-03,   177.040E-03,   256.956E-06
C:/temp/dataset/6/23_20.odb,Step-1,Increment      1: Step Time =    1.000,"PART-1-1",           651,          -15.,         -3.75,            0.,NA,NA,"",   80.7772E-03,   21.3082E-03,   77.9161E-03,   835.316E-06
C:/temp/dataset/6/23_20.odb,Step-1,Increment      1: Step Time =    1.000,"PART-1-1",           652,      -12.7846,      -3.59401,            0.,NA,NA,"",   97.4434E-03,   18.4329E-03,   95.6841E-03,   2.07013E-03
C:/temp/dataset/6/23_20.odb,Step-1,Increment      1: Step Time =    1.000,"PART-1-1",           653,      -11.5430,      -4.20540,            0.,NA,NA,"",   106.548E-03,   21.9751E-03,   104.257E-03,   3.01490E-03
C:/temp/dataset/6/23_20.odb,Step-1,Increment      1: Step Time =    1.000,"PART-1-1",           654,      -10.1018,      -4.29084,            0.,NA,NA,"",   117.862E-03,   20.2078E-03,   116.117E-03,   4.01629E-03
C:/temp/dataset/6/23_20.odb,Step-1,Increment      1: Step Time =    1.000,"PART-1-1",           655,          -15.,        -11.25,            0.,NA,NA,"",   96.8572E-03,   59.9117E-03,   76.1046E-03,   682.629E-06
C:/temp/dataset/6/23_20.odb,Step-1,Increment      1: Step Time =    1.000,"PART-1-1",           656,      -12.2331,      -11.1785,            0.,NA,NA,"",   100.291E-03,   57.4700E-03,   82.1919E-03,   3.50111E-03
C:/temp/dataset/6/23_20.odb,Step-1,Increment      1: Step Time =    1.000,"PART-1-1",           657,       5.21391,      -1.02834,            0.,NA,NA,"",   133.985E-03,  -7.60619E-03,   133.768E-03,   6.99873E-03
C:/temp/dataset/6/23_20.odb,Step-1,Increment      1: Step Time =    1.000,"PART-1-1",           658,       6.72319,      -1.59046,            0.,NA,NA,"",   110.301E-03,  -16.0190E-03,   109.132E-03,   5.73931E-03
C:/temp/dataset/6/23_20.odb,Step-1,Increment      1: Step Time =    1.000,"PART-1-1",           659,       10.9187,      -16.2245,            0.,NA,NA,"",   59.9383E-03,  -44.3008E-03,   40.3737E-03,   3.55454E-03
C:/temp/dataset/6/23_20.odb,Step-1,Increment      1: Step Time =    1.000,"PART-1-1",           660,       11.9858,      -14.8752,            0.,NA,NA,"",   67.6857E-03,  -50.8514E-03,   44.6709E-03,   2.86931E-03
C:/temp/dataset/6/23_20.odb,Step-1,Increment      1: Step Time =    1.000,"PART-1-1",           661,       10.9746,      -13.7451,            0.,NA,NA,"",   71.0390E-03,  -53.5578E-03,   46.6701E-03,   3.34435E-03
C:/temp/dataset/6/23_20.odb,Step-1,Increment      1: Step Time =    1.000,"PART-1-1",           662,       11.9830,      -12.5543,            0.,NA,NA,"",   75.8337E-03,  -57.8468E-03,   49.0356E-03,   2.52098E-03
C:/temp/dataset/6/23_20.odb,Step-1,Increment      1: Step Time =    1.000,"PART-1-1",           663,           15.,      -20.1563,            0.,NA,NA,"",   51.9582E-03,  -33.1463E-03,   40.0123E-03,   3.29284E-03
C:/temp/dataset/6/23_20.odb,Step-1,Increment      1: Step Time =    1.000,"PART-1-1",           664,       14.0841,      -19.1367,            0.,NA,NA,"",   53.5029E-03,  -35.9543E-03,   39.6212E-03,   3.00571E-03
C:/temp/dataset/6/23_20.odb,Step-1,Increment      1: Step Time =    1.000,"PART-1-1",           665,       13.0385,      -20.2889,            0.,NA,NA,"",   44.6872E-03,  -29.6730E-03,   33.4134E-03,   3.41987E-03
C:/temp/dataset/6/23_20.odb,Step-1,Increment      1: Step Time =    1.000,"PART-1-1",           666,           15.,      -17.9688,            0.,NA,NA,"",   61.9050E-03,  -41.7985E-03,   45.6631E-03,   2.38567E-03
C:/temp/dataset/6/23_20.odb,Step-1,Increment      1: Step Time =    1.000,"PART-1-1",           667,          1.25,          -30.,            0.,NA,NA,"",            0.,  -206.026E-42,   1.05333E-39,   606.799E-06
C:/temp/dataset/6/23_20.odb,Step-1,Increment      1: Step Time =    1.000,"PART-1-1",           668,       3.30543,      -22.6598,            0.,NA,NA,"",   4.79037E-03,  -3.58839E-03,   3.17350E-03,   1.12477E-03
C:/temp/dataset/6/23_20.odb,Step-1,Increment      1: Step Time =    1.000,"PART-1-1",           669,       2.86115,      -24.1329,            0.,NA,NA,"",   2.69012E-03,  -2.00723E-03,   1.79103E-03,   538.750E-06
C:/temp/dataset/6/23_20.odb,Step-1,Increment      1: Step Time =    1.000,"PART-1-1",           670,      -10.6801,      -21.6169,            0.,NA,NA,"",   46.4780E-03,   25.9441E-03,   38.5631E-03,   5.88890E-03
C:/temp/dataset/6/23_20.odb,Step-1,Increment      1: Step Time =    1.000,"PART-1-1",           671,      -11.3394,      -20.4213,            0.,NA,NA,"",   56.3251E-03,   33.0026E-03,   45.6436E-03,   5.60798E-03
C:/temp/dataset/6/23_20.odb,Step-1,Increment      1: Step Time =    1.000,"PART-1-1",           672,      -12.1593,      -22.4638,            0.,NA,NA,"",   45.6033E-03,   26.2475E-03,   37.2925E-03,   5.69497E-03
C:/temp/dataset/6/23_20.odb,Step-1,Increment      1: Step Time =    1.000,"PART-1-1",           673,      -9.92443,      -16.4516,            0.,NA,NA,"",   77.8902E-03,   45.6704E-03,   63.0959E-03,   5.88206E-03
C:/temp/dataset/6/23_20.odb,Step-1,Increment      1: Step Time =    1.000,"PART-1-1",           674,      -8.71114,      -17.7111,            0.,NA,NA,"",   67.3606E-03,   38.1151E-03,   55.5400E-03,   6.26299E-03
C:/temp/dataset/6/23_20.odb,Step-1,Increment      1: Step Time =    1.000,"PART-1-1",           675,      -9.25100,      -7.50767,            0.,NA,NA,"",   118.333E-03,   42.4265E-03,   110.466E-03,   5.20190E-03
C:/temp/dataset/6/23_20.odb,Step-1,Increment      1: Step Time =    1.000,"PART-1-1",           676,      -8.32615,      -6.25855,            0.,NA,NA,"",   128.457E-03,   33.0491E-03,   124.133E-03,   5.71673E-03
C:/temp/dataset/6/23_20.odb,Step-1,Increment      1: Step Time =    1.000,"PART-1-1",           677,      -7.58018,      -5.09368,            0.,NA,NA,"",   140.403E-03,   22.5551E-03,   138.579E-03,   6.91847E-03
C:/temp/dataset/6/23_20.odb,Step-1,Increment      1: Step Time =    1.000,"PART-1-1",           678,      -6.67379,      -3.84489,            0.,NA,NA,"",   160.254E-03,   2.82939E-03,   160.229E-03,   11.2682E-03
C:/temp/dataset/6/23_20.odb,Step-1,Increment      1: Step Time =    1.000,"PART-1-1",           679,      -2.40491,      -1.03021,            0.,NA,NA,"",   233.174E-03,  -13.8458E-03,   232.763E-03,   8.26050E-03
C:/temp/dataset/6/23_20.odb,Step-1,Increment      1: Step Time =    1.000,"PART-1-1",           680,      -3.32453,      -2.14711,            0.,NA,NA,"",   235.126E-03,  -17.9188E-03,   234.443E-03,   13.5626E-03
C:/temp/dataset/6/23_20.odb,Step-1,Increment      1: Step Time =    1.000,"PART-1-1",           681,       10.4745,      -24.8101,            0.,NA,NA,"",   16.4310E-03,  -9.24081E-03,   13.5862E-03,   3.50946E-03
C:/temp/dataset/6/23_20.odb,Step-1,Increment      1: Step Time =    1.000,"PART-1-1",           682,       8.16019,      -23.0435,            0.,NA,NA,"",   17.8703E-03,  -10.2584E-03,   14.6326E-03,   3.43941E-03
C:/temp/dataset/6/23_20.odb,Step-1,Increment      1: Step Time =    1.000,"PART-1-1",           683,       9.40124,      -23.8494,            0.,NA,NA,"",   17.8212E-03,  -10.1425E-03,   14.6535E-03,   3.40010E-03
C:/temp/dataset/6/23_20.odb,Step-1,Increment      1: Step Time =    1.000,"PART-1-1",           684,       5.67200,      -27.0943,            0.,NA,NA,"",   2.81081E-03,  -573.514E-06,   2.75168E-03,   1.23611E-03
C:/temp/dataset/6/23_20.odb,Step-1,Increment      1: Step Time =    1.000,"PART-1-1",           685,       4.86106,      -26.0050,            0.,NA,NA,"",   3.25017E-03,  -1.17841E-03,   3.02902E-03,   1.02474E-03
C:/temp/dataset/6/23_20.odb,Step-1,Increment      1: Step Time =    1.000,"PART-1-1",           686,      -2.55341,      -23.8484,            0.,NA,NA,"",   5.01487E-03,  -328.649E-06,   5.00409E-03,   1.28431E-03
C:/temp/dataset/6/23_20.odb,Step-1,Increment      1: Step Time =    1.000,"PART-1-1",           687,      -4.82130,      -23.8875,            0.,NA,NA,"",   12.1965E-03,   2.06199E-03,   12.0209E-03,   3.18951E-03
C:/temp/dataset/6/23_20.odb,Step-1,Increment      1: Step Time =    1.000,"PART-1-1",           688,      -5.84083,      -25.1777,            0.,NA,NA,"",   11.4517E-03,   1.52221E-03,   11.3501E-03,   3.35968E-03
C:/temp/dataset/6/23_20.odb,Step-1,Increment      1: Step Time =    1.000,"PART-1-1",           689,           15.,      -26.7188,            0.,NA,NA,"",   20.1068E-03,  -12.3437E-03,   15.8719E-03,   4.72595E-03
C:/temp/dataset/6/23_20.odb,Step-1,Increment      1: Step Time =    1.000,"PART-1-1",           690,       10.9874,      -11.4075,            0.,NA,NA,"",   78.8431E-03,  -59.2224E-03,   52.0475E-03,   3.07868E-03
C:/temp/dataset/6/23_20.odb,Step-1,Increment      1: Step Time =    1.000,"PART-1-1",           691,       7.29436,      -19.7763,            0.,NA,NA,"",   31.6337E-03,  -21.5904E-03,   23.1203E-03,   4.26141E-03
C:/temp/dataset/6/23_20.odb,Step-1,Increment      1: Step Time =    1.000,"PART-1-1",           692,       7.78340,      -18.7858,            0.,NA,NA,"",   38.9400E-03,  -27.4876E-03,   27.5819E-03,   4.02331E-03
C:/temp/dataset/6/23_20.odb,Step-1,Increment      1: Step Time =    1.000,"PART-1-1",           693,       10.8970,      -2.99004,            0.,NA,NA,"",   73.5191E-03,  -34.2107E-03,   65.0745E-03,   1.29586E-03
C:/temp/dataset/6/23_20.odb,Step-1,Increment      1: Step Time =    1.000,"PART-1-1",           694,       12.0828,      -3.88727,            0.,NA,NA,"",   69.7038E-03,  -41.2023E-03,   56.2227E-03,   540.392E-06
C:/temp/dataset/6/23_20.odb,Step-1,Increment      1: Step Time =    1.000,"PART-1-1",           695,           15.,       1.71875,            0.,NA,NA,"",   31.4241E-03,   9.05570E-03,   30.0910E-03,   573.183E-06
C:/temp/dataset/6/23_20.odb,Step-1,Increment      1: Step Time =    1.000,"PART-1-1",           696,       4.00043,  -427.215E-03,            0.,NA,NA,"",   155.852E-03,  -1.16968E-03,   155.848E-03,   8.06436E-03
C:/temp/dataset/6/23_20.odb,Step-1,Increment      1: Step Time =    1.000,"PART-1-1",           697,       2.09609,       1.00148,            0.,NA,NA,"",   187.170E-03,   4.87390E-03,   187.106E-03,   7.63788E-03
C:/temp/dataset/6/23_20.odb,Step-1,Increment      1: Step Time =    1.000,"PART-1-1",           698,       2.38138,  -554.063E-03,            0.,NA,NA,"",   183.899E-03,  -383.552E-06,   183.899E-03,   8.64963E-03
C:/temp/dataset/6/23_20.odb,Step-1,Increment      1: Step Time =    1.000,"PART-1-1",           699,   35.7305E-03,       2.11113,            0.,NA,NA,"",   208.169E-03,   801.851E-06,   208.168E-03,   7.02997E-03
C:/temp/dataset/6/23_20.odb,Step-1,Increment      1: Step Time =    1.000,"PART-1-1",           700,           -5.,       10.2083,            0.,NA,NA,"",   216.608E-03,  -108.838E-03,   187.278E-03,   294.313E-06
C:/temp/dataset/6/23_20.odb,Step-1,Increment      1: Step Time =    1.000,"PART-1-1",           701,      -6.99901,       9.90050,            0.,NA,NA,"",   196.353E-03,  -105.515E-03,   165.593E-03,   175.550E-06
C:/temp/dataset/6/23_20.odb,Step-1,Increment      1: Step Time =    1.000,"PART-1-1",           702,      -11.2396,       16.2208,            0.,NA,NA,"",   210.060E-03,  -172.277E-03,   120.191E-03,   23.0618E-06
C:/temp/dataset/6/23_20.odb,Step-1,Increment      1: Step Time =    1.000,"PART-1-1",           703,      -10.2112,       15.1096,            0.,NA,NA,"",   207.302E-03,  -160.542E-03,   131.151E-03,   32.7128E-06
C:/temp/dataset/6/23_20.odb,Step-1,Increment      1: Step Time =    1.000,"PART-1-1",           704,      -9.25876,       16.3324,            0.,NA,NA,"",   223.796E-03,  -173.607E-03,   141.226E-03,   22.8829E-06
C:/temp/dataset/6/23_20.odb,Step-1,Increment      1: Step Time =    1.000,"PART-1-1",           705,      -10.2871,       17.4437,            0.,NA,NA,"",   226.530E-03,  -185.340E-03,   130.249E-03,   10.3310E-06
C:/temp/dataset/6/23_20.odb,Step-1,Increment      1: Step Time =    1.000,"PART-1-1",           706,      -8.19479,       15.2434,            0.,NA,NA,"",   222.640E-03,  -162.128E-03,   152.587E-03,   28.6513E-06
C:/temp/dataset/6/23_20.odb,Step-1,Increment      1: Step Time =    1.000,"PART-1-1",           707,      -9.19446,       14.0222,            0.,NA,NA,"",   205.877E-03,  -149.084E-03,   141.983E-03,   59.7881E-06
C:/temp/dataset/6/23_20.odb,Step-1,Increment      1: Step Time =    1.000,"PART-1-1",           708,      -8.14331,       13.0080,            0.,NA,NA,"",   206.483E-03,  -138.430E-03,   153.206E-03,   70.4414E-06
C:/temp/dataset/6/23_20.odb,Step-1,Increment      1: Step Time =    1.000,"PART-1-1",           709,          -15.,         18.75,            0.,NA,NA,"",   214.467E-03,  -198.945E-03,   80.1061E-03,   162.135E-09
C:/temp/dataset/6/23_20.odb,Step-1,Increment      1: Step Time =    1.000,"PART-1-1",           710,      -13.1826,       18.5751,            0.,NA,NA,"",   220.839E-03,  -197.189E-03,   99.4305E-03,   4.62248E-06
C:/temp/dataset/6/23_20.odb,Step-1,Increment      1: Step Time =    1.000,"PART-1-1",           711,      -11.2313,       23.3702,            0.,NA,NA,"",   275.690E-03,  -248.255E-03,   119.892E-03,   356.816E-09
C:/temp/dataset/6/23_20.odb,Step-1,Increment      1: Step Time =    1.000,"PART-1-1",           712,      -10.8173,       24.9058,            0.,NA,NA,"",   292.294E-03,  -264.592E-03,   124.204E-03,   321.007E-09
C:/temp/dataset/6/23_20.odb,Step-1,Increment      1: Step Time =    1.000,"PART-1-1",           713,      -13.5418,       24.7667,            0.,NA,NA,"",   279.686E-03,  -262.962E-03,   95.2654E-03,   292.727E-09
C:/temp/dataset/6/23_20.odb,Step-1,Increment      1: Step Time =    1.000,"PART-1-1",           714,      -12.2278,       25.9824,            0.,NA,NA,"",   296.756E-03,  -275.951E-03,   109.158E-03,   303.736E-09
C:/temp/dataset/6/23_20.odb,Step-1,Increment      1: Step Time =    1.000,"PART-1-1",           715,          -15.,         26.25,            0.,NA,NA,"",   289.809E-03,  -278.638E-03,   79.6893E-03,   256.079E-09
C:/temp/dataset/6/23_20.odb,Step-1,Increment      1: Step Time =    1.000,"PART-1-1",           716,          -15.,         23.75,            0.,NA,NA,"",   264.416E-03,  -252.077E-03,   79.8294E-03,   720.152E-09
C:/temp/dataset/6/23_20.odb,Step-1,Increment      1: Step Time =    1.000,"PART-1-1",           717,      -12.5630,       23.3034,            0.,NA,NA,"",   269.117E-03,  -247.471E-03,   105.747E-03,   375.434E-09
C:/temp/dataset/6/23_20.odb,Step-1,Increment      1: Step Time =    1.000,"PART-1-1",           718,      -11.1827,       13.8735,            0.,NA,NA,"",   190.555E-03,  -147.309E-03,   120.876E-03,   59.5307E-06
C:/temp/dataset/6/23_20.odb,Step-1,Increment      1: Step Time =    1.000,"PART-1-1",           719,      -10.1659,       12.7861,            0.,NA,NA,"",   189.182E-03,  -135.848E-03,   131.663E-03,   79.6011E-06
C:/temp/dataset/6/23_20.odb,Step-1,Increment      1: Step Time =    1.000,"PART-1-1",           720,      -11.4858,       20.4947,            0.,NA,NA,"",   247.305E-03,  -217.689E-03,   117.352E-03,   1.56777E-06
C:/temp/dataset/6/23_20.odb,Step-1,Increment      1: Step Time =    1.000,"PART-1-1",           721,      -10.4732,       19.7487,            0.,NA,NA,"",   245.860E-03,  -209.821E-03,   128.151E-03,   2.32944E-06
C:/temp/dataset/6/23_20.odb,Step-1,Increment      1: Step Time =    1.000,"PART-1-1",           722,      -10.9778,       21.7959,            0.,NA,NA,"",   262.033E-03,  -231.543E-03,   122.675E-03,   475.636E-09
C:/temp/dataset/6/23_20.odb,Step-1,Increment      1: Step Time =    1.000,"PART-1-1",           723,      -9.13796,       11.7463,            0.,NA,NA,"",   189.562E-03,  -124.926E-03,   142.573E-03,   113.503E-06
C:/temp/dataset/6/23_20.odb,Step-1,Increment      1: Step Time =    1.000,"PART-1-1",           724,      -11.1090,       11.4975,            0.,NA,NA,"",   172.319E-03,  -122.027E-03,   121.668E-03,   107.658E-06
C:/temp/dataset/6/23_20.odb,Step-1,Increment      1: Step Time =    1.000,"PART-1-1",           725,      -7.95801,       5.48811,            0.,NA,NA,"",   166.118E-03,  -57.2410E-03,   155.944E-03,   1.76618E-03
C:/temp/dataset/6/23_20.odb,Step-1,Increment      1: Step Time =    1.000,"PART-1-1",           726,      -9.27172,       5.51676,            0.,NA,NA,"",   153.303E-03,  -58.9786E-03,   141.504E-03,   1.00126E-03
C:/temp/dataset/6/23_20.odb,Step-1,Increment      1: Step Time =    1.000,"PART-1-1",           727,      -9.10783,       4.19071,            0.,NA,NA,"",   151.402E-03,  -46.3666E-03,   144.127E-03,   2.35318E-03
C:/temp/dataset/6/23_20.odb,Step-1,Increment      1: Step Time =    1.000,"PART-1-1",           728,      -7.79412,       4.16207,            0.,NA,NA,"",   165.308E-03,  -44.0474E-03,   159.332E-03,   3.05131E-03
C:/temp/dataset/6/23_20.odb,Step-1,Increment      1: Step Time =    1.000,"PART-1-1",           729,      -10.3652,   710.465E-03,            0.,NA,NA,"",   129.806E-03,  -20.0101E-03,   128.254E-03,   3.16336E-03
C:/temp/dataset/6/23_20.odb,Step-1,Increment      1: Step Time =    1.000,"PART-1-1",           730,      -11.5756,       2.14983,            0.,NA,NA,"",   120.158E-03,  -30.3767E-03,   116.255E-03,   1.96336E-03
C:/temp/dataset/6/23_20.odb,Step-1,Increment      1: Step Time =    1.000,"PART-1-1",           731,      -10.9514,      -7.70102,            0.,NA,NA,"",   108.759E-03,   45.7446E-03,   98.6712E-03,   3.60806E-03
C:/temp/dataset/6/23_20.odb,Step-1,Increment      1: Step Time =    1.000,"PART-1-1",           732,      -11.1587,      -15.1039,            0.,NA,NA,"",   86.8892E-03,   52.3036E-03,   69.3834E-03,   5.06720E-03
C:/temp/dataset/6/23_20.odb,Step-1,Increment      1: Step Time =    1.000,"PART-1-1",           733,      -11.0422,      -12.5823,            0.,NA,NA,"",   97.6786E-03,   55.8164E-03,   80.1600E-03,   4.90129E-03
C:/temp/dataset/6/23_20.odb,Step-1,Increment      1: Step Time =    1.000,"PART-1-1",           734,      -9.98828,      -19.2456,            0.,NA,NA,"",   60.3939E-03,   34.8297E-03,   49.3388E-03,   5.89611E-03
C:/temp/dataset/6/23_20.odb,Step-1,Increment      1: Step Time =    1.000,"PART-1-1",           735,      -11.2222,      -17.6929,            0.,NA,NA,"",   73.0353E-03,   44.2584E-03,   58.0977E-03,   5.27904E-03
C:/temp/dataset/6/23_20.odb,Step-1,Increment      1: Step Time =    1.000,"PART-1-1",           736,      -9.72809,       26.4627,            0.,NA,NA,"",   312.221E-03,  -281.195E-03,   135.688E-03,   254.843E-09
C:/temp/dataset/6/23_20.odb,Step-1,Increment      1: Step Time =    1.000,"PART-1-1",           737,      -8.07960,       10.7858,            0.,NA,NA,"",   192.013E-03,  -114.843E-03,   153.884E-03,   130.967E-06
C:/temp/dataset/6/23_20.odb,Step-1,Increment      1: Step Time =    1.000,"PART-1-1",           738,      -11.3320,       18.4953,            0.,NA,NA,"",   229.731E-03,  -196.450E-03,   119.096E-03,   6.96588E-06
C:/temp/dataset/6/23_20.odb,Step-1,Increment      1: Step Time =    1.000,"PART-1-1",           739,      -10.4893,       6.32554,            0.,NA,NA,"",   145.013E-03,  -67.7263E-03,   128.226E-03,   601.957E-06
C:/temp/dataset/6/23_20.odb,Step-1,Increment      1: Step Time =    1.000,"PART-1-1",           740,      -11.8356,       7.66802,            0.,NA,NA,"",   140.283E-03,  -81.6147E-03,   114.098E-03,   115.172E-06
C:/temp/dataset/6/23_20.odb,Step-1,Increment      1: Step Time =    1.000,"PART-1-1",           741,      -11.4125,       4.87054,            0.,NA,NA,"",   130.356E-03,  -53.9395E-03,   118.672E-03,   876.836E-06
C:/temp/dataset/6/23_20.odb,Step-1,Increment      1: Step Time =    1.000,"PART-1-1",           742,       10.1911,      -5.79504,            0.,NA,NA,"",   84.1714E-03,  -52.2514E-03,   65.9895E-03,   2.19784E-03
C:/temp/dataset/6/23_20.odb,Step-1,Increment      1: Step Time =    1.000,"PART-1-1",           743,       9.10708,      -6.74300,            0.,NA,NA,"",   89.2288E-03,  -55.3204E-03,   70.0102E-03,   3.50725E-03
C:/temp/dataset/6/23_20.odb,Step-1,Increment      1: Step Time =    1.000,"PART-1-1",           744,       11.1638,      -4.94873,            0.,NA,NA,"",   77.8196E-03,  -47.9449E-03,   61.2959E-03,   1.17481E-03
C:/temp/dataset/6/23_20.odb,Step-1,Increment      1: Step Time =    1.000,"PART-1-1",           745,       10.4293,      -4.08570,            0.,NA,NA,"",   79.2238E-03,  -42.1996E-03,   67.0493E-03,   1.67204E-03
C:/temp/dataset/6/23_20.odb,Step-1,Increment      1: Step Time =    1.000,"PART-1-1",           746,       9.97038,      -14.8971,            0.,NA,NA,"",   64.7724E-03,  -48.2565E-03,   43.2061E-03,   3.81812E-03
C:/temp/dataset/6/23_20.odb,Step-1,Increment      1: Step Time =    1.000,"PART-1-1",           747,       9.96577,      -12.5508,            0.,NA,NA,"",   74.8619E-03,  -55.6118E-03,   50.1162E-03,   3.83823E-03
C:/temp/dataset/6/23_20.odb,Step-1,Increment      1: Step Time =    1.000,"PART-1-1",           748,       8.96159,      -13.7029,            0.,NA,NA,"",   68.9267E-03,  -50.7729E-03,   46.6155E-03,   4.34051E-03
C:/temp/dataset/6/23_20.odb,Step-1,Increment      1: Step Time =    1.000,"PART-1-1",           749,       6.92617,      -22.4012,            0.,NA,NA,"",   16.6647E-03,  -9.71364E-03,   13.5410E-03,   3.22859E-03
C:/temp/dataset/6/23_20.odb,Step-1,Increment      1: Step Time =    1.000,"PART-1-1",           750,       5.94981,      -23.5281,            0.,NA,NA,"",   9.86389E-03,  -5.28118E-03,   8.33099E-03,   2.30995E-03
C:/temp/dataset/6/23_20.odb,Step-1,Increment      1: Step Time =    1.000,"PART-1-1",           751,       7.18383,      -24.1705,            0.,NA,NA,"",   11.2263E-03,  -5.75236E-03,   9.64050E-03,   2.55287E-03
C:/temp/dataset/6/23_20.odb,Step-1,Increment      1: Step Time =    1.000,"PART-1-1",           752,       11.0968,      -20.2176,            0.,NA,NA,"",   39.7657E-03,  -26.8383E-03,   29.3431E-03,   3.75295E-03
C:/temp/dataset/6/23_20.odb,Step-1,Increment      1: Step Time =    1.000,"PART-1-1",           753,       6.43355,      -20.8801,            0.,NA,NA,"",   21.8296E-03,  -13.9933E-03,   16.7547E-03,   3.92226E-03
C:/temp/dataset/6/23_20.odb,Step-1,Increment      1: Step Time =    1.000,"PART-1-1",           754,       8.96045,      -11.3546,            0.,NA,NA,"",   78.9044E-03,  -56.5450E-03,   55.0325E-03,   4.51096E-03
C:/temp/dataset/6/23_20.odb,Step-1,Increment      1: Step Time =    1.000,"PART-1-1",           755,       8.17216,      -2.03287,            0.,NA,NA,"",   93.6369E-03,  -23.2741E-03,   90.6983E-03,   3.48600E-03
C:/temp/dataset/6/23_20.odb,Step-1,Increment      1: Step Time =    1.000,"PART-1-1",           756,       9.68046,      -2.49017,            0.,NA,NA,"",   80.9215E-03,  -29.3024E-03,   75.4299E-03,   2.28265E-03
C:/temp/dataset/6/23_20.odb,Step-1,Increment      1: Step Time =    1.000,"PART-1-1",           757,      -5.24373,       2.94722,            0.,NA,NA,"",   195.069E-03,  -27.1542E-03,   193.170E-03,   6.79278E-03
C:/temp/dataset/6/23_20.odb,Step-1,Increment      1: Step Time =    1.000,"PART-1-1",           758,      -6.20341,       3.93450,            0.,NA,NA,"",   182.752E-03,  -37.1964E-03,   178.927E-03,   5.33075E-03
C:/temp/dataset/6/23_20.odb,Step-1,Increment      1: Step Time =    1.000,"PART-1-1",           759,       7.87036,      -17.0650,            0.,NA,NA,"",   49.1131E-03,  -35.8573E-03,   33.5611E-03,   4.17381E-03
C:/temp/dataset/6/23_20.odb,Step-1,Increment      1: Step Time =    1.000,"PART-1-1",           760,      -8.77165,      -4.61616,            0.,NA,NA,"",   128.877E-03,   20.0240E-03,   127.312E-03,   5.09510E-03
C:/temp/dataset/6/23_20.odb,Step-1,Increment      1: Step Time =    1.000,"PART-1-1",           761,       8.90402,      -15.9271,            0.,NA,NA,"",   57.7294E-03,  -42.5351E-03,   39.0314E-03,   4.14921E-03
C:/temp/dataset/6/23_20.odb,Step-1,Increment      1: Step Time =    1.000,"PART-1-1",           762,       7.94609,      -14.8939,            0.,NA,NA,"",   61.1607E-03,  -44.8688E-03,   41.5622E-03,   4.54142E-03
C:/temp/dataset/6/23_20.odb,Step-1,Increment      1: Step Time =    1.000,"PART-1-1",           763,      -12.3095,       21.7291,            0.,NA,NA,"",   255.006E-03,  -230.758E-03,   108.530E-03,   321.618E-09
C:/temp/dataset/6/23_20.odb,Step-1,Increment      1: Step Time =    1.000,"PART-1-1",           764,      -12.2938,       19.6789,            0.,NA,NA,"",   235.605E-03,  -208.972E-03,   108.812E-03,   1.85771E-06
C:/temp/dataset/6/23_20.odb,Step-1,Increment      1: Step Time =    1.000,"PART-1-1",           765,       3.72209,      -1.78065,            0.,NA,NA,"",   158.196E-03,  -9.23065E-03,   157.927E-03,   8.37681E-03
C:/temp/dataset/6/23_20.odb,Step-1,Increment      1: Step Time =    1.000,"PART-1-1",           766,       6.45852,      -3.38063,            0.,NA,NA,"",   108.775E-03,  -31.7728E-03,   104.032E-03,   5.95201E-03
C:/temp/dataset/6/23_20.odb,Step-1,Increment      1: Step Time =    1.000,"PART-1-1",           767,       4.93556,      -2.38177,            0.,NA,NA,"",   134.173E-03,  -17.1465E-03,   133.072E-03,   8.17998E-03
C:/temp/dataset/6/23_20.odb,Step-1,Increment      1: Step Time =    1.000,"PART-1-1",           768,      -2.94024,   945.156E-03,            0.,NA,NA,"",   219.277E-03,  -14.8705E-03,   218.773E-03,   6.37033E-03
C:/temp/dataset/6/23_20.odb,Step-1,Increment      1: Step Time =    1.000,"PART-1-1",           769,      -1.69279,      -25.0756,            0.,NA,NA,"",   2.98282E-03,  -1.56099E-03,   2.54175E-03,   874.183E-06
C:/temp/dataset/6/23_20.odb,Step-1,Increment      1: Step Time =    1.000,"PART-1-1",           770,      -6.93923,      -23.9860,            0.,NA,NA,"",   19.6089E-03,   6.25283E-03,   18.5853E-03,   4.81758E-03
C:/temp/dataset/6/23_20.odb,Step-1,Increment      1: Step Time =    1.000,"PART-1-1",           771,      -5.91970,      -22.6959,            0.,NA,NA,"",   21.5913E-03,   7.22088E-03,   20.3481E-03,   4.97239E-03
C:/temp/dataset/6/23_20.odb,Step-1,Increment      1: Step Time =    1.000,"PART-1-1",           772,      -12.2208,       17.3915,            0.,NA,NA,"",   214.795E-03,  -184.662E-03,   109.714E-03,   9.00399E-06
C:/temp/dataset/6/23_20.odb,Step-1,Increment      1: Step Time =    1.000,"PART-1-1",           773,      -12.0398,       10.1961,            0.,NA,NA,"",   155.597E-03,  -108.115E-03,   111.900E-03,   120.364E-06
C:/temp/dataset/6/23_20.odb,Step-1,Increment      1: Step Time =    1.000,"PART-1-1",           774,      -10.8637,      -2.91198,            0.,NA,NA,"",   114.261E-03,   9.66316E-03,   113.851E-03,   3.54076E-03
C:/temp/dataset/6/23_20.odb,Step-1,Increment      1: Step Time =    1.000,"PART-1-1",           775,      -9.61620,      -11.5179,            0.,NA,NA,"",   103.372E-03,   52.8192E-03,   88.8588E-03,   6.05695E-03
C:/temp/dataset/6/23_20.odb,Step-1,Increment      1: Step Time =    1.000,"PART-1-1",           776,      -11.8201,      -24.5932,            0.,NA,NA,"",   30.8195E-03,   16.9996E-03,   25.7071E-03,   5.91680E-03
C:/temp/dataset/6/23_20.odb,Step-1,Increment      1: Step Time =    1.000,"PART-1-1",           777,      -11.0718,      -23.4296,            0.,NA,NA,"",   35.8423E-03,   19.4277E-03,   30.1203E-03,   5.78929E-03
C:/temp/dataset/6/23_20.odb,Step-1,Increment      1: Step Time =    1.000,"PART-1-1",           778,       4.75405,      -23.0816,            0.,NA,NA,"",   7.59189E-03,  -4.50105E-03,   6.11370E-03,   1.75664E-03
C:/temp/dataset/6/23_20.odb,Step-1,Increment      1: Step Time =    1.000,"PART-1-1",           779,       5.55198,      -21.9930,            0.,NA,NA,"",   13.1182E-03,  -7.97530E-03,   10.4154E-03,   2.89681E-03
C:/temp/dataset/6/23_20.odb,Step-1,Increment      1: Step Time =    1.000,"PART-1-1",           780,       7.01336,      -26.0950,            0.,NA,NA,"",   5.96551E-03,  -2.27973E-03,   5.51273E-03,   1.92625E-03
C:/temp/dataset/6/23_20.odb,Step-1,Increment      1: Step Time =    1.000,"PART-1-1",           781,       4.10189,      -23.9882,            0.,NA,NA,"",   4.58171E-03,  -2.71037E-03,   3.69404E-03,   1.07374E-03
C:/temp/dataset/6/23_20.odb,Step-1,Increment      1: Step Time =    1.000,"PART-1-1",           782,       4.14804,      -25.2051,            0.,NA,NA,"",   3.23782E-03,  -1.60307E-03,   2.81312E-03,   875.046E-06
C:/temp/dataset/6/23_20.odb,Step-1,Increment      1: Step Time =    1.000,"PART-1-1",           783,      -12.1264,       12.6156,            0.,NA,NA,"",   173.830E-03,  -133.831E-03,   110.933E-03,   72.6525E-06
C:/temp/dataset/6/23_20.odb,Step-1,Increment      1: Step Time =    1.000,"PART-1-1",           784,      -12.1709,       15.0185,            0.,NA,NA,"",   193.893E-03,  -159.418E-03,   110.364E-03,   29.7165E-06
C:/temp/dataset/6/23_20.odb,Step-1,Increment      1: Step Time =    1.000,"PART-1-1",           785,      -10.3060,       3.43341,            0.,NA,NA,"",   136.975E-03,  -40.8426E-03,   130.744E-03,   1.85989E-03
C:/temp/dataset/6/23_20.odb,Step-1,Increment      1: Step Time =    1.000,"PART-1-1",           786,      -9.35047,  -311.861E-03,            0.,NA,NA,"",   139.200E-03,  -14.2535E-03,   138.468E-03,   4.75772E-03
C:/temp/dataset/6/23_20.odb,Step-1,Increment      1: Step Time =    1.000,"PART-1-1",           787,      -9.47746,      -1.56252,            0.,NA,NA,"",   133.083E-03,  -4.96441E-03,   132.990E-03,   5.12144E-03
C:/temp/dataset/6/23_20.odb,Step-1,Increment      1: Step Time =    1.000,"PART-1-1",           788,      -7.56677,      -1.93629,            0.,NA,NA,"",   157.423E-03,  -9.24192E-03,   157.152E-03,   7.79546E-03
C:/temp/dataset/6/23_20.odb,Step-1,Increment      1: Step Time =    1.000,"PART-1-1",           789,      -9.57637,      -3.06595,            0.,NA,NA,"",   126.282E-03,   7.80499E-03,   126.041E-03,   4.89779E-03
C:/temp/dataset/6/23_20.odb,Step-1,Increment      1: Step Time =    1.000,"PART-1-1",           790,      -8.24618,      -3.39128,            0.,NA,NA,"",   139.729E-03,   6.11039E-03,   139.595E-03,   6.97943E-03
C:/temp/dataset/6/23_20.odb,Step-1,Increment      1: Step Time =    1.000,"PART-1-1",           791,       7.98922,      -7.69035,            0.,NA,NA,"",   91.6498E-03,  -55.9376E-03,   72.5993E-03,   5.70422E-03
C:/temp/dataset/6/23_20.odb,Step-1,Increment      1: Step Time =    1.000,"PART-1-1",           792,       7.96586,      -10.1263,            0.,NA,NA,"",   83.4674E-03,  -56.2206E-03,   61.6932E-03,   5.46804E-03
C:/temp/dataset/6/23_20.odb,Step-1,Increment      1: Step Time =    1.000,"PART-1-1",           793,       7.95460,      -12.5381,            0.,NA,NA,"",   72.9821E-03,  -52.1306E-03,   51.0764E-03,   4.97675E-03
C:/temp/dataset/6/23_20.odb,Step-1,Increment      1: Step Time =    1.000,"PART-1-1",           794,      -6.90534,       4.84567,            0.,NA,NA,"",   175.350E-03,  -48.4044E-03,   168.537E-03,   3.33346E-03
C:/temp/dataset/6/23_20.odb,Step-1,Increment      1: Step Time =    1.000,"PART-1-1",           795,      -7.09219,       3.25090,            0.,NA,NA,"",   173.000E-03,  -35.1059E-03,   169.401E-03,   5.07939E-03
C:/temp/dataset/6/23_20.odb,Step-1,Increment      1: Step Time =    1.000,"PART-1-1",           796,      -5.99438,      -2.38990,            0.,NA,NA,"",   183.216E-03,  -13.9774E-03,   182.682E-03,   12.4405E-03
C:/temp/dataset/6/23_20.odb,Step-1,Increment      1: Step Time =    1.000,"PART-1-1",           797,      -8.16339,       2.56404,            0.,NA,NA,"",   159.961E-03,  -32.6481E-03,   156.594E-03,   4.11423E-03
C:/temp/dataset/6/23_20.odb,Step-1,Increment      1: Step Time =    1.000,"PART-1-1",           798,      -6.16245,       1.98671,            0.,NA,NA,"",   185.321E-03,  -26.3638E-03,   183.436E-03,   6.90012E-03
C:/temp/dataset/6/23_20.odb,Step-1,Increment      1: Step Time =    1.000,"PART-1-1",           799,      -9.36160,       1.80674,            0.,NA,NA,"",   144.308E-03,  -28.2984E-03,   141.506E-03,   3.79249E-03
C:/temp/dataset/6/23_20.odb,Step-1,Increment      1: Step Time =    1.000,"PART-1-1",           800,      -4.18828,       1.89018,            0.,NA,NA,"",   207.411E-03,  -20.2855E-03,   206.417E-03,   6.79416E-03
C:/temp/dataset/6/23_20.odb,Step-1,Increment      1: Step Time =    1.000,"PART-1-1",           801,      -2.02478,       2.01876,            0.,NA,NA,"",   216.977E-03,  -10.1795E-03,   216.738E-03,   6.63754E-03
C:/temp/dataset/6/23_20.odb,Step-1,Increment      1: Step Time =    1.000,"PART-1-1",           802,       5.29765,      -24.4346,            0.,NA,NA,"",   6.25982E-03,  -3.09480E-03,   5.44129E-03,   1.55891E-03
C:/temp/dataset/6/23_20.odb,Step-1,Increment      1: Step Time =    1.000,"PART-1-1",           803,       8.18651,      -25.0309,            0.,NA,NA,"",   10.7900E-03,  -5.31999E-03,   9.38733E-03,   2.74217E-03
C:/temp/dataset/6/23_20.odb,Step-1,Increment      1: Step Time =    1.000,"PART-1-1",           804,       6.01068,      -25.2345,            0.,NA,NA,"",   6.11457E-03,  -2.62900E-03,   5.52053E-03,   1.72524E-03
