ODB Name,Step,Frame,Part Instance Name,    êﬂì_ÉâÉxÉã,X,Y,Z,Section Name,Material Name,Section Point,   U-Magnitude,          U-U1,          U-U2,       S-Mises
C:/temp/dataset/6/23_6.odb,Step-1,Increment      1: Step Time =    1.000,"PART-1-1",             1,            5.,           -5.,            0.,NA,NA,"",   41.0021E-03,  -13.4696E-03,   38.7265E-03,   4.59155E-03
C:/temp/dataset/6/23_6.odb,Step-1,Increment      1: Step Time =    1.000,"PART-1-1",             2,            0.,           -5.,            0.,NA,NA,"",   80.8895E-03,  -10.6319E-03,   80.1877E-03,   4.58286E-03
C:/temp/dataset/6/23_6.odb,Step-1,Increment      1: Step Time =    1.000,"PART-1-1",             3,            5.,      -10.0250,            0.,NA,NA,"",   26.7060E-03,  -14.9474E-03,   22.1311E-03,   2.60107E-03
C:/temp/dataset/6/23_6.odb,Step-1,Increment      1: Step Time =    1.000,"PART-1-1",             4,            5.,      -15.0500,            0.,NA,NA,"",   16.8477E-03,  -12.0118E-03,   11.8136E-03,   1.92704E-03
C:/temp/dataset/6/23_6.odb,Step-1,Increment      1: Step Time =    1.000,"PART-1-1",             5,            5.,          -20.,            0.,NA,NA,"",   6.46083E-03,  -4.71781E-03,   4.41413E-03,   1.30834E-03
C:/temp/dataset/6/23_6.odb,Step-1,Increment      1: Step Time =    1.000,"PART-1-1",             6,            0.,          -20.,            0.,NA,NA,"",   1.45580E-03,   590.495E-06,   1.33067E-03,   1.06681E-03
C:/temp/dataset/6/23_6.odb,Step-1,Increment      1: Step Time =    1.000,"PART-1-1",             7,           -5.,          -20.,            0.,NA,NA,"",   10.8939E-03,   6.03064E-03,   9.07235E-03,   2.27231E-03
C:/temp/dataset/6/23_6.odb,Step-1,Increment      1: Step Time =    1.000,"PART-1-1",             8,           -5.,      -14.9750,            0.,NA,NA,"",   25.7415E-03,   12.1906E-03,   22.6719E-03,   3.09207E-03
C:/temp/dataset/6/23_6.odb,Step-1,Increment      1: Step Time =    1.000,"PART-1-1",             9,           -5.,      -9.95000,            0.,NA,NA,"",   40.6210E-03,   12.9467E-03,   38.5026E-03,   3.87735E-03
C:/temp/dataset/6/23_6.odb,Step-1,Increment      1: Step Time =    1.000,"PART-1-1",            10,           -5.,           -5.,            0.,NA,NA,"",   65.1082E-03,   6.45438E-03,   64.7874E-03,   6.72682E-03
C:/temp/dataset/6/23_6.odb,Step-1,Increment      1: Step Time =    1.000,"PART-1-1",            11,           15.,          -30.,            0.,NA,NA,"",            0.,  -723.078E-42,   1.26398E-39,   2.46329E-03
C:/temp/dataset/6/23_6.odb,Step-1,Increment      1: Step Time =    1.000,"PART-1-1",            12,          -15.,          -30.,            0.,NA,NA,"",            0.,   1.14817E-39,   1.97057E-39,   3.74834E-03
C:/temp/dataset/6/23_6.odb,Step-1,Increment      1: Step Time =    1.000,"PART-1-1",            13,           15.,        -21.25,            0.,NA,NA,"",   15.2449E-03,  -9.44191E-03,   11.9690E-03,   1.20085E-03
C:/temp/dataset/6/23_6.odb,Step-1,Increment      1: Step Time =    1.000,"PART-1-1",            14,           15.,         -12.5,            0.,NA,NA,"",   25.1037E-03,  -18.8977E-03,   16.5249E-03,   112.336E-06
C:/temp/dataset/6/23_6.odb,Step-1,Increment      1: Step Time =    1.000,"PART-1-1",            15,           15.,         -3.75,            0.,NA,NA,"",   16.4356E-03,  -11.3811E-03,   11.8574E-03,   701.921E-06
C:/temp/dataset/6/23_6.odb,Step-1,Increment      1: Step Time =    1.000,"PART-1-1",            16,           15.,            5.,            0.,NA,NA,"",   18.8325E-03,   16.2800E-03,   9.46703E-03,   15.7070E-06
C:/temp/dataset/6/23_6.odb,Step-1,Increment      1: Step Time =    1.000,"PART-1-1",            17,           10.,            5.,            0.,NA,NA,"",   31.3189E-03,   16.8205E-03,   26.4187E-03,   247.628E-06
C:/temp/dataset/6/23_6.odb,Step-1,Increment      1: Step Time =    1.000,"PART-1-1",            18,            5.,            5.,            0.,NA,NA,"",   50.0103E-03,   16.4644E-03,   47.2224E-03,   891.376E-06
C:/temp/dataset/6/23_6.odb,Step-1,Increment      1: Step Time =    1.000,"PART-1-1",            19,            0.,            5.,            0.,NA,NA,"",   66.6053E-03,   5.87296E-03,   66.3459E-03,   3.70149E-03
C:/temp/dataset/6/23_6.odb,Step-1,Increment      1: Step Time =    1.000,"PART-1-1",            20,           -5.,            5.,            0.,NA,NA,"",   65.3542E-03,  -12.2674E-03,   64.1926E-03,   2.64923E-03
C:/temp/dataset/6/23_6.odb,Step-1,Increment      1: Step Time =    1.000,"PART-1-1",            21,           -5.,         11.25,            0.,NA,NA,"",   73.6810E-03,  -38.2579E-03,   62.9701E-03,   52.3030E-06
C:/temp/dataset/6/23_6.odb,Step-1,Increment      1: Step Time =    1.000,"PART-1-1",            22,           -5.,          17.5,            0.,NA,NA,"",   87.2070E-03,  -60.4583E-03,   62.8479E-03,   710.146E-09
C:/temp/dataset/6/23_6.odb,Step-1,Increment      1: Step Time =    1.000,"PART-1-1",            23,           -5.,         23.75,            0.,NA,NA,"",   103.835E-03,  -82.6840E-03,   62.8101E-03,   237.487E-09
C:/temp/dataset/6/23_6.odb,Step-1,Increment      1: Step Time =    1.000,"PART-1-1",            24,           -5.,           30.,            0.,NA,NA,"",   122.261E-03,  -104.916E-03,   62.7710E-03,   4.70070E-09
C:/temp/dataset/6/23_6.odb,Step-1,Increment      1: Step Time =    1.000,"PART-1-1",            25,          -10.,           30.,            0.,NA,NA,"",   114.125E-03,  -104.885E-03,   44.9850E-03,   51.2744E-09
C:/temp/dataset/6/23_6.odb,Step-1,Increment      1: Step Time =    1.000,"PART-1-1",            26,          -15.,           30.,            0.,NA,NA,"",   108.324E-03,  -104.853E-03,   27.1988E-03,   6.77417E-09
C:/temp/dataset/6/23_6.odb,Step-1,Increment      1: Step Time =    1.000,"PART-1-1",            27,          -15.,          22.5,            0.,NA,NA,"",   82.7859E-03,  -78.1740E-03,   27.2456E-03,   359.487E-09
C:/temp/dataset/6/23_6.odb,Step-1,Increment      1: Step Time =    1.000,"PART-1-1",            28,          -15.,           15.,            0.,NA,NA,"",   58.2666E-03,  -51.4766E-03,   27.2974E-03,   5.85005E-06
C:/temp/dataset/6/23_6.odb,Step-1,Increment      1: Step Time =    1.000,"PART-1-1",            29,          -15.,           7.5,            0.,NA,NA,"",   37.3006E-03,  -25.0007E-03,   27.6822E-03,   112.718E-06
C:/temp/dataset/6/23_6.odb,Step-1,Increment      1: Step Time =    1.000,"PART-1-1",            30,          -15.,            0.,            0.,NA,NA,"",   27.6033E-03,  -1.77095E-03,   27.5465E-03,   317.359E-06
C:/temp/dataset/6/23_6.odb,Step-1,Increment      1: Step Time =    1.000,"PART-1-1",            31,          -15.,          -7.5,            0.,NA,NA,"",   31.4373E-03,   17.5382E-03,   26.0905E-03,   32.8695E-06
C:/temp/dataset/6/23_6.odb,Step-1,Increment      1: Step Time =    1.000,"PART-1-1",            32,          -15.,          -15.,            0.,NA,NA,"",   31.9862E-03,   20.5311E-03,   24.5274E-03,   719.535E-06
C:/temp/dataset/6/23_6.odb,Step-1,Increment      1: Step Time =    1.000,"PART-1-1",            33,          -15.,         -22.5,            0.,NA,NA,"",   19.3167E-03,   11.4452E-03,   15.5610E-03,   1.90461E-03
C:/temp/dataset/6/23_6.odb,Step-1,Increment      1: Step Time =    1.000,"PART-1-1",            34,           2.5,           -5.,            0.,NA,NA,"",   61.2103E-03,  -13.9096E-03,   59.6090E-03,   1.73296E-03
C:/temp/dataset/6/23_6.odb,Step-1,Increment      1: Step Time =    1.000,"PART-1-1",            35,            5.,      -7.51250,            0.,NA,NA,"",   31.9720E-03,  -14.6894E-03,   28.3977E-03,   3.45652E-03
C:/temp/dataset/6/23_6.odb,Step-1,Increment      1: Step Time =    1.000,"PART-1-1",            36,            5.,      -12.5375,            0.,NA,NA,"",   21.7300E-03,  -14.0842E-03,   16.5477E-03,   2.28404E-03
C:/temp/dataset/6/23_6.odb,Step-1,Increment      1: Step Time =    1.000,"PART-1-1",            37,            5.,      -17.5250,            0.,NA,NA,"",   12.0255E-03,  -9.04648E-03,   7.92306E-03,   1.63037E-03
C:/temp/dataset/6/23_6.odb,Step-1,Increment      1: Step Time =    1.000,"PART-1-1",            38,           2.5,          -20.,            0.,NA,NA,"",   2.41873E-03,  -1.84777E-03,   1.56077E-03,   1.13248E-03
C:/temp/dataset/6/23_6.odb,Step-1,Increment      1: Step Time =    1.000,"PART-1-1",            39,          -2.5,          -20.,            0.,NA,NA,"",   4.27735E-03,   3.14257E-03,   2.90171E-03,   1.20390E-03
C:/temp/dataset/6/23_6.odb,Step-1,Increment      1: Step Time =    1.000,"PART-1-1",            40,           -5.,      -17.4875,            0.,NA,NA,"",   18.8266E-03,   9.81322E-03,   16.0668E-03,   2.90338E-03
C:/temp/dataset/6/23_6.odb,Step-1,Increment      1: Step Time =    1.000,"PART-1-1",            41,           -5.,      -12.4625,            0.,NA,NA,"",   32.8907E-03,   13.3497E-03,   30.0596E-03,   3.47237E-03
C:/temp/dataset/6/23_6.odb,Step-1,Increment      1: Step Time =    1.000,"PART-1-1",            42,           -5.,      -7.47500,            0.,NA,NA,"",   48.7018E-03,   11.2705E-03,   47.3798E-03,   4.86238E-03
C:/temp/dataset/6/23_6.odb,Step-1,Increment      1: Step Time =    1.000,"PART-1-1",            43,          -2.5,           -5.,            0.,NA,NA,"",   89.6791E-03,   35.5199E-06,   89.6791E-03,   8.64324E-03
C:/temp/dataset/6/23_6.odb,Step-1,Increment      1: Step Time =    1.000,"PART-1-1",            44,          12.5,          -30.,            0.,NA,NA,"",            0.,  -855.814E-42,   2.11425E-39,   977.766E-06
C:/temp/dataset/6/23_6.odb,Step-1,Increment      1: Step Time =    1.000,"PART-1-1",            45,           10.,          -30.,            0.,NA,NA,"",            0.,   268.522E-42,   1.35442E-39,   795.152E-06
C:/temp/dataset/6/23_6.odb,Step-1,Increment      1: Step Time =    1.000,"PART-1-1",            46,           7.5,          -30.,            0.,NA,NA,"",            0.,   270.274E-42,   1.00308E-39,   541.764E-06
C:/temp/dataset/6/23_6.odb,Step-1,Increment      1: Step Time =    1.000,"PART-1-1",            47,            5.,          -30.,            0.,NA,NA,"",            0.,  -21.2269E-42,   641.596E-42,   336.389E-06
C:/temp/dataset/6/23_6.odb,Step-1,Increment      1: Step Time =    1.000,"PART-1-1",            48,           2.5,          -30.,            0.,NA,NA,"",            0.,  -113.317E-42,   381.450E-42,   178.376E-06
C:/temp/dataset/6/23_6.odb,Step-1,Increment      1: Step Time =    1.000,"PART-1-1",            49,            0.,          -30.,            0.,NA,NA,"",            0.,  -25.6676E-42,   234.495E-42,   233.571E-06
C:/temp/dataset/6/23_6.odb,Step-1,Increment      1: Step Time =    1.000,"PART-1-1",            50,          -2.5,          -30.,            0.,NA,NA,"",            0.,  -469.783E-42,   816.447E-42,   458.511E-06
C:/temp/dataset/6/23_6.odb,Step-1,Increment      1: Step Time =    1.000,"PART-1-1",            51,           -5.,          -30.,            0.,NA,NA,"",            0.,  -610.799E-42,   1.41520E-39,   716.778E-06
C:/temp/dataset/6/23_6.odb,Step-1,Increment      1: Step Time =    1.000,"PART-1-1",            52,          -7.5,          -30.,            0.,NA,NA,"",            0.,  -601.247E-42,   2.06212E-39,   1.00011E-03
C:/temp/dataset/6/23_6.odb,Step-1,Increment      1: Step Time =    1.000,"PART-1-1",            53,          -10.,          -30.,            0.,NA,NA,"",            0.,   903.379E-42,   2.55604E-39,   1.33952E-03
C:/temp/dataset/6/23_6.odb,Step-1,Increment      1: Step Time =    1.000,"PART-1-1",            54,         -12.5,          -30.,            0.,NA,NA,"",            0.,   652.230E-42,   2.85176E-39,   1.57528E-03
C:/temp/dataset/6/23_6.odb,Step-1,Increment      1: Step Time =    1.000,"PART-1-1",            55,           15.,      -23.4375,            0.,NA,NA,"",   11.7321E-03,  -7.01117E-03,   9.40669E-03,   1.38241E-03
C:/temp/dataset/6/23_6.odb,Step-1,Increment      1: Step Time =    1.000,"PART-1-1",            56,           15.,       -25.625,            0.,NA,NA,"",   8.23973E-03,  -4.93329E-03,   6.59968E-03,   1.44746E-03
C:/temp/dataset/6/23_6.odb,Step-1,Increment      1: Step Time =    1.000,"PART-1-1",            57,           15.,      -27.8125,            0.,NA,NA,"",   4.77472E-03,  -3.00863E-03,   3.70758E-03,   1.70425E-03
C:/temp/dataset/6/23_6.odb,Step-1,Increment      1: Step Time =    1.000,"PART-1-1",            58,           15.,      -14.6875,            0.,NA,NA,"",   23.8149E-03,  -17.2656E-03,   16.4027E-03,   242.565E-06
C:/temp/dataset/6/23_6.odb,Step-1,Increment      1: Step Time =    1.000,"PART-1-1",            59,           15.,       -16.875,            0.,NA,NA,"",   21.5610E-03,  -14.8999E-03,   15.5843E-03,   595.804E-06
C:/temp/dataset/6/23_6.odb,Step-1,Increment      1: Step Time =    1.000,"PART-1-1",            60,           15.,      -19.0625,            0.,NA,NA,"",   18.6122E-03,  -12.1685E-03,   14.0834E-03,   930.912E-06
C:/temp/dataset/6/23_6.odb,Step-1,Increment      1: Step Time =    1.000,"PART-1-1",            61,           15.,       -5.9375,            0.,NA,NA,"",   20.7153E-03,  -15.8315E-03,   13.3599E-03,   784.812E-06
C:/temp/dataset/6/23_6.odb,Step-1,Increment      1: Step Time =    1.000,"PART-1-1",            62,           15.,        -8.125,            0.,NA,NA,"",   23.7246E-03,  -18.5026E-03,   14.8496E-03,   685.915E-06
C:/temp/dataset/6/23_6.odb,Step-1,Increment      1: Step Time =    1.000,"PART-1-1",            63,           15.,      -10.3125,            0.,NA,NA,"",   25.1555E-03,  -19.4299E-03,   15.9774E-03,   436.353E-06
C:/temp/dataset/6/23_6.odb,Step-1,Increment      1: Step Time =    1.000,"PART-1-1",            64,           15.,        2.8125,            0.,NA,NA,"",   12.9979E-03,   8.84923E-03,   9.52036E-03,   87.4271E-06
C:/temp/dataset/6/23_6.odb,Step-1,Increment      1: Step Time =    1.000,"PART-1-1",            65,           15.,      625.E-03,            0.,NA,NA,"",   9.98652E-03,   1.45465E-03,   9.88001E-03,   283.974E-06
C:/temp/dataset/6/23_6.odb,Step-1,Increment      1: Step Time =    1.000,"PART-1-1",            66,           15.,       -1.5625,            0.,NA,NA,"",   11.9666E-03,  -5.45347E-03,   10.6517E-03,   507.030E-06
C:/temp/dataset/6/23_6.odb,Step-1,Increment      1: Step Time =    1.000,"PART-1-1",            67,          12.5,            5.,            0.,NA,NA,"",   24.1883E-03,   16.3573E-03,   17.8189E-03,   104.424E-06
C:/temp/dataset/6/23_6.odb,Step-1,Increment      1: Step Time =    1.000,"PART-1-1",            68,           7.5,            5.,            0.,NA,NA,"",   40.0539E-03,   17.2620E-03,   36.1433E-03,   50.8234E-06
C:/temp/dataset/6/23_6.odb,Step-1,Increment      1: Step Time =    1.000,"PART-1-1",            69,           2.5,            5.,            0.,NA,NA,"",   59.6629E-03,   12.8512E-03,   58.2624E-03,   2.37431E-03
C:/temp/dataset/6/23_6.odb,Step-1,Increment      1: Step Time =    1.000,"PART-1-1",            70,          -2.5,            5.,            0.,NA,NA,"",   68.5953E-03,  -3.09789E-03,   68.5253E-03,   4.09174E-03
C:/temp/dataset/6/23_6.odb,Step-1,Increment      1: Step Time =    1.000,"PART-1-1",            71,           -5.,       9.16667,            0.,NA,NA,"",   70.2549E-03,  -30.7594E-03,   63.1634E-03,   149.080E-06
C:/temp/dataset/6/23_6.odb,Step-1,Increment      1: Step Time =    1.000,"PART-1-1",            72,           -5.,       7.08333,            0.,NA,NA,"",   67.5674E-03,  -22.8266E-03,   63.5949E-03,   673.444E-06
C:/temp/dataset/6/23_6.odb,Step-1,Increment      1: Step Time =    1.000,"PART-1-1",            73,           -5.,       15.4167,            0.,NA,NA,"",   82.2619E-03,  -53.0574E-03,   62.8644E-03,   4.78232E-06
C:/temp/dataset/6/23_6.odb,Step-1,Increment      1: Step Time =    1.000,"PART-1-1",            74,           -5.,       13.3333,            0.,NA,NA,"",   77.7239E-03,  -45.6603E-03,   62.8978E-03,   18.9685E-06
C:/temp/dataset/6/23_6.odb,Step-1,Increment      1: Step Time =    1.000,"PART-1-1",            75,           -5.,       21.6667,            0.,NA,NA,"",   98.0450E-03,  -75.2737E-03,   62.8227E-03,   445.786E-09
C:/temp/dataset/6/23_6.odb,Step-1,Increment      1: Step Time =    1.000,"PART-1-1",            76,           -5.,       19.5833,            0.,NA,NA,"",   92.4869E-03,  -67.8646E-03,   62.8349E-03,   482.591E-09
C:/temp/dataset/6/23_6.odb,Step-1,Increment      1: Step Time =    1.000,"PART-1-1",            77,           -5.,       27.9167,            0.,NA,NA,"",   115.971E-03,  -97.5056E-03,   62.7841E-03,   19.8152E-09
C:/temp/dataset/6/23_6.odb,Step-1,Increment      1: Step Time =    1.000,"PART-1-1",            78,           -5.,       25.8333,            0.,NA,NA,"",   109.821E-03,  -90.0948E-03,   62.7972E-03,   92.7400E-09
C:/temp/dataset/6/23_6.odb,Step-1,Increment      1: Step Time =    1.000,"PART-1-1",            79,          -7.5,           30.,            0.,NA,NA,"",   117.928E-03,  -104.901E-03,   53.8780E-03,   22.8622E-09
C:/temp/dataset/6/23_6.odb,Step-1,Increment      1: Step Time =    1.000,"PART-1-1",            80,         -12.5,           30.,            0.,NA,NA,"",   110.906E-03,  -104.869E-03,   36.0919E-03,   22.2639E-09
C:/temp/dataset/6/23_6.odb,Step-1,Increment      1: Step Time =    1.000,"PART-1-1",            81,          -15.,           25.,            0.,NA,NA,"",   91.2262E-03,  -87.0674E-03,   27.2303E-03,   147.335E-09
C:/temp/dataset/6/23_6.odb,Step-1,Increment      1: Step Time =    1.000,"PART-1-1",            82,          -15.,          27.5,            0.,NA,NA,"",   99.7448E-03,  -95.9604E-03,   27.2146E-03,   27.0145E-09
C:/temp/dataset/6/23_6.odb,Step-1,Increment      1: Step Time =    1.000,"PART-1-1",            83,          -15.,          17.5,            0.,NA,NA,"",   66.2561E-03,  -60.3813E-03,   27.2758E-03,   403.452E-09
C:/temp/dataset/6/23_6.odb,Step-1,Increment      1: Step Time =    1.000,"PART-1-1",            84,          -15.,           20.,            0.,NA,NA,"",   74.4498E-03,  -69.2794E-03,   27.2604E-03,   545.893E-09
C:/temp/dataset/6/23_6.odb,Step-1,Increment      1: Step Time =    1.000,"PART-1-1",            85,          -15.,           10.,            0.,NA,NA,"",   43.4680E-03,  -33.6978E-03,   27.4577E-03,   68.0982E-06
C:/temp/dataset/6/23_6.odb,Step-1,Increment      1: Step Time =    1.000,"PART-1-1",            86,          -15.,          12.5,            0.,NA,NA,"",   50.5946E-03,  -42.5691E-03,   27.3439E-03,   24.2262E-06
C:/temp/dataset/6/23_6.odb,Step-1,Increment      1: Step Time =    1.000,"PART-1-1",            87,          -15.,           2.5,            0.,NA,NA,"",   29.4352E-03,  -9.04141E-03,   28.0122E-03,   92.8611E-06
C:/temp/dataset/6/23_6.odb,Step-1,Increment      1: Step Time =    1.000,"PART-1-1",            88,          -15.,            5.,            0.,NA,NA,"",   32.5780E-03,  -16.7229E-03,   27.9583E-03,   82.8953E-06
C:/temp/dataset/6/23_6.odb,Step-1,Increment      1: Step Time =    1.000,"PART-1-1",            89,          -15.,           -5.,            0.,NA,NA,"",   28.8637E-03,   12.1607E-03,   26.1768E-03,   149.319E-06
C:/temp/dataset/6/23_6.odb,Step-1,Increment      1: Step Time =    1.000,"PART-1-1",            90,          -15.,          -2.5,            0.,NA,NA,"",   27.2805E-03,   5.40134E-03,   26.7404E-03,   344.282E-06
C:/temp/dataset/6/23_6.odb,Step-1,Increment      1: Step Time =    1.000,"PART-1-1",            91,          -15.,         -12.5,            0.,NA,NA,"",   33.5502E-03,   21.5617E-03,   25.7042E-03,   343.064E-06
C:/temp/dataset/6/23_6.odb,Step-1,Increment      1: Step Time =    1.000,"PART-1-1",            92,          -15.,          -10.,            0.,NA,NA,"",   33.3201E-03,   20.6840E-03,   26.1228E-03,   77.7823E-06
C:/temp/dataset/6/23_6.odb,Step-1,Increment      1: Step Time =    1.000,"PART-1-1",            93,          -15.,          -20.,            0.,NA,NA,"",   24.4887E-03,   14.8777E-03,   19.4513E-03,   1.54621E-03
C:/temp/dataset/6/23_6.odb,Step-1,Increment      1: Step Time =    1.000,"PART-1-1",            94,          -15.,         -17.5,            0.,NA,NA,"",   28.8532E-03,   18.1113E-03,   22.4608E-03,   1.13433E-03
C:/temp/dataset/6/23_6.odb,Step-1,Increment      1: Step Time =    1.000,"PART-1-1",            95,          -15.,         -27.5,            0.,NA,NA,"",   8.02293E-03,   5.06042E-03,   6.22572E-03,   2.43931E-03
C:/temp/dataset/6/23_6.odb,Step-1,Increment      1: Step Time =    1.000,"PART-1-1",            96,          -15.,          -25.,            0.,NA,NA,"",   13.7660E-03,   8.21353E-03,   11.0472E-03,   2.06709E-03
C:/temp/dataset/6/23_6.odb,Step-1,Increment      1: Step Time =    1.000,"PART-1-1",            97,       13.0047,      -3.80353,            0.,NA,NA,"",   20.2978E-03,  -11.8764E-03,   16.4606E-03,   180.126E-06
C:/temp/dataset/6/23_6.odb,Step-1,Increment      1: Step Time =    1.000,"PART-1-1",            98,       6.97971,      -7.55833,            0.,NA,NA,"",   30.8847E-03,  -16.6003E-03,   26.0441E-03,   2.50623E-03
C:/temp/dataset/6/23_6.odb,Step-1,Increment      1: Step Time =    1.000,"PART-1-1",            99,       6.96639,      -10.0829,            0.,NA,NA,"",   27.3502E-03,  -16.9436E-03,   21.4697E-03,   2.17287E-03
C:/temp/dataset/6/23_6.odb,Step-1,Increment      1: Step Time =    1.000,"PART-1-1",           100,       12.9900,      -12.5465,            0.,NA,NA,"",   24.6878E-03,  -18.7501E-03,   16.0599E-03,   587.368E-06
C:/temp/dataset/6/23_6.odb,Step-1,Increment      1: Step Time =    1.000,"PART-1-1",           101,       6.90028,      -17.1420,            0.,NA,NA,"",   15.0979E-03,  -10.8683E-03,   10.4798E-03,   1.42495E-03
C:/temp/dataset/6/23_6.odb,Step-1,Increment      1: Step Time =    1.000,"PART-1-1",           102,       7.03871,      -19.0570,            0.,NA,NA,"",   11.5509E-03,  -7.98266E-03,   8.34870E-03,   1.35180E-03
C:/temp/dataset/6/23_6.odb,Step-1,Increment      1: Step Time =    1.000,"PART-1-1",           103,       5.31709,      -21.2647,            0.,NA,NA,"",   4.87526E-03,  -3.02982E-03,   3.81948E-03,   1.13436E-03
C:/temp/dataset/6/23_6.odb,Step-1,Increment      1: Step Time =    1.000,"PART-1-1",           104,      -4.83361,      -22.6144,            0.,NA,NA,"",   5.45914E-03,   1.80278E-03,   5.15288E-03,   1.29516E-03
C:/temp/dataset/6/23_6.odb,Step-1,Increment      1: Step Time =    1.000,"PART-1-1",           105,      -7.46484,      -17.6587,            0.,NA,NA,"",   21.8801E-03,   12.3091E-03,   18.0894E-03,   2.21676E-03
C:/temp/dataset/6/23_6.odb,Step-1,Increment      1: Step Time =    1.000,"PART-1-1",           106,      -12.5283,      -27.3245,            0.,NA,NA,"",   5.44140E-03,   3.19412E-03,   4.40527E-03,   2.15796E-03
C:/temp/dataset/6/23_6.odb,Step-1,Increment      1: Step Time =    1.000,"PART-1-1",           107,      -12.4870,      -17.6221,            0.,NA,NA,"",   26.1562E-03,   16.4684E-03,   20.3208E-03,   1.60330E-03
C:/temp/dataset/6/23_6.odb,Step-1,Increment      1: Step Time =    1.000,"PART-1-1",           108,      -7.32043,      -12.6401,            0.,NA,NA,"",   33.5430E-03,   16.4972E-03,   29.2057E-03,   2.76094E-03
C:/temp/dataset/6/23_6.odb,Step-1,Increment      1: Step Time =    1.000,"PART-1-1",           109,      -7.14644,      -8.03697,            0.,NA,NA,"",   43.6561E-03,   14.8565E-03,   41.0504E-03,   3.44992E-03
C:/temp/dataset/6/23_6.odb,Step-1,Increment      1: Step Time =    1.000,"PART-1-1",           110,      -12.6601,       4.88622,            0.,NA,NA,"",   39.2342E-03,  -16.3319E-03,   35.6734E-03,   184.619E-06
C:/temp/dataset/6/23_6.odb,Step-1,Increment      1: Step Time =    1.000,"PART-1-1",           111,      -13.0978,       12.5399,            0.,NA,NA,"",   54.6431E-03,  -42.7117E-03,   34.0820E-03,   25.3167E-06
C:/temp/dataset/6/23_6.odb,Step-1,Increment      1: Step Time =    1.000,"PART-1-1",           112,      -6.45576,       21.8628,            0.,NA,NA,"",   95.3574E-03,  -75.9620E-03,   57.6438E-03,   151.270E-09
C:/temp/dataset/6/23_6.odb,Step-1,Increment      1: Step Time =    1.000,"PART-1-1",           113,      -7.28884,       25.7044,            0.,NA,NA,"",   104.973E-03,  -89.6216E-03,   54.6563E-03,   111.284E-09
C:/temp/dataset/6/23_6.odb,Step-1,Increment      1: Step Time =    1.000,"PART-1-1",           114,      -9.90518,       27.6474,            0.,NA,NA,"",   106.635E-03,  -96.5167E-03,   45.3373E-03,   54.8752E-09
C:/temp/dataset/6/23_6.odb,Step-1,Increment      1: Step Time =    1.000,"PART-1-1",           115,      -3.01211,      -3.13168,            0.,NA,NA,"",   83.7087E-03,  -3.40334E-03,   83.6395E-03,   5.77739E-03
C:/temp/dataset/6/23_6.odb,Step-1,Increment      1: Step Time =    1.000,"PART-1-1",           116,      -2.19169,       3.00836,            0.,NA,NA,"",   71.5105E-03,  -1.73989E-03,   71.4893E-03,   2.39448E-03
C:/temp/dataset/6/23_6.odb,Step-1,Increment      1: Step Time =    1.000,"PART-1-1",           117,       1.85193,      -2.77696,            0.,NA,NA,"",   65.1632E-03,  -2.30391E-03,   65.1225E-03,   3.23847E-03
C:/temp/dataset/6/23_6.odb,Step-1,Increment      1: Step Time =    1.000,"PART-1-1",           118,       2.83229,       2.22691,            0.,NA,NA,"",   59.1463E-03,   5.83402E-03,   58.8578E-03,   2.31427E-03
C:/temp/dataset/6/23_6.odb,Step-1,Increment      1: Step Time =    1.000,"PART-1-1",           119,       7.74921,       3.07964,            0.,NA,NA,"",   36.4976E-03,   10.0392E-03,   35.0898E-03,   563.896E-06
C:/temp/dataset/6/23_6.odb,Step-1,Increment      1: Step Time =    1.000,"PART-1-1",           120,      -2.47342,      -22.6017,            0.,NA,NA,"",   1.96201E-03,   723.035E-06,   1.82393E-03,   401.884E-06
C:/temp/dataset/6/23_6.odb,Step-1,Increment      1: Step Time =    1.000,"PART-1-1",           121,      -7.48266,       20.3798,            0.,NA,NA,"",   88.9487E-03,  -70.6809E-03,   54.0007E-03,   305.324E-09
C:/temp/dataset/6/23_6.odb,Step-1,Increment      1: Step Time =    1.000,"PART-1-1",           122,      -7.10993,       13.1351,            0.,NA,NA,"",   71.3193E-03,  -44.9507E-03,   55.3704E-03,   23.5261E-06
C:/temp/dataset/6/23_6.odb,Step-1,Increment      1: Step Time =    1.000,"PART-1-1",           123,      -6.64156,       6.82435,            0.,NA,NA,"",   61.2591E-03,  -22.1357E-03,   57.1199E-03,   323.900E-06
C:/temp/dataset/6/23_6.odb,Step-1,Increment      1: Step Time =    1.000,"PART-1-1",           124,      -12.9641,      -2.37512,            0.,NA,NA,"",   32.8320E-03,   4.57474E-03,   32.5117E-03,   635.843E-06
C:/temp/dataset/6/23_6.odb,Step-1,Increment      1: Step Time =    1.000,"PART-1-1",           125,      -12.1317,      -9.84573,            0.,NA,NA,"",   35.3290E-03,   19.9090E-03,   29.1852E-03,   1.07446E-03
C:/temp/dataset/6/23_6.odb,Step-1,Increment      1: Step Time =    1.000,"PART-1-1",           126,       4.04132,      -2.67712,            0.,NA,NA,"",   50.4435E-03,  -4.03272E-03,   50.2820E-03,   2.91577E-03
C:/temp/dataset/6/23_6.odb,Step-1,Increment      1: Step Time =    1.000,"PART-1-1",           127,       6.95362,      -12.5367,            0.,NA,NA,"",   23.3626E-03,  -15.8654E-03,   17.1493E-03,   1.86190E-03
C:/temp/dataset/6/23_6.odb,Step-1,Increment      1: Step Time =    1.000,"PART-1-1",           128,       6.92458,      -14.9216,            0.,NA,NA,"",   19.2109E-03,  -13.6785E-03,   13.4891E-03,   1.65507E-03
C:/temp/dataset/6/23_6.odb,Step-1,Increment      1: Step Time =    1.000,"PART-1-1",           129,       12.9089,      -21.3671,            0.,NA,NA,"",   12.7608E-03,  -8.18285E-03,   9.79173E-03,   1.19052E-03
C:/temp/dataset/6/23_6.odb,Step-1,Increment      1: Step Time =    1.000,"PART-1-1",           130,   283.131E-03,      -22.8786,            0.,NA,NA,"",   443.079E-06,  -188.293E-06,   401.079E-06,   259.278E-06
C:/temp/dataset/6/23_6.odb,Step-1,Increment      1: Step Time =    1.000,"PART-1-1",           131,      -12.9776,      -22.4214,            0.,NA,NA,"",   16.6683E-03,   9.83944E-03,   13.4542E-03,   1.89337E-03
C:/temp/dataset/6/23_6.odb,Step-1,Increment      1: Step Time =    1.000,"PART-1-1",           132,      -7.42030,      -15.1083,            0.,NA,NA,"",   27.8677E-03,   15.1175E-03,   23.4109E-03,   2.55552E-03
C:/temp/dataset/6/23_6.odb,Step-1,Increment      1: Step Time =    1.000,"PART-1-1",           133,      -7.18486,      -10.2642,            0.,NA,NA,"",   39.0342E-03,   16.3865E-03,   35.4282E-03,   3.05510E-03
C:/temp/dataset/6/23_6.odb,Step-1,Increment      1: Step Time =    1.000,"PART-1-1",           134,      -7.33974,      -5.93881,            0.,NA,NA,"",   47.1129E-03,   11.3874E-03,   45.7160E-03,   2.11980E-03
C:/temp/dataset/6/23_6.odb,Step-1,Increment      1: Step Time =    1.000,"PART-1-1",           135,  -533.729E-03,      -2.94296,            0.,NA,NA,"",   80.9452E-03,  -1.51246E-03,   80.9311E-03,   4.60710E-03
C:/temp/dataset/6/23_6.odb,Step-1,Increment      1: Step Time =    1.000,"PART-1-1",           136,       10.2172,      -28.0250,            0.,NA,NA,"",   1.55644E-03,  -636.541E-06,   1.42032E-03,   947.703E-06
C:/temp/dataset/6/23_6.odb,Step-1,Increment      1: Step Time =    1.000,"PART-1-1",           137,       7.82196,      -28.0777,            0.,NA,NA,"",   971.408E-06,  -173.813E-06,   955.732E-06,   635.559E-06
C:/temp/dataset/6/23_6.odb,Step-1,Increment      1: Step Time =    1.000,"PART-1-1",           138,       5.43540,      -28.0544,            0.,NA,NA,"",   562.152E-06,   34.3799E-06,   561.100E-06,   362.838E-06
C:/temp/dataset/6/23_6.odb,Step-1,Increment      1: Step Time =    1.000,"PART-1-1",           139,       2.98405,      -27.8165,            0.,NA,NA,"",   267.409E-06,  -42.5617E-06,   264.000E-06,   186.315E-06
C:/temp/dataset/6/23_6.odb,Step-1,Increment      1: Step Time =    1.000,"PART-1-1",           140,   324.250E-03,      -27.0908,            0.,NA,NA,"",   419.242E-06,  -368.957E-06,   199.084E-06,   203.676E-06
C:/temp/dataset/6/23_6.odb,Step-1,Increment      1: Step Time =    1.000,"PART-1-1",           141,      -2.46293,      -27.5198,            0.,NA,NA,"",   846.505E-06,  -577.931E-06,   618.520E-06,   370.407E-06
C:/temp/dataset/6/23_6.odb,Step-1,Increment      1: Step Time =    1.000,"PART-1-1",           142,      -4.88996,      -27.5861,            0.,NA,NA,"",   1.39866E-03,  -441.253E-06,   1.32723E-03,   719.656E-06
C:/temp/dataset/6/23_6.odb,Step-1,Increment      1: Step Time =    1.000,"PART-1-1",           143,      -7.26500,      -27.4866,            0.,NA,NA,"",   2.21781E-03,   179.574E-06,   2.21053E-03,   1.14851E-03
C:/temp/dataset/6/23_6.odb,Step-1,Increment      1: Step Time =    1.000,"PART-1-1",           144,      -9.86695,      -26.8928,            0.,NA,NA,"",   4.22111E-03,   1.75335E-03,   3.83973E-03,   1.67154E-03
C:/temp/dataset/6/23_6.odb,Step-1,Increment      1: Step Time =    1.000,"PART-1-1",           145,       12.7710,      -23.5898,            0.,NA,NA,"",   9.12751E-03,  -5.51769E-03,   7.27095E-03,   1.27263E-03
C:/temp/dataset/6/23_6.odb,Step-1,Increment      1: Step Time =    1.000,"PART-1-1",           146,       12.6989,      -25.7990,            0.,NA,NA,"",   5.71224E-03,  -3.34863E-03,   4.62778E-03,   1.36277E-03
C:/temp/dataset/6/23_6.odb,Step-1,Increment      1: Step Time =    1.000,"PART-1-1",           147,       12.6207,      -27.9366,            0.,NA,NA,"",   2.67049E-03,  -1.56450E-03,   2.16423E-03,   1.38091E-03
C:/temp/dataset/6/23_6.odb,Step-1,Increment      1: Step Time =    1.000,"PART-1-1",           148,       12.9983,      -14.8223,            0.,NA,NA,"",   22.5320E-03,  -16.7553E-03,   15.0650E-03,   747.683E-06
C:/temp/dataset/6/23_6.odb,Step-1,Increment      1: Step Time =    1.000,"PART-1-1",           149,       13.0558,      -17.0719,            0.,NA,NA,"",   19.6195E-03,  -14.0427E-03,   13.7014E-03,   907.446E-06
C:/temp/dataset/6/23_6.odb,Step-1,Increment      1: Step Time =    1.000,"PART-1-1",           150,       13.1682,      -19.2108,            0.,NA,NA,"",   16.4634E-03,  -11.1810E-03,   12.0842E-03,   1.05117E-03
C:/temp/dataset/6/23_6.odb,Step-1,Increment      1: Step Time =    1.000,"PART-1-1",           151,       13.0670,      -5.94273,            0.,NA,NA,"",   23.2086E-03,  -16.2429E-03,   16.5773E-03,   129.430E-06
C:/temp/dataset/6/23_6.odb,Step-1,Increment      1: Step Time =    1.000,"PART-1-1",           152,       13.0350,      -8.09399,            0.,NA,NA,"",   25.1857E-03,  -18.7953E-03,   16.7647E-03,   256.003E-06
C:/temp/dataset/6/23_6.odb,Step-1,Increment      1: Step Time =    1.000,"PART-1-1",           153,       12.9982,      -10.2981,            0.,NA,NA,"",   25.6674E-03,  -19.5527E-03,   16.6285E-03,   431.812E-06
C:/temp/dataset/6/23_6.odb,Step-1,Increment      1: Step Time =    1.000,"PART-1-1",           154,       12.5107,   556.281E-03,            0.,NA,NA,"",   17.7313E-03,   1.09601E-03,   17.6974E-03,   229.017E-06
C:/temp/dataset/6/23_6.odb,Step-1,Increment      1: Step Time =    1.000,"PART-1-1",           155,       12.7702,      -1.64554,            0.,NA,NA,"",   17.9307E-03,  -5.95175E-03,   16.9141E-03,   229.789E-06
C:/temp/dataset/6/23_6.odb,Step-1,Increment      1: Step Time =    1.000,"PART-1-1",           156,       10.0517,       2.85834,            0.,NA,NA,"",   27.6229E-03,   9.15782E-03,   26.0607E-03,   120.875E-06
C:/temp/dataset/6/23_6.odb,Step-1,Increment      1: Step Time =    1.000,"PART-1-1",           157,       5.39286,       2.85476,            0.,NA,NA,"",   46.8180E-03,   8.90391E-03,   45.9635E-03,   1.43017E-03
C:/temp/dataset/6/23_6.odb,Step-1,Increment      1: Step Time =    1.000,"PART-1-1",           158,   175.602E-03,       2.90951,            0.,NA,NA,"",   68.8028E-03,   3.09706E-03,   68.7330E-03,   2.42163E-03
C:/temp/dataset/6/23_6.odb,Step-1,Increment      1: Step Time =    1.000,"PART-1-1",           159,      -4.35394,       2.91920,            0.,NA,NA,"",   68.1896E-03,  -5.90509E-03,   67.9334E-03,   2.26144E-03
C:/temp/dataset/6/23_6.odb,Step-1,Increment      1: Step Time =    1.000,"PART-1-1",           160,      -7.05997,       10.9599,            0.,NA,NA,"",   66.8790E-03,  -37.2349E-03,   55.5551E-03,   49.8014E-06
C:/temp/dataset/6/23_6.odb,Step-1,Increment      1: Step Time =    1.000,"PART-1-1",           161,      -6.93805,       8.84105,            0.,NA,NA,"",   63.3567E-03,  -29.6377E-03,   55.9971E-03,   72.1380E-06
C:/temp/dataset/6/23_6.odb,Step-1,Increment      1: Step Time =    1.000,"PART-1-1",           162,      -7.28921,       17.6445,            0.,NA,NA,"",   81.9056E-03,  -60.9573E-03,   54.7059E-03,   2.61756E-06
C:/temp/dataset/6/23_6.odb,Step-1,Increment      1: Step Time =    1.000,"PART-1-1",           163,      -7.17735,       15.3234,            0.,NA,NA,"",   76.2673E-03,  -52.7138E-03,   55.1176E-03,   9.50795E-06
C:/temp/dataset/6/23_6.odb,Step-1,Increment      1: Step Time =    1.000,"PART-1-1",           164,      -6.93557,       23.5874,            0.,NA,NA,"",   99.3330E-03,  -82.0932E-03,   55.9263E-03,   144.490E-09
C:/temp/dataset/6/23_6.odb,Step-1,Increment      1: Step Time =    1.000,"PART-1-1",           165,      -13.1925,       19.7530,            0.,NA,NA,"",   76.2591E-03,  -68.4122E-03,   33.6931E-03,   378.839E-09
C:/temp/dataset/6/23_6.odb,Step-1,Increment      1: Step Time =    1.000,"PART-1-1",           166,      -7.44963,       27.8335,            0.,NA,NA,"",   111.222E-03,  -97.1943E-03,   54.0709E-03,   59.9895E-09
C:/temp/dataset/6/23_6.odb,Step-1,Increment      1: Step Time =    1.000,"PART-1-1",           167,      -13.0424,       22.0734,            0.,NA,NA,"",   83.9561E-03,  -76.6690E-03,   34.2124E-03,   138.715E-09
C:/temp/dataset/6/23_6.odb,Step-1,Increment      1: Step Time =    1.000,"PART-1-1",           168,      -13.1316,       14.9813,            0.,NA,NA,"",   61.6113E-03,  -51.4190E-03,   33.9417E-03,   9.86805E-06
C:/temp/dataset/6/23_6.odb,Step-1,Increment      1: Step Time =    1.000,"PART-1-1",           169,      -13.1727,       17.3972,            0.,NA,NA,"",   68.8780E-03,  -60.0264E-03,   33.7787E-03,   2.62277E-06
C:/temp/dataset/6/23_6.odb,Step-1,Increment      1: Step Time =    1.000,"PART-1-1",           170,      -12.8574,       7.53984,            0.,NA,NA,"",   43.0480E-03,  -25.0806E-03,   34.9871E-03,   30.3391E-06
C:/temp/dataset/6/23_6.odb,Step-1,Increment      1: Step Time =    1.000,"PART-1-1",           171,      -13.0166,       10.0884,            0.,NA,NA,"",   48.3554E-03,  -33.9885E-03,   34.3951E-03,   44.4340E-06
C:/temp/dataset/6/23_6.odb,Step-1,Increment      1: Step Time =    1.000,"PART-1-1",           172,      -12.8045,  -118.323E-03,            0.,NA,NA,"",   34.2252E-03,  -1.85343E-03,   34.1750E-03,   548.265E-06
C:/temp/dataset/6/23_6.odb,Step-1,Increment      1: Step Time =    1.000,"PART-1-1",           173,      -12.7039,       2.28772,            0.,NA,NA,"",   36.3171E-03,  -8.58971E-03,   35.2866E-03,   429.963E-06
C:/temp/dataset/6/23_6.odb,Step-1,Increment      1: Step Time =    1.000,"PART-1-1",           174,      -12.8488,      -7.31355,            0.,NA,NA,"",   34.3921E-03,   16.9108E-03,   29.9473E-03,   676.552E-06
C:/temp/dataset/6/23_6.odb,Step-1,Increment      1: Step Time =    1.000,"PART-1-1",           175,      -12.6051,      -4.81291,            0.,NA,NA,"",   33.8907E-03,   11.2171E-03,   31.9806E-03,   730.591E-06
C:/temp/dataset/6/23_6.odb,Step-1,Increment      1: Step Time =    1.000,"PART-1-1",           176,      -12.4260,      -15.0682,            0.,NA,NA,"",   30.4328E-03,   19.2991E-03,   23.5308E-03,   1.42807E-03
C:/temp/dataset/6/23_6.odb,Step-1,Increment      1: Step Time =    1.000,"PART-1-1",           177,      -12.3344,      -12.5112,            0.,NA,NA,"",   33.5255E-03,   20.6681E-03,   26.3968E-03,   1.26649E-03
C:/temp/dataset/6/23_6.odb,Step-1,Increment      1: Step Time =    1.000,"PART-1-1",           178,      -12.6598,      -20.1148,            0.,NA,NA,"",   21.2908E-03,   12.9998E-03,   16.8613E-03,   1.76421E-03
C:/temp/dataset/6/23_6.odb,Step-1,Increment      1: Step Time =    1.000,"PART-1-1",           179,      -8.70618,       22.9331,            0.,NA,NA,"",   93.9373E-03,  -79.7548E-03,   49.6325E-03,   148.721E-09
C:/temp/dataset/6/23_6.odb,Step-1,Increment      1: Step Time =    1.000,"PART-1-1",           180,      -9.21222,       15.1634,            0.,NA,NA,"",   70.7657E-03,  -52.1197E-03,   47.8678E-03,   11.8835E-06
C:/temp/dataset/6/23_6.odb,Step-1,Increment      1: Step Time =    1.000,"PART-1-1",           181,      -9.55138,       19.8926,            0.,NA,NA,"",   83.2327E-03,  -68.9341E-03,   46.6451E-03,   732.603E-09
C:/temp/dataset/6/23_6.odb,Step-1,Increment      1: Step Time =    1.000,"PART-1-1",           182,      -8.92203,       8.32966,            0.,NA,NA,"",   56.1011E-03,  -27.7472E-03,   48.7589E-03,   75.5256E-06
C:/temp/dataset/6/23_6.odb,Step-1,Increment      1: Step Time =    1.000,"PART-1-1",           183,      -9.17670,       12.8809,            0.,NA,NA,"",   65.1027E-03,  -44.0062E-03,   47.9772E-03,   29.3996E-06
C:/temp/dataset/6/23_6.odb,Step-1,Increment      1: Step Time =    1.000,"PART-1-1",           184,      -9.09923,       10.6117,            0.,NA,NA,"",   60.1227E-03,  -35.9322E-03,   48.2039E-03,   55.6845E-06
C:/temp/dataset/6/23_6.odb,Step-1,Increment      1: Step Time =    1.000,"PART-1-1",           185,      -9.30530,       17.5014,            0.,NA,NA,"",   76.8850E-03,  -60.4313E-03,   47.5327E-03,   3.62270E-06
C:/temp/dataset/6/23_6.odb,Step-1,Increment      1: Step Time =    1.000,"PART-1-1",           186,      -8.37864,       6.17865,            0.,NA,NA,"",   54.5598E-03,  -19.9243E-03,   50.7916E-03,   353.156E-06
C:/temp/dataset/6/23_6.odb,Step-1,Increment      1: Step Time =    1.000,"PART-1-1",           187,       10.9988,      -10.2527,            0.,NA,NA,"",   26.3218E-03,  -19.1927E-03,   18.0132E-03,   965.388E-06
C:/temp/dataset/6/23_6.odb,Step-1,Increment      1: Step Time =    1.000,"PART-1-1",           188,       10.8643,      -17.5211,            0.,NA,NA,"",   17.4532E-03,  -12.5009E-03,   12.1795E-03,   1.21710E-03
C:/temp/dataset/6/23_6.odb,Step-1,Increment      1: Step Time =    1.000,"PART-1-1",           189,       11.0508,      -8.01555,            0.,NA,NA,"",   26.7926E-03,  -18.6091E-03,   19.2754E-03,   726.341E-06
C:/temp/dataset/6/23_6.odb,Step-1,Increment      1: Step Time =    1.000,"PART-1-1",           190,       10.6332,      -2.00908,            0.,NA,NA,"",   23.7032E-03,  -6.84487E-03,   22.6933E-03,   498.321E-06
C:/temp/dataset/6/23_6.odb,Step-1,Increment      1: Step Time =    1.000,"PART-1-1",           191,       11.1668,      -5.92645,            0.,NA,NA,"",   25.7393E-03,  -16.2513E-03,   19.9602E-03,   436.407E-06
C:/temp/dataset/6/23_6.odb,Step-1,Increment      1: Step Time =    1.000,"PART-1-1",           192,       10.9732,      -14.9280,            0.,NA,NA,"",   21.5406E-03,  -15.9489E-03,   14.4785E-03,   1.13677E-03
C:/temp/dataset/6/23_6.odb,Step-1,Increment      1: Step Time =    1.000,"PART-1-1",           193,       10.5476,      -23.6927,            0.,NA,NA,"",   7.03042E-03,  -4.10666E-03,   5.70633E-03,   1.22640E-03
C:/temp/dataset/6/23_6.odb,Step-1,Increment      1: Step Time =    1.000,"PART-1-1",           194,       10.5707,      -21.1850,            0.,NA,NA,"",   10.9699E-03,  -7.07998E-03,   8.37929E-03,   1.29232E-03
C:/temp/dataset/6/23_6.odb,Step-1,Increment      1: Step Time =    1.000,"PART-1-1",           195,       10.9760,      -12.5622,            0.,NA,NA,"",   24.4786E-03,  -18.1990E-03,   16.3706E-03,   1.07610E-03
C:/temp/dataset/6/23_6.odb,Step-1,Increment      1: Step Time =    1.000,"PART-1-1",           196,       11.6229,      -19.2502,            0.,NA,NA,"",   15.1062E-03,  -10.3833E-03,   10.9719E-03,   1.19037E-03
C:/temp/dataset/6/23_6.odb,Step-1,Increment      1: Step Time =    1.000,"PART-1-1",           197,       11.1609,      -3.97100,            0.,NA,NA,"",   23.9854E-03,  -12.2728E-03,   20.6078E-03,   388.206E-06
C:/temp/dataset/6/23_6.odb,Step-1,Increment      1: Step Time =    1.000,"PART-1-1",           198,      -9.55101,       25.2781,            0.,NA,NA,"",   99.6630E-03,  -88.0909E-03,   46.6122E-03,   120.440E-09
C:/temp/dataset/6/23_6.odb,Step-1,Increment      1: Step Time =    1.000,"PART-1-1",           199,      -6.13353,       2.97524,            0.,NA,NA,"",   61.7461E-03,  -8.30280E-03,   61.1853E-03,   2.23636E-03
C:/temp/dataset/6/23_6.odb,Step-1,Increment      1: Step Time =    1.000,"PART-1-1",           200,       8.52809,      -18.5145,            0.,NA,NA,"",   13.9953E-03,  -9.75665E-03,   10.0338E-03,   1.36262E-03
C:/temp/dataset/6/23_6.odb,Step-1,Increment      1: Step Time =    1.000,"PART-1-1",           201,      -9.31256,      -6.57829,            0.,NA,NA,"",   40.9717E-03,   14.1917E-03,   38.4353E-03,   1.65038E-03
C:/temp/dataset/6/23_6.odb,Step-1,Increment      1: Step Time =    1.000,"PART-1-1",           202,      -7.82061,      -4.24854,            0.,NA,NA,"",   47.2801E-03,   6.15404E-03,   46.8779E-03,   2.37312E-03
C:/temp/dataset/6/23_6.odb,Step-1,Increment      1: Step Time =    1.000,"PART-1-1",           203,       7.55002,      -20.4955,            0.,NA,NA,"",   9.35083E-03,  -5.97875E-03,   7.18975E-03,   1.45489E-03
C:/temp/dataset/6/23_6.odb,Step-1,Increment      1: Step Time =    1.000,"PART-1-1",           204,      -9.18944,      -8.43706,            0.,NA,NA,"",   39.7650E-03,   17.1775E-03,   35.8635E-03,   1.88129E-03
C:/temp/dataset/6/23_6.odb,Step-1,Increment      1: Step Time =    1.000,"PART-1-1",           205,      -12.3720,       27.4312,            0.,NA,NA,"",   102.477E-03,  -95.7324E-03,   36.5636E-03,   69.3411E-09
C:/temp/dataset/6/23_6.odb,Step-1,Increment      1: Step Time =    1.000,"PART-1-1",           206,      -10.3791,       22.2070,            0.,NA,NA,"",   88.6698E-03,  -77.1612E-03,   43.6863E-03,   162.249E-09
C:/temp/dataset/6/23_6.odb,Step-1,Increment      1: Step Time =    1.000,"PART-1-1",           207,       3.40286,  -884.176E-03,            0.,NA,NA,"",   55.7190E-03,   883.101E-06,   55.7120E-03,   2.94248E-03
C:/temp/dataset/6/23_6.odb,Step-1,Increment      1: Step Time =    1.000,"PART-1-1",           208,       7.88020,       1.44192,            0.,NA,NA,"",   34.5010E-03,   4.72450E-03,   34.1760E-03,   858.355E-06
C:/temp/dataset/6/23_6.odb,Step-1,Increment      1: Step Time =    1.000,"PART-1-1",           209,      -1.17287,  -897.893E-03,            0.,NA,NA,"",   77.5088E-03,  -957.615E-06,   77.5028E-03,   3.06498E-03
C:/temp/dataset/6/23_6.odb,Step-1,Increment      1: Step Time =    1.000,"PART-1-1",           210,       10.4014,      -25.9274,            0.,NA,NA,"",   3.92228E-03,  -2.04445E-03,   3.34732E-03,   1.10473E-03
C:/temp/dataset/6/23_6.odb,Step-1,Increment      1: Step Time =    1.000,"PART-1-1",           211,       2.00108,      -24.8239,            0.,NA,NA,"",   485.114E-06,  -362.095E-06,   322.836E-06,   73.9871E-06
C:/temp/dataset/6/23_6.odb,Step-1,Increment      1: Step Time =    1.000,"PART-1-1",           212,      -4.80900,      -25.1606,            0.,NA,NA,"",   2.94522E-03,   163.115E-06,   2.94070E-03,   875.551E-06
C:/temp/dataset/6/23_6.odb,Step-1,Increment      1: Step Time =    1.000,"PART-1-1",           213,      -11.5765,       21.3848,            0.,NA,NA,"",   84.0521E-03,  -74.2285E-03,   39.4320E-03,   186.560E-09
C:/temp/dataset/6/23_6.odb,Step-1,Increment      1: Step Time =    1.000,"PART-1-1",           214,      -11.0630,       10.3038,            0.,NA,NA,"",   53.9451E-03,  -34.7838E-03,   41.2330E-03,   51.1160E-06
C:/temp/dataset/6/23_6.odb,Step-1,Increment      1: Step Time =    1.000,"PART-1-1",           215,      -10.2832,  -591.021E-03,            0.,NA,NA,"",   42.6347E-03,  -1.67378E-03,   42.6018E-03,   1.28826E-03
C:/temp/dataset/6/23_6.odb,Step-1,Increment      1: Step Time =    1.000,"PART-1-1",           216,      -11.1869,      -5.64306,            0.,NA,NA,"",   36.9980E-03,   12.7997E-03,   34.7134E-03,   1.06938E-03
C:/temp/dataset/6/23_6.odb,Step-1,Increment      1: Step Time =    1.000,"PART-1-1",           217,      -9.48237,      -10.3825,            0.,NA,NA,"",   37.1070E-03,   18.7201E-03,   32.0389E-03,   2.02973E-03
C:/temp/dataset/6/23_6.odb,Step-1,Increment      1: Step Time =    1.000,"PART-1-1",           218,      -10.0191,      -20.7277,            0.,NA,NA,"",   17.1990E-03,   9.79536E-03,   14.1370E-03,   2.04511E-03
C:/temp/dataset/6/23_6.odb,Step-1,Increment      1: Step Time =    1.000,"PART-1-1",           219,      -12.8377,      -24.8331,            0.,NA,NA,"",   11.1303E-03,   6.45016E-03,   9.07074E-03,   2.07610E-03
C:/temp/dataset/6/23_6.odb,Step-1,Increment      1: Step Time =    1.000,"PART-1-1",           220,  -752.185E-03,      -25.0561,            0.,NA,NA,"",   618.678E-06,  -399.030E-06,   472.797E-06,   135.831E-06
C:/temp/dataset/6/23_6.odb,Step-1,Increment      1: Step Time =    1.000,"PART-1-1",           221,      -11.3411,      -22.5061,            0.,NA,NA,"",   14.5599E-03,   8.26428E-03,   11.9871E-03,   1.96940E-03
C:/temp/dataset/6/23_6.odb,Step-1,Increment      1: Step Time =    1.000,"PART-1-1",           222,       5.90860,      -26.1342,            0.,NA,NA,"",   1.45583E-03,  -427.790E-06,   1.39156E-03,   489.174E-06
C:/temp/dataset/6/23_6.odb,Step-1,Increment      1: Step Time =    1.000,"PART-1-1",           223,       3.81352,      -25.8758,            0.,NA,NA,"",   738.802E-06,  -256.744E-06,   692.756E-06,   228.249E-06
C:/temp/dataset/6/23_6.odb,Step-1,Increment      1: Step Time =    1.000,"PART-1-1",           224,      -6.87266,      -25.1947,            0.,NA,NA,"",   4.71507E-03,   1.21875E-03,   4.55484E-03,   1.35831E-03
C:/temp/dataset/6/23_6.odb,Step-1,Increment      1: Step Time =    1.000,"PART-1-1",           225,       9.77381,   336.875E-03,            0.,NA,NA,"",   26.4491E-03,   736.160E-06,   26.4388E-03,   479.504E-06
C:/temp/dataset/6/23_6.odb,Step-1,Increment      1: Step Time =    1.000,"PART-1-1",           226,       4.59800,   29.7464E-03,            0.,NA,NA,"",   49.3719E-03,   2.09647E-03,   49.3274E-03,   2.43864E-03
C:/temp/dataset/6/23_6.odb,Step-1,Increment      1: Step Time =    1.000,"PART-1-1",           227,      -11.1551,       12.6912,            0.,NA,NA,"",   59.5806E-03,  -43.2820E-03,   40.9453E-03,   29.3171E-06
C:/temp/dataset/6/23_6.odb,Step-1,Increment      1: Step Time =    1.000,"PART-1-1",           228,      -11.2689,       17.3859,            0.,NA,NA,"",   72.4183E-03,  -60.0017E-03,   40.5488E-03,   3.75481E-06
C:/temp/dataset/6/23_6.odb,Step-1,Increment      1: Step Time =    1.000,"PART-1-1",           229,      -11.2102,       15.0558,            0.,NA,NA,"",   65.8416E-03,  -51.7060E-03,   40.7628E-03,   11.9012E-06
C:/temp/dataset/6/23_6.odb,Step-1,Increment      1: Step Time =    1.000,"PART-1-1",           230,      -10.8139,       7.79620,            0.,NA,NA,"",   49.4116E-03,  -25.9352E-03,   42.0579E-03,   57.7113E-06
C:/temp/dataset/6/23_6.odb,Step-1,Increment      1: Step Time =    1.000,"PART-1-1",           231,      -10.1648,       4.85487,            0.,NA,NA,"",   47.2713E-03,  -15.9903E-03,   44.4847E-03,   410.367E-06
C:/temp/dataset/6/23_6.odb,Step-1,Increment      1: Step Time =    1.000,"PART-1-1",           232,      -10.4473,       2.01195,            0.,NA,NA,"",   44.0741E-03,  -8.05049E-03,   43.3326E-03,   893.799E-06
C:/temp/dataset/6/23_6.odb,Step-1,Increment      1: Step Time =    1.000,"PART-1-1",           233,      -10.4810,      -3.59789,            0.,NA,NA,"",   39.3330E-03,   6.79278E-03,   38.7421E-03,   1.33368E-03
C:/temp/dataset/6/23_6.odb,Step-1,Increment      1: Step Time =    1.000,"PART-1-1",           234,      -9.89141,      -15.1395,            0.,NA,NA,"",   29.2635E-03,   17.4651E-03,   23.4803E-03,   1.99605E-03
C:/temp/dataset/6/23_6.odb,Step-1,Increment      1: Step Time =    1.000,"PART-1-1",           235,      -9.95744,      -17.7636,            0.,NA,NA,"",   23.9123E-03,   14.3997E-03,   19.0906E-03,   1.96639E-03
C:/temp/dataset/6/23_6.odb,Step-1,Increment      1: Step Time =    1.000,"PART-1-1",           236,      -3.63694,      -1.16253,            0.,NA,NA,"",   75.2698E-03,  -4.28777E-03,   75.1476E-03,   3.69235E-03
C:/temp/dataset/6/23_6.odb,Step-1,Increment      1: Step Time =    1.000,"PART-1-1",           237,      -7.00580,      -22.7773,            0.,NA,NA,"",   8.87093E-03,   3.58428E-03,   8.11458E-03,   1.91284E-03
C:/temp/dataset/6/23_6.odb,Step-1,Increment      1: Step Time =    1.000,"PART-1-1",           238,       7.08723,      -4.67483,            0.,NA,NA,"",   33.3341E-03,  -13.0725E-03,   30.6639E-03,   1.49785E-03
C:/temp/dataset/6/23_6.odb,Step-1,Increment      1: Step Time =    1.000,"PART-1-1",           239,       8.96532,      -10.1697,            0.,NA,NA,"",   27.0392E-03,  -18.3972E-03,   19.8157E-03,   1.49773E-03
C:/temp/dataset/6/23_6.odb,Step-1,Increment      1: Step Time =    1.000,"PART-1-1",           240,       8.99874,      -7.82238,            0.,NA,NA,"",   28.8690E-03,  -18.0461E-03,   22.5334E-03,   1.38669E-03
C:/temp/dataset/6/23_6.odb,Step-1,Increment      1: Step Time =    1.000,"PART-1-1",           241,       8.96760,      -14.8663,            0.,NA,NA,"",   20.7129E-03,  -15.0449E-03,   14.2364E-03,   1.40576E-03
C:/temp/dataset/6/23_6.odb,Step-1,Increment      1: Step Time =    1.000,"PART-1-1",           242,      -12.0836,       24.5335,            0.,NA,NA,"",   93.3382E-03,  -85.4263E-03,   37.6080E-03,   145.392E-09
C:/temp/dataset/6/23_6.odb,Step-1,Increment      1: Step Time =    1.000,"PART-1-1",           243,       9.21542,      -5.66363,            0.,NA,NA,"",   28.7195E-03,  -15.6607E-03,   24.0739E-03,   988.123E-06
C:/temp/dataset/6/23_6.odb,Step-1,Increment      1: Step Time =    1.000,"PART-1-1",           244,       8.72776,      -2.97127,            0.,NA,NA,"",   29.0430E-03,  -9.07792E-03,   27.5878E-03,   1.05647E-03
C:/temp/dataset/6/23_6.odb,Step-1,Increment      1: Step Time =    1.000,"PART-1-1",           245,       9.39471,      -19.4524,            0.,NA,NA,"",   12.9922E-03,  -8.83720E-03,   9.52376E-03,   1.33803E-03
C:/temp/dataset/6/23_6.odb,Step-1,Increment      1: Step Time =    1.000,"PART-1-1",           246,       8.06548,      -22.0810,            0.,NA,NA,"",   7.21885E-03,  -4.26722E-03,   5.82260E-03,   1.27460E-03
C:/temp/dataset/6/23_6.odb,Step-1,Increment      1: Step Time =    1.000,"PART-1-1",           247,      -7.53738,       4.79758,            0.,NA,NA,"",   56.2225E-03,  -14.6707E-03,   54.2747E-03,   882.729E-06
C:/temp/dataset/6/23_6.odb,Step-1,Increment      1: Step Time =    1.000,"PART-1-1",           248,      -10.8025,      -24.3532,            0.,NA,NA,"",   9.91376E-03,   5.23253E-03,   8.42042E-03,   1.94828E-03
C:/temp/dataset/6/23_6.odb,Step-1,Increment      1: Step Time =    1.000,"PART-1-1",           249,       5.82981,      -2.08643,            0.,NA,NA,"",   40.5117E-03,  -4.03623E-03,   40.3101E-03,   2.53700E-03
C:/temp/dataset/6/23_6.odb,Step-1,Increment      1: Step Time =    1.000,"PART-1-1",           250,      -8.67175,      -2.53401,            0.,NA,NA,"",   46.5959E-03,   1.97025E-03,   46.5543E-03,   2.19078E-03
C:/temp/dataset/6/23_6.odb,Step-1,Increment      1: Step Time =    1.000,"PART-1-1",           251,       5.78686,      -22.7214,            0.,NA,NA,"",   3.84661E-03,  -2.07691E-03,   3.23772E-03,   890.164E-06
C:/temp/dataset/6/23_6.odb,Step-1,Increment      1: Step Time =    1.000,"PART-1-1",           252,      -8.27594,       1.60152,            0.,NA,NA,"",   52.6701E-03,  -7.17226E-03,   52.1795E-03,   1.67765E-03
C:/temp/dataset/6/23_6.odb,Step-1,Increment      1: Step Time =    1.000,"PART-1-1",           253,       8.25490,      -24.0061,            0.,NA,NA,"",   4.76397E-03,  -2.49681E-03,   4.05726E-03,   1.03286E-03
C:/temp/dataset/6/23_6.odb,Step-1,Increment      1: Step Time =    1.000,"PART-1-1",           254,      -9.04303,      -23.2600,            0.,NA,NA,"",   10.3843E-03,   5.01858E-03,   9.09112E-03,   1.95480E-03
C:/temp/dataset/6/23_6.odb,Step-1,Increment      1: Step Time =    1.000,"PART-1-1",           255,       7.61656,      -1.09448,            0.,NA,NA,"",   33.5497E-03,  -2.80244E-03,   33.4324E-03,   1.37248E-03
C:/temp/dataset/6/23_6.odb,Step-1,Increment      1: Step Time =    1.000,"PART-1-1",           256,      -4.02262,   861.151E-03,            0.,NA,NA,"",   71.0901E-03,  -4.53070E-03,   70.9456E-03,   2.56435E-03
C:/temp/dataset/6/23_6.odb,Step-1,Increment      1: Step Time =    1.000,"PART-1-1",           257,  -104.141E-03,       1.31276,            0.,NA,NA,"",   71.3685E-03,   1.39005E-03,   71.3550E-03,   2.31507E-03
C:/temp/dataset/6/23_6.odb,Step-1,Increment      1: Step Time =    1.000,"PART-1-1",           258,       3.72123,      -23.4419,            0.,NA,NA,"",   1.44616E-03,  -863.136E-06,   1.16034E-03,   364.332E-06
C:/temp/dataset/6/23_6.odb,Step-1,Increment      1: Step Time =    1.000,"PART-1-1",           259,      -10.7950,      -8.39617,            0.,NA,NA,"",   37.3075E-03,   17.8860E-03,   32.7405E-03,   1.36266E-03
C:/temp/dataset/6/23_6.odb,Step-1,Increment      1: Step Time =    1.000,"PART-1-1",           260,      -1.85786,       1.02916,            0.,NA,NA,"",   74.3890E-03,  -1.42170E-03,   74.3754E-03,   2.09929E-03
C:/temp/dataset/6/23_6.odb,Step-1,Increment      1: Step Time =    1.000,"PART-1-1",           261,      -6.46179,      -1.33856,            0.,NA,NA,"",   59.7001E-03,  -3.70384E-03,   59.5851E-03,   3.39663E-03
C:/temp/dataset/6/23_6.odb,Step-1,Increment      1: Step Time =    1.000,"PART-1-1",           262,      -11.1078,      -7.00587,            0.,NA,NA,"",   37.1311E-03,   15.7996E-03,   33.6019E-03,   1.05926E-03
C:/temp/dataset/6/23_6.odb,Step-1,Increment      1: Step Time =    1.000,"PART-1-1",           263,      -5.52697,      -3.44125,            0.,NA,NA,"",   63.1681E-03,  -1.31582E-03,   63.1544E-03,   5.72466E-03
C:/temp/dataset/6/23_6.odb,Step-1,Increment      1: Step Time =    1.000,"PART-1-1",           264,      -9.72268,      -4.98378,            0.,NA,NA,"",   40.6727E-03,   10.3715E-03,   39.3281E-03,   1.38078E-03
C:/temp/dataset/6/23_6.odb,Step-1,Increment      1: Step Time =    1.000,"PART-1-1",           265,      -6.27329,       4.89376,            0.,NA,NA,"",   60.6524E-03,  -13.8241E-03,   59.0560E-03,   1.46811E-03
C:/temp/dataset/6/23_6.odb,Step-1,Increment      1: Step Time =    1.000,"PART-1-1",           266,       12.4963,       2.80040,            0.,NA,NA,"",   19.8299E-03,   8.79215E-03,   17.7742E-03,   187.197E-06
C:/temp/dataset/6/23_6.odb,Step-1,Increment      1: Step Time =    1.000,"PART-1-1",           267,      -7.37176,      -20.2559,            0.,NA,NA,"",   15.2249E-03,   7.96447E-03,   12.9756E-03,   2.18658E-03
C:/temp/dataset/6/23_6.odb,Step-1,Increment      1: Step Time =    1.000,"PART-1-1",           268,       2.88963,      -21.8777,            0.,NA,NA,"",   1.57315E-03,  -1.20332E-03,   1.01331E-03,   431.857E-06
C:/temp/dataset/6/23_6.odb,Step-1,Increment      1: Step Time =    1.000,"PART-1-1",           269,      -8.05085,       3.52655,            0.,NA,NA,"",   54.0383E-03,  -11.2817E-03,   52.8476E-03,   1.19081E-03
C:/temp/dataset/6/23_6.odb,Step-1,Increment      1: Step Time =    1.000,"PART-1-1",           270,       8.95558,      -12.5395,            0.,NA,NA,"",   24.1845E-03,  -17.2621E-03,   16.9383E-03,   1.48466E-03
C:/temp/dataset/6/23_6.odb,Step-1,Increment      1: Step Time =    1.000,"PART-1-1",           271,       1.35989,  -223.950E-03,            0.,NA,NA,"",   67.2934E-03,   1.83371E-03,   67.2684E-03,   3.04584E-03
C:/temp/dataset/6/23_6.odb,Step-1,Increment      1: Step Time =    1.000,"PART-1-1",           272,      -9.75004,      -12.6533,            0.,NA,NA,"",   33.6258E-03,   18.9346E-03,   27.7880E-03,   2.03768E-03
C:/temp/dataset/6/23_6.odb,Step-1,Increment      1: Step Time =    1.000,"PART-1-1",           273,      -8.51206,      -25.1011,            0.,NA,NA,"",   6.29471E-03,   2.46246E-03,   5.79307E-03,   1.67603E-03
C:/temp/dataset/6/23_6.odb,Step-1,Increment      1: Step Time =    1.000,"PART-1-1",           274,      -6.19138,   998.181E-03,            0.,NA,NA,"",   62.1017E-03,  -5.95097E-03,   61.8159E-03,   2.58519E-03
C:/temp/dataset/6/23_6.odb,Step-1,Increment      1: Step Time =    1.000,"PART-1-1",           275,      -2.63339,      -25.0950,            0.,NA,NA,"",   1.39095E-03,  -327.883E-06,   1.35175E-03,   424.783E-06
C:/temp/dataset/6/23_6.odb,Step-1,Increment      1: Step Time =    1.000,"PART-1-1",           276,       8.11811,      -26.0558,            0.,NA,NA,"",   2.55061E-03,  -1.05311E-03,   2.32305E-03,   811.492E-06
C:/temp/dataset/6/23_6.odb,Step-1,Increment      1: Step Time =    1.000,"PART-1-1",           277,       6.33403,   764.508E-03,            0.,NA,NA,"",   40.9443E-03,   3.19626E-03,   40.8193E-03,   1.61560E-03
C:/temp/dataset/6/23_6.odb,Step-1,Increment      1: Step Time =    1.000,"PART-1-1",           278,       8.84044,      -16.9880,            0.,NA,NA,"",   17.0208E-03,  -12.2181E-03,   11.8501E-03,   1.35757E-03
C:/temp/dataset/6/23_6.odb,Step-1,Increment      1: Step Time =    1.000,"PART-1-1",           279,      -11.3950,       19.6047,            0.,NA,NA,"",   78.8481E-03,  -67.8966E-03,   40.0885E-03,   874.662E-09
C:/temp/dataset/6/23_6.odb,Step-1,Increment      1: Step Time =    1.000,"PART-1-1",           280,      -11.2464,      -2.22607,            0.,NA,NA,"",   37.9264E-03,   3.37185E-03,   37.7762E-03,   1.05710E-03
C:/temp/dataset/6/23_6.odb,Step-1,Increment      1: Step Time =    1.000,"PART-1-1",           281,      -8.41776,  -32.7016E-03,            0.,NA,NA,"",   51.0102E-03,  -4.08219E-03,   50.8466E-03,   1.92012E-03
C:/temp/dataset/6/23_6.odb,Step-1,Increment      1: Step Time =    1.000,"PART-1-1",           282,       4.48255,      -24.5345,            0.,NA,NA,"",   1.48162E-03,  -675.521E-06,   1.31866E-03,   405.177E-06
C:/temp/dataset/6/23_6.odb,Step-1,Increment      1: Step Time =    1.000,"PART-1-1",           283,       6.11275,      -24.3348,            0.,NA,NA,"",   2.72871E-03,  -1.23902E-03,   2.43119E-03,   692.301E-06
C:/temp/dataset/6/23_6.odb,Step-1,Increment      1: Step Time =    1.000,"PART-1-1",           284,       9.69767,      -4.20039,            0.,NA,NA,"",   27.0937E-03,  -12.6021E-03,   23.9845E-03,   761.127E-06
C:/temp/dataset/6/23_6.odb,Step-1,Increment      1: Step Time =    1.000,"PART-1-1",           285,       13.8851,      -1.60402,            0.,NA,NA,"",   15.0167E-03,  -5.76550E-03,   13.8658E-03,   287.095E-06
C:/temp/dataset/6/23_6.odb,Step-1,Increment      1: Step Time =    1.000,"PART-1-1",           286,           15.,   -468.75E-03,            0.,NA,NA,"",   10.4241E-03,  -2.09203E-03,   10.2120E-03,   397.026E-06
C:/temp/dataset/6/23_6.odb,Step-1,Increment      1: Step Time =    1.000,"PART-1-1",           287,       13.7553,   590.641E-03,            0.,NA,NA,"",   13.9169E-03,   1.23022E-03,   13.8624E-03,   183.981E-06
C:/temp/dataset/6/23_6.odb,Step-1,Increment      1: Step Time =    1.000,"PART-1-1",           288,       12.6405,  -544.629E-03,            0.,NA,NA,"",   17.4707E-03,  -2.52150E-03,   17.2878E-03,   226.236E-06
C:/temp/dataset/6/23_6.odb,Step-1,Increment      1: Step Time =    1.000,"PART-1-1",           289,       6.57104,       2.96720,            0.,NA,NA,"",   41.4356E-03,   9.54808E-03,   40.3205E-03,   984.167E-06
C:/temp/dataset/6/23_6.odb,Step-1,Increment      1: Step Time =    1.000,"PART-1-1",           290,       5.86345,       1.80964,            0.,NA,NA,"",   43.9450E-03,   6.02456E-03,   43.5301E-03,   1.45703E-03
C:/temp/dataset/6/23_6.odb,Step-1,Increment      1: Step Time =    1.000,"PART-1-1",           291,       7.10711,       1.10321,            0.,NA,NA,"",   37.5787E-03,   3.88439E-03,   37.3774E-03,   1.21484E-03
C:/temp/dataset/6/23_6.odb,Step-1,Increment      1: Step Time =    1.000,"PART-1-1",           292,       7.81470,       2.26078,            0.,NA,NA,"",   35.4613E-03,   7.31371E-03,   34.6989E-03,   696.735E-06
C:/temp/dataset/6/23_6.odb,Step-1,Increment      1: Step Time =    1.000,"PART-1-1",           293,       6.97305,      -8.82061,            0.,NA,NA,"",   29.2752E-03,  -17.0767E-03,   23.7787E-03,   2.23767E-03
C:/temp/dataset/6/23_6.odb,Step-1,Increment      1: Step Time =    1.000,"PART-1-1",           294,       5.98985,      -7.53541,            0.,NA,NA,"",   32.1035E-03,  -15.9137E-03,   27.8817E-03,   2.81761E-03
C:/temp/dataset/6/23_6.odb,Step-1,Increment      1: Step Time =    1.000,"PART-1-1",           295,            5.,      -8.76875,            0.,NA,NA,"",   29.0611E-03,  -14.7217E-03,   25.0563E-03,   2.95651E-03
C:/temp/dataset/6/23_6.odb,Step-1,Increment      1: Step Time =    1.000,"PART-1-1",           296,       5.98320,      -10.0539,            0.,NA,NA,"",   27.0716E-03,  -15.9728E-03,   21.8572E-03,   2.38450E-03
C:/temp/dataset/6/23_6.odb,Step-1,Increment      1: Step Time =    1.000,"PART-1-1",           297,       12.0429,      -8.05477,            0.,NA,NA,"",   25.9562E-03,  -18.7475E-03,   17.9515E-03,   456.180E-06
C:/temp/dataset/6/23_6.odb,Step-1,Increment      1: Step Time =    1.000,"PART-1-1",           298,       11.0248,      -9.13413,            0.,NA,NA,"",   26.7615E-03,  -19.1420E-03,   18.7020E-03,   843.033E-06
C:/temp/dataset/6/23_6.odb,Step-1,Increment      1: Step Time =    1.000,"PART-1-1",           299,       11.9985,      -10.2754,            0.,NA,NA,"",   25.9855E-03,  -19.4293E-03,   17.2554E-03,   681.490E-06
C:/temp/dataset/6/23_6.odb,Step-1,Increment      1: Step Time =    1.000,"PART-1-1",           300,       13.0166,      -9.19606,            0.,NA,NA,"",   25.6159E-03,  -19.3878E-03,   16.7418E-03,   336.797E-06
C:/temp/dataset/6/23_6.odb,Step-1,Increment      1: Step Time =    1.000,"PART-1-1",           301,       13.9992,      -14.7549,            0.,NA,NA,"",   23.1134E-03,  -17.0517E-03,   15.6034E-03,   480.423E-06
C:/temp/dataset/6/23_6.odb,Step-1,Increment      1: Step Time =    1.000,"PART-1-1",           302,       13.0271,      -15.9471,            0.,NA,NA,"",   21.1542E-03,  -15.4658E-03,   14.4330E-03,   824.944E-06
C:/temp/dataset/6/23_6.odb,Step-1,Increment      1: Step Time =    1.000,"PART-1-1",           303,       14.0279,      -16.9735,            0.,NA,NA,"",   20.5176E-03,  -14.4964E-03,   14.5199E-03,   731.136E-06
C:/temp/dataset/6/23_6.odb,Step-1,Increment      1: Step Time =    1.000,"PART-1-1",           304,           15.,      -15.7813,            0.,NA,NA,"",   22.7912E-03,  -16.1517E-03,   16.0797E-03,   418.930E-06
C:/temp/dataset/6/23_6.odb,Step-1,Increment      1: Step Time =    1.000,"PART-1-1",           305,       6.96949,      -18.0995,            0.,NA,NA,"",   13.3165E-03,  -9.45337E-03,   9.37882E-03,   1.34231E-03
C:/temp/dataset/6/23_6.odb,Step-1,Increment      1: Step Time =    1.000,"PART-1-1",           306,       5.95014,      -17.3335,            0.,NA,NA,"",   13.6344E-03,  -9.96361E-03,   9.30717E-03,   1.50060E-03
C:/temp/dataset/6/23_6.odb,Step-1,Increment      1: Step Time =    1.000,"PART-1-1",           307,            5.,      -18.7625,            0.,NA,NA,"",   9.45072E-03,  -7.23256E-03,   6.08326E-03,   1.50957E-03
C:/temp/dataset/6/23_6.odb,Step-1,Increment      1: Step Time =    1.000,"PART-1-1",           308,       6.01935,      -19.5285,            0.,NA,NA,"",   9.38798E-03,  -6.47974E-03,   6.79317E-03,   1.31580E-03
C:/temp/dataset/6/23_6.odb,Step-1,Increment      1: Step Time =    1.000,"PART-1-1",           309,       7.66098,      -29.0388,            0.,NA,NA,"",   439.123E-06,   10.2817E-06,   439.002E-06,   581.871E-06
C:/temp/dataset/6/23_6.odb,Step-1,Increment      1: Step Time =    1.000,"PART-1-1",           310,       6.62868,      -28.0660,            0.,NA,NA,"",   755.369E-06,  -35.8986E-06,   754.516E-06,   496.969E-06
C:/temp/dataset/6/23_6.odb,Step-1,Increment      1: Step Time =    1.000,"PART-1-1",           311,       5.21770,      -29.0272,            0.,NA,NA,"",   273.861E-06,   87.4832E-06,   259.512E-06,   346.490E-06
C:/temp/dataset/6/23_6.odb,Step-1,Increment      1: Step Time =    1.000,"PART-1-1",           312,          6.25,          -30.,            0.,NA,NA,"",            0.,   100.882E-42,   831.581E-42,   439.265E-06
C:/temp/dataset/6/23_6.odb,Step-1,Increment      1: Step Time =    1.000,"PART-1-1",           313,   162.125E-03,      -28.5454,            0.,NA,NA,"",   297.746E-06,  -256.107E-06,   151.862E-06,   199.882E-06
C:/temp/dataset/6/23_6.odb,Step-1,Increment      1: Step Time =    1.000,"PART-1-1",           314,      -1.06934,      -27.3053,            0.,NA,NA,"",   621.508E-06,  -509.100E-06,   356.496E-06,   262.969E-06
C:/temp/dataset/6/23_6.odb,Step-1,Increment      1: Step Time =    1.000,"PART-1-1",           315,      -2.48147,      -28.7599,            0.,NA,NA,"",   536.433E-06,  -426.640E-06,   325.174E-06,   409.589E-06
C:/temp/dataset/6/23_6.odb,Step-1,Increment      1: Step Time =    1.000,"PART-1-1",           316,         -1.25,          -30.,            0.,NA,NA,"",            0.,  -239.225E-42,   518.614E-42,   343.845E-06
C:/temp/dataset/6/23_6.odb,Step-1,Increment      1: Step Time =    1.000,"PART-1-1",           317,          -15.,        -21.25,            0.,NA,NA,"",   21.9754E-03,   13.1495E-03,   17.6071E-03,   1.72755E-03
C:/temp/dataset/6/23_6.odb,Step-1,Increment      1: Step Time =    1.000,"PART-1-1",           318,      -13.9888,      -22.4607,            0.,NA,NA,"",   17.8953E-03,   10.6333E-03,   14.3935E-03,   1.88736E-03
C:/temp/dataset/6/23_6.odb,Step-1,Increment      1: Step Time =    1.000,"PART-1-1",           319,      -12.8187,      -21.2681,            0.,NA,NA,"",   18.9900E-03,   11.3936E-03,   15.1923E-03,   1.82716E-03
C:/temp/dataset/6/23_6.odb,Step-1,Increment      1: Step Time =    1.000,"PART-1-1",           320,      -13.8299,      -20.0574,            0.,NA,NA,"",   22.7683E-03,   13.9642E-03,   17.9833E-03,   1.63756E-03
C:/temp/dataset/6/23_6.odb,Step-1,Increment      1: Step Time =    1.000,"PART-1-1",           321,      -12.5142,      -28.6623,            0.,NA,NA,"",   2.38011E-03,   1.35326E-03,   1.95796E-03,   1.89332E-03
C:/temp/dataset/6/23_6.odb,Step-1,Increment      1: Step Time =    1.000,"PART-1-1",           322,        -11.25,          -30.,            0.,NA,NA,"",            0.,   314.722E-42,   2.89790E-39,   1.51601E-03
C:/temp/dataset/6/23_6.odb,Step-1,Increment      1: Step Time =    1.000,"PART-1-1",           323,      -9.93348,      -28.4464,            0.,NA,NA,"",   1.88425E-03,   639.412E-06,   1.77244E-03,   1.45423E-03
C:/temp/dataset/6/23_6.odb,Step-1,Increment      1: Step Time =    1.000,"PART-1-1",           324,      -11.1976,      -27.1087,            0.,NA,NA,"",   4.72118E-03,   2.42442E-03,   4.05115E-03,   1.89920E-03
C:/temp/dataset/6/23_6.odb,Step-1,Increment      1: Step Time =    1.000,"PART-1-1",           325,      -7.37036,      -13.8742,            0.,NA,NA,"",   30.7248E-03,   15.9772E-03,   26.2439E-03,   2.65712E-03
C:/temp/dataset/6/23_6.odb,Step-1,Increment      1: Step Time =    1.000,"PART-1-1",           326,      -6.21015,      -15.0417,            0.,NA,NA,"",   26.9668E-03,   13.7224E-03,   23.2144E-03,   2.82297E-03
C:/temp/dataset/6/23_6.odb,Step-1,Increment      1: Step Time =    1.000,"PART-1-1",           327,           -5.,      -13.7188,            0.,NA,NA,"",   29.2736E-03,   12.9400E-03,   26.2583E-03,   3.28406E-03
C:/temp/dataset/6/23_6.odb,Step-1,Increment      1: Step Time =    1.000,"PART-1-1",           328,      -6.16021,      -12.5513,            0.,NA,NA,"",   33.4012E-03,   15.0444E-03,   29.8212E-03,   3.10270E-03
C:/temp/dataset/6/23_6.odb,Step-1,Increment      1: Step Time =    1.000,"PART-1-1",           329,      -9.33590,      -9.40979,            0.,NA,NA,"",   38.4414E-03,   18.0703E-03,   33.9295E-03,   2.03835E-03
C:/temp/dataset/6/23_6.odb,Step-1,Increment      1: Step Time =    1.000,"PART-1-1",           330,      -8.33361,      -10.3234,            0.,NA,NA,"",   38.0450E-03,   17.6700E-03,   33.6927E-03,   2.51469E-03
C:/temp/dataset/6/23_6.odb,Step-1,Increment      1: Step Time =    1.000,"PART-1-1",           331,      -7.16565,      -9.15059,            0.,NA,NA,"",   41.4447E-03,   15.9146E-03,   38.2673E-03,   3.12875E-03
C:/temp/dataset/6/23_6.odb,Step-1,Increment      1: Step Time =    1.000,"PART-1-1",           332,      -8.16794,      -8.23701,            0.,NA,NA,"",   41.7048E-03,   16.1700E-03,   38.4425E-03,   2.63643E-03
C:/temp/dataset/6/23_6.odb,Step-1,Increment      1: Step Time =    1.000,"PART-1-1",           333,      -11.1473,      -6.32447,            0.,NA,NA,"",   37.0760E-03,   14.3980E-03,   34.1661E-03,   1.07731E-03
C:/temp/dataset/6/23_6.odb,Step-1,Increment      1: Step Time =    1.000,"PART-1-1",           334,      -10.2102,      -6.79208,            0.,NA,NA,"",   38.8750E-03,   15.0501E-03,   35.8436E-03,   1.38734E-03
C:/temp/dataset/6/23_6.odb,Step-1,Increment      1: Step Time =    1.000,"PART-1-1",           335,      -9.51762,      -5.78103,            0.,NA,NA,"",   40.8092E-03,   12.3308E-03,   38.9017E-03,   1.45138E-03
C:/temp/dataset/6/23_6.odb,Step-1,Increment      1: Step Time =    1.000,"PART-1-1",           336,      -10.4548,      -5.31342,            0.,NA,NA,"",   38.7061E-03,   11.6358E-03,   36.9157E-03,   1.22416E-03
C:/temp/dataset/6/23_6.odb,Step-1,Increment      1: Step Time =    1.000,"PART-1-1",           337,      -5.04937,      -1.25055,            0.,NA,NA,"",   68.1192E-03,  -4.64725E-03,   67.9604E-03,   3.35605E-03
C:/temp/dataset/6/23_6.odb,Step-1,Increment      1: Step Time =    1.000,"PART-1-1",           338,      -3.82978,  -150.691E-03,            0.,NA,NA,"",   72.9065E-03,  -4.33161E-03,   72.7777E-03,   3.04885E-03
C:/temp/dataset/6/23_6.odb,Step-1,Increment      1: Step Time =    1.000,"PART-1-1",           339,      -5.10700,   929.666E-03,            0.,NA,NA,"",   66.9486E-03,  -5.39421E-03,   66.7310E-03,   2.52905E-03
C:/temp/dataset/6/23_6.odb,Step-1,Increment      1: Step Time =    1.000,"PART-1-1",           340,      -6.32658,  -170.190E-03,            0.,NA,NA,"",   61.2799E-03,  -4.95893E-03,   61.0790E-03,   2.90405E-03
C:/temp/dataset/6/23_6.odb,Step-1,Increment      1: Step Time =    1.000,"PART-1-1",           341,          -15.,          3.75,            0.,NA,NA,"",   30.8207E-03,  -12.8109E-03,   28.0320E-03,   5.84691E-06
C:/temp/dataset/6/23_6.odb,Step-1,Increment      1: Step Time =    1.000,"PART-1-1",           342,      -13.8520,       2.39386,            0.,NA,NA,"",   32.7282E-03,  -8.79915E-03,   31.5232E-03,   246.525E-06
C:/temp/dataset/6/23_6.odb,Step-1,Increment      1: Step Time =    1.000,"PART-1-1",           343,      -12.6820,       3.58697,            0.,NA,NA,"",   37.6229E-03,  -12.3685E-03,   35.5318E-03,   299.274E-06
C:/temp/dataset/6/23_6.odb,Step-1,Increment      1: Step Time =    1.000,"PART-1-1",           344,      -13.8301,       4.94311,            0.,NA,NA,"",   35.8000E-03,  -16.5230E-03,   31.7589E-03,   88.8678E-06
C:/temp/dataset/6/23_6.odb,Step-1,Increment      1: Step Time =    1.000,"PART-1-1",           345,          -15.,         11.25,            0.,NA,NA,"",   46.9416E-03,  -38.1230E-03,   27.3889E-03,   44.8953E-06
C:/temp/dataset/6/23_6.odb,Step-1,Increment      1: Step Time =    1.000,"PART-1-1",           346,      -14.0083,       10.0442,            0.,NA,NA,"",   45.8473E-03,  -33.8358E-03,   30.9373E-03,   45.7227E-06
C:/temp/dataset/6/23_6.odb,Step-1,Increment      1: Step Time =    1.000,"PART-1-1",           347,      -13.0572,       11.3141,            0.,NA,NA,"",   51.4053E-03,  -38.3435E-03,   34.2385E-03,   34.2914E-06
C:/temp/dataset/6/23_6.odb,Step-1,Increment      1: Step Time =    1.000,"PART-1-1",           348,      -14.0489,       12.5200,            0.,NA,NA,"",   52.5518E-03,  -42.6377E-03,   30.7199E-03,   20.3383E-06
C:/temp/dataset/6/23_6.odb,Step-1,Increment      1: Step Time =    1.000,"PART-1-1",           349,           -5.,       22.7083,            0.,NA,NA,"",   100.914E-03,  -78.9787E-03,   62.8164E-03,   324.127E-09
C:/temp/dataset/6/23_6.odb,Step-1,Increment      1: Step Time =    1.000,"PART-1-1",           350,      -5.96779,       23.6687,            0.,NA,NA,"",   101.550E-03,  -82.3886E-03,   59.3682E-03,   150.074E-09
C:/temp/dataset/6/23_6.odb,Step-1,Increment      1: Step Time =    1.000,"PART-1-1",           351,      -6.69567,       22.7251,            0.,NA,NA,"",   97.3134E-03,  -79.0275E-03,   56.7851E-03,   145.769E-09
C:/temp/dataset/6/23_6.odb,Step-1,Increment      1: Step Time =    1.000,"PART-1-1",           352,      -5.72788,       21.7648,            0.,NA,NA,"",   96.6752E-03,  -75.6178E-03,   60.2332E-03,   256.948E-09
C:/temp/dataset/6/23_6.odb,Step-1,Increment      1: Step Time =    1.000,"PART-1-1",           353,      -9.95259,       28.8237,            0.,NA,NA,"",   110.364E-03,  -100.701E-03,   45.1611E-03,   49.6114E-09
C:/temp/dataset/6/23_6.odb,Step-1,Increment      1: Step Time =    1.000,"PART-1-1",           354,      -8.67740,       27.7404,            0.,NA,NA,"",   108.865E-03,  -96.8555E-03,   49.7041E-03,   49.7078E-09
C:/temp/dataset/6/23_6.odb,Step-1,Increment      1: Step Time =    1.000,"PART-1-1",           355,      -7.47481,       28.9167,            0.,NA,NA,"",   114.559E-03,  -101.047E-03,   53.9744E-03,   37.5357E-09
C:/temp/dataset/6/23_6.odb,Step-1,Increment      1: Step Time =    1.000,"PART-1-1",           356,         -8.75,           30.,            0.,NA,NA,"",   115.957E-03,  -104.893E-03,   49.4315E-03,   39.3673E-09
C:/temp/dataset/6/23_6.odb,Step-1,Increment      1: Step Time =    1.000,"PART-1-1",           357,      -12.4360,       28.7156,            0.,NA,NA,"",   106.677E-03,  -100.301E-03,   36.3278E-03,   40.3938E-09
C:/temp/dataset/6/23_6.odb,Step-1,Increment      1: Step Time =    1.000,"PART-1-1",           358,        -13.75,           30.,            0.,NA,NA,"",   109.532E-03,  -104.861E-03,   31.6454E-03,   8.14910E-09
C:/temp/dataset/6/23_6.odb,Step-1,Increment      1: Step Time =    1.000,"PART-1-1",           359,          -15.,         28.75,            0.,NA,NA,"",   104.028E-03,  -100.407E-03,   27.2067E-03,   11.2248E-09
C:/temp/dataset/6/23_6.odb,Step-1,Increment      1: Step Time =    1.000,"PART-1-1",           360,      -13.6860,       27.4656,            0.,NA,NA,"",   101.012E-03,  -95.8464E-03,   31.8891E-03,   41.4565E-09
C:/temp/dataset/6/23_6.odb,Step-1,Increment      1: Step Time =    1.000,"PART-1-1",           361,         -3.75,           -5.,            0.,NA,NA,"",   84.8883E-03,   3.53347E-03,   84.8147E-03,   4.83608E-03
C:/temp/dataset/6/23_6.odb,Step-1,Increment      1: Step Time =    1.000,"PART-1-1",           362,      -2.75606,      -4.06584,            0.,NA,NA,"",   87.0595E-03,  -2.01280E-03,   87.0362E-03,   5.96785E-03
C:/temp/dataset/6/23_6.odb,Step-1,Increment      1: Step Time =    1.000,"PART-1-1",           363,      -4.26954,      -3.28646,            0.,NA,NA,"",   74.4422E-03,  -3.73292E-03,   74.3485E-03,   4.85740E-03
C:/temp/dataset/6/23_6.odb,Step-1,Increment      1: Step Time =    1.000,"PART-1-1",           364,      -5.26349,      -4.22062,            0.,NA,NA,"",   63.1352E-03,   514.499E-06,   63.1331E-03,   5.60877E-03
C:/temp/dataset/6/23_6.odb,Step-1,Increment      1: Step Time =    1.000,"PART-1-1",           365,   659.099E-03,      -2.85996,            0.,NA,NA,"",   73.5959E-03,  -1.45721E-03,   73.5815E-03,   3.74945E-03
C:/temp/dataset/6/23_6.odb,Step-1,Increment      1: Step Time =    1.000,"PART-1-1",           366,  -266.865E-03,      -3.97148,            0.,NA,NA,"",   81.6262E-03,  -3.27566E-03,   81.5605E-03,   4.46495E-03
C:/temp/dataset/6/23_6.odb,Step-1,Increment      1: Step Time =    1.000,"PART-1-1",           367,          1.25,           -5.,            0.,NA,NA,"",   69.1811E-03,  -12.7734E-03,   67.9916E-03,   2.08872E-03
C:/temp/dataset/6/23_6.odb,Step-1,Increment      1: Step Time =    1.000,"PART-1-1",           368,       2.17596,      -3.88848,            0.,NA,NA,"",   62.5614E-03,  -7.09610E-03,   62.1577E-03,   1.70799E-03
C:/temp/dataset/6/23_6.odb,Step-1,Increment      1: Step Time =    1.000,"PART-1-1",           369,   93.5104E-03,  -560.922E-03,            0.,NA,NA,"",   73.4222E-03,   672.456E-06,   73.4191E-03,   2.72288E-03
C:/temp/dataset/6/23_6.odb,Step-1,Increment      1: Step Time =    1.000,"PART-1-1",           370,   627.873E-03,   544.404E-03,            0.,NA,NA,"",   69.9508E-03,   1.86245E-03,   69.9260E-03,   2.52284E-03
C:/temp/dataset/6/23_6.odb,Step-1,Increment      1: Step Time =    1.000,"PART-1-1",           371,  -981.002E-03,       1.17096,            0.,NA,NA,"",   73.3838E-03,  -8.87563E-06,   73.3838E-03,   2.07238E-03
C:/temp/dataset/6/23_6.odb,Step-1,Increment      1: Step Time =    1.000,"PART-1-1",           372,      -1.51537,   65.6335E-03,            0.,NA,NA,"",   75.8891E-03,  -1.15504E-03,   75.8803E-03,   2.42500E-03
C:/temp/dataset/6/23_6.odb,Step-1,Increment      1: Step Time =    1.000,"PART-1-1",           373,       4.11258,       2.54084,            0.,NA,NA,"",   52.9027E-03,   7.41068E-03,   52.3811E-03,   1.89062E-03
C:/temp/dataset/6/23_6.odb,Step-1,Increment      1: Step Time =    1.000,"PART-1-1",           374,       3.71515,       1.12833,            0.,NA,NA,"",   54.6915E-03,   4.33857E-03,   54.5192E-03,   2.24891E-03
C:/temp/dataset/6/23_6.odb,Step-1,Increment      1: Step Time =    1.000,"PART-1-1",           375,       5.46602,   397.127E-03,            0.,NA,NA,"",   44.9787E-03,   2.56615E-03,   44.9054E-03,   2.01376E-03
C:/temp/dataset/6/23_6.odb,Step-1,Increment      1: Step Time =    1.000,"PART-1-1",           376,       8.69518,  -378.803E-03,            0.,NA,NA,"",   29.9126E-03,  -1.19084E-03,   29.8889E-03,   907.115E-06
C:/temp/dataset/6/23_6.odb,Step-1,Increment      1: Step Time =    1.000,"PART-1-1",           377,       8.82700,   889.396E-03,            0.,NA,NA,"",   30.2385E-03,   2.75193E-03,   30.1130E-03,   633.408E-06
C:/temp/dataset/6/23_6.odb,Step-1,Increment      1: Step Time =    1.000,"PART-1-1",           378,       6.97530,  -164.986E-03,            0.,NA,NA,"",   37.0961E-03,   332.356E-06,   37.0946E-03,   1.45205E-03
C:/temp/dataset/6/23_6.odb,Step-1,Increment      1: Step Time =    1.000,"PART-1-1",           379,      -3.65351,      -22.6081,            0.,NA,NA,"",   3.62107E-03,   1.10987E-03,   3.44679E-03,   745.167E-06
C:/temp/dataset/6/23_6.odb,Step-1,Increment      1: Step Time =    1.000,"PART-1-1",           380,      -2.48671,      -21.3009,            0.,NA,NA,"",   2.93552E-03,   1.78705E-03,   2.32889E-03,   662.287E-06
C:/temp/dataset/6/23_6.odb,Step-1,Increment      1: Step Time =    1.000,"PART-1-1",           381,         -3.75,          -20.,            0.,NA,NA,"",   6.55517E-03,   4.58380E-03,   4.68605E-03,   1.18555E-03
C:/temp/dataset/6/23_6.odb,Step-1,Increment      1: Step Time =    1.000,"PART-1-1",           382,      -4.91680,      -21.3072,            0.,NA,NA,"",   7.58641E-03,   3.16196E-03,   6.89606E-03,   1.64522E-03
C:/temp/dataset/6/23_6.odb,Step-1,Increment      1: Step Time =    1.000,"PART-1-1",           383,       12.8399,      -22.4784,            0.,NA,NA,"",   10.9274E-03,  -6.79439E-03,   8.55834E-03,   1.23113E-03
C:/temp/dataset/6/23_6.odb,Step-1,Increment      1: Step Time =    1.000,"PART-1-1",           384,       11.7398,      -21.2760,            0.,NA,NA,"",   11.8368E-03,  -7.65334E-03,   9.02972E-03,   1.23485E-03
C:/temp/dataset/6/23_6.odb,Step-1,Increment      1: Step Time =    1.000,"PART-1-1",           385,       10.5591,      -22.4389,            0.,NA,NA,"",   8.93266E-03,  -5.49484E-03,   7.04266E-03,   1.25412E-03
C:/temp/dataset/6/23_6.odb,Step-1,Increment      1: Step Time =    1.000,"PART-1-1",           386,       11.6593,      -23.6412,            0.,NA,NA,"",   8.03852E-03,  -4.81218E-03,   6.43900E-03,   1.24623E-03
C:/temp/dataset/6/23_6.odb,Step-1,Increment      1: Step Time =    1.000,"PART-1-1",           387,          8.75,            5.,            0.,NA,NA,"",   35.4965E-03,   17.1050E-03,   31.1034E-03,   138.894E-06
C:/temp/dataset/6/23_6.odb,Step-1,Increment      1: Step Time =    1.000,"PART-1-1",           388,       7.62461,       4.03982,            0.,NA,NA,"",   38.0937E-03,   13.4677E-03,   35.6336E-03,   296.417E-06
C:/temp/dataset/6/23_6.odb,Step-1,Increment      1: Step Time =    1.000,"PART-1-1",           389,       8.90047,       2.96899,            0.,NA,NA,"",   31.8793E-03,   9.63361E-03,   30.3889E-03,   317.431E-06
C:/temp/dataset/6/23_6.odb,Step-1,Increment      1: Step Time =    1.000,"PART-1-1",           390,       10.0259,       3.92917,            0.,NA,NA,"",   29.2638E-03,   12.9602E-03,   26.2374E-03,   155.668E-06
C:/temp/dataset/6/23_6.odb,Step-1,Increment      1: Step Time =    1.000,"PART-1-1",           391,      -6.96921,       21.1213,            0.,NA,NA,"",   92.1528E-03,  -73.3214E-03,   55.8222E-03,   122.359E-09
C:/temp/dataset/6/23_6.odb,Step-1,Increment      1: Step Time =    1.000,"PART-1-1",           392,      -6.24133,       19.9816,            0.,NA,NA,"",   90.6167E-03,  -69.2726E-03,   58.4181E-03,   236.894E-09
C:/temp/dataset/6/23_6.odb,Step-1,Increment      1: Step Time =    1.000,"PART-1-1",           393,           -5.,        20.625,            0.,NA,NA,"",   95.2342E-03,  -71.5689E-03,   62.8288E-03,   433.588E-09
C:/temp/dataset/6/23_6.odb,Step-1,Increment      1: Step Time =    1.000,"PART-1-1",           394,      -12.9370,       8.81410,            0.,NA,NA,"",   45.5393E-03,  -29.5000E-03,   34.6926E-03,   30.5979E-06
C:/temp/dataset/6/23_6.odb,Step-1,Increment      1: Step Time =    1.000,"PART-1-1",           395,          -15.,          8.75,            0.,NA,NA,"",   40.2333E-03,  -29.3123E-03,   27.5591E-03,   89.6321E-06
C:/temp/dataset/6/23_6.odb,Step-1,Increment      1: Step Time =    1.000,"PART-1-1",           396,      -13.9287,       7.51992,            0.,NA,NA,"",   40.1059E-03,  -25.0326E-03,   31.3345E-03,   65.2343E-06
C:/temp/dataset/6/23_6.odb,Step-1,Increment      1: Step Time =    1.000,"PART-1-1",           397,          -15.,          1.25,            0.,NA,NA,"",   28.3533E-03,  -5.37598E-03,   27.8390E-03,   203.926E-06
C:/temp/dataset/6/23_6.odb,Step-1,Increment      1: Step Time =    1.000,"PART-1-1",           398,      -13.9023,  -59.1614E-03,            0.,NA,NA,"",   30.8201E-03,  -1.77796E-03,   30.7687E-03,   417.817E-06
C:/temp/dataset/6/23_6.odb,Step-1,Increment      1: Step Time =    1.000,"PART-1-1",           399,      -12.7542,       1.08470,            0.,NA,NA,"",   35.1787E-03,  -5.21578E-03,   34.7899E-03,   480.849E-06
C:/temp/dataset/6/23_6.odb,Step-1,Increment      1: Step Time =    1.000,"PART-1-1",           400,          -15.,         -1.25,            0.,NA,NA,"",   27.2127E-03,   1.82940E-03,   27.1512E-03,   335.522E-06
C:/temp/dataset/6/23_6.odb,Step-1,Increment      1: Step Time =    1.000,"PART-1-1",           401,      -13.9820,      -2.43756,            0.,NA,NA,"",   30.0491E-03,   5.03290E-03,   29.6246E-03,   485.145E-06
C:/temp/dataset/6/23_6.odb,Step-1,Increment      1: Step Time =    1.000,"PART-1-1",           402,      -12.8843,      -1.24672,            0.,NA,NA,"",   33.4043E-03,   1.33993E-03,   33.3774E-03,   577.125E-06
C:/temp/dataset/6/23_6.odb,Step-1,Increment      1: Step Time =    1.000,"PART-1-1",           403,      -12.3802,      -13.7897,            0.,NA,NA,"",   32.1437E-03,   20.2026E-03,   25.0015E-03,   1.34646E-03
C:/temp/dataset/6/23_6.odb,Step-1,Increment      1: Step Time =    1.000,"PART-1-1",           404,      -13.6672,      -12.5056,            0.,NA,NA,"",   33.4564E-03,   21.2326E-03,   25.8556E-03,   802.246E-06
C:/temp/dataset/6/23_6.odb,Step-1,Increment      1: Step Time =    1.000,"PART-1-1",           405,          -15.,        -13.75,            0.,NA,NA,"",   32.9800E-03,   21.2519E-03,   25.2198E-03,   533.817E-06
C:/temp/dataset/6/23_6.odb,Step-1,Increment      1: Step Time =    1.000,"PART-1-1",           406,      -13.7130,      -15.0341,            0.,NA,NA,"",   31.1084E-03,   19.9997E-03,   23.8274E-03,   1.06150E-03
C:/temp/dataset/6/23_6.odb,Step-1,Increment      1: Step Time =    1.000,"PART-1-1",           407,       9.21271,      -3.58583,            0.,NA,NA,"",   27.9206E-03,  -10.9524E-03,   25.6828E-03,   878.367E-06
C:/temp/dataset/6/23_6.odb,Step-1,Increment      1: Step Time =    1.000,"PART-1-1",           408,       7.90749,      -3.82305,            0.,NA,NA,"",   31.2740E-03,  -11.1045E-03,   29.2362E-03,   1.34162E-03
C:/temp/dataset/6/23_6.odb,Step-1,Increment      1: Step Time =    1.000,"PART-1-1",           409,       8.15132,      -5.16923,            0.,NA,NA,"",   30.6624E-03,  -14.4883E-03,   27.0236E-03,   1.25238E-03
C:/temp/dataset/6/23_6.odb,Step-1,Increment      1: Step Time =    1.000,"PART-1-1",           410,       9.45655,      -4.93201,            0.,NA,NA,"",   27.9786E-03,  -14.2642E-03,   24.0694E-03,   830.560E-06
C:/temp/dataset/6/23_6.odb,Step-1,Increment      1: Step Time =    1.000,"PART-1-1",           411,       6.91243,      -16.0318,            0.,NA,NA,"",   17.1776E-03,  -12.3545E-03,   11.9347E-03,   1.55196E-03
C:/temp/dataset/6/23_6.odb,Step-1,Increment      1: Step Time =    1.000,"PART-1-1",           412,       5.96229,      -14.9858,            0.,NA,NA,"",   18.1463E-03,  -12.8789E-03,   12.7837E-03,   1.78040E-03
C:/temp/dataset/6/23_6.odb,Step-1,Increment      1: Step Time =    1.000,"PART-1-1",           413,            5.,      -16.2875,            0.,NA,NA,"",   14.4400E-03,  -10.6262E-03,   9.77748E-03,   1.76196E-03
C:/temp/dataset/6/23_6.odb,Step-1,Increment      1: Step Time =    1.000,"PART-1-1",           414,       6.93910,      -13.7291,            0.,NA,NA,"",   21.3295E-03,  -14.8972E-03,   15.2651E-03,   1.75878E-03
C:/temp/dataset/6/23_6.odb,Step-1,Increment      1: Step Time =    1.000,"PART-1-1",           415,       5.97681,      -12.5371,            0.,NA,NA,"",   22.6928E-03,  -15.0368E-03,   16.9958E-03,   2.05883E-03
C:/temp/dataset/6/23_6.odb,Step-1,Increment      1: Step Time =    1.000,"PART-1-1",           416,            5.,      -13.7937,            0.,NA,NA,"",   19.2889E-03,  -13.1822E-03,   14.0816E-03,   2.10407E-03
C:/temp/dataset/6/23_6.odb,Step-1,Increment      1: Step Time =    1.000,"PART-1-1",           417,         -1.25,          -20.,            0.,NA,NA,"",   2.58258E-03,   1.85793E-03,   1.79384E-03,   1.08854E-03
C:/temp/dataset/6/23_6.odb,Step-1,Increment      1: Step Time =    1.000,"PART-1-1",           418,      -1.09514,      -22.7401,            0.,NA,NA,"",   891.519E-06,   232.448E-06,   860.682E-06,   298.374E-06
C:/temp/dataset/6/23_6.odb,Step-1,Increment      1: Step Time =    1.000,"PART-1-1",           419,   141.566E-03,      -21.4393,            0.,NA,NA,"",   736.735E-06,   155.710E-06,   720.092E-06,   667.199E-06
C:/temp/dataset/6/23_6.odb,Step-1,Increment      1: Step Time =    1.000,"PART-1-1",           420,      -7.69236,      -25.1479,            0.,NA,NA,"",   5.50157E-03,   1.80950E-03,   5.19548E-03,   1.51446E-03
C:/temp/dataset/6/23_6.odb,Step-1,Increment      1: Step Time =    1.000,"PART-1-1",           421,      -9.18951,      -25.9970,            0.,NA,NA,"",   5.30189E-03,   2.12792E-03,   4.85613E-03,   1.66701E-03
C:/temp/dataset/6/23_6.odb,Step-1,Increment      1: Step Time =    1.000,"PART-1-1",           422,      -8.56598,      -27.1897,            0.,NA,NA,"",   3.10201E-03,   851.069E-06,   2.98297E-03,   1.39589E-03
C:/temp/dataset/6/23_6.odb,Step-1,Increment      1: Step Time =    1.000,"PART-1-1",           423,      -7.06883,      -26.3407,            0.,NA,NA,"",   3.39990E-03,   612.807E-06,   3.34421E-03,   1.24803E-03
C:/temp/dataset/6/23_6.odb,Step-1,Increment      1: Step Time =    1.000,"PART-1-1",           424,      -9.82073,      -13.8964,            0.,NA,NA,"",   31.5290E-03,   18.3868E-03,   25.6125E-03,   2.01682E-03
C:/temp/dataset/6/23_6.odb,Step-1,Increment      1: Step Time =    1.000,"PART-1-1",           425,      -8.65586,      -15.1239,            0.,NA,NA,"",   28.6709E-03,   16.3757E-03,   23.5341E-03,   2.25697E-03
C:/temp/dataset/6/23_6.odb,Step-1,Increment      1: Step Time =    1.000,"PART-1-1",           426,      -8.53523,      -12.6467,            0.,NA,NA,"",   33.6930E-03,   17.8383E-03,   28.5834E-03,   2.38899E-03
C:/temp/dataset/6/23_6.odb,Step-1,Increment      1: Step Time =    1.000,"PART-1-1",           427,      -6.09243,      -10.1071,            0.,NA,NA,"",   39.8007E-03,   14.7685E-03,   36.9592E-03,   3.48507E-03
C:/temp/dataset/6/23_6.odb,Step-1,Increment      1: Step Time =    1.000,"PART-1-1",           428,           -5.,      -8.71250,            0.,NA,NA,"",   44.3176E-03,   11.9623E-03,   42.6726E-03,   4.33050E-03
C:/temp/dataset/6/23_6.odb,Step-1,Increment      1: Step Time =    1.000,"PART-1-1",           429,      -6.07322,      -7.75598,            0.,NA,NA,"",   47.1797E-03,   13.4140E-03,   45.2326E-03,   3.87854E-03
C:/temp/dataset/6/23_6.odb,Step-1,Increment      1: Step Time =    1.000,"PART-1-1",           430,      -12.7270,      -6.06323,            0.,NA,NA,"",   34.0900E-03,   14.3181E-03,   30.9373E-03,   698.157E-06
C:/temp/dataset/6/23_6.odb,Step-1,Increment      1: Step Time =    1.000,"PART-1-1",           431,      -13.8025,      -4.90646,            0.,NA,NA,"",   31.3883E-03,   11.7670E-03,   29.0992E-03,   445.163E-06
C:/temp/dataset/6/23_6.odb,Step-1,Increment      1: Step Time =    1.000,"PART-1-1",           432,          -15.,         -6.25,            0.,NA,NA,"",   30.1381E-03,   15.0847E-03,   26.0914E-03,   62.2550E-06
C:/temp/dataset/6/23_6.odb,Step-1,Increment      1: Step Time =    1.000,"PART-1-1",           433,      -13.9244,      -7.40677,            0.,NA,NA,"",   32.9014E-03,   17.2960E-03,   27.9884E-03,   330.612E-06
C:/temp/dataset/6/23_6.odb,Step-1,Increment      1: Step Time =    1.000,"PART-1-1",           434,       1.60591,      -1.50045,            0.,NA,NA,"",   66.6624E-03,   492.630E-06,   66.6606E-03,   3.14228E-03
C:/temp/dataset/6/23_6.odb,Step-1,Increment      1: Step Time =    1.000,"PART-1-1",           435,  -853.298E-03,      -1.92043,            0.,NA,NA,"",   79.5213E-03,  -900.305E-06,   79.5162E-03,   3.44865E-03
C:/temp/dataset/6/23_6.odb,Step-1,Increment      1: Step Time =    1.000,"PART-1-1",           436,         13.75,          -30.,            0.,NA,NA,"",            0.,  -180.683E-42,   2.44412E-39,   1.65927E-03
C:/temp/dataset/6/23_6.odb,Step-1,Increment      1: Step Time =    1.000,"PART-1-1",           437,           15.,      -28.9063,            0.,NA,NA,"",   2.67463E-03,  -1.88929E-03,   1.89320E-03,   1.89249E-03
C:/temp/dataset/6/23_6.odb,Step-1,Increment      1: Step Time =    1.000,"PART-1-1",           438,       13.8103,      -27.8746,            0.,NA,NA,"",   3.40802E-03,  -2.13276E-03,   2.65818E-03,   1.50325E-03
C:/temp/dataset/6/23_6.odb,Step-1,Increment      1: Step Time =    1.000,"PART-1-1",           439,       12.5603,      -28.9683,            0.,NA,NA,"",   1.13951E-03,  -608.969E-06,   963.143E-06,   1.19187E-03
C:/temp/dataset/6/23_6.odb,Step-1,Increment      1: Step Time =    1.000,"PART-1-1",           440,       12.6598,      -26.8678,            0.,NA,NA,"",   4.14402E-03,  -2.40935E-03,   3.37163E-03,   1.33994E-03
C:/temp/dataset/6/23_6.odb,Step-1,Increment      1: Step Time =    1.000,"PART-1-1",           441,       11.5501,      -25.8632,            0.,NA,NA,"",   4.76811E-03,  -2.66450E-03,   3.95415E-03,   1.22987E-03
C:/temp/dataset/6/23_6.odb,Step-1,Increment      1: Step Time =    1.000,"PART-1-1",           442,       10.3093,      -26.9762,            0.,NA,NA,"",   2.66664E-03,  -1.28021E-03,   2.33924E-03,   1.03482E-03
C:/temp/dataset/6/23_6.odb,Step-1,Increment      1: Step Time =    1.000,"PART-1-1",           443,       11.4189,      -27.9808,            0.,NA,NA,"",   1.98850E-03,  -1.02585E-03,   1.70345E-03,   1.14880E-03
C:/temp/dataset/6/23_6.odb,Step-1,Increment      1: Step Time =    1.000,"PART-1-1",           444,       10.1086,      -29.0125,            0.,NA,NA,"",   698.428E-06,  -216.944E-06,   663.880E-06,   844.656E-06
C:/temp/dataset/6/23_6.odb,Step-1,Increment      1: Step Time =    1.000,"PART-1-1",           445,       9.01957,      -28.0513,            0.,NA,NA,"",   1.23563E-03,  -370.898E-06,   1.17865E-03,   786.821E-06
C:/temp/dataset/6/23_6.odb,Step-1,Increment      1: Step Time =    1.000,"PART-1-1",           446,          8.75,          -30.,            0.,NA,NA,"",            0.,   21.1246E-42,   1.27536E-39,   667.490E-06
C:/temp/dataset/6/23_6.odb,Step-1,Increment      1: Step Time =    1.000,"PART-1-1",           447,       4.20973,      -27.9354,            0.,NA,NA,"",   401.585E-06,   30.7050E-06,   400.409E-06,   262.140E-06
C:/temp/dataset/6/23_6.odb,Step-1,Increment      1: Step Time =    1.000,"PART-1-1",           448,       2.74203,      -28.9082,            0.,NA,NA,"",   139.394E-06,   7.98637E-06,   139.165E-06,   178.559E-06
C:/temp/dataset/6/23_6.odb,Step-1,Increment      1: Step Time =    1.000,"PART-1-1",           449,          3.75,          -30.,            0.,NA,NA,"",            0.,   72.8185E-42,   480.752E-42,   255.170E-06
C:/temp/dataset/6/23_6.odb,Step-1,Increment      1: Step Time =    1.000,"PART-1-1",           450,       1.16266,      -25.9573,            0.,NA,NA,"",   384.446E-06,  -326.906E-06,   202.316E-06,   113.053E-06
C:/temp/dataset/6/23_6.odb,Step-1,Increment      1: Step Time =    1.000,"PART-1-1",           451,       1.65415,      -27.4536,            0.,NA,NA,"",   259.586E-06,  -186.885E-06,   180.163E-06,   182.309E-06
C:/temp/dataset/6/23_6.odb,Step-1,Increment      1: Step Time =    1.000,"PART-1-1",           452,       3.39879,      -26.8461,            0.,NA,NA,"",   445.322E-06,  -108.837E-06,   431.818E-06,   192.123E-06
C:/temp/dataset/6/23_6.odb,Step-1,Increment      1: Step Time =    1.000,"PART-1-1",           453,       2.90730,      -25.3498,            0.,NA,NA,"",   580.881E-06,  -320.011E-06,   484.783E-06,   147.739E-06
C:/temp/dataset/6/23_6.odb,Step-1,Increment      1: Step Time =    1.000,"PART-1-1",           454,      -3.67645,      -27.5530,            0.,NA,NA,"",   1.11184E-03,  -569.660E-06,   954.814E-06,   529.778E-06
C:/temp/dataset/6/23_6.odb,Step-1,Increment      1: Step Time =    1.000,"PART-1-1",           455,      -2.54816,      -26.3074,            0.,NA,NA,"",   1.10231E-03,  -547.289E-06,   956.848E-06,   380.315E-06
C:/temp/dataset/6/23_6.odb,Step-1,Increment      1: Step Time =    1.000,"PART-1-1",           456,      -3.72120,      -25.1278,            0.,NA,NA,"",   2.08848E-03,  -147.289E-06,   2.08328E-03,   635.907E-06
C:/temp/dataset/6/23_6.odb,Step-1,Increment      1: Step Time =    1.000,"PART-1-1",           457,      -4.84948,      -26.3734,            0.,NA,NA,"",   2.10937E-03,  -246.534E-06,   2.09491E-03,   791.374E-06
C:/temp/dataset/6/23_6.odb,Step-1,Increment      1: Step Time =    1.000,"PART-1-1",           458,      -4.94498,      -28.7931,            0.,NA,NA,"",   747.195E-06,  -388.965E-06,   637.970E-06,   708.212E-06
C:/temp/dataset/6/23_6.odb,Step-1,Increment      1: Step Time =    1.000,"PART-1-1",           459,         -3.75,          -30.,            0.,NA,NA,"",            0.,  -314.890E-42,   966.796E-42,   582.963E-06
C:/temp/dataset/6/23_6.odb,Step-1,Increment      1: Step Time =    1.000,"PART-1-1",           460,      -6.07748,      -27.5364,            0.,NA,NA,"",   1.77434E-03,  -194.396E-06,   1.76366E-03,   929.695E-06
C:/temp/dataset/6/23_6.odb,Step-1,Increment      1: Step Time =    1.000,"PART-1-1",           461,      -7.38250,      -28.7433,            0.,NA,NA,"",   1.04295E-03,  -90.3819E-06,   1.03903E-03,   1.05690E-03
C:/temp/dataset/6/23_6.odb,Step-1,Increment      1: Step Time =    1.000,"PART-1-1",           462,         -6.25,          -30.,            0.,NA,NA,"",            0.,  -244.092E-42,   1.58756E-39,   852.226E-06
C:/temp/dataset/6/23_6.odb,Step-1,Increment      1: Step Time =    1.000,"PART-1-1",           463,      -8.77755,      -24.1806,            0.,NA,NA,"",   8.23965E-03,   3.63982E-03,   7.39212E-03,   1.80376E-03
C:/temp/dataset/6/23_6.odb,Step-1,Increment      1: Step Time =    1.000,"PART-1-1",           464,      -9.92276,      -23.8066,            0.,NA,NA,"",   10.1664E-03,   5.13231E-03,   8.77587E-03,   1.94956E-03
C:/temp/dataset/6/23_6.odb,Step-1,Increment      1: Step Time =    1.000,"PART-1-1",           465,      -10.3347,      -25.6230,            0.,NA,NA,"",   6.89937E-03,   3.35232E-03,   6.03020E-03,   1.82844E-03
C:/temp/dataset/6/23_6.odb,Step-1,Increment      1: Step Time =    1.000,"PART-1-1",           466,       13.9544,      -21.3085,            0.,NA,NA,"",   13.9235E-03,  -8.81500E-03,   10.7777E-03,   1.18390E-03
C:/temp/dataset/6/23_6.odb,Step-1,Increment      1: Step Time =    1.000,"PART-1-1",           467,       13.8855,      -23.5136,            0.,NA,NA,"",   10.3567E-03,  -6.25022E-03,   8.25811E-03,   1.32189E-03
C:/temp/dataset/6/23_6.odb,Step-1,Increment      1: Step Time =    1.000,"PART-1-1",           468,           15.,      -22.3438,            0.,NA,NA,"",   13.4935E-03,  -8.17879E-03,   10.7323E-03,   1.29279E-03
C:/temp/dataset/6/23_6.odb,Step-1,Increment      1: Step Time =    1.000,"PART-1-1",           469,       12.7349,      -24.6944,            0.,NA,NA,"",   7.40865E-03,  -4.38730E-03,   5.96989E-03,   1.31076E-03
C:/temp/dataset/6/23_6.odb,Step-1,Increment      1: Step Time =    1.000,"PART-1-1",           470,       13.8494,      -25.7120,            0.,NA,NA,"",   6.93958E-03,  -4.14712E-03,   5.56409E-03,   1.40510E-03
C:/temp/dataset/6/23_6.odb,Step-1,Increment      1: Step Time =    1.000,"PART-1-1",           471,           15.,      -24.5313,            0.,NA,NA,"",   9.97372E-03,  -5.92847E-03,   8.02049E-03,   1.41679E-03
C:/temp/dataset/6/23_6.odb,Step-1,Increment      1: Step Time =    1.000,"PART-1-1",           472,         11.25,          -30.,            0.,NA,NA,"",            0.,  -165.929E-42,   1.80286E-39,   921.902E-06
C:/temp/dataset/6/23_6.odb,Step-1,Increment      1: Step Time =    1.000,"PART-1-1",           473,       13.9950,      -12.5232,            0.,NA,NA,"",   24.8513E-03,  -18.8795E-03,   16.1601E-03,   270.819E-06
C:/temp/dataset/6/23_6.odb,Step-1,Increment      1: Step Time =    1.000,"PART-1-1",           474,       12.9942,      -13.6844,            0.,NA,NA,"",   23.7339E-03,  -17.8743E-03,   15.6144E-03,   665.359E-06
C:/temp/dataset/6/23_6.odb,Step-1,Increment      1: Step Time =    1.000,"PART-1-1",           475,           15.,      -13.5938,            0.,NA,NA,"",   24.5977E-03,  -18.1975E-03,   16.5499E-03,   68.3103E-06
C:/temp/dataset/6/23_6.odb,Step-1,Increment      1: Step Time =    1.000,"PART-1-1",           476,       9.85236,      -17.2546,            0.,NA,NA,"",   17.2431E-03,  -12.3773E-03,   12.0053E-03,   1.28519E-03
C:/temp/dataset/6/23_6.odb,Step-1,Increment      1: Step Time =    1.000,"PART-1-1",           477,       8.68427,      -17.7513,            0.,NA,NA,"",   15.5330E-03,  -11.0158E-03,   10.9511E-03,   1.36109E-03
C:/temp/dataset/6/23_6.odb,Step-1,Increment      1: Step Time =    1.000,"PART-1-1",           478,       8.96140,      -18.9835,            0.,NA,NA,"",   13.4894E-03,  -9.28715E-03,   9.78325E-03,   1.35076E-03
C:/temp/dataset/6/23_6.odb,Step-1,Increment      1: Step Time =    1.000,"PART-1-1",           479,       10.1295,      -18.4868,            0.,NA,NA,"",   15.2899E-03,  -10.7129E-03,   10.9093E-03,   1.27918E-03
C:/temp/dataset/6/23_6.odb,Step-1,Increment      1: Step Time =    1.000,"PART-1-1",           480,       11.2436,      -18.3856,            0.,NA,NA,"",   16.2648E-03,  -11.4390E-03,   11.5625E-03,   1.19987E-03
C:/temp/dataset/6/23_6.odb,Step-1,Increment      1: Step Time =    1.000,"PART-1-1",           481,       12.3956,      -19.2305,            0.,NA,NA,"",   15.7591E-03,  -10.7918E-03,   11.4842E-03,   1.11856E-03
C:/temp/dataset/6/23_6.odb,Step-1,Increment      1: Step Time =    1.000,"PART-1-1",           482,       13.1120,      -18.1414,            0.,NA,NA,"",   18.0737E-03,  -12.6232E-03,   12.9349E-03,   975.954E-06
C:/temp/dataset/6/23_6.odb,Step-1,Increment      1: Step Time =    1.000,"PART-1-1",           483,       11.9600,      -17.2965,            0.,NA,NA,"",   18.5275E-03,  -13.3089E-03,   12.8895E-03,   1.06171E-03
C:/temp/dataset/6/23_6.odb,Step-1,Increment      1: Step Time =    1.000,"PART-1-1",           484,       14.0024,      -3.77677,            0.,NA,NA,"",   18.3963E-03,  -11.6890E-03,   14.2053E-03,   408.424E-06
C:/temp/dataset/6/23_6.odb,Step-1,Increment      1: Step Time =    1.000,"PART-1-1",           485,       13.0359,      -4.87313,            0.,NA,NA,"",   21.8297E-03,  -14.2760E-03,   16.5145E-03,   128.357E-06
C:/temp/dataset/6/23_6.odb,Step-1,Increment      1: Step Time =    1.000,"PART-1-1",           486,       14.0335,      -5.94012,            0.,NA,NA,"",   21.9745E-03,  -16.1010E-03,   14.9545E-03,   445.627E-06
C:/temp/dataset/6/23_6.odb,Step-1,Increment      1: Step Time =    1.000,"PART-1-1",           487,           15.,      -4.84375,            0.,NA,NA,"",   18.6917E-03,  -13.8164E-03,   12.5891E-03,   744.478E-06
C:/temp/dataset/6/23_6.odb,Step-1,Increment      1: Step Time =    1.000,"PART-1-1",           488,       13.0510,      -7.01836,            0.,NA,NA,"",   24.3735E-03,  -17.7536E-03,   16.6997E-03,   165.253E-06
C:/temp/dataset/6/23_6.odb,Step-1,Increment      1: Step Time =    1.000,"PART-1-1",           489,       14.0175,      -8.10950,            0.,NA,NA,"",   24.4454E-03,  -18.7170E-03,   15.7242E-03,   364.188E-06
C:/temp/dataset/6/23_6.odb,Step-1,Increment      1: Step Time =    1.000,"PART-1-1",           490,           15.,      -7.03125,            0.,NA,NA,"",   22.4109E-03,  -17.3958E-03,   14.1292E-03,   736.193E-06
C:/temp/dataset/6/23_6.odb,Step-1,Increment      1: Step Time =    1.000,"PART-1-1",           491,         13.75,            5.,            0.,NA,NA,"",   21.2606E-03,   16.2926E-03,   13.6588E-03,   38.9699E-06
C:/temp/dataset/6/23_6.odb,Step-1,Increment      1: Step Time =    1.000,"PART-1-1",           492,       12.4982,       3.90020,            0.,NA,NA,"",   21.8124E-03,   12.6239E-03,   17.7881E-03,   129.968E-06
C:/temp/dataset/6/23_6.odb,Step-1,Increment      1: Step Time =    1.000,"PART-1-1",           493,       13.7482,       2.80645,            0.,NA,NA,"",   16.2835E-03,   8.80255E-03,   13.6991E-03,   114.789E-06
C:/temp/dataset/6/23_6.odb,Step-1,Increment      1: Step Time =    1.000,"PART-1-1",           494,           15.,       3.90625,            0.,NA,NA,"",   15.7493E-03,   12.5809E-03,   9.47418E-03,   35.6947E-06
C:/temp/dataset/6/23_6.odb,Step-1,Increment      1: Step Time =    1.000,"PART-1-1",           495,         11.25,            5.,            0.,NA,NA,"",   27.5535E-03,   16.5555E-03,   22.0252E-03,   178.755E-06
C:/temp/dataset/6/23_6.odb,Step-1,Increment      1: Step Time =    1.000,"PART-1-1",           496,       11.2740,       2.82937,            0.,NA,NA,"",   23.5853E-03,   8.97185E-03,   21.8122E-03,   97.6662E-06
C:/temp/dataset/6/23_6.odb,Step-1,Increment      1: Step Time =    1.000,"PART-1-1",           497,       11.1422,   446.578E-03,            0.,NA,NA,"",   21.9542E-03,   835.173E-06,   21.9383E-03,   255.426E-06
C:/temp/dataset/6/23_6.odb,Step-1,Increment      1: Step Time =    1.000,"PART-1-1",           498,       10.2035,  -836.101E-03,            0.,NA,NA,"",   24.7038E-03,  -3.13637E-03,   24.5039E-03,   485.220E-06
C:/temp/dataset/6/23_6.odb,Step-1,Increment      1: Step Time =    1.000,"PART-1-1",           499,       11.7017,      -1.82731,            0.,NA,NA,"",   20.8291E-03,  -6.46164E-03,   19.8014E-03,   292.590E-06
C:/temp/dataset/6/23_6.odb,Step-1,Increment      1: Step Time =    1.000,"PART-1-1",           500,       12.5035,       1.67834,            0.,NA,NA,"",   18.4037E-03,   4.91319E-03,   17.7358E-03,   201.567E-06
C:/temp/dataset/6/23_6.odb,Step-1,Increment      1: Step Time =    1.000,"PART-1-1",           501,       9.91277,       1.59761,            0.,NA,NA,"",   26.7944E-03,   4.86082E-03,   26.3498E-03,   302.101E-06
C:/temp/dataset/6/23_6.odb,Step-1,Increment      1: Step Time =    1.000,"PART-1-1",           502,       5.19643,       3.92738,            0.,NA,NA,"",   48.2703E-03,   12.2532E-03,   46.6892E-03,   999.331E-06
C:/temp/dataset/6/23_6.odb,Step-1,Increment      1: Step Time =    1.000,"PART-1-1",           503,          3.75,            5.,            0.,NA,NA,"",   55.0271E-03,   15.0694E-03,   52.9235E-03,   1.61349E-03
C:/temp/dataset/6/23_6.odb,Step-1,Increment      1: Step Time =    1.000,"PART-1-1",           504,       2.66615,       3.61346,            0.,NA,NA,"",   59.4519E-03,   8.63205E-03,   58.8219E-03,   2.00991E-03
C:/temp/dataset/6/23_6.odb,Step-1,Increment      1: Step Time =    1.000,"PART-1-1",           505,      -1.00804,       2.95894,            0.,NA,NA,"",   71.0221E-03,   750.114E-06,   71.0181E-03,   2.30451E-03
C:/temp/dataset/6/23_6.odb,Step-1,Increment      1: Step Time =    1.000,"PART-1-1",           506,   87.8012E-03,       3.95476,            0.,NA,NA,"",   67.8104E-03,   4.24865E-03,   67.6772E-03,   2.95642E-03
C:/temp/dataset/6/23_6.odb,Step-1,Increment      1: Step Time =    1.000,"PART-1-1",           507,         -1.25,            5.,            0.,NA,NA,"",   68.2522E-03,   1.49650E-03,   68.2358E-03,   3.92166E-03
C:/temp/dataset/6/23_6.odb,Step-1,Increment      1: Step Time =    1.000,"PART-1-1",           508,      -2.34584,       4.00418,            0.,NA,NA,"",   70.2301E-03,  -2.34652E-03,   70.1909E-03,   3.20052E-03
C:/temp/dataset/6/23_6.odb,Step-1,Increment      1: Step Time =    1.000,"PART-1-1",           509,      -3.27281,       2.96378,            0.,NA,NA,"",   70.6342E-03,  -4.04281E-03,   70.5184E-03,   2.14991E-03
C:/temp/dataset/6/23_6.odb,Step-1,Increment      1: Step Time =    1.000,"PART-1-1",           510,         -3.75,            5.,            0.,NA,NA,"",   67.4408E-03,  -7.82154E-03,   66.9857E-03,   3.84726E-03
C:/temp/dataset/6/23_6.odb,Step-1,Increment      1: Step Time =    1.000,"PART-1-1",           511,      -4.67697,       3.95960,            0.,NA,NA,"",   66.6582E-03,  -7.96436E-03,   66.1807E-03,   2.36285E-03
C:/temp/dataset/6/23_6.odb,Step-1,Increment      1: Step Time =    1.000,"PART-1-1",           512,      -7.93004,       8.58536,            0.,NA,NA,"",   59.7053E-03,  -28.7044E-03,   52.3525E-03,   51.5208E-06
C:/temp/dataset/6/23_6.odb,Step-1,Increment      1: Step Time =    1.000,"PART-1-1",           513,      -8.65034,       7.25415,            0.,NA,NA,"",   55.1565E-03,  -23.8827E-03,   49.7178E-03,   166.693E-06
C:/temp/dataset/6/23_6.odb,Step-1,Increment      1: Step Time =    1.000,"PART-1-1",           514,      -7.51010,       6.50150,            0.,NA,NA,"",   57.8136E-03,  -20.9208E-03,   53.8956E-03,   240.180E-06
C:/temp/dataset/6/23_6.odb,Step-1,Increment      1: Step Time =    1.000,"PART-1-1",           515,      -6.78981,       7.83270,            0.,NA,NA,"",   62.2146E-03,  -25.9200E-03,   56.5580E-03,   61.9815E-06
C:/temp/dataset/6/23_6.odb,Step-1,Increment      1: Step Time =    1.000,"PART-1-1",           516,      -7.08495,       12.0475,            0.,NA,NA,"",   69.0291E-03,  -41.0941E-03,   55.4643E-03,   37.1950E-06
C:/temp/dataset/6/23_6.odb,Step-1,Increment      1: Step Time =    1.000,"PART-1-1",           517,      -6.02998,       11.1050,            0.,NA,NA,"",   70.2822E-03,  -37.7523E-03,   59.2819E-03,   38.7465E-06
C:/temp/dataset/6/23_6.odb,Step-1,Increment      1: Step Time =    1.000,"PART-1-1",           518,           -5.,       12.2917,            0.,NA,NA,"",   75.6335E-03,  -41.9629E-03,   62.9248E-03,   36.2674E-06
C:/temp/dataset/6/23_6.odb,Step-1,Increment      1: Step Time =    1.000,"PART-1-1",           519,      -6.05497,       13.2342,            0.,NA,NA,"",   74.5023E-03,  -45.3094E-03,   59.1409E-03,   16.7993E-06
C:/temp/dataset/6/23_6.odb,Step-1,Increment      1: Step Time =    1.000,"PART-1-1",           520,      -9.96524,       21.0498,            0.,NA,NA,"",   85.8830E-03,  -73.0475E-03,   45.1658E-03,   400.647E-09
C:/temp/dataset/6/23_6.odb,Step-1,Increment      1: Step Time =    1.000,"PART-1-1",           521,      -8.51702,       20.1362,            0.,NA,NA,"",   86.0553E-03,  -69.8076E-03,   50.3230E-03,   476.022E-09
C:/temp/dataset/6/23_6.odb,Step-1,Increment      1: Step Time =    1.000,"PART-1-1",           522,      -8.09442,       21.6565,            0.,NA,NA,"",   91.3381E-03,  -75.2175E-03,   51.8167E-03,   165.531E-09
C:/temp/dataset/6/23_6.odb,Step-1,Increment      1: Step Time =    1.000,"PART-1-1",           523,      -9.54264,       22.5701,            0.,NA,NA,"",   91.2839E-03,  -78.4580E-03,   46.6594E-03,   150.992E-09
C:/temp/dataset/6/23_6.odb,Step-1,Increment      1: Step Time =    1.000,"PART-1-1",           524,      -7.38593,       19.0122,            0.,NA,NA,"",   85.3599E-03,  -65.8182E-03,   54.3533E-03,   1.44485E-06
C:/temp/dataset/6/23_6.odb,Step-1,Increment      1: Step Time =    1.000,"PART-1-1",           525,      -6.14460,       17.5723,            0.,NA,NA,"",   84.5003E-03,  -60.7081E-03,   58.7778E-03,   1.42773E-06
C:/temp/dataset/6/23_6.odb,Step-1,Increment      1: Step Time =    1.000,"PART-1-1",           526,           -5.,       18.5417,            0.,NA,NA,"",   89.8089E-03,  -64.1610E-03,   62.8411E-03,   242.424E-09
C:/temp/dataset/6/23_6.odb,Step-1,Increment      1: Step Time =    1.000,"PART-1-1",           527,      -9.12859,       24.1056,            0.,NA,NA,"",   96.7409E-03,  -83.9228E-03,   48.1224E-03,   121.931E-09
C:/temp/dataset/6/23_6.odb,Step-1,Increment      1: Step Time =    1.000,"PART-1-1",           528,      -7.82088,       23.2603,            0.,NA,NA,"",   96.6145E-03,  -80.9240E-03,   52.7794E-03,   132.087E-09
C:/temp/dataset/6/23_6.odb,Step-1,Increment      1: Step Time =    1.000,"PART-1-1",           529,      -7.11221,       24.6459,            0.,NA,NA,"",   102.121E-03,  -85.8573E-03,   55.2913E-03,   127.701E-09
C:/temp/dataset/6/23_6.odb,Step-1,Increment      1: Step Time =    1.000,"PART-1-1",           530,      -8.41993,       25.4912,            0.,NA,NA,"",   102.271E-03,  -88.8562E-03,   50.6343E-03,   96.6233E-09
C:/temp/dataset/6/23_6.odb,Step-1,Increment      1: Step Time =    1.000,"PART-1-1",           531,           -5.,       28.9583,            0.,NA,NA,"",   119.100E-03,  -101.211E-03,   62.7775E-03,   8.43971E-09
C:/temp/dataset/6/23_6.odb,Step-1,Increment      1: Step Time =    1.000,"PART-1-1",           532,         -6.25,           30.,            0.,NA,NA,"",   120.031E-03,  -104.909E-03,   58.3245E-03,   8.26423E-09
C:/temp/dataset/6/23_6.odb,Step-1,Increment      1: Step Time =    1.000,"PART-1-1",           533,      -6.22481,       27.8751,            0.,NA,NA,"",   113.538E-03,  -97.3499E-03,   58.4275E-03,   33.9396E-09
C:/temp/dataset/6/23_6.odb,Step-1,Increment      1: Step Time =    1.000,"PART-1-1",           534,      -11.1386,       27.5393,            0.,NA,NA,"",   104.484E-03,  -96.1246E-03,   40.9505E-03,   53.5928E-09
C:/temp/dataset/6/23_6.odb,Step-1,Increment      1: Step Time =    1.000,"PART-1-1",           535,        -11.25,           30.,            0.,NA,NA,"",   112.439E-03,  -104.877E-03,   40.5385E-03,   38.5681E-09
C:/temp/dataset/6/23_6.odb,Step-1,Increment      1: Step Time =    1.000,"PART-1-1",           536,      -13.1147,       13.7606,            0.,NA,NA,"",   58.0687E-03,  -47.0660E-03,   34.0112E-03,   17.3420E-06
C:/temp/dataset/6/23_6.odb,Step-1,Increment      1: Step Time =    1.000,"PART-1-1",           537,      -14.0658,       14.9906,            0.,NA,NA,"",   59.8708E-03,  -51.4470E-03,   30.6222E-03,   6.41067E-06
C:/temp/dataset/6/23_6.odb,Step-1,Increment      1: Step Time =    1.000,"PART-1-1",           538,          -15.,         13.75,            0.,NA,NA,"",   54.3801E-03,  -47.0220E-03,   27.3152E-03,   14.9847E-06
C:/temp/dataset/6/23_6.odb,Step-1,Increment      1: Step Time =    1.000,"PART-1-1",           539,      -9.42834,       18.6970,            0.,NA,NA,"",   80.0078E-03,  -64.6824E-03,   47.0896E-03,   2.15113E-06
C:/temp/dataset/6/23_6.odb,Step-1,Increment      1: Step Time =    1.000,"PART-1-1",           540,      -8.29725,       17.5730,            0.,NA,NA,"",   79.3540E-03,  -60.6949E-03,   51.1194E-03,   2.87685E-06
C:/temp/dataset/6/23_6.odb,Step-1,Increment      1: Step Time =    1.000,"PART-1-1",           541,      -12.7588,       6.21303,            0.,NA,NA,"",   40.9233E-03,  -20.6108E-03,   35.3541E-03,   81.9085E-06
C:/temp/dataset/6/23_6.odb,Step-1,Increment      1: Step Time =    1.000,"PART-1-1",           542,          -15.,          6.25,            0.,NA,NA,"",   34.7386E-03,  -20.7910E-03,   27.8300E-03,   100.564E-06
C:/temp/dataset/6/23_6.odb,Step-1,Increment      1: Step Time =    1.000,"PART-1-1",           543,      -9.01063,       9.47069,            0.,NA,NA,"",   58.0130E-03,  -31.8643E-03,   48.4785E-03,   52.0853E-06
C:/temp/dataset/6/23_6.odb,Step-1,Increment      1: Step Time =    1.000,"PART-1-1",           544,      -10.0811,       10.4578,            0.,NA,NA,"",   56.9918E-03,  -35.3541E-03,   44.7006E-03,   47.4425E-06
C:/temp/dataset/6/23_6.odb,Step-1,Increment      1: Step Time =    1.000,"PART-1-1",           545,      -10.9384,       9.05000,            0.,NA,NA,"",   51.5150E-03,  -30.3294E-03,   41.6404E-03,   38.5689E-06
C:/temp/dataset/6/23_6.odb,Step-1,Increment      1: Step Time =    1.000,"PART-1-1",           546,      -9.86794,       8.06293,            0.,NA,NA,"",   52.7247E-03,  -26.8337E-03,   45.3856E-03,   58.3093E-06
C:/temp/dataset/6/23_6.odb,Step-1,Increment      1: Step Time =    1.000,"PART-1-1",           547,      -7.23366,       1.29985,            0.,NA,NA,"",   57.2676E-03,  -6.54096E-03,   56.8928E-03,   2.12872E-03
C:/temp/dataset/6/23_6.odb,Step-1,Increment      1: Step Time =    1.000,"PART-1-1",           548,      -8.34685,   784.410E-03,            0.,NA,NA,"",   51.9432E-03,  -5.63889E-03,   51.6363E-03,   1.75128E-03
C:/temp/dataset/6/23_6.odb,Step-1,Increment      1: Step Time =    1.000,"PART-1-1",           549,      -7.43977,  -685.632E-03,            0.,NA,NA,"",   55.0736E-03,  -3.62814E-03,   54.9540E-03,   2.57491E-03
C:/temp/dataset/6/23_6.odb,Step-1,Increment      1: Step Time =    1.000,"PART-1-1",           550,      -12.4903,      -8.57964,            0.,NA,NA,"",   35.1381E-03,   18.7611E-03,   29.7104E-03,   865.597E-06
C:/temp/dataset/6/23_6.odb,Step-1,Increment      1: Step Time =    1.000,"PART-1-1",           551,          -15.,         -8.75,            0.,NA,NA,"",   32.5608E-03,   19.4076E-03,   26.1448E-03,   22.2817E-06
C:/temp/dataset/6/23_6.odb,Step-1,Increment      1: Step Time =    1.000,"PART-1-1",           552,      -13.5658,      -9.92286,            0.,NA,NA,"",   34.2289E-03,   20.4255E-03,   27.4666E-03,   579.208E-06
C:/temp/dataset/6/23_6.odb,Step-1,Increment      1: Step Time =    1.000,"PART-1-1",           553,      -11.9783,      -7.15971,            0.,NA,NA,"",   35.6704E-03,   16.3667E-03,   31.6940E-03,   861.012E-06
C:/temp/dataset/6/23_6.odb,Step-1,Increment      1: Step Time =    1.000,"PART-1-1",           554,      -11.8960,      -5.22799,            0.,NA,NA,"",   35.4896E-03,   12.0441E-03,   33.3835E-03,   888.213E-06
C:/temp/dataset/6/23_6.odb,Step-1,Increment      1: Step Time =    1.000,"PART-1-1",           555,      -12.4565,      -16.3452,            0.,NA,NA,"",   28.4243E-03,   18.0321E-03,   21.9724E-03,   1.51354E-03
C:/temp/dataset/6/23_6.odb,Step-1,Increment      1: Step Time =    1.000,"PART-1-1",           556,          -15.,        -16.25,            0.,NA,NA,"",   30.5951E-03,   19.4584E-03,   23.6100E-03,   926.389E-06
C:/temp/dataset/6/23_6.odb,Step-1,Increment      1: Step Time =    1.000,"PART-1-1",           557,      -13.7435,      -17.5611,            0.,NA,NA,"",   27.3800E-03,   17.3424E-03,   21.1874E-03,   1.35040E-03
C:/temp/dataset/6/23_6.odb,Step-1,Increment      1: Step Time =    1.000,"PART-1-1",           558,      -9.99221,      -8.41662,            0.,NA,NA,"",   38.4842E-03,   17.5525E-03,   34.2482E-03,   1.59402E-03
C:/temp/dataset/6/23_6.odb,Step-1,Increment      1: Step Time =    1.000,"PART-1-1",           559,      -11.4633,      -9.12095,            0.,NA,NA,"",   36.2114E-03,   19.0026E-03,   30.8248E-03,   1.21114E-03
C:/temp/dataset/6/23_6.odb,Step-1,Increment      1: Step Time =    1.000,"PART-1-1",           560,      -10.8070,      -10.1141,            0.,NA,NA,"",   36.2817E-03,   19.4632E-03,   30.6193E-03,   1.54661E-03
C:/temp/dataset/6/23_6.odb,Step-1,Increment      1: Step Time =    1.000,"PART-1-1",           561,      -13.9189,      -24.9166,            0.,NA,NA,"",   12.4175E-03,   7.36016E-03,   10.0011E-03,   2.06769E-03
C:/temp/dataset/6/23_6.odb,Step-1,Increment      1: Step Time =    1.000,"PART-1-1",           562,      -12.9076,      -23.6273,            0.,NA,NA,"",   13.9053E-03,   8.09503E-03,   11.3061E-03,   1.97136E-03
C:/temp/dataset/6/23_6.odb,Step-1,Increment      1: Step Time =    1.000,"PART-1-1",           563,          -15.,        -23.75,            0.,NA,NA,"",   16.5640E-03,   9.80111E-03,   13.3531E-03,   1.99094E-03
C:/temp/dataset/6/23_6.odb,Step-1,Increment      1: Step Time =    1.000,"PART-1-1",           564,          -15.,        -28.75,            0.,NA,NA,"",   4.63380E-03,   3.29194E-03,   3.26116E-03,   2.78919E-03
C:/temp/dataset/6/23_6.odb,Step-1,Increment      1: Step Time =    1.000,"PART-1-1",           565,        -13.75,          -30.,            0.,NA,NA,"",            0.,   245.472E-42,   3.70067E-39,   2.57477E-03
C:/temp/dataset/6/23_6.odb,Step-1,Increment      1: Step Time =    1.000,"PART-1-1",           566,      -13.7642,      -27.4123,            0.,NA,NA,"",   6.34411E-03,   3.95258E-03,   4.96234E-03,   2.24912E-03
C:/temp/dataset/6/23_6.odb,Step-1,Increment      1: Step Time =    1.000,"PART-1-1",           567,            5.,      -6.25625,            0.,NA,NA,"",   35.9840E-03,  -13.8905E-03,   33.1949E-03,   4.36947E-03
C:/temp/dataset/6/23_6.odb,Step-1,Increment      1: Step Time =    1.000,"PART-1-1",           568,       7.03347,      -6.11658,            0.,NA,NA,"",   32.8816E-03,  -15.8940E-03,   28.7851E-03,   1.85052E-03
C:/temp/dataset/6/23_6.odb,Step-1,Increment      1: Step Time =    1.000,"PART-1-1",           569,       6.04361,      -4.83741,            0.,NA,NA,"",   36.5893E-03,  -13.5448E-03,   33.9899E-03,   3.01496E-03
C:/temp/dataset/6/23_6.odb,Step-1,Increment      1: Step Time =    1.000,"PART-1-1",           570,           15.,      -2.65625,            0.,NA,NA,"",   14.1094E-03,  -8.57167E-03,   11.2072E-03,   603.255E-06
C:/temp/dataset/6/23_6.odb,Step-1,Increment      1: Step Time =    1.000,"PART-1-1",           571,       12.8875,      -2.72454,            0.,NA,NA,"",   18.9667E-03,  -9.07510E-03,   16.6547E-03,   198.065E-06
C:/temp/dataset/6/23_6.odb,Step-1,Increment      1: Step Time =    1.000,"PART-1-1",           572,       10.0248,      -7.91896,            0.,NA,NA,"",   27.7705E-03,  -18.3759E-03,   20.8213E-03,   1.04391E-03
C:/temp/dataset/6/23_6.odb,Step-1,Increment      1: Step Time =    1.000,"PART-1-1",           573,       8.98203,      -8.99604,            0.,NA,NA,"",   28.0654E-03,  -18.3921E-03,   21.1990E-03,   1.48194E-03
C:/temp/dataset/6/23_6.odb,Step-1,Increment      1: Step Time =    1.000,"PART-1-1",           574,       9.98204,      -10.2112,            0.,NA,NA,"",   26.7063E-03,  -18.8659E-03,   18.9025E-03,   1.22190E-03
C:/temp/dataset/6/23_6.odb,Step-1,Increment      1: Step Time =    1.000,"PART-1-1",           575,            5.,      -11.2813,            0.,NA,NA,"",   24.2043E-03,  -14.6739E-03,   19.2490E-03,   2.44956E-03
C:/temp/dataset/6/23_6.odb,Step-1,Increment      1: Step Time =    1.000,"PART-1-1",           576,       6.96001,      -11.3098,            0.,NA,NA,"",   25.3947E-03,  -16.5760E-03,   19.2387E-03,   1.98949E-03
C:/temp/dataset/6/23_6.odb,Step-1,Increment      1: Step Time =    1.000,"PART-1-1",           577,       12.1169,      -5.93459,            0.,NA,NA,"",   24.4388E-03,  -16.2777E-03,   18.2288E-03,   196.309E-06
C:/temp/dataset/6/23_6.odb,Step-1,Increment      1: Step Time =    1.000,"PART-1-1",           578,       11.1088,      -6.97100,            0.,NA,NA,"",   26.4497E-03,  -17.6804E-03,   19.6721E-03,   583.653E-06
C:/temp/dataset/6/23_6.odb,Step-1,Increment      1: Step Time =    1.000,"PART-1-1",           579,           15.,      -11.4063,            0.,NA,NA,"",   25.3020E-03,  -19.3260E-03,   16.3308E-03,   273.543E-06
C:/temp/dataset/6/23_6.odb,Step-1,Increment      1: Step Time =    1.000,"PART-1-1",           580,       13.9991,      -10.3053,            0.,NA,NA,"",   25.3831E-03,  -19.5573E-03,   16.1807E-03,   239.579E-06
C:/temp/dataset/6/23_6.odb,Step-1,Increment      1: Step Time =    1.000,"PART-1-1",           581,       12.9941,      -11.4223,            0.,NA,NA,"",   25.3388E-03,  -19.3209E-03,   16.3938E-03,   506.554E-06
C:/temp/dataset/6/23_6.odb,Step-1,Increment      1: Step Time =    1.000,"PART-1-1",           582,           15.,      -9.21875,            0.,NA,NA,"",   24.6377E-03,  -19.1718E-03,   15.4744E-03,   560.985E-06
C:/temp/dataset/6/23_6.odb,Step-1,Increment      1: Step Time =    1.000,"PART-1-1",           583,       9.25975,      -25.9916,            0.,NA,NA,"",   3.20201E-03,  -1.50758E-03,   2.82491E-03,   958.386E-06
C:/temp/dataset/6/23_6.odb,Step-1,Increment      1: Step Time =    1.000,"PART-1-1",           584,       7.97004,      -27.0667,            0.,NA,NA,"",   1.67056E-03,  -526.985E-06,   1.58526E-03,   718.634E-06
C:/temp/dataset/6/23_6.odb,Step-1,Increment      1: Step Time =    1.000,"PART-1-1",           585,       9.98268,      -20.3187,            0.,NA,NA,"",   11.9530E-03,  -7.91987E-03,   8.95264E-03,   1.31519E-03
C:/temp/dataset/6/23_6.odb,Step-1,Increment      1: Step Time =    1.000,"PART-1-1",           586,       8.47236,      -19.9740,            0.,NA,NA,"",   11.2481E-03,  -7.45483E-03,   8.42288E-03,   1.36458E-03
C:/temp/dataset/6/23_6.odb,Step-1,Increment      1: Step Time =    1.000,"PART-1-1",           587,       7.80775,      -21.2882,            0.,NA,NA,"",   8.21953E-03,  -5.05073E-03,   6.48466E-03,   1.36271E-03
C:/temp/dataset/6/23_6.odb,Step-1,Increment      1: Step Time =    1.000,"PART-1-1",           588,       9.31806,      -21.6330,            0.,NA,NA,"",   9.12794E-03,  -5.68550E-03,   7.14103E-03,   1.27401E-03
C:/temp/dataset/6/23_6.odb,Step-1,Increment      1: Step Time =    1.000,"PART-1-1",           589,          3.75,          -20.,            0.,NA,NA,"",   3.93015E-03,  -3.21500E-03,   2.26049E-03,   1.16355E-03
C:/temp/dataset/6/23_6.odb,Step-1,Increment      1: Step Time =    1.000,"PART-1-1",           590,       2.69482,      -20.9389,            0.,NA,NA,"",   2.00281E-03,  -1.60344E-03,   1.20009E-03,   760.242E-06
C:/temp/dataset/6/23_6.odb,Step-1,Increment      1: Step Time =    1.000,"PART-1-1",           591,       4.10336,      -21.5712,            0.,NA,NA,"",   2.88524E-03,  -1.96727E-03,   2.11056E-03,   649.828E-06
C:/temp/dataset/6/23_6.odb,Step-1,Increment      1: Step Time =    1.000,"PART-1-1",           592,       5.15854,      -20.6323,            0.,NA,NA,"",   5.52006E-03,  -3.64188E-03,   4.14822E-03,   1.19691E-03
C:/temp/dataset/6/23_6.odb,Step-1,Increment      1: Step Time =    1.000,"PART-1-1",           593,          1.25,          -20.,            0.,NA,NA,"",   1.36514E-03,  -607.391E-06,   1.22257E-03,   1.09954E-03
C:/temp/dataset/6/23_6.odb,Step-1,Increment      1: Step Time =    1.000,"PART-1-1",           594,       1.58638,      -22.3782,            0.,NA,NA,"",   737.366E-06,  -553.575E-06,   487.097E-06,   363.393E-06
C:/temp/dataset/6/23_6.odb,Step-1,Increment      1: Step Time =    1.000,"PART-1-1",           595,      -7.18878,      -21.5166,            0.,NA,NA,"",   11.8882E-03,   5.62516E-03,   10.4732E-03,   2.11566E-03
C:/temp/dataset/6/23_6.odb,Step-1,Increment      1: Step Time =    1.000,"PART-1-1",           596,      -8.69544,      -20.4918,            0.,NA,NA,"",   16.3382E-03,   8.89840E-03,   13.7023E-03,   2.09293E-03
C:/temp/dataset/6/23_6.odb,Step-1,Increment      1: Step Time =    1.000,"PART-1-1",           597,      -9.53108,      -21.9939,            0.,NA,NA,"",   13.7385E-03,   7.31956E-03,   11.6263E-03,   2.01131E-03
C:/temp/dataset/6/23_6.odb,Step-1,Increment      1: Step Time =    1.000,"PART-1-1",           598,      -8.02442,      -23.0186,            0.,NA,NA,"",   9.71795E-03,   4.32805E-03,   8.70095E-03,   1.91153E-03
C:/temp/dataset/6/23_6.odb,Step-1,Increment      1: Step Time =    1.000,"PART-1-1",           599,           -5.,      -18.7437,            0.,NA,NA,"",   15.0115E-03,   8.26224E-03,   12.5331E-03,   2.87109E-03
C:/temp/dataset/6/23_6.odb,Step-1,Increment      1: Step Time =    1.000,"PART-1-1",           600,      -6.23242,      -17.5731,            0.,NA,NA,"",   20.4006E-03,   11.2118E-03,   17.0435E-03,   2.52754E-03
C:/temp/dataset/6/23_6.odb,Step-1,Increment      1: Step Time =    1.000,"PART-1-1",           601,      -7.41830,      -18.9573,            0.,NA,NA,"",   18.5865E-03,   10.3250E-03,   15.4548E-03,   2.10291E-03
C:/temp/dataset/6/23_6.odb,Step-1,Increment      1: Step Time =    1.000,"PART-1-1",           602,      -6.18588,      -20.1280,            0.,NA,NA,"",   13.7327E-03,   7.03036E-03,   11.7967E-03,   2.23460E-03
C:/temp/dataset/6/23_6.odb,Step-1,Increment      1: Step Time =    1.000,"PART-1-1",           603,           -5.,      -16.2312,            0.,NA,NA,"",   22.2674E-03,   11.0859E-03,   19.3116E-03,   2.98791E-03
C:/temp/dataset/6/23_6.odb,Step-1,Increment      1: Step Time =    1.000,"PART-1-1",           604,      -7.44257,      -16.3835,            0.,NA,NA,"",   24.8903E-03,   13.8898E-03,   20.6543E-03,   2.39675E-03
C:/temp/dataset/6/23_6.odb,Step-1,Increment      1: Step Time =    1.000,"PART-1-1",           605,      -12.6830,      -26.0788,            0.,NA,NA,"",   8.20948E-03,   4.74751E-03,   6.69752E-03,   2.06313E-03
C:/temp/dataset/6/23_6.odb,Step-1,Increment      1: Step Time =    1.000,"PART-1-1",           606,          -15.,        -26.25,            0.,NA,NA,"",   11.0533E-03,   6.77133E-03,   8.73636E-03,   2.22081E-03
C:/temp/dataset/6/23_6.odb,Step-1,Increment      1: Step Time =    1.000,"PART-1-1",           607,         -8.75,          -30.,            0.,NA,NA,"",            0.,  -30.0831E-42,   2.22073E-39,   1.15998E-03
C:/temp/dataset/6/23_6.odb,Step-1,Increment      1: Step Time =    1.000,"PART-1-1",           608,          -15.,        -18.75,            0.,NA,NA,"",   26.7968E-03,   16.5557E-03,   21.0708E-03,   1.34011E-03
C:/temp/dataset/6/23_6.odb,Step-1,Increment      1: Step Time =    1.000,"PART-1-1",           609,      -12.5734,      -18.8685,            0.,NA,NA,"",   23.7919E-03,   14.7897E-03,   18.6365E-03,   1.68324E-03
C:/temp/dataset/6/23_6.odb,Step-1,Increment      1: Step Time =    1.000,"PART-1-1",           610,           -5.,      -11.2063,            0.,NA,NA,"",   36.6807E-03,   13.3805E-03,   34.1531E-03,   3.69646E-03
C:/temp/dataset/6/23_6.odb,Step-1,Increment      1: Step Time =    1.000,"PART-1-1",           611,      -7.25264,      -11.4522,            0.,NA,NA,"",   36.2805E-03,   16.6310E-03,   32.2442E-03,   2.87527E-03
C:/temp/dataset/6/23_6.odb,Step-1,Increment      1: Step Time =    1.000,"PART-1-1",           612,           -5.,      -6.23750,            0.,NA,NA,"",   55.8950E-03,   9.27469E-03,   55.1202E-03,   7.06002E-03
C:/temp/dataset/6/23_6.odb,Step-1,Increment      1: Step Time =    1.000,"PART-1-1",           613,      -6.16987,      -5.46941,            0.,NA,NA,"",   52.9121E-03,   9.95123E-03,   51.9679E-03,   3.83841E-03
C:/temp/dataset/6/23_6.odb,Step-1,Increment      1: Step Time =    1.000,"PART-1-1",           614,      -7.24309,      -6.98789,            0.,NA,NA,"",   46.0754E-03,   13.8009E-03,   43.9600E-03,   2.30433E-03
C:/temp/dataset/6/23_6.odb,Step-1,Increment      1: Step Time =    1.000,"PART-1-1",           615,           -5.,       16.4583,            0.,NA,NA,"",   84.6883E-03,  -56.7570E-03,   62.8549E-03,   2.80272E-06
C:/temp/dataset/6/23_6.odb,Step-1,Increment      1: Step Time =    1.000,"PART-1-1",           616,      -7.23328,       16.4840,            0.,NA,NA,"",   79.0280E-03,  -56.8341E-03,   54.9117E-03,   6.11888E-06
C:/temp/dataset/6/23_6.odb,Step-1,Increment      1: Step Time =    1.000,"PART-1-1",           617,      -6.08867,       15.3700,            0.,NA,NA,"",   79.2297E-03,  -52.8866E-03,   58.9945E-03,   5.70806E-06
C:/temp/dataset/6/23_6.odb,Step-1,Increment      1: Step Time =    1.000,"PART-1-1",           618,      -13.1522,       16.1892,            0.,NA,NA,"",   65.2049E-03,  -55.7241E-03,   33.8600E-03,   6.19556E-06
C:/temp/dataset/6/23_6.odb,Step-1,Increment      1: Step Time =    1.000,"PART-1-1",           619,      -14.0864,       17.4486,            0.,NA,NA,"",   67.5015E-03,  -60.2038E-03,   30.5280E-03,   1.32344E-06
C:/temp/dataset/6/23_6.odb,Step-1,Increment      1: Step Time =    1.000,"PART-1-1",           620,          -15.,         16.25,            0.,NA,NA,"",   62.2303E-03,  -55.9299E-03,   27.2848E-03,   3.16039E-06
C:/temp/dataset/6/23_6.odb,Step-1,Increment      1: Step Time =    1.000,"PART-1-1",           621,           -5.,       24.7917,            0.,NA,NA,"",   106.806E-03,  -86.3894E-03,   62.8037E-03,   165.338E-09
C:/temp/dataset/6/23_6.odb,Step-1,Increment      1: Step Time =    1.000,"PART-1-1",           622,      -6.14442,       25.7689,            0.,NA,NA,"",   107.347E-03,  -89.8582E-03,   58.7267E-03,   78.6509E-09
C:/temp/dataset/6/23_6.odb,Step-1,Increment      1: Step Time =    1.000,"PART-1-1",           623,           -5.,        26.875,            0.,NA,NA,"",   112.877E-03,  -93.8002E-03,   62.7907E-03,   56.6036E-09
C:/temp/dataset/6/23_6.odb,Step-1,Increment      1: Step Time =    1.000,"PART-1-1",           624,      -7.36924,       26.7689,            0.,NA,NA,"",   108.076E-03,  -93.4079E-03,   54.3636E-03,   83.7377E-09
C:/temp/dataset/6/23_6.odb,Step-1,Increment      1: Step Time =    1.000,"PART-1-1",           625,      -13.1175,       20.9132,            0.,NA,NA,"",   80.0935E-03,  -72.5409E-03,   33.9527E-03,   164.514E-09
C:/temp/dataset/6/23_6.odb,Step-1,Increment      1: Step Time =    1.000,"PART-1-1",           626,      -14.0212,       22.2867,            0.,NA,NA,"",   83.2968E-03,  -77.4215E-03,   30.7289E-03,   201.629E-09
C:/temp/dataset/6/23_6.odb,Step-1,Increment      1: Step Time =    1.000,"PART-1-1",           627,          -15.,         21.25,            0.,NA,NA,"",   78.6028E-03,  -73.7270E-03,   27.2530E-03,   408.586E-09
C:/temp/dataset/6/23_6.odb,Step-1,Increment      1: Step Time =    1.000,"PART-1-1",           628,      -14.0963,       19.8765,            0.,NA,NA,"",   75.2900E-03,  -68.8459E-03,   30.4768E-03,   265.409E-09
C:/temp/dataset/6/23_6.odb,Step-1,Increment      1: Step Time =    1.000,"PART-1-1",           629,         -1.25,           -5.,            0.,NA,NA,"",   90.7041E-03,  -5.85522E-03,   90.5149E-03,   6.22833E-03
C:/temp/dataset/6/23_6.odb,Step-1,Increment      1: Step Time =    1.000,"PART-1-1",           630,      -1.77292,      -3.03732,            0.,NA,NA,"",   84.6283E-03,  -2.24351E-03,   84.5986E-03,   4.41511E-03
C:/temp/dataset/6/23_6.odb,Step-1,Increment      1: Step Time =    1.000,"PART-1-1",           631,      -12.1053,      -2.30059,            0.,NA,NA,"",   35.3067E-03,   4.01975E-03,   35.0771E-03,   839.783E-06
C:/temp/dataset/6/23_6.odb,Step-1,Increment      1: Step Time =    1.000,"PART-1-1",           632,      -10.7648,      -1.40855,            0.,NA,NA,"",   40.1352E-03,   786.396E-06,   40.1275E-03,   1.13643E-03
C:/temp/dataset/6/23_6.odb,Step-1,Increment      1: Step Time =    1.000,"PART-1-1",           633,      -11.5438,  -354.672E-03,            0.,NA,NA,"",   38.2607E-03,  -1.63537E-03,   38.2257E-03,   900.619E-06
C:/temp/dataset/6/23_6.odb,Step-1,Increment      1: Step Time =    1.000,"PART-1-1",           634,          3.75,           -5.,            0.,NA,NA,"",   52.9201E-03,  -14.4350E-03,   50.9134E-03,   1.30624E-03
C:/temp/dataset/6/23_6.odb,Step-1,Increment      1: Step Time =    1.000,"PART-1-1",           635,       4.52066,      -3.83856,            0.,NA,NA,"",   45.6135E-03,  -8.15075E-03,   44.8794E-03,   3.09413E-03
C:/temp/dataset/6/23_6.odb,Step-1,Increment      1: Step Time =    1.000,"PART-1-1",           636,       2.94662,      -2.72704,            0.,NA,NA,"",   57.4677E-03,  -3.02544E-03,   57.3880E-03,   2.70353E-03
C:/temp/dataset/6/23_6.odb,Step-1,Increment      1: Step Time =    1.000,"PART-1-1",           637,       1.50395,       2.56821,            0.,NA,NA,"",   64.7287E-03,   4.88108E-03,   64.5444E-03,   2.24275E-03
C:/temp/dataset/6/23_6.odb,Step-1,Increment      1: Step Time =    1.000,"PART-1-1",           638,          1.25,            5.,            0.,NA,NA,"",   63.6322E-03,   9.73388E-03,   62.8833E-03,   3.04320E-03
C:/temp/dataset/6/23_6.odb,Step-1,Increment      1: Step Time =    1.000,"PART-1-1",           639,          6.25,            5.,            0.,NA,NA,"",   44.9524E-03,   17.1251E-03,   41.5626E-03,   424.728E-06
C:/temp/dataset/6/23_6.odb,Step-1,Increment      1: Step Time =    1.000,"PART-1-1",           640,  -213.968E-03,      -26.0734,            0.,NA,NA,"",   530.107E-06,  -441.341E-06,   293.653E-06,   164.238E-06
C:/temp/dataset/6/23_6.odb,Step-1,Increment      1: Step Time =    1.000,"PART-1-1",           641,       1.14210,      -23.8512,            0.,NA,NA,"",   467.466E-06,  -376.428E-06,   277.176E-06,   118.789E-06
C:/temp/dataset/6/23_6.odb,Step-1,Increment      1: Step Time =    1.000,"PART-1-1",           642,  -234.527E-03,      -23.9674,            0.,NA,NA,"",   466.449E-06,  -246.910E-06,   395.740E-06,   115.797E-06
C:/temp/dataset/6/23_6.odb,Step-1,Increment      1: Step Time =    1.000,"PART-1-1",           643,           -5.,        14.375,            0.,NA,NA,"",   79.9367E-03,  -49.3590E-03,   62.8774E-03,   12.3004E-06
C:/temp/dataset/6/23_6.odb,Step-1,Increment      1: Step Time =    1.000,"PART-1-1",           644,      -7.14364,       14.2292,            0.,NA,NA,"",   73.7316E-03,  -48.8308E-03,   55.2441E-03,   16.5488E-06
C:/temp/dataset/6/23_6.odb,Step-1,Increment      1: Step Time =    1.000,"PART-1-1",           645,           -5.,       6.04167,            0.,NA,NA,"",   66.5089E-03,  -18.6624E-03,   63.8369E-03,   583.578E-06
C:/temp/dataset/6/23_6.odb,Step-1,Increment      1: Step Time =    1.000,"PART-1-1",           646,      -5.82078,       6.95384,            0.,NA,NA,"",   64.3684E-03,  -22.4587E-03,   60.3233E-03,   310.835E-06
C:/temp/dataset/6/23_6.odb,Step-1,Increment      1: Step Time =    1.000,"PART-1-1",           647,      -6.45742,       5.85906,            0.,NA,NA,"",   60.5878E-03,  -17.9245E-03,   57.8757E-03,   628.171E-06
C:/temp/dataset/6/23_6.odb,Step-1,Increment      1: Step Time =    1.000,"PART-1-1",           648,      -5.63664,       4.94688,            0.,NA,NA,"",   62.7768E-03,  -13.0470E-03,   61.4060E-03,   1.77461E-03
C:/temp/dataset/6/23_6.odb,Step-1,Increment      1: Step Time =    1.000,"PART-1-1",           649,           -5.,         8.125,            0.,NA,NA,"",   68.8321E-03,  -26.9671E-03,   63.3296E-03,   203.750E-06
C:/temp/dataset/6/23_6.odb,Step-1,Increment      1: Step Time =    1.000,"PART-1-1",           650,      -5.96903,       9.00386,            0.,NA,NA,"",   66.8262E-03,  -30.2249E-03,   59.6002E-03,   86.1437E-06
C:/temp/dataset/6/23_6.odb,Step-1,Increment      1: Step Time =    1.000,"PART-1-1",           651,          -15.,         -3.75,            0.,NA,NA,"",   27.8619E-03,   8.88756E-03,   26.4063E-03,   251.034E-06
C:/temp/dataset/6/23_6.odb,Step-1,Increment      1: Step Time =    1.000,"PART-1-1",           652,      -12.7846,      -3.59401,            0.,NA,NA,"",   33.2631E-03,   7.96529E-03,   32.2954E-03,   681.107E-06
C:/temp/dataset/6/23_6.odb,Step-1,Increment      1: Step Time =    1.000,"PART-1-1",           653,      -11.5430,      -4.20540,            0.,NA,NA,"",   36.3002E-03,   9.15284E-03,   35.1273E-03,   1.00209E-03
C:/temp/dataset/6/23_6.odb,Step-1,Increment      1: Step Time =    1.000,"PART-1-1",           654,      -10.1018,      -4.29084,            0.,NA,NA,"",   39.9778E-03,   8.57561E-03,   39.0472E-03,   1.34393E-03
C:/temp/dataset/6/23_6.odb,Step-1,Increment      1: Step Time =    1.000,"PART-1-1",           655,          -15.,        -11.25,            0.,NA,NA,"",   33.6592E-03,   21.3934E-03,   25.9859E-03,   207.750E-06
C:/temp/dataset/6/23_6.odb,Step-1,Increment      1: Step Time =    1.000,"PART-1-1",           656,      -12.2331,      -11.1785,            0.,NA,NA,"",   34.6153E-03,   20.6016E-03,   27.8171E-03,   1.17215E-03
C:/temp/dataset/6/23_6.odb,Step-1,Increment      1: Step Time =    1.000,"PART-1-1",           657,       5.21391,      -1.02834,            0.,NA,NA,"",   45.0136E-03,  -692.509E-06,   45.0083E-03,   2.34845E-03
C:/temp/dataset/6/23_6.odb,Step-1,Increment      1: Step Time =    1.000,"PART-1-1",           658,       6.72319,      -1.59046,            0.,NA,NA,"",   36.8309E-03,  -3.51516E-03,   36.6627E-03,   1.93064E-03
C:/temp/dataset/6/23_6.odb,Step-1,Increment      1: Step Time =    1.000,"PART-1-1",           659,       10.9187,      -16.2245,            0.,NA,NA,"",   19.5806E-03,  -14.3139E-03,   13.3608E-03,   1.17503E-03
C:/temp/dataset/6/23_6.odb,Step-1,Increment      1: Step Time =    1.000,"PART-1-1",           660,       11.9858,      -14.8752,            0.,NA,NA,"",   22.0289E-03,  -16.3913E-03,   14.7173E-03,   943.173E-06
C:/temp/dataset/6/23_6.odb,Step-1,Increment      1: Step Time =    1.000,"PART-1-1",           661,       10.9746,      -13.7451,            0.,NA,NA,"",   23.1198E-03,  -17.2042E-03,   15.4448E-03,   1.10404E-03
C:/temp/dataset/6/23_6.odb,Step-1,Increment      1: Step Time =    1.000,"PART-1-1",           662,       11.9830,      -12.5543,            0.,NA,NA,"",   24.5788E-03,  -18.5254E-03,   16.1532E-03,   826.917E-06
C:/temp/dataset/6/23_6.odb,Step-1,Increment      1: Step Time =    1.000,"PART-1-1",           663,           15.,      -20.1563,            0.,NA,NA,"",   16.9610E-03,  -10.7838E-03,   13.0915E-03,   1.06588E-03
C:/temp/dataset/6/23_6.odb,Step-1,Increment      1: Step Time =    1.000,"PART-1-1",           664,       14.0841,      -19.1367,            0.,NA,NA,"",   17.4619E-03,  -11.6842E-03,   12.9768E-03,   975.848E-06
C:/temp/dataset/6/23_6.odb,Step-1,Increment      1: Step Time =    1.000,"PART-1-1",           665,       13.0385,      -20.2889,            0.,NA,NA,"",   14.6192E-03,  -9.65596E-03,   10.9765E-03,   1.12105E-03
C:/temp/dataset/6/23_6.odb,Step-1,Increment      1: Step Time =    1.000,"PART-1-1",           666,           15.,      -17.9688,            0.,NA,NA,"",   20.1552E-03,  -13.5559E-03,   14.9155E-03,   763.613E-06
C:/temp/dataset/6/23_6.odb,Step-1,Increment      1: Step Time =    1.000,"PART-1-1",           667,          1.25,          -30.,            0.,NA,NA,"",            0.,  -50.9176E-42,   348.908E-42,   194.183E-06
C:/temp/dataset/6/23_6.odb,Step-1,Increment      1: Step Time =    1.000,"PART-1-1",           668,       3.30543,      -22.6598,            0.,NA,NA,"",   1.50589E-03,  -1.02952E-03,   1.09900E-03,   388.118E-06
C:/temp/dataset/6/23_6.odb,Step-1,Increment      1: Step Time =    1.000,"PART-1-1",           669,       2.86115,      -24.1329,            0.,NA,NA,"",   815.785E-06,  -528.782E-06,   621.204E-06,   199.165E-06
C:/temp/dataset/6/23_6.odb,Step-1,Increment      1: Step Time =    1.000,"PART-1-1",           670,      -10.6801,      -21.6169,            0.,NA,NA,"",   15.8379E-03,   8.99181E-03,   13.0379E-03,   1.99407E-03
C:/temp/dataset/6/23_6.odb,Step-1,Increment      1: Step Time =    1.000,"PART-1-1",           671,      -11.3394,      -20.4213,            0.,NA,NA,"",   19.2455E-03,   11.4554E-03,   15.4648E-03,   1.90196E-03
C:/temp/dataset/6/23_6.odb,Step-1,Increment      1: Step Time =    1.000,"PART-1-1",           672,      -12.1593,      -22.4638,            0.,NA,NA,"",   15.5736E-03,   9.05843E-03,   12.6681E-03,   1.93355E-03
C:/temp/dataset/6/23_6.odb,Step-1,Increment      1: Step Time =    1.000,"PART-1-1",           673,      -9.92443,      -16.4516,            0.,NA,NA,"",   26.6686E-03,   16.0790E-03,   21.2763E-03,   1.98634E-03
C:/temp/dataset/6/23_6.odb,Step-1,Increment      1: Step Time =    1.000,"PART-1-1",           674,      -8.71114,      -17.7111,            0.,NA,NA,"",   22.9782E-03,   13.3973E-03,   18.6685E-03,   2.10851E-03
C:/temp/dataset/6/23_6.odb,Step-1,Increment      1: Step Time =    1.000,"PART-1-1",           675,      -9.25100,      -7.50767,            0.,NA,NA,"",   40.3646E-03,   15.8857E-03,   37.1072E-03,   1.74233E-03
C:/temp/dataset/6/23_6.odb,Step-1,Increment      1: Step Time =    1.000,"PART-1-1",           676,      -8.32615,      -6.25855,            0.,NA,NA,"",   43.5785E-03,   12.8279E-03,   41.6476E-03,   1.91426E-03
C:/temp/dataset/6/23_6.odb,Step-1,Increment      1: Step Time =    1.000,"PART-1-1",           677,      -7.58018,      -5.09368,            0.,NA,NA,"",   47.4050E-03,   9.38000E-03,   46.4677E-03,   2.32772E-03
C:/temp/dataset/6/23_6.odb,Step-1,Increment      1: Step Time =    1.000,"PART-1-1",           678,      -6.67379,      -3.84489,            0.,NA,NA,"",   53.8104E-03,   2.80755E-03,   53.7371E-03,   3.79545E-03
C:/temp/dataset/6/23_6.odb,Step-1,Increment      1: Step Time =    1.000,"PART-1-1",           679,      -2.40491,      -1.03021,            0.,NA,NA,"",   78.2528E-03,  -2.79828E-03,   78.2028E-03,   2.76938E-03
C:/temp/dataset/6/23_6.odb,Step-1,Increment      1: Step Time =    1.000,"PART-1-1",           680,      -3.32453,      -2.14711,            0.,NA,NA,"",   78.8457E-03,  -4.14001E-03,   78.7370E-03,   4.55646E-03
C:/temp/dataset/6/23_6.odb,Step-1,Increment      1: Step Time =    1.000,"PART-1-1",           681,       10.4745,      -24.8101,            0.,NA,NA,"",   5.40649E-03,  -3.00009E-03,   4.49774E-03,   1.16346E-03
C:/temp/dataset/6/23_6.odb,Step-1,Increment      1: Step Time =    1.000,"PART-1-1",           682,       8.16019,      -23.0435,            0.,NA,NA,"",   5.90246E-03,  -3.29543E-03,   4.89686E-03,   1.15246E-03
C:/temp/dataset/6/23_6.odb,Step-1,Increment      1: Step Time =    1.000,"PART-1-1",           683,       9.40124,      -23.8494,            0.,NA,NA,"",   5.87419E-03,  -3.27894E-03,   4.87387E-03,   1.13278E-03
C:/temp/dataset/6/23_6.odb,Step-1,Increment      1: Step Time =    1.000,"PART-1-1",           684,       5.67200,      -27.0943,            0.,NA,NA,"",   938.626E-06,  -136.078E-06,   928.710E-06,   419.566E-06
C:/temp/dataset/6/23_6.odb,Step-1,Increment      1: Step Time =    1.000,"PART-1-1",           685,       4.86106,      -26.0050,            0.,NA,NA,"",   1.07507E-03,  -308.914E-06,   1.02973E-03,   352.327E-06
C:/temp/dataset/6/23_6.odb,Step-1,Increment      1: Step Time =    1.000,"PART-1-1",           686,      -2.55341,      -23.8484,            0.,NA,NA,"",   1.62883E-03,   57.9567E-06,   1.62780E-03,   405.803E-06
C:/temp/dataset/6/23_6.odb,Step-1,Increment      1: Step Time =    1.000,"PART-1-1",           687,      -4.82130,      -23.8875,            0.,NA,NA,"",   4.05599E-03,   847.771E-06,   3.96640E-03,   1.04565E-03
C:/temp/dataset/6/23_6.odb,Step-1,Increment      1: Step Time =    1.000,"PART-1-1",           688,      -5.84083,      -25.1777,            0.,NA,NA,"",   3.81427E-03,   618.840E-06,   3.76373E-03,   1.11152E-03
C:/temp/dataset/6/23_6.odb,Step-1,Increment      1: Step Time =    1.000,"PART-1-1",           689,           15.,      -26.7188,            0.,NA,NA,"",   6.59147E-03,  -4.04252E-03,   5.20630E-03,   1.54821E-03
C:/temp/dataset/6/23_6.odb,Step-1,Increment      1: Step Time =    1.000,"PART-1-1",           690,       10.9874,      -11.4075,            0.,NA,NA,"",   25.5569E-03,  -18.8796E-03,   17.2254E-03,   1.01402E-03
C:/temp/dataset/6/23_6.odb,Step-1,Increment      1: Step Time =    1.000,"PART-1-1",           691,       7.29436,      -19.7763,            0.,NA,NA,"",   10.4396E-03,  -6.96763E-03,   7.77413E-03,   1.42501E-03
C:/temp/dataset/6/23_6.odb,Step-1,Increment      1: Step Time =    1.000,"PART-1-1",           692,       7.78340,      -18.7858,            0.,NA,NA,"",   12.8236E-03,  -8.87871E-03,   9.25281E-03,   1.34370E-03
C:/temp/dataset/6/23_6.odb,Step-1,Increment      1: Step Time =    1.000,"PART-1-1",           693,       10.8970,      -2.99004,            0.,NA,NA,"",   23.6692E-03,  -9.69693E-03,   21.5917E-03,   438.519E-06
C:/temp/dataset/6/23_6.odb,Step-1,Increment      1: Step Time =    1.000,"PART-1-1",           694,       12.0828,      -3.88727,            0.,NA,NA,"",   22.1362E-03,  -12.1094E-03,   18.5304E-03,   186.525E-06
C:/temp/dataset/6/23_6.odb,Step-1,Increment      1: Step Time =    1.000,"PART-1-1",           695,           15.,       1.71875,            0.,NA,NA,"",   10.9276E-03,   5.11921E-03,   9.65438E-03,   187.594E-06
C:/temp/dataset/6/23_6.odb,Step-1,Increment      1: Step Time =    1.000,"PART-1-1",           696,       4.00043,  -427.215E-03,            0.,NA,NA,"",   52.4771E-03,   1.45912E-03,   52.4568E-03,   2.70107E-03
C:/temp/dataset/6/23_6.odb,Step-1,Increment      1: Step Time =    1.000,"PART-1-1",           697,       2.09609,       1.00148,            0.,NA,NA,"",   63.0602E-03,   3.48740E-03,   62.9637E-03,   2.55168E-03
C:/temp/dataset/6/23_6.odb,Step-1,Increment      1: Step Time =    1.000,"PART-1-1",           698,       2.38138,  -554.063E-03,            0.,NA,NA,"",   61.9157E-03,   1.69158E-03,   61.8926E-03,   2.89152E-03
C:/temp/dataset/6/23_6.odb,Step-1,Increment      1: Step Time =    1.000,"PART-1-1",           699,   35.7305E-03,       2.11113,            0.,NA,NA,"",   70.0514E-03,   2.13055E-03,   70.0190E-03,   2.34380E-03
C:/temp/dataset/6/23_6.odb,Step-1,Increment      1: Step Time =    1.000,"PART-1-1",           700,           -5.,       10.2083,            0.,NA,NA,"",   71.8828E-03,  -34.5355E-03,   63.0432E-03,   98.2007E-06
C:/temp/dataset/6/23_6.odb,Step-1,Increment      1: Step Time =    1.000,"PART-1-1",           701,      -6.99901,       9.90050,            0.,NA,NA,"",   65.0402E-03,  -33.4492E-03,   55.7797E-03,   59.1343E-06
C:/temp/dataset/6/23_6.odb,Step-1,Increment      1: Step Time =    1.000,"PART-1-1",           702,      -11.2396,       16.2208,            0.,NA,NA,"",   69.0851E-03,  -55.8545E-03,   40.6574E-03,   7.66315E-06
C:/temp/dataset/6/23_6.odb,Step-1,Increment      1: Step Time =    1.000,"PART-1-1",           703,      -10.2112,       15.1096,            0.,NA,NA,"",   68.2537E-03,  -51.9126E-03,   44.3130E-03,   10.8796E-06
C:/temp/dataset/6/23_6.odb,Step-1,Increment      1: Step Time =    1.000,"PART-1-1",           704,      -9.25876,       16.3324,            0.,NA,NA,"",   73.7724E-03,  -56.2751E-03,   47.7020E-03,   7.60269E-06
C:/temp/dataset/6/23_6.odb,Step-1,Increment      1: Step Time =    1.000,"PART-1-1",           705,      -10.2871,       17.4437,            0.,NA,NA,"",   74.6029E-03,  -60.2165E-03,   44.0404E-03,   3.42118E-06
C:/temp/dataset/6/23_6.odb,Step-1,Increment      1: Step Time =    1.000,"PART-1-1",           706,      -8.19479,       15.2434,            0.,NA,NA,"",   73.4787E-03,  -52.4182E-03,   51.4923E-03,   9.52429E-06
C:/temp/dataset/6/23_6.odb,Step-1,Increment      1: Step Time =    1.000,"PART-1-1",           707,      -9.19446,       14.0222,            0.,NA,NA,"",   67.8752E-03,  -48.0636E-03,   47.9264E-03,   19.9428E-06
C:/temp/dataset/6/23_6.odb,Step-1,Increment      1: Step Time =    1.000,"PART-1-1",           708,      -8.14331,       13.0080,            0.,NA,NA,"",   68.1814E-03,  -44.4832E-03,   51.6716E-03,   23.5138E-06
C:/temp/dataset/6/23_6.odb,Step-1,Increment      1: Step Time =    1.000,"PART-1-1",           709,          -15.,         18.75,            0.,NA,NA,"",   70.3320E-03,  -64.8310E-03,   27.2677E-03,   61.7592E-09
C:/temp/dataset/6/23_6.odb,Step-1,Increment      1: Step Time =    1.000,"PART-1-1",           710,      -13.1826,       18.5751,            0.,NA,NA,"",   72.5419E-03,  -64.2201E-03,   33.7358E-03,   1.52381E-06
C:/temp/dataset/6/23_6.odb,Step-1,Increment      1: Step Time =    1.000,"PART-1-1",           711,      -11.2313,       23.3702,            0.,NA,NA,"",   90.8893E-03,  -81.2937E-03,   40.6471E-03,   120.614E-09
C:/temp/dataset/6/23_6.odb,Step-1,Increment      1: Step Time =    1.000,"PART-1-1",           712,      -10.8173,       24.9058,            0.,NA,NA,"",   96.4382E-03,  -86.7586E-03,   42.1102E-03,   107.779E-09
C:/temp/dataset/6/23_6.odb,Step-1,Increment      1: Step Time =    1.000,"PART-1-1",           713,      -13.5418,       24.7667,            0.,NA,NA,"",   92.1386E-03,  -86.2469E-03,   32.4191E-03,   97.9387E-09
C:/temp/dataset/6/23_6.odb,Step-1,Increment      1: Step Time =    1.000,"PART-1-1",           714,      -12.2278,       25.9824,            0.,NA,NA,"",   97.8774E-03,  -90.5794E-03,   37.0858E-03,   101.686E-09
C:/temp/dataset/6/23_6.odb,Step-1,Increment      1: Step Time =    1.000,"PART-1-1",           715,          -15.,         26.25,            0.,NA,NA,"",   95.4770E-03,  -91.5139E-03,   27.2225E-03,   85.2709E-09
C:/temp/dataset/6/23_6.odb,Step-1,Increment      1: Step Time =    1.000,"PART-1-1",           716,          -15.,         23.75,            0.,NA,NA,"",   86.9948E-03,  -82.6207E-03,   27.2380E-03,   240.705E-09
C:/temp/dataset/6/23_6.odb,Step-1,Increment      1: Step Time =    1.000,"PART-1-1",           717,      -12.5630,       23.3034,            0.,NA,NA,"",   88.6470E-03,  -81.0478E-03,   35.9102E-03,   127.355E-09
C:/temp/dataset/6/23_6.odb,Step-1,Increment      1: Step Time =    1.000,"PART-1-1",           718,      -11.1827,       13.8735,            0.,NA,NA,"",   62.6501E-03,  -47.4943E-03,   40.8574E-03,   19.8631E-06
C:/temp/dataset/6/23_6.odb,Step-1,Increment      1: Step Time =    1.000,"PART-1-1",           719,      -10.1659,       12.7861,            0.,NA,NA,"",   62.2984E-03,  -43.6440E-03,   44.4555E-03,   26.5854E-06
C:/temp/dataset/6/23_6.odb,Step-1,Increment      1: Step Time =    1.000,"PART-1-1",           720,      -11.4858,       20.4947,            0.,NA,NA,"",   81.4296E-03,  -71.0626E-03,   39.7603E-03,   514.145E-09
C:/temp/dataset/6/23_6.odb,Step-1,Increment      1: Step Time =    1.000,"PART-1-1",           721,      -10.4732,       19.7487,            0.,NA,NA,"",   81.0021E-03,  -68.4154E-03,   43.3668E-03,   766.030E-09
C:/temp/dataset/6/23_6.odb,Step-1,Increment      1: Step Time =    1.000,"PART-1-1",           722,      -10.9778,       21.7959,            0.,NA,NA,"",   86.3532E-03,  -75.6949E-03,   41.5592E-03,   157.835E-09
C:/temp/dataset/6/23_6.odb,Step-1,Increment      1: Step Time =    1.000,"PART-1-1",           723,      -9.13796,       11.7463,            0.,NA,NA,"",   62.5392E-03,  -39.9745E-03,   48.0956E-03,   38.0561E-06
C:/temp/dataset/6/23_6.odb,Step-1,Increment      1: Step Time =    1.000,"PART-1-1",           724,      -11.1090,       11.4975,            0.,NA,NA,"",   56.6730E-03,  -39.0285E-03,   41.0926E-03,   36.1314E-06
C:/temp/dataset/6/23_6.odb,Step-1,Increment      1: Step Time =    1.000,"PART-1-1",           725,      -7.95801,       5.48811,            0.,NA,NA,"",   55.2609E-03,  -17.3011E-03,   52.4827E-03,   584.809E-06
C:/temp/dataset/6/23_6.odb,Step-1,Increment      1: Step Time =    1.000,"PART-1-1",           726,      -9.27172,       5.51676,            0.,NA,NA,"",   50.9010E-03,  -17.8940E-03,   47.6521E-03,   330.076E-06
C:/temp/dataset/6/23_6.odb,Step-1,Increment      1: Step Time =    1.000,"PART-1-1",           727,      -9.10783,       4.19071,            0.,NA,NA,"",   50.3989E-03,  -13.6647E-03,   48.5111E-03,   781.175E-06
C:/temp/dataset/6/23_6.odb,Step-1,Increment      1: Step Time =    1.000,"PART-1-1",           728,      -7.79412,       4.16207,            0.,NA,NA,"",   55.1211E-03,  -12.8776E-03,   53.5957E-03,   1.01456E-03
C:/temp/dataset/6/23_6.odb,Step-1,Increment      1: Step Time =    1.000,"PART-1-1",           729,      -10.3652,   710.465E-03,            0.,NA,NA,"",   43.4384E-03,  -4.84120E-03,   43.1677E-03,   1.05217E-03
C:/temp/dataset/6/23_6.odb,Step-1,Increment      1: Step Time =    1.000,"PART-1-1",           730,      -11.5756,       2.14983,            0.,NA,NA,"",   40.0502E-03,  -8.32691E-03,   39.1750E-03,   649.255E-06
C:/temp/dataset/6/23_6.odb,Step-1,Increment      1: Step Time =    1.000,"PART-1-1",           731,      -10.9514,      -7.70102,            0.,NA,NA,"",   37.3188E-03,   16.9653E-03,   33.2396E-03,   1.20219E-03
C:/temp/dataset/6/23_6.odb,Step-1,Increment      1: Step Time =    1.000,"PART-1-1",           732,      -11.1587,      -15.1039,            0.,NA,NA,"",   29.8543E-03,   18.4580E-03,   23.4645E-03,   1.71034E-03
C:/temp/dataset/6/23_6.odb,Step-1,Increment      1: Step Time =    1.000,"PART-1-1",           733,      -11.0422,      -12.5823,            0.,NA,NA,"",   33.6015E-03,   19.9106E-03,   27.0671E-03,   1.64823E-03
C:/temp/dataset/6/23_6.odb,Step-1,Increment      1: Step Time =    1.000,"PART-1-1",           734,      -9.98828,      -19.2456,            0.,NA,NA,"",   20.6108E-03,   12.1525E-03,   16.6469E-03,   1.99715E-03
C:/temp/dataset/6/23_6.odb,Step-1,Increment      1: Step Time =    1.000,"PART-1-1",           735,      -11.2222,      -17.6929,            0.,NA,NA,"",   25.0316E-03,   15.4805E-03,   19.6707E-03,   1.78941E-03
C:/temp/dataset/6/23_6.odb,Step-1,Increment      1: Step Time =    1.000,"PART-1-1",           736,      -9.72809,       26.4627,            0.,NA,NA,"",   103.120E-03,  -92.3038E-03,   45.9747E-03,   85.3492E-09
C:/temp/dataset/6/23_6.odb,Step-1,Increment      1: Step Time =    1.000,"PART-1-1",           737,      -8.07960,       10.7858,            0.,NA,NA,"",   63.4749E-03,  -36.5854E-03,   51.8707E-03,   43.9461E-06
C:/temp/dataset/6/23_6.odb,Step-1,Increment      1: Step Time =    1.000,"PART-1-1",           738,      -11.3320,       18.4953,            0.,NA,NA,"",   75.5988E-03,  -63.9495E-03,   40.3192E-03,   2.30357E-06
C:/temp/dataset/6/23_6.odb,Step-1,Increment      1: Step Time =    1.000,"PART-1-1",           739,      -10.4893,       6.32554,            0.,NA,NA,"",   47.9816E-03,  -20.8364E-03,   43.2213E-03,   197.837E-06
C:/temp/dataset/6/23_6.odb,Step-1,Increment      1: Step Time =    1.000,"PART-1-1",           740,      -11.8356,       7.66802,            0.,NA,NA,"",   46.1891E-03,  -25.5035E-03,   38.5098E-03,   38.2289E-06
C:/temp/dataset/6/23_6.odb,Step-1,Increment      1: Step Time =    1.000,"PART-1-1",           741,      -11.4125,       4.87054,            0.,NA,NA,"",   43.1728E-03,  -16.2248E-03,   40.0081E-03,   288.589E-06
C:/temp/dataset/6/23_6.odb,Step-1,Increment      1: Step Time =    1.000,"PART-1-1",           742,       10.1911,      -5.79504,            0.,NA,NA,"",   27.1299E-03,  -15.9774E-03,   21.9261E-03,   727.503E-06
C:/temp/dataset/6/23_6.odb,Step-1,Increment      1: Step Time =    1.000,"PART-1-1",           743,       9.10708,      -6.74300,            0.,NA,NA,"",   28.9423E-03,  -17.1001E-03,   23.3504E-03,   1.15969E-03
C:/temp/dataset/6/23_6.odb,Step-1,Increment      1: Step Time =    1.000,"PART-1-1",           744,       11.1638,      -4.94873,            0.,NA,NA,"",   24.9131E-03,  -14.4580E-03,   20.2886E-03,   393.232E-06
C:/temp/dataset/6/23_6.odb,Step-1,Increment      1: Step Time =    1.000,"PART-1-1",           745,       10.4293,      -4.08570,            0.,NA,NA,"",   25.5221E-03,  -12.4577E-03,   22.2752E-03,   563.462E-06
C:/temp/dataset/6/23_6.odb,Step-1,Increment      1: Step Time =    1.000,"PART-1-1",           746,       9.97038,      -14.8971,            0.,NA,NA,"",   21.1545E-03,  -15.5339E-03,   14.3601E-03,   1.26686E-03
C:/temp/dataset/6/23_6.odb,Step-1,Increment      1: Step Time =    1.000,"PART-1-1",           747,       9.96577,      -12.5508,            0.,NA,NA,"",   24.3705E-03,  -17.7850E-03,   16.6618E-03,   1.27216E-03
C:/temp/dataset/6/23_6.odb,Step-1,Increment      1: Step Time =    1.000,"PART-1-1",           748,       8.96159,      -13.7029,            0.,NA,NA,"",   22.5192E-03,  -16.2734E-03,   15.5657E-03,   1.44474E-03
C:/temp/dataset/6/23_6.odb,Step-1,Increment      1: Step Time =    1.000,"PART-1-1",           749,       6.92617,      -22.4012,            0.,NA,NA,"",   5.51206E-03,  -3.09217E-03,   4.56304E-03,   1.08809E-03
C:/temp/dataset/6/23_6.odb,Step-1,Increment      1: Step Time =    1.000,"PART-1-1",           750,       5.94981,      -23.5281,            0.,NA,NA,"",   3.26040E-03,  -1.63248E-03,   2.82227E-03,   786.447E-06
C:/temp/dataset/6/23_6.odb,Step-1,Increment      1: Step Time =    1.000,"PART-1-1",           751,       7.18383,      -24.1705,            0.,NA,NA,"",   3.71321E-03,  -1.81327E-03,   3.24037E-03,   860.530E-06
C:/temp/dataset/6/23_6.odb,Step-1,Increment      1: Step Time =    1.000,"PART-1-1",           752,       11.0968,      -20.2176,            0.,NA,NA,"",   13.0456E-03,  -8.72277E-03,   9.70058E-03,   1.24142E-03
C:/temp/dataset/6/23_6.odb,Step-1,Increment      1: Step Time =    1.000,"PART-1-1",           753,       6.43355,      -20.8801,            0.,NA,NA,"",   7.22120E-03,  -4.47896E-03,   5.66433E-03,   1.32048E-03
C:/temp/dataset/6/23_6.odb,Step-1,Increment      1: Step Time =    1.000,"PART-1-1",           754,       8.96045,      -11.3546,            0.,NA,NA,"",   25.7121E-03,  -17.9847E-03,   18.3756E-03,   1.49850E-03
C:/temp/dataset/6/23_6.odb,Step-1,Increment      1: Step Time =    1.000,"PART-1-1",           755,       8.17216,      -2.03287,            0.,NA,NA,"",   30.9627E-03,  -5.96612E-03,   30.3825E-03,   1.17365E-03
C:/temp/dataset/6/23_6.odb,Step-1,Increment      1: Step Time =    1.000,"PART-1-1",           756,       9.68046,      -2.49017,            0.,NA,NA,"",   26.4005E-03,  -8.01551E-03,   25.1542E-03,   770.099E-06
C:/temp/dataset/6/23_6.odb,Step-1,Increment      1: Step Time =    1.000,"PART-1-1",           757,      -5.24373,       2.94722,            0.,NA,NA,"",   65.3159E-03,  -7.19976E-03,   64.9178E-03,   2.27944E-03
C:/temp/dataset/6/23_6.odb,Step-1,Increment      1: Step Time =    1.000,"PART-1-1",           758,      -6.20341,       3.93450,            0.,NA,NA,"",   61.0718E-03,  -10.5696E-03,   60.1503E-03,   1.77914E-03
C:/temp/dataset/6/23_6.odb,Step-1,Increment      1: Step Time =    1.000,"PART-1-1",           759,       7.87036,      -17.0650,            0.,NA,NA,"",   16.1364E-03,  -11.5594E-03,   11.2589E-03,   1.39821E-03
C:/temp/dataset/6/23_6.odb,Step-1,Increment      1: Step Time =    1.000,"PART-1-1",           760,      -8.77165,      -4.61616,            0.,NA,NA,"",   43.5883E-03,   8.52057E-03,   42.7473E-03,   1.71452E-03
C:/temp/dataset/6/23_6.odb,Step-1,Increment      1: Step Time =    1.000,"PART-1-1",           761,       8.90402,      -15.9271,            0.,NA,NA,"",   18.9127E-03,  -13.7057E-03,   13.0324E-03,   1.38222E-03
C:/temp/dataset/6/23_6.odb,Step-1,Increment      1: Step Time =    1.000,"PART-1-1",           762,       7.94609,      -14.8939,            0.,NA,NA,"",   20.0450E-03,  -14.4011E-03,   13.9431E-03,   1.51943E-03
C:/temp/dataset/6/23_6.odb,Step-1,Increment      1: Step Time =    1.000,"PART-1-1",           763,      -12.3095,       21.7291,            0.,NA,NA,"",   83.9547E-03,  -75.4487E-03,   36.8222E-03,   107.473E-09
C:/temp/dataset/6/23_6.odb,Step-1,Increment      1: Step Time =    1.000,"PART-1-1",           764,      -12.2938,       19.6789,            0.,NA,NA,"",   77.4980E-03,  -68.1543E-03,   36.8909E-03,   608.784E-09
C:/temp/dataset/6/23_6.odb,Step-1,Increment      1: Step Time =    1.000,"PART-1-1",           765,       3.72209,      -1.78065,            0.,NA,NA,"",   53.1816E-03,  -1.28012E-03,   53.1662E-03,   2.80530E-03
C:/temp/dataset/6/23_6.odb,Step-1,Increment      1: Step Time =    1.000,"PART-1-1",           766,       6.45852,      -3.38063,            0.,NA,NA,"",   36.0591E-03,  -8.88095E-03,   34.9484E-03,   1.99816E-03
C:/temp/dataset/6/23_6.odb,Step-1,Increment      1: Step Time =    1.000,"PART-1-1",           767,       4.93556,      -2.38177,            0.,NA,NA,"",   44.9601E-03,  -3.93472E-03,   44.7876E-03,   2.74807E-03
C:/temp/dataset/6/23_6.odb,Step-1,Increment      1: Step Time =    1.000,"PART-1-1",           768,      -2.94024,   945.156E-03,            0.,NA,NA,"",   73.5833E-03,  -3.11546E-03,   73.5173E-03,   2.13614E-03
C:/temp/dataset/6/23_6.odb,Step-1,Increment      1: Step Time =    1.000,"PART-1-1",           769,      -1.69279,      -25.0756,            0.,NA,NA,"",   908.605E-06,  -389.006E-06,   821.120E-06,   269.258E-06
C:/temp/dataset/6/23_6.odb,Step-1,Increment      1: Step Time =    1.000,"PART-1-1",           770,      -6.93923,      -23.9860,            0.,NA,NA,"",   6.58578E-03,   2.23928E-03,   6.19340E-03,   1.60550E-03
C:/temp/dataset/6/23_6.odb,Step-1,Increment      1: Step Time =    1.000,"PART-1-1",           771,      -5.91970,      -22.6959,            0.,NA,NA,"",   7.23868E-03,   2.61633E-03,   6.74932E-03,   1.64885E-03
C:/temp/dataset/6/23_6.odb,Step-1,Increment      1: Step Time =    1.000,"PART-1-1",           772,      -12.2208,       17.3915,            0.,NA,NA,"",   70.5889E-03,  -60.0136E-03,   37.1640E-03,   2.97937E-06
C:/temp/dataset/6/23_6.odb,Step-1,Increment      1: Step Time =    1.000,"PART-1-1",           773,      -12.0398,       10.1961,            0.,NA,NA,"",   51.1010E-03,  -34.3812E-03,   37.8054E-03,   40.4935E-06
C:/temp/dataset/6/23_6.odb,Step-1,Increment      1: Step Time =    1.000,"PART-1-1",           774,      -10.8637,      -2.91198,            0.,NA,NA,"",   38.6563E-03,   5.06507E-03,   38.3230E-03,   1.18220E-03
C:/temp/dataset/6/23_6.odb,Step-1,Increment      1: Step Time =    1.000,"PART-1-1",           775,      -9.61620,      -11.5179,            0.,NA,NA,"",   35.4292E-03,   19.0186E-03,   29.8918E-03,   2.03668E-03
C:/temp/dataset/6/23_6.odb,Step-1,Increment      1: Step Time =    1.000,"PART-1-1",           776,      -11.8201,      -24.5932,            0.,NA,NA,"",   10.4989E-03,   5.84256E-03,   8.72308E-03,   2.00705E-03
C:/temp/dataset/6/23_6.odb,Step-1,Increment      1: Step Time =    1.000,"PART-1-1",           777,      -11.0718,      -23.4296,            0.,NA,NA,"",   12.2020E-03,   6.70409E-03,   10.1952E-03,   1.95972E-03
C:/temp/dataset/6/23_6.odb,Step-1,Increment      1: Step Time =    1.000,"PART-1-1",           778,       4.75405,      -23.0816,            0.,NA,NA,"",   2.48949E-03,  -1.35276E-03,   2.08988E-03,   605.006E-06
C:/temp/dataset/6/23_6.odb,Step-1,Increment      1: Step Time =    1.000,"PART-1-1",           779,       5.55198,      -21.9930,            0.,NA,NA,"",   4.33207E-03,  -2.49425E-03,   3.54197E-03,   986.206E-06
C:/temp/dataset/6/23_6.odb,Step-1,Increment      1: Step Time =    1.000,"PART-1-1",           780,       7.01336,      -26.0950,            0.,NA,NA,"",   1.97693E-03,  -694.020E-06,   1.85111E-03,   648.345E-06
C:/temp/dataset/6/23_6.odb,Step-1,Increment      1: Step Time =    1.000,"PART-1-1",           781,       4.10189,      -23.9882,            0.,NA,NA,"",   1.48361E-03,  -769.166E-06,   1.26866E-03,   377.910E-06
C:/temp/dataset/6/23_6.odb,Step-1,Increment      1: Step Time =    1.000,"PART-1-1",           782,       4.14804,      -25.2051,            0.,NA,NA,"",   1.05353E-03,  -427.239E-06,   963.009E-06,   308.095E-06
C:/temp/dataset/6/23_6.odb,Step-1,Increment      1: Step Time =    1.000,"PART-1-1",           783,      -12.1264,       12.6156,            0.,NA,NA,"",   57.0575E-03,  -42.9932E-03,   37.5120E-03,   24.2639E-06
C:/temp/dataset/6/23_6.odb,Step-1,Increment      1: Step Time =    1.000,"PART-1-1",           784,      -12.1709,       15.0185,            0.,NA,NA,"",   63.6687E-03,  -51.5610E-03,   37.3520E-03,   9.88062E-06
C:/temp/dataset/6/23_6.odb,Step-1,Increment      1: Step Time =    1.000,"PART-1-1",           785,      -10.3060,       3.43341,            0.,NA,NA,"",   45.5878E-03,  -11.8227E-03,   44.0281E-03,   615.352E-06
C:/temp/dataset/6/23_6.odb,Step-1,Increment      1: Step Time =    1.000,"PART-1-1",           786,      -9.35047,  -311.861E-03,            0.,NA,NA,"",   46.6542E-03,  -2.90677E-03,   46.5636E-03,   1.58987E-03
C:/temp/dataset/6/23_6.odb,Step-1,Increment      1: Step Time =    1.000,"PART-1-1",           787,      -9.47746,      -1.56252,            0.,NA,NA,"",   44.7145E-03,   195.894E-06,   44.7141E-03,   1.71537E-03
C:/temp/dataset/6/23_6.odb,Step-1,Increment      1: Step Time =    1.000,"PART-1-1",           788,      -7.56677,      -1.93629,            0.,NA,NA,"",   52.7881E-03,  -1.22776E-03,   52.7738E-03,   2.62024E-03
C:/temp/dataset/6/23_6.odb,Step-1,Increment      1: Step Time =    1.000,"PART-1-1",           789,      -9.57637,      -3.06595,            0.,NA,NA,"",   42.6017E-03,   4.45271E-03,   42.3684E-03,   1.64063E-03
C:/temp/dataset/6/23_6.odb,Step-1,Increment      1: Step Time =    1.000,"PART-1-1",           790,      -8.24618,      -3.39128,            0.,NA,NA,"",   47.0317E-03,   3.89288E-03,   46.8704E-03,   2.34505E-03
C:/temp/dataset/6/23_6.odb,Step-1,Increment      1: Step Time =    1.000,"PART-1-1",           791,       7.98922,      -7.69035,            0.,NA,NA,"",   29.8995E-03,  -17.4117E-03,   24.3066E-03,   1.88881E-03
C:/temp/dataset/6/23_6.odb,Step-1,Increment      1: Step Time =    1.000,"PART-1-1",           792,       7.96586,      -10.1263,            0.,NA,NA,"",   27.2549E-03,  -17.7570E-03,   20.6764E-03,   1.82044E-03
C:/temp/dataset/6/23_6.odb,Step-1,Increment      1: Step Time =    1.000,"PART-1-1",           793,       7.95460,      -12.5381,            0.,NA,NA,"",   23.8690E-03,  -16.6212E-03,   17.1308E-03,   1.66154E-03
C:/temp/dataset/6/23_6.odb,Step-1,Increment      1: Step Time =    1.000,"PART-1-1",           794,      -6.90534,       4.84567,            0.,NA,NA,"",   58.4697E-03,  -14.3324E-03,   56.6859E-03,   1.10864E-03
C:/temp/dataset/6/23_6.odb,Step-1,Increment      1: Step Time =    1.000,"PART-1-1",           795,      -7.09219,       3.25090,            0.,NA,NA,"",   57.8028E-03,  -9.87429E-03,   56.9531E-03,   1.69719E-03
C:/temp/dataset/6/23_6.odb,Step-1,Increment      1: Step Time =    1.000,"PART-1-1",           796,      -5.99438,      -2.38990,            0.,NA,NA,"",   61.3830E-03,  -2.81084E-03,   61.3186E-03,   4.19031E-03
C:/temp/dataset/6/23_6.odb,Step-1,Increment      1: Step Time =    1.000,"PART-1-1",           797,      -8.16339,       2.56404,            0.,NA,NA,"",   53.4328E-03,  -9.05704E-03,   52.6596E-03,   1.37170E-03
C:/temp/dataset/6/23_6.odb,Step-1,Increment      1: Step Time =    1.000,"PART-1-1",           798,      -6.16245,       1.98671,            0.,NA,NA,"",   62.0318E-03,  -6.94125E-03,   61.6422E-03,   2.31330E-03
C:/temp/dataset/6/23_6.odb,Step-1,Increment      1: Step Time =    1.000,"PART-1-1",           799,      -9.36160,       1.80674,            0.,NA,NA,"",   48.2106E-03,  -7.60846E-03,   47.6065E-03,   1.26357E-03
C:/temp/dataset/6/23_6.odb,Step-1,Increment      1: Step Time =    1.000,"PART-1-1",           800,      -4.18828,       1.89018,            0.,NA,NA,"",   69.5356E-03,  -4.90818E-03,   69.3621E-03,   2.28206E-03
C:/temp/dataset/6/23_6.odb,Step-1,Increment      1: Step Time =    1.000,"PART-1-1",           801,      -2.02478,       2.01876,            0.,NA,NA,"",   72.8781E-03,  -1.53972E-03,   72.8618E-03,   2.21211E-03
C:/temp/dataset/6/23_6.odb,Step-1,Increment      1: Step Time =    1.000,"PART-1-1",           802,       5.29765,      -24.4346,            0.,NA,NA,"",   2.06471E-03,  -917.428E-06,   1.84969E-03,   535.383E-06
C:/temp/dataset/6/23_6.odb,Step-1,Increment      1: Step Time =    1.000,"PART-1-1",           803,       8.18651,      -25.0309,            0.,NA,NA,"",   3.56509E-03,  -1.69322E-03,   3.13734E-03,   918.547E-06
C:/temp/dataset/6/23_6.odb,Step-1,Increment      1: Step Time =    1.000,"PART-1-1",           804,       6.01068,      -25.2345,            0.,NA,NA,"",   2.02455E-03,  -785.347E-06,   1.86602E-03,   587.447E-06
