ODB Name,Step,Frame,Part Instance Name,    êﬂì_ÉâÉxÉã,X,Y,Z,Section Name,Material Name,Section Point,   U-Magnitude,          U-U1,          U-U2,       S-Mises
C:/temp/dataset/6/24_18.odb,Step-1,Increment      1: Step Time =    1.000,"PART-1-1",             1,            5.,           -5.,            0.,NA,NA,"",   193.530E-03,  -9.86954E-03,   193.279E-03,   22.0781E-03
C:/temp/dataset/6/24_18.odb,Step-1,Increment      1: Step Time =    1.000,"PART-1-1",             2,            0.,           -5.,            0.,NA,NA,"",   242.677E-03,   38.8883E-03,   239.541E-03,   12.2501E-03
C:/temp/dataset/6/24_18.odb,Step-1,Increment      1: Step Time =    1.000,"PART-1-1",             3,            5.,      -10.0250,            0.,NA,NA,"",   120.359E-03,  -33.8375E-03,   115.504E-03,   11.3894E-03
C:/temp/dataset/6/24_18.odb,Step-1,Increment      1: Step Time =    1.000,"PART-1-1",             4,            5.,      -15.0500,            0.,NA,NA,"",   75.9753E-03,  -33.2358E-03,   68.3200E-03,   9.26968E-03
C:/temp/dataset/6/24_18.odb,Step-1,Increment      1: Step Time =    1.000,"PART-1-1",             5,            5.,          -20.,            0.,NA,NA,"",   32.5800E-03,  -17.2243E-03,   27.6547E-03,   7.05922E-03
C:/temp/dataset/6/24_18.odb,Step-1,Increment      1: Step Time =    1.000,"PART-1-1",             6,            0.,          -20.,            0.,NA,NA,"",   4.11079E-03,  -1.17372E-03,   3.93967E-03,   3.12160E-03
C:/temp/dataset/6/24_18.odb,Step-1,Increment      1: Step Time =    1.000,"PART-1-1",             7,           -5.,          -20.,            0.,NA,NA,"",   19.6152E-03,   14.9372E-03,   12.7137E-03,   3.79007E-03
C:/temp/dataset/6/24_18.odb,Step-1,Increment      1: Step Time =    1.000,"PART-1-1",             8,           -5.,      -14.9750,            0.,NA,NA,"",   51.9018E-03,   38.6432E-03,   34.6483E-03,   5.71424E-03
C:/temp/dataset/6/24_18.odb,Step-1,Increment      1: Step Time =    1.000,"PART-1-1",             9,           -5.,      -9.95000,            0.,NA,NA,"",   81.8126E-03,   48.9785E-03,   65.5317E-03,   7.85490E-03
C:/temp/dataset/6/24_18.odb,Step-1,Increment      1: Step Time =    1.000,"PART-1-1",            10,           -5.,           -5.,            0.,NA,NA,"",   125.391E-03,   47.8280E-03,   115.911E-03,   13.8557E-03
C:/temp/dataset/6/24_18.odb,Step-1,Increment      1: Step Time =    1.000,"PART-1-1",            11,           15.,          -30.,            0.,NA,NA,"",            0.,  -3.28324E-39,   5.70010E-39,   11.1188E-03
C:/temp/dataset/6/24_18.odb,Step-1,Increment      1: Step Time =    1.000,"PART-1-1",            12,          -15.,          -30.,            0.,NA,NA,"",            0.,   2.27065E-39,   3.92502E-39,   7.45843E-03
C:/temp/dataset/6/24_18.odb,Step-1,Increment      1: Step Time =    1.000,"PART-1-1",            13,           15.,        -21.25,            0.,NA,NA,"",   63.9333E-03,  -38.1068E-03,   51.3355E-03,   5.03081E-03
C:/temp/dataset/6/24_18.odb,Step-1,Increment      1: Step Time =    1.000,"PART-1-1",            14,           15.,         -12.5,            0.,NA,NA,"",   96.1752E-03,  -60.3871E-03,   74.8536E-03,   1.02082E-03
C:/temp/dataset/6/24_18.odb,Step-1,Increment      1: Step Time =    1.000,"PART-1-1",            15,           15.,         -3.75,            0.,NA,NA,"",   79.4095E-03,  -19.8880E-03,   76.8787E-03,   690.748E-06
C:/temp/dataset/6/24_18.odb,Step-1,Increment      1: Step Time =    1.000,"PART-1-1",            16,           15.,            5.,            0.,NA,NA,"",   100.693E-03,   61.2617E-03,   79.9133E-03,   79.8482E-06
C:/temp/dataset/6/24_18.odb,Step-1,Increment      1: Step Time =    1.000,"PART-1-1",            17,           10.,            5.,            0.,NA,NA,"",   146.812E-03,   60.5565E-03,   133.742E-03,   1.36793E-03
C:/temp/dataset/6/24_18.odb,Step-1,Increment      1: Step Time =    1.000,"PART-1-1",            18,            5.,            5.,            0.,NA,NA,"",   194.103E-03,   39.6835E-03,   190.003E-03,   8.92592E-03
C:/temp/dataset/6/24_18.odb,Step-1,Increment      1: Step Time =    1.000,"PART-1-1",            19,            0.,            5.,            0.,NA,NA,"",   197.363E-03,  -11.0787E-03,   197.052E-03,   10.9292E-03
C:/temp/dataset/6/24_18.odb,Step-1,Increment      1: Step Time =    1.000,"PART-1-1",            20,           -5.,            5.,            0.,NA,NA,"",   145.367E-03,  -41.6225E-03,   139.281E-03,   2.23447E-03
C:/temp/dataset/6/24_18.odb,Step-1,Increment      1: Step Time =    1.000,"PART-1-1",            21,           -5.,         11.25,            0.,NA,NA,"",   176.510E-03,  -112.342E-03,   136.143E-03,   34.5856E-06
C:/temp/dataset/6/24_18.odb,Step-1,Increment      1: Step Time =    1.000,"PART-1-1",            22,           -5.,          17.5,            0.,NA,NA,"",   226.520E-03,  -181.337E-03,   135.750E-03,   2.77550E-06
C:/temp/dataset/6/24_18.odb,Step-1,Increment      1: Step Time =    1.000,"PART-1-1",            23,           -5.,         23.75,            0.,NA,NA,"",   284.684E-03,  -250.437E-03,   135.375E-03,   227.648E-09
C:/temp/dataset/6/24_18.odb,Step-1,Increment      1: Step Time =    1.000,"PART-1-1",            24,           -5.,           30.,            0.,NA,NA,"",   346.885E-03,  -319.541E-03,   134.993E-03,   2.17504E-09
C:/temp/dataset/6/24_18.odb,Step-1,Increment      1: Step Time =    1.000,"PART-1-1",            25,          -10.,           30.,            0.,NA,NA,"",   329.036E-03,  -319.235E-03,   79.7104E-03,   15.9001E-09
C:/temp/dataset/6/24_18.odb,Step-1,Increment      1: Step Time =    1.000,"PART-1-1",            26,          -15.,           30.,            0.,NA,NA,"",   319.863E-03,  -318.929E-03,   24.4279E-03,   6.25378E-09
C:/temp/dataset/6/24_18.odb,Step-1,Increment      1: Step Time =    1.000,"PART-1-1",            27,          -15.,          22.5,            0.,NA,NA,"",   237.315E-03,  -236.006E-03,   24.8858E-03,   426.025E-09
C:/temp/dataset/6/24_18.odb,Step-1,Increment      1: Step Time =    1.000,"PART-1-1",            28,          -15.,           15.,            0.,NA,NA,"",   155.146E-03,  -153.064E-03,   25.3315E-03,   3.19280E-06
C:/temp/dataset/6/24_18.odb,Step-1,Increment      1: Step Time =    1.000,"PART-1-1",            29,          -15.,           7.5,            0.,NA,NA,"",   74.6467E-03,  -69.9320E-03,   26.1082E-03,   186.294E-06
C:/temp/dataset/6/24_18.odb,Step-1,Increment      1: Step Time =    1.000,"PART-1-1",            30,          -15.,            0.,            0.,NA,NA,"",   32.1851E-03,   9.19976E-03,   30.8422E-03,   1.29791E-03
C:/temp/dataset/6/24_18.odb,Step-1,Increment      1: Step Time =    1.000,"PART-1-1",            31,          -15.,          -7.5,            0.,NA,NA,"",   74.1610E-03,   58.9055E-03,   45.0555E-03,   2.25866E-03
C:/temp/dataset/6/24_18.odb,Step-1,Increment      1: Step Time =    1.000,"PART-1-1",            32,          -15.,          -15.,            0.,NA,NA,"",   73.4025E-03,   53.2732E-03,   50.4964E-03,   970.115E-06
C:/temp/dataset/6/24_18.odb,Step-1,Increment      1: Step Time =    1.000,"PART-1-1",            33,          -15.,         -22.5,            0.,NA,NA,"",   40.7267E-03,   24.6866E-03,   32.3919E-03,   4.09587E-03
C:/temp/dataset/6/24_18.odb,Step-1,Increment      1: Step Time =    1.000,"PART-1-1",            34,           2.5,           -5.,            0.,NA,NA,"",   269.384E-03,   10.1488E-03,   269.193E-03,   24.0409E-03
C:/temp/dataset/6/24_18.odb,Step-1,Increment      1: Step Time =    1.000,"PART-1-1",            35,            5.,      -7.51250,            0.,NA,NA,"",   145.250E-03,  -27.3766E-03,   142.647E-03,   15.1960E-03
C:/temp/dataset/6/24_18.odb,Step-1,Increment      1: Step Time =    1.000,"PART-1-1",            36,            5.,      -12.5375,            0.,NA,NA,"",   97.2834E-03,  -35.8684E-03,   90.4296E-03,   10.3962E-03
C:/temp/dataset/6/24_18.odb,Step-1,Increment      1: Step Time =    1.000,"PART-1-1",            37,            5.,      -17.5250,            0.,NA,NA,"",   55.8919E-03,  -27.1906E-03,   48.8321E-03,   8.58190E-03
C:/temp/dataset/6/24_18.odb,Step-1,Increment      1: Step Time =    1.000,"PART-1-1",            38,           2.5,          -20.,            0.,NA,NA,"",   12.7812E-03,  -9.02944E-03,   9.04593E-03,   4.04567E-03
C:/temp/dataset/6/24_18.odb,Step-1,Increment      1: Step Time =    1.000,"PART-1-1",            39,          -2.5,          -20.,            0.,NA,NA,"",   7.42895E-03,   5.97393E-03,   4.41604E-03,   3.31439E-03
C:/temp/dataset/6/24_18.odb,Step-1,Increment      1: Step Time =    1.000,"PART-1-1",            40,           -5.,      -17.4875,            0.,NA,NA,"",   36.7998E-03,   28.7850E-03,   22.9270E-03,   4.70989E-03
C:/temp/dataset/6/24_18.odb,Step-1,Increment      1: Step Time =    1.000,"PART-1-1",            41,           -5.,      -12.4625,            0.,NA,NA,"",   66.7657E-03,   45.6148E-03,   48.7540E-03,   6.81568E-03
C:/temp/dataset/6/24_18.odb,Step-1,Increment      1: Step Time =    1.000,"PART-1-1",            42,           -5.,      -7.47500,            0.,NA,NA,"",   97.2702E-03,   48.9147E-03,   84.0764E-03,   9.84966E-03
C:/temp/dataset/6/24_18.odb,Step-1,Increment      1: Step Time =    1.000,"PART-1-1",            43,          -2.5,           -5.,            0.,NA,NA,"",   183.355E-03,   48.4972E-03,   176.825E-03,   4.58565E-03
C:/temp/dataset/6/24_18.odb,Step-1,Increment      1: Step Time =    1.000,"PART-1-1",            44,          12.5,          -30.,            0.,NA,NA,"",            0.,  -4.12916E-39,   9.82129E-39,   4.54746E-03
C:/temp/dataset/6/24_18.odb,Step-1,Increment      1: Step Time =    1.000,"PART-1-1",            45,           10.,          -30.,            0.,NA,NA,"",            0.,   1.20696E-39,   6.71689E-39,   3.95995E-03
C:/temp/dataset/6/24_18.odb,Step-1,Increment      1: Step Time =    1.000,"PART-1-1",            46,           7.5,          -30.,            0.,NA,NA,"",            0.,   1.49057E-39,   5.51411E-39,   2.98636E-03
C:/temp/dataset/6/24_18.odb,Step-1,Increment      1: Step Time =    1.000,"PART-1-1",            47,            5.,          -30.,            0.,NA,NA,"",            0.,   241.501E-42,   3.78918E-39,   2.18338E-03
C:/temp/dataset/6/24_18.odb,Step-1,Increment      1: Step Time =    1.000,"PART-1-1",            48,           2.5,          -30.,            0.,NA,NA,"",            0.,   410.791E-42,   1.90327E-39,   1.41338E-03
C:/temp/dataset/6/24_18.odb,Step-1,Increment      1: Step Time =    1.000,"PART-1-1",            49,            0.,          -30.,            0.,NA,NA,"",            0.,   865.047E-42,   1.24637E-39,   757.975E-06
C:/temp/dataset/6/24_18.odb,Step-1,Increment      1: Step Time =    1.000,"PART-1-1",            50,          -2.5,          -30.,            0.,NA,NA,"",            0.,  -275.438E-42,   1.01848E-39,   533.053E-06
C:/temp/dataset/6/24_18.odb,Step-1,Increment      1: Step Time =    1.000,"PART-1-1",            51,           -5.,          -30.,            0.,NA,NA,"",            0.,  -752.308E-42,   1.99121E-39,   978.032E-06
C:/temp/dataset/6/24_18.odb,Step-1,Increment      1: Step Time =    1.000,"PART-1-1",            52,          -7.5,          -30.,            0.,NA,NA,"",            0.,  -981.310E-42,   3.33594E-39,   1.62367E-03
C:/temp/dataset/6/24_18.odb,Step-1,Increment      1: Step Time =    1.000,"PART-1-1",            53,          -10.,          -30.,            0.,NA,NA,"",            0.,   1.56160E-39,   4.56825E-39,   2.41388E-03
C:/temp/dataset/6/24_18.odb,Step-1,Increment      1: Step Time =    1.000,"PART-1-1",            54,         -12.5,          -30.,            0.,NA,NA,"",            0.,   1.20111E-39,   5.60111E-39,   3.04924E-03
C:/temp/dataset/6/24_18.odb,Step-1,Increment      1: Step Time =    1.000,"PART-1-1",            55,           15.,      -23.4375,            0.,NA,NA,"",   50.3746E-03,  -29.7672E-03,   40.6388E-03,   5.80566E-03
C:/temp/dataset/6/24_18.odb,Step-1,Increment      1: Step Time =    1.000,"PART-1-1",            56,           15.,       -25.625,            0.,NA,NA,"",   36.1635E-03,  -21.8788E-03,   28.7944E-03,   6.15396E-03
C:/temp/dataset/6/24_18.odb,Step-1,Increment      1: Step Time =    1.000,"PART-1-1",            57,           15.,      -27.8125,            0.,NA,NA,"",   21.4143E-03,  -13.7429E-03,   16.4227E-03,   7.41017E-03
C:/temp/dataset/6/24_18.odb,Step-1,Increment      1: Step Time =    1.000,"PART-1-1",            58,           15.,      -14.6875,            0.,NA,NA,"",   92.9104E-03,  -58.7614E-03,   71.9683E-03,   1.95526E-03
C:/temp/dataset/6/24_18.odb,Step-1,Increment      1: Step Time =    1.000,"PART-1-1",            59,           15.,       -16.875,            0.,NA,NA,"",   86.0372E-03,  -53.7813E-03,   67.1564E-03,   2.97673E-03
C:/temp/dataset/6/24_18.odb,Step-1,Increment      1: Step Time =    1.000,"PART-1-1",            60,           15.,      -19.0625,            0.,NA,NA,"",   76.1315E-03,  -46.4957E-03,   60.2840E-03,   4.04860E-03
C:/temp/dataset/6/24_18.odb,Step-1,Increment      1: Step Time =    1.000,"PART-1-1",            61,           15.,       -5.9375,            0.,NA,NA,"",   84.5617E-03,  -36.8903E-03,   76.0907E-03,   183.610E-06
C:/temp/dataset/6/24_18.odb,Step-1,Increment      1: Step Time =    1.000,"PART-1-1",            62,           15.,        -8.125,            0.,NA,NA,"",   91.0318E-03,  -49.8846E-03,   76.1467E-03,   69.2223E-06
C:/temp/dataset/6/24_18.odb,Step-1,Increment      1: Step Time =    1.000,"PART-1-1",            63,           15.,      -10.3125,            0.,NA,NA,"",   95.4636E-03,  -57.6867E-03,   76.0628E-03,   280.978E-06
C:/temp/dataset/6/24_18.odb,Step-1,Increment      1: Step Time =    1.000,"PART-1-1",            64,           15.,        2.8125,            0.,NA,NA,"",   89.2864E-03,   39.3664E-03,   80.1396E-03,   93.1864E-06
C:/temp/dataset/6/24_18.odb,Step-1,Increment      1: Step Time =    1.000,"PART-1-1",            65,           15.,      625.E-03,            0.,NA,NA,"",   82.0611E-03,   18.7582E-03,   79.8884E-03,   462.586E-06
C:/temp/dataset/6/24_18.odb,Step-1,Increment      1: Step Time =    1.000,"PART-1-1",            66,           15.,       -1.5625,            0.,NA,NA,"",   78.5068E-03,  -910.910E-06,   78.5015E-03,   860.164E-06
C:/temp/dataset/6/24_18.odb,Step-1,Increment      1: Step Time =    1.000,"PART-1-1",            67,          12.5,            5.,            0.,NA,NA,"",   122.261E-03,   61.5349E-03,   105.647E-03,   72.9461E-06
C:/temp/dataset/6/24_18.odb,Step-1,Increment      1: Step Time =    1.000,"PART-1-1",            68,           7.5,            5.,            0.,NA,NA,"",   172.492E-03,   54.5636E-03,   163.635E-03,   4.52322E-03
C:/temp/dataset/6/24_18.odb,Step-1,Increment      1: Step Time =    1.000,"PART-1-1",            69,           2.5,            5.,            0.,NA,NA,"",   203.946E-03,   15.6495E-03,   203.345E-03,   11.4811E-03
C:/temp/dataset/6/24_18.odb,Step-1,Increment      1: Step Time =    1.000,"PART-1-1",            70,          -2.5,            5.,            0.,NA,NA,"",   175.587E-03,  -31.3763E-03,   172.761E-03,   7.01299E-03
C:/temp/dataset/6/24_18.odb,Step-1,Increment      1: Step Time =    1.000,"PART-1-1",            71,           -5.,       9.16667,            0.,NA,NA,"",   163.112E-03,  -89.3982E-03,   136.431E-03,   134.970E-06
C:/temp/dataset/6/24_18.odb,Step-1,Increment      1: Step Time =    1.000,"PART-1-1",            72,           -5.,       7.08333,            0.,NA,NA,"",   152.206E-03,  -66.3903E-03,   136.964E-03,   547.552E-06
C:/temp/dataset/6/24_18.odb,Step-1,Increment      1: Step Time =    1.000,"PART-1-1",            73,           -5.,       15.4167,            0.,NA,NA,"",   208.625E-03,  -158.314E-03,   135.871E-03,   3.07613E-06
C:/temp/dataset/6/24_18.odb,Step-1,Increment      1: Step Time =    1.000,"PART-1-1",            74,           -5.,       13.3333,            0.,NA,NA,"",   191.843E-03,  -135.309E-03,   135.997E-03,   4.13039E-06
C:/temp/dataset/6/24_18.odb,Step-1,Increment      1: Step Time =    1.000,"PART-1-1",            75,           -5.,       21.6667,            0.,NA,NA,"",   264.712E-03,  -227.402E-03,   135.502E-03,   590.394E-09
C:/temp/dataset/6/24_18.odb,Step-1,Increment      1: Step Time =    1.000,"PART-1-1",            76,           -5.,       19.5833,            0.,NA,NA,"",   245.278E-03,  -204.368E-03,   135.627E-03,   1.42212E-06
C:/temp/dataset/6/24_18.odb,Step-1,Increment      1: Step Time =    1.000,"PART-1-1",            77,           -5.,       27.9167,            0.,NA,NA,"",   325.842E-03,  -296.506E-03,   135.120E-03,   5.13624E-09
C:/temp/dataset/6/24_18.odb,Step-1,Increment      1: Step Time =    1.000,"PART-1-1",            78,           -5.,       25.8333,            0.,NA,NA,"",   305.088E-03,  -273.472E-03,   135.248E-03,   52.6536E-09
C:/temp/dataset/6/24_18.odb,Step-1,Increment      1: Step Time =    1.000,"PART-1-1",            79,          -7.5,           30.,            0.,NA,NA,"",   336.946E-03,  -319.388E-03,   107.352E-03,   5.06017E-09
C:/temp/dataset/6/24_18.odb,Step-1,Increment      1: Step Time =    1.000,"PART-1-1",            80,         -12.5,           30.,            0.,NA,NA,"",   323.303E-03,  -319.082E-03,   52.0692E-03,   8.13095E-09
C:/temp/dataset/6/24_18.odb,Step-1,Increment      1: Step Time =    1.000,"PART-1-1",            81,          -15.,           25.,            0.,NA,NA,"",   264.805E-03,  -263.647E-03,   24.7335E-03,   119.037E-09
C:/temp/dataset/6/24_18.odb,Step-1,Increment      1: Step Time =    1.000,"PART-1-1",            82,          -15.,          27.5,            0.,NA,NA,"",   292.323E-03,  -291.288E-03,   24.5808E-03,   11.3228E-09
C:/temp/dataset/6/24_18.odb,Step-1,Increment      1: Step Time =    1.000,"PART-1-1",            83,          -15.,          17.5,            0.,NA,NA,"",   182.466E-03,  -180.720E-03,   25.1854E-03,   2.84352E-06
C:/temp/dataset/6/24_18.odb,Step-1,Increment      1: Step Time =    1.000,"PART-1-1",            84,          -15.,           20.,            0.,NA,NA,"",   209.863E-03,  -208.365E-03,   25.0369E-03,   1.27771E-06
C:/temp/dataset/6/24_18.odb,Step-1,Increment      1: Step Time =    1.000,"PART-1-1",            85,          -15.,           10.,            0.,NA,NA,"",   100.978E-03,  -97.6522E-03,   25.7009E-03,   56.0408E-06
C:/temp/dataset/6/24_18.odb,Step-1,Increment      1: Step Time =    1.000,"PART-1-1",            86,          -15.,          12.5,            0.,NA,NA,"",   127.944E-03,  -125.380E-03,   25.4863E-03,   6.87472E-06
C:/temp/dataset/6/24_18.odb,Step-1,Increment      1: Step Time =    1.000,"PART-1-1",            87,          -15.,           2.5,            0.,NA,NA,"",   32.5217E-03,  -15.8101E-03,   28.4201E-03,   797.604E-06
C:/temp/dataset/6/24_18.odb,Step-1,Increment      1: Step Time =    1.000,"PART-1-1",            88,          -15.,            5.,            0.,NA,NA,"",   50.2875E-03,  -42.4657E-03,   26.9351E-03,   435.905E-06
C:/temp/dataset/6/24_18.odb,Step-1,Increment      1: Step Time =    1.000,"PART-1-1",            89,          -15.,           -5.,            0.,NA,NA,"",   62.5714E-03,   48.4195E-03,   39.6325E-03,   2.37916E-03
C:/temp/dataset/6/24_18.odb,Step-1,Increment      1: Step Time =    1.000,"PART-1-1",            90,          -15.,          -2.5,            0.,NA,NA,"",   46.6115E-03,   31.2800E-03,   34.5571E-03,   1.95403E-03
C:/temp/dataset/6/24_18.odb,Step-1,Increment      1: Step Time =    1.000,"PART-1-1",            91,          -15.,         -12.5,            0.,NA,NA,"",   78.8489E-03,   59.9257E-03,   51.2451E-03,   298.710E-06
C:/temp/dataset/6/24_18.odb,Step-1,Increment      1: Step Time =    1.000,"PART-1-1",            92,          -15.,          -10.,            0.,NA,NA,"",   79.4512E-03,   62.3295E-03,   49.2698E-03,   1.40282E-03
C:/temp/dataset/6/24_18.odb,Step-1,Increment      1: Step Time =    1.000,"PART-1-1",            93,          -15.,          -20.,            0.,NA,NA,"",   53.0894E-03,   34.0265E-03,   40.7515E-03,   3.28995E-03
C:/temp/dataset/6/24_18.odb,Step-1,Increment      1: Step Time =    1.000,"PART-1-1",            94,          -15.,         -17.5,            0.,NA,NA,"",   64.3995E-03,   44.0719E-03,   46.9570E-03,   2.20230E-03
C:/temp/dataset/6/24_18.odb,Step-1,Increment      1: Step Time =    1.000,"PART-1-1",            95,          -15.,         -27.5,            0.,NA,NA,"",   16.0930E-03,   9.98107E-03,   12.6240E-03,   5.04958E-03
C:/temp/dataset/6/24_18.odb,Step-1,Increment      1: Step Time =    1.000,"PART-1-1",            96,          -15.,          -25.,            0.,NA,NA,"",   28.2978E-03,   16.8209E-03,   22.7557E-03,   4.38767E-03
C:/temp/dataset/6/24_18.odb,Step-1,Increment      1: Step Time =    1.000,"PART-1-1",            97,       13.0047,      -3.80353,            0.,NA,NA,"",   94.9730E-03,  -19.0883E-03,   93.0350E-03,   1.90066E-03
C:/temp/dataset/6/24_18.odb,Step-1,Increment      1: Step Time =    1.000,"PART-1-1",            98,       6.97971,      -7.55833,            0.,NA,NA,"",   133.480E-03,  -36.3993E-03,   128.421E-03,   10.4271E-03
C:/temp/dataset/6/24_18.odb,Step-1,Increment      1: Step Time =    1.000,"PART-1-1",            99,       6.96639,      -10.0829,            0.,NA,NA,"",   116.978E-03,  -42.9030E-03,   108.827E-03,   9.65304E-03
C:/temp/dataset/6/24_18.odb,Step-1,Increment      1: Step Time =    1.000,"PART-1-1",           100,       12.9900,      -12.5465,            0.,NA,NA,"",   96.4703E-03,  -58.6445E-03,   76.5985E-03,   3.11155E-03
C:/temp/dataset/6/24_18.odb,Step-1,Increment      1: Step Time =    1.000,"PART-1-1",           101,       6.90028,      -17.1420,            0.,NA,NA,"",   66.2848E-03,  -34.8692E-03,   56.3721E-03,   7.37821E-03
C:/temp/dataset/6/24_18.odb,Step-1,Increment      1: Step Time =    1.000,"PART-1-1",           102,       7.03871,      -19.0570,            0.,NA,NA,"",   52.7536E-03,  -27.8185E-03,   44.8227E-03,   6.33595E-03
C:/temp/dataset/6/24_18.odb,Step-1,Increment      1: Step Time =    1.000,"PART-1-1",           103,       5.31709,      -21.2647,            0.,NA,NA,"",   25.9486E-03,  -10.4698E-03,   23.7427E-03,   6.12720E-03
C:/temp/dataset/6/24_18.odb,Step-1,Increment      1: Step Time =    1.000,"PART-1-1",           104,      -4.83361,      -22.6144,            0.,NA,NA,"",   8.81368E-03,   5.55806E-03,   6.84025E-03,   1.98335E-03
C:/temp/dataset/6/24_18.odb,Step-1,Increment      1: Step Time =    1.000,"PART-1-1",           105,      -7.46484,      -17.6587,            0.,NA,NA,"",   44.8917E-03,   32.8712E-03,   30.5736E-03,   4.04281E-03
C:/temp/dataset/6/24_18.odb,Step-1,Increment      1: Step Time =    1.000,"PART-1-1",           106,      -12.5283,      -27.3245,            0.,NA,NA,"",   10.6258E-03,   6.20087E-03,   8.62885E-03,   4.21074E-03
C:/temp/dataset/6/24_18.odb,Step-1,Increment      1: Step Time =    1.000,"PART-1-1",           107,      -12.4870,      -17.6221,            0.,NA,NA,"",   56.7280E-03,   40.7567E-03,   39.4583E-03,   3.15288E-03
C:/temp/dataset/6/24_18.odb,Step-1,Increment      1: Step Time =    1.000,"PART-1-1",           108,      -7.32043,      -12.6401,            0.,NA,NA,"",   71.9756E-03,   51.3800E-03,   50.4041E-03,   5.34735E-03
C:/temp/dataset/6/24_18.odb,Step-1,Increment      1: Step Time =    1.000,"PART-1-1",           109,      -7.14644,      -8.03697,            0.,NA,NA,"",   92.5602E-03,   55.6677E-03,   73.9493E-03,   7.28948E-03
C:/temp/dataset/6/24_18.odb,Step-1,Increment      1: Step Time =    1.000,"PART-1-1",           110,      -12.6601,       4.88622,            0.,NA,NA,"",   66.2091E-03,  -41.1256E-03,   51.8876E-03,   297.833E-06
C:/temp/dataset/6/24_18.odb,Step-1,Increment      1: Step Time =    1.000,"PART-1-1",           111,      -13.0978,       12.5399,            0.,NA,NA,"",   134.255E-03,  -125.934E-03,   46.5298E-03,   23.9387E-06
C:/temp/dataset/6/24_18.odb,Step-1,Increment      1: Step Time =    1.000,"PART-1-1",           112,      -6.45576,       21.8628,            0.,NA,NA,"",   258.683E-03,  -229.482E-03,   119.394E-03,   579.948E-09
C:/temp/dataset/6/24_18.odb,Step-1,Increment      1: Step Time =    1.000,"PART-1-1",           113,      -7.28884,       25.7044,            0.,NA,NA,"",   293.294E-03,  -271.906E-03,   109.949E-03,   130.751E-09
C:/temp/dataset/6/24_18.odb,Step-1,Increment      1: Step Time =    1.000,"PART-1-1",           114,      -9.90518,       27.6474,            0.,NA,NA,"",   304.185E-03,  -293.229E-03,   80.9027E-03,   55.3458E-09
C:/temp/dataset/6/24_18.odb,Step-1,Increment      1: Step Time =    1.000,"PART-1-1",           115,      -3.01211,      -3.13168,            0.,NA,NA,"",   170.573E-03,   20.5014E-03,   169.336E-03,   8.03693E-03
C:/temp/dataset/6/24_18.odb,Step-1,Increment      1: Step Time =    1.000,"PART-1-1",           116,      -2.19169,       3.00836,            0.,NA,NA,"",   182.305E-03,  -12.7094E-03,   181.861E-03,   6.66389E-03
C:/temp/dataset/6/24_18.odb,Step-1,Increment      1: Step Time =    1.000,"PART-1-1",           117,       1.85193,      -2.77696,            0.,NA,NA,"",   251.572E-03,   13.3432E-03,   251.218E-03,   14.5142E-03
C:/temp/dataset/6/24_18.odb,Step-1,Increment      1: Step Time =    1.000,"PART-1-1",           118,       2.83229,       2.22691,            0.,NA,NA,"",   214.860E-03,   15.8968E-03,   214.271E-03,   6.69108E-03
C:/temp/dataset/6/24_18.odb,Step-1,Increment      1: Step Time =    1.000,"PART-1-1",           119,       7.74921,       3.07964,            0.,NA,NA,"",   167.907E-03,   38.0043E-03,   163.549E-03,   4.84005E-03
C:/temp/dataset/6/24_18.odb,Step-1,Increment      1: Step Time =    1.000,"PART-1-1",           120,      -2.47342,      -22.6017,            0.,NA,NA,"",   3.46844E-03,   2.91416E-03,   1.88089E-03,   875.109E-06
C:/temp/dataset/6/24_18.odb,Step-1,Increment      1: Step Time =    1.000,"PART-1-1",           121,      -7.48266,       20.3798,            0.,NA,NA,"",   238.895E-03,  -213.022E-03,   108.132E-03,   916.020E-09
C:/temp/dataset/6/24_18.odb,Step-1,Increment      1: Step Time =    1.000,"PART-1-1",           122,      -7.10993,       13.1351,            0.,NA,NA,"",   174.320E-03,  -132.993E-03,   112.695E-03,   20.2087E-06
C:/temp/dataset/6/24_18.odb,Step-1,Increment      1: Step Time =    1.000,"PART-1-1",           123,      -6.64156,       6.82435,            0.,NA,NA,"",   134.286E-03,  -63.6131E-03,   118.263E-03,   427.170E-06
C:/temp/dataset/6/24_18.odb,Step-1,Increment      1: Step Time =    1.000,"PART-1-1",           124,      -12.9641,      -2.37512,            0.,NA,NA,"",   58.9899E-03,   31.2371E-03,   50.0405E-03,   630.370E-06
C:/temp/dataset/6/24_18.odb,Step-1,Increment      1: Step Time =    1.000,"PART-1-1",           125,      -12.1317,      -9.84573,            0.,NA,NA,"",   81.8309E-03,   62.5531E-03,   52.7580E-03,   1.94633E-03
C:/temp/dataset/6/24_18.odb,Step-1,Increment      1: Step Time =    1.000,"PART-1-1",           126,       4.04132,      -2.67712,            0.,NA,NA,"",   228.398E-03,   19.4614E-03,   227.567E-03,   16.0537E-03
C:/temp/dataset/6/24_18.odb,Step-1,Increment      1: Step Time =    1.000,"PART-1-1",           127,       6.95362,      -12.5367,            0.,NA,NA,"",   99.3180E-03,  -44.0429E-03,   89.0185E-03,   8.57542E-03
C:/temp/dataset/6/24_18.odb,Step-1,Increment      1: Step Time =    1.000,"PART-1-1",           128,       6.92458,      -14.9216,            0.,NA,NA,"",   82.3526E-03,  -40.8863E-03,   71.4860E-03,   8.04510E-03
C:/temp/dataset/6/24_18.odb,Step-1,Increment      1: Step Time =    1.000,"PART-1-1",           129,       12.9089,      -21.3671,            0.,NA,NA,"",   55.1669E-03,  -32.7871E-03,   44.3666E-03,   5.38104E-03
C:/temp/dataset/6/24_18.odb,Step-1,Increment      1: Step Time =    1.000,"PART-1-1",           130,   283.131E-03,      -22.8786,            0.,NA,NA,"",   1.68256E-03,   655.029E-06,   1.54982E-03,   787.051E-06
C:/temp/dataset/6/24_18.odb,Step-1,Increment      1: Step Time =    1.000,"PART-1-1",           131,      -12.9776,      -22.4214,            0.,NA,NA,"",   34.2196E-03,   21.4063E-03,   26.6975E-03,   3.77319E-03
C:/temp/dataset/6/24_18.odb,Step-1,Increment      1: Step Time =    1.000,"PART-1-1",           132,      -7.42030,      -15.1083,            0.,NA,NA,"",   59.1747E-03,   43.7040E-03,   39.8949E-03,   4.70070E-03
C:/temp/dataset/6/24_18.odb,Step-1,Increment      1: Step Time =    1.000,"PART-1-1",           133,      -7.18486,      -10.2642,            0.,NA,NA,"",   83.3972E-03,   55.3781E-03,   62.3567E-03,   6.19104E-03
C:/temp/dataset/6/24_18.odb,Step-1,Increment      1: Step Time =    1.000,"PART-1-1",           134,      -7.33974,      -5.93881,            0.,NA,NA,"",   98.9693E-03,   52.2391E-03,   84.0595E-03,   4.88254E-03
C:/temp/dataset/6/24_18.odb,Step-1,Increment      1: Step Time =    1.000,"PART-1-1",           135,  -533.729E-03,      -2.94296,            0.,NA,NA,"",   221.198E-03,   12.2186E-03,   220.861E-03,   12.2753E-03
C:/temp/dataset/6/24_18.odb,Step-1,Increment      1: Step Time =    1.000,"PART-1-1",           136,       10.2172,      -28.0250,            0.,NA,NA,"",   7.65351E-03,  -3.00277E-03,   7.03986E-03,   4.70681E-03
C:/temp/dataset/6/24_18.odb,Step-1,Increment      1: Step Time =    1.000,"PART-1-1",           137,       7.82196,      -28.0777,            0.,NA,NA,"",   5.30264E-03,  -429.839E-06,   5.28519E-03,   3.54266E-03
C:/temp/dataset/6/24_18.odb,Step-1,Increment      1: Step Time =    1.000,"PART-1-1",           138,       5.43540,      -28.0544,            0.,NA,NA,"",   3.81138E-03,   1.24618E-03,   3.60190E-03,   2.40077E-03
C:/temp/dataset/6/24_18.odb,Step-1,Increment      1: Step Time =    1.000,"PART-1-1",           139,       2.98405,      -27.8165,            0.,NA,NA,"",   2.78446E-03,   1.88740E-03,   2.04718E-03,   1.34224E-03
C:/temp/dataset/6/24_18.odb,Step-1,Increment      1: Step Time =    1.000,"PART-1-1",           140,   324.250E-03,      -27.0908,            0.,NA,NA,"",   1.75784E-03,   1.57377E-03,   783.105E-06,   697.785E-06
C:/temp/dataset/6/24_18.odb,Step-1,Increment      1: Step Time =    1.000,"PART-1-1",           141,      -2.46293,      -27.5198,            0.,NA,NA,"",   852.327E-06,   531.087E-06,   666.639E-06,   525.994E-06
C:/temp/dataset/6/24_18.odb,Step-1,Increment      1: Step Time =    1.000,"PART-1-1",           142,      -4.88996,      -27.5861,            0.,NA,NA,"",   1.73945E-03,   179.073E-06,   1.73021E-03,   906.105E-06
C:/temp/dataset/6/24_18.odb,Step-1,Increment      1: Step Time =    1.000,"PART-1-1",           143,      -7.26500,      -27.4866,            0.,NA,NA,"",   3.55025E-03,   849.424E-06,   3.44714E-03,   1.77084E-03
C:/temp/dataset/6/24_18.odb,Step-1,Increment      1: Step Time =    1.000,"PART-1-1",           144,      -9.86695,      -26.8928,            0.,NA,NA,"",   7.73189E-03,   3.59882E-03,   6.84329E-03,   2.97147E-03
C:/temp/dataset/6/24_18.odb,Step-1,Increment      1: Step Time =    1.000,"PART-1-1",           145,       12.7710,      -23.5898,            0.,NA,NA,"",   40.5194E-03,  -23.3889E-03,   33.0875E-03,   5.78313E-03
C:/temp/dataset/6/24_18.odb,Step-1,Increment      1: Step Time =    1.000,"PART-1-1",           146,       12.6989,      -25.7990,            0.,NA,NA,"",   25.8899E-03,  -14.9773E-03,   21.1180E-03,   6.23367E-03
C:/temp/dataset/6/24_18.odb,Step-1,Increment      1: Step Time =    1.000,"PART-1-1",           147,       12.6207,      -27.9366,            0.,NA,NA,"",   12.3413E-03,  -7.36738E-03,   9.90095E-03,   6.35027E-03
C:/temp/dataset/6/24_18.odb,Step-1,Increment      1: Step Time =    1.000,"PART-1-1",           148,       12.9983,      -14.8223,            0.,NA,NA,"",   89.7742E-03,  -56.0972E-03,   70.0893E-03,   3.69381E-03
C:/temp/dataset/6/24_18.odb,Step-1,Increment      1: Step Time =    1.000,"PART-1-1",           149,       13.0558,      -17.0719,            0.,NA,NA,"",   80.1730E-03,  -50.1145E-03,   62.5799E-03,   4.25127E-03
C:/temp/dataset/6/24_18.odb,Step-1,Increment      1: Step Time =    1.000,"PART-1-1",           150,       13.1682,      -19.2108,            0.,NA,NA,"",   69.0509E-03,  -42.3685E-03,   54.5246E-03,   4.77130E-03
C:/temp/dataset/6/24_18.odb,Step-1,Increment      1: Step Time =    1.000,"PART-1-1",           151,       13.0670,      -5.94273,            0.,NA,NA,"",   96.1621E-03,  -36.0665E-03,   89.1423E-03,   1.81857E-03
C:/temp/dataset/6/24_18.odb,Step-1,Increment      1: Step Time =    1.000,"PART-1-1",           152,       13.0350,      -8.09399,            0.,NA,NA,"",   98.8548E-03,  -48.9516E-03,   85.8837E-03,   1.94605E-03
C:/temp/dataset/6/24_18.odb,Step-1,Increment      1: Step Time =    1.000,"PART-1-1",           153,       12.9982,      -10.2981,            0.,NA,NA,"",   99.4806E-03,  -56.5128E-03,   81.8700E-03,   2.49605E-03
C:/temp/dataset/6/24_18.odb,Step-1,Increment      1: Step Time =    1.000,"PART-1-1",           154,       12.5107,   556.281E-03,            0.,NA,NA,"",   106.074E-03,   19.2074E-03,   104.320E-03,   1.66845E-03
C:/temp/dataset/6/24_18.odb,Step-1,Increment      1: Step Time =    1.000,"PART-1-1",           155,       12.7702,      -1.64554,            0.,NA,NA,"",   98.6791E-03,  -101.656E-06,   98.6790E-03,   1.85116E-03
C:/temp/dataset/6/24_18.odb,Step-1,Increment      1: Step Time =    1.000,"PART-1-1",           156,       10.0517,       2.85834,            0.,NA,NA,"",   139.750E-03,   39.2313E-03,   134.130E-03,   2.79109E-03
C:/temp/dataset/6/24_18.odb,Step-1,Increment      1: Step Time =    1.000,"PART-1-1",           157,       5.39286,       2.85476,            0.,NA,NA,"",   194.979E-03,   29.5671E-03,   192.724E-03,   6.78437E-03
C:/temp/dataset/6/24_18.odb,Step-1,Increment      1: Step Time =    1.000,"PART-1-1",           158,   175.602E-03,       2.90951,            0.,NA,NA,"",   206.564E-03,  -494.252E-06,   206.563E-03,   7.25529E-03
C:/temp/dataset/6/24_18.odb,Step-1,Increment      1: Step Time =    1.000,"PART-1-1",           159,      -4.35394,       2.91920,            0.,NA,NA,"",   152.356E-03,  -18.3157E-03,   151.251E-03,   5.30799E-03
C:/temp/dataset/6/24_18.odb,Step-1,Increment      1: Step Time =    1.000,"PART-1-1",           160,      -7.05997,       10.9599,            0.,NA,NA,"",   157.291E-03,  -109.032E-03,   113.369E-03,   68.9595E-06
C:/temp/dataset/6/24_18.odb,Step-1,Increment      1: Step Time =    1.000,"PART-1-1",           161,      -6.93805,       8.84105,            0.,NA,NA,"",   143.338E-03,  -85.7562E-03,   114.855E-03,   175.044E-06
C:/temp/dataset/6/24_18.odb,Step-1,Increment      1: Step Time =    1.000,"PART-1-1",           162,      -7.28921,       17.6445,            0.,NA,NA,"",   213.565E-03,  -182.794E-03,   110.438E-03,   928.452E-09
C:/temp/dataset/6/24_18.odb,Step-1,Increment      1: Step Time =    1.000,"PART-1-1",           163,      -7.17735,       15.3234,            0.,NA,NA,"",   192.869E-03,  -157.149E-03,   111.816E-03,   3.94280E-06
C:/temp/dataset/6/24_18.odb,Step-1,Increment      1: Step Time =    1.000,"PART-1-1",           164,      -6.93557,       23.5874,            0.,NA,NA,"",   273.413E-03,  -248.520E-03,   113.984E-03,   315.053E-09
C:/temp/dataset/6/24_18.odb,Step-1,Increment      1: Step Time =    1.000,"PART-1-1",           165,      -13.1925,       19.7530,            0.,NA,NA,"",   210.617E-03,  -205.745E-03,   45.0379E-03,   974.330E-09
C:/temp/dataset/6/24_18.odb,Step-1,Increment      1: Step Time =    1.000,"PART-1-1",           166,      -7.44963,       27.8335,            0.,NA,NA,"",   314.572E-03,  -295.437E-03,   108.041E-03,   37.9404E-09
C:/temp/dataset/6/24_18.odb,Step-1,Increment      1: Step Time =    1.000,"PART-1-1",           167,      -13.0424,       22.0734,            0.,NA,NA,"",   236.046E-03,  -231.409E-03,   46.5560E-03,   530.023E-09
C:/temp/dataset/6/24_18.odb,Step-1,Increment      1: Step Time =    1.000,"PART-1-1",           168,      -13.1316,       14.9813,            0.,NA,NA,"",   159.739E-03,  -152.972E-03,   46.0033E-03,   4.21891E-06
C:/temp/dataset/6/24_18.odb,Step-1,Increment      1: Step Time =    1.000,"PART-1-1",           169,      -13.1727,       17.3972,            0.,NA,NA,"",   185.342E-03,  -179.695E-03,   45.4007E-03,   840.046E-09
C:/temp/dataset/6/24_18.odb,Step-1,Increment      1: Step Time =    1.000,"PART-1-1",           170,      -12.8574,       7.53984,            0.,NA,NA,"",   86.0799E-03,  -70.4047E-03,   49.5270E-03,   185.430E-06
C:/temp/dataset/6/24_18.odb,Step-1,Increment      1: Step Time =    1.000,"PART-1-1",           171,      -13.0166,       10.0884,            0.,NA,NA,"",   109.598E-03,  -98.7273E-03,   47.5878E-03,   79.7931E-06
C:/temp/dataset/6/24_18.odb,Step-1,Increment      1: Step Time =    1.000,"PART-1-1",           172,      -12.8045,  -118.323E-03,            0.,NA,NA,"",   52.1135E-03,   10.9184E-03,   50.9569E-03,   566.768E-06
C:/temp/dataset/6/24_18.odb,Step-1,Increment      1: Step Time =    1.000,"PART-1-1",           173,      -12.7039,       2.28772,            0.,NA,NA,"",   53.3770E-03,  -13.2983E-03,   51.6939E-03,   397.545E-06
C:/temp/dataset/6/24_18.odb,Step-1,Increment      1: Step Time =    1.000,"PART-1-1",           174,      -12.8488,      -7.31355,            0.,NA,NA,"",   79.0037E-03,   59.5082E-03,   51.9651E-03,   683.525E-06
C:/temp/dataset/6/24_18.odb,Step-1,Increment      1: Step Time =    1.000,"PART-1-1",           175,      -12.6051,      -4.81291,            0.,NA,NA,"",   71.9365E-03,   48.7154E-03,   52.9307E-03,   241.169E-06
C:/temp/dataset/6/24_18.odb,Step-1,Increment      1: Step Time =    1.000,"PART-1-1",           176,      -12.4260,      -15.0682,            0.,NA,NA,"",   68.1342E-03,   51.2324E-03,   44.9168E-03,   2.73689E-03
C:/temp/dataset/6/24_18.odb,Step-1,Increment      1: Step Time =    1.000,"PART-1-1",           177,      -12.3344,      -12.5112,            0.,NA,NA,"",   76.8906E-03,   59.1019E-03,   49.1848E-03,   2.36192E-03
C:/temp/dataset/6/24_18.odb,Step-1,Increment      1: Step Time =    1.000,"PART-1-1",           178,      -12.6598,      -20.1148,            0.,NA,NA,"",   44.7272E-03,   30.0550E-03,   33.1243E-03,   3.49914E-03
C:/temp/dataset/6/24_18.odb,Step-1,Increment      1: Step Time =    1.000,"PART-1-1",           179,      -8.70618,       22.9331,            0.,NA,NA,"",   259.013E-03,  -241.179E-03,   94.4481E-03,   456.166E-09
C:/temp/dataset/6/24_18.odb,Step-1,Increment      1: Step Time =    1.000,"PART-1-1",           180,      -9.21222,       15.1634,            0.,NA,NA,"",   179.112E-03,  -155.247E-03,   89.3281E-03,   6.95721E-06
C:/temp/dataset/6/24_18.odb,Step-1,Increment      1: Step Time =    1.000,"PART-1-1",           181,      -9.55138,       19.8926,            0.,NA,NA,"",   224.355E-03,  -207.510E-03,   85.2908E-03,   1.01285E-06
C:/temp/dataset/6/24_18.odb,Step-1,Increment      1: Step Time =    1.000,"PART-1-1",           182,      -8.92203,       8.32966,            0.,NA,NA,"",   122.237E-03,  -79.7748E-03,   92.6166E-03,   220.033E-06
C:/temp/dataset/6/24_18.odb,Step-1,Increment      1: Step Time =    1.000,"PART-1-1",           183,      -9.17670,       12.8809,            0.,NA,NA,"",   158.043E-03,  -130.027E-03,   89.8377E-03,   29.6955E-06
C:/temp/dataset/6/24_18.odb,Step-1,Increment      1: Step Time =    1.000,"PART-1-1",           184,      -9.09923,       10.6117,            0.,NA,NA,"",   138.757E-03,  -104.968E-03,   90.7477E-03,   91.8035E-06
C:/temp/dataset/6/24_18.odb,Step-1,Increment      1: Step Time =    1.000,"PART-1-1",           185,      -9.30530,       17.5014,            0.,NA,NA,"",   201.406E-03,  -181.087E-03,   88.1591E-03,   1.23265E-06
C:/temp/dataset/6/24_18.odb,Step-1,Increment      1: Step Time =    1.000,"PART-1-1",           186,      -8.37864,       6.17865,            0.,NA,NA,"",   113.250E-03,  -56.0802E-03,   98.3899E-03,   299.771E-06
C:/temp/dataset/6/24_18.odb,Step-1,Increment      1: Step Time =    1.000,"PART-1-1",           187,       10.9988,      -10.2527,            0.,NA,NA,"",   104.417E-03,  -53.7623E-03,   89.5129E-03,   4.46511E-03
C:/temp/dataset/6/24_18.odb,Step-1,Increment      1: Step Time =    1.000,"PART-1-1",           188,       10.8643,      -17.5211,            0.,NA,NA,"",   73.3265E-03,  -44.0584E-03,   58.6143E-03,   5.48561E-03
C:/temp/dataset/6/24_18.odb,Step-1,Increment      1: Step Time =    1.000,"PART-1-1",           189,       11.0508,      -8.01555,            0.,NA,NA,"",   107.607E-03,  -46.5572E-03,   97.0136E-03,   3.62456E-03
C:/temp/dataset/6/24_18.odb,Step-1,Increment      1: Step Time =    1.000,"PART-1-1",           190,       10.6332,      -2.00908,            0.,NA,NA,"",   119.155E-03,   112.969E-06,   119.155E-03,   3.87351E-03
C:/temp/dataset/6/24_18.odb,Step-1,Increment      1: Step Time =    1.000,"PART-1-1",           191,       11.1668,      -5.92645,            0.,NA,NA,"",   107.921E-03,  -34.0743E-03,   102.401E-03,   3.08235E-03
C:/temp/dataset/6/24_18.odb,Step-1,Increment      1: Step Time =    1.000,"PART-1-1",           192,       10.9732,      -14.9280,            0.,NA,NA,"",   87.5125E-03,  -52.1588E-03,   70.2702E-03,   5.22345E-03
C:/temp/dataset/6/24_18.odb,Step-1,Increment      1: Step Time =    1.000,"PART-1-1",           193,       10.5476,      -23.6927,            0.,NA,NA,"",   32.6487E-03,  -17.0348E-03,   27.8524E-03,   5.89532E-03
C:/temp/dataset/6/24_18.odb,Step-1,Increment      1: Step Time =    1.000,"PART-1-1",           194,       10.5707,      -21.1850,            0.,NA,NA,"",   49.1149E-03,  -27.6230E-03,   40.6109E-03,   5.94477E-03
C:/temp/dataset/6/24_18.odb,Step-1,Increment      1: Step Time =    1.000,"PART-1-1",           195,       10.9760,      -12.5622,            0.,NA,NA,"",   97.6474E-03,  -55.3875E-03,   80.4191E-03,   4.97344E-03
C:/temp/dataset/6/24_18.odb,Step-1,Increment      1: Step Time =    1.000,"PART-1-1",           196,       11.6229,      -19.2502,            0.,NA,NA,"",   64.5772E-03,  -38.8126E-03,   51.6120E-03,   5.37681E-03
C:/temp/dataset/6/24_18.odb,Step-1,Increment      1: Step Time =    1.000,"PART-1-1",           197,       11.1609,      -3.97100,            0.,NA,NA,"",   109.556E-03,  -18.0767E-03,   108.054E-03,   3.35336E-03
C:/temp/dataset/6/24_18.odb,Step-1,Increment      1: Step Time =    1.000,"PART-1-1",           198,      -9.55101,       25.2781,            0.,NA,NA,"",   280.244E-03,  -267.054E-03,   84.9635E-03,   191.890E-09
C:/temp/dataset/6/24_18.odb,Step-1,Increment      1: Step Time =    1.000,"PART-1-1",           199,      -6.13353,       2.97524,            0.,NA,NA,"",   127.511E-03,  -21.0803E-03,   125.757E-03,   3.00399E-03
C:/temp/dataset/6/24_18.odb,Step-1,Increment      1: Step Time =    1.000,"PART-1-1",           200,       8.52809,      -18.5145,            0.,NA,NA,"",   61.5163E-03,  -34.3111E-03,   51.0588E-03,   6.30075E-03
C:/temp/dataset/6/24_18.odb,Step-1,Increment      1: Step Time =    1.000,"PART-1-1",           201,      -9.31256,      -6.57829,            0.,NA,NA,"",   89.5373E-03,   56.4367E-03,   69.5113E-03,   3.36684E-03
C:/temp/dataset/6/24_18.odb,Step-1,Increment      1: Step Time =    1.000,"PART-1-1",           202,      -7.82061,      -4.24854,            0.,NA,NA,"",   96.5536E-03,   43.0088E-03,   86.4456E-03,   3.87343E-03
C:/temp/dataset/6/24_18.odb,Step-1,Increment      1: Step Time =    1.000,"PART-1-1",           203,       7.55002,      -20.4955,            0.,NA,NA,"",   44.2328E-03,  -22.0887E-03,   38.3226E-03,   6.59108E-03
C:/temp/dataset/6/24_18.odb,Step-1,Increment      1: Step Time =    1.000,"PART-1-1",           204,      -9.18944,      -8.43706,            0.,NA,NA,"",   88.1547E-03,   59.9167E-03,   64.6625E-03,   4.11232E-03
C:/temp/dataset/6/24_18.odb,Step-1,Increment      1: Step Time =    1.000,"PART-1-1",           205,      -12.3720,       27.4312,            0.,NA,NA,"",   295.596E-03,  -290.688E-03,   53.6417E-03,   47.3000E-09
C:/temp/dataset/6/24_18.odb,Step-1,Increment      1: Step Time =    1.000,"PART-1-1",           206,      -10.3791,       22.2070,            0.,NA,NA,"",   245.127E-03,  -233.048E-03,   75.9962E-03,   571.188E-09
C:/temp/dataset/6/24_18.odb,Step-1,Increment      1: Step Time =    1.000,"PART-1-1",           207,       3.40286,  -884.176E-03,            0.,NA,NA,"",   226.185E-03,   19.4148E-03,   225.350E-03,   9.77800E-03
C:/temp/dataset/6/24_18.odb,Step-1,Increment      1: Step Time =    1.000,"PART-1-1",           208,       7.88020,       1.44192,            0.,NA,NA,"",   164.640E-03,   28.3375E-03,   162.182E-03,   5.72665E-03
C:/temp/dataset/6/24_18.odb,Step-1,Increment      1: Step Time =    1.000,"PART-1-1",           209,      -1.17287,  -897.893E-03,            0.,NA,NA,"",   204.229E-03,   3.60133E-03,   204.197E-03,   9.50611E-03
C:/temp/dataset/6/24_18.odb,Step-1,Increment      1: Step Time =    1.000,"PART-1-1",           210,       10.4014,      -25.9274,            0.,NA,NA,"",   18.7521E-03,  -8.93382E-03,   16.4872E-03,   5.44334E-03
C:/temp/dataset/6/24_18.odb,Step-1,Increment      1: Step Time =    1.000,"PART-1-1",           211,       2.00108,      -24.8239,            0.,NA,NA,"",   3.50829E-03,   1.42133E-03,   3.20748E-03,   889.730E-06
C:/temp/dataset/6/24_18.odb,Step-1,Increment      1: Step Time =    1.000,"PART-1-1",           212,      -4.80900,      -25.1606,            0.,NA,NA,"",   4.20050E-03,   1.97531E-03,   3.70706E-03,   1.11025E-03
C:/temp/dataset/6/24_18.odb,Step-1,Increment      1: Step Time =    1.000,"PART-1-1",           213,      -11.5765,       21.3848,            0.,NA,NA,"",   232.528E-03,  -223.885E-03,   62.8074E-03,   691.796E-09
C:/temp/dataset/6/24_18.odb,Step-1,Increment      1: Step Time =    1.000,"PART-1-1",           214,      -11.0630,       10.3038,            0.,NA,NA,"",   122.611E-03,  -101.309E-03,   69.0637E-03,   92.1779E-06
C:/temp/dataset/6/24_18.odb,Step-1,Increment      1: Step Time =    1.000,"PART-1-1",           215,      -10.2832,  -591.021E-03,            0.,NA,NA,"",   74.7330E-03,   14.3648E-03,   73.3394E-03,   1.56522E-03
C:/temp/dataset/6/24_18.odb,Step-1,Increment      1: Step Time =    1.000,"PART-1-1",           216,      -11.1869,      -5.64306,            0.,NA,NA,"",   80.5751E-03,   53.1588E-03,   60.5516E-03,   1.30557E-03
C:/temp/dataset/6/24_18.odb,Step-1,Increment      1: Step Time =    1.000,"PART-1-1",           217,      -9.48237,      -10.3825,            0.,NA,NA,"",   82.9559E-03,   59.8137E-03,   57.4805E-03,   4.12727E-03
C:/temp/dataset/6/24_18.odb,Step-1,Increment      1: Step Time =    1.000,"PART-1-1",           218,      -10.0191,      -20.7277,            0.,NA,NA,"",   34.4197E-03,   22.8585E-03,   25.7333E-03,   3.96841E-03
C:/temp/dataset/6/24_18.odb,Step-1,Increment      1: Step Time =    1.000,"PART-1-1",           219,      -12.8377,      -24.8331,            0.,NA,NA,"",   22.2877E-03,   13.2551E-03,   17.9177E-03,   4.09801E-03
C:/temp/dataset/6/24_18.odb,Step-1,Increment      1: Step Time =    1.000,"PART-1-1",           220,  -752.185E-03,      -25.0561,            0.,NA,NA,"",   1.63212E-03,   1.50558E-03,   630.108E-06,   241.339E-06
C:/temp/dataset/6/24_18.odb,Step-1,Increment      1: Step Time =    1.000,"PART-1-1",           221,      -11.3411,      -22.5061,            0.,NA,NA,"",   29.0627E-03,   18.1900E-03,   22.6664E-03,   3.77494E-03
C:/temp/dataset/6/24_18.odb,Step-1,Increment      1: Step Time =    1.000,"PART-1-1",           222,       5.90860,      -26.1342,            0.,NA,NA,"",   8.79463E-03,  -316.124E-06,   8.78894E-03,   3.13674E-03
C:/temp/dataset/6/24_18.odb,Step-1,Increment      1: Step Time =    1.000,"PART-1-1",           223,       3.81352,      -25.8758,            0.,NA,NA,"",   5.60081E-03,   1.38480E-03,   5.42692E-03,   1.87397E-03
C:/temp/dataset/6/24_18.odb,Step-1,Increment      1: Step Time =    1.000,"PART-1-1",           224,      -6.87266,      -25.1947,            0.,NA,NA,"",   7.74144E-03,   3.50538E-03,   6.90233E-03,   2.07995E-03
C:/temp/dataset/6/24_18.odb,Step-1,Increment      1: Step Time =    1.000,"PART-1-1",           225,       9.77381,   336.875E-03,            0.,NA,NA,"",   136.880E-03,   20.1255E-03,   135.392E-03,   4.24558E-03
C:/temp/dataset/6/24_18.odb,Step-1,Increment      1: Step Time =    1.000,"PART-1-1",           226,       4.59800,   29.7464E-03,            0.,NA,NA,"",   209.241E-03,   22.1991E-03,   208.060E-03,   8.82781E-03
C:/temp/dataset/6/24_18.odb,Step-1,Increment      1: Step Time =    1.000,"PART-1-1",           227,      -11.1551,       12.6912,            0.,NA,NA,"",   144.716E-03,  -127.757E-03,   67.9765E-03,   30.9842E-06
C:/temp/dataset/6/24_18.odb,Step-1,Increment      1: Step Time =    1.000,"PART-1-1",           228,      -11.2689,       17.3859,            0.,NA,NA,"",   191.583E-03,  -179.688E-03,   66.4550E-03,   1.15524E-06
C:/temp/dataset/6/24_18.odb,Step-1,Increment      1: Step Time =    1.000,"PART-1-1",           229,      -11.2102,       15.0558,            0.,NA,NA,"",   167.969E-03,  -153.921E-03,   67.2439E-03,   6.99903E-06
C:/temp/dataset/6/24_18.odb,Step-1,Increment      1: Step Time =    1.000,"PART-1-1",           230,      -10.8139,       7.79620,            0.,NA,NA,"",   102.707E-03,  -73.5094E-03,   71.7293E-03,   214.505E-06
C:/temp/dataset/6/24_18.odb,Step-1,Increment      1: Step Time =    1.000,"PART-1-1",           231,      -10.1648,       4.85487,            0.,NA,NA,"",   88.5296E-03,  -41.1452E-03,   78.3872E-03,   332.612E-06
C:/temp/dataset/6/24_18.odb,Step-1,Increment      1: Step Time =    1.000,"PART-1-1",           232,      -10.4473,       2.01195,            0.,NA,NA,"",   75.0938E-03,  -11.0206E-03,   74.2808E-03,   743.614E-06
C:/temp/dataset/6/24_18.odb,Step-1,Increment      1: Step Time =    1.000,"PART-1-1",           233,      -10.4810,      -3.59789,            0.,NA,NA,"",   78.5838E-03,   40.3561E-03,   67.4300E-03,   1.64812E-03
C:/temp/dataset/6/24_18.odb,Step-1,Increment      1: Step Time =    1.000,"PART-1-1",           234,      -9.89141,      -15.1395,            0.,NA,NA,"",   63.9924E-03,   47.8614E-03,   42.4772E-03,   3.90002E-03
C:/temp/dataset/6/24_18.odb,Step-1,Increment      1: Step Time =    1.000,"PART-1-1",           235,      -9.95744,      -17.7636,            0.,NA,NA,"",   50.4261E-03,   36.5027E-03,   34.7900E-03,   3.95377E-03
C:/temp/dataset/6/24_18.odb,Step-1,Increment      1: Step Time =    1.000,"PART-1-1",           236,      -3.63694,      -1.16253,            0.,NA,NA,"",   160.493E-03,   6.37840E-03,   160.366E-03,   9.10031E-03
C:/temp/dataset/6/24_18.odb,Step-1,Increment      1: Step Time =    1.000,"PART-1-1",           237,      -7.00580,      -22.7773,            0.,NA,NA,"",   15.5082E-03,   8.84844E-03,   12.7362E-03,   3.26274E-03
C:/temp/dataset/6/24_18.odb,Step-1,Increment      1: Step Time =    1.000,"PART-1-1",           238,       7.08723,      -4.67483,            0.,NA,NA,"",   148.598E-03,  -13.4882E-03,   147.984E-03,   7.57604E-03
C:/temp/dataset/6/24_18.odb,Step-1,Increment      1: Step Time =    1.000,"PART-1-1",           239,       8.96532,      -10.1697,            0.,NA,NA,"",   110.662E-03,  -49.5381E-03,   98.9548E-03,   6.59660E-03
C:/temp/dataset/6/24_18.odb,Step-1,Increment      1: Step Time =    1.000,"PART-1-1",           240,       8.99874,      -7.82238,            0.,NA,NA,"",   119.474E-03,  -42.9391E-03,   111.491E-03,   5.68093E-03
C:/temp/dataset/6/24_18.odb,Step-1,Increment      1: Step Time =    1.000,"PART-1-1",           241,       8.96760,      -14.8663,            0.,NA,NA,"",   85.9756E-03,  -47.4250E-03,   71.7125E-03,   6.58255E-03
C:/temp/dataset/6/24_18.odb,Step-1,Increment      1: Step Time =    1.000,"PART-1-1",           242,      -12.0836,       24.5335,            0.,NA,NA,"",   264.875E-03,  -258.667E-03,   57.0076E-03,   240.424E-09
C:/temp/dataset/6/24_18.odb,Step-1,Increment      1: Step Time =    1.000,"PART-1-1",           243,       9.21542,      -5.66363,            0.,NA,NA,"",   122.711E-03,  -29.2793E-03,   119.167E-03,   4.72737E-03
C:/temp/dataset/6/24_18.odb,Step-1,Increment      1: Step Time =    1.000,"PART-1-1",           244,       8.72776,      -2.97127,            0.,NA,NA,"",   136.783E-03,  -2.50409E-03,   136.760E-03,   6.39709E-03
C:/temp/dataset/6/24_18.odb,Step-1,Increment      1: Step Time =    1.000,"PART-1-1",           245,       9.39471,      -19.4524,            0.,NA,NA,"",   57.5082E-03,  -32.4259E-03,   47.4948E-03,   6.03171E-03
C:/temp/dataset/6/24_18.odb,Step-1,Increment      1: Step Time =    1.000,"PART-1-1",           246,       8.06548,      -22.0810,            0.,NA,NA,"",   35.0717E-03,  -16.3305E-03,   31.0377E-03,   6.23043E-03
C:/temp/dataset/6/24_18.odb,Step-1,Increment      1: Step Time =    1.000,"PART-1-1",           247,      -7.53738,       4.79758,            0.,NA,NA,"",   115.289E-03,  -40.8044E-03,   107.827E-03,   536.734E-06
C:/temp/dataset/6/24_18.odb,Step-1,Increment      1: Step Time =    1.000,"PART-1-1",           248,      -10.8025,      -24.3532,            0.,NA,NA,"",   19.1475E-03,   11.1050E-03,   15.5982E-03,   3.62879E-03
C:/temp/dataset/6/24_18.odb,Step-1,Increment      1: Step Time =    1.000,"PART-1-1",           249,       5.82981,      -2.08643,            0.,NA,NA,"",   189.069E-03,   18.8158E-03,   188.130E-03,   13.2870E-03
C:/temp/dataset/6/24_18.odb,Step-1,Increment      1: Step Time =    1.000,"PART-1-1",           250,      -8.67175,      -2.53401,            0.,NA,NA,"",   89.4372E-03,   30.1151E-03,   84.2146E-03,   3.28473E-03
C:/temp/dataset/6/24_18.odb,Step-1,Increment      1: Step Time =    1.000,"PART-1-1",           251,       5.78686,      -22.7214,            0.,NA,NA,"",   21.0362E-03,  -6.74239E-03,   19.9264E-03,   4.88639E-03
C:/temp/dataset/6/24_18.odb,Step-1,Increment      1: Step Time =    1.000,"PART-1-1",           252,      -8.27594,       1.60152,            0.,NA,NA,"",   98.0478E-03,  -8.24203E-03,   97.7007E-03,   1.98392E-03
C:/temp/dataset/6/24_18.odb,Step-1,Increment      1: Step Time =    1.000,"PART-1-1",           253,       8.25490,      -24.0061,            0.,NA,NA,"",   23.8763E-03,  -9.69222E-03,   21.8206E-03,   5.36982E-03
C:/temp/dataset/6/24_18.odb,Step-1,Increment      1: Step Time =    1.000,"PART-1-1",           254,      -9.04303,      -23.2600,            0.,NA,NA,"",   19.3821E-03,   11.3097E-03,   15.7403E-03,   3.53945E-03
C:/temp/dataset/6/24_18.odb,Step-1,Increment      1: Step Time =    1.000,"PART-1-1",           255,       7.61656,      -1.09448,            0.,NA,NA,"",   161.577E-03,   15.7620E-03,   160.807E-03,   7.71212E-03
C:/temp/dataset/6/24_18.odb,Step-1,Increment      1: Step Time =    1.000,"PART-1-1",           256,      -4.02262,   861.151E-03,            0.,NA,NA,"",   156.727E-03,  -4.50114E-03,   156.662E-03,   7.04426E-03
C:/temp/dataset/6/24_18.odb,Step-1,Increment      1: Step Time =    1.000,"PART-1-1",           257,  -104.141E-03,       1.31276,            0.,NA,NA,"",   210.343E-03,   1.92258E-03,   210.335E-03,   7.00318E-03
C:/temp/dataset/6/24_18.odb,Step-1,Increment      1: Step Time =    1.000,"PART-1-1",           258,       3.72123,      -23.4419,            0.,NA,NA,"",   9.14225E-03,  -1.21803E-03,   9.06075E-03,   2.42656E-03
C:/temp/dataset/6/24_18.odb,Step-1,Increment      1: Step Time =    1.000,"PART-1-1",           259,      -10.7950,      -8.39617,            0.,NA,NA,"",   84.7153E-03,   61.1645E-03,   58.6139E-03,   2.60661E-03
C:/temp/dataset/6/24_18.odb,Step-1,Increment      1: Step Time =    1.000,"PART-1-1",           260,      -1.85786,       1.02916,            0.,NA,NA,"",   190.320E-03,  -3.11165E-03,   190.294E-03,   7.67535E-03
C:/temp/dataset/6/24_18.odb,Step-1,Increment      1: Step Time =    1.000,"PART-1-1",           261,      -6.46179,      -1.33856,            0.,NA,NA,"",   114.654E-03,   14.5966E-03,   113.721E-03,   5.76825E-03
C:/temp/dataset/6/24_18.odb,Step-1,Increment      1: Step Time =    1.000,"PART-1-1",           262,      -11.1078,      -7.00587,            0.,NA,NA,"",   83.4105E-03,   58.4958E-03,   59.4606E-03,   1.75577E-03
C:/temp/dataset/6/24_18.odb,Step-1,Increment      1: Step Time =    1.000,"PART-1-1",           263,      -5.52697,      -3.44125,            0.,NA,NA,"",   121.127E-03,   30.7737E-03,   117.152E-03,   8.90004E-03
C:/temp/dataset/6/24_18.odb,Step-1,Increment      1: Step Time =    1.000,"PART-1-1",           264,      -9.72268,      -4.98378,            0.,NA,NA,"",   85.9769E-03,   49.3778E-03,   70.3836E-03,   2.29476E-03
C:/temp/dataset/6/24_18.odb,Step-1,Increment      1: Step Time =    1.000,"PART-1-1",           265,      -6.27329,       4.89376,            0.,NA,NA,"",   129.734E-03,  -41.4937E-03,   122.919E-03,   802.877E-06
C:/temp/dataset/6/24_18.odb,Step-1,Increment      1: Step Time =    1.000,"PART-1-1",           266,       12.4963,       2.80040,            0.,NA,NA,"",   112.841E-03,   39.3730E-03,   105.749E-03,   945.953E-06
C:/temp/dataset/6/24_18.odb,Step-1,Increment      1: Step Time =    1.000,"PART-1-1",           267,      -7.37176,      -20.2559,            0.,NA,NA,"",   29.0821E-03,   19.4799E-03,   21.5940E-03,   4.34729E-03
C:/temp/dataset/6/24_18.odb,Step-1,Increment      1: Step Time =    1.000,"PART-1-1",           268,       2.88963,      -21.8777,            0.,NA,NA,"",   8.38615E-03,  -3.56038E-03,   7.59284E-03,   1.40010E-03
C:/temp/dataset/6/24_18.odb,Step-1,Increment      1: Step Time =    1.000,"PART-1-1",           269,      -8.05085,       3.52655,            0.,NA,NA,"",   105.255E-03,  -27.2850E-03,   101.657E-03,   937.598E-06
C:/temp/dataset/6/24_18.odb,Step-1,Increment      1: Step Time =    1.000,"PART-1-1",           270,       8.95558,      -12.5395,            0.,NA,NA,"",   99.0764E-03,  -50.6059E-03,   85.1774E-03,   6.81410E-03
C:/temp/dataset/6/24_18.odb,Step-1,Increment      1: Step Time =    1.000,"PART-1-1",           271,       1.35989,  -223.950E-03,            0.,NA,NA,"",   227.407E-03,   10.1905E-03,   227.179E-03,   7.69625E-03
C:/temp/dataset/6/24_18.odb,Step-1,Increment      1: Step Time =    1.000,"PART-1-1",           272,      -9.75004,      -12.6533,            0.,NA,NA,"",   74.9586E-03,   55.9179E-03,   49.9197E-03,   4.02003E-03
C:/temp/dataset/6/24_18.odb,Step-1,Increment      1: Step Time =    1.000,"PART-1-1",           273,      -8.51206,      -25.1011,            0.,NA,NA,"",   11.2197E-03,   5.63666E-03,   9.70098E-03,   2.84640E-03
C:/temp/dataset/6/24_18.odb,Step-1,Increment      1: Step Time =    1.000,"PART-1-1",           274,      -6.19138,   998.181E-03,            0.,NA,NA,"",   123.795E-03,  -4.44030E-03,   123.716E-03,   4.51214E-03
C:/temp/dataset/6/24_18.odb,Step-1,Increment      1: Step Time =    1.000,"PART-1-1",           275,      -2.63339,      -25.0950,            0.,NA,NA,"",   1.89170E-03,   1.44218E-03,   1.22419E-03,   344.492E-06
C:/temp/dataset/6/24_18.odb,Step-1,Increment      1: Step Time =    1.000,"PART-1-1",           276,       8.11811,      -26.0558,            0.,NA,NA,"",   13.2980E-03,  -3.94802E-03,   12.6984E-03,   4.42696E-03
C:/temp/dataset/6/24_18.odb,Step-1,Increment      1: Step Time =    1.000,"PART-1-1",           277,       6.33403,   764.508E-03,            0.,NA,NA,"",   185.326E-03,   25.2420E-03,   183.599E-03,   7.87864E-03
C:/temp/dataset/6/24_18.odb,Step-1,Increment      1: Step Time =    1.000,"PART-1-1",           278,       8.84044,      -16.9880,            0.,NA,NA,"",   72.5349E-03,  -41.0664E-03,   59.7902E-03,   6.27102E-03
C:/temp/dataset/6/24_18.odb,Step-1,Increment      1: Step Time =    1.000,"PART-1-1",           279,      -11.3950,       19.6047,            0.,NA,NA,"",   214.286E-03,  -204.214E-03,   64.9235E-03,   969.268E-09
C:/temp/dataset/6/24_18.odb,Step-1,Increment      1: Step Time =    1.000,"PART-1-1",           280,      -11.2464,      -2.22607,            0.,NA,NA,"",   69.8568E-03,   29.7210E-03,   63.2189E-03,   1.16249E-03
C:/temp/dataset/6/24_18.odb,Step-1,Increment      1: Step Time =    1.000,"PART-1-1",           281,      -8.41776,  -32.7016E-03,            0.,NA,NA,"",   93.6292E-03,   7.06711E-03,   93.3621E-03,   2.71738E-03
C:/temp/dataset/6/24_18.odb,Step-1,Increment      1: Step Time =    1.000,"PART-1-1",           282,       4.48255,      -24.5345,            0.,NA,NA,"",   9.49956E-03,  -527.956E-06,   9.48488E-03,   2.75111E-03
C:/temp/dataset/6/24_18.odb,Step-1,Increment      1: Step Time =    1.000,"PART-1-1",           283,       6.11275,      -24.3348,            0.,NA,NA,"",   15.3690E-03,  -3.55758E-03,   14.9515E-03,   4.05284E-03
C:/temp/dataset/6/24_18.odb,Step-1,Increment      1: Step Time =    1.000,"PART-1-1",           284,       9.69767,      -4.20039,            0.,NA,NA,"",   121.836E-03,  -16.9777E-03,   120.647E-03,   4.67433E-03
C:/temp/dataset/6/24_18.odb,Step-1,Increment      1: Step Time =    1.000,"PART-1-1",           285,       13.8851,      -1.60402,            0.,NA,NA,"",   88.4541E-03,  -681.875E-06,   88.4514E-03,   1.33689E-03
C:/temp/dataset/6/24_18.odb,Step-1,Increment      1: Step Time =    1.000,"PART-1-1",           286,           15.,   -468.75E-03,            0.,NA,NA,"",   79.7825E-03,   8.84994E-03,   79.2902E-03,   664.026E-06
C:/temp/dataset/6/24_18.odb,Step-1,Increment      1: Step Time =    1.000,"PART-1-1",           287,       13.7553,   590.641E-03,            0.,NA,NA,"",   93.5547E-03,   18.8527E-03,   91.6354E-03,   1.01440E-03
C:/temp/dataset/6/24_18.odb,Step-1,Increment      1: Step Time =    1.000,"PART-1-1",           288,       12.6405,  -544.629E-03,            0.,NA,NA,"",   102.062E-03,   9.54287E-03,   101.615E-03,   1.72897E-03
C:/temp/dataset/6/24_18.odb,Step-1,Increment      1: Step Time =    1.000,"PART-1-1",           289,       6.57104,       2.96720,            0.,NA,NA,"",   181.978E-03,   34.2047E-03,   178.734E-03,   5.76986E-03
C:/temp/dataset/6/24_18.odb,Step-1,Increment      1: Step Time =    1.000,"PART-1-1",           290,       5.86345,       1.80964,            0.,NA,NA,"",   191.051E-03,   27.5212E-03,   189.059E-03,   6.79892E-03
C:/temp/dataset/6/24_18.odb,Step-1,Increment      1: Step Time =    1.000,"PART-1-1",           291,       7.10711,       1.10321,            0.,NA,NA,"",   174.715E-03,   26.6083E-03,   172.677E-03,   6.67869E-03
C:/temp/dataset/6/24_18.odb,Step-1,Increment      1: Step Time =    1.000,"PART-1-1",           292,       7.81470,       2.26078,            0.,NA,NA,"",   166.437E-03,   32.8359E-03,   163.166E-03,   5.07941E-03
C:/temp/dataset/6/24_18.odb,Step-1,Increment      1: Step Time =    1.000,"PART-1-1",           293,       6.97305,      -8.82061,            0.,NA,NA,"",   125.693E-03,  -40.7842E-03,   118.892E-03,   9.75235E-03
C:/temp/dataset/6/24_18.odb,Step-1,Increment      1: Step Time =    1.000,"PART-1-1",           294,       5.98985,      -7.53541,            0.,NA,NA,"",   142.995E-03,  -33.2085E-03,   139.085E-03,   12.0503E-03
C:/temp/dataset/6/24_18.odb,Step-1,Increment      1: Step Time =    1.000,"PART-1-1",           295,            5.,      -8.76875,            0.,NA,NA,"",   131.563E-03,  -30.2846E-03,   128.030E-03,   13.1230E-03
C:/temp/dataset/6/24_18.odb,Step-1,Increment      1: Step Time =    1.000,"PART-1-1",           296,       5.98320,      -10.0539,            0.,NA,NA,"",   118.513E-03,  -38.4397E-03,   112.106E-03,   10.5731E-03
C:/temp/dataset/6/24_18.odb,Step-1,Increment      1: Step Time =    1.000,"PART-1-1",           297,       12.0429,      -8.05477,            0.,NA,NA,"",   103.023E-03,  -47.8690E-03,   91.2269E-03,   2.78314E-03
C:/temp/dataset/6/24_18.odb,Step-1,Increment      1: Step Time =    1.000,"PART-1-1",           298,       11.0248,      -9.13413,            0.,NA,NA,"",   106.486E-03,  -51.0125E-03,   93.4721E-03,   4.01270E-03
C:/temp/dataset/6/24_18.odb,Step-1,Increment      1: Step Time =    1.000,"PART-1-1",           299,       11.9985,      -10.2754,            0.,NA,NA,"",   101.823E-03,  -55.3074E-03,   85.4932E-03,   3.47616E-03
C:/temp/dataset/6/24_18.odb,Step-1,Increment      1: Step Time =    1.000,"PART-1-1",           300,       13.0166,      -9.19606,            0.,NA,NA,"",   99.5429E-03,  -53.4386E-03,   83.9828E-03,   2.20692E-03
C:/temp/dataset/6/24_18.odb,Step-1,Increment      1: Step Time =    1.000,"PART-1-1",           301,       13.9992,      -14.7549,            0.,NA,NA,"",   91.1811E-03,  -57.6004E-03,   70.6837E-03,   2.79340E-03
C:/temp/dataset/6/24_18.odb,Step-1,Increment      1: Step Time =    1.000,"PART-1-1",           302,       13.0271,      -15.9471,            0.,NA,NA,"",   85.3101E-03,  -53.4712E-03,   66.4730E-03,   3.97082E-03
C:/temp/dataset/6/24_18.odb,Step-1,Increment      1: Step Time =    1.000,"PART-1-1",           303,       14.0279,      -16.9735,            0.,NA,NA,"",   82.9085E-03,  -52.0686E-03,   64.5188E-03,   3.57620E-03
C:/temp/dataset/6/24_18.odb,Step-1,Increment      1: Step Time =    1.000,"PART-1-1",           304,           15.,      -15.7813,            0.,NA,NA,"",   89.8901E-03,  -56.6285E-03,   69.8100E-03,   2.46678E-03
C:/temp/dataset/6/24_18.odb,Step-1,Increment      1: Step Time =    1.000,"PART-1-1",           305,       6.96949,      -18.0995,            0.,NA,NA,"",   59.4045E-03,  -31.7337E-03,   50.2181E-03,   6.63335E-03
C:/temp/dataset/6/24_18.odb,Step-1,Increment      1: Step Time =    1.000,"PART-1-1",           306,       5.95014,      -17.3335,            0.,NA,NA,"",   61.1305E-03,  -31.1930E-03,   52.5731E-03,   7.89861E-03
C:/temp/dataset/6/24_18.odb,Step-1,Increment      1: Step Time =    1.000,"PART-1-1",           307,            5.,      -18.7625,            0.,NA,NA,"",   44.6912E-03,  -22.7912E-03,   38.4429E-03,   9.08046E-03
C:/temp/dataset/6/24_18.odb,Step-1,Increment      1: Step Time =    1.000,"PART-1-1",           308,       6.01935,      -19.5285,            0.,NA,NA,"",   44.7528E-03,  -23.0387E-03,   38.3671E-03,   6.87647E-03
C:/temp/dataset/6/24_18.odb,Step-1,Increment      1: Step Time =    1.000,"PART-1-1",           309,       7.66098,      -29.0388,            0.,NA,NA,"",   2.43290E-03,   217.029E-06,   2.42320E-03,   3.22195E-03
C:/temp/dataset/6/24_18.odb,Step-1,Increment      1: Step Time =    1.000,"PART-1-1",           310,       6.62868,      -28.0660,            0.,NA,NA,"",   4.50291E-03,   537.688E-06,   4.47070E-03,   2.95590E-03
C:/temp/dataset/6/24_18.odb,Step-1,Increment      1: Step Time =    1.000,"PART-1-1",           311,       5.21770,      -29.0272,            0.,NA,NA,"",   1.93079E-03,   1.02875E-03,   1.63390E-03,   2.25741E-03
C:/temp/dataset/6/24_18.odb,Step-1,Increment      1: Step Time =    1.000,"PART-1-1",           312,          6.25,          -30.,            0.,NA,NA,"",            0.,   735.602E-42,   4.76128E-39,   2.56393E-03
C:/temp/dataset/6/24_18.odb,Step-1,Increment      1: Step Time =    1.000,"PART-1-1",           313,   162.125E-03,      -28.5454,            0.,NA,NA,"",   1.12265E-03,   1.00642E-03,   497.450E-06,   691.308E-06
C:/temp/dataset/6/24_18.odb,Step-1,Increment      1: Step Time =    1.000,"PART-1-1",           314,      -1.06934,      -27.3053,            0.,NA,NA,"",   1.14255E-03,   1.02950E-03,   495.539E-06,   588.811E-06
C:/temp/dataset/6/24_18.odb,Step-1,Increment      1: Step Time =    1.000,"PART-1-1",           315,      -2.48147,      -28.7599,            0.,NA,NA,"",   451.823E-06,   154.561E-06,   424.564E-06,   501.348E-06
C:/temp/dataset/6/24_18.odb,Step-1,Increment      1: Step Time =    1.000,"PART-1-1",           316,         -1.25,          -30.,            0.,NA,NA,"",            0.,   207.168E-42,   1.05467E-39,   600.297E-06
C:/temp/dataset/6/24_18.odb,Step-1,Increment      1: Step Time =    1.000,"PART-1-1",           317,          -15.,        -21.25,            0.,NA,NA,"",   46.9716E-03,   29.1877E-03,   36.8023E-03,   3.70099E-03
C:/temp/dataset/6/24_18.odb,Step-1,Increment      1: Step Time =    1.000,"PART-1-1",           318,      -13.9888,      -22.4607,            0.,NA,NA,"",   37.2589E-03,   22.9988E-03,   29.3135E-03,   3.90661E-03
C:/temp/dataset/6/24_18.odb,Step-1,Increment      1: Step Time =    1.000,"PART-1-1",           319,      -12.8187,      -21.2681,            0.,NA,NA,"",   39.4078E-03,   25.5362E-03,   30.0146E-03,   3.62058E-03
C:/temp/dataset/6/24_18.odb,Step-1,Increment      1: Step Time =    1.000,"PART-1-1",           320,      -13.8299,      -20.0574,            0.,NA,NA,"",   48.5852E-03,   32.0627E-03,   36.5035E-03,   3.33574E-03
C:/temp/dataset/6/24_18.odb,Step-1,Increment      1: Step Time =    1.000,"PART-1-1",           321,      -12.5142,      -28.6623,            0.,NA,NA,"",   4.58080E-03,   2.50939E-03,   3.83232E-03,   3.68363E-03
C:/temp/dataset/6/24_18.odb,Step-1,Increment      1: Step Time =    1.000,"PART-1-1",           322,        -11.25,          -30.,            0.,NA,NA,"",            0.,   486.116E-42,   5.47605E-39,   2.84979E-03
C:/temp/dataset/6/24_18.odb,Step-1,Increment      1: Step Time =    1.000,"PART-1-1",           323,      -9.93348,      -28.4464,            0.,NA,NA,"",   3.40270E-03,   1.20888E-03,   3.18072E-03,   2.59837E-03
C:/temp/dataset/6/24_18.odb,Step-1,Increment      1: Step Time =    1.000,"PART-1-1",           324,      -11.1976,      -27.1087,            0.,NA,NA,"",   8.97333E-03,   4.75071E-03,   7.61258E-03,   3.56252E-03
C:/temp/dataset/6/24_18.odb,Step-1,Increment      1: Step Time =    1.000,"PART-1-1",           325,      -7.37036,      -13.8742,            0.,NA,NA,"",   65.7078E-03,   47.9301E-03,   44.9468E-03,   5.02288E-03
C:/temp/dataset/6/24_18.odb,Step-1,Increment      1: Step Time =    1.000,"PART-1-1",           326,      -6.21015,      -15.0417,            0.,NA,NA,"",   56.0213E-03,   41.3503E-03,   37.7960E-03,   5.14738E-03
C:/temp/dataset/6/24_18.odb,Step-1,Increment      1: Step Time =    1.000,"PART-1-1",           327,           -5.,      -13.7188,            0.,NA,NA,"",   59.3495E-03,   42.5340E-03,   41.3911E-03,   6.26899E-03
C:/temp/dataset/6/24_18.odb,Step-1,Increment      1: Step Time =    1.000,"PART-1-1",           328,      -6.16021,      -12.5513,            0.,NA,NA,"",   69.9061E-03,   48.7552E-03,   50.0979E-03,   6.02140E-03
C:/temp/dataset/6/24_18.odb,Step-1,Increment      1: Step Time =    1.000,"PART-1-1",           329,      -9.33590,      -9.40979,            0.,NA,NA,"",   85.6712E-03,   60.1814E-03,   60.9733E-03,   4.25456E-03
C:/temp/dataset/6/24_18.odb,Step-1,Increment      1: Step Time =    1.000,"PART-1-1",           330,      -8.33361,      -10.3234,            0.,NA,NA,"",   83.3486E-03,   57.8725E-03,   59.9813E-03,   5.09865E-03
C:/temp/dataset/6/24_18.odb,Step-1,Increment      1: Step Time =    1.000,"PART-1-1",           331,      -7.16565,      -9.15059,            0.,NA,NA,"",   88.2921E-03,   56.1488E-03,   68.1381E-03,   6.43866E-03
C:/temp/dataset/6/24_18.odb,Step-1,Increment      1: Step Time =    1.000,"PART-1-1",           332,      -8.16794,      -8.23701,            0.,NA,NA,"",   90.5613E-03,   58.1512E-03,   69.4246E-03,   5.60606E-03
C:/temp/dataset/6/24_18.odb,Step-1,Increment      1: Step Time =    1.000,"PART-1-1",           333,      -11.1473,      -6.32447,            0.,NA,NA,"",   82.2186E-03,   56.1503E-03,   60.0586E-03,   1.54461E-03
C:/temp/dataset/6/24_18.odb,Step-1,Increment      1: Step Time =    1.000,"PART-1-1",           334,      -10.2102,      -6.79208,            0.,NA,NA,"",   86.1923E-03,   57.5731E-03,   64.1439E-03,   2.60966E-03
C:/temp/dataset/6/24_18.odb,Step-1,Increment      1: Step Time =    1.000,"PART-1-1",           335,      -9.51762,      -5.78103,            0.,NA,NA,"",   88.0375E-03,   53.2705E-03,   70.0918E-03,   2.71095E-03
C:/temp/dataset/6/24_18.odb,Step-1,Increment      1: Step Time =    1.000,"PART-1-1",           336,      -10.4548,      -5.31342,            0.,NA,NA,"",   83.0248E-03,   51.3556E-03,   65.2359E-03,   1.80489E-03
C:/temp/dataset/6/24_18.odb,Step-1,Increment      1: Step Time =    1.000,"PART-1-1",           337,      -5.04937,      -1.25055,            0.,NA,NA,"",   135.916E-03,   10.3203E-03,   135.524E-03,   7.14953E-03
C:/temp/dataset/6/24_18.odb,Step-1,Increment      1: Step Time =    1.000,"PART-1-1",           338,      -3.82978,  -150.691E-03,            0.,NA,NA,"",   158.889E-03,   873.143E-06,   158.887E-03,   7.88693E-03
C:/temp/dataset/6/24_18.odb,Step-1,Increment      1: Step Time =    1.000,"PART-1-1",           339,      -5.10700,   929.666E-03,            0.,NA,NA,"",   139.798E-03,  -4.66663E-03,   139.720E-03,   5.72674E-03
C:/temp/dataset/6/24_18.odb,Step-1,Increment      1: Step Time =    1.000,"PART-1-1",           340,      -6.32658,  -170.190E-03,            0.,NA,NA,"",   119.500E-03,   4.88991E-03,   119.400E-03,   4.99878E-03
C:/temp/dataset/6/24_18.odb,Step-1,Increment      1: Step Time =    1.000,"PART-1-1",           341,          -15.,          3.75,            0.,NA,NA,"",   40.0200E-03,  -29.0001E-03,   27.5789E-03,   612.625E-06
C:/temp/dataset/6/24_18.odb,Step-1,Increment      1: Step Time =    1.000,"PART-1-1",           342,      -13.8520,       2.39386,            0.,NA,NA,"",   42.7320E-03,  -14.4521E-03,   40.2139E-03,   475.226E-06
C:/temp/dataset/6/24_18.odb,Step-1,Increment      1: Step Time =    1.000,"PART-1-1",           343,      -12.6820,       3.58697,            0.,NA,NA,"",   58.4215E-03,  -27.0500E-03,   51.7819E-03,   346.908E-06
C:/temp/dataset/6/24_18.odb,Step-1,Increment      1: Step Time =    1.000,"PART-1-1",           344,      -13.8301,       4.94311,            0.,NA,NA,"",   57.4804E-03,  -41.7423E-03,   39.5167E-03,   290.439E-06
C:/temp/dataset/6/24_18.odb,Step-1,Increment      1: Step Time =    1.000,"PART-1-1",           345,          -15.,         11.25,            0.,NA,NA,"",   114.416E-03,  -111.520E-03,   25.5783E-03,   31.6569E-06
C:/temp/dataset/6/24_18.odb,Step-1,Increment      1: Step Time =    1.000,"PART-1-1",           346,      -14.0083,       10.0442,            0.,NA,NA,"",   104.805E-03,  -98.1819E-03,   36.6670E-03,   55.0257E-06
C:/temp/dataset/6/24_18.odb,Step-1,Increment      1: Step Time =    1.000,"PART-1-1",           347,      -13.0572,       11.3141,            0.,NA,NA,"",   121.798E-03,  -112.341E-03,   47.0572E-03,   51.5134E-06
C:/temp/dataset/6/24_18.odb,Step-1,Increment      1: Step Time =    1.000,"PART-1-1",           348,      -14.0489,       12.5200,            0.,NA,NA,"",   130.715E-03,  -125.656E-03,   36.0151E-03,   13.4383E-06
C:/temp/dataset/6/24_18.odb,Step-1,Increment      1: Step Time =    1.000,"PART-1-1",           349,           -5.,       22.7083,            0.,NA,NA,"",   274.638E-03,  -238.920E-03,   135.438E-03,   396.481E-09
C:/temp/dataset/6/24_18.odb,Step-1,Increment      1: Step Time =    1.000,"PART-1-1",           350,      -5.96779,       23.6687,            0.,NA,NA,"",   278.899E-03,  -249.479E-03,   124.679E-03,   207.892E-09
C:/temp/dataset/6/24_18.odb,Step-1,Increment      1: Step Time =    1.000,"PART-1-1",           351,      -6.69567,       22.7251,            0.,NA,NA,"",   265.966E-03,  -239.001E-03,   116.689E-03,   431.375E-09
C:/temp/dataset/6/24_18.odb,Step-1,Increment      1: Step Time =    1.000,"PART-1-1",           352,      -5.72788,       21.7648,            0.,NA,NA,"",   261.589E-03,  -228.442E-03,   127.448E-03,   496.395E-09
C:/temp/dataset/6/24_18.odb,Step-1,Increment      1: Step Time =    1.000,"PART-1-1",           353,      -9.95259,       28.8237,            0.,NA,NA,"",   316.587E-03,  -306.232E-03,   80.3065E-03,   35.6087E-09
C:/temp/dataset/6/24_18.odb,Step-1,Increment      1: Step Time =    1.000,"PART-1-1",           354,      -8.67740,       27.7404,            0.,NA,NA,"",   309.122E-03,  -294.333E-03,   94.4718E-03,   42.3913E-09
C:/temp/dataset/6/24_18.odb,Step-1,Increment      1: Step Time =    1.000,"PART-1-1",           355,      -7.47481,       28.9167,            0.,NA,NA,"",   325.731E-03,  -307.412E-03,   107.696E-03,   20.4110E-09
C:/temp/dataset/6/24_18.odb,Step-1,Increment      1: Step Time =    1.000,"PART-1-1",           356,         -8.75,           30.,            0.,NA,NA,"",   332.728E-03,  -319.311E-03,   93.5310E-03,   10.9549E-09
C:/temp/dataset/6/24_18.odb,Step-1,Increment      1: Step Time =    1.000,"PART-1-1",           357,      -12.4360,       28.7156,            0.,NA,NA,"",   309.433E-03,  -304.885E-03,   52.8554E-03,   23.2027E-09
C:/temp/dataset/6/24_18.odb,Step-1,Increment      1: Step Time =    1.000,"PART-1-1",           358,        -13.75,           30.,            0.,NA,NA,"",   321.291E-03,  -319.006E-03,   38.2485E-03,   3.92418E-09
C:/temp/dataset/6/24_18.odb,Step-1,Increment      1: Step Time =    1.000,"PART-1-1",           359,          -15.,         28.75,            0.,NA,NA,"",   306.091E-03,  -305.109E-03,   24.5044E-03,   3.29896E-09
C:/temp/dataset/6/24_18.odb,Step-1,Increment      1: Step Time =    1.000,"PART-1-1",           360,      -13.6860,       27.4656,            0.,NA,NA,"",   293.605E-03,  -290.988E-03,   39.1112E-03,   22.4779E-09
C:/temp/dataset/6/24_18.odb,Step-1,Increment      1: Step Time =    1.000,"PART-1-1",           361,         -3.75,           -5.,            0.,NA,NA,"",   159.246E-03,   49.4476E-03,   151.374E-03,   4.97080E-03
C:/temp/dataset/6/24_18.odb,Step-1,Increment      1: Step Time =    1.000,"PART-1-1",           362,      -2.75606,      -4.06584,            0.,NA,NA,"",   175.924E-03,   32.4476E-03,   172.906E-03,   3.85553E-03
C:/temp/dataset/6/24_18.odb,Step-1,Increment      1: Step Time =    1.000,"PART-1-1",           363,      -4.26954,      -3.28646,            0.,NA,NA,"",   143.224E-03,   24.6744E-03,   141.082E-03,   7.89686E-03
C:/temp/dataset/6/24_18.odb,Step-1,Increment      1: Step Time =    1.000,"PART-1-1",           364,      -5.26349,      -4.22062,            0.,NA,NA,"",   121.403E-03,   37.8211E-03,   115.361E-03,   9.50197E-03
C:/temp/dataset/6/24_18.odb,Step-1,Increment      1: Step Time =    1.000,"PART-1-1",           365,   659.099E-03,      -2.85996,            0.,NA,NA,"",   241.445E-03,   11.1193E-03,   241.189E-03,   11.3202E-03
C:/temp/dataset/6/24_18.odb,Step-1,Increment      1: Step Time =    1.000,"PART-1-1",           366,  -266.865E-03,      -3.97148,            0.,NA,NA,"",   230.504E-03,   18.9943E-03,   229.720E-03,   11.8644E-03
C:/temp/dataset/6/24_18.odb,Step-1,Increment      1: Step Time =    1.000,"PART-1-1",           367,          1.25,           -5.,            0.,NA,NA,"",   270.287E-03,   24.0915E-03,   269.211E-03,   18.3077E-03
C:/temp/dataset/6/24_18.odb,Step-1,Increment      1: Step Time =    1.000,"PART-1-1",           368,       2.17596,      -3.88848,            0.,NA,NA,"",   261.766E-03,   15.5937E-03,   261.301E-03,   16.6705E-03
C:/temp/dataset/6/24_18.odb,Step-1,Increment      1: Step Time =    1.000,"PART-1-1",           369,   93.5104E-03,  -560.922E-03,            0.,NA,NA,"",   220.129E-03,   5.48548E-03,   220.060E-03,   7.76353E-03
C:/temp/dataset/6/24_18.odb,Step-1,Increment      1: Step Time =    1.000,"PART-1-1",           370,   627.873E-03,   544.404E-03,            0.,NA,NA,"",   219.158E-03,   6.09710E-03,   219.073E-03,   6.96919E-03
C:/temp/dataset/6/24_18.odb,Step-1,Increment      1: Step Time =    1.000,"PART-1-1",           371,  -981.002E-03,       1.17096,            0.,NA,NA,"",   201.294E-03,  -1.06219E-03,   201.291E-03,   7.23341E-03
C:/temp/dataset/6/24_18.odb,Step-1,Increment      1: Step Time =    1.000,"PART-1-1",           372,      -1.51537,   65.6335E-03,            0.,NA,NA,"",   196.776E-03,   539.614E-06,   196.776E-03,   8.42102E-03
C:/temp/dataset/6/24_18.odb,Step-1,Increment      1: Step Time =    1.000,"PART-1-1",           373,       4.11258,       2.54084,            0.,NA,NA,"",   206.941E-03,   22.8410E-03,   205.676E-03,   6.59867E-03
C:/temp/dataset/6/24_18.odb,Step-1,Increment      1: Step Time =    1.000,"PART-1-1",           374,       3.71515,       1.12833,            0.,NA,NA,"",   214.316E-03,   20.0090E-03,   213.380E-03,   7.08384E-03
C:/temp/dataset/6/24_18.odb,Step-1,Increment      1: Step Time =    1.000,"PART-1-1",           375,       5.46602,   397.127E-03,            0.,NA,NA,"",   197.383E-03,   23.9834E-03,   195.920E-03,   8.21877E-03
C:/temp/dataset/6/24_18.odb,Step-1,Increment      1: Step Time =    1.000,"PART-1-1",           376,       8.69518,  -378.803E-03,            0.,NA,NA,"",   148.703E-03,   17.1365E-03,   147.712E-03,   5.92168E-03
C:/temp/dataset/6/24_18.odb,Step-1,Increment      1: Step Time =    1.000,"PART-1-1",           377,       8.82700,   889.396E-03,            0.,NA,NA,"",   150.682E-03,   24.8069E-03,   148.626E-03,   4.91059E-03
C:/temp/dataset/6/24_18.odb,Step-1,Increment      1: Step Time =    1.000,"PART-1-1",           378,       6.97530,  -164.986E-03,            0.,NA,NA,"",   174.465E-03,   21.8454E-03,   173.092E-03,   7.48669E-03
C:/temp/dataset/6/24_18.odb,Step-1,Increment      1: Step Time =    1.000,"PART-1-1",           379,      -3.65351,      -22.6081,            0.,NA,NA,"",   5.71855E-03,   4.11582E-03,   3.97012E-03,   1.17864E-03
C:/temp/dataset/6/24_18.odb,Step-1,Increment      1: Step Time =    1.000,"PART-1-1",           380,      -2.48671,      -21.3009,            0.,NA,NA,"",   5.34587E-03,   4.53494E-03,   2.83066E-03,   2.01832E-03
C:/temp/dataset/6/24_18.odb,Step-1,Increment      1: Step Time =    1.000,"PART-1-1",           381,         -3.75,          -20.,            0.,NA,NA,"",   12.3052E-03,   10.3605E-03,   6.63920E-03,   3.47963E-03
C:/temp/dataset/6/24_18.odb,Step-1,Increment      1: Step Time =    1.000,"PART-1-1",           382,      -4.91680,      -21.3072,            0.,NA,NA,"",   12.6218E-03,   8.52363E-03,   9.30903E-03,   2.75800E-03
C:/temp/dataset/6/24_18.odb,Step-1,Increment      1: Step Time =    1.000,"PART-1-1",           383,       12.8399,      -22.4784,            0.,NA,NA,"",   47.8910E-03,  -28.0088E-03,   38.8466E-03,   5.58317E-03
C:/temp/dataset/6/24_18.odb,Step-1,Increment      1: Step Time =    1.000,"PART-1-1",           384,       11.7398,      -21.2760,            0.,NA,NA,"",   52.0205E-03,  -30.2911E-03,   42.2916E-03,   5.64647E-03
C:/temp/dataset/6/24_18.odb,Step-1,Increment      1: Step Time =    1.000,"PART-1-1",           385,       10.5591,      -22.4389,            0.,NA,NA,"",   40.7895E-03,  -22.1367E-03,   34.2601E-03,   5.90978E-03
C:/temp/dataset/6/24_18.odb,Step-1,Increment      1: Step Time =    1.000,"PART-1-1",           386,       11.6593,      -23.6412,            0.,NA,NA,"",   36.4196E-03,  -20.2395E-03,   30.2778E-03,   5.82636E-03
C:/temp/dataset/6/24_18.odb,Step-1,Increment      1: Step Time =    1.000,"PART-1-1",           387,          8.75,            5.,            0.,NA,NA,"",   159.743E-03,   58.4110E-03,   148.681E-03,   2.91752E-03
C:/temp/dataset/6/24_18.odb,Step-1,Increment      1: Step Time =    1.000,"PART-1-1",           388,       7.62461,       4.03982,            0.,NA,NA,"",   170.014E-03,   45.1425E-03,   163.911E-03,   4.16428E-03
C:/temp/dataset/6/24_18.odb,Step-1,Increment      1: Step Time =    1.000,"PART-1-1",           389,       8.90047,       2.96899,            0.,NA,NA,"",   153.740E-03,   39.0709E-03,   148.693E-03,   3.75962E-03
C:/temp/dataset/6/24_18.odb,Step-1,Increment      1: Step Time =    1.000,"PART-1-1",           390,       10.0259,       3.92917,            0.,NA,NA,"",   142.783E-03,   49.0225E-03,   134.103E-03,   1.79463E-03
C:/temp/dataset/6/24_18.odb,Step-1,Increment      1: Step Time =    1.000,"PART-1-1",           391,      -6.96921,       21.1213,            0.,NA,NA,"",   248.786E-03,  -221.252E-03,   113.763E-03,   659.193E-09
C:/temp/dataset/6/24_18.odb,Step-1,Increment      1: Step Time =    1.000,"PART-1-1",           392,      -6.24133,       19.9816,            0.,NA,NA,"",   241.678E-03,  -208.695E-03,   121.879E-03,   838.432E-09
C:/temp/dataset/6/24_18.odb,Step-1,Increment      1: Step Time =    1.000,"PART-1-1",           393,           -5.,        20.625,            0.,NA,NA,"",   254.920E-03,  -215.885E-03,   135.564E-03,   1.00903E-06
C:/temp/dataset/6/24_18.odb,Step-1,Increment      1: Step Time =    1.000,"PART-1-1",           394,      -12.9370,       8.81410,            0.,NA,NA,"",   97.5149E-03,  -84.5668E-03,   48.5553E-03,   129.660E-06
C:/temp/dataset/6/24_18.odb,Step-1,Increment      1: Step Time =    1.000,"PART-1-1",           395,          -15.,          8.75,            0.,NA,NA,"",   87.6834E-03,  -83.7814E-03,   25.8661E-03,   121.061E-06
C:/temp/dataset/6/24_18.odb,Step-1,Increment      1: Step Time =    1.000,"PART-1-1",           396,      -13.9287,       7.51992,            0.,NA,NA,"",   79.7175E-03,  -70.1466E-03,   37.8725E-03,   153.094E-06
C:/temp/dataset/6/24_18.odb,Step-1,Increment      1: Step Time =    1.000,"PART-1-1",           397,          -15.,          1.25,            0.,NA,NA,"",   29.6535E-03,  -3.03150E-03,   29.4981E-03,   1.04780E-03
C:/temp/dataset/6/24_18.odb,Step-1,Increment      1: Step Time =    1.000,"PART-1-1",           398,      -13.9023,  -59.1614E-03,            0.,NA,NA,"",   42.3506E-03,   10.2162E-03,   41.0999E-03,   760.449E-06
C:/temp/dataset/6/24_18.odb,Step-1,Increment      1: Step Time =    1.000,"PART-1-1",           399,      -12.7542,       1.08470,            0.,NA,NA,"",   51.3012E-03,  -943.248E-06,   51.2925E-03,   477.026E-06
C:/temp/dataset/6/24_18.odb,Step-1,Increment      1: Step Time =    1.000,"PART-1-1",           400,          -15.,         -1.25,            0.,NA,NA,"",   38.5685E-03,   20.7263E-03,   32.5262E-03,   1.62299E-03
C:/temp/dataset/6/24_18.odb,Step-1,Increment      1: Step Time =    1.000,"PART-1-1",           401,      -13.9820,      -2.43756,            0.,NA,NA,"",   52.8164E-03,   31.4496E-03,   42.4322E-03,   1.15335E-03
C:/temp/dataset/6/24_18.odb,Step-1,Increment      1: Step Time =    1.000,"PART-1-1",           402,      -12.8843,      -1.24672,            0.,NA,NA,"",   54.8106E-03,   21.4524E-03,   50.4380E-03,   588.149E-06
C:/temp/dataset/6/24_18.odb,Step-1,Increment      1: Step Time =    1.000,"PART-1-1",           403,      -12.3802,      -13.7897,            0.,NA,NA,"",   72.9224E-03,   55.6017E-03,   47.1820E-03,   2.54040E-03
C:/temp/dataset/6/24_18.odb,Step-1,Increment      1: Step Time =    1.000,"PART-1-1",           404,      -13.6672,      -12.5056,            0.,NA,NA,"",   77.6441E-03,   59.7911E-03,   49.5342E-03,   1.13612E-03
C:/temp/dataset/6/24_18.odb,Step-1,Increment      1: Step Time =    1.000,"PART-1-1",           405,          -15.,        -13.75,            0.,NA,NA,"",   76.6455E-03,   57.0227E-03,   51.2147E-03,   361.782E-06
C:/temp/dataset/6/24_18.odb,Step-1,Increment      1: Step Time =    1.000,"PART-1-1",           406,      -13.7130,      -15.0341,            0.,NA,NA,"",   70.4504E-03,   52.4237E-03,   47.0639E-03,   1.79911E-03
C:/temp/dataset/6/24_18.odb,Step-1,Increment      1: Step Time =    1.000,"PART-1-1",           407,       9.21271,      -3.58583,            0.,NA,NA,"",   128.693E-03,  -9.89904E-03,   128.312E-03,   5.39594E-03
C:/temp/dataset/6/24_18.odb,Step-1,Increment      1: Step Time =    1.000,"PART-1-1",           408,       7.90749,      -3.82305,            0.,NA,NA,"",   142.611E-03,  -7.39539E-03,   142.419E-03,   7.33134E-03
C:/temp/dataset/6/24_18.odb,Step-1,Increment      1: Step Time =    1.000,"PART-1-1",           409,       8.15132,      -5.16923,            0.,NA,NA,"",   133.659E-03,  -22.2764E-03,   131.789E-03,   5.57075E-03
C:/temp/dataset/6/24_18.odb,Step-1,Increment      1: Step Time =    1.000,"PART-1-1",           410,       9.45655,      -4.93201,            0.,NA,NA,"",   122.220E-03,  -23.2321E-03,   119.991E-03,   4.57835E-03
C:/temp/dataset/6/24_18.odb,Step-1,Increment      1: Step Time =    1.000,"PART-1-1",           411,       6.91243,      -16.0318,            0.,NA,NA,"",   74.3554E-03,  -38.2542E-03,   63.7601E-03,   7.69446E-03
C:/temp/dataset/6/24_18.odb,Step-1,Increment      1: Step Time =    1.000,"PART-1-1",           412,       5.96229,      -14.9858,            0.,NA,NA,"",   79.5336E-03,  -37.1770E-03,   70.3098E-03,   8.66309E-03
C:/temp/dataset/6/24_18.odb,Step-1,Increment      1: Step Time =    1.000,"PART-1-1",           413,            5.,      -16.2875,            0.,NA,NA,"",   65.8418E-03,  -30.4394E-03,   58.3831E-03,   8.91777E-03
C:/temp/dataset/6/24_18.odb,Step-1,Increment      1: Step Time =    1.000,"PART-1-1",           414,       6.93910,      -13.7291,            0.,NA,NA,"",   90.9013E-03,  -42.9458E-03,   80.1168E-03,   8.30914E-03
C:/temp/dataset/6/24_18.odb,Step-1,Increment      1: Step Time =    1.000,"PART-1-1",           415,       5.97681,      -12.5371,            0.,NA,NA,"",   98.7979E-03,  -40.2299E-03,   90.2363E-03,   9.45295E-03
C:/temp/dataset/6/24_18.odb,Step-1,Increment      1: Step Time =    1.000,"PART-1-1",           416,            5.,      -13.7937,            0.,NA,NA,"",   86.4863E-03,  -35.0599E-03,   79.0613E-03,   9.83518E-03
C:/temp/dataset/6/24_18.odb,Step-1,Increment      1: Step Time =    1.000,"PART-1-1",           417,         -1.25,          -20.,            0.,NA,NA,"",   4.29395E-03,   2.37729E-03,   3.57582E-03,   3.19726E-03
C:/temp/dataset/6/24_18.odb,Step-1,Increment      1: Step Time =    1.000,"PART-1-1",           418,      -1.09514,      -22.7401,            0.,NA,NA,"",   1.98607E-03,   1.67907E-03,   1.06076E-03,   875.832E-06
C:/temp/dataset/6/24_18.odb,Step-1,Increment      1: Step Time =    1.000,"PART-1-1",           419,   141.566E-03,      -21.4393,            0.,NA,NA,"",   2.38796E-03,  -340.301E-06,   2.36359E-03,   1.97293E-03
C:/temp/dataset/6/24_18.odb,Step-1,Increment      1: Step Time =    1.000,"PART-1-1",           420,      -7.69236,      -25.1479,            0.,NA,NA,"",   9.44513E-03,   4.49155E-03,   8.30881E-03,   2.46786E-03
C:/temp/dataset/6/24_18.odb,Step-1,Increment      1: Step Time =    1.000,"PART-1-1",           421,      -9.18951,      -25.9970,            0.,NA,NA,"",   9.57917E-03,   4.61810E-03,   8.39247E-03,   2.89427E-03
C:/temp/dataset/6/24_18.odb,Step-1,Increment      1: Step Time =    1.000,"PART-1-1",           422,      -8.56598,      -27.1897,            0.,NA,NA,"",   5.37318E-03,   1.96827E-03,   4.99969E-03,   2.34652E-03
C:/temp/dataset/6/24_18.odb,Step-1,Increment      1: Step Time =    1.000,"PART-1-1",           423,      -7.06883,      -26.3407,            0.,NA,NA,"",   5.50469E-03,   2.00230E-03,   5.12761E-03,   1.90912E-03
C:/temp/dataset/6/24_18.odb,Step-1,Increment      1: Step Time =    1.000,"PART-1-1",           424,      -9.82073,      -13.8964,            0.,NA,NA,"",   69.7348E-03,   52.2892E-03,   46.1387E-03,   3.95964E-03
C:/temp/dataset/6/24_18.odb,Step-1,Increment      1: Step Time =    1.000,"PART-1-1",           425,      -8.65586,      -15.1239,            0.,NA,NA,"",   61.8653E-03,   45.9468E-03,   41.4272E-03,   4.26194E-03
C:/temp/dataset/6/24_18.odb,Step-1,Increment      1: Step Time =    1.000,"PART-1-1",           426,      -8.53523,      -12.6467,            0.,NA,NA,"",   73.8274E-03,   53.9033E-03,   50.4472E-03,   4.63333E-03
C:/temp/dataset/6/24_18.odb,Step-1,Increment      1: Step Time =    1.000,"PART-1-1",           427,      -6.09243,      -10.1071,            0.,NA,NA,"",   82.8026E-03,   52.3686E-03,   64.1389E-03,   7.01201E-03
C:/temp/dataset/6/24_18.odb,Step-1,Increment      1: Step Time =    1.000,"PART-1-1",           428,           -5.,      -8.71250,            0.,NA,NA,"",   88.8504E-03,   48.8437E-03,   74.2205E-03,   8.85945E-03
C:/temp/dataset/6/24_18.odb,Step-1,Increment      1: Step Time =    1.000,"PART-1-1",           429,      -6.07322,      -7.75598,            0.,NA,NA,"",   96.6307E-03,   53.0978E-03,   80.7349E-03,   8.07382E-03
C:/temp/dataset/6/24_18.odb,Step-1,Increment      1: Step Time =    1.000,"PART-1-1",           430,      -12.7270,      -6.06323,            0.,NA,NA,"",   76.0261E-03,   55.0674E-03,   52.4170E-03,   331.024E-06
C:/temp/dataset/6/24_18.odb,Step-1,Increment      1: Step Time =    1.000,"PART-1-1",           431,      -13.8025,      -4.90646,            0.,NA,NA,"",   67.2254E-03,   48.8431E-03,   46.1909E-03,   1.20832E-03
C:/temp/dataset/6/24_18.odb,Step-1,Increment      1: Step Time =    1.000,"PART-1-1",           432,          -15.,         -6.25,            0.,NA,NA,"",   69.0860E-03,   54.5624E-03,   42.3771E-03,   2.32302E-03
C:/temp/dataset/6/24_18.odb,Step-1,Increment      1: Step Time =    1.000,"PART-1-1",           433,      -13.9244,      -7.40677,            0.,NA,NA,"",   76.5225E-03,   59.4499E-03,   48.1808E-03,   1.15080E-03
C:/temp/dataset/6/24_18.odb,Step-1,Increment      1: Step Time =    1.000,"PART-1-1",           434,       1.60591,      -1.50045,            0.,NA,NA,"",   237.942E-03,   12.1953E-03,   237.630E-03,   10.5373E-03
C:/temp/dataset/6/24_18.odb,Step-1,Increment      1: Step Time =    1.000,"PART-1-1",           435,  -853.298E-03,      -1.92043,            0.,NA,NA,"",   212.441E-03,   7.03791E-03,   212.325E-03,   9.81383E-03
C:/temp/dataset/6/24_18.odb,Step-1,Increment      1: Step Time =    1.000,"PART-1-1",           436,         13.75,          -30.,            0.,NA,NA,"",            0.,  -986.252E-42,   11.0071E-39,   7.56758E-03
C:/temp/dataset/6/24_18.odb,Step-1,Increment      1: Step Time =    1.000,"PART-1-1",           437,           15.,      -28.9063,            0.,NA,NA,"",   12.0947E-03,  -8.65937E-03,   8.44377E-03,   8.39756E-03
C:/temp/dataset/6/24_18.odb,Step-1,Increment      1: Step Time =    1.000,"PART-1-1",           438,       13.8103,      -27.8746,            0.,NA,NA,"",   15.4505E-03,  -9.90426E-03,   11.8584E-03,   6.69391E-03
C:/temp/dataset/6/24_18.odb,Step-1,Increment      1: Step Time =    1.000,"PART-1-1",           439,       12.5603,      -28.9683,            0.,NA,NA,"",   5.34267E-03,  -3.00781E-03,   4.41556E-03,   5.50950E-03
C:/temp/dataset/6/24_18.odb,Step-1,Increment      1: Step Time =    1.000,"PART-1-1",           440,       12.6598,      -26.8678,            0.,NA,NA,"",   18.9635E-03,  -11.0590E-03,   15.4050E-03,   6.14870E-03
C:/temp/dataset/6/24_18.odb,Step-1,Increment      1: Step Time =    1.000,"PART-1-1",           441,       11.5501,      -25.8632,            0.,NA,NA,"",   22.1223E-03,  -11.8580E-03,   18.6757E-03,   5.81962E-03
C:/temp/dataset/6/24_18.odb,Step-1,Increment      1: Step Time =    1.000,"PART-1-1",           442,       10.3093,      -26.9762,            0.,NA,NA,"",   12.9237E-03,  -5.76955E-03,   11.5643E-03,   5.11614E-03
C:/temp/dataset/6/24_18.odb,Step-1,Increment      1: Step Time =    1.000,"PART-1-1",           443,       11.4189,      -27.9808,            0.,NA,NA,"",   9.44829E-03,  -4.89303E-03,   8.08260E-03,   5.45585E-03
C:/temp/dataset/6/24_18.odb,Step-1,Increment      1: Step Time =    1.000,"PART-1-1",           444,       10.1086,      -29.0125,            0.,NA,NA,"",   3.47845E-03,  -1.12041E-03,   3.29306E-03,   4.20811E-03
C:/temp/dataset/6/24_18.odb,Step-1,Increment      1: Step Time =    1.000,"PART-1-1",           445,       9.01957,      -28.0513,            0.,NA,NA,"",   6.35492E-03,  -1.59943E-03,   6.15035E-03,   4.09718E-03
C:/temp/dataset/6/24_18.odb,Step-1,Increment      1: Step Time =    1.000,"PART-1-1",           446,          8.75,          -30.,            0.,NA,NA,"",            0.,   65.1674E-42,   6.61049E-39,   3.45653E-03
C:/temp/dataset/6/24_18.odb,Step-1,Increment      1: Step Time =    1.000,"PART-1-1",           447,       4.20973,      -27.9354,            0.,NA,NA,"",   3.31835E-03,   1.71573E-03,   2.84037E-03,   1.84263E-03
C:/temp/dataset/6/24_18.odb,Step-1,Increment      1: Step Time =    1.000,"PART-1-1",           448,       2.74203,      -28.9082,            0.,NA,NA,"",   1.59760E-03,   1.28677E-03,   946.855E-06,   1.36442E-03
C:/temp/dataset/6/24_18.odb,Step-1,Increment      1: Step Time =    1.000,"PART-1-1",           449,          3.75,          -30.,            0.,NA,NA,"",            0.,   993.309E-42,   2.91147E-39,   1.78436E-03
C:/temp/dataset/6/24_18.odb,Step-1,Increment      1: Step Time =    1.000,"PART-1-1",           450,       1.16266,      -25.9573,            0.,NA,NA,"",   2.43577E-03,   1.84742E-03,   1.58745E-03,   737.772E-06
C:/temp/dataset/6/24_18.odb,Step-1,Increment      1: Step Time =    1.000,"PART-1-1",           451,       1.65415,      -27.4536,            0.,NA,NA,"",   2.31883E-03,   1.86763E-03,   1.37439E-03,   947.528E-06
C:/temp/dataset/6/24_18.odb,Step-1,Increment      1: Step Time =    1.000,"PART-1-1",           452,       3.39879,      -26.8461,            0.,NA,NA,"",   3.97329E-03,   1.92147E-03,   3.47778E-03,   1.57727E-03
C:/temp/dataset/6/24_18.odb,Step-1,Increment      1: Step Time =    1.000,"PART-1-1",           453,       2.90730,      -25.3498,            0.,NA,NA,"",   4.60440E-03,   1.46817E-03,   4.36406E-03,   1.36298E-03
C:/temp/dataset/6/24_18.odb,Step-1,Increment      1: Step Time =    1.000,"PART-1-1",           454,      -3.67645,      -27.5530,            0.,NA,NA,"",   1.13245E-03,   248.824E-06,   1.10477E-03,   656.374E-06
C:/temp/dataset/6/24_18.odb,Step-1,Increment      1: Step Time =    1.000,"PART-1-1",           455,      -2.54816,      -26.3074,            0.,NA,NA,"",   1.29581E-03,   929.144E-06,   903.224E-06,   380.665E-06
C:/temp/dataset/6/24_18.odb,Step-1,Increment      1: Step Time =    1.000,"PART-1-1",           456,      -3.72120,      -25.1278,            0.,NA,NA,"",   2.77462E-03,   1.58067E-03,   2.28035E-03,   692.318E-06
C:/temp/dataset/6/24_18.odb,Step-1,Increment      1: Step Time =    1.000,"PART-1-1",           457,      -4.84948,      -26.3734,            0.,NA,NA,"",   2.80383E-03,   909.574E-06,   2.65219E-03,   971.462E-06
C:/temp/dataset/6/24_18.odb,Step-1,Increment      1: Step Time =    1.000,"PART-1-1",           458,      -4.94498,      -28.7931,            0.,NA,NA,"",   897.328E-06,  -188.422E-06,   877.323E-06,   936.189E-06
C:/temp/dataset/6/24_18.odb,Step-1,Increment      1: Step Time =    1.000,"PART-1-1",           459,         -3.75,          -30.,            0.,NA,NA,"",            0.,  -170.783E-42,   1.42404E-39,   746.087E-06
C:/temp/dataset/6/24_18.odb,Step-1,Increment      1: Step Time =    1.000,"PART-1-1",           460,      -6.07748,      -27.5364,            0.,NA,NA,"",   2.56243E-03,   376.587E-06,   2.53461E-03,   1.32774E-03
C:/temp/dataset/6/24_18.odb,Step-1,Increment      1: Step Time =    1.000,"PART-1-1",           461,      -7.38250,      -28.7433,            0.,NA,NA,"",   1.65678E-03,   39.5770E-06,   1.65631E-03,   1.67138E-03
C:/temp/dataset/6/24_18.odb,Step-1,Increment      1: Step Time =    1.000,"PART-1-1",           462,         -6.25,          -30.,            0.,NA,NA,"",            0.,  -285.893E-42,   2.48041E-39,   1.30294E-03
C:/temp/dataset/6/24_18.odb,Step-1,Increment      1: Step Time =    1.000,"PART-1-1",           463,      -8.77755,      -24.1806,            0.,NA,NA,"",   15.0332E-03,   8.21977E-03,   12.5870E-03,   3.15369E-03
C:/temp/dataset/6/24_18.odb,Step-1,Increment      1: Step Time =    1.000,"PART-1-1",           464,      -9.92276,      -23.8066,            0.,NA,NA,"",   19.3268E-03,   11.2201E-03,   15.7364E-03,   3.57593E-03
C:/temp/dataset/6/24_18.odb,Step-1,Increment      1: Step Time =    1.000,"PART-1-1",           465,      -10.3347,      -25.6230,            0.,NA,NA,"",   12.9949E-03,   6.97778E-03,   10.9626E-03,   3.33304E-03
C:/temp/dataset/6/24_18.odb,Step-1,Increment      1: Step Time =    1.000,"PART-1-1",           466,       13.9544,      -21.3085,            0.,NA,NA,"",   59.2766E-03,  -35.4968E-03,   47.4731E-03,   5.17030E-03
C:/temp/dataset/6/24_18.odb,Step-1,Increment      1: Step Time =    1.000,"PART-1-1",           467,       13.8855,      -23.5136,            0.,NA,NA,"",   45.1597E-03,  -26.5654E-03,   36.5195E-03,   5.77237E-03
C:/temp/dataset/6/24_18.odb,Step-1,Increment      1: Step Time =    1.000,"PART-1-1",           468,           15.,      -22.3438,            0.,NA,NA,"",   57.2725E-03,  -33.8795E-03,   46.1770E-03,   5.42324E-03
C:/temp/dataset/6/24_18.odb,Step-1,Increment      1: Step Time =    1.000,"PART-1-1",           469,       12.7349,      -24.6944,            0.,NA,NA,"",   33.2440E-03,  -19.1078E-03,   27.2039E-03,   5.97959E-03
C:/temp/dataset/6/24_18.odb,Step-1,Increment      1: Step Time =    1.000,"PART-1-1",           470,       13.8494,      -25.7120,            0.,NA,NA,"",   30.8889E-03,  -18.5128E-03,   24.7265E-03,   6.19268E-03
C:/temp/dataset/6/24_18.odb,Step-1,Increment      1: Step Time =    1.000,"PART-1-1",           471,           15.,      -24.5313,            0.,NA,NA,"",   43.3006E-03,  -25.7552E-03,   34.8082E-03,   5.98918E-03
C:/temp/dataset/6/24_18.odb,Step-1,Increment      1: Step Time =    1.000,"PART-1-1",           472,         11.25,          -30.,            0.,NA,NA,"",            0.,  -953.036E-42,   8.57318E-39,   4.41387E-03
C:/temp/dataset/6/24_18.odb,Step-1,Increment      1: Step Time =    1.000,"PART-1-1",           473,       13.9950,      -12.5232,            0.,NA,NA,"",   96.1820E-03,  -59.7214E-03,   75.3945E-03,   2.05273E-03
C:/temp/dataset/6/24_18.odb,Step-1,Increment      1: Step Time =    1.000,"PART-1-1",           474,       12.9942,      -13.6844,            0.,NA,NA,"",   93.5506E-03,  -57.8907E-03,   73.4872E-03,   3.40836E-03
C:/temp/dataset/6/24_18.odb,Step-1,Increment      1: Step Time =    1.000,"PART-1-1",           475,           15.,      -13.5938,            0.,NA,NA,"",   95.0263E-03,  -60.0618E-03,   73.6381E-03,   1.48647E-03
C:/temp/dataset/6/24_18.odb,Step-1,Increment      1: Step Time =    1.000,"PART-1-1",           476,       9.85236,      -17.2546,            0.,NA,NA,"",   72.9309E-03,  -42.6763E-03,   59.1409E-03,   5.87773E-03
C:/temp/dataset/6/24_18.odb,Step-1,Increment      1: Step Time =    1.000,"PART-1-1",           477,       8.68427,      -17.7513,            0.,NA,NA,"",   67.1770E-03,  -37.8547E-03,   55.4957E-03,   6.28146E-03
C:/temp/dataset/6/24_18.odb,Step-1,Increment      1: Step Time =    1.000,"PART-1-1",           478,       8.96140,      -18.9835,            0.,NA,NA,"",   59.5091E-03,  -33.3703E-03,   49.2722E-03,   6.15363E-03
C:/temp/dataset/6/24_18.odb,Step-1,Increment      1: Step Time =    1.000,"PART-1-1",           479,       10.1295,      -18.4868,            0.,NA,NA,"",   65.7685E-03,  -38.5116E-03,   53.3137E-03,   5.77385E-03
C:/temp/dataset/6/24_18.odb,Step-1,Increment      1: Step Time =    1.000,"PART-1-1",           480,       11.2436,      -18.3856,            0.,NA,NA,"",   68.9432E-03,  -41.5497E-03,   55.0162E-03,   5.42100E-03
C:/temp/dataset/6/24_18.odb,Step-1,Increment      1: Step Time =    1.000,"PART-1-1",           481,       12.3956,      -19.2305,            0.,NA,NA,"",   66.7263E-03,  -40.6302E-03,   52.9301E-03,   5.07196E-03
C:/temp/dataset/6/24_18.odb,Step-1,Increment      1: Step Time =    1.000,"PART-1-1",           482,       13.1120,      -18.1414,            0.,NA,NA,"",   74.8168E-03,  -46.4244E-03,   58.6713E-03,   4.50479E-03
C:/temp/dataset/6/24_18.odb,Step-1,Increment      1: Step Time =    1.000,"PART-1-1",           483,       11.9600,      -17.2965,            0.,NA,NA,"",   76.7476E-03,  -47.2315E-03,   60.4929E-03,   4.86548E-03
C:/temp/dataset/6/24_18.odb,Step-1,Increment      1: Step Time =    1.000,"PART-1-1",           484,       14.0024,      -3.77677,            0.,NA,NA,"",   87.2858E-03,  -19.6368E-03,   85.0483E-03,   1.29413E-03
C:/temp/dataset/6/24_18.odb,Step-1,Increment      1: Step Time =    1.000,"PART-1-1",           485,       13.0359,      -4.87313,            0.,NA,NA,"",   95.2630E-03,  -27.9509E-03,   91.0702E-03,   1.85003E-03
C:/temp/dataset/6/24_18.odb,Step-1,Increment      1: Step Time =    1.000,"PART-1-1",           486,       14.0335,      -5.94012,            0.,NA,NA,"",   90.4567E-03,  -36.6354E-03,   82.7059E-03,   1.00647E-03
C:/temp/dataset/6/24_18.odb,Step-1,Increment      1: Step Time =    1.000,"PART-1-1",           487,           15.,      -4.84375,            0.,NA,NA,"",   81.6070E-03,  -28.7604E-03,   76.3710E-03,   435.166E-06
C:/temp/dataset/6/24_18.odb,Step-1,Increment      1: Step Time =    1.000,"PART-1-1",           488,       13.0510,      -7.01836,            0.,NA,NA,"",   97.6040E-03,  -43.1338E-03,   87.5558E-03,   1.84511E-03
C:/temp/dataset/6/24_18.odb,Step-1,Increment      1: Step Time =    1.000,"PART-1-1",           489,       14.0175,      -8.10950,            0.,NA,NA,"",   94.9152E-03,  -49.6076E-03,   80.9196E-03,   955.998E-06
C:/temp/dataset/6/24_18.odb,Step-1,Increment      1: Step Time =    1.000,"PART-1-1",           490,           15.,      -7.03125,            0.,NA,NA,"",   87.8818E-03,  -43.9971E-03,   76.0755E-03,   71.4928E-06
C:/temp/dataset/6/24_18.odb,Step-1,Increment      1: Step Time =    1.000,"PART-1-1",           491,         13.75,            5.,            0.,NA,NA,"",   111.141E-03,   61.4318E-03,   92.6195E-03,   49.5230E-06
C:/temp/dataset/6/24_18.odb,Step-1,Increment      1: Step Time =    1.000,"PART-1-1",           492,       12.4982,       3.90020,            0.,NA,NA,"",   117.053E-03,   50.1518E-03,   105.764E-03,   437.441E-06
C:/temp/dataset/6/24_18.odb,Step-1,Increment      1: Step Time =    1.000,"PART-1-1",           493,       13.7482,       2.80645,            0.,NA,NA,"",   100.653E-03,   39.4062E-03,   92.6188E-03,   431.601E-06
C:/temp/dataset/6/24_18.odb,Step-1,Increment      1: Step Time =    1.000,"PART-1-1",           494,           15.,       3.90625,            0.,NA,NA,"",   94.4946E-03,   50.2492E-03,   80.0265E-03,   82.6651E-06
C:/temp/dataset/6/24_18.odb,Step-1,Increment      1: Step Time =    1.000,"PART-1-1",           495,         11.25,            5.,            0.,NA,NA,"",   134.198E-03,   61.4086E-03,   119.323E-03,   692.280E-06
C:/temp/dataset/6/24_18.odb,Step-1,Increment      1: Step Time =    1.000,"PART-1-1",           496,       11.2740,       2.82937,            0.,NA,NA,"",   125.848E-03,   39.5358E-03,   119.477E-03,   1.83813E-03
C:/temp/dataset/6/24_18.odb,Step-1,Increment      1: Step Time =    1.000,"PART-1-1",           497,       11.1422,   446.578E-03,            0.,NA,NA,"",   120.704E-03,   19.3680E-03,   119.140E-03,   2.90683E-03
C:/temp/dataset/6/24_18.odb,Step-1,Increment      1: Step Time =    1.000,"PART-1-1",           498,       10.2035,  -836.101E-03,            0.,NA,NA,"",   127.823E-03,   10.5834E-03,   127.384E-03,   3.86293E-03
C:/temp/dataset/6/24_18.odb,Step-1,Increment      1: Step Time =    1.000,"PART-1-1",           499,       11.7017,      -1.82731,            0.,NA,NA,"",   108.680E-03,  -353.205E-06,   108.680E-03,   2.85786E-03
C:/temp/dataset/6/24_18.odb,Step-1,Increment      1: Step Time =    1.000,"PART-1-1",           500,       12.5035,       1.67834,            0.,NA,NA,"",   109.199E-03,   29.1052E-03,   105.249E-03,   1.28304E-03
C:/temp/dataset/6/24_18.odb,Step-1,Increment      1: Step Time =    1.000,"PART-1-1",           501,       9.91277,       1.59761,            0.,NA,NA,"",   138.493E-03,   29.1667E-03,   135.387E-03,   3.34660E-03
C:/temp/dataset/6/24_18.odb,Step-1,Increment      1: Step Time =    1.000,"PART-1-1",           502,       5.19643,       3.92738,            0.,NA,NA,"",   194.854E-03,   33.3458E-03,   191.979E-03,   7.20977E-03
C:/temp/dataset/6/24_18.odb,Step-1,Increment      1: Step Time =    1.000,"PART-1-1",           503,          3.75,            5.,            0.,NA,NA,"",   200.982E-03,   28.2768E-03,   198.982E-03,   10.2497E-03
C:/temp/dataset/6/24_18.odb,Step-1,Increment      1: Step Time =    1.000,"PART-1-1",           504,       2.66615,       3.61346,            0.,NA,NA,"",   209.916E-03,   15.4857E-03,   209.344E-03,   8.71754E-03
C:/temp/dataset/6/24_18.odb,Step-1,Increment      1: Step Time =    1.000,"PART-1-1",           505,      -1.00804,       2.95894,            0.,NA,NA,"",   196.199E-03,  -7.12949E-03,   196.069E-03,   6.78922E-03
C:/temp/dataset/6/24_18.odb,Step-1,Increment      1: Step Time =    1.000,"PART-1-1",           506,   87.8012E-03,       3.95476,            0.,NA,NA,"",   202.191E-03,  -4.54152E-03,   202.140E-03,   8.83309E-03
C:/temp/dataset/6/24_18.odb,Step-1,Increment      1: Step Time =    1.000,"PART-1-1",           507,         -1.25,            5.,            0.,NA,NA,"",   187.907E-03,  -22.2401E-03,   186.586E-03,   8.95148E-03
C:/temp/dataset/6/24_18.odb,Step-1,Increment      1: Step Time =    1.000,"PART-1-1",           508,      -2.34584,       4.00418,            0.,NA,NA,"",   178.696E-03,  -20.3576E-03,   177.533E-03,   6.31616E-03
C:/temp/dataset/6/24_18.odb,Step-1,Increment      1: Step Time =    1.000,"PART-1-1",           509,      -3.27281,       2.96378,            0.,NA,NA,"",   167.831E-03,  -16.0630E-03,   167.060E-03,   5.87850E-03
C:/temp/dataset/6/24_18.odb,Step-1,Increment      1: Step Time =    1.000,"PART-1-1",           510,         -3.75,            5.,            0.,NA,NA,"",   161.144E-03,  -37.6834E-03,   156.676E-03,   4.74936E-03
C:/temp/dataset/6/24_18.odb,Step-1,Increment      1: Step Time =    1.000,"PART-1-1",           511,      -4.67697,       3.95960,            0.,NA,NA,"",   148.074E-03,  -28.3110E-03,   145.342E-03,   3.56598E-03
C:/temp/dataset/6/24_18.odb,Step-1,Increment      1: Step Time =    1.000,"PART-1-1",           512,      -7.93004,       8.58536,            0.,NA,NA,"",   132.713E-03,  -82.8040E-03,   103.712E-03,   179.189E-06
C:/temp/dataset/6/24_18.odb,Step-1,Increment      1: Step Time =    1.000,"PART-1-1",           513,      -8.65034,       7.25415,            0.,NA,NA,"",   117.217E-03,  -67.9512E-03,   95.5120E-03,   256.529E-06
C:/temp/dataset/6/24_18.odb,Step-1,Increment      1: Step Time =    1.000,"PART-1-1",           514,      -7.51010,       6.50150,            0.,NA,NA,"",   123.706E-03,  -59.8366E-03,   108.271E-03,   264.188E-06
C:/temp/dataset/6/24_18.odb,Step-1,Increment      1: Step Time =    1.000,"PART-1-1",           515,      -6.78981,       7.83270,            0.,NA,NA,"",   138.442E-03,  -74.7038E-03,   116.557E-03,   311.195E-06
C:/temp/dataset/6/24_18.odb,Step-1,Increment      1: Step Time =    1.000,"PART-1-1",           516,      -7.08495,       12.0475,            0.,NA,NA,"",   165.585E-03,  -121.004E-03,   113.034E-03,   46.3338E-06
C:/temp/dataset/6/24_18.odb,Step-1,Increment      1: Step Time =    1.000,"PART-1-1",           517,      -6.02998,       11.1050,            0.,NA,NA,"",   166.809E-03,  -110.697E-03,   124.786E-03,   41.6543E-06
C:/temp/dataset/6/24_18.odb,Step-1,Increment      1: Step Time =    1.000,"PART-1-1",           518,           -5.,       12.2917,            0.,NA,NA,"",   183.966E-03,  -123.819E-03,   136.060E-03,   20.1220E-06
C:/temp/dataset/6/24_18.odb,Step-1,Increment      1: Step Time =    1.000,"PART-1-1",           519,      -6.05497,       13.2342,            0.,NA,NA,"",   182.920E-03,  -134.152E-03,   124.350E-03,   9.83534E-06
C:/temp/dataset/6/24_18.odb,Step-1,Increment      1: Step Time =    1.000,"PART-1-1",           520,      -9.96524,       21.0498,            0.,NA,NA,"",   234.577E-03,  -220.279E-03,   80.6434E-03,   735.387E-09
C:/temp/dataset/6/24_18.odb,Step-1,Increment      1: Step Time =    1.000,"PART-1-1",           521,      -8.51702,       20.1362,            0.,NA,NA,"",   231.441E-03,  -210.266E-03,   96.7115E-03,   848.066E-09
C:/temp/dataset/6/24_18.odb,Step-1,Increment      1: Step Time =    1.000,"PART-1-1",           522,      -8.09442,       21.6565,            0.,NA,NA,"",   248.665E-03,  -227.100E-03,   101.290E-03,   620.158E-09
C:/temp/dataset/6/24_18.odb,Step-1,Increment      1: Step Time =    1.000,"PART-1-1",           523,      -9.54264,       22.5701,            0.,NA,NA,"",   251.964E-03,  -237.114E-03,   85.2222E-03,   485.332E-09
C:/temp/dataset/6/24_18.odb,Step-1,Increment      1: Step Time =    1.000,"PART-1-1",           524,      -7.38593,       19.0122,            0.,NA,NA,"",   226.076E-03,  -197.907E-03,   109.285E-03,   813.941E-09
C:/temp/dataset/6/24_18.odb,Step-1,Increment      1: Step Time =    1.000,"PART-1-1",           525,      -6.14460,       17.5723,            0.,NA,NA,"",   219.772E-03,  -182.065E-03,   123.094E-03,   1.30692E-06
C:/temp/dataset/6/24_18.odb,Step-1,Increment      1: Step Time =    1.000,"PART-1-1",           526,           -5.,       18.5417,            0.,NA,NA,"",   235.804E-03,  -192.852E-03,   135.689E-03,   1.98987E-06
C:/temp/dataset/6/24_18.odb,Step-1,Increment      1: Step Time =    1.000,"PART-1-1",           527,      -9.12859,       24.1056,            0.,NA,NA,"",   269.485E-03,  -254.117E-03,   89.7058E-03,   305.981E-09
C:/temp/dataset/6/24_18.odb,Step-1,Increment      1: Step Time =    1.000,"PART-1-1",           528,      -7.82088,       23.2603,            0.,NA,NA,"",   266.106E-03,  -244.850E-03,   104.216E-03,   349.941E-09
C:/temp/dataset/6/24_18.odb,Step-1,Increment      1: Step Time =    1.000,"PART-1-1",           529,      -7.11221,       24.6459,            0.,NA,NA,"",   283.280E-03,  -260.213E-03,   111.967E-03,   216.923E-09
C:/temp/dataset/6/24_18.odb,Step-1,Increment      1: Step Time =    1.000,"PART-1-1",           530,      -8.41993,       25.4912,            0.,NA,NA,"",   286.561E-03,  -269.480E-03,   97.4562E-03,   139.028E-09
C:/temp/dataset/6/24_18.odb,Step-1,Increment      1: Step Time =    1.000,"PART-1-1",           531,           -5.,       28.9583,            0.,NA,NA,"",   336.331E-03,  -308.023E-03,   135.057E-03,   2.60221E-09
C:/temp/dataset/6/24_18.odb,Step-1,Increment      1: Step Time =    1.000,"PART-1-1",           532,         -6.25,           30.,            0.,NA,NA,"",   341.672E-03,  -319.464E-03,   121.172E-03,   2.78870E-09
C:/temp/dataset/6/24_18.odb,Step-1,Increment      1: Step Time =    1.000,"PART-1-1",           533,      -6.22481,       27.8751,            0.,NA,NA,"",   319.970E-03,  -295.971E-03,   121.581E-03,   17.1815E-09
C:/temp/dataset/6/24_18.odb,Step-1,Increment      1: Step Time =    1.000,"PART-1-1",           534,      -11.1386,       27.5393,            0.,NA,NA,"",   299.609E-03,  -291.959E-03,   67.2722E-03,   48.5775E-09
C:/temp/dataset/6/24_18.odb,Step-1,Increment      1: Step Time =    1.000,"PART-1-1",           535,        -11.25,           30.,            0.,NA,NA,"",   325.889E-03,  -319.159E-03,   65.8898E-03,   8.88028E-09
C:/temp/dataset/6/24_18.odb,Step-1,Increment      1: Step Time =    1.000,"PART-1-1",           536,      -13.1147,       13.7606,            0.,NA,NA,"",   146.933E-03,  -139.459E-03,   46.2656E-03,   14.1909E-06
C:/temp/dataset/6/24_18.odb,Step-1,Increment      1: Step Time =    1.000,"PART-1-1",           537,      -14.0658,       14.9906,            0.,NA,NA,"",   157.120E-03,  -153.018E-03,   35.6686E-03,   2.12539E-06
C:/temp/dataset/6/24_18.odb,Step-1,Increment      1: Step Time =    1.000,"PART-1-1",           538,          -15.,         13.75,            0.,NA,NA,"",   141.525E-03,  -139.226E-03,   25.4052E-03,   2.47393E-06
C:/temp/dataset/6/24_18.odb,Step-1,Increment      1: Step Time =    1.000,"PART-1-1",           539,      -9.42834,       18.6970,            0.,NA,NA,"",   212.775E-03,  -194.298E-03,   86.7251E-03,   872.553E-09
C:/temp/dataset/6/24_18.odb,Step-1,Increment      1: Step Time =    1.000,"PART-1-1",           540,      -8.29725,       17.5730,            0.,NA,NA,"",   207.274E-03,  -181.940E-03,   99.2991E-03,   852.523E-09
C:/temp/dataset/6/24_18.odb,Step-1,Increment      1: Step Time =    1.000,"PART-1-1",           541,      -12.7588,       6.21303,            0.,NA,NA,"",   75.3340E-03,  -55.7024E-03,   50.7194E-03,   243.740E-06
C:/temp/dataset/6/24_18.odb,Step-1,Increment      1: Step Time =    1.000,"PART-1-1",           542,          -15.,          6.25,            0.,NA,NA,"",   62.0604E-03,  -56.1417E-03,   26.4500E-03,   310.398E-06
C:/temp/dataset/6/24_18.odb,Step-1,Increment      1: Step Time =    1.000,"PART-1-1",           543,      -9.01063,       9.47069,            0.,NA,NA,"",   130.174E-03,  -92.3822E-03,   91.7098E-03,   148.585E-06
C:/temp/dataset/6/24_18.odb,Step-1,Increment      1: Step Time =    1.000,"PART-1-1",           544,      -10.0811,       10.4578,            0.,NA,NA,"",   130.459E-03,  -103.137E-03,   79.8887E-03,   84.0281E-06
C:/temp/dataset/6/24_18.odb,Step-1,Increment      1: Step Time =    1.000,"PART-1-1",           545,      -10.9384,       9.05000,            0.,NA,NA,"",   112.247E-03,  -87.4055E-03,   70.4248E-03,   150.136E-06
C:/temp/dataset/6/24_18.odb,Step-1,Increment      1: Step Time =    1.000,"PART-1-1",           546,      -9.86794,       8.06293,            0.,NA,NA,"",   112.333E-03,  -76.6424E-03,   82.1264E-03,   193.858E-06
C:/temp/dataset/6/24_18.odb,Step-1,Increment      1: Step Time =    1.000,"PART-1-1",           547,      -7.23366,       1.29985,            0.,NA,NA,"",   110.274E-03,  -6.15384E-03,   110.102E-03,   3.15452E-03
C:/temp/dataset/6/24_18.odb,Step-1,Increment      1: Step Time =    1.000,"PART-1-1",           548,      -8.34685,   784.410E-03,            0.,NA,NA,"",   95.6909E-03,  -510.003E-06,   95.6895E-03,   2.35851E-03
C:/temp/dataset/6/24_18.odb,Step-1,Increment      1: Step Time =    1.000,"PART-1-1",           549,      -7.43977,  -685.632E-03,            0.,NA,NA,"",   103.852E-03,   11.3125E-03,   103.234E-03,   4.17402E-03
C:/temp/dataset/6/24_18.odb,Step-1,Increment      1: Step Time =    1.000,"PART-1-1",           550,      -12.4903,      -8.57964,            0.,NA,NA,"",   81.4696E-03,   62.0128E-03,   52.8367E-03,   1.28734E-03
C:/temp/dataset/6/24_18.odb,Step-1,Increment      1: Step Time =    1.000,"PART-1-1",           551,          -15.,         -8.75,            0.,NA,NA,"",   77.6034E-03,   61.4333E-03,   47.4156E-03,   1.83022E-03
C:/temp/dataset/6/24_18.odb,Step-1,Increment      1: Step Time =    1.000,"PART-1-1",           552,      -13.5658,      -9.92286,            0.,NA,NA,"",   80.4572E-03,   62.8175E-03,   50.2724E-03,   830.607E-06
C:/temp/dataset/6/24_18.odb,Step-1,Increment      1: Step Time =    1.000,"PART-1-1",           553,      -11.9783,      -7.15971,            0.,NA,NA,"",   81.0186E-03,   59.0500E-03,   55.4718E-03,   1.13975E-03
C:/temp/dataset/6/24_18.odb,Step-1,Increment      1: Step Time =    1.000,"PART-1-1",           554,      -11.8960,      -5.22799,            0.,NA,NA,"",   76.4701E-03,   51.0881E-03,   56.9007E-03,   641.341E-06
C:/temp/dataset/6/24_18.odb,Step-1,Increment      1: Step Time =    1.000,"PART-1-1",           555,      -12.4565,      -16.3452,            0.,NA,NA,"",   62.6678E-03,   46.1982E-03,   42.3436E-03,   2.93532E-03
C:/temp/dataset/6/24_18.odb,Step-1,Increment      1: Step Time =    1.000,"PART-1-1",           556,          -15.,        -16.25,            0.,NA,NA,"",   69.2644E-03,   48.8843E-03,   49.0701E-03,   1.58435E-03
C:/temp/dataset/6/24_18.odb,Step-1,Increment      1: Step Time =    1.000,"PART-1-1",           557,      -13.7435,      -17.5611,            0.,NA,NA,"",   60.1832E-03,   42.4997E-03,   42.6121E-03,   2.59671E-03
C:/temp/dataset/6/24_18.odb,Step-1,Increment      1: Step Time =    1.000,"PART-1-1",           558,      -9.99221,      -8.41662,            0.,NA,NA,"",   86.4332E-03,   60.6429E-03,   61.5884E-03,   3.30136E-03
C:/temp/dataset/6/24_18.odb,Step-1,Increment      1: Step Time =    1.000,"PART-1-1",           559,      -11.4633,      -9.12095,            0.,NA,NA,"",   83.1755E-03,   62.1279E-03,   55.3017E-03,   2.24209E-03
C:/temp/dataset/6/24_18.odb,Step-1,Increment      1: Step Time =    1.000,"PART-1-1",           560,      -10.8070,      -10.1141,            0.,NA,NA,"",   82.7113E-03,   61.5799E-03,   55.2184E-03,   2.98314E-03
C:/temp/dataset/6/24_18.odb,Step-1,Increment      1: Step Time =    1.000,"PART-1-1",           561,      -13.9189,      -24.9166,            0.,NA,NA,"",   25.2323E-03,   15.0594E-03,   20.2457E-03,   4.23520E-03
C:/temp/dataset/6/24_18.odb,Step-1,Increment      1: Step Time =    1.000,"PART-1-1",           562,      -12.9076,      -23.6273,            0.,NA,NA,"",   28.1739E-03,   17.1102E-03,   22.3832E-03,   3.90924E-03
C:/temp/dataset/6/24_18.odb,Step-1,Increment      1: Step Time =    1.000,"PART-1-1",           563,          -15.,        -23.75,            0.,NA,NA,"",   34.4792E-03,   20.5782E-03,   27.6650E-03,   4.25011E-03
C:/temp/dataset/6/24_18.odb,Step-1,Increment      1: Step Time =    1.000,"PART-1-1",           564,          -15.,        -28.75,            0.,NA,NA,"",   9.20532E-03,   6.45472E-03,   6.56311E-03,   5.65666E-03
C:/temp/dataset/6/24_18.odb,Step-1,Increment      1: Step Time =    1.000,"PART-1-1",           565,        -13.75,          -30.,            0.,NA,NA,"",            0.,   383.275E-42,   7.37954E-39,   5.07566E-03
C:/temp/dataset/6/24_18.odb,Step-1,Increment      1: Step Time =    1.000,"PART-1-1",           566,      -13.7642,      -27.4123,            0.,NA,NA,"",   12.6153E-03,   7.71043E-03,   9.98469E-03,   4.53991E-03
C:/temp/dataset/6/24_18.odb,Step-1,Increment      1: Step Time =    1.000,"PART-1-1",           567,            5.,      -6.25625,            0.,NA,NA,"",   167.256E-03,  -21.8632E-03,   165.821E-03,   20.5694E-03
C:/temp/dataset/6/24_18.odb,Step-1,Increment      1: Step Time =    1.000,"PART-1-1",           568,       7.03347,      -6.11658,            0.,NA,NA,"",   142.846E-03,  -29.1124E-03,   139.848E-03,   6.81160E-03
C:/temp/dataset/6/24_18.odb,Step-1,Increment      1: Step Time =    1.000,"PART-1-1",           569,       6.04361,      -4.83741,            0.,NA,NA,"",   164.346E-03,  -12.8271E-03,   163.844E-03,   13.5613E-03
C:/temp/dataset/6/24_18.odb,Step-1,Increment      1: Step Time =    1.000,"PART-1-1",           570,           15.,      -2.65625,            0.,NA,NA,"",   78.3637E-03,  -10.5200E-03,   77.6544E-03,   791.954E-06
C:/temp/dataset/6/24_18.odb,Step-1,Increment      1: Step Time =    1.000,"PART-1-1",           571,       12.8875,      -2.72454,            0.,NA,NA,"",   96.3390E-03,  -9.67367E-03,   95.8521E-03,   1.84298E-03
C:/temp/dataset/6/24_18.odb,Step-1,Increment      1: Step Time =    1.000,"PART-1-1",           572,       10.0248,      -7.91896,            0.,NA,NA,"",   113.081E-03,  -44.8526E-03,   103.806E-03,   4.61788E-03
C:/temp/dataset/6/24_18.odb,Step-1,Increment      1: Step Time =    1.000,"PART-1-1",           573,       8.98203,      -8.99604,            0.,NA,NA,"",   115.352E-03,  -46.8888E-03,   105.392E-03,   6.36237E-03
C:/temp/dataset/6/24_18.odb,Step-1,Increment      1: Step Time =    1.000,"PART-1-1",           574,       9.98204,      -10.2112,            0.,NA,NA,"",   107.477E-03,  -51.8964E-03,   94.1168E-03,   5.51769E-03
C:/temp/dataset/6/24_18.odb,Step-1,Increment      1: Step Time =    1.000,"PART-1-1",           575,            5.,      -11.2813,            0.,NA,NA,"",   108.636E-03,  -35.5340E-03,   102.660E-03,   10.9549E-03
C:/temp/dataset/6/24_18.odb,Step-1,Increment      1: Step Time =    1.000,"PART-1-1",           576,       6.96001,      -11.3098,            0.,NA,NA,"",   108.092E-03,  -44.0747E-03,   98.6985E-03,   8.98919E-03
C:/temp/dataset/6/24_18.odb,Step-1,Increment      1: Step Time =    1.000,"PART-1-1",           577,       12.1169,      -5.93459,            0.,NA,NA,"",   101.890E-03,  -35.1710E-03,   95.6271E-03,   2.44158E-03
C:/temp/dataset/6/24_18.odb,Step-1,Increment      1: Step Time =    1.000,"PART-1-1",           578,       11.1088,      -6.97100,            0.,NA,NA,"",   107.960E-03,  -41.0330E-03,   99.8581E-03,   3.35312E-03
C:/temp/dataset/6/24_18.odb,Step-1,Increment      1: Step Time =    1.000,"PART-1-1",           579,           15.,      -11.4063,            0.,NA,NA,"",   96.3262E-03,  -59.6438E-03,   75.6396E-03,   649.606E-06
C:/temp/dataset/6/24_18.odb,Step-1,Increment      1: Step Time =    1.000,"PART-1-1",           580,       13.9991,      -10.3053,            0.,NA,NA,"",   97.3623E-03,  -57.3141E-03,   78.7053E-03,   1.39492E-03
C:/temp/dataset/6/24_18.odb,Step-1,Increment      1: Step Time =    1.000,"PART-1-1",           581,       12.9941,      -11.4223,            0.,NA,NA,"",   98.4291E-03,  -58.2177E-03,   79.3662E-03,   2.81373E-03
C:/temp/dataset/6/24_18.odb,Step-1,Increment      1: Step Time =    1.000,"PART-1-1",           582,           15.,      -9.21875,            0.,NA,NA,"",   93.6563E-03,  -54.4639E-03,   76.1918E-03,   108.835E-06
C:/temp/dataset/6/24_18.odb,Step-1,Increment      1: Step Time =    1.000,"PART-1-1",           583,       9.25975,      -25.9916,            0.,NA,NA,"",   15.9036E-03,  -6.30052E-03,   14.6024E-03,   4.93157E-03
C:/temp/dataset/6/24_18.odb,Step-1,Increment      1: Step Time =    1.000,"PART-1-1",           584,       7.97004,      -27.0667,            0.,NA,NA,"",   8.92558E-03,  -1.81543E-03,   8.73900E-03,   3.96413E-03
C:/temp/dataset/6/24_18.odb,Step-1,Increment      1: Step Time =    1.000,"PART-1-1",           585,       9.98268,      -20.3187,            0.,NA,NA,"",   53.2769E-03,  -29.9940E-03,   44.0316E-03,   5.99207E-03
C:/temp/dataset/6/24_18.odb,Step-1,Increment      1: Step Time =    1.000,"PART-1-1",           586,       8.47236,      -19.9740,            0.,NA,NA,"",   51.2365E-03,  -27.4740E-03,   43.2476E-03,   6.19734E-03
C:/temp/dataset/6/24_18.odb,Step-1,Increment      1: Step Time =    1.000,"PART-1-1",           587,       7.80775,      -21.2882,            0.,NA,NA,"",   39.4924E-03,  -19.0337E-03,   34.6029E-03,   6.45162E-03
C:/temp/dataset/6/24_18.odb,Step-1,Increment      1: Step Time =    1.000,"PART-1-1",           588,       9.31806,      -21.6330,            0.,NA,NA,"",   42.3212E-03,  -22.0942E-03,   36.0961E-03,   6.03236E-03
C:/temp/dataset/6/24_18.odb,Step-1,Increment      1: Step Time =    1.000,"PART-1-1",           589,          3.75,          -20.,            0.,NA,NA,"",   19.0792E-03,  -13.0975E-03,   13.8734E-03,   3.31815E-03
C:/temp/dataset/6/24_18.odb,Step-1,Increment      1: Step Time =    1.000,"PART-1-1",           590,       2.69482,      -20.9389,            0.,NA,NA,"",   10.2044E-03,  -6.23105E-03,   8.08109E-03,   2.29047E-03
C:/temp/dataset/6/24_18.odb,Step-1,Increment      1: Step Time =    1.000,"PART-1-1",           591,       4.10336,      -21.5712,            0.,NA,NA,"",   15.8892E-03,  -6.09737E-03,   14.6728E-03,   3.25642E-03
C:/temp/dataset/6/24_18.odb,Step-1,Increment      1: Step Time =    1.000,"PART-1-1",           592,       5.15854,      -20.6323,            0.,NA,NA,"",   29.0434E-03,  -12.8104E-03,   26.0656E-03,   6.02930E-03
C:/temp/dataset/6/24_18.odb,Step-1,Increment      1: Step Time =    1.000,"PART-1-1",           593,          1.25,          -20.,            0.,NA,NA,"",   7.29898E-03,  -4.89599E-03,   5.41335E-03,   3.41232E-03
C:/temp/dataset/6/24_18.odb,Step-1,Increment      1: Step Time =    1.000,"PART-1-1",           594,       1.58638,      -22.3782,            0.,NA,NA,"",   3.88233E-03,  -1.08417E-03,   3.72788E-03,   1.00713E-03
C:/temp/dataset/6/24_18.odb,Step-1,Increment      1: Step Time =    1.000,"PART-1-1",           595,      -7.18878,      -21.5166,            0.,NA,NA,"",   21.6621E-03,   13.5320E-03,   16.9154E-03,   3.90565E-03
C:/temp/dataset/6/24_18.odb,Step-1,Increment      1: Step Time =    1.000,"PART-1-1",           596,      -8.69544,      -20.4918,            0.,NA,NA,"",   31.9907E-03,   21.2722E-03,   23.8935E-03,   4.09594E-03
C:/temp/dataset/6/24_18.odb,Step-1,Increment      1: Step Time =    1.000,"PART-1-1",           597,      -9.53108,      -21.9939,            0.,NA,NA,"",   26.6086E-03,   16.7073E-03,   20.7095E-03,   3.77482E-03
C:/temp/dataset/6/24_18.odb,Step-1,Increment      1: Step Time =    1.000,"PART-1-1",           598,      -8.02442,      -23.0186,            0.,NA,NA,"",   17.6072E-03,   10.1332E-03,   14.3991E-03,   3.35969E-03
C:/temp/dataset/6/24_18.odb,Step-1,Increment      1: Step Time =    1.000,"PART-1-1",           599,           -5.,      -18.7437,            0.,NA,NA,"",   28.9866E-03,   23.0366E-03,   17.5938E-03,   4.25504E-03
C:/temp/dataset/6/24_18.odb,Step-1,Increment      1: Step Time =    1.000,"PART-1-1",           600,      -6.23242,      -17.5731,            0.,NA,NA,"",   41.2153E-03,   30.9456E-03,   27.2226E-03,   4.22816E-03
C:/temp/dataset/6/24_18.odb,Step-1,Increment      1: Step Time =    1.000,"PART-1-1",           601,      -7.41830,      -18.9573,            0.,NA,NA,"",   36.9095E-03,   26.1067E-03,   26.0912E-03,   4.05751E-03
C:/temp/dataset/6/24_18.odb,Step-1,Increment      1: Step Time =    1.000,"PART-1-1",           602,      -6.18588,      -20.1280,            0.,NA,NA,"",   25.2859E-03,   17.2147E-03,   18.5211E-03,   4.04274E-03
C:/temp/dataset/6/24_18.odb,Step-1,Increment      1: Step Time =    1.000,"PART-1-1",           603,           -5.,      -16.2312,            0.,NA,NA,"",   44.4188E-03,   34.0616E-03,   28.5104E-03,   5.21977E-03
C:/temp/dataset/6/24_18.odb,Step-1,Increment      1: Step Time =    1.000,"PART-1-1",           604,      -7.44257,      -16.3835,            0.,NA,NA,"",   52.1074E-03,   38.5737E-03,   35.0322E-03,   4.37742E-03
C:/temp/dataset/6/24_18.odb,Step-1,Increment      1: Step Time =    1.000,"PART-1-1",           605,      -12.6830,      -26.0788,            0.,NA,NA,"",   16.2323E-03,   9.48358E-03,   13.1738E-03,   4.04609E-03
C:/temp/dataset/6/24_18.odb,Step-1,Increment      1: Step Time =    1.000,"PART-1-1",           606,          -15.,        -26.25,            0.,NA,NA,"",   22.4341E-03,   13.5680E-03,   17.8662E-03,   4.65267E-03
C:/temp/dataset/6/24_18.odb,Step-1,Increment      1: Step Time =    1.000,"PART-1-1",           607,         -8.75,          -30.,            0.,NA,NA,"",            0.,  -61.6137E-42,   3.85061E-39,   2.00481E-03
C:/temp/dataset/6/24_18.odb,Step-1,Increment      1: Step Time =    1.000,"PART-1-1",           608,          -15.,        -18.75,            0.,NA,NA,"",   58.9451E-03,   39.0465E-03,   44.1576E-03,   2.74680E-03
C:/temp/dataset/6/24_18.odb,Step-1,Increment      1: Step Time =    1.000,"PART-1-1",           609,      -12.5734,      -18.8685,            0.,NA,NA,"",   50.7775E-03,   35.3653E-03,   36.4370E-03,   3.31849E-03
C:/temp/dataset/6/24_18.odb,Step-1,Increment      1: Step Time =    1.000,"PART-1-1",           610,           -5.,      -11.2063,            0.,NA,NA,"",   74.2562E-03,   47.7978E-03,   56.8274E-03,   7.37126E-03
C:/temp/dataset/6/24_18.odb,Step-1,Increment      1: Step Time =    1.000,"PART-1-1",           611,      -7.25264,      -11.4522,            0.,NA,NA,"",   77.7957E-03,   53.8428E-03,   56.1528E-03,   5.71335E-03
C:/temp/dataset/6/24_18.odb,Step-1,Increment      1: Step Time =    1.000,"PART-1-1",           612,           -5.,      -6.23750,            0.,NA,NA,"",   108.885E-03,   47.0485E-03,   98.1958E-03,   13.5024E-03
C:/temp/dataset/6/24_18.odb,Step-1,Increment      1: Step Time =    1.000,"PART-1-1",           613,      -6.16987,      -5.46941,            0.,NA,NA,"",   108.792E-03,   50.8563E-03,   96.1736E-03,   8.76237E-03
C:/temp/dataset/6/24_18.odb,Step-1,Increment      1: Step Time =    1.000,"PART-1-1",           614,      -7.24309,      -6.98789,            0.,NA,NA,"",   97.4238E-03,   55.4726E-03,   80.0886E-03,   5.61073E-03
C:/temp/dataset/6/24_18.odb,Step-1,Increment      1: Step Time =    1.000,"PART-1-1",           615,           -5.,       16.4583,            0.,NA,NA,"",   217.450E-03,  -169.824E-03,   135.811E-03,   2.70885E-06
C:/temp/dataset/6/24_18.odb,Step-1,Increment      1: Step Time =    1.000,"PART-1-1",           616,      -7.23328,       16.4840,            0.,NA,NA,"",   203.073E-03,  -169.969E-03,   111.127E-03,   1.95952E-06
C:/temp/dataset/6/24_18.odb,Step-1,Increment      1: Step Time =    1.000,"PART-1-1",           617,      -6.08867,       15.3700,            0.,NA,NA,"",   200.542E-03,  -157.732E-03,   123.845E-03,   2.14515E-06
C:/temp/dataset/6/24_18.odb,Step-1,Increment      1: Step Time =    1.000,"PART-1-1",           618,      -13.1522,       16.1892,            0.,NA,NA,"",   172.500E-03,  -166.336E-03,   45.7018E-03,   1.97620E-06
C:/temp/dataset/6/24_18.odb,Step-1,Increment      1: Step Time =    1.000,"PART-1-1",           619,      -14.0864,       17.4486,            0.,NA,NA,"",   183.631E-03,  -180.208E-03,   35.2928E-03,   1.56867E-06
C:/temp/dataset/6/24_18.odb,Step-1,Increment      1: Step Time =    1.000,"PART-1-1",           620,          -15.,         16.25,            0.,NA,NA,"",   168.794E-03,  -166.894E-03,   25.2581E-03,   2.68755E-06
C:/temp/dataset/6/24_18.odb,Step-1,Increment      1: Step Time =    1.000,"PART-1-1",           621,           -5.,       24.7917,            0.,NA,NA,"",   294.838E-03,  -261.954E-03,   135.311E-03,   138.066E-09
C:/temp/dataset/6/24_18.odb,Step-1,Increment      1: Step Time =    1.000,"PART-1-1",           622,      -6.14442,       25.7689,            0.,NA,NA,"",   298.981E-03,  -272.689E-03,   122.598E-03,   72.0197E-09
C:/temp/dataset/6/24_18.odb,Step-1,Increment      1: Step Time =    1.000,"PART-1-1",           623,           -5.,        26.875,            0.,NA,NA,"",   315.426E-03,  -284.989E-03,   135.184E-03,   28.5593E-09
C:/temp/dataset/6/24_18.odb,Step-1,Increment      1: Step Time =    1.000,"PART-1-1",           624,      -7.36924,       26.7689,            0.,NA,NA,"",   303.890E-03,  -283.671E-03,   108.995E-03,   83.3350E-09
C:/temp/dataset/6/24_18.odb,Step-1,Increment      1: Step Time =    1.000,"PART-1-1",           625,      -13.1175,       20.9132,            0.,NA,NA,"",   223.324E-03,  -218.577E-03,   45.7970E-03,   706.818E-09
C:/temp/dataset/6/24_18.odb,Step-1,Increment      1: Step Time =    1.000,"PART-1-1",           626,      -14.0212,       22.2867,            0.,NA,NA,"",   236.422E-03,  -233.708E-03,   35.7207E-03,   375.515E-09
C:/temp/dataset/6/24_18.odb,Step-1,Increment      1: Step Time =    1.000,"PART-1-1",           627,          -15.,         21.25,            0.,NA,NA,"",   223.583E-03,  -222.186E-03,   24.9616E-03,   826.125E-09
C:/temp/dataset/6/24_18.odb,Step-1,Increment      1: Step Time =    1.000,"PART-1-1",           628,      -14.0963,       19.8765,            0.,NA,NA,"",   209.998E-03,  -207.055E-03,   35.0371E-03,   921.214E-09
C:/temp/dataset/6/24_18.odb,Step-1,Increment      1: Step Time =    1.000,"PART-1-1",           629,         -1.25,           -5.,            0.,NA,NA,"",   207.660E-03,   45.7321E-03,   202.561E-03,   5.11396E-03
C:/temp/dataset/6/24_18.odb,Step-1,Increment      1: Step Time =    1.000,"PART-1-1",           630,      -1.77292,      -3.03732,            0.,NA,NA,"",   196.010E-03,   16.0349E-03,   195.353E-03,   8.97642E-03
C:/temp/dataset/6/24_18.odb,Step-1,Increment      1: Step Time =    1.000,"PART-1-1",           631,      -12.1053,      -2.30059,            0.,NA,NA,"",   64.2964E-03,   30.5823E-03,   56.5575E-03,   653.383E-06
C:/temp/dataset/6/24_18.odb,Step-1,Increment      1: Step Time =    1.000,"PART-1-1",           632,      -10.7648,      -1.40855,            0.,NA,NA,"",   71.5471E-03,   22.2534E-03,   67.9984E-03,   1.32356E-03
C:/temp/dataset/6/24_18.odb,Step-1,Increment      1: Step Time =    1.000,"PART-1-1",           633,      -11.5438,  -354.672E-03,            0.,NA,NA,"",   63.4180E-03,   12.9152E-03,   62.0890E-03,   814.038E-06
C:/temp/dataset/6/24_18.odb,Step-1,Increment      1: Step Time =    1.000,"PART-1-1",           634,          3.75,           -5.,            0.,NA,NA,"",   252.924E-03,  -3.28111E-03,   252.903E-03,   15.1226E-03
C:/temp/dataset/6/24_18.odb,Step-1,Increment      1: Step Time =    1.000,"PART-1-1",           635,       4.52066,      -3.83856,            0.,NA,NA,"",   217.293E-03,   15.8150E-03,   216.716E-03,   16.9017E-03
C:/temp/dataset/6/24_18.odb,Step-1,Increment      1: Step Time =    1.000,"PART-1-1",           636,       2.94662,      -2.72704,            0.,NA,NA,"",   243.798E-03,   18.2414E-03,   243.115E-03,   13.4928E-03
C:/temp/dataset/6/24_18.odb,Step-1,Increment      1: Step Time =    1.000,"PART-1-1",           637,       1.50395,       2.56821,            0.,NA,NA,"",   214.056E-03,   8.12639E-03,   213.902E-03,   6.37750E-03
C:/temp/dataset/6/24_18.odb,Step-1,Increment      1: Step Time =    1.000,"PART-1-1",           638,          1.25,            5.,            0.,NA,NA,"",   202.823E-03,   2.23623E-03,   202.811E-03,   11.3353E-03
C:/temp/dataset/6/24_18.odb,Step-1,Increment      1: Step Time =    1.000,"PART-1-1",           639,          6.25,            5.,            0.,NA,NA,"",   184.252E-03,   48.3023E-03,   177.808E-03,   6.67303E-03
C:/temp/dataset/6/24_18.odb,Step-1,Increment      1: Step Time =    1.000,"PART-1-1",           640,  -213.968E-03,      -26.0734,            0.,NA,NA,"",   1.70151E-03,   1.54953E-03,   702.910E-06,   457.025E-06
C:/temp/dataset/6/24_18.odb,Step-1,Increment      1: Step Time =    1.000,"PART-1-1",           641,       1.14210,      -23.8512,            0.,NA,NA,"",   2.38868E-03,   920.830E-06,   2.20406E-03,   641.517E-06
C:/temp/dataset/6/24_18.odb,Step-1,Increment      1: Step Time =    1.000,"PART-1-1",           642,  -234.527E-03,      -23.9674,            0.,NA,NA,"",   1.66874E-03,   1.38736E-03,   927.328E-06,   303.831E-06
C:/temp/dataset/6/24_18.odb,Step-1,Increment      1: Step Time =    1.000,"PART-1-1",           643,           -5.,        14.375,            0.,NA,NA,"",   200.076E-03,  -146.809E-03,   135.932E-03,   1.19559E-06
C:/temp/dataset/6/24_18.odb,Step-1,Increment      1: Step Time =    1.000,"PART-1-1",           644,      -7.14364,       14.2292,            0.,NA,NA,"",   183.427E-03,  -145.066E-03,   112.256E-03,   12.1497E-06
C:/temp/dataset/6/24_18.odb,Step-1,Increment      1: Step Time =    1.000,"PART-1-1",           645,           -5.,       6.04167,            0.,NA,NA,"",   148.308E-03,  -54.7920E-03,   137.815E-03,   996.334E-06
C:/temp/dataset/6/24_18.odb,Step-1,Increment      1: Step Time =    1.000,"PART-1-1",           646,      -5.82078,       6.95384,            0.,NA,NA,"",   143.435E-03,  -65.0629E-03,   127.830E-03,   373.571E-06
C:/temp/dataset/6/24_18.odb,Step-1,Increment      1: Step Time =    1.000,"PART-1-1",           647,      -6.45742,       5.85906,            0.,NA,NA,"",   131.500E-03,  -52.6696E-03,   120.492E-03,   289.939E-06
C:/temp/dataset/6/24_18.odb,Step-1,Increment      1: Step Time =    1.000,"PART-1-1",           648,      -5.63664,       4.94688,            0.,NA,NA,"",   137.241E-03,  -41.6808E-03,   130.758E-03,   1.37677E-03
C:/temp/dataset/6/24_18.odb,Step-1,Increment      1: Step Time =    1.000,"PART-1-1",           649,           -5.,         8.125,            0.,NA,NA,"",   157.269E-03,  -77.9212E-03,   136.609E-03,   301.639E-06
C:/temp/dataset/6/24_18.odb,Step-1,Increment      1: Step Time =    1.000,"PART-1-1",           650,      -5.96903,       9.00386,            0.,NA,NA,"",   153.186E-03,  -87.5958E-03,   125.670E-03,   125.134E-06
C:/temp/dataset/6/24_18.odb,Step-1,Increment      1: Step Time =    1.000,"PART-1-1",           651,          -15.,         -3.75,            0.,NA,NA,"",   54.9333E-03,   40.6116E-03,   36.9915E-03,   2.17014E-03
C:/temp/dataset/6/24_18.odb,Step-1,Increment      1: Step Time =    1.000,"PART-1-1",           652,      -12.7846,      -3.59401,            0.,NA,NA,"",   65.7474E-03,   40.6856E-03,   51.6469E-03,   415.450E-06
C:/temp/dataset/6/24_18.odb,Step-1,Increment      1: Step Time =    1.000,"PART-1-1",           653,      -11.5430,      -4.20540,            0.,NA,NA,"",   74.6277E-03,   44.9151E-03,   59.5980E-03,   807.549E-06
C:/temp/dataset/6/24_18.odb,Step-1,Increment      1: Step Time =    1.000,"PART-1-1",           654,      -10.1018,      -4.29084,            0.,NA,NA,"",   82.4675E-03,   45.1001E-03,   69.0425E-03,   1.92353E-03
C:/temp/dataset/6/24_18.odb,Step-1,Increment      1: Step Time =    1.000,"PART-1-1",           655,          -15.,        -11.25,            0.,NA,NA,"",   79.8299E-03,   61.7706E-03,   50.5688E-03,   848.728E-06
C:/temp/dataset/6/24_18.odb,Step-1,Increment      1: Step Time =    1.000,"PART-1-1",           656,      -12.2331,      -11.1785,            0.,NA,NA,"",   79.9714E-03,   61.5556E-03,   51.0524E-03,   2.15356E-03
C:/temp/dataset/6/24_18.odb,Step-1,Increment      1: Step Time =    1.000,"PART-1-1",           657,       5.21391,      -1.02834,            0.,NA,NA,"",   202.111E-03,   22.1119E-03,   200.898E-03,   10.2129E-03
C:/temp/dataset/6/24_18.odb,Step-1,Increment      1: Step Time =    1.000,"PART-1-1",           658,       6.72319,      -1.59046,            0.,NA,NA,"",   173.937E-03,   16.6897E-03,   173.135E-03,   10.1259E-03
C:/temp/dataset/6/24_18.odb,Step-1,Increment      1: Step Time =    1.000,"PART-1-1",           659,       10.9187,      -16.2245,            0.,NA,NA,"",   80.7784E-03,  -48.6023E-03,   64.5210E-03,   5.34380E-03
C:/temp/dataset/6/24_18.odb,Step-1,Increment      1: Step Time =    1.000,"PART-1-1",           660,       11.9858,      -14.8752,            0.,NA,NA,"",   88.6160E-03,  -54.2858E-03,   70.0417E-03,   4.46236E-03
C:/temp/dataset/6/24_18.odb,Step-1,Increment      1: Step Time =    1.000,"PART-1-1",           661,       10.9746,      -13.7451,            0.,NA,NA,"",   92.9402E-03,  -54.3244E-03,   75.4105E-03,   5.09656E-03
C:/temp/dataset/6/24_18.odb,Step-1,Increment      1: Step Time =    1.000,"PART-1-1",           662,       11.9830,      -12.5543,            0.,NA,NA,"",   96.9921E-03,  -57.1979E-03,   78.3318E-03,   4.03879E-03
C:/temp/dataset/6/24_18.odb,Step-1,Increment      1: Step Time =    1.000,"PART-1-1",           663,           15.,      -20.1563,            0.,NA,NA,"",   70.2571E-03,  -42.3640E-03,   56.0478E-03,   4.53852E-03
C:/temp/dataset/6/24_18.odb,Step-1,Increment      1: Step Time =    1.000,"PART-1-1",           664,       14.0841,      -19.1367,            0.,NA,NA,"",   72.3577E-03,  -44.4959E-03,   57.0592E-03,   4.37517E-03
C:/temp/dataset/6/24_18.odb,Step-1,Increment      1: Step Time =    1.000,"PART-1-1",           665,       13.0385,      -20.2889,            0.,NA,NA,"",   62.2621E-03,  -37.6292E-03,   49.6046E-03,   5.07831E-03
C:/temp/dataset/6/24_18.odb,Step-1,Increment      1: Step Time =    1.000,"PART-1-1",           666,           15.,      -17.9688,            0.,NA,NA,"",   81.4187E-03,  -50.3541E-03,   63.9803E-03,   3.51343E-03
C:/temp/dataset/6/24_18.odb,Step-1,Increment      1: Step Time =    1.000,"PART-1-1",           667,          1.25,          -30.,            0.,NA,NA,"",            0.,   773.941E-42,   1.54964E-39,   1.08155E-03
C:/temp/dataset/6/24_18.odb,Step-1,Increment      1: Step Time =    1.000,"PART-1-1",           668,       3.30543,      -22.6598,            0.,NA,NA,"",   8.90423E-03,  -2.12043E-03,   8.64807E-03,   1.90738E-03
C:/temp/dataset/6/24_18.odb,Step-1,Increment      1: Step Time =    1.000,"PART-1-1",           669,       2.86115,      -24.1329,            0.,NA,NA,"",   5.53836E-03,   459.886E-06,   5.51924E-03,   1.56881E-03
C:/temp/dataset/6/24_18.odb,Step-1,Increment      1: Step Time =    1.000,"PART-1-1",           670,      -10.6801,      -21.6169,            0.,NA,NA,"",   31.6165E-03,   20.3834E-03,   24.1686E-03,   3.84156E-03
C:/temp/dataset/6/24_18.odb,Step-1,Increment      1: Step Time =    1.000,"PART-1-1",           671,      -11.3394,      -20.4213,            0.,NA,NA,"",   39.5455E-03,   26.5795E-03,   29.2810E-03,   3.72927E-03
C:/temp/dataset/6/24_18.odb,Step-1,Increment      1: Step Time =    1.000,"PART-1-1",           672,      -12.1593,      -22.4638,            0.,NA,NA,"",   31.5520E-03,   19.8022E-03,   24.5641E-03,   3.77913E-03
C:/temp/dataset/6/24_18.odb,Step-1,Increment      1: Step Time =    1.000,"PART-1-1",           673,      -9.92443,      -16.4516,            0.,NA,NA,"",   57.3914E-03,   42.4365E-03,   38.6382E-03,   3.91606E-03
C:/temp/dataset/6/24_18.odb,Step-1,Increment      1: Step Time =    1.000,"PART-1-1",           674,      -8.71114,      -17.7111,            0.,NA,NA,"",   47.8549E-03,   34.7169E-03,   32.9368E-03,   4.03633E-03
C:/temp/dataset/6/24_18.odb,Step-1,Increment      1: Step Time =    1.000,"PART-1-1",           675,      -9.25100,      -7.50767,            0.,NA,NA,"",   89.1292E-03,   58.6820E-03,   67.0853E-03,   3.71760E-03
C:/temp/dataset/6/24_18.odb,Step-1,Increment      1: Step Time =    1.000,"PART-1-1",           676,      -8.32615,      -6.25855,            0.,NA,NA,"",   93.5532E-03,   54.4203E-03,   76.0962E-03,   4.30324E-03
C:/temp/dataset/6/24_18.odb,Step-1,Increment      1: Step Time =    1.000,"PART-1-1",           677,      -7.58018,      -5.09368,            0.,NA,NA,"",   98.8392E-03,   49.1294E-03,   85.7641E-03,   4.58430E-03
C:/temp/dataset/6/24_18.odb,Step-1,Increment      1: Step Time =    1.000,"PART-1-1",           678,      -6.67379,      -3.84489,            0.,NA,NA,"",   106.519E-03,   38.2140E-03,   99.4287E-03,   6.28307E-03
C:/temp/dataset/6/24_18.odb,Step-1,Increment      1: Step Time =    1.000,"PART-1-1",           679,      -2.40491,      -1.03021,            0.,NA,NA,"",   183.436E-03,   3.93524E-03,   183.394E-03,   8.82140E-03
C:/temp/dataset/6/24_18.odb,Step-1,Increment      1: Step Time =    1.000,"PART-1-1",           680,      -3.32453,      -2.14711,            0.,NA,NA,"",   164.825E-03,   12.1096E-03,   164.380E-03,   8.70087E-03
C:/temp/dataset/6/24_18.odb,Step-1,Increment      1: Step Time =    1.000,"PART-1-1",           681,       10.4745,      -24.8101,            0.,NA,NA,"",   25.4915E-03,  -12.7685E-03,   22.0631E-03,   5.66237E-03
C:/temp/dataset/6/24_18.odb,Step-1,Increment      1: Step Time =    1.000,"PART-1-1",           682,       8.16019,      -23.0435,            0.,NA,NA,"",   29.1733E-03,  -12.7098E-03,   26.2592E-03,   5.80566E-03
C:/temp/dataset/6/24_18.odb,Step-1,Increment      1: Step Time =    1.000,"PART-1-1",           683,       9.40124,      -23.8494,            0.,NA,NA,"",   28.2188E-03,  -13.3108E-03,   24.8822E-03,   5.63513E-03
C:/temp/dataset/6/24_18.odb,Step-1,Increment      1: Step Time =    1.000,"PART-1-1",           684,       5.67200,      -27.0943,            0.,NA,NA,"",   6.00393E-03,   786.452E-06,   5.95220E-03,   2.74794E-03
C:/temp/dataset/6/24_18.odb,Step-1,Increment      1: Step Time =    1.000,"PART-1-1",           685,       4.86106,      -26.0050,            0.,NA,NA,"",   7.19763E-03,   702.124E-06,   7.16330E-03,   2.47764E-03
C:/temp/dataset/6/24_18.odb,Step-1,Increment      1: Step Time =    1.000,"PART-1-1",           686,      -2.55341,      -23.8484,            0.,NA,NA,"",   2.58537E-03,   2.10054E-03,   1.50727E-03,   542.316E-06
C:/temp/dataset/6/24_18.odb,Step-1,Increment      1: Step Time =    1.000,"PART-1-1",           687,      -4.82130,      -23.8875,            0.,NA,NA,"",   6.17773E-03,   3.46003E-03,   5.11787E-03,   1.45581E-03
C:/temp/dataset/6/24_18.odb,Step-1,Increment      1: Step Time =    1.000,"PART-1-1",           688,      -5.84083,      -25.1777,            0.,NA,NA,"",   5.88043E-03,   2.60222E-03,   5.27332E-03,   1.58440E-03
C:/temp/dataset/6/24_18.odb,Step-1,Increment      1: Step Time =    1.000,"PART-1-1",           689,           15.,      -26.7188,            0.,NA,NA,"",   29.2566E-03,  -18.2451E-03,   22.8706E-03,   6.65963E-03
C:/temp/dataset/6/24_18.odb,Step-1,Increment      1: Step Time =    1.000,"PART-1-1",           690,       10.9874,      -11.4075,            0.,NA,NA,"",   101.475E-03,  -55.2735E-03,   85.0999E-03,   4.70003E-03
C:/temp/dataset/6/24_18.odb,Step-1,Increment      1: Step Time =    1.000,"PART-1-1",           691,       7.29436,      -19.7763,            0.,NA,NA,"",   48.5467E-03,  -25.2386E-03,   41.4705E-03,   6.58020E-03
C:/temp/dataset/6/24_18.odb,Step-1,Increment      1: Step Time =    1.000,"PART-1-1",           692,       7.78340,      -18.7858,            0.,NA,NA,"",   57.3874E-03,  -31.0726E-03,   48.2473E-03,   6.29734E-03
C:/temp/dataset/6/24_18.odb,Step-1,Increment      1: Step Time =    1.000,"PART-1-1",           693,       10.8970,      -2.99004,            0.,NA,NA,"",   113.786E-03,  -8.91910E-03,   113.436E-03,   3.52282E-03
C:/temp/dataset/6/24_18.odb,Step-1,Increment      1: Step Time =    1.000,"PART-1-1",           694,       12.0828,      -3.88727,            0.,NA,NA,"",   102.178E-03,  -18.7600E-03,   100.441E-03,   2.61527E-03
C:/temp/dataset/6/24_18.odb,Step-1,Increment      1: Step Time =    1.000,"PART-1-1",           695,           15.,       1.71875,            0.,NA,NA,"",   85.1656E-03,   28.8821E-03,   80.1187E-03,   233.525E-06
C:/temp/dataset/6/24_18.odb,Step-1,Increment      1: Step Time =    1.000,"PART-1-1",           696,       4.00043,  -427.215E-03,            0.,NA,NA,"",   217.801E-03,   20.9586E-03,   216.791E-03,   9.09827E-03
C:/temp/dataset/6/24_18.odb,Step-1,Increment      1: Step Time =    1.000,"PART-1-1",           697,       2.09609,       1.00148,            0.,NA,NA,"",   221.595E-03,   12.5978E-03,   221.236E-03,   6.61917E-03
C:/temp/dataset/6/24_18.odb,Step-1,Increment      1: Step Time =    1.000,"PART-1-1",           698,       2.38138,  -554.063E-03,            0.,NA,NA,"",   230.186E-03,   14.8809E-03,   229.704E-03,   7.60999E-03
C:/temp/dataset/6/24_18.odb,Step-1,Increment      1: Step Time =    1.000,"PART-1-1",           699,   35.7305E-03,       2.11113,            0.,NA,NA,"",   208.497E-03,   808.539E-06,   208.496E-03,   6.92614E-03
C:/temp/dataset/6/24_18.odb,Step-1,Increment      1: Step Time =    1.000,"PART-1-1",           700,           -5.,       10.2083,            0.,NA,NA,"",   169.539E-03,  -100.879E-03,   136.260E-03,   89.6650E-06
C:/temp/dataset/6/24_18.odb,Step-1,Increment      1: Step Time =    1.000,"PART-1-1",           701,      -6.99901,       9.90050,            0.,NA,NA,"",   150.015E-03,  -97.3804E-03,   114.111E-03,   118.382E-06
C:/temp/dataset/6/24_18.odb,Step-1,Increment      1: Step Time =    1.000,"PART-1-1",           702,      -11.2396,       16.2208,            0.,NA,NA,"",   179.703E-03,  -166.806E-03,   66.8506E-03,   3.81171E-06
C:/temp/dataset/6/24_18.odb,Step-1,Increment      1: Step Time =    1.000,"PART-1-1",           703,      -10.2112,       15.1096,            0.,NA,NA,"",   173.277E-03,  -154.584E-03,   78.2860E-03,   6.50478E-06
C:/temp/dataset/6/24_18.odb,Step-1,Increment      1: Step Time =    1.000,"PART-1-1",           704,      -9.25876,       16.3324,            0.,NA,NA,"",   190.146E-03,  -168.166E-03,   88.7449E-03,   3.76779E-06
C:/temp/dataset/6/24_18.odb,Step-1,Increment      1: Step Time =    1.000,"PART-1-1",           705,      -10.2871,       17.4437,            0.,NA,NA,"",   196.255E-03,  -180.388E-03,   77.3075E-03,   1.14115E-06
C:/temp/dataset/6/24_18.odb,Step-1,Increment      1: Step Time =    1.000,"PART-1-1",           706,      -8.19479,       15.2434,            0.,NA,NA,"",   185.777E-03,  -156.199E-03,   100.573E-03,   5.07078E-06
C:/temp/dataset/6/24_18.odb,Step-1,Increment      1: Step Time =    1.000,"PART-1-1",           707,      -9.19446,       14.0222,            0.,NA,NA,"",   168.436E-03,  -142.635E-03,   89.5877E-03,   18.0761E-06
C:/temp/dataset/6/24_18.odb,Step-1,Increment      1: Step Time =    1.000,"PART-1-1",           708,      -8.14331,       13.0080,            0.,NA,NA,"",   165.985E-03,  -131.515E-03,   101.266E-03,   23.1552E-06
C:/temp/dataset/6/24_18.odb,Step-1,Increment      1: Step Time =    1.000,"PART-1-1",           709,          -15.,         18.75,            0.,NA,NA,"",   196.157E-03,  -194.543E-03,   25.1115E-03,   1.94270E-06
C:/temp/dataset/6/24_18.odb,Step-1,Increment      1: Step Time =    1.000,"PART-1-1",           710,      -13.1826,       18.5751,            0.,NA,NA,"",   197.955E-03,  -192.721E-03,   45.2193E-03,   747.633E-09
C:/temp/dataset/6/24_18.odb,Step-1,Increment      1: Step Time =    1.000,"PART-1-1",           711,      -11.2313,       23.3702,            0.,NA,NA,"",   254.693E-03,  -245.858E-03,   66.5018E-03,   371.197E-09
C:/temp/dataset/6/24_18.odb,Step-1,Increment      1: Step Time =    1.000,"PART-1-1",           712,      -10.8173,       24.9058,            0.,NA,NA,"",   272.277E-03,  -262.861E-03,   70.9857E-03,   185.824E-09
C:/temp/dataset/6/24_18.odb,Step-1,Increment      1: Step Time =    1.000,"PART-1-1",           713,      -13.5418,       24.7667,            0.,NA,NA,"",   264.336E-03,  -261.157E-03,   40.8705E-03,   127.794E-09
C:/temp/dataset/6/24_18.odb,Step-1,Increment      1: Step Time =    1.000,"PART-1-1",           714,      -12.2278,       25.9824,            0.,NA,NA,"",   280.194E-03,  -274.678E-03,   55.3247E-03,   134.233E-09
C:/temp/dataset/6/24_18.odb,Step-1,Increment      1: Step Time =    1.000,"PART-1-1",           715,          -15.,         26.25,            0.,NA,NA,"",   278.561E-03,  -277.468E-03,   24.6572E-03,   60.9730E-09
C:/temp/dataset/6/24_18.odb,Step-1,Increment      1: Step Time =    1.000,"PART-1-1",           716,          -15.,         23.75,            0.,NA,NA,"",   251.055E-03,  -249.827E-03,   24.8097E-03,   269.817E-09
C:/temp/dataset/6/24_18.odb,Step-1,Increment      1: Step Time =    1.000,"PART-1-1",           717,      -12.5630,       23.3034,            0.,NA,NA,"",   250.450E-03,  -245.038E-03,   51.7819E-03,   369.770E-09
C:/temp/dataset/6/24_18.odb,Step-1,Increment      1: Step Time =    1.000,"PART-1-1",           718,      -11.1827,       13.8735,            0.,NA,NA,"",   156.231E-03,  -140.842E-03,   67.6147E-03,   18.8017E-06
C:/temp/dataset/6/24_18.odb,Step-1,Increment      1: Step Time =    1.000,"PART-1-1",           719,      -10.1659,       12.7861,            0.,NA,NA,"",   151.126E-03,  -128.892E-03,   78.9037E-03,   28.0291E-06
C:/temp/dataset/6/24_18.odb,Step-1,Increment      1: Step Time =    1.000,"PART-1-1",           720,      -11.4858,       20.4947,            0.,NA,NA,"",   223.374E-03,  -214.050E-03,   63.8654E-03,   770.186E-09
C:/temp/dataset/6/24_18.odb,Step-1,Increment      1: Step Time =    1.000,"PART-1-1",           721,      -10.4732,       19.7487,            0.,NA,NA,"",   219.136E-03,  -205.862E-03,   75.1074E-03,   909.740E-09
C:/temp/dataset/6/24_18.odb,Step-1,Increment      1: Step Time =    1.000,"PART-1-1",           722,      -10.9778,       21.7959,            0.,NA,NA,"",   238.775E-03,  -228.467E-03,   69.4019E-03,   608.715E-09
C:/temp/dataset/6/24_18.odb,Step-1,Increment      1: Step Time =    1.000,"PART-1-1",           723,      -9.13796,       11.7463,            0.,NA,NA,"",   148.191E-03,  -117.497E-03,   90.3055E-03,   58.5867E-06
C:/temp/dataset/6/24_18.odb,Step-1,Increment      1: Step Time =    1.000,"PART-1-1",           724,      -11.1090,       11.4975,            0.,NA,NA,"",   133.475E-03,  -114.538E-03,   68.5319E-03,   59.8003E-06
C:/temp/dataset/6/24_18.odb,Step-1,Increment      1: Step Time =    1.000,"PART-1-1",           725,      -7.95801,       5.48811,            0.,NA,NA,"",   113.864E-03,  -48.4553E-03,   103.040E-03,   332.079E-06
C:/temp/dataset/6/24_18.odb,Step-1,Increment      1: Step Time =    1.000,"PART-1-1",           726,      -9.27172,       5.51676,            0.,NA,NA,"",   100.783E-03,  -48.5835E-03,   88.2995E-03,   319.513E-06
C:/temp/dataset/6/24_18.odb,Step-1,Increment      1: Step Time =    1.000,"PART-1-1",           727,      -9.10783,       4.19071,            0.,NA,NA,"",   96.0896E-03,  -34.1875E-03,   89.8022E-03,   512.710E-06
C:/temp/dataset/6/24_18.odb,Step-1,Increment      1: Step Time =    1.000,"PART-1-1",           728,      -7.79412,       4.16207,            0.,NA,NA,"",   110.177E-03,  -33.9742E-03,   104.808E-03,   736.661E-06
C:/temp/dataset/6/24_18.odb,Step-1,Increment      1: Step Time =    1.000,"PART-1-1",           729,      -10.3652,   710.465E-03,            0.,NA,NA,"",   74.0955E-03,   1.92831E-03,   74.0704E-03,   1.15237E-03
C:/temp/dataset/6/24_18.odb,Step-1,Increment      1: Step Time =    1.000,"PART-1-1",           730,      -11.5756,       2.14983,            0.,NA,NA,"",   64.0202E-03,  -12.0496E-03,   62.8760E-03,   399.910E-06
C:/temp/dataset/6/24_18.odb,Step-1,Increment      1: Step Time =    1.000,"PART-1-1",           731,      -10.9514,      -7.70102,            0.,NA,NA,"",   84.4148E-03,   60.1652E-03,   59.2115E-03,   2.16567E-03
C:/temp/dataset/6/24_18.odb,Step-1,Increment      1: Step Time =    1.000,"PART-1-1",           732,      -11.1587,      -15.1039,            0.,NA,NA,"",   66.0835E-03,   49.7042E-03,   43.5491E-03,   3.31819E-03
C:/temp/dataset/6/24_18.odb,Step-1,Increment      1: Step Time =    1.000,"PART-1-1",           733,      -11.0422,      -12.5823,            0.,NA,NA,"",   76.0520E-03,   57.7693E-03,   49.4632E-03,   3.16459E-03
C:/temp/dataset/6/24_18.odb,Step-1,Increment      1: Step Time =    1.000,"PART-1-1",           734,      -9.98828,      -19.2456,            0.,NA,NA,"",   42.3543E-03,   29.5527E-03,   30.3402E-03,   3.95959E-03
C:/temp/dataset/6/24_18.odb,Step-1,Increment      1: Step Time =    1.000,"PART-1-1",           735,      -11.2222,      -17.6929,            0.,NA,NA,"",   53.5577E-03,   38.7428E-03,   36.9786E-03,   3.55447E-03
C:/temp/dataset/6/24_18.odb,Step-1,Increment      1: Step Time =    1.000,"PART-1-1",           736,      -9.72809,       26.4627,            0.,NA,NA,"",   292.160E-03,  -280.142E-03,   82.9331E-03,   116.821E-09
C:/temp/dataset/6/24_18.odb,Step-1,Increment      1: Step Time =    1.000,"PART-1-1",           737,      -8.07960,       10.7858,            0.,NA,NA,"",   147.877E-03,  -107.012E-03,   102.059E-03,   70.0086E-06
C:/temp/dataset/6/24_18.odb,Step-1,Increment      1: Step Time =    1.000,"PART-1-1",           738,      -11.3320,       18.4953,            0.,NA,NA,"",   202.881E-03,  -191.952E-03,   65.6893E-03,   779.293E-09
C:/temp/dataset/6/24_18.odb,Step-1,Increment      1: Step Time =    1.000,"PART-1-1",           739,      -10.4893,       6.32554,            0.,NA,NA,"",   94.4562E-03,  -57.2543E-03,   75.1260E-03,   264.352E-06
C:/temp/dataset/6/24_18.odb,Step-1,Increment      1: Step Time =    1.000,"PART-1-1",           740,      -11.8356,       7.66802,            0.,NA,NA,"",   94.0620E-03,  -71.9282E-03,   60.6134E-03,   178.382E-06
C:/temp/dataset/6/24_18.odb,Step-1,Increment      1: Step Time =    1.000,"PART-1-1",           741,      -11.4125,       4.87054,            0.,NA,NA,"",   76.9416E-03,  -41.0945E-03,   65.0481E-03,   241.225E-06
C:/temp/dataset/6/24_18.odb,Step-1,Increment      1: Step Time =    1.000,"PART-1-1",           742,       10.1911,      -5.79504,            0.,NA,NA,"",   114.847E-03,  -31.8216E-03,   110.351E-03,   3.96995E-03
C:/temp/dataset/6/24_18.odb,Step-1,Increment      1: Step Time =    1.000,"PART-1-1",           743,       9.10708,      -6.74300,            0.,NA,NA,"",   121.079E-03,  -36.8431E-03,   115.338E-03,   4.99399E-03
C:/temp/dataset/6/24_18.odb,Step-1,Increment      1: Step Time =    1.000,"PART-1-1",           744,       11.1638,      -4.94873,            0.,NA,NA,"",   108.443E-03,  -26.4023E-03,   105.180E-03,   3.21880E-03
C:/temp/dataset/6/24_18.odb,Step-1,Increment      1: Step Time =    1.000,"PART-1-1",           745,       10.4293,      -4.08570,            0.,NA,NA,"",   115.553E-03,  -17.6367E-03,   114.199E-03,   3.99826E-03
C:/temp/dataset/6/24_18.odb,Step-1,Increment      1: Step Time =    1.000,"PART-1-1",           746,       9.97038,      -14.8971,            0.,NA,NA,"",   86.8050E-03,  -49.9527E-03,   70.9918E-03,   5.88686E-03
C:/temp/dataset/6/24_18.odb,Step-1,Increment      1: Step Time =    1.000,"PART-1-1",           747,       9.96577,      -12.5508,            0.,NA,NA,"",   98.4165E-03,  -53.2092E-03,   82.7925E-03,   5.88294E-03
C:/temp/dataset/6/24_18.odb,Step-1,Increment      1: Step Time =    1.000,"PART-1-1",           748,       8.96159,      -13.7029,            0.,NA,NA,"",   92.7078E-03,  -49.4926E-03,   78.3914E-03,   6.68901E-03
C:/temp/dataset/6/24_18.odb,Step-1,Increment      1: Step Time =    1.000,"PART-1-1",           749,       6.92617,      -22.4012,            0.,NA,NA,"",   28.2418E-03,  -11.2732E-03,   25.8943E-03,   5.59569E-03
C:/temp/dataset/6/24_18.odb,Step-1,Increment      1: Step Time =    1.000,"PART-1-1",           750,       5.94981,      -23.5281,            0.,NA,NA,"",   18.1001E-03,  -5.04682E-03,   17.3822E-03,   4.44778E-03
C:/temp/dataset/6/24_18.odb,Step-1,Increment      1: Step Time =    1.000,"PART-1-1",           751,       7.18383,      -24.1705,            0.,NA,NA,"",   19.5797E-03,  -6.41739E-03,   18.4981E-03,   4.71069E-03
C:/temp/dataset/6/24_18.odb,Step-1,Increment      1: Step Time =    1.000,"PART-1-1",           752,       11.0968,      -20.2176,            0.,NA,NA,"",   57.0136E-03,  -33.3345E-03,   46.2533E-03,   5.66409E-03
C:/temp/dataset/6/24_18.odb,Step-1,Increment      1: Step Time =    1.000,"PART-1-1",           753,       6.43355,      -20.8801,            0.,NA,NA,"",   36.1053E-03,  -16.4195E-03,   32.1557E-03,   6.50448E-03
C:/temp/dataset/6/24_18.odb,Step-1,Increment      1: Step Time =    1.000,"PART-1-1",           754,       8.96045,      -11.3546,            0.,NA,NA,"",   105.157E-03,  -50.6739E-03,   92.1420E-03,   6.72243E-03
C:/temp/dataset/6/24_18.odb,Step-1,Increment      1: Step Time =    1.000,"PART-1-1",           755,       8.17216,      -2.03287,            0.,NA,NA,"",   148.938E-03,   7.48412E-03,   148.750E-03,   6.82487E-03
C:/temp/dataset/6/24_18.odb,Step-1,Increment      1: Step Time =    1.000,"PART-1-1",           756,       9.68046,      -2.49017,            0.,NA,NA,"",   127.863E-03,  -1.50556E-03,   127.854E-03,   5.09259E-03
C:/temp/dataset/6/24_18.odb,Step-1,Increment      1: Step Time =    1.000,"PART-1-1",           757,      -5.24373,       2.94722,            0.,NA,NA,"",   139.696E-03,  -19.9704E-03,   138.261E-03,   4.19598E-03
C:/temp/dataset/6/24_18.odb,Step-1,Increment      1: Step Time =    1.000,"PART-1-1",           758,      -6.20341,       3.93450,            0.,NA,NA,"",   128.154E-03,  -30.8126E-03,   124.394E-03,   1.85275E-03
C:/temp/dataset/6/24_18.odb,Step-1,Increment      1: Step Time =    1.000,"PART-1-1",           759,       7.87036,      -17.0650,            0.,NA,NA,"",   69.6836E-03,  -38.1075E-03,   58.3406E-03,   6.88011E-03
C:/temp/dataset/6/24_18.odb,Step-1,Increment      1: Step Time =    1.000,"PART-1-1",           760,      -8.77165,      -4.61616,            0.,NA,NA,"",   90.6056E-03,   46.5261E-03,   77.7476E-03,   3.00784E-03
C:/temp/dataset/6/24_18.odb,Step-1,Increment      1: Step Time =    1.000,"PART-1-1",           761,       8.90402,      -15.9271,            0.,NA,NA,"",   79.3941E-03,  -44.5538E-03,   65.7144E-03,   6.46611E-03
C:/temp/dataset/6/24_18.odb,Step-1,Increment      1: Step Time =    1.000,"PART-1-1",           762,       7.94609,      -14.8939,            0.,NA,NA,"",   84.4162E-03,  -44.3323E-03,   71.8384E-03,   7.27696E-03
C:/temp/dataset/6/24_18.odb,Step-1,Increment      1: Step Time =    1.000,"PART-1-1",           763,      -12.3095,       21.7291,            0.,NA,NA,"",   234.123E-03,  -227.647E-03,   54.6817E-03,   561.983E-09
C:/temp/dataset/6/24_18.odb,Step-1,Increment      1: Step Time =    1.000,"PART-1-1",           764,      -12.2938,       19.6789,            0.,NA,NA,"",   212.225E-03,  -204.980E-03,   54.9808E-03,   830.725E-09
C:/temp/dataset/6/24_18.odb,Step-1,Increment      1: Step Time =    1.000,"PART-1-1",           765,       3.72209,      -1.78065,            0.,NA,NA,"",   228.404E-03,   20.3214E-03,   227.498E-03,   11.2474E-03
C:/temp/dataset/6/24_18.odb,Step-1,Increment      1: Step Time =    1.000,"PART-1-1",           766,       6.45852,      -3.38063,            0.,NA,NA,"",   167.697E-03,   4.81360E-03,   167.628E-03,   10.2903E-03
C:/temp/dataset/6/24_18.odb,Step-1,Increment      1: Step Time =    1.000,"PART-1-1",           767,       4.93556,      -2.38177,            0.,NA,NA,"",   207.940E-03,   20.2584E-03,   206.951E-03,   14.6899E-03
C:/temp/dataset/6/24_18.odb,Step-1,Increment      1: Step Time =    1.000,"PART-1-1",           768,      -2.94024,   945.156E-03,            0.,NA,NA,"",   174.028E-03,  -4.37867E-03,   173.973E-03,   7.31599E-03
C:/temp/dataset/6/24_18.odb,Step-1,Increment      1: Step Time =    1.000,"PART-1-1",           769,      -1.69279,      -25.0756,            0.,NA,NA,"",   1.61645E-03,   1.45202E-03,   710.305E-06,   200.654E-06
C:/temp/dataset/6/24_18.odb,Step-1,Increment      1: Step Time =    1.000,"PART-1-1",           770,      -6.93923,      -23.9860,            0.,NA,NA,"",   11.1593E-03,   5.80008E-03,   9.53357E-03,   2.60039E-03
C:/temp/dataset/6/24_18.odb,Step-1,Increment      1: Step Time =    1.000,"PART-1-1",           771,      -5.91970,      -22.6959,            0.,NA,NA,"",   12.0640E-03,   7.06685E-03,   9.77755E-03,   2.69251E-03
C:/temp/dataset/6/24_18.odb,Step-1,Increment      1: Step Time =    1.000,"PART-1-1",           772,      -12.2208,       17.3915,            0.,NA,NA,"",   188.194E-03,  -179.692E-03,   55.9283E-03,   727.607E-09
C:/temp/dataset/6/24_18.odb,Step-1,Increment      1: Step Time =    1.000,"PART-1-1",           773,      -12.0398,       10.1961,            0.,NA,NA,"",   115.771E-03,  -100.007E-03,   58.3218E-03,   78.0572E-06
C:/temp/dataset/6/24_18.odb,Step-1,Increment      1: Step Time =    1.000,"PART-1-1",           774,      -10.8637,      -2.91198,            0.,NA,NA,"",   74.3513E-03,   35.2289E-03,   65.4756E-03,   1.37236E-03
C:/temp/dataset/6/24_18.odb,Step-1,Increment      1: Step Time =    1.000,"PART-1-1",           775,      -9.61620,      -11.5179,            0.,NA,NA,"",   79.2073E-03,   58.3091E-03,   53.6083E-03,   4.08478E-03
C:/temp/dataset/6/24_18.odb,Step-1,Increment      1: Step Time =    1.000,"PART-1-1",           776,      -11.8201,      -24.5932,            0.,NA,NA,"",   20.6845E-03,   12.1647E-03,   16.7293E-03,   3.85305E-03
C:/temp/dataset/6/24_18.odb,Step-1,Increment      1: Step Time =    1.000,"PART-1-1",           777,      -11.0718,      -23.4296,            0.,NA,NA,"",   23.9611E-03,   14.4862E-03,   19.0863E-03,   3.70509E-03
C:/temp/dataset/6/24_18.odb,Step-1,Increment      1: Step Time =    1.000,"PART-1-1",           778,       4.75405,      -23.0816,            0.,NA,NA,"",   14.5918E-03,  -3.49001E-03,   14.1683E-03,   3.53315E-03
C:/temp/dataset/6/24_18.odb,Step-1,Increment      1: Step Time =    1.000,"PART-1-1",           779,       5.55198,      -21.9930,            0.,NA,NA,"",   23.4375E-03,  -8.37153E-03,   21.8914E-03,   5.32747E-03
C:/temp/dataset/6/24_18.odb,Step-1,Increment      1: Step Time =    1.000,"PART-1-1",           780,       7.01336,      -26.0950,            0.,NA,NA,"",   10.9780E-03,  -1.94993E-03,   10.8034E-03,   3.76801E-03
C:/temp/dataset/6/24_18.odb,Step-1,Increment      1: Step Time =    1.000,"PART-1-1",           781,       4.10189,      -23.9882,            0.,NA,NA,"",   9.51327E-03,  -806.266E-06,   9.47904E-03,   2.53131E-03
C:/temp/dataset/6/24_18.odb,Step-1,Increment      1: Step Time =    1.000,"PART-1-1",           782,       4.14804,      -25.2051,            0.,NA,NA,"",   7.28186E-03,   620.794E-06,   7.25535E-03,   2.29357E-03
C:/temp/dataset/6/24_18.odb,Step-1,Increment      1: Step Time =    1.000,"PART-1-1",           783,      -12.1264,       12.6156,            0.,NA,NA,"",   139.165E-03,  -126.842E-03,   57.2543E-03,   25.3908E-06
C:/temp/dataset/6/24_18.odb,Step-1,Increment      1: Step Time =    1.000,"PART-1-1",           784,      -12.1709,       15.0185,            0.,NA,NA,"",   163.560E-03,  -153.446E-03,   56.6245E-03,   5.37583E-06
C:/temp/dataset/6/24_18.odb,Step-1,Increment      1: Step Time =    1.000,"PART-1-1",           785,      -10.3060,       3.43341,            0.,NA,NA,"",   80.7151E-03,  -25.8506E-03,   76.4635E-03,   522.039E-06
C:/temp/dataset/6/24_18.odb,Step-1,Increment      1: Step Time =    1.000,"PART-1-1",           786,      -9.35047,  -311.861E-03,            0.,NA,NA,"",   83.6231E-03,   10.8071E-03,   82.9218E-03,   2.06788E-03
C:/temp/dataset/6/24_18.odb,Step-1,Increment      1: Step Time =    1.000,"PART-1-1",           787,      -9.47746,      -1.56252,            0.,NA,NA,"",   82.3549E-03,   22.4773E-03,   79.2281E-03,   2.41467E-03
C:/temp/dataset/6/24_18.odb,Step-1,Increment      1: Step Time =    1.000,"PART-1-1",           788,      -7.56677,      -1.93629,            0.,NA,NA,"",   100.189E-03,   22.5321E-03,   97.6220E-03,   4.33716E-03
C:/temp/dataset/6/24_18.odb,Step-1,Increment      1: Step Time =    1.000,"PART-1-1",           789,      -9.57637,      -3.06595,            0.,NA,NA,"",   83.2252E-03,   35.6086E-03,   75.2228E-03,   2.36707E-03
C:/temp/dataset/6/24_18.odb,Step-1,Increment      1: Step Time =    1.000,"PART-1-1",           790,      -8.24618,      -3.39128,            0.,NA,NA,"",   93.1608E-03,   36.8286E-03,   85.5721E-03,   3.71363E-03
C:/temp/dataset/6/24_18.odb,Step-1,Increment      1: Step Time =    1.000,"PART-1-1",           791,       7.98922,      -7.69035,            0.,NA,NA,"",   126.231E-03,  -39.9062E-03,   119.757E-03,   7.75522E-03
C:/temp/dataset/6/24_18.odb,Step-1,Increment      1: Step Time =    1.000,"PART-1-1",           792,       7.96586,      -10.1263,            0.,NA,NA,"",   113.820E-03,  -46.5882E-03,   103.849E-03,   8.05096E-03
C:/temp/dataset/6/24_18.odb,Step-1,Increment      1: Step Time =    1.000,"PART-1-1",           793,       7.95460,      -12.5381,            0.,NA,NA,"",   99.4739E-03,  -47.5665E-03,   87.3641E-03,   7.67212E-03
C:/temp/dataset/6/24_18.odb,Step-1,Increment      1: Step Time =    1.000,"PART-1-1",           794,      -6.90534,       4.84567,            0.,NA,NA,"",   122.480E-03,  -41.2362E-03,   115.329E-03,   615.204E-06
C:/temp/dataset/6/24_18.odb,Step-1,Increment      1: Step Time =    1.000,"PART-1-1",           795,      -7.09219,       3.25090,            0.,NA,NA,"",   115.819E-03,  -24.3579E-03,   113.229E-03,   1.87308E-03
C:/temp/dataset/6/24_18.odb,Step-1,Increment      1: Step Time =    1.000,"PART-1-1",           796,      -5.99438,      -2.38990,            0.,NA,NA,"",   117.940E-03,   22.4018E-03,   115.793E-03,   6.99193E-03
C:/temp/dataset/6/24_18.odb,Step-1,Increment      1: Step Time =    1.000,"PART-1-1",           797,      -8.16339,       2.56404,            0.,NA,NA,"",   101.410E-03,  -17.5357E-03,   99.8827E-03,   1.41889E-03
C:/temp/dataset/6/24_18.odb,Step-1,Increment      1: Step Time =    1.000,"PART-1-1",           798,      -6.16245,       1.98671,            0.,NA,NA,"",   125.812E-03,  -12.4659E-03,   125.193E-03,   3.64484E-03
C:/temp/dataset/6/24_18.odb,Step-1,Increment      1: Step Time =    1.000,"PART-1-1",           799,      -9.36160,       1.80674,            0.,NA,NA,"",   86.1660E-03,  -9.52223E-03,   85.6382E-03,   1.28657E-03
C:/temp/dataset/6/24_18.odb,Step-1,Increment      1: Step Time =    1.000,"PART-1-1",           800,      -4.18828,       1.89018,            0.,NA,NA,"",   154.678E-03,  -10.7393E-03,   154.305E-03,   5.93267E-03
C:/temp/dataset/6/24_18.odb,Step-1,Increment      1: Step Time =    1.000,"PART-1-1",           801,      -2.02478,       2.01876,            0.,NA,NA,"",   186.262E-03,  -7.14114E-03,   186.125E-03,   6.99710E-03
C:/temp/dataset/6/24_18.odb,Step-1,Increment      1: Step Time =    1.000,"PART-1-1",           802,       5.29765,      -24.4346,            0.,NA,NA,"",   12.3389E-03,  -1.85867E-03,   12.1981E-03,   3.33418E-03
C:/temp/dataset/6/24_18.odb,Step-1,Increment      1: Step Time =    1.000,"PART-1-1",           803,       8.18651,      -25.0309,            0.,NA,NA,"",   18.2344E-03,  -6.50059E-03,   17.0363E-03,   4.88600E-03
C:/temp/dataset/6/24_18.odb,Step-1,Increment      1: Step Time =    1.000,"PART-1-1",           804,       6.01068,      -25.2345,            0.,NA,NA,"",   11.7861E-03,  -1.71674E-03,   11.6604E-03,   3.59482E-03
