ODB Name,Step,Frame,Part Instance Name,    êﬂì_ÉâÉxÉã,X,Y,Z,Section Name,Material Name,Section Point,   U-Magnitude,          U-U1,          U-U2,       S-Mises
C:/temp/dataset/6/26_16.odb,Step-1,Increment      1: Step Time =    1.000,"PART-1-1",             1,            5.,           -5.,            0.,NA,NA,"",   512.352E-03,   511.412E-03,  -31.0187E-03,   7.39377E-03
C:/temp/dataset/6/26_16.odb,Step-1,Increment      1: Step Time =    1.000,"PART-1-1",             2,            0.,           -5.,            0.,NA,NA,"",   489.563E-03,   487.634E-03,  -43.4171E-03,   6.36858E-03
C:/temp/dataset/6/26_16.odb,Step-1,Increment      1: Step Time =    1.000,"PART-1-1",             3,            5.,      -10.0250,            0.,NA,NA,"",   512.227E-03,   512.086E-03,   12.0129E-03,   14.8484E-03
C:/temp/dataset/6/26_16.odb,Step-1,Increment      1: Step Time =    1.000,"PART-1-1",             4,            5.,      -15.0500,            0.,NA,NA,"",   394.336E-03,   387.246E-03,   74.4448E-03,   10.1445E-03
C:/temp/dataset/6/26_16.odb,Step-1,Increment      1: Step Time =    1.000,"PART-1-1",             5,            5.,          -20.,            0.,NA,NA,"",   139.914E-03,   133.130E-03,   43.0376E-03,   34.6170E-03
C:/temp/dataset/6/26_16.odb,Step-1,Increment      1: Step Time =    1.000,"PART-1-1",             6,            0.,          -20.,            0.,NA,NA,"",   75.3522E-03,   75.3519E-03,   214.253E-06,   4.30341E-03
C:/temp/dataset/6/26_16.odb,Step-1,Increment      1: Step Time =    1.000,"PART-1-1",             7,           -5.,          -20.,            0.,NA,NA,"",   86.4746E-03,   81.8813E-03,  -27.8085E-03,   13.6174E-03
C:/temp/dataset/6/26_16.odb,Step-1,Increment      1: Step Time =    1.000,"PART-1-1",             8,           -5.,      -14.9750,            0.,NA,NA,"",   203.573E-03,   193.880E-03,  -62.0701E-03,   2.76029E-03
C:/temp/dataset/6/26_16.odb,Step-1,Increment      1: Step Time =    1.000,"PART-1-1",             9,           -5.,      -9.95000,            0.,NA,NA,"",   319.539E-03,   312.743E-03,  -65.5524E-03,   1.72197E-03
C:/temp/dataset/6/26_16.odb,Step-1,Increment      1: Step Time =    1.000,"PART-1-1",            10,           -5.,           -5.,            0.,NA,NA,"",   447.565E-03,   445.707E-03,  -40.7396E-03,   16.6516E-03
C:/temp/dataset/6/26_16.odb,Step-1,Increment      1: Step Time =    1.000,"PART-1-1",            11,           15.,          -30.,            0.,NA,NA,"",            0.,   7.61231E-39,  -13.6067E-39,   26.5311E-03
C:/temp/dataset/6/26_16.odb,Step-1,Increment      1: Step Time =    1.000,"PART-1-1",            12,          -15.,          -30.,            0.,NA,NA,"",            0.,   5.07845E-39,   8.78368E-39,   16.6475E-03
C:/temp/dataset/6/26_16.odb,Step-1,Increment      1: Step Time =    1.000,"PART-1-1",            13,           15.,        -21.25,            0.,NA,NA,"",   208.236E-03,   156.224E-03,  -137.682E-03,   13.0011E-03
C:/temp/dataset/6/26_16.odb,Step-1,Increment      1: Step Time =    1.000,"PART-1-1",            14,           15.,         -12.5,            0.,NA,NA,"",   455.339E-03,   429.792E-03,  -150.374E-03,   10.5240E-03
C:/temp/dataset/6/26_16.odb,Step-1,Increment      1: Step Time =    1.000,"PART-1-1",            15,           15.,         -3.75,            0.,NA,NA,"",   527.494E-03,   521.903E-03,  -76.6041E-03,   4.63483E-03
C:/temp/dataset/6/26_16.odb,Step-1,Increment      1: Step Time =    1.000,"PART-1-1",            16,           15.,            5.,            0.,NA,NA,"",   532.706E-03,   528.573E-03,  -66.2307E-03,   66.2042E-06
C:/temp/dataset/6/26_16.odb,Step-1,Increment      1: Step Time =    1.000,"PART-1-1",            17,           10.,            5.,            0.,NA,NA,"",   530.672E-03,   527.447E-03,  -58.4164E-03,   893.152E-06
C:/temp/dataset/6/26_16.odb,Step-1,Increment      1: Step Time =    1.000,"PART-1-1",            18,            5.,            5.,            0.,NA,NA,"",   525.101E-03,   522.385E-03,  -53.3444E-03,   670.691E-06
C:/temp/dataset/6/26_16.odb,Step-1,Increment      1: Step Time =    1.000,"PART-1-1",            19,            0.,            5.,            0.,NA,NA,"",   529.099E-03,   526.710E-03,  -50.2263E-03,   2.76662E-03
C:/temp/dataset/6/26_16.odb,Step-1,Increment      1: Step Time =    1.000,"PART-1-1",            20,           -5.,            5.,            0.,NA,NA,"",   548.799E-03,   548.109E-03,  -27.5157E-03,   5.12172E-03
C:/temp/dataset/6/26_16.odb,Step-1,Increment      1: Step Time =    1.000,"PART-1-1",            21,           -5.,         11.25,            0.,NA,NA,"",   634.491E-03,   633.870E-03,  -28.0690E-03,   97.3967E-06
C:/temp/dataset/6/26_16.odb,Step-1,Increment      1: Step Time =    1.000,"PART-1-1",            22,           -5.,          17.5,            0.,NA,NA,"",   712.409E-03,   711.844E-03,  -28.3535E-03,   4.75852E-06
C:/temp/dataset/6/26_16.odb,Step-1,Increment      1: Step Time =    1.000,"PART-1-1",            23,           -5.,         23.75,            0.,NA,NA,"",   790.286E-03,   789.759E-03,  -28.8362E-03,   356.955E-09
C:/temp/dataset/6/26_16.odb,Step-1,Increment      1: Step Time =    1.000,"PART-1-1",            24,           -5.,           30.,            0.,NA,NA,"",   868.183E-03,   867.687E-03,  -29.3228E-03,   10.0760E-09
C:/temp/dataset/6/26_16.odb,Step-1,Increment      1: Step Time =    1.000,"PART-1-1",            25,          -10.,           30.,            0.,NA,NA,"",   868.704E-03,   868.076E-03,   33.0200E-03,   116.538E-09
C:/temp/dataset/6/26_16.odb,Step-1,Increment      1: Step Time =    1.000,"PART-1-1",            26,          -15.,           30.,            0.,NA,NA,"",   873.685E-03,   868.465E-03,   95.3635E-03,   11.8047E-09
C:/temp/dataset/6/26_16.odb,Step-1,Increment      1: Step Time =    1.000,"PART-1-1",            27,          -15.,          22.5,            0.,NA,NA,"",   780.866E-03,   774.949E-03,   95.9477E-03,   442.603E-09
C:/temp/dataset/6/26_16.odb,Step-1,Increment      1: Step Time =    1.000,"PART-1-1",            28,          -15.,           15.,            0.,NA,NA,"",   688.207E-03,   681.408E-03,   96.5046E-03,   19.0288E-06
C:/temp/dataset/6/26_16.odb,Step-1,Increment      1: Step Time =    1.000,"PART-1-1",            29,          -15.,           7.5,            0.,NA,NA,"",   596.541E-03,   588.673E-03,   96.5658E-03,   76.4248E-06
C:/temp/dataset/6/26_16.odb,Step-1,Increment      1: Step Time =    1.000,"PART-1-1",            30,          -15.,            0.,            0.,NA,NA,"",   510.208E-03,   499.635E-03,   103.329E-03,   2.73169E-03
C:/temp/dataset/6/26_16.odb,Step-1,Increment      1: Step Time =    1.000,"PART-1-1",            31,          -15.,          -7.5,            0.,NA,NA,"",   394.997E-03,   373.425E-03,   128.747E-03,   2.51897E-03
C:/temp/dataset/6/26_16.odb,Step-1,Increment      1: Step Time =    1.000,"PART-1-1",            32,          -15.,          -15.,            0.,NA,NA,"",   235.725E-03,   201.823E-03,   121.793E-03,   5.28297E-03
C:/temp/dataset/6/26_16.odb,Step-1,Increment      1: Step Time =    1.000,"PART-1-1",            33,          -15.,         -22.5,            0.,NA,NA,"",   100.906E-03,   73.0780E-03,   69.5814E-03,   9.19065E-03
C:/temp/dataset/6/26_16.odb,Step-1,Increment      1: Step Time =    1.000,"PART-1-1",            34,           2.5,           -5.,            0.,NA,NA,"",   502.328E-03,   500.468E-03,  -43.1828E-03,   5.45946E-03
C:/temp/dataset/6/26_16.odb,Step-1,Increment      1: Step Time =    1.000,"PART-1-1",            35,            5.,      -7.51250,            0.,NA,NA,"",   509.090E-03,   509.030E-03,  -7.86681E-03,   9.81157E-03
C:/temp/dataset/6/26_16.odb,Step-1,Increment      1: Step Time =    1.000,"PART-1-1",            36,            5.,      -12.5375,            0.,NA,NA,"",   489.688E-03,   487.517E-03,   46.0540E-03,   21.4413E-03
C:/temp/dataset/6/26_16.odb,Step-1,Increment      1: Step Time =    1.000,"PART-1-1",            37,            5.,      -17.5250,            0.,NA,NA,"",   273.209E-03,   262.322E-03,   76.3571E-03,   7.56525E-03
C:/temp/dataset/6/26_16.odb,Step-1,Increment      1: Step Time =    1.000,"PART-1-1",            38,           2.5,          -20.,            0.,NA,NA,"",   87.7640E-03,   86.7269E-03,   13.4527E-03,   13.2933E-03
C:/temp/dataset/6/26_16.odb,Step-1,Increment      1: Step Time =    1.000,"PART-1-1",            39,          -2.5,          -20.,            0.,NA,NA,"",   70.7694E-03,   70.1169E-03,  -9.58752E-03,   2.60441E-03
C:/temp/dataset/6/26_16.odb,Step-1,Increment      1: Step Time =    1.000,"PART-1-1",            40,           -5.,      -17.4875,            0.,NA,NA,"",   147.546E-03,   137.807E-03,  -52.7173E-03,   7.22821E-03
C:/temp/dataset/6/26_16.odb,Step-1,Increment      1: Step Time =    1.000,"PART-1-1",            41,           -5.,      -12.4625,            0.,NA,NA,"",   260.994E-03,   252.378E-03,  -66.5077E-03,   461.660E-06
C:/temp/dataset/6/26_16.odb,Step-1,Increment      1: Step Time =    1.000,"PART-1-1",            42,           -5.,      -7.47500,            0.,NA,NA,"",   378.559E-03,   373.746E-03,  -60.1727E-03,   5.37513E-03
C:/temp/dataset/6/26_16.odb,Step-1,Increment      1: Step Time =    1.000,"PART-1-1",            43,          -2.5,           -5.,            0.,NA,NA,"",   474.494E-03,   472.755E-03,  -40.5780E-03,   9.50482E-03
C:/temp/dataset/6/26_16.odb,Step-1,Increment      1: Step Time =    1.000,"PART-1-1",            44,          12.5,          -30.,            0.,NA,NA,"",            0.,   7.57895E-39,  -18.3234E-39,   8.25487E-03
C:/temp/dataset/6/26_16.odb,Step-1,Increment      1: Step Time =    1.000,"PART-1-1",            45,           10.,          -30.,            0.,NA,NA,"",            0.,  -637.456E-42,  -5.80838E-39,   4.15406E-03
C:/temp/dataset/6/26_16.odb,Step-1,Increment      1: Step Time =    1.000,"PART-1-1",            46,           7.5,          -30.,            0.,NA,NA,"",            0.,   2.14385E-39,   1.11106E-39,   2.56547E-03
C:/temp/dataset/6/26_16.odb,Step-1,Increment      1: Step Time =    1.000,"PART-1-1",            47,            5.,          -30.,            0.,NA,NA,"",            0.,   4.26696E-39,   2.92720E-39,   5.28787E-03
C:/temp/dataset/6/26_16.odb,Step-1,Increment      1: Step Time =    1.000,"PART-1-1",            48,           2.5,          -30.,            0.,NA,NA,"",            0.,   6.22357E-39,   2.72485E-39,   7.11778E-03
C:/temp/dataset/6/26_16.odb,Step-1,Increment      1: Step Time =    1.000,"PART-1-1",            49,            0.,          -30.,            0.,NA,NA,"",            0.,   7.82003E-39,   7.12035E-39,   7.54927E-03
C:/temp/dataset/6/26_16.odb,Step-1,Increment      1: Step Time =    1.000,"PART-1-1",            50,          -2.5,          -30.,            0.,NA,NA,"",            0.,   6.18713E-39,  -2.18565E-39,   6.74214E-03
C:/temp/dataset/6/26_16.odb,Step-1,Increment      1: Step Time =    1.000,"PART-1-1",            51,           -5.,          -30.,            0.,NA,NA,"",            0.,   4.74572E-39,  -2.04561E-39,   5.09129E-03
C:/temp/dataset/6/26_16.odb,Step-1,Increment      1: Step Time =    1.000,"PART-1-1",            52,          -7.5,          -30.,            0.,NA,NA,"",            0.,   2.54438E-39,   178.474E-42,   3.49317E-03
C:/temp/dataset/6/26_16.odb,Step-1,Increment      1: Step Time =    1.000,"PART-1-1",            53,          -10.,          -30.,            0.,NA,NA,"",            0.,   3.60052E-39,   6.66134E-39,   3.79560E-03
C:/temp/dataset/6/26_16.odb,Step-1,Increment      1: Step Time =    1.000,"PART-1-1",            54,         -12.5,          -30.,            0.,NA,NA,"",            0.,   3.85948E-39,   9.41149E-39,   5.53436E-03
C:/temp/dataset/6/26_16.odb,Step-1,Increment      1: Step Time =    1.000,"PART-1-1",            55,           15.,      -23.4375,            0.,NA,NA,"",   150.024E-03,   103.810E-03,  -108.307E-03,   15.6778E-03
C:/temp/dataset/6/26_16.odb,Step-1,Increment      1: Step Time =    1.000,"PART-1-1",            56,           15.,       -25.625,            0.,NA,NA,"",   99.1971E-03,   63.9182E-03,  -75.8585E-03,   16.6612E-03
C:/temp/dataset/6/26_16.odb,Step-1,Increment      1: Step Time =    1.000,"PART-1-1",            57,           15.,      -27.8125,            0.,NA,NA,"",   53.7622E-03,   33.6309E-03,  -41.9445E-03,   19.7493E-03
C:/temp/dataset/6/26_16.odb,Step-1,Increment      1: Step Time =    1.000,"PART-1-1",            58,           15.,      -14.6875,            0.,NA,NA,"",   403.832E-03,   367.912E-03,  -166.498E-03,   5.85739E-03
C:/temp/dataset/6/26_16.odb,Step-1,Increment      1: Step Time =    1.000,"PART-1-1",            59,           15.,       -16.875,            0.,NA,NA,"",   340.850E-03,   295.219E-03,  -170.365E-03,   1.20326E-03
C:/temp/dataset/6/26_16.odb,Step-1,Increment      1: Step Time =    1.000,"PART-1-1",            60,           15.,      -19.0625,            0.,NA,NA,"",   273.329E-03,   221.618E-03,  -159.981E-03,   8.06365E-03
C:/temp/dataset/6/26_16.odb,Step-1,Increment      1: Step Time =    1.000,"PART-1-1",            61,           15.,       -5.9375,            0.,NA,NA,"",   523.615E-03,   516.099E-03,  -88.3944E-03,   7.48462E-03
C:/temp/dataset/6/26_16.odb,Step-1,Increment      1: Step Time =    1.000,"PART-1-1",            62,           15.,        -8.125,            0.,NA,NA,"",   513.107E-03,   502.050E-03,  -105.947E-03,   10.2944E-03
C:/temp/dataset/6/26_16.odb,Step-1,Increment      1: Step Time =    1.000,"PART-1-1",            63,           15.,      -10.3125,            0.,NA,NA,"",   491.559E-03,   474.600E-03,  -128.004E-03,   11.7973E-03
C:/temp/dataset/6/26_16.odb,Step-1,Increment      1: Step Time =    1.000,"PART-1-1",            64,           15.,        2.8125,            0.,NA,NA,"",   530.264E-03,   526.114E-03,  -66.2043E-03,   130.060E-06
C:/temp/dataset/6/26_16.odb,Step-1,Increment      1: Step Time =    1.000,"PART-1-1",            65,           15.,      625.E-03,            0.,NA,NA,"",   528.935E-03,   524.678E-03,  -66.9750E-03,   912.170E-06
C:/temp/dataset/6/26_16.odb,Step-1,Increment      1: Step Time =    1.000,"PART-1-1",            66,           15.,       -1.5625,            0.,NA,NA,"",   528.440E-03,   523.793E-03,  -69.9302E-03,   2.39665E-03
C:/temp/dataset/6/26_16.odb,Step-1,Increment      1: Step Time =    1.000,"PART-1-1",            67,          12.5,            5.,            0.,NA,NA,"",   532.304E-03,   528.589E-03,  -62.7733E-03,   161.059E-06
C:/temp/dataset/6/26_16.odb,Step-1,Increment      1: Step Time =    1.000,"PART-1-1",            68,           7.5,            5.,            0.,NA,NA,"",   527.671E-03,   524.811E-03,  -54.8593E-03,   1.29513E-03
C:/temp/dataset/6/26_16.odb,Step-1,Increment      1: Step Time =    1.000,"PART-1-1",            69,           2.5,            5.,            0.,NA,NA,"",   525.227E-03,   522.570E-03,  -52.7663E-03,   961.820E-06
C:/temp/dataset/6/26_16.odb,Step-1,Increment      1: Step Time =    1.000,"PART-1-1",            70,          -2.5,            5.,            0.,NA,NA,"",   536.477E-03,   534.787E-03,  -42.5464E-03,   4.56270E-03
C:/temp/dataset/6/26_16.odb,Step-1,Increment      1: Step Time =    1.000,"PART-1-1",            71,           -5.,       9.16667,            0.,NA,NA,"",   608.210E-03,   607.556E-03,  -28.1870E-03,   243.027E-06
C:/temp/dataset/6/26_16.odb,Step-1,Increment      1: Step Time =    1.000,"PART-1-1",            72,           -5.,       7.08333,            0.,NA,NA,"",   580.911E-03,   580.207E-03,  -28.6062E-03,   1.18350E-03
C:/temp/dataset/6/26_16.odb,Step-1,Increment      1: Step Time =    1.000,"PART-1-1",            73,           -5.,       15.4167,            0.,NA,NA,"",   686.460E-03,   685.880E-03,  -28.2082E-03,   16.1073E-06
C:/temp/dataset/6/26_16.odb,Step-1,Increment      1: Step Time =    1.000,"PART-1-1",            74,           -5.,       13.3333,            0.,NA,NA,"",   660.503E-03,   659.904E-03,  -28.1010E-03,   46.7095E-06
C:/temp/dataset/6/26_16.odb,Step-1,Increment      1: Step Time =    1.000,"PART-1-1",            75,           -5.,       21.6667,            0.,NA,NA,"",   764.323E-03,   763.785E-03,  -28.6735E-03,   487.140E-09
C:/temp/dataset/6/26_16.odb,Step-1,Increment      1: Step Time =    1.000,"PART-1-1",            76,           -5.,       19.5833,            0.,NA,NA,"",   738.363E-03,   737.813E-03,  -28.5115E-03,   611.129E-09
C:/temp/dataset/6/26_16.odb,Step-1,Increment      1: Step Time =    1.000,"PART-1-1",            77,           -5.,       27.9167,            0.,NA,NA,"",   842.216E-03,   841.711E-03,  -29.1608E-03,   47.8777E-09
C:/temp/dataset/6/26_16.odb,Step-1,Increment      1: Step Time =    1.000,"PART-1-1",            78,           -5.,       25.8333,            0.,NA,NA,"",   816.250E-03,   815.735E-03,  -28.9986E-03,   181.037E-09
C:/temp/dataset/6/26_16.odb,Step-1,Increment      1: Step Time =    1.000,"PART-1-1",            79,          -7.5,           30.,            0.,NA,NA,"",   867.884E-03,   867.882E-03,   1.84856E-03,   55.6301E-09
C:/temp/dataset/6/26_16.odb,Step-1,Increment      1: Step Time =    1.000,"PART-1-1",            80,         -12.5,           30.,            0.,NA,NA,"",   870.641E-03,   868.271E-03,   64.1917E-03,   52.7132E-09
C:/temp/dataset/6/26_16.odb,Step-1,Increment      1: Step Time =    1.000,"PART-1-1",            81,          -15.,           25.,            0.,NA,NA,"",   811.789E-03,   806.122E-03,   95.7526E-03,   246.834E-09
C:/temp/dataset/6/26_16.odb,Step-1,Increment      1: Step Time =    1.000,"PART-1-1",            82,          -15.,          27.5,            0.,NA,NA,"",   842.729E-03,   837.294E-03,   95.5579E-03,   69.3417E-09
C:/temp/dataset/6/26_16.odb,Step-1,Increment      1: Step Time =    1.000,"PART-1-1",            83,          -15.,          17.5,            0.,NA,NA,"",   719.075E-03,   712.593E-03,   96.3333E-03,   4.05701E-06
C:/temp/dataset/6/26_16.odb,Step-1,Increment      1: Step Time =    1.000,"PART-1-1",            84,          -15.,           20.,            0.,NA,NA,"",   749.962E-03,   743.774E-03,   96.1426E-03,   297.338E-09
C:/temp/dataset/6/26_16.odb,Step-1,Increment      1: Step Time =    1.000,"PART-1-1",            85,          -15.,           10.,            0.,NA,NA,"",   626.727E-03,   619.233E-03,   96.6269E-03,   113.176E-06
C:/temp/dataset/6/26_16.odb,Step-1,Increment      1: Step Time =    1.000,"PART-1-1",            86,          -15.,          12.5,            0.,NA,NA,"",   657.387E-03,   650.248E-03,   96.6200E-03,   55.8257E-06
C:/temp/dataset/6/26_16.odb,Step-1,Increment      1: Step Time =    1.000,"PART-1-1",            87,          -15.,           2.5,            0.,NA,NA,"",   538.934E-03,   529.825E-03,   98.6688E-03,   1.31123E-03
C:/temp/dataset/6/26_16.odb,Step-1,Increment      1: Step Time =    1.000,"PART-1-1",            88,          -15.,            5.,            0.,NA,NA,"",   567.272E-03,   558.938E-03,   96.8793E-03,   329.962E-06
C:/temp/dataset/6/26_16.odb,Step-1,Increment      1: Step Time =    1.000,"PART-1-1",            89,          -15.,           -5.,            0.,NA,NA,"",   440.283E-03,   423.420E-03,   120.687E-03,   3.85564E-03
C:/temp/dataset/6/26_16.odb,Step-1,Increment      1: Step Time =    1.000,"PART-1-1",            90,          -15.,          -2.5,            0.,NA,NA,"",   478.319E-03,   465.221E-03,   111.169E-03,   3.91593E-03
C:/temp/dataset/6/26_16.odb,Step-1,Increment      1: Step Time =    1.000,"PART-1-1",            91,          -15.,         -12.5,            0.,NA,NA,"",   289.612E-03,   258.734E-03,   130.123E-03,   2.67681E-03
C:/temp/dataset/6/26_16.odb,Step-1,Increment      1: Step Time =    1.000,"PART-1-1",            92,          -15.,          -10.,            0.,NA,NA,"",   343.692E-03,   317.221E-03,   132.270E-03,   301.660E-06
C:/temp/dataset/6/26_16.odb,Step-1,Increment      1: Step Time =    1.000,"PART-1-1",            93,          -15.,          -20.,            0.,NA,NA,"",   139.633E-03,   107.029E-03,   89.6793E-03,   8.74762E-03
C:/temp/dataset/6/26_16.odb,Step-1,Increment      1: Step Time =    1.000,"PART-1-1",            94,          -15.,         -17.5,            0.,NA,NA,"",   184.959E-03,   150.272E-03,   107.834E-03,   7.46214E-03
C:/temp/dataset/6/26_16.odb,Step-1,Increment      1: Step Time =    1.000,"PART-1-1",            95,          -15.,         -27.5,            0.,NA,NA,"",   37.5335E-03,   24.9354E-03,   28.0533E-03,   10.9076E-03
C:/temp/dataset/6/26_16.odb,Step-1,Increment      1: Step Time =    1.000,"PART-1-1",            96,          -15.,          -25.,            0.,NA,NA,"",   67.7893E-03,   46.6687E-03,   49.1672E-03,   9.09877E-03
C:/temp/dataset/6/26_16.odb,Step-1,Increment      1: Step Time =    1.000,"PART-1-1",            97,       13.0047,      -3.80353,            0.,NA,NA,"",   529.534E-03,   524.957E-03,  -69.4761E-03,   4.01467E-03
C:/temp/dataset/6/26_16.odb,Step-1,Increment      1: Step Time =    1.000,"PART-1-1",            98,       6.97971,      -7.55833,            0.,NA,NA,"",   515.376E-03,   515.122E-03,  -16.1797E-03,   8.25009E-03
C:/temp/dataset/6/26_16.odb,Step-1,Increment      1: Step Time =    1.000,"PART-1-1",            99,       6.96639,      -10.0829,            0.,NA,NA,"",   508.954E-03,   508.951E-03,  -1.62913E-03,   11.0386E-03
C:/temp/dataset/6/26_16.odb,Step-1,Increment      1: Step Time =    1.000,"PART-1-1",           100,       12.9900,      -12.5465,            0.,NA,NA,"",   449.482E-03,   436.578E-03,  -106.927E-03,   6.66537E-03
C:/temp/dataset/6/26_16.odb,Step-1,Increment      1: Step Time =    1.000,"PART-1-1",           101,       6.90028,      -17.1420,            0.,NA,NA,"",   279.092E-03,   278.961E-03,   8.54877E-03,   14.7093E-03
C:/temp/dataset/6/26_16.odb,Step-1,Increment      1: Step Time =    1.000,"PART-1-1",           102,       7.03871,      -19.0570,            0.,NA,NA,"",   192.151E-03,   192.048E-03,   6.27674E-03,   15.9173E-03
C:/temp/dataset/6/26_16.odb,Step-1,Increment      1: Step Time =    1.000,"PART-1-1",           103,       5.31709,      -21.2647,            0.,NA,NA,"",   112.224E-03,   107.585E-03,   31.9327E-03,   12.3427E-03
C:/temp/dataset/6/26_16.odb,Step-1,Increment      1: Step Time =    1.000,"PART-1-1",           104,      -4.83361,      -22.6144,            0.,NA,NA,"",   63.6574E-03,   62.1015E-03,  -13.9883E-03,   7.29836E-03
C:/temp/dataset/6/26_16.odb,Step-1,Increment      1: Step Time =    1.000,"PART-1-1",           105,      -7.46484,      -17.6587,            0.,NA,NA,"",   132.707E-03,   132.388E-03,  -9.19699E-03,   6.12443E-03
C:/temp/dataset/6/26_16.odb,Step-1,Increment      1: Step Time =    1.000,"PART-1-1",           106,      -12.5283,      -27.3245,            0.,NA,NA,"",   23.7115E-03,   18.3621E-03,   15.0022E-03,   7.53152E-03
C:/temp/dataset/6/26_16.odb,Step-1,Increment      1: Step Time =    1.000,"PART-1-1",           107,      -12.4870,      -17.6221,            0.,NA,NA,"",   154.578E-03,   140.681E-03,   64.0556E-03,   5.19713E-03
C:/temp/dataset/6/26_16.odb,Step-1,Increment      1: Step Time =    1.000,"PART-1-1",           108,      -7.32043,      -12.6401,            0.,NA,NA,"",   249.071E-03,   248.518E-03,  -16.5763E-03,   3.20958E-03
C:/temp/dataset/6/26_16.odb,Step-1,Increment      1: Step Time =    1.000,"PART-1-1",           109,      -7.14644,      -8.03697,            0.,NA,NA,"",   362.470E-03,   362.125E-03,  -15.8057E-03,   5.69468E-03
C:/temp/dataset/6/26_16.odb,Step-1,Increment      1: Step Time =    1.000,"PART-1-1",           110,      -12.6601,       4.88622,            0.,NA,NA,"",   561.748E-03,   557.598E-03,   68.1524E-03,   867.468E-06
C:/temp/dataset/6/26_16.odb,Step-1,Increment      1: Step Time =    1.000,"PART-1-1",           111,      -13.0978,       12.5399,            0.,NA,NA,"",   654.654E-03,   650.572E-03,   72.9895E-03,   38.6527E-06
C:/temp/dataset/6/26_16.odb,Step-1,Increment      1: Step Time =    1.000,"PART-1-1",           112,      -6.45576,       21.8628,            0.,NA,NA,"",   766.416E-03,   766.343E-03,  -10.5388E-03,   312.073E-09
C:/temp/dataset/6/26_16.odb,Step-1,Increment      1: Step Time =    1.000,"PART-1-1",           113,      -7.28884,       25.7044,            0.,NA,NA,"",   814.305E-03,   814.305E-03,  -450.381E-06,   142.717E-09
C:/temp/dataset/6/26_16.odb,Step-1,Increment      1: Step Time =    1.000,"PART-1-1",           114,      -9.90518,       27.6474,            0.,NA,NA,"",   839.346E-03,   838.735E-03,   32.0205E-03,   80.9966E-09
C:/temp/dataset/6/26_16.odb,Step-1,Increment      1: Step Time =    1.000,"PART-1-1",           115,      -3.01211,      -3.13168,            0.,NA,NA,"",   479.849E-03,   477.909E-03,  -43.0989E-03,   7.51934E-03
C:/temp/dataset/6/26_16.odb,Step-1,Increment      1: Step Time =    1.000,"PART-1-1",           116,      -2.19169,       3.00836,            0.,NA,NA,"",   524.890E-03,   522.846E-03,  -46.2732E-03,   2.56876E-03
C:/temp/dataset/6/26_16.odb,Step-1,Increment      1: Step Time =    1.000,"PART-1-1",           117,       1.85193,      -2.77696,            0.,NA,NA,"",   501.435E-03,   499.092E-03,  -48.4104E-03,   3.87973E-03
C:/temp/dataset/6/26_16.odb,Step-1,Increment      1: Step Time =    1.000,"PART-1-1",           118,       2.83229,       2.22691,            0.,NA,NA,"",   519.625E-03,   516.926E-03,  -52.8914E-03,   2.48513E-03
C:/temp/dataset/6/26_16.odb,Step-1,Increment      1: Step Time =    1.000,"PART-1-1",           119,       7.74921,       3.07964,            0.,NA,NA,"",   525.738E-03,   522.956E-03,  -54.0183E-03,   1.17343E-03
C:/temp/dataset/6/26_16.odb,Step-1,Increment      1: Step Time =    1.000,"PART-1-1",           120,      -2.47342,      -22.6017,            0.,NA,NA,"",   66.2794E-03,   65.9321E-03,  -6.77573E-03,   7.94684E-03
C:/temp/dataset/6/26_16.odb,Step-1,Increment      1: Step Time =    1.000,"PART-1-1",           121,      -7.48266,       20.3798,            0.,NA,NA,"",   747.938E-03,   747.934E-03,   2.38029E-03,   1.71336E-06
C:/temp/dataset/6/26_16.odb,Step-1,Increment      1: Step Time =    1.000,"PART-1-1",           122,      -7.10993,       13.1351,            0.,NA,NA,"",   657.618E-03,   657.616E-03,  -1.69979E-03,   38.2956E-06
C:/temp/dataset/6/26_16.odb,Step-1,Increment      1: Step Time =    1.000,"PART-1-1",           123,      -6.64156,       6.82435,            0.,NA,NA,"",   577.549E-03,   577.505E-03,  -7.11469E-03,   1.03262E-03
C:/temp/dataset/6/26_16.odb,Step-1,Increment      1: Step Time =    1.000,"PART-1-1",           124,      -12.9641,      -2.37512,            0.,NA,NA,"",   476.212E-03,   469.585E-03,   79.1663E-03,   2.08061E-03
C:/temp/dataset/6/26_16.odb,Step-1,Increment      1: Step Time =    1.000,"PART-1-1",           125,      -12.1317,      -9.84573,            0.,NA,NA,"",   328.279E-03,   319.981E-03,   73.3436E-03,   3.84348E-03
C:/temp/dataset/6/26_16.odb,Step-1,Increment      1: Step Time =    1.000,"PART-1-1",           126,       4.04132,      -2.67712,            0.,NA,NA,"",   507.772E-03,   505.812E-03,  -44.5766E-03,   4.62091E-03
C:/temp/dataset/6/26_16.odb,Step-1,Increment      1: Step Time =    1.000,"PART-1-1",           127,       6.95362,      -12.5367,            0.,NA,NA,"",   474.333E-03,   474.327E-03,   2.23871E-03,   13.7901E-03
C:/temp/dataset/6/26_16.odb,Step-1,Increment      1: Step Time =    1.000,"PART-1-1",           128,       6.92458,      -14.9216,            0.,NA,NA,"",   385.099E-03,   385.088E-03,   2.91289E-03,   16.9321E-03
C:/temp/dataset/6/26_16.odb,Step-1,Increment      1: Step Time =    1.000,"PART-1-1",           129,       12.9089,      -21.3671,            0.,NA,NA,"",   167.233E-03,   143.006E-03,  -86.6962E-03,   10.2699E-03
C:/temp/dataset/6/26_16.odb,Step-1,Increment      1: Step Time =    1.000,"PART-1-1",           130,   283.131E-03,      -22.8786,            0.,NA,NA,"",   71.5074E-03,   71.2905E-03,   5.56468E-03,   8.24402E-03
C:/temp/dataset/6/26_16.odb,Step-1,Increment      1: Step Time =    1.000,"PART-1-1",           131,      -12.9776,      -22.4214,            0.,NA,NA,"",   81.6128E-03,   66.7927E-03,   46.8977E-03,   6.47894E-03
C:/temp/dataset/6/26_16.odb,Step-1,Increment      1: Step Time =    1.000,"PART-1-1",           132,      -7.42030,      -15.1083,            0.,NA,NA,"",   189.807E-03,   189.378E-03,  -12.7542E-03,   3.99731E-03
C:/temp/dataset/6/26_16.odb,Step-1,Increment      1: Step Time =    1.000,"PART-1-1",           133,      -7.18486,      -10.2642,            0.,NA,NA,"",   307.583E-03,   307.065E-03,  -17.8332E-03,   3.60410E-03
C:/temp/dataset/6/26_16.odb,Step-1,Increment      1: Step Time =    1.000,"PART-1-1",           134,      -7.33974,      -5.93881,            0.,NA,NA,"",   413.764E-03,   413.683E-03,  -8.17033E-03,   5.35313E-03
C:/temp/dataset/6/26_16.odb,Step-1,Increment      1: Step Time =    1.000,"PART-1-1",           135,  -533.729E-03,      -2.94296,            0.,NA,NA,"",   491.896E-03,   489.558E-03,  -47.9062E-03,   5.18481E-03
C:/temp/dataset/6/26_16.odb,Step-1,Increment      1: Step Time =    1.000,"PART-1-1",           136,       10.2172,      -28.0250,            0.,NA,NA,"",   13.5946E-03,   11.7024E-03,  -6.91859E-03,   5.86003E-03
C:/temp/dataset/6/26_16.odb,Step-1,Increment      1: Step Time =    1.000,"PART-1-1",           137,       7.82196,      -28.0777,            0.,NA,NA,"",   12.1227E-03,   12.1186E-03,   318.087E-06,   4.34596E-03
C:/temp/dataset/6/26_16.odb,Step-1,Increment      1: Step Time =    1.000,"PART-1-1",           138,       5.43540,      -28.0544,            0.,NA,NA,"",   16.4075E-03,   15.8117E-03,   4.38129E-03,   6.52989E-03
C:/temp/dataset/6/26_16.odb,Step-1,Increment      1: Step Time =    1.000,"PART-1-1",           139,       2.98405,      -27.8165,            0.,NA,NA,"",   22.9220E-03,   22.2266E-03,   5.60326E-03,   8.03315E-03
C:/temp/dataset/6/26_16.odb,Step-1,Increment      1: Step Time =    1.000,"PART-1-1",           140,   324.250E-03,      -27.0908,            0.,NA,NA,"",   31.7928E-03,   31.5529E-03,   3.89853E-03,   8.12697E-03
C:/temp/dataset/6/26_16.odb,Step-1,Increment      1: Step Time =    1.000,"PART-1-1",           141,      -2.46293,      -27.5198,            0.,NA,NA,"",   24.7382E-03,   24.7358E-03,  -345.389E-06,   7.10756E-03
C:/temp/dataset/6/26_16.odb,Step-1,Increment      1: Step Time =    1.000,"PART-1-1",           142,      -4.88996,      -27.5861,            0.,NA,NA,"",   19.9703E-03,   19.9044E-03,  -1.62075E-03,   5.93837E-03
C:/temp/dataset/6/26_16.odb,Step-1,Increment      1: Step Time =    1.000,"PART-1-1",           143,      -7.26500,      -27.4866,            0.,NA,NA,"",   16.3561E-03,   16.3560E-03,  -47.5311E-06,   4.42146E-03
C:/temp/dataset/6/26_16.odb,Step-1,Increment      1: Step Time =    1.000,"PART-1-1",           144,      -9.86695,      -26.8928,            0.,NA,NA,"",   19.4297E-03,   18.4141E-03,   6.19965E-03,   3.90157E-03
C:/temp/dataset/6/26_16.odb,Step-1,Increment      1: Step Time =    1.000,"PART-1-1",           145,       12.7710,      -23.5898,            0.,NA,NA,"",   108.609E-03,   87.7121E-03,  -64.0511E-03,   10.7121E-03
C:/temp/dataset/6/26_16.odb,Step-1,Increment      1: Step Time =    1.000,"PART-1-1",           146,       12.6989,      -25.7990,            0.,NA,NA,"",   62.2896E-03,   46.9611E-03,  -40.9224E-03,   11.7769E-03
C:/temp/dataset/6/26_16.odb,Step-1,Increment      1: Step Time =    1.000,"PART-1-1",           147,       12.6207,      -27.9366,            0.,NA,NA,"",   26.6034E-03,   18.2871E-03,  -19.3215E-03,   12.4371E-03
C:/temp/dataset/6/26_16.odb,Step-1,Increment      1: Step Time =    1.000,"PART-1-1",           148,       12.9983,      -14.8223,            0.,NA,NA,"",   385.464E-03,   368.057E-03,  -114.529E-03,   8.28989E-03
C:/temp/dataset/6/26_16.odb,Step-1,Increment      1: Step Time =    1.000,"PART-1-1",           149,       13.0558,      -17.0719,            0.,NA,NA,"",   309.722E-03,   287.570E-03,  -115.027E-03,   9.37246E-03
C:/temp/dataset/6/26_16.odb,Step-1,Increment      1: Step Time =    1.000,"PART-1-1",           150,       13.1682,      -19.2108,            0.,NA,NA,"",   237.513E-03,   211.310E-03,  -108.445E-03,   9.65456E-03
C:/temp/dataset/6/26_16.odb,Step-1,Increment      1: Step Time =    1.000,"PART-1-1",           151,       13.0670,      -5.94273,            0.,NA,NA,"",   526.559E-03,   521.051E-03,  -75.9608E-03,   5.24570E-03
C:/temp/dataset/6/26_16.odb,Step-1,Increment      1: Step Time =    1.000,"PART-1-1",           152,       13.0350,      -8.09399,            0.,NA,NA,"",   516.356E-03,   509.376E-03,  -84.6110E-03,   5.99242E-03
C:/temp/dataset/6/26_16.odb,Step-1,Increment      1: Step Time =    1.000,"PART-1-1",           153,       12.9982,      -10.2981,            0.,NA,NA,"",   492.720E-03,   483.379E-03,  -95.4844E-03,   6.11790E-03
C:/temp/dataset/6/26_16.odb,Step-1,Increment      1: Step Time =    1.000,"PART-1-1",           154,       12.5107,   556.281E-03,            0.,NA,NA,"",   529.027E-03,   525.261E-03,  -63.0098E-03,   1.77889E-03
C:/temp/dataset/6/26_16.odb,Step-1,Increment      1: Step Time =    1.000,"PART-1-1",           155,       12.7702,      -1.64554,            0.,NA,NA,"",   529.463E-03,   525.445E-03,  -65.1093E-03,   2.81544E-03
C:/temp/dataset/6/26_16.odb,Step-1,Increment      1: Step Time =    1.000,"PART-1-1",           156,       10.0517,       2.85834,            0.,NA,NA,"",   528.097E-03,   524.941E-03,  -57.6509E-03,   1.18377E-03
C:/temp/dataset/6/26_16.odb,Step-1,Increment      1: Step Time =    1.000,"PART-1-1",           157,       5.39286,       2.85476,            0.,NA,NA,"",   522.885E-03,   520.239E-03,  -52.5352E-03,   1.53304E-03
C:/temp/dataset/6/26_16.odb,Step-1,Increment      1: Step Time =    1.000,"PART-1-1",           158,   175.602E-03,       2.90951,            0.,NA,NA,"",   522.278E-03,   519.665E-03,  -52.1754E-03,   2.28366E-03
C:/temp/dataset/6/26_16.odb,Step-1,Increment      1: Step Time =    1.000,"PART-1-1",           159,      -4.35394,       2.91920,            0.,NA,NA,"",   526.914E-03,   525.813E-03,  -34.0449E-03,   1.43986E-03
C:/temp/dataset/6/26_16.odb,Step-1,Increment      1: Step Time =    1.000,"PART-1-1",           160,      -7.05997,       10.9599,            0.,NA,NA,"",   630.450E-03,   630.446E-03,  -2.14800E-03,   52.6154E-06
C:/temp/dataset/6/26_16.odb,Step-1,Increment      1: Step Time =    1.000,"PART-1-1",           161,      -6.93805,       8.84105,            0.,NA,NA,"",   603.701E-03,   603.691E-03,  -3.47466E-03,   154.934E-06
C:/temp/dataset/6/26_16.odb,Step-1,Increment      1: Step Time =    1.000,"PART-1-1",           162,      -7.28921,       17.6445,            0.,NA,NA,"",   713.824E-03,   713.824E-03,   181.616E-06,   7.59123E-06
C:/temp/dataset/6/26_16.odb,Step-1,Increment      1: Step Time =    1.000,"PART-1-1",           163,      -7.17735,       15.3234,            0.,NA,NA,"",   684.894E-03,   684.893E-03,  -1.03171E-03,   20.5177E-06
C:/temp/dataset/6/26_16.odb,Step-1,Increment      1: Step Time =    1.000,"PART-1-1",           164,      -6.93557,       23.5874,            0.,NA,NA,"",   787.896E-03,   787.882E-03,  -4.69051E-03,   77.4772E-09
C:/temp/dataset/6/26_16.odb,Step-1,Increment      1: Step Time =    1.000,"PART-1-1",           165,      -13.1925,       19.7530,            0.,NA,NA,"",   744.204E-03,   740.553E-03,   73.6234E-03,   2.06692E-06
C:/temp/dataset/6/26_16.odb,Step-1,Increment      1: Step Time =    1.000,"PART-1-1",           166,      -7.44963,       27.8335,            0.,NA,NA,"",   840.866E-03,   840.865E-03,   1.38889E-03,   114.274E-09
C:/temp/dataset/6/26_16.odb,Step-1,Increment      1: Step Time =    1.000,"PART-1-1",           167,      -13.0424,       22.0734,            0.,NA,NA,"",   772.799E-03,   769.478E-03,   71.5716E-03,   319.877E-09
C:/temp/dataset/6/26_16.odb,Step-1,Increment      1: Step Time =    1.000,"PART-1-1",           168,      -13.1316,       14.9813,            0.,NA,NA,"",   684.947E-03,   681.021E-03,   73.2304E-03,   21.1717E-06
C:/temp/dataset/6/26_16.odb,Step-1,Increment      1: Step Time =    1.000,"PART-1-1",           169,      -13.1727,       17.3972,            0.,NA,NA,"",   714.960E-03,   711.166E-03,   73.5585E-03,   7.67315E-06
C:/temp/dataset/6/26_16.odb,Step-1,Increment      1: Step Time =    1.000,"PART-1-1",           170,      -12.8574,       7.53984,            0.,NA,NA,"",   593.116E-03,   588.928E-03,   70.3553E-03,   208.564E-06
C:/temp/dataset/6/26_16.odb,Step-1,Increment      1: Step Time =    1.000,"PART-1-1",           171,      -13.0166,       10.0884,            0.,NA,NA,"",   624.301E-03,   620.117E-03,   72.1560E-03,   28.6454E-06
C:/temp/dataset/6/26_16.odb,Step-1,Increment      1: Step Time =    1.000,"PART-1-1",           172,      -12.8045,  -118.323E-03,            0.,NA,NA,"",   505.289E-03,   499.959E-03,   73.1952E-03,   2.04798E-03
C:/temp/dataset/6/26_16.odb,Step-1,Increment      1: Step Time =    1.000,"PART-1-1",           173,      -12.7039,       2.28772,            0.,NA,NA,"",   532.683E-03,   528.119E-03,   69.5828E-03,   1.65982E-03
C:/temp/dataset/6/26_16.odb,Step-1,Increment      1: Step Time =    1.000,"PART-1-1",           174,      -12.8488,      -7.31355,            0.,NA,NA,"",   388.342E-03,   378.765E-03,   85.7112E-03,   2.54736E-03
C:/temp/dataset/6/26_16.odb,Step-1,Increment      1: Step Time =    1.000,"PART-1-1",           175,      -12.6051,      -4.81291,            0.,NA,NA,"",   436.672E-03,   429.696E-03,   77.7421E-03,   1.95259E-03
C:/temp/dataset/6/26_16.odb,Step-1,Increment      1: Step Time =    1.000,"PART-1-1",           176,      -12.4260,      -15.0682,            0.,NA,NA,"",   207.582E-03,   194.898E-03,   71.4479E-03,   4.69373E-03
C:/temp/dataset/6/26_16.odb,Step-1,Increment      1: Step Time =    1.000,"PART-1-1",           177,      -12.3344,      -12.5112,            0.,NA,NA,"",   265.956E-03,   255.173E-03,   74.9627E-03,   4.24393E-03
C:/temp/dataset/6/26_16.odb,Step-1,Increment      1: Step Time =    1.000,"PART-1-1",           178,      -12.6598,      -20.1148,            0.,NA,NA,"",   111.959E-03,   97.3321E-03,   55.3290E-03,   5.82594E-03
C:/temp/dataset/6/26_16.odb,Step-1,Increment      1: Step Time =    1.000,"PART-1-1",           179,      -8.70618,       22.9331,            0.,NA,NA,"",   780.057E-03,   779.862E-03,   17.4369E-03,   318.922E-09
C:/temp/dataset/6/26_16.odb,Step-1,Increment      1: Step Time =    1.000,"PART-1-1",           180,      -9.21222,       15.1634,            0.,NA,NA,"",   683.470E-03,   683.035E-03,   24.3867E-03,   23.8336E-06
C:/temp/dataset/6/26_16.odb,Step-1,Increment      1: Step Time =    1.000,"PART-1-1",           181,      -9.55138,       19.8926,            0.,NA,NA,"",   742.554E-03,   742.018E-03,   28.2140E-03,   2.78992E-06
C:/temp/dataset/6/26_16.odb,Step-1,Increment      1: Step Time =    1.000,"PART-1-1",           182,      -8.92203,       8.32966,            0.,NA,NA,"",   597.930E-03,   597.548E-03,   21.3938E-03,   194.756E-06
C:/temp/dataset/6/26_16.odb,Step-1,Increment      1: Step Time =    1.000,"PART-1-1",           183,      -9.17670,       12.8809,            0.,NA,NA,"",   655.019E-03,   654.573E-03,   24.1767E-03,   43.9848E-06
C:/temp/dataset/6/26_16.odb,Step-1,Increment      1: Step Time =    1.000,"PART-1-1",           184,      -9.09923,       10.6117,            0.,NA,NA,"",   626.674E-03,   626.235E-03,   23.4539E-03,   60.3360E-06
C:/temp/dataset/6/26_16.odb,Step-1,Increment      1: Step Time =    1.000,"PART-1-1",           185,      -9.30530,       17.5014,            0.,NA,NA,"",   712.638E-03,   712.187E-03,   25.3407E-03,   9.44763E-06
C:/temp/dataset/6/26_16.odb,Step-1,Increment      1: Step Time =    1.000,"PART-1-1",           186,      -8.37864,       6.17865,            0.,NA,NA,"",   570.294E-03,   570.118E-03,   14.1608E-03,   1.15109E-03
C:/temp/dataset/6/26_16.odb,Step-1,Increment      1: Step Time =    1.000,"PART-1-1",           187,       10.9988,      -10.2527,            0.,NA,NA,"",   495.218E-03,   491.146E-03,  -63.3745E-03,   4.37101E-03
C:/temp/dataset/6/26_16.odb,Step-1,Increment      1: Step Time =    1.000,"PART-1-1",           188,       10.8643,      -17.5211,            0.,NA,NA,"",   276.718E-03,   267.850E-03,  -69.4938E-03,   14.9041E-03
C:/temp/dataset/6/26_16.odb,Step-1,Increment      1: Step Time =    1.000,"PART-1-1",           189,       11.0508,      -8.01555,            0.,NA,NA,"",   517.735E-03,   514.303E-03,  -59.5166E-03,   4.66278E-03
C:/temp/dataset/6/26_16.odb,Step-1,Increment      1: Step Time =    1.000,"PART-1-1",           190,       10.6332,      -2.00908,            0.,NA,NA,"",   527.818E-03,   524.833E-03,  -56.0568E-03,   3.51425E-03
C:/temp/dataset/6/26_16.odb,Step-1,Increment      1: Step Time =    1.000,"PART-1-1",           191,       11.1668,      -5.92645,            0.,NA,NA,"",   526.487E-03,   523.197E-03,  -58.7640E-03,   4.82336E-03
C:/temp/dataset/6/26_16.odb,Step-1,Increment      1: Step Time =    1.000,"PART-1-1",           192,       10.9732,      -14.9280,            0.,NA,NA,"",   376.105E-03,   368.574E-03,  -74.8885E-03,   12.8269E-03
C:/temp/dataset/6/26_16.odb,Step-1,Increment      1: Step Time =    1.000,"PART-1-1",           193,       10.5476,      -23.6927,            0.,NA,NA,"",   82.0860E-03,   76.3626E-03,  -30.1143E-03,   7.61520E-03
C:/temp/dataset/6/26_16.odb,Step-1,Increment      1: Step Time =    1.000,"PART-1-1",           194,       10.5707,      -21.1850,            0.,NA,NA,"",   144.938E-03,   137.682E-03,  -45.2827E-03,   11.0871E-03
C:/temp/dataset/6/26_16.odb,Step-1,Increment      1: Step Time =    1.000,"PART-1-1",           195,       10.9760,      -12.5622,            0.,NA,NA,"",   449.494E-03,   443.997E-03,  -70.0863E-03,   7.93426E-03
C:/temp/dataset/6/26_16.odb,Step-1,Increment      1: Step Time =    1.000,"PART-1-1",           196,       11.6229,      -19.2502,            0.,NA,NA,"",   218.676E-03,   205.124E-03,  -75.7854E-03,   12.4063E-03
C:/temp/dataset/6/26_16.odb,Step-1,Increment      1: Step Time =    1.000,"PART-1-1",           197,       11.1609,      -3.97100,            0.,NA,NA,"",   528.700E-03,   525.489E-03,  -58.1828E-03,   4.35387E-03
C:/temp/dataset/6/26_16.odb,Step-1,Increment      1: Step Time =    1.000,"PART-1-1",           198,      -9.55101,       25.2781,            0.,NA,NA,"",   809.643E-03,   809.166E-03,   27.7885E-03,   113.608E-09
C:/temp/dataset/6/26_16.odb,Step-1,Increment      1: Step Time =    1.000,"PART-1-1",           199,      -6.13353,       2.97524,            0.,NA,NA,"",   529.403E-03,   529.140E-03,  -16.7044E-03,   2.54182E-03
C:/temp/dataset/6/26_16.odb,Step-1,Increment      1: Step Time =    1.000,"PART-1-1",           200,       8.52809,      -18.5145,            0.,NA,NA,"",   221.986E-03,   220.576E-03,  -24.9827E-03,   16.1181E-03
C:/temp/dataset/6/26_16.odb,Step-1,Increment      1: Step Time =    1.000,"PART-1-1",           201,      -9.31256,      -6.57829,            0.,NA,NA,"",   398.208E-03,   397.468E-03,   24.2523E-03,   4.07128E-03
C:/temp/dataset/6/26_16.odb,Step-1,Increment      1: Step Time =    1.000,"PART-1-1",           202,      -7.82061,      -4.24854,            0.,NA,NA,"",   447.560E-03,   447.560E-03,  -581.653E-06,   4.10937E-03
C:/temp/dataset/6/26_16.odb,Step-1,Increment      1: Step Time =    1.000,"PART-1-1",           203,       7.55002,      -20.4955,            0.,NA,NA,"",   140.891E-03,   140.890E-03,   504.100E-06,   13.1985E-03
C:/temp/dataset/6/26_16.odb,Step-1,Increment      1: Step Time =    1.000,"PART-1-1",           204,      -9.18944,      -8.43706,            0.,NA,NA,"",   354.407E-03,   353.759E-03,   21.4270E-03,   4.85938E-03
C:/temp/dataset/6/26_16.odb,Step-1,Increment      1: Step Time =    1.000,"PART-1-1",           205,      -12.3720,       27.4312,            0.,NA,NA,"",   838.586E-03,   836.232E-03,   62.7950E-03,   129.426E-09
C:/temp/dataset/6/26_16.odb,Step-1,Increment      1: Step Time =    1.000,"PART-1-1",           206,      -10.3791,       22.2070,            0.,NA,NA,"",   771.891E-03,   770.938E-03,   38.3525E-03,   600.207E-09
C:/temp/dataset/6/26_16.odb,Step-1,Increment      1: Step Time =    1.000,"PART-1-1",           207,       3.40286,  -884.176E-03,            0.,NA,NA,"",   510.221E-03,   507.838E-03,  -49.2537E-03,   3.83250E-03
C:/temp/dataset/6/26_16.odb,Step-1,Increment      1: Step Time =    1.000,"PART-1-1",           208,       7.88020,       1.44192,            0.,NA,NA,"",   524.040E-03,   521.385E-03,  -52.6814E-03,   1.83656E-03
C:/temp/dataset/6/26_16.odb,Step-1,Increment      1: Step Time =    1.000,"PART-1-1",           209,      -1.17287,  -897.893E-03,            0.,NA,NA,"",   500.569E-03,   498.072E-03,  -49.9442E-03,   3.72032E-03
C:/temp/dataset/6/26_16.odb,Step-1,Increment      1: Step Time =    1.000,"PART-1-1",           210,       10.4014,      -25.9274,            0.,NA,NA,"",   40.8511E-03,   37.2103E-03,  -16.8585E-03,   6.29080E-03
C:/temp/dataset/6/26_16.odb,Step-1,Increment      1: Step Time =    1.000,"PART-1-1",           211,       2.00108,      -24.8239,            0.,NA,NA,"",   57.4752E-03,   56.1121E-03,   12.4429E-03,   9.97847E-03
C:/temp/dataset/6/26_16.odb,Step-1,Increment      1: Step Time =    1.000,"PART-1-1",           212,      -4.80900,      -25.1606,            0.,NA,NA,"",   41.4833E-03,   40.9766E-03,  -6.46348E-03,   6.54516E-03
C:/temp/dataset/6/26_16.odb,Step-1,Increment      1: Step Time =    1.000,"PART-1-1",           213,      -11.5765,       21.3848,            0.,NA,NA,"",   762.645E-03,   760.777E-03,   53.3466E-03,   997.006E-09
C:/temp/dataset/6/26_16.odb,Step-1,Increment      1: Step Time =    1.000,"PART-1-1",           214,      -11.0630,       10.3038,            0.,NA,NA,"",   624.442E-03,   622.599E-03,   47.9377E-03,   55.1445E-06
C:/temp/dataset/6/26_16.odb,Step-1,Increment      1: Step Time =    1.000,"PART-1-1",           215,      -10.2832,  -591.021E-03,            0.,NA,NA,"",   496.546E-03,   495.253E-03,   35.8081E-03,   2.15737E-03
C:/temp/dataset/6/26_16.odb,Step-1,Increment      1: Step Time =    1.000,"PART-1-1",           216,      -11.1869,      -5.64306,            0.,NA,NA,"",   418.736E-03,   415.140E-03,   54.7605E-03,   2.46791E-03
C:/temp/dataset/6/26_16.odb,Step-1,Increment      1: Step Time =    1.000,"PART-1-1",           217,      -9.48237,      -10.3825,            0.,NA,NA,"",   306.741E-03,   305.702E-03,   25.2331E-03,   4.64601E-03
C:/temp/dataset/6/26_16.odb,Step-1,Increment      1: Step Time =    1.000,"PART-1-1",           218,      -10.0191,      -20.7277,            0.,NA,NA,"",   84.2019E-03,   81.6624E-03,   20.5235E-03,   3.45949E-03
C:/temp/dataset/6/26_16.odb,Step-1,Increment      1: Step Time =    1.000,"PART-1-1",           219,      -12.8377,      -24.8331,            0.,NA,NA,"",   51.3108E-03,   40.6625E-03,   31.2946E-03,   6.93830E-03
C:/temp/dataset/6/26_16.odb,Step-1,Increment      1: Step Time =    1.000,"PART-1-1",           220,  -752.185E-03,      -25.0561,            0.,NA,NA,"",   51.1264E-03,   51.0874E-03,   1.99687E-03,   8.45859E-03
C:/temp/dataset/6/26_16.odb,Step-1,Increment      1: Step Time =    1.000,"PART-1-1",           221,      -11.3411,      -22.5061,            0.,NA,NA,"",   68.0590E-03,   61.5418E-03,   29.0627E-03,   4.46268E-03
C:/temp/dataset/6/26_16.odb,Step-1,Increment      1: Step Time =    1.000,"PART-1-1",           222,       5.90860,      -26.1342,            0.,NA,NA,"",   36.7177E-03,   35.4805E-03,   9.45083E-03,   7.08891E-03
C:/temp/dataset/6/26_16.odb,Step-1,Increment      1: Step Time =    1.000,"PART-1-1",           223,       3.81352,      -25.8758,            0.,NA,NA,"",   44.3258E-03,   42.4785E-03,   12.6630E-03,   9.23383E-03
C:/temp/dataset/6/26_16.odb,Step-1,Increment      1: Step Time =    1.000,"PART-1-1",           224,      -6.87266,      -25.1947,            0.,NA,NA,"",   35.6001E-03,   35.4234E-03,  -3.54172E-03,   4.50067E-03
C:/temp/dataset/6/26_16.odb,Step-1,Increment      1: Step Time =    1.000,"PART-1-1",           225,       9.77381,   336.875E-03,            0.,NA,NA,"",   526.383E-03,   523.477E-03,  -55.2401E-03,   2.31395E-03
C:/temp/dataset/6/26_16.odb,Step-1,Increment      1: Step Time =    1.000,"PART-1-1",           226,       4.59800,   29.7464E-03,            0.,NA,NA,"",   515.335E-03,   512.954E-03,  -49.4806E-03,   3.30877E-03
C:/temp/dataset/6/26_16.odb,Step-1,Increment      1: Step Time =    1.000,"PART-1-1",           227,      -11.1551,       12.6912,            0.,NA,NA,"",   654.151E-03,   652.325E-03,   48.8496E-03,   42.3157E-06
C:/temp/dataset/6/26_16.odb,Step-1,Increment      1: Step Time =    1.000,"PART-1-1",           228,      -11.2689,       17.3859,            0.,NA,NA,"",   712.629E-03,   710.885E-03,   49.8320E-03,   9.71078E-06
C:/temp/dataset/6/26_16.odb,Step-1,Increment      1: Step Time =    1.000,"PART-1-1",           229,      -11.2102,       15.0558,            0.,NA,NA,"",   683.597E-03,   681.817E-03,   49.3036E-03,   23.7111E-06
C:/temp/dataset/6/26_16.odb,Step-1,Increment      1: Step Time =    1.000,"PART-1-1",           230,      -10.8139,       7.79620,            0.,NA,NA,"",   593.294E-03,   591.590E-03,   44.9317E-03,   271.876E-06
C:/temp/dataset/6/26_16.odb,Step-1,Increment      1: Step Time =    1.000,"PART-1-1",           231,      -10.1648,       4.85487,            0.,NA,NA,"",   557.151E-03,   555.992E-03,   35.9153E-03,   1.32484E-03
C:/temp/dataset/6/26_16.odb,Step-1,Increment      1: Step Time =    1.000,"PART-1-1",           232,      -10.4473,       2.01195,            0.,NA,NA,"",   525.982E-03,   524.580E-03,   38.3725E-03,   2.20938E-03
C:/temp/dataset/6/26_16.odb,Step-1,Increment      1: Step Time =    1.000,"PART-1-1",           233,      -10.4810,      -3.59789,            0.,NA,NA,"",   455.192E-03,   453.344E-03,   40.9765E-03,   1.75752E-03
C:/temp/dataset/6/26_16.odb,Step-1,Increment      1: Step Time =    1.000,"PART-1-1",           234,      -9.89141,      -15.1395,            0.,NA,NA,"",   191.870E-03,   189.686E-03,   28.8654E-03,   4.72127E-03
C:/temp/dataset/6/26_16.odb,Step-1,Increment      1: Step Time =    1.000,"PART-1-1",           235,      -9.95744,      -17.7636,            0.,NA,NA,"",   134.906E-03,   132.301E-03,   26.3835E-03,   4.92459E-03
C:/temp/dataset/6/26_16.odb,Step-1,Increment      1: Step Time =    1.000,"PART-1-1",           236,      -3.63694,      -1.16253,            0.,NA,NA,"",   493.762E-03,   491.958E-03,  -42.1747E-03,   3.30172E-03
C:/temp/dataset/6/26_16.odb,Step-1,Increment      1: Step Time =    1.000,"PART-1-1",           237,      -7.00580,      -22.7773,            0.,NA,NA,"",   56.6144E-03,   56.1197E-03,  -7.46785E-03,   3.06029E-03
C:/temp/dataset/6/26_16.odb,Step-1,Increment      1: Step Time =    1.000,"PART-1-1",           238,       7.08723,      -4.67483,            0.,NA,NA,"",   519.102E-03,   518.091E-03,  -32.3775E-03,   6.34050E-03
C:/temp/dataset/6/26_16.odb,Step-1,Increment      1: Step Time =    1.000,"PART-1-1",           239,       8.96532,      -10.1697,            0.,NA,NA,"",   501.245E-03,   500.268E-03,  -31.2811E-03,   6.06706E-03
C:/temp/dataset/6/26_16.odb,Step-1,Increment      1: Step Time =    1.000,"PART-1-1",           240,       8.99874,      -7.82238,            0.,NA,NA,"",   518.397E-03,   517.252E-03,  -34.4281E-03,   5.95423E-03
C:/temp/dataset/6/26_16.odb,Step-1,Increment      1: Step Time =    1.000,"PART-1-1",           241,       8.96760,      -14.8663,            0.,NA,NA,"",   379.242E-03,   377.155E-03,  -39.7309E-03,   15.4160E-03
C:/temp/dataset/6/26_16.odb,Step-1,Increment      1: Step Time =    1.000,"PART-1-1",           242,      -12.0836,       24.5335,            0.,NA,NA,"",   802.282E-03,   800.078E-03,   59.4242E-03,   129.117E-09
C:/temp/dataset/6/26_16.odb,Step-1,Increment      1: Step Time =    1.000,"PART-1-1",           243,       9.21542,      -5.66363,            0.,NA,NA,"",   524.529E-03,   522.895E-03,  -41.3802E-03,   5.49130E-03
C:/temp/dataset/6/26_16.odb,Step-1,Increment      1: Step Time =    1.000,"PART-1-1",           244,       8.72776,      -2.97127,            0.,NA,NA,"",   523.881E-03,   521.905E-03,  -45.4630E-03,   4.71426E-03
C:/temp/dataset/6/26_16.odb,Step-1,Increment      1: Step Time =    1.000,"PART-1-1",           245,       9.39471,      -19.4524,            0.,NA,NA,"",   191.385E-03,   188.083E-03,  -35.3948E-03,   14.7311E-03
C:/temp/dataset/6/26_16.odb,Step-1,Increment      1: Step Time =    1.000,"PART-1-1",           246,       8.06548,      -22.0810,            0.,NA,NA,"",   101.718E-03,   101.689E-03,  -2.42049E-03,   7.08676E-03
C:/temp/dataset/6/26_16.odb,Step-1,Increment      1: Step Time =    1.000,"PART-1-1",           247,      -7.53738,       4.79758,            0.,NA,NA,"",   551.936E-03,   551.930E-03,   2.67005E-03,   1.98362E-03
C:/temp/dataset/6/26_16.odb,Step-1,Increment      1: Step Time =    1.000,"PART-1-1",           248,      -10.8025,      -24.3532,            0.,NA,NA,"",   44.6258E-03,   40.9694E-03,   17.6911E-03,   3.83785E-03
C:/temp/dataset/6/26_16.odb,Step-1,Increment      1: Step Time =    1.000,"PART-1-1",           249,       5.82981,      -2.08643,            0.,NA,NA,"",   514.123E-03,   512.331E-03,  -42.8936E-03,   5.29442E-03
C:/temp/dataset/6/26_16.odb,Step-1,Increment      1: Step Time =    1.000,"PART-1-1",           250,      -8.67175,      -2.53401,            0.,NA,NA,"",   472.172E-03,   472.028E-03,   11.6729E-03,   2.38981E-03
C:/temp/dataset/6/26_16.odb,Step-1,Increment      1: Step Time =    1.000,"PART-1-1",           251,       5.78686,      -22.7214,            0.,NA,NA,"",   86.6564E-03,   83.7861E-03,   22.1183E-03,   8.50280E-03
C:/temp/dataset/6/26_16.odb,Step-1,Increment      1: Step Time =    1.000,"PART-1-1",           252,      -8.27594,       1.60152,            0.,NA,NA,"",   518.691E-03,   518.626E-03,   8.19345E-03,   2.55792E-03
C:/temp/dataset/6/26_16.odb,Step-1,Increment      1: Step Time =    1.000,"PART-1-1",           253,       8.25490,      -24.0061,            0.,NA,NA,"",   64.4421E-03,   64.4135E-03,  -1.92125E-03,   4.61610E-03
C:/temp/dataset/6/26_16.odb,Step-1,Increment      1: Step Time =    1.000,"PART-1-1",           254,      -9.04303,      -23.2600,            0.,NA,NA,"",   50.7493E-03,   50.3179E-03,   6.60303E-03,   1.69265E-03
C:/temp/dataset/6/26_16.odb,Step-1,Increment      1: Step Time =    1.000,"PART-1-1",           255,       7.61656,      -1.09448,            0.,NA,NA,"",   521.088E-03,   518.925E-03,  -47.4334E-03,   3.66011E-03
C:/temp/dataset/6/26_16.odb,Step-1,Increment      1: Step Time =    1.000,"PART-1-1",           256,      -4.02262,   861.151E-03,            0.,NA,NA,"",   510.046E-03,   508.623E-03,  -38.0784E-03,   1.23987E-03
C:/temp/dataset/6/26_16.odb,Step-1,Increment      1: Step Time =    1.000,"PART-1-1",           257,  -104.141E-03,       1.31276,            0.,NA,NA,"",   514.659E-03,   512.013E-03,  -52.1210E-03,   2.83745E-03
C:/temp/dataset/6/26_16.odb,Step-1,Increment      1: Step Time =    1.000,"PART-1-1",           258,       3.72123,      -23.4419,            0.,NA,NA,"",   75.9911E-03,   72.7505E-03,   21.9550E-03,   11.9100E-03
C:/temp/dataset/6/26_16.odb,Step-1,Increment      1: Step Time =    1.000,"PART-1-1",           259,      -10.7950,      -8.39617,            0.,NA,NA,"",   358.000E-03,   354.582E-03,   49.3502E-03,   4.07632E-03
C:/temp/dataset/6/26_16.odb,Step-1,Increment      1: Step Time =    1.000,"PART-1-1",           260,      -1.85786,       1.02916,            0.,NA,NA,"",   512.190E-03,   509.886E-03,  -48.5306E-03,   2.48149E-03
C:/temp/dataset/6/26_16.odb,Step-1,Increment      1: Step Time =    1.000,"PART-1-1",           261,      -6.46179,      -1.33856,            0.,NA,NA,"",   488.594E-03,   488.260E-03,  -18.0719E-03,   2.44392E-03
C:/temp/dataset/6/26_16.odb,Step-1,Increment      1: Step Time =    1.000,"PART-1-1",           262,      -11.1078,      -7.00587,            0.,NA,NA,"",   390.277E-03,   386.451E-03,   54.5142E-03,   3.36233E-03
C:/temp/dataset/6/26_16.odb,Step-1,Increment      1: Step Time =    1.000,"PART-1-1",           263,      -5.52697,      -3.44125,            0.,NA,NA,"",   467.027E-03,   465.952E-03,  -31.6750E-03,   4.65119E-03
C:/temp/dataset/6/26_16.odb,Step-1,Increment      1: Step Time =    1.000,"PART-1-1",           264,      -9.72268,      -4.98378,            0.,NA,NA,"",   431.187E-03,   430.141E-03,   30.0187E-03,   2.87235E-03
C:/temp/dataset/6/26_16.odb,Step-1,Increment      1: Step Time =    1.000,"PART-1-1",           265,      -6.27329,       4.89376,            0.,NA,NA,"",   550.653E-03,   550.511E-03,  -12.4933E-03,   2.94301E-03
C:/temp/dataset/6/26_16.odb,Step-1,Increment      1: Step Time =    1.000,"PART-1-1",           266,       12.4963,       2.80040,            0.,NA,NA,"",   529.796E-03,   526.080E-03,  -62.6340E-03,   843.854E-06
C:/temp/dataset/6/26_16.odb,Step-1,Increment      1: Step Time =    1.000,"PART-1-1",           267,      -7.37176,      -20.2559,            0.,NA,NA,"",   84.1870E-03,   83.8635E-03,  -7.37320E-03,   3.45849E-03
C:/temp/dataset/6/26_16.odb,Step-1,Increment      1: Step Time =    1.000,"PART-1-1",           268,       2.88963,      -21.8777,            0.,NA,NA,"",   89.4596E-03,   87.5017E-03,   18.6139E-03,   15.1588E-03
C:/temp/dataset/6/26_16.odb,Step-1,Increment      1: Step Time =    1.000,"PART-1-1",           269,      -8.05085,       3.52655,            0.,NA,NA,"",   538.354E-03,   538.303E-03,   7.44230E-03,   2.41863E-03
C:/temp/dataset/6/26_16.odb,Step-1,Increment      1: Step Time =    1.000,"PART-1-1",           270,       8.95558,      -12.5395,            0.,NA,NA,"",   457.744E-03,   456.393E-03,  -35.1461E-03,   10.1932E-03
C:/temp/dataset/6/26_16.odb,Step-1,Increment      1: Step Time =    1.000,"PART-1-1",           271,       1.35989,  -223.950E-03,            0.,NA,NA,"",   508.878E-03,   506.228E-03,  -51.8622E-03,   3.54898E-03
C:/temp/dataset/6/26_16.odb,Step-1,Increment      1: Step Time =    1.000,"PART-1-1",           272,      -9.75004,      -12.6533,            0.,NA,NA,"",   251.036E-03,   249.436E-03,   28.2973E-03,   4.76287E-03
C:/temp/dataset/6/26_16.odb,Step-1,Increment      1: Step Time =    1.000,"PART-1-1",           273,      -8.51206,      -25.1011,            0.,NA,NA,"",   33.8670E-03,   33.7642E-03,   2.63625E-03,   2.79974E-03
C:/temp/dataset/6/26_16.odb,Step-1,Increment      1: Step Time =    1.000,"PART-1-1",           274,      -6.19138,   998.181E-03,            0.,NA,NA,"",   511.266E-03,   510.935E-03,  -18.3865E-03,   1.89387E-03
C:/temp/dataset/6/26_16.odb,Step-1,Increment      1: Step Time =    1.000,"PART-1-1",           275,      -2.63339,      -25.0950,            0.,NA,NA,"",   47.1456E-03,   46.9899E-03,  -3.82803E-03,   8.20932E-03
C:/temp/dataset/6/26_16.odb,Step-1,Increment      1: Step Time =    1.000,"PART-1-1",           276,       8.11811,      -26.0558,            0.,NA,NA,"",   33.7876E-03,   33.7871E-03,  -168.347E-06,   4.52005E-03
C:/temp/dataset/6/26_16.odb,Step-1,Increment      1: Step Time =    1.000,"PART-1-1",           277,       6.33403,   764.508E-03,            0.,NA,NA,"",   520.322E-03,   517.883E-03,  -50.3221E-03,   2.55584E-03
C:/temp/dataset/6/26_16.odb,Step-1,Increment      1: Step Time =    1.000,"PART-1-1",           278,       8.84044,      -16.9880,            0.,NA,NA,"",   288.828E-03,   286.662E-03,  -35.3023E-03,   17.6597E-03
C:/temp/dataset/6/26_16.odb,Step-1,Increment      1: Step Time =    1.000,"PART-1-1",           279,      -11.3950,       19.6047,            0.,NA,NA,"",   740.340E-03,   738.566E-03,   51.2243E-03,   3.17710E-06
C:/temp/dataset/6/26_16.odb,Step-1,Increment      1: Step Time =    1.000,"PART-1-1",           280,      -11.2464,      -2.22607,            0.,NA,NA,"",   476.104E-03,   473.280E-03,   51.7790E-03,   1.71706E-03
C:/temp/dataset/6/26_16.odb,Step-1,Increment      1: Step Time =    1.000,"PART-1-1",           281,      -8.41776,  -32.7016E-03,            0.,NA,NA,"",   501.862E-03,   501.786E-03,   8.71181E-03,   2.43758E-03
C:/temp/dataset/6/26_16.odb,Step-1,Increment      1: Step Time =    1.000,"PART-1-1",           282,       4.48255,      -24.5345,            0.,NA,NA,"",   60.8610E-03,   58.0846E-03,   18.1725E-03,   9.60716E-03
C:/temp/dataset/6/26_16.odb,Step-1,Increment      1: Step Time =    1.000,"PART-1-1",           283,       6.11275,      -24.3348,            0.,NA,NA,"",   60.6183E-03,   58.8368E-03,   14.5883E-03,   7.03703E-03
C:/temp/dataset/6/26_16.odb,Step-1,Increment      1: Step Time =    1.000,"PART-1-1",           284,       9.69767,      -4.20039,            0.,NA,NA,"",   526.311E-03,   524.116E-03,  -48.0226E-03,   4.86676E-03
C:/temp/dataset/6/26_16.odb,Step-1,Increment      1: Step Time =    1.000,"PART-1-1",           285,       13.8851,      -1.60402,            0.,NA,NA,"",   529.273E-03,   524.832E-03,  -68.4230E-03,   2.24344E-03
C:/temp/dataset/6/26_16.odb,Step-1,Increment      1: Step Time =    1.000,"PART-1-1",           286,           15.,   -468.75E-03,            0.,NA,NA,"",   528.641E-03,   524.237E-03,  -68.0951E-03,   1.65706E-03
C:/temp/dataset/6/26_16.odb,Step-1,Increment      1: Step Time =    1.000,"PART-1-1",           287,       13.7553,   590.641E-03,            0.,NA,NA,"",   529.187E-03,   525.102E-03,  -65.6243E-03,   1.12982E-03
C:/temp/dataset/6/26_16.odb,Step-1,Increment      1: Step Time =    1.000,"PART-1-1",           288,       12.6405,  -544.629E-03,            0.,NA,NA,"",   529.180E-03,   525.315E-03,  -63.8433E-03,   2.27858E-03
C:/temp/dataset/6/26_16.odb,Step-1,Increment      1: Step Time =    1.000,"PART-1-1",           289,       6.57104,       2.96720,            0.,NA,NA,"",   524.259E-03,   521.578E-03,  -52.9459E-03,   1.23253E-03
C:/temp/dataset/6/26_16.odb,Step-1,Increment      1: Step Time =    1.000,"PART-1-1",           290,       5.86345,       1.80964,            0.,NA,NA,"",   521.518E-03,   518.955E-03,  -51.6430E-03,   1.97679E-03
C:/temp/dataset/6/26_16.odb,Step-1,Increment      1: Step Time =    1.000,"PART-1-1",           291,       7.10711,       1.10321,            0.,NA,NA,"",   522.306E-03,   519.780E-03,  -51.3006E-03,   2.10382E-03
C:/temp/dataset/6/26_16.odb,Step-1,Increment      1: Step Time =    1.000,"PART-1-1",           292,       7.81470,       2.26078,            0.,NA,NA,"",   524.874E-03,   522.145E-03,  -53.4559E-03,   1.49733E-03
C:/temp/dataset/6/26_16.odb,Step-1,Increment      1: Step Time =    1.000,"PART-1-1",           293,       6.97305,      -8.82061,            0.,NA,NA,"",   513.151E-03,   513.088E-03,  -8.06008E-03,   9.32647E-03
C:/temp/dataset/6/26_16.odb,Step-1,Increment      1: Step Time =    1.000,"PART-1-1",           294,       5.98985,      -7.53541,            0.,NA,NA,"",   512.639E-03,   512.495E-03,  -12.1256E-03,   8.83718E-03
C:/temp/dataset/6/26_16.odb,Step-1,Increment      1: Step Time =    1.000,"PART-1-1",           295,            5.,      -8.76875,            0.,NA,NA,"",   504.598E-03,   504.596E-03,   1.35517E-03,   10.5660E-03
C:/temp/dataset/6/26_16.odb,Step-1,Increment      1: Step Time =    1.000,"PART-1-1",           296,       5.98320,      -10.0539,            0.,NA,NA,"",   511.584E-03,   511.469E-03,   10.8780E-03,   12.7346E-03
C:/temp/dataset/6/26_16.odb,Step-1,Increment      1: Step Time =    1.000,"PART-1-1",           297,       12.0429,      -8.05477,            0.,NA,NA,"",   517.211E-03,   512.144E-03,  -72.2175E-03,   4.92900E-03
C:/temp/dataset/6/26_16.odb,Step-1,Increment      1: Step Time =    1.000,"PART-1-1",           298,       11.0248,      -9.13413,            0.,NA,NA,"",   508.686E-03,   505.000E-03,  -61.1289E-03,   4.00783E-03
C:/temp/dataset/6/26_16.odb,Step-1,Increment      1: Step Time =    1.000,"PART-1-1",           299,       11.9985,      -10.2754,            0.,NA,NA,"",   493.657E-03,   487.235E-03,  -79.3708E-03,   5.01219E-03
C:/temp/dataset/6/26_16.odb,Step-1,Increment      1: Step Time =    1.000,"PART-1-1",           300,       13.0166,      -9.19606,            0.,NA,NA,"",   506.596E-03,   498.552E-03,  -89.9172E-03,   5.90547E-03
C:/temp/dataset/6/26_16.odb,Step-1,Increment      1: Step Time =    1.000,"PART-1-1",           301,       13.9992,      -14.7549,            0.,NA,NA,"",   393.452E-03,   368.367E-03,  -138.237E-03,   5.83207E-03
C:/temp/dataset/6/26_16.odb,Step-1,Increment      1: Step Time =    1.000,"PART-1-1",           302,       13.0271,      -15.9471,            0.,NA,NA,"",   348.448E-03,   328.626E-03,  -115.848E-03,   8.59185E-03
C:/temp/dataset/6/26_16.odb,Step-1,Increment      1: Step Time =    1.000,"PART-1-1",           303,       14.0279,      -16.9735,            0.,NA,NA,"",   323.522E-03,   291.650E-03,  -140.025E-03,   5.07348E-03
C:/temp/dataset/6/26_16.odb,Step-1,Increment      1: Step Time =    1.000,"PART-1-1",           304,           15.,      -15.7813,            0.,NA,NA,"",   373.356E-03,   332.345E-03,  -170.122E-03,   2.41789E-03
C:/temp/dataset/6/26_16.odb,Step-1,Increment      1: Step Time =    1.000,"PART-1-1",           305,       6.96949,      -18.0995,            0.,NA,NA,"",   232.753E-03,   232.678E-03,   5.89296E-03,   13.8975E-03
C:/temp/dataset/6/26_16.odb,Step-1,Increment      1: Step Time =    1.000,"PART-1-1",           306,       5.95014,      -17.3335,            0.,NA,NA,"",   271.386E-03,   268.815E-03,   37.2677E-03,   5.72737E-03
C:/temp/dataset/6/26_16.odb,Step-1,Increment      1: Step Time =    1.000,"PART-1-1",           307,            5.,      -18.7625,            0.,NA,NA,"",   216.476E-03,   206.349E-03,   65.4347E-03,   17.6892E-03
C:/temp/dataset/6/26_16.odb,Step-1,Increment      1: Step Time =    1.000,"PART-1-1",           308,       6.01935,      -19.5285,            0.,NA,NA,"",   164.985E-03,   162.835E-03,   26.5506E-03,   20.8108E-03
C:/temp/dataset/6/26_16.odb,Step-1,Increment      1: Step Time =    1.000,"PART-1-1",           309,       7.66098,      -29.0388,            0.,NA,NA,"",   4.94960E-03,   4.94820E-03,   117.721E-06,   3.45418E-03
C:/temp/dataset/6/26_16.odb,Step-1,Increment      1: Step Time =    1.000,"PART-1-1",           310,       6.62868,      -28.0660,            0.,NA,NA,"",   14.0437E-03,   13.7689E-03,   2.76480E-03,   5.31766E-03
C:/temp/dataset/6/26_16.odb,Step-1,Increment      1: Step Time =    1.000,"PART-1-1",           311,       5.21770,      -29.0272,            0.,NA,NA,"",   7.75633E-03,   7.51353E-03,   1.92548E-03,   5.82747E-03
C:/temp/dataset/6/26_16.odb,Step-1,Increment      1: Step Time =    1.000,"PART-1-1",           312,          6.25,          -30.,            0.,NA,NA,"",            0.,   3.48611E-39,   2.22335E-39,   3.86318E-03
C:/temp/dataset/6/26_16.odb,Step-1,Increment      1: Step Time =    1.000,"PART-1-1",           313,   162.125E-03,      -28.5454,            0.,NA,NA,"",   16.2848E-03,   16.1777E-03,   1.86437E-03,   7.80469E-03
C:/temp/dataset/6/26_16.odb,Step-1,Increment      1: Step Time =    1.000,"PART-1-1",           314,      -1.06934,      -27.3053,            0.,NA,NA,"",   28.5964E-03,   28.5644E-03,   1.35278E-03,   7.50893E-03
C:/temp/dataset/6/26_16.odb,Step-1,Increment      1: Step Time =    1.000,"PART-1-1",           315,      -2.48147,      -28.7599,            0.,NA,NA,"",   12.6610E-03,   12.6592E-03,   212.816E-06,   6.83150E-03
C:/temp/dataset/6/26_16.odb,Step-1,Increment      1: Step Time =    1.000,"PART-1-1",           316,         -1.25,          -30.,            0.,NA,NA,"",            0.,   6.99030E-39,   2.10312E-39,   7.10456E-03
C:/temp/dataset/6/26_16.odb,Step-1,Increment      1: Step Time =    1.000,"PART-1-1",           317,          -15.,        -21.25,            0.,NA,NA,"",   119.477E-03,   88.9266E-03,   79.7921E-03,   8.99652E-03
C:/temp/dataset/6/26_16.odb,Step-1,Increment      1: Step Time =    1.000,"PART-1-1",           318,      -13.9888,      -22.4607,            0.,NA,NA,"",   90.6805E-03,   69.6025E-03,   58.1243E-03,   7.82737E-03
C:/temp/dataset/6/26_16.odb,Step-1,Increment      1: Step Time =    1.000,"PART-1-1",           319,      -12.8187,      -21.2681,            0.,NA,NA,"",   95.9846E-03,   81.0326E-03,   51.4466E-03,   6.10701E-03
C:/temp/dataset/6/26_16.odb,Step-1,Increment      1: Step Time =    1.000,"PART-1-1",           320,      -13.8299,      -20.0574,            0.,NA,NA,"",   124.722E-03,   101.847E-03,   71.9916E-03,   7.21880E-03
C:/temp/dataset/6/26_16.odb,Step-1,Increment      1: Step Time =    1.000,"PART-1-1",           321,      -12.5142,      -28.6623,            0.,NA,NA,"",   9.82927E-03,   7.20553E-03,   6.68542E-03,   6.73716E-03
C:/temp/dataset/6/26_16.odb,Step-1,Increment      1: Step Time =    1.000,"PART-1-1",           322,        -11.25,          -30.,            0.,NA,NA,"",            0.,   2.00280E-39,   8.46930E-39,   4.97271E-03
C:/temp/dataset/6/26_16.odb,Step-1,Increment      1: Step Time =    1.000,"PART-1-1",           323,      -9.93348,      -28.4464,            0.,NA,NA,"",   8.25467E-03,   7.53884E-03,   3.36236E-03,   3.83248E-03
C:/temp/dataset/6/26_16.odb,Step-1,Increment      1: Step Time =    1.000,"PART-1-1",           324,      -11.1976,      -27.1087,            0.,NA,NA,"",   20.3315E-03,   17.5332E-03,   10.2937E-03,   5.35149E-03
C:/temp/dataset/6/26_16.odb,Step-1,Increment      1: Step Time =    1.000,"PART-1-1",           325,      -7.37036,      -13.8742,            0.,NA,NA,"",   219.150E-03,   218.635E-03,  -15.0190E-03,   3.39760E-03
C:/temp/dataset/6/26_16.odb,Step-1,Increment      1: Step Time =    1.000,"PART-1-1",           326,      -6.21015,      -15.0417,            0.,NA,NA,"",   195.012E-03,   191.608E-03,  -36.2812E-03,   2.72579E-03
C:/temp/dataset/6/26_16.odb,Step-1,Increment      1: Step Time =    1.000,"PART-1-1",           327,           -5.,      -13.7188,            0.,NA,NA,"",   232.069E-03,   222.804E-03,  -64.9183E-03,   1.61944E-03
C:/temp/dataset/6/26_16.odb,Step-1,Increment      1: Step Time =    1.000,"PART-1-1",           328,      -6.16021,      -12.5513,            0.,NA,NA,"",   253.607E-03,   250.393E-03,  -40.2480E-03,   1.66272E-03
C:/temp/dataset/6/26_16.odb,Step-1,Increment      1: Step Time =    1.000,"PART-1-1",           329,      -9.33590,      -9.40979,            0.,NA,NA,"",   330.554E-03,   329.731E-03,   23.3011E-03,   4.80019E-03
C:/temp/dataset/6/26_16.odb,Step-1,Increment      1: Step Time =    1.000,"PART-1-1",           330,      -8.33361,      -10.3234,            0.,NA,NA,"",   306.461E-03,   306.434E-03,   4.12593E-03,   4.16693E-03
C:/temp/dataset/6/26_16.odb,Step-1,Increment      1: Step Time =    1.000,"PART-1-1",           331,      -7.16565,      -9.15059,            0.,NA,NA,"",   335.236E-03,   334.806E-03,  -16.9675E-03,   4.19414E-03
C:/temp/dataset/6/26_16.odb,Step-1,Increment      1: Step Time =    1.000,"PART-1-1",           332,      -8.16794,      -8.23701,            0.,NA,NA,"",   358.218E-03,   358.201E-03,   3.48336E-03,   4.88653E-03
C:/temp/dataset/6/26_16.odb,Step-1,Increment      1: Step Time =    1.000,"PART-1-1",           333,      -11.1473,      -6.32447,            0.,NA,NA,"",   404.877E-03,   401.163E-03,   54.7127E-03,   2.88114E-03
C:/temp/dataset/6/26_16.odb,Step-1,Increment      1: Step Time =    1.000,"PART-1-1",           334,      -10.2102,      -6.79208,            0.,NA,NA,"",   393.831E-03,   391.880E-03,   39.1543E-03,   3.70276E-03
C:/temp/dataset/6/26_16.odb,Step-1,Increment      1: Step Time =    1.000,"PART-1-1",           335,      -9.51762,      -5.78103,            0.,NA,NA,"",   415.180E-03,   414.284E-03,   27.2664E-03,   3.38516E-03
C:/temp/dataset/6/26_16.odb,Step-1,Increment      1: Step Time =    1.000,"PART-1-1",           336,      -10.4548,      -5.31342,            0.,NA,NA,"",   424.660E-03,   422.546E-03,   42.3151E-03,   2.66308E-03
C:/temp/dataset/6/26_16.odb,Step-1,Increment      1: Step Time =    1.000,"PART-1-1",           337,      -5.04937,      -1.25055,            0.,NA,NA,"",   491.104E-03,   490.039E-03,  -32.3337E-03,   2.16831E-03
C:/temp/dataset/6/26_16.odb,Step-1,Increment      1: Step Time =    1.000,"PART-1-1",           338,      -3.82978,  -150.691E-03,            0.,NA,NA,"",   501.879E-03,   500.268E-03,  -40.1829E-03,   2.08518E-03
C:/temp/dataset/6/26_16.odb,Step-1,Increment      1: Step Time =    1.000,"PART-1-1",           339,      -5.10700,   929.666E-03,            0.,NA,NA,"",   510.463E-03,   509.622E-03,  -29.2911E-03,   1.20000E-03
C:/temp/dataset/6/26_16.odb,Step-1,Increment      1: Step Time =    1.000,"PART-1-1",           340,      -6.32658,  -170.190E-03,            0.,NA,NA,"",   500.333E-03,   500.002E-03,  -18.1936E-03,   1.97471E-03
C:/temp/dataset/6/26_16.odb,Step-1,Increment      1: Step Time =    1.000,"PART-1-1",           341,          -15.,          3.75,            0.,NA,NA,"",   553.023E-03,   544.360E-03,   97.5035E-03,   809.989E-06
C:/temp/dataset/6/26_16.odb,Step-1,Increment      1: Step Time =    1.000,"PART-1-1",           342,      -13.8520,       2.39386,            0.,NA,NA,"",   535.823E-03,   529.088E-03,   84.6905E-03,   1.27178E-03
C:/temp/dataset/6/26_16.odb,Step-1,Increment      1: Step Time =    1.000,"PART-1-1",           343,      -12.6820,       3.58697,            0.,NA,NA,"",   547.143E-03,   542.809E-03,   68.7301E-03,   1.25042E-03
C:/temp/dataset/6/26_16.odb,Step-1,Increment      1: Step Time =    1.000,"PART-1-1",           344,      -13.8301,       4.94311,            0.,NA,NA,"",   564.441E-03,   558.334E-03,   82.8011E-03,   507.527E-06
C:/temp/dataset/6/26_16.odb,Step-1,Increment      1: Step Time =    1.000,"PART-1-1",           345,          -15.,         11.25,            0.,NA,NA,"",   642.022E-03,   634.708E-03,   96.6369E-03,   80.4766E-06
C:/temp/dataset/6/26_16.odb,Step-1,Increment      1: Step Time =    1.000,"PART-1-1",           346,      -14.0083,       10.0442,            0.,NA,NA,"",   625.385E-03,   619.665E-03,   84.3897E-03,   60.6219E-06
C:/temp/dataset/6/26_16.odb,Step-1,Increment      1: Step Time =    1.000,"PART-1-1",           347,      -13.0572,       11.3141,            0.,NA,NA,"",   639.447E-03,   635.315E-03,   72.5715E-03,   30.1217E-06
C:/temp/dataset/6/26_16.odb,Step-1,Increment      1: Step Time =    1.000,"PART-1-1",           348,      -14.0489,       12.5200,            0.,NA,NA,"",   655.909E-03,   650.404E-03,   84.7950E-03,   38.9208E-06
C:/temp/dataset/6/26_16.odb,Step-1,Increment      1: Step Time =    1.000,"PART-1-1",           349,           -5.,       22.7083,            0.,NA,NA,"",   777.304E-03,   776.772E-03,  -28.7548E-03,   382.428E-09
C:/temp/dataset/6/26_16.odb,Step-1,Increment      1: Step Time =    1.000,"PART-1-1",           350,      -5.96779,       23.6687,            0.,NA,NA,"",   788.999E-03,   788.821E-03,  -16.7633E-03,   170.600E-09
C:/temp/dataset/6/26_16.odb,Step-1,Increment      1: Step Time =    1.000,"PART-1-1",           351,      -6.69567,       22.7251,            0.,NA,NA,"",   777.150E-03,   777.112E-03,  -7.61464E-03,   148.313E-09
C:/temp/dataset/6/26_16.odb,Step-1,Increment      1: Step Time =    1.000,"PART-1-1",           352,      -5.72788,       21.7648,            0.,NA,NA,"",   765.315E-03,   765.064E-03,  -19.6062E-03,   188.386E-09
C:/temp/dataset/6/26_16.odb,Step-1,Increment      1: Step Time =    1.000,"PART-1-1",           353,      -9.95259,       28.8237,            0.,NA,NA,"",   854.025E-03,   853.406E-03,   32.5202E-03,   88.0784E-09
C:/temp/dataset/6/26_16.odb,Step-1,Increment      1: Step Time =    1.000,"PART-1-1",           354,      -8.67740,       27.7404,            0.,NA,NA,"",   839.966E-03,   839.800E-03,   16.7046E-03,   82.2252E-09
C:/temp/dataset/6/26_16.odb,Step-1,Increment      1: Step Time =    1.000,"PART-1-1",           355,      -7.47481,       28.9167,            0.,NA,NA,"",   854.375E-03,   854.373E-03,   1.61872E-03,   74.4274E-09
C:/temp/dataset/6/26_16.odb,Step-1,Increment      1: Step Time =    1.000,"PART-1-1",           356,         -8.75,           30.,            0.,NA,NA,"",   868.154E-03,   867.979E-03,   17.4342E-03,   90.4506E-09
C:/temp/dataset/6/26_16.odb,Step-1,Increment      1: Step Time =    1.000,"PART-1-1",           357,      -12.4360,       28.7156,            0.,NA,NA,"",   854.613E-03,   852.251E-03,   63.4933E-03,   78.6518E-09
C:/temp/dataset/6/26_16.odb,Step-1,Increment      1: Step Time =    1.000,"PART-1-1",           358,        -13.75,           30.,            0.,NA,NA,"",   872.025E-03,   868.368E-03,   79.7776E-03,   20.0763E-09
C:/temp/dataset/6/26_16.odb,Step-1,Increment      1: Step Time =    1.000,"PART-1-1",           359,          -15.,         28.75,            0.,NA,NA,"",   858.205E-03,   852.879E-03,   95.4607E-03,   25.8991E-09
C:/temp/dataset/6/26_16.odb,Step-1,Increment      1: Step Time =    1.000,"PART-1-1",           360,      -13.6860,       27.4656,            0.,NA,NA,"",   840.500E-03,   836.763E-03,   79.1765E-03,   82.9124E-09
C:/temp/dataset/6/26_16.odb,Step-1,Increment      1: Step Time =    1.000,"PART-1-1",           361,         -3.75,           -5.,            0.,NA,NA,"",   461.801E-03,   460.263E-03,  -37.6547E-03,   12.5946E-03
C:/temp/dataset/6/26_16.odb,Step-1,Increment      1: Step Time =    1.000,"PART-1-1",           362,      -2.75606,      -4.06584,            0.,NA,NA,"",   474.803E-03,   472.874E-03,  -42.7482E-03,   7.46832E-03
C:/temp/dataset/6/26_16.odb,Step-1,Increment      1: Step Time =    1.000,"PART-1-1",           363,      -4.26954,      -3.28646,            0.,NA,NA,"",   472.496E-03,   470.721E-03,  -40.9091E-03,   5.50042E-03
C:/temp/dataset/6/26_16.odb,Step-1,Increment      1: Step Time =    1.000,"PART-1-1",           364,      -5.26349,      -4.22062,            0.,NA,NA,"",   457.888E-03,   456.367E-03,  -37.2882E-03,   9.50734E-03
C:/temp/dataset/6/26_16.odb,Step-1,Increment      1: Step Time =    1.000,"PART-1-1",           365,   659.099E-03,      -2.85996,            0.,NA,NA,"",   497.048E-03,   494.659E-03,  -48.6694E-03,   4.55116E-03
C:/temp/dataset/6/26_16.odb,Step-1,Increment      1: Step Time =    1.000,"PART-1-1",           366,  -266.865E-03,      -3.97148,            0.,NA,NA,"",   490.155E-03,   488.014E-03,  -45.7669E-03,   5.68776E-03
C:/temp/dataset/6/26_16.odb,Step-1,Increment      1: Step Time =    1.000,"PART-1-1",           367,          1.25,           -5.,            0.,NA,NA,"",   496.350E-03,   494.396E-03,  -43.9966E-03,   5.64137E-03
C:/temp/dataset/6/26_16.odb,Step-1,Increment      1: Step Time =    1.000,"PART-1-1",           368,       2.17596,      -3.88848,            0.,NA,NA,"",   500.882E-03,   498.781E-03,  -45.8213E-03,   4.34017E-03
C:/temp/dataset/6/26_16.odb,Step-1,Increment      1: Step Time =    1.000,"PART-1-1",           369,   93.5104E-03,  -560.922E-03,            0.,NA,NA,"",   505.066E-03,   502.433E-03,  -51.5021E-03,   3.61943E-03
C:/temp/dataset/6/26_16.odb,Step-1,Increment      1: Step Time =    1.000,"PART-1-1",           370,   627.873E-03,   544.404E-03,            0.,NA,NA,"",   511.337E-03,   508.642E-03,  -52.4250E-03,   3.10012E-03
C:/temp/dataset/6/26_16.odb,Step-1,Increment      1: Step Time =    1.000,"PART-1-1",           371,  -981.002E-03,       1.17096,            0.,NA,NA,"",   513.450E-03,   510.935E-03,  -50.7654E-03,   2.60078E-03
C:/temp/dataset/6/26_16.odb,Step-1,Increment      1: Step Time =    1.000,"PART-1-1",           372,      -1.51537,   65.6335E-03,            0.,NA,NA,"",   506.104E-03,   503.668E-03,  -49.5977E-03,   3.00700E-03
C:/temp/dataset/6/26_16.odb,Step-1,Increment      1: Step Time =    1.000,"PART-1-1",           373,       4.11258,       2.54084,            0.,NA,NA,"",   521.251E-03,   518.595E-03,  -52.5489E-03,   1.97201E-03
C:/temp/dataset/6/26_16.odb,Step-1,Increment      1: Step Time =    1.000,"PART-1-1",           374,       3.71515,       1.12833,            0.,NA,NA,"",   516.979E-03,   514.395E-03,  -51.6250E-03,   2.75890E-03
C:/temp/dataset/6/26_16.odb,Step-1,Increment      1: Step Time =    1.000,"PART-1-1",           375,       5.46602,   397.127E-03,            0.,NA,NA,"",   517.904E-03,   515.519E-03,  -49.6465E-03,   2.88887E-03
C:/temp/dataset/6/26_16.odb,Step-1,Increment      1: Step Time =    1.000,"PART-1-1",           376,       8.69518,  -378.803E-03,            0.,NA,NA,"",   524.154E-03,   521.632E-03,  -51.3555E-03,   2.84081E-03
C:/temp/dataset/6/26_16.odb,Step-1,Increment      1: Step Time =    1.000,"PART-1-1",           377,       8.82700,   889.396E-03,            0.,NA,NA,"",   525.121E-03,   522.382E-03,  -53.5656E-03,   1.94309E-03
C:/temp/dataset/6/26_16.odb,Step-1,Increment      1: Step Time =    1.000,"PART-1-1",           378,       6.97530,  -164.986E-03,            0.,NA,NA,"",   520.302E-03,   518.007E-03,  -48.8118E-03,   2.98089E-03
C:/temp/dataset/6/26_16.odb,Step-1,Increment      1: Step Time =    1.000,"PART-1-1",           379,      -3.65351,      -22.6081,            0.,NA,NA,"",   66.0765E-03,   64.8535E-03,  -12.6546E-03,   7.32471E-03
C:/temp/dataset/6/26_16.odb,Step-1,Increment      1: Step Time =    1.000,"PART-1-1",           380,      -2.48671,      -21.3009,            0.,NA,NA,"",   73.1536E-03,   72.5535E-03,  -9.35070E-03,   3.59795E-03
C:/temp/dataset/6/26_16.odb,Step-1,Increment      1: Step Time =    1.000,"PART-1-1",           381,         -3.75,          -20.,            0.,NA,NA,"",   76.0572E-03,   74.5515E-03,  -15.0588E-03,   6.78509E-03
C:/temp/dataset/6/26_16.odb,Step-1,Increment      1: Step Time =    1.000,"PART-1-1",           382,      -4.91680,      -21.3072,            0.,NA,NA,"",   74.8800E-03,   71.8486E-03,  -21.0901E-03,   8.33834E-03
C:/temp/dataset/6/26_16.odb,Step-1,Increment      1: Step Time =    1.000,"PART-1-1",           383,       12.8399,      -22.4784,            0.,NA,NA,"",   136.399E-03,   113.480E-03,  -75.6772E-03,   10.4159E-03
C:/temp/dataset/6/26_16.odb,Step-1,Increment      1: Step Time =    1.000,"PART-1-1",           384,       11.7398,      -21.2760,            0.,NA,NA,"",   154.786E-03,   140.519E-03,  -64.9093E-03,   10.4252E-03
C:/temp/dataset/6/26_16.odb,Step-1,Increment      1: Step Time =    1.000,"PART-1-1",           385,       10.5591,      -22.4389,            0.,NA,NA,"",   110.708E-03,   104.187E-03,  -37.4352E-03,   9.18003E-03
C:/temp/dataset/6/26_16.odb,Step-1,Increment      1: Step Time =    1.000,"PART-1-1",           386,       11.6593,      -23.6412,            0.,NA,NA,"",   93.7110E-03,   81.6333E-03,  -46.0190E-03,   9.01446E-03
C:/temp/dataset/6/26_16.odb,Step-1,Increment      1: Step Time =    1.000,"PART-1-1",           387,          8.75,            5.,            0.,NA,NA,"",   529.247E-03,   526.231E-03,  -56.4223E-03,   1.09874E-03
C:/temp/dataset/6/26_16.odb,Step-1,Increment      1: Step Time =    1.000,"PART-1-1",           388,       7.62461,       4.03982,            0.,NA,NA,"",   526.725E-03,   523.902E-03,  -54.4606E-03,   1.20932E-03
C:/temp/dataset/6/26_16.odb,Step-1,Increment      1: Step Time =    1.000,"PART-1-1",           389,       8.90047,       2.96899,            0.,NA,NA,"",   526.967E-03,   524.026E-03,  -55.5913E-03,   1.10559E-03
C:/temp/dataset/6/26_16.odb,Step-1,Increment      1: Step Time =    1.000,"PART-1-1",           390,       10.0259,       3.92917,            0.,NA,NA,"",   529.117E-03,   525.923E-03,  -58.0455E-03,   968.900E-06
C:/temp/dataset/6/26_16.odb,Step-1,Increment      1: Step Time =    1.000,"PART-1-1",           391,      -6.96921,       21.1213,            0.,NA,NA,"",   757.150E-03,   757.139E-03,  -4.07940E-03,   1.02018E-06
C:/temp/dataset/6/26_16.odb,Step-1,Increment      1: Step Time =    1.000,"PART-1-1",           392,      -6.24133,       19.9816,            0.,NA,NA,"",   742.988E-03,   742.873E-03,  -13.0664E-03,   1.08626E-06
C:/temp/dataset/6/26_16.odb,Step-1,Increment      1: Step Time =    1.000,"PART-1-1",           393,           -5.,        20.625,            0.,NA,NA,"",   751.342E-03,   750.798E-03,  -28.5922E-03,   149.400E-09
C:/temp/dataset/6/26_16.odb,Step-1,Increment      1: Step Time =    1.000,"PART-1-1",           394,      -12.9370,       8.81410,            0.,NA,NA,"",   608.613E-03,   604.428E-03,   71.2518E-03,   93.9469E-06
C:/temp/dataset/6/26_16.odb,Step-1,Increment      1: Step Time =    1.000,"PART-1-1",           395,          -15.,          8.75,            0.,NA,NA,"",   611.542E-03,   603.868E-03,   96.5791E-03,   91.2946E-06
C:/temp/dataset/6/26_16.odb,Step-1,Increment      1: Step Time =    1.000,"PART-1-1",           396,      -13.9287,       7.51992,            0.,NA,NA,"",   594.703E-03,   588.807E-03,   83.5276E-03,   102.239E-06
C:/temp/dataset/6/26_16.odb,Step-1,Increment      1: Step Time =    1.000,"PART-1-1",           397,          -15.,          1.25,            0.,NA,NA,"",   524.769E-03,   515.033E-03,   100.613E-03,   2.01447E-03
C:/temp/dataset/6/26_16.odb,Step-1,Increment      1: Step Time =    1.000,"PART-1-1",           398,      -13.9023,  -59.1614E-03,            0.,NA,NA,"",   507.788E-03,   499.961E-03,   88.8146E-03,   2.18278E-03
C:/temp/dataset/6/26_16.odb,Step-1,Increment      1: Step Time =    1.000,"PART-1-1",           399,      -12.7542,       1.08470,            0.,NA,NA,"",   519.271E-03,   514.368E-03,   71.1924E-03,   1.84019E-03
C:/temp/dataset/6/26_16.odb,Step-1,Increment      1: Step Time =    1.000,"PART-1-1",           400,          -15.,         -1.25,            0.,NA,NA,"",   494.867E-03,   483.178E-03,   106.924E-03,   3.32114E-03
C:/temp/dataset/6/26_16.odb,Step-1,Increment      1: Step Time =    1.000,"PART-1-1",           401,      -13.9820,      -2.43756,            0.,NA,NA,"",   477.219E-03,   467.597E-03,   95.3508E-03,   2.92174E-03
C:/temp/dataset/6/26_16.odb,Step-1,Increment      1: Step Time =    1.000,"PART-1-1",           402,      -12.8843,      -1.24672,            0.,NA,NA,"",   491.353E-03,   485.440E-03,   75.9958E-03,   2.00302E-03
C:/temp/dataset/6/26_16.odb,Step-1,Increment      1: Step Time =    1.000,"PART-1-1",           403,      -12.3802,      -13.7897,            0.,NA,NA,"",   236.258E-03,   224.496E-03,   73.6170E-03,   4.40731E-03
C:/temp/dataset/6/26_16.odb,Step-1,Increment      1: Step Time =    1.000,"PART-1-1",           404,      -13.6672,      -12.5056,            0.,NA,NA,"",   275.958E-03,   256.802E-03,   101.022E-03,   3.03888E-03
C:/temp/dataset/6/26_16.odb,Step-1,Increment      1: Step Time =    1.000,"PART-1-1",           405,          -15.,        -13.75,            0.,NA,NA,"",   262.448E-03,   229.847E-03,   126.686E-03,   3.97321E-03
C:/temp/dataset/6/26_16.odb,Step-1,Increment      1: Step Time =    1.000,"PART-1-1",           406,      -13.7130,      -15.0341,            0.,NA,NA,"",   219.798E-03,   198.074E-03,   95.2777E-03,   4.60297E-03
C:/temp/dataset/6/26_16.odb,Step-1,Increment      1: Step Time =    1.000,"PART-1-1",           407,       9.21271,      -3.58583,            0.,NA,NA,"",   525.246E-03,   523.195E-03,  -46.3714E-03,   4.74801E-03
C:/temp/dataset/6/26_16.odb,Step-1,Increment      1: Step Time =    1.000,"PART-1-1",           408,       7.90749,      -3.82305,            0.,NA,NA,"",   521.538E-03,   520.065E-03,  -39.1767E-03,   5.41808E-03
C:/temp/dataset/6/26_16.odb,Step-1,Increment      1: Step Time =    1.000,"PART-1-1",           409,       8.15132,      -5.16923,            0.,NA,NA,"",   522.297E-03,   521.098E-03,  -35.3627E-03,   5.50930E-03
C:/temp/dataset/6/26_16.odb,Step-1,Increment      1: Step Time =    1.000,"PART-1-1",           410,       9.45655,      -4.93201,            0.,NA,NA,"",   525.561E-03,   523.635E-03,  -44.9508E-03,   5.20771E-03
C:/temp/dataset/6/26_16.odb,Step-1,Increment      1: Step Time =    1.000,"PART-1-1",           411,       6.91243,      -16.0318,            0.,NA,NA,"",   332.108E-03,   332.065E-03,   5.35286E-03,   15.1723E-03
C:/temp/dataset/6/26_16.odb,Step-1,Increment      1: Step Time =    1.000,"PART-1-1",           412,       5.96229,      -14.9858,            0.,NA,NA,"",   388.158E-03,   386.910E-03,   31.1070E-03,   12.9472E-03
C:/temp/dataset/6/26_16.odb,Step-1,Increment      1: Step Time =    1.000,"PART-1-1",           413,            5.,      -16.2875,            0.,NA,NA,"",   329.807E-03,   320.292E-03,   78.6465E-03,   1.51184E-03
C:/temp/dataset/6/26_16.odb,Step-1,Increment      1: Step Time =    1.000,"PART-1-1",           414,       6.93910,      -13.7291,            0.,NA,NA,"",   435.054E-03,   435.049E-03,   2.21410E-03,   14.4832E-03
C:/temp/dataset/6/26_16.odb,Step-1,Increment      1: Step Time =    1.000,"PART-1-1",           415,       5.97681,      -12.5371,            0.,NA,NA,"",   482.608E-03,   482.070E-03,   22.7904E-03,   15.6541E-03
C:/temp/dataset/6/26_16.odb,Step-1,Increment      1: Step Time =    1.000,"PART-1-1",           416,            5.,      -13.7937,            0.,NA,NA,"",   454.561E-03,   450.349E-03,   61.7419E-03,   16.1854E-03
C:/temp/dataset/6/26_16.odb,Step-1,Increment      1: Step Time =    1.000,"PART-1-1",           417,         -1.25,          -20.,            0.,NA,NA,"",   71.3713E-03,   71.2670E-03,  -3.85737E-03,   1.73649E-03
C:/temp/dataset/6/26_16.odb,Step-1,Increment      1: Step Time =    1.000,"PART-1-1",           418,      -1.09514,      -22.7401,            0.,NA,NA,"",   68.2816E-03,   68.2722E-03,  -1.13002E-03,   7.52941E-03
C:/temp/dataset/6/26_16.odb,Step-1,Increment      1: Step Time =    1.000,"PART-1-1",           419,   141.566E-03,      -21.4393,            0.,NA,NA,"",   76.2752E-03,   76.2068E-03,   3.23021E-03,   5.25188E-03
C:/temp/dataset/6/26_16.odb,Step-1,Increment      1: Step Time =    1.000,"PART-1-1",           420,      -7.69236,      -25.1479,            0.,NA,NA,"",   34.3395E-03,   34.3288E-03,  -858.567E-06,   3.45214E-03
C:/temp/dataset/6/26_16.odb,Step-1,Increment      1: Step Time =    1.000,"PART-1-1",           421,      -9.18951,      -25.9970,            0.,NA,NA,"",   26.2422E-03,   25.7489E-03,   5.06433E-03,   3.15834E-03
C:/temp/dataset/6/26_16.odb,Step-1,Increment      1: Step Time =    1.000,"PART-1-1",           422,      -8.56598,      -27.1897,            0.,NA,NA,"",   17.0345E-03,   16.8826E-03,   2.26961E-03,   3.86569E-03
C:/temp/dataset/6/26_16.odb,Step-1,Increment      1: Step Time =    1.000,"PART-1-1",           423,      -7.06883,      -26.3407,            0.,NA,NA,"",   25.6510E-03,   25.6122E-03,  -1.41011E-03,   4.41071E-03
C:/temp/dataset/6/26_16.odb,Step-1,Increment      1: Step Time =    1.000,"PART-1-1",           424,      -9.82073,      -13.8964,            0.,NA,NA,"",   221.018E-03,   219.148E-03,   28.6890E-03,   4.77373E-03
C:/temp/dataset/6/26_16.odb,Step-1,Increment      1: Step Time =    1.000,"PART-1-1",           425,      -8.65586,      -15.1239,            0.,NA,NA,"",   189.397E-03,   189.211E-03,   8.37927E-03,   4.28152E-03
C:/temp/dataset/6/26_16.odb,Step-1,Increment      1: Step Time =    1.000,"PART-1-1",           426,      -8.53523,      -12.6467,            0.,NA,NA,"",   248.956E-03,   248.870E-03,   6.55435E-03,   3.94918E-03
C:/temp/dataset/6/26_16.odb,Step-1,Increment      1: Step Time =    1.000,"PART-1-1",           427,      -6.09243,      -10.1071,            0.,NA,NA,"",   312.526E-03,   309.846E-03,  -40.8407E-03,   2.30305E-03
C:/temp/dataset/6/26_16.odb,Step-1,Increment      1: Step Time =    1.000,"PART-1-1",           428,           -5.,      -8.71250,            0.,NA,NA,"",   348.337E-03,   342.452E-03,  -63.7567E-03,   3.31855E-03
C:/temp/dataset/6/26_16.odb,Step-1,Increment      1: Step Time =    1.000,"PART-1-1",           429,      -6.07322,      -7.75598,            0.,NA,NA,"",   370.546E-03,   368.838E-03,  -35.5339E-03,   4.15423E-03
C:/temp/dataset/6/26_16.odb,Step-1,Increment      1: Step Time =    1.000,"PART-1-1",           430,      -12.7270,      -6.06323,            0.,NA,NA,"",   413.488E-03,   405.300E-03,   81.8770E-03,   2.13412E-03
C:/temp/dataset/6/26_16.odb,Step-1,Increment      1: Step Time =    1.000,"PART-1-1",           431,      -13.8025,      -4.90646,            0.,NA,NA,"",   438.016E-03,   426.739E-03,   98.7532E-03,   2.77934E-03
C:/temp/dataset/6/26_16.odb,Step-1,Increment      1: Step Time =    1.000,"PART-1-1",           432,          -15.,         -6.25,            0.,NA,NA,"",   418.521E-03,   399.401E-03,   125.053E-03,   3.19899E-03
C:/temp/dataset/6/26_16.odb,Step-1,Increment      1: Step Time =    1.000,"PART-1-1",           433,      -13.9244,      -7.40677,            0.,NA,NA,"",   390.960E-03,   376.220E-03,   106.339E-03,   2.09251E-03
C:/temp/dataset/6/26_16.odb,Step-1,Increment      1: Step Time =    1.000,"PART-1-1",           434,       1.60591,      -1.50045,            0.,NA,NA,"",   504.317E-03,   501.789E-03,  -50.4328E-03,   3.69586E-03
C:/temp/dataset/6/26_16.odb,Step-1,Increment      1: Step Time =    1.000,"PART-1-1",           435,  -853.298E-03,      -1.92043,            0.,NA,NA,"",   495.698E-03,   493.249E-03,  -49.2212E-03,   4.35061E-03
C:/temp/dataset/6/26_16.odb,Step-1,Increment      1: Step Time =    1.000,"PART-1-1",           436,         13.75,          -30.,            0.,NA,NA,"",            0.,   758.136E-42,  -24.9823E-39,   16.7273E-03
C:/temp/dataset/6/26_16.odb,Step-1,Increment      1: Step Time =    1.000,"PART-1-1",           437,           15.,      -28.9063,            0.,NA,NA,"",   29.0242E-03,   19.8902E-03,  -21.1374E-03,   21.1759E-03
C:/temp/dataset/6/26_16.odb,Step-1,Increment      1: Step Time =    1.000,"PART-1-1",           438,       13.8103,      -27.8746,            0.,NA,NA,"",   36.3296E-03,   23.7660E-03,  -27.4776E-03,   15.5512E-03
C:/temp/dataset/6/26_16.odb,Step-1,Increment      1: Step Time =    1.000,"PART-1-1",           439,       12.5603,      -28.9683,            0.,NA,NA,"",   10.4985E-03,   6.12442E-03,  -8.52700E-03,   10.4977E-03
C:/temp/dataset/6/26_16.odb,Step-1,Increment      1: Step Time =    1.000,"PART-1-1",           440,       12.6598,      -26.8678,            0.,NA,NA,"",   43.1988E-03,   31.1864E-03,  -29.8922E-03,   11.7235E-03
C:/temp/dataset/6/26_16.odb,Step-1,Increment      1: Step Time =    1.000,"PART-1-1",           441,       11.5501,      -25.8632,            0.,NA,NA,"",   49.9143E-03,   41.2814E-03,  -28.0585E-03,   8.86783E-03
C:/temp/dataset/6/26_16.odb,Step-1,Increment      1: Step Time =    1.000,"PART-1-1",           442,       10.3093,      -26.9762,            0.,NA,NA,"",   25.8900E-03,   23.1722E-03,  -11.5474E-03,   6.17781E-03
C:/temp/dataset/6/26_16.odb,Step-1,Increment      1: Step Time =    1.000,"PART-1-1",           443,       11.4189,      -27.9808,            0.,NA,NA,"",   18.2632E-03,   13.8602E-03,  -11.8929E-03,   8.73249E-03
C:/temp/dataset/6/26_16.odb,Step-1,Increment      1: Step Time =    1.000,"PART-1-1",           444,       10.1086,      -29.0125,            0.,NA,NA,"",   5.25398E-03,   4.10747E-03,  -3.27612E-03,   4.75662E-03
C:/temp/dataset/6/26_16.odb,Step-1,Increment      1: Step Time =    1.000,"PART-1-1",           445,       9.01957,      -28.0513,            0.,NA,NA,"",   11.7562E-03,   11.4031E-03,  -2.85956E-03,   4.43505E-03
C:/temp/dataset/6/26_16.odb,Step-1,Increment      1: Step Time =    1.000,"PART-1-1",           446,          8.75,          -30.,            0.,NA,NA,"",            0.,   1.70876E-39,  -3.62674E-39,   2.76137E-03
C:/temp/dataset/6/26_16.odb,Step-1,Increment      1: Step Time =    1.000,"PART-1-1",           447,       4.20973,      -27.9354,            0.,NA,NA,"",   19.8857E-03,   19.1278E-03,   5.43766E-03,   7.28751E-03
C:/temp/dataset/6/26_16.odb,Step-1,Increment      1: Step Time =    1.000,"PART-1-1",           448,       2.74203,      -28.9082,            0.,NA,NA,"",   11.4051E-03,   11.1502E-03,   2.39768E-03,   7.52143E-03
C:/temp/dataset/6/26_16.odb,Step-1,Increment      1: Step Time =    1.000,"PART-1-1",           449,          3.75,          -30.,            0.,NA,NA,"",            0.,   5.66004E-39,   4.53846E-39,   6.21308E-03
C:/temp/dataset/6/26_16.odb,Step-1,Increment      1: Step Time =    1.000,"PART-1-1",           450,       1.16266,      -25.9573,            0.,NA,NA,"",   44.2975E-03,   43.6588E-03,   7.49539E-03,   9.13849E-03
C:/temp/dataset/6/26_16.odb,Step-1,Increment      1: Step Time =    1.000,"PART-1-1",           451,       1.65415,      -27.4536,            0.,NA,NA,"",   27.9470E-03,   27.4253E-03,   5.37444E-03,   7.98742E-03
C:/temp/dataset/6/26_16.odb,Step-1,Increment      1: Step Time =    1.000,"PART-1-1",           452,       3.39879,      -26.8461,            0.,NA,NA,"",   33.3065E-03,   32.0659E-03,   9.00587E-03,   8.59793E-03
C:/temp/dataset/6/26_16.odb,Step-1,Increment      1: Step Time =    1.000,"PART-1-1",           453,       2.90730,      -25.3498,            0.,NA,NA,"",   51.5633E-03,   49.7859E-03,   13.4213E-03,   9.45597E-03
C:/temp/dataset/6/26_16.odb,Step-1,Increment      1: Step Time =    1.000,"PART-1-1",           454,      -3.67645,      -27.5530,            0.,NA,NA,"",   22.5475E-03,   22.5058E-03,  -1.37117E-03,   6.51025E-03
C:/temp/dataset/6/26_16.odb,Step-1,Increment      1: Step Time =    1.000,"PART-1-1",           455,      -2.54816,      -26.3074,            0.,NA,NA,"",   36.2020E-03,   36.1609E-03,  -1.72523E-03,   7.51272E-03
C:/temp/dataset/6/26_16.odb,Step-1,Increment      1: Step Time =    1.000,"PART-1-1",           456,      -3.72120,      -25.1278,            0.,NA,NA,"",   44.2976E-03,   43.9374E-03,  -5.63774E-03,   7.35117E-03
C:/temp/dataset/6/26_16.odb,Step-1,Increment      1: Step Time =    1.000,"PART-1-1",           457,      -4.84948,      -26.3734,            0.,NA,NA,"",   30.5746E-03,   30.3446E-03,  -3.74318E-03,   6.23774E-03
C:/temp/dataset/6/26_16.odb,Step-1,Increment      1: Step Time =    1.000,"PART-1-1",           458,      -4.94498,      -28.7931,            0.,NA,NA,"",   9.76713E-03,   9.76207E-03,  -314.575E-06,   5.40635E-03
C:/temp/dataset/6/26_16.odb,Step-1,Increment      1: Step Time =    1.000,"PART-1-1",           459,         -3.75,          -30.,            0.,NA,NA,"",            0.,   5.78070E-39,   684.649E-42,   5.93014E-03
C:/temp/dataset/6/26_16.odb,Step-1,Increment      1: Step Time =    1.000,"PART-1-1",           460,      -6.07748,      -27.5364,            0.,NA,NA,"",   18.0565E-03,   18.0134E-03,  -1.24676E-03,   5.15122E-03
C:/temp/dataset/6/26_16.odb,Step-1,Increment      1: Step Time =    1.000,"PART-1-1",           461,      -7.38250,      -28.7433,            0.,NA,NA,"",   7.42507E-03,   7.40845E-03,   496.461E-06,   3.85726E-03
C:/temp/dataset/6/26_16.odb,Step-1,Increment      1: Step Time =    1.000,"PART-1-1",           462,         -6.25,          -30.,            0.,NA,NA,"",            0.,   3.99349E-39,   1.07652E-39,   4.25629E-03
C:/temp/dataset/6/26_16.odb,Step-1,Increment      1: Step Time =    1.000,"PART-1-1",           463,      -8.77755,      -24.1806,            0.,NA,NA,"",   41.9096E-03,   41.6952E-03,   4.23336E-03,   2.11299E-03
C:/temp/dataset/6/26_16.odb,Step-1,Increment      1: Step Time =    1.000,"PART-1-1",           464,      -9.92276,      -23.8066,            0.,NA,NA,"",   47.1516E-03,   45.4443E-03,   12.5732E-03,   2.70537E-03
C:/temp/dataset/6/26_16.odb,Step-1,Increment      1: Step Time =    1.000,"PART-1-1",           465,      -10.3347,      -25.6230,            0.,NA,NA,"",   31.0660E-03,   29.0010E-03,   11.1374E-03,   3.74114E-03
C:/temp/dataset/6/26_16.odb,Step-1,Increment      1: Step Time =    1.000,"PART-1-1",           466,       13.9544,      -21.3085,            0.,NA,NA,"",   185.652E-03,   149.339E-03,  -110.294E-03,   11.1790E-03
C:/temp/dataset/6/26_16.odb,Step-1,Increment      1: Step Time =    1.000,"PART-1-1",           467,       13.8855,      -23.5136,            0.,NA,NA,"",   127.459E-03,   95.1325E-03,  -84.8263E-03,   13.0409E-03
C:/temp/dataset/6/26_16.odb,Step-1,Increment      1: Step Time =    1.000,"PART-1-1",           468,           15.,      -22.3438,            0.,NA,NA,"",   178.154E-03,   128.294E-03,  -123.610E-03,   14.3593E-03
C:/temp/dataset/6/26_16.odb,Step-1,Increment      1: Step Time =    1.000,"PART-1-1",           469,       12.7349,      -24.6944,            0.,NA,NA,"",   84.3397E-03,   65.8378E-03,  -52.7122E-03,   11.1322E-03
C:/temp/dataset/6/26_16.odb,Step-1,Increment      1: Step Time =    1.000,"PART-1-1",           470,       13.8494,      -25.7120,            0.,NA,NA,"",   79.4733E-03,   54.9633E-03,  -57.4024E-03,   14.1550E-03
C:/temp/dataset/6/26_16.odb,Step-1,Increment      1: Step Time =    1.000,"PART-1-1",           471,           15.,      -24.5313,            0.,NA,NA,"",   123.728E-03,   82.3847E-03,  -92.3119E-03,   16.1735E-03
C:/temp/dataset/6/26_16.odb,Step-1,Increment      1: Step Time =    1.000,"PART-1-1",           472,         11.25,          -30.,            0.,NA,NA,"",            0.,   1.50307E-39,  -12.9376E-39,   6.60990E-03
C:/temp/dataset/6/26_16.odb,Step-1,Increment      1: Step Time =    1.000,"PART-1-1",           473,       13.9950,      -12.5232,            0.,NA,NA,"",   451.955E-03,   433.592E-03,  -127.520E-03,   8.11975E-03
C:/temp/dataset/6/26_16.odb,Step-1,Increment      1: Step Time =    1.000,"PART-1-1",           474,       12.9942,      -13.6844,            0.,NA,NA,"",   419.714E-03,   404.627E-03,  -111.520E-03,   7.13256E-03
C:/temp/dataset/6/26_16.odb,Step-1,Increment      1: Step Time =    1.000,"PART-1-1",           475,           15.,      -13.5938,            0.,NA,NA,"",   431.353E-03,   400.734E-03,  -159.620E-03,   8.22658E-03
C:/temp/dataset/6/26_16.odb,Step-1,Increment      1: Step Time =    1.000,"PART-1-1",           476,       9.85236,      -17.2546,            0.,NA,NA,"",   281.719E-03,   276.757E-03,  -52.6416E-03,   15.9780E-03
C:/temp/dataset/6/26_16.odb,Step-1,Increment      1: Step Time =    1.000,"PART-1-1",           477,       8.68427,      -17.7513,            0.,NA,NA,"",   255.125E-03,   253.346E-03,  -30.0760E-03,   16.6263E-03
C:/temp/dataset/6/26_16.odb,Step-1,Increment      1: Step Time =    1.000,"PART-1-1",           478,       8.96140,      -18.9835,            0.,NA,NA,"",   206.072E-03,   203.804E-03,  -30.4900E-03,   15.5417E-03
C:/temp/dataset/6/26_16.odb,Step-1,Increment      1: Step Time =    1.000,"PART-1-1",           479,       10.1295,      -18.4868,            0.,NA,NA,"",   233.898E-03,   227.847E-03,  -52.8574E-03,   14.6451E-03
C:/temp/dataset/6/26_16.odb,Step-1,Increment      1: Step Time =    1.000,"PART-1-1",           480,       11.2436,      -18.3856,            0.,NA,NA,"",   246.356E-03,   235.298E-03,  -72.9828E-03,   13.4577E-03
C:/temp/dataset/6/26_16.odb,Step-1,Increment      1: Step Time =    1.000,"PART-1-1",           481,       12.3956,      -19.2305,            0.,NA,NA,"",   227.428E-03,   208.330E-03,  -91.2269E-03,   10.8911E-03
C:/temp/dataset/6/26_16.odb,Step-1,Increment      1: Step Time =    1.000,"PART-1-1",           482,       13.1120,      -18.1414,            0.,NA,NA,"",   273.073E-03,   248.730E-03,  -112.704E-03,   9.25553E-03
C:/temp/dataset/6/26_16.odb,Step-1,Increment      1: Step Time =    1.000,"PART-1-1",           483,       11.9600,      -17.2965,            0.,NA,NA,"",   292.617E-03,   278.169E-03,  -90.8126E-03,   12.0699E-03
C:/temp/dataset/6/26_16.odb,Step-1,Increment      1: Step Time =    1.000,"PART-1-1",           484,       14.0024,      -3.77677,            0.,NA,NA,"",   528.909E-03,   523.701E-03,  -74.0416E-03,   3.92809E-03
C:/temp/dataset/6/26_16.odb,Step-1,Increment      1: Step Time =    1.000,"PART-1-1",           485,       13.0359,      -4.87313,            0.,NA,NA,"",   528.667E-03,   523.693E-03,  -72.3473E-03,   4.60135E-03
C:/temp/dataset/6/26_16.odb,Step-1,Increment      1: Step Time =    1.000,"PART-1-1",           486,       14.0335,      -5.94012,            0.,NA,NA,"",   525.576E-03,   518.948E-03,  -83.2025E-03,   6.00264E-03
C:/temp/dataset/6/26_16.odb,Step-1,Increment      1: Step Time =    1.000,"PART-1-1",           487,           15.,      -4.84375,            0.,NA,NA,"",   526.123E-03,   519.722E-03,  -81.8179E-03,   6.04503E-03
C:/temp/dataset/6/26_16.odb,Step-1,Increment      1: Step Time =    1.000,"PART-1-1",           488,       13.0510,      -7.01836,            0.,NA,NA,"",   522.707E-03,   516.550E-03,  -79.9944E-03,   5.57080E-03
C:/temp/dataset/6/26_16.odb,Step-1,Increment      1: Step Time =    1.000,"PART-1-1",           489,       14.0175,      -8.10950,            0.,NA,NA,"",   515.224E-03,   506.190E-03,  -96.0586E-03,   7.91229E-03
C:/temp/dataset/6/26_16.odb,Step-1,Increment      1: Step Time =    1.000,"PART-1-1",           490,           15.,      -7.03125,            0.,NA,NA,"",   519.463E-03,   510.417E-03,  -96.5206E-03,   8.87404E-03
C:/temp/dataset/6/26_16.odb,Step-1,Increment      1: Step Time =    1.000,"PART-1-1",           491,         13.75,            5.,            0.,NA,NA,"",   532.562E-03,   528.628E-03,  -64.6118E-03,   59.7510E-06
C:/temp/dataset/6/26_16.odb,Step-1,Increment      1: Step Time =    1.000,"PART-1-1",           492,       12.4982,       3.90020,            0.,NA,NA,"",   530.791E-03,   527.077E-03,  -62.6776E-03,   459.987E-06
C:/temp/dataset/6/26_16.odb,Step-1,Increment      1: Step Time =    1.000,"PART-1-1",           493,       13.7482,       2.80645,            0.,NA,NA,"",   530.135E-03,   526.171E-03,  -64.7106E-03,   414.838E-06
C:/temp/dataset/6/26_16.odb,Step-1,Increment      1: Step Time =    1.000,"PART-1-1",           494,           15.,       3.90625,            0.,NA,NA,"",   531.410E-03,   527.273E-03,  -66.1807E-03,   61.1443E-06
C:/temp/dataset/6/26_16.odb,Step-1,Increment      1: Step Time =    1.000,"PART-1-1",           495,         11.25,            5.,            0.,NA,NA,"",   531.676E-03,   528.208E-03,  -60.6303E-03,   520.367E-06
C:/temp/dataset/6/26_16.odb,Step-1,Increment      1: Step Time =    1.000,"PART-1-1",           496,       11.2740,       2.82937,            0.,NA,NA,"",   529.087E-03,   525.654E-03,  -60.1680E-03,   999.634E-06
C:/temp/dataset/6/26_16.odb,Step-1,Increment      1: Step Time =    1.000,"PART-1-1",           497,       11.1422,   446.578E-03,            0.,NA,NA,"",   528.109E-03,   524.778E-03,  -59.2236E-03,   1.90821E-03
C:/temp/dataset/6/26_16.odb,Step-1,Increment      1: Step Time =    1.000,"PART-1-1",           498,       10.2035,  -836.101E-03,            0.,NA,NA,"",   526.959E-03,   524.040E-03,  -55.3847E-03,   2.89042E-03
C:/temp/dataset/6/26_16.odb,Step-1,Increment      1: Step Time =    1.000,"PART-1-1",           499,       11.7017,      -1.82731,            0.,NA,NA,"",   529.029E-03,   525.505E-03,  -60.9591E-03,   2.97857E-03
C:/temp/dataset/6/26_16.odb,Step-1,Increment      1: Step Time =    1.000,"PART-1-1",           500,       12.5035,       1.67834,            0.,NA,NA,"",   529.201E-03,   525.471E-03,  -62.7207E-03,   1.29076E-03
C:/temp/dataset/6/26_16.odb,Step-1,Increment      1: Step Time =    1.000,"PART-1-1",           501,       9.91277,       1.59761,            0.,NA,NA,"",   527.080E-03,   524.027E-03,  -56.6489E-03,   1.71126E-03
C:/temp/dataset/6/26_16.odb,Step-1,Increment      1: Step Time =    1.000,"PART-1-1",           502,       5.19643,       3.92738,            0.,NA,NA,"",   524.371E-03,   521.683E-03,  -53.0252E-03,   1.01885E-03
C:/temp/dataset/6/26_16.odb,Step-1,Increment      1: Step Time =    1.000,"PART-1-1",           503,          3.75,            5.,            0.,NA,NA,"",   524.709E-03,   522.015E-03,  -53.1011E-03,   207.083E-06
C:/temp/dataset/6/26_16.odb,Step-1,Increment      1: Step Time =    1.000,"PART-1-1",           504,       2.66615,       3.61346,            0.,NA,NA,"",   523.308E-03,   520.602E-03,  -53.1485E-03,   1.33707E-03
C:/temp/dataset/6/26_16.odb,Step-1,Increment      1: Step Time =    1.000,"PART-1-1",           505,      -1.00804,       2.95894,            0.,NA,NA,"",   523.445E-03,   521.042E-03,  -50.0964E-03,   2.29326E-03
C:/temp/dataset/6/26_16.odb,Step-1,Increment      1: Step Time =    1.000,"PART-1-1",           506,   87.8012E-03,       3.95476,            0.,NA,NA,"",   526.246E-03,   523.729E-03,  -51.4120E-03,   2.12619E-03
C:/temp/dataset/6/26_16.odb,Step-1,Increment      1: Step Time =    1.000,"PART-1-1",           507,         -1.25,            5.,            0.,NA,NA,"",   532.337E-03,   530.253E-03,  -47.0589E-03,   3.65869E-03
C:/temp/dataset/6/26_16.odb,Step-1,Increment      1: Step Time =    1.000,"PART-1-1",           508,      -2.34584,       4.00418,            0.,NA,NA,"",   531.342E-03,   529.448E-03,  -44.8319E-03,   3.20065E-03
C:/temp/dataset/6/26_16.odb,Step-1,Increment      1: Step Time =    1.000,"PART-1-1",           509,      -3.27281,       2.96378,            0.,NA,NA,"",   526.182E-03,   524.547E-03,  -41.4392E-03,   1.80844E-03
C:/temp/dataset/6/26_16.odb,Step-1,Increment      1: Step Time =    1.000,"PART-1-1",           510,         -3.75,            5.,            0.,NA,NA,"",   542.139E-03,   540.965E-03,  -35.6543E-03,   5.53055E-03
C:/temp/dataset/6/26_16.odb,Step-1,Increment      1: Step Time =    1.000,"PART-1-1",           511,      -4.67697,       3.95960,            0.,NA,NA,"",   536.489E-03,   535.585E-03,  -31.1174E-03,   3.17020E-03
C:/temp/dataset/6/26_16.odb,Step-1,Increment      1: Step Time =    1.000,"PART-1-1",           512,      -7.93004,       8.58536,            0.,NA,NA,"",   600.673E-03,   600.606E-03,   9.00043E-03,   164.884E-06
C:/temp/dataset/6/26_16.odb,Step-1,Increment      1: Step Time =    1.000,"PART-1-1",           513,      -8.65034,       7.25415,            0.,NA,NA,"",   584.211E-03,   583.935E-03,   17.9287E-03,   636.654E-06
C:/temp/dataset/6/26_16.odb,Step-1,Increment      1: Step Time =    1.000,"PART-1-1",           514,      -7.51010,       6.50150,            0.,NA,NA,"",   573.550E-03,   573.539E-03,   3.63135E-03,   871.124E-06
C:/temp/dataset/6/26_16.odb,Step-1,Increment      1: Step Time =    1.000,"PART-1-1",           515,      -6.78981,       7.83270,            0.,NA,NA,"",   590.689E-03,   590.666E-03,  -5.29982E-03,   360.003E-06
C:/temp/dataset/6/26_16.odb,Step-1,Increment      1: Step Time =    1.000,"PART-1-1",           516,      -7.08495,       12.0475,            0.,NA,NA,"",   644.048E-03,   644.045E-03,  -1.92657E-03,   44.1449E-06
C:/temp/dataset/6/26_16.odb,Step-1,Increment      1: Step Time =    1.000,"PART-1-1",           517,      -6.02998,       11.1050,            0.,NA,NA,"",   632.344E-03,   632.163E-03,  -15.1253E-03,   56.1746E-06
C:/temp/dataset/6/26_16.odb,Step-1,Increment      1: Step Time =    1.000,"PART-1-1",           518,           -5.,       12.2917,            0.,NA,NA,"",   647.513E-03,   646.904E-03,  -28.0725E-03,   71.9759E-06
C:/temp/dataset/6/26_16.odb,Step-1,Increment      1: Step Time =    1.000,"PART-1-1",           519,      -6.05497,       13.2342,            0.,NA,NA,"",   658.937E-03,   658.769E-03,  -14.9131E-03,   33.2956E-06
C:/temp/dataset/6/26_16.odb,Step-1,Increment      1: Step Time =    1.000,"PART-1-1",           520,      -9.96524,       21.0498,            0.,NA,NA,"",   757.209E-03,   756.477E-03,   33.2828E-03,   1.69679E-06
C:/temp/dataset/6/26_16.odb,Step-1,Increment      1: Step Time =    1.000,"PART-1-1",           521,      -8.51702,       20.1362,            0.,NA,NA,"",   745.133E-03,   744.976E-03,   15.2970E-03,   2.05345E-06
C:/temp/dataset/6/26_16.odb,Step-1,Increment      1: Step Time =    1.000,"PART-1-1",           522,      -8.09442,       21.6565,            0.,NA,NA,"",   763.962E-03,   763.897E-03,   9.90861E-03,   978.566E-09
C:/temp/dataset/6/26_16.odb,Step-1,Increment      1: Step Time =    1.000,"PART-1-1",           523,      -9.54264,       22.5701,            0.,NA,NA,"",   775.902E-03,   775.400E-03,   27.8947E-03,   437.218E-09
C:/temp/dataset/6/26_16.odb,Step-1,Increment      1: Step Time =    1.000,"PART-1-1",           524,      -7.38593,       19.0122,            0.,NA,NA,"",   730.879E-03,   730.878E-03,   1.28096E-03,   4.60394E-06
C:/temp/dataset/6/26_16.odb,Step-1,Increment      1: Step Time =    1.000,"PART-1-1",           525,      -6.14460,       17.5723,            0.,NA,NA,"",   712.975E-03,   712.836E-03,  -14.0884E-03,   4.86739E-06
C:/temp/dataset/6/26_16.odb,Step-1,Increment      1: Step Time =    1.000,"PART-1-1",           526,           -5.,       18.5417,            0.,NA,NA,"",   725.385E-03,   724.828E-03,  -28.4313E-03,   2.72924E-06
C:/temp/dataset/6/26_16.odb,Step-1,Increment      1: Step Time =    1.000,"PART-1-1",           527,      -9.12859,       24.1056,            0.,NA,NA,"",   794.835E-03,   794.514E-03,   22.6126E-03,   182.416E-09
C:/temp/dataset/6/26_16.odb,Step-1,Increment      1: Step Time =    1.000,"PART-1-1",           528,      -7.82088,       23.2603,            0.,NA,NA,"",   783.898E-03,   783.872E-03,   6.37313E-03,   183.045E-09
C:/temp/dataset/6/26_16.odb,Step-1,Increment      1: Step Time =    1.000,"PART-1-1",           529,      -7.11221,       24.6459,            0.,NA,NA,"",   801.098E-03,   801.093E-03,  -2.57045E-03,   87.9392E-09
C:/temp/dataset/6/26_16.odb,Step-1,Increment      1: Step Time =    1.000,"PART-1-1",           530,      -8.41993,       25.4912,            0.,NA,NA,"",   811.850E-03,   811.735E-03,   13.6690E-03,   104.432E-09
C:/temp/dataset/6/26_16.odb,Step-1,Increment      1: Step Time =    1.000,"PART-1-1",           531,           -5.,       28.9583,            0.,NA,NA,"",   855.199E-03,   854.699E-03,  -29.2418E-03,   19.6042E-09
C:/temp/dataset/6/26_16.odb,Step-1,Increment      1: Step Time =    1.000,"PART-1-1",           532,         -6.25,           30.,            0.,NA,NA,"",   867.893E-03,   867.785E-03,  -13.7371E-03,   20.2463E-09
C:/temp/dataset/6/26_16.odb,Step-1,Increment      1: Step Time =    1.000,"PART-1-1",           533,      -6.22481,       27.8751,            0.,NA,NA,"",   841.402E-03,   841.288E-03,  -13.8859E-03,   69.3484E-09
C:/temp/dataset/6/26_16.odb,Step-1,Increment      1: Step Time =    1.000,"PART-1-1",           534,      -11.1386,       27.5393,            0.,NA,NA,"",   838.824E-03,   837.483E-03,   47.4077E-03,   85.2976E-09
C:/temp/dataset/6/26_16.odb,Step-1,Increment      1: Step Time =    1.000,"PART-1-1",           535,        -11.25,           30.,            0.,NA,NA,"",   869.533E-03,   868.174E-03,   48.6058E-03,   90.6564E-09
C:/temp/dataset/6/26_16.odb,Step-1,Increment      1: Step Time =    1.000,"PART-1-1",           536,      -13.1147,       13.7606,            0.,NA,NA,"",   669.793E-03,   665.791E-03,   73.1107E-03,   28.8758E-06
C:/temp/dataset/6/26_16.odb,Step-1,Increment      1: Step Time =    1.000,"PART-1-1",           537,      -14.0658,       14.9906,            0.,NA,NA,"",   686.477E-03,   681.212E-03,   84.8618E-03,   16.1732E-06
C:/temp/dataset/6/26_16.odb,Step-1,Increment      1: Step Time =    1.000,"PART-1-1",           538,          -15.,         13.75,            0.,NA,NA,"",   672.787E-03,   665.820E-03,   96.5724E-03,   36.5033E-06
C:/temp/dataset/6/26_16.odb,Step-1,Increment      1: Step Time =    1.000,"PART-1-1",           539,      -9.42834,       18.6970,            0.,NA,NA,"",   727.595E-03,   727.102E-03,   26.7759E-03,   6.01983E-06
C:/temp/dataset/6/26_16.odb,Step-1,Increment      1: Step Time =    1.000,"PART-1-1",           540,      -8.29725,       17.5730,            0.,NA,NA,"",   713.121E-03,   713.007E-03,   12.7614E-03,   7.70943E-06
C:/temp/dataset/6/26_16.odb,Step-1,Increment      1: Step Time =    1.000,"PART-1-1",           541,      -12.7588,       6.21303,            0.,NA,NA,"",   577.246E-03,   573.082E-03,   69.2159E-03,   519.263E-06
C:/temp/dataset/6/26_16.odb,Step-1,Increment      1: Step Time =    1.000,"PART-1-1",           542,          -15.,          6.25,            0.,NA,NA,"",   581.760E-03,   573.683E-03,   96.6043E-03,   121.675E-06
C:/temp/dataset/6/26_16.odb,Step-1,Increment      1: Step Time =    1.000,"PART-1-1",           543,      -9.01063,       9.47069,            0.,NA,NA,"",   612.357E-03,   611.945E-03,   22.4617E-03,   108.509E-06
C:/temp/dataset/6/26_16.odb,Step-1,Increment      1: Step Time =    1.000,"PART-1-1",           544,      -10.0811,       10.4578,            0.,NA,NA,"",   625.430E-03,   624.408E-03,   35.7226E-03,   45.9420E-06
C:/temp/dataset/6/26_16.odb,Step-1,Increment      1: Step Time =    1.000,"PART-1-1",           545,      -10.9384,       9.05000,            0.,NA,NA,"",   608.802E-03,   607.025E-03,   46.4844E-03,   135.290E-06
C:/temp/dataset/6/26_16.odb,Step-1,Increment      1: Step Time =    1.000,"PART-1-1",           546,      -9.86794,       8.06293,            0.,NA,NA,"",   595.472E-03,   594.548E-03,   33.1672E-03,   234.143E-06
C:/temp/dataset/6/26_16.odb,Step-1,Increment      1: Step Time =    1.000,"PART-1-1",           547,      -7.23366,       1.29985,            0.,NA,NA,"",   514.666E-03,   514.634E-03,  -5.69567E-03,   2.25151E-03
C:/temp/dataset/6/26_16.odb,Step-1,Increment      1: Step Time =    1.000,"PART-1-1",           548,      -8.34685,   784.410E-03,            0.,NA,NA,"",   510.368E-03,   510.299E-03,   8.34423E-03,   2.42332E-03
C:/temp/dataset/6/26_16.odb,Step-1,Increment      1: Step Time =    1.000,"PART-1-1",           549,      -7.43977,  -685.632E-03,            0.,NA,NA,"",   494.848E-03,   494.822E-03,  -5.06127E-03,   2.23445E-03
C:/temp/dataset/6/26_16.odb,Step-1,Increment      1: Step Time =    1.000,"PART-1-1",           550,      -12.4903,      -8.57964,            0.,NA,NA,"",   359.164E-03,   350.155E-03,   79.9395E-03,   3.11554E-03
C:/temp/dataset/6/26_16.odb,Step-1,Increment      1: Step Time =    1.000,"PART-1-1",           551,          -15.,         -8.75,            0.,NA,NA,"",   369.891E-03,   345.843E-03,   131.196E-03,   1.29138E-03
C:/temp/dataset/6/26_16.odb,Step-1,Increment      1: Step Time =    1.000,"PART-1-1",           552,      -13.5658,      -9.92286,            0.,NA,NA,"",   334.311E-03,   318.629E-03,   101.192E-03,   2.08452E-03
C:/temp/dataset/6/26_16.odb,Step-1,Increment      1: Step Time =    1.000,"PART-1-1",           553,      -11.9783,      -7.15971,            0.,NA,NA,"",   388.841E-03,   382.529E-03,   69.7744E-03,   2.95738E-03
C:/temp/dataset/6/26_16.odb,Step-1,Increment      1: Step Time =    1.000,"PART-1-1",           554,      -11.8960,      -5.22799,            0.,NA,NA,"",   427.716E-03,   422.550E-03,   66.2727E-03,   2.09602E-03
C:/temp/dataset/6/26_16.odb,Step-1,Increment      1: Step Time =    1.000,"PART-1-1",           555,      -12.4565,      -16.3452,            0.,NA,NA,"",   180.120E-03,   166.717E-03,   68.1809E-03,   4.89495E-03
C:/temp/dataset/6/26_16.odb,Step-1,Increment      1: Step Time =    1.000,"PART-1-1",           556,          -15.,        -16.25,            0.,NA,NA,"",   209.793E-03,   175.185E-03,   115.428E-03,   6.37696E-03
C:/temp/dataset/6/26_16.odb,Step-1,Increment      1: Step Time =    1.000,"PART-1-1",           557,      -13.7435,      -17.5611,            0.,NA,NA,"",   168.123E-03,   145.124E-03,   84.8795E-03,   6.11703E-03
C:/temp/dataset/6/26_16.odb,Step-1,Increment      1: Step Time =    1.000,"PART-1-1",           558,      -9.99221,      -8.41662,            0.,NA,NA,"",   355.980E-03,   354.213E-03,   35.4181E-03,   4.38473E-03
C:/temp/dataset/6/26_16.odb,Step-1,Increment      1: Step Time =    1.000,"PART-1-1",           559,      -11.4633,      -9.12095,            0.,NA,NA,"",   342.833E-03,   337.316E-03,   61.2539E-03,   3.91192E-03
C:/temp/dataset/6/26_16.odb,Step-1,Increment      1: Step Time =    1.000,"PART-1-1",           560,      -10.8070,      -10.1141,            0.,NA,NA,"",   316.795E-03,   312.969E-03,   49.0872E-03,   4.26639E-03
C:/temp/dataset/6/26_16.odb,Step-1,Increment      1: Step Time =    1.000,"PART-1-1",           561,      -13.9189,      -24.9166,            0.,NA,NA,"",   59.1888E-03,   43.4852E-03,   40.1541E-03,   8.01727E-03
C:/temp/dataset/6/26_16.odb,Step-1,Increment      1: Step Time =    1.000,"PART-1-1",           562,      -12.9076,      -23.6273,            0.,NA,NA,"",   65.8596E-03,   52.9746E-03,   39.1303E-03,   6.64654E-03
C:/temp/dataset/6/26_16.odb,Step-1,Increment      1: Step Time =    1.000,"PART-1-1",           563,          -15.,        -23.75,            0.,NA,NA,"",   83.8131E-03,   59.1411E-03,   59.3882E-03,   9.14817E-03
C:/temp/dataset/6/26_16.odb,Step-1,Increment      1: Step Time =    1.000,"PART-1-1",           564,          -15.,        -28.75,            0.,NA,NA,"",   20.9408E-03,   14.9236E-03,   14.6902E-03,   12.5379E-03
C:/temp/dataset/6/26_16.odb,Step-1,Increment      1: Step Time =    1.000,"PART-1-1",           565,        -13.75,          -30.,            0.,NA,NA,"",            0.,   680.573E-42,   15.0207E-39,   10.7386E-03
C:/temp/dataset/6/26_16.odb,Step-1,Increment      1: Step Time =    1.000,"PART-1-1",           566,      -13.7642,      -27.4123,            0.,NA,NA,"",   28.5625E-03,   20.4674E-03,   19.9224E-03,   8.89628E-03
C:/temp/dataset/6/26_16.odb,Step-1,Increment      1: Step Time =    1.000,"PART-1-1",           567,            5.,      -6.25625,            0.,NA,NA,"",   512.175E-03,   511.802E-03,  -19.5241E-03,   9.45321E-03
C:/temp/dataset/6/26_16.odb,Step-1,Increment      1: Step Time =    1.000,"PART-1-1",           568,       7.03347,      -6.11658,            0.,NA,NA,"",   518.708E-03,   518.102E-03,  -25.0693E-03,   6.33135E-03
C:/temp/dataset/6/26_16.odb,Step-1,Increment      1: Step Time =    1.000,"PART-1-1",           569,       6.04361,      -4.83741,            0.,NA,NA,"",   515.798E-03,   514.976E-03,  -29.0990E-03,   6.86368E-03
C:/temp/dataset/6/26_16.odb,Step-1,Increment      1: Step Time =    1.000,"PART-1-1",           570,           15.,      -2.65625,            0.,NA,NA,"",   528.150E-03,   523.119E-03,  -72.7258E-03,   3.50726E-03
C:/temp/dataset/6/26_16.odb,Step-1,Increment      1: Step Time =    1.000,"PART-1-1",           571,       12.8875,      -2.72454,            0.,NA,NA,"",   529.697E-03,   525.450E-03,  -66.9419E-03,   3.38707E-03
C:/temp/dataset/6/26_16.odb,Step-1,Increment      1: Step Time =    1.000,"PART-1-1",           572,       10.0248,      -7.91896,            0.,NA,NA,"",   518.394E-03,   516.307E-03,  -46.4713E-03,   4.84650E-03
C:/temp/dataset/6/26_16.odb,Step-1,Increment      1: Step Time =    1.000,"PART-1-1",           573,       8.98203,      -8.99604,            0.,NA,NA,"",   512.066E-03,   511.062E-03,  -32.0513E-03,   5.34200E-03
C:/temp/dataset/6/26_16.odb,Step-1,Increment      1: Step Time =    1.000,"PART-1-1",           574,       9.98204,      -10.2112,            0.,NA,NA,"",   497.880E-03,   495.630E-03,  -47.2857E-03,   4.79249E-03
C:/temp/dataset/6/26_16.odb,Step-1,Increment      1: Step Time =    1.000,"PART-1-1",           575,            5.,      -11.2813,            0.,NA,NA,"",   513.752E-03,   512.954E-03,   28.6245E-03,   18.5988E-03
C:/temp/dataset/6/26_16.odb,Step-1,Increment      1: Step Time =    1.000,"PART-1-1",           576,       6.96001,      -11.3098,            0.,NA,NA,"",   497.601E-03,   497.599E-03,   1.55452E-03,   10.5528E-03
C:/temp/dataset/6/26_16.odb,Step-1,Increment      1: Step Time =    1.000,"PART-1-1",           577,       12.1169,      -5.93459,            0.,NA,NA,"",   526.836E-03,   522.471E-03,  -67.6747E-03,   4.71046E-03
C:/temp/dataset/6/26_16.odb,Step-1,Increment      1: Step Time =    1.000,"PART-1-1",           578,       11.1088,      -6.97100,            0.,NA,NA,"",   523.209E-03,   519.874E-03,  -58.9768E-03,   4.64965E-03
C:/temp/dataset/6/26_16.odb,Step-1,Increment      1: Step Time =    1.000,"PART-1-1",           579,           15.,      -11.4063,            0.,NA,NA,"",   475.432E-03,   454.486E-03,  -139.565E-03,   11.1905E-03
C:/temp/dataset/6/26_16.odb,Step-1,Increment      1: Step Time =    1.000,"PART-1-1",           580,       13.9991,      -10.3053,            0.,NA,NA,"",   492.325E-03,   479.463E-03,  -111.796E-03,   8.88414E-03
C:/temp/dataset/6/26_16.odb,Step-1,Increment      1: Step Time =    1.000,"PART-1-1",           581,       12.9941,      -11.4223,            0.,NA,NA,"",   473.690E-03,   462.696E-03,  -101.465E-03,   6.03012E-03
C:/temp/dataset/6/26_16.odb,Step-1,Increment      1: Step Time =    1.000,"PART-1-1",           582,           15.,      -9.21875,            0.,NA,NA,"",   504.003E-03,   490.314E-03,  -116.667E-03,   11.0526E-03
C:/temp/dataset/6/26_16.odb,Step-1,Increment      1: Step Time =    1.000,"PART-1-1",           583,       9.25975,      -25.9916,            0.,NA,NA,"",   35.6012E-03,   34.7626E-03,  -7.68174E-03,   4.79726E-03
C:/temp/dataset/6/26_16.odb,Step-1,Increment      1: Step Time =    1.000,"PART-1-1",           584,       7.97004,      -27.0667,            0.,NA,NA,"",   21.8264E-03,   21.8236E-03,   352.131E-06,   4.41389E-03
C:/temp/dataset/6/26_16.odb,Step-1,Increment      1: Step Time =    1.000,"PART-1-1",           585,       9.98268,      -20.3187,            0.,NA,NA,"",   166.351E-03,   161.304E-03,  -40.6653E-03,   12.7585E-03
C:/temp/dataset/6/26_16.odb,Step-1,Increment      1: Step Time =    1.000,"PART-1-1",           586,       8.47236,      -19.9740,            0.,NA,NA,"",   165.244E-03,   164.341E-03,  -17.2562E-03,   13.7373E-03
C:/temp/dataset/6/26_16.odb,Step-1,Increment      1: Step Time =    1.000,"PART-1-1",           587,       7.80775,      -21.2882,            0.,NA,NA,"",   119.672E-03,   119.669E-03,  -808.071E-06,   10.0443E-03
C:/temp/dataset/6/26_16.odb,Step-1,Increment      1: Step Time =    1.000,"PART-1-1",           588,       9.31806,      -21.6330,            0.,NA,NA,"",   121.001E-03,   118.837E-03,  -22.7797E-03,   9.17774E-03
C:/temp/dataset/6/26_16.odb,Step-1,Increment      1: Step Time =    1.000,"PART-1-1",           589,          3.75,          -20.,            0.,NA,NA,"",   106.847E-03,   104.906E-03,   20.2760E-03,   22.3472E-03
C:/temp/dataset/6/26_16.odb,Step-1,Increment      1: Step Time =    1.000,"PART-1-1",           590,       2.69482,      -20.9389,            0.,NA,NA,"",   94.5036E-03,   92.8666E-03,   17.5138E-03,   10.2049E-03
C:/temp/dataset/6/26_16.odb,Step-1,Increment      1: Step Time =    1.000,"PART-1-1",           591,       4.10336,      -21.5712,            0.,NA,NA,"",   103.458E-03,   98.9777E-03,   30.1164E-03,   13.7967E-03
C:/temp/dataset/6/26_16.odb,Step-1,Increment      1: Step Time =    1.000,"PART-1-1",           592,       5.15854,      -20.6323,            0.,NA,NA,"",   125.964E-03,   119.698E-03,   39.2347E-03,   21.5129E-03
C:/temp/dataset/6/26_16.odb,Step-1,Increment      1: Step Time =    1.000,"PART-1-1",           593,          1.25,          -20.,            0.,NA,NA,"",   79.8921E-03,   79.7738E-03,   4.34671E-03,   7.04225E-03
C:/temp/dataset/6/26_16.odb,Step-1,Increment      1: Step Time =    1.000,"PART-1-1",           594,       1.58638,      -22.3782,            0.,NA,NA,"",   78.9964E-03,   78.0405E-03,   12.2517E-03,   10.2019E-03
C:/temp/dataset/6/26_16.odb,Step-1,Increment      1: Step Time =    1.000,"PART-1-1",           595,      -7.18878,      -21.5166,            0.,NA,NA,"",   68.3417E-03,   67.8199E-03,  -8.42918E-03,   2.37112E-03
C:/temp/dataset/6/26_16.odb,Step-1,Increment      1: Step Time =    1.000,"PART-1-1",           596,      -8.69544,      -20.4918,            0.,NA,NA,"",   82.9998E-03,   82.7705E-03,   6.16482E-03,   3.11104E-03
C:/temp/dataset/6/26_16.odb,Step-1,Increment      1: Step Time =    1.000,"PART-1-1",           597,      -9.53108,      -21.9939,            0.,NA,NA,"",   65.7660E-03,   64.5265E-03,   12.7081E-03,   2.49207E-03
C:/temp/dataset/6/26_16.odb,Step-1,Increment      1: Step Time =    1.000,"PART-1-1",           598,      -8.02442,      -23.0186,            0.,NA,NA,"",   52.8519E-03,   52.8465E-03,  -755.963E-06,   1.68513E-03
C:/temp/dataset/6/26_16.odb,Step-1,Increment      1: Step Time =    1.000,"PART-1-1",           599,           -5.,      -18.7437,            0.,NA,NA,"",   118.719E-03,   111.282E-03,  -41.3574E-03,   10.7557E-03
C:/temp/dataset/6/26_16.odb,Step-1,Increment      1: Step Time =    1.000,"PART-1-1",           600,      -6.23242,      -17.5731,            0.,NA,NA,"",   136.424E-03,   133.663E-03,  -27.3086E-03,   5.00134E-03
C:/temp/dataset/6/26_16.odb,Step-1,Increment      1: Step Time =    1.000,"PART-1-1",           601,      -7.41830,      -18.9573,            0.,NA,NA,"",   105.000E-03,   104.740E-03,  -7.37895E-03,   4.46297E-03
C:/temp/dataset/6/26_16.odb,Step-1,Increment      1: Step Time =    1.000,"PART-1-1",           602,      -6.18588,      -20.1280,            0.,NA,NA,"",   84.2703E-03,   82.0381E-03,  -19.2676E-03,   6.89549E-03
C:/temp/dataset/6/26_16.odb,Step-1,Increment      1: Step Time =    1.000,"PART-1-1",           603,           -5.,      -16.2312,            0.,NA,NA,"",   176.296E-03,   166.321E-03,  -58.4611E-03,   4.60472E-03
C:/temp/dataset/6/26_16.odb,Step-1,Increment      1: Step Time =    1.000,"PART-1-1",           604,      -7.44257,      -16.3835,            0.,NA,NA,"",   160.189E-03,   159.816E-03,  -10.9238E-03,   4.64118E-03
C:/temp/dataset/6/26_16.odb,Step-1,Increment      1: Step Time =    1.000,"PART-1-1",           605,      -12.6830,      -26.0788,            0.,NA,NA,"",   36.7464E-03,   28.7812E-03,   22.8459E-03,   6.92311E-03
C:/temp/dataset/6/26_16.odb,Step-1,Increment      1: Step Time =    1.000,"PART-1-1",           606,          -15.,        -26.25,            0.,NA,NA,"",   53.0554E-03,   35.8690E-03,   39.0934E-03,   9.83819E-03
C:/temp/dataset/6/26_16.odb,Step-1,Increment      1: Step Time =    1.000,"PART-1-1",           607,         -8.75,          -30.,            0.,NA,NA,"",            0.,   2.56100E-39,   3.72478E-39,   3.43679E-03
C:/temp/dataset/6/26_16.odb,Step-1,Increment      1: Step Time =    1.000,"PART-1-1",           608,          -15.,        -18.75,            0.,NA,NA,"",   161.502E-03,   127.496E-03,   99.1349E-03,   8.11714E-03
C:/temp/dataset/6/26_16.odb,Step-1,Increment      1: Step Time =    1.000,"PART-1-1",           609,      -12.5734,      -18.8685,            0.,NA,NA,"",   132.175E-03,   117.715E-03,   60.1116E-03,   5.46596E-03
C:/temp/dataset/6/26_16.odb,Step-1,Increment      1: Step Time =    1.000,"PART-1-1",           610,           -5.,      -11.2063,            0.,NA,NA,"",   290.145E-03,   282.385E-03,  -66.6550E-03,   697.932E-06
C:/temp/dataset/6/26_16.odb,Step-1,Increment      1: Step Time =    1.000,"PART-1-1",           611,      -7.25264,      -11.4522,            0.,NA,NA,"",   278.260E-03,   277.706E-03,  -17.5575E-03,   3.26600E-03
C:/temp/dataset/6/26_16.odb,Step-1,Increment      1: Step Time =    1.000,"PART-1-1",           612,           -5.,      -6.23750,            0.,NA,NA,"",   408.335E-03,   404.933E-03,  -52.6048E-03,   9.51599E-03
C:/temp/dataset/6/26_16.odb,Step-1,Increment      1: Step Time =    1.000,"PART-1-1",           613,      -6.16987,      -5.46941,            0.,NA,NA,"",   429.808E-03,   429.022E-03,  -25.9667E-03,   9.21830E-03
C:/temp/dataset/6/26_16.odb,Step-1,Increment      1: Step Time =    1.000,"PART-1-1",           614,      -7.24309,      -6.98789,            0.,NA,NA,"",   389.665E-03,   389.513E-03,  -10.8583E-03,   4.85953E-03
C:/temp/dataset/6/26_16.odb,Step-1,Increment      1: Step Time =    1.000,"PART-1-1",           615,           -5.,       16.4583,            0.,NA,NA,"",   699.434E-03,   698.862E-03,  -28.2779E-03,   10.5030E-06
C:/temp/dataset/6/26_16.odb,Step-1,Increment      1: Step Time =    1.000,"PART-1-1",           616,      -7.23328,       16.4840,            0.,NA,NA,"",   699.358E-03,   699.358E-03,  -424.938E-06,   13.9263E-06
C:/temp/dataset/6/26_16.odb,Step-1,Increment      1: Step Time =    1.000,"PART-1-1",           617,      -6.08867,       15.3700,            0.,NA,NA,"",   685.545E-03,   685.389E-03,  -14.6268E-03,   14.0247E-06
C:/temp/dataset/6/26_16.odb,Step-1,Increment      1: Step Time =    1.000,"PART-1-1",           618,      -13.1522,       16.1892,            0.,NA,NA,"",   699.953E-03,   696.094E-03,   73.3948E-03,   14.0338E-06
C:/temp/dataset/6/26_16.odb,Step-1,Increment      1: Step Time =    1.000,"PART-1-1",           619,      -14.0864,       17.4486,            0.,NA,NA,"",   716.929E-03,   711.879E-03,   84.9438E-03,   4.84614E-06
C:/temp/dataset/6/26_16.odb,Step-1,Increment      1: Step Time =    1.000,"PART-1-1",           620,          -15.,         16.25,            0.,NA,NA,"",   703.638E-03,   697.000E-03,   96.4233E-03,   11.4400E-06
C:/temp/dataset/6/26_16.odb,Step-1,Increment      1: Step Time =    1.000,"PART-1-1",           621,           -5.,       24.7917,            0.,NA,NA,"",   803.268E-03,   802.747E-03,  -28.9175E-03,   271.031E-09
C:/temp/dataset/6/26_16.odb,Step-1,Increment      1: Step Time =    1.000,"PART-1-1",           622,      -6.14442,       25.7689,            0.,NA,NA,"",   815.153E-03,   815.020E-03,  -14.7245E-03,   124.740E-09
C:/temp/dataset/6/26_16.odb,Step-1,Increment      1: Step Time =    1.000,"PART-1-1",           623,           -5.,        26.875,            0.,NA,NA,"",   829.233E-03,   828.723E-03,  -29.0797E-03,   114.861E-09
C:/temp/dataset/6/26_16.odb,Step-1,Increment      1: Step Time =    1.000,"PART-1-1",           624,      -7.36924,       26.7689,            0.,NA,NA,"",   827.585E-03,   827.585E-03,   469.251E-06,   123.068E-09
C:/temp/dataset/6/26_16.odb,Step-1,Increment      1: Step Time =    1.000,"PART-1-1",           625,      -13.1175,       20.9132,            0.,NA,NA,"",   758.498E-03,   755.016E-03,   72.5976E-03,   1.21806E-06
C:/temp/dataset/6/26_16.odb,Step-1,Increment      1: Step Time =    1.000,"PART-1-1",           626,      -14.0212,       22.2867,            0.,NA,NA,"",   776.743E-03,   772.213E-03,   83.7596E-03,   215.117E-09
C:/temp/dataset/6/26_16.odb,Step-1,Increment      1: Step Time =    1.000,"PART-1-1",           627,          -15.,         21.25,            0.,NA,NA,"",   765.412E-03,   759.362E-03,   96.0454E-03,   112.965E-09
C:/temp/dataset/6/26_16.odb,Step-1,Increment      1: Step Time =    1.000,"PART-1-1",           628,      -14.0963,       19.8765,            0.,NA,NA,"",   747.001E-03,   742.163E-03,   84.8825E-03,   987.684E-09
C:/temp/dataset/6/26_16.odb,Step-1,Increment      1: Step Time =    1.000,"PART-1-1",           629,         -1.25,           -5.,            0.,NA,NA,"",   482.399E-03,   480.618E-03,  -41.4199E-03,   7.28180E-03
C:/temp/dataset/6/26_16.odb,Step-1,Increment      1: Step Time =    1.000,"PART-1-1",           630,      -1.77292,      -3.03732,            0.,NA,NA,"",   486.236E-03,   484.014E-03,  -46.4279E-03,   5.83407E-03
C:/temp/dataset/6/26_16.odb,Step-1,Increment      1: Step Time =    1.000,"PART-1-1",           631,      -12.1053,      -2.30059,            0.,NA,NA,"",   475.960E-03,   471.437E-03,   65.4639E-03,   1.82708E-03
C:/temp/dataset/6/26_16.odb,Step-1,Increment      1: Step Time =    1.000,"PART-1-1",           632,      -10.7648,      -1.40855,            0.,NA,NA,"",   486.757E-03,   484.807E-03,   43.5267E-03,   1.79685E-03
C:/temp/dataset/6/26_16.odb,Step-1,Increment      1: Step Time =    1.000,"PART-1-1",           633,      -11.5438,  -354.672E-03,            0.,NA,NA,"",   500.652E-03,   497.653E-03,   54.7117E-03,   2.00505E-03
C:/temp/dataset/6/26_16.odb,Step-1,Increment      1: Step Time =    1.000,"PART-1-1",           634,          3.75,           -5.,            0.,NA,NA,"",   508.189E-03,   506.563E-03,  -40.6189E-03,   4.66882E-03
C:/temp/dataset/6/26_16.odb,Step-1,Increment      1: Step Time =    1.000,"PART-1-1",           635,       4.52066,      -3.83856,            0.,NA,NA,"",   507.733E-03,   506.218E-03,  -39.1972E-03,   5.35112E-03
C:/temp/dataset/6/26_16.odb,Step-1,Increment      1: Step Time =    1.000,"PART-1-1",           636,       2.94662,      -2.72704,            0.,NA,NA,"",   504.527E-03,   502.376E-03,  -46.5362E-03,   3.92948E-03
C:/temp/dataset/6/26_16.odb,Step-1,Increment      1: Step Time =    1.000,"PART-1-1",           637,       1.50395,       2.56821,            0.,NA,NA,"",   520.516E-03,   517.800E-03,  -53.1046E-03,   2.26725E-03
C:/temp/dataset/6/26_16.odb,Step-1,Increment      1: Step Time =    1.000,"PART-1-1",           638,          1.25,            5.,            0.,NA,NA,"",   526.695E-03,   524.127E-03,  -51.9436E-03,   1.86705E-03
C:/temp/dataset/6/26_16.odb,Step-1,Increment      1: Step Time =    1.000,"PART-1-1",           639,          6.25,            5.,            0.,NA,NA,"",   526.171E-03,   523.408E-03,  -53.8592E-03,   990.286E-06
C:/temp/dataset/6/26_16.odb,Step-1,Increment      1: Step Time =    1.000,"PART-1-1",           640,  -213.968E-03,      -26.0734,            0.,NA,NA,"",   41.8667E-03,   41.7162E-03,   3.54694E-03,   8.31448E-03
C:/temp/dataset/6/26_16.odb,Step-1,Increment      1: Step Time =    1.000,"PART-1-1",           641,       1.14210,      -23.8512,            0.,NA,NA,"",   65.7907E-03,   65.0757E-03,   9.67304E-03,   9.13666E-03
C:/temp/dataset/6/26_16.odb,Step-1,Increment      1: Step Time =    1.000,"PART-1-1",           642,  -234.527E-03,      -23.9674,            0.,NA,NA,"",   61.6393E-03,   61.5164E-03,   3.89039E-03,   8.44884E-03
C:/temp/dataset/6/26_16.odb,Step-1,Increment      1: Step Time =    1.000,"PART-1-1",           643,           -5.,        14.375,            0.,NA,NA,"",   673.484E-03,   672.896E-03,  -28.1471E-03,   31.6503E-06
C:/temp/dataset/6/26_16.odb,Step-1,Increment      1: Step Time =    1.000,"PART-1-1",           644,      -7.14364,       14.2292,            0.,NA,NA,"",   671.258E-03,   671.257E-03,  -1.36622E-03,   29.2172E-06
C:/temp/dataset/6/26_16.odb,Step-1,Increment      1: Step Time =    1.000,"PART-1-1",           645,           -5.,       6.04167,            0.,NA,NA,"",   566.846E-03,   566.141E-03,  -28.2653E-03,   1.57377E-03
C:/temp/dataset/6/26_16.odb,Step-1,Increment      1: Step Time =    1.000,"PART-1-1",           646,      -5.82078,       6.95384,            0.,NA,NA,"",   579.005E-03,   578.740E-03,  -17.5427E-03,   580.896E-06
C:/temp/dataset/6/26_16.odb,Step-1,Increment      1: Step Time =    1.000,"PART-1-1",           647,      -6.45742,       5.85906,            0.,NA,NA,"",   563.839E-03,   563.761E-03,  -9.38150E-03,   1.63684E-03
C:/temp/dataset/6/26_16.odb,Step-1,Increment      1: Step Time =    1.000,"PART-1-1",           648,      -5.63664,       4.94688,            0.,NA,NA,"",   549.557E-03,   549.201E-03,  -19.7842E-03,   3.40426E-03
C:/temp/dataset/6/26_16.odb,Step-1,Increment      1: Step Time =    1.000,"PART-1-1",           649,           -5.,         8.125,            0.,NA,NA,"",   594.967E-03,   594.289E-03,  -28.3755E-03,   205.726E-06
C:/temp/dataset/6/26_16.odb,Step-1,Increment      1: Step Time =    1.000,"PART-1-1",           650,      -5.96903,       9.00386,            0.,NA,NA,"",   605.877E-03,   605.670E-03,  -15.8484E-03,   102.744E-06
C:/temp/dataset/6/26_16.odb,Step-1,Increment      1: Step Time =    1.000,"PART-1-1",           651,          -15.,         -3.75,            0.,NA,NA,"",   460.239E-03,   445.394E-03,   115.952E-03,   3.90786E-03
C:/temp/dataset/6/26_16.odb,Step-1,Increment      1: Step Time =    1.000,"PART-1-1",           652,      -12.7846,      -3.59401,            0.,NA,NA,"",   457.544E-03,   450.747E-03,   78.5740E-03,   1.83444E-03
C:/temp/dataset/6/26_16.odb,Step-1,Increment      1: Step Time =    1.000,"PART-1-1",           653,      -11.5430,      -4.20540,            0.,NA,NA,"",   445.627E-03,   441.705E-03,   58.9932E-03,   1.71912E-03
C:/temp/dataset/6/26_16.odb,Step-1,Increment      1: Step Time =    1.000,"PART-1-1",           654,      -10.1018,      -4.29084,            0.,NA,NA,"",   443.579E-03,   442.152E-03,   35.5582E-03,   2.15496E-03
C:/temp/dataset/6/26_16.odb,Step-1,Increment      1: Step Time =    1.000,"PART-1-1",           655,          -15.,        -11.25,            0.,NA,NA,"",   316.819E-03,   288.033E-03,   131.951E-03,   1.32889E-03
C:/temp/dataset/6/26_16.odb,Step-1,Increment      1: Step Time =    1.000,"PART-1-1",           656,      -12.2331,      -11.1785,            0.,NA,NA,"",   297.106E-03,   287.609E-03,   74.5187E-03,   3.99437E-03
C:/temp/dataset/6/26_16.odb,Step-1,Increment      1: Step Time =    1.000,"PART-1-1",           657,       5.21391,      -1.02834,            0.,NA,NA,"",   514.189E-03,   512.062E-03,  -46.7209E-03,   4.00259E-03
C:/temp/dataset/6/26_16.odb,Step-1,Increment      1: Step Time =    1.000,"PART-1-1",           658,       6.72319,      -1.59046,            0.,NA,NA,"",   517.878E-03,   515.947E-03,  -44.6880E-03,   4.34001E-03
C:/temp/dataset/6/26_16.odb,Step-1,Increment      1: Step Time =    1.000,"PART-1-1",           659,       10.9187,      -16.2245,            0.,NA,NA,"",   327.435E-03,   319.076E-03,  -73.5171E-03,   13.7505E-03
C:/temp/dataset/6/26_16.odb,Step-1,Increment      1: Step Time =    1.000,"PART-1-1",           660,       11.9858,      -14.8752,            0.,NA,NA,"",   379.902E-03,   368.184E-03,  -93.6254E-03,   10.4755E-03
C:/temp/dataset/6/26_16.odb,Step-1,Increment      1: Step Time =    1.000,"PART-1-1",           661,       10.9746,      -13.7451,            0.,NA,NA,"",   415.664E-03,   409.173E-03,  -73.1731E-03,   10.0390E-03
C:/temp/dataset/6/26_16.odb,Step-1,Increment      1: Step Time =    1.000,"PART-1-1",           662,       11.9830,      -12.5543,            0.,NA,NA,"",   448.660E-03,   439.959E-03,  -87.9335E-03,   7.11330E-03
C:/temp/dataset/6/26_16.odb,Step-1,Increment      1: Step Time =    1.000,"PART-1-1",           663,           15.,      -20.1563,            0.,NA,NA,"",   240.075E-03,   187.470E-03,  -149.970E-03,   10.5568E-03
C:/temp/dataset/6/26_16.odb,Step-1,Increment      1: Step Time =    1.000,"PART-1-1",           664,       14.0841,      -19.1367,            0.,NA,NA,"",   253.522E-03,   216.465E-03,  -131.971E-03,   8.09855E-03
C:/temp/dataset/6/26_16.odb,Step-1,Increment      1: Step Time =    1.000,"PART-1-1",           665,       13.0385,      -20.2889,            0.,NA,NA,"",   201.150E-03,   175.637E-03,  -98.0471E-03,   9.86484E-03
C:/temp/dataset/6/26_16.odb,Step-1,Increment      1: Step Time =    1.000,"PART-1-1",           666,           15.,      -17.9688,            0.,NA,NA,"",   307.137E-03,   257.882E-03,  -166.823E-03,   4.62490E-03
C:/temp/dataset/6/26_16.odb,Step-1,Increment      1: Step Time =    1.000,"PART-1-1",           667,          1.25,          -30.,            0.,NA,NA,"",            0.,   6.94780E-39,   3.90349E-39,   7.34384E-03
C:/temp/dataset/6/26_16.odb,Step-1,Increment      1: Step Time =    1.000,"PART-1-1",           668,       3.30543,      -22.6598,            0.,NA,NA,"",   85.1120E-03,   82.1528E-03,   22.2480E-03,   12.6248E-03
C:/temp/dataset/6/26_16.odb,Step-1,Increment      1: Step Time =    1.000,"PART-1-1",           669,       2.86115,      -24.1329,            0.,NA,NA,"",   66.3583E-03,   64.1943E-03,   16.8083E-03,   10.9464E-03
C:/temp/dataset/6/26_16.odb,Step-1,Increment      1: Step Time =    1.000,"PART-1-1",           670,      -10.6801,      -21.6169,            0.,NA,NA,"",   75.4735E-03,   71.1094E-03,   25.2926E-03,   3.89330E-03
C:/temp/dataset/6/26_16.odb,Step-1,Increment      1: Step Time =    1.000,"PART-1-1",           671,      -11.3394,      -20.4213,            0.,NA,NA,"",   96.5311E-03,   89.1412E-03,   37.0418E-03,   4.59605E-03
C:/temp/dataset/6/26_16.odb,Step-1,Increment      1: Step Time =    1.000,"PART-1-1",           672,      -12.1593,      -22.4638,            0.,NA,NA,"",   74.2653E-03,   63.9700E-03,   37.7250E-03,   5.44741E-03
C:/temp/dataset/6/26_16.odb,Step-1,Increment      1: Step Time =    1.000,"PART-1-1",           673,      -9.92443,      -16.4516,            0.,NA,NA,"",   162.565E-03,   160.158E-03,   27.8716E-03,   4.79229E-03
C:/temp/dataset/6/26_16.odb,Step-1,Increment      1: Step Time =    1.000,"PART-1-1",           674,      -8.71114,      -17.7111,            0.,NA,NA,"",   132.076E-03,   131.761E-03,   9.11404E-03,   4.65500E-03
C:/temp/dataset/6/26_16.odb,Step-1,Increment      1: Step Time =    1.000,"PART-1-1",           675,      -9.25100,      -7.50767,            0.,NA,NA,"",   376.658E-03,   375.965E-03,   22.8365E-03,   4.45686E-03
C:/temp/dataset/6/26_16.odb,Step-1,Increment      1: Step Time =    1.000,"PART-1-1",           676,      -8.32615,      -6.25855,            0.,NA,NA,"",   405.463E-03,   405.389E-03,   7.72541E-03,   4.69801E-03
C:/temp/dataset/6/26_16.odb,Step-1,Increment      1: Step Time =    1.000,"PART-1-1",           677,      -7.58018,      -5.09368,            0.,NA,NA,"",   432.570E-03,   432.554E-03,  -3.78408E-03,   4.63388E-03
C:/temp/dataset/6/26_16.odb,Step-1,Increment      1: Step Time =    1.000,"PART-1-1",           678,      -6.67379,      -3.84489,            0.,NA,NA,"",   458.156E-03,   457.809E-03,  -17.8195E-03,   4.21878E-03
C:/temp/dataset/6/26_16.odb,Step-1,Increment      1: Step Time =    1.000,"PART-1-1",           679,      -2.40491,      -1.03021,            0.,NA,NA,"",   497.030E-03,   494.817E-03,  -46.8532E-03,   3.57322E-03
C:/temp/dataset/6/26_16.odb,Step-1,Increment      1: Step Time =    1.000,"PART-1-1",           680,      -3.32453,      -2.14711,            0.,NA,NA,"",   486.071E-03,   484.110E-03,  -43.6174E-03,   4.95976E-03
C:/temp/dataset/6/26_16.odb,Step-1,Increment      1: Step Time =    1.000,"PART-1-1",           681,       10.4745,      -24.8101,            0.,NA,NA,"",   59.7414E-03,   55.0934E-03,  -23.1032E-03,   6.93900E-03
C:/temp/dataset/6/26_16.odb,Step-1,Increment      1: Step Time =    1.000,"PART-1-1",           682,       8.16019,      -23.0435,            0.,NA,NA,"",   81.8525E-03,   81.8313E-03,  -1.86067E-03,   5.67952E-03
C:/temp/dataset/6/26_16.odb,Step-1,Increment      1: Step Time =    1.000,"PART-1-1",           683,       9.40124,      -23.8494,            0.,NA,NA,"",   71.1731E-03,   69.6155E-03,  -14.8089E-03,   5.76627E-03
C:/temp/dataset/6/26_16.odb,Step-1,Increment      1: Step Time =    1.000,"PART-1-1",           684,       5.67200,      -27.0943,            0.,NA,NA,"",   26.0217E-03,   25.0818E-03,   6.93047E-03,   6.82830E-03
C:/temp/dataset/6/26_16.odb,Step-1,Increment      1: Step Time =    1.000,"PART-1-1",           685,       4.86106,      -26.0050,            0.,NA,NA,"",   40.8571E-03,   39.0653E-03,   11.9668E-03,   8.15012E-03
C:/temp/dataset/6/26_16.odb,Step-1,Increment      1: Step Time =    1.000,"PART-1-1",           686,      -2.55341,      -23.8484,            0.,NA,NA,"",   58.1912E-03,   57.9267E-03,  -5.54252E-03,   7.69631E-03
C:/temp/dataset/6/26_16.odb,Step-1,Increment      1: Step Time =    1.000,"PART-1-1",           687,      -4.82130,      -23.8875,            0.,NA,NA,"",   52.4531E-03,   51.5315E-03,  -9.78961E-03,   6.79335E-03
C:/temp/dataset/6/26_16.odb,Step-1,Increment      1: Step Time =    1.000,"PART-1-1",           688,      -5.84083,      -25.1777,            0.,NA,NA,"",   38.5022E-03,   38.0894E-03,  -5.62306E-03,   5.52775E-03
C:/temp/dataset/6/26_16.odb,Step-1,Increment      1: Step Time =    1.000,"PART-1-1",           689,           15.,      -26.7188,            0.,NA,NA,"",   76.7873E-03,   48.5125E-03,  -59.5216E-03,   17.8802E-03
C:/temp/dataset/6/26_16.odb,Step-1,Increment      1: Step Time =    1.000,"PART-1-1",           690,       10.9874,      -11.4075,            0.,NA,NA,"",   475.562E-03,   470.864E-03,  -66.6822E-03,   5.42138E-03
C:/temp/dataset/6/26_16.odb,Step-1,Increment      1: Step Time =    1.000,"PART-1-1",           691,       7.29436,      -19.7763,            0.,NA,NA,"",   163.240E-03,   163.224E-03,   2.29536E-03,   14.8265E-03
C:/temp/dataset/6/26_16.odb,Step-1,Increment      1: Step Time =    1.000,"PART-1-1",           692,       7.78340,      -18.7858,            0.,NA,NA,"",   206.723E-03,   206.504E-03,  -9.50785E-03,   15.6970E-03
C:/temp/dataset/6/26_16.odb,Step-1,Increment      1: Step Time =    1.000,"PART-1-1",           693,       10.8970,      -2.99004,            0.,NA,NA,"",   528.403E-03,   525.343E-03,  -56.7846E-03,   3.89340E-03
C:/temp/dataset/6/26_16.odb,Step-1,Increment      1: Step Time =    1.000,"PART-1-1",           694,       12.0828,      -3.88727,            0.,NA,NA,"",   529.426E-03,   525.517E-03,  -64.2138E-03,   3.95052E-03
C:/temp/dataset/6/26_16.odb,Step-1,Increment      1: Step Time =    1.000,"PART-1-1",           695,           15.,       1.71875,            0.,NA,NA,"",   529.444E-03,   525.264E-03,  -66.3995E-03,   516.506E-06
C:/temp/dataset/6/26_16.odb,Step-1,Increment      1: Step Time =    1.000,"PART-1-1",           696,       4.00043,  -427.215E-03,            0.,NA,NA,"",   512.822E-03,   510.450E-03,  -49.2671E-03,   3.58844E-03
C:/temp/dataset/6/26_16.odb,Step-1,Increment      1: Step Time =    1.000,"PART-1-1",           697,       2.09609,       1.00148,            0.,NA,NA,"",   514.798E-03,   512.108E-03,  -52.5507E-03,   2.94460E-03
C:/temp/dataset/6/26_16.odb,Step-1,Increment      1: Step Time =    1.000,"PART-1-1",           698,       2.38138,  -554.063E-03,            0.,NA,NA,"",   509.306E-03,   506.755E-03,  -50.9020E-03,   3.68442E-03
C:/temp/dataset/6/26_16.odb,Step-1,Increment      1: Step Time =    1.000,"PART-1-1",           699,   35.7305E-03,       2.11113,            0.,NA,NA,"",   518.732E-03,   516.096E-03,  -52.2250E-03,   2.48589E-03
C:/temp/dataset/6/26_16.odb,Step-1,Increment      1: Step Time =    1.000,"PART-1-1",           700,           -5.,       10.2083,            0.,NA,NA,"",   621.409E-03,   620.773E-03,  -28.0995E-03,   154.301E-06
C:/temp/dataset/6/26_16.odb,Step-1,Increment      1: Step Time =    1.000,"PART-1-1",           701,      -6.99901,       9.90050,            0.,NA,NA,"",   617.124E-03,   617.118E-03,  -2.82220E-03,   51.8310E-06
C:/temp/dataset/6/26_16.odb,Step-1,Increment      1: Step Time =    1.000,"PART-1-1",           702,      -11.2396,       16.2208,            0.,NA,NA,"",   698.113E-03,   696.351E-03,   49.5650E-03,   16.1261E-06
C:/temp/dataset/6/26_16.odb,Step-1,Increment      1: Step Time =    1.000,"PART-1-1",           703,      -10.2112,       15.1096,            0.,NA,NA,"",   683.420E-03,   682.425E-03,   36.8510E-03,   21.6139E-06
C:/temp/dataset/6/26_16.odb,Step-1,Increment      1: Step Time =    1.000,"PART-1-1",           704,      -9.25876,       16.3324,            0.,NA,NA,"",   698.054E-03,   697.611E-03,   24.8605E-03,   16.1189E-06
C:/temp/dataset/6/26_16.odb,Step-1,Increment      1: Step Time =    1.000,"PART-1-1",           705,      -10.2871,       17.4437,            0.,NA,NA,"",   712.528E-03,   711.536E-03,   37.5877E-03,   8.80891E-06
C:/temp/dataset/6/26_16.odb,Step-1,Increment      1: Step Time =    1.000,"PART-1-1",           706,      -8.19479,       15.2434,            0.,NA,NA,"",   684.066E-03,   683.967E-03,   11.6798E-03,   19.3971E-06
C:/temp/dataset/6/26_16.odb,Step-1,Increment      1: Step Time =    1.000,"PART-1-1",           707,      -9.19446,       14.0222,            0.,NA,NA,"",   669.248E-03,   668.807E-03,   24.2771E-03,   32.1199E-06
C:/temp/dataset/6/26_16.odb,Step-1,Increment      1: Step Time =    1.000,"PART-1-1",           708,      -8.14331,       13.0080,            0.,NA,NA,"",   656.197E-03,   656.101E-03,   11.2440E-03,   35.4205E-06
C:/temp/dataset/6/26_16.odb,Step-1,Increment      1: Step Time =    1.000,"PART-1-1",           709,          -15.,         18.75,            0.,NA,NA,"",   734.516E-03,   728.184E-03,   96.2393E-03,   2.20271E-06
C:/temp/dataset/6/26_16.odb,Step-1,Increment      1: Step Time =    1.000,"PART-1-1",           710,      -13.1826,       18.5751,            0.,NA,NA,"",   729.581E-03,   725.860E-03,   73.5912E-03,   4.82469E-06
C:/temp/dataset/6/26_16.odb,Step-1,Increment      1: Step Time =    1.000,"PART-1-1",           711,      -11.2313,       23.3702,            0.,NA,NA,"",   787.028E-03,   785.508E-03,   48.8882E-03,   280.090E-09
C:/temp/dataset/6/26_16.odb,Step-1,Increment      1: Step Time =    1.000,"PART-1-1",           712,      -10.8173,       24.9058,            0.,NA,NA,"",   805.803E-03,   804.622E-03,   43.6062E-03,   109.540E-09
C:/temp/dataset/6/26_16.odb,Step-1,Increment      1: Step Time =    1.000,"PART-1-1",           713,      -13.5418,       24.7667,            0.,NA,NA,"",   806.839E-03,   803.100E-03,   77.5884E-03,   123.984E-09
C:/temp/dataset/6/26_16.odb,Step-1,Increment      1: Step Time =    1.000,"PART-1-1",           714,      -12.2278,       25.9824,            0.,NA,NA,"",   820.434E-03,   818.155E-03,   61.1096E-03,   115.770E-09
C:/temp/dataset/6/26_16.odb,Step-1,Increment      1: Step Time =    1.000,"PART-1-1",           715,          -15.,         26.25,            0.,NA,NA,"",   827.257E-03,   821.708E-03,   95.6552E-03,   152.682E-09
C:/temp/dataset/6/26_16.odb,Step-1,Increment      1: Step Time =    1.000,"PART-1-1",           716,          -15.,         23.75,            0.,NA,NA,"",   796.325E-03,   790.536E-03,   95.8501E-03,   313.877E-09
C:/temp/dataset/6/26_16.odb,Step-1,Increment      1: Step Time =    1.000,"PART-1-1",           717,      -12.5630,       23.3034,            0.,NA,NA,"",   787.507E-03,   784.778E-03,   65.4978E-03,   158.355E-09
C:/temp/dataset/6/26_16.odb,Step-1,Increment      1: Step Time =    1.000,"PART-1-1",           718,      -11.1827,       13.8735,            0.,NA,NA,"",   668.871E-03,   667.068E-03,   49.0731E-03,   30.9631E-06
C:/temp/dataset/6/26_16.odb,Step-1,Increment      1: Step Time =    1.000,"PART-1-1",           719,      -10.1659,       12.7861,            0.,NA,NA,"",   654.468E-03,   653.449E-03,   36.5241E-03,   38.8308E-06
C:/temp/dataset/6/26_16.odb,Step-1,Increment      1: Step Time =    1.000,"PART-1-1",           720,      -11.4858,       20.4947,            0.,NA,NA,"",   751.493E-03,   749.672E-03,   52.2851E-03,   2.08713E-06
C:/temp/dataset/6/26_16.odb,Step-1,Increment      1: Step Time =    1.000,"PART-1-1",           721,      -10.4732,       19.7487,            0.,NA,NA,"",   741.357E-03,   740.292E-03,   39.7195E-03,   2.79956E-06
C:/temp/dataset/6/26_16.odb,Step-1,Increment      1: Step Time =    1.000,"PART-1-1",           722,      -10.9778,       21.7959,            0.,NA,NA,"",   767.229E-03,   765.858E-03,   45.8496E-03,   799.178E-09
C:/temp/dataset/6/26_16.odb,Step-1,Increment      1: Step Time =    1.000,"PART-1-1",           723,      -9.13796,       11.7463,            0.,NA,NA,"",   640.861E-03,   640.418E-03,   23.8165E-03,   40.1686E-06
C:/temp/dataset/6/26_16.odb,Step-1,Increment      1: Step Time =    1.000,"PART-1-1",           724,      -11.1090,       11.4975,            0.,NA,NA,"",   639.281E-03,   637.446E-03,   48.3991E-03,   34.4678E-06
C:/temp/dataset/6/26_16.odb,Step-1,Increment      1: Step Time =    1.000,"PART-1-1",           725,      -7.95801,       5.48811,            0.,NA,NA,"",   561.078E-03,   561.014E-03,   8.46144E-03,   1.52810E-03
C:/temp/dataset/6/26_16.odb,Step-1,Increment      1: Step Time =    1.000,"PART-1-1",           726,      -9.27172,       5.51676,            0.,NA,NA,"",   563.458E-03,   562.907E-03,   24.9093E-03,   1.09252E-03
C:/temp/dataset/6/26_16.odb,Step-1,Increment      1: Step Time =    1.000,"PART-1-1",           727,      -9.10783,       4.19071,            0.,NA,NA,"",   547.676E-03,   547.243E-03,   21.7816E-03,   1.84587E-03
C:/temp/dataset/6/26_16.odb,Step-1,Increment      1: Step Time =    1.000,"PART-1-1",           728,      -7.79412,       4.16207,            0.,NA,NA,"",   544.970E-03,   544.946E-03,   5.06301E-03,   2.15490E-03
C:/temp/dataset/6/26_16.odb,Step-1,Increment      1: Step Time =    1.000,"PART-1-1",           729,      -10.3652,   710.465E-03,            0.,NA,NA,"",   511.562E-03,   510.226E-03,   36.9432E-03,   2.13951E-03
C:/temp/dataset/6/26_16.odb,Step-1,Increment      1: Step Time =    1.000,"PART-1-1",           730,      -11.5756,       2.14983,            0.,NA,NA,"",   529.297E-03,   526.521E-03,   54.1399E-03,   1.83346E-03
C:/temp/dataset/6/26_16.odb,Step-1,Increment      1: Step Time =    1.000,"PART-1-1",           731,      -10.9514,      -7.70102,            0.,NA,NA,"",   374.478E-03,   370.836E-03,   52.0944E-03,   3.67315E-03
C:/temp/dataset/6/26_16.odb,Step-1,Increment      1: Step Time =    1.000,"PART-1-1",           732,      -11.1587,      -15.1039,            0.,NA,NA,"",   198.361E-03,   192.034E-03,   49.6993E-03,   4.61635E-03
C:/temp/dataset/6/26_16.odb,Step-1,Increment      1: Step Time =    1.000,"PART-1-1",           733,      -11.0422,      -12.5823,            0.,NA,NA,"",   257.359E-03,   252.193E-03,   51.3088E-03,   4.45165E-03
C:/temp/dataset/6/26_16.odb,Step-1,Increment      1: Step Time =    1.000,"PART-1-1",           734,      -9.98828,      -19.2456,            0.,NA,NA,"",   107.614E-03,   105.007E-03,   23.5439E-03,   4.14831E-03
C:/temp/dataset/6/26_16.odb,Step-1,Increment      1: Step Time =    1.000,"PART-1-1",           735,      -11.2222,      -17.6929,            0.,NA,NA,"",   143.484E-03,   136.360E-03,   44.6496E-03,   4.80591E-03
C:/temp/dataset/6/26_16.odb,Step-1,Increment      1: Step Time =    1.000,"PART-1-1",           736,      -9.72809,       26.4627,            0.,NA,NA,"",   824.493E-03,   823.950E-03,   29.9045E-03,   94.8530E-09
C:/temp/dataset/6/26_16.odb,Step-1,Increment      1: Step Time =    1.000,"PART-1-1",           737,      -8.07960,       10.7858,            0.,NA,NA,"",   628.423E-03,   628.332E-03,   10.6772E-03,   40.5174E-06
C:/temp/dataset/6/26_16.odb,Step-1,Increment      1: Step Time =    1.000,"PART-1-1",           738,      -11.3320,       18.4953,            0.,NA,NA,"",   726.485E-03,   724.726E-03,   50.5269E-03,   6.34991E-06
C:/temp/dataset/6/26_16.odb,Step-1,Increment      1: Step Time =    1.000,"PART-1-1",           739,      -10.4893,       6.32554,            0.,NA,NA,"",   575.004E-03,   573.565E-03,   40.6506E-03,   756.780E-06
C:/temp/dataset/6/26_16.odb,Step-1,Increment      1: Step Time =    1.000,"PART-1-1",           740,      -11.8356,       7.66802,            0.,NA,NA,"",   593.091E-03,   590.282E-03,   57.6588E-03,   228.580E-06
C:/temp/dataset/6/26_16.odb,Step-1,Increment      1: Step Time =    1.000,"PART-1-1",           741,      -11.4125,       4.87054,            0.,NA,NA,"",   559.446E-03,   557.016E-03,   52.0885E-03,   1.02324E-03
C:/temp/dataset/6/26_16.odb,Step-1,Increment      1: Step Time =    1.000,"PART-1-1",           742,       10.1911,      -5.79504,            0.,NA,NA,"",   525.814E-03,   523.457E-03,  -49.7219E-03,   4.87785E-03
C:/temp/dataset/6/26_16.odb,Step-1,Increment      1: Step Time =    1.000,"PART-1-1",           743,       9.10708,      -6.74300,            0.,NA,NA,"",   522.180E-03,   520.803E-03,  -37.8992E-03,   5.49713E-03
C:/temp/dataset/6/26_16.odb,Step-1,Increment      1: Step Time =    1.000,"PART-1-1",           744,       11.1638,      -4.94873,            0.,NA,NA,"",   528.072E-03,   524.841E-03,  -58.3271E-03,   4.55532E-03
C:/temp/dataset/6/26_16.odb,Step-1,Increment      1: Step Time =    1.000,"PART-1-1",           745,       10.4293,      -4.08570,            0.,NA,NA,"",   527.669E-03,   524.988E-03,  -53.1302E-03,   4.47507E-03
C:/temp/dataset/6/26_16.odb,Step-1,Increment      1: Step Time =    1.000,"PART-1-1",           746,       9.97038,      -14.8971,            0.,NA,NA,"",   376.783E-03,   372.398E-03,  -57.3186E-03,   14.0695E-03
C:/temp/dataset/6/26_16.odb,Step-1,Increment      1: Step Time =    1.000,"PART-1-1",           747,       9.96577,      -12.5508,            0.,NA,NA,"",   452.515E-03,   449.438E-03,  -52.6824E-03,   8.92669E-03
C:/temp/dataset/6/26_16.odb,Step-1,Increment      1: Step Time =    1.000,"PART-1-1",           748,       8.96159,      -13.7029,            0.,NA,NA,"",   422.476E-03,   420.759E-03,  -38.0533E-03,   12.4427E-03
C:/temp/dataset/6/26_16.odb,Step-1,Increment      1: Step Time =    1.000,"PART-1-1",           749,       6.92617,      -22.4012,            0.,NA,NA,"",   92.1054E-03,   91.2327E-03,   12.6495E-03,   6.41756E-03
C:/temp/dataset/6/26_16.odb,Step-1,Increment      1: Step Time =    1.000,"PART-1-1",           750,       5.94981,      -23.5281,            0.,NA,NA,"",   73.2653E-03,   70.9906E-03,   18.1146E-03,   7.75440E-03
C:/temp/dataset/6/26_16.odb,Step-1,Increment      1: Step Time =    1.000,"PART-1-1",           751,       7.18383,      -24.1705,            0.,NA,NA,"",   61.4485E-03,   60.9498E-03,   7.81276E-03,   5.38028E-03
C:/temp/dataset/6/26_16.odb,Step-1,Increment      1: Step Time =    1.000,"PART-1-1",           752,       11.0968,      -20.2176,            0.,NA,NA,"",   180.379E-03,   169.996E-03,  -60.3169E-03,   11.7585E-03
C:/temp/dataset/6/26_16.odb,Step-1,Increment      1: Step Time =    1.000,"PART-1-1",           753,       6.43355,      -20.8801,            0.,NA,NA,"",   122.836E-03,   121.188E-03,   20.0518E-03,   10.8250E-03
C:/temp/dataset/6/26_16.odb,Step-1,Increment      1: Step Time =    1.000,"PART-1-1",           754,       8.96045,      -11.3546,            0.,NA,NA,"",   483.853E-03,   482.757E-03,  -32.5456E-03,   6.96803E-03
C:/temp/dataset/6/26_16.odb,Step-1,Increment      1: Step Time =    1.000,"PART-1-1",           755,       8.17216,      -2.03287,            0.,NA,NA,"",   522.299E-03,   520.260E-03,  -46.1118E-03,   4.07093E-03
C:/temp/dataset/6/26_16.odb,Step-1,Increment      1: Step Time =    1.000,"PART-1-1",           756,       9.68046,      -2.49017,            0.,NA,NA,"",   526.182E-03,   523.706E-03,  -50.9887E-03,   3.97564E-03
C:/temp/dataset/6/26_16.odb,Step-1,Increment      1: Step Time =    1.000,"PART-1-1",           757,      -5.24373,       2.94722,            0.,NA,NA,"",   528.070E-03,   527.412E-03,  -26.3456E-03,   1.89104E-03
C:/temp/dataset/6/26_16.odb,Step-1,Increment      1: Step Time =    1.000,"PART-1-1",           758,      -6.20341,       3.93450,            0.,NA,NA,"",   539.250E-03,   539.050E-03,  -14.6697E-03,   2.71336E-03
C:/temp/dataset/6/26_16.odb,Step-1,Increment      1: Step Time =    1.000,"PART-1-1",           759,       7.87036,      -17.0650,            0.,NA,NA,"",   283.127E-03,   282.674E-03,  -16.0153E-03,   16.0426E-03
C:/temp/dataset/6/26_16.odb,Step-1,Increment      1: Step Time =    1.000,"PART-1-1",           760,      -8.77165,      -4.61616,            0.,NA,NA,"",   438.943E-03,   438.705E-03,   14.4544E-03,   3.29732E-03
C:/temp/dataset/6/26_16.odb,Step-1,Increment      1: Step Time =    1.000,"PART-1-1",           761,       8.90402,      -15.9271,            0.,NA,NA,"",   335.603E-03,   333.405E-03,  -38.3479E-03,   16.2135E-03
C:/temp/dataset/6/26_16.odb,Step-1,Increment      1: Step Time =    1.000,"PART-1-1",           762,       7.94609,      -14.8939,            0.,NA,NA,"",   381.537E-03,   381.004E-03,  -20.1772E-03,   15.5922E-03
C:/temp/dataset/6/26_16.odb,Step-1,Increment      1: Step Time =    1.000,"PART-1-1",           763,      -12.3095,       21.7291,            0.,NA,NA,"",   767.672E-03,   765.127E-03,   62.4590E-03,   661.926E-09
C:/temp/dataset/6/26_16.odb,Step-1,Increment      1: Step Time =    1.000,"PART-1-1",           764,      -12.2938,       19.6789,            0.,NA,NA,"",   742.189E-03,   739.559E-03,   62.4236E-03,   2.47088E-06
C:/temp/dataset/6/26_16.odb,Step-1,Increment      1: Step Time =    1.000,"PART-1-1",           765,       3.72209,      -1.78065,            0.,NA,NA,"",   508.650E-03,   506.461E-03,  -47.1450E-03,   4.02423E-03
C:/temp/dataset/6/26_16.odb,Step-1,Increment      1: Step Time =    1.000,"PART-1-1",           766,       6.45852,      -3.38063,            0.,NA,NA,"",   516.143E-03,   514.800E-03,  -37.2081E-03,   5.83773E-03
C:/temp/dataset/6/26_16.odb,Step-1,Increment      1: Step Time =    1.000,"PART-1-1",           767,       4.93556,      -2.38177,            0.,NA,NA,"",   510.772E-03,   508.935E-03,  -43.2731E-03,   5.01855E-03
C:/temp/dataset/6/26_16.odb,Step-1,Increment      1: Step Time =    1.000,"PART-1-1",           768,      -2.94024,   945.156E-03,            0.,NA,NA,"",   511.038E-03,   509.111E-03,  -44.3383E-03,   1.80486E-03
C:/temp/dataset/6/26_16.odb,Step-1,Increment      1: Step Time =    1.000,"PART-1-1",           769,      -1.69279,      -25.0756,            0.,NA,NA,"",   49.2749E-03,   49.2648E-03,  -997.033E-06,   8.29627E-03
C:/temp/dataset/6/26_16.odb,Step-1,Increment      1: Step Time =    1.000,"PART-1-1",           770,      -6.93923,      -23.9860,            0.,NA,NA,"",   45.8294E-03,   45.5060E-03,  -5.43487E-03,   3.73009E-03
C:/temp/dataset/6/26_16.odb,Step-1,Increment      1: Step Time =    1.000,"PART-1-1",           771,      -5.91970,      -22.6959,            0.,NA,NA,"",   60.0601E-03,   58.7071E-03,  -12.6763E-03,   5.36778E-03
C:/temp/dataset/6/26_16.odb,Step-1,Increment      1: Step Time =    1.000,"PART-1-1",           772,      -12.2208,       17.3915,            0.,NA,NA,"",   713.696E-03,   711.024E-03,   61.6951E-03,   7.94199E-06
C:/temp/dataset/6/26_16.odb,Step-1,Increment      1: Step Time =    1.000,"PART-1-1",           773,      -12.0398,       10.1961,            0.,NA,NA,"",   624.255E-03,   621.358E-03,   60.0648E-03,   33.1515E-06
C:/temp/dataset/6/26_16.odb,Step-1,Increment      1: Step Time =    1.000,"PART-1-1",           774,      -10.8637,      -2.91198,            0.,NA,NA,"",   465.988E-03,   463.673E-03,   46.3879E-03,   1.56277E-03
C:/temp/dataset/6/26_16.odb,Step-1,Increment      1: Step Time =    1.000,"PART-1-1",           775,      -9.61620,      -11.5179,            0.,NA,NA,"",   278.757E-03,   277.468E-03,   26.7709E-03,   4.72689E-03
C:/temp/dataset/6/26_16.odb,Step-1,Increment      1: Step Time =    1.000,"PART-1-1",           776,      -11.8201,      -24.5932,            0.,NA,NA,"",   47.3134E-03,   40.4345E-03,   24.5685E-03,   5.33030E-03
C:/temp/dataset/6/26_16.odb,Step-1,Increment      1: Step Time =    1.000,"PART-1-1",           777,      -11.0718,      -23.4296,            0.,NA,NA,"",   55.7625E-03,   50.7846E-03,   23.0300E-03,   4.15309E-03
C:/temp/dataset/6/26_16.odb,Step-1,Increment      1: Step Time =    1.000,"PART-1-1",           778,       4.75405,      -23.0816,            0.,NA,NA,"",   81.2978E-03,   77.6092E-03,   24.2102E-03,   10.1606E-03
C:/temp/dataset/6/26_16.odb,Step-1,Increment      1: Step Time =    1.000,"PART-1-1",           779,       5.55198,      -21.9930,            0.,NA,NA,"",   98.9838E-03,   95.3293E-03,   26.6479E-03,   9.95342E-03
C:/temp/dataset/6/26_16.odb,Step-1,Increment      1: Step Time =    1.000,"PART-1-1",           780,       7.01336,      -26.0950,            0.,NA,NA,"",   34.6645E-03,   34.2133E-03,   5.57503E-03,   5.61476E-03
C:/temp/dataset/6/26_16.odb,Step-1,Increment      1: Step Time =    1.000,"PART-1-1",           781,       4.10189,      -23.9882,            0.,NA,NA,"",   68.7689E-03,   65.6561E-03,   20.4557E-03,   10.4133E-03
C:/temp/dataset/6/26_16.odb,Step-1,Increment      1: Step Time =    1.000,"PART-1-1",           782,       4.14804,      -25.2051,            0.,NA,NA,"",   52.4188E-03,   50.0817E-03,   15.4776E-03,   9.43782E-03
C:/temp/dataset/6/26_16.odb,Step-1,Increment      1: Step Time =    1.000,"PART-1-1",           783,      -12.1264,       12.6156,            0.,NA,NA,"",   654.286E-03,   651.444E-03,   60.9254E-03,   34.6789E-06
C:/temp/dataset/6/26_16.odb,Step-1,Increment      1: Step Time =    1.000,"PART-1-1",           784,      -12.1709,       15.0185,            0.,NA,NA,"",   684.165E-03,   681.416E-03,   61.2688E-03,   19.8996E-06
C:/temp/dataset/6/26_16.odb,Step-1,Increment      1: Step Time =    1.000,"PART-1-1",           785,      -10.3060,       3.43341,            0.,NA,NA,"",   541.315E-03,   540.047E-03,   37.0308E-03,   1.72346E-03
C:/temp/dataset/6/26_16.odb,Step-1,Increment      1: Step Time =    1.000,"PART-1-1",           786,      -9.35047,  -311.861E-03,            0.,NA,NA,"",   499.173E-03,   498.688E-03,   22.0013E-03,   2.28649E-03
C:/temp/dataset/6/26_16.odb,Step-1,Increment      1: Step Time =    1.000,"PART-1-1",           787,      -9.47746,      -1.56252,            0.,NA,NA,"",   484.373E-03,   483.786E-03,   23.8483E-03,   2.08887E-03
C:/temp/dataset/6/26_16.odb,Step-1,Increment      1: Step Time =    1.000,"PART-1-1",           788,      -7.56677,      -1.93629,            0.,NA,NA,"",   480.823E-03,   480.804E-03,  -4.32643E-03,   2.28535E-03
C:/temp/dataset/6/26_16.odb,Step-1,Increment      1: Step Time =    1.000,"PART-1-1",           789,      -9.57637,      -3.06595,            0.,NA,NA,"",   463.807E-03,   463.074E-03,   26.0764E-03,   1.94472E-03
C:/temp/dataset/6/26_16.odb,Step-1,Increment      1: Step Time =    1.000,"PART-1-1",           790,      -8.24618,      -3.39128,            0.,NA,NA,"",   460.587E-03,   460.555E-03,   5.48957E-03,   2.91003E-03
C:/temp/dataset/6/26_16.odb,Step-1,Increment      1: Step Time =    1.000,"PART-1-1",           791,       7.98922,      -7.69035,            0.,NA,NA,"",   517.636E-03,   517.084E-03,  -23.9080E-03,   6.72243E-03
C:/temp/dataset/6/26_16.odb,Step-1,Increment      1: Step Time =    1.000,"PART-1-1",           792,       7.96586,      -10.1263,            0.,NA,NA,"",   505.271E-03,   505.025E-03,  -15.7797E-03,   7.68170E-03
C:/temp/dataset/6/26_16.odb,Step-1,Increment      1: Step Time =    1.000,"PART-1-1",           793,       7.95460,      -12.5381,            0.,NA,NA,"",   464.834E-03,   464.516E-03,  -17.1937E-03,   11.6162E-03
C:/temp/dataset/6/26_16.odb,Step-1,Increment      1: Step Time =    1.000,"PART-1-1",           794,      -6.90534,       4.84567,            0.,NA,NA,"",   551.365E-03,   551.343E-03,  -5.00347E-03,   2.34244E-03
C:/temp/dataset/6/26_16.odb,Step-1,Increment      1: Step Time =    1.000,"PART-1-1",           795,      -7.09219,       3.25090,            0.,NA,NA,"",   533.696E-03,   533.673E-03,  -4.95882E-03,   2.49698E-03
C:/temp/dataset/6/26_16.odb,Step-1,Increment      1: Step Time =    1.000,"PART-1-1",           796,      -5.99438,      -2.38990,            0.,NA,NA,"",   478.166E-03,   477.525E-03,  -24.7576E-03,   3.23941E-03
C:/temp/dataset/6/26_16.odb,Step-1,Increment      1: Step Time =    1.000,"PART-1-1",           797,      -8.16339,       2.56404,            0.,NA,NA,"",   528.362E-03,   528.306E-03,   7.71279E-03,   2.42284E-03
C:/temp/dataset/6/26_16.odb,Step-1,Increment      1: Step Time =    1.000,"PART-1-1",           798,      -6.16245,       1.98671,            0.,NA,NA,"",   520.227E-03,   519.932E-03,  -17.5344E-03,   2.07358E-03
C:/temp/dataset/6/26_16.odb,Step-1,Increment      1: Step Time =    1.000,"PART-1-1",           799,      -9.36160,       1.80674,            0.,NA,NA,"",   522.180E-03,   521.668E-03,   23.1354E-03,   2.34379E-03
C:/temp/dataset/6/26_16.odb,Step-1,Increment      1: Step Time =    1.000,"PART-1-1",           800,      -4.18828,       1.89018,            0.,NA,NA,"",   518.359E-03,   517.104E-03,  -36.0466E-03,   1.11015E-03
C:/temp/dataset/6/26_16.odb,Step-1,Increment      1: Step Time =    1.000,"PART-1-1",           801,      -2.02478,       2.01876,            0.,NA,NA,"",   518.635E-03,   516.445E-03,  -47.6082E-03,   2.18230E-03
C:/temp/dataset/6/26_16.odb,Step-1,Increment      1: Step Time =    1.000,"PART-1-1",           802,       5.29765,      -24.4346,            0.,NA,NA,"",   60.9005E-03,   58.3749E-03,   17.3563E-03,   8.34701E-03
C:/temp/dataset/6/26_16.odb,Step-1,Increment      1: Step Time =    1.000,"PART-1-1",           803,       8.18651,      -25.0309,            0.,NA,NA,"",   47.9922E-03,   47.9872E-03,  -693.954E-06,   4.43382E-03
C:/temp/dataset/6/26_16.odb,Step-1,Increment      1: Step Time =    1.000,"PART-1-1",           804,       6.01068,      -25.2345,            0.,NA,NA,"",   48.1552E-03,   46.6209E-03,   12.0586E-03,   7.06927E-03
